    1C
    1UUSER                                                              
    1UDATE              27.october.2022                                 
    1UTIME              00:34:31                                        
    1UHOST                                                              
    1UPGM               CalculiX                                        
    1UVERSION           Version 2.17                             
    1UCOMPILETIME       Thu Jul 23 21:43:50 CEST 2020                    
    1UDIR                                                               
    1UDBN                                                               
    1UMAT    1SOLIDMATERIAL                                             
    2C                          4257                                     1
 -1         1 1.56163E+01 3.06176E+01 0.00000E+00
 -1         2 2.26048E+01 2.36176E+01 0.00000E+00
 -1         3 1.50000E+02 0.00000E+00 0.00000E+00
 -1         4 1.50000E+02 5.00000E+01 0.00000E+00
 -1         5 0.00000E+00 0.00000E+00 0.00000E+00
 -1         6 0.00000E+00 5.00000E+01 0.00000E+00
 -1         7 0.00000E+00 4.69500E+01 0.00000E+00
 -1         8 0.00000E+00 4.39000E+01 0.00000E+00
 -1         9 0.00000E+00 4.08500E+01 0.00000E+00
 -1        10 0.00000E+00 3.78000E+01 0.00000E+00
 -1        11 0.00000E+00 3.47500E+01 0.00000E+00
 -1        12 0.00000E+00 3.17500E+01 0.00000E+00
 -1        13 0.00000E+00 2.88000E+01 0.00000E+00
 -1        14 0.00000E+00 2.60000E+01 0.00000E+00
 -1        15 0.00000E+00 2.34500E+01 0.00000E+00
 -1        16 0.00000E+00 2.09000E+01 0.00000E+00
 -1        17 0.00000E+00 1.82000E+01 0.00000E+00
 -1        18 0.00000E+00 1.52000E+01 0.00000E+00
 -1        19 0.00000E+00 1.21500E+01 0.00000E+00
 -1        20 0.00000E+00 9.10000E+00 0.00000E+00
 -1        21 0.00000E+00 6.05000E+00 0.00000E+00
 -1        22 0.00000E+00 3.00000E+00 0.00000E+00
 -1        23 3.15000E+00 5.00000E+01 0.00000E+00
 -1        24 6.15000E+00 5.00000E+01 0.00000E+00
 -1        25 9.15000E+00 5.00000E+01 0.00000E+00
 -1        26 1.21500E+01 5.00000E+01 0.00000E+00
 -1        27 1.51500E+01 5.00000E+01 0.00000E+00
 -1        28 1.81500E+01 5.00000E+01 0.00000E+00
 -1        29 2.11500E+01 5.00000E+01 0.00000E+00
 -1        30 2.41500E+01 5.00000E+01 0.00000E+00
 -1        31 2.71500E+01 5.00000E+01 0.00000E+00
 -1        32 3.01500E+01 5.00000E+01 0.00000E+00
 -1        33 3.31500E+01 5.00000E+01 0.00000E+00
 -1        34 3.61500E+01 5.00000E+01 0.00000E+00
 -1        35 3.91500E+01 5.00000E+01 0.00000E+00
 -1        36 4.21500E+01 5.00000E+01 0.00000E+00
 -1        37 4.51500E+01 5.00000E+01 0.00000E+00
 -1        38 4.81500E+01 5.00000E+01 0.00000E+00
 -1        39 5.11500E+01 5.00000E+01 0.00000E+00
 -1        40 5.41500E+01 5.00000E+01 0.00000E+00
 -1        41 5.71500E+01 5.00000E+01 0.00000E+00
 -1        42 6.01500E+01 5.00000E+01 0.00000E+00
 -1        43 6.31500E+01 5.00000E+01 0.00000E+00
 -1        44 6.61500E+01 5.00000E+01 0.00000E+00
 -1        45 6.91500E+01 5.00000E+01 0.00000E+00
 -1        46 7.21500E+01 5.00000E+01 0.00000E+00
 -1        47 7.51500E+01 5.00000E+01 0.00000E+00
 -1        48 7.81500E+01 5.00000E+01 0.00000E+00
 -1        49 8.11500E+01 5.00000E+01 0.00000E+00
 -1        50 8.41500E+01 5.00000E+01 0.00000E+00
 -1        51 8.71500E+01 5.00000E+01 0.00000E+00
 -1        52 9.01500E+01 5.00000E+01 0.00000E+00
 -1        53 9.31500E+01 5.00000E+01 0.00000E+00
 -1        54 9.61500E+01 5.00000E+01 0.00000E+00
 -1        55 9.91500E+01 5.00000E+01 0.00000E+00
 -1        56 1.02150E+02 5.00000E+01 0.00000E+00
 -1        57 1.05150E+02 5.00000E+01 0.00000E+00
 -1        58 1.08150E+02 5.00000E+01 0.00000E+00
 -1        59 1.11150E+02 5.00000E+01 0.00000E+00
 -1        60 1.14150E+02 5.00000E+01 0.00000E+00
 -1        61 1.17150E+02 5.00000E+01 0.00000E+00
 -1        62 1.20150E+02 5.00000E+01 0.00000E+00
 -1        63 1.23150E+02 5.00000E+01 0.00000E+00
 -1        64 1.26150E+02 5.00000E+01 0.00000E+00
 -1        65 1.29150E+02 5.00000E+01 0.00000E+00
 -1        66 1.32150E+02 5.00000E+01 0.00000E+00
 -1        67 1.35150E+02 5.00000E+01 0.00000E+00
 -1        68 1.38150E+02 5.00000E+01 0.00000E+00
 -1        69 1.41150E+02 5.00000E+01 0.00000E+00
 -1        70 1.44150E+02 5.00000E+01 0.00000E+00
 -1        71 1.47150E+02 5.00000E+01 0.00000E+00
 -1        72 3.15000E+00 0.00000E+00 0.00000E+00
 -1        73 6.15000E+00 0.00000E+00 0.00000E+00
 -1        74 9.15000E+00 0.00000E+00 0.00000E+00
 -1        75 1.21500E+01 0.00000E+00 0.00000E+00
 -1        76 1.51500E+01 0.00000E+00 0.00000E+00
 -1        77 1.81500E+01 0.00000E+00 0.00000E+00
 -1        78 2.11500E+01 0.00000E+00 0.00000E+00
 -1        79 2.41500E+01 0.00000E+00 0.00000E+00
 -1        80 2.71500E+01 0.00000E+00 0.00000E+00
 -1        81 3.01500E+01 0.00000E+00 0.00000E+00
 -1        82 3.31500E+01 0.00000E+00 0.00000E+00
 -1        83 3.61500E+01 0.00000E+00 0.00000E+00
 -1        84 3.91500E+01 0.00000E+00 0.00000E+00
 -1        85 4.21500E+01 0.00000E+00 0.00000E+00
 -1        86 4.51500E+01 0.00000E+00 0.00000E+00
 -1        87 4.81500E+01 0.00000E+00 0.00000E+00
 -1        88 5.11500E+01 0.00000E+00 0.00000E+00
 -1        89 5.41500E+01 0.00000E+00 0.00000E+00
 -1        90 5.71500E+01 0.00000E+00 0.00000E+00
 -1        91 6.01500E+01 0.00000E+00 0.00000E+00
 -1        92 6.31500E+01 0.00000E+00 0.00000E+00
 -1        93 6.61500E+01 0.00000E+00 0.00000E+00
 -1        94 6.91500E+01 0.00000E+00 0.00000E+00
 -1        95 7.21500E+01 0.00000E+00 0.00000E+00
 -1        96 7.51500E+01 0.00000E+00 0.00000E+00
 -1        97 7.81500E+01 0.00000E+00 0.00000E+00
 -1        98 8.11500E+01 0.00000E+00 0.00000E+00
 -1        99 8.41500E+01 0.00000E+00 0.00000E+00
 -1       100 8.71500E+01 0.00000E+00 0.00000E+00
 -1       101 9.01500E+01 0.00000E+00 0.00000E+00
 -1       102 9.31500E+01 0.00000E+00 0.00000E+00
 -1       103 9.61500E+01 0.00000E+00 0.00000E+00
 -1       104 9.91500E+01 0.00000E+00 0.00000E+00
 -1       105 1.02150E+02 0.00000E+00 0.00000E+00
 -1       106 1.05150E+02 0.00000E+00 0.00000E+00
 -1       107 1.08150E+02 0.00000E+00 0.00000E+00
 -1       108 1.11150E+02 0.00000E+00 0.00000E+00
 -1       109 1.14150E+02 0.00000E+00 0.00000E+00
 -1       110 1.17150E+02 0.00000E+00 0.00000E+00
 -1       111 1.20150E+02 0.00000E+00 0.00000E+00
 -1       112 1.23150E+02 0.00000E+00 0.00000E+00
 -1       113 1.26150E+02 0.00000E+00 0.00000E+00
 -1       114 1.29150E+02 0.00000E+00 0.00000E+00
 -1       115 1.32150E+02 0.00000E+00 0.00000E+00
 -1       116 1.35150E+02 0.00000E+00 0.00000E+00
 -1       117 1.38150E+02 0.00000E+00 0.00000E+00
 -1       118 1.41150E+02 0.00000E+00 0.00000E+00
 -1       119 1.44150E+02 0.00000E+00 0.00000E+00
 -1       120 1.47150E+02 0.00000E+00 0.00000E+00
 -1       121 1.50000E+02 2.95000E+00 0.00000E+00
 -1       122 1.50000E+02 5.90000E+00 0.00000E+00
 -1       123 1.50000E+02 8.85000E+00 0.00000E+00
 -1       124 1.50000E+02 1.18000E+01 0.00000E+00
 -1       125 1.50000E+02 1.47500E+01 0.00000E+00
 -1       126 1.50000E+02 1.76500E+01 0.00000E+00
 -1       127 1.50000E+02 2.06000E+01 0.00000E+00
 -1       128 1.50000E+02 2.35500E+01 0.00000E+00
 -1       129 1.50000E+02 2.65000E+01 0.00000E+00
 -1       130 1.50000E+02 2.94500E+01 0.00000E+00
 -1       131 1.50000E+02 3.24000E+01 0.00000E+00
 -1       132 1.50000E+02 3.53000E+01 0.00000E+00
 -1       133 1.50000E+02 3.82500E+01 0.00000E+00
 -1       134 1.50000E+02 4.12000E+01 0.00000E+00
 -1       135 1.50000E+02 4.41500E+01 0.00000E+00
 -1       136 1.50000E+02 4.71000E+01 0.00000E+00
 -1       137 2.24232E+01 2.20334E+01 0.00000E+00
 -1       138 2.19216E+01 2.06012E+01 0.00000E+00
 -1       139 2.11746E+01 1.93776E+01 0.00000E+00
 -1       140 2.01250E+01 1.82727E+01 0.00000E+00
 -1       141 1.88500E+01 1.74153E+01 0.00000E+00
 -1       142 1.74917E+01 1.68767E+01 0.00000E+00
 -1       143 1.59372E+01 1.66255E+01 0.00000E+00
 -1       144 1.45056E+01 1.67045E+01 0.00000E+00
 -1       145 1.30532E+01 1.70992E+01 0.00000E+00
 -1       146 1.17042E+01 1.78051E+01 0.00000E+00
 -1       147 1.06363E+01 1.86867E+01 0.00000E+00
 -1       148 9.70793E+00 1.98458E+01 0.00000E+00
 -1       149 9.04158E+00 2.11837E+01 0.00000E+00
 -1       150 8.68643E+00 2.25519E+01 0.00000E+00
 -1       151 8.62234E+00 2.41125E+01 0.00000E+00
 -1       152 8.87660E+00 2.55492E+01 0.00000E+00
 -1       153 9.50164E+00 2.70456E+01 0.00000E+00
 -1       154 1.03244E+01 2.82130E+01 0.00000E+00
 -1       155 1.14721E+01 2.92674E+01 0.00000E+00
 -1       156 1.26721E+01 2.99737E+01 0.00000E+00
 -1       157 1.41550E+01 3.04658E+01 0.00000E+00
 -1       158 1.71376E+01 3.04477E+01 0.00000E+00
 -1       159 1.86952E+01 2.98985E+01 0.00000E+00
 -1       160 1.99820E+01 2.90802E+01 0.00000E+00
 -1       161 2.10411E+01 2.80275E+01 0.00000E+00
 -1       162 2.18926E+01 2.66939E+01 0.00000E+00
 -1       163 2.24192E+01 2.52190E+01 0.00000E+00
 -1       164 2.59800E+00 4.54250E+01 0.00000E+00
 -1       165 2.59800E+00 4.23750E+01 0.00000E+00
 -1       166 2.59800E+00 3.93250E+01 0.00000E+00
 -1       167 2.59800E+00 3.62750E+01 0.00000E+00
 -1       168 2.59800E+00 3.32750E+01 0.00000E+00
 -1       169 2.59800E+00 3.03250E+01 0.00000E+00
 -1       170 2.59800E+00 2.75250E+01 0.00000E+00
 -1       171 2.59800E+00 2.49750E+01 0.00000E+00
 -1       172 2.59800E+00 2.24250E+01 0.00000E+00
 -1       173 2.59800E+00 1.97250E+01 0.00000E+00
 -1       174 2.59800E+00 1.67250E+01 0.00000E+00
 -1       175 2.59800E+00 1.36750E+01 0.00000E+00
 -1       176 2.59800E+00 1.06250E+01 0.00000E+00
 -1       177 2.59800E+00 7.57500E+00 0.00000E+00
 -1       178 2.59800E+00 4.52500E+00 0.00000E+00
 -1       179 2.87400E+00 2.26250E+00 0.00000E+00
 -1       180 4.65000E+00 4.74020E+01 0.00000E+00
 -1       181 7.65000E+00 4.74020E+01 0.00000E+00
 -1       182 1.06500E+01 4.74020E+01 0.00000E+00
 -1       183 1.36500E+01 4.74020E+01 0.00000E+00
 -1       184 1.66500E+01 4.74020E+01 0.00000E+00
 -1       185 1.96500E+01 4.74020E+01 0.00000E+00
 -1       186 2.26500E+01 4.74020E+01 0.00000E+00
 -1       187 2.56500E+01 4.74020E+01 0.00000E+00
 -1       188 2.86500E+01 4.74020E+01 0.00000E+00
 -1       189 3.16500E+01 4.74020E+01 0.00000E+00
 -1       190 3.46500E+01 4.74020E+01 0.00000E+00
 -1       191 3.76500E+01 4.74020E+01 0.00000E+00
 -1       192 4.06500E+01 4.74020E+01 0.00000E+00
 -1       193 4.36500E+01 4.74020E+01 0.00000E+00
 -1       194 4.66500E+01 4.74020E+01 0.00000E+00
 -1       195 4.96500E+01 4.74020E+01 0.00000E+00
 -1       196 5.26500E+01 4.74020E+01 0.00000E+00
 -1       197 5.56500E+01 4.74020E+01 0.00000E+00
 -1       198 5.86500E+01 4.74020E+01 0.00000E+00
 -1       199 6.16500E+01 4.74020E+01 0.00000E+00
 -1       200 6.46500E+01 4.74020E+01 0.00000E+00
 -1       201 6.76500E+01 4.74020E+01 0.00000E+00
 -1       202 7.06500E+01 4.74020E+01 0.00000E+00
 -1       203 7.36500E+01 4.74020E+01 0.00000E+00
 -1       204 7.66500E+01 4.74020E+01 0.00000E+00
 -1       205 7.96500E+01 4.74020E+01 0.00000E+00
 -1       206 8.26500E+01 4.74020E+01 0.00000E+00
 -1       207 8.56500E+01 4.74020E+01 0.00000E+00
 -1       208 8.86500E+01 4.74020E+01 0.00000E+00
 -1       209 9.16500E+01 4.74020E+01 0.00000E+00
 -1       210 9.46500E+01 4.74020E+01 0.00000E+00
 -1       211 9.76500E+01 4.74020E+01 0.00000E+00
 -1       212 1.00650E+02 4.74020E+01 0.00000E+00
 -1       213 1.03650E+02 4.74020E+01 0.00000E+00
 -1       214 1.06650E+02 4.74020E+01 0.00000E+00
 -1       215 1.09650E+02 4.74020E+01 0.00000E+00
 -1       216 1.12650E+02 4.74020E+01 0.00000E+00
 -1       217 1.15650E+02 4.74020E+01 0.00000E+00
 -1       218 1.18650E+02 4.74020E+01 0.00000E+00
 -1       219 1.21650E+02 4.74020E+01 0.00000E+00
 -1       220 1.24650E+02 4.74020E+01 0.00000E+00
 -1       221 1.27650E+02 4.74020E+01 0.00000E+00
 -1       222 1.30650E+02 4.74020E+01 0.00000E+00
 -1       223 1.33650E+02 4.74020E+01 0.00000E+00
 -1       224 1.36650E+02 4.74020E+01 0.00000E+00
 -1       225 1.39650E+02 4.74020E+01 0.00000E+00
 -1       226 1.42650E+02 4.74020E+01 0.00000E+00
 -1       227 1.45650E+02 4.74020E+01 0.00000E+00
 -1       228 5.87400E+00 2.26250E+00 0.00000E+00
 -1       229 8.87400E+00 2.26250E+00 0.00000E+00
 -1       230 1.18740E+01 2.26250E+00 0.00000E+00
 -1       231 1.48740E+01 2.26250E+00 0.00000E+00
 -1       232 1.78740E+01 2.26250E+00 0.00000E+00
 -1       233 2.08740E+01 2.26250E+00 0.00000E+00
 -1       234 2.38740E+01 2.26250E+00 0.00000E+00
 -1       235 2.68740E+01 2.26250E+00 0.00000E+00
 -1       236 2.98740E+01 2.26250E+00 0.00000E+00
 -1       237 3.28740E+01 2.26250E+00 0.00000E+00
 -1       238 3.58740E+01 2.26250E+00 0.00000E+00
 -1       239 3.88740E+01 2.26250E+00 0.00000E+00
 -1       240 4.18740E+01 2.26250E+00 0.00000E+00
 -1       241 4.48740E+01 2.26250E+00 0.00000E+00
 -1       242 4.78740E+01 2.26250E+00 0.00000E+00
 -1       243 5.08740E+01 2.26250E+00 0.00000E+00
 -1       244 5.38740E+01 2.26250E+00 0.00000E+00
 -1       245 5.68740E+01 2.26250E+00 0.00000E+00
 -1       246 5.98740E+01 2.26250E+00 0.00000E+00
 -1       247 6.28740E+01 2.26250E+00 0.00000E+00
 -1       248 6.58740E+01 2.26250E+00 0.00000E+00
 -1       249 6.88740E+01 2.26250E+00 0.00000E+00
 -1       250 7.18740E+01 2.26250E+00 0.00000E+00
 -1       251 7.48740E+01 2.26250E+00 0.00000E+00
 -1       252 7.78740E+01 2.26250E+00 0.00000E+00
 -1       253 8.08740E+01 2.26250E+00 0.00000E+00
 -1       254 8.38740E+01 2.26250E+00 0.00000E+00
 -1       255 8.68740E+01 2.26250E+00 0.00000E+00
 -1       256 8.98740E+01 2.26250E+00 0.00000E+00
 -1       257 9.28740E+01 2.26250E+00 0.00000E+00
 -1       258 9.58740E+01 2.26250E+00 0.00000E+00
 -1       259 9.88740E+01 2.26250E+00 0.00000E+00
 -1       260 1.01874E+02 2.26250E+00 0.00000E+00
 -1       261 1.04874E+02 2.26250E+00 0.00000E+00
 -1       262 1.07874E+02 2.26250E+00 0.00000E+00
 -1       263 1.10874E+02 2.26250E+00 0.00000E+00
 -1       264 1.13874E+02 2.26250E+00 0.00000E+00
 -1       265 1.16874E+02 2.26250E+00 0.00000E+00
 -1       266 1.19874E+02 2.26250E+00 0.00000E+00
 -1       267 1.22874E+02 2.26250E+00 0.00000E+00
 -1       268 1.25874E+02 2.26250E+00 0.00000E+00
 -1       269 1.28874E+02 2.26250E+00 0.00000E+00
 -1       270 1.31874E+02 2.26250E+00 0.00000E+00
 -1       271 1.34874E+02 2.26250E+00 0.00000E+00
 -1       272 1.37874E+02 2.26250E+00 0.00000E+00
 -1       273 1.40874E+02 2.26250E+00 0.00000E+00
 -1       274 1.43874E+02 2.26250E+00 0.00000E+00
 -1       275 1.46874E+02 2.26250E+00 0.00000E+00
 -1       276 1.47402E+02 4.42500E+00 0.00000E+00
 -1       277 1.47402E+02 7.37500E+00 0.00000E+00
 -1       278 1.47402E+02 1.03250E+01 0.00000E+00
 -1       279 1.47402E+02 1.32750E+01 0.00000E+00
 -1       280 1.47402E+02 1.61750E+01 0.00000E+00
 -1       281 1.47402E+02 1.91250E+01 0.00000E+00
 -1       282 1.47402E+02 2.20750E+01 0.00000E+00
 -1       283 1.47402E+02 2.50250E+01 0.00000E+00
 -1       284 1.47402E+02 2.79750E+01 0.00000E+00
 -1       285 1.47402E+02 3.09250E+01 0.00000E+00
 -1       286 1.47402E+02 3.38250E+01 0.00000E+00
 -1       287 1.47402E+02 3.67750E+01 0.00000E+00
 -1       288 1.47402E+02 3.97250E+01 0.00000E+00
 -1       289 1.47402E+02 4.26750E+01 0.00000E+00
 -1       290 1.46526E+02 4.50385E+01 0.00000E+00
 -1       291 2.40515E+01 2.26492E+01 0.00000E+00
 -1       292 2.33957E+01 2.08889E+01 0.00000E+00
 -1       293 2.26544E+01 1.93141E+01 0.00000E+00
 -1       294 2.15895E+01 1.79324E+01 0.00000E+00
 -1       295 2.03510E+01 1.65598E+01 0.00000E+00
 -1       296 1.86486E+01 1.59411E+01 0.00000E+00
 -1       297 1.69346E+01 1.53888E+01 0.00000E+00
 -1       298 1.51546E+01 1.54544E+01 0.00000E+00
 -1       299 1.34394E+01 1.56510E+01 0.00000E+00
 -1       300 1.17778E+01 1.63037E+01 0.00000E+00
 -1       301 1.03984E+01 1.73109E+01 0.00000E+00
 -1       302 9.22586E+00 1.85083E+01 0.00000E+00
 -1       303 8.28951E+00 1.99743E+01 0.00000E+00
 -1       304 7.69050E+00 2.15632E+01 0.00000E+00
 -1       305 7.10816E+00 2.32687E+01 0.00000E+00
 -1       306 7.55562E+00 2.50421E+01 0.00000E+00
 -1       307 7.83845E+00 2.68616E+01 0.00000E+00
 -1       308 8.85357E+00 2.83760E+01 0.00000E+00
 -1       309 9.90793E+00 2.98181E+01 0.00000E+00
 -1       310 1.14572E+01 3.06654E+01 0.00000E+00
 -1       311 1.29789E+01 3.15295E+01 0.00000E+00
 -1       312 1.47517E+01 3.18310E+01 0.00000E+00
 -1       313 1.65114E+01 3.17376E+01 0.00000E+00
 -1       314 1.83753E+01 3.14746E+01 0.00000E+00
 -1       315 1.99892E+01 3.05124E+01 0.00000E+00
 -1       316 2.13663E+01 2.94137E+01 0.00000E+00
 -1       317 2.25593E+01 2.80583E+01 0.00000E+00
 -1       318 2.32977E+01 2.63641E+01 0.00000E+00
 -1       319 2.38828E+01 2.45772E+01 0.00000E+00
 -1       320 3.38220E+00 4.66086E+01 0.00000E+00
 -1       321 5.19600E+00 4.08500E+01 0.00000E+00
 -1       322 5.19600E+00 4.39000E+01 0.00000E+00
 -1       323 5.19600E+00 3.47750E+01 0.00000E+00
 -1       324 5.19600E+00 3.18250E+01 0.00000E+00
 -1       325 5.19600E+00 2.90250E+01 0.00000E+00
 -1       326 4.48068E+00 2.37000E+01 0.00000E+00
 -1       327 4.64824E+00 2.10750E+01 0.00000E+00
 -1       328 4.81582E+00 1.82250E+01 0.00000E+00
 -1       329 4.81582E+00 1.51750E+01 0.00000E+00
 -1       330 4.81582E+00 1.21250E+01 0.00000E+00
 -1       331 4.81582E+00 9.07500E+00 0.00000E+00
 -1       332 4.81582E+00 6.02500E+00 0.00000E+00
 -1       333 5.34491E+00 4.14375E+00 0.00000E+00
 -1       334 8.34491E+00 4.14375E+00 0.00000E+00
 -1       335 9.15000E+00 4.48040E+01 0.00000E+00
 -1       336 1.21500E+01 4.48040E+01 0.00000E+00
 -1       337 1.51500E+01 4.48040E+01 0.00000E+00
 -1       338 1.81500E+01 4.48040E+01 0.00000E+00
 -1       339 2.11500E+01 4.48040E+01 0.00000E+00
 -1       340 2.41500E+01 4.48040E+01 0.00000E+00
 -1       341 2.71500E+01 4.48040E+01 0.00000E+00
 -1       342 3.01500E+01 4.48040E+01 0.00000E+00
 -1       343 3.31500E+01 4.48040E+01 0.00000E+00
 -1       344 3.61500E+01 4.48040E+01 0.00000E+00
 -1       345 3.91500E+01 4.48040E+01 0.00000E+00
 -1       346 4.21500E+01 4.48040E+01 0.00000E+00
 -1       347 4.51500E+01 4.48040E+01 0.00000E+00
 -1       348 4.81500E+01 4.48040E+01 0.00000E+00
 -1       349 5.11500E+01 4.48040E+01 0.00000E+00
 -1       350 5.41500E+01 4.48040E+01 0.00000E+00
 -1       351 5.71500E+01 4.48040E+01 0.00000E+00
 -1       352 6.01500E+01 4.48040E+01 0.00000E+00
 -1       353 6.31500E+01 4.48040E+01 0.00000E+00
 -1       354 6.61500E+01 4.48040E+01 0.00000E+00
 -1       355 6.91500E+01 4.48040E+01 0.00000E+00
 -1       356 7.21500E+01 4.48040E+01 0.00000E+00
 -1       357 7.51500E+01 4.48040E+01 0.00000E+00
 -1       358 7.81500E+01 4.48040E+01 0.00000E+00
 -1       359 8.11500E+01 4.48040E+01 0.00000E+00
 -1       360 8.41500E+01 4.48040E+01 0.00000E+00
 -1       361 8.71500E+01 4.48040E+01 0.00000E+00
 -1       362 9.01500E+01 4.48040E+01 0.00000E+00
 -1       363 9.31500E+01 4.48040E+01 0.00000E+00
 -1       364 9.61500E+01 4.48040E+01 0.00000E+00
 -1       365 9.91500E+01 4.48040E+01 0.00000E+00
 -1       366 1.02150E+02 4.48040E+01 0.00000E+00
 -1       367 1.05150E+02 4.48040E+01 0.00000E+00
 -1       368 1.08150E+02 4.48040E+01 0.00000E+00
 -1       369 1.11150E+02 4.48040E+01 0.00000E+00
 -1       370 1.14150E+02 4.48040E+01 0.00000E+00
 -1       371 1.17150E+02 4.48040E+01 0.00000E+00
 -1       372 1.20150E+02 4.48040E+01 0.00000E+00
 -1       373 1.23150E+02 4.48040E+01 0.00000E+00
 -1       374 1.26150E+02 4.48040E+01 0.00000E+00
 -1       375 1.29150E+02 4.48040E+01 0.00000E+00
 -1       376 1.32150E+02 4.48040E+01 0.00000E+00
 -1       377 1.35150E+02 4.48040E+01 0.00000E+00
 -1       378 1.38150E+02 4.48040E+01 0.00000E+00
 -1       379 1.41150E+02 4.48040E+01 0.00000E+00
 -1       380 1.43838E+02 4.49212E+01 0.00000E+00
 -1       381 1.13449E+01 4.14375E+00 0.00000E+00
 -1       382 1.43449E+01 4.14375E+00 0.00000E+00
 -1       383 1.73449E+01 4.14375E+00 0.00000E+00
 -1       384 2.03449E+01 4.14375E+00 0.00000E+00
 -1       385 2.33449E+01 4.14375E+00 0.00000E+00
 -1       386 2.63449E+01 4.14375E+00 0.00000E+00
 -1       387 2.93449E+01 4.14375E+00 0.00000E+00
 -1       388 3.23449E+01 4.14375E+00 0.00000E+00
 -1       389 3.53449E+01 4.14375E+00 0.00000E+00
 -1       390 3.83449E+01 4.14375E+00 0.00000E+00
 -1       391 4.13449E+01 4.14375E+00 0.00000E+00
 -1       392 4.43449E+01 4.14375E+00 0.00000E+00
 -1       393 4.73449E+01 4.14375E+00 0.00000E+00
 -1       394 5.03449E+01 4.14375E+00 0.00000E+00
 -1       395 5.33449E+01 4.14375E+00 0.00000E+00
 -1       396 5.63449E+01 4.14375E+00 0.00000E+00
 -1       397 5.93449E+01 4.14375E+00 0.00000E+00
 -1       398 6.23449E+01 4.14375E+00 0.00000E+00
 -1       399 6.53449E+01 4.14375E+00 0.00000E+00
 -1       400 6.83449E+01 4.14375E+00 0.00000E+00
 -1       401 7.13449E+01 4.14375E+00 0.00000E+00
 -1       402 7.43449E+01 4.14375E+00 0.00000E+00
 -1       403 7.73449E+01 4.14375E+00 0.00000E+00
 -1       404 8.03449E+01 4.14375E+00 0.00000E+00
 -1       405 8.33449E+01 4.14375E+00 0.00000E+00
 -1       406 8.63449E+01 4.14375E+00 0.00000E+00
 -1       407 8.93449E+01 4.14375E+00 0.00000E+00
 -1       408 9.23449E+01 4.14375E+00 0.00000E+00
 -1       409 9.53449E+01 4.14375E+00 0.00000E+00
 -1       410 9.83449E+01 4.14375E+00 0.00000E+00
 -1       411 1.01345E+02 4.14375E+00 0.00000E+00
 -1       412 1.04345E+02 4.14375E+00 0.00000E+00
 -1       413 1.07345E+02 4.14375E+00 0.00000E+00
 -1       414 1.10345E+02 4.14375E+00 0.00000E+00
 -1       415 1.13345E+02 4.14375E+00 0.00000E+00
 -1       416 1.16345E+02 4.14375E+00 0.00000E+00
 -1       417 1.19345E+02 4.14375E+00 0.00000E+00
 -1       418 1.22345E+02 4.14375E+00 0.00000E+00
 -1       419 1.25345E+02 4.14375E+00 0.00000E+00
 -1       420 1.28345E+02 4.14375E+00 0.00000E+00
 -1       421 1.31345E+02 4.14375E+00 0.00000E+00
 -1       422 1.34345E+02 4.14375E+00 0.00000E+00
 -1       423 1.37345E+02 4.14375E+00 0.00000E+00
 -1       424 1.40345E+02 4.14375E+00 0.00000E+00
 -1       425 1.43345E+02 4.14375E+00 0.00000E+00
 -1       426 1.45373E+02 4.28438E+00 0.00000E+00
 -1       427 1.44804E+02 1.18000E+01 0.00000E+00
 -1       428 1.44804E+02 8.85000E+00 0.00000E+00
 -1       429 1.45089E+02 6.56719E+00 0.00000E+00
 -1       430 1.44804E+02 1.47000E+01 0.00000E+00
 -1       431 1.44804E+02 1.76500E+01 0.00000E+00
 -1       432 1.44804E+02 2.06000E+01 0.00000E+00
 -1       433 1.44804E+02 2.35500E+01 0.00000E+00
 -1       434 1.44804E+02 2.65000E+01 0.00000E+00
 -1       435 1.44804E+02 2.94500E+01 0.00000E+00
 -1       436 1.44804E+02 3.23500E+01 0.00000E+00
 -1       437 1.44804E+02 3.53000E+01 0.00000E+00
 -1       438 1.44804E+02 3.82500E+01 0.00000E+00
 -1       439 1.44804E+02 4.12000E+01 0.00000E+00
 -1       440 2.42736E+01 1.95137E+01 0.00000E+00
 -1       441 2.55088E+01 2.37481E+01 0.00000E+00
 -1       442 2.49294E+01 2.12741E+01 0.00000E+00
 -1       443 2.32150E+01 1.77808E+01 0.00000E+00
 -1       444 2.21815E+01 1.61533E+01 0.00000E+00
 -1       445 5.19600E+00 3.78125E+01 0.00000E+00
 -1       446 1.82662E+01 1.41920E+01 0.00000E+00
 -1       447 1.59845E+01 1.37914E+01 0.00000E+00
 -1       448 1.42693E+01 1.39880E+01 0.00000E+00
 -1       449 1.20428E+01 1.45370E+01 0.00000E+00
 -1       450 1.01755E+01 1.55575E+01 0.00000E+00
 -1       451 8.82620E+00 1.69441E+01 0.00000E+00
 -1       452 7.45349E+00 1.84083E+01 0.00000E+00
 -1       453 6.77716E+00 2.03115E+01 0.00000E+00
 -1       454 6.19482E+00 2.20170E+01 0.00000E+00
 -1       455 5.83138E+00 2.45340E+01 0.00000E+00
 -1       456 6.11421E+00 2.63534E+01 0.00000E+00
 -1       457 7.26932E+00 2.83405E+01 0.00000E+00
 -1       458 8.26678E+00 2.99115E+01 0.00000E+00
 -1       459 9.93996E+00 3.15995E+01 0.00000E+00
 -1       460 1.14617E+01 3.24635E+01 0.00000E+00
 -1       461 1.35777E+01 3.33710E+01 0.00000E+00
 -1       462 1.57003E+01 3.30786E+01 0.00000E+00
 -1       463 1.76596E+01 3.31384E+01 0.00000E+00
 -1       464 2.00605E+01 3.24667E+01 0.00000E+00
 -1       465 2.15384E+01 3.10418E+01 0.00000E+00
 -1       466 2.31245E+01 2.97585E+01 0.00000E+00
 -1       467 2.41936E+01 2.77625E+01 0.00000E+00
 -1       468 2.49017E+01 2.59001E+01 0.00000E+00
 -1       469 1.99686E+01 1.48107E+01 0.00000E+00
 -1       470 4.81582E+00 2.62500E+01 0.00000E+00
 -1       471 2.63867E+01 2.23730E+01 0.00000E+00
 -1       472 7.24625E+00 3.33000E+01 0.00000E+00
 -1       473 1.74074E+01 1.23849E+01 0.00000E+00
 -1       474 7.03365E+00 1.67000E+01 0.00000E+00
 -1       475 7.41382E+00 7.55000E+00 0.00000E+00
 -1       476 7.87937E+00 5.84688E+00 0.00000E+00
 -1       477 1.06500E+01 4.22060E+01 0.00000E+00
 -1       478 1.08794E+01 5.84688E+00 0.00000E+00
 -1       479 1.38794E+01 5.84688E+00 0.00000E+00
 -1       480 1.36500E+01 4.22060E+01 0.00000E+00
 -1       481 1.66500E+01 4.22060E+01 0.00000E+00
 -1       482 1.96500E+01 4.22060E+01 0.00000E+00
 -1       483 2.26500E+01 4.22060E+01 0.00000E+00
 -1       484 2.56500E+01 4.22060E+01 0.00000E+00
 -1       485 2.86500E+01 4.22060E+01 0.00000E+00
 -1       486 3.16500E+01 4.22060E+01 0.00000E+00
 -1       487 3.46500E+01 4.22060E+01 0.00000E+00
 -1       488 3.76500E+01 4.22060E+01 0.00000E+00
 -1       489 4.06500E+01 4.22060E+01 0.00000E+00
 -1       490 4.36500E+01 4.22060E+01 0.00000E+00
 -1       491 4.66500E+01 4.22060E+01 0.00000E+00
 -1       492 4.96500E+01 4.22060E+01 0.00000E+00
 -1       493 5.26500E+01 4.22060E+01 0.00000E+00
 -1       494 5.56500E+01 4.22060E+01 0.00000E+00
 -1       495 5.86500E+01 4.22060E+01 0.00000E+00
 -1       496 6.16500E+01 4.22060E+01 0.00000E+00
 -1       497 6.46500E+01 4.22060E+01 0.00000E+00
 -1       498 6.76500E+01 4.22060E+01 0.00000E+00
 -1       499 7.06500E+01 4.22060E+01 0.00000E+00
 -1       500 7.36500E+01 4.22060E+01 0.00000E+00
 -1       501 7.66500E+01 4.22060E+01 0.00000E+00
 -1       502 7.96500E+01 4.22060E+01 0.00000E+00
 -1       503 8.26500E+01 4.22060E+01 0.00000E+00
 -1       504 8.56500E+01 4.22060E+01 0.00000E+00
 -1       505 8.86500E+01 4.22060E+01 0.00000E+00
 -1       506 9.16500E+01 4.22060E+01 0.00000E+00
 -1       507 9.46500E+01 4.22060E+01 0.00000E+00
 -1       508 9.76500E+01 4.22060E+01 0.00000E+00
 -1       509 1.00650E+02 4.22060E+01 0.00000E+00
 -1       510 1.03650E+02 4.22060E+01 0.00000E+00
 -1       511 1.06650E+02 4.22060E+01 0.00000E+00
 -1       512 1.09650E+02 4.22060E+01 0.00000E+00
 -1       513 1.12650E+02 4.22060E+01 0.00000E+00
 -1       514 1.15650E+02 4.22060E+01 0.00000E+00
 -1       515 1.18650E+02 4.22060E+01 0.00000E+00
 -1       516 1.21650E+02 4.22060E+01 0.00000E+00
 -1       517 1.24650E+02 4.22060E+01 0.00000E+00
 -1       518 1.27650E+02 4.22060E+01 0.00000E+00
 -1       519 1.30650E+02 4.22060E+01 0.00000E+00
 -1       520 1.33650E+02 4.22060E+01 0.00000E+00
 -1       521 1.36650E+02 4.22060E+01 0.00000E+00
 -1       522 1.39650E+02 4.22060E+01 0.00000E+00
 -1       523 2.59732E+01 1.98830E+01 0.00000E+00
 -1       524 1.88449E+01 6.74175E+00 0.00000E+00
 -1       525 2.18449E+01 6.74175E+00 0.00000E+00
 -1       526 2.48449E+01 6.74175E+00 0.00000E+00
 -1       527 2.78449E+01 6.74175E+00 0.00000E+00
 -1       528 3.08449E+01 6.74175E+00 0.00000E+00
 -1       529 3.38449E+01 6.74175E+00 0.00000E+00
 -1       530 3.68449E+01 6.74175E+00 0.00000E+00
 -1       531 3.98449E+01 6.74175E+00 0.00000E+00
 -1       532 4.28449E+01 6.74175E+00 0.00000E+00
 -1       533 4.58449E+01 6.74175E+00 0.00000E+00
 -1       534 4.88449E+01 6.74175E+00 0.00000E+00
 -1       535 5.18449E+01 6.74175E+00 0.00000E+00
 -1       536 5.48449E+01 6.74175E+00 0.00000E+00
 -1       537 5.78449E+01 6.74175E+00 0.00000E+00
 -1       538 6.08449E+01 6.74175E+00 0.00000E+00
 -1       539 6.38449E+01 6.74175E+00 0.00000E+00
 -1       540 6.68449E+01 6.74175E+00 0.00000E+00
 -1       541 6.98449E+01 6.74175E+00 0.00000E+00
 -1       542 7.28449E+01 6.74175E+00 0.00000E+00
 -1       543 7.58449E+01 6.74175E+00 0.00000E+00
 -1       544 7.88449E+01 6.74175E+00 0.00000E+00
 -1       545 8.18449E+01 6.74175E+00 0.00000E+00
 -1       546 8.48449E+01 6.74175E+00 0.00000E+00
 -1       547 8.78449E+01 6.74175E+00 0.00000E+00
 -1       548 9.08449E+01 6.74175E+00 0.00000E+00
 -1       549 9.38449E+01 6.74175E+00 0.00000E+00
 -1       550 9.68449E+01 6.74175E+00 0.00000E+00
 -1       551 9.98449E+01 6.74175E+00 0.00000E+00
 -1       552 1.02845E+02 6.74175E+00 0.00000E+00
 -1       553 1.05845E+02 6.74175E+00 0.00000E+00
 -1       554 1.08845E+02 6.74175E+00 0.00000E+00
 -1       555 1.11845E+02 6.74175E+00 0.00000E+00
 -1       556 1.14845E+02 6.74175E+00 0.00000E+00
 -1       557 1.17845E+02 6.74175E+00 0.00000E+00
 -1       558 1.20845E+02 6.74175E+00 0.00000E+00
 -1       559 1.23845E+02 6.74175E+00 0.00000E+00
 -1       560 1.26845E+02 6.74175E+00 0.00000E+00
 -1       561 1.29845E+02 6.74175E+00 0.00000E+00
 -1       562 1.32845E+02 6.74175E+00 0.00000E+00
 -1       563 1.35845E+02 6.74175E+00 0.00000E+00
 -1       564 1.38845E+02 6.74175E+00 0.00000E+00
 -1       565 1.41845E+02 6.74175E+00 0.00000E+00
 -1       566 1.42206E+02 1.61750E+01 0.00000E+00
 -1       567 1.42206E+02 1.91250E+01 0.00000E+00
 -1       568 1.42206E+02 1.03250E+01 0.00000E+00
 -1       569 1.42206E+02 1.32500E+01 0.00000E+00
 -1       570 1.42206E+02 2.20750E+01 0.00000E+00
 -1       571 1.42206E+02 2.50250E+01 0.00000E+00
 -1       572 1.42206E+02 2.79750E+01 0.00000E+00
 -1       573 1.42206E+02 3.08750E+01 0.00000E+00
 -1       574 1.42206E+02 3.38250E+01 0.00000E+00
 -1       575 1.42206E+02 3.67750E+01 0.00000E+00
 -1       576 1.42206E+02 3.97250E+01 0.00000E+00
 -1       577 2.66947E+01 2.52443E+01 0.00000E+00
 -1       578 1.63621E+01 6.29431E+00 0.00000E+00
 -1       579 1.95888E+01 1.32044E+01 0.00000E+00
 -1       580 2.42875E+01 1.59578E+01 0.00000E+00
 -1       581 2.53462E+01 1.76907E+01 0.00000E+00
 -1       582 2.59942E+01 2.73813E+01 0.00000E+00
 -1       583 8.06381E+00 3.17860E+01 0.00000E+00
 -1       584 7.41382E+00 1.06000E+01 0.00000E+00
 -1       585 7.41382E+00 1.36500E+01 0.00000E+00
 -1       586 2.19647E+01 1.40157E+01 0.00000E+00
 -1       587 1.03268E+01 1.36157E+01 0.00000E+00
 -1       588 1.49316E+01 1.21858E+01 0.00000E+00
 -1       589 6.46158E+00 2.99555E+01 0.00000E+00
 -1       590 1.27656E+01 1.26786E+01 0.00000E+00
 -1       591 8.97753E+00 1.50023E+01 0.00000E+00
 -1       592 1.48959E+01 3.50899E+01 0.00000E+00
 -1       593 9.85395E+00 3.35230E+01 0.00000E+00
 -1       594 1.19700E+01 3.44305E+01 0.00000E+00
 -1       595 1.68553E+01 3.51497E+01 0.00000E+00
 -1       596 1.94125E+01 3.47770E+01 0.00000E+00
 -1       597 2.19898E+01 3.29889E+01 0.00000E+00
 -1       598 2.35759E+01 3.17056E+01 0.00000E+00
 -1       599 2.50232E+01 2.94912E+01 0.00000E+00
 -1       600 7.92300E+00 4.15280E+01 0.00000E+00
 -1       601 7.24625E+00 3.63375E+01 0.00000E+00
 -1       602 2.74305E+01 2.09818E+01 0.00000E+00
 -1       603 1.41678E+02 4.22645E+01 0.00000E+00
 -1       604 2.75726E+01 2.38691E+01 0.00000E+00
 -1       605 2.40708E+01 1.38202E+01 0.00000E+00
 -1       606 7.58462E+00 3.89328E+01 0.00000E+00
 -1       607 1.32882E+01 3.61493E+01 0.00000E+00
 -1       608 2.13418E+01 3.52992E+01 0.00000E+00
 -1       609 1.90718E+01 1.12675E+01 0.00000E+00
 -1       610 1.04138E+01 7.55000E+00 0.00000E+00
 -1       611 2.63449E+01 9.33975E+00 0.00000E+00
 -1       612 2.33449E+01 9.33975E+00 0.00000E+00
 -1       613 1.51500E+01 3.96530E+01 0.00000E+00
 -1       614 1.81500E+01 3.96530E+01 0.00000E+00
 -1       615 2.11500E+01 3.96530E+01 0.00000E+00
 -1       616 2.41500E+01 3.96530E+01 0.00000E+00
 -1       617 2.71500E+01 3.96530E+01 0.00000E+00
 -1       618 3.01500E+01 3.96530E+01 0.00000E+00
 -1       619 3.31500E+01 3.96530E+01 0.00000E+00
 -1       620 3.61500E+01 3.96530E+01 0.00000E+00
 -1       621 3.91500E+01 3.96530E+01 0.00000E+00
 -1       622 4.21500E+01 3.96530E+01 0.00000E+00
 -1       623 4.51500E+01 3.96530E+01 0.00000E+00
 -1       624 4.81500E+01 3.96530E+01 0.00000E+00
 -1       625 5.11500E+01 3.96530E+01 0.00000E+00
 -1       626 5.41500E+01 3.96530E+01 0.00000E+00
 -1       627 5.71500E+01 3.96530E+01 0.00000E+00
 -1       628 6.01500E+01 3.96530E+01 0.00000E+00
 -1       629 6.31500E+01 3.96530E+01 0.00000E+00
 -1       630 6.61500E+01 3.96530E+01 0.00000E+00
 -1       631 6.91500E+01 3.96530E+01 0.00000E+00
 -1       632 7.21500E+01 3.96530E+01 0.00000E+00
 -1       633 7.51500E+01 3.96530E+01 0.00000E+00
 -1       634 7.81500E+01 3.96530E+01 0.00000E+00
 -1       635 8.11500E+01 3.96530E+01 0.00000E+00
 -1       636 8.41500E+01 3.96530E+01 0.00000E+00
 -1       637 8.71500E+01 3.96530E+01 0.00000E+00
 -1       638 9.01500E+01 3.96530E+01 0.00000E+00
 -1       639 9.31500E+01 3.96530E+01 0.00000E+00
 -1       640 9.61500E+01 3.96530E+01 0.00000E+00
 -1       641 9.91500E+01 3.96530E+01 0.00000E+00
 -1       642 1.02150E+02 3.96530E+01 0.00000E+00
 -1       643 1.05150E+02 3.96530E+01 0.00000E+00
 -1       644 1.08150E+02 3.96530E+01 0.00000E+00
 -1       645 1.11150E+02 3.96530E+01 0.00000E+00
 -1       646 1.14150E+02 3.96530E+01 0.00000E+00
 -1       647 1.17150E+02 3.96530E+01 0.00000E+00
 -1       648 1.20150E+02 3.96530E+01 0.00000E+00
 -1       649 1.23150E+02 3.96530E+01 0.00000E+00
 -1       650 1.26150E+02 3.96530E+01 0.00000E+00
 -1       651 1.29150E+02 3.96530E+01 0.00000E+00
 -1       652 1.32150E+02 3.96530E+01 0.00000E+00
 -1       653 1.35150E+02 3.96530E+01 0.00000E+00
 -1       654 1.38150E+02 3.96530E+01 0.00000E+00
 -1       655 2.93449E+01 9.33975E+00 0.00000E+00
 -1       656 3.23449E+01 9.33975E+00 0.00000E+00
 -1       657 3.53449E+01 9.33975E+00 0.00000E+00
 -1       658 3.83449E+01 9.33975E+00 0.00000E+00
 -1       659 4.13449E+01 9.33975E+00 0.00000E+00
 -1       660 4.43449E+01 9.33975E+00 0.00000E+00
 -1       661 4.73449E+01 9.33975E+00 0.00000E+00
 -1       662 5.03449E+01 9.33975E+00 0.00000E+00
 -1       663 5.33449E+01 9.33975E+00 0.00000E+00
 -1       664 5.63449E+01 9.33975E+00 0.00000E+00
 -1       665 5.93449E+01 9.33975E+00 0.00000E+00
 -1       666 6.23449E+01 9.33975E+00 0.00000E+00
 -1       667 6.53449E+01 9.33975E+00 0.00000E+00
 -1       668 6.83449E+01 9.33975E+00 0.00000E+00
 -1       669 7.13449E+01 9.33975E+00 0.00000E+00
 -1       670 7.43449E+01 9.33975E+00 0.00000E+00
 -1       671 7.73449E+01 9.33975E+00 0.00000E+00
 -1       672 8.03449E+01 9.33975E+00 0.00000E+00
 -1       673 8.33449E+01 9.33975E+00 0.00000E+00
 -1       674 8.63449E+01 9.33975E+00 0.00000E+00
 -1       675 8.93449E+01 9.33975E+00 0.00000E+00
 -1       676 9.23449E+01 9.33975E+00 0.00000E+00
 -1       677 9.53449E+01 9.33975E+00 0.00000E+00
 -1       678 9.83449E+01 9.33975E+00 0.00000E+00
 -1       679 1.01345E+02 9.33975E+00 0.00000E+00
 -1       680 1.04345E+02 9.33975E+00 0.00000E+00
 -1       681 1.07345E+02 9.33975E+00 0.00000E+00
 -1       682 1.10345E+02 9.33975E+00 0.00000E+00
 -1       683 1.13345E+02 9.33975E+00 0.00000E+00
 -1       684 1.16345E+02 9.33975E+00 0.00000E+00
 -1       685 1.19345E+02 9.33975E+00 0.00000E+00
 -1       686 1.22345E+02 9.33975E+00 0.00000E+00
 -1       687 1.25345E+02 9.33975E+00 0.00000E+00
 -1       688 1.28345E+02 9.33975E+00 0.00000E+00
 -1       689 1.31345E+02 9.33975E+00 0.00000E+00
 -1       690 1.34345E+02 9.33975E+00 0.00000E+00
 -1       691 1.37345E+02 9.33975E+00 0.00000E+00
 -1       692 1.39775E+02 9.83237E+00 0.00000E+00
 -1       693 1.39608E+02 2.35500E+01 0.00000E+00
 -1       694 1.40178E+02 3.96890E+01 0.00000E+00
 -1       695 1.39608E+02 1.76500E+01 0.00000E+00
 -1       696 1.39608E+02 2.65000E+01 0.00000E+00
 -1       697 1.39608E+02 2.06000E+01 0.00000E+00
 -1       698 2.62805E+01 1.59301E+01 0.00000E+00
 -1       699 1.39608E+02 2.94000E+01 0.00000E+00
 -1       700 1.39608E+02 3.23500E+01 0.00000E+00
 -1       701 1.39608E+02 3.53000E+01 0.00000E+00
 -1       702 2.13851E+01 1.18283E+01 0.00000E+00
 -1       703 2.76309E+01 1.82231E+01 0.00000E+00
 -1       704 2.70667E+01 2.91533E+01 0.00000E+00
 -1       705 1.09310E+01 1.15462E+01 0.00000E+00
 -1       706 1.58182E+01 3.70016E+01 0.00000E+00
 -1       707 9.69568E+00 1.12762E+01 0.00000E+00
 -1       708 1.34138E+01 7.55000E+00 0.00000E+00
 -1       709 1.33937E+01 1.04330E+01 0.00000E+00
 -1       710 2.58755E+01 3.16284E+01 0.00000E+00
 -1       711 1.63205E+01 1.04087E+01 0.00000E+00
 -1       712 1.84054E+01 3.68263E+01 0.00000E+00
 -1       713 1.21500E+01 3.96530E+01 0.00000E+00
 -1       714 2.42833E+01 3.42017E+01 0.00000E+00
 -1       715 9.86731E+00 3.92929E+01 0.00000E+00
 -1       716 2.81334E+01 2.68992E+01 0.00000E+00
 -1       717 1.58966E+01 7.99744E+00 0.00000E+00
 -1       718 1.12682E+01 3.63336E+01 0.00000E+00
 -1       719 2.86164E+01 2.24780E+01 0.00000E+00
 -1       720 1.39608E+02 1.47250E+01 0.00000E+00
 -1       721 2.90114E+01 2.55241E+01 0.00000E+00
 -1       722 1.39692E+02 1.22787E+01 0.00000E+00
 -1       723 1.38879E+02 3.74765E+01 0.00000E+00
 -1       724 2.60637E+01 1.37925E+01 0.00000E+00
 -1       725 1.02360E+01 3.55530E+01 0.00000E+00
 -1       726 1.24493E+01 3.81164E+01 0.00000E+00
 -1       727 3.08449E+01 1.19377E+01 0.00000E+00
 -1       728 2.37051E+01 3.71423E+01 0.00000E+00
 -1       729 2.67051E+01 3.71423E+01 0.00000E+00
 -1       730 2.97051E+01 3.71423E+01 0.00000E+00
 -1       731 3.27051E+01 3.71423E+01 0.00000E+00
 -1       732 3.57051E+01 3.71423E+01 0.00000E+00
 -1       733 3.87051E+01 3.71423E+01 0.00000E+00
 -1       734 4.17051E+01 3.71423E+01 0.00000E+00
 -1       735 4.47051E+01 3.71423E+01 0.00000E+00
 -1       736 4.77051E+01 3.71423E+01 0.00000E+00
 -1       737 5.07051E+01 3.71423E+01 0.00000E+00
 -1       738 5.37051E+01 3.71423E+01 0.00000E+00
 -1       739 5.67051E+01 3.71423E+01 0.00000E+00
 -1       740 5.97051E+01 3.71423E+01 0.00000E+00
 -1       741 6.27051E+01 3.71423E+01 0.00000E+00
 -1       742 6.57051E+01 3.71423E+01 0.00000E+00
 -1       743 6.87051E+01 3.71423E+01 0.00000E+00
 -1       744 7.17051E+01 3.71423E+01 0.00000E+00
 -1       745 7.47051E+01 3.71423E+01 0.00000E+00
 -1       746 7.77051E+01 3.71423E+01 0.00000E+00
 -1       747 8.07051E+01 3.71423E+01 0.00000E+00
 -1       748 8.37051E+01 3.71423E+01 0.00000E+00
 -1       749 8.67051E+01 3.71423E+01 0.00000E+00
 -1       750 8.97051E+01 3.71423E+01 0.00000E+00
 -1       751 9.27051E+01 3.71423E+01 0.00000E+00
 -1       752 9.57051E+01 3.71423E+01 0.00000E+00
 -1       753 9.87051E+01 3.71423E+01 0.00000E+00
 -1       754 1.01705E+02 3.71423E+01 0.00000E+00
 -1       755 1.04705E+02 3.71423E+01 0.00000E+00
 -1       756 1.07705E+02 3.71423E+01 0.00000E+00
 -1       757 1.10705E+02 3.71423E+01 0.00000E+00
 -1       758 1.13705E+02 3.71423E+01 0.00000E+00
 -1       759 1.16705E+02 3.71423E+01 0.00000E+00
 -1       760 1.19705E+02 3.71423E+01 0.00000E+00
 -1       761 1.22705E+02 3.71423E+01 0.00000E+00
 -1       762 1.25705E+02 3.71423E+01 0.00000E+00
 -1       763 1.28705E+02 3.71423E+01 0.00000E+00
 -1       764 1.31705E+02 3.71423E+01 0.00000E+00
 -1       765 1.34705E+02 3.71423E+01 0.00000E+00
 -1       766 1.36792E+02 3.73094E+01 0.00000E+00
 -1       767 2.84543E+01 1.28651E+01 0.00000E+00
 -1       768 3.68449E+01 1.19377E+01 0.00000E+00
 -1       769 3.98449E+01 1.19377E+01 0.00000E+00
 -1       770 4.28449E+01 1.19377E+01 0.00000E+00
 -1       771 4.58449E+01 1.19377E+01 0.00000E+00
 -1       772 4.88449E+01 1.19377E+01 0.00000E+00
 -1       773 5.18449E+01 1.19377E+01 0.00000E+00
 -1       774 5.48449E+01 1.19377E+01 0.00000E+00
 -1       775 5.78449E+01 1.19377E+01 0.00000E+00
 -1       776 6.08449E+01 1.19377E+01 0.00000E+00
 -1       777 6.38449E+01 1.19377E+01 0.00000E+00
 -1       778 6.68449E+01 1.19377E+01 0.00000E+00
 -1       779 6.98449E+01 1.19377E+01 0.00000E+00
 -1       780 7.28449E+01 1.19377E+01 0.00000E+00
 -1       781 7.58449E+01 1.19377E+01 0.00000E+00
 -1       782 7.88449E+01 1.19377E+01 0.00000E+00
 -1       783 8.18449E+01 1.19377E+01 0.00000E+00
 -1       784 8.48449E+01 1.19377E+01 0.00000E+00
 -1       785 8.78449E+01 1.19377E+01 0.00000E+00
 -1       786 9.08449E+01 1.19377E+01 0.00000E+00
 -1       787 9.38449E+01 1.19377E+01 0.00000E+00
 -1       788 9.68449E+01 1.19377E+01 0.00000E+00
 -1       789 9.98449E+01 1.19377E+01 0.00000E+00
 -1       790 1.02845E+02 1.19377E+01 0.00000E+00
 -1       791 1.05845E+02 1.19377E+01 0.00000E+00
 -1       792 1.08845E+02 1.19377E+01 0.00000E+00
 -1       793 1.11845E+02 1.19377E+01 0.00000E+00
 -1       794 1.14845E+02 1.19377E+01 0.00000E+00
 -1       795 1.17845E+02 1.19377E+01 0.00000E+00
 -1       796 1.20845E+02 1.19377E+01 0.00000E+00
 -1       797 1.23845E+02 1.19377E+01 0.00000E+00
 -1       798 1.26845E+02 1.19377E+01 0.00000E+00
 -1       799 1.29845E+02 1.19377E+01 0.00000E+00
 -1       800 1.32845E+02 1.19377E+01 0.00000E+00
 -1       801 1.35845E+02 1.19377E+01 0.00000E+00
 -1       802 1.37768E+02 1.21082E+01 0.00000E+00
 -1       803 2.88667E+01 1.59511E+01 0.00000E+00
 -1       804 3.38449E+01 1.19377E+01 0.00000E+00
 -1       805 1.37010E+02 3.08750E+01 0.00000E+00
 -1       806 1.37010E+02 2.50250E+01 0.00000E+00
 -1       807 1.37010E+02 3.38250E+01 0.00000E+00
 -1       808 1.37010E+02 2.79500E+01 0.00000E+00
 -1       809 2.93018E+01 2.88316E+01 0.00000E+00
 -1       810 2.92413E+01 1.97267E+01 0.00000E+00
 -1       811 2.84695E+01 3.13526E+01 0.00000E+00
 -1       812 2.69654E+01 3.40820E+01 0.00000E+00
 -1       813 1.98415E+01 3.70171E+01 0.00000E+00
 -1       814 1.37010E+02 1.61875E+01 0.00000E+00
 -1       815 3.00552E+01 2.41329E+01 0.00000E+00
 -1       816 1.37010E+02 1.91375E+01 0.00000E+00
 -1       817 1.37010E+02 2.20812E+01 0.00000E+00
 -1       818 1.36901E+02 3.55672E+01 0.00000E+00
 -1       819 3.04771E+01 1.74547E+01 0.00000E+00
 -1       820 3.01797E+01 2.74565E+01 0.00000E+00
 -1       821 4.13449E+01 1.45358E+01 0.00000E+00
 -1       822 3.11508E+01 3.08399E+01 0.00000E+00
 -1       823 3.12051E+01 3.45443E+01 0.00000E+00
 -1       824 3.42051E+01 3.45443E+01 0.00000E+00
 -1       825 3.72051E+01 3.45443E+01 0.00000E+00
 -1       826 4.02051E+01 3.45443E+01 0.00000E+00
 -1       827 4.32051E+01 3.45443E+01 0.00000E+00
 -1       828 4.62051E+01 3.45443E+01 0.00000E+00
 -1       829 4.92051E+01 3.45443E+01 0.00000E+00
 -1       830 5.22051E+01 3.45443E+01 0.00000E+00
 -1       831 5.52051E+01 3.45443E+01 0.00000E+00
 -1       832 5.82051E+01 3.45443E+01 0.00000E+00
 -1       833 6.12051E+01 3.45443E+01 0.00000E+00
 -1       834 6.42051E+01 3.45443E+01 0.00000E+00
 -1       835 6.72051E+01 3.45443E+01 0.00000E+00
 -1       836 7.02051E+01 3.45443E+01 0.00000E+00
 -1       837 7.32051E+01 3.45443E+01 0.00000E+00
 -1       838 7.62051E+01 3.45443E+01 0.00000E+00
 -1       839 7.92051E+01 3.45443E+01 0.00000E+00
 -1       840 8.22051E+01 3.45443E+01 0.00000E+00
 -1       841 8.52051E+01 3.45443E+01 0.00000E+00
 -1       842 8.82051E+01 3.45443E+01 0.00000E+00
 -1       843 9.12051E+01 3.45443E+01 0.00000E+00
 -1       844 9.42051E+01 3.45443E+01 0.00000E+00
 -1       845 9.72051E+01 3.45443E+01 0.00000E+00
 -1       846 1.00205E+02 3.45443E+01 0.00000E+00
 -1       847 1.03205E+02 3.45443E+01 0.00000E+00
 -1       848 1.06205E+02 3.45443E+01 0.00000E+00
 -1       849 1.09205E+02 3.45443E+01 0.00000E+00
 -1       850 1.12205E+02 3.45443E+01 0.00000E+00
 -1       851 1.15205E+02 3.45443E+01 0.00000E+00
 -1       852 1.18205E+02 3.45443E+01 0.00000E+00
 -1       853 1.21205E+02 3.45443E+01 0.00000E+00
 -1       854 1.24205E+02 3.45443E+01 0.00000E+00
 -1       855 1.27205E+02 3.45443E+01 0.00000E+00
 -1       856 1.30205E+02 3.45443E+01 0.00000E+00
 -1       857 1.33205E+02 3.45443E+01 0.00000E+00
 -1       858 4.43449E+01 1.45358E+01 0.00000E+00
 -1       859 3.83449E+01 1.45358E+01 0.00000E+00
 -1       860 4.73449E+01 1.45358E+01 0.00000E+00
 -1       861 5.03449E+01 1.45358E+01 0.00000E+00
 -1       862 5.33449E+01 1.45358E+01 0.00000E+00
 -1       863 5.63449E+01 1.45358E+01 0.00000E+00
 -1       864 5.93449E+01 1.45358E+01 0.00000E+00
 -1       865 6.23449E+01 1.45358E+01 0.00000E+00
 -1       866 6.53449E+01 1.45358E+01 0.00000E+00
 -1       867 6.83449E+01 1.45358E+01 0.00000E+00
 -1       868 7.13449E+01 1.45358E+01 0.00000E+00
 -1       869 7.43449E+01 1.45358E+01 0.00000E+00
 -1       870 7.73449E+01 1.45358E+01 0.00000E+00
 -1       871 8.03449E+01 1.45358E+01 0.00000E+00
 -1       872 8.33449E+01 1.45358E+01 0.00000E+00
 -1       873 8.63449E+01 1.45358E+01 0.00000E+00
 -1       874 8.93449E+01 1.45358E+01 0.00000E+00
 -1       875 9.23449E+01 1.45358E+01 0.00000E+00
 -1       876 9.53449E+01 1.45358E+01 0.00000E+00
 -1       877 9.83449E+01 1.45358E+01 0.00000E+00
 -1       878 1.01345E+02 1.45358E+01 0.00000E+00
 -1       879 1.04345E+02 1.45358E+01 0.00000E+00
 -1       880 1.07345E+02 1.45358E+01 0.00000E+00
 -1       881 1.10345E+02 1.45358E+01 0.00000E+00
 -1       882 1.13345E+02 1.45358E+01 0.00000E+00
 -1       883 1.16345E+02 1.45358E+01 0.00000E+00
 -1       884 1.19345E+02 1.45358E+01 0.00000E+00
 -1       885 1.22345E+02 1.45358E+01 0.00000E+00
 -1       886 1.25345E+02 1.45358E+01 0.00000E+00
 -1       887 1.28345E+02 1.45358E+01 0.00000E+00
 -1       888 1.31345E+02 1.45358E+01 0.00000E+00
 -1       889 1.34345E+02 1.45358E+01 0.00000E+00
 -1       890 1.34412E+02 3.23500E+01 0.00000E+00
 -1       891 3.06801E+01 2.13817E+01 0.00000E+00
 -1       892 3.12235E+01 2.60653E+01 0.00000E+00
 -1       893 3.19159E+01 1.91097E+01 0.00000E+00
 -1       894 3.12573E+01 1.50237E+01 0.00000E+00
 -1       895 1.34412E+02 2.94250E+01 0.00000E+00
 -1       896 3.53449E+01 1.45358E+01 0.00000E+00
 -1       897 1.34412E+02 2.35531E+01 0.00000E+00
 -1       898 3.20287E+01 2.94648E+01 0.00000E+00
 -1       899 1.34412E+02 1.76625E+01 0.00000E+00
 -1       900 1.34412E+02 2.64891E+01 0.00000E+00
 -1       901 1.34412E+02 2.06094E+01 0.00000E+00
 -1       902 3.41508E+01 3.08399E+01 0.00000E+00
 -1       903 4.28449E+01 1.71338E+01 0.00000E+00
 -1       904 3.71508E+01 3.08399E+01 0.00000E+00
 -1       905 4.01508E+01 3.08399E+01 0.00000E+00
 -1       906 4.31508E+01 3.08399E+01 0.00000E+00
 -1       907 4.61508E+01 3.08399E+01 0.00000E+00
 -1       908 4.91508E+01 3.08399E+01 0.00000E+00
 -1       909 5.21508E+01 3.08399E+01 0.00000E+00
 -1       910 5.51508E+01 3.08399E+01 0.00000E+00
 -1       911 5.81508E+01 3.08399E+01 0.00000E+00
 -1       912 6.11508E+01 3.08399E+01 0.00000E+00
 -1       913 6.41508E+01 3.08399E+01 0.00000E+00
 -1       914 6.71508E+01 3.08399E+01 0.00000E+00
 -1       915 7.01508E+01 3.08399E+01 0.00000E+00
 -1       916 7.31508E+01 3.08399E+01 0.00000E+00
 -1       917 7.61508E+01 3.08399E+01 0.00000E+00
 -1       918 7.91508E+01 3.08399E+01 0.00000E+00
 -1       919 8.21508E+01 3.08399E+01 0.00000E+00
 -1       920 8.51508E+01 3.08399E+01 0.00000E+00
 -1       921 8.81508E+01 3.08399E+01 0.00000E+00
 -1       922 9.11508E+01 3.08399E+01 0.00000E+00
 -1       923 9.41508E+01 3.08399E+01 0.00000E+00
 -1       924 9.71508E+01 3.08399E+01 0.00000E+00
 -1       925 1.00151E+02 3.08399E+01 0.00000E+00
 -1       926 1.03151E+02 3.08399E+01 0.00000E+00
 -1       927 1.06151E+02 3.08399E+01 0.00000E+00
 -1       928 1.09151E+02 3.08399E+01 0.00000E+00
 -1       929 1.12151E+02 3.08399E+01 0.00000E+00
 -1       930 1.15151E+02 3.08399E+01 0.00000E+00
 -1       931 1.18151E+02 3.08399E+01 0.00000E+00
 -1       932 1.21151E+02 3.08399E+01 0.00000E+00
 -1       933 1.24151E+02 3.08399E+01 0.00000E+00
 -1       934 1.27151E+02 3.08399E+01 0.00000E+00
 -1       935 1.30151E+02 3.08399E+01 0.00000E+00
 -1       936 4.88449E+01 1.71338E+01 0.00000E+00
 -1       937 3.98449E+01 1.71338E+01 0.00000E+00
 -1       938 5.18449E+01 1.71338E+01 0.00000E+00
 -1       939 5.48449E+01 1.71338E+01 0.00000E+00
 -1       940 5.78449E+01 1.71338E+01 0.00000E+00
 -1       941 6.08449E+01 1.71338E+01 0.00000E+00
 -1       942 6.38449E+01 1.71338E+01 0.00000E+00
 -1       943 6.68449E+01 1.71338E+01 0.00000E+00
 -1       944 6.98449E+01 1.71338E+01 0.00000E+00
 -1       945 7.28449E+01 1.71338E+01 0.00000E+00
 -1       946 7.58449E+01 1.71338E+01 0.00000E+00
 -1       947 7.88449E+01 1.71338E+01 0.00000E+00
 -1       948 8.18449E+01 1.71338E+01 0.00000E+00
 -1       949 8.48449E+01 1.71338E+01 0.00000E+00
 -1       950 8.78449E+01 1.71338E+01 0.00000E+00
 -1       951 9.08449E+01 1.71338E+01 0.00000E+00
 -1       952 9.38449E+01 1.71338E+01 0.00000E+00
 -1       953 9.68449E+01 1.71338E+01 0.00000E+00
 -1       954 9.98449E+01 1.71338E+01 0.00000E+00
 -1       955 1.02845E+02 1.71338E+01 0.00000E+00
 -1       956 1.05845E+02 1.71338E+01 0.00000E+00
 -1       957 1.08845E+02 1.71338E+01 0.00000E+00
 -1       958 1.11845E+02 1.71338E+01 0.00000E+00
 -1       959 1.14845E+02 1.71338E+01 0.00000E+00
 -1       960 1.17845E+02 1.71338E+01 0.00000E+00
 -1       961 1.20845E+02 1.71338E+01 0.00000E+00
 -1       962 1.23845E+02 1.71338E+01 0.00000E+00
 -1       963 1.26845E+02 1.71338E+01 0.00000E+00
 -1       964 1.29845E+02 1.71338E+01 0.00000E+00
 -1       965 1.32128E+02 1.73981E+01 0.00000E+00
 -1       966 3.25304E+01 2.32485E+01 0.00000E+00
 -1       967 4.58449E+01 1.71338E+01 0.00000E+00
 -1       968 3.45647E+01 1.69668E+01 0.00000E+00
 -1       969 1.31814E+02 2.20812E+01 0.00000E+00
 -1       970 3.72048E+01 1.70503E+01 0.00000E+00
 -1       971 3.30725E+01 2.80736E+01 0.00000E+00
 -1       972 3.37661E+01 2.09766E+01 0.00000E+00
 -1       973 1.31814E+02 2.50172E+01 0.00000E+00
 -1       974 3.43794E+01 2.52569E+01 0.00000E+00
 -1       975 3.86508E+01 2.82419E+01 0.00000E+00
 -1       976 4.16508E+01 2.82419E+01 0.00000E+00
 -1       977 4.46508E+01 2.82419E+01 0.00000E+00
 -1       978 4.76508E+01 2.82419E+01 0.00000E+00
 -1       979 5.06508E+01 2.82419E+01 0.00000E+00
 -1       980 5.36508E+01 2.82419E+01 0.00000E+00
 -1       981 5.66508E+01 2.82419E+01 0.00000E+00
 -1       982 5.96508E+01 2.82419E+01 0.00000E+00
 -1       983 6.26508E+01 2.82419E+01 0.00000E+00
 -1       984 6.56508E+01 2.82419E+01 0.00000E+00
 -1       985 6.86508E+01 2.82419E+01 0.00000E+00
 -1       986 7.16508E+01 2.82419E+01 0.00000E+00
 -1       987 7.46508E+01 2.82419E+01 0.00000E+00
 -1       988 7.76508E+01 2.82419E+01 0.00000E+00
 -1       989 8.06508E+01 2.82419E+01 0.00000E+00
 -1       990 8.36508E+01 2.82419E+01 0.00000E+00
 -1       991 8.66508E+01 2.82419E+01 0.00000E+00
 -1       992 8.96508E+01 2.82419E+01 0.00000E+00
 -1       993 9.26508E+01 2.82419E+01 0.00000E+00
 -1       994 9.56508E+01 2.82419E+01 0.00000E+00
 -1       995 9.86508E+01 2.82419E+01 0.00000E+00
 -1       996 1.01651E+02 2.82419E+01 0.00000E+00
 -1       997 1.04651E+02 2.82419E+01 0.00000E+00
 -1       998 1.07651E+02 2.82419E+01 0.00000E+00
 -1       999 1.10651E+02 2.82419E+01 0.00000E+00
 -1      1000 1.13651E+02 2.82419E+01 0.00000E+00
 -1      1001 1.16651E+02 2.82419E+01 0.00000E+00
 -1      1002 1.19651E+02 2.82419E+01 0.00000E+00
 -1      1003 1.22651E+02 2.82419E+01 0.00000E+00
 -1      1004 1.25651E+02 2.82419E+01 0.00000E+00
 -1      1005 1.28651E+02 2.82419E+01 0.00000E+00
 -1      1006 4.13449E+01 1.97318E+01 0.00000E+00
 -1      1007 5.33449E+01 1.97318E+01 0.00000E+00
 -1      1008 5.63449E+01 1.97318E+01 0.00000E+00
 -1      1009 5.93449E+01 1.97318E+01 0.00000E+00
 -1      1010 6.23449E+01 1.97318E+01 0.00000E+00
 -1      1011 6.53449E+01 1.97318E+01 0.00000E+00
 -1      1012 6.83449E+01 1.97318E+01 0.00000E+00
 -1      1013 7.13449E+01 1.97318E+01 0.00000E+00
 -1      1014 7.43449E+01 1.97318E+01 0.00000E+00
 -1      1015 7.73449E+01 1.97318E+01 0.00000E+00
 -1      1016 8.03449E+01 1.97318E+01 0.00000E+00
 -1      1017 8.33449E+01 1.97318E+01 0.00000E+00
 -1      1018 8.63449E+01 1.97318E+01 0.00000E+00
 -1      1019 8.93449E+01 1.97318E+01 0.00000E+00
 -1      1020 9.23449E+01 1.97318E+01 0.00000E+00
 -1      1021 9.53449E+01 1.97318E+01 0.00000E+00
 -1      1022 9.83449E+01 1.97318E+01 0.00000E+00
 -1      1023 1.01345E+02 1.97318E+01 0.00000E+00
 -1      1024 1.04345E+02 1.97318E+01 0.00000E+00
 -1      1025 1.07345E+02 1.97318E+01 0.00000E+00
 -1      1026 1.10345E+02 1.97318E+01 0.00000E+00
 -1      1027 1.13345E+02 1.97318E+01 0.00000E+00
 -1      1028 1.16345E+02 1.97318E+01 0.00000E+00
 -1      1029 1.19345E+02 1.97318E+01 0.00000E+00
 -1      1030 1.22345E+02 1.97318E+01 0.00000E+00
 -1      1031 1.25345E+02 1.97318E+01 0.00000E+00
 -1      1032 1.28345E+02 1.97318E+01 0.00000E+00
 -1      1033 1.30829E+02 1.96075E+01 0.00000E+00
 -1      1034 4.43449E+01 1.97318E+01 0.00000E+00
 -1      1035 1.31531E+02 2.73655E+01 0.00000E+00
 -1      1036 5.03449E+01 1.97318E+01 0.00000E+00
 -1      1037 4.73449E+01 1.97318E+01 0.00000E+00
 -1      1038 3.58617E+01 2.81578E+01 0.00000E+00
 -1      1039 3.64062E+01 2.10601E+01 0.00000E+00
 -1      1040 1.29329E+02 2.22055E+01 0.00000E+00
 -1      1041 3.88756E+01 2.03959E+01 0.00000E+00
 -1      1042 3.53928E+01 2.31585E+01 0.00000E+00
 -1      1043 1.28933E+02 2.58936E+01 0.00000E+00
 -1      1044 4.31508E+01 2.56439E+01 0.00000E+00
 -1      1045 4.61508E+01 2.56439E+01 0.00000E+00
 -1      1046 4.91508E+01 2.56439E+01 0.00000E+00
 -1      1047 5.21508E+01 2.56439E+01 0.00000E+00
 -1      1048 5.51508E+01 2.56439E+01 0.00000E+00
 -1      1049 5.81508E+01 2.56439E+01 0.00000E+00
 -1      1050 6.11508E+01 2.56439E+01 0.00000E+00
 -1      1051 6.41508E+01 2.56439E+01 0.00000E+00
 -1      1052 6.71508E+01 2.56439E+01 0.00000E+00
 -1      1053 7.01508E+01 2.56439E+01 0.00000E+00
 -1      1054 7.31508E+01 2.56439E+01 0.00000E+00
 -1      1055 7.61508E+01 2.56439E+01 0.00000E+00
 -1      1056 7.91508E+01 2.56439E+01 0.00000E+00
 -1      1057 8.21508E+01 2.56439E+01 0.00000E+00
 -1      1058 8.51508E+01 2.56439E+01 0.00000E+00
 -1      1059 8.81508E+01 2.56439E+01 0.00000E+00
 -1      1060 9.11508E+01 2.56439E+01 0.00000E+00
 -1      1061 9.41508E+01 2.56439E+01 0.00000E+00
 -1      1062 9.71508E+01 2.56439E+01 0.00000E+00
 -1      1063 1.00151E+02 2.56439E+01 0.00000E+00
 -1      1064 1.03151E+02 2.56439E+01 0.00000E+00
 -1      1065 1.06151E+02 2.56439E+01 0.00000E+00
 -1      1066 1.09151E+02 2.56439E+01 0.00000E+00
 -1      1067 1.12151E+02 2.56439E+01 0.00000E+00
 -1      1068 1.15151E+02 2.56439E+01 0.00000E+00
 -1      1069 1.18151E+02 2.56439E+01 0.00000E+00
 -1      1070 1.21151E+02 2.56439E+01 0.00000E+00
 -1      1071 1.24151E+02 2.56439E+01 0.00000E+00
 -1      1072 1.26542E+02 2.57688E+01 0.00000E+00
 -1      1073 5.48449E+01 2.23298E+01 0.00000E+00
 -1      1074 6.38449E+01 2.23298E+01 0.00000E+00
 -1      1075 6.68449E+01 2.23298E+01 0.00000E+00
 -1      1076 6.98449E+01 2.23298E+01 0.00000E+00
 -1      1077 7.28449E+01 2.23298E+01 0.00000E+00
 -1      1078 7.58449E+01 2.23298E+01 0.00000E+00
 -1      1079 7.88449E+01 2.23298E+01 0.00000E+00
 -1      1080 8.18449E+01 2.23298E+01 0.00000E+00
 -1      1081 8.48449E+01 2.23298E+01 0.00000E+00
 -1      1082 8.78449E+01 2.23298E+01 0.00000E+00
 -1      1083 9.08449E+01 2.23298E+01 0.00000E+00
 -1      1084 9.38449E+01 2.23298E+01 0.00000E+00
 -1      1085 9.68449E+01 2.23298E+01 0.00000E+00
 -1      1086 9.98449E+01 2.23298E+01 0.00000E+00
 -1      1087 1.02845E+02 2.23298E+01 0.00000E+00
 -1      1088 1.05845E+02 2.23298E+01 0.00000E+00
 -1      1089 1.08845E+02 2.23298E+01 0.00000E+00
 -1      1090 1.11845E+02 2.23298E+01 0.00000E+00
 -1      1091 1.14845E+02 2.23298E+01 0.00000E+00
 -1      1092 1.17845E+02 2.23298E+01 0.00000E+00
 -1      1093 1.20845E+02 2.23298E+01 0.00000E+00
 -1      1094 1.23845E+02 2.23298E+01 0.00000E+00
 -1      1095 1.26587E+02 2.22676E+01 0.00000E+00
 -1      1096 6.08449E+01 2.23298E+01 0.00000E+00
 -1      1097 5.78449E+01 2.23298E+01 0.00000E+00
 -1      1098 4.28449E+01 2.23298E+01 0.00000E+00
 -1      1099 5.18449E+01 2.23298E+01 0.00000E+00
 -1      1100 4.01508E+01 2.56439E+01 0.00000E+00
 -1      1101 4.58449E+01 2.23298E+01 0.00000E+00
 -1      1102 3.70218E+01 2.57002E+01 0.00000E+00
 -1      1103 4.88449E+01 2.23298E+01 0.00000E+00
 -1      1104 3.82785E+01 2.33520E+01 0.00000E+00
 -1      1105 4.07850E+01 2.25727E+01 0.00000E+00
 -1      1106 0.00000E+00 4.84750E+01 0.00000E+00
 -1      1107 0.00000E+00 4.54250E+01 0.00000E+00
 -1      1108 0.00000E+00 4.23750E+01 0.00000E+00
 -1      1109 0.00000E+00 3.93250E+01 0.00000E+00
 -1      1110 0.00000E+00 3.62750E+01 0.00000E+00
 -1      1111 0.00000E+00 3.32500E+01 0.00000E+00
 -1      1112 0.00000E+00 3.02750E+01 0.00000E+00
 -1      1113 0.00000E+00 2.74000E+01 0.00000E+00
 -1      1114 0.00000E+00 2.47250E+01 0.00000E+00
 -1      1115 0.00000E+00 2.21750E+01 0.00000E+00
 -1      1116 0.00000E+00 1.95500E+01 0.00000E+00
 -1      1117 0.00000E+00 1.67000E+01 0.00000E+00
 -1      1118 0.00000E+00 1.36750E+01 0.00000E+00
 -1      1119 0.00000E+00 1.06250E+01 0.00000E+00
 -1      1120 0.00000E+00 7.57500E+00 0.00000E+00
 -1      1121 0.00000E+00 4.52500E+00 0.00000E+00
 -1      1122 0.00000E+00 1.50000E+00 0.00000E+00
 -1      1123 1.57500E+00 5.00000E+01 0.00000E+00
 -1      1124 4.65000E+00 5.00000E+01 0.00000E+00
 -1      1125 7.65000E+00 5.00000E+01 0.00000E+00
 -1      1126 1.06500E+01 5.00000E+01 0.00000E+00
 -1      1127 1.36500E+01 5.00000E+01 0.00000E+00
 -1      1128 1.66500E+01 5.00000E+01 0.00000E+00
 -1      1129 1.96500E+01 5.00000E+01 0.00000E+00
 -1      1130 2.26500E+01 5.00000E+01 0.00000E+00
 -1      1131 2.56500E+01 5.00000E+01 0.00000E+00
 -1      1132 2.86500E+01 5.00000E+01 0.00000E+00
 -1      1133 3.16500E+01 5.00000E+01 0.00000E+00
 -1      1134 3.46500E+01 5.00000E+01 0.00000E+00
 -1      1135 3.76500E+01 5.00000E+01 0.00000E+00
 -1      1136 4.06500E+01 5.00000E+01 0.00000E+00
 -1      1137 4.36500E+01 5.00000E+01 0.00000E+00
 -1      1138 4.66500E+01 5.00000E+01 0.00000E+00
 -1      1139 4.96500E+01 5.00000E+01 0.00000E+00
 -1      1140 5.26500E+01 5.00000E+01 0.00000E+00
 -1      1141 5.56500E+01 5.00000E+01 0.00000E+00
 -1      1142 5.86500E+01 5.00000E+01 0.00000E+00
 -1      1143 6.16500E+01 5.00000E+01 0.00000E+00
 -1      1144 6.46500E+01 5.00000E+01 0.00000E+00
 -1      1145 6.76500E+01 5.00000E+01 0.00000E+00
 -1      1146 7.06500E+01 5.00000E+01 0.00000E+00
 -1      1147 7.36500E+01 5.00000E+01 0.00000E+00
 -1      1148 7.66500E+01 5.00000E+01 0.00000E+00
 -1      1149 7.96500E+01 5.00000E+01 0.00000E+00
 -1      1150 8.26500E+01 5.00000E+01 0.00000E+00
 -1      1151 8.56500E+01 5.00000E+01 0.00000E+00
 -1      1152 8.86500E+01 5.00000E+01 0.00000E+00
 -1      1153 9.16500E+01 5.00000E+01 0.00000E+00
 -1      1154 9.46500E+01 5.00000E+01 0.00000E+00
 -1      1155 9.76500E+01 5.00000E+01 0.00000E+00
 -1      1156 1.00650E+02 5.00000E+01 0.00000E+00
 -1      1157 1.03650E+02 5.00000E+01 0.00000E+00
 -1      1158 1.06650E+02 5.00000E+01 0.00000E+00
 -1      1159 1.09650E+02 5.00000E+01 0.00000E+00
 -1      1160 1.12650E+02 5.00000E+01 0.00000E+00
 -1      1161 1.15650E+02 5.00000E+01 0.00000E+00
 -1      1162 1.18650E+02 5.00000E+01 0.00000E+00
 -1      1163 1.21650E+02 5.00000E+01 0.00000E+00
 -1      1164 1.24650E+02 5.00000E+01 0.00000E+00
 -1      1165 1.27650E+02 5.00000E+01 0.00000E+00
 -1      1166 1.30650E+02 5.00000E+01 0.00000E+00
 -1      1167 1.33650E+02 5.00000E+01 0.00000E+00
 -1      1168 1.36650E+02 5.00000E+01 0.00000E+00
 -1      1169 1.39650E+02 5.00000E+01 0.00000E+00
 -1      1170 1.42650E+02 5.00000E+01 0.00000E+00
 -1      1171 1.45650E+02 5.00000E+01 0.00000E+00
 -1      1172 1.48575E+02 5.00000E+01 0.00000E+00
 -1      1173 1.57500E+00 0.00000E+00 0.00000E+00
 -1      1174 4.65000E+00 0.00000E+00 0.00000E+00
 -1      1175 7.65000E+00 0.00000E+00 0.00000E+00
 -1      1176 1.06500E+01 0.00000E+00 0.00000E+00
 -1      1177 1.36500E+01 0.00000E+00 0.00000E+00
 -1      1178 1.66500E+01 0.00000E+00 0.00000E+00
 -1      1179 1.96500E+01 0.00000E+00 0.00000E+00
 -1      1180 2.26500E+01 0.00000E+00 0.00000E+00
 -1      1181 2.56500E+01 0.00000E+00 0.00000E+00
 -1      1182 2.86500E+01 0.00000E+00 0.00000E+00
 -1      1183 3.16500E+01 0.00000E+00 0.00000E+00
 -1      1184 3.46500E+01 0.00000E+00 0.00000E+00
 -1      1185 3.76500E+01 0.00000E+00 0.00000E+00
 -1      1186 4.06500E+01 0.00000E+00 0.00000E+00
 -1      1187 4.36500E+01 0.00000E+00 0.00000E+00
 -1      1188 4.66500E+01 0.00000E+00 0.00000E+00
 -1      1189 4.96500E+01 0.00000E+00 0.00000E+00
 -1      1190 5.26500E+01 0.00000E+00 0.00000E+00
 -1      1191 5.56500E+01 0.00000E+00 0.00000E+00
 -1      1192 5.86500E+01 0.00000E+00 0.00000E+00
 -1      1193 6.16500E+01 0.00000E+00 0.00000E+00
 -1      1194 6.46500E+01 0.00000E+00 0.00000E+00
 -1      1195 6.76500E+01 0.00000E+00 0.00000E+00
 -1      1196 7.06500E+01 0.00000E+00 0.00000E+00
 -1      1197 7.36500E+01 0.00000E+00 0.00000E+00
 -1      1198 7.66500E+01 0.00000E+00 0.00000E+00
 -1      1199 7.96500E+01 0.00000E+00 0.00000E+00
 -1      1200 8.26500E+01 0.00000E+00 0.00000E+00
 -1      1201 8.56500E+01 0.00000E+00 0.00000E+00
 -1      1202 8.86500E+01 0.00000E+00 0.00000E+00
 -1      1203 9.16500E+01 0.00000E+00 0.00000E+00
 -1      1204 9.46500E+01 0.00000E+00 0.00000E+00
 -1      1205 9.76500E+01 0.00000E+00 0.00000E+00
 -1      1206 1.00650E+02 0.00000E+00 0.00000E+00
 -1      1207 1.03650E+02 0.00000E+00 0.00000E+00
 -1      1208 1.06650E+02 0.00000E+00 0.00000E+00
 -1      1209 1.09650E+02 0.00000E+00 0.00000E+00
 -1      1210 1.12650E+02 0.00000E+00 0.00000E+00
 -1      1211 1.15650E+02 0.00000E+00 0.00000E+00
 -1      1212 1.18650E+02 0.00000E+00 0.00000E+00
 -1      1213 1.21650E+02 0.00000E+00 0.00000E+00
 -1      1214 1.24650E+02 0.00000E+00 0.00000E+00
 -1      1215 1.27650E+02 0.00000E+00 0.00000E+00
 -1      1216 1.30650E+02 0.00000E+00 0.00000E+00
 -1      1217 1.33650E+02 0.00000E+00 0.00000E+00
 -1      1218 1.36650E+02 0.00000E+00 0.00000E+00
 -1      1219 1.39650E+02 0.00000E+00 0.00000E+00
 -1      1220 1.42650E+02 0.00000E+00 0.00000E+00
 -1      1221 1.45650E+02 0.00000E+00 0.00000E+00
 -1      1222 1.48575E+02 0.00000E+00 0.00000E+00
 -1      1223 1.50000E+02 1.47500E+00 0.00000E+00
 -1      1224 1.50000E+02 4.42500E+00 0.00000E+00
 -1      1225 1.50000E+02 7.37500E+00 0.00000E+00
 -1      1226 1.50000E+02 1.03250E+01 0.00000E+00
 -1      1227 1.50000E+02 1.32750E+01 0.00000E+00
 -1      1228 1.50000E+02 1.62000E+01 0.00000E+00
 -1      1229 1.50000E+02 1.91250E+01 0.00000E+00
 -1      1230 1.50000E+02 2.20750E+01 0.00000E+00
 -1      1231 1.50000E+02 2.50250E+01 0.00000E+00
 -1      1232 1.50000E+02 2.79750E+01 0.00000E+00
 -1      1233 1.50000E+02 3.09250E+01 0.00000E+00
 -1      1234 1.50000E+02 3.38500E+01 0.00000E+00
 -1      1235 1.50000E+02 3.67750E+01 0.00000E+00
 -1      1236 1.50000E+02 3.97250E+01 0.00000E+00
 -1      1237 1.50000E+02 4.26750E+01 0.00000E+00
 -1      1238 1.50000E+02 4.56250E+01 0.00000E+00
 -1      1239 1.50000E+02 4.85500E+01 0.00000E+00
 -1      1240 2.25593E+01 2.28203E+01 0.00000E+00
 -1      1241 2.22113E+01 2.13037E+01 0.00000E+00
 -1      1242 2.15795E+01 1.99703E+01 0.00000E+00
 -1      1243 2.06799E+01 1.87965E+01 0.00000E+00
 -1      1244 1.95110E+01 1.78089E+01 0.00000E+00
 -1      1245 1.81849E+01 1.71105E+01 0.00000E+00
 -1      1246 1.67215E+01 1.67073E+01 0.00000E+00
 -1      1247 1.52194E+01 1.66282E+01 0.00000E+00
 -1      1248 1.37688E+01 1.68627E+01 0.00000E+00
 -1      1249 1.23595E+01 1.74154E+01 0.00000E+00
 -1      1250 1.11484E+01 1.82194E+01 0.00000E+00
 -1      1251 1.01413E+01 1.92415E+01 0.00000E+00
 -1      1252 9.33894E+00 2.04969E+01 0.00000E+00
 -1      1253 8.82938E+00 2.18588E+01 0.00000E+00
 -1      1254 8.61072E+00 2.33304E+01 0.00000E+00
 -1      1255 8.71194E+00 2.48375E+01 0.00000E+00
 -1      1256 9.14564E+00 2.63156E+01 0.00000E+00
 -1      1257 9.88319E+00 2.76503E+01 0.00000E+00
 -1      1258 1.08688E+01 2.87723E+01 0.00000E+00
 -1      1259 1.20545E+01 2.96505E+01 0.00000E+00
 -1      1260 1.33998E+01 3.02612E+01 0.00000E+00
 -1      1261 1.48817E+01 3.05802E+01 0.00000E+00
 -1      1262 1.63816E+01 3.05744E+01 0.00000E+00
 -1      1263 1.79326E+01 3.02192E+01 0.00000E+00
 -1      1264 1.93610E+01 2.95245E+01 0.00000E+00
 -1      1265 2.05397E+01 2.85822E+01 0.00000E+00
 -1      1266 2.15047E+01 2.73848E+01 0.00000E+00
 -1      1267 2.21973E+01 2.59712E+01 0.00000E+00
 -1      1268 2.25583E+01 2.44237E+01 0.00000E+00
 -1      1269 1.57500E+00 4.84750E+01 0.00000E+00
 -1      1270 1.29900E+00 4.46625E+01 0.00000E+00
 -1      1271 1.29900E+00 4.61875E+01 0.00000E+00
 -1      1272 1.29900E+00 4.16125E+01 0.00000E+00
 -1      1273 1.29900E+00 4.31375E+01 0.00000E+00
 -1      1274 2.59800E+00 4.39000E+01 0.00000E+00
 -1      1275 1.29900E+00 3.85625E+01 0.00000E+00
 -1      1276 1.29900E+00 4.00875E+01 0.00000E+00
 -1      1277 2.59800E+00 4.08500E+01 0.00000E+00
 -1      1278 1.29900E+00 3.55125E+01 0.00000E+00
 -1      1279 1.29900E+00 3.70375E+01 0.00000E+00
 -1      1280 2.59800E+00 3.78000E+01 0.00000E+00
 -1      1281 1.29900E+00 3.25125E+01 0.00000E+00
 -1      1282 1.29900E+00 3.40125E+01 0.00000E+00
 -1      1283 2.59800E+00 3.47750E+01 0.00000E+00
 -1      1284 1.29900E+00 2.95625E+01 0.00000E+00
 -1      1285 1.29900E+00 3.10375E+01 0.00000E+00
 -1      1286 2.59800E+00 3.18000E+01 0.00000E+00
 -1      1287 1.29900E+00 2.67625E+01 0.00000E+00
 -1      1288 1.29900E+00 2.81625E+01 0.00000E+00
 -1      1289 2.59800E+00 2.89250E+01 0.00000E+00
 -1      1290 1.29900E+00 2.42125E+01 0.00000E+00
 -1      1291 1.29900E+00 2.54875E+01 0.00000E+00
 -1      1292 2.59800E+00 2.62500E+01 0.00000E+00
 -1      1293 1.29900E+00 2.16625E+01 0.00000E+00
 -1      1294 1.29900E+00 2.29375E+01 0.00000E+00
 -1      1295 2.59800E+00 2.37000E+01 0.00000E+00
 -1      1296 1.29900E+00 1.89625E+01 0.00000E+00
 -1      1297 1.29900E+00 2.03125E+01 0.00000E+00
 -1      1298 2.59800E+00 2.10750E+01 0.00000E+00
 -1      1299 1.29900E+00 1.59625E+01 0.00000E+00
 -1      1300 1.29900E+00 1.74625E+01 0.00000E+00
 -1      1301 2.59800E+00 1.82250E+01 0.00000E+00
 -1      1302 1.29900E+00 1.29125E+01 0.00000E+00
 -1      1303 1.29900E+00 1.44375E+01 0.00000E+00
 -1      1304 2.59800E+00 1.52000E+01 0.00000E+00
 -1      1305 1.29900E+00 9.86250E+00 0.00000E+00
 -1      1306 1.29900E+00 1.13875E+01 0.00000E+00
 -1      1307 2.59800E+00 1.21500E+01 0.00000E+00
 -1      1308 1.29900E+00 6.81250E+00 0.00000E+00
 -1      1309 1.29900E+00 8.33750E+00 0.00000E+00
 -1      1310 2.59800E+00 9.10000E+00 0.00000E+00
 -1      1311 1.29900E+00 3.76250E+00 0.00000E+00
 -1      1312 1.29900E+00 5.28750E+00 0.00000E+00
 -1      1313 2.59800E+00 6.05000E+00 0.00000E+00
 -1      1314 1.43700E+00 1.13125E+00 0.00000E+00
 -1      1315 1.43700E+00 2.63125E+00 0.00000E+00
 -1      1316 2.73600E+00 3.39375E+00 0.00000E+00
 -1      1317 3.01200E+00 1.13125E+00 0.00000E+00
 -1      1318 3.90000E+00 4.87010E+01 0.00000E+00
 -1      1319 5.40000E+00 4.87010E+01 0.00000E+00
 -1      1320 6.90000E+00 4.87010E+01 0.00000E+00
 -1      1321 8.40000E+00 4.87010E+01 0.00000E+00
 -1      1322 6.15000E+00 4.74020E+01 0.00000E+00
 -1      1323 9.90000E+00 4.87010E+01 0.00000E+00
 -1      1324 1.14000E+01 4.87010E+01 0.00000E+00
 -1      1325 9.15000E+00 4.74020E+01 0.00000E+00
 -1      1326 1.29000E+01 4.87010E+01 0.00000E+00
 -1      1327 1.44000E+01 4.87010E+01 0.00000E+00
 -1      1328 1.21500E+01 4.74020E+01 0.00000E+00
 -1      1329 1.59000E+01 4.87010E+01 0.00000E+00
 -1      1330 1.74000E+01 4.87010E+01 0.00000E+00
 -1      1331 1.51500E+01 4.74020E+01 0.00000E+00
 -1      1332 1.89000E+01 4.87010E+01 0.00000E+00
 -1      1333 2.04000E+01 4.87010E+01 0.00000E+00
 -1      1334 1.81500E+01 4.74020E+01 0.00000E+00
 -1      1335 2.19000E+01 4.87010E+01 0.00000E+00
 -1      1336 2.34000E+01 4.87010E+01 0.00000E+00
 -1      1337 2.11500E+01 4.74020E+01 0.00000E+00
 -1      1338 2.49000E+01 4.87010E+01 0.00000E+00
 -1      1339 2.64000E+01 4.87010E+01 0.00000E+00
 -1      1340 2.41500E+01 4.74020E+01 0.00000E+00
 -1      1341 2.79000E+01 4.87010E+01 0.00000E+00
 -1      1342 2.94000E+01 4.87010E+01 0.00000E+00
 -1      1343 2.71500E+01 4.74020E+01 0.00000E+00
 -1      1344 3.09000E+01 4.87010E+01 0.00000E+00
 -1      1345 3.24000E+01 4.87010E+01 0.00000E+00
 -1      1346 3.01500E+01 4.74020E+01 0.00000E+00
 -1      1347 3.39000E+01 4.87010E+01 0.00000E+00
 -1      1348 3.54000E+01 4.87010E+01 0.00000E+00
 -1      1349 3.31500E+01 4.74020E+01 0.00000E+00
 -1      1350 3.69000E+01 4.87010E+01 0.00000E+00
 -1      1351 3.84000E+01 4.87010E+01 0.00000E+00
 -1      1352 3.61500E+01 4.74020E+01 0.00000E+00
 -1      1353 3.99000E+01 4.87010E+01 0.00000E+00
 -1      1354 4.14000E+01 4.87010E+01 0.00000E+00
 -1      1355 3.91500E+01 4.74020E+01 0.00000E+00
 -1      1356 4.29000E+01 4.87010E+01 0.00000E+00
 -1      1357 4.44000E+01 4.87010E+01 0.00000E+00
 -1      1358 4.21500E+01 4.74020E+01 0.00000E+00
 -1      1359 4.59000E+01 4.87010E+01 0.00000E+00
 -1      1360 4.74000E+01 4.87010E+01 0.00000E+00
 -1      1361 4.51500E+01 4.74020E+01 0.00000E+00
 -1      1362 4.89000E+01 4.87010E+01 0.00000E+00
 -1      1363 5.04000E+01 4.87010E+01 0.00000E+00
 -1      1364 4.81500E+01 4.74020E+01 0.00000E+00
 -1      1365 5.19000E+01 4.87010E+01 0.00000E+00
 -1      1366 5.34000E+01 4.87010E+01 0.00000E+00
 -1      1367 5.11500E+01 4.74020E+01 0.00000E+00
 -1      1368 5.49000E+01 4.87010E+01 0.00000E+00
 -1      1369 5.64000E+01 4.87010E+01 0.00000E+00
 -1      1370 5.41500E+01 4.74020E+01 0.00000E+00
 -1      1371 5.79000E+01 4.87010E+01 0.00000E+00
 -1      1372 5.94000E+01 4.87010E+01 0.00000E+00
 -1      1373 5.71500E+01 4.74020E+01 0.00000E+00
 -1      1374 6.09000E+01 4.87010E+01 0.00000E+00
 -1      1375 6.24000E+01 4.87010E+01 0.00000E+00
 -1      1376 6.01500E+01 4.74020E+01 0.00000E+00
 -1      1377 6.39000E+01 4.87010E+01 0.00000E+00
 -1      1378 6.54000E+01 4.87010E+01 0.00000E+00
 -1      1379 6.31500E+01 4.74020E+01 0.00000E+00
 -1      1380 6.69000E+01 4.87010E+01 0.00000E+00
 -1      1381 6.84000E+01 4.87010E+01 0.00000E+00
 -1      1382 6.61500E+01 4.74020E+01 0.00000E+00
 -1      1383 6.99000E+01 4.87010E+01 0.00000E+00
 -1      1384 7.14000E+01 4.87010E+01 0.00000E+00
 -1      1385 6.91500E+01 4.74020E+01 0.00000E+00
 -1      1386 7.29000E+01 4.87010E+01 0.00000E+00
 -1      1387 7.44000E+01 4.87010E+01 0.00000E+00
 -1      1388 7.21500E+01 4.74020E+01 0.00000E+00
 -1      1389 7.59000E+01 4.87010E+01 0.00000E+00
 -1      1390 7.74000E+01 4.87010E+01 0.00000E+00
 -1      1391 7.51500E+01 4.74020E+01 0.00000E+00
 -1      1392 7.89000E+01 4.87010E+01 0.00000E+00
 -1      1393 8.04000E+01 4.87010E+01 0.00000E+00
 -1      1394 7.81500E+01 4.74020E+01 0.00000E+00
 -1      1395 8.19000E+01 4.87010E+01 0.00000E+00
 -1      1396 8.34000E+01 4.87010E+01 0.00000E+00
 -1      1397 8.11500E+01 4.74020E+01 0.00000E+00
 -1      1398 8.49000E+01 4.87010E+01 0.00000E+00
 -1      1399 8.64000E+01 4.87010E+01 0.00000E+00
 -1      1400 8.41500E+01 4.74020E+01 0.00000E+00
 -1      1401 8.79000E+01 4.87010E+01 0.00000E+00
 -1      1402 8.94000E+01 4.87010E+01 0.00000E+00
 -1      1403 8.71500E+01 4.74020E+01 0.00000E+00
 -1      1404 9.09000E+01 4.87010E+01 0.00000E+00
 -1      1405 9.24000E+01 4.87010E+01 0.00000E+00
 -1      1406 9.01500E+01 4.74020E+01 0.00000E+00
 -1      1407 9.39000E+01 4.87010E+01 0.00000E+00
 -1      1408 9.54000E+01 4.87010E+01 0.00000E+00
 -1      1409 9.31500E+01 4.74020E+01 0.00000E+00
 -1      1410 9.69000E+01 4.87010E+01 0.00000E+00
 -1      1411 9.84000E+01 4.87010E+01 0.00000E+00
 -1      1412 9.61500E+01 4.74020E+01 0.00000E+00
 -1      1413 9.99000E+01 4.87010E+01 0.00000E+00
 -1      1414 1.01400E+02 4.87010E+01 0.00000E+00
 -1      1415 9.91500E+01 4.74020E+01 0.00000E+00
 -1      1416 1.02900E+02 4.87010E+01 0.00000E+00
 -1      1417 1.04400E+02 4.87010E+01 0.00000E+00
 -1      1418 1.02150E+02 4.74020E+01 0.00000E+00
 -1      1419 1.05900E+02 4.87010E+01 0.00000E+00
 -1      1420 1.07400E+02 4.87010E+01 0.00000E+00
 -1      1421 1.05150E+02 4.74020E+01 0.00000E+00
 -1      1422 1.08900E+02 4.87010E+01 0.00000E+00
 -1      1423 1.10400E+02 4.87010E+01 0.00000E+00
 -1      1424 1.08150E+02 4.74020E+01 0.00000E+00
 -1      1425 1.11900E+02 4.87010E+01 0.00000E+00
 -1      1426 1.13400E+02 4.87010E+01 0.00000E+00
 -1      1427 1.11150E+02 4.74020E+01 0.00000E+00
 -1      1428 1.14900E+02 4.87010E+01 0.00000E+00
 -1      1429 1.16400E+02 4.87010E+01 0.00000E+00
 -1      1430 1.14150E+02 4.74020E+01 0.00000E+00
 -1      1431 1.17900E+02 4.87010E+01 0.00000E+00
 -1      1432 1.19400E+02 4.87010E+01 0.00000E+00
 -1      1433 1.17150E+02 4.74020E+01 0.00000E+00
 -1      1434 1.20900E+02 4.87010E+01 0.00000E+00
 -1      1435 1.22400E+02 4.87010E+01 0.00000E+00
 -1      1436 1.20150E+02 4.74020E+01 0.00000E+00
 -1      1437 1.23900E+02 4.87010E+01 0.00000E+00
 -1      1438 1.25400E+02 4.87010E+01 0.00000E+00
 -1      1439 1.23150E+02 4.74020E+01 0.00000E+00
 -1      1440 1.26900E+02 4.87010E+01 0.00000E+00
 -1      1441 1.28400E+02 4.87010E+01 0.00000E+00
 -1      1442 1.26150E+02 4.74020E+01 0.00000E+00
 -1      1443 1.29900E+02 4.87010E+01 0.00000E+00
 -1      1444 1.31400E+02 4.87010E+01 0.00000E+00
 -1      1445 1.29150E+02 4.74020E+01 0.00000E+00
 -1      1446 1.32900E+02 4.87010E+01 0.00000E+00
 -1      1447 1.34400E+02 4.87010E+01 0.00000E+00
 -1      1448 1.32150E+02 4.74020E+01 0.00000E+00
 -1      1449 1.35900E+02 4.87010E+01 0.00000E+00
 -1      1450 1.37400E+02 4.87010E+01 0.00000E+00
 -1      1451 1.35150E+02 4.74020E+01 0.00000E+00
 -1      1452 1.38900E+02 4.87010E+01 0.00000E+00
 -1      1453 1.40400E+02 4.87010E+01 0.00000E+00
 -1      1454 1.38150E+02 4.74020E+01 0.00000E+00
 -1      1455 1.41900E+02 4.87010E+01 0.00000E+00
 -1      1456 1.43400E+02 4.87010E+01 0.00000E+00
 -1      1457 1.41150E+02 4.74020E+01 0.00000E+00
 -1      1458 1.44900E+02 4.87010E+01 0.00000E+00
 -1      1459 1.46400E+02 4.87010E+01 0.00000E+00
 -1      1460 1.44150E+02 4.74020E+01 0.00000E+00
 -1      1461 1.48575E+02 4.85500E+01 0.00000E+00
 -1      1462 1.47825E+02 4.72510E+01 0.00000E+00
 -1      1463 6.01200E+00 1.13125E+00 0.00000E+00
 -1      1464 4.51200E+00 1.13125E+00 0.00000E+00
 -1      1465 4.37400E+00 2.26250E+00 0.00000E+00
 -1      1466 9.01200E+00 1.13125E+00 0.00000E+00
 -1      1467 7.51200E+00 1.13125E+00 0.00000E+00
 -1      1468 7.37400E+00 2.26250E+00 0.00000E+00
 -1      1469 1.20120E+01 1.13125E+00 0.00000E+00
 -1      1470 1.05120E+01 1.13125E+00 0.00000E+00
 -1      1471 1.03740E+01 2.26250E+00 0.00000E+00
 -1      1472 1.50120E+01 1.13125E+00 0.00000E+00
 -1      1473 1.35120E+01 1.13125E+00 0.00000E+00
 -1      1474 1.33740E+01 2.26250E+00 0.00000E+00
 -1      1475 1.80120E+01 1.13125E+00 0.00000E+00
 -1      1476 1.65120E+01 1.13125E+00 0.00000E+00
 -1      1477 1.63740E+01 2.26250E+00 0.00000E+00
 -1      1478 2.10120E+01 1.13125E+00 0.00000E+00
 -1      1479 1.95120E+01 1.13125E+00 0.00000E+00
 -1      1480 1.93740E+01 2.26250E+00 0.00000E+00
 -1      1481 2.40120E+01 1.13125E+00 0.00000E+00
 -1      1482 2.25120E+01 1.13125E+00 0.00000E+00
 -1      1483 2.23740E+01 2.26250E+00 0.00000E+00
 -1      1484 2.70120E+01 1.13125E+00 0.00000E+00
 -1      1485 2.55120E+01 1.13125E+00 0.00000E+00
 -1      1486 2.53740E+01 2.26250E+00 0.00000E+00
 -1      1487 3.00120E+01 1.13125E+00 0.00000E+00
 -1      1488 2.85120E+01 1.13125E+00 0.00000E+00
 -1      1489 2.83740E+01 2.26250E+00 0.00000E+00
 -1      1490 3.30120E+01 1.13125E+00 0.00000E+00
 -1      1491 3.15120E+01 1.13125E+00 0.00000E+00
 -1      1492 3.13740E+01 2.26250E+00 0.00000E+00
 -1      1493 3.60120E+01 1.13125E+00 0.00000E+00
 -1      1494 3.45120E+01 1.13125E+00 0.00000E+00
 -1      1495 3.43740E+01 2.26250E+00 0.00000E+00
 -1      1496 3.90120E+01 1.13125E+00 0.00000E+00
 -1      1497 3.75120E+01 1.13125E+00 0.00000E+00
 -1      1498 3.73740E+01 2.26250E+00 0.00000E+00
 -1      1499 4.20120E+01 1.13125E+00 0.00000E+00
 -1      1500 4.05120E+01 1.13125E+00 0.00000E+00
 -1      1501 4.03740E+01 2.26250E+00 0.00000E+00
 -1      1502 4.50120E+01 1.13125E+00 0.00000E+00
 -1      1503 4.35120E+01 1.13125E+00 0.00000E+00
 -1      1504 4.33740E+01 2.26250E+00 0.00000E+00
 -1      1505 4.80120E+01 1.13125E+00 0.00000E+00
 -1      1506 4.65120E+01 1.13125E+00 0.00000E+00
 -1      1507 4.63740E+01 2.26250E+00 0.00000E+00
 -1      1508 5.10120E+01 1.13125E+00 0.00000E+00
 -1      1509 4.95120E+01 1.13125E+00 0.00000E+00
 -1      1510 4.93740E+01 2.26250E+00 0.00000E+00
 -1      1511 5.40120E+01 1.13125E+00 0.00000E+00
 -1      1512 5.25120E+01 1.13125E+00 0.00000E+00
 -1      1513 5.23740E+01 2.26250E+00 0.00000E+00
 -1      1514 5.70120E+01 1.13125E+00 0.00000E+00
 -1      1515 5.55120E+01 1.13125E+00 0.00000E+00
 -1      1516 5.53740E+01 2.26250E+00 0.00000E+00
 -1      1517 6.00120E+01 1.13125E+00 0.00000E+00
 -1      1518 5.85120E+01 1.13125E+00 0.00000E+00
 -1      1519 5.83740E+01 2.26250E+00 0.00000E+00
 -1      1520 6.30120E+01 1.13125E+00 0.00000E+00
 -1      1521 6.15120E+01 1.13125E+00 0.00000E+00
 -1      1522 6.13740E+01 2.26250E+00 0.00000E+00
 -1      1523 6.60120E+01 1.13125E+00 0.00000E+00
 -1      1524 6.45120E+01 1.13125E+00 0.00000E+00
 -1      1525 6.43740E+01 2.26250E+00 0.00000E+00
 -1      1526 6.90120E+01 1.13125E+00 0.00000E+00
 -1      1527 6.75120E+01 1.13125E+00 0.00000E+00
 -1      1528 6.73740E+01 2.26250E+00 0.00000E+00
 -1      1529 7.20120E+01 1.13125E+00 0.00000E+00
 -1      1530 7.05120E+01 1.13125E+00 0.00000E+00
 -1      1531 7.03740E+01 2.26250E+00 0.00000E+00
 -1      1532 7.50120E+01 1.13125E+00 0.00000E+00
 -1      1533 7.35120E+01 1.13125E+00 0.00000E+00
 -1      1534 7.33740E+01 2.26250E+00 0.00000E+00
 -1      1535 7.80120E+01 1.13125E+00 0.00000E+00
 -1      1536 7.65120E+01 1.13125E+00 0.00000E+00
 -1      1537 7.63740E+01 2.26250E+00 0.00000E+00
 -1      1538 8.10120E+01 1.13125E+00 0.00000E+00
 -1      1539 7.95120E+01 1.13125E+00 0.00000E+00
 -1      1540 7.93740E+01 2.26250E+00 0.00000E+00
 -1      1541 8.40120E+01 1.13125E+00 0.00000E+00
 -1      1542 8.25120E+01 1.13125E+00 0.00000E+00
 -1      1543 8.23740E+01 2.26250E+00 0.00000E+00
 -1      1544 8.70120E+01 1.13125E+00 0.00000E+00
 -1      1545 8.55120E+01 1.13125E+00 0.00000E+00
 -1      1546 8.53740E+01 2.26250E+00 0.00000E+00
 -1      1547 9.00120E+01 1.13125E+00 0.00000E+00
 -1      1548 8.85120E+01 1.13125E+00 0.00000E+00
 -1      1549 8.83740E+01 2.26250E+00 0.00000E+00
 -1      1550 9.30120E+01 1.13125E+00 0.00000E+00
 -1      1551 9.15120E+01 1.13125E+00 0.00000E+00
 -1      1552 9.13740E+01 2.26250E+00 0.00000E+00
 -1      1553 9.60120E+01 1.13125E+00 0.00000E+00
 -1      1554 9.45120E+01 1.13125E+00 0.00000E+00
 -1      1555 9.43740E+01 2.26250E+00 0.00000E+00
 -1      1556 9.90120E+01 1.13125E+00 0.00000E+00
 -1      1557 9.75120E+01 1.13125E+00 0.00000E+00
 -1      1558 9.73740E+01 2.26250E+00 0.00000E+00
 -1      1559 1.02012E+02 1.13125E+00 0.00000E+00
 -1      1560 1.00512E+02 1.13125E+00 0.00000E+00
 -1      1561 1.00374E+02 2.26250E+00 0.00000E+00
 -1      1562 1.05012E+02 1.13125E+00 0.00000E+00
 -1      1563 1.03512E+02 1.13125E+00 0.00000E+00
 -1      1564 1.03374E+02 2.26250E+00 0.00000E+00
 -1      1565 1.08012E+02 1.13125E+00 0.00000E+00
 -1      1566 1.06512E+02 1.13125E+00 0.00000E+00
 -1      1567 1.06374E+02 2.26250E+00 0.00000E+00
 -1      1568 1.11012E+02 1.13125E+00 0.00000E+00
 -1      1569 1.09512E+02 1.13125E+00 0.00000E+00
 -1      1570 1.09374E+02 2.26250E+00 0.00000E+00
 -1      1571 1.14012E+02 1.13125E+00 0.00000E+00
 -1      1572 1.12512E+02 1.13125E+00 0.00000E+00
 -1      1573 1.12374E+02 2.26250E+00 0.00000E+00
 -1      1574 1.17012E+02 1.13125E+00 0.00000E+00
 -1      1575 1.15512E+02 1.13125E+00 0.00000E+00
 -1      1576 1.15374E+02 2.26250E+00 0.00000E+00
 -1      1577 1.20012E+02 1.13125E+00 0.00000E+00
 -1      1578 1.18512E+02 1.13125E+00 0.00000E+00
 -1      1579 1.18374E+02 2.26250E+00 0.00000E+00
 -1      1580 1.23012E+02 1.13125E+00 0.00000E+00
 -1      1581 1.21512E+02 1.13125E+00 0.00000E+00
 -1      1582 1.21374E+02 2.26250E+00 0.00000E+00
 -1      1583 1.26012E+02 1.13125E+00 0.00000E+00
 -1      1584 1.24512E+02 1.13125E+00 0.00000E+00
 -1      1585 1.24374E+02 2.26250E+00 0.00000E+00
 -1      1586 1.29012E+02 1.13125E+00 0.00000E+00
 -1      1587 1.27512E+02 1.13125E+00 0.00000E+00
 -1      1588 1.27374E+02 2.26250E+00 0.00000E+00
 -1      1589 1.32012E+02 1.13125E+00 0.00000E+00
 -1      1590 1.30512E+02 1.13125E+00 0.00000E+00
 -1      1591 1.30374E+02 2.26250E+00 0.00000E+00
 -1      1592 1.35012E+02 1.13125E+00 0.00000E+00
 -1      1593 1.33512E+02 1.13125E+00 0.00000E+00
 -1      1594 1.33374E+02 2.26250E+00 0.00000E+00
 -1      1595 1.38012E+02 1.13125E+00 0.00000E+00
 -1      1596 1.36512E+02 1.13125E+00 0.00000E+00
 -1      1597 1.36374E+02 2.26250E+00 0.00000E+00
 -1      1598 1.41012E+02 1.13125E+00 0.00000E+00
 -1      1599 1.39512E+02 1.13125E+00 0.00000E+00
 -1      1600 1.39374E+02 2.26250E+00 0.00000E+00
 -1      1601 1.44012E+02 1.13125E+00 0.00000E+00
 -1      1602 1.42512E+02 1.13125E+00 0.00000E+00
 -1      1603 1.42374E+02 2.26250E+00 0.00000E+00
 -1      1604 1.47012E+02 1.13125E+00 0.00000E+00
 -1      1605 1.45512E+02 1.13125E+00 0.00000E+00
 -1      1606 1.45374E+02 2.26250E+00 0.00000E+00
 -1      1607 1.48575E+02 1.47500E+00 0.00000E+00
 -1      1608 1.48701E+02 5.16250E+00 0.00000E+00
 -1      1609 1.48701E+02 3.68750E+00 0.00000E+00
 -1      1610 1.48701E+02 8.11250E+00 0.00000E+00
 -1      1611 1.48701E+02 6.63750E+00 0.00000E+00
 -1      1612 1.47402E+02 5.90000E+00 0.00000E+00
 -1      1613 1.48701E+02 1.10625E+01 0.00000E+00
 -1      1614 1.48701E+02 9.58750E+00 0.00000E+00
 -1      1615 1.47402E+02 8.85000E+00 0.00000E+00
 -1      1616 1.48701E+02 1.40125E+01 0.00000E+00
 -1      1617 1.48701E+02 1.25375E+01 0.00000E+00
 -1      1618 1.47402E+02 1.18000E+01 0.00000E+00
 -1      1619 1.48701E+02 1.69125E+01 0.00000E+00
 -1      1620 1.48701E+02 1.54625E+01 0.00000E+00
 -1      1621 1.47402E+02 1.47250E+01 0.00000E+00
 -1      1622 1.48701E+02 1.98625E+01 0.00000E+00
 -1      1623 1.48701E+02 1.83875E+01 0.00000E+00
 -1      1624 1.47402E+02 1.76500E+01 0.00000E+00
 -1      1625 1.48701E+02 2.28125E+01 0.00000E+00
 -1      1626 1.48701E+02 2.13375E+01 0.00000E+00
 -1      1627 1.47402E+02 2.06000E+01 0.00000E+00
 -1      1628 1.48701E+02 2.57625E+01 0.00000E+00
 -1      1629 1.48701E+02 2.42875E+01 0.00000E+00
 -1      1630 1.47402E+02 2.35500E+01 0.00000E+00
 -1      1631 1.48701E+02 2.87125E+01 0.00000E+00
 -1      1632 1.48701E+02 2.72375E+01 0.00000E+00
 -1      1633 1.47402E+02 2.65000E+01 0.00000E+00
 -1      1634 1.48701E+02 3.16625E+01 0.00000E+00
 -1      1635 1.48701E+02 3.01875E+01 0.00000E+00
 -1      1636 1.47402E+02 2.94500E+01 0.00000E+00
 -1      1637 1.48701E+02 3.45625E+01 0.00000E+00
 -1      1638 1.48701E+02 3.31125E+01 0.00000E+00
 -1      1639 1.47402E+02 3.23750E+01 0.00000E+00
 -1      1640 1.48701E+02 3.75125E+01 0.00000E+00
 -1      1641 1.48701E+02 3.60375E+01 0.00000E+00
 -1      1642 1.47402E+02 3.53000E+01 0.00000E+00
 -1      1643 1.48701E+02 4.04625E+01 0.00000E+00
 -1      1644 1.48701E+02 3.89875E+01 0.00000E+00
 -1      1645 1.47402E+02 3.82500E+01 0.00000E+00
 -1      1646 1.48701E+02 4.34125E+01 0.00000E+00
 -1      1647 1.48701E+02 4.19375E+01 0.00000E+00
 -1      1648 1.47402E+02 4.12000E+01 0.00000E+00
 -1      1649 1.48263E+02 4.60692E+01 0.00000E+00
 -1      1650 1.48263E+02 4.45942E+01 0.00000E+00
 -1      1651 1.46964E+02 4.38568E+01 0.00000E+00
 -1      1652 1.46088E+02 4.62202E+01 0.00000E+00
 -1      1653 2.32373E+01 2.23413E+01 0.00000E+00
 -1      1654 2.33282E+01 2.31334E+01 0.00000E+00
 -1      1655 2.26587E+01 2.07451E+01 0.00000E+00
 -1      1656 2.29095E+01 2.14611E+01 0.00000E+00
 -1      1657 2.19145E+01 1.93458E+01 0.00000E+00
 -1      1658 2.22880E+01 1.99577E+01 0.00000E+00
 -1      1659 2.08572E+01 1.81026E+01 0.00000E+00
 -1      1660 2.13821E+01 1.86550E+01 0.00000E+00
 -1      1661 1.96005E+01 1.69875E+01 0.00000E+00
 -1      1662 2.02380E+01 1.74162E+01 0.00000E+00
 -1      1663 1.80701E+01 1.64089E+01 0.00000E+00
 -1      1664 1.87493E+01 1.66782E+01 0.00000E+00
 -1      1665 1.64359E+01 1.60072E+01 0.00000E+00
 -1      1666 1.72131E+01 1.61328E+01 0.00000E+00
 -1      1667 1.48301E+01 1.60794E+01 0.00000E+00
 -1      1668 1.55459E+01 1.60400E+01 0.00000E+00
 -1      1669 1.32463E+01 1.63751E+01 0.00000E+00
 -1      1670 1.39725E+01 1.61778E+01 0.00000E+00
 -1      1671 1.17410E+01 1.70544E+01 0.00000E+00
 -1      1672 1.24155E+01 1.67015E+01 0.00000E+00
 -1      1673 1.05174E+01 1.79988E+01 0.00000E+00
 -1      1674 1.10513E+01 1.75580E+01 0.00000E+00
 -1      1675 9.46690E+00 1.91770E+01 0.00000E+00
 -1      1676 9.93110E+00 1.85975E+01 0.00000E+00
 -1      1677 8.66555E+00 2.05790E+01 0.00000E+00
 -1      1678 8.99872E+00 1.99100E+01 0.00000E+00
 -1      1679 8.18846E+00 2.20575E+01 0.00000E+00
 -1      1680 8.36604E+00 2.13735E+01 0.00000E+00
 -1      1681 7.86525E+00 2.36906E+01 0.00000E+00
 -1      1682 7.89730E+00 2.29103E+01 0.00000E+00
 -1      1683 8.21611E+00 2.52957E+01 0.00000E+00
 -1      1684 8.08898E+00 2.45773E+01 0.00000E+00
 -1      1685 8.67005E+00 2.69536E+01 0.00000E+00
 -1      1686 8.35752E+00 2.62054E+01 0.00000E+00
 -1      1687 9.58900E+00 2.82945E+01 0.00000E+00
 -1      1688 9.17760E+00 2.77108E+01 0.00000E+00
 -1      1689 1.06900E+01 2.95428E+01 0.00000E+00
 -1      1690 1.01162E+01 2.90155E+01 0.00000E+00
 -1      1691 1.20646E+01 3.03195E+01 0.00000E+00
 -1      1692 1.14646E+01 2.99664E+01 0.00000E+00
 -1      1693 1.35669E+01 3.09976E+01 0.00000E+00
 -1      1694 1.28255E+01 3.07516E+01 0.00000E+00
 -1      1695 1.51840E+01 3.12243E+01 0.00000E+00
 -1      1696 1.44534E+01 3.11484E+01 0.00000E+00
 -1      1697 1.68245E+01 3.10927E+01 0.00000E+00
 -1      1698 1.60639E+01 3.11776E+01 0.00000E+00
 -1      1699 1.85352E+01 3.06865E+01 0.00000E+00
 -1      1700 1.77564E+01 3.09612E+01 0.00000E+00
 -1      1701 1.99856E+01 2.97963E+01 0.00000E+00
 -1      1702 1.93422E+01 3.02055E+01 0.00000E+00
 -1      1703 2.12037E+01 2.87206E+01 0.00000E+00
 -1      1704 2.06742E+01 2.92470E+01 0.00000E+00
 -1      1705 2.22260E+01 2.73761E+01 0.00000E+00
 -1      1706 2.18002E+01 2.80429E+01 0.00000E+00
 -1      1707 2.28585E+01 2.57916E+01 0.00000E+00
 -1      1708 2.25952E+01 2.65290E+01 0.00000E+00
 -1      1709 2.32438E+01 2.40974E+01 0.00000E+00
 -1      1710 2.31510E+01 2.48981E+01 0.00000E+00
 -1      1711 2.09703E+01 1.72461E+01 0.00000E+00
 -1      1712 2.21220E+01 1.86232E+01 0.00000E+00
 -1      1713 1.48437E+02 2.60625E+00 0.00000E+00
 -1      1714 1.47138E+02 3.34375E+00 0.00000E+00
 -1      1715 2.37236E+01 2.17691E+01 0.00000E+00
 -1      1716 2.30251E+01 2.01015E+01 0.00000E+00
 -1      1717 2.39671E+01 2.36132E+01 0.00000E+00
 -1      1718 1.94998E+01 1.62504E+01 0.00000E+00
 -1      1719 1.77916E+01 1.56649E+01 0.00000E+00
 -1      1720 1.60446E+01 1.54216E+01 0.00000E+00
 -1      1721 1.42970E+01 1.55527E+01 0.00000E+00
 -1      1722 1.26086E+01 1.59774E+01 0.00000E+00
 -1      1723 1.10881E+01 1.68073E+01 0.00000E+00
 -1      1724 9.81215E+00 1.79096E+01 0.00000E+00
 -1      1725 8.75769E+00 1.92413E+01 0.00000E+00
 -1      1726 7.99000E+00 2.07687E+01 0.00000E+00
 -1      1727 7.39933E+00 2.24159E+01 0.00000E+00
 -1      1728 7.33189E+00 2.41554E+01 0.00000E+00
 -1      1729 7.69704E+00 2.59518E+01 0.00000E+00
 -1      1730 8.34601E+00 2.76188E+01 0.00000E+00
 -1      1731 9.38075E+00 2.90971E+01 0.00000E+00
 -1      1732 1.06826E+01 3.02418E+01 0.00000E+00
 -1      1733 1.22180E+01 3.10974E+01 0.00000E+00
 -1      1734 1.38653E+01 3.16802E+01 0.00000E+00
 -1      1735 1.56316E+01 3.17843E+01 0.00000E+00
 -1      1736 1.74434E+01 3.16061E+01 0.00000E+00
 -1      1737 1.91822E+01 3.09935E+01 0.00000E+00
 -1      1738 2.06777E+01 2.99631E+01 0.00000E+00
 -1      1739 2.19628E+01 2.87360E+01 0.00000E+00
 -1      1740 2.29285E+01 2.72112E+01 0.00000E+00
 -1      1741 2.35903E+01 2.54707E+01 0.00000E+00
 -1      1742 1.69110E+00 4.67793E+01 0.00000E+00
 -1      1743 3.26610E+00 4.83043E+01 0.00000E+00
 -1      1744 3.89700E+00 4.00875E+01 0.00000E+00
 -1      1745 3.89700E+00 4.16125E+01 0.00000E+00
 -1      1746 3.89700E+00 4.31375E+01 0.00000E+00
 -1      1747 3.89700E+00 4.46625E+01 0.00000E+00
 -1      1748 5.19600E+00 4.23750E+01 0.00000E+00
 -1      1749 3.89700E+00 3.40250E+01 0.00000E+00
 -1      1750 3.89700E+00 3.55250E+01 0.00000E+00
 -1      1751 3.89700E+00 3.10750E+01 0.00000E+00
 -1      1752 3.89700E+00 3.25500E+01 0.00000E+00
 -1      1753 5.19600E+00 3.33000E+01 0.00000E+00
 -1      1754 3.89700E+00 2.82750E+01 0.00000E+00
 -1      1755 3.89700E+00 2.96750E+01 0.00000E+00
 -1      1756 5.19600E+00 3.04250E+01 0.00000E+00
 -1      1757 3.53934E+00 2.30625E+01 0.00000E+00
 -1      1758 3.53934E+00 2.43375E+01 0.00000E+00
 -1      1759 3.62312E+00 2.04000E+01 0.00000E+00
 -1      1760 3.62312E+00 2.17500E+01 0.00000E+00
 -1      1761 3.70691E+00 1.74750E+01 0.00000E+00
 -1      1762 3.70691E+00 1.89750E+01 0.00000E+00
 -1      1763 3.70691E+00 1.44250E+01 0.00000E+00
 -1      1764 3.70691E+00 1.59500E+01 0.00000E+00
 -1      1765 4.81582E+00 1.67000E+01 0.00000E+00
 -1      1766 3.70691E+00 1.13750E+01 0.00000E+00
 -1      1767 3.70691E+00 1.29000E+01 0.00000E+00
 -1      1768 4.81582E+00 1.36500E+01 0.00000E+00
 -1      1769 3.70691E+00 8.32500E+00 0.00000E+00
 -1      1770 3.70691E+00 9.85000E+00 0.00000E+00
 -1      1771 4.81582E+00 1.06000E+01 0.00000E+00
 -1      1772 3.70691E+00 5.27500E+00 0.00000E+00
 -1      1773 3.70691E+00 6.80000E+00 0.00000E+00
 -1      1774 4.81582E+00 7.55000E+00 0.00000E+00
 -1      1775 4.10946E+00 3.20313E+00 0.00000E+00
 -1      1776 3.97146E+00 4.33437E+00 0.00000E+00
 -1      1777 5.08037E+00 5.08437E+00 0.00000E+00
 -1      1778 5.60946E+00 3.20313E+00 0.00000E+00
 -1      1779 4.01610E+00 4.70053E+01 0.00000E+00
 -1      1780 8.60946E+00 3.20313E+00 0.00000E+00
 -1      1781 7.10946E+00 3.20313E+00 0.00000E+00
 -1      1782 6.84491E+00 4.14375E+00 0.00000E+00
 -1      1783 8.40000E+00 4.61030E+01 0.00000E+00
 -1      1784 9.90000E+00 4.61030E+01 0.00000E+00
 -1      1785 1.14000E+01 4.61030E+01 0.00000E+00
 -1      1786 1.29000E+01 4.61030E+01 0.00000E+00
 -1      1787 1.06500E+01 4.48040E+01 0.00000E+00
 -1      1788 1.44000E+01 4.61030E+01 0.00000E+00
 -1      1789 1.59000E+01 4.61030E+01 0.00000E+00
 -1      1790 1.36500E+01 4.48040E+01 0.00000E+00
 -1      1791 1.74000E+01 4.61030E+01 0.00000E+00
 -1      1792 1.89000E+01 4.61030E+01 0.00000E+00
 -1      1793 1.66500E+01 4.48040E+01 0.00000E+00
 -1      1794 2.04000E+01 4.61030E+01 0.00000E+00
 -1      1795 2.19000E+01 4.61030E+01 0.00000E+00
 -1      1796 1.96500E+01 4.48040E+01 0.00000E+00
 -1      1797 2.34000E+01 4.61030E+01 0.00000E+00
 -1      1798 2.49000E+01 4.61030E+01 0.00000E+00
 -1      1799 2.26500E+01 4.48040E+01 0.00000E+00
 -1      1800 2.64000E+01 4.61030E+01 0.00000E+00
 -1      1801 2.79000E+01 4.61030E+01 0.00000E+00
 -1      1802 2.56500E+01 4.48040E+01 0.00000E+00
 -1      1803 2.94000E+01 4.61030E+01 0.00000E+00
 -1      1804 3.09000E+01 4.61030E+01 0.00000E+00
 -1      1805 2.86500E+01 4.48040E+01 0.00000E+00
 -1      1806 3.24000E+01 4.61030E+01 0.00000E+00
 -1      1807 3.39000E+01 4.61030E+01 0.00000E+00
 -1      1808 3.16500E+01 4.48040E+01 0.00000E+00
 -1      1809 3.54000E+01 4.61030E+01 0.00000E+00
 -1      1810 3.69000E+01 4.61030E+01 0.00000E+00
 -1      1811 3.46500E+01 4.48040E+01 0.00000E+00
 -1      1812 3.84000E+01 4.61030E+01 0.00000E+00
 -1      1813 3.99000E+01 4.61030E+01 0.00000E+00
 -1      1814 3.76500E+01 4.48040E+01 0.00000E+00
 -1      1815 4.14000E+01 4.61030E+01 0.00000E+00
 -1      1816 4.29000E+01 4.61030E+01 0.00000E+00
 -1      1817 4.06500E+01 4.48040E+01 0.00000E+00
 -1      1818 4.44000E+01 4.61030E+01 0.00000E+00
 -1      1819 4.59000E+01 4.61030E+01 0.00000E+00
 -1      1820 4.36500E+01 4.48040E+01 0.00000E+00
 -1      1821 4.74000E+01 4.61030E+01 0.00000E+00
 -1      1822 4.89000E+01 4.61030E+01 0.00000E+00
 -1      1823 4.66500E+01 4.48040E+01 0.00000E+00
 -1      1824 5.04000E+01 4.61030E+01 0.00000E+00
 -1      1825 5.19000E+01 4.61030E+01 0.00000E+00
 -1      1826 4.96500E+01 4.48040E+01 0.00000E+00
 -1      1827 5.34000E+01 4.61030E+01 0.00000E+00
 -1      1828 5.49000E+01 4.61030E+01 0.00000E+00
 -1      1829 5.26500E+01 4.48040E+01 0.00000E+00
 -1      1830 5.64000E+01 4.61030E+01 0.00000E+00
 -1      1831 5.79000E+01 4.61030E+01 0.00000E+00
 -1      1832 5.56500E+01 4.48040E+01 0.00000E+00
 -1      1833 5.94000E+01 4.61030E+01 0.00000E+00
 -1      1834 6.09000E+01 4.61030E+01 0.00000E+00
 -1      1835 5.86500E+01 4.48040E+01 0.00000E+00
 -1      1836 6.24000E+01 4.61030E+01 0.00000E+00
 -1      1837 6.39000E+01 4.61030E+01 0.00000E+00
 -1      1838 6.16500E+01 4.48040E+01 0.00000E+00
 -1      1839 6.54000E+01 4.61030E+01 0.00000E+00
 -1      1840 6.69000E+01 4.61030E+01 0.00000E+00
 -1      1841 6.46500E+01 4.48040E+01 0.00000E+00
 -1      1842 6.84000E+01 4.61030E+01 0.00000E+00
 -1      1843 6.99000E+01 4.61030E+01 0.00000E+00
 -1      1844 6.76500E+01 4.48040E+01 0.00000E+00
 -1      1845 7.14000E+01 4.61030E+01 0.00000E+00
 -1      1846 7.29000E+01 4.61030E+01 0.00000E+00
 -1      1847 7.06500E+01 4.48040E+01 0.00000E+00
 -1      1848 7.44000E+01 4.61030E+01 0.00000E+00
 -1      1849 7.59000E+01 4.61030E+01 0.00000E+00
 -1      1850 7.36500E+01 4.48040E+01 0.00000E+00
 -1      1851 7.74000E+01 4.61030E+01 0.00000E+00
 -1      1852 7.89000E+01 4.61030E+01 0.00000E+00
 -1      1853 7.66500E+01 4.48040E+01 0.00000E+00
 -1      1854 8.04000E+01 4.61030E+01 0.00000E+00
 -1      1855 8.19000E+01 4.61030E+01 0.00000E+00
 -1      1856 7.96500E+01 4.48040E+01 0.00000E+00
 -1      1857 8.34000E+01 4.61030E+01 0.00000E+00
 -1      1858 8.49000E+01 4.61030E+01 0.00000E+00
 -1      1859 8.26500E+01 4.48040E+01 0.00000E+00
 -1      1860 8.64000E+01 4.61030E+01 0.00000E+00
 -1      1861 8.79000E+01 4.61030E+01 0.00000E+00
 -1      1862 8.56500E+01 4.48040E+01 0.00000E+00
 -1      1863 8.94000E+01 4.61030E+01 0.00000E+00
 -1      1864 9.09000E+01 4.61030E+01 0.00000E+00
 -1      1865 8.86500E+01 4.48040E+01 0.00000E+00
 -1      1866 9.24000E+01 4.61030E+01 0.00000E+00
 -1      1867 9.39000E+01 4.61030E+01 0.00000E+00
 -1      1868 9.16500E+01 4.48040E+01 0.00000E+00
 -1      1869 9.54000E+01 4.61030E+01 0.00000E+00
 -1      1870 9.69000E+01 4.61030E+01 0.00000E+00
 -1      1871 9.46500E+01 4.48040E+01 0.00000E+00
 -1      1872 9.84000E+01 4.61030E+01 0.00000E+00
 -1      1873 9.99000E+01 4.61030E+01 0.00000E+00
 -1      1874 9.76500E+01 4.48040E+01 0.00000E+00
 -1      1875 1.01400E+02 4.61030E+01 0.00000E+00
 -1      1876 1.02900E+02 4.61030E+01 0.00000E+00
 -1      1877 1.00650E+02 4.48040E+01 0.00000E+00
 -1      1878 1.04400E+02 4.61030E+01 0.00000E+00
 -1      1879 1.05900E+02 4.61030E+01 0.00000E+00
 -1      1880 1.03650E+02 4.48040E+01 0.00000E+00
 -1      1881 1.07400E+02 4.61030E+01 0.00000E+00
 -1      1882 1.08900E+02 4.61030E+01 0.00000E+00
 -1      1883 1.06650E+02 4.48040E+01 0.00000E+00
 -1      1884 1.10400E+02 4.61030E+01 0.00000E+00
 -1      1885 1.11900E+02 4.61030E+01 0.00000E+00
 -1      1886 1.09650E+02 4.48040E+01 0.00000E+00
 -1      1887 1.13400E+02 4.61030E+01 0.00000E+00
 -1      1888 1.14900E+02 4.61030E+01 0.00000E+00
 -1      1889 1.12650E+02 4.48040E+01 0.00000E+00
 -1      1890 1.16400E+02 4.61030E+01 0.00000E+00
 -1      1891 1.17900E+02 4.61030E+01 0.00000E+00
 -1      1892 1.15650E+02 4.48040E+01 0.00000E+00
 -1      1893 1.19400E+02 4.61030E+01 0.00000E+00
 -1      1894 1.20900E+02 4.61030E+01 0.00000E+00
 -1      1895 1.18650E+02 4.48040E+01 0.00000E+00
 -1      1896 1.22400E+02 4.61030E+01 0.00000E+00
 -1      1897 1.23900E+02 4.61030E+01 0.00000E+00
 -1      1898 1.21650E+02 4.48040E+01 0.00000E+00
 -1      1899 1.25400E+02 4.61030E+01 0.00000E+00
 -1      1900 1.26900E+02 4.61030E+01 0.00000E+00
 -1      1901 1.24650E+02 4.48040E+01 0.00000E+00
 -1      1902 1.28400E+02 4.61030E+01 0.00000E+00
 -1      1903 1.29900E+02 4.61030E+01 0.00000E+00
 -1      1904 1.27650E+02 4.48040E+01 0.00000E+00
 -1      1905 1.31400E+02 4.61030E+01 0.00000E+00
 -1      1906 1.32900E+02 4.61030E+01 0.00000E+00
 -1      1907 1.30650E+02 4.48040E+01 0.00000E+00
 -1      1908 1.34400E+02 4.61030E+01 0.00000E+00
 -1      1909 1.35900E+02 4.61030E+01 0.00000E+00
 -1      1910 1.33650E+02 4.48040E+01 0.00000E+00
 -1      1911 1.37400E+02 4.61030E+01 0.00000E+00
 -1      1912 1.38900E+02 4.61030E+01 0.00000E+00
 -1      1913 1.36650E+02 4.48040E+01 0.00000E+00
 -1      1914 1.40400E+02 4.61030E+01 0.00000E+00
 -1      1915 1.41900E+02 4.61030E+01 0.00000E+00
 -1      1916 1.39650E+02 4.48040E+01 0.00000E+00
 -1      1917 1.43244E+02 4.61616E+01 0.00000E+00
 -1      1918 1.44744E+02 4.61616E+01 0.00000E+00
 -1      1919 1.45182E+02 4.49799E+01 0.00000E+00
 -1      1920 1.42494E+02 4.48626E+01 0.00000E+00
 -1      1921 1.16095E+01 3.20313E+00 0.00000E+00
 -1      1922 1.01095E+01 3.20313E+00 0.00000E+00
 -1      1923 9.84491E+00 4.14375E+00 0.00000E+00
 -1      1924 1.46095E+01 3.20313E+00 0.00000E+00
 -1      1925 1.31095E+01 3.20313E+00 0.00000E+00
 -1      1926 1.28449E+01 4.14375E+00 0.00000E+00
 -1      1927 1.76095E+01 3.20313E+00 0.00000E+00
 -1      1928 1.61095E+01 3.20313E+00 0.00000E+00
 -1      1929 1.58449E+01 4.14375E+00 0.00000E+00
 -1      1930 2.06095E+01 3.20313E+00 0.00000E+00
 -1      1931 1.91095E+01 3.20313E+00 0.00000E+00
 -1      1932 1.88449E+01 4.14375E+00 0.00000E+00
 -1      1933 2.36095E+01 3.20313E+00 0.00000E+00
 -1      1934 2.21095E+01 3.20313E+00 0.00000E+00
 -1      1935 2.18449E+01 4.14375E+00 0.00000E+00
 -1      1936 2.66095E+01 3.20313E+00 0.00000E+00
 -1      1937 2.51095E+01 3.20313E+00 0.00000E+00
 -1      1938 2.48449E+01 4.14375E+00 0.00000E+00
 -1      1939 2.96095E+01 3.20313E+00 0.00000E+00
 -1      1940 2.81095E+01 3.20313E+00 0.00000E+00
 -1      1941 2.78449E+01 4.14375E+00 0.00000E+00
 -1      1942 3.26095E+01 3.20313E+00 0.00000E+00
 -1      1943 3.11095E+01 3.20313E+00 0.00000E+00
 -1      1944 3.08449E+01 4.14375E+00 0.00000E+00
 -1      1945 3.56095E+01 3.20313E+00 0.00000E+00
 -1      1946 3.41095E+01 3.20313E+00 0.00000E+00
 -1      1947 3.38449E+01 4.14375E+00 0.00000E+00
 -1      1948 3.86095E+01 3.20313E+00 0.00000E+00
 -1      1949 3.71095E+01 3.20313E+00 0.00000E+00
 -1      1950 3.68449E+01 4.14375E+00 0.00000E+00
 -1      1951 4.16095E+01 3.20313E+00 0.00000E+00
 -1      1952 4.01095E+01 3.20313E+00 0.00000E+00
 -1      1953 3.98449E+01 4.14375E+00 0.00000E+00
 -1      1954 4.46095E+01 3.20313E+00 0.00000E+00
 -1      1955 4.31095E+01 3.20313E+00 0.00000E+00
 -1      1956 4.28449E+01 4.14375E+00 0.00000E+00
 -1      1957 4.76095E+01 3.20313E+00 0.00000E+00
 -1      1958 4.61095E+01 3.20313E+00 0.00000E+00
 -1      1959 4.58449E+01 4.14375E+00 0.00000E+00
 -1      1960 5.06095E+01 3.20313E+00 0.00000E+00
 -1      1961 4.91095E+01 3.20313E+00 0.00000E+00
 -1      1962 4.88449E+01 4.14375E+00 0.00000E+00
 -1      1963 5.36095E+01 3.20313E+00 0.00000E+00
 -1      1964 5.21095E+01 3.20313E+00 0.00000E+00
 -1      1965 5.18449E+01 4.14375E+00 0.00000E+00
 -1      1966 5.66095E+01 3.20313E+00 0.00000E+00
 -1      1967 5.51095E+01 3.20313E+00 0.00000E+00
 -1      1968 5.48449E+01 4.14375E+00 0.00000E+00
 -1      1969 5.96095E+01 3.20313E+00 0.00000E+00
 -1      1970 5.81095E+01 3.20313E+00 0.00000E+00
 -1      1971 5.78449E+01 4.14375E+00 0.00000E+00
 -1      1972 6.26095E+01 3.20313E+00 0.00000E+00
 -1      1973 6.11095E+01 3.20313E+00 0.00000E+00
 -1      1974 6.08449E+01 4.14375E+00 0.00000E+00
 -1      1975 6.56095E+01 3.20313E+00 0.00000E+00
 -1      1976 6.41095E+01 3.20313E+00 0.00000E+00
 -1      1977 6.38449E+01 4.14375E+00 0.00000E+00
 -1      1978 6.86095E+01 3.20313E+00 0.00000E+00
 -1      1979 6.71095E+01 3.20313E+00 0.00000E+00
 -1      1980 6.68449E+01 4.14375E+00 0.00000E+00
 -1      1981 7.16095E+01 3.20313E+00 0.00000E+00
 -1      1982 7.01095E+01 3.20313E+00 0.00000E+00
 -1      1983 6.98449E+01 4.14375E+00 0.00000E+00
 -1      1984 7.46095E+01 3.20313E+00 0.00000E+00
 -1      1985 7.31095E+01 3.20313E+00 0.00000E+00
 -1      1986 7.28449E+01 4.14375E+00 0.00000E+00
 -1      1987 7.76095E+01 3.20313E+00 0.00000E+00
 -1      1988 7.61095E+01 3.20313E+00 0.00000E+00
 -1      1989 7.58449E+01 4.14375E+00 0.00000E+00
 -1      1990 8.06095E+01 3.20313E+00 0.00000E+00
 -1      1991 7.91095E+01 3.20313E+00 0.00000E+00
 -1      1992 7.88449E+01 4.14375E+00 0.00000E+00
 -1      1993 8.36095E+01 3.20313E+00 0.00000E+00
 -1      1994 8.21095E+01 3.20313E+00 0.00000E+00
 -1      1995 8.18449E+01 4.14375E+00 0.00000E+00
 -1      1996 8.66095E+01 3.20313E+00 0.00000E+00
 -1      1997 8.51095E+01 3.20313E+00 0.00000E+00
 -1      1998 8.48449E+01 4.14375E+00 0.00000E+00
 -1      1999 8.96095E+01 3.20313E+00 0.00000E+00
 -1      2000 8.81095E+01 3.20313E+00 0.00000E+00
 -1      2001 8.78449E+01 4.14375E+00 0.00000E+00
 -1      2002 9.26095E+01 3.20313E+00 0.00000E+00
 -1      2003 9.11095E+01 3.20313E+00 0.00000E+00
 -1      2004 9.08449E+01 4.14375E+00 0.00000E+00
 -1      2005 9.56095E+01 3.20313E+00 0.00000E+00
 -1      2006 9.41095E+01 3.20313E+00 0.00000E+00
 -1      2007 9.38449E+01 4.14375E+00 0.00000E+00
 -1      2008 9.86095E+01 3.20313E+00 0.00000E+00
 -1      2009 9.71095E+01 3.20313E+00 0.00000E+00
 -1      2010 9.68449E+01 4.14375E+00 0.00000E+00
 -1      2011 1.01609E+02 3.20313E+00 0.00000E+00
 -1      2012 1.00109E+02 3.20313E+00 0.00000E+00
 -1      2013 9.98449E+01 4.14375E+00 0.00000E+00
 -1      2014 1.04609E+02 3.20313E+00 0.00000E+00
 -1      2015 1.03109E+02 3.20313E+00 0.00000E+00
 -1      2016 1.02845E+02 4.14375E+00 0.00000E+00
 -1      2017 1.07609E+02 3.20313E+00 0.00000E+00
 -1      2018 1.06109E+02 3.20313E+00 0.00000E+00
 -1      2019 1.05845E+02 4.14375E+00 0.00000E+00
 -1      2020 1.10609E+02 3.20313E+00 0.00000E+00
 -1      2021 1.09109E+02 3.20313E+00 0.00000E+00
 -1      2022 1.08845E+02 4.14375E+00 0.00000E+00
 -1      2023 1.13609E+02 3.20313E+00 0.00000E+00
 -1      2024 1.12109E+02 3.20313E+00 0.00000E+00
 -1      2025 1.11845E+02 4.14375E+00 0.00000E+00
 -1      2026 1.16609E+02 3.20313E+00 0.00000E+00
 -1      2027 1.15109E+02 3.20313E+00 0.00000E+00
 -1      2028 1.14845E+02 4.14375E+00 0.00000E+00
 -1      2029 1.19609E+02 3.20313E+00 0.00000E+00
 -1      2030 1.18109E+02 3.20313E+00 0.00000E+00
 -1      2031 1.17845E+02 4.14375E+00 0.00000E+00
 -1      2032 1.22609E+02 3.20313E+00 0.00000E+00
 -1      2033 1.21109E+02 3.20313E+00 0.00000E+00
 -1      2034 1.20845E+02 4.14375E+00 0.00000E+00
 -1      2035 1.25609E+02 3.20313E+00 0.00000E+00
 -1      2036 1.24109E+02 3.20313E+00 0.00000E+00
 -1      2037 1.23845E+02 4.14375E+00 0.00000E+00
 -1      2038 1.28609E+02 3.20313E+00 0.00000E+00
 -1      2039 1.27109E+02 3.20313E+00 0.00000E+00
 -1      2040 1.26845E+02 4.14375E+00 0.00000E+00
 -1      2041 1.31609E+02 3.20313E+00 0.00000E+00
 -1      2042 1.30109E+02 3.20313E+00 0.00000E+00
 -1      2043 1.29845E+02 4.14375E+00 0.00000E+00
 -1      2044 1.34609E+02 3.20313E+00 0.00000E+00
 -1      2045 1.33109E+02 3.20313E+00 0.00000E+00
 -1      2046 1.32845E+02 4.14375E+00 0.00000E+00
 -1      2047 1.37609E+02 3.20313E+00 0.00000E+00
 -1      2048 1.36109E+02 3.20313E+00 0.00000E+00
 -1      2049 1.35845E+02 4.14375E+00 0.00000E+00
 -1      2050 1.40609E+02 3.20313E+00 0.00000E+00
 -1      2051 1.39109E+02 3.20313E+00 0.00000E+00
 -1      2052 1.38845E+02 4.14375E+00 0.00000E+00
 -1      2053 1.43609E+02 3.20313E+00 0.00000E+00
 -1      2054 1.42109E+02 3.20313E+00 0.00000E+00
 -1      2055 1.41845E+02 4.14375E+00 0.00000E+00
 -1      2056 1.46124E+02 3.27344E+00 0.00000E+00
 -1      2057 1.44624E+02 3.27344E+00 0.00000E+00
 -1      2058 1.44359E+02 4.21406E+00 0.00000E+00
 -1      2059 1.46388E+02 4.35469E+00 0.00000E+00
 -1      2060 1.46103E+02 1.25375E+01 0.00000E+00
 -1      2061 1.46103E+02 1.10625E+01 0.00000E+00
 -1      2062 1.46103E+02 9.58750E+00 0.00000E+00
 -1      2063 1.46103E+02 8.11250E+00 0.00000E+00
 -1      2064 1.44804E+02 1.03250E+01 0.00000E+00
 -1      2065 1.46245E+02 6.97109E+00 0.00000E+00
 -1      2066 1.46245E+02 5.49609E+00 0.00000E+00
 -1      2067 1.45231E+02 5.42578E+00 0.00000E+00
 -1      2068 1.44946E+02 7.70859E+00 0.00000E+00
 -1      2069 1.46103E+02 1.54375E+01 0.00000E+00
 -1      2070 1.46103E+02 1.39875E+01 0.00000E+00
 -1      2071 1.44804E+02 1.32500E+01 0.00000E+00
 -1      2072 1.46103E+02 1.83875E+01 0.00000E+00
 -1      2073 1.46103E+02 1.69125E+01 0.00000E+00
 -1      2074 1.44804E+02 1.61750E+01 0.00000E+00
 -1      2075 1.46103E+02 2.13375E+01 0.00000E+00
 -1      2076 1.46103E+02 1.98625E+01 0.00000E+00
 -1      2077 1.44804E+02 1.91250E+01 0.00000E+00
 -1      2078 1.46103E+02 2.42875E+01 0.00000E+00
 -1      2079 1.46103E+02 2.28125E+01 0.00000E+00
 -1      2080 1.44804E+02 2.20750E+01 0.00000E+00
 -1      2081 1.46103E+02 2.72375E+01 0.00000E+00
 -1      2082 1.46103E+02 2.57625E+01 0.00000E+00
 -1      2083 1.44804E+02 2.50250E+01 0.00000E+00
 -1      2084 1.46103E+02 3.01875E+01 0.00000E+00
 -1      2085 1.46103E+02 2.87125E+01 0.00000E+00
 -1      2086 1.44804E+02 2.79750E+01 0.00000E+00
 -1      2087 1.46103E+02 3.30875E+01 0.00000E+00
 -1      2088 1.46103E+02 3.16375E+01 0.00000E+00
 -1      2089 1.44804E+02 3.09000E+01 0.00000E+00
 -1      2090 1.46103E+02 3.60375E+01 0.00000E+00
 -1      2091 1.46103E+02 3.45625E+01 0.00000E+00
 -1      2092 1.44804E+02 3.38250E+01 0.00000E+00
 -1      2093 1.46103E+02 3.89875E+01 0.00000E+00
 -1      2094 1.46103E+02 3.75125E+01 0.00000E+00
 -1      2095 1.44804E+02 3.67750E+01 0.00000E+00
 -1      2096 1.46103E+02 4.19375E+01 0.00000E+00
 -1      2097 1.46103E+02 4.04625E+01 0.00000E+00
 -1      2098 1.44804E+02 3.97250E+01 0.00000E+00
 -1      2099 2.34640E+01 1.94139E+01 0.00000E+00
 -1      2100 2.38347E+01 2.02013E+01 0.00000E+00
 -1      2101 2.47801E+01 2.31987E+01 0.00000E+00
 -1      2102 2.46958E+01 2.41627E+01 0.00000E+00
 -1      2103 2.41626E+01 2.10815E+01 0.00000E+00
 -1      2104 2.44904E+01 2.19617E+01 0.00000E+00
 -1      2105 2.46015E+01 2.03939E+01 0.00000E+00
 -1      2106 2.24023E+01 1.78566E+01 0.00000E+00
 -1      2107 2.29347E+01 1.85474E+01 0.00000E+00
 -1      2108 2.12662E+01 1.63565E+01 0.00000E+00
 -1      2109 2.18855E+01 1.70429E+01 0.00000E+00
 -1      2110 3.89700E+00 3.70438E+01 0.00000E+00
 -1      2111 3.89700E+00 3.85687E+01 0.00000E+00
 -1      2112 5.19600E+00 3.93312E+01 0.00000E+00
 -1      2113 5.19600E+00 3.62938E+01 0.00000E+00
 -1      2114 1.76004E+01 1.47904E+01 0.00000E+00
 -1      2115 1.84574E+01 1.50665E+01 0.00000E+00
 -1      2116 1.55696E+01 1.46229E+01 0.00000E+00
 -1      2117 1.64595E+01 1.45901E+01 0.00000E+00
 -1      2118 1.38544E+01 1.48195E+01 0.00000E+00
 -1      2119 1.47120E+01 1.47212E+01 0.00000E+00
 -1      2120 1.51269E+01 1.38897E+01 0.00000E+00
 -1      2121 1.19103E+01 1.54203E+01 0.00000E+00
 -1      2122 1.27411E+01 1.50940E+01 0.00000E+00
 -1      2123 1.02870E+01 1.64342E+01 0.00000E+00
 -1      2124 1.09766E+01 1.59306E+01 0.00000E+00
 -1      2125 9.02603E+00 1.77262E+01 0.00000E+00
 -1      2126 9.61232E+00 1.71275E+01 0.00000E+00
 -1      2127 7.87150E+00 1.91913E+01 0.00000E+00
 -1      2128 8.33967E+00 1.84583E+01 0.00000E+00
 -1      2129 7.23383E+00 2.09373E+01 0.00000E+00
 -1      2130 7.53334E+00 2.01429E+01 0.00000E+00
 -1      2131 6.65149E+00 2.26429E+01 0.00000E+00
 -1      2132 6.94266E+00 2.17901E+01 0.00000E+00
 -1      2133 6.48599E+00 2.11642E+01 0.00000E+00
 -1      2134 6.69350E+00 2.47881E+01 0.00000E+00
 -1      2135 6.46977E+00 2.39014E+01 0.00000E+00
 -1      2136 6.97633E+00 2.66075E+01 0.00000E+00
 -1      2137 6.83492E+00 2.56978E+01 0.00000E+00
 -1      2138 5.97280E+00 2.54437E+01 0.00000E+00
 -1      2139 8.06144E+00 2.83583E+01 0.00000E+00
 -1      2140 7.55388E+00 2.76010E+01 0.00000E+00
 -1      2141 9.08735E+00 2.98648E+01 0.00000E+00
 -1      2142 8.56017E+00 2.91438E+01 0.00000E+00
 -1      2143 1.06986E+01 3.11325E+01 0.00000E+00
 -1      2144 9.92395E+00 3.07088E+01 0.00000E+00
 -1      2145 1.22203E+01 3.19965E+01 0.00000E+00
 -1      2146 1.14594E+01 3.15645E+01 0.00000E+00
 -1      2147 1.07008E+01 3.20315E+01 0.00000E+00
 -1      2148 1.41647E+01 3.26010E+01 0.00000E+00
 -1      2149 1.32783E+01 3.24503E+01 0.00000E+00
 -1      2150 1.61059E+01 3.24081E+01 0.00000E+00
 -1      2151 1.52260E+01 3.24548E+01 0.00000E+00
 -1      2152 1.80175E+01 3.23065E+01 0.00000E+00
 -1      2153 1.70855E+01 3.24380E+01 0.00000E+00
 -1      2154 2.00248E+01 3.14896E+01 0.00000E+00
 -1      2155 1.92179E+01 3.19706E+01 0.00000E+00
 -1      2156 2.14523E+01 3.02278E+01 0.00000E+00
 -1      2157 2.07638E+01 3.07771E+01 0.00000E+00
 -1      2158 2.28419E+01 2.89084E+01 0.00000E+00
 -1      2159 2.22454E+01 2.95861E+01 0.00000E+00
 -1      2160 2.37457E+01 2.70633E+01 0.00000E+00
 -1      2161 2.33765E+01 2.79104E+01 0.00000E+00
 -1      2162 2.43923E+01 2.52386E+01 0.00000E+00
 -1      2163 2.40997E+01 2.61321E+01 0.00000E+00
 -1      2164 1.93086E+01 1.53759E+01 0.00000E+00
 -1      2165 2.01598E+01 1.56852E+01 0.00000E+00
 -1      2166 1.91174E+01 1.45013E+01 0.00000E+00
 -1      2167 4.56446E+00 2.23875E+01 0.00000E+00
 -1      2168 3.70691E+00 2.56125E+01 0.00000E+00
 -1      2169 3.70691E+00 2.68875E+01 0.00000E+00
 -1      2170 5.00591E+00 2.76375E+01 0.00000E+00
 -1      2171 4.73203E+00 1.96500E+01 0.00000E+00
 -1      2172 2.10750E+01 1.54820E+01 0.00000E+00
 -1      2173 6.42300E+00 4.56510E+01 0.00000E+00
 -1      2174 7.17300E+00 4.43520E+01 0.00000E+00
 -1      2175 4.92300E+00 4.56510E+01 0.00000E+00
 -1      2176 2.99010E+00 4.60168E+01 0.00000E+00
 -1      2177 2.52191E+01 2.25111E+01 0.00000E+00
 -1      2178 2.59478E+01 2.30606E+01 0.00000E+00
 -1      2179 2.56581E+01 2.18236E+01 0.00000E+00
 -1      2180 2.37443E+01 1.86473E+01 0.00000E+00
 -1      2181 1.45665E+02 4.31193E+01 0.00000E+00
 -1      2182 2.52053E+01 2.48241E+01 0.00000E+00
 -1      2183 2.26982E+01 1.69671E+01 0.00000E+00
 -1      2184 2.45477E+01 2.68313E+01 0.00000E+00
 -1      2185 2.36590E+01 2.87605E+01 0.00000E+00
 -1      2186 2.23314E+01 3.04001E+01 0.00000E+00
 -1      2187 2.07994E+01 3.17542E+01 0.00000E+00
 -1      2188 1.88600E+01 3.28026E+01 0.00000E+00
 -1      2189 1.66799E+01 3.31085E+01 0.00000E+00
 -1      2190 1.25197E+01 3.29173E+01 0.00000E+00
 -1      2191 9.10337E+00 3.07555E+01 0.00000E+00
 -1      2192 6.69176E+00 2.73470E+01 0.00000E+00
 -1      2193 6.01310E+00 2.32755E+01 0.00000E+00
 -1      2194 7.11532E+00 1.93599E+01 0.00000E+00
 -1      2195 8.13984E+00 1.76762E+01 0.00000E+00
 -1      2196 9.50084E+00 1.62508E+01 0.00000E+00
 -1      2197 1.31561E+01 1.42625E+01 0.00000E+00
 -1      2198 4.64825E+00 2.49750E+01 0.00000E+00
 -1      2199 1.71253E+01 1.39917E+01 0.00000E+00
 -1      2200 1.11092E+01 1.50472E+01 0.00000E+00
 -1      2201 7.76805E+00 2.91260E+01 0.00000E+00
 -1      2202 1.46390E+01 3.32248E+01 0.00000E+00
 -1      2203 4.28910E+00 4.52543E+01 0.00000E+00
 -1      2204 6.22112E+00 3.25625E+01 0.00000E+00
 -1      2205 6.22112E+00 3.40375E+01 0.00000E+00
 -1      2206 1.66960E+01 1.30882E+01 0.00000E+00
 -1      2207 1.78368E+01 1.32885E+01 0.00000E+00
 -1      2208 5.92473E+00 1.59375E+01 0.00000E+00
 -1      2209 5.92473E+00 1.74625E+01 0.00000E+00
 -1      2210 6.11482E+00 6.78750E+00 0.00000E+00
 -1      2211 6.11482E+00 8.31250E+00 0.00000E+00
 -1      2212 6.61214E+00 4.99531E+00 0.00000E+00
 -1      2213 6.34759E+00 5.93594E+00 0.00000E+00
 -1      2214 7.64659E+00 6.69844E+00 0.00000E+00
 -1      2215 8.11214E+00 4.99531E+00 0.00000E+00
 -1      2216 9.90000E+00 4.35050E+01 0.00000E+00
 -1      2217 1.14000E+01 4.35050E+01 0.00000E+00
 -1      2218 1.11121E+01 4.99531E+00 0.00000E+00
 -1      2219 9.61214E+00 4.99531E+00 0.00000E+00
 -1      2220 9.37937E+00 5.84688E+00 0.00000E+00
 -1      2221 1.41121E+01 4.99531E+00 0.00000E+00
 -1      2222 1.26121E+01 4.99531E+00 0.00000E+00
 -1      2223 1.23794E+01 5.84688E+00 0.00000E+00
 -1      2224 1.29000E+01 4.35050E+01 0.00000E+00
 -1      2225 1.44000E+01 4.35050E+01 0.00000E+00
 -1      2226 1.21500E+01 4.22060E+01 0.00000E+00
 -1      2227 1.59000E+01 4.35050E+01 0.00000E+00
 -1      2228 1.74000E+01 4.35050E+01 0.00000E+00
 -1      2229 1.51500E+01 4.22060E+01 0.00000E+00
 -1      2230 1.89000E+01 4.35050E+01 0.00000E+00
 -1      2231 2.04000E+01 4.35050E+01 0.00000E+00
 -1      2232 1.81500E+01 4.22060E+01 0.00000E+00
 -1      2233 2.19000E+01 4.35050E+01 0.00000E+00
 -1      2234 2.34000E+01 4.35050E+01 0.00000E+00
 -1      2235 2.11500E+01 4.22060E+01 0.00000E+00
 -1      2236 2.49000E+01 4.35050E+01 0.00000E+00
 -1      2237 2.64000E+01 4.35050E+01 0.00000E+00
 -1      2238 2.41500E+01 4.22060E+01 0.00000E+00
 -1      2239 2.79000E+01 4.35050E+01 0.00000E+00
 -1      2240 2.94000E+01 4.35050E+01 0.00000E+00
 -1      2241 2.71500E+01 4.22060E+01 0.00000E+00
 -1      2242 3.09000E+01 4.35050E+01 0.00000E+00
 -1      2243 3.24000E+01 4.35050E+01 0.00000E+00
 -1      2244 3.01500E+01 4.22060E+01 0.00000E+00
 -1      2245 3.39000E+01 4.35050E+01 0.00000E+00
 -1      2246 3.54000E+01 4.35050E+01 0.00000E+00
 -1      2247 3.31500E+01 4.22060E+01 0.00000E+00
 -1      2248 3.69000E+01 4.35050E+01 0.00000E+00
 -1      2249 3.84000E+01 4.35050E+01 0.00000E+00
 -1      2250 3.61500E+01 4.22060E+01 0.00000E+00
 -1      2251 3.99000E+01 4.35050E+01 0.00000E+00
 -1      2252 4.14000E+01 4.35050E+01 0.00000E+00
 -1      2253 3.91500E+01 4.22060E+01 0.00000E+00
 -1      2254 4.29000E+01 4.35050E+01 0.00000E+00
 -1      2255 4.44000E+01 4.35050E+01 0.00000E+00
 -1      2256 4.21500E+01 4.22060E+01 0.00000E+00
 -1      2257 4.59000E+01 4.35050E+01 0.00000E+00
 -1      2258 4.74000E+01 4.35050E+01 0.00000E+00
 -1      2259 4.51500E+01 4.22060E+01 0.00000E+00
 -1      2260 4.89000E+01 4.35050E+01 0.00000E+00
 -1      2261 5.04000E+01 4.35050E+01 0.00000E+00
 -1      2262 4.81500E+01 4.22060E+01 0.00000E+00
 -1      2263 5.19000E+01 4.35050E+01 0.00000E+00
 -1      2264 5.34000E+01 4.35050E+01 0.00000E+00
 -1      2265 5.11500E+01 4.22060E+01 0.00000E+00
 -1      2266 5.49000E+01 4.35050E+01 0.00000E+00
 -1      2267 5.64000E+01 4.35050E+01 0.00000E+00
 -1      2268 5.41500E+01 4.22060E+01 0.00000E+00
 -1      2269 5.79000E+01 4.35050E+01 0.00000E+00
 -1      2270 5.94000E+01 4.35050E+01 0.00000E+00
 -1      2271 5.71500E+01 4.22060E+01 0.00000E+00
 -1      2272 6.09000E+01 4.35050E+01 0.00000E+00
 -1      2273 6.24000E+01 4.35050E+01 0.00000E+00
 -1      2274 6.01500E+01 4.22060E+01 0.00000E+00
 -1      2275 6.39000E+01 4.35050E+01 0.00000E+00
 -1      2276 6.54000E+01 4.35050E+01 0.00000E+00
 -1      2277 6.31500E+01 4.22060E+01 0.00000E+00
 -1      2278 6.69000E+01 4.35050E+01 0.00000E+00
 -1      2279 6.84000E+01 4.35050E+01 0.00000E+00
 -1      2280 6.61500E+01 4.22060E+01 0.00000E+00
 -1      2281 6.99000E+01 4.35050E+01 0.00000E+00
 -1      2282 7.14000E+01 4.35050E+01 0.00000E+00
 -1      2283 6.91500E+01 4.22060E+01 0.00000E+00
 -1      2284 7.29000E+01 4.35050E+01 0.00000E+00
 -1      2285 7.44000E+01 4.35050E+01 0.00000E+00
 -1      2286 7.21500E+01 4.22060E+01 0.00000E+00
 -1      2287 7.59000E+01 4.35050E+01 0.00000E+00
 -1      2288 7.74000E+01 4.35050E+01 0.00000E+00
 -1      2289 7.51500E+01 4.22060E+01 0.00000E+00
 -1      2290 7.89000E+01 4.35050E+01 0.00000E+00
 -1      2291 8.04000E+01 4.35050E+01 0.00000E+00
 -1      2292 7.81500E+01 4.22060E+01 0.00000E+00
 -1      2293 8.19000E+01 4.35050E+01 0.00000E+00
 -1      2294 8.34000E+01 4.35050E+01 0.00000E+00
 -1      2295 8.11500E+01 4.22060E+01 0.00000E+00
 -1      2296 8.49000E+01 4.35050E+01 0.00000E+00
 -1      2297 8.64000E+01 4.35050E+01 0.00000E+00
 -1      2298 8.41500E+01 4.22060E+01 0.00000E+00
 -1      2299 8.79000E+01 4.35050E+01 0.00000E+00
 -1      2300 8.94000E+01 4.35050E+01 0.00000E+00
 -1      2301 8.71500E+01 4.22060E+01 0.00000E+00
 -1      2302 9.09000E+01 4.35050E+01 0.00000E+00
 -1      2303 9.24000E+01 4.35050E+01 0.00000E+00
 -1      2304 9.01500E+01 4.22060E+01 0.00000E+00
 -1      2305 9.39000E+01 4.35050E+01 0.00000E+00
 -1      2306 9.54000E+01 4.35050E+01 0.00000E+00
 -1      2307 9.31500E+01 4.22060E+01 0.00000E+00
 -1      2308 9.69000E+01 4.35050E+01 0.00000E+00
 -1      2309 9.84000E+01 4.35050E+01 0.00000E+00
 -1      2310 9.61500E+01 4.22060E+01 0.00000E+00
 -1      2311 9.99000E+01 4.35050E+01 0.00000E+00
 -1      2312 1.01400E+02 4.35050E+01 0.00000E+00
 -1      2313 9.91500E+01 4.22060E+01 0.00000E+00
 -1      2314 1.02900E+02 4.35050E+01 0.00000E+00
 -1      2315 1.04400E+02 4.35050E+01 0.00000E+00
 -1      2316 1.02150E+02 4.22060E+01 0.00000E+00
 -1      2317 1.05900E+02 4.35050E+01 0.00000E+00
 -1      2318 1.07400E+02 4.35050E+01 0.00000E+00
 -1      2319 1.05150E+02 4.22060E+01 0.00000E+00
 -1      2320 1.08900E+02 4.35050E+01 0.00000E+00
 -1      2321 1.10400E+02 4.35050E+01 0.00000E+00
 -1      2322 1.08150E+02 4.22060E+01 0.00000E+00
 -1      2323 1.11900E+02 4.35050E+01 0.00000E+00
 -1      2324 1.13400E+02 4.35050E+01 0.00000E+00
 -1      2325 1.11150E+02 4.22060E+01 0.00000E+00
 -1      2326 1.14900E+02 4.35050E+01 0.00000E+00
 -1      2327 1.16400E+02 4.35050E+01 0.00000E+00
 -1      2328 1.14150E+02 4.22060E+01 0.00000E+00
 -1      2329 1.17900E+02 4.35050E+01 0.00000E+00
 -1      2330 1.19400E+02 4.35050E+01 0.00000E+00
 -1      2331 1.17150E+02 4.22060E+01 0.00000E+00
 -1      2332 1.20900E+02 4.35050E+01 0.00000E+00
 -1      2333 1.22400E+02 4.35050E+01 0.00000E+00
 -1      2334 1.20150E+02 4.22060E+01 0.00000E+00
 -1      2335 1.23900E+02 4.35050E+01 0.00000E+00
 -1      2336 1.25400E+02 4.35050E+01 0.00000E+00
 -1      2337 1.23150E+02 4.22060E+01 0.00000E+00
 -1      2338 1.26900E+02 4.35050E+01 0.00000E+00
 -1      2339 1.28400E+02 4.35050E+01 0.00000E+00
 -1      2340 1.26150E+02 4.22060E+01 0.00000E+00
 -1      2341 1.29900E+02 4.35050E+01 0.00000E+00
 -1      2342 1.31400E+02 4.35050E+01 0.00000E+00
 -1      2343 1.29150E+02 4.22060E+01 0.00000E+00
 -1      2344 1.32900E+02 4.35050E+01 0.00000E+00
 -1      2345 1.34400E+02 4.35050E+01 0.00000E+00
 -1      2346 1.32150E+02 4.22060E+01 0.00000E+00
 -1      2347 1.35900E+02 4.35050E+01 0.00000E+00
 -1      2348 1.37400E+02 4.35050E+01 0.00000E+00
 -1      2349 1.35150E+02 4.22060E+01 0.00000E+00
 -1      2350 1.38900E+02 4.35050E+01 0.00000E+00
 -1      2351 1.40400E+02 4.35050E+01 0.00000E+00
 -1      2352 1.38150E+02 4.22060E+01 0.00000E+00
 -1      2353 2.51234E+01 1.96983E+01 0.00000E+00
 -1      2354 2.54513E+01 2.05785E+01 0.00000E+00
 -1      2355 1.95949E+01 5.44275E+00 0.00000E+00
 -1      2356 1.80949E+01 5.44275E+00 0.00000E+00
 -1      2357 2.25949E+01 5.44275E+00 0.00000E+00
 -1      2358 2.10949E+01 5.44275E+00 0.00000E+00
 -1      2359 2.03449E+01 6.74175E+00 0.00000E+00
 -1      2360 2.55949E+01 5.44275E+00 0.00000E+00
 -1      2361 2.40949E+01 5.44275E+00 0.00000E+00
 -1      2362 2.33449E+01 6.74175E+00 0.00000E+00
 -1      2363 2.85949E+01 5.44275E+00 0.00000E+00
 -1      2364 2.70949E+01 5.44275E+00 0.00000E+00
 -1      2365 2.63449E+01 6.74175E+00 0.00000E+00
 -1      2366 3.15949E+01 5.44275E+00 0.00000E+00
 -1      2367 3.00949E+01 5.44275E+00 0.00000E+00
 -1      2368 2.93449E+01 6.74175E+00 0.00000E+00
 -1      2369 3.45949E+01 5.44275E+00 0.00000E+00
 -1      2370 3.30949E+01 5.44275E+00 0.00000E+00
 -1      2371 3.23449E+01 6.74175E+00 0.00000E+00
 -1      2372 3.75949E+01 5.44275E+00 0.00000E+00
 -1      2373 3.60949E+01 5.44275E+00 0.00000E+00
 -1      2374 3.53449E+01 6.74175E+00 0.00000E+00
 -1      2375 4.05949E+01 5.44275E+00 0.00000E+00
 -1      2376 3.90949E+01 5.44275E+00 0.00000E+00
 -1      2377 3.83449E+01 6.74175E+00 0.00000E+00
 -1      2378 4.35949E+01 5.44275E+00 0.00000E+00
 -1      2379 4.20949E+01 5.44275E+00 0.00000E+00
 -1      2380 4.13449E+01 6.74175E+00 0.00000E+00
 -1      2381 4.65949E+01 5.44275E+00 0.00000E+00
 -1      2382 4.50949E+01 5.44275E+00 0.00000E+00
 -1      2383 4.43449E+01 6.74175E+00 0.00000E+00
 -1      2384 4.95949E+01 5.44275E+00 0.00000E+00
 -1      2385 4.80949E+01 5.44275E+00 0.00000E+00
 -1      2386 4.73449E+01 6.74175E+00 0.00000E+00
 -1      2387 5.25949E+01 5.44275E+00 0.00000E+00
 -1      2388 5.10949E+01 5.44275E+00 0.00000E+00
 -1      2389 5.03449E+01 6.74175E+00 0.00000E+00
 -1      2390 5.55949E+01 5.44275E+00 0.00000E+00
 -1      2391 5.40949E+01 5.44275E+00 0.00000E+00
 -1      2392 5.33449E+01 6.74175E+00 0.00000E+00
 -1      2393 5.85949E+01 5.44275E+00 0.00000E+00
 -1      2394 5.70949E+01 5.44275E+00 0.00000E+00
 -1      2395 5.63449E+01 6.74175E+00 0.00000E+00
 -1      2396 6.15949E+01 5.44275E+00 0.00000E+00
 -1      2397 6.00949E+01 5.44275E+00 0.00000E+00
 -1      2398 5.93449E+01 6.74175E+00 0.00000E+00
 -1      2399 6.45949E+01 5.44275E+00 0.00000E+00
 -1      2400 6.30949E+01 5.44275E+00 0.00000E+00
 -1      2401 6.23449E+01 6.74175E+00 0.00000E+00
 -1      2402 6.75949E+01 5.44275E+00 0.00000E+00
 -1      2403 6.60949E+01 5.44275E+00 0.00000E+00
 -1      2404 6.53449E+01 6.74175E+00 0.00000E+00
 -1      2405 7.05949E+01 5.44275E+00 0.00000E+00
 -1      2406 6.90949E+01 5.44275E+00 0.00000E+00
 -1      2407 6.83449E+01 6.74175E+00 0.00000E+00
 -1      2408 7.35949E+01 5.44275E+00 0.00000E+00
 -1      2409 7.20949E+01 5.44275E+00 0.00000E+00
 -1      2410 7.13449E+01 6.74175E+00 0.00000E+00
 -1      2411 7.65949E+01 5.44275E+00 0.00000E+00
 -1      2412 7.50949E+01 5.44275E+00 0.00000E+00
 -1      2413 7.43449E+01 6.74175E+00 0.00000E+00
 -1      2414 7.95949E+01 5.44275E+00 0.00000E+00
 -1      2415 7.80949E+01 5.44275E+00 0.00000E+00
 -1      2416 7.73449E+01 6.74175E+00 0.00000E+00
 -1      2417 8.25949E+01 5.44275E+00 0.00000E+00
 -1      2418 8.10949E+01 5.44275E+00 0.00000E+00
 -1      2419 8.03449E+01 6.74175E+00 0.00000E+00
 -1      2420 8.55949E+01 5.44275E+00 0.00000E+00
 -1      2421 8.40949E+01 5.44275E+00 0.00000E+00
 -1      2422 8.33449E+01 6.74175E+00 0.00000E+00
 -1      2423 8.85949E+01 5.44275E+00 0.00000E+00
 -1      2424 8.70949E+01 5.44275E+00 0.00000E+00
 -1      2425 8.63449E+01 6.74175E+00 0.00000E+00
 -1      2426 9.15949E+01 5.44275E+00 0.00000E+00
 -1      2427 9.00949E+01 5.44275E+00 0.00000E+00
 -1      2428 8.93449E+01 6.74175E+00 0.00000E+00
 -1      2429 9.45949E+01 5.44275E+00 0.00000E+00
 -1      2430 9.30949E+01 5.44275E+00 0.00000E+00
 -1      2431 9.23449E+01 6.74175E+00 0.00000E+00
 -1      2432 9.75949E+01 5.44275E+00 0.00000E+00
 -1      2433 9.60949E+01 5.44275E+00 0.00000E+00
 -1      2434 9.53449E+01 6.74175E+00 0.00000E+00
 -1      2435 1.00595E+02 5.44275E+00 0.00000E+00
 -1      2436 9.90949E+01 5.44275E+00 0.00000E+00
 -1      2437 9.83449E+01 6.74175E+00 0.00000E+00
 -1      2438 1.03595E+02 5.44275E+00 0.00000E+00
 -1      2439 1.02095E+02 5.44275E+00 0.00000E+00
 -1      2440 1.01345E+02 6.74175E+00 0.00000E+00
 -1      2441 1.06595E+02 5.44275E+00 0.00000E+00
 -1      2442 1.05095E+02 5.44275E+00 0.00000E+00
 -1      2443 1.04345E+02 6.74175E+00 0.00000E+00
 -1      2444 1.09595E+02 5.44275E+00 0.00000E+00
 -1      2445 1.08095E+02 5.44275E+00 0.00000E+00
 -1      2446 1.07345E+02 6.74175E+00 0.00000E+00
 -1      2447 1.12595E+02 5.44275E+00 0.00000E+00
 -1      2448 1.11095E+02 5.44275E+00 0.00000E+00
 -1      2449 1.10345E+02 6.74175E+00 0.00000E+00
 -1      2450 1.15595E+02 5.44275E+00 0.00000E+00
 -1      2451 1.14095E+02 5.44275E+00 0.00000E+00
 -1      2452 1.13345E+02 6.74175E+00 0.00000E+00
 -1      2453 1.18595E+02 5.44275E+00 0.00000E+00
 -1      2454 1.17095E+02 5.44275E+00 0.00000E+00
 -1      2455 1.16345E+02 6.74175E+00 0.00000E+00
 -1      2456 1.21595E+02 5.44275E+00 0.00000E+00
 -1      2457 1.20095E+02 5.44275E+00 0.00000E+00
 -1      2458 1.19345E+02 6.74175E+00 0.00000E+00
 -1      2459 1.24595E+02 5.44275E+00 0.00000E+00
 -1      2460 1.23095E+02 5.44275E+00 0.00000E+00
 -1      2461 1.22345E+02 6.74175E+00 0.00000E+00
 -1      2462 1.27595E+02 5.44275E+00 0.00000E+00
 -1      2463 1.26095E+02 5.44275E+00 0.00000E+00
 -1      2464 1.25345E+02 6.74175E+00 0.00000E+00
 -1      2465 1.30595E+02 5.44275E+00 0.00000E+00
 -1      2466 1.29095E+02 5.44275E+00 0.00000E+00
 -1      2467 1.28345E+02 6.74175E+00 0.00000E+00
 -1      2468 1.33595E+02 5.44275E+00 0.00000E+00
 -1      2469 1.32095E+02 5.44275E+00 0.00000E+00
 -1      2470 1.31345E+02 6.74175E+00 0.00000E+00
 -1      2471 1.36595E+02 5.44275E+00 0.00000E+00
 -1      2472 1.35095E+02 5.44275E+00 0.00000E+00
 -1      2473 1.34345E+02 6.74175E+00 0.00000E+00
 -1      2474 1.39595E+02 5.44275E+00 0.00000E+00
 -1      2475 1.38095E+02 5.44275E+00 0.00000E+00
 -1      2476 1.37345E+02 6.74175E+00 0.00000E+00
 -1      2477 1.42595E+02 5.44275E+00 0.00000E+00
 -1      2478 1.41095E+02 5.44275E+00 0.00000E+00
 -1      2479 1.40345E+02 6.74175E+00 0.00000E+00
 -1      2480 1.44217E+02 5.35547E+00 0.00000E+00
 -1      2481 1.43505E+02 1.69125E+01 0.00000E+00
 -1      2482 1.43505E+02 1.54375E+01 0.00000E+00
 -1      2483 1.43505E+02 1.98625E+01 0.00000E+00
 -1      2484 1.43505E+02 1.83875E+01 0.00000E+00
 -1      2485 1.42206E+02 1.76500E+01 0.00000E+00
 -1      2486 1.43505E+02 1.10625E+01 0.00000E+00
 -1      2487 1.43505E+02 9.58750E+00 0.00000E+00
 -1      2488 1.43505E+02 1.39750E+01 0.00000E+00
 -1      2489 1.43505E+02 1.25250E+01 0.00000E+00
 -1      2490 1.42206E+02 1.17875E+01 0.00000E+00
 -1      2491 1.42206E+02 1.47125E+01 0.00000E+00
 -1      2492 1.43505E+02 2.28125E+01 0.00000E+00
 -1      2493 1.43505E+02 2.13375E+01 0.00000E+00
 -1      2494 1.42206E+02 2.06000E+01 0.00000E+00
 -1      2495 1.43505E+02 2.57625E+01 0.00000E+00
 -1      2496 1.43505E+02 2.42875E+01 0.00000E+00
 -1      2497 1.42206E+02 2.35500E+01 0.00000E+00
 -1      2498 1.43505E+02 2.87125E+01 0.00000E+00
 -1      2499 1.43505E+02 2.72375E+01 0.00000E+00
 -1      2500 1.42206E+02 2.65000E+01 0.00000E+00
 -1      2501 1.43505E+02 3.16125E+01 0.00000E+00
 -1      2502 1.43505E+02 3.01625E+01 0.00000E+00
 -1      2503 1.42206E+02 2.94250E+01 0.00000E+00
 -1      2504 1.43505E+02 3.45625E+01 0.00000E+00
 -1      2505 1.43505E+02 3.30875E+01 0.00000E+00
 -1      2506 1.42206E+02 3.23500E+01 0.00000E+00
 -1      2507 1.43505E+02 3.75125E+01 0.00000E+00
 -1      2508 1.43505E+02 3.60375E+01 0.00000E+00
 -1      2509 1.42206E+02 3.53000E+01 0.00000E+00
 -1      2510 1.43505E+02 4.04625E+01 0.00000E+00
 -1      2511 1.43505E+02 3.89875E+01 0.00000E+00
 -1      2512 1.42206E+02 3.82500E+01 0.00000E+00
 -1      2513 1.44321E+02 4.30606E+01 0.00000E+00
 -1      2514 2.61017E+01 2.44962E+01 0.00000E+00
 -1      2515 2.57982E+01 2.55722E+01 0.00000E+00
 -1      2516 1.68535E+01 5.21903E+00 0.00000E+00
 -1      2517 1.53535E+01 5.21903E+00 0.00000E+00
 -1      2518 1.51208E+01 6.07059E+00 0.00000E+00
 -1      2519 1.76035E+01 6.51803E+00 0.00000E+00
 -1      2520 1.89275E+01 1.36982E+01 0.00000E+00
 -1      2521 1.97787E+01 1.40075E+01 0.00000E+00
 -1      2522 2.32345E+01 1.60555E+01 0.00000E+00
 -1      2523 2.37513E+01 1.68693E+01 0.00000E+00
 -1      2524 2.42806E+01 1.77358E+01 0.00000E+00
 -1      2525 2.48099E+01 1.86022E+01 0.00000E+00
 -1      2526 2.48169E+01 1.68243E+01 0.00000E+00
 -1      2527 2.54479E+01 2.66407E+01 0.00000E+00
 -1      2528 2.50939E+01 2.75719E+01 0.00000E+00
 -1      2529 9.00189E+00 3.16927E+01 0.00000E+00
 -1      2530 8.16529E+00 3.08488E+01 0.00000E+00
 -1      2531 6.11482E+00 9.83750E+00 0.00000E+00
 -1      2532 6.11482E+00 1.13625E+01 0.00000E+00
 -1      2533 7.41382E+00 9.07500E+00 0.00000E+00
 -1      2534 6.11482E+00 1.28875E+01 0.00000E+00
 -1      2535 6.11482E+00 1.44125E+01 0.00000E+00
 -1      2536 7.41382E+00 1.21250E+01 0.00000E+00
 -1      2537 2.09667E+01 1.44132E+01 0.00000E+00
 -1      2538 2.20731E+01 1.50845E+01 0.00000E+00
 -1      2539 5.42153E+00 2.15460E+01 0.00000E+00
 -1      2540 5.33775E+00 2.28585E+01 0.00000E+00
 -1      2541 5.15603E+00 2.41170E+01 0.00000E+00
 -1      2542 5.32360E+00 2.53920E+01 0.00000E+00
 -1      2543 1.02512E+01 1.45866E+01 0.00000E+00
 -1      2544 1.11848E+01 1.40764E+01 0.00000E+00
 -1      2545 1.46005E+01 1.30869E+01 0.00000E+00
 -1      2546 1.54581E+01 1.29886E+01 0.00000E+00
 -1      2547 7.36418E+00 2.99335E+01 0.00000E+00
 -1      2548 6.86545E+00 2.91480E+01 0.00000E+00
 -1      2549 1.24042E+01 1.36078E+01 0.00000E+00
 -1      2550 1.35175E+01 1.33333E+01 0.00000E+00
 -1      2551 8.90187E+00 1.59732E+01 0.00000E+00
 -1      2552 9.57651E+00 1.52799E+01 0.00000E+00
 -1      2553 9.65218E+00 1.43090E+01 0.00000E+00
 -1      2554 7.24357E+00 1.75541E+01 0.00000E+00
 -1      2555 7.92992E+00 1.68220E+01 0.00000E+00
 -1      2556 5.71270E+00 2.06932E+01 0.00000E+00
 -1      2557 5.46501E+00 2.63017E+01 0.00000E+00
 -1      2558 1.52981E+01 3.40843E+01 0.00000E+00
 -1      2559 1.42368E+01 3.42305E+01 0.00000E+00
 -1      2560 1.06578E+01 3.29932E+01 0.00000E+00
 -1      2561 9.89696E+00 3.25612E+01 0.00000E+00
 -1      2562 1.27739E+01 3.39008E+01 0.00000E+00
 -1      2563 1.17158E+01 3.34470E+01 0.00000E+00
 -1      2564 1.09120E+01 3.39767E+01 0.00000E+00
 -1      2565 1.72575E+01 3.41441E+01 0.00000E+00
 -1      2566 1.62778E+01 3.41142E+01 0.00000E+00
 -1      2567 1.58756E+01 3.51198E+01 0.00000E+00
 -1      2568 1.97365E+01 3.36218E+01 0.00000E+00
 -1      2569 1.85360E+01 3.39577E+01 0.00000E+00
 -1      2570 2.17641E+01 3.20154E+01 0.00000E+00
 -1      2571 2.10252E+01 3.27278E+01 0.00000E+00
 -1      2572 2.33502E+01 3.07320E+01 0.00000E+00
 -1      2573 2.25572E+01 3.13737E+01 0.00000E+00
 -1      2574 2.27829E+01 3.23473E+01 0.00000E+00
 -1      2575 2.46084E+01 2.86269E+01 0.00000E+00
 -1      2576 2.40738E+01 2.96248E+01 0.00000E+00
 -1      2577 6.55950E+00 4.27140E+01 0.00000E+00
 -1      2578 8.53650E+00 4.31660E+01 0.00000E+00
 -1      2579 9.28650E+00 4.18670E+01 0.00000E+00
 -1      2580 6.55950E+00 4.11890E+01 0.00000E+00
 -1      2581 5.79649E+00 1.92682E+01 0.00000E+00
 -1      2582 7.24625E+00 3.48187E+01 0.00000E+00
 -1      2583 6.22112E+00 3.55563E+01 0.00000E+00
 -1      2584 6.22112E+00 3.70750E+01 0.00000E+00
 -1      2585 5.82879E+00 2.94902E+01 0.00000E+00
 -1      2586 5.82879E+00 3.08902E+01 0.00000E+00
 -1      2587 1.84981E+01 1.27947E+01 0.00000E+00
 -1      2588 6.13465E+00 1.83166E+01 0.00000E+00
 -1      2589 6.04257E+00 2.72952E+01 0.00000E+00
 -1      2590 6.23266E+00 2.86827E+01 0.00000E+00
 -1      2591 7.22373E+00 1.51750E+01 0.00000E+00
 -1      2592 6.62990E+00 3.18055E+01 0.00000E+00
 -1      2593 7.65503E+00 3.25430E+01 0.00000E+00
 -1      2594 2.61800E+01 2.11280E+01 0.00000E+00
 -1      2595 2.69086E+01 2.16774E+01 0.00000E+00
 -1      2596 2.67019E+01 2.04324E+01 0.00000E+00
 -1      2597 2.63444E+01 2.63128E+01 0.00000E+00
 -1      2598 2.56597E+01 1.87868E+01 0.00000E+00
 -1      2599 2.07767E+01 1.36100E+01 0.00000E+00
 -1      2600 1.43467E+02 6.65447E+00 0.00000E+00
 -1      2601 1.43324E+02 7.79588E+00 0.00000E+00
 -1      2602 1.42758E+02 4.35929E+01 0.00000E+00
 -1      2603 1.43241E+02 4.17323E+01 0.00000E+00
 -1      2604 1.41942E+02 4.09948E+01 0.00000E+00
 -1      2605 1.41414E+02 4.35342E+01 0.00000E+00
 -1      2606 2.65407E+01 2.38086E+01 0.00000E+00
 -1      2607 2.71336E+01 2.45567E+01 0.00000E+00
 -1      2608 2.69797E+01 2.31211E+01 0.00000E+00
 -1      2609 2.31261E+01 1.49867E+01 0.00000E+00
 -1      2610 2.41792E+01 1.48890E+01 0.00000E+00
 -1      2611 2.30177E+01 1.39179E+01 0.00000E+00
 -1      2612 2.55087E+01 2.84363E+01 0.00000E+00
 -1      2613 7.26269E+00 3.08707E+01 0.00000E+00
 -1      2614 8.00559E+00 1.58512E+01 0.00000E+00
 -1      2615 1.15462E+01 1.31472E+01 0.00000E+00
 -1      2616 1.38486E+01 1.24322E+01 0.00000E+00
 -1      2617 2.42996E+01 3.05984E+01 0.00000E+00
 -1      2618 8.95888E+00 3.26545E+01 0.00000E+00
 -1      2619 6.39031E+00 3.83726E+01 0.00000E+00
 -1      2620 6.39031E+00 3.98914E+01 0.00000E+00
 -1      2621 7.75381E+00 4.02304E+01 0.00000E+00
 -1      2622 7.41544E+00 3.76351E+01 0.00000E+00
 -1      2623 1.40921E+01 3.56196E+01 0.00000E+00
 -1      2624 1.34330E+01 3.47602E+01 0.00000E+00
 -1      2625 1.26291E+01 3.52899E+01 0.00000E+00
 -1      2626 1.61695E+01 1.22854E+01 0.00000E+00
 -1      2627 1.81339E+01 3.49633E+01 0.00000E+00
 -1      2628 2.07012E+01 3.38830E+01 0.00000E+00
 -1      2629 2.03772E+01 3.50381E+01 0.00000E+00
 -1      2630 2.16658E+01 3.41441E+01 0.00000E+00
 -1      2631 1.42025E+02 8.53337E+00 0.00000E+00
 -1      2632 1.40664E+02 4.22352E+01 0.00000E+00
 -1      2633 8.55010E+00 3.34115E+01 0.00000E+00
 -1      2634 1.82396E+01 1.18262E+01 0.00000E+00
 -1      2635 1.93303E+01 1.22359E+01 0.00000E+00
 -1      2636 8.19568E+00 1.43262E+01 0.00000E+00
 -1      2637 9.14659E+00 6.69844E+00 0.00000E+00
 -1      2638 8.91382E+00 7.55000E+00 0.00000E+00
 -1      2639 1.06466E+01 6.69844E+00 0.00000E+00
 -1      2640 2.70949E+01 8.04075E+00 0.00000E+00
 -1      2641 2.55949E+01 8.04075E+00 0.00000E+00
 -1      2642 8.55010E+00 3.49302E+01 0.00000E+00
 -1      2643 2.40949E+01 8.04075E+00 0.00000E+00
 -1      2644 2.25949E+01 8.04075E+00 0.00000E+00
 -1      2645 2.48449E+01 9.33975E+00 0.00000E+00
 -1      2646 1.44000E+01 4.09295E+01 0.00000E+00
 -1      2647 1.59000E+01 4.09295E+01 0.00000E+00
 -1      2648 1.74000E+01 4.09295E+01 0.00000E+00
 -1      2649 1.89000E+01 4.09295E+01 0.00000E+00
 -1      2650 1.66500E+01 3.96530E+01 0.00000E+00
 -1      2651 2.04000E+01 4.09295E+01 0.00000E+00
 -1      2652 2.19000E+01 4.09295E+01 0.00000E+00
 -1      2653 1.96500E+01 3.96530E+01 0.00000E+00
 -1      2654 2.34000E+01 4.09295E+01 0.00000E+00
 -1      2655 2.49000E+01 4.09295E+01 0.00000E+00
 -1      2656 2.26500E+01 3.96530E+01 0.00000E+00
 -1      2657 2.64000E+01 4.09295E+01 0.00000E+00
 -1      2658 2.79000E+01 4.09295E+01 0.00000E+00
 -1      2659 2.56500E+01 3.96530E+01 0.00000E+00
 -1      2660 2.94000E+01 4.09295E+01 0.00000E+00
 -1      2661 3.09000E+01 4.09295E+01 0.00000E+00
 -1      2662 2.86500E+01 3.96530E+01 0.00000E+00
 -1      2663 3.24000E+01 4.09295E+01 0.00000E+00
 -1      2664 3.39000E+01 4.09295E+01 0.00000E+00
 -1      2665 3.16500E+01 3.96530E+01 0.00000E+00
 -1      2666 3.54000E+01 4.09295E+01 0.00000E+00
 -1      2667 3.69000E+01 4.09295E+01 0.00000E+00
 -1      2668 3.46500E+01 3.96530E+01 0.00000E+00
 -1      2669 3.84000E+01 4.09295E+01 0.00000E+00
 -1      2670 3.99000E+01 4.09295E+01 0.00000E+00
 -1      2671 3.76500E+01 3.96530E+01 0.00000E+00
 -1      2672 4.14000E+01 4.09295E+01 0.00000E+00
 -1      2673 4.29000E+01 4.09295E+01 0.00000E+00
 -1      2674 4.06500E+01 3.96530E+01 0.00000E+00
 -1      2675 4.44000E+01 4.09295E+01 0.00000E+00
 -1      2676 4.59000E+01 4.09295E+01 0.00000E+00
 -1      2677 4.36500E+01 3.96530E+01 0.00000E+00
 -1      2678 4.74000E+01 4.09295E+01 0.00000E+00
 -1      2679 4.89000E+01 4.09295E+01 0.00000E+00
 -1      2680 4.66500E+01 3.96530E+01 0.00000E+00
 -1      2681 5.04000E+01 4.09295E+01 0.00000E+00
 -1      2682 5.19000E+01 4.09295E+01 0.00000E+00
 -1      2683 4.96500E+01 3.96530E+01 0.00000E+00
 -1      2684 5.34000E+01 4.09295E+01 0.00000E+00
 -1      2685 5.49000E+01 4.09295E+01 0.00000E+00
 -1      2686 5.26500E+01 3.96530E+01 0.00000E+00
 -1      2687 5.64000E+01 4.09295E+01 0.00000E+00
 -1      2688 5.79000E+01 4.09295E+01 0.00000E+00
 -1      2689 5.56500E+01 3.96530E+01 0.00000E+00
 -1      2690 5.94000E+01 4.09295E+01 0.00000E+00
 -1      2691 6.09000E+01 4.09295E+01 0.00000E+00
 -1      2692 5.86500E+01 3.96530E+01 0.00000E+00
 -1      2693 6.24000E+01 4.09295E+01 0.00000E+00
 -1      2694 6.39000E+01 4.09295E+01 0.00000E+00
 -1      2695 6.16500E+01 3.96530E+01 0.00000E+00
 -1      2696 6.54000E+01 4.09295E+01 0.00000E+00
 -1      2697 6.69000E+01 4.09295E+01 0.00000E+00
 -1      2698 6.46500E+01 3.96530E+01 0.00000E+00
 -1      2699 6.84000E+01 4.09295E+01 0.00000E+00
 -1      2700 6.99000E+01 4.09295E+01 0.00000E+00
 -1      2701 6.76500E+01 3.96530E+01 0.00000E+00
 -1      2702 7.14000E+01 4.09295E+01 0.00000E+00
 -1      2703 7.29000E+01 4.09295E+01 0.00000E+00
 -1      2704 7.06500E+01 3.96530E+01 0.00000E+00
 -1      2705 7.44000E+01 4.09295E+01 0.00000E+00
 -1      2706 7.59000E+01 4.09295E+01 0.00000E+00
 -1      2707 7.36500E+01 3.96530E+01 0.00000E+00
 -1      2708 7.74000E+01 4.09295E+01 0.00000E+00
 -1      2709 7.89000E+01 4.09295E+01 0.00000E+00
 -1      2710 7.66500E+01 3.96530E+01 0.00000E+00
 -1      2711 8.04000E+01 4.09295E+01 0.00000E+00
 -1      2712 8.19000E+01 4.09295E+01 0.00000E+00
 -1      2713 7.96500E+01 3.96530E+01 0.00000E+00
 -1      2714 8.34000E+01 4.09295E+01 0.00000E+00
 -1      2715 8.49000E+01 4.09295E+01 0.00000E+00
 -1      2716 8.26500E+01 3.96530E+01 0.00000E+00
 -1      2717 8.64000E+01 4.09295E+01 0.00000E+00
 -1      2718 8.79000E+01 4.09295E+01 0.00000E+00
 -1      2719 8.56500E+01 3.96530E+01 0.00000E+00
 -1      2720 8.94000E+01 4.09295E+01 0.00000E+00
 -1      2721 9.09000E+01 4.09295E+01 0.00000E+00
 -1      2722 8.86500E+01 3.96530E+01 0.00000E+00
 -1      2723 9.24000E+01 4.09295E+01 0.00000E+00
 -1      2724 9.39000E+01 4.09295E+01 0.00000E+00
 -1      2725 9.16500E+01 3.96530E+01 0.00000E+00
 -1      2726 9.54000E+01 4.09295E+01 0.00000E+00
 -1      2727 9.69000E+01 4.09295E+01 0.00000E+00
 -1      2728 9.46500E+01 3.96530E+01 0.00000E+00
 -1      2729 9.84000E+01 4.09295E+01 0.00000E+00
 -1      2730 9.99000E+01 4.09295E+01 0.00000E+00
 -1      2731 9.76500E+01 3.96530E+01 0.00000E+00
 -1      2732 1.01400E+02 4.09295E+01 0.00000E+00
 -1      2733 1.02900E+02 4.09295E+01 0.00000E+00
 -1      2734 1.00650E+02 3.96530E+01 0.00000E+00
 -1      2735 1.04400E+02 4.09295E+01 0.00000E+00
 -1      2736 1.05900E+02 4.09295E+01 0.00000E+00
 -1      2737 1.03650E+02 3.96530E+01 0.00000E+00
 -1      2738 1.07400E+02 4.09295E+01 0.00000E+00
 -1      2739 1.08900E+02 4.09295E+01 0.00000E+00
 -1      2740 1.06650E+02 3.96530E+01 0.00000E+00
 -1      2741 1.10400E+02 4.09295E+01 0.00000E+00
 -1      2742 1.11900E+02 4.09295E+01 0.00000E+00
 -1      2743 1.09650E+02 3.96530E+01 0.00000E+00
 -1      2744 1.13400E+02 4.09295E+01 0.00000E+00
 -1      2745 1.14900E+02 4.09295E+01 0.00000E+00
 -1      2746 1.12650E+02 3.96530E+01 0.00000E+00
 -1      2747 1.16400E+02 4.09295E+01 0.00000E+00
 -1      2748 1.17900E+02 4.09295E+01 0.00000E+00
 -1      2749 1.15650E+02 3.96530E+01 0.00000E+00
 -1      2750 1.19400E+02 4.09295E+01 0.00000E+00
 -1      2751 1.20900E+02 4.09295E+01 0.00000E+00
 -1      2752 1.18650E+02 3.96530E+01 0.00000E+00
 -1      2753 1.22400E+02 4.09295E+01 0.00000E+00
 -1      2754 1.23900E+02 4.09295E+01 0.00000E+00
 -1      2755 1.21650E+02 3.96530E+01 0.00000E+00
 -1      2756 1.25400E+02 4.09295E+01 0.00000E+00
 -1      2757 1.26900E+02 4.09295E+01 0.00000E+00
 -1      2758 1.24650E+02 3.96530E+01 0.00000E+00
 -1      2759 1.28400E+02 4.09295E+01 0.00000E+00
 -1      2760 1.29900E+02 4.09295E+01 0.00000E+00
 -1      2761 1.27650E+02 3.96530E+01 0.00000E+00
 -1      2762 1.31400E+02 4.09295E+01 0.00000E+00
 -1      2763 1.32900E+02 4.09295E+01 0.00000E+00
 -1      2764 1.30650E+02 3.96530E+01 0.00000E+00
 -1      2765 1.34400E+02 4.09295E+01 0.00000E+00
 -1      2766 1.35900E+02 4.09295E+01 0.00000E+00
 -1      2767 1.33650E+02 3.96530E+01 0.00000E+00
 -1      2768 1.37400E+02 4.09295E+01 0.00000E+00
 -1      2769 1.38900E+02 4.09295E+01 0.00000E+00
 -1      2770 1.36650E+02 3.96530E+01 0.00000E+00
 -1      2771 2.04583E+01 9.00464E+00 0.00000E+00
 -1      2772 1.89583E+01 9.00464E+00 0.00000E+00
 -1      2773 3.00949E+01 8.04075E+00 0.00000E+00
 -1      2774 2.85949E+01 8.04075E+00 0.00000E+00
 -1      2775 2.78449E+01 9.33975E+00 0.00000E+00
 -1      2776 3.30949E+01 8.04075E+00 0.00000E+00
 -1      2777 3.15949E+01 8.04075E+00 0.00000E+00
 -1      2778 3.08449E+01 9.33975E+00 0.00000E+00
 -1      2779 3.60949E+01 8.04075E+00 0.00000E+00
 -1      2780 3.45949E+01 8.04075E+00 0.00000E+00
 -1      2781 3.38449E+01 9.33975E+00 0.00000E+00
 -1      2782 3.90949E+01 8.04075E+00 0.00000E+00
 -1      2783 3.75949E+01 8.04075E+00 0.00000E+00
 -1      2784 3.68449E+01 9.33975E+00 0.00000E+00
 -1      2785 4.20949E+01 8.04075E+00 0.00000E+00
 -1      2786 4.05949E+01 8.04075E+00 0.00000E+00
 -1      2787 3.98449E+01 9.33975E+00 0.00000E+00
 -1      2788 4.50949E+01 8.04075E+00 0.00000E+00
 -1      2789 4.35949E+01 8.04075E+00 0.00000E+00
 -1      2790 4.28449E+01 9.33975E+00 0.00000E+00
 -1      2791 4.80949E+01 8.04075E+00 0.00000E+00
 -1      2792 4.65949E+01 8.04075E+00 0.00000E+00
 -1      2793 4.58449E+01 9.33975E+00 0.00000E+00
 -1      2794 5.10949E+01 8.04075E+00 0.00000E+00
 -1      2795 4.95949E+01 8.04075E+00 0.00000E+00
 -1      2796 4.88449E+01 9.33975E+00 0.00000E+00
 -1      2797 5.40949E+01 8.04075E+00 0.00000E+00
 -1      2798 5.25949E+01 8.04075E+00 0.00000E+00
 -1      2799 5.18449E+01 9.33975E+00 0.00000E+00
 -1      2800 5.70949E+01 8.04075E+00 0.00000E+00
 -1      2801 5.55949E+01 8.04075E+00 0.00000E+00
 -1      2802 5.48449E+01 9.33975E+00 0.00000E+00
 -1      2803 6.00949E+01 8.04075E+00 0.00000E+00
 -1      2804 5.85949E+01 8.04075E+00 0.00000E+00
 -1      2805 5.78449E+01 9.33975E+00 0.00000E+00
 -1      2806 6.30949E+01 8.04075E+00 0.00000E+00
 -1      2807 6.15949E+01 8.04075E+00 0.00000E+00
 -1      2808 6.08449E+01 9.33975E+00 0.00000E+00
 -1      2809 6.60949E+01 8.04075E+00 0.00000E+00
 -1      2810 6.45949E+01 8.04075E+00 0.00000E+00
 -1      2811 6.38449E+01 9.33975E+00 0.00000E+00
 -1      2812 6.90949E+01 8.04075E+00 0.00000E+00
 -1      2813 6.75949E+01 8.04075E+00 0.00000E+00
 -1      2814 6.68449E+01 9.33975E+00 0.00000E+00
 -1      2815 7.20949E+01 8.04075E+00 0.00000E+00
 -1      2816 7.05949E+01 8.04075E+00 0.00000E+00
 -1      2817 6.98449E+01 9.33975E+00 0.00000E+00
 -1      2818 7.50949E+01 8.04075E+00 0.00000E+00
 -1      2819 7.35949E+01 8.04075E+00 0.00000E+00
 -1      2820 7.28449E+01 9.33975E+00 0.00000E+00
 -1      2821 7.80949E+01 8.04075E+00 0.00000E+00
 -1      2822 7.65949E+01 8.04075E+00 0.00000E+00
 -1      2823 7.58449E+01 9.33975E+00 0.00000E+00
 -1      2824 8.10949E+01 8.04075E+00 0.00000E+00
 -1      2825 7.95949E+01 8.04075E+00 0.00000E+00
 -1      2826 7.88449E+01 9.33975E+00 0.00000E+00
 -1      2827 8.40949E+01 8.04075E+00 0.00000E+00
 -1      2828 8.25949E+01 8.04075E+00 0.00000E+00
 -1      2829 8.18449E+01 9.33975E+00 0.00000E+00
 -1      2830 8.70949E+01 8.04075E+00 0.00000E+00
 -1      2831 8.55949E+01 8.04075E+00 0.00000E+00
 -1      2832 8.48449E+01 9.33975E+00 0.00000E+00
 -1      2833 9.00949E+01 8.04075E+00 0.00000E+00
 -1      2834 8.85949E+01 8.04075E+00 0.00000E+00
 -1      2835 8.78449E+01 9.33975E+00 0.00000E+00
 -1      2836 9.30949E+01 8.04075E+00 0.00000E+00
 -1      2837 9.15949E+01 8.04075E+00 0.00000E+00
 -1      2838 9.08449E+01 9.33975E+00 0.00000E+00
 -1      2839 9.60949E+01 8.04075E+00 0.00000E+00
 -1      2840 9.45949E+01 8.04075E+00 0.00000E+00
 -1      2841 9.38449E+01 9.33975E+00 0.00000E+00
 -1      2842 9.90949E+01 8.04075E+00 0.00000E+00
 -1      2843 9.75949E+01 8.04075E+00 0.00000E+00
 -1      2844 9.68449E+01 9.33975E+00 0.00000E+00
 -1      2845 1.02095E+02 8.04075E+00 0.00000E+00
 -1      2846 1.00595E+02 8.04075E+00 0.00000E+00
 -1      2847 9.98449E+01 9.33975E+00 0.00000E+00
 -1      2848 1.05095E+02 8.04075E+00 0.00000E+00
 -1      2849 1.03595E+02 8.04075E+00 0.00000E+00
 -1      2850 1.02845E+02 9.33975E+00 0.00000E+00
 -1      2851 1.08095E+02 8.04075E+00 0.00000E+00
 -1      2852 1.06595E+02 8.04075E+00 0.00000E+00
 -1      2853 1.05845E+02 9.33975E+00 0.00000E+00
 -1      2854 1.11095E+02 8.04075E+00 0.00000E+00
 -1      2855 1.09595E+02 8.04075E+00 0.00000E+00
 -1      2856 1.08845E+02 9.33975E+00 0.00000E+00
 -1      2857 1.14095E+02 8.04075E+00 0.00000E+00
 -1      2858 1.12595E+02 8.04075E+00 0.00000E+00
 -1      2859 1.11845E+02 9.33975E+00 0.00000E+00
 -1      2860 1.17095E+02 8.04075E+00 0.00000E+00
 -1      2861 1.15595E+02 8.04075E+00 0.00000E+00
 -1      2862 1.14845E+02 9.33975E+00 0.00000E+00
 -1      2863 1.20095E+02 8.04075E+00 0.00000E+00
 -1      2864 1.18595E+02 8.04075E+00 0.00000E+00
 -1      2865 1.17845E+02 9.33975E+00 0.00000E+00
 -1      2866 1.23095E+02 8.04075E+00 0.00000E+00
 -1      2867 1.21595E+02 8.04075E+00 0.00000E+00
 -1      2868 1.20845E+02 9.33975E+00 0.00000E+00
 -1      2869 1.26095E+02 8.04075E+00 0.00000E+00
 -1      2870 1.24595E+02 8.04075E+00 0.00000E+00
 -1      2871 1.23845E+02 9.33975E+00 0.00000E+00
 -1      2872 1.29095E+02 8.04075E+00 0.00000E+00
 -1      2873 1.27595E+02 8.04075E+00 0.00000E+00
 -1      2874 1.26845E+02 9.33975E+00 0.00000E+00
 -1      2875 1.32095E+02 8.04075E+00 0.00000E+00
 -1      2876 1.30595E+02 8.04075E+00 0.00000E+00
 -1      2877 1.29845E+02 9.33975E+00 0.00000E+00
 -1      2878 1.35095E+02 8.04075E+00 0.00000E+00
 -1      2879 1.33595E+02 8.04075E+00 0.00000E+00
 -1      2880 1.32845E+02 9.33975E+00 0.00000E+00
 -1      2881 1.38095E+02 8.04075E+00 0.00000E+00
 -1      2882 1.36595E+02 8.04075E+00 0.00000E+00
 -1      2883 1.35845E+02 9.33975E+00 0.00000E+00
 -1      2884 1.40810E+02 8.28706E+00 0.00000E+00
 -1      2885 1.39310E+02 8.28706E+00 0.00000E+00
 -1      2886 1.38560E+02 9.58606E+00 0.00000E+00
 -1      2887 1.40991E+02 1.00787E+01 0.00000E+00
 -1      2888 1.40907E+02 2.42875E+01 0.00000E+00
 -1      2889 1.40907E+02 2.28125E+01 0.00000E+00
 -1      2890 1.39914E+02 4.09475E+01 0.00000E+00
 -1      2891 1.40928E+02 4.09768E+01 0.00000E+00
 -1      2892 1.41192E+02 3.97070E+01 0.00000E+00
 -1      2893 1.39164E+02 3.96710E+01 0.00000E+00
 -1      2894 1.40907E+02 1.83875E+01 0.00000E+00
 -1      2895 1.40907E+02 1.69125E+01 0.00000E+00
 -1      2896 1.40907E+02 2.72375E+01 0.00000E+00
 -1      2897 1.40907E+02 2.57625E+01 0.00000E+00
 -1      2898 1.39608E+02 2.50250E+01 0.00000E+00
 -1      2899 1.40907E+02 2.13375E+01 0.00000E+00
 -1      2900 1.40907E+02 1.98625E+01 0.00000E+00
 -1      2901 1.39608E+02 1.91250E+01 0.00000E+00
 -1      2902 1.39608E+02 2.20750E+01 0.00000E+00
 -1      2903 2.52840E+01 1.59440E+01 0.00000E+00
 -1      2904 2.58133E+01 1.68104E+01 0.00000E+00
 -1      2905 1.40907E+02 3.01375E+01 0.00000E+00
 -1      2906 1.40907E+02 2.86875E+01 0.00000E+00
 -1      2907 1.39608E+02 2.79500E+01 0.00000E+00
 -1      2908 1.40907E+02 3.30875E+01 0.00000E+00
 -1      2909 1.40907E+02 3.16125E+01 0.00000E+00
 -1      2910 1.39608E+02 3.08750E+01 0.00000E+00
 -1      2911 1.40907E+02 3.60375E+01 0.00000E+00
 -1      2912 1.40907E+02 3.45625E+01 0.00000E+00
 -1      2913 1.39608E+02 3.38250E+01 0.00000E+00
 -1      2914 1.41192E+02 3.82320E+01 0.00000E+00
 -1      2915 2.04869E+01 1.25164E+01 0.00000E+00
 -1      2916 2.16749E+01 1.29220E+01 0.00000E+00
 -1      2917 2.64886E+01 1.79569E+01 0.00000E+00
 -1      2918 2.68021E+01 1.90530E+01 0.00000E+00
 -1      2919 2.65304E+01 2.82673E+01 0.00000E+00
 -1      2920 2.60450E+01 2.93222E+01 0.00000E+00
 -1      2921 1.06289E+01 1.25810E+01 0.00000E+00
 -1      2922 1.18483E+01 1.21124E+01 0.00000E+00
 -1      2923 1.63367E+01 3.60757E+01 0.00000E+00
 -1      2924 1.53571E+01 3.60458E+01 0.00000E+00
 -1      2925 8.91382E+00 9.07500E+00 0.00000E+00
 -1      2926 8.55475E+00 1.09381E+01 0.00000E+00
 -1      2927 8.55475E+00 1.24631E+01 0.00000E+00
 -1      2928 9.33661E+00 1.31392E+01 0.00000E+00
 -1      2929 1.00548E+01 9.41308E+00 0.00000E+00
 -1      2930 1.36466E+01 6.69844E+00 0.00000E+00
 -1      2931 1.21466E+01 6.69844E+00 0.00000E+00
 -1      2932 1.19138E+01 7.55000E+00 0.00000E+00
 -1      2933 1.30797E+01 1.15558E+01 0.00000E+00
 -1      2934 1.41627E+01 1.13094E+01 0.00000E+00
 -1      2935 2.54494E+01 3.05598E+01 0.00000E+00
 -1      2936 2.47257E+01 3.16670E+01 0.00000E+00
 -1      2937 1.56260E+01 1.12973E+01 0.00000E+00
 -1      2938 1.68640E+01 1.13968E+01 0.00000E+00
 -1      2939 1.89089E+01 3.58017E+01 0.00000E+00
 -1      2940 1.76303E+01 3.59880E+01 0.00000E+00
 -1      2941 1.14000E+01 4.09295E+01 0.00000E+00
 -1      2942 1.29000E+01 4.09295E+01 0.00000E+00
 -1      2943 1.36500E+01 3.96530E+01 0.00000E+00
 -1      2944 2.39296E+01 3.29536E+01 0.00000E+00
 -1      2945 2.31366E+01 3.35953E+01 0.00000E+00
 -1      2946 8.89516E+00 4.04104E+01 0.00000E+00
 -1      2947 1.02587E+01 4.07494E+01 0.00000E+00
 -1      2948 1.10087E+01 3.94730E+01 0.00000E+00
 -1      2949 8.72597E+00 3.91128E+01 0.00000E+00
 -1      2950 2.74141E+01 2.60717E+01 0.00000E+00
 -1      2951 2.70638E+01 2.71403E+01 0.00000E+00
 -1      2952 1.76961E+01 1.08381E+01 0.00000E+00
 -1      2953 1.48880E+01 6.92216E+00 0.00000E+00
 -1      2954 1.46552E+01 7.77372E+00 0.00000E+00
 -1      2955 1.61294E+01 7.14587E+00 0.00000E+00
 -1      2956 1.22782E+01 3.62415E+01 0.00000E+00
 -1      2957 1.16191E+01 3.53821E+01 0.00000E+00
 -1      2958 1.48571E+01 1.04209E+01 0.00000E+00
 -1      2959 1.75827E+01 8.57524E+00 0.00000E+00
 -1      2960 2.80234E+01 2.17299E+01 0.00000E+00
 -1      2961 2.75016E+01 2.24255E+01 0.00000E+00
 -1      2962 2.80945E+01 2.31736E+01 0.00000E+00
 -1      2963 1.40907E+02 1.54500E+01 0.00000E+00
 -1      2964 1.40907E+02 1.39875E+01 0.00000E+00
 -1      2965 1.39608E+02 1.61875E+01 0.00000E+00
 -1      2966 2.28126E+01 3.47505E+01 0.00000E+00
 -1      2967 2.82920E+01 2.46966E+01 0.00000E+00
 -1      2968 2.78530E+01 2.53842E+01 0.00000E+00
 -1      2969 2.85724E+01 2.62117E+01 0.00000E+00
 -1      2970 2.27279E+01 1.28243E+01 0.00000E+00
 -1      2971 1.40949E+02 1.27643E+01 0.00000E+00
 -1      2972 1.40949E+02 1.13018E+01 0.00000E+00
 -1      2973 1.39734E+02 1.10555E+01 0.00000E+00
 -1      2974 1.39650E+02 1.35018E+01 0.00000E+00
 -1      2975 1.39529E+02 3.85828E+01 0.00000E+00
 -1      2976 1.40542E+02 3.71258E+01 0.00000E+00
 -1      2977 1.39243E+02 3.63883E+01 0.00000E+00
 -1      2978 1.38514E+02 3.85648E+01 0.00000E+00
 -1      2979 2.69557E+01 1.70766E+01 0.00000E+00
 -1      2980 2.02284E+01 1.15479E+01 0.00000E+00
 -1      2981 2.75307E+01 1.96024E+01 0.00000E+00
 -1      2982 2.64711E+01 3.03908E+01 0.00000E+00
 -1      2983 1.45532E+01 3.65755E+01 0.00000E+00
 -1      2984 1.21624E+01 1.09896E+01 0.00000E+00
 -1      2985 2.51756E+01 1.48752E+01 0.00000E+00
 -1      2986 2.61721E+01 1.48613E+01 0.00000E+00
 -1      2987 2.50672E+01 1.38064E+01 0.00000E+00
 -1      2988 1.71118E+01 3.69140E+01 0.00000E+00
 -1      2989 2.50794E+01 3.29150E+01 0.00000E+00
 -1      2990 1.00112E+01 1.24460E+01 0.00000E+00
 -1      2991 1.03133E+01 1.14112E+01 0.00000E+00
 -1      2992 2.76001E+01 2.80262E+01 0.00000E+00
 -1      2993 1.11030E+01 3.49917E+01 0.00000E+00
 -1      2994 1.00450E+01 3.45380E+01 0.00000E+00
 -1      2995 1.07521E+01 3.59433E+01 0.00000E+00
 -1      2996 1.28688E+01 3.71329E+01 0.00000E+00
 -1      2997 1.18587E+01 3.72250E+01 0.00000E+00
 -1      2998 3.15949E+01 1.06388E+01 0.00000E+00
 -1      2999 3.00949E+01 1.06388E+01 0.00000E+00
 -1      3000 8.74112E+00 3.59452E+01 0.00000E+00
 -1      3001 2.62043E+01 1.15661E+01 0.00000E+00
 -1      3002 2.47043E+01 1.15661E+01 0.00000E+00
 -1      3003 2.39942E+01 3.56720E+01 0.00000E+00
 -1      3004 2.25235E+01 3.62208E+01 0.00000E+00
 -1      3005 1.82777E+01 3.82397E+01 0.00000E+00
 -1      3006 1.97777E+01 3.82397E+01 0.00000E+00
 -1      3007 2.24275E+01 3.83977E+01 0.00000E+00
 -1      3008 2.39275E+01 3.83977E+01 0.00000E+00
 -1      3009 2.54275E+01 3.83977E+01 0.00000E+00
 -1      3010 2.69275E+01 3.83977E+01 0.00000E+00
 -1      3011 2.52051E+01 3.71423E+01 0.00000E+00
 -1      3012 2.84275E+01 3.83977E+01 0.00000E+00
 -1      3013 2.99275E+01 3.83977E+01 0.00000E+00
 -1      3014 2.82051E+01 3.71423E+01 0.00000E+00
 -1      3015 3.14275E+01 3.83977E+01 0.00000E+00
 -1      3016 3.29275E+01 3.83977E+01 0.00000E+00
 -1      3017 3.12051E+01 3.71423E+01 0.00000E+00
 -1      3018 3.44275E+01 3.83977E+01 0.00000E+00
 -1      3019 3.59275E+01 3.83977E+01 0.00000E+00
 -1      3020 3.42051E+01 3.71423E+01 0.00000E+00
 -1      3021 3.74275E+01 3.83977E+01 0.00000E+00
 -1      3022 3.89275E+01 3.83977E+01 0.00000E+00
 -1      3023 3.72051E+01 3.71423E+01 0.00000E+00
 -1      3024 4.04275E+01 3.83977E+01 0.00000E+00
 -1      3025 4.19275E+01 3.83977E+01 0.00000E+00
 -1      3026 4.02051E+01 3.71423E+01 0.00000E+00
 -1      3027 4.34275E+01 3.83977E+01 0.00000E+00
 -1      3028 4.49275E+01 3.83977E+01 0.00000E+00
 -1      3029 4.32051E+01 3.71423E+01 0.00000E+00
 -1      3030 4.64275E+01 3.83977E+01 0.00000E+00
 -1      3031 4.79275E+01 3.83977E+01 0.00000E+00
 -1      3032 4.62051E+01 3.71423E+01 0.00000E+00
 -1      3033 4.94275E+01 3.83977E+01 0.00000E+00
 -1      3034 5.09275E+01 3.83977E+01 0.00000E+00
 -1      3035 4.92051E+01 3.71423E+01 0.00000E+00
 -1      3036 5.24275E+01 3.83977E+01 0.00000E+00
 -1      3037 5.39275E+01 3.83977E+01 0.00000E+00
 -1      3038 5.22051E+01 3.71423E+01 0.00000E+00
 -1      3039 5.54275E+01 3.83977E+01 0.00000E+00
 -1      3040 5.69275E+01 3.83977E+01 0.00000E+00
 -1      3041 5.52051E+01 3.71423E+01 0.00000E+00
 -1      3042 5.84275E+01 3.83977E+01 0.00000E+00
 -1      3043 5.99275E+01 3.83977E+01 0.00000E+00
 -1      3044 5.82051E+01 3.71423E+01 0.00000E+00
 -1      3045 6.14275E+01 3.83977E+01 0.00000E+00
 -1      3046 6.29275E+01 3.83977E+01 0.00000E+00
 -1      3047 6.12051E+01 3.71423E+01 0.00000E+00
 -1      3048 6.44275E+01 3.83977E+01 0.00000E+00
 -1      3049 6.59275E+01 3.83977E+01 0.00000E+00
 -1      3050 6.42051E+01 3.71423E+01 0.00000E+00
 -1      3051 6.74275E+01 3.83977E+01 0.00000E+00
 -1      3052 6.89275E+01 3.83977E+01 0.00000E+00
 -1      3053 6.72051E+01 3.71423E+01 0.00000E+00
 -1      3054 7.04275E+01 3.83977E+01 0.00000E+00
 -1      3055 7.19275E+01 3.83977E+01 0.00000E+00
 -1      3056 7.02051E+01 3.71423E+01 0.00000E+00
 -1      3057 7.34275E+01 3.83977E+01 0.00000E+00
 -1      3058 7.49275E+01 3.83977E+01 0.00000E+00
 -1      3059 7.32051E+01 3.71423E+01 0.00000E+00
 -1      3060 7.64275E+01 3.83977E+01 0.00000E+00
 -1      3061 7.79275E+01 3.83977E+01 0.00000E+00
 -1      3062 7.62051E+01 3.71423E+01 0.00000E+00
 -1      3063 7.94275E+01 3.83977E+01 0.00000E+00
 -1      3064 8.09275E+01 3.83977E+01 0.00000E+00
 -1      3065 7.92051E+01 3.71423E+01 0.00000E+00
 -1      3066 8.24275E+01 3.83977E+01 0.00000E+00
 -1      3067 8.39275E+01 3.83977E+01 0.00000E+00
 -1      3068 8.22051E+01 3.71423E+01 0.00000E+00
 -1      3069 8.54275E+01 3.83977E+01 0.00000E+00
 -1      3070 8.69275E+01 3.83977E+01 0.00000E+00
 -1      3071 8.52051E+01 3.71423E+01 0.00000E+00
 -1      3072 8.84275E+01 3.83977E+01 0.00000E+00
 -1      3073 8.99275E+01 3.83977E+01 0.00000E+00
 -1      3074 8.82051E+01 3.71423E+01 0.00000E+00
 -1      3075 9.14275E+01 3.83977E+01 0.00000E+00
 -1      3076 9.29275E+01 3.83977E+01 0.00000E+00
 -1      3077 9.12051E+01 3.71423E+01 0.00000E+00
 -1      3078 9.44275E+01 3.83977E+01 0.00000E+00
 -1      3079 9.59275E+01 3.83977E+01 0.00000E+00
 -1      3080 9.42051E+01 3.71423E+01 0.00000E+00
 -1      3081 9.74275E+01 3.83977E+01 0.00000E+00
 -1      3082 9.89275E+01 3.83977E+01 0.00000E+00
 -1      3083 9.72051E+01 3.71423E+01 0.00000E+00
 -1      3084 1.00428E+02 3.83977E+01 0.00000E+00
 -1      3085 1.01928E+02 3.83977E+01 0.00000E+00
 -1      3086 1.00205E+02 3.71423E+01 0.00000E+00
 -1      3087 1.03428E+02 3.83977E+01 0.00000E+00
 -1      3088 1.04928E+02 3.83977E+01 0.00000E+00
 -1      3089 1.03205E+02 3.71423E+01 0.00000E+00
 -1      3090 1.06428E+02 3.83977E+01 0.00000E+00
 -1      3091 1.07928E+02 3.83977E+01 0.00000E+00
 -1      3092 1.06205E+02 3.71423E+01 0.00000E+00
 -1      3093 1.09428E+02 3.83977E+01 0.00000E+00
 -1      3094 1.10928E+02 3.83977E+01 0.00000E+00
 -1      3095 1.09205E+02 3.71423E+01 0.00000E+00
 -1      3096 1.12428E+02 3.83977E+01 0.00000E+00
 -1      3097 1.13928E+02 3.83977E+01 0.00000E+00
 -1      3098 1.12205E+02 3.71423E+01 0.00000E+00
 -1      3099 1.15428E+02 3.83977E+01 0.00000E+00
 -1      3100 1.16928E+02 3.83977E+01 0.00000E+00
 -1      3101 1.15205E+02 3.71423E+01 0.00000E+00
 -1      3102 1.18428E+02 3.83977E+01 0.00000E+00
 -1      3103 1.19928E+02 3.83977E+01 0.00000E+00
 -1      3104 1.18205E+02 3.71423E+01 0.00000E+00
 -1      3105 1.21428E+02 3.83977E+01 0.00000E+00
 -1      3106 1.22928E+02 3.83977E+01 0.00000E+00
 -1      3107 1.21205E+02 3.71423E+01 0.00000E+00
 -1      3108 1.24428E+02 3.83977E+01 0.00000E+00
 -1      3109 1.25928E+02 3.83977E+01 0.00000E+00
 -1      3110 1.24205E+02 3.71423E+01 0.00000E+00
 -1      3111 1.27428E+02 3.83977E+01 0.00000E+00
 -1      3112 1.28928E+02 3.83977E+01 0.00000E+00
 -1      3113 1.27205E+02 3.71423E+01 0.00000E+00
 -1      3114 1.30428E+02 3.83977E+01 0.00000E+00
 -1      3115 1.31928E+02 3.83977E+01 0.00000E+00
 -1      3116 1.30205E+02 3.71423E+01 0.00000E+00
 -1      3117 1.33428E+02 3.83977E+01 0.00000E+00
 -1      3118 1.34928E+02 3.83977E+01 0.00000E+00
 -1      3119 1.33205E+02 3.71423E+01 0.00000E+00
 -1      3120 1.35971E+02 3.84812E+01 0.00000E+00
 -1      3121 1.37471E+02 3.84812E+01 0.00000E+00
 -1      3122 1.37836E+02 3.73930E+01 0.00000E+00
 -1      3123 1.35749E+02 3.72259E+01 0.00000E+00
 -1      3124 2.12083E+01 1.03036E+01 0.00000E+00
 -1      3125 2.88996E+01 1.11024E+01 0.00000E+00
 -1      3126 2.73996E+01 1.11024E+01 0.00000E+00
 -1      3127 2.72590E+01 1.33288E+01 0.00000E+00
 -1      3128 2.96496E+01 1.24014E+01 0.00000E+00
 -1      3129 3.75949E+01 1.06388E+01 0.00000E+00
 -1      3130 3.60949E+01 1.06388E+01 0.00000E+00
 -1      3131 4.05949E+01 1.06388E+01 0.00000E+00
 -1      3132 3.90949E+01 1.06388E+01 0.00000E+00
 -1      3133 3.83449E+01 1.19377E+01 0.00000E+00
 -1      3134 4.35949E+01 1.06388E+01 0.00000E+00
 -1      3135 4.20949E+01 1.06388E+01 0.00000E+00
 -1      3136 4.13449E+01 1.19377E+01 0.00000E+00
 -1      3137 4.65949E+01 1.06388E+01 0.00000E+00
 -1      3138 4.50949E+01 1.06388E+01 0.00000E+00
 -1      3139 4.43449E+01 1.19377E+01 0.00000E+00
 -1      3140 4.95949E+01 1.06388E+01 0.00000E+00
 -1      3141 4.80949E+01 1.06388E+01 0.00000E+00
 -1      3142 4.73449E+01 1.19377E+01 0.00000E+00
 -1      3143 5.25949E+01 1.06388E+01 0.00000E+00
 -1      3144 5.10949E+01 1.06388E+01 0.00000E+00
 -1      3145 5.03449E+01 1.19377E+01 0.00000E+00
 -1      3146 5.55949E+01 1.06388E+01 0.00000E+00
 -1      3147 5.40949E+01 1.06388E+01 0.00000E+00
 -1      3148 5.33449E+01 1.19377E+01 0.00000E+00
 -1      3149 5.85949E+01 1.06388E+01 0.00000E+00
 -1      3150 5.70949E+01 1.06388E+01 0.00000E+00
 -1      3151 5.63449E+01 1.19377E+01 0.00000E+00
 -1      3152 6.15949E+01 1.06388E+01 0.00000E+00
 -1      3153 6.00949E+01 1.06388E+01 0.00000E+00
 -1      3154 5.93449E+01 1.19377E+01 0.00000E+00
 -1      3155 6.45949E+01 1.06388E+01 0.00000E+00
 -1      3156 6.30949E+01 1.06388E+01 0.00000E+00
 -1      3157 6.23449E+01 1.19377E+01 0.00000E+00
 -1      3158 6.75949E+01 1.06388E+01 0.00000E+00
 -1      3159 6.60949E+01 1.06388E+01 0.00000E+00
 -1      3160 6.53449E+01 1.19377E+01 0.00000E+00
 -1      3161 7.05949E+01 1.06388E+01 0.00000E+00
 -1      3162 6.90949E+01 1.06388E+01 0.00000E+00
 -1      3163 6.83449E+01 1.19377E+01 0.00000E+00
 -1      3164 7.35949E+01 1.06388E+01 0.00000E+00
 -1      3165 7.20949E+01 1.06388E+01 0.00000E+00
 -1      3166 7.13449E+01 1.19377E+01 0.00000E+00
 -1      3167 7.65949E+01 1.06388E+01 0.00000E+00
 -1      3168 7.50949E+01 1.06388E+01 0.00000E+00
 -1      3169 7.43449E+01 1.19377E+01 0.00000E+00
 -1      3170 7.95949E+01 1.06388E+01 0.00000E+00
 -1      3171 7.80949E+01 1.06388E+01 0.00000E+00
 -1      3172 7.73449E+01 1.19377E+01 0.00000E+00
 -1      3173 8.25949E+01 1.06388E+01 0.00000E+00
 -1      3174 8.10949E+01 1.06388E+01 0.00000E+00
 -1      3175 8.03449E+01 1.19377E+01 0.00000E+00
 -1      3176 8.55949E+01 1.06388E+01 0.00000E+00
 -1      3177 8.40949E+01 1.06388E+01 0.00000E+00
 -1      3178 8.33449E+01 1.19377E+01 0.00000E+00
 -1      3179 8.85949E+01 1.06388E+01 0.00000E+00
 -1      3180 8.70949E+01 1.06388E+01 0.00000E+00
 -1      3181 8.63449E+01 1.19377E+01 0.00000E+00
 -1      3182 9.15949E+01 1.06388E+01 0.00000E+00
 -1      3183 9.00949E+01 1.06388E+01 0.00000E+00
 -1      3184 8.93449E+01 1.19377E+01 0.00000E+00
 -1      3185 9.45949E+01 1.06388E+01 0.00000E+00
 -1      3186 9.30949E+01 1.06388E+01 0.00000E+00
 -1      3187 9.23449E+01 1.19377E+01 0.00000E+00
 -1      3188 9.75949E+01 1.06388E+01 0.00000E+00
 -1      3189 9.60949E+01 1.06388E+01 0.00000E+00
 -1      3190 9.53449E+01 1.19377E+01 0.00000E+00
 -1      3191 1.00595E+02 1.06388E+01 0.00000E+00
 -1      3192 9.90949E+01 1.06388E+01 0.00000E+00
 -1      3193 9.83449E+01 1.19377E+01 0.00000E+00
 -1      3194 1.03595E+02 1.06388E+01 0.00000E+00
 -1      3195 1.02095E+02 1.06388E+01 0.00000E+00
 -1      3196 1.01345E+02 1.19377E+01 0.00000E+00
 -1      3197 1.06595E+02 1.06388E+01 0.00000E+00
 -1      3198 1.05095E+02 1.06388E+01 0.00000E+00
 -1      3199 1.04345E+02 1.19377E+01 0.00000E+00
 -1      3200 1.09595E+02 1.06388E+01 0.00000E+00
 -1      3201 1.08095E+02 1.06388E+01 0.00000E+00
 -1      3202 1.07345E+02 1.19377E+01 0.00000E+00
 -1      3203 1.12595E+02 1.06388E+01 0.00000E+00
 -1      3204 1.11095E+02 1.06388E+01 0.00000E+00
 -1      3205 1.10345E+02 1.19377E+01 0.00000E+00
 -1      3206 1.15595E+02 1.06388E+01 0.00000E+00
 -1      3207 1.14095E+02 1.06388E+01 0.00000E+00
 -1      3208 1.13345E+02 1.19377E+01 0.00000E+00
 -1      3209 1.18595E+02 1.06388E+01 0.00000E+00
 -1      3210 1.17095E+02 1.06388E+01 0.00000E+00
 -1      3211 1.16345E+02 1.19377E+01 0.00000E+00
 -1      3212 1.21595E+02 1.06388E+01 0.00000E+00
 -1      3213 1.20095E+02 1.06388E+01 0.00000E+00
 -1      3214 1.19345E+02 1.19377E+01 0.00000E+00
 -1      3215 1.24595E+02 1.06388E+01 0.00000E+00
 -1      3216 1.23095E+02 1.06388E+01 0.00000E+00
 -1      3217 1.22345E+02 1.19377E+01 0.00000E+00
 -1      3218 1.27595E+02 1.06388E+01 0.00000E+00
 -1      3219 1.26095E+02 1.06388E+01 0.00000E+00
 -1      3220 1.25345E+02 1.19377E+01 0.00000E+00
 -1      3221 1.30595E+02 1.06388E+01 0.00000E+00
 -1      3222 1.29095E+02 1.06388E+01 0.00000E+00
 -1      3223 1.28345E+02 1.19377E+01 0.00000E+00
 -1      3224 1.33595E+02 1.06388E+01 0.00000E+00
 -1      3225 1.32095E+02 1.06388E+01 0.00000E+00
 -1      3226 1.31345E+02 1.19377E+01 0.00000E+00
 -1      3227 1.36595E+02 1.06388E+01 0.00000E+00
 -1      3228 1.35095E+02 1.06388E+01 0.00000E+00
 -1      3229 1.34345E+02 1.19377E+01 0.00000E+00
 -1      3230 1.38772E+02 1.09703E+01 0.00000E+00
 -1      3231 1.37557E+02 1.07240E+01 0.00000E+00
 -1      3232 1.36807E+02 1.20230E+01 0.00000E+00
 -1      3233 1.38730E+02 1.21935E+01 0.00000E+00
 -1      3234 2.75736E+01 1.59406E+01 0.00000E+00
 -1      3235 2.82488E+01 1.70871E+01 0.00000E+00
 -1      3236 3.45949E+01 1.06388E+01 0.00000E+00
 -1      3237 3.30949E+01 1.06388E+01 0.00000E+00
 -1      3238 3.23449E+01 1.19377E+01 0.00000E+00
 -1      3239 3.53449E+01 1.19377E+01 0.00000E+00
 -1      3240 1.38309E+02 3.16125E+01 0.00000E+00
 -1      3241 1.38309E+02 3.01375E+01 0.00000E+00
 -1      3242 1.38309E+02 2.57625E+01 0.00000E+00
 -1      3243 1.38309E+02 2.42875E+01 0.00000E+00
 -1      3244 1.38309E+02 3.45625E+01 0.00000E+00
 -1      3245 1.38309E+02 3.30875E+01 0.00000E+00
 -1      3246 1.37010E+02 3.23500E+01 0.00000E+00
 -1      3247 1.38309E+02 2.86750E+01 0.00000E+00
 -1      3248 1.38309E+02 2.72250E+01 0.00000E+00
 -1      3249 1.37010E+02 2.64875E+01 0.00000E+00
 -1      3250 1.37010E+02 2.94125E+01 0.00000E+00
 -1      3251 1.54841E+01 3.83273E+01 0.00000E+00
 -1      3252 1.69841E+01 3.83273E+01 0.00000E+00
 -1      3253 1.63413E+01 8.35153E+00 0.00000E+00
 -1      3254 1.34038E+01 8.99151E+00 0.00000E+00
 -1      3255 1.19038E+01 8.99151E+00 0.00000E+00
 -1      3256 1.42191E+01 3.79012E+01 0.00000E+00
 -1      3257 8.91030E+00 3.72429E+01 0.00000E+00
 -1      3258 2.87176E+01 2.78654E+01 0.00000E+00
 -1      3259 2.81843E+01 2.89924E+01 0.00000E+00
 -1      3260 2.84361E+01 1.89749E+01 0.00000E+00
 -1      3261 2.83359E+01 2.03543E+01 0.00000E+00
 -1      3262 2.77681E+01 3.02529E+01 0.00000E+00
 -1      3263 2.71725E+01 3.14905E+01 0.00000E+00
 -1      3264 2.64205E+01 3.28552E+01 0.00000E+00
 -1      3265 2.56244E+01 3.41418E+01 0.00000E+00
 -1      3266 1.48672E+01 8.97937E+00 0.00000E+00
 -1      3267 2.05917E+01 3.61582E+01 0.00000E+00
 -1      3268 1.96270E+01 3.58971E+01 0.00000E+00
 -1      3269 1.91234E+01 3.69217E+01 0.00000E+00
 -1      3270 2.17733E+01 3.70797E+01 0.00000E+00
 -1      3271 2.88857E+01 3.00921E+01 0.00000E+00
 -1      3272 2.89289E+01 2.11023E+01 0.00000E+00
 -1      3273 1.38309E+02 1.69188E+01 0.00000E+00
 -1      3274 1.38309E+02 1.54563E+01 0.00000E+00
 -1      3275 2.88139E+01 2.40010E+01 0.00000E+00
 -1      3276 2.95333E+01 2.48285E+01 0.00000E+00
 -1      3277 2.93358E+01 2.33055E+01 0.00000E+00
 -1      3278 2.74652E+01 1.48718E+01 0.00000E+00
 -1      3279 1.38309E+02 1.98687E+01 0.00000E+00
 -1      3280 1.38309E+02 1.83937E+01 0.00000E+00
 -1      3281 1.37010E+02 1.76625E+01 0.00000E+00
 -1      3282 1.00516E+01 3.74229E+01 0.00000E+00
 -1      3283 1.38309E+02 2.28156E+01 0.00000E+00
 -1      3284 1.38309E+02 2.13406E+01 0.00000E+00
 -1      3285 1.37010E+02 2.06094E+01 0.00000E+00
 -1      3286 1.37010E+02 2.35531E+01 0.00000E+00
 -1      3287 1.37890E+02 3.65219E+01 0.00000E+00
 -1      3288 1.38255E+02 3.54336E+01 0.00000E+00
 -1      3289 1.36956E+02 3.46961E+01 0.00000E+00
 -1      3290 1.36847E+02 3.64383E+01 0.00000E+00
 -1      3291 2.96719E+01 1.67029E+01 0.00000E+00
 -1      3292 2.90540E+01 1.78389E+01 0.00000E+00
 -1      3293 2.98592E+01 1.85907E+01 0.00000E+00
 -1      3294 1.37996E+01 3.88847E+01 0.00000E+00
 -1      3295 2.54942E+01 3.56720E+01 0.00000E+00
 -1      3296 2.91566E+01 2.71778E+01 0.00000E+00
 -1      3297 2.97408E+01 2.81440E+01 0.00000E+00
 -1      3298 2.95956E+01 2.64903E+01 0.00000E+00
 -1      3299 2.77175E+01 3.27173E+01 0.00000E+00
 -1      3300 2.68352E+01 3.56122E+01 0.00000E+00
 -1      3301 1.22996E+01 3.88847E+01 0.00000E+00
 -1      3302 1.11583E+01 3.87046E+01 0.00000E+00
 -1      3303 4.20949E+01 1.32367E+01 0.00000E+00
 -1      3304 4.05949E+01 1.32367E+01 0.00000E+00
 -1      3305 3.02263E+01 2.98357E+01 0.00000E+00
 -1      3306 2.98102E+01 3.10963E+01 0.00000E+00
 -1      3307 2.23650E+01 1.05840E+01 0.00000E+00
 -1      3308 2.83352E+01 3.56122E+01 0.00000E+00
 -1      3309 3.04551E+01 3.58433E+01 0.00000E+00
 -1      3310 3.19551E+01 3.58433E+01 0.00000E+00
 -1      3311 3.34551E+01 3.58433E+01 0.00000E+00
 -1      3312 3.49551E+01 3.58433E+01 0.00000E+00
 -1      3313 3.27051E+01 3.45443E+01 0.00000E+00
 -1      3314 3.64551E+01 3.58433E+01 0.00000E+00
 -1      3315 3.79551E+01 3.58433E+01 0.00000E+00
 -1      3316 3.57051E+01 3.45443E+01 0.00000E+00
 -1      3317 3.94551E+01 3.58433E+01 0.00000E+00
 -1      3318 4.09551E+01 3.58433E+01 0.00000E+00
 -1      3319 3.87051E+01 3.45443E+01 0.00000E+00
 -1      3320 4.24551E+01 3.58433E+01 0.00000E+00
 -1      3321 4.39551E+01 3.58433E+01 0.00000E+00
 -1      3322 4.17051E+01 3.45443E+01 0.00000E+00
 -1      3323 4.54551E+01 3.58433E+01 0.00000E+00
 -1      3324 4.69551E+01 3.58433E+01 0.00000E+00
 -1      3325 4.47051E+01 3.45443E+01 0.00000E+00
 -1      3326 4.84551E+01 3.58433E+01 0.00000E+00
 -1      3327 4.99551E+01 3.58433E+01 0.00000E+00
 -1      3328 4.77051E+01 3.45443E+01 0.00000E+00
 -1      3329 5.14551E+01 3.58433E+01 0.00000E+00
 -1      3330 5.29551E+01 3.58433E+01 0.00000E+00
 -1      3331 5.07051E+01 3.45443E+01 0.00000E+00
 -1      3332 5.44551E+01 3.58433E+01 0.00000E+00
 -1      3333 5.59551E+01 3.58433E+01 0.00000E+00
 -1      3334 5.37051E+01 3.45443E+01 0.00000E+00
 -1      3335 5.74551E+01 3.58433E+01 0.00000E+00
 -1      3336 5.89551E+01 3.58433E+01 0.00000E+00
 -1      3337 5.67051E+01 3.45443E+01 0.00000E+00
 -1      3338 6.04551E+01 3.58433E+01 0.00000E+00
 -1      3339 6.19551E+01 3.58433E+01 0.00000E+00
 -1      3340 5.97051E+01 3.45443E+01 0.00000E+00
 -1      3341 6.34551E+01 3.58433E+01 0.00000E+00
 -1      3342 6.49551E+01 3.58433E+01 0.00000E+00
 -1      3343 6.27051E+01 3.45443E+01 0.00000E+00
 -1      3344 6.64551E+01 3.58433E+01 0.00000E+00
 -1      3345 6.79551E+01 3.58433E+01 0.00000E+00
 -1      3346 6.57051E+01 3.45443E+01 0.00000E+00
 -1      3347 6.94551E+01 3.58433E+01 0.00000E+00
 -1      3348 7.09551E+01 3.58433E+01 0.00000E+00
 -1      3349 6.87051E+01 3.45443E+01 0.00000E+00
 -1      3350 7.24551E+01 3.58433E+01 0.00000E+00
 -1      3351 7.39551E+01 3.58433E+01 0.00000E+00
 -1      3352 7.17051E+01 3.45443E+01 0.00000E+00
 -1      3353 7.54551E+01 3.58433E+01 0.00000E+00
 -1      3354 7.69551E+01 3.58433E+01 0.00000E+00
 -1      3355 7.47051E+01 3.45443E+01 0.00000E+00
 -1      3356 7.84551E+01 3.58433E+01 0.00000E+00
 -1      3357 7.99551E+01 3.58433E+01 0.00000E+00
 -1      3358 7.77051E+01 3.45443E+01 0.00000E+00
 -1      3359 8.14551E+01 3.58433E+01 0.00000E+00
 -1      3360 8.29551E+01 3.58433E+01 0.00000E+00
 -1      3361 8.07051E+01 3.45443E+01 0.00000E+00
 -1      3362 8.44551E+01 3.58433E+01 0.00000E+00
 -1      3363 8.59551E+01 3.58433E+01 0.00000E+00
 -1      3364 8.37051E+01 3.45443E+01 0.00000E+00
 -1      3365 8.74551E+01 3.58433E+01 0.00000E+00
 -1      3366 8.89551E+01 3.58433E+01 0.00000E+00
 -1      3367 8.67051E+01 3.45443E+01 0.00000E+00
 -1      3368 9.04551E+01 3.58433E+01 0.00000E+00
 -1      3369 9.19551E+01 3.58433E+01 0.00000E+00
 -1      3370 8.97051E+01 3.45443E+01 0.00000E+00
 -1      3371 9.34551E+01 3.58433E+01 0.00000E+00
 -1      3372 9.49551E+01 3.58433E+01 0.00000E+00
 -1      3373 9.27051E+01 3.45443E+01 0.00000E+00
 -1      3374 9.64551E+01 3.58433E+01 0.00000E+00
 -1      3375 9.79551E+01 3.58433E+01 0.00000E+00
 -1      3376 9.57051E+01 3.45443E+01 0.00000E+00
 -1      3377 9.94551E+01 3.58433E+01 0.00000E+00
 -1      3378 1.00955E+02 3.58433E+01 0.00000E+00
 -1      3379 9.87051E+01 3.45443E+01 0.00000E+00
 -1      3380 1.02455E+02 3.58433E+01 0.00000E+00
 -1      3381 1.03955E+02 3.58433E+01 0.00000E+00
 -1      3382 1.01705E+02 3.45443E+01 0.00000E+00
 -1      3383 1.05455E+02 3.58433E+01 0.00000E+00
 -1      3384 1.06955E+02 3.58433E+01 0.00000E+00
 -1      3385 1.04705E+02 3.45443E+01 0.00000E+00
 -1      3386 1.08455E+02 3.58433E+01 0.00000E+00
 -1      3387 1.09955E+02 3.58433E+01 0.00000E+00
 -1      3388 1.07705E+02 3.45443E+01 0.00000E+00
 -1      3389 1.11455E+02 3.58433E+01 0.00000E+00
 -1      3390 1.12955E+02 3.58433E+01 0.00000E+00
 -1      3391 1.10705E+02 3.45443E+01 0.00000E+00
 -1      3392 1.14455E+02 3.58433E+01 0.00000E+00
 -1      3393 1.15955E+02 3.58433E+01 0.00000E+00
 -1      3394 1.13705E+02 3.45443E+01 0.00000E+00
 -1      3395 1.17455E+02 3.58433E+01 0.00000E+00
 -1      3396 1.18955E+02 3.58433E+01 0.00000E+00
 -1      3397 1.16705E+02 3.45443E+01 0.00000E+00
 -1      3398 1.20455E+02 3.58433E+01 0.00000E+00
 -1      3399 1.21955E+02 3.58433E+01 0.00000E+00
 -1      3400 1.19705E+02 3.45443E+01 0.00000E+00
 -1      3401 1.23455E+02 3.58433E+01 0.00000E+00
 -1      3402 1.24955E+02 3.58433E+01 0.00000E+00
 -1      3403 1.22705E+02 3.45443E+01 0.00000E+00
 -1      3404 1.26455E+02 3.58433E+01 0.00000E+00
 -1      3405 1.27955E+02 3.58433E+01 0.00000E+00
 -1      3406 1.25705E+02 3.45443E+01 0.00000E+00
 -1      3407 1.29455E+02 3.58433E+01 0.00000E+00
 -1      3408 1.30955E+02 3.58433E+01 0.00000E+00
 -1      3409 1.28705E+02 3.45443E+01 0.00000E+00
 -1      3410 1.32455E+02 3.58433E+01 0.00000E+00
 -1      3411 1.33955E+02 3.58433E+01 0.00000E+00
 -1      3412 1.31705E+02 3.45443E+01 0.00000E+00
 -1      3413 4.50949E+01 1.32367E+01 0.00000E+00
 -1      3414 4.35949E+01 1.32367E+01 0.00000E+00
 -1      3415 4.28449E+01 1.45358E+01 0.00000E+00
 -1      3416 3.90949E+01 1.32367E+01 0.00000E+00
 -1      3417 3.75949E+01 1.32367E+01 0.00000E+00
 -1      3418 3.98449E+01 1.45358E+01 0.00000E+00
 -1      3419 4.80949E+01 1.32367E+01 0.00000E+00
 -1      3420 4.65949E+01 1.32367E+01 0.00000E+00
 -1      3421 4.58449E+01 1.45358E+01 0.00000E+00
 -1      3422 5.10949E+01 1.32367E+01 0.00000E+00
 -1      3423 4.95949E+01 1.32367E+01 0.00000E+00
 -1      3424 4.88449E+01 1.45358E+01 0.00000E+00
 -1      3425 5.40949E+01 1.32367E+01 0.00000E+00
 -1      3426 5.25949E+01 1.32367E+01 0.00000E+00
 -1      3427 5.18449E+01 1.45358E+01 0.00000E+00
 -1      3428 5.70949E+01 1.32367E+01 0.00000E+00
 -1      3429 5.55949E+01 1.32367E+01 0.00000E+00
 -1      3430 5.48449E+01 1.45358E+01 0.00000E+00
 -1      3431 6.00949E+01 1.32367E+01 0.00000E+00
 -1      3432 5.85949E+01 1.32367E+01 0.00000E+00
 -1      3433 5.78449E+01 1.45358E+01 0.00000E+00
 -1      3434 6.30949E+01 1.32367E+01 0.00000E+00
 -1      3435 6.15949E+01 1.32367E+01 0.00000E+00
 -1      3436 6.08449E+01 1.45358E+01 0.00000E+00
 -1      3437 6.60949E+01 1.32367E+01 0.00000E+00
 -1      3438 6.45949E+01 1.32367E+01 0.00000E+00
 -1      3439 6.38449E+01 1.45358E+01 0.00000E+00
 -1      3440 6.90949E+01 1.32367E+01 0.00000E+00
 -1      3441 6.75949E+01 1.32367E+01 0.00000E+00
 -1      3442 6.68449E+01 1.45358E+01 0.00000E+00
 -1      3443 7.20949E+01 1.32367E+01 0.00000E+00
 -1      3444 7.05949E+01 1.32367E+01 0.00000E+00
 -1      3445 6.98449E+01 1.45358E+01 0.00000E+00
 -1      3446 7.50949E+01 1.32367E+01 0.00000E+00
 -1      3447 7.35949E+01 1.32367E+01 0.00000E+00
 -1      3448 7.28449E+01 1.45358E+01 0.00000E+00
 -1      3449 7.80949E+01 1.32367E+01 0.00000E+00
 -1      3450 7.65949E+01 1.32367E+01 0.00000E+00
 -1      3451 7.58449E+01 1.45358E+01 0.00000E+00
 -1      3452 8.10949E+01 1.32367E+01 0.00000E+00
 -1      3453 7.95949E+01 1.32367E+01 0.00000E+00
 -1      3454 7.88449E+01 1.45358E+01 0.00000E+00
 -1      3455 8.40949E+01 1.32367E+01 0.00000E+00
 -1      3456 8.25949E+01 1.32367E+01 0.00000E+00
 -1      3457 8.18449E+01 1.45358E+01 0.00000E+00
 -1      3458 8.70949E+01 1.32367E+01 0.00000E+00
 -1      3459 8.55949E+01 1.32367E+01 0.00000E+00
 -1      3460 8.48449E+01 1.45358E+01 0.00000E+00
 -1      3461 9.00949E+01 1.32367E+01 0.00000E+00
 -1      3462 8.85949E+01 1.32367E+01 0.00000E+00
 -1      3463 8.78449E+01 1.45358E+01 0.00000E+00
 -1      3464 9.30949E+01 1.32367E+01 0.00000E+00
 -1      3465 9.15949E+01 1.32367E+01 0.00000E+00
 -1      3466 9.08449E+01 1.45358E+01 0.00000E+00
 -1      3467 9.60949E+01 1.32367E+01 0.00000E+00
 -1      3468 9.45949E+01 1.32367E+01 0.00000E+00
 -1      3469 9.38449E+01 1.45358E+01 0.00000E+00
 -1      3470 9.90949E+01 1.32367E+01 0.00000E+00
 -1      3471 9.75949E+01 1.32367E+01 0.00000E+00
 -1      3472 9.68449E+01 1.45358E+01 0.00000E+00
 -1      3473 1.02095E+02 1.32367E+01 0.00000E+00
 -1      3474 1.00595E+02 1.32367E+01 0.00000E+00
 -1      3475 9.98449E+01 1.45358E+01 0.00000E+00
 -1      3476 1.05095E+02 1.32367E+01 0.00000E+00
 -1      3477 1.03595E+02 1.32367E+01 0.00000E+00
 -1      3478 1.02845E+02 1.45358E+01 0.00000E+00
 -1      3479 1.08095E+02 1.32367E+01 0.00000E+00
 -1      3480 1.06595E+02 1.32367E+01 0.00000E+00
 -1      3481 1.05845E+02 1.45358E+01 0.00000E+00
 -1      3482 1.11095E+02 1.32367E+01 0.00000E+00
 -1      3483 1.09595E+02 1.32367E+01 0.00000E+00
 -1      3484 1.08845E+02 1.45358E+01 0.00000E+00
 -1      3485 1.14095E+02 1.32367E+01 0.00000E+00
 -1      3486 1.12595E+02 1.32367E+01 0.00000E+00
 -1      3487 1.11845E+02 1.45358E+01 0.00000E+00
 -1      3488 1.17095E+02 1.32367E+01 0.00000E+00
 -1      3489 1.15595E+02 1.32367E+01 0.00000E+00
 -1      3490 1.14845E+02 1.45358E+01 0.00000E+00
 -1      3491 1.20095E+02 1.32367E+01 0.00000E+00
 -1      3492 1.18595E+02 1.32367E+01 0.00000E+00
 -1      3493 1.17845E+02 1.45358E+01 0.00000E+00
 -1      3494 1.23095E+02 1.32367E+01 0.00000E+00
 -1      3495 1.21595E+02 1.32367E+01 0.00000E+00
 -1      3496 1.20845E+02 1.45358E+01 0.00000E+00
 -1      3497 1.26095E+02 1.32367E+01 0.00000E+00
 -1      3498 1.24595E+02 1.32367E+01 0.00000E+00
 -1      3499 1.23845E+02 1.45358E+01 0.00000E+00
 -1      3500 1.29095E+02 1.32367E+01 0.00000E+00
 -1      3501 1.27595E+02 1.32367E+01 0.00000E+00
 -1      3502 1.26845E+02 1.45358E+01 0.00000E+00
 -1      3503 1.32095E+02 1.32367E+01 0.00000E+00
 -1      3504 1.30595E+02 1.32367E+01 0.00000E+00
 -1      3505 1.29845E+02 1.45358E+01 0.00000E+00
 -1      3506 1.35095E+02 1.32367E+01 0.00000E+00
 -1      3507 1.33595E+02 1.32367E+01 0.00000E+00
 -1      3508 1.32845E+02 1.45358E+01 0.00000E+00
 -1      3509 1.38688E+02 1.34166E+01 0.00000E+00
 -1      3510 1.35711E+02 3.30875E+01 0.00000E+00
 -1      3511 1.35711E+02 3.16125E+01 0.00000E+00
 -1      3512 1.05677E+01 3.78133E+01 0.00000E+00
 -1      3513 2.99607E+01 2.05542E+01 0.00000E+00
 -1      3514 2.96482E+01 2.19298E+01 0.00000E+00
 -1      3515 3.03676E+01 2.27573E+01 0.00000E+00
 -1      3516 1.06724E+01 9.54809E+00 0.00000E+00
 -1      3517 2.37078E+01 1.15800E+01 0.00000E+00
 -1      3518 1.37389E+02 1.41479E+01 0.00000E+00
 -1      3519 2.98373E+01 3.29485E+01 0.00000E+00
 -1      3520 2.90852E+01 3.43132E+01 0.00000E+00
 -1      3521 2.86605E+01 1.44081E+01 0.00000E+00
 -1      3522 3.11780E+01 3.26921E+01 0.00000E+00
 -1      3523 3.06393E+01 2.50991E+01 0.00000E+00
 -1      3524 3.01174E+01 2.57947E+01 0.00000E+00
 -1      3525 3.07016E+01 2.67609E+01 0.00000E+00
 -1      3526 2.04957E+01 3.83351E+01 0.00000E+00
 -1      3527 3.11965E+01 1.82822E+01 0.00000E+00
 -1      3528 3.05786E+01 1.94182E+01 0.00000E+00
 -1      3529 3.12980E+01 2.02457E+01 0.00000E+00
 -1      3530 2.98558E+01 1.39444E+01 0.00000E+00
 -1      3531 3.00620E+01 1.54874E+01 0.00000E+00
 -1      3532 3.10511E+01 1.34807E+01 0.00000E+00
 -1      3533 1.35803E+02 3.63548E+01 0.00000E+00
 -1      3534 1.35053E+02 3.50558E+01 0.00000E+00
 -1      3535 1.34412E+02 3.08875E+01 0.00000E+00
 -1      3536 1.35711E+02 3.01500E+01 0.00000E+00
 -1      3537 1.35711E+02 2.86875E+01 0.00000E+00
 -1      3538 3.60949E+01 1.32367E+01 0.00000E+00
 -1      3539 3.45949E+01 1.32367E+01 0.00000E+00
 -1      3540 3.68449E+01 1.45358E+01 0.00000E+00
 -1      3541 3.08672E+01 1.62392E+01 0.00000E+00
 -1      3542 3.25511E+01 1.34807E+01 0.00000E+00
 -1      3543 1.35711E+02 2.42891E+01 0.00000E+00
 -1      3544 1.35711E+02 2.28172E+01 0.00000E+00
 -1      3545 3.11042E+01 2.84606E+01 0.00000E+00
 -1      3546 3.06653E+01 2.91482E+01 0.00000E+00
 -1      3547 3.15898E+01 3.01523E+01 0.00000E+00
 -1      3548 1.35711E+02 1.84000E+01 0.00000E+00
 -1      3549 1.35711E+02 1.69250E+01 0.00000E+00
 -1      3550 1.35711E+02 2.72195E+01 0.00000E+00
 -1      3551 1.35711E+02 2.57570E+01 0.00000E+00
 -1      3552 1.34412E+02 2.50211E+01 0.00000E+00
 -1      3553 1.34412E+02 2.79570E+01 0.00000E+00
 -1      3554 1.34378E+02 1.60991E+01 0.00000E+00
 -1      3555 1.35677E+02 1.53616E+01 0.00000E+00
 -1      3556 1.36057E+02 1.33220E+01 0.00000E+00
 -1      3557 1.34412E+02 2.20812E+01 0.00000E+00
 -1      3558 1.35711E+02 2.13453E+01 0.00000E+00
 -1      3559 1.35711E+02 1.98734E+01 0.00000E+00
 -1      3560 3.26780E+01 3.26921E+01 0.00000E+00
 -1      3561 3.41780E+01 3.26921E+01 0.00000E+00
 -1      3562 3.26508E+01 3.08399E+01 0.00000E+00
 -1      3563 4.35949E+01 1.58348E+01 0.00000E+00
 -1      3564 4.20949E+01 1.58348E+01 0.00000E+00
 -1      3565 3.56780E+01 3.26921E+01 0.00000E+00
 -1      3566 3.71780E+01 3.26921E+01 0.00000E+00
 -1      3567 3.56508E+01 3.08399E+01 0.00000E+00
 -1      3568 3.86780E+01 3.26921E+01 0.00000E+00
 -1      3569 4.01780E+01 3.26921E+01 0.00000E+00
 -1      3570 3.86508E+01 3.08399E+01 0.00000E+00
 -1      3571 4.16780E+01 3.26921E+01 0.00000E+00
 -1      3572 4.31780E+01 3.26921E+01 0.00000E+00
 -1      3573 4.16508E+01 3.08399E+01 0.00000E+00
 -1      3574 4.46780E+01 3.26921E+01 0.00000E+00
 -1      3575 4.61780E+01 3.26921E+01 0.00000E+00
 -1      3576 4.46508E+01 3.08399E+01 0.00000E+00
 -1      3577 4.76780E+01 3.26921E+01 0.00000E+00
 -1      3578 4.91780E+01 3.26921E+01 0.00000E+00
 -1      3579 4.76508E+01 3.08399E+01 0.00000E+00
 -1      3580 5.06780E+01 3.26921E+01 0.00000E+00
 -1      3581 5.21780E+01 3.26921E+01 0.00000E+00
 -1      3582 5.06508E+01 3.08399E+01 0.00000E+00
 -1      3583 5.36780E+01 3.26921E+01 0.00000E+00
 -1      3584 5.51780E+01 3.26921E+01 0.00000E+00
 -1      3585 5.36508E+01 3.08399E+01 0.00000E+00
 -1      3586 5.66780E+01 3.26921E+01 0.00000E+00
 -1      3587 5.81780E+01 3.26921E+01 0.00000E+00
 -1      3588 5.66508E+01 3.08399E+01 0.00000E+00
 -1      3589 5.96780E+01 3.26921E+01 0.00000E+00
 -1      3590 6.11780E+01 3.26921E+01 0.00000E+00
 -1      3591 5.96508E+01 3.08399E+01 0.00000E+00
 -1      3592 6.26780E+01 3.26921E+01 0.00000E+00
 -1      3593 6.41780E+01 3.26921E+01 0.00000E+00
 -1      3594 6.26508E+01 3.08399E+01 0.00000E+00
 -1      3595 6.56780E+01 3.26921E+01 0.00000E+00
 -1      3596 6.71780E+01 3.26921E+01 0.00000E+00
 -1      3597 6.56508E+01 3.08399E+01 0.00000E+00
 -1      3598 6.86780E+01 3.26921E+01 0.00000E+00
 -1      3599 7.01780E+01 3.26921E+01 0.00000E+00
 -1      3600 6.86508E+01 3.08399E+01 0.00000E+00
 -1      3601 7.16780E+01 3.26921E+01 0.00000E+00
 -1      3602 7.31780E+01 3.26921E+01 0.00000E+00
 -1      3603 7.16508E+01 3.08399E+01 0.00000E+00
 -1      3604 7.46780E+01 3.26921E+01 0.00000E+00
 -1      3605 7.61780E+01 3.26921E+01 0.00000E+00
 -1      3606 7.46508E+01 3.08399E+01 0.00000E+00
 -1      3607 7.76780E+01 3.26921E+01 0.00000E+00
 -1      3608 7.91780E+01 3.26921E+01 0.00000E+00
 -1      3609 7.76508E+01 3.08399E+01 0.00000E+00
 -1      3610 8.06780E+01 3.26921E+01 0.00000E+00
 -1      3611 8.21780E+01 3.26921E+01 0.00000E+00
 -1      3612 8.06508E+01 3.08399E+01 0.00000E+00
 -1      3613 8.36780E+01 3.26921E+01 0.00000E+00
 -1      3614 8.51780E+01 3.26921E+01 0.00000E+00
 -1      3615 8.36508E+01 3.08399E+01 0.00000E+00
 -1      3616 8.66780E+01 3.26921E+01 0.00000E+00
 -1      3617 8.81780E+01 3.26921E+01 0.00000E+00
 -1      3618 8.66508E+01 3.08399E+01 0.00000E+00
 -1      3619 8.96780E+01 3.26921E+01 0.00000E+00
 -1      3620 9.11780E+01 3.26921E+01 0.00000E+00
 -1      3621 8.96508E+01 3.08399E+01 0.00000E+00
 -1      3622 9.26780E+01 3.26921E+01 0.00000E+00
 -1      3623 9.41780E+01 3.26921E+01 0.00000E+00
 -1      3624 9.26508E+01 3.08399E+01 0.00000E+00
 -1      3625 9.56780E+01 3.26921E+01 0.00000E+00
 -1      3626 9.71780E+01 3.26921E+01 0.00000E+00
 -1      3627 9.56508E+01 3.08399E+01 0.00000E+00
 -1      3628 9.86780E+01 3.26921E+01 0.00000E+00
 -1      3629 1.00178E+02 3.26921E+01 0.00000E+00
 -1      3630 9.86508E+01 3.08399E+01 0.00000E+00
 -1      3631 1.01678E+02 3.26921E+01 0.00000E+00
 -1      3632 1.03178E+02 3.26921E+01 0.00000E+00
 -1      3633 1.01651E+02 3.08399E+01 0.00000E+00
 -1      3634 1.04678E+02 3.26921E+01 0.00000E+00
 -1      3635 1.06178E+02 3.26921E+01 0.00000E+00
 -1      3636 1.04651E+02 3.08399E+01 0.00000E+00
 -1      3637 1.07678E+02 3.26921E+01 0.00000E+00
 -1      3638 1.09178E+02 3.26921E+01 0.00000E+00
 -1      3639 1.07651E+02 3.08399E+01 0.00000E+00
 -1      3640 1.10678E+02 3.26921E+01 0.00000E+00
 -1      3641 1.12178E+02 3.26921E+01 0.00000E+00
 -1      3642 1.10651E+02 3.08399E+01 0.00000E+00
 -1      3643 1.13678E+02 3.26921E+01 0.00000E+00
 -1      3644 1.15178E+02 3.26921E+01 0.00000E+00
 -1      3645 1.13651E+02 3.08399E+01 0.00000E+00
 -1      3646 1.16678E+02 3.26921E+01 0.00000E+00
 -1      3647 1.18178E+02 3.26921E+01 0.00000E+00
 -1      3648 1.16651E+02 3.08399E+01 0.00000E+00
 -1      3649 1.19678E+02 3.26921E+01 0.00000E+00
 -1      3650 1.21178E+02 3.26921E+01 0.00000E+00
 -1      3651 1.19651E+02 3.08399E+01 0.00000E+00
 -1      3652 1.22678E+02 3.26921E+01 0.00000E+00
 -1      3653 1.24178E+02 3.26921E+01 0.00000E+00
 -1      3654 1.22651E+02 3.08399E+01 0.00000E+00
 -1      3655 1.25678E+02 3.26921E+01 0.00000E+00
 -1      3656 1.27178E+02 3.26921E+01 0.00000E+00
 -1      3657 1.25651E+02 3.08399E+01 0.00000E+00
 -1      3658 1.28678E+02 3.26921E+01 0.00000E+00
 -1      3659 1.30178E+02 3.26921E+01 0.00000E+00
 -1      3660 1.28651E+02 3.08399E+01 0.00000E+00
 -1      3661 1.31678E+02 3.26921E+01 0.00000E+00
 -1      3662 4.95949E+01 1.58348E+01 0.00000E+00
 -1      3663 4.80949E+01 1.58348E+01 0.00000E+00
 -1      3664 4.05949E+01 1.58348E+01 0.00000E+00
 -1      3665 3.90949E+01 1.58348E+01 0.00000E+00
 -1      3666 4.13449E+01 1.71338E+01 0.00000E+00
 -1      3667 5.25949E+01 1.58348E+01 0.00000E+00
 -1      3668 5.10949E+01 1.58348E+01 0.00000E+00
 -1      3669 5.03449E+01 1.71338E+01 0.00000E+00
 -1      3670 5.55949E+01 1.58348E+01 0.00000E+00
 -1      3671 5.40949E+01 1.58348E+01 0.00000E+00
 -1      3672 5.33449E+01 1.71338E+01 0.00000E+00
 -1      3673 5.85949E+01 1.58348E+01 0.00000E+00
 -1      3674 5.70949E+01 1.58348E+01 0.00000E+00
 -1      3675 5.63449E+01 1.71338E+01 0.00000E+00
 -1      3676 6.15949E+01 1.58348E+01 0.00000E+00
 -1      3677 6.00949E+01 1.58348E+01 0.00000E+00
 -1      3678 5.93449E+01 1.71338E+01 0.00000E+00
 -1      3679 6.45949E+01 1.58348E+01 0.00000E+00
 -1      3680 6.30949E+01 1.58348E+01 0.00000E+00
 -1      3681 6.23449E+01 1.71338E+01 0.00000E+00
 -1      3682 6.75949E+01 1.58348E+01 0.00000E+00
 -1      3683 6.60949E+01 1.58348E+01 0.00000E+00
 -1      3684 6.53449E+01 1.71338E+01 0.00000E+00
 -1      3685 7.05949E+01 1.58348E+01 0.00000E+00
 -1      3686 6.90949E+01 1.58348E+01 0.00000E+00
 -1      3687 6.83449E+01 1.71338E+01 0.00000E+00
 -1      3688 7.35949E+01 1.58348E+01 0.00000E+00
 -1      3689 7.20949E+01 1.58348E+01 0.00000E+00
 -1      3690 7.13449E+01 1.71338E+01 0.00000E+00
 -1      3691 7.65949E+01 1.58348E+01 0.00000E+00
 -1      3692 7.50949E+01 1.58348E+01 0.00000E+00
 -1      3693 7.43449E+01 1.71338E+01 0.00000E+00
 -1      3694 7.95949E+01 1.58348E+01 0.00000E+00
 -1      3695 7.80949E+01 1.58348E+01 0.00000E+00
 -1      3696 7.73449E+01 1.71338E+01 0.00000E+00
 -1      3697 8.25949E+01 1.58348E+01 0.00000E+00
 -1      3698 8.10949E+01 1.58348E+01 0.00000E+00
 -1      3699 8.03449E+01 1.71338E+01 0.00000E+00
 -1      3700 8.55949E+01 1.58348E+01 0.00000E+00
 -1      3701 8.40949E+01 1.58348E+01 0.00000E+00
 -1      3702 8.33449E+01 1.71338E+01 0.00000E+00
 -1      3703 8.85949E+01 1.58348E+01 0.00000E+00
 -1      3704 8.70949E+01 1.58348E+01 0.00000E+00
 -1      3705 8.63449E+01 1.71338E+01 0.00000E+00
 -1      3706 9.15949E+01 1.58348E+01 0.00000E+00
 -1      3707 9.00949E+01 1.58348E+01 0.00000E+00
 -1      3708 8.93449E+01 1.71338E+01 0.00000E+00
 -1      3709 9.45949E+01 1.58348E+01 0.00000E+00
 -1      3710 9.30949E+01 1.58348E+01 0.00000E+00
 -1      3711 9.23449E+01 1.71338E+01 0.00000E+00
 -1      3712 9.75949E+01 1.58348E+01 0.00000E+00
 -1      3713 9.60949E+01 1.58348E+01 0.00000E+00
 -1      3714 9.53449E+01 1.71338E+01 0.00000E+00
 -1      3715 1.00595E+02 1.58348E+01 0.00000E+00
 -1      3716 9.90949E+01 1.58348E+01 0.00000E+00
 -1      3717 9.83449E+01 1.71338E+01 0.00000E+00
 -1      3718 1.03595E+02 1.58348E+01 0.00000E+00
 -1      3719 1.02095E+02 1.58348E+01 0.00000E+00
 -1      3720 1.01345E+02 1.71338E+01 0.00000E+00
 -1      3721 1.06595E+02 1.58348E+01 0.00000E+00
 -1      3722 1.05095E+02 1.58348E+01 0.00000E+00
 -1      3723 1.04345E+02 1.71338E+01 0.00000E+00
 -1      3724 1.09595E+02 1.58348E+01 0.00000E+00
 -1      3725 1.08095E+02 1.58348E+01 0.00000E+00
 -1      3726 1.07345E+02 1.71338E+01 0.00000E+00
 -1      3727 1.12595E+02 1.58348E+01 0.00000E+00
 -1      3728 1.11095E+02 1.58348E+01 0.00000E+00
 -1      3729 1.10345E+02 1.71338E+01 0.00000E+00
 -1      3730 1.15595E+02 1.58348E+01 0.00000E+00
 -1      3731 1.14095E+02 1.58348E+01 0.00000E+00
 -1      3732 1.13345E+02 1.71338E+01 0.00000E+00
 -1      3733 1.18595E+02 1.58348E+01 0.00000E+00
 -1      3734 1.17095E+02 1.58348E+01 0.00000E+00
 -1      3735 1.16345E+02 1.71338E+01 0.00000E+00
 -1      3736 1.21595E+02 1.58348E+01 0.00000E+00
 -1      3737 1.20095E+02 1.58348E+01 0.00000E+00
 -1      3738 1.19345E+02 1.71338E+01 0.00000E+00
 -1      3739 1.24595E+02 1.58348E+01 0.00000E+00
 -1      3740 1.23095E+02 1.58348E+01 0.00000E+00
 -1      3741 1.22345E+02 1.71338E+01 0.00000E+00
 -1      3742 1.27595E+02 1.58348E+01 0.00000E+00
 -1      3743 1.26095E+02 1.58348E+01 0.00000E+00
 -1      3744 1.25345E+02 1.71338E+01 0.00000E+00
 -1      3745 1.30595E+02 1.58348E+01 0.00000E+00
 -1      3746 1.29095E+02 1.58348E+01 0.00000E+00
 -1      3747 1.28345E+02 1.71338E+01 0.00000E+00
 -1      3748 1.33237E+02 1.59669E+01 0.00000E+00
 -1      3749 1.31737E+02 1.59669E+01 0.00000E+00
 -1      3750 1.30987E+02 1.72659E+01 0.00000E+00
 -1      3751 1.33270E+02 1.75303E+01 0.00000E+00
 -1      3752 1.35108E+02 3.41847E+01 0.00000E+00
 -1      3753 1.33809E+02 3.34472E+01 0.00000E+00
 -1      3754 1.32281E+02 3.15950E+01 0.00000E+00
 -1      3755 3.33011E+01 1.47797E+01 0.00000E+00
 -1      3756 3.16052E+01 2.23151E+01 0.00000E+00
 -1      3757 3.12928E+01 2.36907E+01 0.00000E+00
 -1      3758 1.34412E+02 1.91359E+01 0.00000E+00
 -1      3759 4.65949E+01 1.58348E+01 0.00000E+00
 -1      3760 4.50949E+01 1.58348E+01 0.00000E+00
 -1      3761 4.73449E+01 1.71338E+01 0.00000E+00
 -1      3762 3.29110E+01 1.59952E+01 0.00000E+00
 -1      3763 3.25209E+01 1.72108E+01 0.00000E+00
 -1      3764 3.49548E+01 1.57513E+01 0.00000E+00
 -1      3765 3.18769E+01 2.46569E+01 0.00000E+00
 -1      3766 1.33113E+02 2.28172E+01 0.00000E+00
 -1      3767 1.33113E+02 2.13453E+01 0.00000E+00
 -1      3768 3.32403E+01 1.80382E+01 0.00000E+00
 -1      3769 3.30898E+01 3.01523E+01 0.00000E+00
 -1      3770 4.43449E+01 1.71338E+01 0.00000E+00
 -1      3771 1.32281E+02 3.01325E+01 0.00000E+00
 -1      3772 1.33270E+02 1.90037E+01 0.00000E+00
 -1      3773 3.77749E+01 1.57930E+01 0.00000E+00
 -1      3774 3.62749E+01 1.57930E+01 0.00000E+00
 -1      3775 3.58848E+01 1.70085E+01 0.00000E+00
 -1      3776 3.85249E+01 1.70920E+01 0.00000E+00
 -1      3777 3.16261E+01 2.77650E+01 0.00000E+00
 -1      3778 3.25506E+01 2.87692E+01 0.00000E+00
 -1      3779 3.21480E+01 2.70695E+01 0.00000E+00
 -1      3780 3.22231E+01 2.11791E+01 0.00000E+00
 -1      3781 3.31483E+01 2.21126E+01 0.00000E+00
 -1      3782 3.28410E+01 2.00431E+01 0.00000E+00
 -1      3783 1.33113E+02 2.57531E+01 0.00000E+00
 -1      3784 1.33113E+02 2.42852E+01 0.00000E+00
 -1      3785 1.31814E+02 2.35492E+01 0.00000E+00
 -1      3786 3.41654E+01 1.89717E+01 0.00000E+00
 -1      3787 3.34549E+01 2.42527E+01 0.00000E+00
 -1      3788 3.28014E+01 2.56611E+01 0.00000E+00
 -1      3789 3.37259E+01 2.66652E+01 0.00000E+00
 -1      3790 3.79008E+01 2.95409E+01 0.00000E+00
 -1      3791 3.94008E+01 2.95409E+01 0.00000E+00
 -1      3792 4.09008E+01 2.95409E+01 0.00000E+00
 -1      3793 4.24008E+01 2.95409E+01 0.00000E+00
 -1      3794 4.01508E+01 2.82419E+01 0.00000E+00
 -1      3795 4.39008E+01 2.95409E+01 0.00000E+00
 -1      3796 4.54008E+01 2.95409E+01 0.00000E+00
 -1      3797 4.31508E+01 2.82419E+01 0.00000E+00
 -1      3798 4.69008E+01 2.95409E+01 0.00000E+00
 -1      3799 4.84008E+01 2.95409E+01 0.00000E+00
 -1      3800 4.61508E+01 2.82419E+01 0.00000E+00
 -1      3801 4.99008E+01 2.95409E+01 0.00000E+00
 -1      3802 5.14008E+01 2.95409E+01 0.00000E+00
 -1      3803 4.91508E+01 2.82419E+01 0.00000E+00
 -1      3804 5.29008E+01 2.95409E+01 0.00000E+00
 -1      3805 5.44008E+01 2.95409E+01 0.00000E+00
 -1      3806 5.21508E+01 2.82419E+01 0.00000E+00
 -1      3807 5.59008E+01 2.95409E+01 0.00000E+00
 -1      3808 5.74008E+01 2.95409E+01 0.00000E+00
 -1      3809 5.51508E+01 2.82419E+01 0.00000E+00
 -1      3810 5.89008E+01 2.95409E+01 0.00000E+00
 -1      3811 6.04008E+01 2.95409E+01 0.00000E+00
 -1      3812 5.81508E+01 2.82419E+01 0.00000E+00
 -1      3813 6.19008E+01 2.95409E+01 0.00000E+00
 -1      3814 6.34008E+01 2.95409E+01 0.00000E+00
 -1      3815 6.11508E+01 2.82419E+01 0.00000E+00
 -1      3816 6.49008E+01 2.95409E+01 0.00000E+00
 -1      3817 6.64008E+01 2.95409E+01 0.00000E+00
 -1      3818 6.41508E+01 2.82419E+01 0.00000E+00
 -1      3819 6.79008E+01 2.95409E+01 0.00000E+00
 -1      3820 6.94008E+01 2.95409E+01 0.00000E+00
 -1      3821 6.71508E+01 2.82419E+01 0.00000E+00
 -1      3822 7.09008E+01 2.95409E+01 0.00000E+00
 -1      3823 7.24008E+01 2.95409E+01 0.00000E+00
 -1      3824 7.01508E+01 2.82419E+01 0.00000E+00
 -1      3825 7.39008E+01 2.95409E+01 0.00000E+00
 -1      3826 7.54008E+01 2.95409E+01 0.00000E+00
 -1      3827 7.31508E+01 2.82419E+01 0.00000E+00
 -1      3828 7.69008E+01 2.95409E+01 0.00000E+00
 -1      3829 7.84008E+01 2.95409E+01 0.00000E+00
 -1      3830 7.61508E+01 2.82419E+01 0.00000E+00
 -1      3831 7.99008E+01 2.95409E+01 0.00000E+00
 -1      3832 8.14008E+01 2.95409E+01 0.00000E+00
 -1      3833 7.91508E+01 2.82419E+01 0.00000E+00
 -1      3834 8.29008E+01 2.95409E+01 0.00000E+00
 -1      3835 8.44008E+01 2.95409E+01 0.00000E+00
 -1      3836 8.21508E+01 2.82419E+01 0.00000E+00
 -1      3837 8.59008E+01 2.95409E+01 0.00000E+00
 -1      3838 8.74008E+01 2.95409E+01 0.00000E+00
 -1      3839 8.51508E+01 2.82419E+01 0.00000E+00
 -1      3840 8.89008E+01 2.95409E+01 0.00000E+00
 -1      3841 9.04008E+01 2.95409E+01 0.00000E+00
 -1      3842 8.81508E+01 2.82419E+01 0.00000E+00
 -1      3843 9.19008E+01 2.95409E+01 0.00000E+00
 -1      3844 9.34008E+01 2.95409E+01 0.00000E+00
 -1      3845 9.11508E+01 2.82419E+01 0.00000E+00
 -1      3846 9.49008E+01 2.95409E+01 0.00000E+00
 -1      3847 9.64008E+01 2.95409E+01 0.00000E+00
 -1      3848 9.41508E+01 2.82419E+01 0.00000E+00
 -1      3849 9.79008E+01 2.95409E+01 0.00000E+00
 -1      3850 9.94008E+01 2.95409E+01 0.00000E+00
 -1      3851 9.71508E+01 2.82419E+01 0.00000E+00
 -1      3852 1.00901E+02 2.95409E+01 0.00000E+00
 -1      3853 1.02401E+02 2.95409E+01 0.00000E+00
 -1      3854 1.00151E+02 2.82419E+01 0.00000E+00
 -1      3855 1.03901E+02 2.95409E+01 0.00000E+00
 -1      3856 1.05401E+02 2.95409E+01 0.00000E+00
 -1      3857 1.03151E+02 2.82419E+01 0.00000E+00
 -1      3858 1.06901E+02 2.95409E+01 0.00000E+00
 -1      3859 1.08401E+02 2.95409E+01 0.00000E+00
 -1      3860 1.06151E+02 2.82419E+01 0.00000E+00
 -1      3861 1.09901E+02 2.95409E+01 0.00000E+00
 -1      3862 1.11401E+02 2.95409E+01 0.00000E+00
 -1      3863 1.09151E+02 2.82419E+01 0.00000E+00
 -1      3864 1.12901E+02 2.95409E+01 0.00000E+00
 -1      3865 1.14401E+02 2.95409E+01 0.00000E+00
 -1      3866 1.12151E+02 2.82419E+01 0.00000E+00
 -1      3867 1.15901E+02 2.95409E+01 0.00000E+00
 -1      3868 1.17401E+02 2.95409E+01 0.00000E+00
 -1      3869 1.15151E+02 2.82419E+01 0.00000E+00
 -1      3870 1.18901E+02 2.95409E+01 0.00000E+00
 -1      3871 1.20401E+02 2.95409E+01 0.00000E+00
 -1      3872 1.18151E+02 2.82419E+01 0.00000E+00
 -1      3873 1.21901E+02 2.95409E+01 0.00000E+00
 -1      3874 1.23401E+02 2.95409E+01 0.00000E+00
 -1      3875 1.21151E+02 2.82419E+01 0.00000E+00
 -1      3876 1.24901E+02 2.95409E+01 0.00000E+00
 -1      3877 1.26401E+02 2.95409E+01 0.00000E+00
 -1      3878 1.24151E+02 2.82419E+01 0.00000E+00
 -1      3879 1.27901E+02 2.95409E+01 0.00000E+00
 -1      3880 1.29401E+02 2.95409E+01 0.00000E+00
 -1      3881 1.27151E+02 2.82419E+01 0.00000E+00
 -1      3882 4.20949E+01 1.84328E+01 0.00000E+00
 -1      3883 4.05949E+01 1.84328E+01 0.00000E+00
 -1      3884 5.40949E+01 1.84328E+01 0.00000E+00
 -1      3885 5.25949E+01 1.84328E+01 0.00000E+00
 -1      3886 5.70949E+01 1.84328E+01 0.00000E+00
 -1      3887 5.55949E+01 1.84328E+01 0.00000E+00
 -1      3888 5.48449E+01 1.97318E+01 0.00000E+00
 -1      3889 6.00949E+01 1.84328E+01 0.00000E+00
 -1      3890 5.85949E+01 1.84328E+01 0.00000E+00
 -1      3891 5.78449E+01 1.97318E+01 0.00000E+00
 -1      3892 6.30949E+01 1.84328E+01 0.00000E+00
 -1      3893 6.15949E+01 1.84328E+01 0.00000E+00
 -1      3894 6.08449E+01 1.97318E+01 0.00000E+00
 -1      3895 6.60949E+01 1.84328E+01 0.00000E+00
 -1      3896 6.45949E+01 1.84328E+01 0.00000E+00
 -1      3897 6.38449E+01 1.97318E+01 0.00000E+00
 -1      3898 6.90949E+01 1.84328E+01 0.00000E+00
 -1      3899 6.75949E+01 1.84328E+01 0.00000E+00
 -1      3900 6.68449E+01 1.97318E+01 0.00000E+00
 -1      3901 7.20949E+01 1.84328E+01 0.00000E+00
 -1      3902 7.05949E+01 1.84328E+01 0.00000E+00
 -1      3903 6.98449E+01 1.97318E+01 0.00000E+00
 -1      3904 7.50949E+01 1.84328E+01 0.00000E+00
 -1      3905 7.35949E+01 1.84328E+01 0.00000E+00
 -1      3906 7.28449E+01 1.97318E+01 0.00000E+00
 -1      3907 7.80949E+01 1.84328E+01 0.00000E+00
 -1      3908 7.65949E+01 1.84328E+01 0.00000E+00
 -1      3909 7.58449E+01 1.97318E+01 0.00000E+00
 -1      3910 8.10949E+01 1.84328E+01 0.00000E+00
 -1      3911 7.95949E+01 1.84328E+01 0.00000E+00
 -1      3912 7.88449E+01 1.97318E+01 0.00000E+00
 -1      3913 8.40949E+01 1.84328E+01 0.00000E+00
 -1      3914 8.25949E+01 1.84328E+01 0.00000E+00
 -1      3915 8.18449E+01 1.97318E+01 0.00000E+00
 -1      3916 8.70949E+01 1.84328E+01 0.00000E+00
 -1      3917 8.55949E+01 1.84328E+01 0.00000E+00
 -1      3918 8.48449E+01 1.97318E+01 0.00000E+00
 -1      3919 9.00949E+01 1.84328E+01 0.00000E+00
 -1      3920 8.85949E+01 1.84328E+01 0.00000E+00
 -1      3921 8.78449E+01 1.97318E+01 0.00000E+00
 -1      3922 9.30949E+01 1.84328E+01 0.00000E+00
 -1      3923 9.15949E+01 1.84328E+01 0.00000E+00
 -1      3924 9.08449E+01 1.97318E+01 0.00000E+00
 -1      3925 9.60949E+01 1.84328E+01 0.00000E+00
 -1      3926 9.45949E+01 1.84328E+01 0.00000E+00
 -1      3927 9.38449E+01 1.97318E+01 0.00000E+00
 -1      3928 9.90949E+01 1.84328E+01 0.00000E+00
 -1      3929 9.75949E+01 1.84328E+01 0.00000E+00
 -1      3930 9.68449E+01 1.97318E+01 0.00000E+00
 -1      3931 1.02095E+02 1.84328E+01 0.00000E+00
 -1      3932 1.00595E+02 1.84328E+01 0.00000E+00
 -1      3933 9.98449E+01 1.97318E+01 0.00000E+00
 -1      3934 1.05095E+02 1.84328E+01 0.00000E+00
 -1      3935 1.03595E+02 1.84328E+01 0.00000E+00
 -1      3936 1.02845E+02 1.97318E+01 0.00000E+00
 -1      3937 1.08095E+02 1.84328E+01 0.00000E+00
 -1      3938 1.06595E+02 1.84328E+01 0.00000E+00
 -1      3939 1.05845E+02 1.97318E+01 0.00000E+00
 -1      3940 1.11095E+02 1.84328E+01 0.00000E+00
 -1      3941 1.09595E+02 1.84328E+01 0.00000E+00
 -1      3942 1.08845E+02 1.97318E+01 0.00000E+00
 -1      3943 1.14095E+02 1.84328E+01 0.00000E+00
 -1      3944 1.12595E+02 1.84328E+01 0.00000E+00
 -1      3945 1.11845E+02 1.97318E+01 0.00000E+00
 -1      3946 1.17095E+02 1.84328E+01 0.00000E+00
 -1      3947 1.15595E+02 1.84328E+01 0.00000E+00
 -1      3948 1.14845E+02 1.97318E+01 0.00000E+00
 -1      3949 1.20095E+02 1.84328E+01 0.00000E+00
 -1      3950 1.18595E+02 1.84328E+01 0.00000E+00
 -1      3951 1.17845E+02 1.97318E+01 0.00000E+00
 -1      3952 1.23095E+02 1.84328E+01 0.00000E+00
 -1      3953 1.21595E+02 1.84328E+01 0.00000E+00
 -1      3954 1.20845E+02 1.97318E+01 0.00000E+00
 -1      3955 1.26095E+02 1.84328E+01 0.00000E+00
 -1      3956 1.24595E+02 1.84328E+01 0.00000E+00
 -1      3957 1.23845E+02 1.97318E+01 0.00000E+00
 -1      3958 1.29095E+02 1.84328E+01 0.00000E+00
 -1      3959 1.27595E+02 1.84328E+01 0.00000E+00
 -1      3960 1.26845E+02 1.97318E+01 0.00000E+00
 -1      3961 1.32621E+02 2.01084E+01 0.00000E+00
 -1      3962 1.31479E+02 1.85028E+01 0.00000E+00
 -1      3963 1.30337E+02 1.83706E+01 0.00000E+00
 -1      3964 1.31322E+02 2.08444E+01 0.00000E+00
 -1      3965 4.50949E+01 1.84328E+01 0.00000E+00
 -1      3966 4.35949E+01 1.84328E+01 0.00000E+00
 -1      3967 4.28449E+01 1.97318E+01 0.00000E+00
 -1      3968 1.30841E+02 2.91027E+01 0.00000E+00
 -1      3969 1.32972E+02 2.83952E+01 0.00000E+00
 -1      3970 1.32972E+02 2.69273E+01 0.00000E+00
 -1      3971 1.30091E+02 2.78037E+01 0.00000E+00
 -1      3972 5.10949E+01 1.84328E+01 0.00000E+00
 -1      3973 4.95949E+01 1.84328E+01 0.00000E+00
 -1      3974 5.18449E+01 1.97318E+01 0.00000E+00
 -1      3975 4.80949E+01 1.84328E+01 0.00000E+00
 -1      3976 4.65949E+01 1.84328E+01 0.00000E+00
 -1      3977 4.58449E+01 1.97318E+01 0.00000E+00
 -1      3978 4.88449E+01 1.97318E+01 0.00000E+00
 -1      3979 3.36117E+01 2.94568E+01 0.00000E+00
 -1      3980 1.61085E+01 9.20309E+00 0.00000E+00
 -1      3981 3.50063E+01 2.94988E+01 0.00000E+00
 -1      3982 3.65063E+01 2.94988E+01 0.00000E+00
 -1      3983 3.72563E+01 2.81998E+01 0.00000E+00
 -1      3984 3.44671E+01 2.81157E+01 0.00000E+00
 -1      3985 3.68055E+01 1.90552E+01 0.00000E+00
 -1      3986 3.54855E+01 1.90134E+01 0.00000E+00
 -1      3987 3.50862E+01 2.10183E+01 0.00000E+00
 -1      3988 1.31673E+02 2.61913E+01 0.00000E+00
 -1      3989 1.29587E+02 1.96696E+01 0.00000E+00
 -1      3990 1.30572E+02 2.21434E+01 0.00000E+00
 -1      3991 1.30079E+02 2.09065E+01 0.00000E+00
 -1      3992 1.28837E+02 2.09686E+01 0.00000E+00
 -1      3993 3.93602E+01 1.87648E+01 0.00000E+00
 -1      3994 3.80402E+01 1.87231E+01 0.00000E+00
 -1      3995 3.76409E+01 2.07280E+01 0.00000E+00
 -1      3996 4.01102E+01 2.00638E+01 0.00000E+00
 -1      3997 3.45795E+01 2.20675E+01 0.00000E+00
 -1      3998 3.39616E+01 2.32035E+01 0.00000E+00
 -1      3999 3.48861E+01 2.42077E+01 0.00000E+00
 -1      4000 3.58995E+01 2.21093E+01 0.00000E+00
 -1      4001 1.30572E+02 2.36113E+01 0.00000E+00
 -1      4002 1.30232E+02 2.66295E+01 0.00000E+00
 -1      4003 1.30374E+02 2.54554E+01 0.00000E+00
 -1      4004 1.28792E+02 2.70678E+01 0.00000E+00
 -1      4005 4.24008E+01 2.69429E+01 0.00000E+00
 -1      4006 4.39008E+01 2.69429E+01 0.00000E+00
 -1      4007 4.54008E+01 2.69429E+01 0.00000E+00
 -1      4008 4.69008E+01 2.69429E+01 0.00000E+00
 -1      4009 4.46508E+01 2.56439E+01 0.00000E+00
 -1      4010 4.84008E+01 2.69429E+01 0.00000E+00
 -1      4011 4.99008E+01 2.69429E+01 0.00000E+00
 -1      4012 4.76508E+01 2.56439E+01 0.00000E+00
 -1      4013 5.14008E+01 2.69429E+01 0.00000E+00
 -1      4014 5.29008E+01 2.69429E+01 0.00000E+00
 -1      4015 5.06508E+01 2.56439E+01 0.00000E+00
 -1      4016 5.44008E+01 2.69429E+01 0.00000E+00
 -1      4017 5.59008E+01 2.69429E+01 0.00000E+00
 -1      4018 5.36508E+01 2.56439E+01 0.00000E+00
 -1      4019 5.74008E+01 2.69429E+01 0.00000E+00
 -1      4020 5.89008E+01 2.69429E+01 0.00000E+00
 -1      4021 5.66508E+01 2.56439E+01 0.00000E+00
 -1      4022 6.04008E+01 2.69429E+01 0.00000E+00
 -1      4023 6.19008E+01 2.69429E+01 0.00000E+00
 -1      4024 5.96508E+01 2.56439E+01 0.00000E+00
 -1      4025 6.34008E+01 2.69429E+01 0.00000E+00
 -1      4026 6.49008E+01 2.69429E+01 0.00000E+00
 -1      4027 6.26508E+01 2.56439E+01 0.00000E+00
 -1      4028 6.64008E+01 2.69429E+01 0.00000E+00
 -1      4029 6.79008E+01 2.69429E+01 0.00000E+00
 -1      4030 6.56508E+01 2.56439E+01 0.00000E+00
 -1      4031 6.94008E+01 2.69429E+01 0.00000E+00
 -1      4032 7.09008E+01 2.69429E+01 0.00000E+00
 -1      4033 6.86508E+01 2.56439E+01 0.00000E+00
 -1      4034 7.24008E+01 2.69429E+01 0.00000E+00
 -1      4035 7.39008E+01 2.69429E+01 0.00000E+00
 -1      4036 7.16508E+01 2.56439E+01 0.00000E+00
 -1      4037 7.54008E+01 2.69429E+01 0.00000E+00
 -1      4038 7.69008E+01 2.69429E+01 0.00000E+00
 -1      4039 7.46508E+01 2.56439E+01 0.00000E+00
 -1      4040 7.84008E+01 2.69429E+01 0.00000E+00
 -1      4041 7.99008E+01 2.69429E+01 0.00000E+00
 -1      4042 7.76508E+01 2.56439E+01 0.00000E+00
 -1      4043 8.14008E+01 2.69429E+01 0.00000E+00
 -1      4044 8.29008E+01 2.69429E+01 0.00000E+00
 -1      4045 8.06508E+01 2.56439E+01 0.00000E+00
 -1      4046 8.44008E+01 2.69429E+01 0.00000E+00
 -1      4047 8.59008E+01 2.69429E+01 0.00000E+00
 -1      4048 8.36508E+01 2.56439E+01 0.00000E+00
 -1      4049 8.74008E+01 2.69429E+01 0.00000E+00
 -1      4050 8.89008E+01 2.69429E+01 0.00000E+00
 -1      4051 8.66508E+01 2.56439E+01 0.00000E+00
 -1      4052 9.04008E+01 2.69429E+01 0.00000E+00
 -1      4053 9.19008E+01 2.69429E+01 0.00000E+00
 -1      4054 8.96508E+01 2.56439E+01 0.00000E+00
 -1      4055 9.34008E+01 2.69429E+01 0.00000E+00
 -1      4056 9.49008E+01 2.69429E+01 0.00000E+00
 -1      4057 9.26508E+01 2.56439E+01 0.00000E+00
 -1      4058 9.64008E+01 2.69429E+01 0.00000E+00
 -1      4059 9.79008E+01 2.69429E+01 0.00000E+00
 -1      4060 9.56508E+01 2.56439E+01 0.00000E+00
 -1      4061 9.94008E+01 2.69429E+01 0.00000E+00
 -1      4062 1.00901E+02 2.69429E+01 0.00000E+00
 -1      4063 9.86508E+01 2.56439E+01 0.00000E+00
 -1      4064 1.02401E+02 2.69429E+01 0.00000E+00
 -1      4065 1.03901E+02 2.69429E+01 0.00000E+00
 -1      4066 1.01651E+02 2.56439E+01 0.00000E+00
 -1      4067 1.05401E+02 2.69429E+01 0.00000E+00
 -1      4068 1.06901E+02 2.69429E+01 0.00000E+00
 -1      4069 1.04651E+02 2.56439E+01 0.00000E+00
 -1      4070 1.08401E+02 2.69429E+01 0.00000E+00
 -1      4071 1.09901E+02 2.69429E+01 0.00000E+00
 -1      4072 1.07651E+02 2.56439E+01 0.00000E+00
 -1      4073 1.11401E+02 2.69429E+01 0.00000E+00
 -1      4074 1.12901E+02 2.69429E+01 0.00000E+00
 -1      4075 1.10651E+02 2.56439E+01 0.00000E+00
 -1      4076 1.14401E+02 2.69429E+01 0.00000E+00
 -1      4077 1.15901E+02 2.69429E+01 0.00000E+00
 -1      4078 1.13651E+02 2.56439E+01 0.00000E+00
 -1      4079 1.17401E+02 2.69429E+01 0.00000E+00
 -1      4080 1.18901E+02 2.69429E+01 0.00000E+00
 -1      4081 1.16651E+02 2.56439E+01 0.00000E+00
 -1      4082 1.20401E+02 2.69429E+01 0.00000E+00
 -1      4083 1.21901E+02 2.69429E+01 0.00000E+00
 -1      4084 1.19651E+02 2.56439E+01 0.00000E+00
 -1      4085 1.23401E+02 2.69429E+01 0.00000E+00
 -1      4086 1.24901E+02 2.69429E+01 0.00000E+00
 -1      4087 1.22651E+02 2.56439E+01 0.00000E+00
 -1      4088 1.26096E+02 2.70053E+01 0.00000E+00
 -1      4089 1.27596E+02 2.70053E+01 0.00000E+00
 -1      4090 1.27738E+02 2.58312E+01 0.00000E+00
 -1      4091 1.25346E+02 2.57063E+01 0.00000E+00
 -1      4092 5.55949E+01 2.10308E+01 0.00000E+00
 -1      4093 5.40949E+01 2.10308E+01 0.00000E+00
 -1      4094 6.45949E+01 2.10308E+01 0.00000E+00
 -1      4095 6.30949E+01 2.10308E+01 0.00000E+00
 -1      4096 6.75949E+01 2.10308E+01 0.00000E+00
 -1      4097 6.60949E+01 2.10308E+01 0.00000E+00
 -1      4098 6.53449E+01 2.23298E+01 0.00000E+00
 -1      4099 7.05949E+01 2.10308E+01 0.00000E+00
 -1      4100 6.90949E+01 2.10308E+01 0.00000E+00
 -1      4101 6.83449E+01 2.23298E+01 0.00000E+00
 -1      4102 7.35949E+01 2.10308E+01 0.00000E+00
 -1      4103 7.20949E+01 2.10308E+01 0.00000E+00
 -1      4104 7.13449E+01 2.23298E+01 0.00000E+00
 -1      4105 7.65949E+01 2.10308E+01 0.00000E+00
 -1      4106 7.50949E+01 2.10308E+01 0.00000E+00
 -1      4107 7.43449E+01 2.23298E+01 0.00000E+00
 -1      4108 7.95949E+01 2.10308E+01 0.00000E+00
 -1      4109 7.80949E+01 2.10308E+01 0.00000E+00
 -1      4110 7.73449E+01 2.23298E+01 0.00000E+00
 -1      4111 8.25949E+01 2.10308E+01 0.00000E+00
 -1      4112 8.10949E+01 2.10308E+01 0.00000E+00
 -1      4113 8.03449E+01 2.23298E+01 0.00000E+00
 -1      4114 8.55949E+01 2.10308E+01 0.00000E+00
 -1      4115 8.40949E+01 2.10308E+01 0.00000E+00
 -1      4116 8.33449E+01 2.23298E+01 0.00000E+00
 -1      4117 8.85949E+01 2.10308E+01 0.00000E+00
 -1      4118 8.70949E+01 2.10308E+01 0.00000E+00
 -1      4119 8.63449E+01 2.23298E+01 0.00000E+00
 -1      4120 9.15949E+01 2.10308E+01 0.00000E+00
 -1      4121 9.00949E+01 2.10308E+01 0.00000E+00
 -1      4122 8.93449E+01 2.23298E+01 0.00000E+00
 -1      4123 9.45949E+01 2.10308E+01 0.00000E+00
 -1      4124 9.30949E+01 2.10308E+01 0.00000E+00
 -1      4125 9.23449E+01 2.23298E+01 0.00000E+00
 -1      4126 9.75949E+01 2.10308E+01 0.00000E+00
 -1      4127 9.60949E+01 2.10308E+01 0.00000E+00
 -1      4128 9.53449E+01 2.23298E+01 0.00000E+00
 -1      4129 1.00595E+02 2.10308E+01 0.00000E+00
 -1      4130 9.90949E+01 2.10308E+01 0.00000E+00
 -1      4131 9.83449E+01 2.23298E+01 0.00000E+00
 -1      4132 1.03595E+02 2.10308E+01 0.00000E+00
 -1      4133 1.02095E+02 2.10308E+01 0.00000E+00
 -1      4134 1.01345E+02 2.23298E+01 0.00000E+00
 -1      4135 1.06595E+02 2.10308E+01 0.00000E+00
 -1      4136 1.05095E+02 2.10308E+01 0.00000E+00
 -1      4137 1.04345E+02 2.23298E+01 0.00000E+00
 -1      4138 1.09595E+02 2.10308E+01 0.00000E+00
 -1      4139 1.08095E+02 2.10308E+01 0.00000E+00
 -1      4140 1.07345E+02 2.23298E+01 0.00000E+00
 -1      4141 1.12595E+02 2.10308E+01 0.00000E+00
 -1      4142 1.11095E+02 2.10308E+01 0.00000E+00
 -1      4143 1.10345E+02 2.23298E+01 0.00000E+00
 -1      4144 1.15595E+02 2.10308E+01 0.00000E+00
 -1      4145 1.14095E+02 2.10308E+01 0.00000E+00
 -1      4146 1.13345E+02 2.23298E+01 0.00000E+00
 -1      4147 1.18595E+02 2.10308E+01 0.00000E+00
 -1      4148 1.17095E+02 2.10308E+01 0.00000E+00
 -1      4149 1.16345E+02 2.23298E+01 0.00000E+00
 -1      4150 1.21595E+02 2.10308E+01 0.00000E+00
 -1      4151 1.20095E+02 2.10308E+01 0.00000E+00
 -1      4152 1.19345E+02 2.23298E+01 0.00000E+00
 -1      4153 1.24595E+02 2.10308E+01 0.00000E+00
 -1      4154 1.23095E+02 2.10308E+01 0.00000E+00
 -1      4155 1.22345E+02 2.23298E+01 0.00000E+00
 -1      4156 1.27466E+02 2.09997E+01 0.00000E+00
 -1      4157 1.25966E+02 2.09997E+01 0.00000E+00
 -1      4158 1.25216E+02 2.22987E+01 0.00000E+00
 -1      4159 1.27958E+02 2.22366E+01 0.00000E+00
 -1      4160 6.15949E+01 2.10308E+01 0.00000E+00
 -1      4161 6.00949E+01 2.10308E+01 0.00000E+00
 -1      4162 6.23449E+01 2.23298E+01 0.00000E+00
 -1      4163 5.85949E+01 2.10308E+01 0.00000E+00
 -1      4164 5.70949E+01 2.10308E+01 0.00000E+00
 -1      4165 5.93449E+01 2.23298E+01 0.00000E+00
 -1      4166 3.51205E+01 2.67073E+01 0.00000E+00
 -1      4167 4.35949E+01 2.10308E+01 0.00000E+00
 -1      4168 4.20949E+01 2.10308E+01 0.00000E+00
 -1      4169 5.25949E+01 2.10308E+01 0.00000E+00
 -1      4170 5.10949E+01 2.10308E+01 0.00000E+00
 -1      4171 5.33449E+01 2.23298E+01 0.00000E+00
 -1      4172 3.94008E+01 2.69429E+01 0.00000E+00
 -1      4173 4.09008E+01 2.69429E+01 0.00000E+00
 -1      4174 4.16508E+01 2.56439E+01 0.00000E+00
 -1      4175 1.29131E+02 2.40496E+01 0.00000E+00
 -1      4176 1.27760E+02 2.40806E+01 0.00000E+00
 -1      4177 4.65949E+01 2.10308E+01 0.00000E+00
 -1      4178 4.50949E+01 2.10308E+01 0.00000E+00
 -1      4179 4.43449E+01 2.23298E+01 0.00000E+00
 -1      4180 5.63449E+01 2.23298E+01 0.00000E+00
 -1      4181 3.57006E+01 2.54785E+01 0.00000E+00
 -1      4182 3.64417E+01 2.69290E+01 0.00000E+00
 -1      4183 3.78363E+01 2.69710E+01 0.00000E+00
 -1      4184 3.62073E+01 2.44293E+01 0.00000E+00
 -1      4185 5.03449E+01 2.23298E+01 0.00000E+00
 -1      4186 4.95949E+01 2.10308E+01 0.00000E+00
 -1      4187 4.80949E+01 2.10308E+01 0.00000E+00
 -1      4188 3.85863E+01 2.56720E+01 0.00000E+00
 -1      4189 4.44979E+01 2.39868E+01 0.00000E+00
 -1      4190 4.59979E+01 2.39868E+01 0.00000E+00
 -1      4191 4.14979E+01 2.39868E+01 0.00000E+00
 -1      4192 4.29979E+01 2.39868E+01 0.00000E+00
 -1      4193 4.74979E+01 2.39868E+01 0.00000E+00
 -1      4194 4.89979E+01 2.39868E+01 0.00000E+00
 -1      4195 5.04979E+01 2.39868E+01 0.00000E+00
 -1      4196 5.19979E+01 2.39868E+01 0.00000E+00
 -1      4197 5.34979E+01 2.39868E+01 0.00000E+00
 -1      4198 5.49979E+01 2.39868E+01 0.00000E+00
 -1      4199 5.64979E+01 2.39868E+01 0.00000E+00
 -1      4200 5.79979E+01 2.39868E+01 0.00000E+00
 -1      4201 5.94979E+01 2.39868E+01 0.00000E+00
 -1      4202 6.09979E+01 2.39868E+01 0.00000E+00
 -1      4203 6.24979E+01 2.39868E+01 0.00000E+00
 -1      4204 6.39979E+01 2.39868E+01 0.00000E+00
 -1      4205 6.54979E+01 2.39868E+01 0.00000E+00
 -1      4206 6.69979E+01 2.39868E+01 0.00000E+00
 -1      4207 6.84979E+01 2.39868E+01 0.00000E+00
 -1      4208 6.99979E+01 2.39868E+01 0.00000E+00
 -1      4209 7.14979E+01 2.39868E+01 0.00000E+00
 -1      4210 7.29979E+01 2.39868E+01 0.00000E+00
 -1      4211 7.44979E+01 2.39868E+01 0.00000E+00
 -1      4212 7.59979E+01 2.39868E+01 0.00000E+00
 -1      4213 7.74979E+01 2.39868E+01 0.00000E+00
 -1      4214 7.89979E+01 2.39868E+01 0.00000E+00
 -1      4215 8.04979E+01 2.39868E+01 0.00000E+00
 -1      4216 8.19979E+01 2.39868E+01 0.00000E+00
 -1      4217 8.34979E+01 2.39868E+01 0.00000E+00
 -1      4218 8.49979E+01 2.39868E+01 0.00000E+00
 -1      4219 8.64979E+01 2.39868E+01 0.00000E+00
 -1      4220 8.79979E+01 2.39868E+01 0.00000E+00
 -1      4221 8.94979E+01 2.39868E+01 0.00000E+00
 -1      4222 9.09979E+01 2.39868E+01 0.00000E+00
 -1      4223 9.24979E+01 2.39868E+01 0.00000E+00
 -1      4224 9.39979E+01 2.39868E+01 0.00000E+00
 -1      4225 9.54979E+01 2.39868E+01 0.00000E+00
 -1      4226 9.69979E+01 2.39868E+01 0.00000E+00
 -1      4227 9.84979E+01 2.39868E+01 0.00000E+00
 -1      4228 9.99979E+01 2.39868E+01 0.00000E+00
 -1      4229 1.01498E+02 2.39868E+01 0.00000E+00
 -1      4230 1.02998E+02 2.39868E+01 0.00000E+00
 -1      4231 1.04498E+02 2.39868E+01 0.00000E+00
 -1      4232 1.05998E+02 2.39868E+01 0.00000E+00
 -1      4233 1.07498E+02 2.39868E+01 0.00000E+00
 -1      4234 1.08998E+02 2.39868E+01 0.00000E+00
 -1      4235 1.10498E+02 2.39868E+01 0.00000E+00
 -1      4236 1.11998E+02 2.39868E+01 0.00000E+00
 -1      4237 1.13498E+02 2.39868E+01 0.00000E+00
 -1      4238 1.14998E+02 2.39868E+01 0.00000E+00
 -1      4239 1.16498E+02 2.39868E+01 0.00000E+00
 -1      4240 1.17998E+02 2.39868E+01 0.00000E+00
 -1      4241 1.19498E+02 2.39868E+01 0.00000E+00
 -1      4242 1.20998E+02 2.39868E+01 0.00000E+00
 -1      4243 1.22498E+02 2.39868E+01 0.00000E+00
 -1      4244 1.23998E+02 2.39868E+01 0.00000E+00
 -1      4245 3.68357E+01 2.32552E+01 0.00000E+00
 -1      4246 3.76502E+01 2.45261E+01 0.00000E+00
 -1      4247 3.92147E+01 2.44979E+01 0.00000E+00
 -1      4248 3.73424E+01 2.22060E+01 0.00000E+00
 -1      4249 1.25369E+02 2.39558E+01 0.00000E+00
 -1      4250 4.10650E+01 2.11522E+01 0.00000E+00
 -1      4251 3.98303E+01 2.14843E+01 0.00000E+00
 -1      4252 3.95318E+01 2.29623E+01 0.00000E+00
 -1      4253 3.85771E+01 2.18739E+01 0.00000E+00
 -1      4254 4.18150E+01 2.24512E+01 0.00000E+00
 -1      4255 4.73449E+01 2.23298E+01 0.00000E+00
 -1      4256 1.26565E+02 2.40182E+01 0.00000E+00
 -1      4257 4.04679E+01 2.41083E+01 0.00000E+00
 -3
    3C                          2047                                     1
 -1       164    8    0    1
 -2         6         7        23      1106      1269      1123
 -1       165    8    0    1
 -2         7         8       164      1107      1270      1271
 -1       166    8    0    1
 -2         8         9       165      1108      1272      1273
 -1       167    8    0    1
 -2         8       165       164      1273      1274      1270
 -1       168    8    0    1
 -2         9        10       166      1109      1275      1276
 -1       169    8    0    1
 -2         9       166       165      1276      1277      1272
 -1       170    8    0    1
 -2        10        11       167      1110      1278      1279
 -1       171    8    0    1
 -2        10       167       166      1279      1280      1275
 -1       172    8    0    1
 -2        11        12       168      1111      1281      1282
 -1       173    8    0    1
 -2        11       168       167      1282      1283      1278
 -1       174    8    0    1
 -2        12        13       169      1112      1284      1285
 -1       175    8    0    1
 -2        12       169       168      1285      1286      1281
 -1       176    8    0    1
 -2        13        14       170      1113      1287      1288
 -1       177    8    0    1
 -2        13       170       169      1288      1289      1284
 -1       178    8    0    1
 -2        14        15       171      1114      1290      1291
 -1       179    8    0    1
 -2        14       171       170      1291      1292      1287
 -1       180    8    0    1
 -2        15        16       172      1115      1293      1294
 -1       181    8    0    1
 -2        15       172       171      1294      1295      1290
 -1       182    8    0    1
 -2        16        17       173      1116      1296      1297
 -1       183    8    0    1
 -2        16       173       172      1297      1298      1293
 -1       184    8    0    1
 -2        17        18       174      1117      1299      1300
 -1       185    8    0    1
 -2        17       174       173      1300      1301      1296
 -1       186    8    0    1
 -2        18        19       175      1118      1302      1303
 -1       187    8    0    1
 -2        18       175       174      1303      1304      1299
 -1       188    8    0    1
 -2        19        20       176      1119      1305      1306
 -1       189    8    0    1
 -2        19       176       175      1306      1307      1302
 -1       190    8    0    1
 -2        20        21       177      1120      1308      1309
 -1       191    8    0    1
 -2        20       177       176      1309      1310      1305
 -1       192    8    0    1
 -2        21        22       178      1121      1311      1312
 -1       193    8    0    1
 -2        21       178       177      1312      1313      1308
 -1       194    8    0    1
 -2        22         5       179      1122      1314      1315
 -1       195    8    0    1
 -2       178        22       179      1311      1315      1316
 -1       196    8    0    1
 -2         5        72       179      1173      1317      1314
 -1       197    8    0    1
 -2        24        23       180      1124      1318      1319
 -1       198    8    0    1
 -2        25        24       181      1125      1320      1321
 -1       199    8    0    1
 -2        24       180       181      1319      1322      1320
 -1       200    8    0    1
 -2        26        25       182      1126      1323      1324
 -1       201    8    0    1
 -2        25       181       182      1321      1325      1323
 -1       202    8    0    1
 -2        27        26       183      1127      1326      1327
 -1       203    8    0    1
 -2        26       182       183      1324      1328      1326
 -1       204    8    0    1
 -2        28        27       184      1128      1329      1330
 -1       205    8    0    1
 -2        27       183       184      1327      1331      1329
 -1       206    8    0    1
 -2        29        28       185      1129      1332      1333
 -1       207    8    0    1
 -2        28       184       185      1330      1334      1332
 -1       208    8    0    1
 -2        30        29       186      1130      1335      1336
 -1       209    8    0    1
 -2        29       185       186      1333      1337      1335
 -1       210    8    0    1
 -2        31        30       187      1131      1338      1339
 -1       211    8    0    1
 -2        30       186       187      1336      1340      1338
 -1       212    8    0    1
 -2        32        31       188      1132      1341      1342
 -1       213    8    0    1
 -2        31       187       188      1339      1343      1341
 -1       214    8    0    1
 -2        33        32       189      1133      1344      1345
 -1       215    8    0    1
 -2        32       188       189      1342      1346      1344
 -1       216    8    0    1
 -2        34        33       190      1134      1347      1348
 -1       217    8    0    1
 -2        33       189       190      1345      1349      1347
 -1       218    8    0    1
 -2        35        34       191      1135      1350      1351
 -1       219    8    0    1
 -2        34       190       191      1348      1352      1350
 -1       220    8    0    1
 -2        36        35       192      1136      1353      1354
 -1       221    8    0    1
 -2        35       191       192      1351      1355      1353
 -1       222    8    0    1
 -2        37        36       193      1137      1356      1357
 -1       223    8    0    1
 -2        36       192       193      1354      1358      1356
 -1       224    8    0    1
 -2        38        37       194      1138      1359      1360
 -1       225    8    0    1
 -2        37       193       194      1357      1361      1359
 -1       226    8    0    1
 -2        39        38       195      1139      1362      1363
 -1       227    8    0    1
 -2        38       194       195      1360      1364      1362
 -1       228    8    0    1
 -2        40        39       196      1140      1365      1366
 -1       229    8    0    1
 -2        39       195       196      1363      1367      1365
 -1       230    8    0    1
 -2        41        40       197      1141      1368      1369
 -1       231    8    0    1
 -2        40       196       197      1366      1370      1368
 -1       232    8    0    1
 -2        42        41       198      1142      1371      1372
 -1       233    8    0    1
 -2        41       197       198      1369      1373      1371
 -1       234    8    0    1
 -2        43        42       199      1143      1374      1375
 -1       235    8    0    1
 -2        42       198       199      1372      1376      1374
 -1       236    8    0    1
 -2        44        43       200      1144      1377      1378
 -1       237    8    0    1
 -2        43       199       200      1375      1379      1377
 -1       238    8    0    1
 -2        45        44       201      1145      1380      1381
 -1       239    8    0    1
 -2        44       200       201      1378      1382      1380
 -1       240    8    0    1
 -2        46        45       202      1146      1383      1384
 -1       241    8    0    1
 -2        45       201       202      1381      1385      1383
 -1       242    8    0    1
 -2        47        46       203      1147      1386      1387
 -1       243    8    0    1
 -2        46       202       203      1384      1388      1386
 -1       244    8    0    1
 -2        48        47       204      1148      1389      1390
 -1       245    8    0    1
 -2        47       203       204      1387      1391      1389
 -1       246    8    0    1
 -2        49        48       205      1149      1392      1393
 -1       247    8    0    1
 -2        48       204       205      1390      1394      1392
 -1       248    8    0    1
 -2        50        49       206      1150      1395      1396
 -1       249    8    0    1
 -2        49       205       206      1393      1397      1395
 -1       250    8    0    1
 -2        51        50       207      1151      1398      1399
 -1       251    8    0    1
 -2        50       206       207      1396      1400      1398
 -1       252    8    0    1
 -2        52        51       208      1152      1401      1402
 -1       253    8    0    1
 -2        51       207       208      1399      1403      1401
 -1       254    8    0    1
 -2        53        52       209      1153      1404      1405
 -1       255    8    0    1
 -2        52       208       209      1402      1406      1404
 -1       256    8    0    1
 -2        54        53       210      1154      1407      1408
 -1       257    8    0    1
 -2        53       209       210      1405      1409      1407
 -1       258    8    0    1
 -2        55        54       211      1155      1410      1411
 -1       259    8    0    1
 -2        54       210       211      1408      1412      1410
 -1       260    8    0    1
 -2        56        55       212      1156      1413      1414
 -1       261    8    0    1
 -2        55       211       212      1411      1415      1413
 -1       262    8    0    1
 -2        57        56       213      1157      1416      1417
 -1       263    8    0    1
 -2        56       212       213      1414      1418      1416
 -1       264    8    0    1
 -2        58        57       214      1158      1419      1420
 -1       265    8    0    1
 -2        57       213       214      1417      1421      1419
 -1       266    8    0    1
 -2        59        58       215      1159      1422      1423
 -1       267    8    0    1
 -2        58       214       215      1420      1424      1422
 -1       268    8    0    1
 -2        60        59       216      1160      1425      1426
 -1       269    8    0    1
 -2        59       215       216      1423      1427      1425
 -1       270    8    0    1
 -2        61        60       217      1161      1428      1429
 -1       271    8    0    1
 -2        60       216       217      1426      1430      1428
 -1       272    8    0    1
 -2        62        61       218      1162      1431      1432
 -1       273    8    0    1
 -2        61       217       218      1429      1433      1431
 -1       274    8    0    1
 -2        63        62       219      1163      1434      1435
 -1       275    8    0    1
 -2        62       218       219      1432      1436      1434
 -1       276    8    0    1
 -2        64        63       220      1164      1437      1438
 -1       277    8    0    1
 -2        63       219       220      1435      1439      1437
 -1       278    8    0    1
 -2        65        64       221      1165      1440      1441
 -1       279    8    0    1
 -2        64       220       221      1438      1442      1440
 -1       280    8    0    1
 -2        66        65       222      1166      1443      1444
 -1       281    8    0    1
 -2        65       221       222      1441      1445      1443
 -1       282    8    0    1
 -2        67        66       223      1167      1446      1447
 -1       283    8    0    1
 -2        66       222       223      1444      1448      1446
 -1       284    8    0    1
 -2        68        67       224      1168      1449      1450
 -1       285    8    0    1
 -2        67       223       224      1447      1451      1449
 -1       286    8    0    1
 -2        69        68       225      1169      1452      1453
 -1       287    8    0    1
 -2        68       224       225      1450      1454      1452
 -1       288    8    0    1
 -2        70        69       226      1170      1455      1456
 -1       289    8    0    1
 -2        69       225       226      1453      1457      1455
 -1       290    8    0    1
 -2        71        70       227      1171      1458      1459
 -1       291    8    0    1
 -2        70       226       227      1456      1460      1458
 -1       292    8    0    1
 -2         4        71       136      1172      1461      1239
 -1       293    8    0    1
 -2       136        71       227      1461      1459      1462
 -1       294    8    0    1
 -2        72        73       228      1174      1463      1464
 -1       295    8    0    1
 -2        72       228       179      1464      1465      1317
 -1       296    8    0    1
 -2        73        74       229      1175      1466      1467
 -1       297    8    0    1
 -2        73       229       228      1467      1468      1463
 -1       298    8    0    1
 -2        74        75       230      1176      1469      1470
 -1       299    8    0    1
 -2        74       230       229      1470      1471      1466
 -1       300    8    0    1
 -2        75        76       231      1177      1472      1473
 -1       301    8    0    1
 -2        75       231       230      1473      1474      1469
 -1       302    8    0    1
 -2        76        77       232      1178      1475      1476
 -1       303    8    0    1
 -2        76       232       231      1476      1477      1472
 -1       304    8    0    1
 -2        77        78       233      1179      1478      1479
 -1       305    8    0    1
 -2        77       233       232      1479      1480      1475
 -1       306    8    0    1
 -2        78        79       234      1180      1481      1482
 -1       307    8    0    1
 -2        78       234       233      1482      1483      1478
 -1       308    8    0    1
 -2        79        80       235      1181      1484      1485
 -1       309    8    0    1
 -2        79       235       234      1485      1486      1481
 -1       310    8    0    1
 -2        80        81       236      1182      1487      1488
 -1       311    8    0    1
 -2        80       236       235      1488      1489      1484
 -1       312    8    0    1
 -2        81        82       237      1183      1490      1491
 -1       313    8    0    1
 -2        81       237       236      1491      1492      1487
 -1       314    8    0    1
 -2        82        83       238      1184      1493      1494
 -1       315    8    0    1
 -2        82       238       237      1494      1495      1490
 -1       316    8    0    1
 -2        83        84       239      1185      1496      1497
 -1       317    8    0    1
 -2        83       239       238      1497      1498      1493
 -1       318    8    0    1
 -2        84        85       240      1186      1499      1500
 -1       319    8    0    1
 -2        84       240       239      1500      1501      1496
 -1       320    8    0    1
 -2        85        86       241      1187      1502      1503
 -1       321    8    0    1
 -2        85       241       240      1503      1504      1499
 -1       322    8    0    1
 -2        86        87       242      1188      1505      1506
 -1       323    8    0    1
 -2        86       242       241      1506      1507      1502
 -1       324    8    0    1
 -2        87        88       243      1189      1508      1509
 -1       325    8    0    1
 -2        87       243       242      1509      1510      1505
 -1       326    8    0    1
 -2        88        89       244      1190      1511      1512
 -1       327    8    0    1
 -2        88       244       243      1512      1513      1508
 -1       328    8    0    1
 -2        89        90       245      1191      1514      1515
 -1       329    8    0    1
 -2        89       245       244      1515      1516      1511
 -1       330    8    0    1
 -2        90        91       246      1192      1517      1518
 -1       331    8    0    1
 -2        90       246       245      1518      1519      1514
 -1       332    8    0    1
 -2        91        92       247      1193      1520      1521
 -1       333    8    0    1
 -2        91       247       246      1521      1522      1517
 -1       334    8    0    1
 -2        92        93       248      1194      1523      1524
 -1       335    8    0    1
 -2        92       248       247      1524      1525      1520
 -1       336    8    0    1
 -2        93        94       249      1195      1526      1527
 -1       337    8    0    1
 -2        93       249       248      1527      1528      1523
 -1       338    8    0    1
 -2        94        95       250      1196      1529      1530
 -1       339    8    0    1
 -2        94       250       249      1530      1531      1526
 -1       340    8    0    1
 -2        95        96       251      1197      1532      1533
 -1       341    8    0    1
 -2        95       251       250      1533      1534      1529
 -1       342    8    0    1
 -2        96        97       252      1198      1535      1536
 -1       343    8    0    1
 -2        96       252       251      1536      1537      1532
 -1       344    8    0    1
 -2        97        98       253      1199      1538      1539
 -1       345    8    0    1
 -2        97       253       252      1539      1540      1535
 -1       346    8    0    1
 -2        98        99       254      1200      1541      1542
 -1       347    8    0    1
 -2        98       254       253      1542      1543      1538
 -1       348    8    0    1
 -2        99       100       255      1201      1544      1545
 -1       349    8    0    1
 -2        99       255       254      1545      1546      1541
 -1       350    8    0    1
 -2       100       101       256      1202      1547      1548
 -1       351    8    0    1
 -2       100       256       255      1548      1549      1544
 -1       352    8    0    1
 -2       101       102       257      1203      1550      1551
 -1       353    8    0    1
 -2       101       257       256      1551      1552      1547
 -1       354    8    0    1
 -2       102       103       258      1204      1553      1554
 -1       355    8    0    1
 -2       102       258       257      1554      1555      1550
 -1       356    8    0    1
 -2       103       104       259      1205      1556      1557
 -1       357    8    0    1
 -2       103       259       258      1557      1558      1553
 -1       358    8    0    1
 -2       104       105       260      1206      1559      1560
 -1       359    8    0    1
 -2       104       260       259      1560      1561      1556
 -1       360    8    0    1
 -2       105       106       261      1207      1562      1563
 -1       361    8    0    1
 -2       105       261       260      1563      1564      1559
 -1       362    8    0    1
 -2       106       107       262      1208      1565      1566
 -1       363    8    0    1
 -2       106       262       261      1566      1567      1562
 -1       364    8    0    1
 -2       107       108       263      1209      1568      1569
 -1       365    8    0    1
 -2       107       263       262      1569      1570      1565
 -1       366    8    0    1
 -2       108       109       264      1210      1571      1572
 -1       367    8    0    1
 -2       108       264       263      1572      1573      1568
 -1       368    8    0    1
 -2       109       110       265      1211      1574      1575
 -1       369    8    0    1
 -2       109       265       264      1575      1576      1571
 -1       370    8    0    1
 -2       110       111       266      1212      1577      1578
 -1       371    8    0    1
 -2       110       266       265      1578      1579      1574
 -1       372    8    0    1
 -2       111       112       267      1213      1580      1581
 -1       373    8    0    1
 -2       111       267       266      1581      1582      1577
 -1       374    8    0    1
 -2       112       113       268      1214      1583      1584
 -1       375    8    0    1
 -2       112       268       267      1584      1585      1580
 -1       376    8    0    1
 -2       113       114       269      1215      1586      1587
 -1       377    8    0    1
 -2       113       269       268      1587      1588      1583
 -1       378    8    0    1
 -2       114       115       270      1216      1589      1590
 -1       379    8    0    1
 -2       114       270       269      1590      1591      1586
 -1       380    8    0    1
 -2       115       116       271      1217      1592      1593
 -1       381    8    0    1
 -2       115       271       270      1593      1594      1589
 -1       382    8    0    1
 -2       116       117       272      1218      1595      1596
 -1       383    8    0    1
 -2       116       272       271      1596      1597      1592
 -1       384    8    0    1
 -2       117       118       273      1219      1598      1599
 -1       385    8    0    1
 -2       117       273       272      1599      1600      1595
 -1       386    8    0    1
 -2       118       119       274      1220      1601      1602
 -1       387    8    0    1
 -2       118       274       273      1602      1603      1598
 -1       388    8    0    1
 -2       119       120       275      1221      1604      1605
 -1       389    8    0    1
 -2       119       275       274      1605      1606      1601
 -1       390    8    0    1
 -2       120         3       121      1222      1223      1607
 -1       391    8    0    1
 -2       121       122       276      1224      1608      1609
 -1       392    8    0    1
 -2       122       123       277      1225      1610      1611
 -1       393    8    0    1
 -2       122       277       276      1611      1612      1608
 -1       394    8    0    1
 -2       123       124       278      1226      1613      1614
 -1       395    8    0    1
 -2       123       278       277      1614      1615      1610
 -1       396    8    0    1
 -2       124       125       279      1227      1616      1617
 -1       397    8    0    1
 -2       124       279       278      1617      1618      1613
 -1       398    8    0    1
 -2       125       126       280      1228      1619      1620
 -1       399    8    0    1
 -2       125       280       279      1620      1621      1616
 -1       400    8    0    1
 -2       126       127       281      1229      1622      1623
 -1       401    8    0    1
 -2       126       281       280      1623      1624      1619
 -1       402    8    0    1
 -2       127       128       282      1230      1625      1626
 -1       403    8    0    1
 -2       127       282       281      1626      1627      1622
 -1       404    8    0    1
 -2       128       129       283      1231      1628      1629
 -1       405    8    0    1
 -2       128       283       282      1629      1630      1625
 -1       406    8    0    1
 -2       129       130       284      1232      1631      1632
 -1       407    8    0    1
 -2       129       284       283      1632      1633      1628
 -1       408    8    0    1
 -2       130       131       285      1233      1634      1635
 -1       409    8    0    1
 -2       130       285       284      1635      1636      1631
 -1       410    8    0    1
 -2       131       132       286      1234      1637      1638
 -1       411    8    0    1
 -2       131       286       285      1638      1639      1634
 -1       412    8    0    1
 -2       132       133       287      1235      1640      1641
 -1       413    8    0    1
 -2       132       287       286      1641      1642      1637
 -1       414    8    0    1
 -2       133       134       288      1236      1643      1644
 -1       415    8    0    1
 -2       133       288       287      1644      1645      1640
 -1       416    8    0    1
 -2       134       135       289      1237      1646      1647
 -1       417    8    0    1
 -2       134       289       288      1647      1648      1643
 -1       418    8    0    1
 -2       135       136       290      1238      1649      1650
 -1       419    8    0    1
 -2       289       135       290      1646      1650      1651
 -1       420    8    0    1
 -2       136       227       290      1462      1652      1649
 -1       421    8    0    1
 -2         2       137       291      1240      1653      1654
 -1       422    8    0    1
 -2       137       138       292      1241      1655      1656
 -1       423    8    0    1
 -2       138       139       293      1242      1657      1658
 -1       424    8    0    1
 -2       139       140       294      1243      1659      1660
 -1       425    8    0    1
 -2       140       141       295      1244      1661      1662
 -1       426    8    0    1
 -2       141       142       296      1245      1663      1664
 -1       427    8    0    1
 -2       142       143       297      1246      1665      1666
 -1       428    8    0    1
 -2       143       144       298      1247      1667      1668
 -1       429    8    0    1
 -2       144       145       299      1248      1669      1670
 -1       430    8    0    1
 -2       145       146       300      1249      1671      1672
 -1       431    8    0    1
 -2       146       147       301      1250      1673      1674
 -1       432    8    0    1
 -2       147       148       302      1251      1675      1676
 -1       433    8    0    1
 -2       148       149       303      1252      1677      1678
 -1       434    8    0    1
 -2       149       150       304      1253      1679      1680
 -1       435    8    0    1
 -2       150       151       305      1254      1681      1682
 -1       436    8    0    1
 -2       151       152       306      1255      1683      1684
 -1       437    8    0    1
 -2       152       153       307      1256      1685      1686
 -1       438    8    0    1
 -2       153       154       308      1257      1687      1688
 -1       439    8    0    1
 -2       154       155       309      1258      1689      1690
 -1       440    8    0    1
 -2       155       156       310      1259      1691      1692
 -1       441    8    0    1
 -2       156       157       311      1260      1693      1694
 -1       442    8    0    1
 -2       157         1       312      1261      1695      1696
 -1       443    8    0    1
 -2         1       158       313      1262      1697      1698
 -1       444    8    0    1
 -2       158       159       314      1263      1699      1700
 -1       445    8    0    1
 -2       159       160       315      1264      1701      1702
 -1       446    8    0    1
 -2       160       161       316      1265      1703      1704
 -1       447    8    0    1
 -2       161       162       317      1266      1705      1706
 -1       448    8    0    1
 -2       162       163       318      1267      1707      1708
 -1       449    8    0    1
 -2       163         2       319      1268      1709      1710
 -1       450    8    0    1
 -2       294       140       295      1659      1662      1711
 -1       451    8    0    1
 -2       293       139       294      1657      1660      1712
 -1       452    8    0    1
 -2       120       121       275      1607      1713      1604
 -1       453    8    0    1
 -2       121       276       275      1609      1714      1713
 -1       454    8    0    1
 -2       291       137       292      1653      1656      1715
 -1       455    8    0    1
 -2       292       138       293      1655      1658      1716
 -1       456    8    0    1
 -2         2       291       319      1654      1717      1709
 -1       457    8    0    1
 -2       141       296       295      1664      1718      1661
 -1       458    8    0    1
 -2       142       297       296      1666      1719      1663
 -1       459    8    0    1
 -2       143       298       297      1668      1720      1665
 -1       460    8    0    1
 -2       144       299       298      1670      1721      1667
 -1       461    8    0    1
 -2       145       300       299      1672      1722      1669
 -1       462    8    0    1
 -2       146       301       300      1674      1723      1671
 -1       463    8    0    1
 -2       147       302       301      1676      1724      1673
 -1       464    8    0    1
 -2       148       303       302      1678      1725      1675
 -1       465    8    0    1
 -2       149       304       303      1680      1726      1677
 -1       466    8    0    1
 -2       150       305       304      1682      1727      1679
 -1       467    8    0    1
 -2       151       306       305      1684      1728      1681
 -1       468    8    0    1
 -2       152       307       306      1686      1729      1683
 -1       469    8    0    1
 -2       153       308       307      1688      1730      1685
 -1       470    8    0    1
 -2       154       309       308      1690      1731      1687
 -1       471    8    0    1
 -2       155       310       309      1692      1732      1689
 -1       472    8    0    1
 -2       156       311       310      1694      1733      1691
 -1       473    8    0    1
 -2       157       312       311      1696      1734      1693
 -1       474    8    0    1
 -2         1       313       312      1698      1735      1695
 -1       475    8    0    1
 -2       158       314       313      1700      1736      1697
 -1       476    8    0    1
 -2       159       315       314      1702      1737      1699
 -1       477    8    0    1
 -2       160       316       315      1704      1738      1701
 -1       478    8    0    1
 -2       161       317       316      1706      1739      1703
 -1       479    8    0    1
 -2       162       318       317      1708      1740      1705
 -1       480    8    0    1
 -2       163       319       318      1710      1741      1707
 -1       481    8    0    1
 -2        23         7       320      1269      1742      1743
 -1       482    8    0    1
 -2       165       166       321      1277      1744      1745
 -1       483    8    0    1
 -2       164       165       322      1274      1746      1747
 -1       484    8    0    1
 -2       165       321       322      1745      1748      1746
 -1       485    8    0    1
 -2       167       168       323      1283      1749      1750
 -1       486    8    0    1
 -2       168       169       324      1286      1751      1752
 -1       487    8    0    1
 -2       168       324       323      1752      1753      1749
 -1       488    8    0    1
 -2       169       170       325      1289      1754      1755
 -1       489    8    0    1
 -2       169       325       324      1755      1756      1751
 -1       490    8    0    1
 -2       171       172       326      1295      1757      1758
 -1       491    8    0    1
 -2       172       173       327      1298      1759      1760
 -1       492    8    0    1
 -2       173       174       328      1301      1761      1762
 -1       493    8    0    1
 -2       174       175       329      1304      1763      1764
 -1       494    8    0    1
 -2       174       329       328      1764      1765      1761
 -1       495    8    0    1
 -2       175       176       330      1307      1766      1767
 -1       496    8    0    1
 -2       175       330       329      1767      1768      1763
 -1       497    8    0    1
 -2       176       177       331      1310      1769      1770
 -1       498    8    0    1
 -2       176       331       330      1770      1771      1766
 -1       499    8    0    1
 -2       177       178       332      1313      1772      1773
 -1       500    8    0    1
 -2       177       332       331      1773      1774      1769
 -1       501    8    0    1
 -2       178       179       333      1316      1775      1776
 -1       502    8    0    1
 -2       332       178       333      1772      1776      1777
 -1       503    8    0    1
 -2       179       228       333      1465      1778      1775
 -1       504    8    0    1
 -2       180        23       320      1318      1743      1779
 -1       505    8    0    1
 -2       228       229       334      1468      1780      1781
 -1       506    8    0    1
 -2       228       334       333      1781      1782      1778
 -1       507    8    0    1
 -2       182       181       335      1325      1783      1784
 -1       508    8    0    1
 -2       183       182       336      1328      1785      1786
 -1       509    8    0    1
 -2       182       335       336      1784      1787      1785
 -1       510    8    0    1
 -2       184       183       337      1331      1788      1789
 -1       511    8    0    1
 -2       183       336       337      1786      1790      1788
 -1       512    8    0    1
 -2       185       184       338      1334      1791      1792
 -1       513    8    0    1
 -2       184       337       338      1789      1793      1791
 -1       514    8    0    1
 -2       186       185       339      1337      1794      1795
 -1       515    8    0    1
 -2       185       338       339      1792      1796      1794
 -1       516    8    0    1
 -2       187       186       340      1340      1797      1798
 -1       517    8    0    1
 -2       186       339       340      1795      1799      1797
 -1       518    8    0    1
 -2       188       187       341      1343      1800      1801
 -1       519    8    0    1
 -2       187       340       341      1798      1802      1800
 -1       520    8    0    1
 -2       189       188       342      1346      1803      1804
 -1       521    8    0    1
 -2       188       341       342      1801      1805      1803
 -1       522    8    0    1
 -2       190       189       343      1349      1806      1807
 -1       523    8    0    1
 -2       189       342       343      1804      1808      1806
 -1       524    8    0    1
 -2       191       190       344      1352      1809      1810
 -1       525    8    0    1
 -2       190       343       344      1807      1811      1809
 -1       526    8    0    1
 -2       192       191       345      1355      1812      1813
 -1       527    8    0    1
 -2       191       344       345      1810      1814      1812
 -1       528    8    0    1
 -2       193       192       346      1358      1815      1816
 -1       529    8    0    1
 -2       192       345       346      1813      1817      1815
 -1       530    8    0    1
 -2       194       193       347      1361      1818      1819
 -1       531    8    0    1
 -2       193       346       347      1816      1820      1818
 -1       532    8    0    1
 -2       195       194       348      1364      1821      1822
 -1       533    8    0    1
 -2       194       347       348      1819      1823      1821
 -1       534    8    0    1
 -2       196       195       349      1367      1824      1825
 -1       535    8    0    1
 -2       195       348       349      1822      1826      1824
 -1       536    8    0    1
 -2       197       196       350      1370      1827      1828
 -1       537    8    0    1
 -2       196       349       350      1825      1829      1827
 -1       538    8    0    1
 -2       198       197       351      1373      1830      1831
 -1       539    8    0    1
 -2       197       350       351      1828      1832      1830
 -1       540    8    0    1
 -2       199       198       352      1376      1833      1834
 -1       541    8    0    1
 -2       198       351       352      1831      1835      1833
 -1       542    8    0    1
 -2       200       199       353      1379      1836      1837
 -1       543    8    0    1
 -2       199       352       353      1834      1838      1836
 -1       544    8    0    1
 -2       201       200       354      1382      1839      1840
 -1       545    8    0    1
 -2       200       353       354      1837      1841      1839
 -1       546    8    0    1
 -2       202       201       355      1385      1842      1843
 -1       547    8    0    1
 -2       201       354       355      1840      1844      1842
 -1       548    8    0    1
 -2       203       202       356      1388      1845      1846
 -1       549    8    0    1
 -2       202       355       356      1843      1847      1845
 -1       550    8    0    1
 -2       204       203       357      1391      1848      1849
 -1       551    8    0    1
 -2       203       356       357      1846      1850      1848
 -1       552    8    0    1
 -2       205       204       358      1394      1851      1852
 -1       553    8    0    1
 -2       204       357       358      1849      1853      1851
 -1       554    8    0    1
 -2       206       205       359      1397      1854      1855
 -1       555    8    0    1
 -2       205       358       359      1852      1856      1854
 -1       556    8    0    1
 -2       207       206       360      1400      1857      1858
 -1       557    8    0    1
 -2       206       359       360      1855      1859      1857
 -1       558    8    0    1
 -2       208       207       361      1403      1860      1861
 -1       559    8    0    1
 -2       207       360       361      1858      1862      1860
 -1       560    8    0    1
 -2       209       208       362      1406      1863      1864
 -1       561    8    0    1
 -2       208       361       362      1861      1865      1863
 -1       562    8    0    1
 -2       210       209       363      1409      1866      1867
 -1       563    8    0    1
 -2       209       362       363      1864      1868      1866
 -1       564    8    0    1
 -2       211       210       364      1412      1869      1870
 -1       565    8    0    1
 -2       210       363       364      1867      1871      1869
 -1       566    8    0    1
 -2       212       211       365      1415      1872      1873
 -1       567    8    0    1
 -2       211       364       365      1870      1874      1872
 -1       568    8    0    1
 -2       213       212       366      1418      1875      1876
 -1       569    8    0    1
 -2       212       365       366      1873      1877      1875
 -1       570    8    0    1
 -2       214       213       367      1421      1878      1879
 -1       571    8    0    1
 -2       213       366       367      1876      1880      1878
 -1       572    8    0    1
 -2       215       214       368      1424      1881      1882
 -1       573    8    0    1
 -2       214       367       368      1879      1883      1881
 -1       574    8    0    1
 -2       216       215       369      1427      1884      1885
 -1       575    8    0    1
 -2       215       368       369      1882      1886      1884
 -1       576    8    0    1
 -2       217       216       370      1430      1887      1888
 -1       577    8    0    1
 -2       216       369       370      1885      1889      1887
 -1       578    8    0    1
 -2       218       217       371      1433      1890      1891
 -1       579    8    0    1
 -2       217       370       371      1888      1892      1890
 -1       580    8    0    1
 -2       219       218       372      1436      1893      1894
 -1       581    8    0    1
 -2       218       371       372      1891      1895      1893
 -1       582    8    0    1
 -2       220       219       373      1439      1896      1897
 -1       583    8    0    1
 -2       219       372       373      1894      1898      1896
 -1       584    8    0    1
 -2       221       220       374      1442      1899      1900
 -1       585    8    0    1
 -2       220       373       374      1897      1901      1899
 -1       586    8    0    1
 -2       222       221       375      1445      1902      1903
 -1       587    8    0    1
 -2       221       374       375      1900      1904      1902
 -1       588    8    0    1
 -2       223       222       376      1448      1905      1906
 -1       589    8    0    1
 -2       222       375       376      1903      1907      1905
 -1       590    8    0    1
 -2       224       223       377      1451      1908      1909
 -1       591    8    0    1
 -2       223       376       377      1906      1910      1908
 -1       592    8    0    1
 -2       225       224       378      1454      1911      1912
 -1       593    8    0    1
 -2       224       377       378      1909      1913      1911
 -1       594    8    0    1
 -2       226       225       379      1457      1914      1915
 -1       595    8    0    1
 -2       225       378       379      1912      1916      1914
 -1       596    8    0    1
 -2       227       226       380      1460      1917      1918
 -1       597    8    0    1
 -2       290       227       380      1652      1918      1919
 -1       598    8    0    1
 -2       226       379       380      1915      1920      1917
 -1       599    8    0    1
 -2       229       230       381      1471      1921      1922
 -1       600    8    0    1
 -2       229       381       334      1922      1923      1780
 -1       601    8    0    1
 -2       230       231       382      1474      1924      1925
 -1       602    8    0    1
 -2       230       382       381      1925      1926      1921
 -1       603    8    0    1
 -2       231       232       383      1477      1927      1928
 -1       604    8    0    1
 -2       231       383       382      1928      1929      1924
 -1       605    8    0    1
 -2       232       233       384      1480      1930      1931
 -1       606    8    0    1
 -2       232       384       383      1931      1932      1927
 -1       607    8    0    1
 -2       233       234       385      1483      1933      1934
 -1       608    8    0    1
 -2       233       385       384      1934      1935      1930
 -1       609    8    0    1
 -2       234       235       386      1486      1936      1937
 -1       610    8    0    1
 -2       234       386       385      1937      1938      1933
 -1       611    8    0    1
 -2       235       236       387      1489      1939      1940
 -1       612    8    0    1
 -2       235       387       386      1940      1941      1936
 -1       613    8    0    1
 -2       236       237       388      1492      1942      1943
 -1       614    8    0    1
 -2       236       388       387      1943      1944      1939
 -1       615    8    0    1
 -2       237       238       389      1495      1945      1946
 -1       616    8    0    1
 -2       237       389       388      1946      1947      1942
 -1       617    8    0    1
 -2       238       239       390      1498      1948      1949
 -1       618    8    0    1
 -2       238       390       389      1949      1950      1945
 -1       619    8    0    1
 -2       239       240       391      1501      1951      1952
 -1       620    8    0    1
 -2       239       391       390      1952      1953      1948
 -1       621    8    0    1
 -2       240       241       392      1504      1954      1955
 -1       622    8    0    1
 -2       240       392       391      1955      1956      1951
 -1       623    8    0    1
 -2       241       242       393      1507      1957      1958
 -1       624    8    0    1
 -2       241       393       392      1958      1959      1954
 -1       625    8    0    1
 -2       242       243       394      1510      1960      1961
 -1       626    8    0    1
 -2       242       394       393      1961      1962      1957
 -1       627    8    0    1
 -2       243       244       395      1513      1963      1964
 -1       628    8    0    1
 -2       243       395       394      1964      1965      1960
 -1       629    8    0    1
 -2       244       245       396      1516      1966      1967
 -1       630    8    0    1
 -2       244       396       395      1967      1968      1963
 -1       631    8    0    1
 -2       245       246       397      1519      1969      1970
 -1       632    8    0    1
 -2       245       397       396      1970      1971      1966
 -1       633    8    0    1
 -2       246       247       398      1522      1972      1973
 -1       634    8    0    1
 -2       246       398       397      1973      1974      1969
 -1       635    8    0    1
 -2       247       248       399      1525      1975      1976
 -1       636    8    0    1
 -2       247       399       398      1976      1977      1972
 -1       637    8    0    1
 -2       248       249       400      1528      1978      1979
 -1       638    8    0    1
 -2       248       400       399      1979      1980      1975
 -1       639    8    0    1
 -2       249       250       401      1531      1981      1982
 -1       640    8    0    1
 -2       249       401       400      1982      1983      1978
 -1       641    8    0    1
 -2       250       251       402      1534      1984      1985
 -1       642    8    0    1
 -2       250       402       401      1985      1986      1981
 -1       643    8    0    1
 -2       251       252       403      1537      1987      1988
 -1       644    8    0    1
 -2       251       403       402      1988      1989      1984
 -1       645    8    0    1
 -2       252       253       404      1540      1990      1991
 -1       646    8    0    1
 -2       252       404       403      1991      1992      1987
 -1       647    8    0    1
 -2       253       254       405      1543      1993      1994
 -1       648    8    0    1
 -2       253       405       404      1994      1995      1990
 -1       649    8    0    1
 -2       254       255       406      1546      1996      1997
 -1       650    8    0    1
 -2       254       406       405      1997      1998      1993
 -1       651    8    0    1
 -2       255       256       407      1549      1999      2000
 -1       652    8    0    1
 -2       255       407       406      2000      2001      1996
 -1       653    8    0    1
 -2       256       257       408      1552      2002      2003
 -1       654    8    0    1
 -2       256       408       407      2003      2004      1999
 -1       655    8    0    1
 -2       257       258       409      1555      2005      2006
 -1       656    8    0    1
 -2       257       409       408      2006      2007      2002
 -1       657    8    0    1
 -2       258       259       410      1558      2008      2009
 -1       658    8    0    1
 -2       258       410       409      2009      2010      2005
 -1       659    8    0    1
 -2       259       260       411      1561      2011      2012
 -1       660    8    0    1
 -2       259       411       410      2012      2013      2008
 -1       661    8    0    1
 -2       260       261       412      1564      2014      2015
 -1       662    8    0    1
 -2       260       412       411      2015      2016      2011
 -1       663    8    0    1
 -2       261       262       413      1567      2017      2018
 -1       664    8    0    1
 -2       261       413       412      2018      2019      2014
 -1       665    8    0    1
 -2       262       263       414      1570      2020      2021
 -1       666    8    0    1
 -2       262       414       413      2021      2022      2017
 -1       667    8    0    1
 -2       263       264       415      1573      2023      2024
 -1       668    8    0    1
 -2       263       415       414      2024      2025      2020
 -1       669    8    0    1
 -2       264       265       416      1576      2026      2027
 -1       670    8    0    1
 -2       264       416       415      2027      2028      2023
 -1       671    8    0    1
 -2       265       266       417      1579      2029      2030
 -1       672    8    0    1
 -2       265       417       416      2030      2031      2026
 -1       673    8    0    1
 -2       266       267       418      1582      2032      2033
 -1       674    8    0    1
 -2       266       418       417      2033      2034      2029
 -1       675    8    0    1
 -2       267       268       419      1585      2035      2036
 -1       676    8    0    1
 -2       267       419       418      2036      2037      2032
 -1       677    8    0    1
 -2       268       269       420      1588      2038      2039
 -1       678    8    0    1
 -2       268       420       419      2039      2040      2035
 -1       679    8    0    1
 -2       269       270       421      1591      2041      2042
 -1       680    8    0    1
 -2       269       421       420      2042      2043      2038
 -1       681    8    0    1
 -2       270       271       422      1594      2044      2045
 -1       682    8    0    1
 -2       270       422       421      2045      2046      2041
 -1       683    8    0    1
 -2       271       272       423      1597      2047      2048
 -1       684    8    0    1
 -2       271       423       422      2048      2049      2044
 -1       685    8    0    1
 -2       272       273       424      1600      2050      2051
 -1       686    8    0    1
 -2       272       424       423      2051      2052      2047
 -1       687    8    0    1
 -2       273       274       425      1603      2053      2054
 -1       688    8    0    1
 -2       273       425       424      2054      2055      2050
 -1       689    8    0    1
 -2       274       275       426      1606      2056      2057
 -1       690    8    0    1
 -2       425       274       426      2053      2057      2058
 -1       691    8    0    1
 -2       275       276       426      1714      2059      2056
 -1       692    8    0    1
 -2       278       279       427      1618      2060      2061
 -1       693    8    0    1
 -2       277       278       428      1615      2062      2063
 -1       694    8    0    1
 -2       278       427       428      2061      2064      2062
 -1       695    8    0    1
 -2       276       277       429      1612      2065      2066
 -1       696    8    0    1
 -2       426       276       429      2059      2066      2067
 -1       697    8    0    1
 -2       277       428       429      2063      2068      2065
 -1       698    8    0    1
 -2       279       280       430      1621      2069      2070
 -1       699    8    0    1
 -2       279       430       427      2070      2071      2060
 -1       700    8    0    1
 -2       280       281       431      1624      2072      2073
 -1       701    8    0    1
 -2       280       431       430      2073      2074      2069
 -1       702    8    0    1
 -2       281       282       432      1627      2075      2076
 -1       703    8    0    1
 -2       281       432       431      2076      2077      2072
 -1       704    8    0    1
 -2       282       283       433      1630      2078      2079
 -1       705    8    0    1
 -2       282       433       432      2079      2080      2075
 -1       706    8    0    1
 -2       283       284       434      1633      2081      2082
 -1       707    8    0    1
 -2       283       434       433      2082      2083      2078
 -1       708    8    0    1
 -2       284       285       435      1636      2084      2085
 -1       709    8    0    1
 -2       284       435       434      2085      2086      2081
 -1       710    8    0    1
 -2       285       286       436      1639      2087      2088
 -1       711    8    0    1
 -2       285       436       435      2088      2089      2084
 -1       712    8    0    1
 -2       286       287       437      1642      2090      2091
 -1       713    8    0    1
 -2       286       437       436      2091      2092      2087
 -1       714    8    0    1
 -2       287       288       438      1645      2093      2094
 -1       715    8    0    1
 -2       287       438       437      2094      2095      2090
 -1       716    8    0    1
 -2       288       289       439      1648      2096      2097
 -1       717    8    0    1
 -2       288       439       438      2097      2098      2093
 -1       718    8    0    1
 -2       292       293       440      1716      2099      2100
 -1       719    8    0    1
 -2       319       291       441      1717      2101      2102
 -1       720    8    0    1
 -2       291       292       442      1715      2103      2104
 -1       721    8    0    1
 -2       292       440       442      2100      2105      2103
 -1       722    8    0    1
 -2       293       294       443      1712      2106      2107
 -1       723    8    0    1
 -2       294       295       444      1711      2108      2109
 -1       724    8    0    1
 -2       166       167       445      1280      2110      2111
 -1       725    8    0    1
 -2       321       166       445      1744      2111      2112
 -1       726    8    0    1
 -2       167       323       445      1750      2113      2110
 -1       727    8    0    1
 -2       296       297       446      1719      2114      2115
 -1       728    8    0    1
 -2       297       298       447      1720      2116      2117
 -1       729    8    0    1
 -2       298       299       448      1721      2118      2119
 -1       730    8    0    1
 -2       298       448       447      2119      2120      2116
 -1       731    8    0    1
 -2       299       300       449      1722      2121      2122
 -1       732    8    0    1
 -2       300       301       450      1723      2123      2124
 -1       733    8    0    1
 -2       301       302       451      1724      2125      2126
 -1       734    8    0    1
 -2       302       303       452      1725      2127      2128
 -1       735    8    0    1
 -2       303       304       453      1726      2129      2130
 -1       736    8    0    1
 -2       304       305       454      1727      2131      2132
 -1       737    8    0    1
 -2       304       454       453      2132      2133      2129
 -1       738    8    0    1
 -2       305       306       455      1728      2134      2135
 -1       739    8    0    1
 -2       306       307       456      1729      2136      2137
 -1       740    8    0    1
 -2       306       456       455      2137      2138      2134
 -1       741    8    0    1
 -2       307       308       457      1730      2139      2140
 -1       742    8    0    1
 -2       308       309       458      1731      2141      2142
 -1       743    8    0    1
 -2       309       310       459      1732      2143      2144
 -1       744    8    0    1
 -2       310       311       460      1733      2145      2146
 -1       745    8    0    1
 -2       310       460       459      2146      2147      2143
 -1       746    8    0    1
 -2       311       312       461      1734      2148      2149
 -1       747    8    0    1
 -2       312       313       462      1735      2150      2151
 -1       748    8    0    1
 -2       313       314       463      1736      2152      2153
 -1       749    8    0    1
 -2       314       315       464      1737      2154      2155
 -1       750    8    0    1
 -2       315       316       465      1738      2156      2157
 -1       751    8    0    1
 -2       316       317       466      1739      2158      2159
 -1       752    8    0    1
 -2       317       318       467      1740      2160      2161
 -1       753    8    0    1
 -2       318       319       468      1741      2162      2163
 -1       754    8    0    1
 -2       295       296       469      1718      2164      2165
 -1       755    8    0    1
 -2       296       446       469      2115      2166      2164
 -1       756    8    0    1
 -2       326       172       327      1757      1760      2167
 -1       757    8    0    1
 -2       170       171       470      1292      2168      2169
 -1       758    8    0    1
 -2       170       470       325      2169      2170      1754
 -1       759    8    0    1
 -2       173       328       327      1762      2171      1759
 -1       760    8    0    1
 -2       444       295       469      2108      2165      2172
 -1       761    8    0    1
 -2       335       181       322      1783      2173      2174
 -1       762    8    0    1
 -2       181       180       322      1322      2175      2173
 -1       763    8    0    1
 -2         7       164       320      1271      2176      1742
 -1       764    8    0    1
 -2       441       291       471      2101      2177      2178
 -1       765    8    0    1
 -2       291       442       471      2104      2179      2177
 -1       766    8    0    1
 -2       293       443       440      2107      2180      2099
 -1       767    8    0    1
 -2       439       289       290      2096      1651      2181
 -1       768    8    0    1
 -2       468       319       441      2162      2102      2182
 -1       769    8    0    1
 -2       443       294       444      2106      2109      2183
 -1       770    8    0    1
 -2       467       318       468      2160      2163      2184
 -1       771    8    0    1
 -2       466       317       467      2158      2161      2185
 -1       772    8    0    1
 -2       465       316       466      2156      2159      2186
 -1       773    8    0    1
 -2       464       315       465      2154      2157      2187
 -1       774    8    0    1
 -2       463       314       464      2152      2155      2188
 -1       775    8    0    1
 -2       462       313       463      2150      2153      2189
 -1       776    8    0    1
 -2       460       311       461      2145      2149      2190
 -1       777    8    0    1
 -2       458       309       459      2141      2144      2191
 -1       778    8    0    1
 -2       456       307       457      2136      2140      2192
 -1       779    8    0    1
 -2       454       305       455      2131      2135      2193
 -1       780    8    0    1
 -2       452       303       453      2127      2130      2194
 -1       781    8    0    1
 -2       451       302       452      2125      2128      2195
 -1       782    8    0    1
 -2       450       301       451      2123      2126      2196
 -1       783    8    0    1
 -2       448       299       449      2118      2122      2197
 -1       784    8    0    1
 -2       171       326       470      1758      2198      2168
 -1       785    8    0    1
 -2       446       297       447      2114      2117      2199
 -1       786    8    0    1
 -2       449       300       450      2121      2124      2200
 -1       787    8    0    1
 -2       457       308       458      2139      2142      2201
 -1       788    8    0    1
 -2       461       312       462      2148      2151      2202
 -1       789    8    0    1
 -2       320       164       322      2176      1747      2203
 -1       790    8    0    1
 -2       323       324       472      1753      2204      2205
 -1       791    8    0    1
 -2       446       447       473      2199      2206      2207
 -1       792    8    0    1
 -2       328       329       474      1765      2208      2209
 -1       793    8    0    1
 -2       331       332       475      1774      2210      2211
 -1       794    8    0    1
 -2       332       333       476      1777      2212      2213
 -1       795    8    0    1
 -2       475       332       476      2210      2213      2214
 -1       796    8    0    1
 -2       333       334       476      1782      2215      2212
 -1       797    8    0    1
 -2       336       335       477      1787      2216      2217
 -1       798    8    0    1
 -2       334       381       478      1923      2218      2219
 -1       799    8    0    1
 -2       334       478       476      2219      2220      2215
 -1       800    8    0    1
 -2       381       382       479      1926      2221      2222
 -1       801    8    0    1
 -2       381       479       478      2222      2223      2218
 -1       802    8    0    1
 -2       180       320       322      1779      2203      2175
 -1       803    8    0    1
 -2       337       336       480      1790      2224      2225
 -1       804    8    0    1
 -2       336       477       480      2217      2226      2224
 -1       805    8    0    1
 -2       338       337       481      1793      2227      2228
 -1       806    8    0    1
 -2       337       480       481      2225      2229      2227
 -1       807    8    0    1
 -2       339       338       482      1796      2230      2231
 -1       808    8    0    1
 -2       338       481       482      2228      2232      2230
 -1       809    8    0    1
 -2       340       339       483      1799      2233      2234
 -1       810    8    0    1
 -2       339       482       483      2231      2235      2233
 -1       811    8    0    1
 -2       341       340       484      1802      2236      2237
 -1       812    8    0    1
 -2       340       483       484      2234      2238      2236
 -1       813    8    0    1
 -2       342       341       485      1805      2239      2240
 -1       814    8    0    1
 -2       341       484       485      2237      2241      2239
 -1       815    8    0    1
 -2       343       342       486      1808      2242      2243
 -1       816    8    0    1
 -2       342       485       486      2240      2244      2242
 -1       817    8    0    1
 -2       344       343       487      1811      2245      2246
 -1       818    8    0    1
 -2       343       486       487      2243      2247      2245
 -1       819    8    0    1
 -2       345       344       488      1814      2248      2249
 -1       820    8    0    1
 -2       344       487       488      2246      2250      2248
 -1       821    8    0    1
 -2       346       345       489      1817      2251      2252
 -1       822    8    0    1
 -2       345       488       489      2249      2253      2251
 -1       823    8    0    1
 -2       347       346       490      1820      2254      2255
 -1       824    8    0    1
 -2       346       489       490      2252      2256      2254
 -1       825    8    0    1
 -2       348       347       491      1823      2257      2258
 -1       826    8    0    1
 -2       347       490       491      2255      2259      2257
 -1       827    8    0    1
 -2       349       348       492      1826      2260      2261
 -1       828    8    0    1
 -2       348       491       492      2258      2262      2260
 -1       829    8    0    1
 -2       350       349       493      1829      2263      2264
 -1       830    8    0    1
 -2       349       492       493      2261      2265      2263
 -1       831    8    0    1
 -2       351       350       494      1832      2266      2267
 -1       832    8    0    1
 -2       350       493       494      2264      2268      2266
 -1       833    8    0    1
 -2       352       351       495      1835      2269      2270
 -1       834    8    0    1
 -2       351       494       495      2267      2271      2269
 -1       835    8    0    1
 -2       353       352       496      1838      2272      2273
 -1       836    8    0    1
 -2       352       495       496      2270      2274      2272
 -1       837    8    0    1
 -2       354       353       497      1841      2275      2276
 -1       838    8    0    1
 -2       353       496       497      2273      2277      2275
 -1       839    8    0    1
 -2       355       354       498      1844      2278      2279
 -1       840    8    0    1
 -2       354       497       498      2276      2280      2278
 -1       841    8    0    1
 -2       356       355       499      1847      2281      2282
 -1       842    8    0    1
 -2       355       498       499      2279      2283      2281
 -1       843    8    0    1
 -2       357       356       500      1850      2284      2285
 -1       844    8    0    1
 -2       356       499       500      2282      2286      2284
 -1       845    8    0    1
 -2       358       357       501      1853      2287      2288
 -1       846    8    0    1
 -2       357       500       501      2285      2289      2287
 -1       847    8    0    1
 -2       359       358       502      1856      2290      2291
 -1       848    8    0    1
 -2       358       501       502      2288      2292      2290
 -1       849    8    0    1
 -2       360       359       503      1859      2293      2294
 -1       850    8    0    1
 -2       359       502       503      2291      2295      2293
 -1       851    8    0    1
 -2       361       360       504      1862      2296      2297
 -1       852    8    0    1
 -2       360       503       504      2294      2298      2296
 -1       853    8    0    1
 -2       362       361       505      1865      2299      2300
 -1       854    8    0    1
 -2       361       504       505      2297      2301      2299
 -1       855    8    0    1
 -2       363       362       506      1868      2302      2303
 -1       856    8    0    1
 -2       362       505       506      2300      2304      2302
 -1       857    8    0    1
 -2       364       363       507      1871      2305      2306
 -1       858    8    0    1
 -2       363       506       507      2303      2307      2305
 -1       859    8    0    1
 -2       365       364       508      1874      2308      2309
 -1       860    8    0    1
 -2       364       507       508      2306      2310      2308
 -1       861    8    0    1
 -2       366       365       509      1877      2311      2312
 -1       862    8    0    1
 -2       365       508       509      2309      2313      2311
 -1       863    8    0    1
 -2       367       366       510      1880      2314      2315
 -1       864    8    0    1
 -2       366       509       510      2312      2316      2314
 -1       865    8    0    1
 -2       368       367       511      1883      2317      2318
 -1       866    8    0    1
 -2       367       510       511      2315      2319      2317
 -1       867    8    0    1
 -2       369       368       512      1886      2320      2321
 -1       868    8    0    1
 -2       368       511       512      2318      2322      2320
 -1       869    8    0    1
 -2       370       369       513      1889      2323      2324
 -1       870    8    0    1
 -2       369       512       513      2321      2325      2323
 -1       871    8    0    1
 -2       371       370       514      1892      2326      2327
 -1       872    8    0    1
 -2       370       513       514      2324      2328      2326
 -1       873    8    0    1
 -2       372       371       515      1895      2329      2330
 -1       874    8    0    1
 -2       371       514       515      2327      2331      2329
 -1       875    8    0    1
 -2       373       372       516      1898      2332      2333
 -1       876    8    0    1
 -2       372       515       516      2330      2334      2332
 -1       877    8    0    1
 -2       374       373       517      1901      2335      2336
 -1       878    8    0    1
 -2       373       516       517      2333      2337      2335
 -1       879    8    0    1
 -2       375       374       518      1904      2338      2339
 -1       880    8    0    1
 -2       374       517       518      2336      2340      2338
 -1       881    8    0    1
 -2       376       375       519      1907      2341      2342
 -1       882    8    0    1
 -2       375       518       519      2339      2343      2341
 -1       883    8    0    1
 -2       377       376       520      1910      2344      2345
 -1       884    8    0    1
 -2       376       519       520      2342      2346      2344
 -1       885    8    0    1
 -2       378       377       521      1913      2347      2348
 -1       886    8    0    1
 -2       377       520       521      2345      2349      2347
 -1       887    8    0    1
 -2       379       378       522      1916      2350      2351
 -1       888    8    0    1
 -2       378       521       522      2348      2352      2350
 -1       889    8    0    1
 -2       442       440       523      2105      2353      2354
 -1       890    8    0    1
 -2       383       384       524      1932      2355      2356
 -1       891    8    0    1
 -2       384       385       525      1935      2357      2358
 -1       892    8    0    1
 -2       384       525       524      2358      2359      2355
 -1       893    8    0    1
 -2       385       386       526      1938      2360      2361
 -1       894    8    0    1
 -2       385       526       525      2361      2362      2357
 -1       895    8    0    1
 -2       386       387       527      1941      2363      2364
 -1       896    8    0    1
 -2       386       527       526      2364      2365      2360
 -1       897    8    0    1
 -2       387       388       528      1944      2366      2367
 -1       898    8    0    1
 -2       387       528       527      2367      2368      2363
 -1       899    8    0    1
 -2       388       389       529      1947      2369      2370
 -1       900    8    0    1
 -2       388       529       528      2370      2371      2366
 -1       901    8    0    1
 -2       389       390       530      1950      2372      2373
 -1       902    8    0    1
 -2       389       530       529      2373      2374      2369
 -1       903    8    0    1
 -2       390       391       531      1953      2375      2376
 -1       904    8    0    1
 -2       390       531       530      2376      2377      2372
 -1       905    8    0    1
 -2       391       392       532      1956      2378      2379
 -1       906    8    0    1
 -2       391       532       531      2379      2380      2375
 -1       907    8    0    1
 -2       392       393       533      1959      2381      2382
 -1       908    8    0    1
 -2       392       533       532      2382      2383      2378
 -1       909    8    0    1
 -2       393       394       534      1962      2384      2385
 -1       910    8    0    1
 -2       393       534       533      2385      2386      2381
 -1       911    8    0    1
 -2       394       395       535      1965      2387      2388
 -1       912    8    0    1
 -2       394       535       534      2388      2389      2384
 -1       913    8    0    1
 -2       395       396       536      1968      2390      2391
 -1       914    8    0    1
 -2       395       536       535      2391      2392      2387
 -1       915    8    0    1
 -2       396       397       537      1971      2393      2394
 -1       916    8    0    1
 -2       396       537       536      2394      2395      2390
 -1       917    8    0    1
 -2       397       398       538      1974      2396      2397
 -1       918    8    0    1
 -2       397       538       537      2397      2398      2393
 -1       919    8    0    1
 -2       398       399       539      1977      2399      2400
 -1       920    8    0    1
 -2       398       539       538      2400      2401      2396
 -1       921    8    0    1
 -2       399       400       540      1980      2402      2403
 -1       922    8    0    1
 -2       399       540       539      2403      2404      2399
 -1       923    8    0    1
 -2       400       401       541      1983      2405      2406
 -1       924    8    0    1
 -2       400       541       540      2406      2407      2402
 -1       925    8    0    1
 -2       401       402       542      1986      2408      2409
 -1       926    8    0    1
 -2       401       542       541      2409      2410      2405
 -1       927    8    0    1
 -2       402       403       543      1989      2411      2412
 -1       928    8    0    1
 -2       402       543       542      2412      2413      2408
 -1       929    8    0    1
 -2       403       404       544      1992      2414      2415
 -1       930    8    0    1
 -2       403       544       543      2415      2416      2411
 -1       931    8    0    1
 -2       404       405       545      1995      2417      2418
 -1       932    8    0    1
 -2       404       545       544      2418      2419      2414
 -1       933    8    0    1
 -2       405       406       546      1998      2420      2421
 -1       934    8    0    1
 -2       405       546       545      2421      2422      2417
 -1       935    8    0    1
 -2       406       407       547      2001      2423      2424
 -1       936    8    0    1
 -2       406       547       546      2424      2425      2420
 -1       937    8    0    1
 -2       407       408       548      2004      2426      2427
 -1       938    8    0    1
 -2       407       548       547      2427      2428      2423
 -1       939    8    0    1
 -2       408       409       549      2007      2429      2430
 -1       940    8    0    1
 -2       408       549       548      2430      2431      2426
 -1       941    8    0    1
 -2       409       410       550      2010      2432      2433
 -1       942    8    0    1
 -2       409       550       549      2433      2434      2429
 -1       943    8    0    1
 -2       410       411       551      2013      2435      2436
 -1       944    8    0    1
 -2       410       551       550      2436      2437      2432
 -1       945    8    0    1
 -2       411       412       552      2016      2438      2439
 -1       946    8    0    1
 -2       411       552       551      2439      2440      2435
 -1       947    8    0    1
 -2       412       413       553      2019      2441      2442
 -1       948    8    0    1
 -2       412       553       552      2442      2443      2438
 -1       949    8    0    1
 -2       413       414       554      2022      2444      2445
 -1       950    8    0    1
 -2       413       554       553      2445      2446      2441
 -1       951    8    0    1
 -2       414       415       555      2025      2447      2448
 -1       952    8    0    1
 -2       414       555       554      2448      2449      2444
 -1       953    8    0    1
 -2       415       416       556      2028      2450      2451
 -1       954    8    0    1
 -2       415       556       555      2451      2452      2447
 -1       955    8    0    1
 -2       416       417       557      2031      2453      2454
 -1       956    8    0    1
 -2       416       557       556      2454      2455      2450
 -1       957    8    0    1
 -2       417       418       558      2034      2456      2457
 -1       958    8    0    1
 -2       417       558       557      2457      2458      2453
 -1       959    8    0    1
 -2       418       419       559      2037      2459      2460
 -1       960    8    0    1
 -2       418       559       558      2460      2461      2456
 -1       961    8    0    1
 -2       419       420       560      2040      2462      2463
 -1       962    8    0    1
 -2       419       560       559      2463      2464      2459
 -1       963    8    0    1
 -2       420       421       561      2043      2465      2466
 -1       964    8    0    1
 -2       420       561       560      2466      2467      2462
 -1       965    8    0    1
 -2       421       422       562      2046      2468      2469
 -1       966    8    0    1
 -2       421       562       561      2469      2470      2465
 -1       967    8    0    1
 -2       422       423       563      2049      2471      2472
 -1       968    8    0    1
 -2       422       563       562      2472      2473      2468
 -1       969    8    0    1
 -2       423       424       564      2052      2474      2475
 -1       970    8    0    1
 -2       423       564       563      2475      2476      2471
 -1       971    8    0    1
 -2       424       425       565      2055      2477      2478
 -1       972    8    0    1
 -2       424       565       564      2478      2479      2474
 -1       973    8    0    1
 -2       425       426       429      2058      2067      2480
 -1       974    8    0    1
 -2       430       431       566      2074      2481      2482
 -1       975    8    0    1
 -2       431       432       567      2077      2483      2484
 -1       976    8    0    1
 -2       431       567       566      2484      2485      2481
 -1       977    8    0    1
 -2       428       427       568      2064      2486      2487
 -1       978    8    0    1
 -2       427       430       569      2071      2488      2489
 -1       979    8    0    1
 -2       568       427       569      2486      2489      2490
 -1       980    8    0    1
 -2       430       566       569      2482      2491      2488
 -1       981    8    0    1
 -2       432       433       570      2080      2492      2493
 -1       982    8    0    1
 -2       432       570       567      2493      2494      2483
 -1       983    8    0    1
 -2       433       434       571      2083      2495      2496
 -1       984    8    0    1
 -2       433       571       570      2496      2497      2492
 -1       985    8    0    1
 -2       434       435       572      2086      2498      2499
 -1       986    8    0    1
 -2       434       572       571      2499      2500      2495
 -1       987    8    0    1
 -2       435       436       573      2089      2501      2502
 -1       988    8    0    1
 -2       435       573       572      2502      2503      2498
 -1       989    8    0    1
 -2       436       437       574      2092      2504      2505
 -1       990    8    0    1
 -2       436       574       573      2505      2506      2501
 -1       991    8    0    1
 -2       437       438       575      2095      2507      2508
 -1       992    8    0    1
 -2       437       575       574      2508      2509      2504
 -1       993    8    0    1
 -2       438       439       576      2098      2510      2511
 -1       994    8    0    1
 -2       438       576       575      2511      2512      2507
 -1       995    8    0    1
 -2       439       290       380      2181      1919      2513
 -1       996    8    0    1
 -2       468       441       577      2182      2514      2515
 -1       997    8    0    1
 -2       382       383       578      1929      2516      2517
 -1       998    8    0    1
 -2       479       382       578      2221      2517      2518
 -1       999    8    0    1
 -2       383       524       578      2356      2519      2516
 -1      1000    8    0    1
 -2       469       446       579      2166      2520      2521
 -1      1001    8    0    1
 -2       443       444       580      2183      2522      2523
 -1      1002    8    0    1
 -2       440       443       581      2180      2524      2525
 -1      1003    8    0    1
 -2       443       580       581      2523      2526      2524
 -1      1004    8    0    1
 -2       467       468       582      2184      2527      2528
 -1      1005    8    0    1
 -2       458       459       583      2191      2529      2530
 -1      1006    8    0    1
 -2       330       331       584      1771      2531      2532
 -1      1007    8    0    1
 -2       331       475       584      2211      2533      2531
 -1      1008    8    0    1
 -2       329       330       585      1768      2534      2535
 -1      1009    8    0    1
 -2       330       584       585      2532      2536      2534
 -1      1010    8    0    1
 -2       444       469       586      2172      2537      2538
 -1      1011    8    0    1
 -2       326       327       454      2167      2539      2540
 -1      1012    8    0    1
 -2       470       326       455      2198      2541      2542
 -1      1013    8    0    1
 -2       449       450       587      2200      2543      2544
 -1      1014    8    0    1
 -2       447       448       588      2120      2545      2546
 -1      1015    8    0    1
 -2       457       458       589      2201      2547      2548
 -1      1016    8    0    1
 -2       448       449       590      2197      2549      2550
 -1      1017    8    0    1
 -2       450       451       591      2196      2551      2552
 -1      1018    8    0    1
 -2       450       591       587      2552      2553      2543
 -1      1019    8    0    1
 -2       451       452       474      2195      2554      2555
 -1      1020    8    0    1
 -2       453       454       327      2133      2539      2556
 -1      1021    8    0    1
 -2       454       455       326      2193      2541      2540
 -1      1022    8    0    1
 -2       455       456       470      2138      2557      2542
 -1      1023    8    0    1
 -2       461       462       592      2202      2558      2559
 -1      1024    8    0    1
 -2       459       460       593      2147      2560      2561
 -1      1025    8    0    1
 -2       460       461       594      2190      2562      2563
 -1      1026    8    0    1
 -2       460       594       593      2563      2564      2560
 -1      1027    8    0    1
 -2       462       463       595      2189      2565      2566
 -1      1028    8    0    1
 -2       462       595       592      2566      2567      2558
 -1      1029    8    0    1
 -2       463       464       596      2188      2568      2569
 -1      1030    8    0    1
 -2       464       465       597      2187      2570      2571
 -1      1031    8    0    1
 -2       465       466       598      2186      2572      2573
 -1      1032    8    0    1
 -2       465       598       597      2573      2574      2570
 -1      1033    8    0    1
 -2       466       467       599      2185      2575      2576
 -1      1034    8    0    1
 -2       335       322       600      2174      2577      2578
 -1      1035    8    0    1
 -2       477       335       600      2216      2578      2579
 -1      1036    8    0    1
 -2       322       321       600      1748      2580      2577
 -1      1037    8    0    1
 -2       453       327       328      2556      2171      2581
 -1      1038    8    0    1
 -2       323       472       601      2205      2582      2583
 -1      1039    8    0    1
 -2       323       601       445      2583      2584      2113
 -1      1040    8    0    1
 -2       324       325       589      1756      2585      2586
 -1      1041    8    0    1
 -2       446       473       579      2207      2587      2520
 -1      1042    8    0    1
 -2       328       474       452      2209      2554      2588
 -1      1043    8    0    1
 -2       325       470       457      2170      2589      2590
 -1      1044    8    0    1
 -2       329       585       474      2535      2591      2208
 -1      1045    8    0    1
 -2       328       452       453      2588      2194      2581
 -1      1046    8    0    1
 -2       325       457       589      2590      2548      2585
 -1      1047    8    0    1
 -2       472       324       583      2204      2592      2593
 -1      1048    8    0    1
 -2       471       442       602      2179      2594      2595
 -1      1049    8    0    1
 -2       442       523       602      2354      2596      2594
 -1      1050    8    0    1
 -2       468       577       582      2515      2597      2527
 -1      1051    8    0    1
 -2       523       440       581      2353      2525      2598
 -1      1052    8    0    1
 -2       469       579       586      2521      2599      2537
 -1      1053    8    0    1
 -2       425       429       565      2480      2600      2477
 -1      1054    8    0    1
 -2       429       428       565      2068      2601      2600
 -1      1055    8    0    1
 -2       439       380       603      2513      2602      2603
 -1      1056    8    0    1
 -2       576       439       603      2510      2603      2604
 -1      1057    8    0    1
 -2       380       379       603      1920      2605      2602
 -1      1058    8    0    1
 -2       577       441       604      2514      2606      2607
 -1      1059    8    0    1
 -2       441       471       604      2178      2608      2606
 -1      1060    8    0    1
 -2       580       444       605      2522      2609      2610
 -1      1061    8    0    1
 -2       444       586       605      2538      2611      2609
 -1      1062    8    0    1
 -2       467       582       599      2528      2612      2575
 -1      1063    8    0    1
 -2       458       583       589      2530      2613      2547
 -1      1064    8    0    1
 -2       591       451       474      2551      2555      2614
 -1      1065    8    0    1
 -2       590       449       587      2549      2544      2615
 -1      1066    8    0    1
 -2       588       448       590      2545      2550      2616
 -1      1067    8    0    1
 -2       466       599       598      2576      2617      2572
 -1      1068    8    0    1
 -2       324       589       583      2586      2613      2592
 -1      1069    8    0    1
 -2       583       459       593      2529      2561      2618
 -1      1070    8    0    1
 -2       321       445       606      2112      2619      2620
 -1      1071    8    0    1
 -2       600       321       606      2580      2620      2621
 -1      1072    8    0    1
 -2       445       601       606      2584      2622      2619
 -1      1073    8    0    1
 -2       461       592       607      2559      2623      2624
 -1      1074    8    0    1
 -2       461       607       594      2624      2625      2562
 -1      1075    8    0    1
 -2       447       588       473      2546      2626      2206
 -1      1076    8    0    1
 -2       463       596       595      2569      2627      2565
 -1      1077    8    0    1
 -2       596       464       608      2568      2628      2629
 -1      1078    8    0    1
 -2       464       597       608      2571      2630      2628
 -1      1079    8    0    1
 -2       565       428       568      2601      2487      2631
 -1      1080    8    0    1
 -2       603       379       522      2605      2351      2632
 -1      1081    8    0    1
 -2       472       583       593      2593      2618      2633
 -1      1082    8    0    1
 -2       579       473       609      2587      2634      2635
 -1      1083    8    0    1
 -2       474       585       591      2591      2636      2614
 -1      1084    8    0    1
 -2       475       476       610      2214      2637      2638
 -1      1085    8    0    1
 -2       476       478       610      2220      2639      2637
 -1      1086    8    0    1
 -2       526       527       611      2365      2640      2641
 -1      1087    8    0    1
 -2       472       593       601      2633      2642      2582
 -1      1088    8    0    1
 -2       525       526       612      2362      2643      2644
 -1      1089    8    0    1
 -2       526       611       612      2641      2645      2643
 -1      1090    8    0    1
 -2       481       480       613      2229      2646      2647
 -1      1091    8    0    1
 -2       482       481       614      2232      2648      2649
 -1      1092    8    0    1
 -2       481       613       614      2647      2650      2648
 -1      1093    8    0    1
 -2       483       482       615      2235      2651      2652
 -1      1094    8    0    1
 -2       482       614       615      2649      2653      2651
 -1      1095    8    0    1
 -2       484       483       616      2238      2654      2655
 -1      1096    8    0    1
 -2       483       615       616      2652      2656      2654
 -1      1097    8    0    1
 -2       485       484       617      2241      2657      2658
 -1      1098    8    0    1
 -2       484       616       617      2655      2659      2657
 -1      1099    8    0    1
 -2       486       485       618      2244      2660      2661
 -1      1100    8    0    1
 -2       485       617       618      2658      2662      2660
 -1      1101    8    0    1
 -2       487       486       619      2247      2663      2664
 -1      1102    8    0    1
 -2       486       618       619      2661      2665      2663
 -1      1103    8    0    1
 -2       488       487       620      2250      2666      2667
 -1      1104    8    0    1
 -2       487       619       620      2664      2668      2666
 -1      1105    8    0    1
 -2       489       488       621      2253      2669      2670
 -1      1106    8    0    1
 -2       488       620       621      2667      2671      2669
 -1      1107    8    0    1
 -2       490       489       622      2256      2672      2673
 -1      1108    8    0    1
 -2       489       621       622      2670      2674      2672
 -1      1109    8    0    1
 -2       491       490       623      2259      2675      2676
 -1      1110    8    0    1
 -2       490       622       623      2673      2677      2675
 -1      1111    8    0    1
 -2       492       491       624      2262      2678      2679
 -1      1112    8    0    1
 -2       491       623       624      2676      2680      2678
 -1      1113    8    0    1
 -2       493       492       625      2265      2681      2682
 -1      1114    8    0    1
 -2       492       624       625      2679      2683      2681
 -1      1115    8    0    1
 -2       494       493       626      2268      2684      2685
 -1      1116    8    0    1
 -2       493       625       626      2682      2686      2684
 -1      1117    8    0    1
 -2       495       494       627      2271      2687      2688
 -1      1118    8    0    1
 -2       494       626       627      2685      2689      2687
 -1      1119    8    0    1
 -2       496       495       628      2274      2690      2691
 -1      1120    8    0    1
 -2       495       627       628      2688      2692      2690
 -1      1121    8    0    1
 -2       497       496       629      2277      2693      2694
 -1      1122    8    0    1
 -2       496       628       629      2691      2695      2693
 -1      1123    8    0    1
 -2       498       497       630      2280      2696      2697
 -1      1124    8    0    1
 -2       497       629       630      2694      2698      2696
 -1      1125    8    0    1
 -2       499       498       631      2283      2699      2700
 -1      1126    8    0    1
 -2       498       630       631      2697      2701      2699
 -1      1127    8    0    1
 -2       500       499       632      2286      2702      2703
 -1      1128    8    0    1
 -2       499       631       632      2700      2704      2702
 -1      1129    8    0    1
 -2       501       500       633      2289      2705      2706
 -1      1130    8    0    1
 -2       500       632       633      2703      2707      2705
 -1      1131    8    0    1
 -2       502       501       634      2292      2708      2709
 -1      1132    8    0    1
 -2       501       633       634      2706      2710      2708
 -1      1133    8    0    1
 -2       503       502       635      2295      2711      2712
 -1      1134    8    0    1
 -2       502       634       635      2709      2713      2711
 -1      1135    8    0    1
 -2       504       503       636      2298      2714      2715
 -1      1136    8    0    1
 -2       503       635       636      2712      2716      2714
 -1      1137    8    0    1
 -2       505       504       637      2301      2717      2718
 -1      1138    8    0    1
 -2       504       636       637      2715      2719      2717
 -1      1139    8    0    1
 -2       506       505       638      2304      2720      2721
 -1      1140    8    0    1
 -2       505       637       638      2718      2722      2720
 -1      1141    8    0    1
 -2       507       506       639      2307      2723      2724
 -1      1142    8    0    1
 -2       506       638       639      2721      2725      2723
 -1      1143    8    0    1
 -2       508       507       640      2310      2726      2727
 -1      1144    8    0    1
 -2       507       639       640      2724      2728      2726
 -1      1145    8    0    1
 -2       509       508       641      2313      2729      2730
 -1      1146    8    0    1
 -2       508       640       641      2727      2731      2729
 -1      1147    8    0    1
 -2       510       509       642      2316      2732      2733
 -1      1148    8    0    1
 -2       509       641       642      2730      2734      2732
 -1      1149    8    0    1
 -2       511       510       643      2319      2735      2736
 -1      1150    8    0    1
 -2       510       642       643      2733      2737      2735
 -1      1151    8    0    1
 -2       512       511       644      2322      2738      2739
 -1      1152    8    0    1
 -2       511       643       644      2736      2740      2738
 -1      1153    8    0    1
 -2       513       512       645      2325      2741      2742
 -1      1154    8    0    1
 -2       512       644       645      2739      2743      2741
 -1      1155    8    0    1
 -2       514       513       646      2328      2744      2745
 -1      1156    8    0    1
 -2       513       645       646      2742      2746      2744
 -1      1157    8    0    1
 -2       515       514       647      2331      2747      2748
 -1      1158    8    0    1
 -2       514       646       647      2745      2749      2747
 -1      1159    8    0    1
 -2       516       515       648      2334      2750      2751
 -1      1160    8    0    1
 -2       515       647       648      2748      2752      2750
 -1      1161    8    0    1
 -2       517       516       649      2337      2753      2754
 -1      1162    8    0    1
 -2       516       648       649      2751      2755      2753
 -1      1163    8    0    1
 -2       518       517       650      2340      2756      2757
 -1      1164    8    0    1
 -2       517       649       650      2754      2758      2756
 -1      1165    8    0    1
 -2       519       518       651      2343      2759      2760
 -1      1166    8    0    1
 -2       518       650       651      2757      2761      2759
 -1      1167    8    0    1
 -2       520       519       652      2346      2762      2763
 -1      1168    8    0    1
 -2       519       651       652      2760      2764      2762
 -1      1169    8    0    1
 -2       521       520       653      2349      2765      2766
 -1      1170    8    0    1
 -2       520       652       653      2763      2767      2765
 -1      1171    8    0    1
 -2       522       521       654      2352      2768      2769
 -1      1172    8    0    1
 -2       521       653       654      2766      2770      2768
 -1      1173    8    0    1
 -2       524       525       609      2359      2771      2772
 -1      1174    8    0    1
 -2       527       528       655      2368      2773      2774
 -1      1175    8    0    1
 -2       527       655       611      2774      2775      2640
 -1      1176    8    0    1
 -2       528       529       656      2371      2776      2777
 -1      1177    8    0    1
 -2       528       656       655      2777      2778      2773
 -1      1178    8    0    1
 -2       529       530       657      2374      2779      2780
 -1      1179    8    0    1
 -2       529       657       656      2780      2781      2776
 -1      1180    8    0    1
 -2       530       531       658      2377      2782      2783
 -1      1181    8    0    1
 -2       530       658       657      2783      2784      2779
 -1      1182    8    0    1
 -2       531       532       659      2380      2785      2786
 -1      1183    8    0    1
 -2       531       659       658      2786      2787      2782
 -1      1184    8    0    1
 -2       532       533       660      2383      2788      2789
 -1      1185    8    0    1
 -2       532       660       659      2789      2790      2785
 -1      1186    8    0    1
 -2       533       534       661      2386      2791      2792
 -1      1187    8    0    1
 -2       533       661       660      2792      2793      2788
 -1      1188    8    0    1
 -2       534       535       662      2389      2794      2795
 -1      1189    8    0    1
 -2       534       662       661      2795      2796      2791
 -1      1190    8    0    1
 -2       535       536       663      2392      2797      2798
 -1      1191    8    0    1
 -2       535       663       662      2798      2799      2794
 -1      1192    8    0    1
 -2       536       537       664      2395      2800      2801
 -1      1193    8    0    1
 -2       536       664       663      2801      2802      2797
 -1      1194    8    0    1
 -2       537       538       665      2398      2803      2804
 -1      1195    8    0    1
 -2       537       665       664      2804      2805      2800
 -1      1196    8    0    1
 -2       538       539       666      2401      2806      2807
 -1      1197    8    0    1
 -2       538       666       665      2807      2808      2803
 -1      1198    8    0    1
 -2       539       540       667      2404      2809      2810
 -1      1199    8    0    1
 -2       539       667       666      2810      2811      2806
 -1      1200    8    0    1
 -2       540       541       668      2407      2812      2813
 -1      1201    8    0    1
 -2       540       668       667      2813      2814      2809
 -1      1202    8    0    1
 -2       541       542       669      2410      2815      2816
 -1      1203    8    0    1
 -2       541       669       668      2816      2817      2812
 -1      1204    8    0    1
 -2       542       543       670      2413      2818      2819
 -1      1205    8    0    1
 -2       542       670       669      2819      2820      2815
 -1      1206    8    0    1
 -2       543       544       671      2416      2821      2822
 -1      1207    8    0    1
 -2       543       671       670      2822      2823      2818
 -1      1208    8    0    1
 -2       544       545       672      2419      2824      2825
 -1      1209    8    0    1
 -2       544       672       671      2825      2826      2821
 -1      1210    8    0    1
 -2       545       546       673      2422      2827      2828
 -1      1211    8    0    1
 -2       545       673       672      2828      2829      2824
 -1      1212    8    0    1
 -2       546       547       674      2425      2830      2831
 -1      1213    8    0    1
 -2       546       674       673      2831      2832      2827
 -1      1214    8    0    1
 -2       547       548       675      2428      2833      2834
 -1      1215    8    0    1
 -2       547       675       674      2834      2835      2830
 -1      1216    8    0    1
 -2       548       549       676      2431      2836      2837
 -1      1217    8    0    1
 -2       548       676       675      2837      2838      2833
 -1      1218    8    0    1
 -2       549       550       677      2434      2839      2840
 -1      1219    8    0    1
 -2       549       677       676      2840      2841      2836
 -1      1220    8    0    1
 -2       550       551       678      2437      2842      2843
 -1      1221    8    0    1
 -2       550       678       677      2843      2844      2839
 -1      1222    8    0    1
 -2       551       552       679      2440      2845      2846
 -1      1223    8    0    1
 -2       551       679       678      2846      2847      2842
 -1      1224    8    0    1
 -2       552       553       680      2443      2848      2849
 -1      1225    8    0    1
 -2       552       680       679      2849      2850      2845
 -1      1226    8    0    1
 -2       553       554       681      2446      2851      2852
 -1      1227    8    0    1
 -2       553       681       680      2852      2853      2848
 -1      1228    8    0    1
 -2       554       555       682      2449      2854      2855
 -1      1229    8    0    1
 -2       554       682       681      2855      2856      2851
 -1      1230    8    0    1
 -2       555       556       683      2452      2857      2858
 -1      1231    8    0    1
 -2       555       683       682      2858      2859      2854
 -1      1232    8    0    1
 -2       556       557       684      2455      2860      2861
 -1      1233    8    0    1
 -2       556       684       683      2861      2862      2857
 -1      1234    8    0    1
 -2       557       558       685      2458      2863      2864
 -1      1235    8    0    1
 -2       557       685       684      2864      2865      2860
 -1      1236    8    0    1
 -2       558       559       686      2461      2866      2867
 -1      1237    8    0    1
 -2       558       686       685      2867      2868      2863
 -1      1238    8    0    1
 -2       559       560       687      2464      2869      2870
 -1      1239    8    0    1
 -2       559       687       686      2870      2871      2866
 -1      1240    8    0    1
 -2       560       561       688      2467      2872      2873
 -1      1241    8    0    1
 -2       560       688       687      2873      2874      2869
 -1      1242    8    0    1
 -2       561       562       689      2470      2875      2876
 -1      1243    8    0    1
 -2       561       689       688      2876      2877      2872
 -1      1244    8    0    1
 -2       562       563       690      2473      2878      2879
 -1      1245    8    0    1
 -2       562       690       689      2879      2880      2875
 -1      1246    8    0    1
 -2       563       564       691      2476      2881      2882
 -1      1247    8    0    1
 -2       563       691       690      2882      2883      2878
 -1      1248    8    0    1
 -2       564       565       692      2479      2884      2885
 -1      1249    8    0    1
 -2       691       564       692      2881      2885      2886
 -1      1250    8    0    1
 -2       565       568       692      2631      2887      2884
 -1      1251    8    0    1
 -2       570       571       693      2497      2888      2889
 -1      1252    8    0    1
 -2       603       522       694      2632      2890      2891
 -1      1253    8    0    1
 -2       576       603       694      2604      2891      2892
 -1      1254    8    0    1
 -2       522       654       694      2769      2893      2890
 -1      1255    8    0    1
 -2       566       567       695      2485      2894      2895
 -1      1256    8    0    1
 -2       571       572       696      2500      2896      2897
 -1      1257    8    0    1
 -2       571       696       693      2897      2898      2888
 -1      1258    8    0    1
 -2       567       570       697      2494      2899      2900
 -1      1259    8    0    1
 -2       695       567       697      2894      2900      2901
 -1      1260    8    0    1
 -2       570       693       697      2889      2902      2899
 -1      1261    8    0    1
 -2       581       580       698      2526      2903      2904
 -1      1262    8    0    1
 -2       572       573       699      2503      2905      2906
 -1      1263    8    0    1
 -2       572       699       696      2906      2907      2896
 -1      1264    8    0    1
 -2       573       574       700      2506      2908      2909
 -1      1265    8    0    1
 -2       573       700       699      2909      2910      2905
 -1      1266    8    0    1
 -2       574       575       701      2509      2911      2912
 -1      1267    8    0    1
 -2       574       701       700      2912      2913      2908
 -1      1268    8    0    1
 -2       575       576       694      2512      2892      2914
 -1      1269    8    0    1
 -2       586       579       702      2599      2915      2916
 -1      1270    8    0    1
 -2       523       581       703      2598      2917      2918
 -1      1271    8    0    1
 -2       599       582       704      2612      2919      2920
 -1      1272    8    0    1
 -2       590       587       705      2615      2921      2922
 -1      1273    8    0    1
 -2       592       595       706      2567      2923      2924
 -1      1274    8    0    1
 -2       584       475       610      2533      2638      2925
 -1      1275    8    0    1
 -2       585       584       707      2536      2926      2927
 -1      1276    8    0    1
 -2       591       585       707      2636      2927      2928
 -1      1277    8    0    1
 -2       584       610       707      2925      2929      2926
 -1      1278    8    0    1
 -2       478       479       708      2223      2930      2931
 -1      1279    8    0    1
 -2       478       708       610      2931      2932      2639
 -1      1280    8    0    1
 -2       588       590       709      2616      2933      2934
 -1      1281    8    0    1
 -2       598       599       710      2617      2935      2936
 -1      1282    8    0    1
 -2       473       588       711      2626      2937      2938
 -1      1283    8    0    1
 -2       595       596       712      2627      2939      2940
 -1      1284    8    0    1
 -2       480       477       713      2226      2941      2942
 -1      1285    8    0    1
 -2       480       713       613      2942      2943      2646
 -1      1286    8    0    1
 -2       597       598       714      2574      2944      2945
 -1      1287    8    0    1
 -2       477       600       715      2579      2946      2947
 -1      1288    8    0    1
 -2       713       477       715      2941      2947      2948
 -1      1289    8    0    1
 -2       600       606       715      2621      2949      2946
 -1      1290    8    0    1
 -2       582       577       716      2597      2950      2951
 -1      1291    8    0    1
 -2       609       473       711      2634      2938      2952
 -1      1292    8    0    1
 -2       708       479       717      2930      2953      2954
 -1      1293    8    0    1
 -2       479       578       717      2518      2955      2953
 -1      1294    8    0    1
 -2       594       607       718      2625      2956      2957
 -1      1295    8    0    1
 -2       457       470       456      2589      2557      2192
 -1      1296    8    0    1
 -2       588       709       711      2934      2958      2937
 -1      1297    8    0    1
 -2       524       609       711      2772      2952      2959
 -1      1298    8    0    1
 -2       471       602       719      2595      2960      2961
 -1      1299    8    0    1
 -2       471       719       604      2961      2962      2608
 -1      1300    8    0    1
 -2       569       566       720      2491      2963      2964
 -1      1301    8    0    1
 -2       566       695       720      2895      2965      2963
 -1      1302    8    0    1
 -2       597       714       608      2945      2966      2630
 -1      1303    8    0    1
 -2       577       604       721      2607      2967      2968
 -1      1304    8    0    1
 -2       577       721       716      2968      2969      2950
 -1      1305    8    0    1
 -2       586       702       605      2916      2970      2611
 -1      1306    8    0    1
 -2       568       569       722      2490      2971      2972
 -1      1307    8    0    1
 -2       692       568       722      2887      2972      2973
 -1      1308    8    0    1
 -2       569       720       722      2964      2974      2971
 -1      1309    8    0    1
 -2       575       694       723      2914      2975      2976
 -1      1310    8    0    1
 -2       701       575       723      2911      2976      2977
 -1      1311    8    0    1
 -2       694       654       723      2893      2978      2975
 -1      1312    8    0    1
 -2       703       581       698      2917      2904      2979
 -1      1313    8    0    1
 -2       702       579       609      2915      2635      2980
 -1      1314    8    0    1
 -2       523       703       602      2918      2981      2596
 -1      1315    8    0    1
 -2       599       704       710      2920      2982      2935
 -1      1316    8    0    1
 -2       607       592       706      2623      2924      2983
 -1      1317    8    0    1
 -2       590       705       709      2922      2984      2933
 -1      1318    8    0    1
 -2       698       580       724      2903      2985      2986
 -1      1319    8    0    1
 -2       580       605       724      2610      2987      2985
 -1      1320    8    0    1
 -2       706       595       712      2923      2940      2988
 -1      1321    8    0    1
 -2       598       710       714      2936      2989      2944
 -1      1322    8    0    1
 -2       705       587       707      2921      2990      2991
 -1      1323    8    0    1
 -2       582       716       704      2951      2992      2919
 -1      1324    8    0    1
 -2       593       594       725      2564      2993      2994
 -1      1325    8    0    1
 -2       725       594       718      2993      2957      2995
 -1      1326    8    0    1
 -2       718       607       726      2956      2996      2997
 -1      1327    8    0    1
 -2       655       656       727      2778      2998      2999
 -1      1328    8    0    1
 -2       601       593       725      2642      2994      3000
 -1      1329    8    0    1
 -2       612       611       724      2645      3001      3002
 -1      1330    8    0    1
 -2       608       714       728      2966      3003      3004
 -1      1331    8    0    1
 -2       615       614       712      2653      3005      3006
 -1      1332    8    0    1
 -2       616       615       728      2656      3007      3008
 -1      1333    8    0    1
 -2       617       616       729      2659      3009      3010
 -1      1334    8    0    1
 -2       616       728       729      3008      3011      3009
 -1      1335    8    0    1
 -2       618       617       730      2662      3012      3013
 -1      1336    8    0    1
 -2       617       729       730      3010      3014      3012
 -1      1337    8    0    1
 -2       619       618       731      2665      3015      3016
 -1      1338    8    0    1
 -2       618       730       731      3013      3017      3015
 -1      1339    8    0    1
 -2       620       619       732      2668      3018      3019
 -1      1340    8    0    1
 -2       619       731       732      3016      3020      3018
 -1      1341    8    0    1
 -2       621       620       733      2671      3021      3022
 -1      1342    8    0    1
 -2       620       732       733      3019      3023      3021
 -1      1343    8    0    1
 -2       622       621       734      2674      3024      3025
 -1      1344    8    0    1
 -2       621       733       734      3022      3026      3024
 -1      1345    8    0    1
 -2       623       622       735      2677      3027      3028
 -1      1346    8    0    1
 -2       622       734       735      3025      3029      3027
 -1      1347    8    0    1
 -2       624       623       736      2680      3030      3031
 -1      1348    8    0    1
 -2       623       735       736      3028      3032      3030
 -1      1349    8    0    1
 -2       625       624       737      2683      3033      3034
 -1      1350    8    0    1
 -2       624       736       737      3031      3035      3033
 -1      1351    8    0    1
 -2       626       625       738      2686      3036      3037
 -1      1352    8    0    1
 -2       625       737       738      3034      3038      3036
 -1      1353    8    0    1
 -2       627       626       739      2689      3039      3040
 -1      1354    8    0    1
 -2       626       738       739      3037      3041      3039
 -1      1355    8    0    1
 -2       628       627       740      2692      3042      3043
 -1      1356    8    0    1
 -2       627       739       740      3040      3044      3042
 -1      1357    8    0    1
 -2       629       628       741      2695      3045      3046
 -1      1358    8    0    1
 -2       628       740       741      3043      3047      3045
 -1      1359    8    0    1
 -2       630       629       742      2698      3048      3049
 -1      1360    8    0    1
 -2       629       741       742      3046      3050      3048
 -1      1361    8    0    1
 -2       631       630       743      2701      3051      3052
 -1      1362    8    0    1
 -2       630       742       743      3049      3053      3051
 -1      1363    8    0    1
 -2       632       631       744      2704      3054      3055
 -1      1364    8    0    1
 -2       631       743       744      3052      3056      3054
 -1      1365    8    0    1
 -2       633       632       745      2707      3057      3058
 -1      1366    8    0    1
 -2       632       744       745      3055      3059      3057
 -1      1367    8    0    1
 -2       634       633       746      2710      3060      3061
 -1      1368    8    0    1
 -2       633       745       746      3058      3062      3060
 -1      1369    8    0    1
 -2       635       634       747      2713      3063      3064
 -1      1370    8    0    1
 -2       634       746       747      3061      3065      3063
 -1      1371    8    0    1
 -2       636       635       748      2716      3066      3067
 -1      1372    8    0    1
 -2       635       747       748      3064      3068      3066
 -1      1373    8    0    1
 -2       637       636       749      2719      3069      3070
 -1      1374    8    0    1
 -2       636       748       749      3067      3071      3069
 -1      1375    8    0    1
 -2       638       637       750      2722      3072      3073
 -1      1376    8    0    1
 -2       637       749       750      3070      3074      3072
 -1      1377    8    0    1
 -2       639       638       751      2725      3075      3076
 -1      1378    8    0    1
 -2       638       750       751      3073      3077      3075
 -1      1379    8    0    1
 -2       640       639       752      2728      3078      3079
 -1      1380    8    0    1
 -2       639       751       752      3076      3080      3078
 -1      1381    8    0    1
 -2       641       640       753      2731      3081      3082
 -1      1382    8    0    1
 -2       640       752       753      3079      3083      3081
 -1      1383    8    0    1
 -2       642       641       754      2734      3084      3085
 -1      1384    8    0    1
 -2       641       753       754      3082      3086      3084
 -1      1385    8    0    1
 -2       643       642       755      2737      3087      3088
 -1      1386    8    0    1
 -2       642       754       755      3085      3089      3087
 -1      1387    8    0    1
 -2       644       643       756      2740      3090      3091
 -1      1388    8    0    1
 -2       643       755       756      3088      3092      3090
 -1      1389    8    0    1
 -2       645       644       757      2743      3093      3094
 -1      1390    8    0    1
 -2       644       756       757      3091      3095      3093
 -1      1391    8    0    1
 -2       646       645       758      2746      3096      3097
 -1      1392    8    0    1
 -2       645       757       758      3094      3098      3096
 -1      1393    8    0    1
 -2       647       646       759      2749      3099      3100
 -1      1394    8    0    1
 -2       646       758       759      3097      3101      3099
 -1      1395    8    0    1
 -2       648       647       760      2752      3102      3103
 -1      1396    8    0    1
 -2       647       759       760      3100      3104      3102
 -1      1397    8    0    1
 -2       649       648       761      2755      3105      3106
 -1      1398    8    0    1
 -2       648       760       761      3103      3107      3105
 -1      1399    8    0    1
 -2       650       649       762      2758      3108      3109
 -1      1400    8    0    1
 -2       649       761       762      3106      3110      3108
 -1      1401    8    0    1
 -2       651       650       763      2761      3111      3112
 -1      1402    8    0    1
 -2       650       762       763      3109      3113      3111
 -1      1403    8    0    1
 -2       652       651       764      2764      3114      3115
 -1      1404    8    0    1
 -2       651       763       764      3112      3116      3114
 -1      1405    8    0    1
 -2       653       652       765      2767      3117      3118
 -1      1406    8    0    1
 -2       652       764       765      3115      3119      3117
 -1      1407    8    0    1
 -2       654       653       766      2770      3120      3121
 -1      1408    8    0    1
 -2       723       654       766      2978      3121      3122
 -1      1409    8    0    1
 -2       653       765       766      3118      3123      3120
 -1      1410    8    0    1
 -2       609       525       612      2771      2644      3124
 -1      1411    8    0    1
 -2       611       655       767      2775      3125      3126
 -1      1412    8    0    1
 -2       724       611       767      3001      3126      3127
 -1      1413    8    0    1
 -2       655       727       767      2999      3128      3125
 -1      1414    8    0    1
 -2       657       658       768      2784      3129      3130
 -1      1415    8    0    1
 -2       658       659       769      2787      3131      3132
 -1      1416    8    0    1
 -2       658       769       768      3132      3133      3129
 -1      1417    8    0    1
 -2       659       660       770      2790      3134      3135
 -1      1418    8    0    1
 -2       659       770       769      3135      3136      3131
 -1      1419    8    0    1
 -2       660       661       771      2793      3137      3138
 -1      1420    8    0    1
 -2       660       771       770      3138      3139      3134
 -1      1421    8    0    1
 -2       661       662       772      2796      3140      3141
 -1      1422    8    0    1
 -2       661       772       771      3141      3142      3137
 -1      1423    8    0    1
 -2       662       663       773      2799      3143      3144
 -1      1424    8    0    1
 -2       662       773       772      3144      3145      3140
 -1      1425    8    0    1
 -2       663       664       774      2802      3146      3147
 -1      1426    8    0    1
 -2       663       774       773      3147      3148      3143
 -1      1427    8    0    1
 -2       664       665       775      2805      3149      3150
 -1      1428    8    0    1
 -2       664       775       774      3150      3151      3146
 -1      1429    8    0    1
 -2       665       666       776      2808      3152      3153
 -1      1430    8    0    1
 -2       665       776       775      3153      3154      3149
 -1      1431    8    0    1
 -2       666       667       777      2811      3155      3156
 -1      1432    8    0    1
 -2       666       777       776      3156      3157      3152
 -1      1433    8    0    1
 -2       667       668       778      2814      3158      3159
 -1      1434    8    0    1
 -2       667       778       777      3159      3160      3155
 -1      1435    8    0    1
 -2       668       669       779      2817      3161      3162
 -1      1436    8    0    1
 -2       668       779       778      3162      3163      3158
 -1      1437    8    0    1
 -2       669       670       780      2820      3164      3165
 -1      1438    8    0    1
 -2       669       780       779      3165      3166      3161
 -1      1439    8    0    1
 -2       670       671       781      2823      3167      3168
 -1      1440    8    0    1
 -2       670       781       780      3168      3169      3164
 -1      1441    8    0    1
 -2       671       672       782      2826      3170      3171
 -1      1442    8    0    1
 -2       671       782       781      3171      3172      3167
 -1      1443    8    0    1
 -2       672       673       783      2829      3173      3174
 -1      1444    8    0    1
 -2       672       783       782      3174      3175      3170
 -1      1445    8    0    1
 -2       673       674       784      2832      3176      3177
 -1      1446    8    0    1
 -2       673       784       783      3177      3178      3173
 -1      1447    8    0    1
 -2       674       675       785      2835      3179      3180
 -1      1448    8    0    1
 -2       674       785       784      3180      3181      3176
 -1      1449    8    0    1
 -2       675       676       786      2838      3182      3183
 -1      1450    8    0    1
 -2       675       786       785      3183      3184      3179
 -1      1451    8    0    1
 -2       676       677       787      2841      3185      3186
 -1      1452    8    0    1
 -2       676       787       786      3186      3187      3182
 -1      1453    8    0    1
 -2       677       678       788      2844      3188      3189
 -1      1454    8    0    1
 -2       677       788       787      3189      3190      3185
 -1      1455    8    0    1
 -2       678       679       789      2847      3191      3192
 -1      1456    8    0    1
 -2       678       789       788      3192      3193      3188
 -1      1457    8    0    1
 -2       679       680       790      2850      3194      3195
 -1      1458    8    0    1
 -2       679       790       789      3195      3196      3191
 -1      1459    8    0    1
 -2       680       681       791      2853      3197      3198
 -1      1460    8    0    1
 -2       680       791       790      3198      3199      3194
 -1      1461    8    0    1
 -2       681       682       792      2856      3200      3201
 -1      1462    8    0    1
 -2       681       792       791      3201      3202      3197
 -1      1463    8    0    1
 -2       682       683       793      2859      3203      3204
 -1      1464    8    0    1
 -2       682       793       792      3204      3205      3200
 -1      1465    8    0    1
 -2       683       684       794      2862      3206      3207
 -1      1466    8    0    1
 -2       683       794       793      3207      3208      3203
 -1      1467    8    0    1
 -2       684       685       795      2865      3209      3210
 -1      1468    8    0    1
 -2       684       795       794      3210      3211      3206
 -1      1469    8    0    1
 -2       685       686       796      2868      3212      3213
 -1      1470    8    0    1
 -2       685       796       795      3213      3214      3209
 -1      1471    8    0    1
 -2       686       687       797      2871      3215      3216
 -1      1472    8    0    1
 -2       686       797       796      3216      3217      3212
 -1      1473    8    0    1
 -2       687       688       798      2874      3218      3219
 -1      1474    8    0    1
 -2       687       798       797      3219      3220      3215
 -1      1475    8    0    1
 -2       688       689       799      2877      3221      3222
 -1      1476    8    0    1
 -2       688       799       798      3222      3223      3218
 -1      1477    8    0    1
 -2       689       690       800      2880      3224      3225
 -1      1478    8    0    1
 -2       689       800       799      3225      3226      3221
 -1      1479    8    0    1
 -2       690       691       801      2883      3227      3228
 -1      1480    8    0    1
 -2       690       801       800      3228      3229      3224
 -1      1481    8    0    1
 -2       691       692       802      2886      3230      3231
 -1      1482    8    0    1
 -2       801       691       802      3227      3231      3232
 -1      1483    8    0    1
 -2       692       722       802      2973      3233      3230
 -1      1484    8    0    1
 -2       703       698       803      2979      3234      3235
 -1      1485    8    0    1
 -2       656       657       804      2781      3236      3237
 -1      1486    8    0    1
 -2       727       656       804      2998      3237      3238
 -1      1487    8    0    1
 -2       657       768       804      3130      3239      3236
 -1      1488    8    0    1
 -2       699       700       805      2910      3240      3241
 -1      1489    8    0    1
 -2       693       696       806      2898      3242      3243
 -1      1490    8    0    1
 -2       700       701       807      2913      3244      3245
 -1      1491    8    0    1
 -2       700       807       805      3245      3246      3240
 -1      1492    8    0    1
 -2       696       699       808      2907      3247      3248
 -1      1493    8    0    1
 -2       806       696       808      3242      3248      3249
 -1      1494    8    0    1
 -2       699       805       808      3241      3250      3247
 -1      1495    8    0    1
 -2       614       613       706      2650      3251      3252
 -1      1496    8    0    1
 -2       578       524       711      2519      2959      3253
 -1      1497    8    0    1
 -2       712       614       706      3005      3252      2988
 -1      1498    8    0    1
 -2       610       708       709      2932      3254      3255
 -1      1499    8    0    1
 -2       607       706       613      2983      3251      3256
 -1      1500    8    0    1
 -2       606       601       725      2622      3000      3257
 -1      1501    8    0    1
 -2       704       716       809      2992      3258      3259
 -1      1502    8    0    1
 -2       602       703       810      2981      3260      3261
 -1      1503    8    0    1
 -2       587       591       707      2553      2928      2990
 -1      1504    8    0    1
 -2       710       704       811      2982      3262      3263
 -1      1505    8    0    1
 -2       714       710       812      2989      3264      3265
 -1      1506    8    0    1
 -2       711       709       708      2958      3254      3266
 -1      1507    8    0    1
 -2       596       608       813      2629      3267      3268
 -1      1508    8    0    1
 -2       712       596       813      2939      3268      3269
 -1      1509    8    0    1
 -2       813       608       728      3267      3004      3270
 -1      1510    8    0    1
 -2       704       809       811      3259      3271      3262
 -1      1511    8    0    1
 -2       719       602       810      2960      3261      3272
 -1      1512    8    0    1
 -2       720       695       814      2965      3273      3274
 -1      1513    8    0    1
 -2       721       604       815      2967      3275      3276
 -1      1514    8    0    1
 -2       604       719       815      2962      3277      3275
 -1      1515    8    0    1
 -2       803       698       724      3234      2986      3278
 -1      1516    8    0    1
 -2       695       697       816      2901      3279      3280
 -1      1517    8    0    1
 -2       695       816       814      3280      3281      3273
 -1      1518    8    0    1
 -2       606       725       715      3257      3282      2949
 -1      1519    8    0    1
 -2       697       693       817      2902      3283      3284
 -1      1520    8    0    1
 -2       816       697       817      3279      3284      3285
 -1      1521    8    0    1
 -2       693       806       817      3243      3286      3283
 -1      1522    8    0    1
 -2       701       723       818      2977      3287      3288
 -1      1523    8    0    1
 -2       807       701       818      3244      3288      3289
 -1      1524    8    0    1
 -2       723       766       818      3122      3290      3287
 -1      1525    8    0    1
 -2       703       803       819      3235      3291      3292
 -1      1526    8    0    1
 -2       703       819       810      3292      3293      3260
 -1      1527    8    0    1
 -2       607       613       726      3256      3294      2996
 -1      1528    8    0    1
 -2       728       714       729      3003      3295      3011
 -1      1529    8    0    1
 -2       809       716       820      3258      3296      3297
 -1      1530    8    0    1
 -2       716       721       820      2969      3298      3296
 -1      1531    8    0    1
 -2       710       811       812      3263      3299      3264
 -1      1532    8    0    1
 -2       714       812       729      3265      3300      3295
 -1      1533    8    0    1
 -2       613       713       726      2943      3301      3294
 -1      1534    8    0    1
 -2       713       715       726      2948      3302      3301
 -1      1535    8    0    1
 -2       769       770       821      3136      3303      3304
 -1      1536    8    0    1
 -2       811       809       822      3271      3305      3306
 -1      1537    8    0    1
 -2       609       612       702      3124      3307      2980
 -1      1538    8    0    1
 -2       730       729       812      3014      3300      3308
 -1      1539    8    0    1
 -2       731       730       823      3017      3309      3310
 -1      1540    8    0    1
 -2       732       731       824      3020      3311      3312
 -1      1541    8    0    1
 -2       731       823       824      3310      3313      3311
 -1      1542    8    0    1
 -2       733       732       825      3023      3314      3315
 -1      1543    8    0    1
 -2       732       824       825      3312      3316      3314
 -1      1544    8    0    1
 -2       734       733       826      3026      3317      3318
 -1      1545    8    0    1
 -2       733       825       826      3315      3319      3317
 -1      1546    8    0    1
 -2       735       734       827      3029      3320      3321
 -1      1547    8    0    1
 -2       734       826       827      3318      3322      3320
 -1      1548    8    0    1
 -2       736       735       828      3032      3323      3324
 -1      1549    8    0    1
 -2       735       827       828      3321      3325      3323
 -1      1550    8    0    1
 -2       737       736       829      3035      3326      3327
 -1      1551    8    0    1
 -2       736       828       829      3324      3328      3326
 -1      1552    8    0    1
 -2       738       737       830      3038      3329      3330
 -1      1553    8    0    1
 -2       737       829       830      3327      3331      3329
 -1      1554    8    0    1
 -2       739       738       831      3041      3332      3333
 -1      1555    8    0    1
 -2       738       830       831      3330      3334      3332
 -1      1556    8    0    1
 -2       740       739       832      3044      3335      3336
 -1      1557    8    0    1
 -2       739       831       832      3333      3337      3335
 -1      1558    8    0    1
 -2       741       740       833      3047      3338      3339
 -1      1559    8    0    1
 -2       740       832       833      3336      3340      3338
 -1      1560    8    0    1
 -2       742       741       834      3050      3341      3342
 -1      1561    8    0    1
 -2       741       833       834      3339      3343      3341
 -1      1562    8    0    1
 -2       743       742       835      3053      3344      3345
 -1      1563    8    0    1
 -2       742       834       835      3342      3346      3344
 -1      1564    8    0    1
 -2       744       743       836      3056      3347      3348
 -1      1565    8    0    1
 -2       743       835       836      3345      3349      3347
 -1      1566    8    0    1
 -2       745       744       837      3059      3350      3351
 -1      1567    8    0    1
 -2       744       836       837      3348      3352      3350
 -1      1568    8    0    1
 -2       746       745       838      3062      3353      3354
 -1      1569    8    0    1
 -2       745       837       838      3351      3355      3353
 -1      1570    8    0    1
 -2       747       746       839      3065      3356      3357
 -1      1571    8    0    1
 -2       746       838       839      3354      3358      3356
 -1      1572    8    0    1
 -2       748       747       840      3068      3359      3360
 -1      1573    8    0    1
 -2       747       839       840      3357      3361      3359
 -1      1574    8    0    1
 -2       749       748       841      3071      3362      3363
 -1      1575    8    0    1
 -2       748       840       841      3360      3364      3362
 -1      1576    8    0    1
 -2       750       749       842      3074      3365      3366
 -1      1577    8    0    1
 -2       749       841       842      3363      3367      3365
 -1      1578    8    0    1
 -2       751       750       843      3077      3368      3369
 -1      1579    8    0    1
 -2       750       842       843      3366      3370      3368
 -1      1580    8    0    1
 -2       752       751       844      3080      3371      3372
 -1      1581    8    0    1
 -2       751       843       844      3369      3373      3371
 -1      1582    8    0    1
 -2       753       752       845      3083      3374      3375
 -1      1583    8    0    1
 -2       752       844       845      3372      3376      3374
 -1      1584    8    0    1
 -2       754       753       846      3086      3377      3378
 -1      1585    8    0    1
 -2       753       845       846      3375      3379      3377
 -1      1586    8    0    1
 -2       755       754       847      3089      3380      3381
 -1      1587    8    0    1
 -2       754       846       847      3378      3382      3380
 -1      1588    8    0    1
 -2       756       755       848      3092      3383      3384
 -1      1589    8    0    1
 -2       755       847       848      3381      3385      3383
 -1      1590    8    0    1
 -2       757       756       849      3095      3386      3387
 -1      1591    8    0    1
 -2       756       848       849      3384      3388      3386
 -1      1592    8    0    1
 -2       758       757       850      3098      3389      3390
 -1      1593    8    0    1
 -2       757       849       850      3387      3391      3389
 -1      1594    8    0    1
 -2       759       758       851      3101      3392      3393
 -1      1595    8    0    1
 -2       758       850       851      3390      3394      3392
 -1      1596    8    0    1
 -2       760       759       852      3104      3395      3396
 -1      1597    8    0    1
 -2       759       851       852      3393      3397      3395
 -1      1598    8    0    1
 -2       761       760       853      3107      3398      3399
 -1      1599    8    0    1
 -2       760       852       853      3396      3400      3398
 -1      1600    8    0    1
 -2       762       761       854      3110      3401      3402
 -1      1601    8    0    1
 -2       761       853       854      3399      3403      3401
 -1      1602    8    0    1
 -2       763       762       855      3113      3404      3405
 -1      1603    8    0    1
 -2       762       854       855      3402      3406      3404
 -1      1604    8    0    1
 -2       764       763       856      3116      3407      3408
 -1      1605    8    0    1
 -2       763       855       856      3405      3409      3407
 -1      1606    8    0    1
 -2       765       764       857      3119      3410      3411
 -1      1607    8    0    1
 -2       764       856       857      3408      3412      3410
 -1      1608    8    0    1
 -2       770       771       858      3139      3413      3414
 -1      1609    8    0    1
 -2       770       858       821      3414      3415      3303
 -1      1610    8    0    1
 -2       768       769       859      3133      3416      3417
 -1      1611    8    0    1
 -2       769       821       859      3304      3418      3416
 -1      1612    8    0    1
 -2       771       772       860      3142      3419      3420
 -1      1613    8    0    1
 -2       771       860       858      3420      3421      3413
 -1      1614    8    0    1
 -2       772       773       861      3145      3422      3423
 -1      1615    8    0    1
 -2       772       861       860      3423      3424      3419
 -1      1616    8    0    1
 -2       773       774       862      3148      3425      3426
 -1      1617    8    0    1
 -2       773       862       861      3426      3427      3422
 -1      1618    8    0    1
 -2       774       775       863      3151      3428      3429
 -1      1619    8    0    1
 -2       774       863       862      3429      3430      3425
 -1      1620    8    0    1
 -2       775       776       864      3154      3431      3432
 -1      1621    8    0    1
 -2       775       864       863      3432      3433      3428
 -1      1622    8    0    1
 -2       776       777       865      3157      3434      3435
 -1      1623    8    0    1
 -2       776       865       864      3435      3436      3431
 -1      1624    8    0    1
 -2       777       778       866      3160      3437      3438
 -1      1625    8    0    1
 -2       777       866       865      3438      3439      3434
 -1      1626    8    0    1
 -2       778       779       867      3163      3440      3441
 -1      1627    8    0    1
 -2       778       867       866      3441      3442      3437
 -1      1628    8    0    1
 -2       779       780       868      3166      3443      3444
 -1      1629    8    0    1
 -2       779       868       867      3444      3445      3440
 -1      1630    8    0    1
 -2       780       781       869      3169      3446      3447
 -1      1631    8    0    1
 -2       780       869       868      3447      3448      3443
 -1      1632    8    0    1
 -2       781       782       870      3172      3449      3450
 -1      1633    8    0    1
 -2       781       870       869      3450      3451      3446
 -1      1634    8    0    1
 -2       782       783       871      3175      3452      3453
 -1      1635    8    0    1
 -2       782       871       870      3453      3454      3449
 -1      1636    8    0    1
 -2       783       784       872      3178      3455      3456
 -1      1637    8    0    1
 -2       783       872       871      3456      3457      3452
 -1      1638    8    0    1
 -2       784       785       873      3181      3458      3459
 -1      1639    8    0    1
 -2       784       873       872      3459      3460      3455
 -1      1640    8    0    1
 -2       785       786       874      3184      3461      3462
 -1      1641    8    0    1
 -2       785       874       873      3462      3463      3458
 -1      1642    8    0    1
 -2       786       787       875      3187      3464      3465
 -1      1643    8    0    1
 -2       786       875       874      3465      3466      3461
 -1      1644    8    0    1
 -2       787       788       876      3190      3467      3468
 -1      1645    8    0    1
 -2       787       876       875      3468      3469      3464
 -1      1646    8    0    1
 -2       788       789       877      3193      3470      3471
 -1      1647    8    0    1
 -2       788       877       876      3471      3472      3467
 -1      1648    8    0    1
 -2       789       790       878      3196      3473      3474
 -1      1649    8    0    1
 -2       789       878       877      3474      3475      3470
 -1      1650    8    0    1
 -2       790       791       879      3199      3476      3477
 -1      1651    8    0    1
 -2       790       879       878      3477      3478      3473
 -1      1652    8    0    1
 -2       791       792       880      3202      3479      3480
 -1      1653    8    0    1
 -2       791       880       879      3480      3481      3476
 -1      1654    8    0    1
 -2       792       793       881      3205      3482      3483
 -1      1655    8    0    1
 -2       792       881       880      3483      3484      3479
 -1      1656    8    0    1
 -2       793       794       882      3208      3485      3486
 -1      1657    8    0    1
 -2       793       882       881      3486      3487      3482
 -1      1658    8    0    1
 -2       794       795       883      3211      3488      3489
 -1      1659    8    0    1
 -2       794       883       882      3489      3490      3485
 -1      1660    8    0    1
 -2       795       796       884      3214      3491      3492
 -1      1661    8    0    1
 -2       795       884       883      3492      3493      3488
 -1      1662    8    0    1
 -2       796       797       885      3217      3494      3495
 -1      1663    8    0    1
 -2       796       885       884      3495      3496      3491
 -1      1664    8    0    1
 -2       797       798       886      3220      3497      3498
 -1      1665    8    0    1
 -2       797       886       885      3498      3499      3494
 -1      1666    8    0    1
 -2       798       799       887      3223      3500      3501
 -1      1667    8    0    1
 -2       798       887       886      3501      3502      3497
 -1      1668    8    0    1
 -2       799       800       888      3226      3503      3504
 -1      1669    8    0    1
 -2       799       888       887      3504      3505      3500
 -1      1670    8    0    1
 -2       800       801       889      3229      3506      3507
 -1      1671    8    0    1
 -2       800       889       888      3507      3508      3503
 -1      1672    8    0    1
 -2       722       720       802      2974      3509      3233
 -1      1673    8    0    1
 -2       805       807       890      3246      3510      3511
 -1      1674    8    0    1
 -2       718       726       715      2997      3302      3512
 -1      1675    8    0    1
 -2       719       810       891      3272      3513      3514
 -1      1676    8    0    1
 -2       719       891       815      3514      3515      3277
 -1      1677    8    0    1
 -2       709       705       610      2984      3516      3255
 -1      1678    8    0    1
 -2       605       702       612      2970      3307      3517
 -1      1679    8    0    1
 -2       605       612       724      3517      3002      2987
 -1      1680    8    0    1
 -2       720       814       802      3274      3518      3509
 -1      1681    8    0    1
 -2       812       811       823      3299      3519      3520
 -1      1682    8    0    1
 -2       730       812       823      3308      3520      3309
 -1      1683    8    0    1
 -2       803       724       767      3278      3127      3521
 -1      1684    8    0    1
 -2       610       705       707      3516      2991      2929
 -1      1685    8    0    1
 -2       811       822       823      3306      3522      3519
 -1      1686    8    0    1
 -2       721       815       892      3276      3523      3524
 -1      1687    8    0    1
 -2       721       892       820      3524      3525      3298
 -1      1688    8    0    1
 -2       615       712       813      3006      3269      3526
 -1      1689    8    0    1
 -2       810       819       893      3293      3527      3528
 -1      1690    8    0    1
 -2       810       893       891      3528      3529      3513
 -1      1691    8    0    1
 -2       803       767       894      3521      3530      3531
 -1      1692    8    0    1
 -2       767       727       894      3128      3532      3530
 -1      1693    8    0    1
 -2       766       765       818      3123      3533      3290
 -1      1694    8    0    1
 -2       818       765       857      3533      3411      3534
 -1      1695    8    0    1
 -2       805       890       895      3511      3535      3536
 -1      1696    8    0    1
 -2       805       895       808      3536      3537      3250
 -1      1697    8    0    1
 -2       804       768       896      3239      3538      3539
 -1      1698    8    0    1
 -2       768       859       896      3417      3540      3538
 -1      1699    8    0    1
 -2       819       803       894      3291      3531      3541
 -1      1700    8    0    1
 -2       727       804       894      3238      3542      3532
 -1      1701    8    0    1
 -2       817       806       897      3286      3543      3544
 -1      1702    8    0    1
 -2       809       820       898      3297      3545      3546
 -1      1703    8    0    1
 -2       809       898       822      3546      3547      3305
 -1      1704    8    0    1
 -2       728       615       813      3007      3526      3270
 -1      1705    8    0    1
 -2       814       816       899      3281      3548      3549
 -1      1706    8    0    1
 -2       806       808       900      3249      3550      3551
 -1      1707    8    0    1
 -2       897       806       900      3543      3551      3552
 -1      1708    8    0    1
 -2       808       895       900      3537      3553      3550
 -1      1709    8    0    1
 -2       725       718       715      2995      3512      3282
 -1      1710    8    0    1
 -2       814       899       889      3549      3554      3555
 -1      1711    8    0    1
 -2       814       889       802      3555      3556      3518
 -1      1712    8    0    1
 -2       817       897       901      3544      3557      3558
 -1      1713    8    0    1
 -2       817       901       816      3558      3559      3285
 -1      1714    8    0    1
 -2       824       823       902      3313      3560      3561
 -1      1715    8    0    1
 -2       823       822       902      3522      3562      3560
 -1      1716    8    0    1
 -2       821       858       903      3415      3563      3564
 -1      1717    8    0    1
 -2       825       824       904      3316      3565      3566
 -1      1718    8    0    1
 -2       824       902       904      3561      3567      3565
 -1      1719    8    0    1
 -2       826       825       905      3319      3568      3569
 -1      1720    8    0    1
 -2       825       904       905      3566      3570      3568
 -1      1721    8    0    1
 -2       827       826       906      3322      3571      3572
 -1      1722    8    0    1
 -2       826       905       906      3569      3573      3571
 -1      1723    8    0    1
 -2       828       827       907      3325      3574      3575
 -1      1724    8    0    1
 -2       827       906       907      3572      3576      3574
 -1      1725    8    0    1
 -2       829       828       908      3328      3577      3578
 -1      1726    8    0    1
 -2       828       907       908      3575      3579      3577
 -1      1727    8    0    1
 -2       830       829       909      3331      3580      3581
 -1      1728    8    0    1
 -2       829       908       909      3578      3582      3580
 -1      1729    8    0    1
 -2       831       830       910      3334      3583      3584
 -1      1730    8    0    1
 -2       830       909       910      3581      3585      3583
 -1      1731    8    0    1
 -2       832       831       911      3337      3586      3587
 -1      1732    8    0    1
 -2       831       910       911      3584      3588      3586
 -1      1733    8    0    1
 -2       833       832       912      3340      3589      3590
 -1      1734    8    0    1
 -2       832       911       912      3587      3591      3589
 -1      1735    8    0    1
 -2       834       833       913      3343      3592      3593
 -1      1736    8    0    1
 -2       833       912       913      3590      3594      3592
 -1      1737    8    0    1
 -2       835       834       914      3346      3595      3596
 -1      1738    8    0    1
 -2       834       913       914      3593      3597      3595
 -1      1739    8    0    1
 -2       836       835       915      3349      3598      3599
 -1      1740    8    0    1
 -2       835       914       915      3596      3600      3598
 -1      1741    8    0    1
 -2       837       836       916      3352      3601      3602
 -1      1742    8    0    1
 -2       836       915       916      3599      3603      3601
 -1      1743    8    0    1
 -2       838       837       917      3355      3604      3605
 -1      1744    8    0    1
 -2       837       916       917      3602      3606      3604
 -1      1745    8    0    1
 -2       839       838       918      3358      3607      3608
 -1      1746    8    0    1
 -2       838       917       918      3605      3609      3607
 -1      1747    8    0    1
 -2       840       839       919      3361      3610      3611
 -1      1748    8    0    1
 -2       839       918       919      3608      3612      3610
 -1      1749    8    0    1
 -2       841       840       920      3364      3613      3614
 -1      1750    8    0    1
 -2       840       919       920      3611      3615      3613
 -1      1751    8    0    1
 -2       842       841       921      3367      3616      3617
 -1      1752    8    0    1
 -2       841       920       921      3614      3618      3616
 -1      1753    8    0    1
 -2       843       842       922      3370      3619      3620
 -1      1754    8    0    1
 -2       842       921       922      3617      3621      3619
 -1      1755    8    0    1
 -2       844       843       923      3373      3622      3623
 -1      1756    8    0    1
 -2       843       922       923      3620      3624      3622
 -1      1757    8    0    1
 -2       845       844       924      3376      3625      3626
 -1      1758    8    0    1
 -2       844       923       924      3623      3627      3625
 -1      1759    8    0    1
 -2       846       845       925      3379      3628      3629
 -1      1760    8    0    1
 -2       845       924       925      3626      3630      3628
 -1      1761    8    0    1
 -2       847       846       926      3382      3631      3632
 -1      1762    8    0    1
 -2       846       925       926      3629      3633      3631
 -1      1763    8    0    1
 -2       848       847       927      3385      3634      3635
 -1      1764    8    0    1
 -2       847       926       927      3632      3636      3634
 -1      1765    8    0    1
 -2       849       848       928      3388      3637      3638
 -1      1766    8    0    1
 -2       848       927       928      3635      3639      3637
 -1      1767    8    0    1
 -2       850       849       929      3391      3640      3641
 -1      1768    8    0    1
 -2       849       928       929      3638      3642      3640
 -1      1769    8    0    1
 -2       851       850       930      3394      3643      3644
 -1      1770    8    0    1
 -2       850       929       930      3641      3645      3643
 -1      1771    8    0    1
 -2       852       851       931      3397      3646      3647
 -1      1772    8    0    1
 -2       851       930       931      3644      3648      3646
 -1      1773    8    0    1
 -2       853       852       932      3400      3649      3650
 -1      1774    8    0    1
 -2       852       931       932      3647      3651      3649
 -1      1775    8    0    1
 -2       854       853       933      3403      3652      3653
 -1      1776    8    0    1
 -2       853       932       933      3650      3654      3652
 -1      1777    8    0    1
 -2       855       854       934      3406      3655      3656
 -1      1778    8    0    1
 -2       854       933       934      3653      3657      3655
 -1      1779    8    0    1
 -2       856       855       935      3409      3658      3659
 -1      1780    8    0    1
 -2       855       934       935      3656      3660      3658
 -1      1781    8    0    1
 -2       857       856       935      3412      3659      3661
 -1      1782    8    0    1
 -2       860       861       936      3424      3662      3663
 -1      1783    8    0    1
 -2       859       821       937      3418      3664      3665
 -1      1784    8    0    1
 -2       821       903       937      3564      3666      3664
 -1      1785    8    0    1
 -2       861       862       938      3427      3667      3668
 -1      1786    8    0    1
 -2       861       938       936      3668      3669      3662
 -1      1787    8    0    1
 -2       862       863       939      3430      3670      3671
 -1      1788    8    0    1
 -2       862       939       938      3671      3672      3667
 -1      1789    8    0    1
 -2       863       864       940      3433      3673      3674
 -1      1790    8    0    1
 -2       863       940       939      3674      3675      3670
 -1      1791    8    0    1
 -2       864       865       941      3436      3676      3677
 -1      1792    8    0    1
 -2       864       941       940      3677      3678      3673
 -1      1793    8    0    1
 -2       865       866       942      3439      3679      3680
 -1      1794    8    0    1
 -2       865       942       941      3680      3681      3676
 -1      1795    8    0    1
 -2       866       867       943      3442      3682      3683
 -1      1796    8    0    1
 -2       866       943       942      3683      3684      3679
 -1      1797    8    0    1
 -2       867       868       944      3445      3685      3686
 -1      1798    8    0    1
 -2       867       944       943      3686      3687      3682
 -1      1799    8    0    1
 -2       868       869       945      3448      3688      3689
 -1      1800    8    0    1
 -2       868       945       944      3689      3690      3685
 -1      1801    8    0    1
 -2       869       870       946      3451      3691      3692
 -1      1802    8    0    1
 -2       869       946       945      3692      3693      3688
 -1      1803    8    0    1
 -2       870       871       947      3454      3694      3695
 -1      1804    8    0    1
 -2       870       947       946      3695      3696      3691
 -1      1805    8    0    1
 -2       871       872       948      3457      3697      3698
 -1      1806    8    0    1
 -2       871       948       947      3698      3699      3694
 -1      1807    8    0    1
 -2       872       873       949      3460      3700      3701
 -1      1808    8    0    1
 -2       872       949       948      3701      3702      3697
 -1      1809    8    0    1
 -2       873       874       950      3463      3703      3704
 -1      1810    8    0    1
 -2       873       950       949      3704      3705      3700
 -1      1811    8    0    1
 -2       874       875       951      3466      3706      3707
 -1      1812    8    0    1
 -2       874       951       950      3707      3708      3703
 -1      1813    8    0    1
 -2       875       876       952      3469      3709      3710
 -1      1814    8    0    1
 -2       875       952       951      3710      3711      3706
 -1      1815    8    0    1
 -2       876       877       953      3472      3712      3713
 -1      1816    8    0    1
 -2       876       953       952      3713      3714      3709
 -1      1817    8    0    1
 -2       877       878       954      3475      3715      3716
 -1      1818    8    0    1
 -2       877       954       953      3716      3717      3712
 -1      1819    8    0    1
 -2       878       879       955      3478      3718      3719
 -1      1820    8    0    1
 -2       878       955       954      3719      3720      3715
 -1      1821    8    0    1
 -2       879       880       956      3481      3721      3722
 -1      1822    8    0    1
 -2       879       956       955      3722      3723      3718
 -1      1823    8    0    1
 -2       880       881       957      3484      3724      3725
 -1      1824    8    0    1
 -2       880       957       956      3725      3726      3721
 -1      1825    8    0    1
 -2       881       882       958      3487      3727      3728
 -1      1826    8    0    1
 -2       881       958       957      3728      3729      3724
 -1      1827    8    0    1
 -2       882       883       959      3490      3730      3731
 -1      1828    8    0    1
 -2       882       959       958      3731      3732      3727
 -1      1829    8    0    1
 -2       883       884       960      3493      3733      3734
 -1      1830    8    0    1
 -2       883       960       959      3734      3735      3730
 -1      1831    8    0    1
 -2       884       885       961      3496      3736      3737
 -1      1832    8    0    1
 -2       884       961       960      3737      3738      3733
 -1      1833    8    0    1
 -2       885       886       962      3499      3739      3740
 -1      1834    8    0    1
 -2       885       962       961      3740      3741      3736
 -1      1835    8    0    1
 -2       886       887       963      3502      3742      3743
 -1      1836    8    0    1
 -2       886       963       962      3743      3744      3739
 -1      1837    8    0    1
 -2       887       888       964      3505      3745      3746
 -1      1838    8    0    1
 -2       887       964       963      3746      3747      3742
 -1      1839    8    0    1
 -2       888       889       965      3508      3748      3749
 -1      1840    8    0    1
 -2       964       888       965      3745      3749      3750
 -1      1841    8    0    1
 -2       889       899       965      3554      3751      3748
 -1      1842    8    0    1
 -2       890       807       857      3510      3752      3753
 -1      1843    8    0    1
 -2       807       818       857      3289      3534      3752
 -1      1844    8    0    1
 -2       890       857       935      3753      3661      3754
 -1      1845    8    0    1
 -2       894       804       896      3542      3539      3755
 -1      1846    8    0    1
 -2       815       891       966      3515      3756      3757
 -1      1847    8    0    1
 -2       899       816       901      3548      3559      3758
 -1      1848    8    0    1
 -2       858       860       967      3421      3759      3760
 -1      1849    8    0    1
 -2       860       936       967      3663      3761      3759
 -1      1850    8    0    1
 -2       819       894       968      3541      3762      3763
 -1      1851    8    0    1
 -2       894       896       968      3755      3764      3762
 -1      1852    8    0    1
 -2       892       815       966      3523      3757      3765
 -1      1853    8    0    1
 -2       901       897       969      3557      3766      3767
 -1      1854    8    0    1
 -2       893       819       968      3527      3763      3768
 -1      1855    8    0    1
 -2       902       822       898      3562      3547      3769
 -1      1856    8    0    1
 -2       903       858       967      3563      3760      3770
 -1      1857    8    0    1
 -2       895       890       935      3535      3754      3771
 -1      1858    8    0    1
 -2       965       899       901      3751      3758      3772
 -1      1859    8    0    1
 -2       889       801       802      3506      3232      3556
 -1      1860    8    0    1
 -2       896       859       970      3540      3773      3774
 -1      1861    8    0    1
 -2       968       896       970      3764      3774      3775
 -1      1862    8    0    1
 -2       859       937       970      3665      3776      3773
 -1      1863    8    0    1
 -2       898       820       971      3545      3777      3778
 -1      1864    8    0    1
 -2       820       892       971      3525      3779      3777
 -1      1865    8    0    1
 -2       966       891       972      3756      3780      3781
 -1      1866    8    0    1
 -2       891       893       972      3529      3782      3780
 -1      1867    8    0    1
 -2       897       900       973      3552      3783      3784
 -1      1868    8    0    1
 -2       897       973       969      3784      3785      3766
 -1      1869    8    0    1
 -2       893       968       972      3768      3786      3782
 -1      1870    8    0    1
 -2       892       966       974      3765      3787      3788
 -1      1871    8    0    1
 -2       892       974       971      3788      3789      3779
 -1      1872    8    0    1
 -2       905       904       975      3570      3790      3791
 -1      1873    8    0    1
 -2       906       905       976      3573      3792      3793
 -1      1874    8    0    1
 -2       905       975       976      3791      3794      3792
 -1      1875    8    0    1
 -2       907       906       977      3576      3795      3796
 -1      1876    8    0    1
 -2       906       976       977      3793      3797      3795
 -1      1877    8    0    1
 -2       908       907       978      3579      3798      3799
 -1      1878    8    0    1
 -2       907       977       978      3796      3800      3798
 -1      1879    8    0    1
 -2       909       908       979      3582      3801      3802
 -1      1880    8    0    1
 -2       908       978       979      3799      3803      3801
 -1      1881    8    0    1
 -2       910       909       980      3585      3804      3805
 -1      1882    8    0    1
 -2       909       979       980      3802      3806      3804
 -1      1883    8    0    1
 -2       911       910       981      3588      3807      3808
 -1      1884    8    0    1
 -2       910       980       981      3805      3809      3807
 -1      1885    8    0    1
 -2       912       911       982      3591      3810      3811
 -1      1886    8    0    1
 -2       911       981       982      3808      3812      3810
 -1      1887    8    0    1
 -2       913       912       983      3594      3813      3814
 -1      1888    8    0    1
 -2       912       982       983      3811      3815      3813
 -1      1889    8    0    1
 -2       914       913       984      3597      3816      3817
 -1      1890    8    0    1
 -2       913       983       984      3814      3818      3816
 -1      1891    8    0    1
 -2       915       914       985      3600      3819      3820
 -1      1892    8    0    1
 -2       914       984       985      3817      3821      3819
 -1      1893    8    0    1
 -2       916       915       986      3603      3822      3823
 -1      1894    8    0    1
 -2       915       985       986      3820      3824      3822
 -1      1895    8    0    1
 -2       917       916       987      3606      3825      3826
 -1      1896    8    0    1
 -2       916       986       987      3823      3827      3825
 -1      1897    8    0    1
 -2       918       917       988      3609      3828      3829
 -1      1898    8    0    1
 -2       917       987       988      3826      3830      3828
 -1      1899    8    0    1
 -2       919       918       989      3612      3831      3832
 -1      1900    8    0    1
 -2       918       988       989      3829      3833      3831
 -1      1901    8    0    1
 -2       920       919       990      3615      3834      3835
 -1      1902    8    0    1
 -2       919       989       990      3832      3836      3834
 -1      1903    8    0    1
 -2       921       920       991      3618      3837      3838
 -1      1904    8    0    1
 -2       920       990       991      3835      3839      3837
 -1      1905    8    0    1
 -2       922       921       992      3621      3840      3841
 -1      1906    8    0    1
 -2       921       991       992      3838      3842      3840
 -1      1907    8    0    1
 -2       923       922       993      3624      3843      3844
 -1      1908    8    0    1
 -2       922       992       993      3841      3845      3843
 -1      1909    8    0    1
 -2       924       923       994      3627      3846      3847
 -1      1910    8    0    1
 -2       923       993       994      3844      3848      3846
 -1      1911    8    0    1
 -2       925       924       995      3630      3849      3850
 -1      1912    8    0    1
 -2       924       994       995      3847      3851      3849
 -1      1913    8    0    1
 -2       926       925       996      3633      3852      3853
 -1      1914    8    0    1
 -2       925       995       996      3850      3854      3852
 -1      1915    8    0    1
 -2       927       926       997      3636      3855      3856
 -1      1916    8    0    1
 -2       926       996       997      3853      3857      3855
 -1      1917    8    0    1
 -2       928       927       998      3639      3858      3859
 -1      1918    8    0    1
 -2       927       997       998      3856      3860      3858
 -1      1919    8    0    1
 -2       929       928       999      3642      3861      3862
 -1      1920    8    0    1
 -2       928       998       999      3859      3863      3861
 -1      1921    8    0    1
 -2       930       929      1000      3645      3864      3865
 -1      1922    8    0    1
 -2       929       999      1000      3862      3866      3864
 -1      1923    8    0    1
 -2       931       930      1001      3648      3867      3868
 -1      1924    8    0    1
 -2       930      1000      1001      3865      3869      3867
 -1      1925    8    0    1
 -2       932       931      1002      3651      3870      3871
 -1      1926    8    0    1
 -2       931      1001      1002      3868      3872      3870
 -1      1927    8    0    1
 -2       933       932      1003      3654      3873      3874
 -1      1928    8    0    1
 -2       932      1002      1003      3871      3875      3873
 -1      1929    8    0    1
 -2       934       933      1004      3657      3876      3877
 -1      1930    8    0    1
 -2       933      1003      1004      3874      3878      3876
 -1      1931    8    0    1
 -2       935       934      1005      3660      3879      3880
 -1      1932    8    0    1
 -2       934      1004      1005      3877      3881      3879
 -1      1933    8    0    1
 -2       937       903      1006      3666      3882      3883
 -1      1934    8    0    1
 -2       938       939      1007      3672      3884      3885
 -1      1935    8    0    1
 -2       939       940      1008      3675      3886      3887
 -1      1936    8    0    1
 -2       939      1008      1007      3887      3888      3884
 -1      1937    8    0    1
 -2       940       941      1009      3678      3889      3890
 -1      1938    8    0    1
 -2       940      1009      1008      3890      3891      3886
 -1      1939    8    0    1
 -2       941       942      1010      3681      3892      3893
 -1      1940    8    0    1
 -2       941      1010      1009      3893      3894      3889
 -1      1941    8    0    1
 -2       942       943      1011      3684      3895      3896
 -1      1942    8    0    1
 -2       942      1011      1010      3896      3897      3892
 -1      1943    8    0    1
 -2       943       944      1012      3687      3898      3899
 -1      1944    8    0    1
 -2       943      1012      1011      3899      3900      3895
 -1      1945    8    0    1
 -2       944       945      1013      3690      3901      3902
 -1      1946    8    0    1
 -2       944      1013      1012      3902      3903      3898
 -1      1947    8    0    1
 -2       945       946      1014      3693      3904      3905
 -1      1948    8    0    1
 -2       945      1014      1013      3905      3906      3901
 -1      1949    8    0    1
 -2       946       947      1015      3696      3907      3908
 -1      1950    8    0    1
 -2       946      1015      1014      3908      3909      3904
 -1      1951    8    0    1
 -2       947       948      1016      3699      3910      3911
 -1      1952    8    0    1
 -2       947      1016      1015      3911      3912      3907
 -1      1953    8    0    1
 -2       948       949      1017      3702      3913      3914
 -1      1954    8    0    1
 -2       948      1017      1016      3914      3915      3910
 -1      1955    8    0    1
 -2       949       950      1018      3705      3916      3917
 -1      1956    8    0    1
 -2       949      1018      1017      3917      3918      3913
 -1      1957    8    0    1
 -2       950       951      1019      3708      3919      3920
 -1      1958    8    0    1
 -2       950      1019      1018      3920      3921      3916
 -1      1959    8    0    1
 -2       951       952      1020      3711      3922      3923
 -1      1960    8    0    1
 -2       951      1020      1019      3923      3924      3919
 -1      1961    8    0    1
 -2       952       953      1021      3714      3925      3926
 -1      1962    8    0    1
 -2       952      1021      1020      3926      3927      3922
 -1      1963    8    0    1
 -2       953       954      1022      3717      3928      3929
 -1      1964    8    0    1
 -2       953      1022      1021      3929      3930      3925
 -1      1965    8    0    1
 -2       954       955      1023      3720      3931      3932
 -1      1966    8    0    1
 -2       954      1023      1022      3932      3933      3928
 -1      1967    8    0    1
 -2       955       956      1024      3723      3934      3935
 -1      1968    8    0    1
 -2       955      1024      1023      3935      3936      3931
 -1      1969    8    0    1
 -2       956       957      1025      3726      3937      3938
 -1      1970    8    0    1
 -2       956      1025      1024      3938      3939      3934
 -1      1971    8    0    1
 -2       957       958      1026      3729      3940      3941
 -1      1972    8    0    1
 -2       957      1026      1025      3941      3942      3937
 -1      1973    8    0    1
 -2       958       959      1027      3732      3943      3944
 -1      1974    8    0    1
 -2       958      1027      1026      3944      3945      3940
 -1      1975    8    0    1
 -2       959       960      1028      3735      3946      3947
 -1      1976    8    0    1
 -2       959      1028      1027      3947      3948      3943
 -1      1977    8    0    1
 -2       960       961      1029      3738      3949      3950
 -1      1978    8    0    1
 -2       960      1029      1028      3950      3951      3946
 -1      1979    8    0    1
 -2       961       962      1030      3741      3952      3953
 -1      1980    8    0    1
 -2       961      1030      1029      3953      3954      3949
 -1      1981    8    0    1
 -2       962       963      1031      3744      3955      3956
 -1      1982    8    0    1
 -2       962      1031      1030      3956      3957      3952
 -1      1983    8    0    1
 -2       963       964      1032      3747      3958      3959
 -1      1984    8    0    1
 -2       963      1032      1031      3959      3960      3955
 -1      1985    8    0    1
 -2       965       901      1033      3772      3961      3962
 -1      1986    8    0    1
 -2       964       965      1033      3750      3962      3963
 -1      1987    8    0    1
 -2       901       969      1033      3767      3964      3961
 -1      1988    8    0    1
 -2       903       967      1034      3770      3965      3966
 -1      1989    8    0    1
 -2       903      1034      1006      3966      3967      3882
 -1      1990    8    0    1
 -2       895       935      1035      3771      3968      3969
 -1      1991    8    0    1
 -2       900       895      1035      3553      3969      3970
 -1      1992    8    0    1
 -2       935      1005      1035      3880      3971      3968
 -1      1993    8    0    1
 -2       936       938      1036      3669      3972      3973
 -1      1994    8    0    1
 -2       938      1007      1036      3885      3974      3972
 -1      1995    8    0    1
 -2       967       936      1037      3761      3975      3976
 -1      1996    8    0    1
 -2      1034       967      1037      3965      3976      3977
 -1      1997    8    0    1
 -2       936      1036      1037      3973      3978      3975
 -1      1998    8    0    1
 -2       902       898       971      3769      3778      3979
 -1      1999    8    0    1
 -2       711       708       717      3266      2954      3980
 -1      2000    8    0    1
 -2       904       902      1038      3567      3981      3982
 -1      2001    8    0    1
 -2       975       904      1038      3790      3982      3983
 -1      2002    8    0    1
 -2       902       971      1038      3979      3984      3981
 -1      2003    8    0    1
 -2       968       970      1039      3775      3985      3986
 -1      2004    8    0    1
 -2       968      1039       972      3986      3987      3786
 -1      2005    8    0    1
 -2       900      1035       973      3970      3988      3783
 -1      2006    8    0    1
 -2       964      1033      1032      3963      3989      3958
 -1      2007    8    0    1
 -2      1033       969      1040      3964      3990      3991
 -1      2008    8    0    1
 -2      1033      1040      1032      3991      3992      3989
 -1      2009    8    0    1
 -2       970       937      1041      3776      3993      3994
 -1      2010    8    0    1
 -2      1039       970      1041      3985      3994      3995
 -1      2011    8    0    1
 -2       937      1006      1041      3883      3996      3993
 -1      2012    8    0    1
 -2       578       711       717      3253      3980      2955
 -1      2013    8    0    1
 -2       966       972      1042      3781      3997      3998
 -1      2014    8    0    1
 -2       974       966      1042      3787      3998      3999
 -1      2015    8    0    1
 -2       972      1039      1042      3987      4000      3997
 -1      2016    8    0    1
 -2       969       973      1040      3785      4001      3990
 -1      2017    8    0    1
 -2       973      1035      1043      3988      4002      4003
 -1      2018    8    0    1
 -2      1035      1005      1043      3971      4004      4002
 -1      2019    8    0    1
 -2       977       976      1044      3797      4005      4006
 -1      2020    8    0    1
 -2       978       977      1045      3800      4007      4008
 -1      2021    8    0    1
 -2       977      1044      1045      4006      4009      4007
 -1      2022    8    0    1
 -2       979       978      1046      3803      4010      4011
 -1      2023    8    0    1
 -2       978      1045      1046      4008      4012      4010
 -1      2024    8    0    1
 -2       980       979      1047      3806      4013      4014
 -1      2025    8    0    1
 -2       979      1046      1047      4011      4015      4013
 -1      2026    8    0    1
 -2       981       980      1048      3809      4016      4017
 -1      2027    8    0    1
 -2       980      1047      1048      4014      4018      4016
 -1      2028    8    0    1
 -2       982       981      1049      3812      4019      4020
 -1      2029    8    0    1
 -2       981      1048      1049      4017      4021      4019
 -1      2030    8    0    1
 -2       983       982      1050      3815      4022      4023
 -1      2031    8    0    1
 -2       982      1049      1050      4020      4024      4022
 -1      2032    8    0    1
 -2       984       983      1051      3818      4025      4026
 -1      2033    8    0    1
 -2       983      1050      1051      4023      4027      4025
 -1      2034    8    0    1
 -2       985       984      1052      3821      4028      4029
 -1      2035    8    0    1
 -2       984      1051      1052      4026      4030      4028
 -1      2036    8    0    1
 -2       986       985      1053      3824      4031      4032
 -1      2037    8    0    1
 -2       985      1052      1053      4029      4033      4031
 -1      2038    8    0    1
 -2       987       986      1054      3827      4034      4035
 -1      2039    8    0    1
 -2       986      1053      1054      4032      4036      4034
 -1      2040    8    0    1
 -2       988       987      1055      3830      4037      4038
 -1      2041    8    0    1
 -2       987      1054      1055      4035      4039      4037
 -1      2042    8    0    1
 -2       989       988      1056      3833      4040      4041
 -1      2043    8    0    1
 -2       988      1055      1056      4038      4042      4040
 -1      2044    8    0    1
 -2       990       989      1057      3836      4043      4044
 -1      2045    8    0    1
 -2       989      1056      1057      4041      4045      4043
 -1      2046    8    0    1
 -2       991       990      1058      3839      4046      4047
 -1      2047    8    0    1
 -2       990      1057      1058      4044      4048      4046
 -1      2048    8    0    1
 -2       992       991      1059      3842      4049      4050
 -1      2049    8    0    1
 -2       991      1058      1059      4047      4051      4049
 -1      2050    8    0    1
 -2       993       992      1060      3845      4052      4053
 -1      2051    8    0    1
 -2       992      1059      1060      4050      4054      4052
 -1      2052    8    0    1
 -2       994       993      1061      3848      4055      4056
 -1      2053    8    0    1
 -2       993      1060      1061      4053      4057      4055
 -1      2054    8    0    1
 -2       995       994      1062      3851      4058      4059
 -1      2055    8    0    1
 -2       994      1061      1062      4056      4060      4058
 -1      2056    8    0    1
 -2       996       995      1063      3854      4061      4062
 -1      2057    8    0    1
 -2       995      1062      1063      4059      4063      4061
 -1      2058    8    0    1
 -2       997       996      1064      3857      4064      4065
 -1      2059    8    0    1
 -2       996      1063      1064      4062      4066      4064
 -1      2060    8    0    1
 -2       998       997      1065      3860      4067      4068
 -1      2061    8    0    1
 -2       997      1064      1065      4065      4069      4067
 -1      2062    8    0    1
 -2       999       998      1066      3863      4070      4071
 -1      2063    8    0    1
 -2       998      1065      1066      4068      4072      4070
 -1      2064    8    0    1
 -2      1000       999      1067      3866      4073      4074
 -1      2065    8    0    1
 -2       999      1066      1067      4071      4075      4073
 -1      2066    8    0    1
 -2      1001      1000      1068      3869      4076      4077
 -1      2067    8    0    1
 -2      1000      1067      1068      4074      4078      4076
 -1      2068    8    0    1
 -2      1002      1001      1069      3872      4079      4080
 -1      2069    8    0    1
 -2      1001      1068      1069      4077      4081      4079
 -1      2070    8    0    1
 -2      1003      1002      1070      3875      4082      4083
 -1      2071    8    0    1
 -2      1002      1069      1070      4080      4084      4082
 -1      2072    8    0    1
 -2      1004      1003      1071      3878      4085      4086
 -1      2073    8    0    1
 -2      1003      1070      1071      4083      4087      4085
 -1      2074    8    0    1
 -2      1005      1004      1072      3881      4088      4089
 -1      2075    8    0    1
 -2      1043      1005      1072      4004      4089      4090
 -1      2076    8    0    1
 -2      1004      1071      1072      4086      4091      4088
 -1      2077    8    0    1
 -2      1007      1008      1073      3888      4092      4093
 -1      2078    8    0    1
 -2      1010      1011      1074      3897      4094      4095
 -1      2079    8    0    1
 -2      1011      1012      1075      3900      4096      4097
 -1      2080    8    0    1
 -2      1011      1075      1074      4097      4098      4094
 -1      2081    8    0    1
 -2      1012      1013      1076      3903      4099      4100
 -1      2082    8    0    1
 -2      1012      1076      1075      4100      4101      4096
 -1      2083    8    0    1
 -2      1013      1014      1077      3906      4102      4103
 -1      2084    8    0    1
 -2      1013      1077      1076      4103      4104      4099
 -1      2085    8    0    1
 -2      1014      1015      1078      3909      4105      4106
 -1      2086    8    0    1
 -2      1014      1078      1077      4106      4107      4102
 -1      2087    8    0    1
 -2      1015      1016      1079      3912      4108      4109
 -1      2088    8    0    1
 -2      1015      1079      1078      4109      4110      4105
 -1      2089    8    0    1
 -2      1016      1017      1080      3915      4111      4112
 -1      2090    8    0    1
 -2      1016      1080      1079      4112      4113      4108
 -1      2091    8    0    1
 -2      1017      1018      1081      3918      4114      4115
 -1      2092    8    0    1
 -2      1017      1081      1080      4115      4116      4111
 -1      2093    8    0    1
 -2      1018      1019      1082      3921      4117      4118
 -1      2094    8    0    1
 -2      1018      1082      1081      4118      4119      4114
 -1      2095    8    0    1
 -2      1019      1020      1083      3924      4120      4121
 -1      2096    8    0    1
 -2      1019      1083      1082      4121      4122      4117
 -1      2097    8    0    1
 -2      1020      1021      1084      3927      4123      4124
 -1      2098    8    0    1
 -2      1020      1084      1083      4124      4125      4120
 -1      2099    8    0    1
 -2      1021      1022      1085      3930      4126      4127
 -1      2100    8    0    1
 -2      1021      1085      1084      4127      4128      4123
 -1      2101    8    0    1
 -2      1022      1023      1086      3933      4129      4130
 -1      2102    8    0    1
 -2      1022      1086      1085      4130      4131      4126
 -1      2103    8    0    1
 -2      1023      1024      1087      3936      4132      4133
 -1      2104    8    0    1
 -2      1023      1087      1086      4133      4134      4129
 -1      2105    8    0    1
 -2      1024      1025      1088      3939      4135      4136
 -1      2106    8    0    1
 -2      1024      1088      1087      4136      4137      4132
 -1      2107    8    0    1
 -2      1025      1026      1089      3942      4138      4139
 -1      2108    8    0    1
 -2      1025      1089      1088      4139      4140      4135
 -1      2109    8    0    1
 -2      1026      1027      1090      3945      4141      4142
 -1      2110    8    0    1
 -2      1026      1090      1089      4142      4143      4138
 -1      2111    8    0    1
 -2      1027      1028      1091      3948      4144      4145
 -1      2112    8    0    1
 -2      1027      1091      1090      4145      4146      4141
 -1      2113    8    0    1
 -2      1028      1029      1092      3951      4147      4148
 -1      2114    8    0    1
 -2      1028      1092      1091      4148      4149      4144
 -1      2115    8    0    1
 -2      1029      1030      1093      3954      4150      4151
 -1      2116    8    0    1
 -2      1029      1093      1092      4151      4152      4147
 -1      2117    8    0    1
 -2      1030      1031      1094      3957      4153      4154
 -1      2118    8    0    1
 -2      1030      1094      1093      4154      4155      4150
 -1      2119    8    0    1
 -2      1031      1032      1095      3960      4156      4157
 -1      2120    8    0    1
 -2      1094      1031      1095      4153      4157      4158
 -1      2121    8    0    1
 -2      1032      1040      1095      3992      4159      4156
 -1      2122    8    0    1
 -2      1009      1010      1096      3894      4160      4161
 -1      2123    8    0    1
 -2      1010      1074      1096      4095      4162      4160
 -1      2124    8    0    1
 -2      1008      1009      1097      3891      4163      4164
 -1      2125    8    0    1
 -2      1009      1096      1097      4161      4165      4163
 -1      2126    8    0    1
 -2       971       974      1038      3789      4166      3984
 -1      2127    8    0    1
 -2      1006      1034      1098      3967      4167      4168
 -1      2128    8    0    1
 -2      1036      1007      1099      3974      4169      4170
 -1      2129    8    0    1
 -2      1007      1073      1099      4093      4171      4169
 -1      2130    8    0    1
 -2       976       975      1100      3794      4172      4173
 -1      2131    8    0    1
 -2       976      1100      1044      4173      4174      4005
 -1      2132    8    0    1
 -2      1040       973      1043      4001      4003      4175
 -1      2133    8    0    1
 -2      1040      1043      1095      4175      4176      4159
 -1      2134    8    0    1
 -2      1034      1037      1101      3977      4177      4178
 -1      2135    8    0    1
 -2      1034      1101      1098      4178      4179      4167
 -1      2136    8    0    1
 -2      1008      1097      1073      4164      4180      4092
 -1      2137    8    0    1
 -2      1038       974      1102      4166      4181      4182
 -1      2138    8    0    1
 -2       975      1038      1102      3983      4182      4183
 -1      2139    8    0    1
 -2       974      1042      1102      3999      4184      4181
 -1      2140    8    0    1
 -2      1036      1099      1103      4170      4185      4186
 -1      2141    8    0    1
 -2      1036      1103      1037      4186      4187      3978
 -1      2142    8    0    1
 -2      1100       975      1102      4172      4183      4188
 -1      2143    8    0    1
 -2      1045      1044      1101      4009      4189      4190
 -1      2144    8    0    1
 -2      1044      1100      1098      4174      4191      4192
 -1      2145    8    0    1
 -2      1046      1045      1103      4012      4193      4194
 -1      2146    8    0    1
 -2      1047      1046      1099      4015      4195      4196
 -1      2147    8    0    1
 -2      1048      1047      1073      4018      4197      4198
 -1      2148    8    0    1
 -2      1049      1048      1097      4021      4199      4200
 -1      2149    8    0    1
 -2      1050      1049      1096      4024      4201      4202
 -1      2150    8    0    1
 -2      1051      1050      1074      4027      4203      4204
 -1      2151    8    0    1
 -2      1052      1051      1075      4030      4205      4206
 -1      2152    8    0    1
 -2      1053      1052      1076      4033      4207      4208
 -1      2153    8    0    1
 -2      1054      1053      1077      4036      4209      4210
 -1      2154    8    0    1
 -2      1055      1054      1078      4039      4211      4212
 -1      2155    8    0    1
 -2      1056      1055      1079      4042      4213      4214
 -1      2156    8    0    1
 -2      1057      1056      1080      4045      4215      4216
 -1      2157    8    0    1
 -2      1058      1057      1081      4048      4217      4218
 -1      2158    8    0    1
 -2      1059      1058      1082      4051      4219      4220
 -1      2159    8    0    1
 -2      1060      1059      1083      4054      4221      4222
 -1      2160    8    0    1
 -2      1061      1060      1084      4057      4223      4224
 -1      2161    8    0    1
 -2      1062      1061      1085      4060      4225      4226
 -1      2162    8    0    1
 -2      1063      1062      1086      4063      4227      4228
 -1      2163    8    0    1
 -2      1064      1063      1087      4066      4229      4230
 -1      2164    8    0    1
 -2      1065      1064      1088      4069      4231      4232
 -1      2165    8    0    1
 -2      1066      1065      1089      4072      4233      4234
 -1      2166    8    0    1
 -2      1067      1066      1090      4075      4235      4236
 -1      2167    8    0    1
 -2      1068      1067      1091      4078      4237      4238
 -1      2168    8    0    1
 -2      1069      1068      1092      4081      4239      4240
 -1      2169    8    0    1
 -2      1070      1069      1093      4084      4241      4242
 -1      2170    8    0    1
 -2      1071      1070      1094      4087      4243      4244
 -1      2171    8    0    1
 -2      1075      1076      1052      4101      4207      4206
 -1      2172    8    0    1
 -2      1078      1054      1077      4211      4210      4107
 -1      2173    8    0    1
 -2      1099      1046      1103      4195      4194      4185
 -1      2174    8    0    1
 -2      1102      1042      1104      4184      4245      4246
 -1      2175    8    0    1
 -2      1100      1102      1104      4188      4246      4247
 -1      2176    8    0    1
 -2      1042      1039      1104      4000      4248      4245
 -1      2177    8    0    1
 -2      1088      1064      1087      4231      4230      4137
 -1      2178    8    0    1
 -2      1074      1075      1051      4098      4205      4204
 -1      2179    8    0    1
 -2      1078      1079      1055      4110      4213      4212
 -1      2180    8    0    1
 -2      1079      1080      1056      4113      4215      4214
 -1      2181    8    0    1
 -2      1080      1081      1057      4116      4217      4216
 -1      2182    8    0    1
 -2      1081      1082      1058      4119      4219      4218
 -1      2183    8    0    1
 -2      1082      1083      1059      4122      4221      4220
 -1      2184    8    0    1
 -2      1083      1084      1060      4125      4223      4222
 -1      2185    8    0    1
 -2      1084      1085      1061      4128      4225      4224
 -1      2186    8    0    1
 -2      1085      1086      1062      4131      4227      4226
 -1      2187    8    0    1
 -2      1086      1087      1063      4134      4229      4228
 -1      2188    8    0    1
 -2      1088      1089      1065      4140      4233      4232
 -1      2189    8    0    1
 -2      1089      1090      1066      4143      4235      4234
 -1      2190    8    0    1
 -2      1090      1091      1067      4146      4237      4236
 -1      2191    8    0    1
 -2      1091      1092      1068      4149      4239      4238
 -1      2192    8    0    1
 -2      1092      1093      1069      4152      4241      4240
 -1      2193    8    0    1
 -2      1093      1094      1070      4155      4243      4242
 -1      2194    8    0    1
 -2      1094      1095      1071      4158      4249      4244
 -1      2195    8    0    1
 -2      1096      1074      1050      4162      4203      4202
 -1      2196    8    0    1
 -2      1096      1049      1097      4201      4200      4165
 -1      2197    8    0    1
 -2      1041      1006      1105      3996      4250      4251
 -1      2198    8    0    1
 -2      1041      1105      1104      4251      4252      4253
 -1      2199    8    0    1
 -2      1077      1053      1076      4209      4208      4104
 -1      2200    8    0    1
 -2      1099      1073      1047      4171      4197      4196
 -1      2201    8    0    1
 -2      1073      1097      1048      4180      4199      4198
 -1      2202    8    0    1
 -2      1039      1041      1104      3995      4253      4248
 -1      2203    8    0    1
 -2      1006      1098      1105      4168      4254      4250
 -1      2204    8    0    1
 -2      1044      1098      1101      4192      4179      4189
 -1      2205    8    0    1
 -2      1037      1103      1101      4187      4255      4177
 -1      2206    8    0    1
 -2      1071      1095      1072      4249      4256      4091
 -1      2207    8    0    1
 -2      1095      1043      1072      4176      4090      4256
 -1      2208    8    0    1
 -2      1103      1045      1101      4193      4190      4255
 -1      2209    8    0    1
 -2      1105      1098      1100      4254      4191      4257
 -1      2210    8    0    1
 -2      1104      1105      1100      4252      4257      4247
 -3
    1PSTEP                         1           1           1          
  100CL  101 1.000000000        4257                     0    1           1
 -4  DISP        4    1
 -5  D1          1    2    1    0
 -5  D2          1    2    2    0
 -5  D3          1    2    3    0
 -5  ALL         1    2    0    0    1ALL
 -1         1 1.81839E-03-4.38061E-04-1.95881E-15
 -1         2 3.91490E-03 1.15463E-04-4.11677E-15
 -1         3 1.52220E-02 1.50530E-03-1.49735E-13
 -1         4 1.49288E-02 7.66591E-05-1.60369E-13
 -1         5 0.00000E+00 0.00000E+00 0.00000E+00
 -1         6 0.00000E+00 0.00000E+00 0.00000E+00
 -1         7 0.00000E+00 0.00000E+00 0.00000E+00
 -1         8 0.00000E+00 0.00000E+00 0.00000E+00
 -1         9 0.00000E+00 0.00000E+00 0.00000E+00
 -1        10 0.00000E+00 0.00000E+00 0.00000E+00
 -1        11 0.00000E+00 0.00000E+00 0.00000E+00
 -1        12 0.00000E+00 0.00000E+00 0.00000E+00
 -1        13 0.00000E+00 0.00000E+00 0.00000E+00
 -1        14 0.00000E+00 0.00000E+00 0.00000E+00
 -1        15 0.00000E+00 0.00000E+00 0.00000E+00
 -1        16 0.00000E+00 0.00000E+00 0.00000E+00
 -1        17 0.00000E+00 0.00000E+00 0.00000E+00
 -1        18 0.00000E+00 0.00000E+00 0.00000E+00
 -1        19 0.00000E+00 0.00000E+00 0.00000E+00
 -1        20 0.00000E+00 0.00000E+00 0.00000E+00
 -1        21 0.00000E+00 0.00000E+00 0.00000E+00
 -1        22 0.00000E+00 0.00000E+00 0.00000E+00
 -1        23 5.30591E-04-3.49588E-04 9.06664E-18
 -1        24 8.90827E-04-5.57093E-04-1.81150E-16
 -1        25 1.20981E-03-7.12821E-04-5.61214E-16
 -1        26 1.50267E-03-8.24452E-04-1.12664E-15
 -1        27 1.77806E-03-8.90364E-04-1.87607E-15
 -1        28 2.04725E-03-9.09065E-04-2.80626E-15
 -1        29 2.32210E-03-8.85699E-04-3.91494E-15
 -1        30 2.61102E-03-8.32356E-04-5.19339E-15
 -1        31 2.91651E-03-7.64100E-04-6.63413E-15
 -1        32 3.23574E-03-6.94209E-04-8.22905E-15
 -1        33 3.56310E-03-6.31404E-04-9.96791E-15
 -1        34 3.89277E-03-5.79618E-04-1.18400E-14
 -1        35 4.22030E-03-5.39252E-04-1.38440E-14
 -1        36 4.54299E-03-5.08750E-04-1.59810E-14
 -1        37 4.85966E-03-4.85823E-04-1.82510E-14
 -1        38 5.17019E-03-4.68187E-04-2.06547E-14
 -1        39 5.47510E-03-4.53905E-04-2.31868E-14
 -1        40 5.77518E-03-4.41491E-04-2.58486E-14
 -1        41 6.07130E-03-4.29884E-04-2.86358E-14
 -1        42 6.36431E-03-4.18374E-04-3.15421E-14
 -1        43 6.65494E-03-4.06524E-04-3.45719E-14
 -1        44 6.94379E-03-3.94093E-04-3.77211E-14
 -1        45 7.23136E-03-3.80973E-04-4.09900E-14
 -1        46 7.51803E-03-3.67147E-04-4.43728E-14
 -1        47 7.80410E-03-3.52649E-04-4.78626E-14
 -1        48 8.08978E-03-3.37546E-04-5.14549E-14
 -1        49 8.37522E-03-3.21916E-04-5.51471E-14
 -1        50 8.66054E-03-3.05842E-04-5.89489E-14
 -1        51 8.94581E-03-2.89402E-04-6.28563E-14
 -1        52 9.23108E-03-2.72667E-04-6.68590E-14
 -1        53 9.51638E-03-2.55698E-04-7.09470E-14
 -1        54 9.80172E-03-2.38548E-04-7.51073E-14
 -1        55 1.00871E-02-2.21260E-04-7.93439E-14
 -1        56 1.03726E-02-2.03869E-04-8.36563E-14
 -1        57 1.06580E-02-1.86403E-04-8.80478E-14
 -1        58 1.09436E-02-1.68883E-04-9.25025E-14
 -1        59 1.12292E-02-1.51326E-04-9.70145E-14
 -1        60 1.15148E-02-1.33743E-04-1.01588E-13
 -1        61 1.18004E-02-1.16145E-04-1.06217E-13
 -1        62 1.20860E-02-9.85376E-05-1.10912E-13
 -1        63 1.23717E-02-8.09252E-05-1.15679E-13
 -1        64 1.26574E-02-6.33109E-05-1.20525E-13
 -1        65 1.29431E-02-4.56968E-05-1.25438E-13
 -1        66 1.32288E-02-2.80843E-05-1.30401E-13
 -1        67 1.35145E-02-1.04741E-05-1.35403E-13
 -1        68 1.38002E-02 7.13346E-06-1.40415E-13
 -1        69 1.40859E-02 2.47382E-05-1.45431E-13
 -1        70 1.43716E-02 4.23403E-05-1.50466E-13
 -1        71 1.46573E-02 5.99402E-05-1.55531E-13
 -1        72 5.72111E-04 3.65742E-04 9.04021E-17
 -1        73 9.69258E-04 5.94389E-04 5.24754E-17
 -1        74 1.32198E-03 7.79553E-04-1.20878E-16
 -1        75 1.63880E-03 9.26967E-04-4.38502E-16
 -1        76 1.92826E-03 1.02510E-03-9.04753E-16
 -1        77 2.20614E-03 1.06552E-03-1.53012E-15
 -1        78 2.49074E-03 1.05303E-03-2.31851E-15
 -1        79 2.79441E-03 1.00527E-03-3.26990E-15
 -1        80 3.11943E-03 9.44350E-04-4.38374E-15
 -1        81 3.45990E-03 8.88232E-04-5.66080E-15
 -1        82 3.80691E-03 8.46805E-04-7.09139E-15
 -1        83 4.15270E-03 8.22801E-04-8.66325E-15
 -1        84 4.49226E-03 8.14611E-04-1.03751E-14
 -1        85 4.82331E-03 8.18836E-04-1.22335E-14
 -1        86 5.14546E-03 8.31865E-04-1.42349E-14
 -1        87 5.45940E-03 8.50612E-04-1.63835E-14
 -1        88 5.76633E-03 8.72720E-04-1.86705E-14
 -1        89 6.06755E-03 8.96519E-04-2.10963E-14
 -1        90 6.36428E-03 9.20900E-04-2.36609E-14
 -1        91 6.65758E-03 9.45167E-04-2.63538E-14
 -1        92 6.94832E-03 9.68921E-04-2.91574E-14
 -1        93 7.23720E-03 9.91960E-04-3.20789E-14
 -1        94 7.52477E-03 1.01422E-03-3.51290E-14
 -1        95 7.81141E-03 1.03570E-03-3.83133E-14
 -1        96 8.09745E-03 1.05647E-03-4.16365E-14
 -1        97 8.38311E-03 1.07660E-03-4.50794E-14
 -1        98 8.66853E-03 1.09619E-03-4.86282E-14
 -1        99 8.95384E-03 1.11532E-03-5.22738E-14
 -1       100 9.23910E-03 1.13408E-03-5.60152E-14
 -1       101 9.52436E-03 1.15254E-03-5.98520E-14
 -1       102 9.80966E-03 1.17076E-03-6.37661E-14
 -1       103 1.00950E-02 1.18881E-03-6.77672E-14
 -1       104 1.03804E-02 1.20671E-03-7.18575E-14
 -1       105 1.06658E-02 1.22451E-03-7.60421E-14
 -1       106 1.09513E-02 1.24224E-03-8.03138E-14
 -1       107 1.12368E-02 1.25991E-03-8.46505E-14
 -1       108 1.15224E-02 1.27754E-03-8.90358E-14
 -1       109 1.18080E-02 1.29515E-03-9.34581E-14
 -1       110 1.20937E-02 1.31275E-03-9.79191E-14
 -1       111 1.23793E-02 1.33033E-03-1.02436E-13
 -1       112 1.26650E-02 1.34791E-03-1.07008E-13
 -1       113 1.29507E-02 1.36549E-03-1.11635E-13
 -1       114 1.32363E-02 1.38307E-03-1.16312E-13
 -1       115 1.35220E-02 1.40065E-03-1.21036E-13
 -1       116 1.38078E-02 1.41823E-03-1.25793E-13
 -1       117 1.40935E-02 1.43581E-03-1.30584E-13
 -1       118 1.43792E-02 1.45340E-03-1.35407E-13
 -1       119 1.46649E-02 1.47099E-03-1.40261E-13
 -1       120 1.49506E-02 1.48858E-03-1.45123E-13
 -1       121 1.52047E-02 1.42101E-03-1.50380E-13
 -1       122 1.51874E-02 1.33672E-03-1.51039E-13
 -1       123 1.51701E-02 1.25244E-03-1.51675E-13
 -1       124 1.51528E-02 1.16815E-03-1.52315E-13
 -1       125 1.51355E-02 1.08386E-03-1.52948E-13
 -1       126 1.51185E-02 1.00100E-03-1.53614E-13
 -1       127 1.51012E-02 9.16705E-04-1.54303E-13
 -1       128 1.50839E-02 8.32411E-04-1.54978E-13
 -1       129 1.50666E-02 7.48115E-04-1.55626E-13
 -1       130 1.50493E-02 6.63821E-04-1.56235E-13
 -1       131 1.50320E-02 5.79527E-04-1.56864E-13
 -1       132 1.50150E-02 4.96664E-04-1.57497E-13
 -1       133 1.49977E-02 4.12375E-04-1.58137E-13
 -1       134 1.49804E-02 3.28087E-04-1.58734E-13
 -1       135 1.49631E-02 2.43801E-04-1.59305E-13
 -1       136 1.49458E-02 1.59516E-04-1.59848E-13
 -1       137 3.86572E-03 2.53147E-04-4.00342E-15
 -1       138 3.71903E-03 3.77941E-04-3.77470E-15
 -1       139 3.49657E-03 4.80651E-04-3.47329E-15
 -1       140 3.18074E-03 5.66909E-04-3.08676E-15
 -1       141 2.79826E-03 6.23732E-04-2.65662E-15
 -1       142 2.38941E-03 6.43056E-04-2.23925E-15
 -1       143 1.92943E-03 6.23661E-04-1.80705E-15
 -1       144 1.51424E-03 5.70999E-04-1.44801E-15
 -1       145 1.11120E-03 4.87521E-04-1.11707E-15
 -1       146 7.59191E-04 3.86284E-04-8.40087E-16
 -1       147 5.02004E-04 2.92066E-04-6.39923E-16
 -1       148 2.99198E-04 1.99918E-04-4.78841E-16
 -1       149 1.68968E-04 1.22852E-04-3.71471E-16
 -1       150 1.06763E-04 6.38350E-05-3.18672E-16
 -1       151 9.83149E-05 9.94671E-06-3.14779E-16
 -1       152 1.45863E-04-4.18970E-05-3.64235E-16
 -1       153 2.67836E-04-1.06532E-04-4.83685E-16
 -1       154 4.42583E-04-1.74851E-04-6.49674E-16
 -1       155 7.09476E-04-2.56674E-04-8.98065E-16
 -1       156 1.01201E-03-3.28957E-04-1.17958E-15
 -1       157 1.40847E-03-3.97167E-04-1.55683E-15
 -1       158 2.26024E-03-4.49072E-04-2.40677E-15
 -1       159 2.72015E-03-4.20587E-04-2.89338E-15
 -1       160 3.10730E-03-3.59753E-04-3.31432E-15
 -1       161 3.42842E-03-2.72297E-04-3.66539E-15
 -1       162 3.68909E-03-1.56911E-04-3.93793E-15
 -1       163 3.85306E-03-2.62405E-05-4.09219E-15
 -1       164 2.94797E-04-1.71951E-04-5.10795E-17
 -1       165 2.77692E-04-1.27826E-04-6.51673E-17
 -1       166 2.68571E-04-8.56929E-05-6.85487E-17
 -1       167 2.52892E-04-3.85324E-05-6.59601E-17
 -1       168 2.19532E-04 9.60388E-06-6.03223E-17
 -1       169 1.63740E-04 4.47849E-05-5.31835E-17
 -1       170 1.01261E-04 5.03144E-05-4.69697E-17
 -1       171 6.14253E-05 2.86593E-05-4.33935E-17
 -1       172 5.89746E-05-5.12999E-06-4.30208E-17
 -1       173 9.89047E-05-2.98828E-05-4.50655E-17
 -1       174 1.67749E-04-2.36709E-05-4.64479E-17
 -1       175 2.28002E-04 1.54006E-05-4.34392E-17
 -1       176 2.65254E-04 6.76789E-05-3.50943E-17
 -1       177 2.87916E-04 1.19738E-04-1.99019E-17
 -1       178 3.14009E-04 1.73545E-04 6.09186E-18
 -1       179 3.99069E-04 2.56829E-04 3.63614E-17
 -1       180 5.83795E-04-3.68691E-04-1.39042E-16
 -1       181 9.46634E-04-5.54691E-04-4.44387E-16
 -1       182 1.28068E-03-6.94443E-04-9.26830E-16
 -1       183 1.59509E-03-7.88241E-04-1.58932E-15
 -1       184 1.89780E-03-8.32273E-04-2.43034E-15
 -1       185 2.19721E-03-8.27780E-04-3.44905E-15
 -1       186 2.50030E-03-7.84605E-04-4.64117E-15
 -1       187 2.81062E-03-7.18466E-04-5.99666E-15
 -1       188 3.12805E-03-6.45271E-04-7.50857E-15
 -1       189 3.45003E-03-5.76736E-04-9.16790E-15
 -1       190 3.77330E-03-5.19040E-04-1.09647E-14
 -1       191 4.09497E-03-4.73810E-04-1.28935E-14
 -1       192 4.41313E-03-4.39894E-04-1.49555E-14
 -1       193 4.72674E-03-4.14933E-04-1.71479E-14
 -1       194 5.03556E-03-3.96363E-04-1.94722E-14
 -1       195 5.33978E-03-3.81928E-04-2.19262E-14
 -1       196 5.63991E-03-3.69861E-04-2.45095E-14
 -1       197 5.93655E-03-3.58880E-04-2.72183E-14
 -1       198 6.23033E-03-3.48122E-04-3.00504E-14
 -1       199 6.52183E-03-3.37047E-04-3.30024E-14
 -1       200 6.81157E-03-3.25351E-04-3.60778E-14
 -1       201 7.09998E-03-3.12892E-04-3.92711E-14
 -1       202 7.38740E-03-2.99638E-04-4.25821E-14
 -1       203 7.67411E-03-2.85620E-04-4.60025E-14
 -1       204 7.96033E-03-2.70911E-04-4.95296E-14
 -1       205 8.24622E-03-2.55596E-04-5.31600E-14
 -1       206 8.53190E-03-2.39770E-04-5.68935E-14
 -1       207 8.81745E-03-2.23521E-04-6.07319E-14
 -1       208 9.10294E-03-2.06929E-04-6.46694E-14
 -1       209 9.38840E-03-1.90067E-04-6.87001E-14
 -1       210 9.67387E-03-1.72994E-04-7.28082E-14
 -1       211 9.95935E-03-1.55761E-04-7.69934E-14
 -1       212 1.02449E-02-1.38407E-04-8.12541E-14
 -1       213 1.05304E-02-1.20966E-04-8.55935E-14
 -1       214 1.08160E-02-1.03461E-04-9.00030E-14
 -1       215 1.11015E-02-8.59122E-05-9.44767E-14
 -1       216 1.13872E-02-6.83341E-05-9.90106E-14
 -1       217 1.16728E-02-5.07370E-05-1.03604E-13
 -1       218 1.19584E-02-3.31285E-05-1.08259E-13
 -1       219 1.22441E-02-1.55141E-05-1.12980E-13
 -1       220 1.25298E-02 2.10265E-06-1.17769E-13
 -1       221 1.28155E-02 1.97194E-05-1.22623E-13
 -1       222 1.31012E-02 3.73346E-05-1.27539E-13
 -1       223 1.33869E-02 5.49474E-05-1.32500E-13
 -1       224 1.36726E-02 7.25573E-05-1.37486E-13
 -1       225 1.39583E-02 9.01642E-05-1.42486E-13
 -1       226 1.42440E-02 1.07768E-04-1.47501E-13
 -1       227 1.45297E-02 1.25369E-04-1.52540E-13
 -1       228 8.08767E-04 4.89472E-04-2.81893E-17
 -1       229 1.18458E-03 6.85389E-04-2.19930E-16
 -1       230 1.53038E-03 8.43811E-04-5.52059E-16
 -1       231 1.85387E-03 9.51753E-04-1.03374E-15
 -1       232 2.16565E-03 9.98414E-04-1.67436E-15
 -1       233 2.47740E-03 9.87618E-04-2.47657E-15
 -1       234 2.79712E-03 9.38062E-04-3.44225E-15
 -1       235 3.12672E-03 8.73999E-04-4.56800E-15
 -1       236 3.46319E-03 8.15105E-04-5.85313E-15
 -1       237 3.80163E-03 7.72023E-04-7.29032E-15
 -1       238 4.13764E-03 7.47517E-04-8.87062E-15
 -1       239 4.46831E-03 7.39691E-04-1.05901E-14
 -1       240 4.79226E-03 7.44797E-04-1.24528E-14
 -1       241 5.10924E-03 7.58943E-04-1.44557E-14
 -1       242 5.41972E-03 7.78847E-04-1.66000E-14
 -1       243 5.72454E-03 8.02038E-04-1.88826E-14
 -1       244 6.02462E-03 8.26792E-04-2.13053E-14
 -1       245 6.32090E-03 8.51979E-04-2.38615E-14
 -1       246 6.61418E-03 8.76907E-04-2.65484E-14
 -1       247 6.90516E-03 9.01187E-04-2.93503E-14
 -1       248 7.19442E-03 9.24640E-04-3.22698E-14
 -1       249 7.48242E-03 9.47212E-04-3.53162E-14
 -1       250 7.76951E-03 9.68932E-04-3.84940E-14
 -1       251 8.05597E-03 9.89875E-04-4.18032E-14
 -1       252 8.34200E-03 1.01013E-03-4.52311E-14
 -1       253 8.62775E-03 1.02981E-03-4.87654E-14
 -1       254 8.91333E-03 1.04901E-03-5.24039E-14
 -1       255 9.19882E-03 1.06780E-03-5.61395E-14
 -1       256 9.48427E-03 1.08629E-03-5.99706E-14
 -1       257 9.76970E-03 1.10453E-03-6.38864E-14
 -1       258 1.00552E-02 1.12258E-03-6.78834E-14
 -1       259 1.03406E-02 1.14048E-03-7.19676E-14
 -1       260 1.06261E-02 1.15828E-03-7.61434E-14
 -1       261 1.09117E-02 1.17601E-03-8.04057E-14
 -1       262 1.11972E-02 1.19368E-03-8.47334E-14
 -1       263 1.14828E-02 1.21131E-03-8.91126E-14
 -1       264 1.17685E-02 1.22891E-03-9.35338E-14
 -1       265 1.20541E-02 1.24650E-03-9.80004E-14
 -1       266 1.23398E-02 1.26408E-03-1.02523E-13
 -1       267 1.26254E-02 1.28166E-03-1.07101E-13
 -1       268 1.29111E-02 1.29923E-03-1.11729E-13
 -1       269 1.31968E-02 1.31681E-03-1.16405E-13
 -1       270 1.34825E-02 1.33439E-03-1.21120E-13
 -1       271 1.37682E-02 1.35197E-03-1.25876E-13
 -1       272 1.40539E-02 1.36955E-03-1.30665E-13
 -1       273 1.43396E-02 1.38714E-03-1.35485E-13
 -1       274 1.46253E-02 1.40473E-03-1.40326E-13
 -1       275 1.49111E-02 1.42232E-03-1.45176E-13
 -1       276 1.49487E-02 1.36363E-03-1.46508E-13
 -1       277 1.49314E-02 1.27934E-03-1.47159E-13
 -1       278 1.49140E-02 1.19506E-03-1.47806E-13
 -1       279 1.48967E-02 1.11077E-03-1.48453E-13
 -1       280 1.48797E-02 1.02791E-03-1.49092E-13
 -1       281 1.48624E-02 9.43613E-04-1.49748E-13
 -1       282 1.48451E-02 8.59319E-04-1.50403E-13
 -1       283 1.48278E-02 7.75025E-04-1.51045E-13
 -1       284 1.48105E-02 6.90730E-04-1.51668E-13
 -1       285 1.47932E-02 6.06437E-04-1.52278E-13
 -1       286 1.47762E-02 5.23573E-04-1.52878E-13
 -1       287 1.47589E-02 4.39282E-04-1.53480E-13
 -1       288 1.47416E-02 3.54993E-04-1.54068E-13
 -1       289 1.47243E-02 2.70705E-04-1.54632E-13
 -1       290 1.46270E-02 1.98037E-04-1.53593E-13
 -1       291 3.92194E-03 1.46394E-04-4.80215E-15
 -1       292 3.78165E-03 2.21049E-04-4.44513E-15
 -1       293 3.53925E-03 3.13237E-04-4.08716E-15
 -1       294 3.22189E-03 4.30713E-04-3.62959E-15
 -1       295 2.83972E-03 5.56118E-04-3.14520E-15
 -1       296 2.48650E-03 6.61530E-04-2.56805E-15
 -1       297 2.11982E-03 7.08607E-04-2.05413E-15
 -1       298 1.76442E-03 6.67164E-04-1.59427E-15
 -1       299 1.42092E-03 5.64417E-04-1.20860E-15
 -1       300 1.06869E-03 4.12295E-04-8.87555E-16
 -1       301 7.44938E-04 2.67951E-04-6.54008E-16
 -1       302 4.74293E-04 1.53718E-04-4.79421E-16
 -1       303 2.63820E-04 7.84660E-05-3.54576E-16
 -1       304 1.37871E-04 4.21975E-05-2.82353E-16
 -1       305 8.80879E-05 2.58354E-05-2.38781E-16
 -1       306 1.15704E-04 1.87405E-05-2.75943E-16
 -1       307 2.28213E-04 5.47389E-06-3.36728E-16
 -1       308 4.17810E-04-5.21268E-05-4.81955E-16
 -1       309 6.85355E-04-1.37412E-04-6.74787E-16
 -1       310 9.78183E-04-2.64160E-04-9.67847E-16
 -1       311 1.31736E-03-3.89615E-04-1.31989E-15
 -1       312 1.65984E-03-4.84652E-04-1.76993E-15
 -1       313 2.00899E-03-5.13146E-04-2.27040E-15
 -1       314 2.38086E-03-4.70678E-04-2.86788E-15
 -1       315 2.77921E-03-3.58939E-04-3.41043E-15
 -1       316 3.14623E-03-2.27514E-04-3.90333E-15
 -1       317 3.48260E-03-9.34746E-05-4.34527E-15
 -1       318 3.75776E-03 7.46904E-06-4.59319E-15
 -1       319 3.91313E-03 8.95085E-05-4.79110E-15
 -1       320 4.05697E-04-2.51846E-04-7.48438E-17
 -1       321 5.67537E-04-2.31458E-04-2.49583E-16
 -1       322 5.86437E-04-3.05013E-04-2.34906E-16
 -1       323 5.07964E-04-7.54957E-05-2.31633E-16
 -1       324 4.15303E-04 2.01946E-06-2.08526E-16
 -1       325 2.75985E-04 4.99921E-05-1.81133E-16
 -1       326 7.74108E-05 1.93941E-05-1.10434E-16
 -1       327 1.19702E-04-1.44675E-05-1.21249E-16
 -1       328 2.50344E-04-1.56676E-05-1.39937E-16
 -1       329 3.94156E-04 3.57822E-05-1.44677E-16
 -1       330 4.87310E-04 1.17769E-04-1.36511E-16
 -1       331 5.36605E-04 2.04010E-04-1.14119E-16
 -1       332 5.73910E-04 2.89387E-04-7.47354E-17
 -1       333 6.77108E-04 3.84622E-04-6.00580E-17
 -1       334 1.06049E-03 5.86160E-04-2.52653E-16
 -1       335 1.06372E-03-5.47314E-04-7.24491E-16
 -1       336 1.40343E-03-6.69298E-04-1.30238E-15
 -1       337 1.72926E-03-7.42479E-04-2.05694E-15
 -1       338 2.04737E-03-7.61560E-04-2.98809E-15
 -1       339 2.36488E-03-7.32331E-04-4.09412E-15
 -1       340 2.68599E-03-6.70796E-04-5.36774E-15
 -1       341 3.01074E-03-5.95899E-04-6.79944E-15
 -1       342 3.33651E-03-5.22727E-04-8.38012E-15
 -1       343 3.66039E-03-4.59812E-04-1.01014E-14
 -1       344 3.98040E-03-4.10018E-04-1.19567E-14
 -1       345 4.29565E-03-3.72664E-04-1.39422E-14
 -1       346 4.60605E-03-3.45429E-04-1.60597E-14
 -1       347 4.91191E-03-3.25588E-04-1.83074E-14
 -1       348 5.21373E-03-3.10655E-04-2.06832E-14
 -1       349 5.51210E-03-2.98631E-04-2.31868E-14
 -1       350 5.80757E-03-2.88039E-04-2.58186E-14
 -1       351 6.10066E-03-2.77864E-04-2.85743E-14
 -1       352 6.39185E-03-2.67452E-04-3.14522E-14
 -1       353 6.68153E-03-2.56427E-04-3.44541E-14
 -1       354 6.97005E-03-2.44600E-04-3.75738E-14
 -1       355 7.25768E-03-2.31913E-04-4.08095E-14
 -1       356 7.54466E-03-2.18386E-04-4.41617E-14
 -1       357 7.83115E-03-2.04089E-04-4.76219E-14
 -1       358 8.11731E-03-1.89114E-04-5.11860E-14
 -1       359 8.40323E-03-1.73560E-04-5.48535E-14
 -1       360 8.68900E-03-1.57525E-04-5.86262E-14
 -1       361 8.97467E-03-1.41099E-04-6.25028E-14
 -1       362 9.26028E-03-1.24363E-04-6.64717E-14
 -1       363 9.54587E-03-1.07384E-04-7.05264E-14
 -1       364 9.83145E-03-9.02181E-05-7.46569E-14
 -1       365 1.01170E-02-7.29126E-05-7.88690E-14
 -1       366 1.04026E-02-5.55041E-05-8.31560E-14
 -1       367 1.06882E-02-3.80214E-05-8.75179E-14
 -1       368 1.09739E-02-2.04866E-05-9.19475E-14
 -1       369 1.12595E-02-2.91650E-06-9.64393E-14
 -1       370 1.15451E-02 1.46766E-05-1.00998E-13
 -1       371 1.18308E-02 3.22837E-05-1.05617E-13
 -1       372 1.21165E-02 4.98986E-05-1.10296E-13
 -1       373 1.24022E-02 6.75168E-05-1.15037E-13
 -1       374 1.26879E-02 8.51356E-05-1.19842E-13
 -1       375 1.29736E-02 1.02753E-04-1.24706E-13
 -1       376 1.32593E-02 1.20368E-04-1.29623E-13
 -1       377 1.35450E-02 1.37980E-04-1.34575E-13
 -1       378 1.38307E-02 1.55589E-04-1.39548E-13
 -1       379 1.41164E-02 1.73195E-04-1.44544E-13
 -1       380 1.43717E-02 1.85617E-04-1.49055E-13
 -1       381 1.42345E-03 7.57256E-04-5.82020E-16
 -1       382 1.76622E-03 8.80380E-04-1.05949E-15
 -1       383 2.09594E-03 9.39739E-04-1.69539E-15
 -1       384 2.42305E-03 9.35475E-04-2.49419E-15
 -1       385 2.75448E-03 8.86706E-04-3.45530E-15
 -1       386 3.09130E-03 8.20337E-04-4.57649E-15
 -1       387 3.43014E-03 7.58539E-04-5.85486E-15
 -1       388 3.76686E-03 7.13082E-04-7.28411E-15
 -1       389 4.09860E-03 6.87007E-04-8.85750E-15
 -1       390 4.42401E-03 6.78346E-04-1.05697E-14
 -1       391 4.74285E-03 6.83185E-04-1.24222E-14
 -1       392 5.05548E-03 6.97454E-04-1.44125E-14
 -1       393 5.36259E-03 7.17724E-04-1.65418E-14
 -1       394 5.66496E-03 7.41411E-04-1.88073E-14
 -1       395 5.96340E-03 7.66709E-04-2.12118E-14
 -1       396 6.25865E-03 7.92433E-04-2.37522E-14
 -1       397 6.55136E-03 8.17859E-04-2.64201E-14
 -1       398 6.84208E-03 8.42581E-04-2.92082E-14
 -1       399 7.13130E-03 8.66412E-04-3.21143E-14
 -1       400 7.41938E-03 8.89301E-04-3.51436E-14
 -1       401 7.70663E-03 9.11280E-04-3.83026E-14
 -1       402 7.99327E-03 9.32429E-04-4.15887E-14
 -1       403 8.27950E-03 9.52851E-04-4.49950E-14
 -1       404 8.56543E-03 9.72654E-04-4.85129E-14
 -1       405 8.85118E-03 9.91942E-04-5.21347E-14
 -1       406 9.13682E-03 1.01081E-03-5.58562E-14
 -1       407 9.42239E-03 1.02935E-03-5.96731E-14
 -1       408 9.70794E-03 1.04763E-03-6.35771E-14
 -1       409 9.99347E-03 1.06570E-03-6.75643E-14
 -1       410 1.02790E-02 1.08362E-03-7.16344E-14
 -1       411 1.05646E-02 1.10143E-03-7.57977E-14
 -1       412 1.08502E-02 1.11916E-03-8.00434E-14
 -1       413 1.11358E-02 1.13683E-03-8.43604E-14
 -1       414 1.14214E-02 1.15447E-03-8.87327E-14
 -1       415 1.17070E-02 1.17207E-03-9.31478E-14
 -1       416 1.19927E-02 1.18966E-03-9.76131E-14
 -1       417 1.22783E-02 1.20724E-03-1.02132E-13
 -1       418 1.25640E-02 1.22482E-03-1.06708E-13
 -1       419 1.28497E-02 1.24239E-03-1.11335E-13
 -1       420 1.31354E-02 1.25996E-03-1.16004E-13
 -1       421 1.34211E-02 1.27754E-03-1.20713E-13
 -1       422 1.37068E-02 1.29512E-03-1.25463E-13
 -1       423 1.39925E-02 1.31270E-03-1.30249E-13
 -1       424 1.42782E-02 1.33029E-03-1.35064E-13
 -1       425 1.45639E-02 1.34788E-03-1.39894E-13
 -1       426 1.47563E-02 1.35575E-03-1.43201E-13
 -1       427 1.46580E-02 1.13768E-03-1.43945E-13
 -1       428 1.46753E-02 1.22197E-03-1.43295E-13
 -1       429 1.47158E-02 1.28886E-03-1.43248E-13
 -1       430 1.46410E-02 1.05481E-03-1.44578E-13
 -1       431 1.46236E-02 9.70522E-04-1.45215E-13
 -1       432 1.46063E-02 8.86229E-04-1.45848E-13
 -1       433 1.45890E-02 8.01934E-04-1.46476E-13
 -1       434 1.45717E-02 7.17639E-04-1.47097E-13
 -1       435 1.45544E-02 6.33345E-04-1.47702E-13
 -1       436 1.45374E-02 5.50480E-04-1.48285E-13
 -1       437 1.45201E-02 4.66188E-04-1.48867E-13
 -1       438 1.45028E-02 3.81897E-04-1.49438E-13
 -1       439 1.44855E-02 2.97608E-04-1.49994E-13
 -1       440 3.66033E-03 2.19687E-04-4.80881E-15
 -1       441 3.95592E-03 1.23310E-04-5.55804E-15
 -1       442 3.86104E-03 1.60717E-04-5.17718E-15
 -1       443 3.35272E-03 3.26529E-04-4.28811E-15
 -1       444 3.02513E-03 4.53160E-04-3.81554E-15
 -1       445 5.50323E-04-1.56993E-04-2.46893E-16
 -1       446 2.28479E-03 7.17848E-04-2.41222E-15
 -1       447 1.92517E-03 7.32846E-04-1.77641E-15
 -1       448 1.65976E-03 6.63603E-04-1.37737E-15
 -1       449 1.29352E-03 4.92786E-04-9.44509E-16
 -1       450 9.46687E-04 3.03887E-04-6.49776E-16
 -1       451 6.45804E-04 1.58931E-04-4.67965E-16
 -1       452 3.86084E-04 5.28070E-05-3.16733E-16
 -1       453 2.01161E-04 1.49087E-05-2.42976E-16
 -1       454 1.09202E-04 9.91547E-06-1.94865E-16
 -1       455 9.39529E-05 3.25128E-05-1.76893E-16
 -1       456 1.60388E-04 4.56498E-05-2.08760E-16
 -1       457 3.37852E-04 1.82602E-05-3.28286E-16
 -1       458 5.55938E-04-4.57262E-05-4.68589E-16
 -1       459 8.98452E-04-1.88432E-04-7.45436E-16
 -1       460 1.16909E-03-3.18292E-04-1.03921E-15
 -1       461 1.52153E-03-4.71908E-04-1.53070E-15
 -1       462 1.84013E-03-5.39357E-04-2.08419E-15
 -1       463 2.13996E-03-5.31433E-04-2.69697E-15
 -1       464 2.54080E-03-4.10421E-04-3.53348E-15
 -1       465 2.90287E-03-2.63475E-04-4.06477E-15
 -1       466 3.26254E-03-1.08456E-04-4.69618E-15
 -1       467 3.62202E-03 1.75321E-05-5.09775E-15
 -1       468 3.84819E-03 8.55622E-05-5.35398E-15
 -1       469 2.58061E-03 6.32912E-04-2.97014E-15
 -1       470 1.30261E-04 5.18391E-05-1.35422E-16
 -1       471 3.95799E-03 1.37549E-04-5.93075E-15
 -1       472 6.89903E-04-1.06547E-04-4.21751E-16
 -1       473 2.11154E-03 7.61983E-04-2.11833E-15
 -1       474 5.06023E-04 7.22356E-05-2.98352E-16
 -1       475 8.79964E-04 4.09361E-04-2.68604E-16
 -1       476 9.65265E-04 4.96900E-04-2.67364E-16
 -1       477 1.21558E-03-5.38054E-04-1.02093E-15
 -1       478 1.33732E-03 6.77752E-04-5.93235E-16
 -1       479 1.69244E-03 8.16056E-04-1.06580E-15
 -1       480 1.55741E-03-6.43082E-04-1.68796E-15
 -1       481 1.88912E-03-6.91421E-04-2.53245E-15
 -1       482 2.21801E-03-6.79364E-04-3.55344E-15
 -1       483 2.55047E-03-6.22189E-04-4.74507E-15
 -1       484 2.88660E-03-5.44182E-04-6.09922E-15
 -1       485 3.22196E-03-4.65828E-04-7.60413E-15
 -1       486 3.55189E-03-3.98332E-04-9.25000E-15
 -1       487 3.87412E-03-3.45187E-04-1.10315E-14
 -1       488 4.18855E-03-3.05544E-04-1.29441E-14
 -1       489 4.49625E-03-2.76813E-04-1.49854E-14
 -1       490 4.79862E-03-2.56074E-04-1.71587E-14
 -1       491 5.09689E-03-2.40707E-04-1.94573E-14
 -1       492 5.39208E-03-2.28604E-04-2.18831E-14
 -1       493 5.68493E-03-2.18192E-04-2.44365E-14
 -1       494 5.97599E-03-2.08369E-04-2.71170E-14
 -1       495 6.26569E-03-1.98409E-04-2.99211E-14
 -1       496 6.55434E-03-1.87877E-04-3.28479E-14
 -1       497 6.84218E-03-1.76542E-04-3.58953E-14
 -1       498 7.12941E-03-1.64317E-04-3.90583E-14
 -1       499 7.41618E-03-1.51207E-04-4.23392E-14
 -1       500 7.70260E-03-1.37273E-04-4.57319E-14
 -1       501 7.98877E-03-1.22606E-04-4.92297E-14
 -1       502 8.27476E-03-1.07307E-04-5.28319E-14
 -1       503 8.56062E-03-9.14784E-05-5.65401E-14
 -1       504 8.84640E-03-7.52171E-05-6.03510E-14
 -1       505 9.13212E-03-5.86087E-05-6.42602E-14
 -1       506 9.41780E-03-4.17274E-05-6.82583E-14
 -1       507 9.70347E-03-2.46355E-05-7.23370E-14
 -1       508 9.98913E-03-7.38428E-06-7.64958E-14
 -1       509 1.02748E-02 9.98526E-06-8.07334E-14
 -1       510 1.05604E-02 2.74407E-05-8.50444E-14
 -1       511 1.08461E-02 4.49570E-05-8.94285E-14
 -1       512 1.11318E-02 6.25151E-05-9.38792E-14
 -1       513 1.14175E-02 8.01009E-05-9.83974E-14
 -1       514 1.17031E-02 9.77040E-05-1.02980E-13
 -1       515 1.19888E-02 1.15317E-04-1.07624E-13
 -1       516 1.22745E-02 1.32935E-04-1.12325E-13
 -1       517 1.25602E-02 1.50555E-04-1.17086E-13
 -1       518 1.28459E-02 1.68173E-04-1.21900E-13
 -1       519 1.31316E-02 1.85790E-04-1.26770E-13
 -1       520 1.34174E-02 2.03404E-04-1.31682E-13
 -1       521 1.37031E-02 2.21015E-04-1.36628E-13
 -1       522 1.39888E-02 2.38622E-04-1.41594E-13
 -1       523 3.79434E-03 1.77679E-04-5.61528E-15
 -1       524 2.25374E-03 8.71245E-04-2.25888E-15
 -1       525 2.59966E-03 8.30990E-04-3.17473E-15
 -1       526 2.94973E-03 7.60533E-04-4.25163E-15
 -1       527 3.29881E-03 6.91282E-04-5.48436E-15
 -1       528 3.64031E-03 6.38878E-04-6.86752E-15
 -1       529 3.97169E-03 6.07427E-04-8.39539E-15
 -1       530 4.29329E-03 5.94902E-04-1.00628E-14
 -1       531 4.60671E-03 5.97137E-04-1.18670E-14
 -1       532 4.91371E-03 6.09816E-04-1.38074E-14
 -1       533 5.21580E-03 6.29287E-04-1.58825E-14
 -1       534 5.51410E-03 6.52763E-04-1.80935E-14
 -1       535 5.80946E-03 6.78256E-04-2.04396E-14
 -1       536 6.10250E-03 7.04428E-04-2.29219E-14
 -1       537 6.39372E-03 7.30434E-04-2.55335E-14
 -1       538 6.68351E-03 7.55786E-04-2.82699E-14
 -1       539 6.97219E-03 7.80236E-04-3.11258E-14
 -1       540 7.26001E-03 8.03700E-04-3.41011E-14
 -1       541 7.54718E-03 8.26190E-04-3.72036E-14
 -1       542 7.83387E-03 8.47780E-04-4.04297E-14
 -1       543 8.12021E-03 8.68571E-04-4.37783E-14
 -1       544 8.40629E-03 8.88677E-04-4.72429E-14
 -1       545 8.69219E-03 9.08209E-04-5.08142E-14
 -1       546 8.97798E-03 9.27271E-04-5.44909E-14
 -1       547 9.26369E-03 9.45956E-04-5.82648E-14
 -1       548 9.54936E-03 9.64345E-04-6.21274E-14
 -1       549 9.83500E-03 9.82504E-04-6.60770E-14
 -1       550 1.01206E-02 1.00049E-03-7.01115E-14
 -1       551 1.04063E-02 1.01834E-03-7.42344E-14
 -1       552 1.06919E-02 1.03610E-03-7.84395E-14
 -1       553 1.09775E-02 1.05380E-03-8.27235E-14
 -1       554 1.12632E-02 1.07144E-03-8.70710E-14
 -1       555 1.15489E-02 1.08905E-03-9.14650E-14
 -1       556 1.18345E-02 1.10665E-03-9.59131E-14
 -1       557 1.21202E-02 1.12423E-03-1.00413E-13
 -1       558 1.24059E-02 1.14180E-03-1.04974E-13
 -1       559 1.26916E-02 1.15938E-03-1.09587E-13
 -1       560 1.29773E-02 1.17695E-03-1.14240E-13
 -1       561 1.32630E-02 1.19452E-03-1.18934E-13
 -1       562 1.35487E-02 1.21210E-03-1.23667E-13
 -1       563 1.38344E-02 1.22968E-03-1.28439E-13
 -1       564 1.41201E-02 1.24727E-03-1.33241E-13
 -1       565 1.44058E-02 1.26485E-03-1.38062E-13
 -1       566 1.43849E-02 9.97434E-04-1.40694E-13
 -1       567 1.43676E-02 9.13140E-04-1.41317E-13
 -1       568 1.44192E-02 1.16459E-03-1.39433E-13
 -1       569 1.44020E-02 1.08101E-03-1.40071E-13
 -1       570 1.43503E-02 8.28844E-04-1.41934E-13
 -1       571 1.43329E-02 7.44548E-04-1.42541E-13
 -1       572 1.43156E-02 6.60253E-04-1.43141E-13
 -1       573 1.42986E-02 5.77386E-04-1.43713E-13
 -1       574 1.42813E-02 4.93092E-04-1.44280E-13
 -1       575 1.42640E-02 4.08800E-04-1.44841E-13
 -1       576 1.42467E-02 3.24509E-04-1.45391E-13
 -1       577 3.94250E-03 1.16399E-04-6.21527E-15
 -1       578 1.97271E-03 8.69421E-04-1.60196E-15
 -1       579 2.43143E-03 6.97199E-04-2.79477E-15
 -1       580 3.26183E-03 3.65707E-04-4.66817E-15
 -1       581 3.54226E-03 2.57590E-04-5.21830E-15
 -1       582 3.76582E-03 7.47594E-05-5.95920E-15
 -1       583 6.97310E-04-9.13370E-05-4.91052E-16
 -1       584 8.31101E-04 3.04930E-04-3.16316E-16
 -1       585 7.37216E-04 1.93720E-04-3.37949E-16
 -1       586 2.80347E-03 5.60137E-04-3.65112E-15
 -1       587 1.10780E-03 3.89737E-04-6.74726E-16
 -1       588 1.78136E-03 7.23515E-04-1.49679E-15
 -1       589 4.17413E-04 1.54759E-05-2.89702E-16
 -1       590 1.48052E-03 5.99012E-04-1.06292E-15
 -1       591 8.46041E-04 2.38332E-04-5.01169E-16
 -1       592 1.72113E-03-5.47802E-04-1.92682E-15
 -1       593 1.01595E-03-2.49863E-04-7.85620E-16
 -1       594 1.32714E-03-4.06502E-04-1.20193E-15
 -1       595 1.97212E-03-5.69425E-04-2.50634E-15
 -1       596 2.31427E-03-5.04505E-04-3.37272E-15
 -1       597 2.76379E-03-3.17174E-04-4.33547E-15
 -1       598 3.08213E-03-1.73828E-04-4.98388E-15
 -1       599 3.47723E-03-1.48808E-05-5.57299E-15
 -1       600 8.92191E-04-3.89575E-04-5.67255E-16
 -1       601 7.73249E-04-2.05486E-04-4.57926E-16
 -1       602 3.94010E-03 1.54874E-04-6.37865E-15
 -1       603 1.41816E-02 2.48852E-04-1.44975E-13
 -1       604 4.00646E-03 1.30412E-04-6.59443E-15
 -1       605 3.06821E-03 4.80111E-04-4.46492E-15
 -1       606 8.39553E-04-2.99206E-04-5.18960E-16
 -1       607 1.51925E-03-5.08013E-04-1.54208E-15
 -1       608 2.54410E-03-4.38657E-04-4.13755E-15
 -1       609 2.30945E-03 7.59711E-04-2.56028E-15
 -1       610 1.25691E-03 5.96906E-04-5.89189E-16
 -1       611 3.17473E-03 6.19686E-04-5.08904E-15
 -1       612 2.80916E-03 7.01009E-04-3.89639E-15
 -1       613 1.73000E-03-6.19737E-04-2.08423E-15
 -1       614 2.06896E-03-6.32786E-04-3.01863E-15
 -1       615 2.41213E-03-5.79675E-04-4.12938E-15
 -1       616 2.76135E-03-4.94183E-04-5.40668E-15
 -1       617 3.10997E-03-4.06854E-04-6.83783E-15
 -1       618 3.44949E-03-3.33801E-04-8.41126E-15
 -1       619 3.77633E-03-2.78339E-04-1.01201E-14
 -1       620 4.09106E-03-2.38136E-04-1.19600E-14
 -1       621 4.39620E-03-2.09458E-04-1.39280E-14
 -1       622 4.69452E-03-1.88867E-04-1.60266E-14
 -1       623 4.98830E-03-1.73604E-04-1.82499E-14
 -1       624 5.27915E-03-1.61581E-04-2.06006E-14
 -1       625 5.56819E-03-1.51270E-04-2.30756E-14
 -1       626 5.85608E-03-1.41594E-04-2.56806E-14
 -1       627 6.14326E-03-1.31836E-04-2.84110E-14
 -1       628 6.42998E-03-1.21545E-04-3.12641E-14
 -1       629 6.71640E-03-1.10477E-04-3.42364E-14
 -1       630 7.00262E-03-9.85246E-05-3.73287E-14
 -1       631 7.28869E-03-8.56791E-05-4.05375E-14
 -1       632 7.57466E-03-7.19902E-05-4.38602E-14
 -1       633 7.86056E-03-5.75418E-05-4.72915E-14
 -1       634 8.14641E-03-4.24329E-05-5.08304E-14
 -1       635 8.43221E-03-2.67658E-05-5.44742E-14
 -1       636 8.71799E-03-1.06380E-05-5.82212E-14
 -1       637 9.00374E-03 5.86207E-06-6.20683E-14
 -1       638 9.28948E-03 2.26571E-05-6.60069E-14
 -1       639 9.57520E-03 3.96815E-05-7.00322E-14
 -1       640 9.86092E-03 5.68809E-05-7.41388E-14
 -1       641 1.01466E-02 7.42114E-05-7.83236E-14
 -1       642 1.04324E-02 9.16380E-05-8.25887E-14
 -1       643 1.07181E-02 1.09133E-04-8.69256E-14
 -1       644 1.10038E-02 1.26677E-04-9.13355E-14
 -1       645 1.12895E-02 1.44253E-04-9.58117E-14
 -1       646 1.15752E-02 1.61849E-04-1.00355E-13
 -1       647 1.18609E-02 1.79458E-04-1.04967E-13
 -1       648 1.21466E-02 1.97074E-04-1.09630E-13
 -1       649 1.24323E-02 2.14693E-04-1.14351E-13
 -1       650 1.27180E-02 2.32311E-04-1.19125E-13
 -1       651 1.30037E-02 2.49928E-04-1.23948E-13
 -1       652 1.32895E-02 2.67543E-04-1.28819E-13
 -1       653 1.35752E-02 2.85155E-04-1.33730E-13
 -1       654 1.38609E-02 3.02764E-04-1.38666E-13
 -1       655 3.52599E-03 5.59611E-04-6.43026E-15
 -1       656 3.85995E-03 5.24816E-04-7.91490E-15
 -1       657 4.17873E-03 5.11000E-04-9.53724E-15
 -1       658 4.48619E-03 5.12524E-04-1.12960E-14
 -1       659 4.78612E-03 5.24607E-04-1.31878E-14
 -1       660 5.08129E-03 5.43565E-04-1.52145E-14
 -1       661 5.37349E-03 5.66682E-04-1.73716E-14
 -1       662 5.66382E-03 5.92009E-04-1.96627E-14
 -1       663 5.95292E-03 6.18203E-04-2.20868E-14
 -1       664 6.24115E-03 6.44382E-04-2.46426E-14
 -1       665 6.52877E-03 6.70009E-04-2.73260E-14
 -1       666 6.81591E-03 6.94790E-04-3.01306E-14
 -1       667 7.10269E-03 7.18603E-04-3.30546E-14
 -1       668 7.38918E-03 7.41435E-04-3.61005E-14
 -1       669 7.67546E-03 7.63341E-04-3.92719E-14
 -1       670 7.96157E-03 7.84413E-04-4.25644E-14
 -1       671 8.24755E-03 8.04760E-04-4.59716E-14
 -1       672 8.53343E-03 8.24495E-04-4.94944E-14
 -1       673 8.81925E-03 8.43724E-04-5.31240E-14
 -1       674 9.10502E-03 8.62543E-04-5.68555E-14
 -1       675 9.39076E-03 8.81037E-04-6.06759E-14
 -1       676 9.67648E-03 8.99278E-04-6.45861E-14
 -1       677 9.96218E-03 9.17325E-04-6.85830E-14
 -1       678 1.02479E-02 9.35225E-04-7.26699E-14
 -1       679 1.05336E-02 9.53019E-04-7.68363E-14
 -1       680 1.08193E-02 9.70735E-04-8.10829E-14
 -1       681 1.11050E-02 9.88396E-04-8.54021E-14
 -1       682 1.13907E-02 1.00602E-03-8.97760E-14
 -1       683 1.16764E-02 1.02362E-03-9.42014E-14
 -1       684 1.19621E-02 1.04121E-03-9.86858E-14
 -1       685 1.22478E-02 1.05878E-03-1.03227E-13
 -1       686 1.25335E-02 1.07636E-03-1.07824E-13
 -1       687 1.28192E-02 1.09393E-03-1.12471E-13
 -1       688 1.31049E-02 1.11150E-03-1.17151E-13
 -1       689 1.33906E-02 1.12908E-03-1.21867E-13
 -1       690 1.36763E-02 1.14666E-03-1.26625E-13
 -1       691 1.39620E-02 1.16424E-03-1.31412E-13
 -1       692 1.41906E-02 1.16441E-03-1.35419E-13
 -1       693 1.40942E-02 7.71459E-04-1.38022E-13
 -1       694 1.40538E-02 3.13637E-04-1.42025E-13
 -1       695 1.41288E-02 9.40053E-04-1.36813E-13
 -1       696 1.40769E-02 6.87161E-04-1.38610E-13
 -1       697 1.41115E-02 8.55757E-04-1.37421E-13
 -1       698 3.48115E-03 3.16903E-04-5.54483E-15
 -1       699 1.40599E-02 6.04292E-04-1.39175E-13
 -1       700 1.40426E-02 5.19996E-04-1.39735E-13
 -1       701 1.40253E-02 4.35701E-04-1.40283E-13
 -1       702 2.62269E-03 6.72681E-04-3.34043E-15
 -1       703 3.77925E-03 2.16380E-04-6.32069E-15
 -1       704 3.68294E-03 3.83561E-05-6.56678E-15
 -1       705 1.26337E-03 5.04781E-04-7.45477E-16
 -1       706 1.82340E-03-5.87580E-04-2.23763E-15
 -1       707 1.10810E-03 4.29538E-04-5.72208E-16
 -1       708 1.62236E-03 7.52438E-04-1.05496E-15
 -1       709 1.59773E-03 6.85343E-04-1.14054E-15
 -1       710 3.35501E-03-8.46211E-05-6.06270E-15
 -1       711 1.95988E-03 7.84748E-04-1.77531E-15
 -1       712 2.13422E-03-5.74417E-04-3.06524E-15
 -1       713 1.38562E-03-5.33210E-04-1.33035E-15
 -1       714 2.97698E-03-2.63140E-04-5.38411E-15
 -1       715 1.11465E-03-4.22778E-04-8.74639E-16
 -1       716 3.91868E-03 1.01105E-04-7.02085E-15
 -1       717 1.91172E-03 8.21087E-04-1.58091E-15
 -1       718 1.26846E-03-4.15265E-04-1.10281E-15
 -1       719 4.03990E-03 1.43863E-04-7.05578E-15
 -1       720 1.41459E-02 1.02363E-03-1.36203E-13
 -1       721 4.02671E-03 1.21507E-04-7.41488E-15
 -1       722 1.41683E-02 1.09402E-03-1.35814E-13
 -1       723 1.39431E-02 3.69232E-04-1.39482E-13
 -1       724 3.31403E-03 4.22047E-04-5.30951E-15
 -1       725 1.12819E-03-3.37501E-04-8.94413E-16
 -1       726 1.42051E-03-5.10960E-04-1.38217E-15
 -1       727 3.77044E-03 4.36425E-04-7.41521E-15
 -1       728 2.77350E-03-4.12733E-04-5.18300E-15
 -1       729 3.13464E-03-3.14828E-04-6.59521E-15
 -1       730 3.47898E-03-2.42144E-04-8.14682E-15
 -1       731 3.80391E-03-1.92384E-04-9.83082E-15
 -1       732 4.11286E-03-1.58630E-04-1.16440E-14
 -1       733 4.41062E-03-1.35217E-04-1.35855E-14
 -1       734 4.70136E-03-1.18227E-04-1.56543E-14
 -1       735 4.98812E-03-1.05116E-04-1.78476E-14
 -1       736 5.27284E-03-9.41895E-05-2.01658E-14
 -1       737 5.55672E-03-8.42893E-05-2.26100E-14
 -1       738 5.84041E-03-7.46215E-05-2.51843E-14
 -1       739 6.12424E-03-6.46591E-05-2.78841E-14
 -1       740 6.40837E-03-5.40760E-05-3.07060E-14
 -1       741 6.69282E-03-4.26964E-05-3.36466E-14
 -1       742 6.97757E-03-3.04533E-05-3.67081E-14
 -1       743 7.26259E-03-1.73546E-05-3.98889E-14
 -1       744 7.54783E-03-3.45577E-06-4.31795E-14
 -1       745 7.83323E-03 1.11606E-05-4.65830E-14
 -1       746 8.11875E-03 2.63998E-05-5.00968E-14
 -1       747 8.40435E-03 4.21654E-05-5.37138E-14
 -1       748 8.69002E-03 5.83656E-05-5.74329E-14
 -1       749 8.97573E-03 7.49174E-05-6.12497E-14
 -1       750 9.26147E-03 9.17483E-05-6.51590E-14
 -1       751 9.54722E-03 1.08797E-04-6.91619E-14
 -1       752 9.83297E-03 1.26011E-04-7.32453E-14
 -1       753 1.01187E-02 1.43350E-04-7.74070E-14
 -1       754 1.04045E-02 1.60781E-04-8.16498E-14
 -1       755 1.06902E-02 1.78278E-04-8.59659E-14
 -1       756 1.09760E-02 1.95821E-04-9.03563E-14
 -1       757 1.12617E-02 2.13395E-04-9.48172E-14
 -1       758 1.15474E-02 2.30990E-04-9.93487E-14
 -1       759 1.18332E-02 2.48597E-04-1.03942E-13
 -1       760 1.21189E-02 2.66210E-04-1.08591E-13
 -1       761 1.24046E-02 2.83827E-04-1.13293E-13
 -1       762 1.26904E-02 3.01443E-04-1.18049E-13
 -1       763 1.29761E-02 3.19059E-04-1.22846E-13
 -1       764 1.32618E-02 3.36672E-04-1.27690E-13
 -1       765 1.35475E-02 3.54283E-04-1.32578E-13
 -1       766 1.37453E-02 3.61758E-04-1.36023E-13
 -1       767 3.54391E-03 4.21953E-04-6.33038E-15
 -1       768 4.38228E-03 4.28678E-04-1.07092E-14
 -1       769 4.67252E-03 4.41908E-04-1.25552E-14
 -1       770 4.95848E-03 4.61135E-04-1.45331E-14
 -1       771 5.24258E-03 4.84017E-04-1.66410E-14
 -1       772 5.52612E-03 5.08926E-04-1.88785E-14
 -1       773 5.80973E-03 5.34712E-04-2.12479E-14
 -1       774 6.09366E-03 5.60581E-04-2.37483E-14
 -1       775 6.37799E-03 5.86020E-04-2.63765E-14
 -1       776 6.66267E-03 6.10725E-04-2.91302E-14
 -1       777 6.94766E-03 6.34547E-04-3.20046E-14
 -1       778 7.23288E-03 6.57445E-04-3.49976E-14
 -1       779 7.51827E-03 6.79451E-04-3.81129E-14
 -1       780 7.80379E-03 7.00638E-04-4.13495E-14
 -1       781 8.08940E-03 7.21103E-04-4.47042E-14
 -1       782 8.37506E-03 7.40950E-04-4.81741E-14
 -1       783 8.66077E-03 7.60279E-04-5.17544E-14
 -1       784 8.94649E-03 7.79186E-04-5.54406E-14
 -1       785 9.23223E-03 7.97755E-04-5.92218E-14
 -1       786 9.51798E-03 8.16057E-04-6.30923E-14
 -1       787 9.80373E-03 8.34153E-04-6.70518E-14
 -1       788 1.00895E-02 8.52093E-04-7.10991E-14
 -1       789 1.03752E-02 8.69917E-04-7.52290E-14
 -1       790 1.06610E-02 8.87656E-04-7.94377E-14
 -1       791 1.09467E-02 9.05335E-04-8.37230E-14
 -1       792 1.12324E-02 9.22972E-04-8.80768E-14
 -1       793 1.15182E-02 9.40581E-04-9.24856E-14
 -1       794 1.18039E-02 9.58173E-04-9.69472E-14
 -1       795 1.20896E-02 9.75755E-04-1.01469E-13
 -1       796 1.23753E-02 9.93331E-04-1.06048E-13
 -1       797 1.26610E-02 1.01091E-03-1.10682E-13
 -1       798 1.29468E-02 1.02848E-03-1.15355E-13
 -1       799 1.32325E-02 1.04606E-03-1.20060E-13
 -1       800 1.35182E-02 1.06364E-03-1.24803E-13
 -1       801 1.38039E-02 1.08122E-03-1.29578E-13
 -1       802 1.39861E-02 1.08762E-03-1.32691E-13
 -1       803 3.74418E-03 2.91463E-04-6.76965E-15
 -1       804 4.08367E-03 4.25135E-04-8.99522E-15
 -1       805 1.38038E-02 5.46901E-04-1.35222E-13
 -1       806 1.38381E-02 7.14072E-04-1.34114E-13
 -1       807 1.37865E-02 4.62603E-04-1.35760E-13
 -1       808 1.38209E-02 6.30486E-04-1.34675E-13
 -1       809 3.87863E-03 6.38167E-05-7.71107E-15
 -1       810 3.98068E-03 1.83382E-04-7.21500E-15
 -1       811 3.64173E-03-2.38178E-05-7.36159E-15
 -1       812 3.30708E-03-1.70321E-04-6.66847E-15
 -1       813 2.30384E-03-5.44061E-04-3.58917E-15
 -1       814 1.38899E-02 9.66612E-04-1.32338E-13
 -1       815 4.10819E-03 1.36614E-04-7.89736E-15
 -1       816 1.38726E-02 8.82315E-04-1.32938E-13
 -1       817 1.38553E-02 7.98194E-04-1.33531E-13
 -1       818 1.37659E-02 4.12180E-04-1.35894E-13
 -1       819 3.96571E-03 2.43177E-04-7.69416E-15
 -1       820 4.01379E-03 9.57004E-05-8.12462E-15
 -1       821 4.84658E-03 3.82810E-04-1.38394E-14
 -1       822 3.91832E-03 1.44293E-05-8.78797E-15
 -1       823 3.74545E-03-1.14085E-04-8.92371E-15
 -1       824 4.04700E-03-8.48436E-05-1.06651E-14
 -1       825 4.33533E-03-6.60482E-05-1.25342E-14
 -1       826 4.61675E-03-5.22381E-05-1.45289E-14
 -1       827 4.89505E-03-4.09296E-05-1.66480E-14
 -1       828 5.17245E-03-3.07900E-05-1.88910E-14
 -1       829 5.45016E-03-2.10379E-05-2.12585E-14
 -1       830 5.72877E-03-1.11718E-05-2.37555E-14
 -1       831 6.00851E-03-8.60287E-07-2.63803E-14
 -1       832 6.28939E-03 1.01054E-05-2.91289E-14
 -1       833 6.57132E-03 2.18385E-05-3.19972E-14
 -1       834 6.85416E-03 3.43786E-05-3.49838E-14
 -1       835 7.13775E-03 4.77109E-05-3.80904E-14
 -1       836 7.42193E-03 6.17835E-05-4.13157E-14
 -1       837 7.70659E-03 7.65226E-05-4.46520E-14
 -1       838 7.99159E-03 9.18435E-05-4.80988E-14
 -1       839 8.27686E-03 1.07659E-04-5.16552E-14
 -1       840 8.56232E-03 1.23887E-04-5.53126E-14
 -1       841 8.84790E-03 1.40450E-04-5.90680E-14
 -1       842 9.13357E-03 1.57282E-04-6.29154E-14
 -1       843 9.41930E-03 1.74324E-04-6.68594E-14
 -1       844 9.70506E-03 1.91528E-04-7.08912E-14
 -1       845 9.99084E-03 2.08856E-04-7.50048E-14
 -1       846 1.02766E-02 2.26275E-04-7.91957E-14
 -1       847 1.05624E-02 2.43761E-04-8.34638E-14
 -1       848 1.08482E-02 2.61294E-04-8.78084E-14
 -1       849 1.11340E-02 2.78860E-04-9.22314E-14
 -1       850 1.14197E-02 2.96447E-04-9.67240E-14
 -1       851 1.17055E-02 3.14047E-04-1.01282E-13
 -1       852 1.19912E-02 3.31656E-04-1.05895E-13
 -1       853 1.22770E-02 3.49268E-04-1.10564E-13
 -1       854 1.25627E-02 3.66882E-04-1.15277E-13
 -1       855 1.28484E-02 3.84495E-04-1.20041E-13
 -1       856 1.31342E-02 4.02107E-04-1.24846E-13
 -1       857 1.34199E-02 4.19717E-04-1.29696E-13
 -1       858 5.12027E-03 4.05622E-04-1.58978E-14
 -1       859 4.57316E-03 3.62471E-04-1.19081E-14
 -1       860 5.39531E-03 4.29872E-04-1.80847E-14
 -1       861 5.67211E-03 4.54796E-04-2.04010E-14
 -1       862 5.95067E-03 4.79821E-04-2.28483E-14
 -1       863 6.23080E-03 5.04536E-04-2.54241E-14
 -1       864 6.51227E-03 5.28668E-04-2.81255E-14
 -1       865 6.79484E-03 5.52065E-04-3.09492E-14
 -1       866 7.07827E-03 5.74664E-04-3.38929E-14
 -1       867 7.36236E-03 5.96472E-04-3.69557E-14
 -1       868 7.64696E-03 6.17536E-04-4.01368E-14
 -1       869 7.93193E-03 6.37933E-04-4.34387E-14
 -1       870 8.21718E-03 6.57747E-04-4.68561E-14
 -1       871 8.50261E-03 6.77070E-04-5.03857E-14
 -1       872 8.78819E-03 6.95985E-04-5.40245E-14
 -1       873 9.07384E-03 7.14569E-04-5.77637E-14
 -1       874 9.35956E-03 7.32891E-04-6.15955E-14
 -1       875 9.64531E-03 7.51009E-04-6.55163E-14
 -1       876 9.93108E-03 7.68969E-04-6.95241E-14
 -1       877 1.02169E-02 7.86811E-04-7.36200E-14
 -1       878 1.05026E-02 8.04567E-04-7.77911E-14
 -1       879 1.07884E-02 8.22260E-04-8.20420E-14
 -1       880 1.10742E-02 8.39908E-04-8.63667E-14
 -1       881 1.13599E-02 8.57527E-04-9.07559E-14
 -1       882 1.16457E-02 8.75126E-04-9.52013E-14
 -1       883 1.19314E-02 8.92714E-04-9.97033E-14
 -1       884 1.22172E-02 9.10294E-04-1.04265E-13
 -1       885 1.25029E-02 9.27872E-04-1.08882E-13
 -1       886 1.27886E-02 9.45449E-04-1.13543E-13
 -1       887 1.30744E-02 9.63027E-04-1.18240E-13
 -1       888 1.33601E-02 9.80607E-04-1.22972E-13
 -1       889 1.36458E-02 9.98189E-04-1.27735E-13
 -1       890 1.35477E-02 4.89506E-04-1.31274E-13
 -1       891 4.12346E-03 1.66774E-04-8.07126E-15
 -1       892 4.13185E-03 1.18508E-04-8.62928E-15
 -1       893 4.14210E-03 2.11553E-04-8.58092E-15
 -1       894 3.92919E-03 3.20516E-04-7.90515E-15
 -1       895 1.35648E-02 5.73093E-04-1.30748E-13
 -1       896 4.29763E-03 3.46176E-04-1.01073E-14
 -1       897 1.35993E-02 7.40897E-04-1.29648E-13
 -1       898 4.05750E-03 5.54038E-05-9.22946E-15
 -1       899 1.36338E-02 9.09233E-04-1.28484E-13
 -1       900 1.35821E-02 6.56994E-04-1.30207E-13
 -1       901 1.36165E-02 8.25021E-04-1.29073E-13
 -1       902 4.17857E-03 2.54940E-05-1.05149E-14
 -1       903 5.00460E-03 3.32544E-04-1.51430E-14
 -1       904 4.43653E-03 3.34494E-05-1.23658E-14
 -1       905 4.69577E-03 4.13939E-05-1.43406E-14
 -1       906 4.95790E-03 5.01351E-05-1.64392E-14
 -1       907 5.22340E-03 5.97612E-05-1.86621E-14
 -1       908 5.49224E-03 7.02255E-05-2.10106E-14
 -1       909 5.76417E-03 8.14762E-05-2.34868E-14
 -1       910 6.03885E-03 9.34780E-05-2.60906E-14
 -1       911 6.31590E-03 1.06203E-04-2.88191E-14
 -1       912 6.59493E-03 1.19619E-04-3.16669E-14
 -1       913 6.87560E-03 1.33684E-04-3.46324E-14
 -1       914 7.15757E-03 1.48344E-04-3.77170E-14
 -1       915 7.44059E-03 1.63537E-04-4.09199E-14
 -1       916 7.72440E-03 1.79199E-04-4.42372E-14
 -1       917 8.00882E-03 1.95261E-04-4.76683E-14
 -1       918 8.29370E-03 2.11661E-04-5.12076E-14
 -1       919 8.57890E-03 2.28340E-04-5.48533E-14
 -1       920 8.86433E-03 2.45245E-04-5.85894E-14
 -1       921 9.14991E-03 2.62329E-04-6.24177E-14
 -1       922 9.43561E-03 2.79555E-04-6.63414E-14
 -1       923 9.72136E-03 2.96889E-04-7.03591E-14
 -1       924 1.00072E-02 3.14305E-04-7.44542E-14
 -1       925 1.02930E-02 3.31782E-04-7.86298E-14
 -1       926 1.05788E-02 3.49304E-04-8.28896E-14
 -1       927 1.08646E-02 3.66858E-04-8.72226E-14
 -1       928 1.11504E-02 3.84433E-04-9.16317E-14
 -1       929 1.14362E-02 4.02022E-04-9.61159E-14
 -1       930 1.17219E-02 4.19621E-04-1.00660E-13
 -1       931 1.20077E-02 4.37225E-04-1.05264E-13
 -1       932 1.22935E-02 4.54832E-04-1.09918E-13
 -1       933 1.25792E-02 4.72440E-04-1.14621E-13
 -1       934 1.28650E-02 4.90047E-04-1.19364E-13
 -1       935 1.31507E-02 5.07654E-04-1.24147E-13
 -1       936 5.53854E-03 3.79170E-04-1.95442E-14
 -1       937 4.74394E-03 3.10044E-04-1.31316E-14
 -1       938 5.81097E-03 4.02745E-04-2.19403E-14
 -1       939 6.08633E-03 4.26140E-04-2.44648E-14
 -1       940 6.36410E-03 4.49146E-04-2.71133E-14
 -1       941 6.64382E-03 4.71623E-04-2.98861E-14
 -1       942 6.92510E-03 4.93496E-04-3.27818E-14
 -1       943 7.20759E-03 5.14746E-04-3.57939E-14
 -1       944 7.49101E-03 5.35391E-04-3.89231E-14
 -1       945 7.77514E-03 5.55479E-04-4.21709E-14
 -1       946 8.05979E-03 5.75073E-04-4.55361E-14
 -1       947 8.34483E-03 5.94240E-04-4.90179E-14
 -1       948 8.63014E-03 6.13049E-04-5.26104E-14
 -1       949 8.91564E-03 6.31565E-04-5.63042E-14
 -1       950 9.20126E-03 6.49845E-04-6.00955E-14
 -1       951 9.48697E-03 6.67938E-04-6.39764E-14
 -1       952 9.77273E-03 6.85887E-04-6.79449E-14
 -1       953 1.00585E-02 7.03725E-04-7.20033E-14
 -1       954 1.03443E-02 7.21483E-04-7.61407E-14
 -1       955 1.06301E-02 7.39180E-04-8.03543E-14
 -1       956 1.09159E-02 7.56835E-04-8.46483E-14
 -1       957 1.12017E-02 7.74461E-04-8.90119E-14
 -1       958 1.14875E-02 7.92067E-04-9.34411E-14
 -1       959 1.17732E-02 8.09660E-04-9.79271E-14
 -1       960 1.20590E-02 8.27246E-04-1.02471E-13
 -1       961 1.23448E-02 8.44829E-04-1.07069E-13
 -1       962 1.26305E-02 8.62410E-04-1.11715E-13
 -1       963 1.29162E-02 8.79991E-04-1.16401E-13
 -1       964 1.32020E-02 8.97573E-04-1.21124E-13
 -1       965 1.34179E-02 9.03403E-04-1.24797E-13
 -1       966 4.25079E-03 1.55201E-04-9.20026E-15
 -1       967 5.26958E-03 3.55676E-04-1.72795E-14
 -1       968 4.29092E-03 2.77540E-04-9.88630E-15
 -1       969 1.33605E-02 7.67725E-04-1.25213E-13
 -1       970 4.51665E-03 2.92971E-04-1.14589E-14
 -1       971 4.19228E-03 8.73024E-05-9.76717E-15
 -1       972 4.31533E-03 1.92406E-04-9.74950E-15
 -1       973 1.33432E-02 6.83819E-04-1.25770E-13
 -1       974 4.35357E-03 1.36070E-04-1.03837E-14
 -1       975 4.62280E-03 9.42759E-05-1.32079E-14
 -1       976 4.87095E-03 1.02824E-04-1.52318E-14
 -1       977 5.12634E-03 1.13094E-04-1.73795E-14
 -1       978 5.38770E-03 1.24695E-04-1.96519E-14
 -1       979 5.65398E-03 1.37320E-04-2.20524E-14
 -1       980 5.92433E-03 1.50764E-04-2.45792E-14
 -1       981 6.19802E-03 1.64886E-04-2.72341E-14
 -1       982 6.47447E-03 1.79585E-04-3.00093E-14
 -1       983 6.75315E-03 1.94782E-04-3.29030E-14
 -1       984 7.03362E-03 2.10409E-04-3.59143E-14
 -1       985 7.31549E-03 2.26408E-04-3.90451E-14
 -1       986 7.59846E-03 2.42722E-04-4.22934E-14
 -1       987 7.88227E-03 2.59304E-04-4.56574E-14
 -1       988 8.16671E-03 2.76108E-04-4.91322E-14
 -1       989 8.45160E-03 2.93095E-04-5.27150E-14
 -1       990 8.73683E-03 3.10229E-04-5.64011E-14
 -1       991 9.02228E-03 3.27481E-04-6.01750E-14
 -1       992 9.30790E-03 3.44826E-04-6.40402E-14
 -1       993 9.59361E-03 3.62242E-04-6.80025E-14
 -1       994 9.87939E-03 3.79713E-04-7.20498E-14
 -1       995 1.01652E-02 3.97225E-04-7.61770E-14
 -1       996 1.04510E-02 4.14767E-04-8.03883E-14
 -1       997 1.07368E-02 4.32330E-04-8.46790E-14
 -1       998 1.10227E-02 4.49909E-04-8.90432E-14
 -1       999 1.13085E-02 4.67497E-04-9.34825E-14
 -1      1000 1.15943E-02 4.85093E-04-9.79883E-14
 -1      1001 1.18800E-02 5.02692E-04-1.02556E-13
 -1      1002 1.21658E-02 5.20294E-04-1.07179E-13
 -1      1003 1.24516E-02 5.37896E-04-1.11848E-13
 -1      1004 1.27373E-02 5.55499E-04-1.16562E-13
 -1      1005 1.30231E-02 5.73101E-04-1.21309E-13
 -1      1006 4.89191E-03 2.66127E-04-1.43764E-14
 -1      1007 5.94316E-03 3.51218E-04-2.34966E-14
 -1      1008 6.21711E-03 3.72519E-04-2.60955E-14
 -1      1009 6.49386E-03 3.93559E-04-2.88188E-14
 -1      1010 6.77285E-03 4.14251E-04-3.16618E-14
 -1      1011 7.05360E-03 4.34549E-04-3.46258E-14
 -1      1012 7.33572E-03 4.54442E-04-3.77046E-14
 -1      1013 7.61888E-03 4.73947E-04-4.09028E-14
 -1      1014 7.90283E-03 4.93095E-04-4.42190E-14
 -1      1015 8.18738E-03 5.11928E-04-4.76515E-14
 -1      1016 8.47235E-03 5.30492E-04-5.11959E-14
 -1      1017 8.75762E-03 5.48830E-04-5.48456E-14
 -1      1018 9.04311E-03 5.66984E-04-5.85948E-14
 -1      1019 9.32874E-03 5.84991E-04-6.24371E-14
 -1      1020 9.61446E-03 6.02883E-04-6.63658E-14
 -1      1021 9.90023E-03 6.20686E-04-7.03829E-14
 -1      1022 1.01860E-02 6.38423E-04-7.44851E-14
 -1      1023 1.04718E-02 6.56110E-04-7.86663E-14
 -1      1024 1.07577E-02 6.73762E-04-8.29261E-14
 -1      1025 1.10435E-02 6.91389E-04-8.72609E-14
 -1      1026 1.13293E-02 7.08998E-04-9.16668E-14
 -1      1027 1.16151E-02 7.26596E-04-9.61359E-14
 -1      1028 1.19008E-02 7.44188E-04-1.00662E-13
 -1      1029 1.21866E-02 7.61775E-04-1.05243E-13
 -1      1030 1.24724E-02 7.79361E-04-1.09877E-13
 -1      1031 1.27581E-02 7.96947E-04-1.14552E-13
 -1      1032 1.30438E-02 8.14533E-04-1.19264E-13
 -1      1033 1.32812E-02 8.32649E-04-1.23169E-13
 -1      1034 5.14592E-03 2.87097E-04-1.64650E-14
 -1      1035 1.33026E-02 6.15049E-04-1.25750E-13
 -1      1036 5.67272E-03 3.29780E-04-2.10231E-14
 -1      1037 5.40662E-03 3.08359E-04-1.86790E-14
 -1      1038 4.40208E-03 8.98803E-05-1.14337E-14
 -1      1039 4.50687E-03 2.08126E-04-1.13155E-14
 -1      1040 1.31231E-02 7.49605E-04-1.21291E-13
 -1      1041 4.69368E-03 2.36294E-04-1.28076E-14
 -1      1042 4.44026E-03 1.69763E-04-1.08551E-14
 -1      1043 1.30637E-02 6.41875E-04-1.21345E-13
 -1      1044 5.02704E-03 1.61033E-04-1.61153E-14
 -1      1045 5.28127E-03 1.74737E-04-1.83112E-14
 -1      1046 5.54231E-03 1.89436E-04-2.06342E-14
 -1      1047 5.80871E-03 2.04878E-04-2.30844E-14
 -1      1048 6.07940E-03 2.20873E-04-2.56627E-14
 -1      1049 6.35354E-03 2.37278E-04-2.83665E-14
 -1      1050 6.63044E-03 2.53985E-04-3.11891E-14
 -1      1051 6.90954E-03 2.70918E-04-3.41297E-14
 -1      1052 7.19039E-03 2.88018E-04-3.71885E-14
 -1      1053 7.47258E-03 3.05243E-04-4.03648E-14
 -1      1054 7.75581E-03 3.22561E-04-4.36587E-14
 -1      1055 8.03983E-03 3.39949E-04-4.70683E-14
 -1      1056 8.32442E-03 3.57391E-04-5.05884E-14
 -1      1057 8.60944E-03 3.74874E-04-5.42161E-14
 -1      1058 8.89476E-03 3.92386E-04-5.79390E-14
 -1      1059 9.18028E-03 4.09922E-04-6.17527E-14
 -1      1060 9.46594E-03 4.27476E-04-6.56578E-14
 -1      1061 9.75168E-03 4.45042E-04-6.96544E-14
 -1      1062 1.00375E-02 4.62618E-04-7.37352E-14
 -1      1063 1.03233E-02 4.80201E-04-7.78994E-14
 -1      1064 1.06091E-02 4.97789E-04-8.21441E-14
 -1      1065 1.08950E-02 5.15380E-04-8.64647E-14
 -1      1066 1.11808E-02 5.32974E-04-9.08590E-14
 -1      1067 1.14666E-02 5.50570E-04-9.53221E-14
 -1      1068 1.17524E-02 5.68166E-04-9.98514E-14
 -1      1069 1.20381E-02 5.85763E-04-1.04439E-13
 -1      1070 1.23239E-02 6.03360E-04-1.09077E-13
 -1      1071 1.26097E-02 6.20958E-04-1.13757E-13
 -1      1072 1.28367E-02 6.31416E-04-1.17538E-13
 -1      1073 6.06986E-03 2.98907E-04-2.50679E-14
 -1      1074 6.89984E-03 3.56050E-04-3.34514E-14
 -1      1075 7.18069E-03 3.74854E-04-3.64828E-14
 -1      1076 7.46289E-03 3.93488E-04-3.96305E-14
 -1      1077 7.74613E-03 4.11950E-04-4.28981E-14
 -1      1078 8.03015E-03 4.30251E-04-4.62835E-14
 -1      1079 8.31475E-03 4.48409E-04-4.97824E-14
 -1      1080 8.59977E-03 4.66443E-04-5.33888E-14
 -1      1081 8.88509E-03 4.84373E-04-5.70951E-14
 -1      1082 9.17061E-03 5.02219E-04-6.08943E-14
 -1      1083 9.45627E-03 5.19998E-04-6.47822E-14
 -1      1084 9.74201E-03 5.37724E-04-6.87613E-14
 -1      1085 1.00278E-02 5.55410E-04-7.28278E-14
 -1      1086 1.03136E-02 5.73066E-04-7.69746E-14
 -1      1087 1.05994E-02 5.90700E-04-8.12012E-14
 -1      1088 1.08853E-02 6.08318E-04-8.55060E-14
 -1      1089 1.11711E-02 6.25925E-04-8.98839E-14
 -1      1090 1.14569E-02 6.43525E-04-9.43278E-14
 -1      1091 1.17427E-02 6.61121E-04-9.88393E-14
 -1      1092 1.20285E-02 6.78713E-04-1.03406E-13
 -1      1093 1.23142E-02 6.96304E-04-1.08024E-13
 -1      1094 1.26000E-02 7.13895E-04-1.12689E-13
 -1      1095 1.28615E-02 7.31750E-04-1.16977E-13
 -1      1096 6.62075E-03 3.37091E-04-3.05372E-14
 -1      1097 6.34389E-03 3.18020E-04-2.77421E-14
 -1      1098 5.01970E-03 2.24466E-04-1.56385E-14
 -1      1099 5.79936E-03 2.79856E-04-2.25193E-14
 -1      1100 4.78177E-03 1.48704E-04-1.40434E-14
 -1      1101 5.27290E-03 2.42492E-04-1.78051E-14
 -1      1102 4.53777E-03 1.36756E-04-1.20176E-14
 -1      1103 5.53332E-03 2.61001E-04-2.00978E-14
 -1      1104 4.65203E-03 1.80755E-04-1.26579E-14
 -1      1105 4.85089E-03 2.07983E-04-1.42438E-14
 -1      1106 0.00000E+00 0.00000E+00 0.00000E+00
 -1      1107 0.00000E+00 0.00000E+00 0.00000E+00
 -1      1108 0.00000E+00 0.00000E+00 0.00000E+00
 -1      1109 0.00000E+00 0.00000E+00 0.00000E+00
 -1      1110 0.00000E+00 0.00000E+00 0.00000E+00
 -1      1111 0.00000E+00 0.00000E+00 0.00000E+00
 -1      1112 0.00000E+00 0.00000E+00 0.00000E+00
 -1      1113 0.00000E+00 0.00000E+00 0.00000E+00
 -1      1114 0.00000E+00 0.00000E+00 0.00000E+00
 -1      1115 0.00000E+00 0.00000E+00 0.00000E+00
 -1      1116 0.00000E+00 0.00000E+00 0.00000E+00
 -1      1117 0.00000E+00 0.00000E+00 0.00000E+00
 -1      1118 0.00000E+00 0.00000E+00 0.00000E+00
 -1      1119 0.00000E+00 0.00000E+00 0.00000E+00
 -1      1120 0.00000E+00 0.00000E+00 0.00000E+00
 -1      1121 0.00000E+00 0.00000E+00 0.00000E+00
 -1      1122 0.00000E+00 0.00000E+00 0.00000E+00
 -1      1123 2.72057E-04-1.94698E-04-1.62630E-19
 -1      1124 7.02317E-04-4.60084E-04-1.14031E-16
 -1      1125 1.04363E-03-6.47985E-04-3.93999E-16
 -1      1126 1.35265E-03-7.83951E-04-8.68026E-16
 -1      1127 1.63852E-03-8.73785E-04-1.52703E-15
 -1      1128 1.91152E-03-9.15404E-04-2.36699E-15
 -1      1129 2.18384E-03-9.10257E-04-3.38584E-15
 -1      1130 2.46599E-03-8.67523E-04-4.57849E-15
 -1      1131 2.76350E-03-8.02025E-04-5.93682E-15
 -1      1132 3.07608E-03-7.29090E-04-7.45310E-15
 -1      1133 3.39944E-03-6.60280E-04-9.11929E-15
 -1      1134 3.72787E-03-6.01890E-04-1.09246E-14
 -1      1135 4.05632E-03-5.55717E-04-1.28622E-14
 -1      1136 4.38128E-03-5.20754E-04-1.49322E-14
 -1      1137 4.70085E-03-4.94738E-04-1.71349E-14
 -1      1138 5.01441E-03-4.75171E-04-1.94719E-14
 -1      1139 5.32214E-03-4.59834E-04-2.19394E-14
 -1      1140 5.62467E-03-4.46978E-04-2.45362E-14
 -1      1141 5.92284E-03-4.35329E-04-2.72593E-14
 -1      1142 6.21747E-03-4.24020E-04-3.01063E-14
 -1      1143 6.50935E-03-4.12501E-04-3.30761E-14
 -1      1144 6.79915E-03-4.00456E-04-3.61668E-14
 -1      1145 7.08741E-03-3.87729E-04-3.93727E-14
 -1      1146 7.37457E-03-3.74272E-04-4.26993E-14
 -1      1147 7.66097E-03-3.60106E-04-4.61368E-14
 -1      1148 7.94687E-03-3.45290E-04-4.96756E-14
 -1      1149 8.23245E-03-3.29901E-04-5.33141E-14
 -1      1150 8.51785E-03-3.14025E-04-5.70614E-14
 -1      1151 8.80316E-03-2.97744E-04-6.09192E-14
 -1      1152 9.08844E-03-2.81134E-04-6.48735E-14
 -1      1153 9.37373E-03-2.64262E-04-6.89159E-14
 -1      1154 9.65905E-03-2.47185E-04-7.30403E-14
 -1      1155 9.94442E-03-2.29952E-04-7.72381E-14
 -1      1156 1.02298E-02-2.12601E-04-8.15108E-14
 -1      1157 1.05153E-02-1.95163E-04-8.58616E-14
 -1      1158 1.08008E-02-1.77662E-04-9.02838E-14
 -1      1159 1.10864E-02-1.60118E-04-9.47671E-14
 -1      1160 1.13720E-02-1.42544E-04-9.93100E-14
 -1      1161 1.16576E-02-1.24950E-04-1.03913E-13
 -1      1162 1.19432E-02-1.07345E-04-1.08573E-13
 -1      1163 1.22289E-02-8.97335E-05-1.13302E-13
 -1      1164 1.25145E-02-7.21190E-05-1.18113E-13
 -1      1165 1.28002E-02-5.45040E-05-1.22994E-13
 -1      1166 1.30859E-02-3.68903E-05-1.27929E-13
 -1      1167 1.33716E-02-1.92786E-05-1.32908E-13
 -1      1168 1.36573E-02-1.66952E-06-1.37910E-13
 -1      1169 1.39431E-02 1.59367E-05-1.42924E-13
 -1      1170 1.42288E-02 3.35400E-05-1.47953E-13
 -1      1171 1.45145E-02 5.11408E-05-1.53003E-13
 -1      1172 1.47931E-02 6.82999E-05-1.57956E-13
 -1      1173 3.14044E-04 2.18341E-04 4.48047E-17
 -1      1174 7.63761E-04 4.86217E-04 5.54840E-17
 -1      1175 1.13993E-03 6.97095E-04-5.13912E-17
 -1      1176 1.47736E-03 8.68293E-04-3.00012E-16
 -1      1177 1.78187E-03 9.94866E-04-6.93469E-16
 -1      1178 2.06581E-03 1.06470E-03-1.23960E-15
 -1      1179 2.34703E-03 1.07493E-03-1.94744E-15
 -1      1180 2.64139E-03 1.03825E-03-2.81914E-15
 -1      1181 2.95618E-03 9.77134E-04-3.85075E-15
 -1      1182 3.28931E-03 9.13628E-04-5.04504E-15
 -1      1183 3.63319E-03 8.62296E-04-6.39765E-15
 -1      1184 3.97951E-03 8.29000E-04-7.89821E-15
 -1      1185 4.32202E-03 8.13494E-04-9.53876E-15
 -1      1186 4.65718E-03 8.12590E-04-1.13235E-14
 -1      1187 4.98370E-03 8.22356E-04-1.32543E-14
 -1      1188 5.30174E-03 8.39233E-04-1.53293E-14
 -1      1189 5.61223E-03 8.60433E-04-1.75480E-14
 -1      1190 5.91638E-03 8.83949E-04-1.99056E-14
 -1      1191 6.21544E-03 9.08424E-04-2.23995E-14
 -1      1192 6.51055E-03 9.32998E-04-2.50262E-14
 -1      1193 6.80265E-03 9.57159E-04-2.77715E-14
 -1      1194 7.09253E-03 9.80637E-04-3.06346E-14
 -1      1195 7.38081E-03 1.00332E-03-3.36242E-14
 -1      1196 7.66796E-03 1.02520E-03-3.67390E-14
 -1      1197 7.95434E-03 1.04631E-03-3.99887E-14
 -1      1198 8.24021E-03 1.06674E-03-4.33737E-14
 -1      1199 8.52577E-03 1.08657E-03-4.68723E-14
 -1      1200 8.81116E-03 1.10590E-03-5.04688E-14
 -1      1201 9.09645E-03 1.12482E-03-5.41611E-14
 -1      1202 9.38172E-03 1.14341E-03-5.79475E-14
 -1      1203 9.66700E-03 1.16173E-03-6.18199E-14
 -1      1204 9.95232E-03 1.17985E-03-6.57789E-14
 -1      1205 1.02377E-02 1.19781E-03-6.98247E-14
 -1      1206 1.05231E-02 1.21565E-03-7.39647E-14
 -1      1207 1.08086E-02 1.23340E-03-7.81879E-14
 -1      1208 1.10941E-02 1.25109E-03-8.24870E-14
 -1      1209 1.13796E-02 1.26874E-03-8.68522E-14
 -1      1210 1.16652E-02 1.28636E-03-9.12585E-14
 -1      1211 1.19508E-02 1.30396E-03-9.56969E-14
 -1      1212 1.22365E-02 1.32154E-03-1.00188E-13
 -1      1213 1.25221E-02 1.33912E-03-1.04729E-13
 -1      1214 1.28078E-02 1.35670E-03-1.09326E-13
 -1      1215 1.30935E-02 1.37428E-03-1.13977E-13
 -1      1216 1.33792E-02 1.39186E-03-1.18679E-13
 -1      1217 1.36649E-02 1.40944E-03-1.23420E-13
 -1      1218 1.39506E-02 1.42702E-03-1.28196E-13
 -1      1219 1.42363E-02 1.44461E-03-1.32996E-13
 -1      1220 1.45220E-02 1.46219E-03-1.37833E-13
 -1      1221 1.48077E-02 1.47979E-03-1.42693E-13
 -1      1222 1.50863E-02 1.49694E-03-1.47429E-13
 -1      1223 1.52134E-02 1.46315E-03-1.50055E-13
 -1      1224 1.51961E-02 1.37887E-03-1.50709E-13
 -1      1225 1.51788E-02 1.29458E-03-1.51357E-13
 -1      1226 1.51615E-02 1.21029E-03-1.51994E-13
 -1      1227 1.51442E-02 1.12601E-03-1.52627E-13
 -1      1228 1.51270E-02 1.04243E-03-1.53270E-13
 -1      1229 1.51099E-02 9.58852E-04-1.53955E-13
 -1      1230 1.50925E-02 8.74558E-04-1.54644E-13
 -1      1231 1.50752E-02 7.90263E-04-1.55308E-13
 -1      1232 1.50579E-02 7.05968E-04-1.55932E-13
 -1      1233 1.50406E-02 6.21674E-04-1.56542E-13
 -1      1234 1.50235E-02 5.38096E-04-1.57179E-13
 -1      1235 1.50063E-02 4.54520E-04-1.57820E-13
 -1      1236 1.49890E-02 3.70231E-04-1.58439E-13
 -1      1237 1.49717E-02 2.85944E-04-1.59015E-13
 -1      1238 1.49544E-02 2.01659E-04-1.59578E-13
 -1      1239 1.49373E-02 1.18088E-04-1.60117E-13
 -1      1240 3.93692E-03 1.71999E-04-4.08977E-15
 -1      1241 3.82240E-03 2.85316E-04-3.92487E-15
 -1      1242 3.61242E-03 3.94050E-04-3.66809E-15
 -1      1243 3.32164E-03 4.99391E-04-3.33618E-15
 -1      1244 2.95910E-03 5.92566E-04-2.93664E-15
 -1      1245 2.56493E-03 6.54468E-04-2.51657E-15
 -1      1246 2.14616E-03 6.69707E-04-2.09083E-15
 -1      1247 1.72867E-03 6.33119E-04-1.69184E-15
 -1      1248 1.33420E-03 5.49695E-04-1.33717E-15
 -1      1249 9.59814E-04 4.33724E-04-1.02213E-15
 -1      1250 6.48115E-04 3.15661E-04-7.74202E-16
 -1      1251 4.01505E-04 2.11567E-04-5.82372E-16
 -1      1252 2.18293E-04 1.28250E-04-4.40057E-16
 -1      1253 1.11287E-04 7.21947E-05-3.56279E-16
 -1      1254 7.07580E-05 3.35406E-05-3.26265E-16
 -1      1255 9.39352E-05-2.95435E-07-3.53094E-16
 -1      1256 1.87779E-04-4.40488E-05-4.43664E-16
 -1      1257 3.53451E-04-1.06887E-04-5.99164E-16
 -1      1258 5.89076E-04-1.90300E-04-8.17610E-16
 -1      1259 8.85438E-04-2.86129E-04-1.09687E-15
 -1      1260 1.23242E-03-3.78420E-04-1.43459E-15
 -1      1261 1.62353E-03-4.50213E-04-1.83105E-15
 -1      1262 2.02984E-03-4.80010E-04-2.25628E-15
 -1      1263 2.46443E-03-4.58222E-04-2.71847E-15
 -1      1264 2.88328E-03-3.90423E-04-3.16267E-15
 -1      1265 3.24816E-03-2.94098E-04-3.53950E-15
 -1      1266 3.56291E-03-1.80556E-04-3.84157E-15
 -1      1267 3.80065E-03-6.13494E-05-4.04355E-15
 -1      1268 3.93065E-03 5.62027E-05-4.13074E-15
 -1      1269 2.07242E-04-1.45281E-04-2.42048E-17
 -1      1270 1.37759E-04-7.65568E-05-4.49673E-17
 -1      1271 1.44659E-04-8.94099E-05-3.91804E-17
 -1      1272 1.32725E-04-5.49469E-05-5.17029E-17
 -1      1273 1.35365E-04-6.53876E-05-4.99004E-17
 -1      1274 2.78385E-04-1.45924E-04-1.21756E-16
 -1      1275 1.28315E-04-3.10194E-05-5.31801E-17
 -1      1276 1.31269E-04-4.28467E-05-5.31259E-17
 -1      1277 2.70198E-04-1.02737E-04-1.31744E-16
 -1      1278 1.18868E-04-2.53883E-06-5.13505E-17
 -1      1279 1.24868E-04-1.60744E-05-5.20824E-17
 -1      1280 2.60891E-04-5.50710E-05-1.31541E-16
 -1      1281 1.00142E-04 2.56488E-05-4.71628E-17
 -1      1282 1.11012E-04 1.34061E-05-4.81928E-17
 -1      1283 2.38574E-04-1.55941E-06-1.24317E-16
 -1      1284 7.20809E-05 4.23035E-05-4.16672E-17
 -1      1285 8.67637E-05 3.67983E-05-4.26227E-17
 -1      1286 1.93874E-04 4.68325E-05-1.12161E-16
 -1      1287 4.42560E-05 3.68774E-05-3.66664E-17
 -1      1288 5.67337E-05 4.14173E-05-3.72152E-17
 -1      1289 1.30564E-04 6.91177E-05-9.80796E-17
 -1      1290 3.01024E-05 1.40555E-05-3.34273E-17
 -1      1291 3.46627E-05 2.44435E-05-3.35086E-17
 -1      1292 7.46905E-05 5.34625E-05-8.64922E-17
 -1      1293 3.43414E-05-1.37229E-05-3.26413E-17
 -1      1294 2.97598E-05-3.20673E-06-3.23973E-17
 -1      1295 5.09257E-05 1.23564E-05-8.04749E-17
 -1      1296 5.68455E-05-3.16536E-05-3.37390E-17
 -1      1297 4.44572E-05-2.72628E-05-3.35628E-17
 -1      1298 7.10027E-05-3.12178E-05-8.10306E-17
 -1      1299 8.90822E-05-2.65664E-05-3.51417E-17
 -1      1300 7.36032E-05-3.27150E-05-3.56635E-17
 -1      1301 1.30562E-04-4.93815E-05-8.58078E-17
 -1      1302 1.15238E-04-1.41214E-06-3.39355E-17
 -1      1303 1.03538E-04-1.45882E-05-3.54263E-17
 -1      1304 1.99488E-04-2.49143E-05-8.84438E-17
 -1      1305 1.31007E-04 2.95420E-05-2.90702E-17
 -1      1306 1.23869E-04 1.52674E-05-3.17400E-17
 -1      1307 2.47974E-04 2.73304E-05-8.40528E-17
 -1      1308 1.40996E-04 5.82872E-05-1.94614E-17
 -1      1309 1.35616E-04 4.50759E-05-2.40828E-17
 -1      1310 2.74660E-04 8.45623E-05-7.09881E-17
 -1      1311 1.53915E-04 8.74808E-05-3.29326E-18
 -1      1312 1.45405E-04 7.24291E-05-1.13977E-17
 -1      1313 2.93244E-04 1.38867E-04-4.76778E-17
 -1      1314 2.13278E-04 1.46608E-04 2.26598E-17
 -1      1315 1.80415E-04 1.13544E-04 7.12863E-18
 -1      1316 3.38453E-04 2.04490E-04-1.73066E-17
 -1      1317 4.54259E-04 3.02377E-04 2.67120E-17
 -1      1318 5.28285E-04-3.56795E-04-1.15169E-16
 -1      1319 7.18121E-04-4.68463E-04-2.10552E-16
 -1      1320 8.96927E-04-5.63353E-04-3.58031E-16
 -1      1321 1.06740E-03-6.44501E-04-5.52496E-16
 -1      1322 7.57301E-04-4.71499E-04-3.19298E-16
 -1      1323 1.23027E-03-7.14207E-04-7.91373E-16
 -1      1324 1.38688E-03-7.72071E-04-1.07591E-15
 -1      1325 1.10879E-03-6.37970E-04-7.12565E-16
 -1      1326 1.53845E-03-8.18408E-04-1.40575E-15
 -1      1327 1.68624E-03-8.52261E-04-1.78172E-15
 -1      1328 1.43541E-03-7.56959E-04-1.28489E-15
 -1      1329 1.83150E-03-8.73636E-04-2.20206E-15
 -1      1330 1.97554E-03-8.82397E-04-2.66636E-15
 -1      1331 1.74518E-03-8.26580E-04-2.03666E-15
 -1      1332 2.11954E-03-8.79423E-04-3.17526E-15
 -1      1333 2.26459E-03-8.65765E-04-3.72838E-15
 -1      1334 2.04682E-03-8.44720E-04-2.96608E-15
 -1      1335 2.41151E-03-8.43340E-04-4.32400E-15
 -1      1336 2.56085E-03-8.13994E-04-4.96127E-15
 -1      1337 2.34846E-03-8.17036E-04-4.07058E-15
 -1      1338 2.71288E-03-7.80036E-04-5.63950E-15
 -1      1339 2.86758E-03-7.43386E-04-6.35744E-15
 -1      1340 2.65551E-03-7.57500E-04-5.34379E-15
 -1      1341 3.02475E-03-7.05958E-04-7.11353E-15
 -1      1342 3.18398E-03-6.69216E-04-7.90725E-15
 -1      1343 2.96961E-03-6.83360E-04-6.77636E-15
 -1      1344 3.34480E-03-6.34279E-04-8.73733E-15
 -1      1345 3.50666E-03-6.01971E-04-9.60365E-15
 -1      1346 3.28934E-03-6.09334E-04-8.35954E-15
 -1      1347 3.66909E-03-5.72648E-04-1.05040E-14
 -1      1348 3.83157E-03-5.46598E-04-1.14379E-14
 -1      1349 3.61180E-03-5.44555E-04-1.00867E-14
 -1      1350 3.99373E-03-5.23675E-04-1.24045E-14
 -1      1351 4.15521E-03-5.03827E-04-1.34038E-14
 -1      1352 3.93403E-03-4.92623E-04-1.19494E-14
 -1      1353 4.31578E-03-4.86676E-04-1.44371E-14
 -1      1354 4.47522E-03-4.72007E-04-1.55034E-14
 -1      1355 4.25371E-03-4.53329E-04-1.39448E-14
 -1      1356 4.63344E-03-4.59399E-04-1.66026E-14
 -1      1357 4.79036E-03-4.48585E-04-1.77340E-14
 -1      1358 4.56943E-03-4.24524E-04-1.60729E-14
 -1      1359 4.94597E-03-4.39205E-04-1.88994E-14
 -1      1360 5.10028E-03-4.31001E-04-2.00976E-14
 -1      1361 4.88057E-03-4.03481E-04-1.83309E-14
 -1      1362 5.25334E-03-4.23701E-04-2.13271E-14
 -1      1363 5.40521E-03-4.17089E-04-2.25901E-14
 -1      1364 5.18708E-03-3.87646E-04-2.07196E-14
 -1      1365 5.55598E-03-4.10977E-04-2.38842E-14
 -1      1366 5.70572E-03-4.05197E-04-2.52108E-14
 -1      1367 5.48930E-03-3.74945E-04-2.32368E-14
 -1      1368 5.85453E-03-3.99632E-04-2.65694E-14
 -1      1369 6.00249E-03-3.94158E-04-2.79579E-14
 -1      1370 5.78775E-03-3.63838E-04-2.58826E-14
 -1      1371 6.14969E-03-3.88710E-04-2.93770E-14
 -1      1372 6.29622E-03-3.83199E-04-3.08271E-14
 -1      1373 6.08304E-03-3.53268E-04-2.86522E-14
 -1      1374 6.44216E-03-3.77598E-04-3.23079E-14
 -1      1375 6.58757E-03-3.71849E-04-3.38210E-14
 -1      1376 6.37576E-03-3.42552E-04-3.15452E-14
 -1      1377 6.73253E-03-3.65944E-04-3.53613E-14
 -1      1378 6.87709E-03-3.59849E-04-3.69304E-14
 -1      1379 6.66645E-03-3.31292E-04-3.45596E-14
 -1      1380 7.02132E-03-3.53571E-04-3.85318E-14
 -1      1381 7.16526E-03-3.47091E-04-4.01605E-14
 -1      1382 6.95558E-03-3.19285E-04-3.76939E-14
 -1      1383 7.30895E-03-3.40423E-04-4.18191E-14
 -1      1384 7.45244E-03-3.33559E-04-4.35065E-14
 -1      1385 7.24354E-03-3.06461E-04-4.09458E-14
 -1      1386 7.59576E-03-3.26517E-04-4.52206E-14
 -1      1387 7.73893E-03-3.19296E-04-4.69621E-14
 -1      1388 7.53065E-03-2.92832E-04-4.43103E-14
 -1      1389 7.88199E-03-3.11914E-04-4.87287E-14
 -1      1390 8.02495E-03-3.04376E-04-5.05186E-14
 -1      1391 7.81715E-03-2.78459E-04-4.77833E-14
 -1      1392 8.16784E-03-2.96698E-04-5.23363E-14
 -1      1393 8.31067E-03-2.88886E-04-5.41795E-14
 -1      1394 8.10322E-03-2.63429E-04-5.13614E-14
 -1      1395 8.45345E-03-2.80957E-04-5.60493E-14
 -1      1396 8.59620E-03-2.72917E-04-5.79476E-14
 -1      1397 8.38903E-03-2.47836E-04-5.50417E-14
 -1      1398 8.73893E-03-2.64780E-04-5.98702E-14
 -1      1399 8.88164E-03-2.56553E-04-6.18199E-14
 -1      1400 8.67466E-03-2.31775E-04-5.88275E-14
 -1      1401 9.02434E-03-2.48248E-04-6.37929E-14
 -1      1402 9.16703E-03-2.39873E-04-6.57874E-14
 -1      1403 8.96019E-03-2.15332E-04-6.27155E-14
 -1      1404 9.30972E-03-2.31435E-04-6.78048E-14
 -1      1405 9.45242E-03-2.22942E-04-6.98438E-14
 -1      1406 9.24567E-03-1.98585E-04-6.66988E-14
 -1      1407 9.59511E-03-2.14401E-04-7.19024E-14
 -1      1408 9.73782E-03-2.05818E-04-7.39780E-14
 -1      1409 9.53113E-03-1.81600E-04-7.07676E-14
 -1      1410 9.88053E-03-1.97198E-04-7.60737E-14
 -1      1411 1.00233E-02-1.88546E-04-7.81883E-14
 -1      1412 9.81661E-03-1.64431E-04-7.49139E-14
 -1      1413 1.01660E-02-1.79867E-04-8.03223E-14
 -1      1414 1.03087E-02-1.71165E-04-8.24748E-14
 -1      1415 1.01021E-02-1.47125E-04-7.91362E-14
 -1      1416 1.04515E-02-1.62443E-04-8.46470E-14
 -1      1417 1.05942E-02-1.53704E-04-8.68371E-14
 -1      1418 1.03876E-02-1.29717E-04-8.34360E-14
 -1      1419 1.07370E-02-1.44951E-04-8.90440E-14
 -1      1420 1.08798E-02-1.36186E-04-9.12670E-14
 -1      1421 1.06732E-02-1.12236E-04-8.78085E-14
 -1      1422 1.10226E-02-1.27411E-04-9.35058E-14
 -1      1423 1.11654E-02-1.18629E-04-9.57601E-14
 -1      1424 1.09587E-02-9.47027E-05-9.22480E-14
 -1      1425 1.13082E-02-1.09840E-04-9.80306E-14
 -1      1426 1.14510E-02-1.01046E-04-1.00316E-13
 -1      1427 1.12444E-02-7.71345E-05-9.67525E-14
 -1      1428 1.15938E-02-9.22471E-05-1.02615E-13
 -1      1429 1.17366E-02-8.34455E-05-1.04926E-13
 -1      1430 1.15300E-02-5.95432E-05-1.01317E-13
 -1      1431 1.18794E-02-7.46415E-05-1.07257E-13
 -1      1432 1.20222E-02-6.58358E-05-1.09602E-13
 -1      1433 1.18156E-02-4.19377E-05-1.05942E-13
 -1      1434 1.21651E-02-5.70288E-05-1.11964E-13
 -1      1435 1.23079E-02-4.82211E-05-1.14346E-13
 -1      1436 1.21013E-02-2.43243E-05-1.10630E-13
 -1      1437 1.24508E-02-3.94129E-05-1.16745E-13
 -1      1438 1.25936E-02-3.06047E-05-1.19164E-13
 -1      1439 1.23870E-02-6.70730E-06-1.15384E-13
 -1      1440 1.27364E-02-2.17966E-05-1.21599E-13
 -1      1441 1.28793E-02-1.29888E-05-1.24047E-13
 -1      1442 1.26726E-02 1.09104E-05-1.20208E-13
 -1      1443 1.30221E-02-4.18136E-06-1.26508E-13
 -1      1444 1.31650E-02 4.62546E-06-1.28980E-13
 -1      1445 1.29583E-02 2.85270E-05-1.25093E-13
 -1      1446 1.33078E-02 1.34317E-05-1.31462E-13
 -1      1447 1.34507E-02 2.22372E-05-1.33954E-13
 -1      1448 1.32440E-02 4.61415E-05-1.30026E-13
 -1      1449 1.35935E-02 3.10420E-05-1.36451E-13
 -1      1450 1.37364E-02 3.98460E-05-1.38949E-13
 -1      1451 1.35297E-02 6.37531E-05-1.34995E-13
 -1      1452 1.38792E-02 4.86493E-05-1.41452E-13
 -1      1453 1.40221E-02 5.74518E-05-1.43961E-13
 -1      1454 1.38154E-02 8.13616E-05-1.39986E-13
 -1      1455 1.41650E-02 6.62536E-05-1.46474E-13
 -1      1456 1.43078E-02 7.50547E-05-1.48989E-13
 -1      1457 1.41012E-02 9.89669E-05-1.44996E-13
 -1      1458 1.44507E-02 8.38551E-05-1.51512E-13
 -1      1459 1.45935E-02 9.26549E-05-1.54043E-13
 -1      1460 1.43869E-02 1.16569E-04-1.50023E-13
 -1      1461 1.48016E-02 1.09728E-04-1.57696E-13
 -1      1462 1.47378E-02 1.42443E-04-1.56193E-13
 -1      1463 8.69115E-04 5.45097E-04-2.53839E-17
 -1      1464 6.68070E-04 4.30392E-04 1.68458E-17
 -1      1465 5.94646E-04 3.75950E-04-1.58429E-17
 -1      1466 1.23980E-03 7.40652E-04-2.11745E-16
 -1      1467 1.05937E-03 6.47332E-04-1.01251E-16
 -1      1468 9.90123E-04 5.95972E-04-1.43318E-16
 -1      1469 1.57597E-03 8.96844E-04-5.39675E-16
 -1      1470 1.41162E-03 8.24200E-04-3.57272E-16
 -1      1471 1.35387E-03 7.78271E-04-4.07159E-16
 -1      1472 1.88715E-03 1.00156E-03-1.01601E-15
 -1      1473 1.73384E-03 9.56366E-04-7.58467E-16
 -1      1474 1.69026E-03 9.16032E-04-8.15293E-16
 -1      1475 2.18632E-03 1.04427E-03-1.64942E-15
 -1      1476 2.03720E-03 1.03056E-03-1.31252E-15
 -1      1477 2.00857E-03 9.94759E-04-1.37675E-15
 -1      1478 2.48740E-03 1.02930E-03-2.44622E-15
 -1      1479 2.33578E-03 1.04286E-03-2.02712E-15
 -1      1480 2.32068E-03 1.00944E-03-2.09885E-15
 -1      1481 2.79984E-03 9.76254E-04-3.40500E-15
 -1      1482 2.64182E-03 1.00598E-03-2.90523E-15
 -1      1483 2.63684E-03 9.72773E-04-2.98355E-15
 -1      1484 3.12607E-03 9.09651E-04-4.52328E-15
 -1      1485 2.96134E-03 9.43283E-04-3.94418E-15
 -1      1486 2.96192E-03 9.08998E-04-4.02896E-15
 -1      1487 3.46258E-03 8.49325E-04-5.80228E-15
 -1      1488 3.29341E-03 8.77940E-04-5.14328E-15
 -1      1489 3.29516E-03 8.42273E-04-5.23378E-15
 -1      1490 3.80339E-03 8.05746E-04-7.23335E-15
 -1      1491 3.63286E-03 8.25236E-04-6.49924E-15
 -1      1492 3.63249E-03 7.88512E-04-6.59375E-15
 -1      1493 4.14291E-03 7.81301E-04-8.80795E-15
 -1      1494 3.97362E-03 7.91255E-04-8.00347E-15
 -1      1495 3.96941E-03 7.53989E-04-8.10155E-15
 -1      1496 4.47731E-03 7.73748E-04-1.05249E-14
 -1      1497 4.31094E-03 7.75665E-04-9.64872E-15
 -1      1498 4.30244E-03 7.38321E-04-9.75141E-15
 -1      1499 4.80462E-03 7.79129E-04-1.23841E-14
 -1      1500 4.64193E-03 7.75084E-04-1.14364E-14
 -1      1501 4.62954E-03 7.37992E-04-1.15424E-14
 -1      1502 5.12436E-03 7.93448E-04-1.43875E-14
 -1      1503 4.96544E-03 7.85391E-04-1.33680E-14
 -1      1504 4.94992E-03 7.48740E-04-1.34750E-14
 -1      1505 5.43694E-03 8.13405E-04-1.65325E-14
 -1      1506 5.28150E-03 8.02887E-04-1.54419E-14
 -1      1507 5.26367E-03 7.66758E-04-1.55485E-14
 -1      1508 5.74325E-03 8.36549E-04-1.88190E-14
 -1      1509 5.59082E-03 8.24694E-04-1.76584E-14
 -1      1510 5.57139E-03 7.89093E-04-1.77625E-14
 -1      1511 6.04433E-03 8.61189E-04-2.12423E-14
 -1      1512 5.89437E-03 8.48759E-04-2.00132E-14
 -1      1513 5.87395E-03 8.13647E-04-2.01154E-14
 -1      1514 6.34121E-03 8.86225E-04-2.38000E-14
 -1      1515 6.19323E-03 8.73705E-04-2.25043E-14
 -1      1516 6.17224E-03 8.39023E-04-2.26039E-14
 -1      1517 6.63483E-03 9.10988E-04-2.64847E-14
 -1      1518 6.48837E-03 8.98669E-04-2.51275E-14
 -1      1519 6.46712E-03 8.64348E-04-2.52233E-14
 -1      1520 6.92596E-03 9.35108E-04-2.92860E-14
 -1      1521 6.78066E-03 9.23143E-04-2.78715E-14
 -1      1522 6.75935E-03 8.89118E-04-2.79658E-14
 -1      1523 7.21524E-03 9.58411E-04-3.22123E-14
 -1      1524 7.07079E-03 9.46867E-04-3.07331E-14
 -1      1525 7.04955E-03 9.13078E-04-3.08263E-14
 -1      1526 7.50319E-03 9.80852E-04-3.52625E-14
 -1      1527 7.35935E-03 9.69739E-04-3.37215E-14
 -1      1528 7.33824E-03 9.36135E-04-3.38118E-14
 -1      1529 7.79018E-03 1.00246E-03-3.84399E-14
 -1      1530 7.64678E-03 9.91757E-04-3.68347E-14
 -1      1531 7.62584E-03 9.58295E-04-3.69234E-14
 -1      1532 8.07653E-03 1.02331E-03-4.17521E-14
 -1      1533 7.93342E-03 1.01298E-03-4.00805E-14
 -1      1534 7.91265E-03 9.79619E-04-4.01646E-14
 -1      1535 8.36243E-03 1.04349E-03-4.51868E-14
 -1      1536 8.21952E-03 1.03348E-03-4.34542E-14
 -1      1537 8.19892E-03 1.00020E-03-4.35322E-14
 -1      1538 8.64807E-03 1.06311E-03-4.87296E-14
 -1      1539 8.50528E-03 1.05337E-03-4.69459E-14
 -1      1540 8.48483E-03 1.02015E-03-4.70151E-14
 -1      1541 8.93355E-03 1.08226E-03-5.23695E-14
 -1      1542 8.79082E-03 1.07274E-03-5.05372E-14
 -1      1543 8.77051E-03 1.03956E-03-5.06028E-14
 -1      1544 9.21895E-03 1.10102E-03-5.61075E-14
 -1      1545 9.07625E-03 1.09168E-03-5.42268E-14
 -1      1546 9.05606E-03 1.05853E-03-5.42882E-14
 -1      1547 9.50431E-03 1.11948E-03-5.99340E-14
 -1      1548 9.36163E-03 1.11028E-03-5.80106E-14
 -1      1549 9.34154E-03 1.07715E-03-5.80696E-14
 -1      1550 9.78969E-03 1.13770E-03-6.38502E-14
 -1      1551 9.64700E-03 1.12862E-03-6.18814E-14
 -1      1552 9.62698E-03 1.09549E-03-6.19404E-14
 -1      1553 1.00751E-02 1.15573E-03-6.78503E-14
 -1      1554 9.93238E-03 1.14674E-03-6.58397E-14
 -1      1555 9.91243E-03 1.11362E-03-6.58964E-14
 -1      1556 1.03605E-02 1.17363E-03-7.19402E-14
 -1      1557 1.02178E-02 1.16470E-03-6.98838E-14
 -1      1558 1.01979E-02 1.13158E-03-6.99379E-14
 -1      1559 1.06460E-02 1.19142E-03-7.61208E-14
 -1      1560 1.05033E-02 1.18254E-03-7.40188E-14
 -1      1561 1.04834E-02 1.14942E-03-7.40703E-14
 -1      1562 1.09315E-02 1.20914E-03-8.03762E-14
 -1      1563 1.07887E-02 1.20029E-03-7.82402E-14
 -1      1564 1.07689E-02 1.16717E-03-7.82862E-14
 -1      1565 1.12171E-02 1.22680E-03-8.47049E-14
 -1      1566 1.10743E-02 1.21798E-03-8.25322E-14
 -1      1567 1.10545E-02 1.18486E-03-8.25772E-14
 -1      1568 1.15026E-02 1.24443E-03-8.90894E-14
 -1      1569 1.13598E-02 1.23562E-03-8.68903E-14
 -1      1570 1.13400E-02 1.20250E-03-8.69291E-14
 -1      1571 1.17882E-02 1.26204E-03-9.35106E-14
 -1      1572 1.16454E-02 1.25324E-03-9.12955E-14
 -1      1573 1.16256E-02 1.22012E-03-9.13310E-14
 -1      1574 1.20739E-02 1.27963E-03-9.79763E-14
 -1      1575 1.19311E-02 1.27083E-03-9.57383E-14
 -1      1576 1.19113E-02 1.23771E-03-9.57763E-14
 -1      1577 1.23595E-02 1.29721E-03-1.02497E-13
 -1      1578 1.22167E-02 1.28842E-03-1.00229E-13
 -1      1579 1.21969E-02 1.25530E-03-1.00270E-13
 -1      1580 1.26452E-02 1.31479E-03-1.07066E-13
 -1      1581 1.25024E-02 1.30600E-03-1.04775E-13
 -1      1582 1.24826E-02 1.27287E-03-1.04817E-13
 -1      1583 1.29309E-02 1.33236E-03-1.11695E-13
 -1      1584 1.27880E-02 1.32357E-03-1.09375E-13
 -1      1585 1.27683E-02 1.29045E-03-1.09419E-13
 -1      1586 1.32166E-02 1.34994E-03-1.16368E-13
 -1      1587 1.30737E-02 1.34115E-03-1.14026E-13
 -1      1588 1.30540E-02 1.30802E-03-1.14071E-13
 -1      1589 1.35023E-02 1.36752E-03-1.21088E-13
 -1      1590 1.33594E-02 1.35873E-03-1.18722E-13
 -1      1591 1.33397E-02 1.32560E-03-1.18765E-13
 -1      1592 1.37880E-02 1.38510E-03-1.25846E-13
 -1      1593 1.36451E-02 1.37631E-03-1.23464E-13
 -1      1594 1.36254E-02 1.34318E-03-1.23504E-13
 -1      1595 1.40737E-02 1.40268E-03-1.30634E-13
 -1      1596 1.39308E-02 1.39389E-03-1.28236E-13
 -1      1597 1.39111E-02 1.36076E-03-1.28277E-13
 -1      1598 1.43594E-02 1.42027E-03-1.35449E-13
 -1      1599 1.42165E-02 1.41148E-03-1.33039E-13
 -1      1600 1.41968E-02 1.37835E-03-1.33077E-13
 -1      1601 1.46451E-02 1.43786E-03-1.40295E-13
 -1      1602 1.45023E-02 1.42906E-03-1.37870E-13
 -1      1603 1.44825E-02 1.39593E-03-1.37907E-13
 -1      1604 1.49308E-02 1.45545E-03-1.45148E-13
 -1      1605 1.47880E-02 1.44665E-03-1.42721E-13
 -1      1606 1.47682E-02 1.41352E-03-1.42752E-13
 -1      1607 1.50777E-02 1.45480E-03-1.47752E-13
 -1      1608 1.50680E-02 1.35018E-03-1.48772E-13
 -1      1609 1.50767E-02 1.39232E-03-1.48446E-13
 -1      1610 1.50507E-02 1.26589E-03-1.49420E-13
 -1      1611 1.50594E-02 1.30803E-03-1.49098E-13
 -1      1612 1.49400E-02 1.32149E-03-1.46838E-13
 -1      1613 1.50334E-02 1.18160E-03-1.50058E-13
 -1      1614 1.50421E-02 1.22375E-03-1.49736E-13
 -1      1615 1.49227E-02 1.23720E-03-1.47482E-13
 -1      1616 1.50161E-02 1.09731E-03-1.50699E-13
 -1      1617 1.50248E-02 1.13946E-03-1.50381E-13
 -1      1618 1.49054E-02 1.15291E-03-1.48126E-13
 -1      1619 1.49991E-02 1.01445E-03-1.51346E-13
 -1      1620 1.50076E-02 1.05588E-03-1.51020E-13
 -1      1621 1.48882E-02 1.06934E-03-1.48768E-13
 -1      1622 1.49818E-02 9.30159E-04-1.52019E-13
 -1      1623 1.49905E-02 9.72305E-04-1.51682E-13
 -1      1624 1.48711E-02 9.85759E-04-1.49416E-13
 -1      1625 1.49645E-02 8.45865E-04-1.52685E-13
 -1      1626 1.49732E-02 8.88012E-04-1.52353E-13
 -1      1627 1.48538E-02 9.01466E-04-1.50072E-13
 -1      1628 1.49472E-02 7.61570E-04-1.53330E-13
 -1      1629 1.49559E-02 8.03718E-04-1.53010E-13
 -1      1630 1.48365E-02 8.17172E-04-1.50720E-13
 -1      1631 1.49299E-02 6.77276E-04-1.53947E-13
 -1      1632 1.49386E-02 7.19423E-04-1.53642E-13
 -1      1633 1.48192E-02 7.32878E-04-1.51352E-13
 -1      1634 1.49126E-02 5.92983E-04-1.54564E-13
 -1      1635 1.49213E-02 6.35129E-04-1.54253E-13
 -1      1636 1.48019E-02 6.48584E-04-1.51964E-13
 -1      1637 1.48956E-02 5.10119E-04-1.55176E-13
 -1      1638 1.49041E-02 5.51551E-04-1.54872E-13
 -1      1639 1.47847E-02 5.65005E-04-1.52570E-13
 -1      1640 1.48783E-02 4.25829E-04-1.55802E-13
 -1      1641 1.48869E-02 4.67974E-04-1.55490E-13
 -1      1642 1.47676E-02 4.81428E-04-1.53176E-13
 -1      1643 1.48610E-02 3.41541E-04-1.56396E-13
 -1      1644 1.48696E-02 3.83685E-04-1.56107E-13
 -1      1645 1.47503E-02 3.97138E-04-1.53778E-13
 -1      1646 1.48437E-02 2.57254E-04-1.56964E-13
 -1      1647 1.48523E-02 2.99397E-04-1.56683E-13
 -1      1648 1.47330E-02 3.12849E-04-1.54356E-13
 -1      1649 1.47864E-02 1.78777E-04-1.56719E-13
 -1      1650 1.47951E-02 2.20920E-04-1.56445E-13
 -1      1651 1.46757E-02 2.34371E-04-1.54118E-13
 -1      1652 1.45784E-02 1.61703E-04-1.53074E-13
 -1      1653 3.92822E-03 1.61459E-04-4.41629E-15
 -1      1654 3.96111E-03 1.33454E-04-4.47594E-15
 -1      1655 3.75924E-03 2.45626E-04-4.13154E-15
 -1      1656 3.85186E-03 2.06934E-04-4.24898E-15
 -1      1657 3.49742E-03 3.45461E-04-3.81335E-15
 -1      1658 3.62659E-03 2.96965E-04-3.96735E-15
 -1      1659 3.16070E-03 4.70026E-04-3.40469E-15
 -1      1660 3.32476E-03 4.09975E-04-3.60171E-15
 -1      1661 2.77130E-03 5.92793E-04-2.95732E-15
 -1      1662 2.94484E-03 5.34181E-04-3.17759E-15
 -1      1663 2.41246E-03 6.85201E-04-2.46857E-15
 -1      1664 2.57948E-03 6.50611E-04-2.67963E-15
 -1      1665 2.03365E-03 7.11969E-04-1.99927E-15
 -1      1666 2.20793E-03 7.09613E-04-2.21535E-15
 -1      1667 1.67628E-03 6.55171E-04-1.58803E-15
 -1      1668 1.83638E-03 6.88518E-04-1.76654E-15
 -1      1669 1.32239E-03 5.36325E-04-1.22298E-15
 -1      1670 1.48775E-03 5.99325E-04-1.38591E-15
 -1      1671 9.67029E-04 3.80450E-04-9.15311E-16
 -1      1672 1.12867E-03 4.54342E-04-1.04935E-15
 -1      1673 6.56736E-04 2.43360E-04-6.88495E-16
 -1      1674 7.89624E-04 3.03135E-04-7.85464E-16
 -1      1675 3.95288E-04 1.35838E-04-5.10991E-16
 -1      1676 5.10083E-04 1.81629E-04-5.88241E-16
 -1      1677 2.03460E-04 6.93567E-05-3.87026E-16
 -1      1678 2.82275E-04 9.48025E-05-4.37747E-16
 -1      1679 9.75844E-05 3.94826E-05-3.19905E-16
 -1      1680 1.36288E-04 4.94060E-05-3.44398E-16
 -1      1681 6.65103E-05 2.77494E-05-2.96239E-16
 -1      1682 7.16349E-05 2.90123E-05-2.97249E-16
 -1      1683 1.10973E-04 1.68182E-05-3.41464E-16
 -1      1684 8.12499E-05 2.21152E-05-3.16983E-16
 -1      1685 2.45868E-04-5.96036E-06-4.38475E-16
 -1      1686 1.71849E-04 1.01555E-05-3.81383E-16
 -1      1687 4.47679E-04-7.09495E-05-6.04843E-16
 -1      1688 3.47627E-04-3.92446E-05-5.24124E-16
 -1      1689 7.34934E-04-1.69044E-04-8.36340E-16
 -1      1690 5.95626E-04-1.15555E-04-7.16021E-16
 -1      1691 1.03330E-03-2.95758E-04-1.13607E-15
 -1      1692 8.91487E-04-2.39832E-04-9.96829E-16
 -1      1693 1.38726E-03-4.20348E-04-1.50831E-15
 -1      1694 1.22236E-03-3.63147E-04-1.32224E-15
 -1      1695 1.73534E-03-5.03166E-04-1.93866E-15
 -1      1696 1.57682E-03-4.72114E-04-1.73836E-15
 -1      1697 2.09747E-03-5.17189E-04-2.41108E-15
 -1      1698 1.92730E-03-5.19089E-04-2.18727E-15
 -1      1699 2.48781E-03-4.55858E-04-2.94567E-15
 -1      1700 2.30220E-03-4.95702E-04-2.70045E-15
 -1      1701 2.88620E-03-3.40063E-04-3.41425E-15
 -1      1702 2.70974E-03-3.97489E-04-3.20303E-15
 -1      1703 3.25089E-03-2.07811E-04-3.82524E-15
 -1      1704 3.08603E-03-2.69310E-04-3.64696E-15
 -1      1705 3.58198E-03-7.69831E-05-4.16949E-15
 -1      1706 3.43300E-03-1.33986E-04-4.03144E-15
 -1      1707 3.83307E-03 2.01407E-05-4.35607E-15
 -1      1708 3.73192E-03-2.26911E-05-4.27859E-15
 -1      1709 3.95637E-03 9.89617E-05-4.46314E-15
 -1      1710 3.91667E-03 6.81013E-05-4.45157E-15
 -1      1711 2.99752E-03 4.73580E-04-3.43604E-15
 -1      1712 3.36990E-03 3.35210E-04-3.89545E-15
 -1      1713 1.50579E-02 1.42166E-03-1.47777E-13
 -1      1714 1.49299E-02 1.39298E-03-1.45843E-13
 -1      1715 3.89178E-03 1.55298E-04-4.63978E-15
 -1      1716 3.67597E-03 2.27520E-04-4.29200E-15
 -1      1717 3.96757E-03 1.19842E-04-4.80763E-15
 -1      1718 2.63014E-03 6.17304E-04-2.90997E-15
 -1      1719 2.27702E-03 7.15050E-04-2.37031E-15
 -1      1720 1.94283E-03 7.26669E-04-1.88413E-15
 -1      1721 1.60994E-03 6.44955E-04-1.45684E-15
 -1      1722 1.27429E-03 4.94608E-04-1.09569E-15
 -1      1723 9.33668E-04 3.21687E-04-8.11254E-16
 -1      1724 6.21495E-04 1.76617E-04-5.98534E-16
 -1      1725 3.62233E-04 7.80041E-05-4.40627E-16
 -1      1726 1.79715E-04 3.09468E-05-3.36858E-16
 -1      1727 8.45575E-05 1.89429E-05-2.77153E-16
 -1      1728 7.27159E-05 3.15353E-05-2.75310E-16
 -1      1729 1.48413E-04 3.57237E-05-3.29899E-16
 -1      1730 3.12587E-04 1.32192E-05-4.39298E-16
 -1      1731 5.60031E-04-5.96759E-05-6.19960E-16
 -1      1732 8.54071E-04-1.80077E-04-8.70411E-16
 -1      1733 1.17923E-03-3.27953E-04-1.20374E-15
 -1      1734 1.50882E-03-4.61445E-04-1.60831E-15
 -1      1735 1.83440E-03-5.35773E-04-2.08460E-15
 -1      1736 2.17714E-03-5.24528E-04-2.62754E-15
 -1      1737 2.54311E-03-4.24829E-04-3.19013E-15
 -1      1738 2.93154E-03-2.78125E-04-3.69740E-15
 -1      1739 3.30219E-03-1.25573E-04-4.15381E-15
 -1      1740 3.63567E-03-4.35207E-06-4.48686E-15
 -1      1741 3.87518E-03 7.58835E-05-4.70067E-15
 -1      1742 1.95489E-04-1.25820E-04-4.08067E-17
 -1      1743 4.25054E-04-2.88860E-04-9.74427E-17
 -1      1744 4.12845E-04-1.48932E-04-2.04467E-16
 -1      1745 4.17777E-04-1.79657E-04-2.01797E-16
 -1      1746 4.22998E-04-2.10253E-04-1.95238E-16
 -1      1747 4.33008E-04-2.41848E-04-1.83311E-16
 -1      1748 5.70058E-04-2.66724E-04-2.99213E-16
 -1      1749 3.58217E-04-8.75604E-06-1.87133E-16
 -1      1750 3.82569E-04-4.50403E-05-1.95129E-16
 -1      1751 2.79785E-04 5.43031E-05-1.67103E-16
 -1      1752 3.24288E-04 2.62644E-05-1.78175E-16
 -1      1753 4.73548E-04-1.90308E-05-2.72270E-16
 -1      1754 1.74645E-04 7.91181E-05-1.44741E-16
 -1      1755 2.27851E-04 7.31656E-05-1.55820E-16
 -1      1756 3.52779E-04 5.28978E-05-2.40774E-16
 -1      1757 6.10976E-05 3.84884E-06-1.06374E-16
 -1      1758 6.30216E-05 2.92754E-05-1.08156E-16
 -1      1759 1.09634E-04-4.09645E-05-1.13082E-16
 -1      1760 7.79275E-05-2.21487E-05-1.10216E-16
 -1      1761 2.16496E-04-4.47345E-05-1.25354E-16
 -1      1762 1.61680E-04-5.00326E-05-1.21207E-16
 -1      1763 3.16879E-04 5.77371E-06-1.28031E-16
 -1      1764 2.71498E-04-2.40021E-05-1.28085E-16
 -1      1765 3.27309E-04-1.83454E-05-1.79815E-16
 -1      1766 3.77732E-04 8.06750E-05-1.19425E-16
 -1      1767 3.52058E-04 4.27052E-05-1.25469E-16
 -1      1768 4.50148E-04 5.82803E-05-1.81441E-16
 -1      1769 4.09312E-04 1.56027E-04-9.77679E-17
 -1      1770 3.95302E-04 1.19198E-04-1.10412E-16
 -1      1771 5.16023E-04 1.51188E-04-1.66832E-16
 -1      1772 4.37018E-04 2.30168E-04-6.12303E-17
 -1      1773 4.21393E-04 1.92877E-04-8.20334E-17
 -1      1774 5.50361E-04 2.41034E-04-1.34929E-16
 -1      1775 5.27750E-04 3.21201E-04-3.31088E-17
 -1      1776 4.84817E-04 2.75515E-04-5.27058E-17
 -1      1777 6.14334E-04 3.33242E-04-1.05357E-16
 -1      1778 7.27348E-04 4.36377E-04-8.13558E-17
 -1      1779 4.81067E-04-3.09198E-04-1.57006E-16
 -1      1780 1.11235E-03 6.41498E-04-2.77217E-16
 -1      1781 9.22863E-04 5.42795E-04-1.62739E-16
 -1      1782 8.62626E-04 4.89914E-04-1.77199E-16
 -1      1783 9.92213E-04-5.57861E-04-6.32415E-16
 -1      1784 1.16523E-03-6.30102E-04-8.76212E-16
 -1      1785 1.33259E-03-6.91221E-04-1.16365E-15
 -1      1786 1.49620E-03-7.39919E-04-1.49558E-15
 -1      1787 1.23147E-03-6.21292E-04-1.04287E-15
 -1      1788 1.65556E-03-7.76005E-04-1.87190E-15
 -1      1789 1.81296E-03-7.98413E-04-2.29287E-15
 -1      1790 1.56517E-03-7.21645E-04-1.70826E-15
 -1      1791 1.96811E-03-8.07586E-04-2.75810E-15
 -1      1792 2.12330E-03-8.03967E-04-3.26669E-15
 -1      1793 1.88684E-03-7.67912E-04-2.55042E-15
 -1      1794 2.27824E-03-7.89183E-04-3.81857E-15
 -1      1795 2.43442E-03-7.65052E-04-4.41331E-15
 -1      1796 2.20413E-03-7.59951E-04-3.56824E-15
 -1      1797 2.59162E-03-7.33998E-04-5.04933E-15
 -1      1798 2.75017E-03-6.98267E-04-5.72590E-15
 -1      1799 2.52349E-03-7.09749E-04-4.75669E-15
 -1      1800 2.91003E-03-6.60202E-04-6.44115E-15
 -1      1801 3.07059E-03-6.21625E-04-7.19440E-15
 -1      1802 2.84703E-03-6.36557E-04-6.10818E-15
 -1      1803 3.23206E-03-5.84192E-04-7.98508E-15
 -1      1804 3.39342E-03-5.48900E-04-8.81118E-15
 -1      1805 3.17300E-03-5.58717E-04-7.61286E-15
 -1      1806 3.55502E-03-5.16571E-04-9.67309E-15
 -1      1807 3.71591E-03-4.87514E-04-1.05689E-14
 -1      1808 3.49828E-03-4.88464E-04-9.26277E-15
 -1      1809 3.87644E-03-4.61883E-04-1.14980E-14
 -1      1810 4.03592E-03-4.39585E-04-1.24602E-14
 -1      1811 3.82037E-03-4.31248E-04-1.10498E-14
 -1      1812 4.19462E-03-4.20379E-04-1.34558E-14
 -1      1813 4.35213E-03-4.03996E-04-1.44845E-14
 -1      1814 4.13795E-03-3.87701E-04-1.29706E-14
 -1      1815 4.50864E-03-3.90037E-04-1.55454E-14
 -1      1816 4.66397E-03-3.78201E-04-1.66395E-14
 -1      1817 4.45065E-03-3.55903E-04-1.50217E-14
 -1      1818 4.81822E-03-3.68080E-04-1.77657E-14
 -1      1819 4.97138E-03-3.59403E-04-1.89244E-14
 -1      1820 4.75867E-03-3.33033E-04-1.72041E-14
 -1      1821 5.12349E-03-3.51826E-04-2.01155E-14
 -1      1822 5.27463E-03-3.45131E-04-2.13383E-14
 -1      1823 5.06244E-03-3.16312E-04-1.95154E-14
 -1      1824 5.42482E-03-3.39060E-04-2.25945E-14
 -1      1825 5.57418E-03-3.33447E-04-2.38815E-14
 -1      1826 5.36251E-03-3.03413E-04-2.19554E-14
 -1      1827 5.72272E-03-3.28119E-04-2.51994E-14
 -1      1828 5.87056E-03-3.22954E-04-2.65496E-14
 -1      1829 5.65944E-03-2.92567E-04-2.45219E-14
 -1      1830 6.01771E-03-3.17845E-04-2.79329E-14
 -1      1831 6.16430E-03-3.12710E-04-2.93446E-14
 -1      1832 5.95376E-03-2.82529E-04-2.72158E-14
 -1      1833 6.31033E-03-3.07488E-04-3.07864E-14
 -1      1834 6.45591E-03-3.02126E-04-3.22607E-14
 -1      1835 6.24595E-03-2.72480E-04-3.00340E-14
 -1      1836 6.60106E-03-2.96598E-04-3.37636E-14
 -1      1837 6.74585E-03-2.90872E-04-3.52972E-14
 -1      1838 6.53644E-03-2.61925E-04-3.29725E-14
 -1      1839 6.89031E-03-2.84945E-04-3.68600E-14
 -1      1840 7.03450E-03-2.78797E-04-3.84534E-14
 -1      1841 6.82558E-03-2.50600E-04-3.60322E-14
 -1      1842 7.17843E-03-2.72439E-04-4.00763E-14
 -1      1843 7.32217E-03-2.65864E-04-4.17261E-14
 -1      1844 7.11370E-03-2.38399E-04-3.92099E-14
 -1      1845 7.46572E-03-2.59088E-04-4.34043E-14
 -1      1846 7.60913E-03-2.52110E-04-4.51110E-14
 -1      1847 7.40104E-03-2.25317E-04-4.25038E-14
 -1      1848 7.75240E-03-2.44950E-04-4.68431E-14
 -1      1849 7.89557E-03-2.37610E-04-4.86020E-14
 -1      1850 7.68781E-03-2.11410E-04-4.59080E-14
 -1      1851 8.03865E-03-2.30112E-04-5.03893E-14
 -1      1852 8.18166E-03-2.22461E-04-5.22001E-14
 -1      1853 7.97416E-03-1.96765E-04-4.94198E-14
 -1      1854 8.32460E-03-2.14675E-04-5.40377E-14
 -1      1855 8.46750E-03-2.06761E-04-5.59006E-14
 -1      1856 8.26022E-03-1.81485E-04-5.30364E-14
 -1      1857 8.61036E-03-1.98736E-04-5.77903E-14
 -1      1858 8.75320E-03-1.90607E-04-5.97059E-14
 -1      1859 8.54608E-03-1.65671E-04-5.67570E-14
 -1      1860 8.89600E-03-1.82388E-04-6.16461E-14
 -1      1861 9.03880E-03-1.74086E-04-6.36107E-14
 -1      1862 8.83181E-03-1.49421E-04-6.05806E-14
 -1      1863 9.18158E-03-1.65713E-04-6.55972E-14
 -1      1864 9.32435E-03-1.57274E-04-6.76066E-14
 -1      1865 9.11746E-03-1.32821E-04-6.45010E-14
 -1      1866 9.46712E-03-1.48781E-04-6.96369E-14
 -1      1867 9.60988E-03-1.40237E-04-7.16871E-14
 -1      1868 9.40307E-03-1.15946E-04-6.85109E-14
 -1      1869 9.75265E-03-1.31651E-04-7.37570E-14
 -1      1870 9.89542E-03-1.23028E-04-7.58459E-14
 -1      1871 9.68866E-03-9.88587E-05-7.26034E-14
 -1      1872 1.00382E-02-1.14373E-04-7.79538E-14
 -1      1873 1.01810E-02-1.05690E-04-8.00810E-14
 -1      1874 9.97424E-03-8.16105E-05-7.67751E-14
 -1      1875 1.03237E-02-9.69840E-05-8.22284E-14
 -1      1876 1.04665E-02-8.82578E-05-8.43929E-14
 -1      1877 1.02598E-02-6.42428E-05-8.10238E-14
 -1      1878 1.06093E-02-7.95152E-05-8.65769E-14
 -1      1879 1.07521E-02-7.07584E-05-8.87768E-14
 -1      1880 1.05454E-02-4.67886E-05-8.53472E-14
 -1      1881 1.08949E-02-6.19901E-05-9.09930E-14
 -1      1882 1.10377E-02-5.32121E-05-9.32266E-14
 -1      1883 1.08310E-02-2.92730E-05-8.97426E-14
 -1      1884 1.11805E-02-4.44264E-05-9.54759E-14
 -1      1885 1.13233E-02-3.56344E-05-9.77422E-14
 -1      1886 1.11167E-02-1.17152E-05-9.42032E-14
 -1      1887 1.14662E-02-2.68375E-05-1.00021E-13
 -1      1888 1.16090E-02-1.80366E-05-1.02316E-13
 -1      1889 1.14023E-02 5.87056E-06-9.87274E-14
 -1      1890 1.17518E-02-9.23277E-06-1.04627E-13
 -1      1891 1.18946E-02-4.26743E-07-1.06954E-13
 -1      1892 1.16880E-02 2.34738E-05-1.03316E-13
 -1      1893 1.20375E-02 8.38083E-06-1.09298E-13
 -1      1894 1.21803E-02 1.71894E-05-1.11655E-13
 -1      1895 1.19737E-02 4.10870E-05-1.07966E-13
 -1      1896 1.23231E-02 2.59986E-05-1.14028E-13
 -1      1897 1.24660E-02 3.48081E-05-1.16418E-13
 -1      1898 1.22593E-02 5.87052E-05-1.12677E-13
 -1      1899 1.26088E-02 4.36175E-05-1.18825E-13
 -1      1900 1.27517E-02 5.24266E-05-1.21249E-13
 -1      1901 1.25450E-02 7.63249E-05-1.17450E-13
 -1      1902 1.28945E-02 6.12354E-05-1.23687E-13
 -1      1903 1.30374E-02 7.00435E-05-1.26135E-13
 -1      1904 1.28307E-02 9.39439E-05-1.22285E-13
 -1      1905 1.31802E-02 7.88511E-05-1.28597E-13
 -1      1906 1.33231E-02 8.76579E-05-1.31067E-13
 -1      1907 1.31164E-02 1.11561E-04-1.27174E-13
 -1      1908 1.34659E-02 9.64639E-05-1.33545E-13
 -1      1909 1.36088E-02 1.05269E-04-1.36032E-13
 -1      1910 1.34021E-02 1.29175E-04-1.32104E-13
 -1      1911 1.37516E-02 1.14074E-04-1.38524E-13
 -1      1912 1.38945E-02 1.22877E-04-1.41019E-13
 -1      1913 1.36878E-02 1.46786E-04-1.37064E-13
 -1      1914 1.40373E-02 1.31680E-04-1.43519E-13
 -1      1915 1.41802E-02 1.40482E-04-1.46027E-13
 -1      1916 1.39735E-02 1.64393E-04-1.42048E-13
 -1      1917 1.43079E-02 1.46693E-04-1.48286E-13
 -1      1918 1.44507E-02 1.55494E-04-1.50802E-13
 -1      1919 1.44994E-02 1.91828E-04-1.51325E-13
 -1      1920 1.42440E-02 1.79407E-04-1.46802E-13
 -1      1921 1.47088E-03 8.10283E-04-6.10731E-16
 -1      1922 1.29458E-03 7.31139E-04-4.25780E-16
 -1      1923 1.23939E-03 6.82842E-04-4.39468E-16
 -1      1924 1.80693E-03 9.28007E-04-1.09251E-15
 -1      1925 1.64091E-03 8.76575E-04-8.32396E-16
 -1      1926 1.59394E-03 8.36067E-04-8.43902E-16
 -1      1927 2.12972E-03 9.80615E-04-1.73162E-15
 -1      1928 1.96882E-03 9.62625E-04-1.39197E-15
 -1      1929 1.92995E-03 9.30073E-04-1.40101E-15
 -1      1930 2.45057E-03 9.70190E-04-2.53264E-15
 -1      1931 2.28946E-03 9.82148E-04-2.11146E-15
 -1      1932 2.25740E-03 9.54793E-04-2.11867E-15
 -1      1933 2.77679E-03 9.17239E-04-3.49577E-15
 -1      1934 2.61265E-03 9.47457E-04-2.99379E-15
 -1      1935 2.58651E-03 9.21836E-04-2.99859E-15
 -1      1936 3.10981E-03 8.48259E-04-4.61873E-15
 -1      1937 2.94261E-03 8.83312E-04-4.03764E-15
 -1      1938 2.92138E-03 8.57164E-04-4.04008E-15
 -1      1939 3.44667E-03 7.85163E-04-5.89820E-15
 -1      1940 3.27816E-03 8.15193E-04-5.23918E-15
 -1      1941 3.26014E-03 7.87649E-04-5.23947E-15
 -1      1942 3.78325E-03 7.39441E-04-7.32994E-15
 -1      1943 3.61538E-03 7.59935E-04-6.59614E-15
 -1      1944 3.59841E-03 7.31079E-04-6.59282E-15
 -1      1945 4.11629E-03 7.13746E-04-8.90442E-15
 -1      1946 3.95049E-03 7.24224E-04-8.09909E-15
 -1      1947 3.93266E-03 6.94424E-04-8.09308E-15
 -1      1948 4.44385E-03 7.05751E-04-1.06212E-14
 -1      1949 4.28092E-03 7.07791E-04-9.74518E-15
 -1      1950 4.26105E-03 6.77408E-04-9.73463E-15
 -1      1951 4.76510E-03 7.11287E-04-1.24779E-14
 -1      1952 4.60532E-03 7.07087E-04-1.15323E-14
 -1      1953 4.58297E-03 6.76419E-04-1.15171E-14
 -1      1954 5.08000E-03 7.26135E-04-1.44751E-14
 -1      1955 4.92334E-03 7.17760E-04-1.34589E-14
 -1      1956 4.89856E-03 6.87033E-04-1.34390E-14
 -1      1957 5.38905E-03 7.46812E-04-1.66103E-14
 -1      1958 5.23522E-03 7.35901E-04-1.55253E-14
 -1      1959 5.20838E-03 7.05272E-04-1.54981E-14
 -1      1960 5.69296E-03 7.70737E-04-1.88864E-14
 -1      1961 5.54159E-03 7.58476E-04-1.77312E-14
 -1      1962 5.51315E-03 7.28042E-04-1.76962E-14
 -1      1963 5.99255E-03 7.96136E-04-2.12991E-14
 -1      1964 5.84323E-03 7.83321E-04-2.00756E-14
 -1      1965 5.81362E-03 7.53135E-04-2.00320E-14
 -1      1966 6.28861E-03 8.21863E-04-2.38441E-14
 -1      1967 6.14096E-03 8.09000E-04-2.25548E-14
 -1      1968 6.11054E-03 7.79076E-04-2.25033E-14
 -1      1969 6.58186E-03 8.47226E-04-2.65173E-14
 -1      1970 6.43554E-03 8.34613E-04-2.51657E-14
 -1      1971 6.40460E-03 8.04944E-04-2.51045E-14
 -1      1972 6.87294E-03 8.71852E-04-2.93118E-14
 -1      1973 6.72763E-03 8.59642E-04-2.79011E-14
 -1      1974 6.69640E-03 8.30208E-04-2.78318E-14
 -1      1975 7.16235E-03 8.95569E-04-3.22274E-14
 -1      1976 7.01782E-03 8.83826E-04-3.07536E-14
 -1      1977 6.98644E-03 8.54599E-04-3.06792E-14
 -1      1978 7.45053E-03 9.18342E-04-3.52679E-14
 -1      1979 7.30657E-03 9.07072E-04-3.37314E-14
 -1      1980 7.27515E-03 8.78020E-04-3.36477E-14
 -1      1981 7.73781E-03 9.40212E-04-3.84335E-14
 -1      1982 7.59426E-03 9.29385E-04-3.68349E-14
 -1      1983 7.56286E-03 9.00480E-04-3.67418E-14
 -1      1984 8.02444E-03 9.61263E-04-4.17290E-14
 -1      1985 7.88119E-03 9.50834E-04-4.00663E-14
 -1      1986 7.84984E-03 9.22047E-04-3.99642E-14
 -1      1987 8.31063E-03 9.81600E-04-4.51438E-14
 -1      1988 8.16758E-03 9.71514E-04-4.34218E-14
 -1      1989 8.13631E-03 9.42822E-04-4.33096E-14
 -1      1990 8.59652E-03 1.00133E-03-4.86715E-14
 -1      1991 8.45360E-03 9.91535E-04-4.68940E-14
 -1      1992 8.42241E-03 9.62916E-04-4.67718E-14
 -1      1993 8.88222E-03 1.02056E-03-5.22987E-14
 -1      1994 8.73938E-03 1.01100E-03-5.04726E-14
 -1      1995 8.70827E-03 9.82441E-04-5.03400E-14
 -1      1996 9.16780E-03 1.03938E-03-5.60264E-14
 -1      1997 9.02502E-03 1.03002E-03-5.41506E-14
 -1      1998 8.99398E-03 1.00150E-03-5.40105E-14
 -1      1999 9.45332E-03 1.05788E-03-5.98461E-14
 -1      2000 9.31056E-03 1.04867E-03-5.79253E-14
 -1      2001 9.27959E-03 1.02018E-03-5.77784E-14
 -1      2002 9.73882E-03 1.07613E-03-6.37545E-14
 -1      2003 9.59607E-03 1.06703E-03-6.17891E-14
 -1      2004 9.56516E-03 1.03857E-03-6.16361E-14
 -1      2005 1.00243E-02 1.09418E-03-6.77470E-14
 -1      2006 9.88157E-03 1.08517E-03-6.57400E-14
 -1      2007 9.85070E-03 1.05673E-03-6.55808E-14
 -1      2008 1.03098E-02 1.11208E-03-7.18283E-14
 -1      2009 1.01671E-02 1.10315E-03-6.97766E-14
 -1      2010 1.01362E-02 1.07471E-03-6.96120E-14
 -1      2011 1.05954E-02 1.12988E-03-7.59958E-14
 -1      2012 1.04526E-02 1.12100E-03-7.38998E-14
 -1      2013 1.04218E-02 1.09257E-03-7.37291E-14
 -1      2014 1.08809E-02 1.14760E-03-8.02442E-14
 -1      2015 1.07381E-02 1.13875E-03-7.81115E-14
 -1      2016 1.07074E-02 1.11033E-03-7.79314E-14
 -1      2017 1.11665E-02 1.16527E-03-8.45598E-14
 -1      2018 1.10237E-02 1.15644E-03-8.23944E-14
 -1      2019 1.09930E-02 1.12802E-03-8.22108E-14
 -1      2020 1.14521E-02 1.18290E-03-8.89338E-14
 -1      2021 1.13093E-02 1.17409E-03-8.67401E-14
 -1      2022 1.12786E-02 1.14566E-03-8.65520E-14
 -1      2023 1.17377E-02 1.20050E-03-9.33550E-14
 -1      2024 1.15949E-02 1.19170E-03-9.11389E-14
 -1      2025 1.15642E-02 1.16328E-03-9.09449E-14
 -1      2026 1.20234E-02 1.21809E-03-9.78214E-14
 -1      2027 1.18806E-02 1.20929E-03-9.55819E-14
 -1      2028 1.18498E-02 1.18087E-03-9.53865E-14
 -1      2029 1.23090E-02 1.23566E-03-1.02343E-13
 -1      2030 1.21662E-02 1.22688E-03-1.00076E-13
 -1      2031 1.21355E-02 1.19845E-03-9.98787E-14
 -1      2032 1.25947E-02 1.25324E-03-1.06917E-13
 -1      2033 1.24519E-02 1.24445E-03-1.04624E-13
 -1      2034 1.24212E-02 1.21603E-03-1.04427E-13
 -1      2035 1.28804E-02 1.27081E-03-1.11543E-13
 -1      2036 1.27376E-02 1.26203E-03-1.09222E-13
 -1      2037 1.27068E-02 1.23360E-03-1.09027E-13
 -1      2038 1.31661E-02 1.28839E-03-1.16213E-13
 -1      2039 1.30232E-02 1.27960E-03-1.13874E-13
 -1      2040 1.29925E-02 1.25118E-03-1.13673E-13
 -1      2041 1.34518E-02 1.30596E-03-1.20926E-13
 -1      2042 1.33089E-02 1.29718E-03-1.18565E-13
 -1      2043 1.32782E-02 1.26875E-03-1.18362E-13
 -1      2044 1.37375E-02 1.32354E-03-1.25681E-13
 -1      2045 1.35946E-02 1.31475E-03-1.23298E-13
 -1      2046 1.35639E-02 1.28633E-03-1.23092E-13
 -1      2047 1.40232E-02 1.34113E-03-1.30465E-13
 -1      2048 1.38804E-02 1.33234E-03-1.28070E-13
 -1      2049 1.38496E-02 1.30391E-03-1.27861E-13
 -1      2050 1.43089E-02 1.35871E-03-1.35278E-13
 -1      2051 1.41661E-02 1.34992E-03-1.32868E-13
 -1      2052 1.41353E-02 1.32149E-03-1.32659E-13
 -1      2053 1.45946E-02 1.37630E-03-1.40114E-13
 -1      2054 1.44518E-02 1.36751E-03-1.37695E-13
 -1      2055 1.44211E-02 1.33908E-03-1.37481E-13
 -1      2056 1.48337E-02 1.38904E-03-1.44188E-13
 -1      2057 1.46908E-02 1.38024E-03-1.41766E-13
 -1      2058 1.46601E-02 1.35181E-03-1.41550E-13
 -1      2059 1.48525E-02 1.35969E-03-1.44856E-13
 -1      2060 1.47774E-02 1.12422E-03-1.46196E-13
 -1      2061 1.47860E-02 1.16637E-03-1.45872E-13
 -1      2062 1.47947E-02 1.20851E-03-1.45549E-13
 -1      2063 1.48033E-02 1.25065E-03-1.45228E-13
 -1      2064 1.46666E-02 1.17982E-03-1.43618E-13
 -1      2065 1.48236E-02 1.28410E-03-1.45205E-13
 -1      2066 1.48322E-02 1.32624E-03-1.44878E-13
 -1      2067 1.47360E-02 1.32231E-03-1.43224E-13
 -1      2068 1.46955E-02 1.25541E-03-1.43271E-13
 -1      2069 1.47603E-02 1.04136E-03-1.46831E-13
 -1      2070 1.47688E-02 1.08279E-03-1.46513E-13
 -1      2071 1.46495E-02 1.09625E-03-1.44258E-13
 -1      2072 1.47430E-02 9.57067E-04-1.47477E-13
 -1      2073 1.47517E-02 9.99213E-04-1.47154E-13
 -1      2074 1.46323E-02 1.01267E-03-1.44894E-13
 -1      2075 1.47257E-02 8.72774E-04-1.48121E-13
 -1      2076 1.47344E-02 9.14920E-04-1.47800E-13
 -1      2077 1.46150E-02 9.28375E-04-1.45531E-13
 -1      2078 1.47084E-02 7.88479E-04-1.48755E-13
 -1      2079 1.47171E-02 8.30626E-04-1.48439E-13
 -1      2080 1.45977E-02 8.44081E-04-1.46162E-13
 -1      2081 1.46911E-02 7.04185E-04-1.49378E-13
 -1      2082 1.46998E-02 7.46332E-04-1.49071E-13
 -1      2083 1.45804E-02 7.59787E-04-1.46788E-13
 -1      2084 1.46738E-02 6.19891E-04-1.49984E-13
 -1      2085 1.46825E-02 6.62038E-04-1.49682E-13
 -1      2086 1.45631E-02 6.75492E-04-1.47401E-13
 -1      2087 1.46568E-02 5.37027E-04-1.50575E-13
 -1      2088 1.46653E-02 5.78459E-04-1.50280E-13
 -1      2089 1.45459E-02 5.91912E-04-1.47994E-13
 -1      2090 1.46395E-02 4.52735E-04-1.51171E-13
 -1      2091 1.46482E-02 4.94881E-04-1.50873E-13
 -1      2092 1.45288E-02 5.08334E-04-1.48577E-13
 -1      2093 1.46222E-02 3.68445E-04-1.51753E-13
 -1      2094 1.46309E-02 4.10590E-04-1.51463E-13
 -1      2095 1.45115E-02 4.24042E-04-1.49156E-13
 -1      2096 1.46049E-02 2.84157E-04-1.52314E-13
 -1      2097 1.46136E-02 3.26301E-04-1.52037E-13
 -1      2098 1.44942E-02 3.39753E-04-1.49723E-13
 -1      2099 3.59615E-03 2.19032E-04-4.47574E-15
 -1      2100 3.72746E-03 1.81878E-04-4.65801E-15
 -1      2101 3.97254E-03 1.23352E-04-5.19435E-15
 -1      2102 3.96547E-03 1.20355E-04-5.18862E-15
 -1      2103 3.83897E-03 1.52660E-04-4.83200E-15
 -1      2104 3.92055E-03 1.36023E-04-5.01212E-15
 -1      2105 3.78294E-03 1.57204E-04-5.01827E-15
 -1      2106 3.26116E-03 3.39636E-04-3.99778E-15
 -1      2107 3.42510E-03 2.77212E-04-4.22934E-15
 -1      2108 2.89669E-03 4.86789E-04-3.52619E-15
 -1      2109 3.07609E-03 4.09524E-04-3.77544E-15
 -1      2110 3.97634E-04-8.18980E-05-2.00577E-16
 -1      2111 4.07531E-04-1.16417E-04-2.04088E-16
 -1      2112 5.59241E-04-1.91026E-04-3.05244E-16
 -1      2113 5.36418E-04-1.07973E-04-2.94971E-16
 -1      2114 2.19010E-03 7.43422E-04-2.29496E-15
 -1      2115 2.33930E-03 7.08910E-04-2.55373E-15
 -1      2116 1.86259E-03 7.35416E-04-1.74939E-15
 -1      2117 2.00181E-03 7.53575E-04-1.97712E-15
 -1      2118 1.58088E-03 6.36492E-04-1.35233E-15
 -1      2119 1.72112E-03 6.96297E-04-1.54461E-15
 -1      2120 1.80135E-03 7.29363E-04-1.62893E-15
 -1      2121 1.23106E-03 4.49793E-04-9.69290E-16
 -1      2122 1.38627E-03 5.39739E-04-1.12592E-15
 -1      2123 8.89560E-04 2.60423E-04-6.97711E-16
 -1      2124 1.04252E-03 3.44195E-04-8.09221E-16
 -1      2125 5.83887E-04 1.19388E-04-5.10971E-16
 -1      2126 7.21818E-04 1.80834E-04-5.94807E-16
 -1      2127 3.29361E-04 2.89827E-05-3.65986E-16
 -1      2128 4.40654E-04 6.15458E-05-4.24397E-16
 -1      2129 1.56079E-04 4.69004E-06-2.86954E-16
 -1      2130 2.25109E-04 1.07502E-05-3.20890E-16
 -1      2131 7.78343E-05 1.20607E-05-2.39051E-16
 -1      2132 1.06240E-04 4.33061E-06-2.59485E-16
 -1      2133 1.34258E-04-9.59581E-06-2.42428E-16
 -1      2134 8.67744E-05 4.28592E-05-2.49990E-16
 -1      2135 7.00525E-05 2.90298E-05-2.31248E-16
 -1      2136 1.84225E-04 5.74329E-05-3.00283E-16
 -1      2137 1.24387E-04 5.12342E-05-2.71552E-16
 -1      2138 1.06835E-04 5.50110E-05-2.20872E-16
 -1      2139 3.83582E-04 2.23604E-05-4.41162E-16
 -1      2140 2.81578E-04 4.48850E-05-3.69496E-16
 -1      2141 6.40887E-04-5.79066E-05-6.15596E-16
 -1      2142 5.06232E-04-1.19713E-05-5.22240E-16
 -1      2143 9.74708E-04-2.10402E-04-9.12343E-16
 -1      2144 8.29558E-04-1.36634E-04-7.66965E-16
 -1      2145 1.27272E-03-3.59886E-04-1.24095E-15
 -1      2146 1.12366E-03-2.83972E-04-1.06868E-15
 -1      2147 1.06063E-03-2.44011E-04-9.44936E-16
 -1      2148 1.60394E-03-5.05548E-04-1.71765E-15
 -1      2149 1.46266E-03-4.47511E-04-1.49414E-15
 -1      2150 1.90975E-03-5.59647E-04-2.24595E-15
 -1      2151 1.76949E-03-5.44224E-04-1.99523E-15
 -1      2152 2.21893E-03-5.23011E-04-2.84663E-15
 -1      2153 2.06759E-03-5.55123E-04-2.54828E-15
 -1      2154 2.60200E-03-3.80908E-04-3.52848E-15
 -1      2155 2.43076E-03-4.53847E-04-3.25269E-15
 -1      2156 2.97836E-03-2.17827E-04-4.03039E-15
 -1      2157 2.80250E-03-2.98408E-04-3.78095E-15
 -1      2158 3.34798E-03-5.84030E-05-4.55709E-15
 -1      2159 3.17420E-03-1.29723E-04-4.33253E-15
 -1      2160 3.69570E-03 5.11398E-05-4.86645E-15
 -1      2161 3.54828E-03 8.91002E-06-4.74354E-15
 -1      2162 3.90900E-03 1.04855E-04-5.08589E-15
 -1      2163 3.82132E-03 8.57623E-05-4.98674E-15
 -1      2164 2.49786E-03 6.58659E-04-2.82757E-15
 -1      2165 2.65751E-03 5.90368E-04-3.11650E-15
 -1      2166 2.40346E-03 6.93208E-04-2.74187E-15
 -1      2167 7.67274E-05-6.44511E-06-1.44473E-16
 -1      2168 8.48155E-05 5.47611E-05-1.18842E-16
 -1      2169 1.17268E-04 7.13783E-05-1.25917E-16
 -1      2170 1.90344E-04 7.78136E-05-1.94181E-16
 -1      2171 1.72284E-04-4.08663E-05-1.62278E-16
 -1      2172 2.77105E-03 5.39171E-04-3.43050E-15
 -1      2173 7.48826E-04-4.31492E-04-3.87263E-16
 -1      2174 8.20353E-04-4.34638E-04-4.96971E-16
 -1      2175 5.66434E-04-3.34618E-04-2.42970E-16
 -1      2176 3.38990E-04-2.07438E-04-1.20834E-16
 -1      2177 3.96068E-03 1.26238E-04-5.38432E-15
 -1      2178 3.98564E-03 1.26891E-04-5.76520E-15
 -1      2179 3.93555E-03 1.28228E-04-5.57331E-15
 -1      2180 3.50755E-03 2.34712E-04-4.57976E-15
 -1      2181 1.45563E-02 2.47823E-04-1.51798E-13
 -1      2182 3.94486E-03 1.20692E-04-5.47203E-15
 -1      2183 3.16485E-03 3.62306E-04-4.09311E-15
 -1      2184 3.75887E-03 8.48321E-05-5.24450E-15
 -1      2185 3.44217E-03-7.77593E-06-4.92428E-15
 -1      2186 3.06028E-03-1.60191E-04-4.41535E-15
 -1      2187 2.68380E-03-3.33887E-04-3.84413E-15
 -1      2188 2.31406E-03-4.94911E-04-3.15831E-15
 -1      2189 1.98357E-03-5.68874E-04-2.44515E-15
 -1      2190 1.37221E-03-4.08811E-04-1.33606E-15
 -1      2191 7.42014E-04-8.81266E-05-6.49451E-16
 -1      2192 2.32128E-04 6.35630E-05-2.98433E-16
 -1      2193 7.07931E-05 1.73008E-05-2.08838E-16
 -1      2194 2.81848E-04 2.35912E-07-3.06809E-16
 -1      2195 5.18050E-04 6.91516E-05-4.21931E-16
 -1      2196 8.16830E-04 2.05204E-04-5.95850E-16
 -1      2197 1.49962E-03 5.98283E-04-1.20371E-15
 -1      2198 8.26282E-05 4.67763E-05-1.53032E-16
 -1      2199 2.09130E-03 7.61706E-04-2.14089E-15
 -1      2200 1.14753E-03 3.92091E-04-8.37234E-16
 -1      2201 4.48455E-04 2.11626E-05-4.37462E-16
 -1      2202 1.68658E-03-5.36487E-04-1.86139E-15
 -1      2203 4.84657E-04-2.80983E-04-2.02258E-16
 -1      2204 5.54859E-04-2.68284E-05-3.55700E-16
 -1      2205 6.09374E-04-7.57676E-05-3.74239E-16
 -1      2206 2.01834E-03 7.74647E-04-2.00366E-15
 -1      2207 2.17270E-03 7.63032E-04-2.32193E-15
 -1      2208 4.64577E-04 2.72371E-05-2.52822E-16
 -1      2209 3.68298E-04-8.38547E-06-2.45497E-16
 -1      2210 7.22483E-04 3.48570E-04-1.96403E-16
 -1      2211 7.04215E-04 2.98382E-04-2.22817E-16
 -1      2212 8.13915E-04 4.43328E-04-1.86957E-16
 -1      2213 7.63986E-04 3.92755E-04-1.93639E-16
 -1      2214 9.18541E-04 4.53315E-04-3.09675E-16
 -1      2215 1.00575E-03 5.44509E-04-3.01124E-16
 -1      2216 1.13356E-03-5.48960E-04-9.23171E-16
 -1      2217 1.30663E-03-6.12612E-04-1.21263E-15
 -1      2218 1.37658E-03 7.25544E-04-6.31575E-16
 -1      2219 1.19348E-03 6.39413E-04-4.48738E-16
 -1      2220 1.15012E-03 5.95300E-04-4.54023E-16
 -1      2221 1.72702E-03 8.59487E-04-1.10889E-15
 -1      2222 1.55374E-03 7.99893E-04-8.51004E-16
 -1      2223 1.51550E-03 7.63029E-04-8.53972E-16
 -1      2224 1.47541E-03-6.65003E-04-1.54580E-15
 -1      2225 1.64157E-03-7.03367E-04-1.92306E-15
 -1      2226 1.38677E-03-6.04660E-04-1.38516E-15
 -1      2227 1.80428E-03-7.27316E-04-2.34418E-15
 -1      2228 1.96638E-03-7.36114E-04-2.80999E-15
 -1      2229 1.72232E-03-6.84620E-04-2.14003E-15
 -1      2230 2.12730E-03-7.30676E-04-3.31939E-15
 -1      2231 2.28943E-03-7.13009E-04-3.87167E-15
 -1      2232 2.05022E-03-7.01422E-04-3.07156E-15
 -1      2233 2.45221E-03-6.85345E-04-4.46617E-15
 -1      2234 2.61639E-03-6.50909E-04-5.10204E-15
 -1      2235 2.37967E-03-6.61643E-04-4.17717E-15
 -1      2236 2.78160E-03-6.12132E-04-5.77687E-15
 -1      2237 2.94713E-03-5.71920E-04-6.49135E-15
 -1      2238 2.71462E-03-5.87952E-04-5.44820E-15
 -1      2239 3.11292E-03-5.32125E-04-7.24319E-15
 -1      2240 3.27778E-03-4.94251E-04-8.03127E-15
 -1      2241 3.05196E-03-5.04941E-04-6.87598E-15
 -1      2242 3.44200E-03-4.59349E-04-8.85430E-15
 -1      2243 3.60456E-03-4.27800E-04-9.71251E-15
 -1      2244 3.38600E-03-4.29305E-04-8.44963E-15
 -1      2245 3.76595E-03-3.99980E-04-1.06044E-14
 -1      2246 3.92548E-03-3.75667E-04-1.15295E-14
 -1      2247 3.71289E-03-3.67939E-04-1.01618E-14
 -1      2248 4.08366E-03-3.54809E-04-1.24881E-14
 -1      2249 4.24015E-03-3.36965E-04-1.34790E-14
 -1      2250 4.03150E-03-3.21516E-04-1.20089E-14
 -1      2251 4.39535E-03-3.21868E-04-1.45024E-14
 -1      2252 4.54914E-03-3.09082E-04-1.55581E-14
 -1      2253 4.34255E-03-2.87801E-04-1.39860E-14
 -1      2254 4.70178E-03-2.98267E-04-1.66461E-14
 -1      2255 4.85329E-03-2.89063E-04-1.77672E-14
 -1      2256 4.64747E-03-2.63720E-04-1.60928E-14
 -1      2257 5.00384E-03-2.81149E-04-1.89196E-14
 -1      2258 5.15349E-03-2.74252E-04-2.01038E-14
 -1      2259 4.94765E-03-2.46332E-04-1.83278E-14
 -1      2260 5.30233E-03-2.68111E-04-2.13204E-14
 -1      2261 5.45047E-03-2.62529E-04-2.25691E-14
 -1      2262 5.24429E-03-2.33189E-04-2.06902E-14
 -1      2263 5.59794E-03-2.57314E-04-2.38496E-14
 -1      2264 5.74486E-03-2.52332E-04-2.51598E-14
 -1      2265 5.53825E-03-2.22418E-04-2.31797E-14
 -1      2266 5.89123E-03-2.47451E-04-2.65030E-14
 -1      2267 6.03717E-03-2.42584E-04-2.78791E-14
 -1      2268 5.83019E-03-2.12678E-04-2.57973E-14
 -1      2269 6.18268E-03-2.37650E-04-2.92845E-14
 -1      2270 6.32784E-03-2.32595E-04-3.07199E-14
 -1      2271 6.12057E-03-2.03063E-04-2.85391E-14
 -1      2272 6.47265E-03-2.27376E-04-3.21865E-14
 -1      2273 6.61720E-03-2.21962E-04-3.36829E-14
 -1      2274 6.40977E-03-1.93012E-04-3.14047E-14
 -1      2275 6.76148E-03-2.16337E-04-3.52092E-14
 -1      2276 6.90555E-03-2.10484E-04-3.67645E-14
 -1      2277 6.69805E-03-1.82206E-04-3.43903E-14
 -1      2278 7.04941E-03-2.04407E-04-3.83501E-14
 -1      2279 7.19312E-03-1.98098E-04-3.99648E-14
 -1      2280 6.98562E-03-1.70506E-04-3.74952E-14
 -1      2281 7.33667E-03-1.91570E-04-4.16089E-14
 -1      2282 7.48010E-03-1.84824E-04-4.32797E-14
 -1      2283 7.27265E-03-1.57882E-04-4.07169E-14
 -1      2284 7.62342E-03-1.77877E-04-4.49774E-14
 -1      2285 7.76665E-03-1.70734E-04-4.67031E-14
 -1      2286 7.55927E-03-1.44380E-04-4.40522E-14
 -1      2287 7.90980E-03-1.63414E-04-4.84555E-14
 -1      2288 8.05288E-03-1.55924E-04-5.02348E-14
 -1      2289 7.84559E-03-1.30082E-04-4.74962E-14
 -1      2290 8.19591E-03-1.48284E-04-5.20397E-14
 -1      2291 8.33889E-03-1.40501E-04-5.38709E-14
 -1      2292 8.13169E-03-1.15091E-04-5.10469E-14
 -1      2293 8.48183E-03-1.32593E-04-5.57277E-14
 -1      2294 8.62474E-03-1.24567E-04-5.76105E-14
 -1      2295 8.41764E-03-9.95139E-05-5.47027E-14
 -1      2296 8.76763E-03-1.16440E-04-5.95192E-14
 -1      2297 8.91049E-03-1.08218E-04-6.14528E-14
 -1      2298 8.70347E-03-8.34534E-05-5.84616E-14
 -1      2299 9.05334E-03-9.99158E-05-6.34085E-14
 -1      2300 9.19618E-03-9.15387E-05-6.53872E-14
 -1      2301 8.98923E-03-6.70023E-05-6.23205E-14
 -1      2302 9.33901E-03-8.30985E-05-6.73894E-14
 -1      2303 9.48183E-03-7.46006E-05-6.94116E-14
 -1      2304 9.27494E-03-5.02419E-05-6.62709E-14
 -1      2305 9.62465E-03-6.60544E-05-7.14545E-14
 -1      2306 9.76746E-03-5.74644E-05-7.35176E-14
 -1      2307 9.56063E-03-3.32412E-05-7.03090E-14
 -1      2308 9.91028E-03-4.88381E-05-7.55996E-14
 -1      2309 1.00531E-02-4.01791E-05-7.77019E-14
 -1      2310 9.84629E-03-1.60573E-05-7.44266E-14
 -1      2311 1.01959E-02-3.14934E-05-7.98231E-14
 -1      2312 1.03387E-02-2.27839E-05-8.19629E-14
 -1      2313 1.01320E-02 1.26363E-06-7.86249E-14
 -1      2314 1.04815E-02-1.40551E-05-8.41220E-14
 -1      2315 1.06244E-02-5.30948E-06-8.62987E-14
 -1      2316 1.04176E-02 1.86848E-05-8.28988E-14
 -1      2317 1.07672E-02 3.44966E-06-8.84931E-14
 -1      2318 1.09100E-02 1.22205E-05-9.07037E-14
 -1      2319 1.07033E-02 3.61778E-05-8.72461E-14
 -1      2320 1.10528E-02 2.10005E-05-9.29322E-14
 -1      2321 1.11957E-02 2.97882E-05-9.51764E-14
 -1      2322 1.09890E-02 5.37206E-05-9.16635E-14
 -1      2323 1.13385E-02 3.85819E-05-9.74381E-14
 -1      2324 1.14813E-02 4.73806E-05-9.97143E-14
 -1      2325 1.12746E-02 7.12969E-05-9.61489E-14
 -1      2326 1.16242E-02 5.61828E-05-1.02006E-13
 -1      2327 1.17670E-02 6.49880E-05-1.04314E-13
 -1      2328 1.15603E-02 8.88947E-05-1.00699E-13
 -1      2329 1.19098E-02 7.37951E-05-1.06636E-13
 -1      2330 1.20527E-02 8.26037E-05-1.08976E-13
 -1      2331 1.18460E-02 1.06505E-04-1.05311E-13
 -1      2332 1.21955E-02 9.14132E-05-1.11329E-13
 -1      2333 1.23384E-02 1.00223E-04-1.13695E-13
 -1      2334 1.21317E-02 1.24123E-04-1.09982E-13
 -1      2335 1.24812E-02 1.09033E-04-1.16080E-13
 -1      2336 1.26241E-02 1.17843E-04-1.18479E-13
 -1      2337 1.24174E-02 1.41743E-04-1.14714E-13
 -1      2338 1.27669E-02 1.26653E-04-1.20891E-13
 -1      2339 1.29098E-02 1.35462E-04-1.23317E-13
 -1      2340 1.27031E-02 1.59363E-04-1.19504E-13
 -1      2341 1.30526E-02 1.44271E-04-1.25756E-13
 -1      2342 1.31955E-02 1.53079E-04-1.28205E-13
 -1      2343 1.29888E-02 1.76981E-04-1.24342E-13
 -1      2344 1.33383E-02 1.61886E-04-1.30666E-13
 -1      2345 1.34812E-02 1.70692E-04-1.33133E-13
 -1      2346 1.32745E-02 1.94597E-04-1.29232E-13
 -1      2347 1.36240E-02 1.79498E-04-1.35609E-13
 -1      2348 1.37669E-02 1.88302E-04-1.38092E-13
 -1      2349 1.35602E-02 2.12210E-04-1.34159E-13
 -1      2350 1.39097E-02 1.97106E-04-1.40578E-13
 -1      2351 1.40526E-02 2.05909E-04-1.43072E-13
 -1      2352 1.38459E-02 2.29819E-04-1.39114E-13
 -1      2353 3.73509E-03 1.63970E-04-5.23645E-15
 -1      2354 3.83948E-03 1.43736E-04-5.42418E-15
 -1      2355 2.33650E-03 9.12964E-04-2.42544E-15
 -1      2356 2.16869E-03 9.18604E-04-2.01766E-15
 -1      2357 2.67478E-03 8.64346E-04-3.36363E-15
 -1      2358 2.50456E-03 8.93517E-04-2.87417E-15
 -1      2359 2.42108E-03 8.65811E-04-2.74145E-15
 -1      2360 3.01863E-03 7.92362E-04-4.46182E-15
 -1      2361 2.84647E-03 8.29281E-04-3.89284E-15
 -1      2362 2.76946E-03 8.01727E-04-3.73799E-15
 -1      2363 3.36255E-03 7.23951E-04-5.71498E-15
 -1      2364 3.19127E-03 7.56525E-04-5.06904E-15
 -1      2365 3.12143E-03 7.24905E-04-4.89218E-15
 -1      2366 3.70129E-03 6.73345E-04-7.12025E-15
 -1      2367 3.53304E-03 6.96102E-04-6.39912E-15
 -1      2368 3.46859E-03 6.60316E-04-6.20006E-15
 -1      2369 4.03240E-03 6.43863E-04-8.66820E-15
 -1      2370 3.86803E-03 6.56068E-04-7.87682E-15
 -1      2371 3.80595E-03 6.17237E-04-7.65506E-15
 -1      2372 4.35563E-03 6.33224E-04-1.03569E-14
 -1      2373 4.19507E-03 6.36447E-04-9.49452E-15
 -1      2374 4.13265E-03 5.95508E-04-9.25108E-15
 -1      2375 4.67171E-03 6.37133E-04-1.21849E-14
 -1      2376 4.51454E-03 6.33645E-04-1.12535E-14
 -1      2377 4.45005E-03 5.91254E-04-1.09858E-14
 -1      2378 4.98169E-03 6.51156E-04-1.41493E-14
 -1      2379 4.82740E-03 6.43122E-04-1.31499E-14
 -1      2380 4.76006E-03 5.99777E-04-1.28576E-14
 -1      2381 5.28659E-03 6.71606E-04-1.62512E-14
 -1      2382 5.13471E-03 6.60763E-04-1.51835E-14
 -1      2383 5.06445E-03 6.16849E-04-1.48652E-14
 -1      2384 5.58730E-03 6.95710E-04-1.84902E-14
 -1      2385 5.43740E-03 6.83334E-04-1.73535E-14
 -1      2386 5.36456E-03 6.39160E-04-1.70096E-14
 -1      2387 5.88458E-03 7.21537E-04-2.08653E-14
 -1      2388 5.73630E-03 7.08499E-04-1.96608E-14
 -1      2389 5.66136E-03 6.64299E-04-1.92884E-14
 -1      2390 6.17908E-03 7.47820E-04-2.33731E-14
 -1      2391 6.03212E-03 7.34681E-04-2.21028E-14
 -1      2392 5.95557E-03 6.90617E-04-2.17013E-14
 -1      2393 6.47136E-03 7.73783E-04-2.60103E-14
 -1      2394 6.32546E-03 7.60878E-04-2.46762E-14
 -1      2395 6.24774E-03 7.17050E-04-2.42462E-14
 -1      2396 6.76190E-03 7.98995E-04-2.87722E-14
 -1      2397 6.61681E-03 7.86504E-04-2.73759E-14
 -1      2398 6.53830E-03 7.42963E-04-2.69200E-14
 -1      2399 7.05107E-03 8.23255E-04-3.16542E-14
 -1      2400 6.90662E-03 8.11254E-04-3.01983E-14
 -1      2401 6.82759E-03 7.68015E-04-2.97156E-14
 -1      2402 7.33920E-03 8.46507E-04-3.46590E-14
 -1      2403 7.19524E-03 8.35010E-04-3.31408E-14
 -1      2404 7.11589E-03 7.92062E-04-3.26323E-14
 -1      2405 7.62654E-03 8.68787E-04-3.77882E-14
 -1      2406 7.48295E-03 8.57767E-04-3.62079E-14
 -1      2407 7.40343E-03 8.15086E-04-3.56723E-14
 -1      2408 7.91332E-03 8.90180E-04-4.10429E-14
 -1      2409 7.76999E-03 8.79591E-04-3.94000E-14
 -1      2410 7.69040E-03 8.37146E-04-3.88365E-14
 -1      2411 8.19968E-03 9.10796E-04-4.44179E-14
 -1      2412 8.05654E-03 9.00581E-04-4.27156E-14
 -1      2413 7.97694E-03 8.58338E-04-4.21228E-14
 -1      2414 8.48575E-03 9.30750E-04-4.79074E-14
 -1      2415 8.34274E-03 9.20851E-04-4.61484E-14
 -1      2416 8.26317E-03 8.78776E-04-4.55271E-14
 -1      2417 8.77162E-03 9.50155E-04-5.15039E-14
 -1      2418 8.62870E-03 9.40516E-04-4.96941E-14
 -1      2419 8.54919E-03 8.98579E-04-4.90455E-14
 -1      2420 9.05736E-03 9.69113E-04-5.52006E-14
 -1      2421 8.91450E-03 9.59685E-04-5.33384E-14
 -1      2422 8.83505E-03 9.17858E-04-5.26692E-14
 -1      2423 9.34303E-03 9.87715E-04-5.89920E-14
 -1      2424 9.20020E-03 9.78454E-04-5.70853E-14
 -1      2425 9.12081E-03 9.36714E-04-5.63916E-14
 -1      2426 9.62864E-03 1.00604E-03-6.28760E-14
 -1      2427 9.48584E-03 9.96907E-04-6.09245E-14
 -1      2428 9.40651E-03 9.55233E-04-6.02089E-14
 -1      2429 9.91424E-03 1.02414E-03-6.68425E-14
 -1      2430 9.77144E-03 1.01511E-03-6.48477E-14
 -1      2431 9.69217E-03 9.73491E-04-6.41151E-14
 -1      2432 1.01998E-02 1.04209E-03-7.08985E-14
 -1      2433 1.00570E-02 1.03314E-03-6.88585E-14
 -1      2434 9.97781E-03 9.91549E-04-6.81057E-14
 -1      2435 1.04854E-02 1.05992E-03-7.50380E-14
 -1      2436 1.03426E-02 1.05102E-03-7.29581E-14
 -1      2437 1.02634E-02 1.00946E-03-7.21842E-14
 -1      2438 1.07710E-02 1.07765E-03-7.92616E-14
 -1      2439 1.06282E-02 1.06879E-03-7.71399E-14
 -1      2440 1.05491E-02 1.02725E-03-7.63492E-14
 -1      2441 1.10567E-02 1.09533E-03-8.35570E-14
 -1      2442 1.09138E-02 1.08650E-03-8.14014E-14
 -1      2443 1.08347E-02 1.04497E-03-8.05907E-14
 -1      2444 1.13423E-02 1.11296E-03-8.79123E-14
 -1      2445 1.11995E-02 1.10415E-03-8.57280E-14
 -1      2446 1.11204E-02 1.06263E-03-8.49037E-14
 -1      2447 1.16279E-02 1.13057E-03-9.23205E-14
 -1      2448 1.14851E-02 1.12177E-03-9.01103E-14
 -1      2449 1.14060E-02 1.08026E-03-8.92742E-14
 -1      2450 1.19136E-02 1.14816E-03-9.67770E-14
 -1      2451 1.17708E-02 1.13937E-03-9.45424E-14
 -1      2452 1.16917E-02 1.09786E-03-9.36952E-14
 -1      2453 1.21993E-02 1.16574E-03-1.01290E-13
 -1      2454 1.20564E-02 1.15695E-03-9.90259E-14
 -1      2455 1.19774E-02 1.11544E-03-9.81705E-14
 -1      2456 1.24850E-02 1.18331E-03-1.05856E-13
 -1      2457 1.23421E-02 1.17453E-03-1.03567E-13
 -1      2458 1.22630E-02 1.13302E-03-1.02701E-13
 -1      2459 1.27706E-02 1.20088E-03-1.10470E-13
 -1      2460 1.26278E-02 1.19210E-03-1.08155E-13
 -1      2461 1.25487E-02 1.15059E-03-1.07285E-13
 -1      2462 1.30563E-02 1.21846E-03-1.15132E-13
 -1      2463 1.29135E-02 1.20967E-03-1.12797E-13
 -1      2464 1.28344E-02 1.16816E-03-1.11917E-13
 -1      2465 1.33420E-02 1.23603E-03-1.19834E-13
 -1      2466 1.31992E-02 1.22724E-03-1.17478E-13
 -1      2467 1.31201E-02 1.18574E-03-1.16593E-13
 -1      2468 1.36277E-02 1.25361E-03-1.24575E-13
 -1      2469 1.34849E-02 1.24482E-03-1.22199E-13
 -1      2470 1.34058E-02 1.20331E-03-1.21307E-13
 -1      2471 1.39134E-02 1.27119E-03-1.29350E-13
 -1      2472 1.37706E-02 1.26240E-03-1.26958E-13
 -1      2473 1.36915E-02 1.22089E-03-1.26057E-13
 -1      2474 1.41992E-02 1.28878E-03-1.34155E-13
 -1      2475 1.40563E-02 1.27998E-03-1.31751E-13
 -1      2476 1.39773E-02 1.23847E-03-1.30840E-13
 -1      2477 1.44849E-02 1.30636E-03-1.38981E-13
 -1      2478 1.43420E-02 1.29757E-03-1.36565E-13
 -1      2479 1.42630E-02 1.25606E-03-1.35651E-13
 -1      2480 1.46398E-02 1.31837E-03-1.41574E-13
 -1      2481 1.45043E-02 9.83977E-04-1.42953E-13
 -1      2482 1.45129E-02 1.02612E-03-1.42637E-13
 -1      2483 1.44869E-02 8.99684E-04-1.43582E-13
 -1      2484 1.44956E-02 9.41831E-04-1.43267E-13
 -1      2485 1.43762E-02 9.55287E-04-1.41010E-13
 -1      2486 1.45386E-02 1.15113E-03-1.41688E-13
 -1      2487 1.45472E-02 1.19328E-03-1.41365E-13
 -1      2488 1.45215E-02 1.06791E-03-1.42321E-13
 -1      2489 1.45300E-02 1.10934E-03-1.42006E-13
 -1      2490 1.44106E-02 1.12280E-03-1.39753E-13
 -1      2491 1.43934E-02 1.03922E-03-1.40384E-13
 -1      2492 1.44696E-02 8.15389E-04-1.44202E-13
 -1      2493 1.44783E-02 8.57536E-04-1.43893E-13
 -1      2494 1.43589E-02 8.70992E-04-1.41630E-13
 -1      2495 1.44523E-02 7.31094E-04-1.44820E-13
 -1      2496 1.44610E-02 7.73241E-04-1.44513E-13
 -1      2497 1.43416E-02 7.86696E-04-1.42245E-13
 -1      2498 1.44350E-02 6.46799E-04-1.45421E-13
 -1      2499 1.44437E-02 6.88946E-04-1.45121E-13
 -1      2500 1.43243E-02 7.02400E-04-1.42849E-13
 -1      2501 1.44180E-02 5.63933E-04-1.45996E-13
 -1      2502 1.44265E-02 6.05366E-04-1.45710E-13
 -1      2503 1.43071E-02 6.18819E-04-1.43433E-13
 -1      2504 1.44007E-02 4.79640E-04-1.46575E-13
 -1      2505 1.44094E-02 5.21786E-04-1.46287E-13
 -1      2506 1.42900E-02 5.35239E-04-1.44005E-13
 -1      2507 1.43834E-02 3.95349E-04-1.47142E-13
 -1      2508 1.43921E-02 4.37494E-04-1.46859E-13
 -1      2509 1.42727E-02 4.50946E-04-1.44572E-13
 -1      2510 1.43661E-02 3.11059E-04-1.47692E-13
 -1      2511 1.43748E-02 3.53204E-04-1.47415E-13
 -1      2512 1.42554E-02 3.66654E-04-1.45125E-13
 -1      2513 1.44286E-02 2.41613E-04-1.49535E-13
 -1      2514 3.97588E-03 1.25798E-04-5.90509E-15
 -1      2515 3.91622E-03 1.22368E-04-5.80163E-15
 -1      2516 2.03248E-03 9.16842E-04-1.69646E-15
 -1      2517 1.86444E-03 8.89766E-04-1.36450E-15
 -1      2518 1.83119E-03 8.61001E-04-1.36374E-15
 -1      2519 2.10967E-03 8.88907E-04-1.96056E-15
 -1      2520 2.33669E-03 7.23749E-04-2.65871E-15
 -1      2521 2.46977E-03 6.74143E-04-2.93887E-15
 -1      2522 3.12261E-03 3.83690E-04-4.27822E-15
 -1      2523 3.27749E-03 3.15356E-04-4.52267E-15
 -1      2524 3.43688E-03 2.54592E-04-4.78324E-15
 -1      2525 3.59118E-03 2.04336E-04-5.05032E-15
 -1      2526 3.39330E-03 2.84605E-04-4.97776E-15
 -1      2527 3.81928E-03 1.05622E-04-5.67713E-15
 -1      2528 3.70165E-03 8.13556E-05-5.54899E-15
 -1      2529 8.17084E-04-1.17670E-04-6.64792E-16
 -1      2530 6.50924E-04-4.13781E-05-5.31246E-16
 -1      2531 6.85685E-04 2.47325E-04-2.43092E-16
 -1      2532 6.59239E-04 1.94794E-04-2.57796E-16
 -1      2533 8.59584E-04 3.54351E-04-3.37228E-16
 -1      2534 6.21311E-04 1.39395E-04-2.66822E-16
 -1      2535 5.62902E-04 8.55358E-05-2.69953E-16
 -1      2536 8.02529E-04 2.40274E-04-3.72085E-16
 -1      2537 2.66420E-03 5.93862E-04-3.35707E-15
 -1      2538 2.87351E-03 4.95702E-04-3.78519E-15
 -1      2539 1.04215E-04-1.70296E-05-1.84294E-16
 -1      2540 7.34205E-05 5.34769E-06-1.76989E-16
 -1      2541 7.11706E-05 3.16731E-05-1.70802E-16
 -1      2542 9.85207E-05 5.52210E-05-1.86608E-16
 -1      2543 1.06316E-03 3.36650E-04-7.09868E-16
 -1      2544 1.22493E-03 4.38958E-04-8.51316E-16
 -1      2545 1.73796E-03 7.16948E-04-1.49436E-15
 -1      2546 1.85144E-03 7.53427E-04-1.69103E-15
 -1      2547 4.95575E-04 1.74253E-05-4.19674E-16
 -1      2548 3.87763E-04 4.80349E-05-3.52901E-16
 -1      2549 1.42033E-03 5.56289E-04-1.05645E-15
 -1      2550 1.58380E-03 6.49064E-04-1.26819E-15
 -1      2551 7.74297E-04 1.73122E-04-5.26854E-16
 -1      2552 9.21465E-04 2.52775E-04-6.15949E-16
 -1      2553 9.99207E-04 3.01914E-04-6.29298E-16
 -1      2554 4.58184E-04 3.08307E-05-3.42967E-16
 -1      2555 5.89482E-04 8.28830E-05-4.14490E-16
 -1      2556 1.47100E-04-2.61046E-05-2.04792E-16
 -1      2557 1.36206E-04 6.94512E-05-2.03447E-16
 -1      2558 1.77943E-03-5.68163E-04-2.07034E-15
 -1      2559 1.64189E-03-5.33579E-04-1.78847E-15
 -1      2560 1.11810E-03-2.78612E-04-9.67962E-16
 -1      2561 9.91172E-04-2.07628E-04-8.24712E-16
 -1      2562 1.44083E-03-4.51889E-04-1.42407E-15
 -1      2563 1.28366E-03-3.67525E-04-1.18285E-15
 -1      2564 1.19210E-03-3.30272E-04-1.04028E-15
 -1      2565 2.03514E-03-5.74179E-04-2.66386E-15
 -1      2566 1.90988E-03-5.81493E-04-2.35714E-15
 -1      2567 1.84624E-03-5.85505E-04-2.26663E-15
 -1      2568 2.38730E-03-4.69392E-04-3.51006E-15
 -1      2569 2.21144E-03-5.36114E-04-3.08816E-15
 -1      2570 2.79022E-03-2.77215E-04-4.24938E-15
 -1      2571 2.62504E-03-3.60821E-04-3.97660E-15
 -1      2572 3.14157E-03-1.13974E-04-4.88177E-15
 -1      2573 2.96459E-03-1.95169E-04-4.56044E-15
 -1      2574 2.89887E-03-2.32666E-04-4.69775E-15
 -1      2575 3.54052E-03 3.54252E-05-5.36555E-15
 -1      2576 3.36016E-03-2.61228E-05-5.16291E-15
 -1      2577 7.33167E-04-3.52188E-04-4.39102E-16
 -1      2578 9.71212E-04-4.71800E-04-7.01099E-16
 -1      2579 1.05308E-03-4.70881E-04-8.30377E-16
 -1      2580 7.26498E-04-3.09963E-04-4.46434E-16
 -1      2581 2.32970E-04-3.04920E-05-2.21286E-16
 -1      2582 7.50864E-04-1.46322E-04-4.96266E-16
 -1      2583 6.44247E-04-1.27055E-04-3.88876E-16
 -1      2584 6.65551E-04-1.75059E-04-4.00328E-16
 -1      2585 3.45262E-04 6.11631E-05-2.75089E-16
 -1      2586 4.30746E-04 3.34599E-05-2.96434E-16
 -1      2587 2.25078E-03 7.55413E-04-2.49844E-15
 -1      2588 3.19955E-04-1.78176E-05-2.52097E-16
 -1      2589 2.08556E-04 7.26655E-05-2.53459E-16
 -1      2590 3.12824E-04 6.62627E-05-2.91495E-16
 -1      2591 6.43303E-04 1.08048E-04-3.59820E-16
 -1      2592 5.60943E-04-1.54044E-05-3.84363E-16
 -1      2593 7.13243E-04-8.08850E-05-5.09467E-16
 -1      2594 3.91059E-03 1.33830E-04-5.79786E-15
 -1      2595 3.96738E-03 1.33068E-04-6.18025E-15
 -1      2596 3.88482E-03 1.44009E-04-6.01993E-15
 -1      2597 3.88248E-03 1.17322E-04-6.11094E-15
 -1      2598 3.67737E-03 1.87370E-04-5.44719E-15
 -1      2599 2.59177E-03 6.36386E-04-3.25955E-15
 -1      2600 1.45608E-02 1.27686E-03-1.40653E-13
 -1      2601 1.45405E-02 1.24341E-03-1.40678E-13
 -1      2602 1.42766E-02 2.17235E-04-1.47016E-13
 -1      2603 1.43336E-02 2.73230E-04-1.47486E-13
 -1      2604 1.42142E-02 2.86681E-04-1.45187E-13
 -1      2605 1.41490E-02 2.11024E-04-1.44763E-13
 -1      2606 3.99950E-03 1.28423E-04-6.09460E-15
 -1      2607 3.99948E-03 1.30388E-04-6.42901E-15
 -1      2608 4.00892E-03 1.28801E-04-6.28456E-15
 -1      2609 3.00814E-03 4.46150E-04-4.18974E-15
 -1      2610 3.14033E-03 4.07678E-04-4.61129E-15
 -1      2611 2.91677E-03 5.09535E-04-4.09647E-15
 -1      2612 3.63263E-03 6.13504E-05-5.79348E-15
 -1      2613 5.62112E-04-7.24723E-06-4.30754E-16
 -1      2614 6.83309E-04 1.24064E-04-4.31716E-16
 -1      2615 1.31535E-03 5.02309E-04-9.04916E-16
 -1      2616 1.64433E-03 6.85504E-04-1.32186E-15
 -1      2617 3.26884E-03-6.63624E-05-5.31113E-15
 -1      2618 8.75810E-04-1.54137E-04-6.83400E-16
 -1      2619 6.95036E-04-2.22058E-04-4.25224E-16
 -1      2620 7.02221E-04-2.65356E-04-4.28504E-16
 -1      2621 8.65769E-04-3.45164E-04-5.99699E-16
 -1      2622 8.13640E-04-2.49825E-04-5.44893E-16
 -1      2623 1.62502E-03-5.46056E-04-1.78895E-15
 -1      2624 1.54124E-03-5.05346E-04-1.60326E-15
 -1      2625 1.44285E-03-4.71567E-04-1.42783E-15
 -1      2626 1.94366E-03 7.75797E-04-1.84675E-15
 -1      2627 2.12856E-03-5.64148E-04-2.97996E-15
 -1      2628 2.50395E-03-4.24881E-04-3.88986E-15
 -1      2629 2.41153E-03-4.79798E-04-3.79913E-15
 -1      2630 2.62059E-03-3.79756E-04-4.28597E-15
 -1      2631 1.44125E-02 1.21472E-03-1.38751E-13
 -1      2632 1.40852E-02 2.43737E-04-1.43287E-13
 -1      2633 8.63614E-04-1.61609E-04-6.43244E-16
 -1      2634 2.20072E-03 7.79409E-04-2.38894E-15
 -1      2635 2.34598E-03 7.42651E-04-2.73090E-15
 -1      2636 8.11422E-04 1.98558E-04-4.57818E-16
 -1      2637 1.10899E-03 5.51366E-04-4.55297E-16
 -1      2638 1.06847E-03 5.06567E-04-4.53291E-16
 -1      2639 1.29643E-03 6.43853E-04-6.35681E-16
 -1      2640 3.23065E-03 6.54249E-04-5.33300E-15
 -1      2641 3.05265E-03 6.91476E-04-4.70883E-15
 -1      2642 9.15654E-04-2.18860E-04-6.70742E-16
 -1      2643 2.87132E-03 7.32786E-04-4.12276E-15
 -1      2644 2.69091E-03 7.74380E-04-3.57512E-15
 -1      2645 2.98525E-03 6.57984E-04-4.51836E-15
 -1      2646 1.64083E-03-6.41794E-04-1.93845E-15
 -1      2647 1.80796E-03-6.67067E-04-2.36019E-15
 -1      2648 1.97254E-03-6.74213E-04-2.82565E-15
 -1      2649 2.13882E-03-6.64698E-04-3.33629E-15
 -1      2650 1.89664E-03-6.47389E-04-2.58245E-15
 -1      2651 2.30561E-03-6.40247E-04-3.88910E-15
 -1      2652 2.47519E-03-6.06043E-04-4.48469E-15
 -1      2653 2.23323E-03-6.21837E-04-3.60306E-15
 -1      2654 2.64658E-03-5.64666E-04-5.12074E-15
 -1      2655 2.81856E-03-5.21063E-04-5.79627E-15
 -1      2656 2.57912E-03-5.43643E-04-4.79482E-15
 -1      2657 2.99098E-03-4.77399E-04-6.51039E-15
 -1      2658 3.16166E-03-4.36187E-04-7.26143E-15
 -1      2659 2.93080E-03-4.49900E-04-6.14760E-15
 -1      2660 3.33101E-03-3.98460E-04-8.04795E-15
 -1      2661 3.49740E-03-3.64719E-04-8.86818E-15
 -1      2662 3.27757E-03-3.66373E-04-7.64854E-15
 -1      2663 3.66157E-03-3.35306E-04-9.72327E-15
 -1      2664 3.82268E-03-3.09781E-04-1.06116E-14
 -1      2665 3.61246E-03-3.01260E-04-9.28814E-15
 -1      2666 3.98146E-03-2.88156E-04-1.15333E-14
 -1      2667 4.13771E-03-2.69661E-04-1.24878E-14
 -1      2668 3.93401E-03-2.53775E-04-1.10619E-14
 -1      2669 4.29201E-03-2.54168E-04-1.34738E-14
 -1      2670 4.44441E-03-2.41009E-04-1.44930E-14
 -1      2671 4.24411E-03-2.20084E-04-1.29662E-14
 -1      2672 4.59534E-03-2.29974E-04-1.55434E-14
 -1      2673 4.74494E-03-2.20555E-04-1.66260E-14
 -1      2674 4.54575E-03-1.96236E-04-1.49982E-14
 -1      2675 4.89348E-03-2.12527E-04-1.77409E-14
 -1      2676 5.04112E-03-2.05533E-04-1.88868E-14
 -1      2677 4.84162E-03-1.79024E-04-1.71587E-14
 -1      2678 5.18801E-03-1.99366E-04-2.00652E-14
 -1      2679 5.33430E-03-1.93785E-04-2.12749E-14
 -1      2680 5.13376E-03-1.65989E-04-1.94448E-14
 -1      2681 5.48005E-03-1.88624E-04-2.25176E-14
 -1      2682 5.62540E-03-1.83724E-04-2.37909E-14
 -1      2683 5.42358E-03-1.55316E-04-2.18587E-14
 -1      2684 5.77036E-03-1.78961E-04-2.50953E-14
 -1      2685 5.91504E-03-1.74238E-04-2.64323E-14
 -1      2686 5.71197E-03-1.45709E-04-2.43991E-14
 -1      2687 6.05944E-03-1.69469E-04-2.77995E-14
 -1      2688 6.20364E-03-1.64597E-04-2.91988E-14
 -1      2689 5.99947E-03-1.36282E-04-2.70655E-14
 -1      2690 6.34762E-03-1.59570E-04-3.06287E-14
 -1      2691 6.49147E-03-1.54358E-04-3.20881E-14
 -1      2692 6.28641E-03-1.26468E-04-2.98571E-14
 -1      2693 6.63516E-03-1.48935E-04-3.35786E-14
 -1      2694 6.77874E-03-1.43287E-04-3.50973E-14
 -1      2695 6.57299E-03-1.15934E-04-3.27701E-14
 -1      2696 6.92220E-03-1.37408E-04-3.66461E-14
 -1      2697 7.06558E-03-1.31295E-04-3.82250E-14
 -1      2698 6.85932E-03-1.04518E-04-3.58024E-14
 -1      2699 7.20887E-03-1.24952E-04-3.98312E-14
 -1      2700 7.35210E-03-1.18384E-04-4.14678E-14
 -1      2701 7.14549E-03-9.21769E-05-3.89515E-14
 -1      2702 7.49526E-03-1.11604E-04-4.31325E-14
 -1      2703 7.63838E-03-1.04618E-04-4.48227E-14
 -1      2704 7.43154E-03-7.89403E-05-4.22159E-14
 -1      2705 7.78144E-03-9.74434E-05-4.65427E-14
 -1      2706 7.92448E-03-9.00889E-05-4.82883E-14
 -1      2707 7.71750E-03-6.48837E-05-4.55929E-14
 -1      2708 8.06747E-03-8.25716E-05-5.00597E-14
 -1      2709 8.21045E-03-7.49014E-05-5.18587E-14
 -1      2710 8.00340E-03-5.01050E-05-4.90780E-14
 -1      2711 8.35339E-03-6.70950E-05-5.36834E-14
 -1      2712 8.49632E-03-5.91618E-05-5.55346E-14
 -1      2713 8.28924E-03-3.47095E-05-5.26681E-14
 -1      2714 8.63923E-03-5.11171E-05-5.74106E-14
 -1      2715 8.78213E-03-4.29696E-05-5.93131E-14
 -1      2716 8.57505E-03-1.88005E-05-5.63638E-14
 -1      2717 8.92501E-03-3.47328E-05-6.12380E-14
 -1      2718 9.06789E-03-2.64142E-05-6.31861E-14
 -1      2719 8.86082E-03-2.47331E-06-6.01591E-14
 -1      2720 9.21075E-03-1.80253E-05-6.51596E-14
 -1      2721 9.35361E-03-9.57267E-06-6.71542E-14
 -1      2722 9.14658E-03 1.41877E-05-6.40508E-14
 -1      2723 9.49647E-03-1.06586E-06-6.91683E-14
 -1      2724 9.63932E-03 7.48986E-06-7.12047E-14
 -1      2725 9.43232E-03 3.11101E-05-6.80323E-14
 -1      2726 9.78217E-03 1.60865E-05-7.32615E-14
 -1      2727 9.92502E-03 2.47200E-05-7.53365E-14
 -1      2728 9.71805E-03 4.82335E-05-7.20985E-14
 -1      2729 1.00679E-02 3.33838E-05-7.74314E-14
 -1      2730 1.02107E-02 4.20747E-05-7.95472E-14
 -1      2731 1.00038E-02 6.55085E-05-7.62431E-14
 -1      2732 1.03536E-02 5.07877E-05-8.16814E-14
 -1      2733 1.04964E-02 5.95201E-05-8.38347E-14
 -1      2734 1.02895E-02 8.28954E-05-8.04670E-14
 -1      2735 1.06392E-02 6.82681E-05-8.60069E-14
 -1      2736 1.07821E-02 7.70298E-05-8.81948E-14
 -1      2737 1.05752E-02 1.00363E-04-8.47681E-14
 -1      2738 1.09249E-02 8.58022E-05-9.04013E-14
 -1      2739 1.10678E-02 9.45839E-05-9.26251E-14
 -1      2740 1.08609E-02 1.17889E-04-8.91419E-14
 -1      2741 1.12106E-02 1.03373E-04-9.48661E-14
 -1      2742 1.13535E-02 1.12167E-04-9.71243E-14
 -1      2743 1.11466E-02 1.35453E-04-9.35852E-14
 -1      2744 1.14963E-02 1.20967E-04-9.93965E-14
 -1      2745 1.16392E-02 1.29770E-04-1.01686E-13
 -1      2746 1.14323E-02 1.53042E-04-9.80960E-14
 -1      2747 1.17820E-02 1.38575E-04-1.03990E-13
 -1      2748 1.19249E-02 1.47383E-04-1.06310E-13
 -1      2749 1.17180E-02 1.70648E-04-1.02672E-13
 -1      2750 1.20677E-02 1.56191E-04-1.08643E-13
 -1      2751 1.22106E-02 1.65001E-04-1.10992E-13
 -1      2752 1.20038E-02 1.88262E-04-1.07307E-13
 -1      2753 1.23534E-02 1.73811E-04-1.13355E-13
 -1      2754 1.24963E-02 1.82621E-04-1.15731E-13
 -1      2755 1.22895E-02 2.05881E-04-1.11998E-13
 -1      2756 1.26391E-02 1.91431E-04-1.18121E-13
 -1      2757 1.27820E-02 2.00241E-04-1.20523E-13
 -1      2758 1.25752E-02 2.23500E-04-1.16743E-13
 -1      2759 1.29248E-02 2.09050E-04-1.22942E-13
 -1      2760 1.30677E-02 2.17858E-04-1.25369E-13
 -1      2761 1.28609E-02 2.41119E-04-1.21543E-13
 -1      2762 1.32106E-02 2.26666E-04-1.27809E-13
 -1      2763 1.33534E-02 2.35473E-04-1.30259E-13
 -1      2764 1.31466E-02 2.58735E-04-1.26392E-13
 -1      2765 1.34963E-02 2.44279E-04-1.32715E-13
 -1      2766 1.36391E-02 2.53085E-04-1.35182E-13
 -1      2767 1.34323E-02 2.76349E-04-1.31280E-13
 -1      2768 1.37820E-02 2.61889E-04-1.37653E-13
 -1      2769 1.39248E-02 2.70693E-04-1.40132E-13
 -1      2770 1.37180E-02 2.93960E-04-1.36199E-13
 -1      2771 2.44311E-03 7.98679E-04-2.92609E-15
 -1      2772 2.26377E-03 8.25523E-04-2.47042E-15
 -1      2773 3.57865E-03 5.96508E-04-6.69344E-15
 -1      2774 3.40679E-03 6.22466E-04-5.99449E-15
 -1      2775 3.34772E-03 5.83015E-04-5.78387E-15
 -1      2776 3.91233E-03 5.62774E-04-8.19763E-15
 -1      2777 3.74749E-03 5.76964E-04-7.42814E-15
 -1      2778 3.69262E-03 5.35051E-04-7.19607E-15
 -1      2779 4.23309E-03 5.49437E-04-9.84054E-15
 -1      2780 4.07429E-03 5.53952E-04-9.00200E-15
 -1      2781 4.01990E-03 5.11532E-04-8.74841E-15
 -1      2782 4.54386E-03 5.51584E-04-1.16210E-14
 -1      2783 4.38958E-03 5.48957E-04-1.07134E-14
 -1      2784 4.33309E-03 5.06529E-04-1.04378E-14
 -1      2785 4.84757E-03 5.64419E-04-1.35367E-14
 -1      2786 4.69645E-03 5.56947E-04-1.25627E-14
 -1      2787 4.63654E-03 5.14527E-04-1.22627E-14
 -1      2788 5.14644E-03 5.84161E-04-1.55866E-14
 -1      2789 4.99750E-03 5.73630E-04-1.45441E-14
 -1      2790 4.93382E-03 5.31088E-04-1.42211E-14
 -1      2791 5.44195E-03 6.07969E-04-1.77713E-14
 -1      2792 5.29453E-03 5.95697E-04-1.66624E-14
 -1      2793 5.22730E-03 5.52985E-04-1.63128E-14
 -1      2794 5.73505E-03 6.33831E-04-2.00903E-14
 -1      2795 5.58873E-03 6.20738E-04-1.89136E-14
 -1      2796 5.51844E-03 5.77886E-04-1.85376E-14
 -1      2797 6.02637E-03 6.60388E-04-2.25406E-14
 -1      2798 5.88088E-03 6.47084E-04-2.12996E-14
 -1      2799 5.80809E-03 6.04164E-04-2.08950E-14
 -1      2800 6.31634E-03 6.86776E-04-2.51238E-14
 -1      2801 6.17149E-03 6.73640E-04-2.38168E-14
 -1      2802 6.09674E-03 6.30730E-04-2.33853E-14
 -1      2803 6.60526E-03 7.12488E-04-2.78321E-14
 -1      2804 6.46090E-03 6.99737E-04-2.64619E-14
 -1      2805 6.38467E-03 6.56901E-04-2.60040E-14
 -1      2806 6.89336E-03 7.37266E-04-3.06613E-14
 -1      2807 6.74939E-03 7.25003E-04-2.92310E-14
 -1      2808 6.67208E-03 6.82287E-04-2.87469E-14
 -1      2809 7.18082E-03 7.61019E-04-3.36139E-14
 -1      2810 7.03715E-03 7.49274E-04-3.21230E-14
 -1      2811 6.95908E-03 7.06702E-04-3.16118E-14
 -1      2812 7.46778E-03 7.83758E-04-3.66888E-14
 -1      2813 7.32435E-03 7.72514E-04-3.51356E-14
 -1      2814 7.24575E-03 7.30095E-04-3.45982E-14
 -1      2815 7.75437E-03 8.05556E-04-3.98859E-14
 -1      2816 7.61111E-03 7.94771E-04-3.82721E-14
 -1      2817 7.53217E-03 7.52501E-04-3.77070E-14
 -1      2818 8.04067E-03 8.26519E-04-4.32034E-14
 -1      2819 7.89755E-03 8.16137E-04-4.15296E-14
 -1      2820 7.81839E-03 7.74006E-04-4.09370E-14
 -1      2821 8.32676E-03 8.46762E-04-4.66384E-14
 -1      2822 8.18374E-03 8.36724E-04-4.49079E-14
 -1      2823 8.10446E-03 7.94716E-04-4.42865E-14
 -1      2824 8.61271E-03 8.66402E-04-5.01862E-14
 -1      2825 8.46975E-03 8.56652E-04-4.83979E-14
 -1      2826 8.39042E-03 8.14750E-04-4.77524E-14
 -1      2827 8.89855E-03 8.85549E-04-5.38353E-14
 -1      2828 8.75564E-03 8.76032E-04-5.19984E-14
 -1      2829 8.67629E-03 8.34219E-04-5.13264E-14
 -1      2830 9.18431E-03 9.04299E-04-5.75831E-14
 -1      2831 9.04144E-03 8.94969E-04-5.56967E-14
 -1      2832 8.96210E-03 8.53228E-04-5.50033E-14
 -1      2833 9.47003E-03 9.22735E-04-6.14268E-14
 -1      2834 9.32718E-03 9.13552E-04-5.94934E-14
 -1      2835 9.24786E-03 8.71870E-04-5.87782E-14
 -1      2836 9.75573E-03 9.40929E-04-6.53539E-14
 -1      2837 9.61288E-03 9.31859E-04-6.33807E-14
 -1      2838 9.53360E-03 8.90224E-04-6.26434E-14
 -1      2839 1.00414E-02 9.58939E-04-6.93718E-14
 -1      2840 9.89856E-03 9.49955E-04-6.73529E-14
 -1      2841 9.81932E-03 9.08355E-04-6.65984E-14
 -1      2842 1.03271E-02 9.76811E-04-7.34731E-14
 -1      2843 1.01842E-02 9.67890E-04-7.14108E-14
 -1      2844 1.01050E-02 9.26317E-04-7.06380E-14
 -1      2845 1.06127E-02 9.94583E-04-7.76588E-14
 -1      2846 1.04699E-02 9.85708E-04-7.55562E-14
 -1      2847 1.03907E-02 9.44155E-04-7.47626E-14
 -1      2848 1.08984E-02 1.01228E-03-8.19195E-14
 -1      2849 1.07556E-02 1.00344E-03-7.97801E-14
 -1      2850 1.06764E-02 9.61902E-04-7.89674E-14
 -1      2851 1.11841E-02 1.02993E-03-8.62484E-14
 -1      2852 1.10412E-02 1.02111E-03-8.40776E-14
 -1      2853 1.09621E-02 9.79584E-04-8.32484E-14
 -1      2854 1.14698E-02 1.04755E-03-9.06335E-14
 -1      2855 1.13269E-02 1.03874E-03-8.84343E-14
 -1      2856 1.12478E-02 9.97222E-04-8.75947E-14
 -1      2857 1.17554E-02 1.06514E-03-9.50719E-14
 -1      2858 1.16126E-02 1.05635E-03-9.28465E-14
 -1      2859 1.15335E-02 1.01483E-03-9.19949E-14
 -1      2860 1.20411E-02 1.08272E-03-9.95671E-14
 -1      2861 1.18983E-02 1.07393E-03-9.73127E-14
 -1      2862 1.18192E-02 1.03242E-03-9.64523E-14
 -1      2863 1.23268E-02 1.10030E-03-1.04117E-13
 -1      2864 1.21840E-02 1.09151E-03-1.01834E-13
 -1      2865 1.21049E-02 1.05000E-03-1.00965E-13
 -1      2866 1.26125E-02 1.11787E-03-1.08715E-13
 -1      2867 1.24697E-02 1.10908E-03-1.06409E-13
 -1      2868 1.23906E-02 1.06757E-03-1.05530E-13
 -1      2869 1.28982E-02 1.13544E-03-1.13365E-13
 -1      2870 1.27554E-02 1.12666E-03-1.11035E-13
 -1      2871 1.26763E-02 1.08515E-03-1.10150E-13
 -1      2872 1.31839E-02 1.15302E-03-1.18052E-13
 -1      2873 1.30411E-02 1.14423E-03-1.15703E-13
 -1      2874 1.29620E-02 1.10272E-03-1.14813E-13
 -1      2875 1.34696E-02 1.17059E-03-1.22777E-13
 -1      2876 1.33268E-02 1.16180E-03-1.20409E-13
 -1      2877 1.32477E-02 1.12029E-03-1.19510E-13
 -1      2878 1.37554E-02 1.18817E-03-1.27537E-13
 -1      2879 1.36125E-02 1.17938E-03-1.25154E-13
 -1      2880 1.35334E-02 1.13787E-03-1.24248E-13
 -1      2881 1.40411E-02 1.20575E-03-1.32330E-13
 -1      2882 1.38982E-02 1.19696E-03-1.29931E-13
 -1      2883 1.38192E-02 1.15545E-03-1.29020E-13
 -1      2884 1.42982E-02 1.21463E-03-1.36741E-13
 -1      2885 1.41554E-02 1.20584E-03-1.34333E-13
 -1      2886 1.40763E-02 1.16433E-03-1.33417E-13
 -1      2887 1.43049E-02 1.16450E-03-1.37426E-13
 -1      2888 1.42136E-02 7.58004E-04-1.40284E-13
 -1      2889 1.42222E-02 8.00152E-04-1.39980E-13
 -1      2890 1.40213E-02 2.76130E-04-1.41815E-13
 -1      2891 1.41177E-02 2.81244E-04-1.43500E-13
 -1      2892 1.41503E-02 3.19074E-04-1.43709E-13
 -1      2893 1.39574E-02 3.08201E-04-1.40346E-13
 -1      2894 1.42482E-02 9.26596E-04-1.39066E-13
 -1      2895 1.42568E-02 9.68743E-04-1.38757E-13
 -1      2896 1.41963E-02 6.73707E-04-1.40875E-13
 -1      2897 1.42049E-02 7.15855E-04-1.40583E-13
 -1      2898 1.40855E-02 7.29310E-04-1.38323E-13
 -1      2899 1.42309E-02 8.42300E-04-1.39680E-13
 -1      2900 1.42395E-02 8.84448E-04-1.39375E-13
 -1      2901 1.41201E-02 8.97905E-04-1.37124E-13
 -1      2902 1.41028E-02 8.13608E-04-1.37730E-13
 -1      2903 3.36222E-03 3.17863E-04-5.13881E-15
 -1      2904 3.49861E-03 2.64333E-04-5.42060E-15
 -1      2905 1.41793E-02 5.90839E-04-1.41443E-13
 -1      2906 1.41878E-02 6.32273E-04-1.41161E-13
 -1      2907 1.40684E-02 6.45727E-04-1.38898E-13
 -1      2908 1.41620E-02 5.06544E-04-1.42010E-13
 -1      2909 1.41706E-02 5.48691E-04-1.41728E-13
 -1      2910 1.40512E-02 5.62144E-04-1.39461E-13
 -1      2911 1.41447E-02 4.22251E-04-1.42568E-13
 -1      2912 1.41533E-02 4.64397E-04-1.42290E-13
 -1      2913 1.40339E-02 4.77849E-04-1.40017E-13
 -1      2914 1.41589E-02 3.61219E-04-1.43442E-13
 -1      2915 2.50683E-03 6.91139E-04-3.11647E-15
 -1      2916 2.68286E-03 6.18971E-04-3.54624E-15
 -1      2917 3.66532E-03 2.09593E-04-5.79383E-15
 -1      2918 3.78596E-03 1.73715E-04-5.99947E-15
 -1      2919 3.72531E-03 8.03259E-05-6.29057E-15
 -1      2920 3.58151E-03 3.96512E-05-6.09559E-15
 -1      2921 1.21058E-03 4.49455E-04-7.58237E-16
 -1      2922 1.38569E-03 5.59040E-04-9.44882E-16
 -1      2923 1.89069E-03-5.97948E-04-2.42979E-15
 -1      2924 1.77658E-03-5.86188E-04-2.14099E-15
 -1      2925 1.05113E-03 4.52942E-04-4.87118E-16
 -1      2926 9.76944E-04 3.62135E-04-4.77022E-16
 -1      2927 9.37540E-04 3.01554E-04-4.91211E-16
 -1      2928 1.01594E-03 3.26656E-04-5.86526E-16
 -1      2929 1.19383E-03 5.17254E-04-6.31575E-16
 -1      2930 1.65679E-03 7.95285E-04-1.10754E-15
 -1      2931 1.47841E-03 7.26727E-04-8.52522E-16
 -1      2932 1.44264E-03 6.89441E-04-8.46870E-16
 -1      2933 1.55636E-03 6.56466E-04-1.15427E-15
 -1      2934 1.69396E-03 7.21934E-04-1.36379E-15
 -1      2935 3.39898E-03-2.59470E-05-5.85462E-15
 -1      2936 3.20756E-03-1.05755E-04-5.55280E-15
 -1      2937 1.87526E-03 7.75994E-04-1.68747E-15
 -1      2938 2.02491E-03 7.93855E-04-1.99741E-15
 -1      2939 2.20343E-03-5.55723E-04-3.27337E-15
 -1      2940 2.04658E-03-5.89494E-04-2.83837E-15
 -1      2941 1.29940E-03-5.42386E-04-1.22825E-15
 -1      2942 1.47241E-03-5.98972E-04-1.56112E-15
 -1      2943 1.55981E-03-5.95182E-04-1.73978E-15
 -1      2944 3.00010E-03-2.05728E-04-5.22882E-15
 -1      2945 2.84943E-03-2.78527E-04-4.89565E-15
 -1      2946 1.00285E-03-4.09469E-04-7.69526E-16
 -1      2947 1.16569E-03-4.85846E-04-1.00409E-15
 -1      2948 1.25329E-03-4.87031E-04-1.14490E-15
 -1      2949 9.79334E-04-3.62998E-04-7.39534E-16
 -1      2950 3.94427E-03 1.22550E-04-6.64163E-15
 -1      2951 3.85442E-03 1.09478E-04-6.51145E-15
 -1      2952 2.12361E-03 7.99942E-04-2.19818E-15
 -1      2953 1.79829E-03 8.33778E-04-1.35901E-15
 -1      2954 1.76680E-03 8.06499E-04-1.34932E-15
 -1      2955 1.93991E-03 8.58204E-04-1.63949E-15
 -1      2956 1.40327E-03-4.73514E-04-1.37085E-15
 -1      2957 1.31551E-03-4.16352E-04-1.21314E-15
 -1      2958 1.78224E-03 7.62660E-04-1.48693E-15
 -1      2959 2.10451E-03 8.42597E-04-2.06909E-15
 -1      2960 4.01134E-03 1.38619E-04-6.74238E-15
 -1      2961 4.01324E-03 1.32324E-04-6.51384E-15
 -1      2962 4.04378E-03 1.34750E-04-6.85274E-15
 -1      2963 1.42654E-02 1.01053E-03-1.38447E-13
 -1      2964 1.42740E-02 1.05232E-03-1.38135E-13
 -1      2965 1.41374E-02 9.81844E-04-1.36513E-13
 -1      2966 2.74283E-03-3.49816E-04-4.78769E-15
 -1      2967 4.03539E-03 1.31140E-04-7.02942E-15
 -1      2968 3.99599E-03 1.28778E-04-6.83457E-15
 -1      2969 3.99013E-03 1.22465E-04-7.24711E-15
 -1      2970 2.82299E-03 5.76512E-04-3.92863E-15
 -1      2971 1.42852E-02 1.08752E-03-1.37939E-13
 -1      2972 1.42937E-02 1.12931E-03-1.37625E-13
 -1      2973 1.41794E-02 1.12922E-03-1.35617E-13
 -1      2974 1.41571E-02 1.05883E-03-1.36010E-13
 -1      2975 1.39984E-02 3.41435E-04-1.40755E-13
 -1      2976 1.41036E-02 3.89016E-04-1.42167E-13
 -1      2977 1.39842E-02 4.02467E-04-1.39891E-13
 -1      2978 1.39020E-02 3.35998E-04-1.39079E-13
 -1      2979 3.63487E-03 2.42264E-04-5.96298E-15
 -1      2980 2.44879E-03 7.30308E-04-2.98687E-15
 -1      2981 3.87495E-03 1.64219E-04-6.38249E-15
 -1      2982 3.51946E-03 1.43008E-06-6.34809E-15
 -1      2983 1.67733E-03-5.71868E-04-1.93105E-15
 -1      2984 1.44394E-03 6.10654E-04-9.78899E-16
 -1      2985 3.26412E-03 3.76114E-04-5.03257E-15
 -1      2986 3.38402E-03 3.54052E-04-5.46865E-15
 -1      2987 3.17958E-03 4.38387E-04-4.92305E-15
 -1      2988 1.97259E-03-6.05196E-04-2.68986E-15
 -1      2989 3.14942E-03-1.59200E-04-5.76023E-15
 -1      2990 1.13259E-03 4.07079E-04-6.70403E-16
 -1      2991 1.19740E-03 4.68443E-04-7.00869E-16
 -1      2992 3.81809E-03 9.16093E-05-6.82363E-15
 -1      2993 1.24285E-03-3.74420E-04-1.10147E-15
 -1      2994 1.09536E-03-2.92413E-04-8.98356E-16
 -1      2995 1.21112E-03-3.80163E-04-1.05375E-15
 -1      2996 1.47650E-03-5.19699E-04-1.52099E-15
 -1      2997 1.35562E-03-4.73222E-04-1.29719E-15
 -1      2998 3.80969E-03 4.76290E-04-7.70782E-15
 -1      2999 3.64358E-03 4.91040E-04-6.95861E-15
 -1      3000 9.58145E-04-2.65308E-04-7.13554E-16
 -1      3001 3.21715E-03 5.17980E-04-5.25333E-15
 -1      3002 3.03043E-03 5.61614E-04-4.62568E-15
 -1      3003 2.85170E-03-3.38020E-04-5.33087E-15
 -1      3004 2.64385E-03-4.24663E-04-4.69865E-15
 -1      3005 2.09091E-03-6.14869E-04-3.09991E-15
 -1      3006 2.26471E-03-5.85579E-04-3.63704E-15
 -1      3007 2.57525E-03-5.07230E-04-4.69118E-15
 -1      3008 2.75511E-03-4.55453E-04-5.34350E-15
 -1      3009 2.93577E-03-4.05721E-04-6.03341E-15
 -1      3010 3.11318E-03-3.59937E-04-6.76084E-15
 -1      3011 2.94616E-03-3.59963E-04-5.91443E-15
 -1      3012 3.28819E-03-3.20242E-04-7.52438E-15
 -1      3013 3.45840E-03-2.85610E-04-8.32144E-15
 -1      3014 3.30389E-03-2.71993E-04-7.39476E-15
 -1      3015 3.62467E-03-2.56769E-04-9.15277E-15
 -1      3016 3.78664E-03-2.32325E-04-1.00167E-14
 -1      3017 3.64133E-03-2.10952E-04-9.01196E-15
 -1      3018 3.94495E-03-2.12352E-04-1.09126E-14
 -1      3019 4.09997E-03-1.95436E-04-1.18419E-14
 -1      3020 3.95920E-03-1.70294E-04-1.07597E-14
 -1      3021 4.25223E-03-1.81522E-04-1.28034E-14
 -1      3022 4.40226E-03-1.69695E-04-1.37971E-14
 -1      3023 4.26269E-03-1.42963E-04-1.26362E-14
 -1      3024 4.55043E-03-1.59807E-04-1.48218E-14
 -1      3025 4.69721E-03-1.51292E-04-1.58782E-14
 -1      3026 4.55676E-03-1.23765E-04-1.46404E-14
 -1      3027 4.84284E-03-1.43972E-04-1.69669E-14
 -1      3028 4.98766E-03-1.37506E-04-1.80863E-14
 -1      3029 4.84524E-03-1.09496E-04-1.67705E-14
 -1      3030 5.13181E-03-1.31717E-04-1.92379E-14
 -1      3031 5.27552E-03-1.26406E-04-2.04207E-14
 -1      3032 5.13074E-03-9.80855E-05-1.90258E-14
 -1      3033 5.41887E-03-1.21415E-04-2.16354E-14
 -1      3034 5.56201E-03-1.16632E-04-2.28830E-14
 -1      3035 5.41485E-03-8.81441E-05-2.14081E-14
 -1      3036 5.70496E-03-1.11927E-04-2.41614E-14
 -1      3037 5.84782E-03-1.07241E-04-2.54710E-14
 -1      3038 5.69850E-03-7.87218E-05-2.39178E-14
 -1      3039 5.99060E-03-1.02478E-04-2.68114E-14
 -1      3040 6.13336E-03-9.76109E-05-2.81839E-14
 -1      3041 5.98219E-03-6.91783E-05-2.65538E-14
 -1      3042 6.27608E-03-9.25732E-05-2.95873E-14
 -1      3043 6.41881E-03-8.73578E-05-3.10210E-14
 -1      3044 6.26613E-03-5.91040E-05-2.93130E-14
 -1      3045 6.56154E-03-8.19238E-05-3.24852E-14
 -1      3046 6.70429E-03-7.62759E-05-3.39786E-14
 -1      3047 6.55040E-03-4.82629E-05-3.21947E-14
 -1      3048 6.84704E-03-7.03928E-05-3.55016E-14
 -1      3049 6.98982E-03-6.42855E-05-3.70545E-14
 -1      3050 6.83501E-03-3.65463E-05-3.51961E-14
 -1      3051 7.13260E-03-5.79473E-05-3.86357E-14
 -1      3052 7.27541E-03-5.13921E-05-4.02463E-14
 -1      3053 7.11992E-03-2.39359E-05-3.83156E-14
 -1      3054 7.41822E-03-4.46229E-05-4.18861E-14
 -1      3055 7.56105E-03-3.76544E-05-4.35524E-14
 -1      3056 7.40507E-03-1.04724E-05-4.15510E-14
 -1      3057 7.70389E-03-3.04955E-05-4.52480E-14
 -1      3058 7.84674E-03-2.31606E-05-4.69706E-14
 -1      3059 7.69040E-03 3.76776E-06-4.48987E-14
 -1      3060 7.98959E-03-1.56617E-05-4.87194E-14
 -1      3061 8.13245E-03-8.01197E-06-5.04950E-14
 -1      3062 7.97588E-03 1.86901E-05-4.83572E-14
 -1      3063 8.27532E-03-2.24699E-07-5.22964E-14
 -1      3064 8.41819E-03 7.68860E-06-5.41248E-14
 -1      3065 8.26147E-03 3.41949E-05-5.19219E-14
 -1      3066 8.56106E-03 1.57147E-05-5.59772E-14
 -1      3067 8.70393E-03 2.38437E-05-5.78565E-14
 -1      3068 8.54712E-03 5.01847E-05-5.55886E-14
 -1      3069 8.84681E-03 3.20634E-05-5.97596E-14
 -1      3070 8.98968E-03 4.03656E-05-6.16847E-14
 -1      3071 8.83283E-03 6.65701E-05-5.93552E-14
 -1      3072 9.13256E-03 4.87392E-05-6.36358E-14
 -1      3073 9.27543E-03 5.71776E-05-6.56098E-14
 -1      3074 9.11856E-03 8.32716E-05-6.32181E-14
 -1      3075 9.41831E-03 6.56713E-05-6.76040E-14
 -1      3076 9.56118E-03 7.42149E-05-6.96197E-14
 -1      3077 9.40431E-03 1.00221E-04-6.71729E-14
 -1      3078 9.70405E-03 8.28006E-05-7.16584E-14
 -1      3079 9.84693E-03 9.14240E-05-7.37164E-14
 -1      3080 9.69007E-03 1.17362E-04-7.12152E-14
 -1      3081 9.98980E-03 1.00079E-04-7.57926E-14
 -1      3082 1.01327E-02 1.08762E-04-7.78883E-14
 -1      3083 9.97583E-03 1.34647E-04-7.53384E-14
 -1      3084 1.02755E-02 1.17467E-04-8.00043E-14
 -1      3085 1.04184E-02 1.26193E-04-8.21397E-14
 -1      3086 1.02616E-02 1.52039E-04-7.95397E-14
 -1      3087 1.05613E-02 1.34935E-04-8.42948E-14
 -1      3088 1.07041E-02 1.43692E-04-8.64679E-14
 -1      3089 1.05473E-02 1.69509E-04-8.38187E-14
 -1      3090 1.08470E-02 1.52460E-04-8.86589E-14
 -1      3091 1.09899E-02 1.61238E-04-9.08673E-14
 -1      3092 1.08331E-02 1.87034E-04-8.81728E-14
 -1      3093 1.11327E-02 1.70023E-04-9.30930E-14
 -1      3094 1.12756E-02 1.78815E-04-9.53370E-14
 -1      3095 1.11188E-02 2.04597E-04-9.25995E-14
 -1      3096 1.14185E-02 1.87612E-04-9.75961E-14
 -1      3097 1.15613E-02 1.96413E-04-9.98733E-14
 -1      3098 1.14046E-02 2.22184E-04-9.70951E-14
 -1      3099 1.17042E-02 2.05216E-04-1.02165E-13
 -1      3100 1.18470E-02 2.14022E-04-1.04471E-13
 -1      3101 1.16903E-02 2.39787E-04-1.01656E-13
 -1      3102 1.19899E-02 2.22830E-04-1.06793E-13
 -1      3103 1.21328E-02 2.31638E-04-1.09128E-13
 -1      3104 1.19760E-02 2.57399E-04-1.06276E-13
 -1      3105 1.22756E-02 2.40447E-04-1.11475E-13
 -1      3106 1.24185E-02 2.49257E-04-1.13836E-13
 -1      3107 1.22618E-02 2.75016E-04-1.10950E-13
 -1      3108 1.25613E-02 2.58066E-04-1.16211E-13
 -1      3109 1.27042E-02 2.66875E-04-1.18598E-13
 -1      3110 1.25475E-02 2.92633E-04-1.15676E-13
 -1      3111 1.28471E-02 2.75684E-04-1.20998E-13
 -1      3112 1.29899E-02 2.84492E-04-1.23412E-13
 -1      3113 1.28332E-02 3.10250E-04-1.20453E-13
 -1      3114 1.31328E-02 2.93300E-04-1.25835E-13
 -1      3115 1.32756E-02 3.02107E-04-1.28268E-13
 -1      3116 1.31189E-02 3.27865E-04-1.25275E-13
 -1      3117 1.34185E-02 3.10913E-04-1.30710E-13
 -1      3118 1.35613E-02 3.19719E-04-1.33159E-13
 -1      3119 1.34047E-02 3.45478E-04-1.30138E-13
 -1      3120 1.36602E-02 3.23456E-04-1.34884E-13
 -1      3121 1.38031E-02 3.32261E-04-1.37345E-13
 -1      3122 1.38442E-02 3.65495E-04-1.37755E-13
 -1      3123 1.36464E-02 3.58021E-04-1.34303E-13
 -1      3124 2.55065E-03 7.38240E-04-3.24723E-15
 -1      3125 3.52188E-03 4.86462E-04-6.42931E-15
 -1      3126 3.34596E-03 5.13640E-04-5.74108E-15
 -1      3127 3.42199E-03 4.10633E-04-5.85395E-15
 -1      3128 3.65376E-03 4.21317E-04-6.90538E-15
 -1      3129 4.43191E-03 4.66913E-04-1.10413E-14
 -1      3130 4.28124E-03 4.63941E-04-1.01574E-14
 -1      3131 4.72753E-03 4.80117E-04-1.29108E-14
 -1      3132 4.58049E-03 4.72570E-04-1.19591E-14
 -1      3133 4.52838E-03 4.30945E-04-1.16526E-14
 -1      3134 5.01838E-03 4.99768E-04-1.49110E-14
 -1      3135 4.87335E-03 4.89340E-04-1.38951E-14
 -1      3136 4.81609E-03 4.48343E-04-1.35644E-14
 -1      3137 5.30671E-03 5.23292E-04-1.70438E-14
 -1      3138 5.16274E-03 5.11176E-04-1.59603E-14
 -1      3139 5.10079E-03 4.70288E-04-1.56064E-14
 -1      3140 5.59379E-03 5.48877E-04-1.93081E-14
 -1      3141 5.45033E-03 5.35912E-04-1.81600E-14
 -1      3142 5.38438E-03 4.94866E-04-1.77790E-14
 -1      3143 5.88029E-03 5.75263E-04-2.17047E-14
 -1      3144 5.73707E-03 5.62025E-04-2.04902E-14
 -1      3145 5.66780E-03 5.20732E-04-2.00830E-14
 -1      3146 6.16652E-03 6.01611E-04-2.42325E-14
 -1      3147 6.02341E-03 5.88476E-04-2.29519E-14
 -1      3148 5.95149E-03 5.46948E-04-2.25183E-14
 -1      3149 6.45263E-03 6.27400E-04-2.68863E-14
 -1      3150 6.30957E-03 6.14594E-04-2.55438E-14
 -1      3151 6.23559E-03 5.72886E-04-2.50818E-14
 -1      3152 6.73867E-03 6.52339E-04-2.96641E-14
 -1      3153 6.59565E-03 6.39984E-04-2.82602E-14
 -1      3154 6.52009E-03 5.98158E-04-2.77722E-14
 -1      3155 7.02467E-03 6.76302E-04-3.25642E-14
 -1      3156 6.88167E-03 6.64445E-04-3.10986E-14
 -1      3157 6.80494E-03 6.22558E-04-3.05860E-14
 -1      3158 7.31063E-03 6.99273E-04-3.55847E-14
 -1      3159 7.16765E-03 6.87910E-04-3.40592E-14
 -1      3160 7.09007E-03 6.46005E-04-3.35196E-14
 -1      3161 7.59655E-03 7.21304E-04-3.87278E-14
 -1      3162 7.45359E-03 7.10401E-04-3.71416E-14
 -1      3163 7.37540E-03 6.68510E-04-3.65750E-14
 -1      3164 7.88244E-03 7.42484E-04-4.19892E-14
 -1      3165 7.73950E-03 7.31994E-04-4.03432E-14
 -1      3166 7.66089E-03 6.90135E-04-3.97504E-14
 -1      3167 8.16829E-03 7.62924E-04-4.53701E-14
 -1      3168 8.02537E-03 7.52791E-04-4.36651E-14
 -1      3169 7.94648E-03 7.10972E-04-4.30451E-14
 -1      3170 8.45412E-03 7.82735E-04-4.88664E-14
 -1      3171 8.31121E-03 7.72902E-04-4.71051E-14
 -1      3172 8.23214E-03 7.31128E-04-4.64572E-14
 -1      3173 8.73991E-03 8.02026E-04-5.24693E-14
 -1      3174 8.59702E-03 7.92440E-04-5.06544E-14
 -1      3175 8.51784E-03 7.50710E-04-4.99828E-14
 -1      3176 9.02569E-03 8.20894E-04-5.61727E-14
 -1      3177 8.88280E-03 8.11508E-04-5.43096E-14
 -1      3178 8.80357E-03 7.69818E-04-5.36134E-14
 -1      3179 9.31145E-03 8.39427E-04-5.99742E-14
 -1      3180 9.16857E-03 8.30198E-04-5.80623E-14
 -1      3181 9.08932E-03 7.88544E-04-5.73459E-14
 -1      3182 9.59720E-03 8.57697E-04-6.38646E-14
 -1      3183 9.45433E-03 8.48591E-04-6.19080E-14
 -1      3184 9.37507E-03 8.06968E-04-6.11717E-14
 -1      3185 9.88294E-03 8.75766E-04-6.78425E-14
 -1      3186 9.74007E-03 8.66754E-04-6.58417E-14
 -1      3187 9.66083E-03 8.25156E-04-6.50860E-14
 -1      3188 1.01687E-02 8.93683E-04-7.19060E-14
 -1      3189 1.00258E-02 8.84741E-04-6.98642E-14
 -1      3190 9.94658E-03 8.43164E-04-6.90869E-14
 -1      3191 1.04544E-02 9.11488E-04-7.60518E-14
 -1      3192 1.03115E-02 9.02598E-04-7.39681E-14
 -1      3193 1.02323E-02 8.61037E-04-7.31751E-14
 -1      3194 1.07401E-02 9.29212E-04-8.02790E-14
 -1      3195 1.05972E-02 9.20359E-04-7.81577E-14
 -1      3196 1.05181E-02 8.78812E-04-7.73429E-14
 -1      3197 1.10258E-02 9.46879E-04-8.45767E-14
 -1      3198 1.08830E-02 9.38052E-04-8.24180E-14
 -1      3199 1.08038E-02 8.96515E-04-8.15883E-14
 -1      3200 1.13115E-02 9.64507E-04-8.89400E-14
 -1      3201 1.11687E-02 9.55697E-04-8.67518E-14
 -1      3202 1.10896E-02 9.14168E-04-8.59055E-14
 -1      3203 1.15973E-02 9.82110E-04-9.33563E-14
 -1      3204 1.14544E-02 9.73311E-04-9.11409E-14
 -1      3205 1.13753E-02 9.31787E-04-9.02865E-14
 -1      3206 1.18830E-02 9.99697E-04-9.78334E-14
 -1      3207 1.17401E-02 9.90905E-04-9.55878E-14
 -1      3208 1.16610E-02 9.49385E-04-9.47214E-14
 -1      3209 1.21687E-02 1.01727E-03-1.02365E-13
 -1      3210 1.20258E-02 1.00849E-03-1.00093E-13
 -1      3211 1.19467E-02 9.66970E-04-9.92161E-14
 -1      3212 1.24544E-02 1.03485E-03-1.06948E-13
 -1      3213 1.23115E-02 1.02606E-03-1.04652E-13
 -1      3214 1.22325E-02 9.84547E-04-1.03767E-13
 -1      3215 1.27401E-02 1.05242E-03-1.11585E-13
 -1      3216 1.25973E-02 1.04363E-03-1.09259E-13
 -1      3217 1.25182E-02 1.00212E-03-1.08370E-13
 -1      3218 1.30258E-02 1.06999E-03-1.16259E-13
 -1      3219 1.28830E-02 1.06121E-03-1.13918E-13
 -1      3220 1.28039E-02 1.01969E-03-1.13019E-13
 -1      3221 1.33115E-02 1.08757E-03-1.20972E-13
 -1      3222 1.31687E-02 1.07878E-03-1.18612E-13
 -1      3223 1.30896E-02 1.03727E-03-1.17708E-13
 -1      3224 1.35972E-02 1.10515E-03-1.25718E-13
 -1      3225 1.34544E-02 1.09636E-03-1.23339E-13
 -1      3226 1.33753E-02 1.05485E-03-1.22432E-13
 -1      3227 1.38830E-02 1.12273E-03-1.30500E-13
 -1      3228 1.37401E-02 1.11394E-03-1.28106E-13
 -1      3229 1.36611E-02 1.07243E-03-1.27189E-13
 -1      3230 1.40883E-02 1.12602E-03-1.34057E-13
 -1      3231 1.39741E-02 1.12593E-03-1.32058E-13
 -1      3232 1.38950E-02 1.08442E-03-1.31137E-13
 -1      3233 1.40772E-02 1.09082E-03-1.34253E-13
 -1      3234 3.61179E-03 2.84738E-04-6.18314E-15
 -1      3235 3.75625E-03 2.37178E-04-6.58279E-15
 -1      3236 4.12783E-03 4.63826E-04-9.30721E-15
 -1      3237 3.97107E-03 4.67964E-04-8.49096E-15
 -1      3238 3.92796E-03 4.22907E-04-8.22839E-15
 -1      3239 4.23427E-03 4.20892E-04-9.87353E-15
 -1      3240 1.39232E-02 5.33448E-04-1.37481E-13
 -1      3241 1.39318E-02 5.75597E-04-1.37203E-13
 -1      3242 1.39575E-02 7.00616E-04-1.36363E-13
 -1      3243 1.39661E-02 7.42766E-04-1.36072E-13
 -1      3244 1.39059E-02 4.49152E-04-1.38025E-13
 -1      3245 1.39145E-02 4.91300E-04-1.37753E-13
 -1      3246 1.37951E-02 5.04752E-04-1.35500E-13
 -1      3247 1.39404E-02 6.17389E-04-1.36926E-13
 -1      3248 1.39489E-02 6.58824E-04-1.36649E-13
 -1      3249 1.38295E-02 6.72279E-04-1.34402E-13
 -1      3250 1.38123E-02 5.88693E-04-1.34959E-13
 -1      3251 1.77435E-03-6.16155E-04-2.22020E-15
 -1      3252 1.94478E-03-6.26354E-04-2.67379E-15
 -1      3253 1.96020E-03 8.36552E-04-1.74790E-15
 -1      3254 1.61397E-03 7.29522E-04-1.14959E-15
 -1      3255 1.42994E-03 6.49601E-04-8.89900E-16
 -1      3256 1.63359E-03-5.81019E-04-1.86700E-15
 -1      3257 9.94006E-04-3.16383E-04-7.55187E-16
 -1      3258 3.90435E-03 9.68402E-05-7.39627E-15
 -1      3259 3.78667E-03 6.90640E-05-7.16402E-15
 -1      3260 3.89403E-03 1.81550E-04-6.79551E-15
 -1      3261 3.96758E-03 1.54901E-04-6.82536E-15
 -1      3262 3.65482E-03 2.47398E-05-6.99635E-15
 -1      3263 3.49758E-03-3.45167E-05-6.73810E-15
 -1      3264 3.31380E-03-1.14304E-04-6.40501E-15
 -1      3265 3.13442E-03-2.03621E-04-6.05352E-15
 -1      3266 1.78558E-03 7.88560E-04-1.44173E-15
 -1      3267 2.40395E-03-5.02953E-04-3.90951E-15
 -1      3268 2.29005E-03-5.34039E-04-3.53745E-15
 -1      3269 2.20834E-03-5.72516E-04-3.37501E-15
 -1      3270 2.52676E-03-4.86508E-04-4.40120E-15
 -1      3271 3.76600E-03 3.70274E-05-7.57237E-15
 -1      3272 4.03132E-03 1.51362E-04-7.17063E-15
 -1      3273 1.40094E-02 9.53333E-04-1.34578E-13
 -1      3274 1.40179E-02 9.95123E-04-1.34273E-13
 -1      3275 4.06848E-03 1.35087E-04-7.26571E-15
 -1      3276 4.08480E-03 1.33222E-04-7.68619E-15
 -1      3277 4.09269E-03 1.38974E-04-7.50300E-15
 -1      3278 3.53168E-03 3.35072E-04-6.06007E-15
 -1      3279 1.39920E-02 8.69036E-04-1.35186E-13
 -1      3280 1.40007E-02 9.11184E-04-1.34882E-13
 -1      3281 1.38813E-02 9.24464E-04-1.32647E-13
 -1      3282 1.13574E-03-3.83049E-04-9.46807E-16
 -1      3283 1.39748E-02 7.84826E-04-1.35779E-13
 -1      3284 1.39834E-02 8.26976E-04-1.35482E-13
 -1      3285 1.38640E-02 8.40255E-04-1.33244E-13
 -1      3286 1.38467E-02 7.56133E-04-1.33830E-13
 -1      3287 1.38545E-02 3.90706E-04-1.37689E-13
 -1      3288 1.38956E-02 4.23941E-04-1.38092E-13
 -1      3289 1.37762E-02 4.37392E-04-1.35833E-13
 -1      3290 1.37556E-02 3.86969E-04-1.35963E-13
 -1      3291 3.86109E-03 2.52656E-04-7.26370E-15
 -1      3292 3.87237E-03 2.14296E-04-7.03206E-15
 -1      3293 3.97678E-03 2.00235E-04-7.49240E-15
 -1      3294 1.58095E-03-5.84724E-04-1.77098E-15
 -1      3295 3.03873E-03-2.82105E-04-6.02559E-15
 -1      3296 3.97273E-03 1.09857E-04-7.59760E-15
 -1      3297 3.95653E-03 9.15026E-05-7.95087E-15
 -1      3298 4.03202E-03 1.18272E-04-7.79976E-15
 -1      3299 3.47013E-03-8.12290E-05-7.05122E-15
 -1      3300 3.20561E-03-2.37553E-04-6.67581E-15
 -1      3301 1.40688E-03-5.30531E-04-1.41352E-15
 -1      3302 1.27162E-03-4.74954E-04-1.16952E-15
 -1      3303 4.90179E-03 4.19068E-04-1.42238E-14
 -1      3304 4.76198E-03 4.08370E-04-1.32305E-14
 -1      3305 3.89609E-03 5.02659E-05-8.28006E-15
 -1      3306 3.78408E-03 8.86389E-06-8.09955E-15
 -1      3307 2.69987E-03 6.88368E-04-3.66745E-15
 -1      3308 3.38086E-03-1.99855E-04-7.43737E-15
 -1      3309 3.60885E-03-1.70465E-04-8.57380E-15
 -1      3310 3.76951E-03-1.48724E-04-9.41414E-15
 -1      3311 3.92524E-03-1.32035E-04-1.02865E-14
 -1      3312 4.07699E-03-1.18138E-04-1.11905E-14
 -1      3313 3.89750E-03-9.25111E-05-9.81673E-15
 -1      3314 4.22533E-03-1.07178E-04-1.21265E-14
 -1      3315 4.37133E-03-9.77051E-05-1.30947E-14
 -1      3316 4.19252E-03-7.10064E-05-1.16217E-14
 -1      3317 4.51532E-03-8.98472E-05-1.40943E-14
 -1      3318 4.65807E-03-8.28401E-05-1.51250E-14
 -1      3319 4.47716E-03-5.61517E-05-1.35515E-14
 -1      3320 4.79976E-03-7.67220E-05-1.61877E-14
 -1      3321 4.94091E-03-7.10742E-05-1.72804E-14
 -1      3322 4.75669E-03-4.45163E-05-1.56084E-14
 -1      3323 5.08158E-03-6.58822E-05-1.84058E-14
 -1      3324 5.22210E-03-6.09166E-05-1.95615E-14
 -1      3325 5.03423E-03-3.44144E-05-1.77895E-14
 -1      3326 5.36249E-03-5.61354E-05-2.07494E-14
 -1      3327 5.50295E-03-5.14111E-05-2.19695E-14
 -1      3328 5.31154E-03-2.49100E-05-2.00955E-14
 -1      3329 5.64345E-03-4.66949E-05-2.32211E-14
 -1      3330 5.78413E-03-4.19166E-05-2.45046E-14
 -1      3331 5.58952E-03-1.54249E-05-2.25292E-14
 -1      3332 5.92494E-03-3.70331E-05-2.58195E-14
 -1      3333 6.06595E-03-3.20079E-05-2.71647E-14
 -1      3334 5.86858E-03-5.57634E-06-2.50887E-14
 -1      3335 6.20712E-03-2.68093E-05-2.85412E-14
 -1      3336 6.34849E-03-2.14213E-05-2.99484E-14
 -1      3337 6.14882E-03 4.88573E-06-2.77742E-14
 -1      3338 6.49001E-03-1.58247E-05-3.13852E-14
 -1      3339 6.63172E-03-1.00160E-05-3.28532E-14
 -1      3340 6.43019E-03 1.61084E-05-3.05814E-14
 -1      3341 6.77356E-03-3.98760E-06-3.43518E-14
 -1      3342 6.91556E-03 2.25653E-06-3.58783E-14
 -1      3343 6.71256E-03 2.81573E-05-3.35100E-14
 -1      3344 7.05767E-03 8.71530E-06-3.74346E-14
 -1      3345 7.19991E-03 1.53803E-05-3.90191E-14
 -1      3346 6.99578E-03 4.10356E-05-3.65572E-14
 -1      3347 7.34223E-03 2.22444E-05-4.06345E-14
 -1      3348 7.48466E-03 2.92971E-05-4.22776E-14
 -1      3349 7.27968E-03 5.47025E-05-3.97215E-14
 -1      3350 7.62716E-03 3.65274E-05-4.39474E-14
 -1      3351 7.76972E-03 4.39242E-05-4.56470E-14
 -1      3352 7.56412E-03 6.90891E-05-4.30019E-14
 -1      3353 7.91235E-03 5.14747E-05-4.73719E-14
 -1      3354 8.05502E-03 5.91681E-05-4.91247E-14
 -1      3355 7.84897E-03 8.41111E-05-4.63910E-14
 -1      3356 8.19774E-03 6.69911E-05-5.09065E-14
 -1      3357 8.34049E-03 7.49338E-05-5.27121E-14
 -1      3358 8.13413E-03 9.96790E-05-4.98921E-14
 -1      3359 8.48327E-03 8.29834E-05-5.45429E-14
 -1      3360 8.62608E-03 9.11312E-05-5.63982E-14
 -1      3361 8.41951E-03 1.15705E-04-5.35001E-14
 -1      3362 8.76891E-03 9.93653E-05-5.82780E-14
 -1      3363 8.91175E-03 1.07678E-04-6.01813E-14
 -1      3364 8.70504E-03 1.32107E-04-5.72050E-14
 -1      3365 9.05460E-03 1.16060E-04-6.21106E-14
 -1      3366 9.19747E-03 1.24503E-04-6.40617E-14
 -1      3367 8.99069E-03 1.48812E-04-6.10069E-14
 -1      3368 9.34034E-03 1.33001E-04-6.60354E-14
 -1      3369 9.48322E-03 1.41546E-04-6.80312E-14
 -1      3370 9.27640E-03 1.65757E-04-6.49016E-14
 -1      3371 9.62610E-03 1.50132E-04-7.00494E-14
 -1      3372 9.76899E-03 1.58755E-04-7.20896E-14
 -1      3373 9.56215E-03 1.82889E-04-6.88886E-14
 -1      3374 9.91188E-03 1.67408E-04-7.41482E-14
 -1      3375 1.00548E-02 1.76089E-04-7.62264E-14
 -1      3376 9.84793E-03 2.00162E-04-7.29607E-14
 -1      3377 1.01977E-02 1.84792E-04-7.83255E-14
 -1      3378 1.03405E-02 1.93515E-04-8.04416E-14
 -1      3379 1.01337E-02 2.17542E-04-7.71124E-14
 -1      3380 1.04834E-02 2.02254E-04-8.25785E-14
 -1      3381 1.06263E-02 2.11008E-04-8.47349E-14
 -1      3382 1.04195E-02 2.35000E-04-8.13429E-14
 -1      3383 1.07692E-02 2.19773E-04-8.69098E-14
 -1      3384 1.09121E-02 2.28547E-04-8.91030E-14
 -1      3385 1.07053E-02 2.52513E-04-8.56500E-14
 -1      3386 1.10550E-02 2.37330E-04-9.13168E-14
 -1      3387 1.11978E-02 2.46119E-04-9.35470E-14
 -1      3388 1.09911E-02 2.70066E-04-9.00347E-14
 -1      3389 1.13407E-02 2.54913E-04-9.57892E-14
 -1      3390 1.14836E-02 2.63711E-04-9.80525E-14
 -1      3391 1.12768E-02 2.87645E-04-9.44893E-14
 -1      3392 1.16265E-02 2.72513E-04-1.00334E-13
 -1      3393 1.17693E-02 2.81316E-04-1.02626E-13
 -1      3394 1.15626E-02 3.05241E-04-9.90100E-14
 -1      3395 1.19122E-02 2.90122E-04-1.04933E-13
 -1      3396 1.20551E-02 2.98929E-04-1.07256E-13
 -1      3397 1.18484E-02 3.22847E-04-1.03595E-13
 -1      3398 1.21979E-02 3.07736E-04-1.09594E-13
 -1      3399 1.23408E-02 3.16544E-04-1.11940E-13
 -1      3400 1.21341E-02 3.40459E-04-1.08235E-13
 -1      3401 1.24837E-02 3.25352E-04-1.14299E-13
 -1      3402 1.26265E-02 3.34160E-04-1.16672E-13
 -1      3403 1.24198E-02 3.58073E-04-1.12927E-13
 -1      3404 1.27694E-02 3.42968E-04-1.19057E-13
 -1      3405 1.29123E-02 3.51775E-04-1.21453E-13
 -1      3406 1.27056E-02 3.75687E-04-1.17665E-13
 -1      3407 1.30551E-02 3.60582E-04-1.23860E-13
 -1      3408 1.31980E-02 3.69388E-04-1.26277E-13
 -1      3409 1.29913E-02 3.93301E-04-1.22449E-13
 -1      3410 1.33408E-02 3.78194E-04-1.28705E-13
 -1      3411 1.34837E-02 3.86999E-04-1.31141E-13
 -1      3412 1.32770E-02 4.10912E-04-1.27274E-13
 -1      3413 5.18079E-03 4.42522E-04-1.63060E-14
 -1      3414 5.04127E-03 4.30524E-04-1.52497E-14
 -1      3415 4.98407E-03 3.91917E-04-1.48883E-14
 -1      3416 4.62178E-03 3.98540E-04-1.22710E-14
 -1      3417 4.48053E-03 3.90042E-04-1.13431E-14
 -1      3418 4.71100E-03 3.69413E-04-1.28943E-14
 -1      3419 5.46011E-03 4.67602E-04-1.85194E-14
 -1      3420 5.32033E-03 4.54918E-04-1.73963E-14
 -1      3421 5.25809E-03 4.16117E-04-1.70110E-14
 -1      3422 5.74033E-03 4.93371E-04-2.08621E-14
 -1      3423 5.60007E-03 4.80438E-04-1.96737E-14
 -1      3424 5.53377E-03 4.41200E-04-1.92627E-14
 -1      3425 6.02160E-03 5.19156E-04-2.33352E-14
 -1      3426 5.88082E-03 5.06285E-04-2.20827E-14
 -1      3427 5.81130E-03 4.66545E-04-2.16450E-14
 -1      3428 6.30387E-03 5.44505E-04-2.59356E-14
 -1      3429 6.16261E-03 5.31899E-04-2.46194E-14
 -1      3430 6.09056E-03 4.91691E-04-2.41555E-14
 -1      3431 6.58701E-03 5.69138E-04-2.86621E-14
 -1      3432 6.44533E-03 5.56917E-04-2.72839E-14
 -1      3433 6.37133E-03 5.16315E-04-2.67936E-14
 -1      3434 6.87084E-03 5.92912E-04-3.15104E-14
 -1      3435 6.72884E-03 5.81133E-04-3.00714E-14
 -1      3436 6.65334E-03 5.40222E-04-2.95552E-14
 -1      3437 7.15523E-03 6.15787E-04-3.44804E-14
 -1      3438 7.01297E-03 6.04459E-04-3.29802E-14
 -1      3439 6.93635E-03 5.63316E-04-3.24397E-14
 -1      3440 7.44003E-03 6.37786E-04-3.75682E-14
 -1      3441 7.29758E-03 6.26891E-04-3.60090E-14
 -1      3442 7.22013E-03 5.85582E-04-3.54425E-14
 -1      3443 7.72515E-03 6.58979E-04-4.07769E-14
 -1      3444 7.58255E-03 6.48477E-04-3.91591E-14
 -1      3445 7.50450E-03 6.07055E-04-3.85647E-14
 -1      3446 8.01048E-03 6.79457E-04-4.41042E-14
 -1      3447 7.86779E-03 6.69301E-04-4.24258E-14
 -1      3448 7.78931E-03 6.27805E-04-4.18070E-14
 -1      3449 8.29598E-03 6.99320E-04-4.75487E-14
 -1      3450 8.15321E-03 6.89459E-04-4.58122E-14
 -1      3451 8.07444E-03 6.47918E-04-4.51664E-14
 -1      3452 8.58158E-03 7.18667E-04-5.11018E-14
 -1      3453 8.43877E-03 7.09053E-04-4.93115E-14
 -1      3454 8.35980E-03 6.67486E-04-4.86403E-14
 -1      3455 8.86726E-03 7.37592E-04-5.47605E-14
 -1      3456 8.72441E-03 7.28177E-04-5.29192E-14
 -1      3457 8.64533E-03 6.86599E-04-5.22244E-14
 -1      3458 9.15298E-03 7.56176E-04-5.85184E-14
 -1      3459 9.01011E-03 7.46922E-04-5.66275E-14
 -1      3460 8.93096E-03 7.05341E-04-5.59108E-14
 -1      3461 9.43873E-03 7.74491E-04-6.23702E-14
 -1      3462 9.29585E-03 7.65364E-04-6.04323E-14
 -1      3463 9.21666E-03 7.23786E-04-5.96938E-14
 -1      3464 9.72449E-03 7.92599E-04-6.63078E-14
 -1      3465 9.58160E-03 7.83568E-04-6.43278E-14
 -1      3466 9.50240E-03 7.41996E-04-6.35678E-14
 -1      3467 1.00103E-02 8.10549E-04-7.03360E-14
 -1      3468 9.86737E-03 8.01591E-04-6.83112E-14
 -1      3469 9.78817E-03 7.60027E-04-6.75334E-14
 -1      3470 1.02960E-02 8.28380E-04-7.44434E-14
 -1      3471 1.01531E-02 8.19478E-04-7.23795E-14
 -1      3472 1.00739E-02 7.77921E-04-7.15837E-14
 -1      3473 1.05818E-02 8.46126E-04-7.86344E-14
 -1      3474 1.04389E-02 8.37262E-04-7.65289E-14
 -1      3475 1.03597E-02 7.95713E-04-7.57153E-14
 -1      3476 1.08675E-02 8.63810E-04-8.29002E-14
 -1      3477 1.07247E-02 8.54974E-04-8.07596E-14
 -1      3478 1.06455E-02 8.13432E-04-7.99260E-14
 -1      3479 1.11533E-02 8.81450E-04-8.72380E-14
 -1      3480 1.10104E-02 8.72635E-04-8.50605E-14
 -1      3481 1.09313E-02 8.31098E-04-8.42154E-14
 -1      3482 1.14390E-02 8.99063E-04-9.16337E-14
 -1      3483 1.12962E-02 8.90260E-04-8.94272E-14
 -1      3484 1.12170E-02 8.48728E-04-8.85682E-14
 -1      3485 1.17248E-02 9.16657E-04-9.60903E-14
 -1      3486 1.15819E-02 9.07862E-04-9.38545E-14
 -1      3487 1.15028E-02 8.66335E-04-9.29848E-14
 -1      3488 1.20105E-02 9.34240E-04-1.00603E-13
 -1      3489 1.18676E-02 9.25449E-04-9.83395E-14
 -1      3490 1.17886E-02 8.83926E-04-9.74593E-14
 -1      3491 1.22962E-02 9.51817E-04-1.05174E-13
 -1      3492 1.21534E-02 9.43029E-04-1.02883E-13
 -1      3493 1.20743E-02 9.01508E-04-1.01993E-13
 -1      3494 1.25820E-02 9.69392E-04-1.09791E-13
 -1      3495 1.24391E-02 9.60605E-04-1.07475E-13
 -1      3496 1.23600E-02 9.19086E-04-1.06579E-13
 -1      3497 1.28677E-02 9.86967E-04-1.14455E-13
 -1      3498 1.27248E-02 9.78179E-04-1.12119E-13
 -1      3499 1.26458E-02 9.36662E-04-1.11215E-13
 -1      3500 1.31534E-02 1.00454E-03-1.19157E-13
 -1      3501 1.30106E-02 9.95755E-04-1.16800E-13
 -1      3502 1.29315E-02 9.54239E-04-1.15891E-13
 -1      3503 1.34391E-02 1.02212E-03-1.23893E-13
 -1      3504 1.32963E-02 1.01333E-03-1.21522E-13
 -1      3505 1.32172E-02 9.71818E-04-1.20605E-13
 -1      3506 1.37249E-02 1.03970E-03-1.28663E-13
 -1      3507 1.35820E-02 1.03091E-03-1.26274E-13
 -1      3508 1.35029E-02 9.89398E-04-1.25356E-13
 -1      3509 1.40660E-02 1.05563E-03-1.34450E-13
 -1      3510 1.36671E-02 4.76054E-04-1.33518E-13
 -1      3511 1.36757E-02 5.18204E-04-1.33254E-13
 -1      3512 1.20020E-03-4.22307E-04-1.04604E-15
 -1      3513 4.06840E-03 1.64656E-04-7.67257E-15
 -1      3514 4.09167E-03 1.48804E-04-7.59082E-15
 -1      3515 4.13834E-03 1.47833E-04-8.01965E-15
 -1      3516 1.27129E-03 5.54771E-04-7.18365E-16
 -1      3517 2.90218E-03 5.93440E-04-4.23110E-15
 -1      3518 1.39380E-02 1.02712E-03-1.32523E-13
 -1      3519 3.68069E-03-5.96995E-05-8.16973E-15
 -1      3520 3.52722E-03-1.27891E-04-7.80314E-15
 -1      3521 3.63663E-03 3.43621E-04-6.59173E-15
 -1      3522 3.82829E-03-3.84246E-05-8.89843E-15
 -1      3523 4.13415E-03 1.32236E-04-8.29343E-15
 -1      3524 4.08734E-03 1.26222E-04-8.04586E-15
 -1      3525 4.08552E-03 1.14781E-04-8.40923E-15
 -1      3526 2.34679E-03-5.68349E-04-3.91042E-15
 -1      3527 4.06374E-03 2.16662E-04-8.17086E-15
 -1      3528 4.06515E-03 1.87620E-04-7.92320E-15
 -1      3529 4.14189E-03 1.80533E-04-8.36289E-15
 -1      3530 3.74086E-03 3.55972E-04-7.14034E-15
 -1      3531 3.83511E-03 2.94692E-04-7.36790E-15
 -1      3532 3.84694E-03 3.69200E-04-7.70290E-15
 -1      3533 1.36567E-02 3.83232E-04-1.34242E-13
 -1      3534 1.35929E-02 4.15949E-04-1.32794E-13
 -1      3535 1.35563E-02 5.31299E-04-1.31018E-13
 -1      3536 1.36843E-02 5.59997E-04-1.32988E-13
 -1      3537 1.36929E-02 6.01790E-04-1.32719E-13
 -1      3538 4.33808E-03 3.82893E-04-1.04474E-14
 -1      3539 4.19326E-03 3.78015E-04-9.58603E-15
 -1      3540 4.43712E-03 3.49815E-04-1.10298E-14
 -1      3541 3.94692E-03 2.71224E-04-7.84111E-15
 -1      3542 3.99940E-03 3.66469E-04-8.48821E-15
 -1      3543 1.37187E-02 7.27484E-04-1.31883E-13
 -1      3544 1.37273E-02 7.69546E-04-1.31597E-13
 -1      3545 4.03810E-03 8.48771E-05-8.70625E-15
 -1      3546 3.96975E-03 6.94874E-05-8.49281E-15
 -1      3547 3.99290E-03 4.40953E-05-9.04464E-15
 -1      3548 1.37532E-02 8.95774E-04-1.30714E-13
 -1      3549 1.37619E-02 9.37923E-04-1.30413E-13
 -1      3550 1.37015E-02 6.43740E-04-1.32446E-13
 -1      3551 1.37101E-02 6.85534E-04-1.32166E-13
 -1      3552 1.35907E-02 6.98945E-04-1.29939E-13
 -1      3553 1.35734E-02 6.15044E-04-1.30487E-13
 -1      3554 1.36398E-02 9.53712E-04-1.28117E-13
 -1      3555 1.37679E-02 9.82401E-04-1.30038E-13
 -1      3556 1.38159E-02 1.04291E-03-1.30217E-13
 -1      3557 1.36079E-02 7.82959E-04-1.29369E-13
 -1      3558 1.37359E-02 8.11607E-04-1.31303E-13
 -1      3559 1.37446E-02 8.53668E-04-1.31011E-13
 -1      3560 3.97230E-03-2.93928E-05-9.75051E-15
 -1      3561 4.11318E-03-2.18339E-05-1.06336E-14
 -1      3562 4.05151E-03 2.77998E-05-9.67331E-15
 -1      3563 5.06275E-03 3.66620E-04-1.55571E-14
 -1      3564 4.92882E-03 3.54770E-04-1.45236E-14
 -1      3565 4.25094E-03-1.60272E-05-1.15473E-14
 -1      3566 4.38771E-03-1.07342E-05-1.24922E-14
 -1      3567 4.31009E-03 3.38770E-05-1.14613E-14
 -1      3568 4.52309E-03-5.99353E-06-1.34693E-14
 -1      3569 4.65835E-03-1.42256E-06-1.44769E-14
 -1      3570 4.56795E-03 4.00927E-05-1.33737E-14
 -1      3571 4.79321E-03 3.04693E-06-1.55148E-14
 -1      3572 4.92839E-03 7.50248E-06-1.65848E-14
 -1      3573 4.82801E-03 4.74709E-05-1.54097E-14
 -1      3574 5.06369E-03 1.20346E-05-1.76863E-14
 -1      3575 5.19949E-03 1.66169E-05-1.88189E-14
 -1      3576 5.09137E-03 5.60725E-05-1.75704E-14
 -1      3577 5.33566E-03 2.13502E-05-1.99823E-14
 -1      3578 5.47240E-03 2.61759E-05-2.11782E-14
 -1      3579 5.35820E-03 6.57460E-05-1.98565E-14
 -1      3580 5.60959E-03 3.11913E-05-2.24057E-14
 -1      3581 5.74734E-03 3.63326E-05-2.36651E-14
 -1      3582 5.62836E-03 7.63517E-05-2.22692E-14
 -1      3583 5.88555E-03 4.16852E-05-2.49550E-14
 -1      3584 6.02427E-03 4.71893E-05-2.62773E-14
 -1      3585 5.90152E-03 8.78009E-05-2.48092E-14
 -1      3586 6.16343E-03 5.29144E-05-2.76311E-14
 -1      3587 6.30302E-03 5.88074E-05-2.90143E-14
 -1      3588 6.17728E-03 1.00038E-04-2.74743E-14
 -1      3589 6.44300E-03 6.49208E-05-3.04280E-14
 -1      3590 6.58335E-03 7.12086E-05-3.18714E-14
 -1      3591 6.45527E-03 1.13020E-04-3.02615E-14
 -1      3592 6.72401E-03 7.77076E-05-3.33450E-14
 -1      3593 6.86498E-03 8.43785E-05-3.48494E-14
 -1      3594 6.73509E-03 1.26699E-04-3.31677E-14
 -1      3595 7.00621E-03 9.12450E-05-3.63811E-14
 -1      3596 7.14769E-03 9.82739E-05-3.79425E-14
 -1      3597 7.01641E-03 1.41020E-04-3.61920E-14
 -1      3598 7.28937E-03 1.05478E-04-3.95356E-14
 -1      3599 7.43124E-03 1.12831E-04-4.11565E-14
 -1      3600 7.29892E-03 1.55921E-04-3.93362E-14
 -1      3601 7.57327E-03 1.20337E-04-4.28049E-14
 -1      3602 7.71544E-03 1.27975E-04-4.44820E-14
 -1      3603 7.58235E-03 1.71334E-04-4.25955E-14
 -1      3604 7.85774E-03 1.35744E-04-4.61870E-14
 -1      3605 8.00014E-03 1.43626E-04-4.79187E-14
 -1      3606 7.86648E-03 1.87189E-04-4.59690E-14
 -1      3607 8.14263E-03 1.51617E-04-4.96788E-14
 -1      3608 8.28521E-03 1.59704E-04-5.14666E-14
 -1      3609 8.15115E-03 2.03418E-04-4.94534E-14
 -1      3610 8.42784E-03 1.67881E-04-5.32772E-14
 -1      3611 8.57054E-03 1.76137E-04-5.51150E-14
 -1      3612 8.43620E-03 2.19959E-04-5.30443E-14
 -1      3613 8.71327E-03 1.84465E-04-5.69760E-14
 -1      3614 8.85605E-03 1.92857E-04-5.88587E-14
 -1      3615 8.72154E-03 2.36754E-04-5.67336E-14
 -1      3616 8.99886E-03 2.01306E-04-6.07674E-14
 -1      3617 9.14169E-03 2.09806E-04-6.26987E-14
 -1      3618 9.00706E-03 2.53753E-04-6.05179E-14
 -1      3619 9.28454E-03 2.18350E-04-6.46545E-14
 -1      3620 9.42740E-03 2.26934E-04-6.66316E-14
 -1      3621 9.29271E-03 2.70913E-04-6.43952E-14
 -1      3622 9.57028E-03 2.35552E-04-6.86294E-14
 -1      3623 9.71317E-03 2.44200E-04-7.06515E-14
 -1      3624 9.57845E-03 2.88198E-04-6.83653E-14
 -1      3625 9.85606E-03 2.52874E-04-7.26951E-14
 -1      3626 9.99896E-03 2.61571E-04-7.47564E-14
 -1      3627 9.86423E-03 3.05577E-04-7.24207E-14
 -1      3628 1.01419E-02 2.70287E-04-7.68383E-14
 -1      3629 1.02848E-02 2.79019E-04-7.89402E-14
 -1      3630 1.01500E-02 3.23028E-04-7.65565E-14
 -1      3631 1.04277E-02 2.87765E-04-8.10616E-14
 -1      3632 1.05706E-02 2.96524E-04-8.32033E-14
 -1      3633 1.04359E-02 3.40531E-04-8.07747E-14
 -1      3634 1.07135E-02 3.05291E-04-8.53637E-14
 -1      3635 1.08564E-02 3.14068E-04-8.75424E-14
 -1      3636 1.07217E-02 3.58071E-04-8.50705E-14
 -1      3637 1.09993E-02 3.22850E-04-8.97390E-14
 -1      3638 1.11422E-02 3.31639E-04-9.19572E-14
 -1      3639 1.10075E-02 3.75638E-04-8.94391E-14
 -1      3640 1.12850E-02 3.40432E-04-9.41904E-14
 -1      3641 1.14279E-02 3.49228E-04-9.64379E-14
 -1      3642 1.12933E-02 3.93222E-04-9.38819E-14
 -1      3643 1.15708E-02 3.58028E-04-9.87067E-14
 -1      3644 1.17137E-02 3.66829E-04-1.00991E-13
 -1      3645 1.15791E-02 4.10818E-04-9.83955E-14
 -1      3646 1.18566E-02 3.75632E-04-1.03286E-13
 -1      3647 1.19995E-02 3.84436E-04-1.05596E-13
 -1      3648 1.18648E-02 4.28420E-04-1.02969E-13
 -1      3649 1.21423E-02 3.93241E-04-1.07920E-13
 -1      3650 1.22852E-02 4.02047E-04-1.10257E-13
 -1      3651 1.21506E-02 4.46027E-04-1.07597E-13
 -1      3652 1.24281E-02 4.10852E-04-1.12603E-13
 -1      3653 1.25710E-02 4.19658E-04-1.14963E-13
 -1      3654 1.24363E-02 4.63634E-04-1.12272E-13
 -1      3655 1.27138E-02 4.28464E-04-1.17334E-13
 -1      3656 1.28567E-02 4.37269E-04-1.19715E-13
 -1      3657 1.27221E-02 4.81243E-04-1.16996E-13
 -1      3658 1.29996E-02 4.46074E-04-1.22106E-13
 -1      3659 1.31424E-02 4.54879E-04-1.24509E-13
 -1      3660 1.30078E-02 4.98850E-04-1.21757E-13
 -1      3661 1.32853E-02 4.63683E-04-1.26919E-13
 -1      3662 5.60533E-03 4.15512E-04-2.00104E-14
 -1      3663 5.46859E-03 4.03153E-04-1.88487E-14
 -1      3664 4.79567E-03 3.43210E-04-1.35223E-14
 -1      3665 4.66286E-03 3.32001E-04-1.25538E-14
 -1      3666 4.87532E-03 3.19165E-04-1.41568E-14
 -1      3667 5.88070E-03 4.40151E-04-2.24310E-14
 -1      3668 5.74268E-03 4.27839E-04-2.12038E-14
 -1      3669 5.67480E-03 3.90214E-04-2.07616E-14
 -1      3670 6.15837E-03 4.64476E-04-2.49792E-14
 -1      3671 6.01926E-03 4.52357E-04-2.36892E-14
 -1      3672 5.94856E-03 4.13943E-04-2.32208E-14
 -1      3673 6.43795E-03 4.88261E-04-2.76545E-14
 -1      3674 6.29793E-03 4.76437E-04-2.63018E-14
 -1      3675 6.22505E-03 4.37326E-04-2.58077E-14
 -1      3676 6.71909E-03 5.11368E-04-3.04531E-14
 -1      3677 6.57834E-03 4.99898E-04-2.90389E-14
 -1      3678 6.50377E-03 4.60202E-04-2.85197E-14
 -1      3679 7.00145E-03 5.33737E-04-3.33714E-14
 -1      3680 6.86013E-03 5.22641E-04-3.18964E-14
 -1      3681 6.78426E-03 4.82471E-04-3.13535E-14
 -1      3682 7.28476E-03 5.55367E-04-3.64071E-14
 -1      3683 7.14299E-03 5.44639E-04-3.48743E-14
 -1      3684 7.06615E-03 5.04096E-04-3.43048E-14
 -1      3685 7.56880E-03 5.76299E-04-3.95634E-14
 -1      3686 7.42670E-03 5.65914E-04-3.79701E-14
 -1      3687 7.34912E-03 5.25084E-04-3.73752E-14
 -1      3688 7.85337E-03 5.96597E-04-4.28386E-14
 -1      3689 7.71102E-03 5.86521E-04-4.11869E-14
 -1      3690 7.63292E-03 5.45475E-04-4.05650E-14
 -1      3691 8.13835E-03 6.16343E-04-4.62304E-14
 -1      3692 7.99582E-03 6.06534E-04-4.45193E-14
 -1      3693 7.91733E-03 5.65328E-04-4.38736E-14
 -1      3694 8.42361E-03 6.35617E-04-4.97343E-14
 -1      3695 8.28095E-03 6.26033E-04-4.79686E-14
 -1      3696 8.20220E-03 5.84713E-04-4.72961E-14
 -1      3697 8.70907E-03 6.54499E-04-5.33484E-14
 -1      3698 8.56632E-03 6.45102E-04-5.15283E-14
 -1      3699 8.48739E-03 6.03700E-04-5.08326E-14
 -1      3700 8.99467E-03 6.73062E-04-5.70615E-14
 -1      3701 8.85186E-03 6.63816E-04-5.51922E-14
 -1      3702 8.77281E-03 6.22358E-04-5.44743E-14
 -1      3703 9.28036E-03 6.91371E-04-6.08699E-14
 -1      3704 9.13750E-03 6.82245E-04-5.89532E-14
 -1      3705 9.05839E-03 6.40750E-04-5.82144E-14
 -1      3706 9.56610E-03 7.09481E-04-6.47698E-14
 -1      3707 9.42322E-03 7.00448E-04-6.28099E-14
 -1      3708 9.34407E-03 6.58930E-04-6.20493E-14
 -1      3709 9.85187E-03 7.27438E-04-6.87606E-14
 -1      3710 9.70898E-03 7.18476E-04-6.67534E-14
 -1      3711 9.62982E-03 6.76944E-04-6.59749E-14
 -1      3712 1.01377E-02 7.45279E-04-7.28319E-14
 -1      3713 9.99477E-03 7.36371E-04-7.07859E-14
 -1      3714 9.91560E-03 6.94832E-04-6.99857E-14
 -1      3715 1.04235E-02 7.63035E-04-7.69854E-14
 -1      3716 1.02806E-02 7.54167E-04-7.48978E-14
 -1      3717 1.02014E-02 7.12625E-04-7.40812E-14
 -1      3718 1.07092E-02 7.80730E-04-8.12193E-14
 -1      3719 1.05664E-02 7.71889E-04-7.90933E-14
 -1      3720 1.04872E-02 7.30348E-04-7.82578E-14
 -1      3721 1.09950E-02 7.98380E-04-8.55270E-14
 -1      3722 1.08521E-02 7.89560E-04-8.33647E-14
 -1      3723 1.07730E-02 7.48021E-04-8.25126E-14
 -1      3724 1.12808E-02 8.16001E-04-8.98993E-14
 -1      3725 1.11379E-02 8.07194E-04-8.77064E-14
 -1      3726 1.10588E-02 7.65658E-04-8.68398E-14
 -1      3727 1.15666E-02 8.33603E-04-9.43366E-14
 -1      3728 1.14237E-02 8.24804E-04-9.21092E-14
 -1      3729 1.13446E-02 7.83271E-04-9.12342E-14
 -1      3730 1.18523E-02 8.51192E-04-9.88310E-14
 -1      3731 1.17095E-02 8.42399E-04-9.65763E-14
 -1      3732 1.16304E-02 8.00869E-04-9.56898E-14
 -1      3733 1.21381E-02 8.68775E-04-1.03386E-13
 -1      3734 1.19952E-02 8.59984E-04-1.01101E-13
 -1      3735 1.19161E-02 8.18457E-04-1.00206E-13
 -1      3736 1.24238E-02 8.86354E-04-1.07987E-13
 -1      3737 1.22810E-02 8.77564E-04-1.05681E-13
 -1      3738 1.22019E-02 8.36040E-04-1.04775E-13
 -1      3739 1.27096E-02 9.03932E-04-1.12636E-13
 -1      3740 1.25667E-02 8.95143E-04-1.10305E-13
 -1      3741 1.24876E-02 8.53621E-04-1.09395E-13
 -1      3742 1.29953E-02 9.21511E-04-1.17327E-13
 -1      3743 1.28524E-02 9.12721E-04-1.14978E-13
 -1      3744 1.27734E-02 8.71201E-04-1.14060E-13
 -1      3745 1.32810E-02 9.39091E-04-1.22056E-13
 -1      3746 1.31382E-02 9.30301E-04-1.19687E-13
 -1      3747 1.30591E-02 8.88783E-04-1.18765E-13
 -1      3748 1.35319E-02 9.50797E-04-1.26273E-13
 -1      3749 1.33890E-02 9.42006E-04-1.23890E-13
 -1      3750 1.33099E-02 9.00488E-04-1.22964E-13
 -1      3751 1.35259E-02 9.06318E-04-1.26642E-13
 -1      3752 1.36032E-02 4.41161E-04-1.32733E-13
 -1      3753 1.34838E-02 4.54611E-04-1.30492E-13
 -1      3754 1.33492E-02 4.98579E-04-1.27703E-13
 -1      3755 4.11512E-03 3.25355E-04-9.01620E-15
 -1      3756 4.20160E-03 1.57731E-04-8.66305E-15
 -1      3757 4.18829E-03 1.45419E-04-8.57301E-15
 -1      3758 1.36252E-02 8.67128E-04-1.28785E-13
 -1      3759 5.33260E-03 3.90874E-04-1.77188E-14
 -1      3760 5.19727E-03 3.78657E-04-1.66219E-14
 -1      3761 5.40432E-03 3.66354E-04-1.84312E-14
 -1      3762 4.12038E-03 2.87459E-04-8.91119E-15
 -1      3763 4.12984E-03 2.51593E-04-8.79997E-15
 -1      3764 4.29544E-03 3.05896E-04-1.00370E-14
 -1      3765 4.21058E-03 1.39001E-04-8.95009E-15
 -1      3766 1.34799E-02 7.54310E-04-1.27434E-13
 -1      3767 1.34885E-02 7.96374E-04-1.27147E-13
 -1      3768 4.21624E-03 2.37483E-04-9.26429E-15
 -1      3769 4.11868E-03 4.67689E-05-9.90100E-15
 -1      3770 5.13767E-03 3.42600E-04-1.62301E-14
 -1      3771 1.33578E-02 5.40374E-04-1.27450E-13
 -1      3772 1.35172E-02 8.64212E-04-1.26937E-13
 -1      3773 4.54575E-03 3.23473E-04-1.17237E-14
 -1      3774 4.41310E-03 3.13320E-04-1.08147E-14
 -1      3775 4.40640E-03 2.80779E-04-1.06973E-14
 -1      3776 4.63217E-03 2.98517E-04-1.23188E-14
 -1      3777 4.10606E-03 9.85914E-05-8.96635E-15
 -1      3778 4.13224E-03 7.85186E-05-9.53344E-15
 -1      3779 4.16788E-03 1.09630E-04-9.22676E-15
 -1      3780 4.22330E-03 1.74656E-04-8.93028E-15
 -1      3781 4.29366E-03 1.70204E-04-9.51082E-15
 -1      3782 4.23988E-03 1.95852E-04-9.19519E-15
 -1      3783 1.34626E-02 6.70406E-04-1.27990E-13
 -1      3784 1.34713E-02 7.12358E-04-1.27713E-13
 -1      3785 1.33519E-02 7.25772E-04-1.25498E-13
 -1      3786 4.31224E-03 2.26047E-04-9.86214E-15
 -1      3787 4.31169E-03 1.46985E-04-9.82006E-15
 -1      3788 4.24906E-03 1.29704E-04-9.52549E-15
 -1      3789 4.28655E-03 1.16515E-04-1.01126E-14
 -1      3790 4.53589E-03 6.77199E-05-1.28233E-14
 -1      3791 4.66124E-03 7.07702E-05-1.38077E-14
 -1      3792 4.78784E-03 7.44594E-05-1.48230E-14
 -1      3793 4.91597E-03 7.85129E-05-1.58683E-14
 -1      3794 4.74832E-03 9.97721E-05-1.42400E-14
 -1      3795 5.04534E-03 8.30747E-05-1.69452E-14
 -1      3796 5.17602E-03 8.79108E-05-1.80544E-14
 -1      3797 4.99953E-03 1.08688E-04-1.63258E-14
 -1      3798 5.30784E-03 9.31347E-05-1.91943E-14
 -1      3799 5.44079E-03 9.85778E-05-2.03657E-14
 -1      3800 5.25752E-03 1.19355E-04-1.85361E-14
 -1      3801 5.57473E-03 1.04326E-04-2.15687E-14
 -1      3802 5.70962E-03 1.10258E-04-2.28037E-14
 -1      3803 5.52108E-03 1.31302E-04-2.08726E-14
 -1      3804 5.84537E-03 1.16442E-04-2.40709E-14
 -1      3805 5.98192E-03 1.22790E-04-2.53686E-14
 -1      3806 5.78921E-03 1.44227E-04-2.33358E-14
 -1      3807 6.11920E-03 1.29353E-04-2.66977E-14
 -1      3808 6.25714E-03 1.36066E-04-2.80582E-14
 -1      3809 6.06111E-03 1.57936E-04-2.59255E-14
 -1      3810 6.39568E-03 1.42967E-04-2.94485E-14
 -1      3811 6.53477E-03 1.50007E-04-3.08688E-14
 -1      3812 6.33612E-03 1.72296E-04-2.86395E-14
 -1      3813 6.67435E-03 1.57212E-04-3.23195E-14
 -1      3814 6.81437E-03 1.64544E-04-3.37990E-14
 -1      3815 6.61364E-03 1.87209E-04-3.14749E-14
 -1      3816 6.95478E-03 1.72021E-04-3.53087E-14
 -1      3817 7.09555E-03 1.79613E-04-3.68467E-14
 -1      3818 6.89320E-03 2.02598E-04-3.44284E-14
 -1      3819 7.23662E-03 1.87330E-04-3.84150E-14
 -1      3820 7.37797E-03 1.95149E-04-4.00136E-14
 -1      3821 7.17438E-03 2.18396E-04-3.74991E-14
 -1      3822 7.51955E-03 2.03075E-04-4.16405E-14
 -1      3823 7.66135E-03 2.11090E-04-4.32953E-14
 -1      3824 7.45681E-03 2.34544E-04-4.06883E-14
 -1      3825 7.80333E-03 2.19195E-04-4.49791E-14
 -1      3826 7.94546E-03 2.27376E-04-4.66915E-14
 -1      3827 7.74022E-03 2.50988E-04-4.39933E-14
 -1      3828 8.08773E-03 2.35631E-04-4.84310E-14
 -1      3829 8.23012E-03 2.43950E-04-5.01978E-14
 -1      3830 8.02436E-03 2.67680E-04-4.74121E-14
 -1      3831 8.37260E-03 2.52329E-04-5.19918E-14
 -1      3832 8.51517E-03 2.60762E-04-5.38099E-14
 -1      3833 8.30905E-03 2.84576E-04-5.09402E-14
 -1      3834 8.65781E-03 2.69242E-04-5.56505E-14
 -1      3835 8.80051E-03 2.77765E-04-5.75170E-14
 -1      3836 8.59413E-03 3.01639E-04-5.45721E-14
 -1      3837 8.94326E-03 2.86327E-04-5.94076E-14
 -1      3838 9.08604E-03 2.94922E-04-6.13205E-14
 -1      3839 8.87949E-03 3.18835E-04-5.82997E-14
 -1      3840 9.22886E-03 3.03548E-04-6.32583E-14
 -1      3841 9.37171E-03 3.12200E-04-6.52184E-14
 -1      3842 9.16504E-03 3.36136E-04-6.21228E-14
 -1      3843 9.51457E-03 3.20874E-04-6.71995E-14
 -1      3844 9.65745E-03 3.29570E-04-6.92029E-14
 -1      3845 9.45071E-03 3.53519E-04-6.60374E-14
 -1      3846 9.80034E-03 3.38282E-04-7.12281E-14
 -1      3847 9.94324E-03 3.47010E-04-7.32739E-14
 -1      3848 9.73647E-03 3.70966E-04-7.00400E-14
 -1      3849 1.00861E-02 3.55750E-04-7.53415E-14
 -1      3850 1.02291E-02 3.64502E-04-7.74284E-14
 -1      3851 1.00223E-02 3.88459E-04-7.41274E-14
 -1      3852 1.03720E-02 3.73263E-04-7.95336E-14
 -1      3853 1.05149E-02 3.82033E-04-8.16601E-14
 -1      3854 1.03081E-02 4.05988E-04-7.82967E-14
 -1      3855 1.06578E-02 3.90809E-04-8.38069E-14
 -1      3856 1.08007E-02 3.99591E-04-8.59719E-14
 -1      3857 1.05939E-02 4.23543E-04-8.25458E-14
 -1      3858 1.09436E-02 4.08377E-04-8.81549E-14
 -1      3859 1.10865E-02 4.17167E-04-9.03559E-14
 -1      3860 1.08797E-02 4.41115E-04-8.68716E-14
 -1      3861 1.12294E-02 4.25961E-04-9.25773E-14
 -1      3862 1.13723E-02 4.34757E-04-9.48139E-14
 -1      3863 1.11656E-02 4.58700E-04-9.12726E-14
 -1      3864 1.15152E-02 4.43554E-04-9.70691E-14
 -1      3865 1.16581E-02 4.52354E-04-9.93402E-14
 -1      3866 1.14514E-02 4.76293E-04-9.57451E-14
 -1      3867 1.18010E-02 4.61154E-04-1.01624E-13
 -1      3868 1.19439E-02 4.69956E-04-1.03923E-13
 -1      3869 1.17371E-02 4.93891E-04-1.00280E-13
 -1      3870 1.20868E-02 4.78758E-04-1.06233E-13
 -1      3871 1.22296E-02 4.87561E-04-1.08557E-13
 -1      3872 1.20229E-02 5.11492E-04-1.04872E-13
 -1      3873 1.23725E-02 4.96363E-04-1.10893E-13
 -1      3874 1.25154E-02 5.05166E-04-1.13242E-13
 -1      3875 1.23087E-02 5.29094E-04-1.09514E-13
 -1      3876 1.26583E-02 5.13969E-04-1.15600E-13
 -1      3877 1.28011E-02 5.22772E-04-1.17968E-13
 -1      3878 1.25944E-02 5.46697E-04-1.14205E-13
 -1      3879 1.29440E-02 5.31574E-04-1.20347E-13
 -1      3880 1.30869E-02 5.40376E-04-1.22734E-13
 -1      3881 1.28802E-02 5.64300E-04-1.18936E-13
 -1      3882 4.95000E-03 2.96871E-04-1.47952E-14
 -1      3883 4.82288E-03 2.85492E-04-1.37863E-14
 -1      3884 6.01496E-03 3.87821E-04-2.40160E-14
 -1      3885 5.87819E-03 3.76502E-04-2.27514E-14
 -1      3886 6.29067E-03 4.10171E-04-2.66391E-14
 -1      3887 6.15247E-03 3.99031E-04-2.53111E-14
 -1      3888 6.08004E-03 3.61575E-04-2.48145E-14
 -1      3889 6.56882E-03 4.32086E-04-2.93888E-14
 -1      3890 6.42947E-03 4.21179E-04-2.79985E-14
 -1      3891 6.35533E-03 3.82855E-04-2.74753E-14
 -1      3892 6.84889E-03 4.53494E-04-3.22555E-14
 -1      3893 6.70863E-03 4.42849E-04-3.08078E-14
 -1      3894 6.63317E-03 4.03800E-04-3.02598E-14
 -1      3895 7.13048E-03 4.74366E-04-3.52424E-14
 -1      3896 6.98952E-03 4.63992E-04-3.37344E-14
 -1      3897 6.91303E-03 4.24352E-04-3.31623E-14
 -1      3898 7.41324E-03 4.94713E-04-3.83460E-14
 -1      3899 7.27173E-03 4.84600E-04-3.67794E-14
 -1      3900 7.19447E-03 4.44485E-04-3.61828E-14
 -1      3901 7.69689E-03 5.14569E-04-4.15720E-14
 -1      3902 7.55497E-03 5.04697E-04-3.99446E-14
 -1      3903 7.47713E-03 4.64209E-04-3.93226E-14
 -1      3904 7.98120E-03 5.33985E-04-4.49114E-14
 -1      3905 7.83897E-03 5.24327E-04-4.32269E-14
 -1      3906 7.76071E-03 4.83549E-04-4.25809E-14
 -1      3907 8.26600E-03 5.53019E-04-4.83686E-14
 -1      3908 8.12355E-03 5.43545E-04-4.66262E-14
 -1      3909 8.04498E-03 5.02546E-04-4.59551E-14
 -1      3910 8.55115E-03 5.71729E-04-5.19338E-14
 -1      3911 8.40854E-03 5.62410E-04-5.01368E-14
 -1      3912 8.32976E-03 5.21246E-04-4.94429E-14
 -1      3913 8.83656E-03 5.90174E-04-5.56038E-14
 -1      3914 8.69383E-03 5.80981E-04-5.37572E-14
 -1      3915 8.61490E-03 5.39696E-04-5.30386E-14
 -1      3916 9.12212E-03 6.08402E-04-5.93701E-14
 -1      3917 8.97932E-03 5.99312E-04-5.74747E-14
 -1      3918 8.90030E-03 5.57939E-04-5.67358E-14
 -1      3919 9.40781E-03 6.26460E-04-6.32306E-14
 -1      3920 9.26495E-03 6.17450E-04-6.12883E-14
 -1      3921 9.18587E-03 5.76016E-04-6.05284E-14
 -1      3922 9.69356E-03 6.44386E-04-6.71812E-14
 -1      3923 9.55067E-03 6.35438E-04-6.51963E-14
 -1      3924 9.47155E-03 5.93961E-04-6.44146E-14
 -1      3925 9.97934E-03 6.62210E-04-7.12171E-14
 -1      3926 9.83645E-03 6.53309E-04-6.91883E-14
 -1      3927 9.75731E-03 6.11805E-04-6.83896E-14
 -1      3928 1.02652E-02 6.79958E-04-7.53317E-14
 -1      3929 1.01222E-02 6.71092E-04-7.32642E-14
 -1      3930 1.00431E-02 6.29571E-04-7.24474E-14
 -1      3931 1.05510E-02 6.97651E-04-7.95324E-14
 -1      3932 1.04081E-02 6.88811E-04-7.74217E-14
 -1      3933 1.03289E-02 6.47279E-04-7.65868E-14
 -1      3934 1.08368E-02 7.15305E-04-8.38077E-14
 -1      3935 1.06939E-02 7.06482E-04-8.16607E-14
 -1      3936 1.06147E-02 6.64946E-04-8.08079E-14
 -1      3937 1.11226E-02 7.32930E-04-8.81562E-14
 -1      3938 1.09797E-02 7.24120E-04-8.59727E-14
 -1      3939 1.09006E-02 6.82583E-04-8.51044E-14
 -1      3940 1.14084E-02 7.50537E-04-9.25698E-14
 -1      3941 1.12655E-02 7.41736E-04-9.03555E-14
 -1      3942 1.11864E-02 7.00199E-04-8.94734E-14
 -1      3943 1.16941E-02 7.68133E-04-9.70462E-14
 -1      3944 1.15513E-02 7.59336E-04-9.48000E-14
 -1      3945 1.14722E-02 7.17801E-04-9.39084E-14
 -1      3946 1.19799E-02 7.85721E-04-1.01582E-13
 -1      3947 1.18370E-02 7.76927E-04-9.93064E-14
 -1      3948 1.17579E-02 7.35395E-04-9.84046E-14
 -1      3949 1.22657E-02 8.03305E-04-1.06169E-13
 -1      3950 1.21228E-02 7.94513E-04-1.03870E-13
 -1      3951 1.20437E-02 7.52984E-04-1.02959E-13
 -1      3952 1.25514E-02 8.20888E-04-1.10805E-13
 -1      3953 1.24086E-02 8.12097E-04-1.08482E-13
 -1      3954 1.23295E-02 7.70570E-04-1.07565E-13
 -1      3955 1.28372E-02 8.38471E-04-1.15484E-13
 -1      3956 1.26943E-02 8.29679E-04-1.13140E-13
 -1      3957 1.26152E-02 7.88155E-04-1.12217E-13
 -1      3958 1.31229E-02 8.56054E-04-1.20201E-13
 -1      3959 1.29800E-02 8.47262E-04-1.17838E-13
 -1      3960 1.29010E-02 8.05740E-04-1.16910E-13
 -1      3961 1.34489E-02 8.28835E-04-1.26119E-13
 -1      3962 1.33496E-02 8.68026E-04-1.23987E-13
 -1      3963 1.32416E-02 8.65111E-04-1.22153E-13
 -1      3964 1.33208E-02 8.00187E-04-1.24197E-13
 -1      3965 5.20892E-03 3.19545E-04-1.69087E-14
 -1      3966 5.07865E-03 3.08143E-04-1.58361E-14
 -1      3967 5.01982E-03 2.75349E-04-1.54392E-14
 -1      3968 1.32266E-02 5.61351E-04-1.24957E-13
 -1      3969 1.34337E-02 5.94070E-04-1.28247E-13
 -1      3970 1.34423E-02 6.36022E-04-1.27981E-13
 -1      3971 1.31628E-02 5.94076E-04-1.23532E-13
 -1      3972 5.74228E-03 3.65159E-04-2.15181E-14
 -1      3973 5.60728E-03 3.53738E-04-2.03177E-14
 -1      3974 5.80795E-03 3.40060E-04-2.22794E-14
 -1      3975 5.47333E-03 3.42346E-04-1.91493E-14
 -1      3976 5.34047E-03 3.30904E-04-1.80130E-14
 -1      3977 5.27674E-03 2.96850E-04-1.75923E-14
 -1      3978 5.53986E-03 3.18442E-04-1.98710E-14
 -1      3979 4.18885E-03 6.37353E-05-1.01779E-14
 -1      3980 1.93171E-03 8.16727E-04-1.72937E-15
 -1      3981 4.29948E-03 6.42439E-05-1.10123E-14
 -1      3982 4.42204E-03 6.61289E-05-1.19354E-14
 -1      3983 4.51473E-03 9.42564E-05-1.23442E-14
 -1      3984 4.30050E-03 9.24434E-05-1.06238E-14
 -1      3985 4.51950E-03 2.44669E-04-1.14324E-14
 -1      3986 4.41473E-03 2.35254E-04-1.06352E-14
 -1      3987 4.41513E-03 1.97524E-04-1.05569E-14
 -1      3988 1.33229E-02 6.49434E-04-1.25765E-13
 -1      3989 1.31625E-02 8.23591E-04-1.21218E-13
 -1      3990 1.32418E-02 7.58665E-04-1.23257E-13
 -1      3991 1.32022E-02 7.91128E-04-1.22238E-13
 -1      3992 1.30835E-02 7.82069E-04-1.20285E-13
 -1      3993 4.72304E-03 2.69527E-04-1.30107E-14
 -1      3994 4.61426E-03 2.60339E-04-1.21667E-14
 -1      3995 4.60266E-03 2.20051E-04-1.20881E-14
 -1      3996 4.79434E-03 2.49410E-04-1.36172E-14
 -1      3997 4.38807E-03 1.79148E-04-1.03346E-14
 -1      3998 4.34982E-03 1.61461E-04-1.00490E-14
 -1      3999 4.40622E-03 1.52942E-04-1.06565E-14
 -1      4000 4.48077E-03 1.86784E-04-1.11237E-14
 -1      4001 1.32332E-02 7.16711E-04-1.23534E-13
 -1      4002 1.31831E-02 6.28461E-04-1.23546E-13
 -1      4003 1.32035E-02 6.62847E-04-1.23559E-13
 -1      4004 1.30434E-02 6.07488E-04-1.21335E-13
 -1      4005 4.95312E-03 1.32722E-04-1.57099E-14
 -1      4006 5.07898E-03 1.38265E-04-1.67800E-14
 -1      4007 5.20666E-03 1.44319E-04-1.78829E-14
 -1      4008 5.33610E-03 1.50601E-04-1.90162E-14
 -1      4009 5.15483E-03 1.67984E-04-1.72334E-14
 -1      4010 5.46699E-03 1.57241E-04-2.01804E-14
 -1      4011 5.59926E-03 1.64057E-04-2.13768E-14
 -1      4012 5.41214E-03 1.82121E-04-1.94931E-14
 -1      4013 5.73271E-03 1.71137E-04-2.26055E-14
 -1      4014 5.86727E-03 1.78356E-04-2.38658E-14
 -1      4015 5.67564E-03 1.97162E-04-2.18799E-14
 -1      4016 6.00279E-03 1.85777E-04-2.51580E-14
 -1      4017 6.13920E-03 1.93308E-04-2.64807E-14
 -1      4018 5.94404E-03 2.12868E-04-2.43938E-14
 -1      4019 6.27639E-03 2.00997E-04-2.78347E-14
 -1      4020 6.41430E-03 2.08776E-04-2.92185E-14
 -1      4021 6.21637E-03 2.29063E-04-2.70342E-14
 -1      4022 6.55284E-03 2.16681E-04-3.06328E-14
 -1      4023 6.69196E-03 2.24660E-04-3.20778E-14
 -1      4024 6.49184E-03 2.45619E-04-2.97959E-14
 -1      4025 6.83157E-03 2.32741E-04-3.35507E-14
 -1      4026 6.97165E-03 2.40883E-04-3.50537E-14
 -1      4027 6.76982E-03 2.62440E-04-3.26773E-14
 -1      4028 7.11212E-03 2.49108E-04-3.65864E-14
 -1      4029 7.25295E-03 2.57385E-04-3.81481E-14
 -1      4030 7.04979E-03 2.79458E-04-3.56771E-14
 -1      4031 7.39408E-03 2.65729E-04-3.97399E-14
 -1      4032 7.53549E-03 2.74116E-04-4.13605E-14
 -1      4033 7.33131E-03 2.96622E-04-3.87952E-14
 -1      4034 7.67714E-03 2.82558E-04-4.30099E-14
 -1      4035 7.81899E-03 2.91035E-04-4.46885E-14
 -1      4036 7.61404E-03 3.13895E-04-4.20301E-14
 -1      4037 7.96102E-03 2.99555E-04-4.63957E-14
 -1      4038 8.10320E-03 3.08106E-04-4.81301E-14
 -1      4039 7.89768E-03 3.31249E-04-4.53822E-14
 -1      4040 8.24552E-03 3.16690E-04-4.98916E-14
 -1      4041 8.38795E-03 3.25300E-04-5.16808E-14
 -1      4042 8.18201E-03 3.48665E-04-4.88463E-14
 -1      4043 8.53047E-03 3.33936E-04-5.34939E-14
 -1      4044 8.67307E-03 3.42592E-04-5.53310E-14
 -1      4045 8.46684E-03 3.66128E-04-5.24182E-14
 -1      4046 8.81574E-03 3.51269E-04-5.71946E-14
 -1      4047 8.95847E-03 3.59963E-04-5.90811E-14
 -1      4048 8.75202E-03 3.83626E-04-5.60911E-14
 -1      4049 9.10124E-03 3.68672E-04-6.09899E-14
 -1      4050 9.24404E-03 3.77394E-04-6.29238E-14
 -1      4051 9.03746E-03 4.01151E-04-5.98607E-14
 -1      4052 9.38688E-03 3.86128E-04-6.48787E-14
 -1      4053 9.52973E-03 3.94872E-04-6.68545E-14
 -1      4054 9.32306E-03 4.18697E-04-6.37212E-14
 -1      4055 9.67261E-03 4.03625E-04-6.88534E-14
 -1      4056 9.81550E-03 4.12386E-04-7.08741E-14
 -1      4057 9.60877E-03 4.36257E-04-6.76709E-14
 -1      4058 9.95840E-03 4.21153E-04-7.29163E-14
 -1      4059 1.01013E-02 4.29926E-04-7.49810E-14
 -1      4060 9.89455E-03 4.53828E-04-7.17094E-14
 -1      4061 1.02442E-02 4.38704E-04-7.70642E-14
 -1      4062 1.03871E-02 4.47486E-04-7.91665E-14
 -1      4063 1.01804E-02 4.71408E-04-7.58323E-14
 -1      4064 1.05300E-02 4.56271E-04-8.12882E-14
 -1      4065 1.06730E-02 4.65060E-04-8.34311E-14
 -1      4066 1.04662E-02 4.88994E-04-8.00352E-14
 -1      4067 1.08159E-02 4.73851E-04-8.55932E-14
 -1      4068 1.09588E-02 4.82644E-04-8.77732E-14
 -1      4069 1.07520E-02 5.06584E-04-8.43158E-14
 -1      4070 1.11017E-02 4.91439E-04-8.99708E-14
 -1      4071 1.12446E-02 5.00235E-04-9.21873E-14
 -1      4072 1.10379E-02 5.24176E-04-8.86733E-14
 -1      4073 1.13875E-02 5.09032E-04-9.44220E-14
 -1      4074 1.15304E-02 5.17830E-04-9.66728E-14
 -1      4075 1.13237E-02 5.41771E-04-9.31005E-14
 -1      4076 1.16733E-02 5.26628E-04-9.89376E-14
 -1      4077 1.18162E-02 5.35428E-04-1.01217E-13
 -1      4078 1.16095E-02 5.59367E-04-9.75965E-14
 -1      4079 1.19591E-02 5.44227E-04-1.03512E-13
 -1      4080 1.21020E-02 5.53027E-04-1.05817E-13
 -1      4081 1.18953E-02 5.76964E-04-1.02151E-13
 -1      4082 1.22449E-02 5.61827E-04-1.08137E-13
 -1      4083 1.23877E-02 5.70627E-04-1.10470E-13
 -1      4084 1.21810E-02 5.94561E-04-1.06760E-13
 -1      4085 1.25306E-02 5.79427E-04-1.12811E-13
 -1      4086 1.26735E-02 5.88227E-04-1.15163E-13
 -1      4087 1.24668E-02 6.12159E-04-1.11419E-13
 -1      4088 1.27870E-02 5.93457E-04-1.17059E-13
 -1      4089 1.29299E-02 6.02257E-04-1.19431E-13
 -1      4090 1.29502E-02 6.36645E-04-1.19445E-13
 -1      4091 1.27232E-02 6.26187E-04-1.15651E-13
 -1      4092 6.14390E-03 3.35125E-04-2.56172E-14
 -1      4093 6.00747E-03 3.24956E-04-2.43157E-14
 -1      4094 6.97674E-03 3.95015E-04-3.40719E-14
 -1      4095 6.83659E-03 3.85190E-04-3.25882E-14
 -1      4096 7.25817E-03 4.14432E-04-3.71273E-14
 -1      4097 7.11727E-03 4.04757E-04-3.55856E-14
 -1      4098 7.04007E-03 3.65425E-04-3.49861E-14
 -1      4099 7.54082E-03 4.33555E-04-4.03030E-14
 -1      4100 7.39936E-03 4.24027E-04-3.86997E-14
 -1      4101 7.32161E-03 3.84162E-04-3.80773E-14
 -1      4102 7.82440E-03 4.52403E-04-4.35936E-14
 -1      4103 7.68251E-03 4.43011E-04-4.19336E-14
 -1      4104 7.60435E-03 4.02722E-04-4.12850E-14
 -1      4105 8.10868E-03 4.71004E-04-4.70021E-14
 -1      4106 7.96647E-03 4.61732E-04-4.52833E-14
 -1      4107 7.88800E-03 4.21111E-04-4.46113E-14
 -1      4108 8.39347E-03 4.89390E-04-5.05201E-14
 -1      4109 8.25102E-03 4.80221E-04-4.87476E-14
 -1      4110 8.17233E-03 4.39344E-04-4.80511E-14
 -1      4111 8.67863E-03 5.07595E-04-5.41473E-14
 -1      4112 8.53601E-03 4.98513E-04-5.23208E-14
 -1      4113 8.45716E-03 4.57441E-04-5.16025E-14
 -1      4114 8.96404E-03 5.25652E-04-5.78704E-14
 -1      4115 8.82131E-03 5.16640E-04-5.59976E-14
 -1      4116 8.74235E-03 4.75423E-04-5.52572E-14
 -1      4117 9.24962E-03 5.43589E-04-6.16897E-14
 -1      4118 9.10681E-03 5.34634E-04-5.97692E-14
 -1      4119 9.02779E-03 4.93310E-04-5.90090E-14
 -1      4120 9.53532E-03 5.61431E-04-6.56006E-14
 -1      4121 9.39246E-03 5.52521E-04-6.36331E-14
 -1      4122 9.31339E-03 5.11121E-04-6.28530E-14
 -1      4123 9.82109E-03 5.79201E-04-6.95990E-14
 -1      4124 9.67820E-03 5.70324E-04-6.75893E-14
 -1      4125 9.59910E-03 5.28871E-04-6.67867E-14
 -1      4126 1.01069E-02 5.96915E-04-7.36779E-14
 -1      4127 9.96398E-03 5.88064E-04-7.16288E-14
 -1      4128 9.88488E-03 5.46575E-04-7.08081E-14
 -1      4129 1.03927E-02 6.14589E-04-7.78434E-14
 -1      4130 1.02498E-02 6.05757E-04-7.57505E-14
 -1      4131 1.01707E-02 5.64245E-04-7.49140E-14
 -1      4132 1.06785E-02 6.32233E-04-8.20862E-14
 -1      4133 1.05356E-02 6.23414E-04-7.99549E-14
 -1      4134 1.04565E-02 5.81888E-04-7.91007E-14
 -1      4135 1.09644E-02 6.49856E-04-8.64049E-14
 -1      4136 1.08214E-02 6.41047E-04-8.42370E-14
 -1      4137 1.07423E-02 5.99513E-04-8.33677E-14
 -1      4138 1.12502E-02 6.67465E-04-9.07929E-14
 -1      4139 1.11073E-02 6.58662E-04-8.85896E-14
 -1      4140 1.10282E-02 6.17125E-04-8.77072E-14
 -1      4141 1.15360E-02 6.85064E-04-9.52499E-14
 -1      4142 1.13931E-02 6.76265E-04-9.30137E-14
 -1      4143 1.13140E-02 6.34728E-04-9.21158E-14
 -1      4144 1.18218E-02 7.02657E-04-9.97653E-14
 -1      4145 1.16789E-02 6.93861E-04-9.75001E-14
 -1      4146 1.15998E-02 6.52325E-04-9.65929E-14
 -1      4147 1.21075E-02 7.20247E-04-1.04338E-13
 -1      4148 1.19646E-02 7.11452E-04-1.02045E-13
 -1      4149 1.18856E-02 6.69918E-04-1.01128E-13
 -1      4150 1.23933E-02 7.37835E-04-1.08962E-13
 -1      4151 1.22504E-02 7.29041E-04-1.06645E-13
 -1      4152 1.21713E-02 6.87510E-04-1.05720E-13
 -1      4153 1.26790E-02 7.55422E-04-1.13630E-13
 -1      4154 1.25362E-02 7.46629E-04-1.11291E-13
 -1      4155 1.24571E-02 7.05100E-04-1.10361E-13
 -1      4156 1.29527E-02 7.73143E-04-1.18128E-13
 -1      4157 1.28098E-02 7.64349E-04-1.15771E-13
 -1      4158 1.27308E-02 7.22823E-04-1.14837E-13
 -1      4159 1.29923E-02 7.40678E-04-1.19137E-13
 -1      4160 6.69690E-03 3.75304E-04-3.11341E-14
 -1      4161 6.55771E-03 3.65337E-04-2.97101E-14
 -1      4162 6.76011E-03 3.46516E-04-3.20125E-14
 -1      4163 6.41911E-03 3.55323E-04-2.83154E-14
 -1      4164 6.28114E-03 3.45235E-04-2.69500E-14
 -1      4165 6.48215E-03 3.27463E-04-2.91577E-14
 -1      4166 4.38501E-03 1.17234E-04-1.09431E-14
 -1      4167 5.08526E-03 2.54279E-04-1.60880E-14
 -1      4168 4.96017E-03 2.44280E-04-1.50396E-14
 -1      4169 5.87196E-03 3.14801E-04-2.30444E-14
 -1      4170 5.73746E-03 3.04607E-04-2.18055E-14
 -1      4171 5.93458E-03 2.89171E-04-2.38131E-14
 -1      4172 4.70826E-03 1.22975E-04-1.36621E-14
 -1      4173 4.82954E-03 1.27494E-04-1.46709E-14
 -1      4174 4.90554E-03 1.55093E-04-1.50988E-14
 -1      4175 1.30934E-02 6.95740E-04-1.21328E-13
 -1      4176 1.29626E-02 6.86811E-04-1.19164E-13
 -1      4177 5.34142E-03 2.74267E-04-1.82799E-14
 -1      4178 5.21239E-03 2.64198E-04-1.71676E-14
 -1      4179 5.14697E-03 2.32944E-04-1.67412E-14
 -1      4180 6.20675E-03 3.08320E-04-2.64242E-14
 -1      4181 4.44890E-03 1.37679E-04-1.12233E-14
 -1      4182 4.47824E-03 1.16098E-04-1.17643E-14
 -1      4183 4.58455E-03 1.18199E-04-1.26451E-14
 -1      4184 4.49690E-03 1.54536E-04-1.14691E-14
 -1      4185 5.66646E-03 2.70134E-04-2.13287E-14
 -1      4186 5.60412E-03 2.94471E-04-2.05976E-14
 -1      4187 5.47203E-03 2.84314E-04-1.94226E-14
 -1      4188 4.66155E-03 1.43283E-04-1.30494E-14
 -1      4189 5.15332E-03 2.00723E-04-1.69918E-14
 -1      4190 5.28050E-03 2.08665E-04-1.80991E-14
 -1      4191 4.90560E-03 1.85419E-04-1.48734E-14
 -1      4192 5.02823E-03 1.92840E-04-1.59162E-14
 -1      4193 5.40956E-03 2.16920E-04-1.92373E-14
 -1      4194 5.54022E-03 2.25241E-04-2.04071E-14
 -1      4195 5.67234E-03 2.33784E-04-2.16096E-14
 -1      4196 5.80572E-03 2.42377E-04-2.28435E-14
 -1      4197 5.94026E-03 2.51122E-04-2.41087E-14
 -1      4198 6.07579E-03 2.59896E-04-2.54058E-14
 -1      4199 6.21225E-03 2.68770E-04-2.67341E-14
 -1      4200 6.34950E-03 2.77655E-04-2.80925E-14
 -1      4201 6.48749E-03 2.86601E-04-2.94817E-14
 -1      4202 6.62611E-03 2.95546E-04-3.09009E-14
 -1      4203 6.76532E-03 3.04525E-04-3.23499E-14
 -1      4204 6.90502E-03 3.13493E-04-3.38280E-14
 -1      4205 7.04518E-03 3.22477E-04-3.53362E-14
 -1      4206 7.18573E-03 3.31446E-04-3.68736E-14
 -1      4207 7.32663E-03 3.40420E-04-3.84414E-14
 -1      4208 7.46783E-03 3.49376E-04-4.00368E-14
 -1      4209 7.60930E-03 3.58330E-04-4.16616E-14
 -1      4210 7.75100E-03 3.67266E-04-4.33163E-14
 -1      4211 7.89291E-03 3.76196E-04-4.50004E-14
 -1      4212 8.03498E-03 3.85111E-04-4.67129E-14
 -1      4213 8.17721E-03 3.94017E-04-4.84522E-14
 -1      4214 8.31956E-03 4.02910E-04-5.02205E-14
 -1      4215 8.46202E-03 4.11794E-04-5.20157E-14
 -1      4216 8.60456E-03 4.20667E-04-5.38336E-14
 -1      4217 8.74719E-03 4.29532E-04-5.56772E-14
 -1      4218 8.88988E-03 4.38387E-04-5.75465E-14
 -1      4219 9.03262E-03 4.47236E-04-5.94378E-14
 -1      4220 9.17540E-03 4.56077E-04-6.13537E-14
 -1      4221 9.31822E-03 4.64912E-04-6.32904E-14
 -1      4222 9.46106E-03 4.73742E-04-6.52499E-14
 -1      4223 9.60393E-03 4.82567E-04-6.72334E-14
 -1      4224 9.74681E-03 4.91387E-04-6.92364E-14
 -1      4225 9.88970E-03 5.00204E-04-7.12603E-14
 -1      4226 1.00326E-02 5.09017E-04-7.33083E-14
 -1      4227 1.01755E-02 5.17828E-04-7.53758E-14
 -1      4228 1.03184E-02 5.26636E-04-7.74640E-14
 -1      4229 1.04613E-02 5.35442E-04-7.95720E-14
 -1      4230 1.06043E-02 5.44246E-04-8.16976E-14
 -1      4231 1.07472E-02 5.53049E-04-8.38448E-14
 -1      4232 1.08901E-02 5.61851E-04-8.60106E-14
 -1      4233 1.10330E-02 5.70651E-04-8.81923E-14
 -1      4234 1.11759E-02 5.79451E-04-9.03922E-14
 -1      4235 1.13188E-02 5.88250E-04-9.26104E-14
 -1      4236 1.14617E-02 5.97048E-04-9.48467E-14
 -1      4237 1.16046E-02 6.05846E-04-9.70970E-14
 -1      4238 1.17475E-02 6.14644E-04-9.93625E-14
 -1      4239 1.18904E-02 6.23441E-04-1.01643E-13
 -1      4240 1.20333E-02 6.32238E-04-1.03936E-13
 -1      4241 1.21762E-02 6.41035E-04-1.06245E-13
 -1      4242 1.23191E-02 6.49833E-04-1.08563E-13
 -1      4243 1.24619E-02 6.58629E-04-1.10894E-13
 -1      4244 1.26048E-02 6.67426E-04-1.13233E-13
 -1      4245 4.54890E-03 1.74789E-04-1.17782E-14
 -1      4246 4.60183E-03 1.58889E-04-1.23749E-14
 -1      4247 4.72140E-03 1.65634E-04-1.33810E-14
 -1      4248 4.58652E-03 1.93633E-04-1.20176E-14
 -1      4249 1.27356E-02 6.76355E-04-1.15374E-13
 -1      4250 4.87591E-03 2.35312E-04-1.43485E-14
 -1      4251 4.77728E-03 2.21139E-04-1.35551E-14
 -1      4252 4.75362E-03 1.93475E-04-1.34768E-14
 -1      4253 4.67974E-03 2.06636E-04-1.27732E-14
 -1      4254 4.93704E-03 2.15552E-04-1.49689E-14
 -1      4255 5.40345E-03 2.51348E-04-1.89708E-14
 -1      4256 1.28491E-02 6.81583E-04-1.17268E-13
 -1      4257 4.82230E-03 1.78065E-04-1.41836E-14
 -3
    1PSTEP                         2           1           1          
  100CL  101 1.000000000        4257                     0    1           1
 -4  STRESS      6    1
 -5  SXX         1    4    1    1
 -5  SYY         1    4    2    2
 -5  SZZ         1    4    3    3
 -5  SXY         1    4    1    2
 -5  SYZ         1    4    2    3
 -5  SZX         1    4    3    1
 -1         1 6.01153E+01 7.19523E-01 3.14583E+00-1.91721E-01-1.75554E-14 1.14325E-13
 -1         2-8.18367E-01-1.84092E+01-3.13093E+00-9.60580E-02 1.51028E-12 8.79852E-14
 -1         3 1.99998E+01 1.75507E-06-1.61901E-05 1.90269E-06 2.12755E-13-2.99742E-14
 -1         4 1.99998E+01 1.86527E-06-1.62001E-05-2.03785E-06 3.06043E-13 6.92667E-15
 -1         5 4.49892E+01 8.47752E+00 3.83488E+00 8.38361E+00-4.04399E-14 3.57211E-12
 -1         6 4.61523E+01 1.58833E+01 6.79175E+00-1.12476E+01-2.49301E-13 2.61841E-12
 -1         7 2.60162E+01 7.45042E+00-1.81929E-01-6.21378E+00-2.54796E-14 1.24570E-13
 -1         8 2.40851E+01 7.26529E+00 6.64583E-02-4.35285E+00-2.13579E-14-5.23356E-13
 -1         9 2.32166E+01 6.97205E+00 1.71478E-01-3.02195E+00-1.32533E-15-7.31046E-13
 -1        10 2.21439E+01 6.62388E+00 2.78214E-01-1.44849E+00 1.56819E-14-7.52664E-13
 -1        11 2.00145E+01 5.97919E+00 3.39235E-01 3.79579E-01 3.35842E-14-6.91459E-13
 -1        12 1.62921E+01 4.89913E+00 2.58447E-01 2.00518E+00 5.12090E-14-6.02948E-13
 -1        13 1.13942E+01 3.51597E+00-1.45662E-02 2.64356E+00 6.00631E-14-5.41316E-13
 -1        14 7.35607E+00 2.39167E+00-3.12047E-01 1.84910E+00 4.22856E-14-5.22803E-13
 -1        15 5.98500E+00 1.98910E+00-4.37962E-01 2.47210E-01 9.94604E-15-5.38122E-13
 -1        16 7.57610E+00 2.42405E+00-3.17502E-01-1.33889E+00-2.17049E-14-5.67442E-13
 -1        17 1.16797E+01 3.58993E+00-1.55851E-02-2.06573E+00-2.94764E-14-5.76138E-13
 -1        18 1.68531E+01 5.07189E+00 2.60731E-01-1.34062E+00-1.67089E-14-4.98664E-13
 -1        19 2.08547E+01 6.24471E+00 3.32455E-01 3.91421E-01 4.91274E-15-3.14083E-13
 -1        20 2.33560E+01 7.00951E+00 2.53612E-01 2.28483E+00 2.11636E-14-5.59969E-15
 -1        21 2.51970E+01 7.60531E+00 1.33778E-01 3.98648E+00 3.49581E-14 5.34629E-13
 -1        22 2.80878E+01 8.46583E+00 1.69112E-01 5.87043E+00 3.66374E-15 1.52813E-12
 -1        23 2.89198E+01-1.75910E+00-1.18155E+00-5.95459E-01-1.54876E-13 1.85221E-12
 -1        24 2.35259E+01-1.30369E-01-3.65129E-01 6.19662E-02-4.84075E-14 1.13835E-12
 -1        25 2.13845E+01-6.82352E-02-8.26680E-02 4.12832E-03-1.47543E-14 5.55411E-13
 -1        26 1.98226E+01-4.71718E-02-4.95029E-02-1.93956E-02-7.09372E-15 1.39323E-13
 -1        27 1.89561E+01-4.68339E-02-6.92132E-02 6.27276E-03 6.69126E-15-1.23657E-13
 -1        28 1.89437E+01-3.88860E-02-6.58053E-02 4.72077E-02-1.08162E-14-2.79544E-13
 -1        29 1.96841E+01-2.15643E-02-3.34617E-02 7.56526E-02 3.72098E-14-4.66790E-13
 -1        30 2.08157E+01-1.62316E-03 6.68204E-03 7.77812E-02-9.03554E-15-5.62085E-13
 -1        31 2.19147E+01 1.30786E-02 3.39448E-02 5.87906E-02-9.42833E-15-6.45657E-13
 -1        32 2.26891E+01 1.91688E-02 4.16096E-02 3.25279E-02-4.24493E-14-7.78098E-13
 -1        33 2.30441E+01 1.80469E-02 3.50859E-02 1.01465E-02 5.67961E-14-8.67914E-13
 -1        34 2.30328E+01 1.31182E-02 2.29548E-02-4.05177E-03-6.60290E-15-7.70976E-13
 -1        35 2.27722E+01 7.40362E-03 1.13729E-02-1.07034E-02-1.31670E-14-8.28415E-13
 -1        36 2.23805E+01 2.60918E-03 2.96260E-03-1.22784E-02 4.01531E-14-7.77867E-13
 -1        37 2.19485E+01-7.07773E-04-2.06736E-03-1.11576E-02-5.51085E-14-8.87633E-13
 -1        38 2.15338E+01-2.63797E-03-4.49796E-03-8.97752E-03-1.43112E-14-1.09662E-12
 -1        39 2.11670E+01-3.51850E-03-5.25858E-03-6.65469E-03-1.96745E-14-1.11278E-12
 -1        40 2.08601E+01-3.70671E-03-5.08857E-03-4.61029E-03 6.99549E-14-1.20420E-12
 -1        41 2.06135E+01-3.49091E-03-4.47873E-03-2.98169E-03 1.54445E-14-1.28870E-12
 -1        42 2.04219E+01-3.07366E-03-3.71916E-03-1.76649E-03-4.30097E-14-1.46472E-12
 -1        43 2.02774E+01-2.58426E-03-2.96491E-03-9.05381E-04-3.80106E-14-1.38825E-12
 -1        44 2.01714E+01-2.09844E-03-2.28913E-03-3.24386E-04 3.85294E-14-9.86395E-13
 -1        45 2.00959E+01-1.65604E-03-1.71875E-03 4.62191E-05-2.45744E-14-9.22747E-13
 -1        46 2.00439E+01-1.27440E-03-1.25636E-03 2.65017E-04 2.70156E-14-9.09623E-13
 -1        47 2.00096E+01-9.57575E-04-8.92827E-04 3.78226E-04 3.33672E-14-5.73661E-13
 -1        48 1.99882E+01-7.02309E-04-6.14319E-04 4.20840E-04 9.01192E-15-4.47930E-13
 -1        49 1.99760E+01-5.01770E-04-4.06003E-04 4.18525E-04 9.63993E-15-8.80479E-13
 -1        50 1.99702E+01-3.47795E-04-2.53902E-04 3.89577E-04 2.22269E-14-1.27757E-12
 -1        51 1.99686E+01-2.32168E-04-1.45714E-04 3.46658E-04-1.91401E-14-1.04624E-12
 -1        52 1.99696E+01-1.47302E-04-7.10659E-05 2.98231E-04-1.29839E-15-9.60163E-13
 -1        53 1.99721E+01-8.65503E-05-2.14868E-05 2.49700E-04 1.67391E-14-8.37165E-13
 -1        54 1.99755E+01-4.43024E-05 9.77262E-06 2.04294E-04 9.13594E-14-6.09226E-13
 -1        55 1.99790E+01-1.59584E-05 2.79722E-05 1.63734E-04-3.96305E-14-5.51379E-13
 -1        56 1.99825E+01 2.16426E-06 3.71277E-05 1.28732E-04 1.10063E-14-5.34933E-13
 -1        57 1.99857E+01 1.29509E-05 4.02430E-05 9.93494E-05-1.33335E-15-3.43721E-13
 -1        58 1.99886E+01 1.86172E-05 3.95172E-05 7.52564E-05-7.19815E-16-4.30573E-13
 -1        59 1.99910E+01 2.08304E-05 3.65225E-05 5.59121E-05 2.70444E-14-3.57655E-13
 -1        60 1.99930E+01 2.08198E-05 3.23527E-05 4.06845E-05-9.91731E-14-4.45713E-13
 -1        61 1.99947E+01 1.94718E-05 2.77437E-05 2.89284E-05 7.08468E-14-5.20656E-13
 -1        62 1.99960E+01 1.74100E-05 2.31703E-05 2.00332E-05-4.78116E-14-4.82274E-13
 -1        63 1.99971E+01 1.50613E-05 1.89228E-05 1.34472E-05-1.10200E-13-9.81278E-13
 -1        64 1.99979E+01 1.27092E-05 1.51671E-05 8.68734E-06 9.58048E-14-1.25004E-12
 -1        65 1.99985E+01 1.05351E-05 1.19945E-05 5.33696E-06-3.06920E-14-8.14130E-13
 -1        66 1.99990E+01 8.65085E-06 9.46962E-06 3.03144E-06-3.39755E-14-7.93610E-13
 -1        67 1.99994E+01 7.11628E-06 7.66789E-06 1.42635E-06 1.21249E-13-4.08942E-13
 -1        68 1.99996E+01 5.93535E-06 6.66811E-06 1.37129E-07-1.06063E-13-4.73471E-14
 -1        69 1.99997E+01 4.98747E-06 6.32458E-06-1.35728E-06 1.01596E-13-1.78947E-13
 -1        70 1.99998E+01 3.56601E-06 5.23025E-06-4.04344E-06-5.20698E-14 5.17588E-14
 -1        71 1.99998E+01-6.25450E-07-2.20923E-06-7.10635E-06-8.30614E-15 1.01788E-13
 -1        72 2.92753E+01-5.51344E-01-1.21503E+00-4.44181E-01 2.19755E-14 3.47361E-12
 -1        73 2.59866E+01-8.03727E-02-3.11733E-01-4.06391E-02 3.20122E-14 2.96049E-12
 -1        74 2.33485E+01-4.00615E-02-6.61803E-02 6.91089E-02 2.37737E-14 2.52456E-12
 -1        75 2.10577E+01-4.51272E-02-7.50565E-02 9.87561E-02-2.84772E-14 2.35969E-12
 -1        76 1.96424E+01-4.17798E-02-1.16605E-01 6.16848E-02-3.98379E-15 2.20463E-12
 -1        77 1.95302E+01-2.51593E-02-1.05713E-01-1.74412E-02 1.35684E-14 1.96490E-12
 -1        78 2.05656E+01-3.48953E-03-4.52677E-02-8.29676E-02 5.18444E-15 1.73196E-12
 -1        79 2.21002E+01 1.25294E-02 2.41525E-02-1.03281E-01 1.39592E-14 1.72903E-12
 -1        80 2.34355E+01 1.86751E-02 6.14685E-02-8.19064E-02 1.07336E-14 1.58309E-12
 -1        81 2.41866E+01 1.69716E-02 6.22195E-02-4.53391E-02-1.19759E-14 1.40563E-12
 -1        82 2.43259E+01 1.14911E-02 4.38846E-02-1.40878E-02 3.94292E-15 1.40644E-12
 -1        83 2.40204E+01 5.59761E-03 2.27301E-02 5.16818E-03-9.37672E-16 1.32974E-12
 -1        84 2.34738E+01 1.02693E-03 6.65936E-03 1.39649E-02-3.10545E-14 1.10832E-12
 -1        85 2.28475E+01-1.82650E-03-2.80227E-03 1.60749E-02 2.68505E-14 8.18453E-13
 -1        86 2.22422E+01-3.25367E-03-7.13467E-03 1.47858E-02 2.29340E-14 6.33731E-13
 -1        87 2.17091E+01-3.71039E-03-8.31402E-03 1.22086E-02-4.92116E-14 5.05495E-13
 -1        88 2.12659E+01-3.60052E-03-7.87639E-03 9.45192E-03 1.06912E-14 5.64555E-13
 -1        89 2.09122E+01-3.20923E-03-6.77162E-03 6.99863E-03-1.15058E-15 5.44978E-13
 -1        90 2.06383E+01-2.71344E-03-5.50673E-03 5.00009E-03 1.46939E-14 5.55858E-13
 -1        91 2.04318E+01-2.21203E-03-4.31825E-03 3.45430E-03-7.63962E-14 7.74624E-13
 -1        92 2.02796E+01-1.75412E-03-3.29680E-03 2.29997E-03 6.26194E-14 6.58325E-13
 -1        93 2.01701E+01-1.35964E-03-2.46140E-03 1.46141E-03 1.65206E-14 3.35188E-13
 -1        94 2.00934E+01-1.03252E-03-1.79952E-03 8.67395E-04-2.68490E-14 5.81223E-13
 -1        95 2.00413E+01-7.68690E-04-1.28709E-03 4.57713E-04 2.99483E-14 3.16757E-13
 -1        96 2.00074E+01-5.60572E-04-8.97865E-04 1.84060E-04 8.91043E-14-5.53438E-13
 -1        97 1.99865E+01-3.99543E-04-6.07416E-04 8.88159E-06 4.26578E-15-7.64615E-13
 -1        98 1.99748E+01-2.77197E-04-3.94590E-04-9.64288E-05-1.23607E-13-2.43078E-13
 -1        99 1.99693E+01-1.85929E-04-2.41750E-04-1.53313E-04 7.33712E-14 1.58497E-13
 -1       100 1.99680E+01-1.19164E-04-1.34551E-04-1.77608E-04-5.42788E-14 9.59837E-14
 -1       101 1.99693E+01-7.13848E-05-6.15346E-05-1.80827E-04 7.84864E-15 3.59883E-13
 -1       102 1.99720E+01-3.80686E-05-1.36850E-05-1.71191E-04-4.70884E-14 2.94342E-14
 -1       103 1.99754E+01-1.55788E-05 1.59912E-05-1.54444E-04-8.29896E-15-2.09343E-13
 -1       104 1.99790E+01-1.04083E-06 3.28414E-05-1.34486E-04 5.48708E-14-4.35976E-13
 -1       105 1.99825E+01 7.78007E-06 4.08924E-05-1.13866E-04-2.81414E-14-6.72785E-14
 -1       106 1.99857E+01 1.25929E-05 4.31254E-05-9.41631E-05 2.24291E-14-2.97995E-13
 -1       107 1.99886E+01 1.46824E-05 4.17055E-05-7.62720E-05 1.64944E-14-7.94047E-13
 -1       108 1.99910E+01 1.49968E-05 3.81705E-05-6.06186E-05-1.47863E-13-4.32632E-13
 -1       109 1.99931E+01 1.42219E-05 3.35832E-05-4.73203E-05-6.95370E-14 4.81449E-13
 -1       110 1.99947E+01 1.28428E-05 2.86538E-05-3.63014E-05 7.11544E-14 4.75879E-13
 -1       111 1.99961E+01 1.11935E-05 2.38361E-05-2.73754E-05-1.23158E-13 8.69005E-13
 -1       112 1.99971E+01 9.49784E-06 1.94041E-05-2.03015E-05 5.99711E-14 7.42429E-13
 -1       113 1.99979E+01 7.90084E-06 1.55114E-05-1.48216E-05-1.10574E-13 1.70810E-13
 -1       114 1.99986E+01 6.49286E-06 1.22409E-05-1.06808E-05 2.67339E-14-6.54444E-14
 -1       115 1.99990E+01 5.32742E-06 9.64855E-06-7.63368E-06 3.95936E-14 9.05746E-14
 -1       116 1.99994E+01 4.42180E-06 7.80734E-06-5.42679E-06-4.68641E-14 5.01182E-13
 -1       117 1.99996E+01 3.75251E-06 6.80503E-06-3.74608E-06 4.61244E-15 4.43209E-13
 -1       118 1.99998E+01 3.18608E-06 6.48451E-06-2.09924E-06 4.64723E-14 3.85401E-15
 -1       119 1.99998E+01 1.97840E-06 5.19268E-06 8.43246E-07-3.61090E-14-5.70606E-13
 -1       120 1.99998E+01-2.35299E-06-2.54273E-06 6.19334E-06 1.35929E-14-1.44714E-13
 -1       121 1.99998E+01 2.06309E-05-1.47520E-06 8.05108E-06-3.92444E-13-9.34328E-14
 -1       122 1.99998E+01 1.68681E-05 5.91408E-06 2.12074E-06 3.43640E-13 1.64429E-14
 -1       123 1.99998E+01-5.99992E-05 5.45965E-06-2.16050E-06 9.23077E-13 2.20051E-13
 -1       124 1.99998E+01-1.90446E-04 2.71630E-06-4.49349E-06 7.45492E-13 1.22611E-13
 -1       125 1.99998E+01-3.45394E-04-2.93926E-07-5.14038E-06 3.33107E-13-2.38036E-13
 -1       126 1.99998E+01-4.91941E-04-2.81470E-06-4.60368E-06-1.48237E-12-1.56496E-13
 -1       127 1.99998E+01-6.08040E-04-4.62814E-06-3.12926E-06-1.99797E-12 5.07531E-14
 -1       128 1.99998E+01-6.71111E-04-5.57547E-06-1.09321E-06-1.31750E-12 2.75247E-14
 -1       129 1.99998E+01-6.70593E-04-5.56742E-06 1.12716E-06-3.14732E-13 2.18022E-13
 -1       130 1.99998E+01-6.06573E-04-4.60771E-06 3.15224E-06-9.21619E-14-3.90147E-13
 -1       131 1.99998E+01-4.89798E-04-2.76037E-06 4.65251E-06-1.93494E-12-1.60392E-13
 -1       132 1.99998E+01-3.42948E-04-2.51676E-07 5.14741E-06-2.03270E-12 5.24089E-13
 -1       133 1.99998E+01-1.88149E-04 2.73555E-06 4.44423E-06-1.71759E-12-5.54097E-14
 -1       134 1.99998E+01-5.77883E-05 5.74447E-06 2.49288E-06-7.01919E-13 1.82778E-13
 -1       135 1.99998E+01 1.65712E-05 5.28538E-06-2.92847E-06-6.32362E-13-3.08409E-13
 -1       136 1.99998E+01 2.00283E-05-1.61904E-06-1.24569E-05-3.63959E-13 4.41760E-14
 -1       137-1.14935E+00-1.38392E+01-2.82403E+00-2.46338E+00 3.26822E-12 6.82635E-13
 -1       138-3.78627E-01-3.15035E+00-1.97723E+00-6.48406E-01 4.07141E-12 2.03065E-12
 -1       139 5.17902E+00 6.86462E+00-7.82023E-01 6.16758E+00 4.02423E-12 3.10779E-12
 -1       140 1.89447E+01 1.17806E+01 7.32650E-01 1.46613E+01 2.93493E-12 3.40455E-12
 -1       141 3.76184E+01 1.00267E+01 2.12493E+00 1.86925E+01 1.46264E-12 2.62901E-12
 -1       142 5.43457E+01 4.71213E+00 3.11969E+00 1.44630E+01 3.83651E-13 1.12788E-12
 -1       143 6.16672E+01 1.00196E+00 3.39262E+00 3.18605E+00 4.49640E-14-8.86291E-13
 -1       144 5.54839E+01 1.93165E+00 2.82013E+00-8.36916E+00 4.48034E-13-2.70417E-12
 -1       145 3.90495E+01 5.76859E+00 1.56724E+00-1.43837E+01 1.49122E-12-3.76194E-12
 -1       146 2.02375E+01 8.09416E+00 3.62878E-02-1.27805E+01 2.58299E-12-3.86130E-12
 -1       147 7.38697E+00 6.38524E+00-1.13073E+00-7.06974E+00 3.26861E-12-3.27227E-12
 -1       148 6.94179E-01 1.32304E+00-1.78013E+00-1.34325E+00 3.28704E-12-2.12366E-12
 -1       149-7.87965E-01-3.95383E+00-1.82036E+00 1.26770E+00 2.50705E-12-9.64180E-13
 -1       150-4.56768E-01-6.76320E+00-1.60688E+00 8.86715E-01 1.18343E-12-2.35503E-13
 -1       151-3.39378E-01-6.79536E+00-1.51224E+00-3.23959E-01-4.73878E-13-8.60804E-14
 -1       152-6.54606E-01-4.03242E+00-1.60459E+00-1.03923E+00-1.92940E-12-6.07851E-13
 -1       153 5.76827E-01 1.17082E+00-1.59444E+00 1.22378E+00-2.88763E-12-1.64743E-12
 -1       154 5.66725E+00 6.17692E+00-1.13451E+00 6.18521E+00-2.95614E-12-2.59612E-12
 -1       155 1.79333E+01 8.53620E+00-1.01305E-01 1.23721E+01-2.31926E-12-3.12067E-12
 -1       156 3.42795E+01 6.76514E+00 1.18725E+00 1.48068E+01-1.35578E-12-2.89074E-12
 -1       157 5.15315E+01 2.75267E+00 2.45128E+00 1.03333E+01-4.30850E-13-1.63375E-12
 -1       158 5.57850E+01 3.49700E+00 3.10684E+00-1.22966E+01-5.19433E-13 1.85266E-12
 -1       159 3.92906E+01 9.20482E+00 2.23759E+00-1.83247E+01-1.49322E-12 3.05600E-12
 -1       160 2.03188E+01 1.20129E+01 8.93606E-01-1.54312E+01-2.42217E-12 3.03896E-12
 -1       161 6.41124E+00 8.01919E+00-5.38945E-01-7.29545E+00-3.24324E-12 2.51982E-12
 -1       162-3.23185E-01-2.43314E+00-1.87126E+00 4.66452E-01-2.94648E-12 1.52570E-12
 -1       163-1.13267E+00-1.37054E+01-2.81307E+00 2.62326E+00-8.92397E-13 3.07566E-13
 -1       164 2.58223E+01 4.31326E+00-1.34921E-01-4.82026E+00-3.43583E-13-1.40332E-13
 -1       165 2.46933E+01 4.54126E+00-6.63258E-02-4.00556E+00-2.13165E-13-4.58449E-13
 -1       166 2.40249E+01 4.05632E+00-3.74417E-02-2.78443E+00-3.14158E-15-5.31099E-13
 -1       167 2.27667E+01 3.26174E+00-1.46997E-02-1.21641E+00 2.17912E-13-4.87811E-13
 -1       168 1.98633E+01 2.63091E+00 9.65365E-03 6.50433E-01 4.34978E-13-4.42826E-13
 -1       169 1.47347E+01 2.76881E+00 3.60253E-02 2.23870E+00 5.89091E-13-4.34080E-13
 -1       170 8.76020E+00 3.68876E+00 4.94295E-02 2.50418E+00 5.82135E-13-5.16788E-13
 -1       171 4.92322E+00 4.43093E+00 5.55241E-02 1.33344E+00 3.79228E-13-6.19525E-13
 -1       172 4.68519E+00 4.45583E+00 5.12515E-02-5.15353E-01 8.75966E-14-6.66012E-13
 -1       173 8.53995E+00 3.69705E+00 4.71434E-02-1.88042E+00-1.55511E-13-6.12267E-13
 -1       174 1.50899E+01 2.73781E+00 2.94795E-02-1.61177E+00-2.22579E-13-4.41190E-13
 -1       175 2.06127E+01 2.65133E+00 2.67078E-03 1.24576E-01-7.92630E-14-2.41179E-13
 -1       176 2.38334E+01 3.35486E+00-2.72299E-02 2.09997E+00 1.19073E-13-1.86309E-15
 -1       177 2.56683E+01 4.11513E+00-6.48185E-02 3.75045E+00 2.79995E-13 3.58703E-13
 -1       178 2.77216E+01 4.13164E+00-9.04612E-02 5.01493E+00 3.16806E-13 9.78266E-13
 -1       179 3.00401E+01 1.47327E+00-4.40147E-01 4.38806E+00 2.27512E-13 1.77718E-12
 -1       180 2.69908E+01 1.05546E+00 5.64260E-03-3.23584E+00-4.12149E-13 4.31537E-13
 -1       181 2.45049E+01 1.75450E-01-1.49083E-02-1.90660E+00-3.30973E-13 3.01224E-13
 -1       182 2.27388E+01 1.88074E-01 1.76655E-02-1.30084E+00-2.42709E-13 1.40082E-13
 -1       183 2.16314E+01 2.43913E-01 1.38740E-02-7.31380E-01-1.88361E-13-1.71430E-14
 -1       184 2.11003E+01 2.58211E-01 7.75573E-03-9.03989E-02-1.27048E-13-1.39527E-13
 -1       185 2.11083E+01 1.80079E-01 4.77648E-03 4.61215E-01-1.36988E-13-2.55415E-13
 -1       186 2.14810E+01 4.92820E-02 3.28150E-03 7.48326E-01-9.90086E-14-3.60175E-13
 -1       187 2.19705E+01-6.40451E-02 1.61171E-03 7.32768E-01-5.03525E-14-3.85482E-13
 -1       188 2.23682E+01-1.19760E-01-4.25233E-04 5.09860E-01-7.03307E-14-3.59304E-13
 -1       189 2.25675E+01-1.20578E-01-1.92391E-03 2.18117E-01-3.36682E-14-3.42854E-13
 -1       190 2.25576E+01-9.09975E-02-2.49005E-03-3.89847E-02-3.15633E-15-4.57460E-13
 -1       191 2.23829E+01-5.40860E-02-2.23482E-03-2.15671E-01-1.07334E-14-5.03103E-13
 -1       192 2.21055E+01-2.28110E-02-1.51766E-03-3.09470E-01-2.52955E-15-5.20796E-13
 -1       193 2.17826E+01-1.29273E-03-7.14931E-04-3.38575E-01-5.53873E-14-5.55007E-13
 -1       194 2.14565E+01 1.11745E-02-4.51401E-05-3.25568E-01-9.19522E-14-3.87370E-13
 -1       195 2.11540E+01 1.69555E-02 4.12359E-04-2.89608E-01 7.06770E-15-4.18651E-13
 -1       196 2.08891E+01 1.84498E-02 6.65979E-04-2.44250E-01-2.06602E-14-4.26952E-13
 -1       197 2.06670E+01 1.75142E-02 7.62499E-04-1.97931E-01-1.19576E-13-5.41182E-13
 -1       198 2.04870E+01 1.54014E-02 7.55007E-04-1.55280E-01-1.61345E-13-6.81062E-13
 -1       199 2.03452E+01 1.28794E-02 6.87994E-04-1.18406E-01 8.62629E-14-6.48887E-13
 -1       200 2.02364E+01 1.03800E-02 5.93362E-04-8.78880E-02 1.60018E-13-5.41841E-13
 -1       201 2.01549E+01 8.12007E-03 4.91596E-04-6.34600E-02 8.87905E-15-5.41786E-13
 -1       202 2.00954E+01 6.18789E-03 3.94556E-04-4.44437E-02 1.35196E-13-4.34419E-13
 -1       203 2.00532E+01 4.59917E-03 3.08242E-04-3.00080E-02 2.03355E-13-2.01850E-13
 -1       204 2.00242E+01 3.33166E-03 2.34962E-04-1.93146E-02-3.99440E-14-1.38588E-13
 -1       205 2.00051E+01 2.34587E-03 1.74861E-04-1.15936E-02-1.94979E-13-1.94367E-13
 -1       206 1.99932E+01 1.59685E-03 1.26927E-04-6.17638E-03-1.50955E-13-2.54404E-13
 -1       207 1.99864E+01 1.04064E-03 8.96140E-05-2.50454E-03 5.80096E-14-3.92169E-13
 -1       208 1.99832E+01 6.37424E-04 6.12177E-05-1.25252E-04 8.85243E-14-3.28749E-13
 -1       209 1.99823E+01 3.52889E-04 4.00875E-05 1.31967E-03 7.81380E-14-2.82208E-13
 -1       210 1.99829E+01 1.58459E-04 2.47319E-05 2.10736E-03 3.77146E-14-1.92972E-13
 -1       211 1.99843E+01 3.09844E-05 1.38642E-05 2.44771E-03 9.40182E-14-1.78105E-13
 -1       212 1.99862E+01-4.78673E-05 6.41139E-06 2.49633E-03 7.53141E-14-1.08263E-13
 -1       213 1.99882E+01-9.23059E-05 1.50206E-06 2.36592E-03 3.72783E-14-1.07395E-13
 -1       214 1.99901E+01-1.13127E-04-1.55543E-06 2.13601E-03-6.04359E-14-2.46095E-13
 -1       215 1.99919E+01-1.18364E-04-3.29865E-06 1.86098E-03 2.97841E-15-2.98615E-13
 -1       216 1.99935E+01-1.13868E-04-4.13722E-06 1.57653E-03-8.64996E-14-4.99855E-13
 -1       217 1.99949E+01-1.03796E-04-4.37714E-06 1.30478E-03-7.06519E-14-2.71431E-13
 -1       218 1.99960E+01-9.10246E-05-4.24242E-06 1.05823E-03-9.00787E-14-4.19584E-13
 -1       219 1.99970E+01-7.74781E-05-3.89351E-06 8.42735E-04-1.26926E-13-5.24573E-13
 -1       220 1.99977E+01-6.43973E-05-3.44252E-06 6.59703E-04-4.78067E-14-9.80344E-14
 -1       221 1.99983E+01-5.25481E-05-2.96540E-06 5.07679E-04 3.24087E-13-3.14038E-14
 -1       222 1.99988E+01-4.23902E-05-2.51000E-06 3.83428E-04 7.69220E-14 2.71745E-13
 -1       223 1.99991E+01-3.42097E-05-2.09378E-06 2.82631E-04 1.57411E-13 3.34478E-13
 -1       224 1.99994E+01-2.81971E-05-1.70087E-06 2.00333E-04 2.75773E-13 1.51359E-13
 -1       225 1.99996E+01-2.44108E-05-1.29208E-06 1.31312E-04-2.51504E-14 1.93618E-13
 -1       226 1.99997E+01-2.23850E-05-9.85558E-07 7.11102E-05 2.12466E-13 1.71690E-13
 -1       227 1.99998E+01-1.96649E-05-7.53683E-07 1.87512E-05-4.35380E-14 3.93962E-13
 -1       228 2.76743E+01 2.00644E-01-5.83977E-02 2.41201E+00 2.69684E-13 1.64375E-12
 -1       229 2.52267E+01 8.57269E-02 1.13105E-02 1.82835E+00 2.10332E-13 1.48065E-12
 -1       230 2.33842E+01 1.83390E-01 9.23184E-03 1.40929E+00 1.03420E-13 1.32324E-12
 -1       231 2.21960E+01 2.98684E-01-1.58890E-03 7.08929E-01 1.53605E-13 1.14480E-12
 -1       232 2.18132E+01 2.85371E-01-5.13890E-03-1.32778E-01 1.59974E-13 9.29218E-13
 -1       233 2.21292E+01 1.43584E-01-8.55940E-04-7.35661E-01 1.07914E-13 8.07084E-13
 -1       234 2.27771E+01-2.51732E-02 5.92152E-03-8.92244E-01 6.58607E-14 6.57134E-13
 -1       235 2.33602E+01-1.26451E-01 6.89129E-03-6.67076E-01 4.40767E-14 6.11692E-13
 -1       236 2.36509E+01-1.41584E-01 3.50275E-03-2.86268E-01 4.00890E-14 6.24927E-13
 -1       237 2.36163E+01-1.06921E-01 9.54455E-05 6.08895E-02 5.14237E-14 5.57625E-13
 -1       238 2.33322E+01-6.05097E-02-1.64610E-03 2.92117E-01 5.51963E-14 4.40304E-13
 -1       239 2.29039E+01-2.23456E-02-1.89419E-03 4.04558E-01 9.96722E-14 4.04973E-13
 -1       240 2.24228E+01 2.30896E-03-1.32061E-03 4.29092E-01 1.13516E-13 3.22453E-13
 -1       241 2.19521E+01 1.52459E-02-5.68462E-04 4.01002E-01 3.47395E-14 3.52485E-13
 -1       242 2.15276E+01 2.02388E-02 4.20090E-05 3.47772E-01 4.89517E-16 4.11188E-13
 -1       243 2.11651E+01 2.06333E-02 4.25048E-04 2.87028E-01-3.60736E-14 3.38553E-13
 -1       244 2.08674E+01 1.87389E-02 6.09491E-04 2.28546E-01 3.82320E-14 3.97346E-13
 -1       245 2.06304E+01 1.59463E-02 6.56993E-04 1.76912E-01-1.12154E-13 4.62934E-13
 -1       246 2.04463E+01 1.30114E-02 6.24251E-04 1.33662E-01-2.13658E-14 3.71166E-13
 -1       247 2.03064E+01 1.03009E-02 5.52034E-04 9.87168E-02 1.38512E-13 2.28302E-13
 -1       248 2.02025E+01 7.96185E-03 4.65922E-04 7.12356E-02 8.64395E-14 2.90775E-13
 -1       249 2.01270E+01 6.02631E-03 3.80354E-04 5.01039E-02-4.02265E-14 2.15806E-13
 -1       250 2.00734E+01 4.47070E-03 3.02565E-04 3.41817E-02 2.93623E-13 1.32405E-13
 -1       251 2.00364E+01 3.24834E-03 2.35495E-04 2.24227E-02 3.55155E-13 1.77930E-14
 -1       252 2.00119E+01 2.30619E-03 1.79699E-04 1.39208E-02 1.42687E-14-1.59684E-13
 -1       253 1.99963E+01 1.59299E-03 1.34499E-04 7.91978E-03-3.01083E-13-6.99767E-15
 -1       254 1.99872E+01 1.06282E-03 9.86685E-05 3.80476E-03-1.98914E-14-9.59358E-14
 -1       255 1.99825E+01 6.76330E-04 7.08020E-05 1.08599E-03-8.83086E-14 6.73453E-14
 -1       256 1.99808E+01 4.00739E-04 4.95168E-05-6.19708E-04-4.34302E-14 3.92748E-14
 -1       257 1.99810E+01 2.09340E-04 3.35505E-05-1.60708E-03 2.23348E-13-1.69516E-13
 -1       258 1.99823E+01 8.07596E-05 2.18014E-05-2.09909E-03 6.32267E-14-3.43499E-13
 -1       259 1.99842E+01-1.82306E-06 1.33381E-05-2.26144E-03 5.01351E-14-1.15421E-13
 -1       260 1.99864E+01-5.14415E-05 7.39126E-06-2.21491E-03-1.68681E-13-3.31851E-14
 -1       261 1.99885E+01-7.80321E-05 3.33824E-06-2.04555E-03 2.09601E-13-1.64253E-14
 -1       262 1.99905E+01-8.90423E-05 6.83955E-07-1.81308E-03 1.31908E-13-5.67006E-14
 -1       263 1.99924E+01-8.99523E-05-9.58749E-07-1.55751E-03-3.04992E-13-5.70761E-14
 -1       264 1.99939E+01-8.47113E-05-1.88772E-06-1.30446E-03-2.68669E-13-4.90125E-14
 -1       265 1.99953E+01-7.60981E-05-2.32834E-06-1.06922E-03-1.48892E-13 3.95756E-14
 -1       266 1.99964E+01-6.60136E-05-2.44829E-06-8.59838E-04-1.65253E-13 2.63452E-13
 -1       267 1.99973E+01-5.57156E-05-2.37004E-06-6.79444E-04 2.47333E-13-5.62508E-14
 -1       268 1.99980E+01-4.60053E-05-2.18076E-06-5.27946E-04 1.25518E-13-2.86913E-14
 -1       269 1.99985E+01-3.73749E-05-1.93941E-06-4.03201E-04 1.30679E-13 2.42988E-13
 -1       270 1.99989E+01-3.01230E-05-1.67867E-06-3.01810E-04-3.66794E-14-2.67473E-13
 -1       271 1.99993E+01-2.44500E-05-1.40064E-06-2.19618E-04-2.43536E-13-2.82803E-13
 -1       272 1.99995E+01-2.04786E-05-1.06302E-06-1.52014E-04 1.99526E-14 7.81317E-14
 -1       273 1.99996E+01-1.82111E-05-6.34507E-07-9.44447E-05 1.30624E-13 2.20998E-13
 -1       274 1.99997E+01-1.74060E-05-6.24137E-07-4.32375E-05 1.58876E-13 3.74971E-13
 -1       275 1.99998E+01-1.10502E-05-1.40899E-06-1.49423E-06-3.57409E-14-1.52683E-13
 -1       276 1.99998E+01-3.62440E-05-6.56560E-07-2.24666E-05 8.89129E-14 5.85676E-13
 -1       277 1.99998E+01-1.01485E-04-1.81367E-07-6.90752E-05 2.26271E-14 1.29046E-13
 -1       278 1.99998E+01-1.97499E-04-6.65508E-08-1.06504E-04-4.76279E-14 1.50682E-13
 -1       279 1.99998E+01-3.11742E-04 4.35446E-08-1.23101E-04 1.46404E-14-2.42958E-13
 -1       280 1.99998E+01-4.25188E-04 2.80623E-07-1.17237E-04-4.86699E-14-1.23794E-12
 -1       281 1.99998E+01-5.23752E-04 5.10198E-07-9.09255E-05-2.17113E-13-4.18218E-13
 -1       282 1.99998E+01-5.89629E-04 6.80511E-07-4.93007E-05-4.99164E-13 1.78197E-13
 -1       283 1.99998E+01-6.12528E-04 7.40808E-07 4.08414E-07-4.38810E-13 4.31830E-13
 -1       284 1.99998E+01-5.88880E-04 6.79827E-07 5.00422E-05-2.98609E-13 1.51248E-13
 -1       285 1.99998E+01-5.22364E-04 5.10413E-07 9.14826E-05-3.07867E-13-1.08306E-12
 -1       286 1.99998E+01-4.25342E-04 2.67407E-07 1.17266E-04-3.68483E-13 2.17506E-13
 -1       287 1.99998E+01-3.09809E-04 4.84460E-08 1.23046E-04-3.41549E-13 1.57538E-13
 -1       288 1.99998E+01-1.95563E-04-5.57911E-08 1.05880E-04-2.79068E-13 4.73269E-13
 -1       289 1.99998E+01-1.01969E-04-5.53466E-07 6.88103E-05-3.77532E-13 4.00190E-14
 -1       290 1.99998E+01-5.80917E-05-5.45925E-07 4.71963E-05-1.60226E-13 1.39454E-13
 -1       291 4.49380E-01-4.90525E+00-5.84515E-01 1.89284E+00 6.71019E-13 1.06459E-12
 -1       292 3.99109E+00-4.51591E+00-6.79483E-01 4.42876E+00 1.40415E-12 1.10977E-12
 -1       293 1.10463E+01-1.84032E+00-3.99243E-01 6.77515E+00 1.62037E-12 1.27315E-12
 -1       294 2.02426E+01 1.16544E+00-1.24740E-02 8.17742E+00 1.58554E-12 1.18081E-12
 -1       295 3.01939E+01 3.01989E+00 2.86126E-01 6.98204E+00 1.35197E-12 6.14786E-13
 -1       296 3.80531E+01 5.77519E+00 7.05120E-01 6.53469E+00 1.17847E-12 4.70651E-13
 -1       297 4.21275E+01 6.74776E+00 8.50923E-01 3.77527E+00 1.00711E-12-5.12507E-14
 -1       298 4.36018E+01 5.81829E+00 9.37504E-01 7.08433E-01 9.39082E-13-6.92571E-13
 -1       299 3.87159E+01 4.43425E+00 6.12307E-01-2.26945E+00 1.03520E-12-1.16562E-12
 -1       300 3.06549E+01 2.59476E+00 1.95985E-01-4.87328E+00 1.12768E-12-1.48898E-12
 -1       301 2.07396E+01 1.59347E+00-2.05332E-01-6.22404E+00 1.33768E-12-1.66878E-12
 -1       302 1.14639E+01 8.83033E-01-4.90532E-01-5.42749E+00 1.37970E-12-1.52865E-12
 -1       303 4.48563E+00 2.41250E-01-5.76014E-01-3.45067E+00 1.19926E-12-1.23316E-12
 -1       304 9.09481E-01-4.25799E-01-4.99991E-01-1.44136E+00 8.12142E-13-9.52557E-13
 -1       305-7.12623E-02 3.90224E-01-2.69638E-01-3.35250E-02 3.05565E-13-8.73634E-13
 -1       306 4.68743E-01-2.43952E-01-4.31529E-01 1.41439E+00-2.24008E-13-8.01872E-13
 -1       307 4.12742E+00 9.35077E-01-3.73429E-01 3.72609E+00-4.88540E-13-8.91537E-13
 -1       308 1.00730E+01 1.44786E+00-3.91773E-01 5.51621E+00-9.18987E-13-1.06008E-12
 -1       309 1.93734E+01 1.56918E+00-1.87473E-01 6.14336E+00-9.15462E-13-1.01229E-12
 -1       310 2.82706E+01 3.04715E+00 1.22608E-01 6.05854E+00-1.06620E-12-1.19676E-12
 -1       311 3.62294E+01 4.28654E+00 4.46301E-01 3.04498E+00-9.87845E-13-7.24032E-13
 -1       312 4.16266E+01 5.73197E+00 7.69910E-01 2.00454E-01-9.31227E-13-3.14027E-13
 -1       313 4.32545E+01 6.29710E+00 9.75597E-01-3.32729E+00-8.15320E-13 2.63508E-13
 -1       314 3.81450E+01 5.98687E+00 7.10883E-01-5.84155E+00-9.06733E-13 5.96634E-13
 -1       315 3.06177E+01 4.52855E+00 4.88529E-01-8.42476E+00-9.81562E-13 1.12282E-12
 -1       316 2.07394E+01 1.98918E+00 4.96699E-02-8.33005E+00-1.20162E-12 1.04514E-12
 -1       317 1.16039E+01-1.47252E+00-3.50914E-01-6.87978E+00-9.23039E-13 9.93747E-13
 -1       318 3.80947E+00-4.65303E+00-7.43132E-01-4.23338E+00-4.40564E-13 1.25112E-12
 -1       319 9.79540E-02-5.85278E+00-7.67158E-01-1.69478E+00 2.14190E-13 1.12811E-12
 -1       320 2.69444E+01 2.90840E+00-6.43827E-02-4.83622E+00-3.96259E-13 2.03185E-13
 -1       321 2.51885E+01 2.48394E+00-4.12844E-02-3.76283E+00-1.70069E-13-2.25818E-13
 -1       322 2.55869E+01 2.26275E+00-3.48700E-02-4.13706E+00-3.67437E-13-1.30635E-13
 -1       323 2.34448E+01 1.03662E+00-2.38637E-02-9.23202E-01 2.95681E-13-1.39522E-13
 -1       324 1.95378E+01 7.61101E-01 3.24963E-02 1.77593E+00 5.47841E-13-1.67083E-13
 -1       325 1.25515E+01 1.81435E+00 6.45282E-02 3.77093E+00 6.36567E-13-4.03080E-13
 -1       326 2.62216E+00 4.36372E+00 1.23744E-01 4.45968E-01 2.92672E-13-8.18762E-13
 -1       327 4.92626E+00 3.77343E+00 1.24737E-01-2.13683E+00 7.04992E-15-7.98202E-13
 -1       328 1.22014E+01 1.99774E+00 1.00153E-01-3.11500E+00-2.35270E-13-5.31415E-13
 -1       329 1.98785E+01 7.47363E-01 2.30877E-02-9.94440E-01-1.97335E-13-1.51837E-13
 -1       330 2.41057E+01 1.03876E+00-2.09896E-02 1.70271E+00 1.13624E-14 9.95991E-14
 -1       331 2.59526E+01 1.82641E+00-4.17309E-02 3.50871E+00 2.29631E-13 3.42691E-13
 -1       332 2.71220E+01 1.95666E+00-6.08156E-02 4.25635E+00 3.44174E-13 7.36650E-13
 -1       333 2.77544E+01 1.13765E+00-4.41494E-02 3.76422E+00 3.46494E-13 1.10812E-12
 -1       334 2.63106E+01 3.65967E-01 3.17844E-03 3.05344E+00 2.79407E-13 1.04204E-12
 -1       335 2.46564E+01 8.02664E-01 1.38787E-02-2.84041E+00-3.36169E-13 2.12987E-14
 -1       336 2.35415E+01 8.75358E-01 1.05024E-02-1.93382E+00-3.17041E-13-2.09515E-14
 -1       337 2.27697E+01 1.01635E+00 6.99733E-03-8.88609E-01-2.81235E-13-1.07839E-13
 -1       338 2.24392E+01 8.70924E-01 4.08680E-03 1.53106E-01-2.24446E-13-2.09590E-13
 -1       339 2.24698E+01 4.38093E-01 2.73008E-03 8.54133E-01-1.58269E-13-2.53160E-13
 -1       340 2.26264E+01-4.10658E-02 1.18988E-03 1.04208E+00-1.10260E-13-2.98300E-13
 -1       341 2.27070E+01-3.55271E-01-1.53569E-03 8.11652E-01-3.50538E-14-3.13535E-13
 -1       342 2.26351E+01-4.47809E-01-3.28937E-03 3.89563E-01-3.04878E-14-2.99929E-13
 -1       343 2.24336E+01-3.85206E-01-3.67538E-03-2.82606E-02-3.76594E-14-3.21730E-13
 -1       344 2.21566E+01-2.59110E-01-3.05639E-03-3.40065E-01-3.49935E-14-3.25810E-13
 -1       345 2.18518E+01-1.33628E-01-1.96615E-03-5.22872E-01-3.45505E-14-3.22580E-13
 -1       346 2.15503E+01-3.74060E-02-9.30475E-04-5.95912E-01-2.76408E-14-2.33256E-13
 -1       347 2.12696E+01 2.45618E-02-1.48063E-04-5.91824E-01-9.72632E-15-1.71143E-13
 -1       348 2.10188E+01 5.80217E-02 3.52060E-04-5.41543E-01-6.54529E-14-1.78944E-13
 -1       349 2.08017E+01 7.14526E-02 6.15535E-04-4.68764E-01-5.39188E-14-1.51555E-13
 -1       350 2.06185E+01 7.24322E-02 7.10440E-04-3.89411E-01-1.05732E-13-2.00948E-13
 -1       351 2.04677E+01 6.65704E-02 6.99904E-04-3.13057E-01-1.04810E-13-1.07307E-13
 -1       352 2.03461E+01 5.75870E-02 6.32109E-04-2.44732E-01 1.58382E-14 4.85401E-14
 -1       353 2.02501E+01 4.77478E-02 5.39575E-04-1.86500E-01 8.67125E-14-3.46533E-14
 -1       354 2.01758E+01 3.83178E-02 4.42183E-04-1.38633E-01 9.95002E-14-1.92893E-13
 -1       355 2.01195E+01 2.99214E-02 3.50893E-04-1.00418E-01 4.50097E-14-1.21032E-13
 -1       356 2.00777E+01 2.27949E-02 2.70888E-04-7.06683E-02 2.26672E-13-1.77212E-13
 -1       357 2.00474E+01 1.69544E-02 2.03872E-04-4.80467E-02 1.52535E-13-3.26965E-13
 -1       358 2.00260E+01 1.22999E-02 1.49601E-04-3.12399E-02-1.06082E-13-3.19355E-13
 -1       359 2.00114E+01 8.67935E-03 1.06846E-04-1.90549E-02-5.53575E-14-1.02200E-14
 -1       360 2.00019E+01 5.92592E-03 7.39754E-05-1.04595E-02-1.28131E-13 1.29957E-13
 -1       361 1.99959E+01 3.87827E-03 4.92823E-05-4.59187E-03 6.81334E-14 1.31334E-13
 -1       362 1.99926E+01 2.39101E-03 3.11645E-05-7.51781E-04 4.27399E-14 6.44108E-14
 -1       363 1.99910E+01 1.33895E-03 1.82065E-05 1.61594E-03 2.22144E-14-7.64200E-15
 -1       364 1.99907E+01 6.17821E-04 9.20861E-06 2.94219E-03 1.05709E-13 5.89374E-14
 -1       365 1.99910E+01 1.43036E-04 3.18527E-06 3.55455E-03 1.05856E-13 1.66950E-13
 -1       366 1.99918E+01-1.52467E-04-6.53174E-07 3.69684E-03-7.88747E-15 7.25171E-15
 -1       367 1.99928E+01-3.20766E-04-2.92543E-06 3.54649E-03-1.01504E-13 7.63578E-14
 -1       368 1.99938E+01-4.01496E-04-4.10634E-06 3.22943E-03-4.18785E-14-2.01731E-14
 -1       369 1.99948E+01-4.24216E-04-4.55302E-06 2.83234E-03-1.39708E-13 1.36592E-14
 -1       370 1.99958E+01-4.10505E-04-4.52849E-06 2.41265E-03-8.46008E-14 2.61085E-14
 -1       371 1.99966E+01-3.75748E-04-4.22220E-06 2.00641E-03-3.72171E-14-2.22706E-13
 -1       372 1.99973E+01-3.30631E-04-3.76733E-06 1.63443E-03 4.86601E-14 1.92036E-13
 -1       373 1.99979E+01-2.82351E-04-3.25498E-06 1.30689E-03 2.09022E-13 4.77014E-13
 -1       374 1.99984E+01-2.35593E-04-2.74474E-06 1.02682E-03 3.03650E-13 6.90712E-13
 -1       375 1.99988E+01-1.93284E-04-2.27536E-06 7.92588E-04 2.44341E-13 5.16246E-13
 -1       376 1.99991E+01-1.57197E-04-1.87267E-06 5.99640E-04 1.74384E-13 5.88838E-13
 -1       377 1.99993E+01-1.28367E-04-1.53691E-06 4.41713E-04-1.26277E-14 4.08919E-13
 -1       378 1.99995E+01-1.07080E-04-1.26938E-06 3.11912E-04-3.46886E-14 3.60597E-13
 -1       379 1.99996E+01-9.26744E-05-1.22549E-06 2.03451E-04 1.76994E-13 4.23760E-13
 -1       380 1.99997E+01-7.68565E-05-7.08915E-07 1.17673E-04 1.71654E-13 2.98231E-13
 -1       381 2.48296E+01 5.66969E-01 1.04246E-02 2.43875E+00 2.22169E-13 9.25740E-13
 -1       382 2.36909E+01 9.25669E-01 7.42099E-03 1.41533E+00 2.40628E-13 7.74126E-13
 -1       383 2.31365E+01 9.51797E-01 3.29256E-03 1.13528E-01 2.68756E-13 5.57886E-13
 -1       384 2.31578E+01 5.27264E-01-2.39962E-03-8.75512E-01 2.36957E-13 3.72177E-13
 -1       385 2.34359E+01-1.61330E-02 1.06419E-03-1.19712E+00 1.08971E-13 2.48180E-13
 -1       386 2.36209E+01-3.70723E-01-8.01724E-04-9.09935E-01 8.02726E-14 2.47386E-13
 -1       387 2.35721E+01-4.49513E-01-4.29167E-03-3.64499E-01 2.67993E-14 1.63848E-13
 -1       388 2.33192E+01-3.54525E-01-5.18640E-03 1.47569E-01 7.54399E-14 2.43466E-13
 -1       389 2.29437E+01-2.09157E-01-4.22591E-03 4.96240E-01 1.00646E-13 1.97720E-13
 -1       390 2.25177E+01-8.32272E-02-2.64077E-03 6.70664E-01 7.97189E-14 1.67900E-13
 -1       391 2.20910E+01 1.51325E-03-1.04254E-03 7.12008E-01 1.27194E-13 1.81113E-13
 -1       392 2.16939E+01 4.80420E-02 1.14065E-04 6.70827E-01 2.67196E-14 2.71242E-13
 -1       393 2.13418E+01 6.75238E-02 7.88525E-04 5.88107E-01 1.01317E-14 2.14892E-13
 -1       394 2.10411E+01 7.07105E-02 1.08459E-03 4.91186E-01 1.45175E-16 2.25974E-13
 -1       395 2.07915E+01 6.53845E-02 1.13610E-03 3.95956E-01-2.01289E-14 3.48047E-13
 -1       396 2.05896E+01 5.64212E-02 1.05304E-03 3.10395E-01-1.16193E-13 4.10447E-13
 -1       397 2.04298E+01 4.65762E-02 9.09996E-04 2.37601E-01 3.92709E-14 2.73037E-13
 -1       398 2.03058E+01 3.72545E-02 7.51281E-04 1.77933E-01 1.74213E-13 2.85532E-13
 -1       399 2.02115E+01 2.90709E-02 6.00245E-04 1.30373E-01 8.89447E-14 2.17771E-13
 -1       400 2.01411E+01 2.22083E-02 4.67388E-04 9.33197E-02 1.20075E-13-1.15572E-14
 -1       401 2.00897E+01 1.66316E-02 3.55984E-04 6.50326E-02 1.69488E-13-1.15286E-13
 -1       402 2.00530E+01 1.22067E-02 2.65582E-04 4.38545E-02 2.79433E-13 4.83195E-14
 -1       403 2.00275E+01 8.76531E-03 1.94023E-04 2.83136E-02 1.37585E-13 2.48627E-13
 -1       404 2.00103E+01 6.13719E-03 1.38541E-04 1.71569E-02-1.46254E-13 6.42760E-14
 -1       405 1.99993E+01 4.16591E-03 9.63261E-05 9.34884E-03 2.83162E-14-2.28140E-13
 -1       406 1.99928E+01 2.71492E-03 6.47974E-05 4.05293E-03-1.83593E-13-1.08338E-13
 -1       407 1.99893E+01 1.66894E-03 4.17044E-05 6.06068E-04 6.26715E-15-8.29698E-14
 -1       408 1.99878E+01 9.33021E-04 2.51533E-05-1.50818E-03 3.56193E-13-1.26485E-13
 -1       409 1.99877E+01 4.30451E-04 1.35895E-05-2.68532E-03 1.27091E-13-1.02883E-13
 -1       410 1.99884E+01 1.00338E-04 5.76206E-06-3.22304E-03-1.01654E-13-5.48028E-14
 -1       411 1.99896E+01-1.04882E-04 6.82009E-07-3.34134E-03-1.02560E-13 5.92024E-15
 -1       412 1.99909E+01-2.21765E-04-2.41994E-06-3.19947E-03 2.14153E-13 6.57810E-14
 -1       413 1.99923E+01-2.77940E-04-4.13247E-06-2.91001E-03 1.06426E-13 2.75694E-13
 -1       414 1.99936E+01-2.93921E-04-4.89851E-06-2.55023E-03-1.70340E-13 2.75905E-13
 -1       415 1.99948E+01-2.84642E-04-5.04542E-06-2.17123E-03-1.25917E-13-7.39020E-14
 -1       416 1.99959E+01-2.60737E-04-4.81046E-06-1.80503E-03-2.08705E-13-1.58186E-13
 -1       417 1.99968E+01-2.29581E-04-4.36184E-06-1.47006E-03-2.33018E-13-4.02394E-13
 -1       418 1.99975E+01-1.96144E-04-3.81601E-06-1.17536E-03 2.02218E-13-3.89802E-13
 -1       419 1.99981E+01-1.63653E-04-3.25134E-06-9.23592E-04-5.41849E-15-3.58290E-13
 -1       420 1.99986E+01-1.34133E-04-2.71785E-06-7.13286E-04-1.95739E-14-1.74168E-13
 -1       421 1.99989E+01-1.08809E-04-2.24498E-06-5.40367E-04 1.40826E-13 4.81073E-14
 -1       422 1.99992E+01-8.83943E-05-1.84059E-06-3.99230E-04-1.40751E-13 1.53250E-13
 -1       423 1.99994E+01-7.32725E-05-1.49472E-06-2.83451E-04-6.97338E-14 5.28657E-14
 -1       424 1.99996E+01-6.30013E-05-1.13670E-06-1.86721E-04-6.69732E-14-6.18782E-14
 -1       425 1.99997E+01-5.55270E-05-8.28790E-07-1.04748E-04 1.89059E-13 3.41474E-13
 -1       426 1.99997E+01-5.01470E-05-4.92804E-07-6.01071E-05 2.82795E-13 4.50193E-13
 -1       427 1.99998E+01-2.98140E-04-2.43234E-07-2.15964E-04-4.46938E-14 2.69370E-13
 -1       428 1.99997E+01-1.89926E-04-5.49547E-07-1.77087E-04-6.67144E-14 1.75454E-13
 -1       429 1.99997E+01-1.12161E-04-6.98610E-07-1.20080E-04-8.45579E-15-1.09349E-13
 -1       430 1.99998E+01-4.05944E-04 8.77259E-08-2.19437E-04-8.88499E-14-1.01830E-12
 -1       431 1.99998E+01-5.03642E-04 3.77338E-07-1.87390E-04 1.92841E-13-7.52842E-13
 -1       432 1.99999E+01-5.76788E-04 6.02910E-07-1.25301E-04 2.24108E-13-3.67040E-13
 -1       433 1.99999E+01-6.15741E-04 7.25526E-07-4.35388E-05-1.95532E-13 2.88548E-13
 -1       434 1.99999E+01-6.15391E-04 7.25388E-07 4.49528E-05-2.16846E-13 2.87111E-13
 -1       435 1.99999E+01-5.75786E-04 6.00405E-07 1.26467E-04-3.37953E-13-4.62923E-13
 -1       436 1.99998E+01-5.03701E-04 3.71608E-07 1.87348E-04-7.05925E-14-4.01228E-13
 -1       437 1.99998E+01-4.05985E-04 1.01812E-07 2.19547E-04-9.47946E-14 5.55115E-13
 -1       438 1.99998E+01-2.96355E-04-2.00206E-07 2.15712E-04 9.61661E-14 4.18181E-13
 -1       439 1.99997E+01-1.87033E-04-5.25639E-07 1.76429E-04-9.56345E-14 5.02700E-15
 -1       440 1.16001E+01-2.93675E+00-6.49122E-02 7.23044E+00 2.86896E-13 7.89910E-13
 -1       441 2.85485E+00-7.36442E-01 3.59919E-02-3.86688E-01 1.06544E-13 1.17970E-12
 -1       442 5.51002E+00-2.00181E+00-4.74588E-02 5.08052E+00 1.95066E-13 9.23525E-13
 -1       443 1.98190E+01-2.93954E+00-2.32822E-02 7.10651E+00 5.38375E-13 3.86489E-13
 -1       444 2.67762E+01-1.88126E+00-1.72778E-02 4.64933E+00 6.63539E-13-8.67223E-14
 -1       445 2.48093E+01 1.91919E+00-4.23096E-02-2.77889E+00 4.31763E-14-2.23771E-13
 -1       446 3.33485E+01 5.87077E+00 1.72351E-02 1.39570E+00 1.10192E-12-1.67241E-13
 -1       447 3.36208E+01 7.43952E+00 1.85288E-02 1.94068E+00 1.14102E-12-1.21339E-13
 -1       448 3.38137E+01 6.12689E+00 3.94181E-02 2.36794E+00 1.06036E-12-7.62029E-14
 -1       449 3.17335E+01 2.50095E+00-1.64010E-02 1.25145E+00 7.48256E-13-1.58915E-13
 -1       450 2.70471E+01-2.33875E-01-5.54745E-02-1.46826E+00 4.97741E-13-3.69829E-13
 -1       451 1.99175E+01-6.63208E-01-8.47014E-02-4.09569E+00 4.17458E-13-6.85667E-13
 -1       452 1.22953E+01 3.01190E-01-4.94341E-02-4.66868E+00 2.39447E-13-8.08534E-13
 -1       453 5.16101E+00 1.66963E+00-5.94001E-02-3.50868E+00 2.80824E-13-9.63209E-13
 -1       454 1.84202E+00 2.51817E+00-9.90283E-04-1.50056E+00 2.55334E-13-9.67601E-13
 -1       455 1.65440E+00 3.13381E+00 5.45743E-02 1.47475E+00 3.01297E-13-9.01640E-13
 -1       456 4.66900E+00 2.55460E+00 7.09856E-02 3.39367E+00 3.53773E-13-8.20718E-13
 -1       457 1.04161E+01 1.10401E+00-6.42407E-02 4.96163E+00 1.38264E-13-5.88689E-13
 -1       458 1.76782E+01 7.36872E-02-7.35513E-02 4.73614E+00-6.04378E-14-4.51132E-13
 -1       459 2.60789E+01 3.12167E-01-2.80617E-02 2.17250E+00-3.76504E-13-2.28706E-13
 -1       460 3.01094E+01 2.19422E+00-3.89598E-02-1.11304E-01-6.75550E-13-1.16032E-13
 -1       461 3.20786E+01 5.56609E+00-3.78610E-02-2.13925E+00-9.75039E-13-4.44644E-14
 -1       462 3.45082E+01 7.43688E+00 1.01904E-01-1.81375E+00-1.01461E-12-2.12060E-13
 -1       463 3.31677E+01 6.69032E+00 4.53293E-02-1.40422E+00-8.48696E-13-2.20199E-13
 -1       464 3.09980E+01 2.58499E+00-1.30235E-02-1.89422E+00-4.69277E-13-2.21434E-13
 -1       465 2.72781E+01-4.18593E-01 2.32550E-02-4.88488E+00-3.19009E-13 1.24345E-13
 -1       466 2.07783E+01-2.81603E+00-1.77749E-03-6.78951E+00-9.08995E-15 1.49304E-13
 -1       467 1.15890E+01-2.94888E+00-6.59251E-02-7.24839E+00 2.41737E-13 7.60874E-13
 -1       468 5.08700E+00-2.10951E+00-7.49338E-02-4.95920E+00 2.61277E-13 1.17488E-12
 -1       469 3.18767E+01 2.74312E+00 4.16368E-02 2.05288E+00 1.05808E-12-2.49051E-13
 -1       470 5.14784E+00 3.63942E+00 1.11642E-01 2.94539E+00 5.56173E-13-6.87832E-13
 -1       471 5.72015E+00 2.56768E-01 1.41037E-01 2.59167E+00-8.80615E-14 1.03559E-12
 -1       472 2.39956E+01-3.27307E-02-5.00989E-03-1.09826E-01 2.32675E-13 2.90410E-14
 -1       473 2.95058E+01 6.08456E+00-1.35809E-01 6.55440E-01 1.01763E-12-1.55050E-13
 -1       474 1.84681E+01-4.41281E-01 1.75301E-02-3.08198E+00-7.41213E-14-3.73123E-13
 -1       475 2.68934E+01 9.40741E-01-1.10922E-02 4.14194E+00 3.15595E-13 5.91399E-13
 -1       476 2.67656E+01 6.64186E-01-1.17788E-02 3.79098E+00 3.10395E-13 7.90163E-13
 -1       477 2.48437E+01 1.56214E+00-2.42747E-03-3.17745E+00-3.50472E-13-5.35705E-14
 -1       478 2.57666E+01 9.49739E-01 1.57147E-03 3.26803E+00 3.35465E-13 7.60342E-13
 -1       479 2.47272E+01 1.62713E+00-9.19804E-03 2.13870E+00 3.18515E-13 5.92764E-13
 -1       480 2.40932E+01 2.01305E+00-6.17790E-03-2.06066E+00-4.11211E-13-1.11517E-13
 -1       481 2.35876E+01 2.07117E+00-9.82668E-03-6.19781E-01-3.24265E-13-2.27667E-13
 -1       482 2.34888E+01 1.37653E+00-8.56838E-03 5.88494E-01-2.47245E-13-3.03500E-13
 -1       483 2.35459E+01 3.24933E-01-3.10118E-03 1.08052E+00-1.63685E-13-3.64011E-13
 -1       484 2.34443E+01-5.07506E-01-2.53340E-03 9.03566E-01-6.38627E-14-3.01773E-13
 -1       485 2.30973E+01-8.59098E-01-2.22068E-03 3.90969E-01 3.45167E-15-2.57441E-13
 -1       486 2.26077E+01-8.23717E-01-2.27286E-03-1.37678E-01-6.33686E-15-1.84782E-13
 -1       487 2.21029E+01-5.99420E-01-1.98544E-03-5.29439E-01-2.32837E-14-1.68452E-13
 -1       488 2.16589E+01-3.41759E-01-1.19790E-03-7.54473E-01-3.18018E-14-1.80003E-13
 -1       489 2.12979E+01-1.28796E-01-5.43723E-04-8.41140E-01 1.01969E-14-1.58746E-13
 -1       490 2.10139E+01 1.75483E-02-1.03217E-04-8.31729E-01 3.01760E-14-1.41872E-13
 -1       491 2.07919E+01 1.03257E-01 1.63860E-04-7.64407E-01-3.01645E-14-7.62894E-14
 -1       492 2.06171E+01 1.43633E-01 3.02716E-04-6.67967E-01-2.03513E-14-2.81658E-14
 -1       493 2.04785E+01 1.54106E-01 3.54315E-04-5.61966E-01-7.22327E-14-4.70586E-14
 -1       494 2.03678E+01 1.46923E-01 3.51789E-04-4.58555E-01-3.67102E-14 1.38481E-14
 -1       495 2.02795E+01 1.30669E-01 3.19583E-04-3.64509E-01 4.94744E-14 1.48020E-13
 -1       496 2.02093E+01 1.10872E-01 2.74176E-04-2.82960E-01-5.85926E-14 1.42820E-13
 -1       497 2.01541E+01 9.08218E-02 2.25732E-04-2.14721E-01 3.18054E-14 1.09188E-13
 -1       498 2.01111E+01 7.23044E-02 1.79934E-04-1.59237E-01 7.70524E-14 7.65343E-14
 -1       499 2.00782E+01 5.61459E-02 1.39538E-04-1.15225E-01 1.49610E-13 8.14460E-14
 -1       500 2.00533E+01 4.25950E-02 1.05516E-04-8.10908E-02 5.32314E-14 7.45445E-14
 -1       501 2.00349E+01 3.15734E-02 7.78296E-05-5.51853E-02-3.63286E-14-8.03629E-14
 -1       502 2.00215E+01 2.28351E-02 5.59167E-05-3.59538E-02 5.87519E-14-1.63078E-13
 -1       503 2.00121E+01 1.60634E-02 3.89919E-05-2.20101E-02 2.06726E-14-2.45009E-13
 -1       504 2.00056E+01 1.09288E-02 2.62173E-05-1.21668E-02 1.09867E-13 9.07421E-14
 -1       505 2.00013E+01 7.12027E-03 1.67962E-05-5.43755E-03 1.11738E-13 3.58811E-13
 -1       506 1.99986E+01 4.36093E-03 1.00190E-05-1.02351E-03-3.87526E-14 3.07343E-13
 -1       507 1.99970E+01 2.41427E-03 5.28025E-06 1.70819E-03 2.39225E-14 3.20999E-13
 -1       508 1.99963E+01 1.08416E-03 2.07974E-06 3.24853E-03-6.54445E-14 1.56611E-13
 -1       509 1.99960E+01 2.12035E-04 1.47868E-08 3.97087E-03-4.40668E-15-1.14238E-13
 -1       510 1.99961E+01-3.27498E-04-1.23157E-06 4.15328E-03-3.73652E-14 1.52487E-14
 -1       511 1.99964E+01-6.31620E-04-1.90367E-06 3.99837E-03-1.44627E-13-7.08022E-14
 -1       512 1.99968E+01-7.74162E-04-2.18606E-06 3.65007E-03-7.01758E-14-6.43837E-14
 -1       513 1.99973E+01-8.10092E-04-2.21530E-06 3.20767E-03-1.25493E-13-7.25784E-14
 -1       514 1.99977E+01-7.79474E-04-2.09020E-06 2.73707E-03-1.49680E-13 8.64487E-14
 -1       515 1.99981E+01-7.10829E-04-1.88053E-06 2.27976E-03 8.71605E-14 9.35505E-14
 -1       516 1.99984E+01-6.23935E-04-1.63419E-06 1.85980E-03 2.43669E-13 7.45301E-14
 -1       517 1.99987E+01-5.32104E-04-1.38293E-06 1.48908E-03 4.06428E-13 1.24138E-13
 -1       518 1.99990E+01-4.43987E-04-1.14325E-06 1.17125E-03 1.76077E-13 2.31755E-13
 -1       519 1.99992E+01-3.64932E-04-9.30696E-07 9.04640E-04 7.69949E-14 2.40283E-13
 -1       520 1.99994E+01-2.98080E-04-7.63640E-07 6.84414E-04 7.87427E-14 2.59953E-13
 -1       521 1.99995E+01-2.44855E-04-6.22810E-07 5.03664E-04 8.50504E-14 4.69499E-13
 -1       522 1.99996E+01-2.05015E-04-5.68494E-07 3.55319E-04 8.98179E-14 4.74476E-13
 -1       523 1.12259E+01-1.53935E+00 9.55977E-02 6.29481E+00-2.31419E-13 6.07986E-13
 -1       524 2.43928E+01 1.74187E+00-3.25354E-02-5.00576E-01 4.29670E-13 7.72759E-14
 -1       525 2.45432E+01 4.43995E-01-2.11516E-03-1.26153E+00 2.65886E-13-6.22133E-14
 -1       526 2.44397E+01-6.03487E-01-3.56824E-03-1.06327E+00 1.17967E-13-1.26047E-13
 -1       527 2.39593E+01-1.00119E+00-5.13911E-03-3.78114E-01 3.53553E-14-9.30545E-14
 -1       528 2.33129E+01-8.95312E-01-4.25485E-03 2.98952E-01-9.70686E-16-8.01808E-14
 -1       529 2.26714E+01-5.86740E-01-2.90997E-03 7.64951E-01 4.01209E-14 7.74705E-14
 -1       530 2.21217E+01-2.79452E-01-2.08779E-03 1.00060E+00 1.03451E-13 8.78649E-14
 -1       531 2.16788E+01-5.23053E-02-9.50661E-04 1.05927E+00 1.07537E-13-1.61884E-14
 -1       532 2.13282E+01 8.45699E-02-1.11278E-04 1.00608E+00 3.26141E-14-5.49647E-14
 -1       533 2.10485E+01 1.51264E-01 4.02978E-04 8.93985E-01-5.05709E-14 8.69970E-14
 -1       534 2.08229E+01 1.72233E-01 6.48193E-04 7.58918E-01-5.24597E-14 1.46299E-13
 -1       535 2.06398E+01 1.67099E-01 7.14251E-04 6.22772E-01-2.12464E-13 2.96739E-13
 -1       536 2.04913E+01 1.49133E-01 6.78161E-04 4.97442E-01-2.66902E-14 2.47098E-13
 -1       537 2.03717E+01 1.26401E-01 5.94012E-04 3.88323E-01 8.64457E-14 9.42486E-14
 -1       538 2.02764E+01 1.03380E-01 4.94529E-04 2.96897E-01 9.15470E-14 1.20036E-14
 -1       539 2.02015E+01 8.22976E-02 3.97326E-04 2.22471E-01 6.08319E-14 1.02406E-13
 -1       540 2.01436E+01 6.40685E-02 3.10635E-04 1.63287E-01 2.40032E-13 1.13182E-13
 -1       541 2.00995E+01 4.88896E-02 2.37351E-04 1.17171E-01 1.55873E-13 8.92001E-14
 -1       542 2.00665E+01 3.65930E-02 1.77575E-04 8.19128E-02 1.46063E-13 2.80693E-13
 -1       543 2.00424E+01 2.68476E-02 1.30088E-04 5.54578E-02 9.57807E-14 2.86039E-13
 -1       544 2.00252E+01 1.92705E-02 9.31671E-05 3.59938E-02 1.15511E-13 2.39578E-13
 -1       545 2.00131E+01 1.34839E-02 6.50086E-05 2.19795E-02-4.32726E-14 3.28631E-13
 -1       546 2.00050E+01 9.14335E-03 4.39298E-05 1.21390E-02-3.61304E-14 2.40432E-13
 -1       547 1.99998E+01 5.94876E-03 2.84533E-05 5.43830E-03-1.20197E-13-1.40520E-13
 -1       548 1.99967E+01 3.64666E-03 1.73303E-05 1.05520E-03 1.77738E-13-1.89361E-13
 -1       549 1.99950E+01 2.02804E-03 9.53290E-06-1.65269E-03 2.02125E-13 3.82287E-14
 -1       550 1.99942E+01 9.23875E-04 4.23194E-06-3.17881E-03 8.54985E-14 9.70054E-14
 -1       551 1.99942E+01 1.99852E-04 7.70804E-07-3.89565E-03-9.89618E-14 8.65517E-15
 -1       552 1.99945E+01-2.48999E-04-1.36213E-06-4.07918E-03-1.67710E-13-5.16805E-15
 -1       553 1.99950E+01-5.03376E-04-2.55907E-06-3.92973E-03 1.21504E-14 2.31439E-13
 -1       554 1.99957E+01-6.24273E-04-3.11566E-06-3.58933E-03 1.02287E-13 4.13567E-13
 -1       555 1.99963E+01-6.56965E-04-3.25081E-06-3.15578E-03 8.78795E-14 6.71364E-14
 -1       556 1.99969E+01-6.34403E-04-3.12350E-06-2.69399E-03-1.86344E-13 8.81297E-14
 -1       557 1.99975E+01-5.80037E-04-2.84662E-06-2.24487E-03-4.94156E-15-1.21576E-14
 -1       558 1.99980E+01-5.10140E-04-2.49839E-06-1.83217E-03 1.28141E-13-6.32357E-14
 -1       559 1.99984E+01-4.35674E-04-2.13143E-06-1.46770E-03 9.02643E-14-1.59140E-13
 -1       560 1.99987E+01-3.63782E-04-1.78012E-06-1.15520E-03-1.81381E-13 5.10220E-14
 -1       561 1.99990E+01-2.98937E-04-1.46270E-06-8.93118E-04-1.79312E-13 1.79738E-13
 -1       562 1.99992E+01-2.43800E-04-1.19166E-06-6.76590E-04-2.29309E-13 3.41823E-13
 -1       563 1.99994E+01-1.99594E-04-1.00309E-06-4.99182E-04 3.86108E-15 3.08108E-13
 -1       564 1.99995E+01-1.67113E-04-1.00025E-06-3.53859E-04 6.47927E-14 3.10710E-13
 -1       565 1.99996E+01-1.42807E-04-8.42054E-07-2.32913E-04 1.46367E-13 1.07432E-13
 -1       566 1.99999E+01-5.13302E-04 1.36044E-07-2.95649E-04 1.92385E-13-9.40833E-13
 -1       567 1.99999E+01-6.03903E-04 2.27640E-07-2.24670E-04 1.12424E-13-4.61360E-13
 -1       568 1.99997E+01-2.80711E-04-5.09800E-08-3.02214E-04 5.81617E-14 7.25238E-14
 -1       569 1.99998E+01-4.02050E-04 8.30893E-08-3.22555E-04-2.02459E-13-2.66277E-13
 -1       570 2.00000E+01-6.62245E-04 3.09514E-07-1.20549E-04 2.95368E-13-1.76733E-13
 -1       571 2.00000E+01-6.82163E-04 3.36323E-07 1.03755E-06 1.37019E-14 2.87645E-13
 -1       572 2.00000E+01-6.61468E-04 3.04975E-07 1.22452E-04-2.30975E-13 6.74270E-15
 -1       573 1.99999E+01-6.03804E-04 2.19774E-07 2.24522E-04 1.61929E-13-5.27048E-13
 -1       574 1.99999E+01-5.13355E-04 1.41490E-07 2.95501E-04 1.38677E-13-2.08548E-14
 -1       575 1.99998E+01-4.01009E-04 1.02806E-07 3.22647E-04-1.23969E-13 6.11632E-13
 -1       576 1.99997E+01-2.79908E-04-2.45665E-07 3.01246E-04-2.23497E-13 2.74531E-14
 -1       577 6.78380E+00 2.89894E-01 1.50760E-01-3.28357E+00 2.36134E-13 1.00310E-12
 -1       578 2.44282E+01 2.00347E+00-9.32280E-03 8.39295E-01 4.30746E-13 3.56340E-13
 -1       579 3.00600E+01 3.36935E+00-1.04007E-01 1.39494E-02 9.09633E-13-3.72667E-13
 -1       580 2.37991E+01-3.51028E+00 4.29436E-03 4.75423E+00-2.66488E-14-3.01287E-13
 -1       581 1.83871E+01-3.13008E+00 8.01103E-02 6.65437E+00-2.57135E-13 1.12254E-13
 -1       582 1.11549E+01-1.54199E+00 1.05752E-01-6.40306E+00 5.54549E-13 7.02896E-13
 -1       583 2.29143E+01-4.51035E-01-2.37588E-02 1.93584E+00 1.48333E-13-5.92547E-14
 -1       584 2.66512E+01 4.57315E-01-3.87549E-02 3.50862E+00 1.96441E-13 3.87997E-13
 -1       585 2.51457E+01-5.82642E-01-2.45284E-02 9.59764E-01 1.22576E-14 1.50610E-13
 -1       586 2.83435E+01-6.66949E-01-9.37889E-02 1.17095E+00 5.80975E-13-5.84567E-13
 -1       587 2.87824E+01 5.28616E-01-3.31036E-02 2.21172E+00 3.94969E-13 1.63064E-13
 -1       588 2.93714E+01 6.08925E+00-1.44863E-01 2.63357E+00 9.53904E-13 9.57047E-14
 -1       589 1.60768E+01 5.54678E-01 2.11435E-02 3.82202E+00 4.81080E-13-3.11194E-13
 -1       590 2.98523E+01 3.91173E+00-1.13467E-01 3.51177E+00 7.60642E-13 2.58259E-13
 -1       591 2.57218E+01-8.86819E-01-3.02680E-02-4.77534E-01 1.87812E-13-6.03198E-14
 -1       592 2.86198E+01 6.40692E+00-1.53812E-01-2.29973E+00-8.56870E-13-1.66618E-13
 -1       593 2.74006E+01 6.75672E-01-5.80272E-02-1.32367E+00-2.52200E-13 1.33733E-13
 -1       594 2.88516E+01 3.40152E+00-1.09877E-01-2.89289E+00-6.64413E-13 1.28737E-13
 -1       595 2.84168E+01 6.40853E+00-1.60806E-01-9.11220E-01-8.09172E-13-4.02031E-13
 -1       596 2.83751E+01 3.75961E+00-1.59402E-01 2.89039E-01-4.88803E-13-5.39097E-13
 -1       597 2.79162E+01-8.19641E-01-7.86611E-02-1.63839E+00-6.82059E-14-3.89654E-13
 -1       598 2.50933E+01-3.04572E+00 4.34148E-03-4.11003E+00 2.68455E-13-1.71418E-13
 -1       599 1.81658E+01-3.24818E+00 4.89708E-02-6.78803E+00 5.50129E-13 1.41129E-13
 -1       600 2.54162E+01 1.59494E+00-1.38083E-02-3.77166E+00-2.85480E-13-9.80290E-14
 -1       601 2.54917E+01 9.37005E-01-3.01729E-02-2.69685E+00 1.54213E-14-1.85420E-14
 -1       602 9.79812E+00 1.85112E-01 1.37945E-01 4.38652E+00-2.42483E-13 6.73905E-13
 -1       603 1.99997E+01-1.82095E-04-5.72662E-07 2.67423E-04 1.67856E-14 5.61909E-13
 -1       604 7.21415E+00 1.18452E+00 1.62137E-01-5.00799E-01 7.99994E-14 9.53022E-13
 -1       605 2.63324E+01-2.75999E+00-6.51748E-02 1.88976E+00 7.38626E-14-6.28178E-13
 -1       606 2.56508E+01 1.57042E+00-1.45445E-02-3.63290E+00-1.53430E-13-1.24416E-13
 -1       607 2.72514E+01 4.71549E+00-1.10651E-01-3.26565E+00-6.81774E-13-5.50497E-14
 -1       608 2.73779E+01 8.49674E-01-7.54972E-02 4.68326E-01-1.67470E-13-5.61391E-13
 -1       609 2.75704E+01 3.53172E+00-1.19554E-01-5.81492E-01 7.61516E-13-3.37525E-13
 -1       610 2.65274E+01 1.19428E+00-2.26492E-02 3.99645E+00 3.68633E-13 6.04289E-13
 -1       611 2.48582E+01-1.55926E+00-5.62965E-03-1.13815E-01 8.12024E-15-3.35923E-13
 -1       612 2.58106E+01-5.46933E-01-3.24044E-02-1.08246E+00 2.13329E-13-4.20732E-13
 -1       613 2.47197E+01 3.57036E+00-4.38863E-02-1.78504E+00-5.20809E-13-2.23706E-13
 -1       614 2.45245E+01 2.94343E+00-4.57973E-02 2.34140E-02-3.83133E-13-4.07282E-13
 -1       615 2.46004E+01 1.19503E+00-3.01245E-02 9.95730E-01-1.85112E-13-4.40461E-13
 -1       616 2.44822E+01-4.33944E-01-9.71210E-03 8.70267E-01-7.78162E-14-3.87190E-13
 -1       617 2.38438E+01-1.26958E+00-1.60413E-04 1.87784E-01-1.43829E-14-3.82226E-13
 -1       618 2.29792E+01-1.34613E+00 1.22521E-03-4.71176E-01 4.25517E-14-3.22025E-13
 -1       619 2.21477E+01-1.02882E+00-5.24140E-04-9.01065E-01 1.09736E-14-2.55139E-13
 -1       620 2.14875E+01-6.16723E-01-4.45960E-04-1.10044E+00-3.42816E-14-1.85935E-13
 -1       621 2.10148E+01-2.61005E-01-2.77208E-04-1.13889E+00 2.83969E-14-1.13320E-13
 -1       622 2.06962E+01-7.98606E-03-1.76666E-04-1.08071E+00 6.12785E-14-1.06728E-13
 -1       623 2.04875E+01 1.46893E-01-1.02550E-04-9.71699E-01 1.81050E-15-1.15338E-13
 -1       624 2.03508E+01 2.25929E-01-4.57199E-05-8.41086E-01-1.60294E-14-8.94947E-14
 -1       625 2.02596E+01 2.53123E-01-5.41703E-06-7.06774E-01-3.45004E-14-1.47643E-13
 -1       626 2.01964E+01 2.48270E-01 1.97593E-05-5.79306E-01-2.82260E-14-6.62642E-14
 -1       627 2.01508E+01 2.25768E-01 3.29233E-05-4.64418E-01 5.91650E-14-6.42451E-14
 -1       628 2.01165E+01 1.95257E-01 3.77320E-05-3.64694E-01 3.79059E-14-1.00183E-13
 -1       629 2.00900E+01 1.62751E-01 3.73529E-05-2.80682E-01-3.47321E-14 1.46376E-13
 -1       630 2.00691E+01 1.31725E-01 3.41175E-05-2.11671E-01 6.62801E-15 1.73514E-13
 -1       631 2.00526E+01 1.03967E-01 2.95779E-05-1.56240E-01 1.34621E-13 1.49199E-13
 -1       632 2.00394E+01 8.02004E-02 2.46925E-05-1.12631E-01 2.74004E-14-8.71951E-14
 -1       633 2.00291E+01 6.05118E-02 2.00091E-05-7.90052E-02-8.94621E-14-1.44729E-13
 -1       634 2.00211E+01 4.46335E-02 1.58087E-05-5.35931E-02-5.97185E-14-1.44669E-14
 -1       635 2.00149E+01 3.21236E-02 1.22062E-05-3.47896E-02 7.73549E-14 3.98216E-14
 -1       636 2.00102E+01 2.24781E-02 9.21784E-06-2.11933E-02 2.10765E-13 2.08890E-13
 -1       637 2.00067E+01 1.51967E-02 6.80492E-06-1.16193E-02 9.19694E-14 2.65560E-13
 -1       638 2.00041E+01 9.81823E-03 4.90189E-06-5.09125E-03-7.34112E-14 3.37587E-14
 -1       639 2.00023E+01 5.93829E-03 3.43324E-06-8.22266E-04-8.09700E-14 3.21888E-14
 -1       640 2.00011E+01 3.21424E-03 2.32364E-06 1.80849E-03-7.26803E-14 9.70416E-14
 -1       641 2.00002E+01 1.36383E-03 1.50344E-06 3.28149E-03-1.80121E-13 8.45440E-14
 -1       642 1.99997E+01 1.60003E-04 9.11421E-07 3.96129E-03-3.29595E-14-1.31760E-13
 -1       643 1.99994E+01-5.76140E-04 4.95587E-07 4.11896E-03-2.31279E-13-3.16851E-13
 -1       644 1.99992E+01-9.82739E-04 2.13042E-07 3.95165E-03-1.28838E-13-4.12786E-13
 -1       645 1.99992E+01-1.16440E-03 2.91979E-08 3.59920E-03-5.33798E-14-3.39984E-13
 -1       646 1.99992E+01-1.19877E-03-8.32950E-08 3.15786E-03-9.72017E-15-6.59693E-14
 -1       647 1.99992E+01-1.14224E-03-1.45731E-07 2.69135E-03 5.21181E-14 1.67542E-13
 -1       648 1.99993E+01-1.03481E-03-1.74414E-07 2.23964E-03 1.67545E-13 3.70075E-13
 -1       649 1.99993E+01-9.04130E-04-1.81042E-07 1.82574E-03 2.85321E-13 3.47543E-13
 -1       650 1.99994E+01-7.68708E-04-1.76149E-07 1.46088E-03 3.43718E-13 3.76943E-13
 -1       651 1.99995E+01-6.40605E-04-1.57002E-07 1.14827E-03 1.96320E-13 3.41543E-13
 -1       652 1.99995E+01-5.26757E-04-1.60546E-07 8.86155E-04 1.24055E-13 5.19698E-13
 -1       653 1.99996E+01-4.31188E-04-1.38200E-07 6.70543E-04 2.16259E-13 6.88546E-13
 -1       654 1.99997E+01-3.55733E-04-2.36855E-07 4.93325E-04-2.30750E-15 6.83567E-13
 -1       655 2.35981E+01-1.57049E+00-1.46393E-03 7.39465E-01-3.64344E-14-2.23390E-13
 -1       656 2.25147E+01-1.10212E+00 9.43951E-04 1.25318E+00-7.67223E-14-9.62873E-14
 -1       657 2.17129E+01-5.66026E-01-8.02546E-04 1.43774E+00 3.53357E-14-5.92679E-14
 -1       658 2.11776E+01-1.50755E-01-3.40908E-04 1.42908E+00 1.01177E-13-1.14058E-15
 -1       659 2.08350E+01 1.10871E-01-8.64993E-05 1.31495E+00 1.18311E-14 1.26938E-13
 -1       660 2.06151E+01 2.48052E-01 1.06175E-04 1.15366E+00-6.72003E-14 1.47677E-13
 -1       661 2.04685E+01 3.00732E-01 2.10088E-04 9.78371E-01-1.32555E-13 1.08513E-13
 -1       662 2.03648E+01 3.02544E-01 2.46708E-04 8.07891E-01-1.35644E-13 1.73685E-13
 -1       663 2.02869E+01 2.77305E-01 2.40907E-04 6.52310E-01-6.38153E-14 1.03561E-13
 -1       664 2.02257E+01 2.40230E-01 2.14482E-04 5.16268E-01 7.15697E-14 6.24921E-15
 -1       665 2.01762E+01 2.00265E-01 1.80727E-04 4.01038E-01 1.22821E-13-5.58773E-16
 -1       666 2.01360E+01 1.62231E-01 1.46709E-04 3.05891E-01 1.25970E-14-5.29740E-14
 -1       667 2.01034E+01 1.28406E-01 1.15805E-04 2.29009E-01 1.35924E-13-1.00832E-13
 -1       668 2.00772E+01 9.95976E-02 8.93254E-05 1.68078E-01 2.31442E-13 1.13455E-13
 -1       669 2.00564E+01 7.58024E-02 6.74842E-05 1.20657E-01 7.11790E-14 1.56324E-13
 -1       670 2.00403E+01 5.66122E-02 4.99602E-05 8.44017E-02 4.59498E-14 2.85054E-13
 -1       671 2.00279E+01 4.14446E-02 3.62077E-05 5.71827E-02 1.32804E-13 3.94968E-13
 -1       672 2.00187E+01 2.96736E-02 2.56218E-05 3.71404E-02 8.46476E-14 3.12708E-13
 -1       673 2.00119E+01 2.06986E-02 1.76215E-05 2.26973E-02 8.34444E-14 3.35985E-13
 -1       674 2.00070E+01 1.39774E-02 1.16869E-05 1.25472E-02 1.15110E-13 2.57261E-13
 -1       675 2.00036E+01 9.04002E-03 7.37227E-06 5.63032E-03 1.31960E-13 6.01352E-14
 -1       676 2.00013E+01 5.49042E-03 4.30618E-06 1.10252E-03 4.13162E-14 8.94339E-14
 -1       677 1.99998E+01 3.00225E-03 2.18619E-06-1.69686E-03 3.40881E-14 1.31292E-13
 -1       678 1.99989E+01 1.31180E-03 7.70458E-07-3.27602E-03-8.07335E-14 2.45321E-13
 -1       679 1.99984E+01 2.09675E-04-1.31103E-07-4.01903E-03-1.31470E-13 1.38079E-13
 -1       680 1.99982E+01-4.67590E-04-6.65514E-07-4.21071E-03-4.82420E-14-7.93464E-14
 -1       681 1.99982E+01-8.45520E-04-9.44608E-07-4.05800E-03 9.52150E-14-2.86959E-13
 -1       682 1.99983E+01-1.01884E-03-1.05200E-06-3.70765E-03 4.52129E-14-1.59945E-13
 -1       683 1.99985E+01-1.05773E-03-1.04905E-06-3.26076E-03 5.83908E-15 4.08290E-14
 -1       684 1.99986E+01-1.01315E-03-9.79833E-07-2.78444E-03-3.09738E-14-4.44541E-14
 -1       685 1.99988E+01-9.21296E-04-8.75361E-07-2.32097E-03-1.85719E-13 1.15252E-13
 -1       686 1.99990E+01-8.07201E-04-7.56747E-07-1.89489E-03 1.24183E-13 4.94996E-13
 -1       687 1.99991E+01-6.87683E-04-6.37951E-07-1.51838E-03-4.44074E-14 4.81492E-13
 -1       688 1.99993E+01-5.73642E-04-5.29104E-07-1.19529E-03-2.10166E-13 3.38885E-13
 -1       689 1.99994E+01-4.71838E-04-4.25088E-07-9.24057E-04-1.67800E-13 3.39784E-13
 -1       690 1.99995E+01-3.86184E-04-3.77967E-07-6.99603E-04-8.52030E-14 2.00201E-13
 -1       691 1.99996E+01-3.17989E-04-4.50855E-07-5.16718E-04 4.81362E-14 1.42793E-13
 -1       692 1.99997E+01-2.97914E-04-3.28535E-07-4.01966E-04 2.92777E-13-2.01943E-13
 -1       693 2.00001E+01-7.80852E-04 1.28695E-07-7.95013E-05 1.74817E-13-9.29263E-14
 -1       694 1.99997E+01-3.13907E-04-1.36729E-07 3.91603E-04-1.38113E-13 3.69504E-13
 -1       695 2.00000E+01-6.50610E-04 3.13504E-08-3.50185E-04 1.02547E-13-6.08531E-13
 -1       696 2.00001E+01-7.80343E-04 1.17318E-07 8.22383E-05 8.29586E-14-9.98189E-16
 -1       697 2.00001E+01-7.35952E-04 1.13399E-07-2.30476E-04 2.04823E-13-1.18132E-13
 -1       698 2.15014E+01-3.13932E+00 3.03519E-02 4.92857E+00-3.94584E-13-2.53743E-13
 -1       699 2.00001E+01-7.35850E-04 8.77057E-08 2.30448E-04-8.06045E-14 8.34145E-15
 -1       700 2.00000E+01-6.49954E-04 8.61427E-08 3.49958E-04 1.22716E-13-3.23026E-13
 -1       701 1.99999E+01-5.31814E-04 5.67177E-08 4.20752E-04-1.41381E-14-1.58945E-14
 -1       702 2.79349E+01 5.43710E-01-8.09484E-02-5.89013E-01 5.34175E-13-5.16514E-13
 -1       703 1.61215E+01-1.59016E+00 9.29551E-02 5.73953E+00-4.74926E-13 1.91153E-13
 -1       704 1.63040E+01-2.02305E+00 7.69098E-02-6.05092E+00 5.62782E-13 2.08507E-13
 -1       705 2.80037E+01 1.81446E+00-1.09493E-01 3.97301E+00 4.59769E-13 4.45033E-13
 -1       706 2.62790E+01 5.28081E+00-1.23349E-01-1.54222E+00-6.84716E-13-3.06462E-13
 -1       707 2.77227E+01 8.51154E-01-7.99848E-02 3.92411E+00 3.07272E-13 4.73907E-13
 -1       708 2.55962E+01 2.35905E+00-4.26523E-02 2.88829E+00 4.43421E-13 4.91002E-13
 -1       709 2.73661E+01 3.80943E+00-1.15505E-01 3.52683E+00 6.52742E-13 3.76118E-13
 -1       710 2.22295E+01-3.30997E+00 2.82683E-02-4.68171E+00 5.37285E-13-4.50859E-14
 -1       711 2.68469E+01 4.94504E+00-1.33282E-01 1.37430E+00 8.13197E-13 5.71782E-14
 -1       712 2.63120E+01 4.18551E+00-1.15125E-01 1.64917E-01-5.21416E-13-5.06702E-13
 -1       713 2.53393E+01 2.68693E+00-2.82826E-02-3.24306E+00-4.44542E-13-1.15157E-13
 -1       714 2.58840E+01-2.41379E+00-3.27539E-02-1.49297E+00 2.27021E-13-4.46376E-13
 -1       715 2.56371E+01 1.94010E+00-3.56229E-02-3.78167E+00-3.15790E-13-8.26487E-14
 -1       716 1.16162E+01 8.96502E-02 1.21605E-01-4.58751E+00 3.12344E-13 5.93414E-13
 -1       717 2.54066E+01 3.13459E+00-1.48052E-02 1.37548E+00 5.52744E-13 2.75093E-13
 -1       718 2.70555E+01 2.76440E+00-6.92827E-02-3.57667E+00-4.85466E-13 5.06782E-14
 -1       719 9.29416E+00 1.33240E+00 1.19435E-01 1.76564E+00-9.23289E-14 8.39918E-13
 -1       720 1.99999E+01-5.32878E-04-1.45986E-07-4.20615E-04-1.17643E-13-5.43377E-13
 -1       721 1.05375E+01 1.14346E+00 1.17838E-01-2.65100E+00 1.08193E-13 7.11705E-13
 -1       722 1.99998E+01-4.18099E-04-4.17018E-08-4.32878E-04 7.03338E-14-1.27345E-13
 -1       723 1.99998E+01-4.50606E-04 8.23062E-08 4.72358E-04-2.10128E-13 2.21437E-13
 -1       724 2.45419E+01-3.14604E+00 4.73445E-03 2.64486E+00-2.29908E-13-5.03660E-13
 -1       725 2.69704E+01 1.82066E+00-7.88409E-02-3.18794E+00-3.51448E-13 1.22277E-13
 -1       726 2.58925E+01 3.33604E+00-7.55896E-02-3.31587E+00-5.07663E-13-1.34653E-13
 -1       727 2.21710E+01-1.65374E+00-7.08522E-04 2.15356E+00-2.06419E-13-2.33767E-13
 -1       728 2.54966E+01-7.93343E-01-4.24716E-02 4.61080E-01-3.37404E-16-5.87970E-13
 -1       729 2.43268E+01-1.90934E+00-9.21294E-03-5.60532E-01 1.08375E-13-4.06389E-13
 -1       730 2.29469E+01-1.86795E+00-6.94868E-03-1.28503E+00 1.07076E-13-2.12444E-13
 -1       731 2.17851E+01-1.29630E+00-2.39857E-03-1.59086E+00 4.24878E-14-1.10980E-13
 -1       732 2.09861E+01-7.08883E-01-4.14616E-04-1.60602E+00 1.08502E-13-8.46648E-14
 -1       733 2.04865E+01-2.41277E-01 1.61410E-04-1.47868E+00 5.06474E-14 4.22529E-14
 -1       734 2.02031E+01 7.34007E-02 2.77701E-04-1.29899E+00 5.35801E-14 1.33984E-13
 -1       735 2.00563E+01 2.58172E-01 2.50324E-04-1.10973E+00-4.33359E-14 3.10926E-14
 -1       736 1.99896E+01 3.47580E-01 1.94907E-04-9.29225E-01 7.13519E-15-2.24649E-14
 -1       737 1.99665E+01 3.73271E-01 1.42498E-04-7.64964E-01-4.47443E-14 4.42856E-14
 -1       738 1.99650E+01 3.59941E-01 9.95996E-05-6.19727E-01-5.96683E-14 5.05475E-14
 -1       739 1.99725E+01 3.25241E-01 6.63234E-05-4.94130E-01 6.76726E-14-2.79628E-14
 -1       740 1.99825E+01 2.80997E-01 4.15213E-05-3.87637E-01 9.57770E-14 1.58231E-14
 -1       741 1.99918E+01 2.34673E-01 2.37561E-05-2.99015E-01 7.26606E-14 8.01893E-14
 -1       742 1.99992E+01 1.90646E-01 1.15561E-05-2.26592E-01-1.37661E-14 2.48677E-13
 -1       743 2.00043E+01 1.51216E-01 3.56610E-06-1.68450E-01-1.21430E-13 1.39749E-13
 -1       744 2.00076E+01 1.17335E-01-1.36378E-06-1.22592E-01-8.14844E-14-4.47779E-14
 -1       745 2.00092E+01 8.91307E-02-4.14985E-06-8.70614E-02 1.13330E-14-1.94925E-14
 -1       746 2.00097E+01 6.62571E-02-5.48882E-06-6.00322E-02 4.85838E-14 9.77327E-14
 -1       747 2.00095E+01 4.81249E-02-5.89138E-06-3.98654E-02 1.95561E-13 1.80194E-13
 -1       748 2.00087E+01 3.40516E-02-5.72065E-06-2.51342E-02 2.55009E-13 1.69501E-13
 -1       749 2.00077E+01 2.33505E-02-5.22747E-06-1.46293E-02 1.23002E-13-2.47036E-14
 -1       750 2.00066E+01 1.53825E-02-4.57987E-06-7.34957E-03-1.76776E-13 9.66564E-14
 -1       751 2.00055E+01 9.58144E-03-3.88622E-06-2.48368E-03-7.37304E-14-6.76574E-14
 -1       752 2.00045E+01 5.46367E-03-3.21288E-06 6.13198E-04 8.40053E-15-6.51714E-14
 -1       753 2.00035E+01 2.62769E-03-2.59723E-06 2.44390E-03-1.09667E-13 1.37732E-13
 -1       754 2.00027E+01 7.48061E-04-2.05730E-06 3.39321E-03-2.91913E-13-2.41746E-14
 -1       755 2.00021E+01-4.33483E-04-1.59854E-06 3.74995E-03-3.98746E-13-3.97384E-13
 -1       756 2.00015E+01-1.11783E-03-1.21872E-06 3.72644E-03-1.00355E-13-4.70836E-13
 -1       757 2.00011E+01-1.45823E-03-9.11226E-07 3.47521E-03 8.72053E-14-1.58453E-13
 -1       758 2.00007E+01-1.56936E-03-6.67379E-07 3.10287E-03 1.37962E-13 3.31121E-14
 -1       759 2.00005E+01-1.53523E-03-4.77906E-07 2.68150E-03 1.41609E-13 1.37841E-13
 -1       760 2.00003E+01-1.41604E-03-3.33789E-07 2.25765E-03 2.01328E-13 2.71077E-13
 -1       761 2.00001E+01-1.25382E-03-2.26155E-07 1.85945E-03 2.05937E-13 3.74149E-13
 -1       762 2.00000E+01-1.07706E-03-1.56338E-07 1.50210E-03 3.02084E-13 1.49896E-13
 -1       763 1.99999E+01-9.04592E-04-1.15534E-07 1.19211E-03 2.64410E-13 1.38826E-13
 -1       764 1.99998E+01-7.46181E-04 2.77985E-08 9.29145E-04 1.74075E-13 4.04800E-13
 -1       765 1.99998E+01-6.12313E-04 1.52719E-09 7.10545E-04 3.38584E-13 3.62909E-13
 -1       766 1.99998E+01-5.24900E-04-3.74797E-07 5.83764E-04 1.35836E-13 3.12262E-13
 -1       767 2.30368E+01-2.43518E+00-1.04496E-03 2.50868E+00-2.65730E-13-4.13393E-13
 -1       768 2.04874E+01-2.27098E-01 4.39629E-04 1.88663E+00-5.61903E-14 5.29542E-14
 -1       769 2.01774E+01 1.60623E-01 1.51287E-04 1.62548E+00-3.61976E-14 1.46936E-13
 -1       770 2.00388E+01 3.68772E-01 8.93659E-05 1.37210E+00-1.22119E-13 1.75343E-13
 -1       771 1.99896E+01 4.54410E-01 8.91680E-05 1.14079E+00-6.58638E-15 1.90816E-13
 -1       772 1.99820E+01 4.64488E-01 9.09699E-05 9.35471E-01-1.13858E-13-3.62294E-14
 -1       773 1.99904E+01 4.32522E-01 8.17678E-05 7.56548E-01-8.12013E-14-9.74379E-14
 -1       774 2.00022E+01 3.80548E-01 6.82753E-05 6.03132E-01 4.80617E-15-1.08489E-13
 -1       775 2.00121E+01 3.22061E-01 5.50671E-05 4.73694E-01 9.73033E-14-8.04206E-14
 -1       776 2.00187E+01 2.64749E-01 4.34987E-05 3.66266E-01 1.53361E-13-4.72590E-14
 -1       777 2.00220E+01 2.12585E-01 3.37953E-05 2.78571E-01 6.08572E-14-2.11017E-13
 -1       778 2.00227E+01 1.67268E-01 2.58483E-05 2.08154E-01 1.39198E-14-1.71327E-13
 -1       779 2.00217E+01 1.29173E-01 1.94561E-05 1.52536E-01 8.80430E-14 2.12249E-14
 -1       780 2.00196E+01 9.79518E-02 1.43955E-05 1.09330E-01-2.24185E-14 1.39496E-13
 -1       781 2.00171E+01 7.28987E-02 1.04493E-05 7.63328E-02-5.45824E-15 5.31784E-14
 -1       782 2.00144E+01 5.31687E-02 7.41824E-06 5.15810E-02 1.51494E-13 1.09338E-13
 -1       783 2.00118E+01 3.79029E-02 5.12652E-06 3.33718E-02-2.47401E-14 2.67345E-13
 -1       784 2.00095E+01 2.62965E-02 3.42303E-06 2.02655E-02 1.61639E-13 3.92873E-13
 -1       785 2.00074E+01 1.76311E-02 2.18055E-06 1.10705E-02 2.83574E-13 3.06707E-13
 -1       786 2.00057E+01 1.12878E-02 1.29393E-06 4.81989E-03-9.76155E-16 4.69814E-13
 -1       787 2.00043E+01 6.74647E-03 6.77666E-07 7.43224E-04 7.63044E-14 5.48370E-13
 -1       788 2.00031E+01 3.57983E-03 2.63321E-07-1.76251E-03-2.94627E-14 4.77613E-13
 -1       789 2.00022E+01 1.44328E-03-3.04267E-09-3.16112E-03-2.87189E-14 3.74717E-13
 -1       790 2.00015E+01 6.38104E-05-1.63269E-07-3.80298E-03 3.27969E-14 2.53002E-13
 -1       791 2.00010E+01-7.71238E-04-2.49299E-07-3.94769E-03 1.40990E-13 6.72088E-14
 -1       792 2.00006E+01-1.22471E-03-2.85097E-07-3.78361E-03 1.40869E-13-1.17045E-13
 -1       793 2.00003E+01-1.41915E-03-2.88311E-07-3.44403E-03-1.45610E-13-4.18663E-13
 -1       794 2.00001E+01-1.44502E-03-2.71662E-07-3.02056E-03-1.26870E-13-3.08365E-13
 -1       795 2.00000E+01-1.36779E-03-2.44086E-07-2.57378E-03-1.80605E-13 2.62935E-14
 -1       796 1.99999E+01-1.23371E-03-2.12062E-07-2.14161E-03-9.28127E-14 4.36774E-14
 -1       797 1.99998E+01-1.07462E-03-1.79504E-07-1.74586E-03 5.44993E-14-2.04068E-14
 -1       798 1.99998E+01-9.11755E-04-1.50317E-07-1.39716E-03-5.85211E-14-1.49485E-13
 -1       799 1.99997E+01-7.58765E-04-1.10685E-07-1.09858E-03-1.74359E-13-1.85561E-13
 -1       800 1.99997E+01-6.23196E-04-1.78001E-07-8.49012E-04-1.70220E-13-2.29235E-13
 -1       801 1.99997E+01-5.10267E-04 9.01550E-07-6.41492E-04 1.11880E-13-4.41278E-13
 -1       802 1.99997E+01-4.59724E-04 4.81793E-08-5.34046E-04 1.44627E-13-2.80379E-13
 -1       803 1.97646E+01-2.04087E+00 3.09037E-02 4.38973E+00-4.42754E-13-1.43619E-13
 -1       804 2.11091E+01-8.40434E-01-9.15628E-05 2.08750E+00-1.05646E-13-1.08872E-13
 -1       805 2.00001E+01-8.22631E-04 7.70472E-08 3.77493E-04 5.95813E-14-8.69685E-14
 -1       806 2.00003E+01-9.27425E-04 7.45097E-08 1.95783E-06 2.03008E-13 5.74965E-14
 -1       807 2.00000E+01-6.99711E-04 3.73007E-08 5.04606E-04-1.59507E-13-2.72125E-13
 -1       808 2.00002E+01-9.00129E-04 5.59133E-08 2.02357E-04 3.28350E-14-1.00820E-13
 -1       809 1.56235E+01-6.69089E-01 5.76553E-02-4.72052E+00 3.85950E-13 1.85810E-13
 -1       810 1.35581E+01 1.60168E-01 9.65697E-02 4.28148E+00-3.59997E-13 2.73580E-13
 -1       811 1.98153E+01-2.22852E+00 3.10908E-02-4.50574E+00 5.05524E-13 3.16552E-14
 -1       812 2.35450E+01-2.72988E+00 1.35885E-02-2.58246E+00 3.67141E-13-1.82833E-13
 -1       813 2.62870E+01 2.63700E+00-7.42682E-02 7.63553E-01-3.45262E-13-6.17513E-13
 -1       814 2.00000E+01-7.01475E-04 1.45818E-07-5.07185E-04 6.02143E-14-3.98884E-13
 -1       815 1.08614E+01 1.64206E+00 8.02645E-02-6.38561E-01-7.43832E-14 8.00072E-13
 -1       816 2.00001E+01-8.23336E-04 1.31827E-07-3.77418E-04 1.92803E-13-3.59239E-13
 -1       817 2.00002E+01-9.01014E-04 6.29522E-08-2.00555E-04 4.73998E-14-1.16813E-13
 -1       818 1.99999E+01-6.16714E-04-3.99023E-07 5.55293E-04-5.07842E-14-3.82648E-14
 -1       819 1.72702E+01-6.69927E-01 3.41055E-02 4.10756E+00-4.20126E-13 4.16585E-14
 -1       820 1.39221E+01 4.07719E-01 6.67119E-02-3.71282E+00 2.21677E-13 3.32121E-13
 -1       821 1.92852E+01 5.44127E-01 1.43398E-04 1.52842E+00-4.14353E-14 4.52467E-14
 -1       822 1.82164E+01-9.28750E-01 4.71006E-03-3.77410E+00 3.30181E-13 4.03635E-14
 -1       823 2.13464E+01-1.67925E+00 1.39811E-02-2.59386E+00 1.87068E-13 4.76001E-14
 -1       824 2.03074E+01-8.57918E-01-8.06798E-04-2.32547E+00 9.72719E-14 1.64051E-13
 -1       825 1.98064E+01-2.40292E-01 5.11159E-04-1.93797E+00 1.51348E-13 1.07843E-13
 -1       826 1.95887E+01 1.54196E-01 1.43565E-04-1.58200E+00 1.50136E-14 9.35780E-14
 -1       827 1.95296E+01 3.80779E-01 6.02634E-06-1.28010E+00-1.21574E-14 7.23816E-15
 -1       828 1.95521E+01 4.88775E-01-4.81545E-05-1.03182E+00-3.40244E-14 4.99941E-14
 -1       829 1.96114E+01 5.18463E-01-6.21785E-05-8.28519E-01 3.64370E-14-3.14596E-15
 -1       830 1.96824E+01 4.99773E-01-5.53756E-05-6.61481E-01-8.29880E-15-3.89460E-14
 -1       831 1.97519E+01 4.53910E-01-4.08934E-05-5.23846E-01-3.39567E-14 6.09096E-14
 -1       832 1.98136E+01 3.95288E-01-2.55809E-05-4.10553E-01 1.37823E-13 2.42758E-14
 -1       833 1.98650E+01 3.33272E-01-1.24490E-05-3.17793E-01 2.11514E-13-4.12510E-15
 -1       834 1.99061E+01 2.73593E-01-2.46525E-06-2.42517E-01 1.05977E-13 1.41693E-14
 -1       835 1.99377E+01 2.19447E-01 4.40543E-06-1.82125E-01-1.04428E-13 1.13127E-13
 -1       836 1.99613E+01 1.72315E-01 8.62962E-06-1.34313E-01-2.07131E-13 1.94267E-13
 -1       837 1.99782E+01 1.32579E-01 1.08039E-05-9.70086E-02 7.68007E-14 1.04615E-13
 -1       838 1.99900E+01 9.99453E-02 1.15045E-05-6.83590E-02 7.40494E-14 7.31288E-14
 -1       839 1.99979E+01 7.37505E-02 1.12213E-05-4.67286E-02 1.63472E-14-1.31693E-13
 -1       840 2.00028E+01 5.31589E-02 1.03393E-05-3.07002E-02 2.36077E-13-1.65974E-13
 -1       841 2.00056E+01 3.72925E-02 9.14262E-06-1.90695E-02 2.85578E-13-1.24409E-13
 -1       842 2.00069E+01 2.53093E-02 7.82968E-06-1.08331E-02-2.71405E-15-5.32178E-15
 -1       843 2.00072E+01 1.64462E-02 6.53050E-06-5.17033E-03-1.78407E-13-1.94784E-14
 -1       844 2.00070E+01 1.00392E-02 5.32378E-06-1.42227E-03-3.60843E-14 6.75976E-15
 -1       845 2.00064E+01 5.52779E-03 4.25136E-06 9.30910E-04-4.61686E-14 4.38507E-14
 -1       846 2.00056E+01 2.45095E-03 3.32975E-06 2.29199E-03-2.55925E-13-2.36536E-13
 -1       847 2.00047E+01 4.37782E-04 2.55905E-06 2.96751E-03-4.06546E-13-4.82140E-14
 -1       848 2.00039E+01-8.04128E-04 1.92945E-06 3.18629E-03-1.41232E-13 1.76559E-13
 -1       849 2.00031E+01-1.50091E-03 1.42580E-06 3.11566E-03 1.44331E-13 2.45189E-13
 -1       850 2.00025E+01-1.82413E-03 1.03072E-06 2.87512E-03 2.26376E-13 3.81342E-13
 -1       851 2.00019E+01-1.90137E-03 7.26612E-07 2.54763E-03 2.33652E-14 1.67890E-13
 -1       852 2.00014E+01-1.82559E-03 4.97349E-07 2.18880E-03 2.15671E-13 4.74275E-14
 -1       853 2.00010E+01-1.66291E-03 3.30474E-07 1.83415E-03 2.52356E-13 9.00945E-14
 -1       854 2.00007E+01-1.45918E-03 2.30443E-07 1.50483E-03 1.41222E-13 8.60849E-14
 -1       855 2.00004E+01-1.24458E-03 3.53400E-07 1.21185E-03 3.60355E-13 1.86743E-13
 -1       856 2.00002E+01-1.03899E-03-1.66252E-06 9.60192E-04 4.31931E-13 2.52092E-13
 -1       857 2.00001E+01-8.52649E-04 4.37316E-07 7.47568E-04 1.43792E-13 1.39197E-13
 -1       858 1.93832E+01 6.42202E-01 8.65379E-07 1.22649E+00 1.23807E-14-4.70610E-14
 -1       859 1.92575E+01 2.99729E-01 2.07536E-04 1.91588E+00-1.07552E-13 5.01500E-15
 -1       860 1.95020E+01 6.50330E-01 1.29534E-05 9.86616E-01 4.65389E-14-4.17064E-14
 -1       861 1.96163E+01 6.07135E-01 1.90278E-05 7.92260E-01-4.58540E-14-7.12007E-14
 -1       862 1.97150E+01 5.38453E-01 1.45476E-05 6.32357E-01-5.68653E-14-5.18901E-14
 -1       863 1.97953E+01 4.60518E-01 9.59331E-06 4.99978E-01-9.62126E-15-7.73797E-14
 -1       864 1.98579E+01 3.83032E-01 6.12767E-06 3.90599E-01 2.04449E-13-1.64168E-13
 -1       865 1.99051E+01 3.11364E-01 3.95470E-06 3.00924E-01 1.41106E-13-1.07956E-13
 -1       866 1.99396E+01 2.48099E-01 2.60956E-06 2.28236E-01-5.47955E-15-7.76526E-14
 -1       867 1.99642E+01 1.94089E-01 1.75879E-06 1.70113E-01-4.33893E-14-8.12167E-14
 -1       868 1.99812E+01 1.49168E-01 1.20328E-06 1.24325E-01 4.43277E-14-1.52458E-13
 -1       869 1.99926E+01 1.12611E-01 8.28668E-07 8.88237E-02-4.82104E-14-2.19985E-13
 -1       870 1.99998E+01 8.34248E-02 5.68997E-07 6.17584E-02 2.61221E-14-9.89483E-14
 -1       871 2.00041E+01 6.05361E-02 3.85498E-07 4.14952E-02-4.68434E-14 1.50062E-13
 -1       872 2.00064E+01 4.28945E-02 2.54602E-07 2.66232E-02-3.31790E-14 1.82572E-13
 -1       873 2.00074E+01 2.95343E-02 1.61289E-07 1.59512E-02 1.25817E-13 3.05250E-13
 -1       874 2.00074E+01 1.96022E-02 9.54367E-08 8.49403E-03 5.05903E-14 5.55469E-13
 -1       875 2.00070E+01 1.23673E-02 4.98501E-08 3.45256E-03 8.89858E-14 6.12911E-13
 -1       876 2.00063E+01 7.21812E-03 1.92093E-08 1.90509E-04 5.97535E-14 4.60725E-13
 -1       877 2.00054E+01 3.65411E-03-5.13570E-10-1.78968E-03 3.63973E-14 4.90564E-13
 -1       878 2.00045E+01 1.27288E-03-1.23940E-08-2.87015E-03-1.20892E-15 3.47140E-13
 -1       879 2.00037E+01-2.43312E-04-1.87684E-08-3.33898E-03 1.54570E-13 2.91481E-13
 -1       880 2.00029E+01-1.14108E-03-2.13948E-08-3.40909E-03 1.98354E-13 3.25821E-13
 -1       881 2.00023E+01-1.60857E-03-2.15703E-08-3.23445E-03 2.38255E-13 5.57966E-13
 -1       882 2.00017E+01-1.78676E-03-2.02115E-08-2.92357E-03-4.05785E-14 1.96556E-13
 -1       883 2.00013E+01-1.77925E-03-1.79228E-08-2.55062E-03-2.43609E-13-2.35478E-13
 -1       884 2.00009E+01-1.66057E-03-1.50841E-08-2.16424E-03-2.24385E-13-1.83597E-13
 -1       885 2.00006E+01-1.48306E-03-1.36821E-08-1.79456E-03 2.33057E-15 9.86556E-14
 -1       886 2.00004E+01-1.28247E-03-1.33103E-08-1.45858E-03 2.12806E-13-7.76004E-14
 -1       887 2.00002E+01-1.08233E-03 1.52153E-09-1.16425E-03-4.30897E-14-3.09820E-13
 -1       888 2.00001E+01-8.97874E-04-6.23560E-08-9.14518E-04-8.22764E-14-5.27415E-13
 -1       889 2.00000E+01-7.36557E-04-7.15783E-07-7.06059E-04 6.59751E-14-8.40510E-13
 -1       890 2.00002E+01-9.08386E-04-3.75069E-07 5.65065E-04-3.35284E-14-5.46866E-13
 -1       891 1.25319E+01 1.28983E+00 6.93992E-02 2.30086E+00-2.88060E-13 5.18932E-13
 -1       892 1.30838E+01 1.23400E+00 4.76633E-02-2.27539E+00 1.22575E-13 5.04293E-13
 -1       893 1.55157E+01 5.22619E-01 3.08572E-02 3.13690E+00-3.40065E-13 1.57239E-13
 -1       894 1.98358E+01-1.22754E+00 1.19588E-02 3.36115E+00-2.68344E-13-1.10313E-13
 -1       895 2.00004E+01-1.03021E-03-7.02826E-08 3.71280E-04 1.62021E-13-9.53140E-14
 -1       896 1.93945E+01-1.66004E-01 3.61690E-04 2.41994E+00-2.43372E-13-1.04242E-13
 -1       897 2.00005E+01-1.09335E-03 1.75129E-07-1.26539E-04 1.38034E-13 2.68692E-13
 -1       898 1.68280E+01-8.18464E-02 3.35175E-02-3.42056E+00 2.46595E-13 9.49371E-15
 -1       899 2.00002E+01-9.11636E-04-5.16635E-07-5.66300E-04 5.98499E-15-2.95272E-13
 -1       900 2.00005E+01-1.09267E-03 7.63024E-08 1.30402E-04 1.69591E-13-3.53481E-13
 -1       901 2.00004E+01-1.03124E-03 3.00742E-07-3.67005E-04-2.92428E-14-3.19439E-13
 -1       902 1.80401E+01-8.64972E-02 6.89360E-03-2.84174E+00 1.77901E-13 6.10024E-14
 -1       903 1.86463E+01 8.74254E-01-4.39251E-04 1.19053E+00-2.94793E-14-2.75997E-14
 -1       904 1.81590E+01 3.87260E-01-6.48507E-04-2.07870E+00 5.23923E-14 1.20578E-13
 -1       905 1.84020E+01 6.43379E-01-9.93070E-04-1.52944E+00 1.96256E-14 2.45176E-14
 -1       906 1.86668E+01 7.54866E-01-5.95019E-04-1.14306E+00-2.91452E-14 5.27785E-14
 -1       907 1.89167E+01 7.77021E-01-2.96828E-04-8.67091E-01 3.60757E-14 2.75492E-14
 -1       908 1.91381E+01 7.44130E-01-1.24225E-04-6.65116E-01 4.34920E-14 6.85784E-14
 -1       909 1.93274E+01 6.79241E-01-3.53517E-05-5.13362E-01 4.87311E-14 1.57303E-13
 -1       910 1.94851E+01 5.98161E-01 3.96780E-06-3.96693E-01 6.10644E-14 1.87663E-13
 -1       911 1.96136E+01 5.11716E-01 1.76239E-05-3.05547E-01 5.86975E-14 1.11025E-13
 -1       912 1.97164E+01 4.27087E-01 1.92492E-05-2.33725E-01 1.77677E-13-1.01096E-15
 -1       913 1.97969E+01 3.48722E-01 1.59960E-05-1.77012E-01 8.90849E-14-4.10165E-14
 -1       914 1.98588E+01 2.79043E-01 1.13828E-05-1.32368E-01 5.06648E-14-1.79426E-13
 -1       915 1.99054E+01 2.19035E-01 6.99684E-06-9.74727E-02-6.42625E-14-2.01498E-14
 -1       916 1.99397E+01 1.68709E-01 3.43875E-06-7.04671E-02-7.31245E-14 1.43639E-14
 -1       917 1.99644E+01 1.27465E-01 8.29574E-07-4.98229E-02 4.37477E-14-2.17100E-13
 -1       918 1.99816E+01 9.43630E-02-9.21519E-07-3.42665E-02-9.39938E-14-2.21003E-13
 -1       919 1.99932E+01 6.83099E-02-1.98034E-06-2.27355E-02 1.96383E-14-3.33374E-13
 -1       920 2.00006E+01 4.81918E-02-2.52143E-06-1.43489E-02 2.07563E-13-5.25400E-13
 -1       921 2.00051E+01 3.29525E-02-2.69923E-06-8.38415E-03 9.35169E-14-4.39844E-13
 -1       922 2.00074E+01 2.16392E-02-2.63857E-06-4.25553E-03-2.91164E-14-3.20167E-13
 -1       923 2.00084E+01 1.34232E-02-2.43429E-06-1.49536E-03 7.72546E-14-3.38093E-13
 -1       924 2.00084E+01 7.60466E-03-2.15497E-06 2.64482E-04-1.10316E-14-5.13410E-13
 -1       925 2.00078E+01 3.60675E-03-1.84779E-06 1.30921E-03-1.52855E-13-2.24822E-13
 -1       926 2.00070E+01 9.64209E-04-1.54349E-06 1.85619E-03-1.06458E-13 3.22688E-14
 -1       927 2.00060E+01-6.90888E-04-1.26061E-06 2.06818E-03 1.28551E-13 1.56558E-13
 -1       928 2.00050E+01-1.64401E-03-1.00909E-06 2.06469E-03 2.51089E-13 1.41460E-13
 -1       929 2.00041E+01-2.11253E-03-7.92979E-07 1.93157E-03 1.18340E-14 2.64591E-14
 -1       930 2.00033E+01-2.25882E-03-6.12622E-07 1.72887E-03-4.46012E-14-1.74080E-13
 -1       931 2.00025E+01-2.20168E-03-4.65716E-07 1.49724E-03 1.16469E-13-1.35945E-13
 -1       932 2.00019E+01-2.02607E-03-3.45151E-07 1.26307E-03 1.29199E-13-1.07617E-13
 -1       933 2.00014E+01-1.79125E-03-2.24253E-07 1.04244E-03 2.73258E-13-2.16784E-13
 -1       934 2.00010E+01-1.53756E-03-1.60574E-07 8.43350E-04 3.14292E-13-3.30819E-13
 -1       935 2.00006E+01-1.28827E-03 3.69661E-07 6.73857E-04 1.90693E-13-5.26339E-13
 -1       936 1.91850E+01 7.92442E-01-5.63482E-05 7.38272E-01-3.43834E-15 7.19191E-15
 -1       937 1.83065E+01 8.05723E-01-2.34665E-04 1.56205E+00-1.32342E-13-4.41421E-14
 -1       938 1.93842E+01 7.03404E-01-2.82790E-05 5.87690E-01-4.61789E-14 1.41641E-14
 -1       939 1.95430E+01 6.05370E-01-1.81575E-05 4.66610E-01-1.89306E-14-1.13291E-13
 -1       940 1.96673E+01 5.08076E-01-1.33177E-05 3.67685E-01 7.48414E-14-1.70807E-13
 -1       941 1.97629E+01 4.17347E-01-1.00977E-05 2.86539E-01 3.85587E-14 6.90868E-14
 -1       942 1.98353E+01 3.36286E-01-7.59995E-06 2.20269E-01 9.47893E-14 2.49721E-13
 -1       943 1.98892E+01 2.66159E-01-5.60176E-06 1.66670E-01 5.88396E-14 5.84351E-14
 -1       944 1.99285E+01 2.07044E-01-4.01854E-06 1.23873E-01 3.52945E-14-1.69228E-14
 -1       945 1.99566E+01 1.58296E-01-2.78965E-06 9.02045E-02 2.85003E-14-1.19171E-13
 -1       946 1.99762E+01 1.18872E-01-1.85852E-06 6.41417E-02-1.33032E-13-1.52917E-14
 -1       947 1.99894E+01 8.75620E-02-1.17122E-06 4.43138E-02-1.58989E-13 3.13122E-14
 -1       948 1.99981E+01 6.31233E-02-6.78165E-07 2.95102E-02-7.89587E-14 1.34101E-13
 -1       949 2.00033E+01 4.43756E-02-3.35759E-07 1.86845E-02 2.11929E-14 2.25161E-13
 -1       950 2.00063E+01 3.02481E-02-1.07151E-07 1.09531E-02-5.93355E-14 1.96872E-13
 -1       951 2.00076E+01 1.98036E-02 3.77104E-08 5.58464E-03-1.13775E-13 2.27271E-13
 -1       952 2.00080E+01 1.22440E-02 1.22605E-07 1.98658E-03 1.98463E-13 2.54620E-13
 -1       953 2.00076E+01 6.90534E-03 1.65854E-07-3.12410E-04-5.14754E-15 1.99704E-13
 -1       954 2.00069E+01 3.24614E-03 1.81230E-07-1.68019E-03 1.34527E-13 1.91848E-13
 -1       955 2.00060E+01 8.33188E-04 1.78839E-07-2.39852E-03 1.57293E-13 1.41576E-14
 -1       956 2.00051E+01-6.74107E-04 1.65914E-07-2.67912E-03 1.62903E-13 1.72345E-13
 -1       957 2.00042E+01-1.53890E-03 1.47495E-07-2.67782E-03 1.77896E-14 1.30254E-13
 -1       958 2.00034E+01-1.96094E-03 1.27008E-07-2.50673E-03 3.22498E-13 3.34511E-14
 -1       959 2.00026E+01-2.08909E-03 1.06806E-07-2.24435E-03 1.32031E-13-9.86375E-14
 -1       960 2.00020E+01-2.03207E-03 8.87860E-08-1.94386E-03-2.19576E-13-1.36366E-13
 -1       961 2.00015E+01-1.86755E-03 7.46321E-08-1.63972E-03-8.20397E-14-4.59026E-14
 -1       962 2.00011E+01-1.64956E-03 5.77726E-08-1.35297E-03 2.07874E-13-3.45845E-13
 -1       963 2.00007E+01-1.41460E-03 5.51308E-08-1.09507E-03 1.54025E-13-2.50115E-13
 -1       964 2.00005E+01-1.18714E-03-4.92315E-08-8.72014E-04 2.66686E-14-3.48572E-13
 -1       965 2.00003E+01-1.04338E-03 1.62119E-07-7.06799E-04 2.50074E-13-3.51518E-13
 -1       966 1.32858E+01 1.70450E+00 4.13136E-02 3.03012E-01-1.11368E-13 5.67519E-13
 -1       967 1.89402E+01 8.57186E-01-1.24931E-04 9.31298E-01 4.15137E-14 3.22421E-14
 -1       968 1.78051E+01 2.76201E-01 7.56725E-03 2.68007E+00-1.73286E-13 1.43844E-13
 -1       969 2.00007E+01-1.26617E-03-7.24869E-07-3.10150E-04 4.58659E-14 1.36794E-13
 -1       970 1.80205E+01 6.19910E-01 1.22523E-03 2.03560E+00-1.19197E-13-2.09915E-14
 -1       971 1.57513E+01 6.62292E-01 1.57329E-02-2.71492E+00 1.49758E-13 1.41039E-13
 -1       972 1.49317E+01 1.30675E+00 1.48360E-02 1.70015E+00-2.33842E-13 3.19981E-13
 -1       973 2.00007E+01-1.30393E-03 5.88944E-08 4.42987E-06 5.30020E-14-1.45607E-15
 -1       974 1.47915E+01 1.49276E+00 1.23739E-02-9.99759E-01 6.56829E-14 3.11862E-13
 -1       975 1.73498E+01 9.97532E-01 1.70842E-03-1.36988E+00 3.04083E-14 1.05118E-13
 -1       976 1.79269E+01 1.02219E+00 2.81134E-04-9.69533E-01 8.19836E-14 9.17707E-14
 -1       977 1.83812E+01 9.89282E-01-1.23133E-05-7.02488E-01 6.43153E-14 2.20761E-13
 -1       978 1.87427E+01 9.18798E-01-3.94136E-05-5.18725E-01 3.58666E-14 2.17265E-13
 -1       979 1.90307E+01 8.26996E-01-4.47492E-05-3.88271E-01 6.71448E-14 2.08702E-13
 -1       980 1.92606E+01 7.24718E-01-4.25912E-05-2.92891E-01 3.73257E-14 1.72869E-13
 -1       981 1.94435E+01 6.20174E-01-4.00600E-05-2.21569E-01-4.00911E-16 1.59187E-13
 -1       982 1.95879E+01 5.19373E-01-3.72100E-05-1.67371E-01 3.09422E-14 1.23567E-13
 -1       983 1.97007E+01 4.26338E-01-3.37469E-05-1.25777E-01 1.67480E-13 4.61853E-14
 -1       984 1.97877E+01 3.43414E-01-2.97801E-05-9.37257E-02 3.70229E-14 2.00802E-13
 -1       985 1.98536E+01 2.71617E-01-2.55869E-05-6.90428E-02-2.59006E-14 1.99979E-13
 -1       986 1.99028E+01 2.10992E-01-2.14435E-05-5.01208E-02-1.07092E-13-1.44226E-14
 -1       987 1.99387E+01 1.60924E-01-1.75614E-05-3.57269E-02-1.40484E-14-9.33523E-14
 -1       988 1.99643E+01 1.20408E-01-1.40753E-05-2.48912E-02-6.39574E-14-8.76473E-14
 -1       989 1.99820E+01 8.82420E-02-1.10514E-05-1.68391E-02-1.72468E-13 1.94724E-14
 -1       990 1.99939E+01 6.31741E-02-8.50390E-06-1.09483E-02-5.98007E-14-9.06924E-14
 -1       991 2.00014E+01 4.39965E-02-6.41141E-06-6.71886E-03 2.14174E-13-4.05147E-13
 -1       992 2.00059E+01 2.96037E-02-4.73123E-06-3.75090E-03 1.68160E-13-3.52986E-13
 -1       993 2.00082E+01 1.90217E-02-3.41019E-06-1.72740E-03-2.67580E-14-3.29928E-14
 -1       994 2.00090E+01 1.14181E-02-2.39233E-06-3.99521E-04-4.62858E-14-3.31655E-14
 -1       995 2.00089E+01 6.09952E-03-1.62376E-06 4.25751E-04-2.47702E-14-8.30696E-14
 -1       996 2.00083E+01 2.50074E-03-1.05553E-06 8.96074E-04 5.44408E-14-1.46253E-13
 -1       997 2.00074E+01 1.70443E-04-6.44957E-07 1.12273E-03 8.64992E-14-6.95266E-14
 -1       998 2.00063E+01-1.24511E-03-3.56004E-07 1.18816E-03 3.45090E-13 4.82338E-14
 -1       999 2.00053E+01-2.01807E-03-1.59110E-07 1.15230E-03 1.34976E-13-1.89479E-13
 -1      1000 2.00043E+01-2.35392E-03-3.07510E-08 1.05769E-03 1.98829E-14-5.62157E-14
 -1      1001 2.00034E+01-2.40481E-03 4.71545E-08 9.33750E-04 1.01671E-14 1.85247E-13
 -1      1002 2.00026E+01-2.28099E-03 8.97634E-08 8.00054E-04 6.29665E-14 2.93374E-14
 -1      1003 2.00020E+01-2.06043E-03 1.26749E-07 6.69013E-04 2.36635E-13-1.30485E-13
 -1      1004 2.00015E+01-1.79645E-03 4.38101E-07 5.49626E-04 3.49435E-14-2.27697E-13
 -1      1005 2.00010E+01-1.52539E-03 6.98124E-07 4.42785E-04 2.43269E-13-2.53443E-13
 -1      1006 1.78195E+01 1.13299E+00-9.62983E-04 9.45910E-01-7.25118E-14 1.14968E-13
 -1      1007 1.92798E+01 7.43210E-01-6.06854E-05 3.62448E-01 7.83515E-14 4.55774E-14
 -1      1008 1.94665E+01 6.28411E-01-4.35324E-05 2.88916E-01 5.65168E-14-1.92368E-14
 -1      1009 1.96108E+01 5.21019E-01-3.43034E-05 2.28304E-01-5.19236E-14-2.87228E-14
 -1      1010 1.97214E+01 4.24150E-01-2.79169E-05 1.78190E-01 2.15311E-14 3.72912E-14
 -1      1011 1.98050E+01 3.39332E-01-2.28182E-05 1.37006E-01 8.93759E-14 1.62690E-13
 -1      1012 1.98675E+01 2.66912E-01-1.85101E-05 1.03549E-01 1.99025E-14 8.23019E-14
 -1      1013 1.99133E+01 2.06426E-01-1.48231E-05 7.67658E-02 1.22763E-13 6.73600E-15
 -1      1014 1.99464E+01 1.56900E-01-1.16886E-05 5.56730E-02-1.78021E-13-4.05354E-14
 -1      1015 1.99696E+01 1.17088E-01-9.06298E-06 3.93516E-02-2.40660E-13 5.20476E-14
 -1      1016 1.99855E+01 8.56432E-02-6.90230E-06 2.69566E-02-1.44441E-13-4.40256E-15
 -1      1017 1.99960E+01 6.12329E-02-5.15699E-06 1.77310E-02-1.60054E-13 1.17746E-13
 -1      1018 2.00025E+01 4.26128E-02-3.77312E-06 1.10151E-02-8.32699E-15 1.91019E-13
 -1      1019 2.00063E+01 2.86676E-02-2.69595E-06 6.24883E-03-7.15663E-15-2.38816E-14
 -1      1020 2.00081E+01 1.84294E-02-1.87302E-06 2.96769E-03-1.49721E-14-1.74020E-13
 -1      1021 2.00087E+01 1.10791E-02-1.25639E-06 7.95023E-04 6.62966E-14-8.87672E-16
 -1      1022 2.00085E+01 5.93951E-03-8.03840E-07-5.68399E-04 1.79383E-15-7.79148E-14
 -1      1023 2.00078E+01 2.46128E-03-4.79344E-07-1.35557E-03 5.48397E-14-1.81376E-13
 -1      1024 2.00069E+01 2.07310E-04-2.52909E-07-1.74439E-03 2.24335E-14 3.62674E-14
 -1      1025 2.00059E+01-1.16414E-03-1.00132E-07-1.86790E-03 1.47024E-13 2.85971E-14
 -1      1026 2.00049E+01-1.91561E-03-1.52500E-09-1.82351E-03 2.32631E-13 6.17831E-14
 -1      1027 2.00039E+01-2.24514E-03 5.83133E-08-1.68079E-03 1.08893E-13 1.07840E-13
 -1      1028 2.00031E+01-2.29929E-03 9.18281E-08-1.48802E-03 2.48563E-14 6.41837E-14
 -1      1029 2.00024E+01-2.18431E-03 1.10157E-07-1.27754E-03-4.40210E-14-1.29623E-13
 -1      1030 2.00018E+01-1.97546E-03 1.37691E-07-1.06989E-03 1.34520E-13-1.42934E-13
 -1      1031 2.00013E+01-1.72376E-03 2.29432E-07-8.77555E-04 1.43107E-13-2.32128E-13
 -1      1032 2.00009E+01-1.46609E-03-9.62509E-08-7.07488E-04 8.79489E-14-2.18670E-13
 -1      1033 2.00006E+01-1.25574E-03 1.74925E-07-5.95047E-04 9.08352E-14-5.41903E-13
 -1      1034 1.83349E+01 1.06815E+00-6.90852E-04 7.25814E-01-1.50038E-14 9.35084E-14
 -1      1035 2.00007E+01-1.30255E-03-2.42391E-07 2.60054E-04 2.66448E-13-1.24239E-13
 -1      1036 1.90398E+01 8.60310E-01-1.02405E-04 4.53179E-01-1.40041E-13 1.14068E-13
 -1      1037 1.87317E+01 9.72243E-01-2.22565E-04 5.69120E-01-3.50141E-14 2.59634E-14
 -1      1038 1.66324E+01 9.04965E-01 7.30852E-03-1.91501E+00 1.12212E-13 1.56454E-13
 -1      1039 1.60556E+01 1.36248E+00 2.45150E-03 1.17484E+00-5.64782E-14 3.17663E-13
 -1      1040 2.00010E+01-1.48091E-03-4.02066E-07-3.61802E-04 1.10030E-13 2.93257E-14
 -1      1041 1.70909E+01 1.23800E+00 2.11326E-03 1.05141E+00-6.75694E-14 2.59971E-13
 -1      1042 1.51907E+01 1.55846E+00 5.93658E-03 2.44917E-01-5.33633E-15 3.42081E-13
 -1      1043 2.00011E+01-1.55256E-03 2.58556E-07 1.24401E-04 1.58933E-13 2.50965E-13
 -1      1044 1.78444E+01 1.19288E+00 5.58244E-06-3.57026E-01 8.58675E-14 1.30943E-13
 -1      1045 1.83589E+01 1.07950E+00-2.29846E-04-2.46496E-01 6.99307E-14 3.55260E-14
 -1      1046 1.87493E+01 9.60258E-01-1.77112E-04-1.70988E-01 7.40174E-14 9.50504E-14
 -1      1047 1.90510E+01 8.37897E-01-1.20084E-04-1.19104E-01 1.14767E-13 8.15831E-14
 -1      1048 1.92861E+01 7.17133E-01-8.21524E-05-8.31929E-02 1.21127E-14 5.37643E-14
 -1      1049 1.94694E+01 6.02289E-01-5.58587E-05-5.81850E-02-5.11091E-14 1.39164E-13
 -1      1050 1.96118E+01 4.96662E-01-3.66561E-05-4.06866E-02 4.47260E-14 1.24676E-13
 -1      1051 1.97214E+01 4.02351E-01-2.24743E-05-2.83974E-02 1.93765E-13-2.13855E-14
 -1      1052 1.98049E+01 3.20333E-01-1.21787E-05-1.97424E-02 6.52783E-14 7.70444E-14
 -1      1053 1.98674E+01 2.50670E-01-4.95070E-06-1.36351E-02-1.55968E-13 9.53718E-14
 -1      1054 1.99135E+01 1.92753E-01-1.10342E-07-9.32247E-03-2.96102E-13 1.45665E-13
 -1      1055 1.99468E+01 1.45547E-01 2.92100E-06-6.27973E-03-4.21602E-14-2.85821E-14
 -1      1056 1.99702E+01 1.07783E-01 4.62630E-06-4.13954E-03-2.68394E-15-1.05803E-14
 -1      1057 1.99863E+01 7.81142E-02 5.39628E-06-2.64308E-03-1.63004E-13 1.77519E-14
 -1      1058 1.99968E+01 5.52198E-02 5.53663E-06-1.60674E-03-1.05509E-13 5.43631E-14
 -1      1059 2.00034E+01 3.78748E-02 5.27868E-06-8.99364E-04 1.87666E-13 1.31352E-13
 -1      1060 2.00071E+01 2.49870E-02 4.79154E-06-4.26610E-04 1.69416E-13 9.78185E-14
 -1      1061 2.00089E+01 1.56130E-02 4.19433E-06-1.20249E-04-3.27624E-14 3.42820E-16
 -1      1062 2.00094E+01 8.95909E-03 3.56736E-06 6.92351E-05-4.31496E-14 3.01911E-14
 -1      1063 2.00091E+01 4.37236E-03 2.96174E-06 1.77809E-04 2.44964E-14 2.34957E-13
 -1      1064 2.00083E+01 1.32654E-03 2.40739E-06 2.31533E-04 6.31579E-14 1.13118E-13
 -1      1065 2.00073E+01-5.94558E-04 1.91927E-06 2.49176E-04 3.47580E-14-1.94154E-13
 -1      1066 2.00062E+01-1.71407E-03 1.50222E-06 2.44121E-04 1.82759E-13-5.48935E-13
 -1      1067 2.00051E+01-2.27836E-03 1.15441E-06 2.25762E-04 1.66774E-13-4.65087E-13
 -1      1068 2.00041E+01-2.47173E-03 8.69472E-07 2.00561E-04 2.68677E-13-3.50204E-13
 -1      1069 2.00032E+01-2.42932E-03 6.37042E-07 1.72838E-04 7.82812E-14 1.19587E-13
 -1      1070 2.00025E+01-2.24803E-03 4.63437E-07 1.45337E-04-2.87947E-14 1.03610E-13
 -1      1071 2.00019E+01-1.99481E-03 8.08894E-07 1.19703E-04 1.19883E-13-3.32174E-14
 -1      1072 2.00014E+01-1.77223E-03-2.69294E-06 1.26538E-04 3.53262E-14 9.53422E-14
 -1      1073 1.92796E+01 7.31408E-01 1.34822E-04 1.52184E-01 7.37622E-14 1.37847E-14
 -1      1074 1.97225E+01 4.07116E-01 5.82409E-05 7.94291E-02 6.44070E-14-1.04639E-13
 -1      1075 1.98062E+01 3.23653E-01 4.32985E-05 6.16478E-02 9.55818E-14-1.34367E-13
 -1      1076 1.98687E+01 2.53019E-01 3.16630E-05 4.68580E-02-3.73687E-14-2.06434E-14
 -1      1077 1.99145E+01 1.94453E-01 2.26557E-05 3.48230E-02-8.26797E-14 2.24543E-13
 -1      1078 1.99476E+01 1.46809E-01 1.57672E-05 2.52419E-02-1.74448E-13 3.14180E-13
 -1      1079 1.99708E+01 1.08744E-01 1.05856E-05 1.77790E-02-1.70975E-13 1.01378E-13
 -1      1080 1.99866E+01 7.88615E-02 6.76527E-06 1.20928E-02-1.31140E-13-4.03774E-14
 -1      1081 1.99970E+01 5.58100E-02 4.01443E-06 7.85867E-03-1.12000E-13-1.90199E-14
 -1      1082 2.00034E+01 3.83448E-02 2.08886E-06 4.78292E-03 7.55329E-14-4.14054E-15
 -1      1083 2.00070E+01 2.53620E-02 7.87646E-07 2.61043E-03 1.43923E-13-1.03196E-13
 -1      1084 2.00088E+01 1.59112E-02-5.13369E-08 1.12666E-03 6.66615E-14-1.70589E-13
 -1      1085 2.00092E+01 9.19446E-03-5.56284E-07 1.56195E-04 5.06470E-14 1.09798E-14
 -1      1086 2.00089E+01 4.55614E-03-8.26505E-07-4.40874E-04 7.50999E-14-1.25048E-13
 -1      1087 2.00081E+01 1.46812E-03-9.37327E-07-7.73628E-04-1.33989E-13-3.77339E-14
 -1      1088 2.00071E+01-4.87190E-04-9.44657E-07-9.25245E-04 3.47871E-14 6.37012E-14
 -1      1089 2.00061E+01-1.63412E-03-8.89006E-07-9.57754E-04 3.33388E-15 2.81232E-13
 -1      1090 2.00050E+01-2.22006E-03-7.98905E-07-9.16334E-04 2.73140E-13 2.03709E-13
 -1      1091 2.00040E+01-2.43026E-03-6.93505E-07-8.33035E-04 1.84489E-13 1.34021E-13
 -1      1092 2.00032E+01-2.40066E-03-5.83729E-07-7.29895E-04 1.55028E-13-1.91485E-13
 -1      1093 2.00024E+01-2.22890E-03-4.76955E-07-6.21508E-04-3.07196E-14-2.75188E-13
 -1      1094 2.00018E+01-1.98412E-03-6.52776E-07-5.17259E-04 1.55939E-13 9.85937E-14
 -1      1095 2.00014E+01-1.73510E-03 9.67828E-07-4.35958E-04 2.41278E-13 1.48221E-14
 -1      1096 1.96118E+01 5.03550E-01 7.74746E-05 1.00360E-01-1.83658E-14-1.72329E-14
 -1      1097 1.94672E+01 6.12240E-01 1.02447E-04 1.24549E-01 1.45358E-14 5.01595E-14
 -1      1098 1.77619E+01 1.24460E+00-1.64831E-05 3.31689E-01-1.03197E-14 2.95086E-13
 -1      1099 1.90372E+01 8.58133E-01 1.74048E-04 1.83847E-01 1.36319E-14-3.62935E-14
 -1      1100 1.71389E+01 1.29541E+00-2.77859E-03-5.28295E-01 3.82522E-15 1.47460E-13
 -1      1101 1.83125E+01 1.11836E+00 1.91179E-04 2.67678E-01 1.08756E-13 2.04096E-13
 -1      1102 1.61614E+01 1.36760E+00 4.53372E-03-8.50208E-01-2.27396E-15 2.39604E-13
 -1      1103 1.87231E+01 9.88539E-01 2.07669E-04 2.21119E-01-4.26687E-14 1.21442E-13
 -1      1104 1.64339E+01 1.45063E+00 4.30611E-05 1.19604E-01-1.86514E-14 3.24074E-13
 -1      1105 1.72797E+01 1.32955E+00 4.58582E-03 3.25140E-01-8.41796E-15 3.81145E-13
 -1      1106 3.49424E+01 1.13211E+01 2.79426E+00-8.71335E+00-6.90559E-14 1.28070E-12
 -1      1107 2.53137E+01 7.66459E+00 2.34857E-01-5.12614E+00-2.26485E-14-1.51983E-13
 -1      1108 2.37183E+01 7.16755E+00 1.73514E-01-3.70462E+00-1.04916E-14-5.98360E-13
 -1      1109 2.27342E+01 6.90322E+00 2.76481E-01-2.25992E+00-1.30451E-15-7.18193E-13
 -1      1110 2.11125E+01 6.44036E+00 3.55341E-01-5.43723E-01 8.10463E-15-7.05616E-13
 -1      1111 1.81317E+01 5.53431E+00 3.15976E-01 1.22823E+00 1.52656E-14-6.29208E-13
 -1      1112 1.37693E+01 4.15869E+00 9.29410E-02 2.41827E+00 1.75415E-14-5.58779E-13
 -1      1113 9.27886E+00 2.71167E+00-2.39926E-01 2.35137E+00 1.45994E-14-5.21253E-13
 -1      1114 6.58729E+00 1.83269E+00-4.78263E-01 1.10780E+00 5.57887E-15-5.23272E-13
 -1      1115 6.75836E+00 1.89147E+00-4.53401E-01-5.60054E-01-6.66134E-16-5.49128E-13
 -1      1116 9.61933E+00 2.82425E+00-2.05151E-01-1.78250E+00-3.44169E-15-5.64193E-13
 -1      1117 1.41999E+01 4.28960E+00 9.86943E-02-1.79404E+00-3.55271E-15-5.28232E-13
 -1      1118 1.88281E+01 5.74183E+00 3.11282E-01-5.08133E-01-1.66533E-16-3.91579E-13
 -1      1119 2.21381E+01 6.74314E+00 3.38930E-01 1.34965E+00 7.66054E-15-1.42265E-13
 -1      1120 2.43470E+01 7.38062E+00 2.55040E-01 3.15806E+00 1.42664E-14 2.86517E-13
 -1      1121 2.67029E+01 8.08730E+00 2.54673E-01 4.90719E+00 2.04281E-14 1.04207E-12
 -1      1122 3.40678E+01 1.08069E+01 1.95503E+00 7.71246E+00 4.24105E-14 2.48160E-12
 -1      1123 3.73449E+01 4.98877E+00 1.96742E+00-5.51817E+00-2.72782E-13 2.23954E-12
 -1      1124 2.49123E+01-2.91253E-01-8.21522E-01-2.57928E-02-9.17530E-14 1.61304E-12
 -1      1125 2.22500E+01-1.04302E-01-2.70704E-01 2.59794E-02-3.03715E-14 8.11726E-13
 -1      1126 2.04688E+01-7.86367E-02-1.05057E-01-1.49471E-02-1.69829E-14 3.53143E-13
 -1      1127 1.92360E+01-8.67214E-02-1.08347E-01-7.92180E-03-8.75081E-15-1.40270E-14
 -1      1128 1.87953E+01-8.59789E-02-1.16872E-01 2.62951E-02 6.62664E-16-1.83440E-13
 -1      1129 1.92051E+01-5.94488E-02-8.38219E-02 6.14650E-02 1.66533E-16-3.95725E-13
 -1      1130 2.02160E+01-1.81318E-02-2.35472E-02 7.69498E-02 7.05122E-15-5.30090E-13
 -1      1131 2.13983E+01 1.76361E-02 3.09879E-02 6.86717E-02-5.78313E-16-6.30829E-13
 -1      1132 2.23704E+01 3.58803E-02 5.89776E-02 4.62245E-02-1.52270E-14-7.20576E-13
 -1      1133 2.29386E+01 3.72892E-02 6.01873E-02 2.20233E-02-4.74794E-15-8.48075E-13
 -1      1134 2.30947E+01 2.89025E-02 4.58281E-02 3.71255E-03 1.95829E-14-8.31184E-13
 -1      1135 2.29371E+01 1.76516E-02 2.73638E-02-6.86714E-03-1.67511E-14-7.90991E-13
 -1      1136 2.25918E+01 7.69157E-03 1.15933E-02-1.11919E-02 5.72892E-15-8.17542E-13
 -1      1137 2.21663E+01 5.43537E-04 7.78073E-04-1.16137E-02-6.13858E-15-8.06129E-13
 -1      1138 2.17347E+01-3.79616E-03-5.40845E-03-1.01045E-02-3.51293E-14-1.07276E-12
 -1      1139 2.13400E+01-5.94717E-03-8.20244E-03-7.93567E-03 1.04507E-14-1.09532E-12
 -1      1140 2.10019E+01-6.62236E-03-8.85947E-03-5.78762E-03-2.25070E-15-1.13325E-12
 -1      1141 2.07255E+01-6.41357E-03-8.33722E-03-3.95526E-03 5.05409E-14-1.27652E-12
 -1      1142 2.05077E+01-5.74331E-03-7.26692E-03-2.51966E-03-2.79767E-14-1.39093E-12
 -1      1143 2.03412E+01-4.88498E-03-6.02478E-03-1.45970E-03-1.90870E-14-1.51216E-12
 -1      1144 2.02175E+01-4.00135E-03-4.81504E-03-7.14833E-04 2.27899E-15-1.14696E-12
 -1      1145 2.01282E+01-3.18049E-03-3.73560E-03-2.16590E-04-3.02276E-16-9.19769E-13
 -1      1146 2.00658E+01-2.46327E-03-2.82278E-03 9.76053E-05-1.33931E-15-9.55670E-13
 -1      1147 2.00237E+01-1.86235E-03-2.07937E-03 2.79653E-04 1.35543E-14-7.88317E-13
 -1      1148 1.99967E+01-1.37464E-03-1.49142E-03 3.70252E-04 4.65354E-14-4.59762E-13
 -1      1149 1.99805E+01-9.89096E-04-1.03794E-03 4.00107E-04-3.26972E-15-6.03813E-13
 -1      1150 1.99720E+01-6.91352E-04-6.96243E-04 3.91680E-04 1.15804E-14-1.13396E-12
 -1      1151 1.99686E+01-4.66479E-04-4.44703E-04 3.60936E-04 1.51167E-14-1.28680E-12
 -1      1152 1.99686E+01-3.00431E-04-2.64100E-04 3.18880E-04 5.10107E-15-1.00020E-12
 -1      1153 1.99706E+01-1.80760E-04-1.38082E-04 2.72825E-04-1.56125E-14-9.58464E-13
 -1      1154 1.99737E+01-9.68695E-05-5.31721E-05 2.27398E-04 6.86201E-14-6.80583E-13
 -1      1155 1.99772E+01-4.00104E-05 1.44779E-06 1.85323E-04 7.66260E-15-6.03628E-13
 -1      1156 1.99808E+01-3.13849E-06 3.42746E-05 1.48007E-04-5.74526E-15-5.18090E-13
 -1      1157 1.99842E+01 1.92953E-05 5.18436E-05 1.15983E-04 3.19445E-14-4.77694E-13
 -1      1158 1.99872E+01 3.15733E-05 5.90808E-05 8.92218E-05 1.45398E-15-3.84551E-13
 -1      1159 1.99898E+01 3.69350E-05 5.96223E-05 6.73670E-05 8.59103E-15-4.43234E-13
 -1      1160 1.99921E+01 3.77809E-05 5.60920E-05 4.98851E-05-2.97519E-14-4.58937E-13
 -1      1161 1.99939E+01 3.58520E-05 5.03353E-05 3.61739E-05-7.51164E-15-4.34031E-13
 -1      1162 1.99954E+01 3.23803E-05 4.36125E-05 2.56286E-05 2.23576E-14-4.67436E-13
 -1      1163 1.99966E+01 2.82144E-05 3.67537E-05 1.76820E-05-7.08421E-14-6.32881E-13
 -1      1164 1.99976E+01 2.39214E-05 3.02831E-05 1.18237E-05-1.96031E-14-1.18735E-12
 -1      1165 1.99983E+01 1.98665E-05 2.45180E-05 7.60625E-06 8.28546E-14-1.13355E-12
 -1      1166 1.99988E+01 1.62757E-05 1.96518E-05 4.63837E-06-2.77504E-14-6.92623E-13
 -1      1167 1.99992E+01 1.32840E-05 1.58237E-05 2.56365E-06 1.07627E-14-7.55353E-13
 -1      1168 1.99995E+01 1.09532E-05 1.31462E-05 1.01769E-06 4.31264E-14-1.59842E-13
 -1      1169 1.99997E+01 9.25367E-06 1.15754E-05-4.41986E-07-3.46387E-14-1.40733E-13
 -1      1170 1.99998E+01 7.81241E-06 1.02819E-05-2.42725E-06-7.58454E-15 5.82821E-15
 -1      1171 1.99998E+01 6.93068E-06 5.43246E-06-6.06535E-06 1.37711E-14-1.15842E-14
 -1      1172 1.99998E+01-4.27894E-06-9.97850E-06-3.93852E-06 1.45095E-13 8.59167E-14
 -1      1173 3.84932E+01 8.27157E-01 6.89915E-01 2.68219E+00-3.97807E-14 3.67739E-12
 -1      1174 2.76193E+01-3.22519E-02-6.40803E-01 1.59884E-01 8.23647E-15 3.26297E-12
 -1      1175 2.46512E+01-3.82446E-02-1.80674E-01 6.25272E-02 2.02243E-14 2.76221E-12
 -1      1176 2.21520E+01-6.75955E-02-9.03549E-02 9.08202E-02 9.07434E-15 2.43846E-12
 -1      1177 2.02101E+01-9.29509E-02-1.42381E-01 9.46951E-02-2.19989E-14 2.33277E-12
 -1      1178 1.93930E+01-7.99787E-02-1.67024E-01 5.17169E-02-6.85563E-15 2.12128E-12
 -1      1179 1.98850E+01-3.89431E-02-1.17200E-01-1.59616E-02 2.25549E-14 1.86218E-12
 -1      1180 2.12538E+01 3.63517E-03-2.66984E-02-6.73537E-02 5.40562E-15 1.75764E-12
 -1      1181 2.27707E+01 2.62251E-02 4.76869E-02-8.22324E-02 9.57177E-15 1.72737E-12
 -1      1182 2.38583E+01 2.95569E-02 7.58826E-02-6.61604E-02 1.24623E-14 1.50177E-12
 -1      1183 2.43115E+01 2.28166E-02 6.73282E-02-3.84685E-02 4.45260E-15 1.39269E-12
 -1      1184 2.42170E+01 1.35493E-02 4.38646E-02-1.38452E-02 4.73319E-15 1.43313E-12
 -1      1185 2.37745E+01 5.60965E-03 2.08883E-02 2.34069E-03-1.87568E-14 1.22449E-12
 -1      1186 2.31738E+01 1.72566E-04 4.58938E-03 1.05774E-02 1.74322E-14 1.02945E-12
 -1      1187 2.25481E+01-2.96379E-03-4.67727E-03 1.33195E-02 9.33810E-15 7.43862E-13
 -1      1188 2.19731E+01-4.42422E-03-8.80664E-03 1.29830E-02 1.01178E-15 5.53118E-13
 -1      1189 2.14820E+01-4.82131E-03-9.84232E-03 1.12563E-02-5.17289E-15 5.37835E-13
 -1      1190 2.10825E+01-4.61638E-03-9.28613E-03 9.12016E-03-8.96836E-15 5.83789E-13
 -1      1191 2.07687E+01-4.11557E-03-8.05644E-03 7.06427E-03 2.46273E-14 5.14465E-13
 -1      1192 2.05291E+01-3.50507E-03-6.65097E-03 5.29039E-03-1.71472E-14 6.70043E-13
 -1      1193 2.03505E+01-2.88969E-03-5.31111E-03 3.85019E-03-1.24616E-14 7.86325E-13
 -1      1194 2.02205E+01-2.32309E-03-4.13689E-03 2.72583E-03 6.31524E-14 4.78305E-13
 -1      1195 2.01282E+01-1.82852E-03-3.15596E-03 1.87275E-03-1.73771E-15 4.96719E-13
 -1      1196 2.00646E+01-1.41204E-03-2.36175E-03 1.24059E-03-1.42987E-14 5.90728E-13
 -1      1197 2.00222E+01-1.07056E-03-1.73335E-03 7.82420E-04 4.00496E-14-1.34084E-13
 -1      1198 1.99952E+01-7.96573E-04-1.24550E-03 4.57984E-04 5.16536E-14-7.03416E-13
 -1      1199 1.99794E+01-5.80860E-04-8.73285E-04 2.34341E-04-2.19105E-14-6.11207E-13
 -1      1200 1.99711E+01-4.14006E-04-5.94123E-04 8.52883E-05-4.67236E-14-3.40641E-14
 -1      1201 1.99680E+01-2.87183E-04-3.88519E-04-9.59635E-06 3.97859E-14 1.71420E-13
 -1      1202 1.99682E+01-1.92518E-04-2.40127E-04-6.59642E-05-2.10093E-14 2.89521E-13
 -1      1203 1.99703E+01-1.23232E-04-1.35532E-04-9.56255E-05-4.08264E-14 2.52342E-13
 -1      1204 1.99735E+01-7.36377E-05-6.39212E-05-1.07352E-04-1.32799E-14-1.22729E-13
 -1      1205 1.99771E+01-3.90625E-05-1.67163E-05-1.07544E-04 5.16876E-14-3.02592E-13
 -1      1206 1.99807E+01-1.57413E-05 1.27837E-05-1.00782E-04-1.28318E-14-3.11302E-13
 -1      1207 1.99841E+01-6.91635E-07 2.97332E-05-9.02634E-05-7.05801E-15-1.92208E-13
 -1      1208 1.99872E+01 8.40951E-06 3.80325E-05-7.81524E-05 1.78599E-14-4.58757E-13
 -1      1209 1.99898E+01 1.33413E-05 4.05822E-05-6.58563E-05 4.09524E-15-7.25868E-13
 -1      1210 1.99921E+01 1.54432E-05 3.94976E-05-5.42374E-05-9.53533E-14 6.74711E-14
 -1      1211 1.99939E+01 1.57057E-05 3.62884E-05-4.37756E-05 8.64253E-15 5.44389E-13
 -1      1212 1.99954E+01 1.48482E-05 3.20055E-05-3.46908E-05-6.48552E-14 5.84637E-13
 -1      1213 1.99966E+01 1.33840E-05 2.73604E-05-2.70337E-05-1.76246E-14 9.13625E-13
 -1      1214 1.99975E+01 1.16746E-05 2.28228E-05-2.07513E-05-2.85267E-14 4.71222E-13
 -1      1215 1.99983E+01 9.97398E-06 1.86991E-05-1.57322E-05-1.09019E-14 1.98014E-14
 -1      1216 1.99988E+01 8.46384E-06 1.52009E-05-1.18349E-05 5.02839E-14-9.04955E-14
 -1      1217 1.99992E+01 7.27891E-06 1.25055E-05-8.89637E-06-6.89976E-14 4.30020E-13
 -1      1218 1.99995E+01 6.49376E-06 1.07789E-05-6.70891E-06-7.40400E-15 5.07518E-13
 -1      1219 1.99997E+01 6.09305E-06 1.00481E-05-4.94558E-06 2.90003E-14 3.00134E-13
 -1      1220 1.99998E+01 5.54481E-06 9.36725E-06-2.80998E-06 9.24101E-14-3.22930E-13
 -1      1221 1.99998E+01 2.44181E-06 4.41338E-06 1.27973E-06-3.81056E-14-4.13726E-13
 -1      1222 1.99998E+01-3.56226E-06-1.00853E-05 3.70409E-06 1.02111E-13-7.44509E-14
 -1      1223 1.99998E+01 1.08675E-05-9.24913E-06 3.76776E-06-5.00326E-14-1.20968E-13
 -1      1224 1.99998E+01 3.08011E-05 5.79530E-06 5.08648E-06-2.05194E-13 7.00384E-14
 -1      1225 1.99998E+01-1.03863E-05 9.12013E-06-8.63657E-08 7.49998E-13 1.67614E-13
 -1      1226 1.99998E+01-1.18075E-04 6.23749E-06-3.29125E-06 7.60464E-13-7.03739E-14
 -1      1227 1.99998E+01-2.66508E-04 1.56223E-06-4.74511E-06 8.29527E-13 4.69777E-14
 -1      1228 1.99998E+01-4.22800E-04-2.95024E-06-4.77228E-06-8.32578E-13-1.34434E-13
 -1      1229 1.99998E+01-5.58691E-04-6.54017E-06-3.82315E-06-1.79878E-12-9.97008E-14
 -1      1230 1.99998E+01-6.51308E-04-8.88257E-06-2.08634E-06-1.67347E-12 4.10089E-14
 -1      1231 1.99998E+01-6.83615E-04-9.67758E-06 1.66682E-08-8.81285E-13-2.28809E-14
 -1      1232 1.99998E+01-6.50281E-04-8.85539E-06 2.11724E-06 5.05631E-14 6.56204E-15
 -1      1233 1.99998E+01-5.56828E-04-6.48495E-06 3.83962E-06-1.06560E-12-3.14996E-13
 -1      1234 1.99998E+01-4.20358E-04-2.87487E-06 4.83740E-06-2.00883E-12 1.72717E-13
 -1      1235 1.99998E+01-2.64023E-04 1.62846E-06 4.73592E-06-2.14216E-12 2.42781E-14
 -1      1236 1.99998E+01-1.15967E-04 6.31923E-06 3.31096E-06-1.13475E-12 1.68272E-13
 -1      1237 1.99998E+01-7.47392E-06 9.43167E-06 1.60430E-07-6.90094E-13-8.56875E-14
 -1      1238 1.99998E+01 2.73577E-05 4.58574E-06-8.37016E-06-3.49849E-13-2.12472E-13
 -1      1239 1.99998E+01 1.25556E-05-9.02134E-06-4.60494E-06-8.79147E-14 4.33279E-14
 -1      1240-1.11590E+00-1.78221E+01-3.46248E+00-1.58400E+00 2.57872E-12 4.55434E-13
 -1      1241-1.09600E+00-9.61455E+00-2.79588E+00-2.27563E+00 3.73501E-12 1.43507E-12
 -1      1242 1.88250E+00 1.78740E+00-1.53564E+00 2.29120E+00 4.22840E-12 2.67242E-12
 -1      1243 1.17703E+01 1.00682E+01 1.19905E-01 1.05572E+01 3.63332E-12 3.44214E-12
 -1      1244 2.87410E+01 1.18265E+01 1.81357E+00 1.72919E+01 2.22167E-12 3.12883E-12
 -1      1245 4.76408E+01 7.94798E+00 3.24806E+00 1.75629E+01 9.00280E-13 1.98930E-12
 -1      1246 6.03054E+01 3.09595E+00 3.94644E+00 9.27283E+00 1.75471E-13 1.36613E-13
 -1      1247 6.09355E+01 1.53751E+00 3.78868E+00-2.86281E+00 2.11629E-13-1.84863E-12
 -1      1248 4.86967E+01 4.22552E+00 2.69275E+00-1.20481E+01 9.76108E-13-3.40394E-12
 -1      1249 2.99298E+01 7.51476E+00 1.05386E+00-1.41248E+01 2.06712E-12-3.95040E-12
 -1      1250 1.34383E+01 7.61841E+00-5.33119E-01-9.93133E+00 3.00726E-12-3.68772E-12
 -1      1251 3.50786E+00 3.77130E+00-1.61454E+00-3.82963E+00 3.37597E-12-2.78877E-12
 -1      1252-3.17074E-01-1.85412E+00-2.01019E+00 4.23013E-01 2.97251E-12-1.59361E-12
 -1      1253-6.68372E-01-6.14259E+00-1.94179E+00 1.35289E+00 1.89287E-12-6.15827E-13
 -1      1254-4.28065E-01-7.38996E+00-1.72342E+00 3.10995E-01 3.56840E-13-1.83055E-13
 -1      1255-4.52455E-01-6.23385E+00-1.77147E+00-9.10573E-01-1.26088E-12-3.52662E-13
 -1      1256-2.97897E-01-1.94535E+00-1.79392E+00-3.18437E-01-2.49589E-12-1.18155E-12
 -1      1257 2.62148E+00 3.46397E+00-1.55501E+00 3.25922E+00-3.05966E-12-2.23455E-12
 -1      1258 1.13438E+01 7.68263E+00-6.43407E-01 9.21011E+00-2.70861E-12-2.97673E-12
 -1      1259 2.62560E+01 8.20505E+00 7.48222E-01 1.40573E+01-1.86917E-12-3.15747E-12
 -1      1260 4.40578E+01 5.24093E+00 2.27449E+00 1.32502E+01-8.84626E-13-2.37943E-12
 -1      1261 5.78575E+01 1.92892E+00 3.41865E+00 5.45677E+00-1.78565E-13-7.94587E-13
 -1      1262 6.03657E+01 2.07146E+00 3.77995E+00-6.53631E+00-2.14828E-13 1.03911E-12
 -1      1263 4.91205E+01 6.83286E+00 3.22929E+00-1.61162E+01-1.02085E-12 2.59115E-12
 -1      1264 3.03541E+01 1.13933E+01 1.94424E+00-1.76402E+01-2.00973E-12 3.18812E-12
 -1      1265 1.30924E+01 1.06593E+01 2.81607E-01-1.15259E+01-2.87637E-12 2.88325E-12
 -1      1266 2.54621E+00 2.87407E+00-1.30756E+00-3.00029E+00-3.30158E-12 2.18259E-12
 -1      1267-9.82262E-01-9.02397E+00-2.66124E+00 2.24762E+00-2.03104E-12 9.65172E-13
 -1      1268-9.83908E-01-1.78819E+01-3.45876E+00 1.57185E+00 3.43892E-13 1.53398E-13
 -1      1269 2.77708E+01 2.22893E+00-9.83735E-01-3.66586E+00-1.28869E-13 9.37639E-13
 -1      1270 2.49536E+01 5.76336E+00-7.41791E-02-4.61109E+00-1.75290E-13-3.93158E-13
 -1      1271 2.62786E+01 5.89422E+00 1.92830E-02-5.30676E+00-1.52989E-13-5.24580E-15
 -1      1272 2.39513E+01 5.74430E+00 3.20234E-02-3.50846E+00-9.40359E-14-6.60888E-13
 -1      1273 2.43522E+01 5.90478E+00-1.87030E-02-4.16519E+00-1.50213E-13-5.64923E-13
 -1      1274 2.53049E+01 4.53539E+00-4.28639E-02-4.45522E+00-2.84252E-13-2.75779E-13
 -1      1275 2.30894E+01 5.29426E+00 9.74846E-02-2.12742E+00 2.37588E-14-7.10917E-13
 -1      1276 2.35610E+01 5.46974E+00 2.94659E-02-2.86571E+00-1.78746E-14-7.04582E-13
 -1      1277 2.43959E+01 4.39915E+00-9.92944E-03-3.40150E+00-1.06212E-13-4.74142E-13
 -1      1278 2.13662E+01 4.54536E+00 1.24510E-01-4.29674E-01 1.51101E-13-6.54143E-13
 -1      1279 2.23919E+01 4.86635E+00 8.56355E-02-1.28240E+00 1.12743E-13-6.94993E-13
 -1      1280 2.34497E+01 3.76152E+00 1.06560E-02-2.01997E+00 9.23671E-14-5.01828E-13
 -1      1281 1.79758E+01 3.68946E+00 7.58019E-02 1.32500E+00 2.74503E-13-5.79939E-13
 -1      1282 1.99283E+01 4.24199E+00 1.48414E-01 5.43478E-01 2.41779E-13-6.34298E-13
 -1      1283 2.13574E+01 3.00370E+00 1.18901E-02-2.97885E-01 3.04867E-13-4.52680E-13
 -1      1284 1.28912E+01 3.12937E+00-4.77420E-02 2.44339E+00 3.53939E-13-5.36043E-13
 -1      1285 1.56217E+01 3.85292E+00 1.76427E-01 2.09124E+00 3.35787E-13-5.77829E-13
 -1      1286 1.72992E+01 2.66122E+00 2.39249E-03 1.47485E+00 4.76397E-13-4.26971E-13
 -1      1287 7.93722E+00 3.14121E+00-1.43404E-01 2.17102E+00 3.24712E-13-5.59226E-13
 -1      1288 1.02892E+01 3.74670E+00 1.06885E-01 2.49226E+00 3.46001E-13-5.76303E-13
 -1      1289 1.16826E+01 3.10962E+00-4.72160E-04 2.47019E+00 5.54626E-13-4.69402E-13
 -1      1290 5.45182E+00 3.40663E+00-1.45310E-01 8.00892E-01 1.93970E-13-6.10238E-13
 -1      1291 6.34351E+00 3.63676E+00-2.48843E-02 1.49816E+00 2.38032E-13-6.06754E-13
 -1      1292 6.78233E+00 3.89848E+00 9.00533E-03 1.99829E+00 4.53457E-13-5.68434E-13
 -1      1293 6.26200E+00 3.63534E+00-5.45318E-02-8.78263E-01 2.06501E-14-6.44870E-13
 -1      1294 5.42034E+00 3.42296E+00-1.31845E-01-1.86387E-01 6.46427E-14-6.31994E-13
 -1      1295 4.70279E+00 4.29982E+00 1.62159E-02 4.27624E-01 2.25346E-13-6.52312E-13
 -1      1296 1.03093E+01 3.76059E+00 9.17124E-02-1.89871E+00-1.02363E-13-6.25673E-13
 -1      1297 7.96593E+00 3.15305E+00-1.47411E-01-1.60956E+00-8.83460E-14-6.21218E-13
 -1      1298 6.54001E+00 3.97772E+00 3.02191E-02-1.25458E+00-2.57572E-14-6.43971E-13
 -1      1299 1.60845E+01 3.91639E+00 1.73291E-01-1.43542E+00-1.18461E-13-5.17867E-13
 -1      1300 1.32007E+01 3.14532E+00-5.48188E-02-1.83700E+00-1.37612E-13-5.56666E-13
 -1      1301 1.17691E+01 3.12383E+00 1.23929E-02-1.84619E+00-1.75610E-13-5.23789E-13
 -1      1302 2.07247E+01 4.38771E+00 1.43522E-01 2.35039E-01-2.26485E-14-3.29396E-13
 -1      1303 1.86270E+01 3.78345E+00 7.18576E-02-6.10218E-01-6.39488E-14-4.19512E-13
 -1      1304 1.78524E+01 2.64081E+00-8.59049E-03-7.74279E-01-1.48256E-13-3.28439E-13
 -1      1305 2.35383E+01 5.11943E+00 7.30236E-02 2.14989E+00 9.79217E-14-5.43246E-14
 -1      1306 2.23190E+01 4.72834E+00 1.13857E-01 1.24942E+00 5.43177E-14-2.07605E-13
 -1      1307 2.22639E+01 3.04496E+00-1.18878E-04 1.12806E+00 1.84228E-14-1.08372E-13
 -1      1308 2.53866E+01 5.84579E+00 8.61944E-03 3.84325E+00 1.91153E-13 3.96634E-13
 -1      1309 2.45082E+01 5.52926E+00 6.67175E-02 3.01333E+00 1.50130E-13 1.29174E-13
 -1      1310 2.47949E+01 3.82653E+00-8.86772E-03 2.93913E+00 1.94077E-13 1.92804E-13
 -1      1311 2.77870E+01 6.25943E+00-1.37462E-02 5.45469E+00 1.84186E-13 1.19277E-12
 -1      1312 2.64160E+01 5.89666E+00-2.07290E-02 4.48378E+00 1.77219E-13 7.13180E-13
 -1      1313 2.66854E+01 4.28189E+00-2.69508E-02 4.37747E+00 2.90316E-13 6.82787E-13
 -1      1314 3.69532E+01 4.38156E+00 1.31162E+00 6.32926E+00 8.08797E-14 2.60048E-12
 -1      1315 2.93700E+01 4.66391E+00-2.37491E-01 5.27194E+00 7.99361E-14 1.64349E-12
 -1      1316 2.93123E+01 3.15187E+00-4.25708E-02 4.94940E+00 2.87131E-13 1.40232E-12
 -1      1317 2.92177E+01 4.47240E-01-9.79095E-01 1.77401E+00 1.56652E-13 2.59470E-12
 -1      1318 2.74168E+01 2.33728E-01-4.41862E-01-1.85849E+00-2.76293E-13 1.12424E-12
 -1      1319 2.53933E+01 3.38276E-01-1.78608E-01-1.44194E+00-2.39204E-13 7.85469E-13
 -1      1320 2.42297E+01 1.51698E-01-7.66949E-02-9.67879E-01-1.80474E-13 6.90448E-13
 -1      1321 2.30189E+01 9.71250E-02-1.55374E-02-9.18486E-01-1.64414E-13 4.27578E-13
 -1      1322 2.55132E+01 4.21923E-01-1.19246E-01-2.48176E+00-3.94691E-13 3.71266E-13
 -1      1323 2.21486E+01 9.18131E-02 3.94820E-03-6.71573E-01-1.33659E-13 3.44226E-13
 -1      1324 2.13590E+01 9.71620E-02 1.09154E-02-6.35022E-01-1.24544E-13 1.50494E-13
 -1      1325 2.34504E+01 1.72339E-01-4.02656E-02-1.59460E+00-2.89178E-13 2.31074E-13
 -1      1326 2.07963E+01 1.10149E-01 6.85976E-03-3.97811E-01-9.00512E-14 5.57642E-14
 -1      1327 2.03694E+01 1.18892E-01 6.89610E-04-3.35636E-01-8.15736E-14-6.81226E-14
 -1      1328 2.20705E+01 1.72065E-01-2.65312E-02-1.02420E+00-2.20310E-13 6.02582E-14
 -1      1329 2.01075E+01 1.23680E-01-3.74254E-03-6.95543E-02-5.20365E-14-1.30129E-13
 -1      1330 2.00799E+01 1.12830E-01-6.33005E-03-6.24009E-04-5.51937E-14-1.94386E-13
 -1      1331 2.12527E+01 2.00257E-01-3.32676E-02-4.12963E-01-1.59539E-13-7.88631E-14
 -1      1332 2.01010E+01 9.83386E-02-5.89348E-03 2.28849E-01-8.52712E-14-2.77695E-13
 -1      1333 2.04187E+01 6.70186E-02-3.41348E-03 2.76561E-01-4.63327E-14-3.62960E-13
 -1      1334 2.10123E+01 1.76266E-01-3.00722E-02 1.95738E-01-1.37628E-13-1.88136E-13
 -1      1335 2.06315E+01 4.24861E-02-8.19140E-04 3.96916E-01-2.36621E-14-4.11934E-13
 -1      1336 2.11343E+01 5.56367E-03 4.04711E-03 4.08392E-01-4.49220E-14-4.54248E-13
 -1      1337 2.12457E+01 9.42592E-02-1.44971E-02 6.21947E-01-1.08599E-13-3.25634E-13
 -1      1338 2.14066E+01-1.36123E-02 4.79504E-03 4.02782E-01-3.61265E-14-4.61353E-13
 -1      1339 2.19056E+01-4.10274E-02 9.40818E-03 3.83702E-01-2.54870E-14-5.08822E-13
 -1      1340 2.17235E+01-4.34900E-03 2.99259E-03 7.55421E-01-8.08562E-14-3.75514E-13
 -1      1341 2.21262E+01-4.72771E-02 6.95478E-03 2.90940E-01-5.11917E-14-4.82465E-13
 -1      1342 2.24863E+01-5.94380E-02 1.00511E-02 2.57888E-01-4.85749E-14-5.65336E-13
 -1      1343 2.21994E+01-7.47350E-02 1.36277E-02 6.28850E-01-6.98048E-14-3.74267E-13
 -1      1344 2.25992E+01-5.47996E-02 5.79020E-03 1.35522E-01-5.89650E-14-5.50622E-13
 -1      1345 2.27707E+01-5.45754E-02 7.43680E-03 1.03489E-01 7.78023E-15-6.05929E-13
 -1      1346 2.25100E+01-9.96263E-02 1.58724E-02 3.64638E-01-5.86007E-14-3.67776E-13
 -1      1347 2.27712E+01-4.52011E-02 3.31158E-03-4.84688E-03 2.68726E-14-6.67846E-13
 -1      1348 2.27723E+01-3.85354E-02 3.97761E-03-2.81930E-02-4.38018E-15-6.31206E-13
 -1      1349 2.26011E+01-8.87103E-02 1.28104E-02 8.63855E-02-8.61377E-15-4.16280E-13
 -1      1350 2.26850E+01-2.93710E-02 1.12895E-03-1.02931E-01-1.95829E-14-6.29885E-13
 -1      1351 2.25664E+01-2.11390E-02 1.24647E-03-1.16240E-01-3.25204E-14-6.69350E-13
 -1      1352 2.24977E+01-6.14459E-02 7.96060E-03-1.31542E-01-1.01377E-14-4.87078E-13
 -1      1353 2.24248E+01-1.44650E-02-1.33064E-04-1.56125E-01 1.50832E-14-6.60078E-13
 -1      1354 2.22408E+01-7.30536E-03-3.01789E-04-1.61296E-01 2.88675E-14-6.35020E-13
 -1      1355 2.22593E+01-3.30659E-02 3.55092E-03-2.66251E-01-6.47139E-15-5.11893E-13
 -1      1356 2.20753E+01-3.43183E-03-5.60376E-04-1.73907E-01 8.91106E-16-6.43563E-13
 -1      1357 2.18688E+01 1.77699E-03-8.92973E-04-1.73682E-01-5.77055E-14-6.81518E-13
 -1      1358 2.19489E+01-1.09940E-02 3.94307E-04-3.26647E-01-3.32103E-14-5.51334E-13
 -1      1359 2.17017E+01 3.44300E-03-4.92253E-04-1.68520E-01-7.91300E-14-6.71332E-13
 -1      1360 2.15011E+01 6.76723E-03-9.18424E-04-1.65290E-01-6.50675E-14-7.40803E-13
 -1      1361 2.16172E+01 3.22835E-03-1.50067E-03-3.33683E-01-7.56634E-14-4.85892E-13
 -1      1362 2.13464E+01 7.00058E-03-2.31101E-04-1.50433E-01 1.98050E-14-7.61069E-13
 -1      1363 2.11674E+01 8.85550E-03-6.98487E-04-1.45892E-01 2.01445E-16-7.74668E-13
 -1      1364 2.12987E+01 1.08639E-02-2.42923E-03-3.08428E-01-3.45984E-14-3.97730E-13
 -1      1365 2.10323E+01 8.30184E-03 3.95207E-05-1.27057E-01-9.07109E-15-7.61435E-13
 -1      1366 2.08813E+01 9.14218E-03-4.25738E-04-1.22256E-01 2.02395E-14-7.81124E-13
 -1      1367 2.10131E+01 1.39187E-02-2.72234E-03-2.67255E-01 1.22732E-15-4.16731E-13
 -1      1368 2.07683E+01 8.24421E-03 2.40918E-04-1.02999E-01-2.24019E-14-8.78688E-13
 -1      1369 2.06462E+01 8.44470E-03-1.89553E-04-9.85145E-02-4.63422E-14-8.87562E-13
 -1      1370 2.07692E+01 1.41861E-02-2.64413E-03-2.21108E-01-9.77903E-14-4.82418E-13
 -1      1371 2.05549E+01 7.46870E-03 3.58033E-04-8.07814E-02-6.12537E-14-9.94310E-13
 -1      1372 2.04595E+01 7.30044E-03-1.75460E-05-7.68799E-02-1.05742E-13-1.07493E-12
 -1      1373 2.05687E+01 1.29694E-02-2.37562E-03-1.76458E-01-1.30330E-13-6.16365E-13
 -1      1374 2.03877E+01 6.38777E-03 4.04461E-04-6.15556E-02 2.59225E-14-1.06076E-12
 -1      1375 2.03153E+01 6.03187E-03 9.22913E-05-5.83179E-02 2.43307E-14-1.05754E-12
 -1      1376 2.04087E+01 1.11093E-02-2.02994E-03-1.36622E-01-6.05911E-14-6.97504E-13
 -1      1377 2.02604E+01 5.24529E-03 4.01633E-04-4.56444E-02 6.15909E-14-9.08942E-13
 -1      1378 2.02070E+01 4.81563E-03 1.52689E-04-4.30503E-02 1.17230E-13-7.80525E-13
 -1      1379 2.02845E+01 9.09922E-03-1.67285E-03-1.02906E-01 1.12348E-13-6.04663E-13
 -1      1380 2.01661E+01 4.17270E-03 3.69247E-04-3.29150E-02 2.77487E-14-7.69778E-13
 -1      1381 2.01278E+01 3.73674E-03 1.77922E-04-3.08956E-02-9.06897E-15-7.26799E-13
 -1      1382 2.01905E+01 7.20247E-03-1.33957E-03-7.54437E-02 8.89537E-14-5.91098E-13
 -1      1383 2.00980E+01 3.23136E-03 3.22191E-04-2.30137E-02 5.85199E-14-6.91207E-13
 -1      1384 2.00714E+01 2.82605E-03 1.80204E-04-2.14814E-02 9.92235E-14-6.51552E-13
 -1      1385 2.01211E+01 5.54017E-03-1.04657E-03-5.37465E-02 4.80087E-14-4.83099E-13
 -1      1386 2.00504E+01 2.44137E-03 2.70473E-04-1.55050E-02 1.14186E-13-5.38162E-13
 -1      1387 2.00327E+01 2.08440E-03 1.68795E-04-1.43707E-02 1.09399E-13-3.70745E-13
 -1      1388 2.00712E+01 4.15138E-03-7.99272E-04-3.70510E-02 1.92202E-13-3.46417E-13
 -1      1389 2.00183E+01 1.80007E-03 2.20188E-04-9.94934E-03-1.95747E-15-3.24214E-13
 -1      1390 2.00071E+01 1.49738E-03 1.50213E-04-9.13110E-03-3.01777E-14-3.01596E-13
 -1      1391 2.00363E+01 3.03087E-03-5.96892E-04-2.45173E-02 7.99432E-14-1.65459E-13
 -1      1392 1.99977E+01 1.29333E-03 1.74644E-04-5.94352E-03-9.27271E-14-3.38876E-13
 -1      1393 1.99911E+01 1.04409E-03 1.28787E-04-5.37005E-03-1.01943E-13-5.29854E-13
 -1      1394 2.00129E+01 2.15186E-03-4.35439E-04-1.53387E-02-1.16080E-13-1.44942E-13
 -1      1395 1.99854E+01 9.02349E-04 1.35306E-04-3.13766E-03-6.34052E-14-6.06115E-13
 -1      1396 1.99821E+01 7.02056E-04 1.07227E-04-2.74948E-03-7.26186E-14-7.15395E-13
 -1      1397 1.99979E+01 1.47909E-03-3.09513E-04-8.79461E-03-1.73111E-13-2.76263E-13
 -1      1398 1.99788E+01 6.07393E-04 1.02502E-04-1.23988E-03 4.81795E-14-8.24753E-13
 -1      1399 1.99777E+01 4.49882E-04 8.71097E-05-9.88786E-04 5.08998E-14-7.63675E-13
 -1      1400 1.99889E+01 9.76117E-04-2.13369E-04-4.27119E-03-6.50303E-14-3.31077E-13
 -1      1401 1.99762E+01 3.89890E-04 7.59071E-05-1.37401E-05-2.56986E-14-6.62579E-13
 -1      1402 1.99765E+01 2.68516E-04 6.92436E-05 1.38350E-04 2.70660E-14-6.52327E-13
 -1      1403 1.99842E+01 6.09004E-04-1.41510E-04-1.26291E-03 7.23003E-14-4.29901E-13
 -1      1404 1.99762E+01 2.33384E-04 5.48605E-05 7.27555E-04 2.55154E-14-6.10341E-13
 -1      1405 1.99773E+01 1.41718E-04 5.39383E-05 8.10086E-04 4.80194E-14-5.31282E-13
 -1      1406 1.99823E+01 3.47993E-04-8.89959E-05 6.35363E-04 8.48913E-14-3.85945E-13
 -1      1407 1.99776E+01 1.23879E-04 3.85686E-05 1.12837E-03 5.34439E-14-4.51735E-13
 -1      1408 1.99792E+01 5.60797E-05 4.11947E-05 1.16362E-03 6.82427E-14-3.37877E-13
 -1      1409 1.99823E+01 1.68029E-04-5.15664E-05 1.74085E-03 7.86697E-14-2.21982E-13
 -1      1410 1.99800E+01 4.98357E-05 2.62234E-05 1.29794E-03 9.37251E-14-3.92197E-13
 -1      1411 1.99816E+01 8.16631E-07 3.08353E-05 1.30240E-03 4.68490E-14-3.33823E-13
 -1      1412 1.99835E+01 4.86434E-05-2.56626E-05 2.29657E-03 1.59663E-14-2.09764E-13
 -1      1413 1.99826E+01 1.97414E-06 1.70700E-05 1.31710E-03 1.13306E-14-3.03258E-13
 -1      1414 1.99843E+01-3.25548E-05 2.25916E-05 1.30272E-03 1.39517E-14-2.99057E-13
 -1      1415 1.99852E+01-2.64753E-05-8.38613E-06 2.48483E-03 1.22392E-13-1.29203E-13
 -1      1416 1.99853E+01-2.70045E-05 1.04399E-05 1.24435E-03 2.85594E-14-2.55342E-13
 -1      1417 1.99869E+01-5.05705E-05 1.61605E-05 1.21954E-03 3.74232E-14-2.07269E-13
 -1      1418 1.99872E+01-7.00455E-05 2.57129E-06 2.43935E-03 2.92044E-14-7.94735E-14
 -1      1419 1.99879E+01-4.27254E-05 5.76288E-06 1.12090E-03-7.74590E-14-2.31952E-13
 -1      1420 1.99893E+01-5.81646E-05 1.12395E-05 1.09141E-03-6.35286E-14-3.06527E-13
 -1      1421 1.99892E+01-9.17804E-05 9.01083E-06 2.25590E-03 2.21303E-15-2.20793E-13
 -1      1422 1.99902E+01-4.94375E-05 2.56664E-06 9.74861E-04 6.62152E-15-3.23370E-13
 -1      1423 1.99914E+01-5.89854E-05 7.54724E-06 9.44455E-04 1.80519E-14-3.00970E-13
 -1      1424 1.99911E+01-9.89476E-05 1.23106E-05 2.00112E-03-4.12260E-14-2.83747E-13
 -1      1425 1.99922E+01-5.02844E-05 4.69339E-07 8.24650E-04 4.02866E-14-3.68163E-13
 -1      1426 1.99932E+01-5.56703E-05 4.83338E-06 7.95658E-04-7.55077E-14-4.16445E-13
 -1      1427 1.99928E+01-9.68692E-05 1.35044E-05 1.71983E-03-8.79564E-15-4.66725E-13
 -1      1428 1.99939E+01-4.75413E-05-8.31196E-07 6.81631E-04-9.12027E-14-3.31336E-13
 -1      1429 1.99948E+01-5.00786E-05 2.88299E-06 6.55366E-04 2.90601E-14-4.28478E-13
 -1      1430 1.99942E+01-8.93514E-05 1.33517E-05 1.44072E-03-1.33814E-13-3.76758E-13
 -1      1431 1.99953E+01-4.28151E-05-1.56933E-06 5.52185E-04 3.13308E-15-4.99855E-13
 -1      1432 1.99960E+01-4.34832E-05 1.51630E-06 5.29261E-04-9.10142E-14-5.59303E-13
 -1      1433 1.99955E+01-7.90445E-05 1.23979E-05 1.18096E-03-4.80547E-14-2.93315E-13
 -1      1434 1.99965E+01-3.72095E-05-1.92316E-06 4.39257E-04-7.26032E-14-5.98162E-13
 -1      1435 1.99970E+01-3.67259E-05 5.86601E-07 4.19822E-04-1.46350E-13-7.85833E-13
 -1      1436 1.99965E+01-6.77367E-05 1.10249E-05 9.49611E-04-9.92514E-14-5.50369E-13
 -1      1437 1.99974E+01-3.14595E-05-2.02461E-06 3.43502E-04-9.94413E-14-6.07096E-13
 -1      1438 1.99978E+01-3.03406E-05-2.27492E-08 3.27406E-04 2.04092E-14-7.25789E-13
 -1      1439 1.99974E+01-5.65901E-05 9.49277E-06 7.50214E-04-1.34605E-13-2.93893E-13
 -1      1440 1.99981E+01-2.60379E-05-1.96781E-06 2.64106E-04 1.71607E-13-6.27487E-13
 -1      1441 1.99984E+01-2.46493E-05-4.00236E-07 2.51016E-04 1.57172E-13-4.70667E-13
 -1      1442 1.99980E+01-4.63279E-05 7.97262E-06 5.82684E-04 1.34726E-13-5.95768E-14
 -1      1443 1.99986E+01-2.12414E-05-1.81294E-06 1.99343E-04-1.36354E-14-1.89458E-13
 -1      1444 1.99989E+01-1.98391E-05-6.02780E-07 1.88822E-04 1.72368E-14-1.99001E-13
 -1      1445 1.99986E+01-3.73828E-05 6.57352E-06 4.44631E-04 2.43077E-13 9.76703E-14
 -1      1446 1.99991E+01-1.72595E-05-1.58068E-06 1.46940E-04 5.09049E-14-2.89271E-13
 -1      1447 1.99992E+01-1.60172E-05-6.46544E-07 1.38481E-04 1.59434E-13-9.55516E-14
 -1      1448 1.99990E+01-3.00197E-05 5.36624E-06 3.32252E-04 7.24803E-14 2.47644E-13
 -1      1449 1.99994E+01-1.42183E-05-1.24430E-06 1.04293E-04 2.48563E-13-9.46306E-14
 -1      1450 1.99995E+01-1.32378E-05-5.07161E-07 9.73352E-05 1.31027E-13 3.85828E-14
 -1      1451 1.99993E+01-2.44101E-05 4.40503E-06 2.40888E-04 2.14234E-13 2.26994E-13
 -1      1452 1.99996E+01-1.21816E-05-7.37969E-07 6.86284E-05-1.15558E-13 5.19519E-14
 -1      1453 1.99997E+01-1.14316E-05-1.85896E-07 6.25728E-05 9.61272E-16-1.77736E-14
 -1      1454 1.99995E+01-2.06933E-05 3.70935E-06 1.65437E-04 1.35919E-13 1.66194E-13
 -1      1455 1.99997E+01-1.09300E-05-9.04720E-08 3.75207E-05 1.75837E-13 2.56511E-15
 -1      1456 1.99998E+01-1.00499E-05-8.63732E-09 3.18147E-05 7.83656E-14 1.33184E-13
 -1      1457 1.99996E+01-1.87148E-05 3.15032E-06 1.00997E-04 4.37898E-14 1.32542E-13
 -1      1458 1.99998E+01-1.08239E-05-1.75119E-07 9.90341E-06-3.77397E-14 2.13378E-13
 -1      1459 1.99998E+01-7.19619E-06-1.59140E-06 4.37138E-06-3.29809E-14 2.90160E-13
 -1      1460 1.99997E+01-1.72379E-05 2.37693E-06 4.51339E-05 1.32208E-13 2.57790E-13
 -1      1461 1.99998E+01 2.91286E-06-4.05366E-06-7.08488E-06-1.96002E-13 1.31061E-13
 -1      1462 1.99998E+01-3.20947E-06-2.31633E-07 5.02062E-07-1.98216E-13 2.77960E-13
 -1      1463 2.69392E+01 4.65997E-02-1.66991E-01 1.11918E+00 1.66381E-13 2.27934E-12
 -1      1464 2.91084E+01 1.79949E-01-2.80876E-01 1.35986E+00 1.23290E-13 2.49742E-12
 -1      1465 2.89874E+01 1.09410E+00-7.50677E-02 3.35766E+00 2.44207E-13 1.78234E-12
 -1      1466 2.43416E+01 2.96942E-02-1.99714E-02 9.28441E-01 1.11154E-13 1.98253E-12
 -1      1467 2.57220E+01 7.59060E-02-7.24765E-02 9.30388E-01 1.10845E-13 2.16334E-12
 -1      1468 2.63624E+01 1.34838E-01-4.98360E-02 2.09854E+00 2.35055E-13 1.58055E-12
 -1      1469 2.22794E+01 7.36696E-02-2.22347E-02 7.23490E-01 4.29309E-14 1.80740E-12
 -1      1470 2.33836E+01 8.17900E-02-6.49468E-03 7.58402E-01 6.78745E-14 1.88962E-12
 -1      1471 2.42549E+01 1.01436E-01-1.57907E-02 1.63544E+00 1.58772E-13 1.42337E-12
 -1      1472 2.09941E+01 1.08526E-01-4.61121E-02 3.43792E-01 8.68160E-14 1.65119E-12
 -1      1473 2.16676E+01 1.42574E-01-1.00652E-02 4.38530E-01 5.99677E-14 1.73322E-12
 -1      1474 2.27153E+01 2.06523E-01-2.61151E-02 1.07815E+00 1.15571E-13 1.25497E-12
 -1      1475 2.07415E+01 9.26421E-02-4.37833E-02-1.12273E-01 8.36518E-14 1.42063E-12
 -1      1476 2.08158E+01 1.63844E-01-1.82764E-02 7.30258E-03 6.00769E-14 1.52718E-12
 -1      1477 2.19066E+01 2.65146E-01-3.60171E-02 2.96954E-01 1.44065E-13 1.04645E-12
 -1      1478 2.13874E+01 3.64081E-02-1.55278E-02-4.31261E-01 5.98402E-14 1.23478E-12
 -1      1479 2.09397E+01 1.13942E-01-1.11722E-02-3.45556E-01 7.77312E-14 1.33800E-12
 -1      1480 2.18821E+01 1.94770E-01-3.09820E-02-4.37972E-01 1.52260E-13 8.90208E-13
 -1      1481 2.24435E+01-2.02724E-02 1.85580E-02-5.02800E-01 2.07616E-14 1.15498E-12
 -1      1482 2.17617E+01 3.03470E-02 5.83774E-03-4.78545E-01 8.89067E-15 1.15789E-12
 -1      1483 2.23961E+01 5.08140E-02-1.34364E-02-8.21896E-01 8.05363E-14 7.37257E-13
 -1      1484 2.33790E+01-4.89350E-02 3.50452E-02-3.68394E-01 3.11778E-14 1.07972E-12
 -1      1485 2.27775E+01-3.71789E-02 1.93894E-02-3.94633E-01 3.61629E-14 1.15158E-12
 -1      1486 2.30476E+01-7.97439E-02 1.24501E-03-7.84359E-01 4.72929E-14 6.60853E-13
 -1      1487 2.38923E+01-4.86688E-02 3.21610E-02-1.55474E-01 1.36956E-14 1.00239E-12
 -1      1488 2.35496E+01-6.39995E-02 2.11901E-02-2.01199E-01 3.68395E-14 1.07410E-12
 -1      1489 2.35100E+01-1.34465E-01 7.38321E-03-4.76706E-01 5.81115E-14 6.43799E-13
 -1      1490 2.39482E+01-3.40511E-02 2.05430E-02 3.30890E-02 1.80832E-14 9.63725E-13
 -1      1491 2.38839E+01-5.86726E-02 1.49546E-02-8.25032E-03 1.40912E-14 9.68248E-13
 -1      1492 2.36504E+01-1.21818E-01 7.64838E-03-1.10588E-01 4.90649E-14 5.91967E-13
 -1      1493 2.36613E+01-1.76334E-02 8.99266E-03 1.55492E-01 3.85898E-14 8.76156E-13
 -1      1494 2.38043E+01-3.96235E-02 7.16274E-03 1.27987E-01 3.18942E-14 9.10844E-13
 -1      1495 2.34930E+01-8.00721E-02 5.56152E-03 1.78627E-01 4.47888E-14 5.09480E-13
 -1      1496 2.31816E+01-5.12769E-03 1.11484E-03 2.12987E-01 3.78907E-14 7.16958E-13
 -1      1497 2.34403E+01-2.00002E-02 1.38424E-03 1.99185E-01 5.71713E-14 8.46097E-13
 -1      1498 2.31331E+01-3.81337E-02 3.16147E-03 3.49758E-01 8.42013E-14 4.65773E-13
 -1      1499 2.26336E+01 2.48845E-03-2.91272E-03 2.23816E-01 7.83661E-14 5.56945E-13
 -1      1500 2.29330E+01-5.33789E-03-1.64403E-03 2.19947E-01 3.23684E-14 6.86503E-13
 -1      1501 2.26727E+01-7.82742E-03 1.33351E-03 4.17593E-01 9.59821E-14 3.61678E-13
 -1      1502 2.20992E+01 6.20390E-03-4.30144E-03 2.07474E-01 4.17557E-14 4.55950E-13
 -1      1503 2.23908E+01 3.60557E-03-2.58694E-03 2.09496E-01 4.52369E-14 5.17444E-13
 -1      1504 2.21916E+01 9.74358E-03 1.99078E-04 4.15419E-01 7.32612E-14 3.42217E-13
 -1      1505 2.16221E+01 7.41452E-03-4.26984E-03 1.78644E-01-2.80706E-14 4.34120E-13
 -1      1506 2.18809E+01 8.05175E-03-2.41505E-03 1.83522E-01 4.96044E-15 5.04138E-13
 -1      1507 2.17401E+01 1.77108E-02-4.21274E-04 3.74593E-01 1.00757E-14 4.12405E-13
 -1      1508 2.12199E+01 7.24251E-03-3.64377E-03 1.46488E-01-1.74763E-14 4.73472E-13
 -1      1509 2.14364E+01 9.57029E-03-1.82692E-03 1.52315E-01-3.79705E-14 4.08841E-13
 -1      1510 2.13442E+01 1.97396E-02-7.15522E-04 3.17568E-01-2.14672E-15 3.38774E-13
 -1      1511 2.08942E+01 6.42354E-03-2.87090E-03 1.15943E-01-1.81212E-14 4.55113E-13
 -1      1512 2.10679E+01 9.42529E-03-1.20031E-03 1.21668E-01 7.22079E-17 4.72710E-13
 -1      1513 2.10128E+01 1.86272E-02-8.20163E-04 2.57967E-01-1.04439E-14 3.96467E-13
 -1      1514 2.06383E+01 5.38367E-03-2.15212E-03 8.92332E-02-3.40739E-14 4.63139E-13
 -1      1515 2.07734E+01 8.46369E-03-6.86588E-04 9.43569E-02-2.23992E-14 4.63732E-13
 -1      1516 2.07450E+01 1.61454E-02-8.19645E-04 2.02928E-01-3.51184E-14 4.21655E-13
 -1      1517 2.04424E+01 4.34552E-03-1.55628E-03 6.70326E-02-8.28465E-14 5.51735E-13
 -1      1518 2.05448E+01 7.19298E-03-3.17513E-04 7.13735E-02-2.45063E-14 4.84725E-13
 -1      1519 2.05344E+01 1.32892E-02-7.63291E-04 1.55496E-01-5.61393E-14 4.45147E-13
 -1      1520 2.02958E+01 3.41151E-03-1.09139E-03 4.92111E-02 1.05311E-13 4.26189E-13
 -1      1521 2.03716E+01 5.89067E-03-7.55370E-05 5.27570E-02 4.31363E-14 4.93882E-13
 -1      1522 2.03728E+01 1.05580E-02-6.79828E-04 1.16395E-01 6.17657E-14 2.97014E-13
 -1      1523 2.01886E+01 2.61824E-03-7.41923E-04 3.52781E-02 6.80956E-14 2.83931E-13
 -1      1524 2.02434E+01 4.69321E-03 7.01454E-05 3.80976E-02 1.04436E-13 4.03828E-13
 -1      1525 2.02513E+01 8.16556E-03-5.86304E-04 8.51683E-02 1.19480E-13 2.32122E-13
 -1      1526 2.01120E+01 1.96889E-03-4.86099E-04 2.46232E-02-4.45042E-14 3.72557E-13
 -1      1527 2.01506E+01 3.65635E-03 1.48684E-04 2.68166E-02-3.34323E-14 2.65717E-13
 -1      1528 2.01621E+01 6.17380E-03-4.92889E-04 6.08417E-02 2.02043E-14 3.05204E-13
 -1      1529 2.00587E+01 1.45122E-03-3.02984E-04 1.66389E-02 1.95785E-13 2.09292E-13
 -1      1530 2.00851E+01 2.79248E-03 1.83072E-04 1.83123E-02 1.09029E-13 3.50991E-13
 -1      1531 2.00980E+01 4.57049E-03-4.05469E-04 4.22915E-02 8.70154E-14 2.21018E-13
 -1      1532 2.00229E+01 1.04713E-03-1.74829E-04 1.07759E-02 1.95504E-13-2.92568E-13
 -1      1533 2.00403E+01 2.09232E-03 1.89936E-04 1.20287E-02 1.99369E-13 6.92382E-14
 -1      1534 2.00532E+01 3.31157E-03-3.27155E-04 2.84272E-02 3.68900E-13 7.98325E-14
 -1      1535 1.99999E+01 7.37521E-04-8.74289E-05 6.56344E-03-4.78710E-14-4.61390E-13
 -1      1536 2.00108E+01 1.53713E-03 1.80700E-04 7.48334E-03 2.74447E-14-3.72543E-13
 -1      1537 2.00228E+01 2.34314E-03-2.59246E-04 1.82743E-02 1.73907E-13-9.11637E-14
 -1      1538 1.99861E+01 5.04485E-04-2.97613E-05 3.61186E-03-2.01682E-13-1.25234E-13
 -1      1539 1.99923E+01 1.10514E-03 1.62937E-04 4.27293E-03-1.14878E-13-3.55444E-13
 -1      1540 2.00030E+01 1.61193E-03-2.01880E-04 1.10027E-02-1.63603E-13-1.10380E-13
 -1      1541 1.99787E+01 3.32279E-04 6.57382E-06 1.60619E-03 1.92662E-14-1.94223E-14
 -1      1542 1.99817E+01 7.74914E-04 1.41509E-04 2.06953E-03-8.00948E-14-9.89254E-14
 -1      1543 1.99909E+01 1.06997E-03-1.54485E-04 5.92719E-03-1.53745E-13-3.30740E-14
 -1      1544 1.99755E+01 2.07558E-04 2.78924E-05 2.96977E-04-5.30823E-14 5.97393E-14
 -1      1545 1.99765E+01 5.26910E-04 1.19421E-04 6.11902E-04 1.83604E-14 1.04690E-13
 -1      1546 1.99842E+01 6.76141E-04-1.16094E-04 2.49558E-03-5.93961E-14-4.04348E-14
 -1      1547 1.99752E+01 1.19297E-04 3.88878E-05-5.09925E-04-2.54471E-14 1.94702E-13
 -1      1548 1.99748E+01 3.44114E-04 9.84349E-05-3.04362E-04-9.13799E-14 1.13817E-13
 -1      1549 1.99812E+01 3.96300E-04-8.55621E-05 2.71254E-04-8.83673E-14 1.07402E-13
 -1      1550 1.99766E+01 5.85680E-05 4.30040E-05-9.63159E-04 6.02902E-14-2.10880E-14
 -1      1551 1.99754E+01 2.12156E-04 7.94915E-05-8.36520E-04 7.99460E-14 8.38988E-14
 -1      1552 1.99805E+01 2.02721E-04-6.17052E-05-1.08501E-03 1.00365E-13-1.06226E-13
 -1      1553 1.99789E+01 1.82675E-05 4.27314E-05-1.17460E-03 5.66154E-14-2.73090E-13
 -1      1554 1.99773E+01 1.19177E-04 6.30032E-05-1.10356E-03 4.45536E-14-2.05189E-13
 -1      1555 1.99814E+01 7.33072E-05-4.33888E-05-1.83238E-03 1.58383E-13-2.59797E-13
 -1      1556 1.99816E+01-7.16878E-06 3.98382E-05-1.22698E-03 6.89189E-14-2.72831E-13
 -1      1557 1.99799E+01 5.55784E-05 4.90502E-05-1.19395E-03 3.85116E-14-2.11690E-13
 -1      1558 1.99831E+01-9.27479E-06-2.95790E-05-2.16551E-03 5.73625E-14-2.60781E-13
 -1      1559 1.99845E+01-2.20301E-05 3.55515E-05-1.18020E-03-8.64675E-14-4.67724E-14
 -1      1560 1.99828E+01 1.37252E-05 3.75151E-05-1.17219E-03-8.74390E-14-1.88847E-13
 -1      1561 1.99852E+01-5.84077E-05-1.93671E-05-2.22795E-03-1.08157E-13-6.00578E-14
 -1      1562 1.99871E+01-2.95701E-05 3.06974E-05-1.07672E-03 6.07916E-14-1.66845E-13
 -1      1563 1.99856E+01-1.23574E-05 2.81715E-05-1.08428E-03 8.78748E-14-2.18975E-14
 -1      1564 1.99874E+01-8.42622E-05-1.19770E-05-2.12339E-03 5.89019E-14-3.11625E-14
 -1      1565 1.99896E+01-3.22140E-05 2.58095E-05-9.45705E-04 1.14421E-13-3.91220E-13
 -1      1566 1.99882E+01-2.72689E-05 2.07434E-05-9.62155E-04 1.23858E-13-2.19283E-13
 -1      1567 1.99895E+01-9.44385E-05-6.76146E-06-1.92494E-03 1.36750E-13-5.20105E-14
 -1      1568 1.99917E+01-3.17357E-05 2.12115E-05-8.06524E-04-2.47935E-13-2.64690E-13
 -1      1569 1.99905E+01-3.44913E-05 1.49426E-05-8.27266E-04-1.11012E-13-4.73153E-13
 -1      1570 1.99914E+01-9.45119E-05-3.19182E-06-1.68269E-03-4.03389E-14-6.19861E-14
 -1      1571 1.99935E+01-2.94047E-05 1.70806E-05-6.71373E-04-1.59906E-13 1.73818E-13
 -1      1572 1.99925E+01-3.66138E-05 1.04920E-05-6.93359E-04-2.51445E-13-2.11210E-13
 -1      1573 1.99932E+01-8.84867E-05-8.44308E-07-1.42961E-03-3.39866E-13-1.91155E-14
 -1      1574 1.99950E+01-2.61070E-05 1.34941E-05-5.47349E-04 1.49171E-14 3.75773E-13
 -1      1575 1.99942E+01-3.55250E-05 7.13849E-06-5.68657E-04-8.06902E-14 2.53232E-13
 -1      1576 1.99946E+01-7.91688E-05 6.14920E-07-1.18629E-03-1.92790E-13-6.18903E-14
 -1      1577 1.99962E+01-2.24428E-05 1.04648E-05-4.38008E-04-1.71739E-13 5.99818E-13
 -1      1578 1.99956E+01-3.25734E-05 4.65916E-06-4.57525E-04-8.79881E-14 3.92995E-13
 -1      1579 1.99958E+01-6.84666E-05 1.44468E-06-9.64506E-04-1.55326E-13 2.00138E-13
 -1      1580 1.99972E+01-1.88046E-05 7.96606E-06-3.44521E-04 1.63461E-13 3.58082E-13
 -1      1581 1.99967E+01-2.87003E-05 2.86343E-06-3.61697E-04 6.89226E-14 4.04355E-13
 -1      1582 1.99968E+01-5.76299E-05 1.84298E-06-7.69937E-04 2.38327E-14 9.33964E-14
 -1      1583 1.99979E+01-1.54391E-05 5.95109E-06-2.66510E-04 4.27963E-14 8.54376E-14
 -1      1584 1.99975E+01-2.45480E-05 1.59237E-06-2.81180E-04 1.61582E-13 3.03615E-13
 -1      1585 1.99976E+01-4.74402E-05 1.96020E-06-6.04171E-04 2.34874E-13-3.60547E-14
 -1      1586 1.99985E+01-1.24958E-05 4.36828E-06-2.02630E-04 4.14092E-14 8.86663E-14
 -1      1587 1.99982E+01-2.05474E-05 7.17461E-07-2.14889E-04-3.33093E-14 1.78728E-13
 -1      1588 1.99982E+01-3.83574E-05 1.91175E-06-4.66142E-04 7.73313E-14 9.22318E-14
 -1      1589 1.99990E+01-1.00637E-05 3.17668E-06-1.50949E-04-4.71736E-15-1.32893E-13
 -1      1590 1.99987E+01-1.69891E-05 1.40999E-07-1.61069E-04 1.22502E-14-1.27759E-13
 -1      1591 1.99987E+01-3.06358E-05 1.79074E-06-3.53123E-04 9.86540E-14 4.40789E-14
 -1      1592 1.99993E+01-8.20355E-06 2.36653E-06-1.09175E-04-1.69218E-13 1.15021E-13
 -1      1593 1.99991E+01-1.40827E-05-1.98632E-07-1.17570E-04-1.45962E-13-5.61964E-14
 -1      1594 1.99991E+01-2.44141E-05 1.68301E-06-2.61375E-04-1.96853E-13-3.48371E-13
 -1      1595 1.99995E+01-6.93700E-06 1.96395E-06-7.47966E-05 2.91462E-14 2.63570E-13
 -1      1596 1.99994E+01-1.19813E-05-3.13473E-07-8.19972E-05 2.82149E-14 2.41268E-13
 -1      1597 1.99994E+01-1.97727E-05 1.68150E-06-1.86546E-04-8.88901E-14-1.23562E-13
 -1      1598 1.99997E+01-6.22865E-06 1.88871E-06-4.53091E-05 5.97333E-14 1.44212E-13
 -1      1599 1.99996E+01-1.07471E-05-1.94007E-07-5.19311E-05 7.30409E-14 2.60977E-13
 -1      1600 1.99996E+01-1.67208E-05 1.84919E-06-1.24055E-04 6.73818E-14 1.44621E-13
 -1      1601 1.99998E+01-5.83311E-06 1.40072E-06-1.85683E-05 1.66302E-14-1.14935E-13
 -1      1602 1.99997E+01-1.02010E-05-2.96085E-08-2.53988E-05 1.20606E-13 1.22760E-13
 -1      1603 1.99997E+01-1.52516E-05 1.95507E-06-6.99075E-05 1.90306E-13 3.75552E-13
 -1      1604 1.99998E+01-3.93221E-06-2.03879E-06 2.88860E-06-4.18099E-14-1.65013E-13
 -1      1605 1.99998E+01-8.01002E-06-6.59009E-07-2.97999E-06-9.35055E-14-2.94107E-13
 -1      1606 1.99998E+01-1.23244E-05 1.38424E-06-2.26152E-05 2.19043E-14 1.54375E-13
 -1      1607 1.99998E+01 3.20509E-06-4.03190E-06 6.06729E-06-1.30522E-13-1.64794E-13
 -1      1608 1.99998E+01-1.50945E-05 1.21260E-06-1.19977E-05 2.05112E-13 2.96834E-13
 -1      1609 1.99998E+01-7.42291E-06-1.28488E-06-6.67491E-06-1.84868E-13 3.55829E-13
 -1      1610 1.99998E+01-8.52159E-05 1.30617E-06-3.70514E-05 4.34110E-13 2.35698E-13
 -1      1611 1.99998E+01-4.75333E-05 8.74475E-07-3.20471E-05 2.27980E-13 1.47440E-13
 -1      1612 1.99998E+01-6.29965E-05 1.73105E-06-4.54657E-05 8.37579E-14 3.65654E-13
 -1      1613 1.99998E+01-1.95432E-04 7.81139E-07-5.58916E-05 2.57939E-13-4.62642E-14
 -1      1614 1.99998E+01-1.33720E-04 8.68725E-07-5.27879E-05 4.09287E-13 1.45503E-13
 -1      1615 1.99998E+01-1.44343E-04 2.01627E-06-8.86843E-05 2.73080E-14 1.34035E-13
 -1      1616 1.99998E+01-3.27048E-04 3.01794E-07-6.35908E-05 1.54468E-13-3.01558E-13
 -1      1617 1.99998E+01-2.54018E-04 4.73303E-07-6.29892E-05 3.90565E-13 8.18891E-14
 -1      1618 1.99998E+01-2.52423E-04 8.61396E-07-1.15945E-04 3.29491E-14 2.96585E-14
 -1      1619 1.99998E+01-4.54520E-04 4.26042E-08-5.95771E-05-7.39392E-13-6.13486E-13
 -1      1620 1.99998E+01-3.85453E-04 1.64913E-07-6.12439E-05 1.40914E-13-7.23612E-13
 -1      1621 1.99998E+01-3.70173E-04-4.86820E-07-1.21241E-04-7.15353E-14-9.06771E-13
 -1      1622 1.99998E+01-5.60210E-04-9.88930E-08-4.51132E-05-1.05421E-12-1.98837E-13
 -1      1623 1.99998E+01-5.05439E-04-2.35527E-08-4.87031E-05-7.87101E-13-3.22802E-13
 -1      1624 1.99998E+01-4.79845E-04-1.67586E-06-1.05017E-04-2.34245E-13-8.24561E-13
 -1      1625 1.99998E+01-6.24021E-04-1.53150E-07-2.30396E-05-8.54703E-13 1.48206E-13
 -1      1626 1.99998E+01-5.94251E-04-1.14936E-07-2.78470E-05-1.16948E-12 1.53625E-13
 -1      1627 1.99998E+01-5.64857E-04-2.56092E-06-7.07160E-05-3.69408E-13-6.55305E-14
 -1      1628 1.99998E+01-6.35614E-04-1.54821E-07 2.82113E-06-3.66082E-13 2.85426E-13
 -1      1629 1.99998E+01-6.35858E-04-1.54875E-07-2.40066E-06-8.49418E-13 2.40889E-13
 -1      1630 1.99998E+01-6.10746E-04-3.02324E-06-2.46516E-05-4.95903E-13 2.91791E-13
 -1      1631 1.99998E+01-5.93168E-04-1.09630E-07 2.82196E-05-2.60416E-13-1.18981E-13
 -1      1632 1.99998E+01-6.23393E-04-1.53007E-07 2.34299E-05-3.28163E-13 2.67390E-13
 -1      1633 1.99998E+01-6.10359E-04-3.01826E-06 2.54402E-05-2.97064E-13 3.34441E-13
 -1      1634 1.99998E+01-5.03700E-04-4.75652E-09 4.89639E-05-1.05412E-12-6.64778E-13
 -1      1635 1.99998E+01-5.58819E-04-1.09248E-07 4.54143E-05-2.63210E-13-7.31624E-13
 -1      1636 1.99998E+01-5.63770E-04-2.54198E-06 7.13725E-05-2.91649E-13-4.92391E-13
 -1      1637 1.99998E+01-3.84433E-04 1.61404E-07 6.12742E-05-1.05871E-12 4.24251E-13
 -1      1638 1.99998E+01-4.53613E-04 3.74482E-08 5.96337E-05-1.06706E-12-9.76841E-14
 -1      1639 1.99998E+01-4.79121E-04-1.68357E-06 1.05276E-04-3.74296E-13-5.71501E-13
 -1      1640 1.99998E+01-2.51938E-04 4.65205E-07 6.29191E-05-1.02951E-12-5.97739E-14
 -1      1641 1.99998E+01-3.24899E-04 3.13312E-07 6.35705E-05-1.18987E-12 3.35853E-13
 -1      1642 1.99998E+01-3.69252E-04-4.72238E-07 1.21284E-04-4.53098E-13 4.32307E-13
 -1      1643 1.99998E+01-1.31779E-04 9.85384E-07 5.25313E-05-5.68633E-13 3.87158E-13
 -1      1644 1.99998E+01-1.93444E-04 7.73003E-07 5.56180E-05-9.62779E-13 3.14046E-13
 -1      1645 1.99998E+01-2.50483E-04 8.77529E-07 1.15663E-04-3.31527E-13 2.38605E-13
 -1      1646 1.99998E+01-4.73495E-05 3.48760E-07 3.22024E-05-5.62259E-13-1.42771E-13
 -1      1647 1.99998E+01-8.42142E-05 1.37289E-06 3.74106E-05-5.32475E-13 9.78757E-14
 -1      1648 1.99998E+01-1.43407E-04 2.01910E-06 8.79820E-05-3.46645E-13 2.46814E-13
 -1      1649 1.99998E+01-1.82358E-05-1.43627E-06 1.46696E-05-2.88538E-13 3.94391E-14
 -1      1650 1.99998E+01-2.77741E-05 1.21129E-06 2.20973E-05-3.36602E-13-4.93688E-14
 -1      1651 1.99998E+01-7.81950E-05 3.33367E-07 5.82013E-05-2.40126E-13 1.23939E-13
 -1      1652 1.99998E+01-4.03409E-05-1.35859E-06 3.36636E-05-1.30672E-13 2.24869E-13
 -1      1653 1.37903E-01-8.81885E+00-1.35509E+00 6.20480E-02 1.90820E-12 7.79737E-13
 -1      1654-4.55184E-02-1.07078E+01-1.52401E+00 6.31492E-01 1.11101E-12 6.13509E-13
 -1      1655 2.36818E+00-3.62720E+00-1.06128E+00 1.97845E+00 2.69562E-12 1.48959E-12
 -1      1656 1.32291E+00-8.29100E+00-1.53992E+00 1.00685E+00 2.29428E-12 8.92800E-13
 -1      1657 8.49701E+00 2.49592E+00-4.33286E-01 6.24822E+00 2.82074E-12 2.08078E-12
 -1      1658 5.18245E+00-2.04205E+00-1.13939E+00 3.38685E+00 2.78688E-12 1.65873E-12
 -1      1659 1.92286E+01 6.48282E+00 3.05005E-01 1.09899E+01 2.30393E-12 2.22133E-12
 -1      1660 1.24925E+01 3.95548E+00-5.23277E-01 7.52228E+00 2.69962E-12 2.13651E-12
 -1      1661 3.30934E+01 6.43943E+00 9.90267E-01 1.23107E+01 1.45550E-12 1.58706E-12
 -1      1662 2.47056E+01 6.58657E+00 2.43429E-01 1.09363E+01 2.00051E-12 1.92879E-12
 -1      1663 4.49922E+01 5.33746E+00 1.59935E+00 1.05316E+01 8.09144E-13 8.07465E-13
 -1      1664 3.74334E+01 7.11783E+00 1.02448E+00 1.24490E+01 1.25749E-12 1.48470E-12
 -1      1665 5.07909E+01 3.65679E+00 1.72102E+00 3.85532E+00 5.45647E-13-4.03441E-13
 -1      1666 4.75567E+01 5.00077E+00 1.54019E+00 8.61414E+00 6.88449E-13 4.72289E-13
 -1      1667 4.88806E+01 3.33790E+00 1.49800E+00-3.46651E+00 6.57530E-13-1.61604E-12
 -1      1668 5.16092E+01 3.10720E+00 1.77188E+00 1.49887E+00 5.10009E-13-8.34360E-13
 -1      1669 3.86779E+01 4.36257E+00 7.68143E-01-8.12041E+00 1.19119E-12-2.40630E-12
 -1      1670 4.60515E+01 3.22435E+00 1.44232E+00-5.43717E+00 7.86402E-13-1.94977E-12
 -1      1671 2.54615E+01 4.83656E+00-7.39117E-02-8.97839E+00 1.77097E-12-2.64100E-12
 -1      1672 3.41191E+01 4.32607E+00 7.48022E-01-9.43127E+00 1.36119E-12-2.57327E-12
 -1      1673 1.40001E+01 3.91193E+00-7.42950E-01-6.97223E+00 2.23555E-12-2.46425E-12
 -1      1674 2.03355E+01 4.97064E+00-5.10330E-02-9.22196E+00 1.99685E-12-2.69518E-12
 -1      1675 5.91600E+00 1.36407E+00-1.13188E+00-3.64873E+00 2.28684E-12-1.83803E-12
 -1      1676 9.72857E+00 3.73351E+00-6.55791E-01-6.08397E+00 2.33269E-12-2.31948E-12
 -1      1677 1.71071E+00-1.48805E+00-1.14157E+00-1.18092E+00 1.83442E-12-1.11672E-12
 -1      1678 3.07525E+00 9.29726E-01-9.63145E-01-2.42701E+00 2.22788E-12-1.60591E-12
 -1      1679 2.18744E-01-3.19920E+00-9.44087E-01-2.31791E-01 1.00947E-12-5.87641E-13
 -1      1680 4.30641E-01-1.92925E+00-9.62608E-01-2.30904E-01 1.63580E-12-9.09980E-13
 -1      1681-5.61332E-02-2.82510E+00-7.33423E-01-3.84018E-02-3.57006E-14-4.93328E-13
 -1      1682-5.73150E-02-2.79761E+00-7.59894E-01 2.80164E-01 6.92196E-13-5.53974E-13
 -1      1683 2.39557E-01-1.88457E+00-8.32881E-01 3.09799E-01-1.06026E-12-6.47912E-13
 -1      1684 8.52457E-02-3.17927E+00-8.66911E-01 4.47964E-01-3.61322E-13-4.20261E-13
 -1      1685 2.86630E+00 1.18251E+00-7.62294E-01 2.53747E+00-1.63536E-12-1.19263E-12
 -1      1686 1.62765E+00-1.14013E+00-9.14957E-01 1.45028E+00-1.17423E-12-7.81139E-13
 -1      1687 8.18270E+00 3.91497E+00-6.07162E-01 5.72404E+00-1.94689E-12-1.74505E-12
 -1      1688 5.16430E+00 1.63337E+00-9.67646E-01 3.61183E+00-1.84774E-12-1.35458E-12
 -1      1689 1.87147E+01 5.03737E+00-7.92097E-02 8.90947E+00-1.63791E-12-1.98153E-12
 -1      1690 1.26622E+01 3.79921E+00-6.82557E-01 6.55097E+00-1.82765E-12-1.77836E-12
 -1      1691 3.06554E+01 5.10512E+00 5.63797E-01 1.02555E+01-1.25228E-12-2.02027E-12
 -1      1692 2.29691E+01 5.48178E+00-1.56439E-01 9.43364E+00-1.61593E-12-2.12408E-12
 -1      1693 4.28256E+01 3.58170E+00 1.18368E+00 6.71864E+00-7.59261E-13-1.17917E-12
 -1      1694 3.51510E+01 4.80753E+00 5.28203E-01 8.78553E+00-1.11419E-12-1.73195E-12
 -1      1695 4.98716E+01 3.07532E+00 1.62303E+00 3.21477E-01-4.91246E-13-1.51879E-13
 -1      1696 4.59587E+01 3.61666E+00 1.21242E+00 4.83090E+00-6.60999E-13-9.10938E-13
 -1      1697 4.88065E+01 4.29657E+00 1.63450E+00-7.31654E+00-6.13981E-13 1.01080E-12
 -1      1698 5.07990E+01 3.21265E+00 1.70072E+00-2.10488E+00-4.11782E-13 2.41820E-13
 -1      1699 3.85038E+01 6.68307E+00 1.09476E+00-1.17680E+01-1.13425E-12 1.76859E-12
 -1      1700 4.58200E+01 4.77889E+00 1.59681E+00-9.16226E+00-7.73270E-13 1.22324E-12
 -1      1701 2.52878E+01 7.68909E+00 4.23883E-01-1.20933E+01-1.65179E-12 2.06157E-12
 -1      1702 3.40043E+01 7.04339E+00 1.17100E+00-1.31735E+01-1.28353E-12 2.05269E-12
 -1      1703 1.34179E+01 4.87738E+00-3.77508E-01-8.14694E+00-2.11609E-12 1.75504E-12
 -1      1704 2.03086E+01 7.11733E+00 4.83318E-01-1.14875E+01-1.82954E-12 1.98408E-12
 -1      1705 5.45851E+00-1.56942E+00-1.09486E+00-3.54637E+00-1.87017E-12 1.28714E-12
 -1      1706 9.35011E+00 3.23697E+00-3.01883E-01-6.82092E+00-2.08777E-12 1.65534E-12
 -1      1707 1.17964E+00-8.40258E+00-1.61688E+00-7.70915E-01-7.09877E-13 7.91034E-13
 -1      1708 2.27376E+00-3.40216E+00-1.07115E+00-1.90697E+00-1.65912E-12 1.26690E-12
 -1      1709-1.78402E-01-1.12393E+01-1.63237E+00-6.26789E-01 7.93698E-13 5.55583E-13
 -1      1710-4.44597E-02-9.29989E+00-1.48151E+00 1.32982E-01-2.79665E-13 6.90059E-13
 -1      1711 2.58912E+01 2.45129E+00 4.08852E-01 7.86105E+00 1.49702E-12 9.50351E-13
 -1      1712 1.56112E+01-3.48121E-01-2.03772E-01 7.49908E+00 1.66911E-12 1.31722E-12
 -1      1713 1.99998E+01 2.16857E-06-1.03462E-06 4.43584E-06-1.94903E-13-2.11563E-13
 -1      1714 1.99998E+01-2.37715E-05-5.49784E-07-1.13645E-05 2.00299E-14 2.08362E-13
 -1      1715 1.73404E+00-5.60157E+00-9.77006E-01 3.06999E+00 1.08730E-12 1.05380E-12
 -1      1716 7.22457E+00-3.57847E+00-7.23220E-01 5.55360E+00 1.56430E-12 1.28315E-12
 -1      1717-2.67467E-01-6.19181E+00-1.02369E+00 9.19645E-02 5.25642E-13 1.15408E-12
 -1      1718 3.47209E+01 4.94089E+00 8.33691E-01 6.80275E+00 1.31398E-12 6.45373E-13
 -1      1719 4.13967E+01 6.92186E+00 1.31586E+00 5.30260E+00 1.09121E-12 2.17659E-13
 -1      1720 4.42195E+01 6.99891E+00 1.46541E+00 2.32404E+00 9.82270E-13-3.82888E-13
 -1      1721 4.23001E+01 5.74063E+00 1.26636E+00-8.36566E-01 9.88987E-13-9.89431E-13
 -1      1722 3.54858E+01 3.91221E+00 7.41352E-01-3.67395E+00 1.09535E-12-1.40243E-12
 -1      1723 2.60780E+01 2.26051E+00 1.51718E-01-5.67858E+00 1.26260E-12-1.65912E-12
 -1      1724 1.60324E+01 1.19503E+00-3.68363E-01-5.86225E+00 1.40110E-12-1.67050E-12
 -1      1725 7.69021E+00 3.29791E-01-6.64497E-01-4.37976E+00 1.33632E-12-1.43306E-12
 -1      1726 2.40508E+00-4.58952E-01-7.10677E-01-2.33343E+00 1.04072E-12-1.12756E-12
 -1      1727 2.14943E-01-4.39504E-01-5.47593E-01-6.74356E-01 5.19682E-13-9.36695E-13
 -1      1728 4.80954E-03-3.83237E-01-5.18749E-01 6.44961E-01 8.59868E-14-8.69055E-13
 -1      1729 2.00186E+00 3.47259E-02-5.67382E-01 2.51309E+00-4.22051E-13-9.04610E-13
 -1      1730 6.80833E+00 8.92143E-01-5.25586E-01 4.49775E+00-7.33358E-13-1.01403E-12
 -1      1731 1.46909E+01 1.46669E+00-3.14814E-01 5.95468E+00-9.60010E-13-1.10745E-12
 -1      1732 2.38558E+01 2.39981E+00 3.04011E-02 6.03953E+00-1.03256E-12-1.16340E-12
 -1      1733 3.31117E+01 3.99006E+00 6.06506E-01 4.74446E+00-1.03638E-12-1.02551E-12
 -1      1734 3.98687E+01 5.61707E+00 1.04400E+00 1.67770E+00-9.67421E-13-5.63771E-13
 -1      1735 4.37387E+01 6.57373E+00 1.38350E+00-1.55746E+00-8.60534E-13-2.18436E-14
 -1      1736 4.17858E+01 6.84506E+00 1.33499E+00-4.73480E+00-8.85347E-13 4.77840E-13
 -1      1737 3.54264E+01 5.79812E+00 1.02781E+00-7.30506E+00-9.44196E-13 9.29701E-13
 -1      1738 2.61021E+01 3.60414E+00 4.88163E-01-8.55163E+00-1.12932E-12 1.17173E-12
 -1      1739 1.61787E+01 1.95166E-01-1.51372E-01-7.56059E+00-1.12388E-12 1.04505E-12
 -1      1740 7.45298E+00-3.35982E+00-6.91680E-01-5.56179E+00-7.29639E-13 1.18743E-12
 -1      1741 1.51111E+00-6.06884E+00-1.07636E+00-2.88886E+00-1.05249E-13 1.24506E-12
 -1      1742 2.67736E+01 5.17465E+00-8.43379E-02-5.63798E+00-2.59348E-13 1.41664E-13
 -1      1743 2.87732E+01 1.31662E+00-1.48039E-01-3.21854E+00-2.86979E-13 9.72555E-13
 -1      1744 2.46540E+01 3.23427E+00-3.55391E-02-3.30044E+00-7.24178E-14-3.06685E-13
 -1      1745 2.48736E+01 3.41518E+00-8.78190E-02-3.84714E+00-2.00662E-13-2.84398E-13
 -1      1746 2.51876E+01 3.38160E+00-5.10629E-02-4.09297E+00-2.70714E-13-2.14287E-13
 -1      1747 2.56188E+01 3.24082E+00-8.31501E-02-4.42426E+00-3.70842E-13-5.78426E-14
 -1      1748 2.54012E+01 2.54324E+00 5.79236E-03-3.95001E+00-2.78113E-13-1.65250E-13
 -1      1749 2.16837E+01 1.82471E+00 1.21064E-02-1.40694E-01 3.78218E-13-2.31933E-13
 -1      1750 2.30219E+01 2.09761E+00-3.43971E-02-1.04321E+00 2.57207E-13-2.58321E-13
 -1      1751 1.70262E+01 1.74576E+00 8.43409E-03 2.00480E+00 5.76872E-13-2.53131E-13
 -1      1752 1.97234E+01 1.72266E+00 4.55218E-02 1.17107E+00 4.93952E-13-2.59112E-13
 -1      1753 2.15347E+01 8.78973E-01-2.15515E-02 3.96258E-01 4.10290E-13-1.42077E-13
 -1      1754 1.03918E+01 2.73124E+00-4.28721E-03 3.14440E+00 6.20171E-13-4.09756E-13
 -1      1755 1.38653E+01 2.42448E+00 1.43939E-01 2.92322E+00 6.31009E-13-3.67928E-13
 -1      1756 1.61591E+01 1.23248E+00 2.66431E-02 2.82719E+00 5.65450E-13-2.73004E-13
 -1      1757 3.69512E+00 4.45212E+00 9.11255E-02 1.89352E-02 1.77674E-13-6.98400E-13
 -1      1758 3.82888E+00 4.42516E+00 9.06357E-02 8.62401E-01 3.50095E-13-6.71699E-13
 -1      1759 6.93250E+00 3.83492E+00 1.50078E-01-1.96620E+00-8.29059E-14-6.68632E-13
 -1      1760 4.66979E+00 4.08660E+00 3.48247E-02-1.32803E+00 5.65173E-14-6.88394E-13
 -1      1761 1.38697E+01 2.48389E+00 1.48570E-01-2.27087E+00-2.14453E-13-4.44152E-13
 -1      1762 1.00797E+01 2.81768E+00-8.02117E-03-2.47481E+00-1.86295E-13-5.36335E-13
 -1      1763 2.02749E+01 1.75344E+00 4.74825E-02-4.01419E-01-1.24220E-13-1.57943E-13
 -1      1764 1.73545E+01 1.71922E+00-8.86874E-03-1.32492E+00-2.18825E-13-2.57343E-13
 -1      1765 1.60692E+01 1.25946E+00 1.77797E-02-2.12522E+00-1.99160E-13-3.31041E-13
 -1      1766 2.38808E+01 2.16407E+00-4.36235E-02 1.87347E+00 7.01765E-14 8.59798E-14
 -1      1767 2.23888E+01 1.87031E+00 9.99475E-03 9.21058E-01-4.35207E-14-2.84980E-14
 -1      1768 2.19942E+01 8.95016E-01-2.06994E-02 3.94985E-01-8.58723E-14-9.22179E-15
 -1      1769 2.57006E+01 2.87868E+00-9.50810E-02 3.58311E+00 2.60934E-13 3.86122E-13
 -1      1770 2.49570E+01 2.59897E+00-1.20818E-02 2.83453E+00 1.61073E-13 2.13662E-13
 -1      1771 2.50866E+01 1.54805E+00 1.62303E-03 2.65804E+00 1.23556E-13 2.34091E-13
 -1      1772 2.73231E+01 2.87716E+00-1.23089E-01 4.53441E+00 3.28911E-13 8.79283E-13
 -1      1773 2.64767E+01 3.02877E+00-5.01524E-02 4.06698E+00 2.97540E-13 5.84033E-13
 -1      1774 2.65972E+01 2.07591E+00 1.76253E-03 3.93772E+00 2.92181E-13 5.48332E-13
 -1      1775 2.88381E+01 1.35867E+00-1.74786E-01 3.87598E+00 2.85362E-13 1.46516E-12
 -1      1776 2.79942E+01 2.61492E+00 1.49328E-02 4.42854E+00 3.15806E-13 1.09134E-12
 -1      1777 2.74850E+01 1.64607E+00-2.48776E-02 4.06699E+00 3.60184E-13 9.35155E-13
 -1      1778 2.76194E+01 7.38548E-01-8.38650E-02 3.08406E+00 3.19827E-13 1.38618E-12
 -1      1779 2.71409E+01 2.06306E+00 5.02776E-02-4.17992E+00-3.80945E-13 3.75699E-13
 -1      1780 2.57606E+01 2.53370E-01-4.96719E-03 2.42177E+00 2.60968E-13 1.27656E-12
 -1      1781 2.69387E+01 3.18341E-01-2.96243E-02 2.70922E+00 2.65898E-13 1.33685E-12
 -1      1782 2.70868E+01 7.52252E-01 5.50686E-03 3.40309E+00 3.11445E-13 1.08791E-12
 -1      1783 2.46250E+01 5.23859E-01 1.85707E-02-2.39960E+00-3.16767E-13 1.52621E-13
 -1      1784 2.37308E+01 5.04016E-01 1.92455E-02-2.01870E+00-2.84883E-13 7.59653E-14
 -1      1785 2.31863E+01 5.33001E-01 2.65645E-02-1.64086E+00-2.72117E-13 5.46386E-14
 -1      1786 2.26400E+01 5.88662E-01 2.94975E-02-1.30232E+00-2.57152E-13-2.43668E-14
 -1      1787 2.40360E+01 8.12221E-01-6.07943E-03-2.38054E+00-3.33317E-13 1.81133E-14
 -1      1788 2.22470E+01 6.38571E-01 2.39729E-02-8.36825E-01-2.34727E-13-6.37173E-14
 -1      1789 2.19766E+01 6.44559E-01 2.01689E-02-4.63207E-01-1.95257E-13-1.31973E-13
 -1      1790 2.30827E+01 9.14571E-01-1.92187E-02-1.42051E+00-3.04793E-13-6.87662E-14
 -1      1791 2.18165E+01 6.01787E-01 2.42416E-02 3.30289E-03-1.82198E-13-1.75715E-13
 -1      1792 2.17944E+01 4.98354E-01 6.45320E-03 3.20928E-01-1.63970E-13-2.22485E-13
 -1      1793 2.25366E+01 9.10907E-01-2.29965E-02-3.59864E-01-2.56611E-13-1.61021E-13
 -1      1794 2.18263E+01 3.64438E-01 2.15485E-02 6.37842E-01-1.52469E-13-2.56789E-13
 -1      1795 2.19758E+01 1.99742E-01-2.40906E-03 8.00713E-01-1.23342E-13-3.02913E-13
 -1      1796 2.24135E+01 6.36234E-01-1.34555E-02 5.28423E-01-1.92320E-13-2.46126E-13
 -1      1797 2.20716E+01 5.05719E-02 1.15370E-02 8.88394E-01-1.25141E-13-3.19339E-13
 -1      1798 2.22874E+01-8.95787E-02-4.63744E-03 8.78947E-01-5.39135E-14-3.41067E-13
 -1      1799 2.25400E+01 1.98336E-01 3.36139E-04 9.73629E-01-1.41690E-13-2.68237E-13
 -1      1800 2.23374E+01-1.87911E-01-1.28826E-03 7.76269E-01-4.91087E-14-3.44350E-13
 -1      1801 2.25240E+01-2.55595E-01-3.50497E-03 6.51147E-01-3.61291E-14-3.15568E-13
 -1      1802 2.26800E+01-1.89014E-01 7.24140E-03 9.41998E-01-7.26962E-14-3.22162E-13
 -1      1803 2.24883E+01-2.85372E-01-1.03783E-02 4.58711E-01-4.17123E-14-3.15370E-13
 -1      1804 2.25902E+01-2.85286E-01-1.65556E-03 2.96536E-01-9.88532E-15-3.03673E-13
 -1      1805 2.26899E+01-3.91713E-01 6.62195E-03 6.03840E-01-3.83066E-14-3.06216E-13
 -1      1806 2.24839E+01-2.67161E-01-1.32491E-02 1.04298E-01-3.59799E-14-3.23092E-13
 -1      1807 2.24884E+01-2.29832E-01-4.42862E-04-3.79754E-02-1.55700E-14-3.66555E-13
 -1      1808 2.25498E+01-4.09365E-01 3.36826E-03 1.76767E-01-4.49298E-14-3.17583E-13
 -1      1809 2.23429E+01-1.92048E-01-1.15199E-02-1.82238E-01-3.61421E-14-3.61408E-13
 -1      1810 2.22663E+01-1.45732E-01 1.31503E-04-2.79761E-01-5.86727E-15-3.97210E-13
 -1      1811 2.23045E+01-3.18185E-01 4.67877E-04-1.90446E-01-3.49096E-14-3.45004E-13
 -1      1812 2.21079E+01-1.07907E-01-7.74002E-03-3.64804E-01-9.40524E-15-4.08937E-13
 -1      1813 2.19781E+01-6.85128E-02 4.45871E-04-4.16309E-01-4.33427E-14-4.43538E-13
 -1      1814 2.20081E+01-1.94936E-01-1.17600E-03-4.37323E-01-2.51838E-14-3.27127E-13
 -1      1815 2.18233E+01-3.93884E-02-3.84361E-03-4.50799E-01-4.50693E-14-4.19520E-13
 -1      1816 2.16679E+01-1.20995E-02 6.70296E-04-4.66244E-01-4.57152E-14-4.10823E-13
 -1      1817 2.17006E+01-8.59814E-02-1.89413E-03-5.63751E-01-3.50302E-14-3.17791E-13
 -1      1818 2.15254E+01 6.79032E-03-7.69138E-04-4.65246E-01-1.33997E-14-3.66771E-13
 -1      1819 2.13657E+01 2.26932E-02 8.59082E-04-4.57044E-01-2.12321E-14-2.59604E-13
 -1      1820 2.14064E+01-8.16278E-03-2.12717E-03-5.96644E-01-5.21694E-15-1.99461E-13
 -1      1821 2.12396E+01 3.30571E-02 1.26181E-03-4.34848E-01-7.33546E-14-2.68932E-13
 -1      1822 2.10897E+01 4.04152E-02 9.98675E-04-4.13629E-01-3.20540E-14-2.79665E-13
 -1      1823 2.11388E+01 3.87974E-02-2.13213E-03-5.68183E-01-5.28496E-14-1.92250E-13
 -1      1824 2.09812E+01 4.47778E-02 2.37705E-03-3.81142E-01-2.44756E-14-2.62204E-13
 -1      1825 2.08489E+01 4.65636E-02 1.06975E-03-3.54514E-01-3.63149E-14-3.01656E-13
 -1      1826 2.09039E+01 6.19028E-02-2.03029E-03-5.05763E-01-3.96257E-14-1.66543E-13
 -1      1827 2.07579E+01 4.71772E-02 2.81993E-03-3.19027E-01-8.70747E-14-3.31582E-13
 -1      1828 2.06462E+01 4.57483E-02 1.07029E-03-2.91789E-01-1.02316E-13-3.92576E-13
 -1      1829 2.07035E+01 6.90705E-02-1.87304E-03-4.29141E-01-9.85527E-14-1.70624E-13
 -1      1830 2.05715E+01 4.42787E-02 2.82913E-03-2.57658E-01-9.99359E-14-3.54779E-13
 -1      1831 2.04804E+01 4.12626E-02 1.01306E-03-2.32486E-01-1.06494E-13-3.58946E-13
 -1      1832 2.05367E+01 6.67923E-02-1.68399E-03-3.50977E-01-1.12631E-13-1.84386E-13
 -1      1833 2.04204E+01 3.88154E-02 2.59279E-03-2.01983E-01-1.12285E-13-2.83967E-13
 -1      1834 2.03483E+01 3.52338E-02 9.16896E-04-1.80124E-01 4.00182E-14-2.58556E-13
 -1      1835 2.04011E+01 5.96487E-02-1.47819E-03-2.78491E-01-6.45258E-14-2.63615E-14
 -1      1836 2.03010E+01 3.24851E-02 2.24180E-03-1.54168E-01 1.03953E-13-2.87705E-13
 -1      1837 2.02455E+01 2.89260E-02 8.00098E-04-1.35992E-01 1.28243E-13-2.75381E-13
 -1      1838 2.02930E+01 5.05695E-02-1.26810E-03-2.15168E-01 5.72841E-14-3.71438E-15
 -1      1839 2.02089E+01 2.62569E-02 1.85892E-03-1.14694E-01 1.30694E-13-3.58569E-13
 -1      1840 2.01672E+01 2.30238E-02 6.77254E-04-1.00073E-01 6.79048E-14-3.51541E-13
 -1      1841 2.02086E+01 4.12766E-02-1.06425E-03-1.62132E-01 9.59847E-14-1.36040E-13
 -1      1842 2.01395E+01 2.06262E-02 1.49175E-03-8.31006E-02-4.57631E-15-2.90865E-13
 -1      1843 2.01089E+01 1.78478E-02 5.58515E-04-7.16608E-02 5.75255E-14-2.74694E-13
 -1      1844 2.01441E+01 3.26871E-02-8.74664E-04-1.19134E-01 6.43175E-14-1.57877E-13
 -1      1845 2.00884E+01 1.57987E-02 1.16439E-03-5.84741E-02 1.89792E-13-3.05426E-13
 -1      1846 2.00666E+01 1.35024E-02 4.50071E-04-4.97426E-02 2.41875E-13-2.38799E-13
 -1      1847 2.00958E+01 2.52165E-02-7.04601E-04-8.52077E-02 1.35731E-13-1.23132E-13
 -1      1848 2.00518E+01 1.18129E-02 8.86267E-04-3.97362E-02 1.77624E-13-2.47480E-13
 -1      1849 2.00367E+01 9.97162E-03 3.55061E-04-3.32298E-02 7.29240E-14-2.29520E-13
 -1      1850 2.00603E+01 1.89840E-02-5.56705E-04-5.90800E-02 1.95497E-13-2.72255E-13
 -1      1851 2.00262E+01 8.61744E-03 6.58219E-04-2.58123E-02-7.99640E-14-2.15264E-13
 -1      1852 2.00162E+01 7.17832E-03 2.74479E-04-2.10828E-02-1.69950E-13-2.03182E-13
 -1      1853 2.00350E+01 1.39466E-02-4.31512E-04-3.94199E-02 1.69634E-14-3.64771E-13
 -1      1854 2.00091E+01 6.11899E-03 4.76492E-04-1.57190E-02-1.44627E-13-1.16048E-13
 -1      1855 2.00028E+01 5.02004E-03 2.07942E-04-1.23741E-02-1.07885E-13-9.10250E-14
 -1      1856 2.00174E+01 9.98041E-03-3.28043E-04-2.49718E-02-8.78730E-14-1.84974E-13
 -1      1857 1.99981E+01 4.20967E-03 3.35224E-04-8.60215E-03-1.43909E-13-4.63340E-14
 -1      1858 1.99945E+01 3.38933E-03 1.54265E-04-6.31205E-03-4.08948E-14-7.29048E-14
 -1      1859 2.00057E+01 6.93006E-03-2.44369E-04-1.46223E-02-1.02819E-13 5.56063E-14
 -1      1860 1.99916E+01 2.78283E-03 2.27911E-04-3.74706E-03 4.40579E-14-8.91120E-14
 -1      1861 1.99898E+01 2.18476E-03 1.11869E-04-2.24278E-03 1.58122E-13-5.88200E-14
 -1      1862 1.99982E+01 4.63619E-03-1.78062E-04-7.42425E-03-4.83105E-14 1.05718E-13
 -1      1863 1.99882E+01 1.74108E-03 1.48238E-04-5.72938E-04 8.05856E-14-7.00885E-14
 -1      1864 1.99876E+01 1.31629E-03 7.90465E-05 3.59514E-04 5.31979E-14-1.01975E-13
 -1      1865 1.99938E+01 2.95035E-03-1.26536E-04-2.59720E-03 7.68030E-14 1.12326E-13
 -1      1866 1.99869E+01 9.99786E-04 9.05013E-05 1.38099E-03 5.57289E-14-1.40742E-13
 -1      1867 1.99870E+01 7.07218E-04 5.41370E-05 1.90807E-03 4.74750E-14-1.44598E-13
 -1      1868 1.99915E+01 1.74186E-03-8.72694E-05 4.85645E-04 3.04958E-14 8.62867E-15
 -1      1869 1.99869E+01 4.87983E-04 4.97834E-05 2.47230E-03 9.94582E-15-1.11650E-13
 -1      1870 1.99875E+01 2.94166E-04 3.56179E-05 2.72079E-03 4.66669E-14-6.00461E-14
 -1      1871 1.99906E+01 9.00131E-04-5.79437E-05 2.31645E-03 6.40512E-14 2.50625E-14
 -1      1872 1.99877E+01 1.47800E-04 2.19879E-05 2.97277E-03 8.89601E-14-5.49501E-15
 -1      1873 1.99886E+01 2.60968E-05 2.21537E-05 3.03719E-03 1.40724E-13-6.91252E-16
 -1      1874 1.99907E+01 3.34291E-04-3.65128E-05 3.27358E-03 1.09255E-13 1.09481E-13
 -1      1875 1.99890E+01-6.68623E-05 3.79325E-06 3.08460E-03 4.32164E-14-5.52830E-14
 -1      1876 1.99900E+01-1.37206E-04 1.26095E-05 3.03388E-03 1.01496E-14-6.38472E-14
 -1      1877 1.99913E+01-2.85049E-05-2.12300E-05 3.64192E-03 5.56528E-14 9.68062E-14
 -1      1878 1.99905E+01-1.91959E-04-7.43145E-06 2.95487E-03-7.62397E-14-8.85268E-14
 -1      1879 1.99914E+01-2.26786E-04 6.04661E-06 2.83801E-03-3.06075E-14-1.34814E-13
 -1      1880 1.99923E+01-2.45394E-04-1.06429E-05 3.63143E-03-7.63099E-14-8.16370E-15
 -1      1881 1.99920E+01-2.54969E-04-1.37267E-05 2.68789E-03-2.98618E-14-1.72227E-13
 -1      1882 1.99929E+01-2.66130E-04 1.70539E-06 2.53872E-03-4.40832E-14-1.47887E-13
 -1      1883 1.99933E+01-3.60290E-04-3.57136E-06 3.39320E-03-3.20346E-14 3.55703E-14
 -1      1884 1.99934E+01-2.76478E-04-1.66430E-05 2.35542E-03-8.77165E-14-1.69519E-13
 -1      1885 1.99942E+01-2.72647E-04-1.01645E-06 2.19641E-03-1.78206E-13-2.51890E-13
 -1      1886 1.99943E+01-4.06269E-04 9.23962E-07 3.03306E-03-8.87069E-14-3.10778E-14
 -1      1887 1.99946E+01-2.71579E-04-1.73341E-05 2.00495E-03-8.12953E-14-2.64222E-13
 -1      1888 1.99953E+01-2.58961E-04-2.58787E-06 1.85028E-03-4.90152E-14-9.02645E-14
 -1      1889 1.99953E+01-4.07733E-04 3.57622E-06 2.62268E-03-8.87095E-14 2.66724E-14
 -1      1890 1.99957E+01-2.51093E-04-1.66401E-05 1.66626E-03-5.49410E-14-2.36038E-13
 -1      1891 1.99963E+01-2.34006E-04-3.36790E-06 1.52417E-03-3.16336E-14-2.01651E-13
 -1      1892 1.99962E+01-3.82285E-04 4.94691E-06 2.20851E-03-1.04697E-13-1.49112E-13
 -1      1893 1.99966E+01-2.22573E-04-1.51574E-05 1.35649E-03-1.69002E-14-7.84615E-14
 -1      1894 1.99971E+01-2.03935E-04-3.62732E-06 1.23113E-03-8.09001E-15-2.97898E-14
 -1      1895 1.99970E+01-3.42309E-04 5.45779E-06 1.81874E-03-5.06821E-15-7.59987E-14
 -1      1896 1.99974E+01-1.91145E-04-1.32972E-05 1.08402E-03 3.26971E-14 1.25295E-13
 -1      1897 1.99978E+01-1.72853E-04-3.56761E-06 9.76726E-04 1.01026E-13 2.38738E-13
 -1      1898 1.99976E+01-2.96280E-04 5.41908E-06 1.46870E-03 9.68469E-14 3.97542E-13
 -1      1899 1.99980E+01-1.60164E-04-1.13319E-05 8.51310E-04 9.39341E-14 3.76642E-13
 -1      1900 1.99983E+01-1.43401E-04-3.33644E-06 7.61611E-04 2.98719E-13 3.68418E-13
 -1      1901 1.99982E+01-2.49806E-04 5.05386E-06 1.16487E-03 2.65918E-13 5.26373E-13
 -1      1902 1.99985E+01-1.31748E-04-9.43265E-06 6.56983E-04 3.08969E-13 2.85919E-13
 -1      1903 1.99988E+01-1.17215E-04-3.04105E-06 5.83250E-04 2.36352E-13 3.43058E-13
 -1      1904 1.99986E+01-2.06466E-04 4.51822E-06 9.07850E-04 2.97024E-13 6.62755E-13
 -1      1905 1.99989E+01-1.07184E-04-7.69520E-06 4.97244E-04 1.10649E-13 4.48774E-13
 -1      1906 1.99991E+01-9.52882E-05-2.75289E-06 4.37158E-04 1.65959E-13 6.18697E-13
 -1      1907 1.99989E+01-1.68462E-04 3.91149E-06 6.94491E-04 2.16564E-13 4.77033E-13
 -1      1908 1.99992E+01-8.72422E-05-6.14902E-06 3.66862E-04 8.88739E-14 5.15000E-13
 -1      1909 1.99993E+01-7.81726E-05-2.49052E-06 3.17702E-04 1.07813E-13 3.50450E-13
 -1      1910 1.99992E+01-1.37122E-04 3.29453E-06 5.19350E-04 8.49673E-14 5.35754E-13
 -1      1911 1.99994E+01-7.22622E-05-4.77161E-06 2.59908E-04 4.34291E-14 2.01562E-13
 -1      1912 1.99995E+01-6.60353E-05-2.26093E-06 2.18887E-04 1.92775E-14 1.60734E-13
 -1      1913 1.99994E+01-1.13074E-04 2.69931E-06 3.75763E-04-2.77012E-14 3.40268E-13
 -1      1914 1.99996E+01-6.18207E-05-3.44022E-06 1.70368E-04 7.19576E-14 2.69792E-13
 -1      1915 1.99996E+01-5.76323E-05-1.97591E-06 1.35188E-04 1.11826E-13 3.04537E-13
 -1      1916 1.99996E+01-9.63932E-05 2.03305E-06 2.56952E-04 1.05182E-13 2.90046E-13
 -1      1917 1.99997E+01-5.32104E-05-2.53010E-06 9.61668E-05 2.18573E-13 2.67192E-13
 -1      1918 1.99997E+01-4.82795E-05-1.82507E-06 6.72201E-05 1.21250E-13 2.81492E-13
 -1      1919 1.99997E+01-6.29595E-05 1.48604E-06 8.16582E-05 5.62593E-14 2.02343E-13
 -1      1920 1.99997E+01-8.10628E-05 2.31502E-06 1.59467E-04 1.32489E-13 3.91456E-13
 -1      1921 2.41313E+01 4.08839E-01 1.47210E-02 1.89998E+00 1.73285E-13 1.13624E-12
 -1      1922 2.50400E+01 3.06258E-01 1.27467E-02 2.14163E+00 2.21566E-13 1.20793E-12
 -1      1923 2.55552E+01 4.33121E-01-5.57421E-03 2.76094E+00 2.44534E-13 9.94764E-13
 -1      1924 2.29599E+01 6.16548E-01 1.85966E-03 1.02889E+00 2.02744E-13 9.74166E-13
 -1      1925 2.35704E+01 5.49984E-01 2.11941E-02 1.42936E+00 1.65101E-13 1.05491E-12
 -1      1926 2.42157E+01 7.14682E-01-1.32981E-02 1.94462E+00 2.20171E-13 8.53966E-13
 -1      1927 2.24738E+01 5.86947E-01-1.20329E-02-4.23101E-02 2.13352E-13 7.69974E-13
 -1      1928 2.27084E+01 6.66270E-01 2.28800E-02 4.37818E-01 2.06311E-13 8.67005E-13
 -1      1929 2.33587E+01 9.31820E-01-1.26134E-02 7.68864E-01 2.59516E-13 6.79178E-13
 -1      1930 2.26307E+01 2.95879E-01-1.44471E-02-8.22904E-01 1.62885E-13 6.09492E-13
 -1      1931 2.25273E+01 4.71000E-01 1.64079E-02-4.81919E-01 2.04933E-13 6.65485E-13
 -1      1932 2.31097E+01 7.16978E-01-1.49763E-02-4.05866E-01 2.47708E-13 4.69451E-13
 -1      1933 2.30986E+01-4.62746E-02-1.24539E-03-1.04812E+00 1.18486E-13 4.59232E-13
 -1      1934 2.28062E+01 1.18739E-01 8.56853E-03-9.54024E-01 1.00482E-13 5.39640E-13
 -1      1935 2.32792E+01 2.57526E-01-3.62655E-03-1.06812E+00 1.66929E-13 3.09580E-13
 -1      1936 2.34974E+01-2.53516E-01 9.37831E-03-7.85352E-01 4.84066E-14 4.22254E-13
 -1      1937 2.32045E+01-1.78146E-01-1.70419E-03-8.96439E-01 8.63138E-14 4.90018E-13
 -1      1938 2.35282E+01-1.79532E-01 5.44212E-03-1.06939E+00 9.59463E-14 2.62552E-13
 -1      1939 2.36263E+01-2.86735E-01 1.12395E-02-3.19074E-01 2.63114E-14 3.88580E-13
 -1      1940 2.34601E+01-2.94766E-01-9.08598E-03-5.12731E-01 4.08701E-14 4.06199E-13
 -1      1941 2.35998E+01-4.02402E-01 1.22767E-03-6.37560E-01 6.88546E-14 1.92736E-13
 -1      1942 2.34821E+01-2.18343E-01 8.13051E-03 1.10665E-01 5.78071E-14 3.80019E-13
 -1      1943 2.34754E+01-2.65576E-01-1.09413E-02-6.76774E-02 4.77292E-14 4.09304E-13
 -1      1944 2.34480E+01-3.99304E-01-3.29413E-03-1.01354E-01 5.10564E-14 2.06463E-13
 -1      1945 2.31475E+01-1.24392E-01 3.99263E-03 3.99068E-01 7.66058E-14 3.20046E-13
 -1      1946 2.32713E+01-1.75066E-01-8.86366E-03 2.78640E-01 7.65091E-14 3.82371E-13
 -1      1947 2.31331E+01-2.82539E-01-4.76801E-03 3.29826E-01 8.49043E-14 2.29619E-13
 -1      1948 2.27151E+01-4.58319E-02 8.87389E-04 5.40379E-01 9.60302E-14 2.76193E-13
 -1      1949 2.29190E+01-8.38855E-02-5.39291E-03 4.80385E-01 6.91556E-14 2.93830E-13
 -1      1950 2.27314E+01-1.48429E-01-4.25649E-03 5.89460E-01 8.85151E-14 1.76085E-13
 -1      1951 2.22575E+01 5.80413E-03-6.95670E-04 5.71393E-01 1.28261E-13 2.55472E-13
 -1      1952 2.24942E+01-1.69772E-02-2.05944E-03 5.56983E-01 1.04180E-13 2.79101E-13
 -1      1953 2.23036E+01-4.34827E-02-3.05366E-03 6.95004E-01 1.13495E-13 1.58676E-13
 -1      1954 2.18215E+01 3.34620E-02-1.20513E-03 5.35355E-01 1.99508E-14 3.37008E-13
 -1      1955 2.20571E+01 2.28661E-02 4.41746E-04 5.48890E-01 5.66283E-14 3.09788E-13
 -1      1956 2.18902E+01 2.21644E-02-1.95557E-03 6.93219E-01 4.89530E-14 2.40973E-13
 -1      1957 2.14324E+01 4.45064E-02-1.14442E-03 4.66532E-01 1.35740E-14 3.45803E-13
 -1      1958 2.16472E+01 4.18074E-02 1.96630E-03 4.93961E-01 2.66280E-15 3.50514E-13
 -1      1959 2.15142E+01 5.52901E-02-1.25161E-03 6.30076E-01 3.25080E-14 2.28509E-13
 -1      1960 2.11007E+01 4.56997E-02-8.70039E-04 3.87301E-01-1.61991E-14 3.04173E-13
 -1      1961 2.12853E+01 4.73892E-02 2.68950E-03 4.19372E-01 1.35996E-14 3.47359E-13
 -1      1962 2.11869E+01 6.67800E-02-8.83523E-04 5.39593E-01 1.95013E-14 2.03815E-13
 -1      1963 2.08274E+01 4.18395E-02-5.68929E-04 3.10357E-01 4.31721E-14 3.78010E-13
 -1      1964 2.09797E+01 4.55641E-02 2.86092E-03 3.41768E-01-3.22613E-14 3.50163E-13
 -1      1965 2.09113E+01 6.58975E-02-7.17259E-04 4.43205E-01-3.15188E-14 2.90747E-13
 -1      1966 2.06084E+01 3.58925E-02-3.16847E-04 2.41859E-01-1.38065E-13 4.48153E-13
 -1      1967 2.07301E+01 4.02548E-02 2.70449E-03 2.69994E-01-2.73768E-14 4.48775E-13
 -1      1968 2.06856E+01 5.89691E-02-6.44224E-04 3.52701E-01-8.00436E-14 3.89635E-13
 -1      1969 2.04368E+01 2.95165E-02-1.32114E-04 1.84033E-01 4.56399E-14 3.34305E-13
 -1      1970 2.05316E+01 3.37702E-02 2.38464E-03 2.07908E-01-5.01240E-14 4.38181E-13
 -1      1971 2.05051E+01 4.98010E-02-6.00707E-04 2.73522E-01-3.52264E-14 3.20717E-13
 -1      1972 2.03053E+01 2.35454E-02-8.92314E-06 1.36959E-01 1.52864E-13 2.92292E-13
 -1      1973 2.03774E+01 2.73422E-02 2.00738E-03 1.56488E-01 1.13023E-13 3.11553E-13
 -1      1974 2.03637E+01 4.04596E-02-5.57637E-04 2.07340E-01 1.21839E-13 2.42799E-13
 -1      1975 2.02064E+01 1.83350E-02 6.59695E-05 9.96736E-02 7.73475E-14 2.43037E-13
 -1      1976 2.02601E+01 2.15518E-02 1.63390E-03 1.15214E-01 7.26064E-14 2.32280E-13
 -1      1977 2.02551E+01 3.19419E-02-5.06254E-04 1.53793E-01 1.03485E-13 2.66494E-13
 -1      1978 2.01337E+01 1.39821E-02 1.06059E-04 7.07987E-02 6.67199E-14 8.26498E-14
 -1      1979 2.01728E+01 1.66140E-02 1.29528E-03 8.28891E-02 6.73825E-14 1.56763E-13
 -1      1980 2.01733E+01 2.46367E-02-4.47347E-04 1.11554E-01 1.04532E-13 7.27440E-14
 -1      1981 2.00813E+01 1.04538E-02 1.22585E-04 4.88851E-02 2.29448E-13 7.63604E-15
 -1      1982 2.01091E+01 1.25522E-02 1.00418E-03 5.81048E-02 8.31307E-14 4.89445E-14
 -1      1983 2.01130E+01 1.86118E-02-3.84942E-04 7.89458E-02 1.50697E-13-4.11457E-14
 -1      1984 2.00446E+01 7.65961E-03 1.24073E-04 3.25786E-02 3.42724E-13 8.44115E-14
 -1      1985 2.00638E+01 9.29750E-03 7.62812E-04 3.94745E-02 3.00970E-13 1.19722E-13
 -1      1986 2.00694E+01 1.37798E-02-3.23248E-04 5.42657E-02 2.31619E-13-4.41846E-14
 -1      1987 2.00196E+01 5.48990E-03 1.16628E-04 2.06907E-02 1.42716E-13 7.57216E-14
 -1      1988 2.00325E+01 6.74438E-03 5.68039E-04 2.57466E-02 2.49860E-13 2.26134E-13
 -1      1989 2.00387E+01 9.98916E-03-2.65481E-04 3.59495E-02 2.11312E-13 1.97111E-13
 -1      1990 2.00033E+01 3.83534E-03 1.04447E-04 1.22196E-02-2.54679E-13 2.99074E-14
 -1      1991 2.00115E+01 4.77875E-03 4.14290E-04 1.58459E-02-8.22463E-14 5.59120E-14
 -1      1992 2.00177E+01 7.07196E-03-2.13637E-04 2.26353E-02-3.24248E-14 1.55530E-13
 -1      1993 1.99933E+01 2.59609E-03 9.03001E-05 6.34335E-03-1.30404E-15-2.08505E-13
 -1      1994 1.99981E+01 3.29230E-03 2.95259E-04 8.87860E-03-1.09027E-13-1.33305E-13
 -1      1995 2.00040E+01 4.86732E-03-1.68660E-04 1.31801E-02-9.62803E-15-1.25920E-13
 -1      1996 1.99877E+01 1.68533E-03 7.59388E-05 2.40223E-03-1.41254E-13-3.22376E-14
 -1      1997 1.99902E+01 2.18860E-03 2.04786E-04 4.11967E-03-8.07683E-14-1.05357E-13
 -1      1998 1.99954E+01 3.23163E-03-1.30711E-04 6.64909E-03-1.04629E-13-1.93950E-13
 -1      1999 1.99851E+01 1.02994E-03 6.24019E-05-1.23503E-04-3.37250E-14-6.07148E-14
 -1      2000 1.99860E+01 1.38519E-03 1.37283E-04 9.92421E-04-8.47134E-14-5.38730E-14
 -1      2001 1.99905E+01 2.04194E-03-9.94460E-05 2.29358E-03-1.05583E-13-1.17321E-13
 -1      2002 1.99844E+01 5.69810E-04 5.02453E-05-1.63643E-03 2.95520E-13-1.57945E-13
 -1      2003 1.99844E+01 8.13410E-04 8.79035E-05-9.53679E-04 1.75404E-13-1.30512E-13
 -1      2004 1.99882E+01 1.19601E-03-7.42232E-05-4.75161E-04 1.57660E-13-1.51808E-13
 -1      2005 1.99850E+01 2.56428E-04 3.97061E-05-2.44316E-03 4.79334E-14-2.01827E-13
 -1      2006 1.99844E+01 4.17330E-04 5.25737E-05-2.06474E-03 2.11000E-13-1.64384E-13
 -1      2007 1.99875E+01 6.10595E-04-5.42650E-05-2.11222E-03 2.70005E-13-9.21625E-14
 -1      2008 1.99864E+01 5.13390E-05 3.08190E-05-2.77317E-03 8.56264E-15-2.67446E-14
 -1      2009 1.99854E+01 1.52201E-04 2.79489E-05-2.60218E-03-3.30457E-14-1.45302E-13
 -1      2010 1.99879E+01 2.19191E-04-3.87618E-05-2.96346E-03-1.59189E-14-4.43068E-14
 -1      2011 1.99880E+01-7.54569E-05 2.34970E-05-2.79502E-03-1.55090E-13-6.08891E-14
 -1      2012 1.99869E+01-1.71893E-05 1.13369E-05-2.75986E-03-4.06811E-14 2.03671E-14
 -1      2013 1.99889E+01-3.04947E-05-2.69382E-05-3.28716E-03-8.62757E-14-3.75682E-14
 -1      2014 1.99898E+01-1.46990E-04 1.75869E-05-2.62987E-03 2.00630E-13-8.49341E-15
 -1      2015 1.99887E+01-1.18105E-04 6.08716E-07-2.67877E-03 1.32643E-14-2.46146E-14
 -1      2016 1.99902E+01-1.78908E-04-1.80902E-05-3.27246E-03 2.97759E-14 2.53644E-14
 -1      2017 1.99915E+01-1.80642E-04 1.29059E-05-2.36269E-03 5.55519E-14 9.87224E-14
 -1      2018 1.99904E+01-1.71313E-04-5.89109E-06-2.45907E-03 2.00307E-13 1.02757E-13
 -1      2019 1.99916E+01-2.56826E-04-1.16024E-05-3.05490E-03 1.93912E-13 2.35146E-13
 -1      2020 1.99930E+01-1.89303E-04 9.26483E-06-2.05121E-03-2.46418E-13 1.55123E-13
 -1      2021 1.99921E+01-1.92359E-04-9.42859E-06-2.16999E-03-8.88375E-14 1.47676E-13
 -1      2022 1.99930E+01-2.87273E-04-6.95255E-06-2.72913E-03-6.59040E-14 1.94615E-13
 -1      2023 1.99944E+01-1.82340E-04 6.48293E-06-1.73307E-03-1.85767E-13-5.12136E-14
 -1      2024 1.99936E+01-1.92666E-04-1.09554E-05-1.85769E-03-2.33218E-13-4.10294E-14
 -1      2025 1.99942E+01-2.87150E-04-3.70821E-06-2.35911E-03-1.53568E-13 1.33150E-13
 -1      2026 1.99956E+01-1.66410E-04 4.39521E-06-1.43138E-03-2.15753E-13-1.03786E-13
 -1      2027 1.99949E+01-1.80451E-04-1.11738E-05-1.55149E-03-2.09514E-13-1.21026E-13
 -1      2028 1.99954E+01-2.68605E-04-1.51856E-06-1.98623E-03-1.52710E-13-1.16772E-13
 -1      2029 1.99966E+01-1.46124E-04 2.85597E-06-1.15899E-03-1.86812E-13-9.79239E-14
 -1      2030 1.99960E+01-1.61485E-04-1.05914E-05-1.26865E-03-2.36667E-13-2.52617E-13
 -1      2031 1.99963E+01-2.40163E-04-1.04407E-07-1.63560E-03-2.40182E-13-2.85733E-13
 -1      2032 1.99974E+01-1.24579E-04 1.73917E-06-9.21697E-04 1.86503E-13-2.32812E-13
 -1      2033 1.99969E+01-1.39714E-04-9.56687E-06-1.01802E-03 4.63243E-14-1.94887E-13
 -1      2034 1.99971E+01-2.07638E-04 7.52465E-07-1.32087E-03 3.17406E-15-4.15972E-13
 -1      2035 1.99980E+01-1.03787E-04 9.37311E-07-7.20574E-04 5.51677E-15-1.93472E-13
 -1      2036 1.99977E+01-1.17745E-04-8.34691E-06-8.02768E-04 1.04193E-13-2.33120E-13
 -1      2037 1.99978E+01-1.74865E-04 1.21969E-06-1.04782E-03 1.16756E-13-3.76547E-13
 -1      2038 1.99985E+01-8.50106E-05 3.60276E-07-5.53665E-04 9.89192E-14 4.58582E-14
 -1      2039 1.99983E+01-9.72480E-05-7.09454E-06-6.22289E-04-1.93908E-14-8.16894E-14
 -1      2040 1.99983E+01-1.44284E-04 1.42408E-06-8.17018E-04-1.38532E-14-2.01690E-13
 -1      2041 1.99989E+01-6.90186E-05-6.33676E-08-4.17130E-04 9.72968E-14-9.76981E-14
 -1      2042 1.99987E+01-7.92532E-05-5.91092E-06-4.73626E-04 2.16025E-13 1.14606E-13
 -1      2043 1.99988E+01-1.17384E-04 1.46058E-06-6.25671E-04 5.77194E-14-1.08381E-13
 -1      2044 1.99992E+01-5.62738E-05-3.82587E-07-3.06022E-04-1.70023E-13-1.38385E-13
 -1      2045 1.99991E+01-6.43782E-05-4.84649E-06-3.52388E-04-8.98501E-14-1.38673E-13
 -1      2046 1.99991E+01-9.50365E-05 1.40220E-06-4.68923E-04 1.89297E-14 8.79388E-14
 -1      2047 1.99995E+01-4.69966E-05-5.88672E-07-2.14760E-04-5.15525E-14 7.59575E-15
 -1      2048 1.99993E+01-5.30093E-05-3.90619E-06-2.53378E-04-9.31546E-14-5.77855E-14
 -1      2049 1.99993E+01-7.77740E-05 1.29548E-06-3.40764E-04-9.11261E-14 1.33105E-13
 -1      2050 1.99996E+01-4.08502E-05-6.14698E-07-1.37986E-04 6.58447E-15 1.98551E-14
 -1      2051 1.99995E+01-4.50658E-05-3.03621E-06-1.71189E-04-7.72253E-14 7.56806E-14
 -1      2052 1.99995E+01-6.54052E-05 1.23823E-06-2.34771E-04-9.13817E-14-6.41637E-14
 -1      2053 1.99997E+01-3.67244E-05-9.62375E-07-7.23846E-05 2.29408E-13 3.92750E-13
 -1      2054 1.99997E+01-3.94763E-05-2.11130E-06-1.01290E-04 1.69036E-13 3.30699E-13
 -1      2055 1.99996E+01-5.71643E-05 1.08000E-06-1.45396E-04-2.98994E-15 1.42464E-13
 -1      2056 1.99998E+01-3.01997E-05-1.38888E-06-2.95712E-05 1.57601E-13 1.52073E-13
 -1      2057 1.99997E+01-3.60191E-05-1.37841E-06-5.23653E-05 2.01479E-13 4.17886E-13
 -1      2058 1.99997E+01-5.25043E-05 6.03195E-07-8.22215E-05 2.76593E-13 4.04217E-13
 -1      2059 1.99998E+01-4.21961E-05-1.40515E-07-4.06498E-05 1.86204E-13 4.80459E-13
 -1      2060 1.99998E+01-3.03916E-04 8.29548E-07-1.69153E-04 8.18340E-14 5.28114E-15
 -1      2061 1.99998E+01-2.49739E-04-1.38233E-06-1.60200E-04-2.11189E-14 2.57346E-13
 -1      2062 1.99998E+01-1.93860E-04 1.81227E-07-1.42411E-04-9.01281E-14 1.79791E-13
 -1      2063 1.99998E+01-1.47513E-04-1.52932E-06-1.21210E-04-1.00440E-13 5.61807E-14
 -1      2064 1.99998E+01-2.42625E-04 2.54355E-07-1.98416E-04-3.77114E-14 3.15333E-13
 -1      2065 1.99998E+01-1.07657E-04-3.36694E-07-9.49601E-05-4.72672E-14-1.69636E-14
 -1      2066 1.99998E+01-7.33041E-05-1.16943E-06-6.90194E-05 5.90428E-14 2.97425E-13
 -1      2067 1.99997E+01-7.99803E-05-6.19918E-07-8.97114E-05 1.64401E-13 2.37247E-13
 -1      2068 1.99997E+01-1.49191E-04 8.62236E-07-1.48103E-04-8.16839E-14-1.30837E-13
 -1      2069 1.99998E+01-4.13132E-04 1.48627E-06-1.67100E-04-1.38196E-13-1.09005E-12
 -1      2070 1.99998E+01-3.59335E-04-6.12722E-07-1.71041E-04-5.73451E-14-6.10067E-13
 -1      2071 1.99998E+01-3.53173E-04-4.47981E-07-2.19427E-04-6.73289E-14-4.26254E-13
 -1      2072 1.99998E+01-5.10057E-04 2.02451E-06-1.37216E-04-6.99969E-15-6.30435E-13
 -1      2073 1.99998E+01-4.63339E-04 3.04985E-07-1.53040E-04 3.96849E-14-9.61707E-13
 -1      2074 1.99998E+01-4.58474E-04-1.16184E-06-2.05020E-04 2.40511E-14-8.86947E-13
 -1      2075 1.99998E+01-5.78903E-04 2.29509E-06-8.49474E-05-1.59518E-13-1.44078E-13
 -1      2076 1.99998E+01-5.47632E-04 1.19034E-06-1.09668E-04 4.41748E-14-2.65331E-13
 -1      2077 1.99999E+01-5.46179E-04-1.82790E-06-1.57543E-04 2.50016E-13-5.51919E-13
 -1      2078 1.99999E+01-6.09781E-04 2.24636E-06-1.91413E-05-4.00657E-13 3.19288E-13
 -1      2079 1.99998E+01-5.98903E-04 1.87309E-06-4.85702E-05-3.27128E-13 1.62768E-13
 -1      2080 1.99999E+01-6.03762E-04-2.25375E-06-8.50494E-05 3.08939E-14-1.81635E-13
 -1      2081 1.99998E+01-5.98368E-04 1.86697E-06 4.96398E-05-1.96228E-13 2.03282E-13
 -1      2082 1.99999E+01-6.09604E-04 2.25033E-06 2.02557E-05-3.18250E-13 3.73055E-13
 -1      2083 1.99999E+01-6.23593E-04-2.39967E-06 7.15628E-07-2.36483E-13 3.26704E-13
 -1      2084 1.99998E+01-5.46438E-04 1.20620E-06 1.10499E-04-3.39285E-13-7.25474E-13
 -1      2085 1.99998E+01-5.78063E-04 2.27763E-06 8.59154E-05-2.80405E-13-1.11453E-13
 -1      2086 1.99999E+01-6.03087E-04-2.24007E-06 8.63566E-05-3.02206E-13-6.62414E-14
 -1      2087 1.99998E+01-4.63391E-04 3.18190E-07 1.53002E-04-2.00351E-13-1.34195E-13
 -1      2088 1.99998E+01-5.09410E-04 2.01020E-06 1.37503E-04-2.10890E-13-6.66055E-13
 -1      2089 1.99999E+01-5.45633E-04-1.84498E-06 1.58071E-04-2.44059E-13-5.35273E-13
 -1      2090 1.99998E+01-3.58422E-04-6.20158E-07 1.71062E-04-2.56636E-13 4.90385E-13
 -1      2091 1.99998E+01-4.13200E-04 1.49718E-06 1.67143E-04-2.87523E-13 5.15785E-13
 -1      2092 1.99998E+01-4.58543E-04-1.16138E-06 2.05048E-04-4.94591E-14 2.42141E-14
 -1      2093 1.99998E+01-2.47765E-04-1.35726E-06 1.59828E-04-1.84084E-14 3.81470E-13
 -1      2094 1.99998E+01-3.02062E-04 8.46933E-07 1.68994E-04-6.56712E-14 3.08189E-13
 -1      2095 1.99998E+01-3.52202E-04-3.56678E-07 2.19346E-04-2.52105E-14 5.86267E-13
 -1      2096 1.99998E+01-1.42577E-04-2.80917E-07 1.20424E-04-1.95775E-13-2.98080E-14
 -1      2097 1.99998E+01-1.91928E-04 1.24398E-07 1.41706E-04-1.33814E-13 1.15811E-13
 -1      2098 1.99998E+01-2.41349E-04 1.08345E-07 1.97537E-04 5.30916E-15 7.61451E-14
 -1      2099 1.14325E+01-2.34329E+00-1.51499E-01 7.08404E+00 9.57567E-13 9.63566E-13
 -1      2100 7.77574E+00-3.56887E+00-3.84212E-01 5.79726E+00 7.94587E-13 9.62466E-13
 -1      2101 1.65858E+00-2.64889E+00-2.35531E-01 8.75184E-01 3.42559E-13 1.12482E-12
 -1      2102 1.55373E+00-3.15575E+00-3.08876E-01-1.24930E+00 1.30992E-13 1.17939E-12
 -1      2103 4.89346E+00-3.27018E+00-3.03881E-01 4.92354E+00 8.06299E-13 9.68031E-13
 -1      2104 2.93019E+00-3.23307E+00-2.89312E-01 3.42941E+00 4.85861E-13 9.56513E-13
 -1      2105 8.35788E+00-2.71425E+00-1.44382E-01 6.18465E+00 2.56128E-13 9.01224E-13
 -1      2106 1.99385E+01-9.52714E-01-1.70099E-02 7.60444E+00 1.06526E-12 7.28584E-13
 -1      2107 1.53511E+01-2.41298E+00-2.93682E-01 6.89523E+00 1.02518E-12 8.27782E-13
 -1      2108 2.80164E+01 5.58323E-01 5.37123E-02 5.88750E+00 1.02607E-12 2.33147E-13
 -1      2109 2.36746E+01-6.17990E-01-9.43170E-02 6.33048E+00 1.05360E-12 5.42122E-13
 -1      2110 2.38548E+01 2.56954E+00-8.46179E-03-2.02346E+00 1.40783E-13-2.89758E-13
 -1      2111 2.43379E+01 2.90369E+00-6.88164E-02-2.73973E+00 1.90438E-14-3.24026E-13
 -1      2112 2.50355E+01 2.33521E+00-2.75874E-03-3.28928E+00-6.58848E-14-2.26628E-13
 -1      2113 2.41792E+01 1.57181E+00-1.07789E-02-1.90166E+00 1.55881E-13-1.70745E-13
 -1      2114 3.71241E+01 6.28727E+00 2.81684E-01 2.75597E+00 1.03884E-12-8.04912E-14
 -1      2115 3.55028E+01 5.47343E+00 1.94342E-01 3.63448E+00 1.11142E-12 1.16351E-13
 -1      2116 3.80652E+01 6.52711E+00 3.07182E-01 1.66392E+00 1.04317E-12-3.64681E-13
 -1      2117 3.73345E+01 6.86776E+00 2.21281E-01 2.52901E+00 1.05915E-12-1.07192E-13
 -1      2118 3.59345E+01 5.11175E+00 1.43933E-01 3.77281E-01 1.00916E-12-5.54556E-13
 -1      2119 3.81083E+01 5.83954E+00 3.17670E-01 1.35247E+00 1.00620E-12-3.78891E-13
 -1      2120 3.42525E+01 7.18724E+00 3.03021E-01 2.18669E+00 1.11111E-12-1.16684E-13
 -1      2121 3.10759E+01 2.32171E+00-4.53708E-02-1.54686E+00 8.79179E-13-7.72826E-13
 -1      2122 3.47484E+01 3.39736E+00 1.90860E-01-6.01288E-01 9.22332E-13-6.28275E-13
 -1      2123 2.39305E+01 4.56279E-01-2.24206E-01-3.73087E+00 8.53706E-13-9.89930E-13
 -1      2124 2.85370E+01 1.08582E+00 1.12461E-02-3.14933E+00 8.32889E-13-8.78686E-13
 -1      2125 1.56187E+01 2.75949E-02-3.69030E-01-4.78278E+00 8.50819E-13-1.09623E-12
 -1      2126 2.02899E+01 4.33526E-01-1.28299E-01-5.12581E+00 8.93063E-13-1.12060E-12
 -1      2127 8.31521E+00 3.14517E-01-3.60746E-01-4.10674E+00 6.73905E-13-1.02129E-12
 -1      2128 1.21182E+01 6.06122E-01-1.69341E-01-5.06536E+00 8.06633E-13-1.11652E-12
 -1      2129 2.91937E+00 7.37168E-01-2.96461E-01-2.43878E+00 5.49866E-13-9.48575E-13
 -1      2130 5.03604E+00 1.04923E+00-2.20437E-01-3.53748E+00 7.54730E-13-1.05038E-12
 -1      2131 8.67227E-01 1.57948E+00-1.12111E-01-7.26267E-01 2.75967E-13-8.75994E-13
 -1      2132 1.61888E+00 1.08581E+00-1.88930E-01-1.58885E+00 5.47090E-13-9.53404E-13
 -1      2133 3.44559E+00 1.90319E+00-9.06826E-02-2.48650E+00 2.87631E-13-9.96481E-13
 -1      2134 1.26488E+00 1.59071E+00-1.11810E-01 1.58675E+00 5.17364E-14-8.48044E-13
 -1      2135 8.26637E-01 1.87374E+00-7.39494E-02 6.56025E-01 3.13423E-13-8.55649E-13
 -1      2136 4.57197E+00 1.85597E+00-7.09330E-02 3.66953E+00-8.63476E-14-8.09353E-13
 -1      2137 2.47192E+00 1.32027E+00-1.97356E-01 2.40019E+00 9.56457E-14-8.07937E-13
 -1      2138 3.01701E+00 2.76205E+00-5.64868E-03 2.36400E+00 3.40630E-13-8.83849E-13
 -1      2139 1.05446E+01 1.31052E+00-1.24915E-01 5.22661E+00-4.10116E-13-8.11275E-13
 -1      2140 7.16107E+00 1.15152E+00-2.46894E-01 4.30065E+00-1.54987E-13-7.18370E-13
 -1      2141 1.84192E+01 8.62401E-01-1.19185E-01 5.46336E+00-5.19695E-13-7.13096E-13
 -1      2142 1.38545E+01 6.85193E-01-2.99499E-01 5.11592E+00-4.45366E-13-7.48748E-13
 -1      2143 2.70685E+01 1.58792E+00 3.78470E-02 4.02622E+00-7.39436E-13-6.83842E-13
 -1      2144 2.27000E+01 8.50497E-01-1.90013E-01 4.10345E+00-6.12760E-13-6.08513E-13
 -1      2145 3.26674E+01 3.14751E+00 7.87798E-02 1.51989E+00-8.48273E-13-4.26992E-13
 -1      2146 2.91778E+01 2.33638E+00-7.82470E-02 2.74406E+00-8.24868E-13-6.15730E-13
 -1      2147 2.83763E+01 1.41311E+00 1.00894E-01 9.89583E-01-5.28196E-13-2.00229E-13
 -1      2148 3.63968E+01 5.60153E+00 2.64487E-01-7.52018E-01-9.61287E-13-1.92124E-13
 -1      2149 3.39340E+01 4.72215E+00 4.75348E-02 1.14999E-01-9.41247E-13-3.49443E-13
 -1      2150 3.84939E+01 6.66520E+00 3.78199E-01-2.25154E+00-9.20042E-13-2.78805E-14
 -1      2151 3.76567E+01 6.41253E+00 2.57038E-01-9.82230E-01-9.69114E-13-2.14634E-13
 -1      2152 3.52828E+01 6.03678E+00 1.63620E-01-3.28771E+00-8.43436E-13 1.38944E-13
 -1      2153 3.77434E+01 6.51535E+00 4.11060E-01-2.64117E+00-8.64864E-13 1.28647E-14
 -1      2154 3.08658E+01 3.13208E+00 9.06270E-02-4.85510E+00-6.64746E-13 4.04621E-13
 -1      2155 3.39121E+01 4.26524E+00 2.00286E-01-3.95619E+00-6.96249E-13 1.74416E-13
 -1      2156 2.39398E+01 5.57500E-01-9.85662E-02-6.52335E+00-7.25531E-13 5.85754E-13
 -1      2157 2.85962E+01 2.00673E+00 1.85819E-01-6.56515E+00-6.71574E-13 5.85976E-13
 -1      2158 1.62726E+01-2.17907E+00-2.27400E-01-6.85939E+00-4.22107E-13 5.61495E-13
 -1      2159 2.08070E+01-5.03747E-01 6.59915E-02-7.53507E+00-6.26554E-13 5.27522E-13
 -1      2160 7.69267E+00-3.62909E+00-4.09146E-01-5.71689E+00-6.02851E-14 1.02507E-12
 -1      2161 1.16429E+01-2.17193E+00-1.47664E-01-7.13561E+00-3.56937E-13 8.56808E-13
 -1      2162 2.57494E+00-3.71173E+00-3.79633E-01-3.21380E+00 2.07445E-13 1.09773E-12
 -1      2163 4.66475E+00-3.30736E+00-3.14647E-01-4.81955E+00-8.76521E-14 1.20270E-12
 -1      2164 3.46183E+01 4.22195E+00 3.15340E-01 4.31774E+00 1.13309E-12 1.15408E-13
 -1      2165 3.08563E+01 2.74433E+00 2.92196E-02 4.34541E+00 1.17059E-12 1.48992E-13
 -1      2166 3.30195E+01 4.58104E+00 2.20660E-01 1.71125E+00 1.08963E-12-1.74472E-13
 -1      2167 3.60875E+00 4.01801E+00 1.06573E-01-8.60267E-01 1.57589E-13-8.32945E-13
 -1      2168 4.99515E+00 4.03499E+00 4.74793E-02 2.13505E+00 4.52069E-13-6.13662E-13
 -1      2169 7.23789E+00 3.80931E+00 1.61674E-01 2.65637E+00 5.87003E-13-5.62994E-13
 -1      2170 8.70905E+00 2.66616E+00 6.32176E-02 3.50605E+00 5.67935E-13-5.49435E-13
 -1      2171 8.48315E+00 2.85365E+00 9.58342E-02-2.74297E+00-9.39526E-14-6.87311E-13
 -1      2172 2.96669E+01 4.18221E-01 7.82417E-02 3.38788E+00 9.01168E-13-1.58207E-13
 -1      2173 2.52322E+01 1.14944E+00-3.87329E-02-3.13054E+00-3.56319E-13 7.72958E-14
 -1      2174 2.52370E+01 1.39544E+00-1.35604E-02-3.51685E+00-3.54451E-13-3.09683E-14
 -1      2175 2.62639E+01 1.91079E+00 3.32151E-02-3.85393E+00-3.79113E-13 1.24775E-13
 -1      2176 2.62689E+01 3.61472E+00-1.31035E-01-4.66038E+00-3.44398E-13 5.10703E-14
 -1      2177 3.35822E+00-2.01209E+00-1.29286E-01 2.30360E+00 2.25653E-13 1.07575E-12
 -1      2178 4.23264E+00-2.65926E-01 5.45762E-02 1.23107E+00 5.35683E-14 1.10745E-12
 -1      2179 5.46008E+00-9.38017E-01-6.12527E-03 3.75670E+00-6.93889E-16 9.79716E-13
 -1      2180 1.57567E+01-3.04640E+00-3.83690E-02 7.23272E+00 4.54636E-13 6.30267E-13
 -1      2181 1.99998E+01-1.19252E-04-7.43559E-07 1.11852E-04-9.67163E-14 8.71857E-14
 -1      2182 3.63264E+00-1.72043E+00-1.36054E-01-2.65905E+00 2.11234E-13 1.18167E-12
 -1      2183 2.36511E+01-2.21157E+00 1.21455E-01 6.04186E+00 6.25167E-13 1.96287E-13
 -1      2184 8.21379E+00-2.73707E+00-1.40119E-01-6.14580E+00 2.60125E-13 1.03889E-12
 -1      2185 1.62716E+01-2.96706E+00-2.51147E-02-7.18177E+00 7.06102E-14 4.81171E-13
 -1      2186 2.42191E+01-1.63122E+00 7.96061E-02-5.79689E+00-1.87766E-13 1.59872E-13
 -1      2187 2.97501E+01 1.36754E+00 2.18912E-01-3.52111E+00-4.07244E-13-1.93734E-14
 -1      2188 3.26463E+01 4.89274E+00 1.98214E-01-1.64999E+00-6.74516E-13-1.88460E-13
 -1      2189 3.44521E+01 7.50251E+00 3.53585E-01-1.66754E+00-9.34031E-13-1.96849E-13
 -1      2190 3.17740E+01 4.06500E+00 1.61463E-01-1.10752E+00-8.31460E-13-1.05416E-13
 -1      2191 2.21028E+01 1.39254E-01-3.50824E-03 3.60093E+00-2.35478E-13-3.79696E-13
 -1      2192 7.13657E+00 1.64575E+00-1.22403E-01 4.22867E+00 2.03393E-13-6.91558E-13
 -1      2193 1.52827E+00 2.66458E+00-2.28142E-02-3.05799E-02 2.73597E-13-9.54015E-13
 -1      2194 8.69226E+00 9.03998E-01-8.00928E-02-4.10478E+00 2.86660E-13-9.34364E-13
 -1      2195 1.60746E+01-2.51125E-01-6.76596E-02-4.39285E+00 3.44502E-13-8.01061E-13
 -1      2196 2.37957E+01-3.57720E-01 3.90184E-02-2.85037E+00 4.66044E-13-5.73347E-13
 -1      2197 3.33667E+01 4.56728E+00 2.13964E-01 1.85391E+00 9.05775E-13-1.45828E-13
 -1      2198 3.79086E+00 3.91482E+00 8.94752E-02 1.69940E+00 4.06085E-13-7.76768E-13
 -1      2199 3.41600E+01 7.00831E+00 2.57015E-01 1.68160E+00 1.12343E-12-1.40027E-13
 -1      2200 2.98245E+01 1.23117E+00 1.15752E-01-1.24113E-01 6.30024E-13-3.00204E-13
 -1      2201 1.41542E+01 5.38272E-01-5.71946E-02 4.90162E+00 1.09635E-14-5.66255E-13
 -1      2202 3.37442E+01 6.81740E+00 2.26334E-01-1.98961E+00-1.01374E-12-1.43885E-13
 -1      2203 2.59408E+01 2.50953E+00-1.20708E-01-4.29196E+00-3.65239E-13 4.87388E-14
 -1      2204 2.18391E+01 3.09066E-01 3.68059E-02 8.84643E-01 3.92082E-13-9.10192E-14
 -1      2205 2.36351E+01 4.49988E-01-4.70222E-02-4.77856E-01 2.53190E-13-7.84004E-14
 -1      2206 3.14174E+01 6.70419E+00-1.05641E-01 1.40094E+00 1.07209E-12-1.34705E-13
 -1      2207 3.13897E+01 5.94211E+00-8.17886E-02 9.06007E-01 1.05765E-12-1.74610E-13
 -1      2208 1.93144E+01 1.74993E-01 6.67029E-02-2.00974E+00-1.42913E-13-2.73871E-13
 -1      2209 1.51586E+01 7.14821E-01 3.57484E-02-3.06931E+00-1.69059E-13-4.71678E-13
 -1      2210 2.68916E+01 1.30325E+00-8.54562E-02 4.11350E+00 3.29740E-13 6.47777E-13
 -1      2211 2.65610E+01 1.30849E+00-1.31810E-02 3.86618E+00 2.59096E-13 4.52655E-13
 -1      2212 2.71903E+01 8.12350E-01-5.94788E-02 3.74016E+00 3.20771E-13 9.35692E-13
 -1      2213 2.70196E+01 1.26796E+00-1.42126E-02 4.01896E+00 3.26648E-13 7.69596E-13
 -1      2214 2.68080E+01 9.11783E-01 1.18298E-02 3.95446E+00 3.39104E-13 6.97532E-13
 -1      2215 2.65423E+01 6.01955E-01 7.58007E-03 3.43365E+00 2.99552E-13 9.17545E-13
 -1      2216 2.47103E+01 1.13378E+00-1.66804E-02-3.00257E+00-3.33398E-13-2.63834E-14
 -1      2217 2.42113E+01 1.25948E+00 1.24236E-02-2.53333E+00-3.40327E-13-4.08265E-14
 -1      2218 2.53186E+01 8.23575E-01 2.09742E-02 2.84212E+00 2.86143E-13 8.51565E-13
 -1      2219 2.60149E+01 5.89960E-01-1.38978E-02 3.15283E+00 2.89904E-13 8.96654E-13
 -1      2220 2.62886E+01 7.62915E-01-7.85440E-03 3.55110E+00 3.00456E-13 7.86529E-13
 -1      2221 2.42297E+01 1.28931E+00 4.75655E-03 1.76275E+00 2.84661E-13 6.77033E-13
 -1      2222 2.47897E+01 1.06689E+00 2.54343E-03 2.29311E+00 2.62526E-13 7.55381E-13
 -1      2223 2.52336E+01 1.25774E+00-1.93467E-02 2.71711E+00 3.23477E-13 6.78561E-13
 -1      2224 2.38255E+01 1.41724E+00 7.31197E-04-2.00617E+00-3.64996E-13-6.72490E-14
 -1      2225 2.34603E+01 1.53749E+00 1.24375E-02-1.45346E+00-3.49189E-13-1.11058E-13
 -1      2226 2.44630E+01 1.78545E+00-5.49419E-03-2.64191E+00-3.90913E-13-6.83863E-14
 -1      2227 2.32065E+01 1.55852E+00 1.10809E-02-7.74671E-01-3.02893E-13-1.66076E-13
 -1      2228 2.30237E+01 1.43655E+00-5.92294E-03-2.23126E-01-2.67222E-13-2.13025E-13
 -1      2229 2.38118E+01 2.02762E+00-2.35519E-02-1.34876E+00-3.62370E-13-1.77464E-13
 -1      2230 2.29999E+01 1.19006E+00 2.17843E-02 3.49502E-01-2.40759E-13-2.61937E-13
 -1      2231 2.29662E+01 8.34536E-01-1.97779E-02 7.12885E-01-1.83775E-13-2.76823E-13
 -1      2232 2.35204E+01 1.71320E+00-2.12490E-02 1.26368E-02-2.87294E-13-2.77679E-13
 -1      2233 2.30327E+01 4.57455E-01 1.99370E-02 9.57604E-01-1.68410E-13-3.04452E-13
 -1      2234 2.30639E+01 7.90182E-02-1.77703E-02 1.04697E+00-1.29293E-13-3.29008E-13
 -1      2235 2.35269E+01 8.57567E-01-2.10763E-03 8.75280E-01-2.11495E-13-3.35776E-13
 -1      2236 2.30429E+01-2.25936E-01 6.60622E-03 9.72918E-01-1.04916E-13-3.04235E-13
 -1      2237 2.30615E+01-4.60720E-01-8.62973E-03 8.47249E-01-3.91436E-14-3.19683E-13
 -1      2238 2.35123E+01-8.00885E-02 6.84268E-03 1.01807E+00-1.09660E-13-3.38308E-13
 -1      2239 2.28977E+01-5.95591E-01-6.34720E-03 6.03953E-01-1.45287E-14-3.15169E-13
 -1      2240 2.28639E+01-6.53090E-01 4.09214E-04 3.87791E-01-6.52083E-15-2.97070E-13
 -1      2241 2.32786E+01-6.81233E-01 3.29346E-03 6.52145E-01-3.00718E-14-2.96627E-13
 -1      2242 2.26140E+01-6.46446E-01-1.17063E-02 1.28350E-01-2.99170E-14-2.57265E-13
 -1      2243 2.25264E+01-5.88894E-01 5.04085E-03-8.04934E-02-2.03941E-14-2.47870E-13
 -1      2244 2.28465E+01-8.45861E-01-2.75668E-03 1.20961E-01-1.41337E-15-2.00249E-13
 -1      2245 2.22624E+01-5.10464E-01-1.11461E-02-2.77314E-01-3.25295E-14-2.43357E-13
 -1      2246 2.21383E+01-4.10406E-01 5.92782E-03-4.30580E-01-2.60957E-14-2.37145E-13
 -1      2247 2.23417E+01-7.18584E-01-6.53262E-03-3.42000E-01-1.97122E-14-1.77783E-13
 -1      2248 2.19046E+01-3.17205E-01-7.83285E-03-5.46491E-01-2.45385E-14-2.45367E-13
 -1      2249 2.17635E+01-2.21584E-01 5.08071E-03-6.34660E-01-1.98237E-14-2.18785E-13
 -1      2250 2.18664E+01-4.76812E-01-6.88218E-03-6.49241E-01-3.32007E-14-1.80348E-13
 -1      2251 2.15740E+01-1.43355E-01-4.20227E-03-6.81872E-01-1.78558E-14-2.06638E-13
 -1      2252 2.14307E+01-7.15277E-02 3.67685E-03-7.15246E-01-2.09788E-15-1.64705E-13
 -1      2253 2.14661E+01-2.40141E-01-5.63794E-03-8.03001E-01-2.14516E-14-1.54109E-13
 -1      2254 2.12830E+01-1.72007E-02-1.30335E-03-7.14264E-01 1.89152E-14-1.61871E-13
 -1      2255 2.11467E+01 2.83814E-02 2.40196E-03-7.09216E-01 1.07417E-16-1.29300E-13
 -1      2256 2.11463E+01-5.92603E-02-4.15115E-03-8.39689E-01 2.81524E-14-1.83857E-13
 -1      2257 2.10328E+01 6.05610E-02 6.67882E-04-6.79038E-01-5.50227E-14-1.34268E-13
 -1      2258 2.09090E+01 8.47136E-02 1.47562E-03-6.50961E-01-4.70315E-14-1.45098E-13
 -1      2259 2.08955E+01 5.76077E-02-2.94804E-03-7.99837E-01-2.76515E-14-1.03942E-13
 -1      2260 2.08208E+01 1.00213E-01 1.82799E-03-6.06018E-01-4.77551E-14-1.00035E-13
 -1      2261 2.07123E+01 1.09400E-01 8.79707E-04-5.66740E-01-4.05121E-14-9.44898E-14
 -1      2262 2.06986E+01 1.21169E-01-2.11989E-03-7.16928E-01-1.24714E-14-5.15028E-14
 -1      2263 2.06432E+01 1.13857E-01 2.37874E-03-5.16817E-01-8.55869E-14-1.05457E-13
 -1      2264 2.05508E+01 1.13746E-01 5.25117E-04-4.74345E-01-7.04355E-14-9.06361E-14
 -1      2265 2.05429E+01 1.46919E-01-1.59249E-03-6.15053E-01-6.67208E-14-5.98543E-14
 -1      2266 2.04964E+01 1.11661E-01 2.51663E-03-4.25488E-01-8.18490E-14-1.07174E-13
 -1      2267 2.04196E+01 1.06441E-01 3.24805E-04-3.84683E-01-6.85529E-14-4.93899E-14
 -1      2268 2.04189E+01 1.48796E-01-1.26123E-03-5.09967E-01-5.73309E-14-2.77924E-14
 -1      2269 2.03767E+01 1.00971E-01 2.40116E-03-3.40236E-01-5.27839E-14 4.54007E-14
 -1      2270 2.03144E+01 9.34332E-02 2.14933E-04-3.03681E-01 4.47204E-14 1.06416E-13
 -1      2271 2.03199E+01 1.37275E-01-1.04227E-03-4.11045E-01 2.21144E-14 7.27950E-14
 -1      2272 2.02805E+01 8.66081E-02 2.14900E-03-2.65177E-01 5.56315E-15 7.47572E-14
 -1      2273 2.02310E+01 7.84697E-02 1.54672E-04-2.33950E-01-8.63459E-16 1.79403E-14
 -1      2274 2.02411E+01 1.19436E-01-8.82004E-04-3.23176E-01-8.59564E-15 1.50126E-13
 -1      2275 2.02046E+01 7.14963E-02 1.83903E-03-2.01782E-01 4.45805E-14 1.04756E-14
 -1      2276 2.01660E+01 6.37253E-02 1.20130E-04-1.76038E-01 7.13408E-14-4.38525E-14
 -1      2277 2.01789E+01 9.96949E-02-7.51307E-04-2.48285E-01-2.14490E-14 9.96125E-14
 -1      2278 2.01456E+01 5.72585E-02 1.52078E-03-1.49934E-01 7.10660E-14-6.94036E-14
 -1      2279 2.01162E+01 5.03381E-02 9.82896E-05-1.29312E-01 8.43086E-14-6.94584E-14
 -1      2280 2.01302E+01 8.05877E-02-6.36714E-04-1.86468E-01 5.97324E-14 1.25081E-13
 -1      2281 2.01006E+01 4.46828E-02 1.22273E-03-1.08649E-01 1.17488E-13-5.54368E-14
 -1      2282 2.00787E+01 3.87984E-02 8.25349E-05-9.25372E-02 1.84650E-13-1.46997E-14
 -1      2283 2.00926E+01 6.34152E-02-5.33283E-04-1.36784E-01 1.06933E-13 2.76851E-14
 -1      2284 2.00669E+01 3.40497E-02 9.59207E-04-7.65495E-02 1.39795E-13-1.06854E-13
 -1      2285 2.00509E+01 2.92143E-02 6.97608E-05-6.42491E-02 1.17420E-13-1.38402E-13
 -1      2286 2.00641E+01 4.87109E-02-4.39963E-04-9.77803E-02 1.15129E-13 7.24167E-14
 -1      2287 2.00423E+01 2.53488E-02 7.35480E-04-5.21465E-02 5.23570E-14-2.31418E-13
 -1      2288 2.00309E+01 2.14833E-02 5.86591E-05-4.29676E-02-4.03471E-14-2.35727E-13
 -1      2289 2.00428E+01 3.65572E-02-3.57012E-04-6.78284E-02 1.45260E-14 4.48933E-14
 -1      2290 2.00246E+01 1.84167E-02 5.51406E-04-3.40083E-02 2.36737E-14-2.02870E-13
 -1      2291 2.00168E+01 1.53997E-02 4.87643E-05-2.73202E-02 4.75911E-14-7.82189E-14
 -1      2292 2.00272E+01 2.67909E-02-2.84772E-04-4.53218E-02 2.37542E-14-1.42666E-13
 -1      2293 2.00124E+01 1.30220E-02 4.03855E-04-2.08452E-02 2.07328E-14-1.37684E-13
 -1      2294 2.00072E+01 1.07191E-02 3.99583E-05-1.60992E-02-3.51156E-14-3.82793E-14
 -1      2295 2.00160E+01 1.91311E-02-2.23211E-04-2.87881E-02 3.66760E-14-2.53262E-13
 -1      2296 2.00042E+01 8.91536E-03 2.88278E-04-1.15459E-02-2.81570E-14 5.18605E-14
 -1      2297 2.00009E+01 7.19581E-03 3.22302E-05-8.28171E-03 6.55892E-14 9.33614E-14
 -1      2298 2.00082E+01 1.32559E-02-1.71854E-04-1.69399E-02 4.34945E-14-8.94785E-14
 -1      2299 1.99990E+01 5.85715E-03 1.99686E-04-5.18404E-03 6.66967E-14 2.06307E-13
 -1      2300 1.99971E+01 4.60251E-03 2.55741E-05-3.02630E-03 8.66104E-14 1.95161E-13
 -1      2301 2.00030E+01 8.84677E-03-1.29866E-04-8.69068E-03 1.13666E-13 2.48962E-13
 -1      2302 1.99958E+01 3.63205E-03 1.33223E-04-1.00773E-03-5.78862E-17 1.25227E-13
 -1      2303 1.99949E+01 2.73979E-03 1.99544E-05 3.42530E-04-9.45471E-15 1.42298E-13
 -1      2304 1.99996E+01 5.61199E-03-9.61962E-05-3.14868E-03 3.77387E-14 3.32718E-13
 -1      2305 1.99942E+01 2.05464E-03 8.44681E-05 1.57947E-03 1.79676E-14 1.25477E-13
 -1      2306 1.99939E+01 1.43900E-03 1.53021E-05 2.35521E-03 9.34419E-14 1.80694E-13
 -1      2307 1.99976E+01 3.29695E-03-6.96975E-05 4.00995E-04 6.51826E-15 3.24693E-13
 -1      2308 1.99936E+01 9.70396E-04 4.95767E-05 3.04072E-03 7.07920E-14 7.71698E-14
 -1      2309 1.99937E+01 5.61526E-04 1.15236E-05 3.41980E-03 5.60455E-14 1.12317E-13
 -1      2310 1.99965E+01 1.68731E-03-4.92259E-05 2.51922E-03-3.91535E-14 2.98164E-13
 -1      2311 1.99936E+01 2.53861E-04 2.53169E-05 3.72846E-03 5.15162E-14 3.92374E-14
 -1      2312 1.99940E+01-3.85184E-06 8.51119E-06 3.84384E-03 2.40509E-14 7.75136E-15
 -1      2313 1.99961E+01 6.07517E-04-3.37072E-05 3.63718E-03-4.12117E-14-3.08562E-14
 -1      2314 1.99940E+01-1.94572E-04 9.04261E-06 3.90533E-03-4.64575E-14 1.90299E-14
 -1      2315 1.99945E+01-3.44473E-04 6.15292E-06 3.85424E-03-4.82896E-14 2.69349E-14
 -1      2316 1.99960E+01-8.28301E-05-2.21755E-05 4.07972E-03-2.17730E-14-2.88935E-14
 -1      2317 1.99946E+01-4.52359E-04-1.36219E-06 3.76272E-03-1.36990E-13 2.73795E-14
 -1      2318 1.99951E+01-5.27567E-04 4.34030E-06 3.61457E-03-1.13999E-13-3.15344E-14
 -1      2319 1.99963E+01-4.93704E-04-1.37913E-05 4.08639E-03-6.36922E-14-3.08232E-14
 -1      2320 1.99953E+01-5.78546E-04-7.55491E-06 3.43672E-03-9.42844E-14-5.18760E-14
 -1      2321 1.99958E+01-6.03859E-04 2.97281E-06 3.23962E-03-1.06443E-13-3.60198E-14
 -1      2322 1.99966E+01-7.09518E-04-7.84559E-06 3.82984E-03-1.14927E-13-5.30829E-14
 -1      2323 1.99961E+01-6.17244E-04-1.08078E-05 3.02119E-03-6.80992E-14-8.31468E-15
 -1      2324 1.99965E+01-6.10848E-04 1.96060E-06 2.80731E-03-1.09383E-13 1.59515E-14
 -1      2325 1.99970E+01-7.93792E-04-3.75315E-06 3.43115E-03-4.89313E-14-8.52435E-14
 -1      2326 1.99967E+01-6.00722E-04-1.20779E-05 2.57852E-03-1.72693E-13 5.92839E-14
 -1      2327 1.99971E+01-5.75649E-04 1.22534E-06 2.36830E-03-7.92341E-14-3.69346E-14
 -1      2328 1.99975E+01-7.93347E-04-1.04142E-06 2.97249E-03-1.62614E-13-4.32483E-14
 -1      2329 1.99973E+01-5.52046E-04-1.20700E-05 2.14800E-03 4.80191E-14-2.79946E-14
 -1      2330 1.99977E+01-5.17396E-04 7.00021E-07 1.95352E-03 8.82894E-14 1.10401E-13
 -1      2331 1.99979E+01-7.41933E-04 6.63739E-07 2.50722E-03-2.02732E-14 9.67035E-14
 -1      2332 1.99979E+01-4.87285E-04-1.12907E-05 1.75247E-03 1.46097E-13 9.72289E-14
 -1      2333 1.99982E+01-4.49229E-04 3.27822E-07 1.57991E-03 2.70904E-13 2.48703E-13
 -1      2334 1.99983E+01-6.63291E-04 1.65270E-06 2.06789E-03 1.06119E-13 4.13415E-14
 -1      2335 1.99983E+01-4.17305E-04-1.00938E-05 1.40326E-03 3.23176E-13 2.59319E-13
 -1      2336 1.99985E+01-3.79890E-04 6.13387E-08 1.25480E-03 3.96998E-13 3.74541E-13
 -1      2337 1.99986E+01-5.73657E-04 2.14574E-06 1.67225E-03 3.69659E-13 1.51667E-13
 -1      2338 1.99987E+01-3.49216E-04-8.71613E-06 1.10393E-03 3.00184E-13 4.60064E-13
 -1      2339 1.99989E+01-3.14975E-04-1.34726E-07 9.79125E-04 1.75406E-13 3.51383E-13
 -1      2340 1.99989E+01-4.83791E-04 2.30744E-06 1.32796E-03 3.01208E-13 1.95699E-13
 -1      2341 1.99990E+01-2.87467E-04-7.31241E-06 8.52962E-04 1.30326E-13 3.06999E-13
 -1      2342 1.99991E+01-2.57916E-04-2.92498E-07 7.49719E-04 1.76380E-13 2.80518E-13
 -1      2343 1.99991E+01-4.00526E-04 2.25795E-06 1.03590E-03 1.09991E-13 2.08428E-13
 -1      2344 1.99992E+01-2.34734E-04-5.98016E-06 6.45724E-04 7.93888E-14 2.66888E-13
 -1      2345 1.99993E+01-2.10740E-04-4.36014E-07 5.61000E-04-3.99536E-14 3.03002E-13
 -1      2346 1.99993E+01-3.28005E-04 2.06544E-06 7.92710E-04 1.08677E-13 2.43848E-13
 -1      2347 1.99994E+01-1.92436E-04-4.74693E-06 4.75716E-04 2.67345E-14 4.15433E-13
 -1      2348 1.99995E+01-1.74228E-04-5.89766E-07 4.06113E-04 7.95560E-14 6.00579E-13
 -1      2349 1.99994E+01-2.68490E-04 1.80213E-06 5.92480E-04 6.42812E-14 3.46041E-13
 -1      2350 1.99995E+01-1.60295E-04-3.50664E-06 3.35867E-04 3.21242E-14 6.02561E-13
 -1      2351 1.99996E+01-1.48098E-04-1.14183E-06 2.78353E-04 1.40722E-13 4.95170E-13
 -1      2352 1.99995E+01-2.22779E-04 1.44138E-06 4.28131E-04 1.00923E-13 4.50179E-13
 -1      2353 1.12762E+01-2.26390E+00-1.41964E-02 6.82211E+00 4.48253E-14 6.94833E-13
 -1      2354 8.39201E+00-1.63320E+00 4.60048E-02 5.65829E+00-9.29812E-15 7.76407E-13
 -1      2355 2.38010E+01 1.02881E+00-3.99400E-02-6.67746E-01 3.39964E-13 2.15136E-13
 -1      2356 2.38388E+01 1.40723E+00 6.05962E-03-1.65287E-01 3.62620E-13 3.01185E-13
 -1      2357 2.39541E+01 1.48927E-01-2.87927E-02-1.20600E+00 1.73679E-13 9.72295E-14
 -1      2358 2.38930E+01 6.11915E-01 2.07682E-02-1.05112E+00 2.65201E-13 1.49807E-13
 -1      2359 2.45132E+01 1.04238E+00-1.57070E-02-9.34653E-01 3.41860E-13-9.41695E-15
 -1      2360 2.40020E+01-5.18845E-01-8.42953E-03-9.73624E-01 8.95490E-14 6.15259E-14
 -1      2361 2.39373E+01-2.41507E-01 7.08296E-03-1.13344E+00 1.10581E-13 5.76865E-14
 -1      2362 2.45027E+01-3.35973E-02 9.13625E-04-1.21379E+00 1.88311E-13-9.85757E-14
 -1      2363 2.37526E+01-7.14114E-01 1.86500E-03-3.71488E-01 1.66625E-14 3.12622E-14
 -1      2364 2.37699E+01-6.69695E-01-1.09924E-02-6.46279E-01 7.29204E-14 6.63705E-14
 -1      2365 2.42033E+01-8.07999E-01-1.19042E-03-7.23350E-01 9.82498E-14-1.05161E-13
 -1      2366 2.33142E+01-5.96564E-01 6.23854E-03 2.16510E-01 3.99793E-14 7.46553E-14
 -1      2367 2.34225E+01-6.83498E-01-1.60595E-02-3.48268E-02 7.93636E-15 4.11259E-14
 -1      2368 2.36233E+01-9.56304E-01-7.55917E-03-2.99801E-02 3.63533E-15-8.37284E-14
 -1      2369 2.28120E+01-3.70077E-01 6.29395E-03 6.23232E-01 6.85381E-14 1.60011E-13
 -1      2370 2.29817E+01-4.89855E-01-1.35371E-02 4.54759E-01 6.97827E-14 1.68538E-13
 -1      2371 2.29728E+01-7.49064E-01-9.71025E-03 5.43984E-01 2.69650E-14-8.42425E-15
 -1      2372 2.23263E+01-1.60519E-01 4.44646E-03 8.30125E-01 8.68929E-14 1.49881E-13
 -1      2373 2.25264E+01-2.61167E-01-8.52635E-03 7.47761E-01 1.02144E-13 1.56656E-13
 -1      2374 2.23780E+01-4.41165E-01-9.58046E-03 8.92241E-01 7.38094E-14 9.70459E-14
 -1      2375 2.18921E+01-1.25513E-02 2.84824E-03 8.82001E-01 1.12747E-13 6.99270E-14
 -1      2376 2.20977E+01-7.92807E-02-3.66289E-03 8.65224E-01 8.15869E-14 1.07428E-13
 -1      2377 2.18852E+01-1.71888E-01-7.50605E-03 1.03629E+00 1.10570E-13 3.42994E-14
 -1      2378 2.15179E+01 7.29627E-02 1.76961E-03 8.36082E-01 2.57530E-14 1.19541E-13
 -1      2379 2.17129E+01 3.67647E-02-1.58077E-05 8.60018E-01 7.26457E-14 9.71126E-14
 -1      2380 2.14921E+01 1.16151E-02-5.19380E-03 1.03624E+00 7.99876E-14-3.98604E-14
 -1      2381 2.12016E+01 1.12025E-01 1.16685E-03 7.39358E-01-9.69353E-15 1.36640E-13
 -1      2382 2.13766E+01 9.72728E-02 2.20581E-03 7.83907E-01 1.63681E-14 1.76785E-13
 -1      2383 2.11794E+01 1.14287E-01-3.51368E-03 9.51688E-01-2.01782E-14-5.31145E-15
 -1      2384 2.09377E+01 1.21784E-01 8.55800E-04 6.23702E-01-3.16845E-14 1.50573E-13
 -1      2385 2.10887E+01 1.20012E-01 3.30775E-03 6.75305E-01-1.46825E-14 1.58857E-13
 -1      2386 2.09281E+01 1.58624E-01-2.47809E-03 8.26906E-01-1.60889E-14 1.21860E-13
 -1      2387 2.07207E+01 1.15380E-01 6.93849E-04 5.08190E-01-1.29745E-13 3.23306E-13
 -1      2388 2.08469E+01 1.20458E-01 3.64600E-03 5.58853E-01-1.07178E-13 2.43675E-13
 -1      2389 2.07247E+01 1.66882E-01-1.88299E-03 6.90613E-01-1.37491E-13 2.20808E-13
 -1      2390 2.05447E+01 1.01432E-01 5.96972E-04 4.02864E-01-7.76339E-14 3.81743E-13
 -1      2391 2.06475E+01 1.09473E-01 3.52335E-03 4.48500E-01-4.63068E-14 3.57713E-13
 -1      2392 2.05595E+01 1.55623E-01-1.53444E-03 5.59531E-01-1.38948E-13 2.67183E-13
 -1      2393 2.04043E+01 8.50442E-02 5.24086E-04 3.12016E-01 3.03346E-14 1.84302E-13
 -1      2394 2.04861E+01 9.38069E-02 3.15981E-03 3.50992E-01 7.29993E-15 2.62029E-13
 -1      2395 2.04261E+01 1.35562E-01-1.30496E-03 4.42174E-01 3.99023E-14 1.85339E-13
 -1      2396 2.02940E+01 6.89654E-02 4.58355E-04 2.36580E-01 1.36443E-13 1.62927E-13
 -1      2397 2.03578E+01 7.72799E-02 2.69903E-03 2.68668E-01 6.06864E-14 1.53705E-13
 -1      2398 2.03193E+01 1.12978E-01-1.12627E-03 3.41892E-01 6.38068E-14 3.41935E-14
 -1      2399 2.02088E+01 5.45063E-02 3.94876E-04 1.75702E-01 9.06880E-14 2.02672E-13
 -1      2400 2.02575E+01 6.18435E-02 2.22637E-03 2.01397E-01 1.14147E-13 1.61914E-13
 -1      2401 2.02349E+01 9.12144E-02-9.68389E-04 2.59019E-01 1.01594E-13-4.40200E-15
 -1      2402 2.01442E+01 4.21565E-02 3.33718E-04 1.27696E-01 1.87524E-13 9.92520E-14
 -1      2403 2.01807E+01 4.83470E-02 1.78749E-03 1.47808E-01 1.82091E-13 1.57951E-13
 -1      2404 2.01692E+01 7.18320E-02-8.21654E-04 1.92297E-01 1.35896E-13 1.23108E-13
 -1      2405 2.00960E+01 3.19668E-02 2.76424E-04 9.06008E-02 1.13112E-13 3.38222E-14
 -1      2406 2.01228E+01 3.70292E-02 1.40314E-03 1.06029E-01 1.13121E-13 3.79057E-14
 -1      2407 2.01187E+01 5.53778E-02-6.85224E-04 1.39737E-01 2.10541E-13 4.15738E-14
 -1      2408 2.00608E+01 2.37730E-02 2.24495E-04 6.24789E-02 1.80575E-13 1.04695E-13
 -1      2409 2.00801E+01 2.78148E-02 1.07947E-03 7.40886E-02 1.67500E-13 3.49802E-14
 -1      2410 2.00808E+01 4.18605E-02-5.61001E-04 9.91376E-02 1.61274E-13 2.21404E-13
 -1      2411 2.00357E+01 1.73212E-02 1.78876E-04 4.15648E-02 1.04826E-13 2.26036E-13
 -1      2412 2.00492E+01 2.04839E-02 8.14612E-04 5.01309E-02 1.51462E-13 1.37104E-13
 -1      2413 2.00527E+01 3.10286E-02-4.50881E-04 6.83606E-02 1.04383E-13 3.19416E-13
 -1      2414 2.00183E+01 1.23349E-02 1.39899E-04 2.63256E-02 1.17912E-14 1.07038E-13
 -1      2415 2.00274E+01 1.47648E-02 6.02818E-04 3.25129E-02 1.11792E-13 1.60793E-13
 -1      2416 2.00324E+01 2.25255E-02-3.55826E-04 4.54699E-02 1.18115E-13 2.11382E-13
 -1      2417 2.00066E+01 8.54950E-03 1.07406E-04 1.54734E-02-1.84990E-14 5.86845E-14
 -1      2418 2.00126E+01 1.03833E-02 4.36782E-04 1.98348E-02-4.27198E-14 8.20166E-14
 -1      2419 2.00181E+01 1.59730E-02-2.75766E-04 2.87885E-02 4.48272E-14 2.55700E-13
 -1      2420 1.99992E+01 5.72745E-03 8.09082E-05 7.95298E-03-1.22426E-13 3.92633E-14
 -1      2421 2.00028E+01 7.08594E-03 3.08981E-04 1.09377E-02-2.12666E-14 8.35682E-14
 -1      2422 2.00083E+01 1.10133E-02-2.09826E-04 1.69085E-02-4.56954E-14 3.38164E-13
 -1      2423 1.99947E+01 3.66428E-03 5.97332E-05 2.91716E-03-3.30660E-14-3.43864E-14
 -1      2424 1.99967E+01 4.65052E-03 2.12365E-04 4.88322E-03-1.88138E-13-4.86971E-14
 -1      2425 2.00018E+01 7.32757E-03-1.56617E-04 8.67602E-03-7.99049E-14 7.31352E-16
 -1      2426 1.99924E+01 2.18879E-03 4.31322E-05-3.01896E-04 2.33321E-13-9.76409E-14
 -1      2427 1.99932E+01 2.88838E-03 1.40673E-04 9.25601E-04 1.07736E-13-7.52510E-14
 -1      2428 1.99978E+01 4.64249E-03-1.14497E-04 3.16423E-03 4.13390E-14-2.64662E-13
 -1      2429 1.99914E+01 1.16080E-03 3.03583E-05-2.22173E-03 1.66085E-13 7.61187E-15
 -1      2430 1.99916E+01 1.64336E-03 8.85447E-05-1.51721E-03 3.07737E-13 3.27980E-14
 -1      2431 1.99955E+01 2.73019E-03-8.17683E-05-3.57883E-04 2.02195E-13-3.94705E-14
 -1      2432 1.99914E+01 4.67646E-04 2.07142E-05-3.23662E-03-2.64524E-14-5.85850E-14
 -1      2433 1.99911E+01 7.88814E-04 5.15087E-05-2.89200E-03 1.22762E-13 8.36670E-15
 -1      2434 1.99944E+01 1.40461E-03-5.68010E-05-2.45705E-03 1.21522E-13 1.73987E-13
 -1      2435 1.99919E+01 2.02979E-05 1.35772E-05-3.64164E-03-1.06437E-13-8.01284E-14
 -1      2436 1.99914E+01 2.23793E-04 2.59167E-05-3.53579E-03-9.80897E-14-5.64965E-14
 -1      2437 1.99941E+01 5.16661E-04-3.81142E-05-3.56514E-03 2.07925E-15 9.50626E-14
 -1      2438 1.99927E+01-2.50427E-04 8.41031E-06-3.65342E-03 5.15826E-14 2.36060E-14
 -1      2439 1.99921E+01-1.30815E-04 8.84628E-06-3.69816E-03-1.10314E-13 8.80025E-15
 -1      2440 1.99943E+01-5.11293E-05-2.44112E-05-4.00548E-03-1.46811E-13-2.92337E-14
 -1      2441 1.99937E+01-3.97423E-04 4.76302E-06-3.42762E-03 6.05760E-14 3.37275E-13
 -1      2442 1.99930E+01-3.36008E-04-2.00311E-06-3.56017E-03 1.44134E-13 2.19120E-13
 -1      2443 1.99947E+01-3.89809E-04-1.45902E-05-4.01544E-03-9.30056E-14 9.80923E-14
 -1      2444 1.99946E+01-4.60436E-04 2.26563E-06-3.07322E-03-4.04029E-14 3.32277E-13
 -1      2445 1.99940E+01-4.38032E-04-8.41239E-06-3.25015E-03 8.22948E-14 3.96000E-13
 -1      2446 1.99953E+01-5.68780E-04-7.73798E-06-3.76554E-03 6.71059E-14 3.60035E-13
 -1      2447 1.99956E+01-4.68785E-04 6.20748E-07-2.66413E-03-1.97351E-15 4.86569E-15
 -1      2448 1.99950E+01-4.71334E-04-1.17370E-05-2.85641E-03 3.60837E-15 1.93055E-13
 -1      2449 1.99960E+01-6.40037E-04-3.11355E-06-3.37518E-03 1.13699E-13 2.24091E-13
 -1      2450 1.99964E+01-4.43659E-04-4.06838E-07-2.24840E-03-1.76010E-13 8.96992E-15
 -1      2451 1.99959E+01-4.61078E-04-1.29903E-05-2.43756E-03-1.24194E-13-2.28228E-14
 -1      2452 1.99966E+01-6.41802E-04-1.27362E-07-2.92530E-03-6.33564E-14 1.92639E-14
 -1      2453 1.99971E+01-4.00020E-04-1.00050E-06-1.85538E-03-9.74160E-14-1.75574E-13
 -1      2454 1.99967E+01-4.25251E-04-1.29152E-05-2.03052E-03-1.14191E-13 1.07193E-14
 -1      2455 1.99972E+01-6.01598E-04 1.68110E-06-2.46849E-03-1.35039E-13 5.39634E-14
 -1      2456 1.99977E+01-3.48154E-04-1.30163E-06-1.50122E-03 9.46876E-14-2.25300E-13
 -1      2457 1.99973E+01-3.76394E-04-1.20444E-05-1.65670E-03-7.92927E-14-2.92919E-13
 -1      2458 1.99977E+01-5.38775E-04 2.66488E-06-2.03683E-03 7.24628E-14-6.59068E-14
 -1      2459 1.99982E+01-2.94919E-04-1.41850E-06-1.19298E-03 5.11976E-14-2.63233E-13
 -1      2460 1.99979E+01-3.23005E-04-1.07499E-05-1.32677E-03 1.66444E-13-2.21990E-13
 -1      2461 1.99982E+01-4.66575E-04 3.08923E-06-1.64791E-03 1.07473E-13-9.62241E-14
 -1      2462 1.99986E+01-2.44732E-04-1.43249E-06-9.31645E-04-6.52348E-14-1.51881E-13
 -1      2463 1.99984E+01-2.70656E-04-9.28262E-06-1.04410E-03-8.61926E-14-1.38826E-13
 -1      2464 1.99986E+01-3.93781E-04 3.14873E-06-1.30937E-03-1.17605E-13-5.26608E-14
 -1      2465 1.99990E+01-2.00331E-04-1.40396E-06-7.14315E-04-5.73690E-14 8.84258E-14
 -1      2466 1.99988E+01-2.22871E-04-7.80177E-06-8.07273E-04-1.33923E-13-3.65888E-14
 -1      2467 1.99989E+01-3.26011E-04 2.98242E-06-1.02221E-03-1.26611E-13 1.42738E-13
 -1      2468 1.99992E+01-1.63294E-04-1.35456E-06-5.35680E-04-2.02877E-13 3.59007E-13
 -1      2469 1.99991E+01-1.81788E-04-6.40340E-06-6.11908E-04-6.66118E-14 2.47976E-13
 -1      2470 1.99991E+01-2.66723E-04 2.68305E-06-7.83145E-04-1.75397E-13 1.63821E-13
 -1      2471 1.99994E+01-1.34504E-04-1.36171E-06-3.89315E-04-3.06731E-14 1.74899E-13
 -1      2472 1.99993E+01-1.48557E-04-5.13666E-06-4.51976E-04-9.21364E-14 3.27544E-13
 -1      2473 1.99993E+01-2.17715E-04 2.32394E-06-5.86401E-04-1.21561E-13 4.01441E-13
 -1      2474 1.99996E+01-1.13528E-04-1.22055E-06-2.67945E-04 1.32497E-14 1.02258E-13
 -1      2475 1.99995E+01-1.23785E-04-3.99816E-06-3.20419E-04 1.90224E-14 1.32278E-13
 -1      2476 1.99995E+01-1.80065E-04 1.97302E-06-4.25417E-04 6.12461E-14 2.42190E-13
 -1      2477 1.99997E+01-9.80701E-05-9.86768E-07-1.66885E-04 5.28510E-14 1.77555E-13
 -1      2478 1.99996E+01-1.05729E-04-3.06101E-06-2.11145E-04-2.67505E-14 6.64283E-14
 -1      2479 1.99996E+01-1.50853E-04 2.11277E-06-2.91887E-04 1.87649E-14 2.62519E-13
 -1      2480 1.99997E+01-8.58604E-05-1.90473E-06-1.13477E-04 1.37046E-13 1.28789E-13
 -1      2481 1.99999E+01-5.04758E-04 2.47118E-06-2.39611E-04 1.54102E-13-8.31101E-13
 -1      2482 1.99998E+01-4.59732E-04-8.46534E-07-2.57488E-04 1.44483E-13-1.05128E-12
 -1      2483 1.99999E+01-5.86269E-04 2.52434E-06-1.72864E-04 1.49008E-13-4.27358E-13
 -1      2484 1.99999E+01-5.52664E-04 1.24411E-08-2.06753E-04 2.04644E-13-5.72074E-13
 -1      2485 1.99999E+01-5.63460E-04-1.75276E-06-2.62009E-04 1.58996E-13-6.37506E-13
 -1      2486 1.99998E+01-2.87852E-04 1.52925E-06-2.57919E-04-4.60552E-14 1.88598E-13
 -1      2487 1.99997E+01-2.37518E-04-2.01815E-06-2.39644E-04 1.01766E-13 2.15613E-13
 -1      2488 1.99998E+01-4.01229E-04 2.07920E-06-2.69536E-04-1.59965E-13-7.08123E-13
 -1      2489 1.99998E+01-3.51238E-04-1.58582E-06-2.68917E-04-2.01080E-13-3.02592E-14
 -1      2490 1.99998E+01-3.43426E-04-9.40419E-07-3.14290E-04-1.46246E-13-1.13544E-13
 -1      2491 1.99998E+01-4.60727E-04-9.10560E-07-3.11009E-04 6.72084E-14-6.37435E-13
 -1      2492 1.99999E+01-6.35061E-04 2.25963E-06-7.99431E-05 9.28806E-14 3.38030E-14
 -1      2493 1.99999E+01-6.17152E-04 9.44693E-07-1.24281E-04 2.24651E-13-3.75534E-13
 -1      2494 1.99999E+01-6.39307E-04-2.23242E-06-1.73780E-04 1.33554E-13-3.25004E-13
 -1      2495 1.99999E+01-6.45443E-04 1.71256E-06 2.48278E-05-1.27783E-13 3.04223E-13
 -1      2496 1.99999E+01-6.45607E-04 1.72179E-06-2.30906E-05-7.43021E-14 3.85717E-13
 -1      2497 2.00000E+01-6.79185E-04-2.49155E-06-6.01556E-05 2.01942E-13 1.00594E-13
 -1      2498 1.99999E+01-6.16254E-04 9.57607E-07 1.25788E-04-2.95822E-13-2.13533E-13
 -1      2499 1.99999E+01-6.34525E-04 2.24925E-06 8.16053E-05-2.91065E-13 8.72110E-14
 -1      2500 2.00000E+01-6.78812E-04-2.47979E-06 6.21693E-05-1.63369E-13 3.82716E-14
 -1      2501 1.99999E+01-5.52621E-04 3.54021E-08 2.06632E-04-1.50953E-14-4.98216E-13
 -1      2502 1.99999E+01-5.85721E-04 2.50582E-06 1.73401E-04-4.34996E-14-5.82850E-13
 -1      2503 1.99999E+01-6.38795E-04-2.26069E-06 1.74638E-04 7.83623E-16-2.69362E-13
 -1      2504 1.99998E+01-4.59851E-04-8.40516E-07 2.57515E-04 1.48203E-14 1.99373E-13
 -1      2505 1.99999E+01-5.04885E-04 2.45281E-06 2.39561E-04 7.84764E-14-1.56157E-13
 -1      2506 1.99999E+01-5.63462E-04-1.72958E-06 2.61861E-04 1.97834E-13-2.86654E-13
 -1      2507 1.99998E+01-3.49275E-04-1.39016E-06 2.68383E-04-6.03746E-14 6.95898E-13
 -1      2508 1.99998E+01-4.00783E-04 1.96560E-06 2.69776E-04-9.49240E-14 5.98232E-13
 -1      2509 1.99998E+01-4.60418E-04-9.87100E-07 3.11168E-04-5.54699E-14 3.26957E-13
 -1      2510 1.99997E+01-2.34511E-04-1.66843E-06 2.37600E-04-1.68536E-13 2.20950E-14
 -1      2511 1.99998E+01-2.86495E-04 1.17328E-06 2.57969E-04-9.40042E-14 1.14900E-13
 -1      2512 1.99998E+01-3.40747E-04 3.20341E-07 3.13777E-04-1.80227E-13 4.06236E-13
 -1      2513 1.99997E+01-1.33478E-04-1.70328E-06 1.49615E-04-9.41442E-15 2.47394E-13
 -1      2514 4.74968E+00-1.90182E-01 8.36541E-02-1.82936E+00 1.67276E-13 1.02984E-12
 -1      2515 5.92919E+00-8.71441E-01 5.36118E-02-4.16657E+00 2.38087E-13 1.06981E-12
 -1      2516 2.38058E+01 1.47639E+00-5.04909E-03 4.80318E-01 3.61523E-13 4.38418E-13
 -1      2517 2.40878E+01 1.51352E+00 1.32044E-02 1.14110E+00 3.43227E-13 5.73756E-13
 -1      2518 2.45399E+01 1.84508E+00-2.45910E-02 1.49211E+00 3.78435E-13 4.92685E-13
 -1      2519 2.44257E+01 1.89094E+00-2.20632E-02 1.90839E-01 4.41095E-13 2.17887E-13
 -1      2520 3.14897E+01 4.48049E+00-1.14293E-01 8.32804E-01 1.01247E-12-2.58737E-13
 -1      2521 3.09297E+01 3.12132E+00-2.76794E-02 8.97380E-01 9.80604E-13-2.98067E-13
 -1      2522 2.48790E+01-2.84282E+00-1.06557E-01 4.67865E+00 3.06435E-13-2.03088E-13
 -1      2523 2.19921E+01-3.27412E+00-7.42867E-03 5.80930E+00 2.28095E-13 3.64431E-14
 -1      2524 1.88985E+01-3.17693E+00-3.01767E-02 6.90446E+00 1.48936E-13 2.44096E-13
 -1      2525 1.52072E+01-2.95755E+00 3.66022E-02 6.90096E+00-6.85563E-15 4.71755E-13
 -1      2526 2.12890E+01-3.33118E+00 1.00955E-01 5.74154E+00-1.16657E-13-4.96755E-14
 -1      2527 8.19378E+00-1.72276E+00 2.42691E-02-5.62550E+00 4.09367E-13 9.49490E-13
 -1      2528 1.12419E+01-2.29238E+00-1.61862E-02-6.89922E+00 3.90521E-13 7.20063E-13
 -1      2529 2.42414E+01-2.03635E-01-1.15433E-01 2.11404E+00-1.36932E-13-1.41151E-13
 -1      2530 2.04793E+01-1.20245E-01-1.53188E-02 3.24307E+00 6.70575E-14-2.45290E-13
 -1      2531 2.60834E+01 9.89935E-01-1.06218E-01 3.39447E+00 2.18795E-13 3.46126E-13
 -1      2532 2.55114E+01 7.26476E-01 1.42344E-02 2.62338E+00 8.79036E-14 2.36717E-13
 -1      2533 2.68701E+01 8.45790E-01 2.61237E-02 3.88669E+00 2.55587E-13 4.90523E-13
 -1      2534 2.44428E+01 1.19687E-01-5.98777E-02 1.26085E+00 1.05332E-14 1.02175E-13
 -1      2535 2.25180E+01 3.91460E-02 1.99362E-02-5.92068E-02-1.11786E-13-1.97125E-14
 -1      2536 2.60603E+01 1.11585E-01 3.96309E-02 2.37621E+00 8.81118E-14 2.93269E-13
 -1      2537 2.99440E+01 8.58906E-01-7.38199E-02 1.74671E+00 8.37788E-13-4.08784E-13
 -1      2538 2.77686E+01-1.17232E+00-1.37288E-02 2.90218E+00 6.34295E-13-3.60129E-13
 -1      2539 3.48834E+00 3.24383E+00 9.27723E-02-1.74560E+00 1.02737E-13-8.86485E-13
 -1      2540 2.09807E+00 3.47354E+00 3.96150E-02-5.41505E-01 2.66124E-13-8.78853E-13
 -1      2541 2.23699E+00 3.77376E+00 1.17348E-01 9.94860E-01 2.85681E-13-8.57814E-13
 -1      2542 3.32031E+00 3.39632E+00 3.98568E-02 2.20213E+00 4.23800E-13-7.65055E-13
 -1      2543 2.79408E+01 2.56727E-01-2.77478E-02 5.25952E-01 4.26312E-13-8.44880E-14
 -1      2544 2.99576E+01 1.27714E+00-1.22497E-01 1.61058E+00 5.85445E-13-2.52576E-15
 -1      2545 3.14402E+01 6.10566E+00-7.65053E-02 2.62301E+00 1.00622E-12 6.57807E-15
 -1      2546 3.12789E+01 6.60390E+00-1.39344E-01 2.16696E+00 1.03706E-12-2.35333E-14
 -1      2547 1.67427E+01 2.83598E-01-5.23917E-02 4.32999E+00 1.92540E-13-3.70872E-13
 -1      2548 1.33548E+01 8.41063E-01-3.52834E-02 4.42203E+00 3.05977E-13-4.36193E-13
 -1      2549 3.07882E+01 3.33157E+00-5.83493E-02 2.52551E+00 7.43294E-13 6.15064E-14
 -1      2550 3.15724E+01 4.83332E+00-1.30437E-01 2.79188E+00 9.19043E-13 7.36633E-14
 -1      2551 2.28390E+01-8.03093E-01-8.55720E-02-2.28967E+00 2.85438E-13-3.58436E-13
 -1      2552 2.60298E+01-6.62449E-01-1.45847E-01-1.11590E+00 3.70898E-13-2.12774E-13
 -1      2553 2.75302E+01 1.70398E-03 8.00533E-02 9.10749E-01 2.83225E-13 4.91274E-14
 -1      2554 1.52241E+01 1.15615E-03-5.60560E-02-3.83749E+00 7.71605E-14-5.67865E-13
 -1      2555 1.91066E+01-5.63030E-01-2.84817E-02-3.64998E+00 1.96010E-13-5.27911E-13
 -1      2556 5.02384E+00 2.69816E+00 1.42886E-02-2.87589E+00 1.28592E-13-8.56371E-13
 -1      2557 5.13023E+00 3.17551E+00 1.77764E-01 3.13036E+00 4.62602E-13-7.69440E-13
 -1      2558 3.13961E+01 6.82022E+00-6.51166E-02-1.95355E+00-9.28091E-13-2.17965E-13
 -1      2559 3.02192E+01 6.03666E+00-1.36438E-01-2.23818E+00-9.22845E-13-9.94621E-14
 -1      2560 2.84831E+01 1.29966E+00-1.31590E-01-6.12410E-01-4.72923E-13 1.69864E-14
 -1      2561 2.67814E+01 6.11666E-01-3.26452E-02 2.46300E-01-2.97679E-13-3.70537E-14
 -1      2562 3.02248E+01 4.36172E+00-1.47362E-01-2.43713E+00-8.20510E-13 3.91354E-14
 -1      2563 2.95811E+01 2.87985E+00-5.94348E-02-1.66181E+00-6.49730E-13 2.73670E-14
 -1      2564 2.83954E+01 2.11877E+00-1.15162E-02-2.19215E+00-4.62408E-13 1.37057E-13
 -1      2565 3.04790E+01 6.47280E+00-1.52291E-01-1.02507E+00-8.24063E-13-3.36148E-13
 -1      2566 3.11673E+01 6.88192E+00-9.45916E-02-1.50624E+00-8.97171E-13-3.08201E-13
 -1      2567 2.87927E+01 6.56409E+00-4.48791E-02-1.65932E+00-8.28615E-13-2.82616E-13
 -1      2568 2.96795E+01 3.22906E+00-1.01566E-01-6.89449E-01-4.88554E-13-3.85858E-13
 -1      2569 3.05462E+01 5.15738E+00-1.03393E-01-6.42779E-01-6.74294E-13-3.79904E-13
 -1      2570 2.77709E+01-6.71916E-01-2.25105E-02-3.10041E+00-1.56729E-13-1.47854E-13
 -1      2571 2.91365E+01 8.06453E-01-1.14120E-01-1.75585E+00-2.73587E-13-3.05755E-13
 -1      2572 2.31050E+01-2.84554E+00 3.13745E-02-5.31537E+00 1.36113E-13-2.21767E-14
 -1      2573 2.59080E+01-1.91208E+00-5.93446E-02-4.54225E+00-3.79974E-14-3.94962E-14
 -1      2574 2.67415E+01-1.93665E+00 2.73250E-02-2.82833E+00 1.13493E-13-2.57794E-13
 -1      2575 1.50855E+01-2.98626E+00 3.93762E-02-6.94887E+00 3.90243E-13 3.89244E-13
 -1      2576 1.91465E+01-3.15153E+00-7.01995E-02-6.85442E+00 2.53408E-13 1.56181E-13
 -1      2577 2.54354E+01 1.79942E+00-5.58081E-02-3.86868E+00-3.12004E-13-1.22378E-13
 -1      2578 2.50461E+01 1.29060E+00 9.58370E-03-3.34603E+00-3.29476E-13-5.52241E-14
 -1      2579 2.51827E+01 1.60967E+00 1.07398E-02-3.51304E+00-3.17981E-13-6.76836E-14
 -1      2580 2.53694E+01 1.99406E+00-1.39005E-02-3.80216E+00-2.11370E-13-1.48014E-13
 -1      2581 8.86832E+00 1.95683E+00 6.35561E-02-3.37015E+00-2.99066E-14-7.50372E-13
 -1      2582 2.48080E+01 5.32654E-01-1.45422E-02-1.44939E+00 1.13937E-13 1.79353E-14
 -1      2583 2.46371E+01 1.01294E+00 8.01632E-03-1.83126E+00 1.63494E-13-9.24577E-14
 -1      2584 2.50341E+01 1.36522E+00-8.75102E-02-2.66277E+00 1.51029E-14-1.47889E-13
 -1      2585 1.41892E+01 1.12241E+00-2.14582E-02 3.77549E+00 5.65839E-13-3.53252E-13
 -1      2586 1.80341E+01 7.27239E-01 9.90782E-02 2.75731E+00 5.15130E-13-2.42858E-13
 -1      2587 3.00098E+01 4.85111E+00-5.55858E-02 3.14774E-01 9.62619E-13-2.56170E-13
 -1      2588 1.23226E+01 1.19011E+00 6.46537E-02-3.91405E+00-7.46625E-15-6.39683E-13
 -1      2589 7.43246E+00 2.25050E+00-2.32794E-02 3.93954E+00 3.77143E-13-6.36852E-13
 -1      2590 1.17604E+01 1.54114E+00 9.61772E-02 4.34905E+00 4.21496E-13-5.12299E-13
 -1      2591 2.19298E+01-5.96477E-01-4.70212E-02-1.09027E+00-1.98175E-14-8.79800E-14
 -1      2592 2.09146E+01 1.02290E-01-4.10711E-02 1.91004E+00 3.51649E-13-1.05008E-13
 -1      2593 2.35441E+01-2.15612E-01 1.69214E-02 8.44856E-01 1.99833E-13-6.91808E-15
 -1      2594 7.90345E+00-8.37863E-01 9.34598E-02 4.70269E+00-4.76563E-14 8.23813E-13
 -1      2595 7.74546E+00 3.01768E-01 1.50612E-01 3.52356E+00-1.30895E-13 8.47905E-13
 -1      2596 1.02688E+01-7.97287E-01 2.21553E-02 5.31597E+00-2.47108E-13 6.30634E-13
 -1      2597 8.86153E+00-6.77700E-01 1.24332E-01-4.87792E+00 3.96891E-13 9.01834E-13
 -1      2598 1.49115E+01-2.39174E+00 1.10592E-01 6.62834E+00-2.35284E-13 3.84054E-13
 -1      2599 2.94830E+01 1.33481E+00-2.70700E-02 5.19328E-01 7.54785E-13-4.70873E-13
 -1      2600 1.99997E+01-1.28142E-04-3.10428E-07-1.75269E-04 1.05063E-13-5.53345E-14
 -1      2601 1.99997E+01-1.66945E-04-7.57805E-08-2.05443E-04 1.68667E-13 9.20278E-14
 -1      2602 1.99997E+01-1.29767E-04-1.80635E-06 1.91748E-04 1.99250E-14 4.44815E-13
 -1      2603 1.99997E+01-1.83377E-04 1.29261E-06 2.20936E-04-9.24178E-14 3.22813E-13
 -1      2604 1.99997E+01-2.32384E-04-1.15361E-06 2.85749E-04-9.28579E-14 3.33147E-13
 -1      2605 1.99996E+01-1.40505E-04-3.12056E-06 2.36774E-04 1.34770E-13 5.53888E-13
 -1      2606 5.31770E+00 2.76994E-01 1.51394E-01-4.32621E-01 9.35016E-14 1.05849E-12
 -1      2607 6.88119E+00 6.93707E-01 1.16399E-01-1.77610E+00 1.93519E-13 9.46077E-13
 -1      2608 6.35231E+00 6.83263E-01 1.28170E-01 9.45588E-01-1.55102E-14 1.00819E-12
 -1      2609 2.65986E+01-2.42686E+00-2.18164E-02 3.22972E+00 3.12056E-13-3.95184E-13
 -1      2610 2.52438E+01-3.01941E+00 4.40861E-02 3.48248E+00 2.88172E-14-4.62852E-13
 -1      2611 2.70364E+01-1.97940E+00-2.08241E-01 1.56337E+00 2.98329E-13-6.05460E-13
 -1      2612 1.47214E+01-2.42219E+00 1.11004E-01-6.69370E+00 5.47173E-13 4.49848E-13
 -1      2613 1.96358E+01 1.73266E-02 4.18122E-02 2.96214E+00 3.11709E-13-2.07286E-13
 -1      2614 2.23035E+01-7.22451E-01 6.94850E-02-1.87728E+00 4.89886E-14-2.48204E-13
 -1      2615 2.95839E+01 2.17211E+00-2.67561E-02 2.87194E+00 5.87613E-13 2.05558E-13
 -1      2616 2.98482E+01 5.12621E+00-4.22918E-02 3.09700E+00 8.61589E-13 1.67588E-13
 -1      2617 2.18488E+01-3.23022E+00 5.93385E-02-5.58031E+00 3.88661E-13-5.66214E-15
 -1      2618 2.53740E+01 9.41202E-02-1.91499E-02 3.72964E-01-7.11931E-14 1.04639E-14
 -1      2619 2.53079E+01 1.72883E+00-1.84015E-02-3.24432E+00-4.77066E-14-1.71407E-13
 -1      2620 2.53222E+01 1.93455E+00-7.40968E-02-3.64845E+00-1.57278E-13-1.87940E-13
 -1      2621 2.55462E+01 1.71438E+00 1.14667E-02-3.70608E+00-2.31617E-13-1.02682E-13
 -1      2622 2.55765E+01 1.37884E+00 3.93388E-03-3.13362E+00-9.48070E-14-8.50726E-14
 -1      2623 2.78370E+01 5.51259E+00-1.63831E-01-2.79054E+00-7.70661E-13-1.00496E-13
 -1      2624 2.94309E+01 5.07290E+00-9.79379E-02-2.76331E+00-8.10657E-13-3.38479E-14
 -1      2625 2.81545E+01 4.12559E+00-7.71831E-02-3.07105E+00-6.87020E-13 2.84633E-14
 -1      2626 2.96584E+01 6.24313E+00-6.66806E-02 1.67285E+00 9.89514E-13-2.68934E-14
 -1      2627 2.87184E+01 5.22034E+00-6.66275E-02-2.87785E-01-6.63969E-13-4.74801E-13
 -1      2628 2.89867E+01 1.57089E+00-8.38493E-02-5.80679E-01-2.97859E-13-3.95434E-13
 -1      2629 2.77917E+01 2.31704E+00-1.18760E-01 4.16284E-01-3.23450E-13-5.39846E-13
 -1      2630 2.77960E+01 1.92114E-01-8.85254E-03-5.49353E-01-1.39402E-13-4.74829E-13
 -1      2631 1.99997E+01-2.13187E-04-1.33828E-06-2.70690E-04 2.48713E-13 4.14249E-14
 -1      2632 1.99996E+01-1.89789E-04 2.04021E-06 3.10206E-04 6.02224E-14 5.02174E-13
 -1      2633 2.55839E+01 2.06695E-01-6.12874E-02-6.80810E-01 6.11317E-15 8.76244E-14
 -1      2634 2.84471E+01 4.80269E+00-1.72080E-01 1.26899E-01 9.01890E-13-2.24459E-13
 -1      2635 2.88383E+01 3.57053E+00-1.02649E-01-3.31167E-01 8.22481E-13-3.47417E-13
 -1      2636 2.53202E+01-8.36802E-01-7.96914E-02 2.58917E-01 1.16254E-13 4.19803E-14
 -1      2637 2.66130E+01 8.08812E-01-3.62751E-02 3.80869E+00 3.22901E-13 6.89525E-13
 -1      2638 2.66742E+01 9.48707E-01-6.26881E-02 4.04417E+00 3.49155E-13 6.09080E-13
 -1      2639 2.61621E+01 1.18873E+00 2.63782E-02 3.58655E+00 3.56801E-13 6.88801E-13
 -1      2640 2.43757E+01-1.25840E+00 1.06280E-02-2.24705E-01 6.36383E-15-1.78306E-13
 -1      2641 2.45862E+01-1.06819E+00-1.62941E-02-5.28647E-01 6.56255E-14-2.06114E-13
 -1      2642 2.63019E+01 6.58162E-01-6.46277E-02-2.06234E+00-8.67501E-14 6.88199E-14
 -1      2643 2.51056E+01-6.34172E-01-1.35929E-02-1.00464E+00 1.49451E-13-2.30967E-13
 -1      2644 2.51149E+01 6.28398E-02 1.40820E-02-1.11468E+00 2.38837E-13-2.07901E-13
 -1      2645 2.52407E+01-1.17887E+00-7.65641E-02-5.28605E-01 1.29050E-13-4.03058E-13
 -1      2646 2.43866E+01 2.71196E+00-4.00593E-02-1.89402E+00-4.52031E-13-1.66249E-13
 -1      2647 2.41744E+01 2.78713E+00-2.20283E-02-1.17718E+00-4.23404E-13-2.13259E-13
 -1      2648 2.40694E+01 2.56288E+00-1.20123E-02-3.09498E-01-3.65718E-13-3.18284E-13
 -1      2649 2.39976E+01 2.07064E+00-4.67059E-02 2.88734E-01-3.08319E-13-3.53433E-13
 -1      2650 2.46759E+01 3.29153E+00-2.97218E-02-8.76798E-01-4.64483E-13-3.05121E-13
 -1      2651 2.40709E+01 1.39856E+00 5.35675E-03 7.76859E-01-2.37810E-13-3.59655E-13
 -1      2652 2.40524E+01 6.66123E-01-4.37039E-02 9.94874E-01-1.77279E-13-3.84575E-13
 -1      2653 2.46209E+01 2.07912E+00-2.15320E-02 5.46378E-01-2.81847E-13-4.21831E-13
 -1      2654 2.40004E+01 3.09820E-02 5.76947E-03 9.71723E-01-1.21362E-13-3.48745E-13
 -1      2655 2.39375E+01-5.12588E-01-1.46866E-02 8.71974E-01-5.01240E-14-3.36016E-13
 -1      2656 2.45805E+01 4.32505E-01-4.24149E-03 9.52894E-01-1.35749E-13-3.88690E-13
 -1      2657 2.36266E+01-8.66436E-01-8.02398E-03 5.39652E-01-4.22353E-14-3.14740E-13
 -1      2658 2.34705E+01-1.05214E+00 6.57714E-03 2.97609E-01-5.42296E-15-2.95420E-13
 -1      2659 2.41457E+01-8.92615E-01-1.40664E-02 5.17022E-01-5.28479E-14-3.99946E-13
 -1      2660 2.30308E+01-1.11243E+00-1.08301E-02-4.57557E-02 1.01618E-14-2.60334E-13
 -1      2661 2.28089E+01-1.05245E+00 1.40134E-02-2.87609E-01 2.62409E-14-2.39035E-13
 -1      2662 2.33676E+01-1.35409E+00-1.86600E-02-1.59934E-01 1.10323E-14-3.64982E-13
 -1      2663 2.23807E+01-9.45579E-01-8.88867E-03-5.23652E-01 9.50683E-15-2.33361E-13
 -1      2664 2.21451E+01-7.83218E-01 1.26252E-02-6.99368E-01 1.61404E-14-2.16598E-13
 -1      2665 2.25153E+01-1.22272E+00-1.95061E-02-7.01387E-01 3.22352E-14-2.83226E-13
 -1      2666 2.18030E+01-6.24400E-01-4.71666E-03-8.17343E-01-1.76567E-14-2.09733E-13
 -1      2667 2.15904E+01-4.56680E-01 9.33382E-03-9.15821E-01-2.19050E-14-1.91036E-13
 -1      2668 2.17789E+01-8.41736E-01-1.50655E-02-1.00993E+00-1.51313E-14-2.37786E-13
 -1      2669 2.13455E+01-3.12413E-01-1.41789E-03-9.47721E-01-3.41415E-16-1.66897E-13
 -1      2670 2.11689E+01-1.80683E-01 5.86127E-03-9.82592E-01 1.66226E-14-1.62279E-13
 -1      2671 2.12251E+01-4.47709E-01-9.70515E-03-1.12453E+00 6.54489E-15-1.04033E-13
 -1      2672 2.10046E+01-7.47215E-02 5.28612E-04-9.61246E-01 4.17107E-14-1.86781E-13
 -1      2673 2.08635E+01 1.26925E-02 3.13177E-03-9.51914E-01 5.71597E-14-1.33871E-13
 -1      2674 2.08401E+01-1.37618E-01-5.55083E-03-1.11195E+00 2.65876E-14-1.39239E-13
 -1      2675 2.07568E+01 7.93000E-02 1.52969E-03-9.01793E-01 8.99352E-15-1.14935E-13
 -1      2676 2.06450E+01 1.28749E-01 1.30857E-03-8.65738E-01-1.64577E-14-6.11505E-14
 -1      2677 2.05838E+01 6.91029E-02-2.82826E-03-1.02680E+00 4.39409E-14-8.25462E-14
 -1      2678 2.05763E+01 1.63949E-01 1.98586E-03-8.02853E-01 1.38112E-14-8.50996E-14
 -1      2679 2.04873E+01 1.85796E-01 2.23465E-04-7.53369E-01 1.38022E-14-3.03759E-14
 -1      2680 2.04155E+01 1.87220E-01-1.20886E-03-9.06140E-01-1.38182E-14-1.31867E-13
 -1      2681 2.04425E+01 1.99157E-01 2.13044E-03-6.87610E-01-1.86697E-14-9.12716E-14
 -1      2682 2.03711E+01 2.03072E-01-3.49798E-04-6.33836E-01-4.73111E-14-5.13037E-14
 -1      2683 2.03039E+01 2.40674E-01-3.33924E-04-7.73252E-01-3.15669E-14-1.14302E-13
 -1      2684 2.03409E+01 2.02779E-01 2.09101E-03-5.71017E-01-5.60565E-14-5.09701E-14
 -1      2685 2.02835E+01 1.96228E-01-6.00876E-04-5.18706E-01-3.23178E-14-9.16528E-15
 -1      2686 2.02278E+01 2.51802E-01 8.23514E-05-6.42181E-01-4.07384E-14-6.65106E-14
 -1      2687 2.02623E+01 1.88321E-01 1.94247E-03-4.61972E-01 2.76523E-14 5.28000E-15
 -1      2688 2.02161E+01 1.76493E-01-6.64602E-04-4.14377E-01 7.15203E-14 2.22016E-14
 -1      2689 2.01738E+01 2.37932E-01 2.38320E-04-5.20967E-01 2.78969E-14-4.98571E-14
 -1      2690 2.02006E+01 1.65038E-01 1.73379E-03-3.65142E-01 5.31937E-14 2.18602E-15
 -1      2691 2.01637E+01 1.51270E-01-6.28812E-04-3.23791E-01 4.77220E-15 1.21167E-14
 -1      2692 2.01339E+01 2.11201E-01 2.59970E-04-4.13707E-01 4.13134E-14-9.00085E-14
 -1      2693 2.01519E+01 1.38808E-01 1.49894E-03-2.82370E-01-2.48689E-14 1.39565E-13
 -1      2694 2.01227E+01 1.25089E-01-5.47318E-04-2.47677E-01 1.24306E-14 1.55946E-13
 -1      2695 2.01034E+01 1.79485E-01 2.21591E-04-3.21927E-01 1.91669E-14 7.97064E-15
 -1      2696 2.01135E+01 1.13087E-01 1.26139E-03-2.13720E-01 3.08956E-14 1.49461E-13
 -1      2697 2.00906E+01 1.00501E-01-4.51244E-04-1.85427E-01 5.92610E-14 1.54324E-13
 -1      2698 2.00796E+01 1.47551E-01 1.63782E-04-2.45522E-01-2.63931E-14 1.63042E-13
 -1      2699 2.00834E+01 8.97181E-02 1.03657E-03-1.58216E-01 1.13607E-13 1.59457E-13
 -1      2700 2.00658E+01 7.87599E-02-3.57363E-04-1.35698E-01 1.30999E-13 1.57247E-13
 -1      2701 2.00607E+01 1.18030E-01 1.06693E-04-1.83410E-01 7.41741E-14 1.79422E-13
 -1      2702 2.00601E+01 6.95102E-02 8.33569E-04-1.14347E-01 1.09088E-13 1.24268E-13
 -1      2703 2.00467E+01 6.03219E-02-2.73744E-04-9.68215E-02 3.80592E-14 9.72615E-14
 -1      2704 2.00458E+01 9.21745E-02 5.88455E-05-1.33993E-01 9.24025E-14 6.51133E-14
 -1      2705 2.00422E+01 5.26537E-02 6.56808E-04-8.04046E-02-4.93219E-14 5.85018E-14
 -1      2706 2.00323E+01 4.51729E-02-2.03411E-04-6.70531E-02-7.70869E-14-2.33382E-14
 -1      2707 2.00340E+01 7.03833E-02 2.25900E-05-9.54677E-02-4.99818E-14-1.35756E-13
 -1      2708 2.00288E+01 3.89883E-02 5.07374E-04-5.46851E-02-5.66619E-14-1.63929E-14
 -1      2709 2.00215E+01 3.30472E-02-1.46611E-04-4.47315E-02-2.42746E-14-7.93526E-14
 -1      2710 2.00248E+01 5.25590E-02-2.69135E-06-6.60272E-02-6.69664E-14-9.82280E-14
 -1      2711 2.00188E+01 2.81761E-02 3.84189E-04-3.56117E-02 3.82476E-14-1.09513E-13
 -1      2712 2.00137E+01 2.35621E-02-1.02200E-04-2.83602E-02 5.02904E-14-1.33858E-13
 -1      2713 2.00177E+01 3.83408E-02-1.88171E-05-4.39848E-02-1.37647E-15 3.45445E-15
 -1      2714 2.00116E+01 1.98085E-02 2.84891E-04-2.17924E-02 1.06935E-13-5.92393E-15
 -1      2715 2.00080E+01 1.63011E-02-6.84423E-05-1.66441E-02 1.65661E-13 1.37038E-13
 -1      2716 2.00123E+01 2.72509E-02-2.78880E-05-2.78380E-02 1.63387E-13 1.52403E-13
 -1      2717 2.00065E+01 1.34695E-02 2.06489E-04-1.20417E-02 1.35000E-13 2.07618E-13
 -1      2718 2.00041E+01 1.08602E-02-4.34627E-05-8.49697E-03 1.38654E-13 3.04911E-13
 -1      2719 2.00082E+01 1.87832E-02-3.18545E-05-1.62949E-02 1.48250E-13 2.58510E-13
 -1      2720 2.00030E+01 8.77051E-03 1.45804E-04-5.37795E-03 3.89015E-14 1.86344E-13
 -1      2721 2.00015E+01 6.87355E-03-2.54846E-05-3.03054E-03-3.28012E-14 1.75271E-13
 -1      2722 2.00052E+01 1.24542E-02-3.23462E-05-8.27653E-03-1.70325E-14 1.46455E-13
 -1      2723 2.00006E+01 5.36772E-03 9.97541E-05-1.00794E-03-5.81321E-14 2.21131E-13
 -1      2724 1.99997E+01 4.02391E-03-1.29405E-05 4.65298E-04-4.45791E-14 2.21676E-13
 -1      2725 2.00031E+01 7.82898E-03-3.06368E-05-2.90280E-03-3.30791E-14 6.86401E-14
 -1      2726 1.99992E+01 2.96808E-03 6.55225E-05 1.69598E-03-7.39934E-15 1.68560E-13
 -1      2727 1.99987E+01 2.04510E-03-4.50956E-06 2.54671E-03-6.28597E-14 1.53529E-13
 -1      2728 2.00016E+01 4.53257E-03-2.76720E-05 5.28602E-04-1.15796E-13 6.36391E-14
 -1      2729 1.99983E+01 1.32911E-03 4.06379E-05 3.22036E-03-1.76039E-13 1.61972E-13
 -1      2730 1.99982E+01 7.19695E-04 8.83236E-07 3.64071E-03-1.52014E-13-5.31350E-14
 -1      2731 2.00006E+01 2.25152E-03-2.41219E-05 2.56704E-03-1.03159E-13 1.25199E-13
 -1      2732 1.99979E+01 2.54970E-04 2.30012E-05 3.93499E-03-1.23836E-14-8.89207E-14
 -1      2733 1.99979E+01-1.25950E-04 4.08935E-06 4.06867E-03-8.70255E-15-9.63966E-14
 -1      2734 1.99999E+01 7.30545E-04-2.04378E-05 3.63390E-03-1.25096E-13-2.59933E-14
 -1      2735 1.99978E+01-4.09129E-04 1.08756E-05 4.11522E-03-1.39570E-13-9.99842E-14
 -1      2736 1.99979E+01-6.27655E-04 5.76677E-06 4.06742E-03-1.67964E-13-1.86025E-13
 -1      2737 1.99995E+01-2.33717E-04-1.69054E-05 4.04608E-03-1.10857E-13-2.61302E-13
 -1      2738 1.99978E+01-7.83081E-04 2.85649E-06 3.96160E-03-8.16995E-14-2.38854E-13
 -1      2739 1.99980E+01-8.89578E-04 6.41242E-06 3.80747E-03-4.55557E-14-1.87190E-13
 -1      2740 1.99992E+01-7.99985E-04-1.36896E-05 4.03692E-03-2.07969E-13-4.22585E-13
 -1      2741 1.99980E+01-9.57950E-04-2.16862E-06 3.61661E-03-4.05463E-15-2.15757E-13
 -1      2742 1.99982E+01-9.90033E-04 6.39278E-06 3.40832E-03-8.84046E-14-2.14085E-13
 -1      2743 1.99991E+01-1.08972E-03-1.08702E-05 3.77432E-03-8.37416E-14-3.64914E-13
 -1      2744 1.99982E+01-1.00153E-03-5.06377E-06 3.17850E-03-1.54877E-13-1.34747E-13
 -1      2745 1.99984E+01-9.86704E-04 5.97131E-06 2.95100E-03-8.89384E-14-7.20605E-14
 -1      2746 1.99991E+01-1.19404E-03-8.47010E-06 3.37585E-03-8.02867E-14-1.54343E-13
 -1      2747 1.99984E+01-9.63214E-04-6.48683E-06 2.71249E-03-1.46129E-14 8.15417E-14
 -1      2748 1.99986E+01-9.21147E-04 5.33175E-06 2.48804E-03 1.00435E-13 1.35669E-13
 -1      2749 1.99992E+01-1.17993E-03-6.47626E-06 2.92116E-03 4.58654E-14-9.42833E-15
 -1      2750 1.99987E+01-8.78193E-04-6.92851E-06 2.25962E-03 9.25576E-14 2.34294E-13
 -1      2751 1.99988E+01-8.22570E-04 4.59777E-06 2.05140E-03 1.53369E-13 2.35172E-13
 -1      2752 1.99992E+01-1.09551E-03-4.85462E-06 2.46181E-03 1.10061E-13 3.23745E-13
 -1      2753 1.99989E+01-7.70859E-04-6.74615E-06 1.84369E-03 2.67915E-13 2.72286E-13
 -1      2754 1.99990E+01-7.10938E-04 3.84787E-06 1.65848E-03 3.60835E-13 2.69030E-13
 -1      2755 1.99993E+01-9.74525E-04-3.56113E-06 2.02911E-03 2.17124E-13 3.79400E-13
 -1      2756 1.99991E+01-6.57640E-04-6.19351E-06 1.47644E-03 3.46438E-13 2.61058E-13
 -1      2757 1.99992E+01-5.99472E-04 3.12973E-06 1.31670E-03 2.67546E-13 4.12779E-13
 -1      2758 1.99994E+01-8.39975E-04-2.55028E-06 1.64004E-03 3.03141E-13 3.46174E-13
 -1      2759 1.99992E+01-5.49210E-04-5.43867E-06 1.16147E-03 2.61922E-13 3.49429E-13
 -1      2760 1.99993E+01-4.96514E-04 2.49801E-06 1.02678E-03 1.83677E-13 3.50620E-13
 -1      2761 1.99994E+01-7.07013E-04-1.77544E-06 1.30172E-03 2.81985E-13 4.27909E-13
 -1      2762 1.99994E+01-4.52116E-04-4.62316E-06 8.97112E-04 6.12586E-14 4.52779E-13
 -1      2763 1.99995E+01-4.06921E-04 1.96232E-06 7.85345E-04 1.55463E-13 5.26122E-13
 -1      2764 1.99995E+01-5.85283E-04-1.24377E-06 1.01480E-03 1.58848E-13 3.59139E-13
 -1      2765 1.99995E+01-3.70573E-04-3.96003E-06 6.78897E-04 1.57462E-13 5.14902E-13
 -1      2766 1.99995E+01-3.33973E-04 1.29858E-06 5.86426E-04 1.30592E-13 5.55786E-13
 -1      2767 1.99996E+01-4.79695E-04-7.15908E-07 7.76442E-04 1.78924E-13 6.06045E-13
 -1      2768 1.99996E+01-3.04988E-04-3.03111E-06 5.00030E-04-4.45961E-14 4.85361E-13
 -1      2769 1.99996E+01-2.78442E-04 3.30968E-07 4.23968E-04 2.39636E-14 4.69801E-13
 -1      2770 1.99996E+01-3.92196E-04 4.58211E-07 5.80206E-04 1.29696E-13 6.79508E-13
 -1      2771 2.58828E+01 1.70107E+00-8.17697E-02-9.41359E-01 4.76740E-13-2.20424E-13
 -1      2772 2.58605E+01 2.70929E+00-6.35340E-02-5.35695E-01 5.84727E-13-1.40162E-13
 -1      2773 2.34664E+01-1.19251E+00 1.62277E-02 5.15994E-01-3.26397E-14-1.46435E-13
 -1      2774 2.37658E+01-1.31046E+00-1.74584E-02 2.09618E-01-1.10849E-15-1.58646E-13
 -1      2775 2.40958E+01-1.65838E+00-5.16367E-02 3.41075E-01-1.58484E-14-2.33903E-13
 -1      2776 2.26202E+01-8.03913E-01 1.76476E-02 9.92264E-01-3.55804E-14-1.04035E-14
 -1      2777 2.29189E+01-1.02569E+00-1.05744E-02 7.83355E-01-4.32965E-14-6.39112E-14
 -1      2778 2.29702E+01-1.37092E+00-2.70037E-02 1.01305E+00-5.17266E-14-1.65359E-13
 -1      2779 2.19399E+01-3.94278E-01 1.18292E-02 1.20764E+00 6.95721E-14 1.26561E-14
 -1      2780 2.22004E+01-5.97673E-01-5.56920E-03 1.10742E+00 4.64299E-14-1.52618E-14
 -1      2781 2.20576E+01-8.57504E-01-2.04710E-02 1.35720E+00-2.42919E-14-7.42737E-14
 -1      2782 2.14430E+01-8.44652E-02 6.88705E-03 1.23689E+00 1.08859E-13-2.37573E-14
 -1      2783 2.16577E+01-2.28262E-01-1.38506E-03 1.21896E+00 9.26282E-14 2.35812E-14
 -1      2784 2.14080E+01-3.72147E-01-1.44887E-02 1.44001E+00 6.85590E-14-1.97745E-14
 -1      2785 2.10902E+01 1.06606E-01 3.34129E-03 1.15632E+00 5.01050E-14 5.53448E-14
 -1      2786 2.12635E+01 2.29347E-02 1.25356E-03 1.18967E+00 9.50372E-14 6.70718E-14
 -1      2787 2.09840E+01-2.76505E-02-8.86034E-03 1.37502E+00 6.77891E-14 6.21614E-14
 -1      2788 2.08366E+01 2.03366E-01 1.22655E-03 1.02140E+00-1.14037E-13 1.10393E-13
 -1      2789 2.09768E+01 1.64411E-01 2.59472E-03 1.08169E+00-3.84191E-14 5.57114E-14
 -1      2790 2.07124E+01 1.75190E-01-5.07601E-03 1.23549E+00-1.72316E-14 1.45995E-13
 -1      2791 2.06483E+01 2.37158E-01 1.02210E-04 8.67168E-01-5.44886E-14 1.56843E-13
 -1      2792 2.07628E+01 2.26827E-01 3.19465E-03 9.37725E-01-6.79837E-14 1.20226E-13
 -1      2793 2.05346E+01 2.71920E-01-2.82271E-03 1.06616E+00-1.07170E-13 1.09888E-13
 -1      2794 2.05038E+01 2.33879E-01-4.14130E-04 7.14339E-01-1.68681E-13 2.39901E-13
 -1      2795 2.05977E+01 2.39759E-01 3.33573E-03 7.84876E-01-1.16002E-13 1.96537E-13
 -1      2796 2.04122E+01 3.00040E-01-1.61120E-03 8.92690E-01-1.34791E-13 1.52108E-13
 -1      2797 2.03901E+01 2.11536E-01-5.90879E-04 5.74132E-01-3.54759E-14 1.23971E-13
 -1      2798 2.04669E+01 2.25304E-01 3.19619E-03 6.38980E-01-1.32827E-13 2.18144E-13
 -1      2799 2.03227E+01 2.88722E-01-1.01417E-03 7.29358E-01-1.03772E-13 1.39975E-13
 -1      2800 2.02994E+01 1.81404E-01-5.94835E-04 4.51694E-01 7.28144E-14 4.84033E-14
 -1      2801 2.03617E+01 1.97989E-01 2.89800E-03 5.08239E-01 3.93734E-14 8.56966E-14
 -1      2802 2.02538E+01 2.57746E-01-7.38767E-04 5.83428E-01 1.37460E-14 2.69626E-14
 -1      2803 2.02269E+01 1.49960E-01-5.22724E-04 3.48460E-01 7.61900E-14-2.33424E-14
 -1      2804 2.02769E+01 1.66526E-01 2.52558E-03 3.95968E-01 1.18989E-13 2.18939E-14
 -1      2805 2.01987E+01 2.19328E-01-6.11386E-04 4.57785E-01 1.09459E-13 4.34340E-14
 -1      2806 2.01693E+01 1.20586E-01-4.26540E-04 2.63750E-01 4.87617E-14 2.32644E-14
 -1      2807 2.02088E+01 1.35706E-01 2.13456E-03 3.02553E-01 8.44042E-14-4.38129E-15
 -1      2808 2.01541E+01 1.80413E-01-5.41654E-04 3.52653E-01 6.58701E-14-4.49430E-14
 -1      2809 2.01239E+01 9.47965E-02-3.31722E-04 1.95784E-01 1.78158E-13 6.94718E-15
 -1      2810 2.01547E+01 1.07880E-01 1.75934E-03 2.26751E-01 8.33683E-14 3.10955E-14
 -1      2811 2.01178E+01 1.44570E-01-4.88369E-04 2.66728E-01 6.33373E-14-7.44621E-14
 -1      2812 2.00887E+01 7.30468E-02-2.48980E-04 1.42322E-01 2.29876E-13 8.76852E-14
 -1      2813 2.01122E+01 8.39687E-02 1.41909E-03 1.66541E-01 2.39212E-13 9.59952E-14
 -1      2814 2.00886E+01 1.13346E-01-4.36168E-04 1.97923E-01 1.87265E-13-1.27970E-14
 -1      2815 2.00618E+01 5.52282E-02-1.81414E-04 1.01039E-01 7.84463E-14 2.39838E-13
 -1      2816 2.00795E+01 6.41056E-02 1.12262E-03 1.19626E-01 1.21504E-13 1.49502E-13
 -1      2817 2.00654E+01 8.71380E-02-3.81742E-04 1.43849E-01 1.42861E-13 1.19340E-13
 -1      2818 2.00416E+01 4.09608E-02-1.28528E-04 6.97328E-02 7.48795E-14 3.57163E-13
 -1      2819 2.00547E+01 4.80218E-02 8.72013E-04 8.37358E-02 9.34956E-14 3.30421E-13
 -1      2820 2.00472E+01 6.57370E-02-3.26476E-04 1.02105E-01 7.27304E-14 1.82667E-13
 -1      2821 2.00268E+01 2.97586E-02-8.83787E-05 4.64336E-02 1.18925E-13 3.75532E-13
 -1      2822 2.00362E+01 3.52692E-02 6.65306E-04 5.67810E-02 1.52877E-13 3.65099E-13
 -1      2823 2.00331E+01 4.86432E-02-2.72910E-04 7.04525E-02 1.24326E-13 3.47591E-13
 -1      2824 2.00161E+01 2.11204E-02-5.86456E-05 2.94408E-02-1.25005E-14 3.54498E-13
 -1      2825 2.00227E+01 2.53450E-02 4.98355E-04 3.69272E-02 7.21865E-14 3.39905E-13
 -1      2826 2.00225E+01 3.52500E-02-2.23260E-04 4.68943E-02 9.14279E-14 3.44547E-13
 -1      2827 2.00086E+01 1.45764E-02-3.71198E-05 1.73282E-02 1.31038E-15 2.76334E-13
 -1      2828 2.00131E+01 1.77578E-02 3.66036E-04 2.26149E-02 1.11805E-14 3.39732E-13
 -1      2829 2.00147E+01 2.49427E-02-1.78970E-04 2.97122E-02 9.54201E-14 2.95809E-13
 -1      2830 2.00035E+01 9.70882E-03-2.18934E-05 8.92617E-03 2.19457E-14 7.76781E-14
 -1      2831 2.00064E+01 1.20602E-02 2.63017E-04 1.25515E-02 4.07652E-14 1.92313E-13
 -1      2832 2.00090E+01 1.71499E-02-1.40713E-04 1.74652E-02 7.84427E-14 2.76849E-13
 -1      2833 2.00002E+01 6.15960E-03-1.14020E-05 3.29459E-03 1.65867E-13-1.04086E-13
 -1      2834 2.00020E+01 7.86194E-03 1.84205E-04 5.68831E-03 1.35714E-14-7.62740E-14
 -1      2835 2.00049E+01 1.13660E-02-1.08556E-04 8.97165E-03 1.32898E-13 1.91308E-13
 -1      2836 1.99982E+01 3.62962E-03-4.40423E-06-3.09057E-04 1.16083E-13 2.46760E-14
 -1      2837 1.99992E+01 4.83299E-03 1.24988E-04 1.19024E-03 1.29432E-13-3.96057E-15
 -1      2838 2.00022E+01 7.15913E-03-8.21628E-05 3.28081E-03 8.16415E-14 3.29518E-14
 -1      2839 1.99971E+01 1.87429E-03 6.37778E-08-2.46107E-03 7.67036E-14 1.24878E-13
 -1      2840 1.99975E+01 2.70062E-03 8.13410E-05-1.59620E-03 1.37907E-13 2.46591E-14
 -1      2841 2.00003E+01 4.16910E-03-6.09558E-05-3.58359E-04 3.42945E-14 1.17398E-13
 -1      2842 1.99966E+01 6.97297E-04 2.73696E-06-3.60110E-03-1.38609E-13 1.20477E-13
 -1      2843 1.99967E+01 1.24390E-03 4.98523E-05-3.17364E-03-2.89277E-14 8.96702E-14
 -1      2844 1.99992E+01 2.10214E-03-4.42489E-05-2.52901E-03-1.23912E-14 1.97083E-13
 -1      2845 1.99965E+01-5.62297E-05 4.16718E-06-4.05858E-03-1.48314E-13 4.34975E-14
 -1      2846 1.99964E+01 2.86976E-04 2.76941E-05-3.92194E-03-7.50207E-14 8.28098E-14
 -1      2847 1.99986E+01 7.22851E-04-3.13344E-05-3.67616E-03-8.03269E-14 2.75268E-13
 -1      2848 1.99966E+01-5.06482E-04 4.76239E-06-4.07561E-03-4.13300E-14 1.48077E-14
 -1      2849 1.99964E+01-3.07764E-04 1.25703E-05-4.12288E-03-1.46338E-13 2.66583E-15
 -1      2850 1.99983E+01-1.54171E-04-2.15385E-05-4.13327E-03-1.09739E-13 2.60691E-14
 -1      2851 1.99969E+01-7.45167E-04 4.81903E-06-3.82625E-03 7.27310E-14 4.34717E-14
 -1      2852 1.99966E+01-6.46245E-04 2.65019E-06-3.98126E-03 5.75411E-14-5.35967E-14
 -1      2853 1.99982E+01-6.72517E-04-1.42525E-05-4.14542E-03 3.82752E-14-2.38804E-13
 -1      2854 1.99973E+01-8.41048E-04 4.54826E-06-3.43243E-03 8.24691E-14-4.27534E-14
 -1      2855 1.99970E+01-8.08615E-04-3.50040E-06-3.64238E-03 1.40585E-13 4.31586E-14
 -1      2856 1.99982E+01-9.41541E-04-8.94704E-06-3.88875E-03 9.09818E-14-2.38160E-13
 -1      2857 1.99977E+01-8.44717E-04 4.09667E-06-2.97693E-03-7.71044E-14 9.34433E-14
 -1      2858 1.99974E+01-8.54433E-04-6.98575E-06-3.20647E-03 2.64267E-14 8.67401E-14
 -1      2859 1.99984E+01-1.04307E-03-5.17521E-06-3.48666E-03-4.03190E-15 6.78334E-16
 -1      2860 1.99981E+01-7.92633E-04 3.56270E-06-2.51353E-03-5.20451E-14-6.30554E-14
 -1      2861 1.99978E+01-8.27090E-04-8.64101E-06-2.74013E-03-1.58217E-13 3.24662E-14
 -1      2862 1.99985E+01-1.03715E-03-2.56896E-06-3.02280E-03-2.84468E-14-1.05126E-13
 -1      2863 1.99984E+01-7.10453E-04 3.00925E-06-2.07510E-03 2.05343E-14 9.88689E-14
 -1      2864 1.99981E+01-7.57510E-04-9.08568E-06-2.28541E-03-9.93187E-14-1.79546E-14
 -1      2865 1.99987E+01-9.66977E-04-8.31816E-07-2.55154E-03-9.32164E-14-3.87245E-15
 -1      2866 1.99987E+01-6.15757E-04 2.47352E-06-1.67971E-03 9.39712E-14 1.77735E-13
 -1      2867 1.99985E+01-6.67183E-04-8.76920E-06-1.86681E-03 1.91314E-13 3.10471E-13
 -1      2868 1.99989E+01-8.62831E-04 2.69751E-07-2.10603E-03-3.60631E-14 4.17083E-13
 -1      2869 1.99989E+01-5.20216E-04 1.97433E-06-1.33522E-03-2.18086E-13 2.94546E-13
 -1      2870 1.99988E+01-5.70614E-04-8.00911E-06-1.49659E-03-1.40536E-15 1.58318E-13
 -1      2871 1.99991E+01-7.45406E-04 9.15593E-07-1.70442E-03 8.10535E-14 4.03850E-13
 -1      2872 1.99991E+01-4.31292E-04 1.52418E-06-1.04273E-03-1.81659E-13 3.55849E-13
 -1      2873 1.99990E+01-4.77276E-04-7.02327E-06-1.17872E-03-2.10363E-13 2.51902E-13
 -1      2874 1.99992E+01-6.28383E-04 1.23996E-06-1.35459E-03-1.97711E-13 3.72511E-13
 -1      2875 1.99993E+01-3.53570E-04 1.10906E-06-7.99024E-04-2.02318E-13 2.50915E-13
 -1      2876 1.99992E+01-3.93083E-04-5.94659E-06-9.11778E-04-1.33970E-13 2.92825E-13
 -1      2877 1.99994E+01-5.20440E-04 1.34580E-06-1.05757E-03-1.46707E-13 3.91010E-13
 -1      2878 1.99995E+01-2.89416E-04 6.91301E-07-5.98184E-04-3.50544E-14 1.95690E-13
 -1      2879 1.99994E+01-3.21604E-04-4.88509E-06-6.90877E-04-1.68464E-13 2.59323E-13
 -1      2880 1.99995E+01-4.27037E-04 1.24731E-06-8.10012E-04-1.75083E-13 2.55271E-13
 -1      2881 1.99996E+01-2.40677E-04-5.27203E-07-4.34226E-04 3.99044E-14 2.67756E-13
 -1      2882 1.99995E+01-2.63833E-04-3.91587E-06-5.09462E-04 1.87801E-14 2.87997E-13
 -1      2883 1.99996E+01-3.49885E-04 1.33699E-06-6.06227E-04-6.60423E-17 2.37547E-13
 -1      2884 1.99997E+01-2.18974E-04-1.06090E-06-3.17071E-04 1.88433E-13 3.22481E-14
 -1      2885 1.99996E+01-2.36789E-04-3.18952E-06-3.80885E-04 1.32276E-13 6.91850E-14
 -1      2886 1.99996E+01-3.04259E-04 2.79319E-06-4.57746E-04 1.76209E-13-1.18216E-13
 -1      2887 1.99997E+01-2.84606E-04 2.67562E-06-3.50786E-04 1.52635E-13-4.06579E-14
 -1      2888 2.00000E+01-7.27930E-04 1.79723E-06-3.73439E-05 1.29891E-13 1.63602E-13
 -1      2889 2.00000E+01-7.18974E-04 9.22619E-07-1.01450E-04 2.45895E-13-6.54981E-14
 -1      2890 1.99996E+01-2.63240E-04-2.52722E-06 3.75083E-04 6.56671E-14 4.58851E-13
 -1      2891 1.99997E+01-2.47472E-04-3.44457E-07 3.30084E-04-4.11572E-15 4.95821E-13
 -1      2892 1.99997E+01-2.97106E-04-6.58461E-08 3.46074E-04-1.94008E-13 2.25354E-13
 -1      2893 1.99997E+01-3.32420E-04 1.33132E-06 4.41227E-04-3.25558E-14 5.19620E-13
 -1      2894 2.00000E+01-6.22674E-04 2.90266E-06-2.85265E-04 1.18587E-13-5.74554E-13
 -1      2895 1.99999E+01-5.81983E-04-1.04086E-06-3.23206E-04 1.24236E-13-7.16170E-13
 -1      2896 2.00000E+01-7.18318E-04 9.34830E-07 1.03741E-04-4.77200E-14-1.26534E-14
 -1      2897 2.00000E+01-7.27684E-04 1.79579E-06 3.97547E-05-9.54392E-15 5.70254E-14
 -1      2898 2.00001E+01-7.87547E-04-2.80679E-06 1.40012E-06 1.01558E-13-5.37208E-14
 -1      2899 2.00000E+01-6.94857E-04 2.49447E-06-1.73362E-04 2.31464E-13-4.00248E-14
 -1      2900 2.00000E+01-6.68603E-04-5.37422E-08-2.28404E-04 1.07565E-13-3.08980E-13
 -1      2901 2.00000E+01-6.98953E-04-2.31946E-06-2.92147E-04 1.44218E-13-3.63868E-13
 -1      2902 2.00001E+01-7.65023E-04-2.67896E-06-1.55969E-04 1.63534E-13-4.82482E-14
 -1      2903 2.24274E+01-3.37130E+00-4.36978E-02 4.84215E+00-2.09138E-13-2.81690E-13
 -1      2904 2.01186E+01-3.08382E+00 9.49603E-02 5.67278E+00-3.47083E-13-8.08503E-14
 -1      2905 2.00000E+01-6.68478E-04-6.37656E-08 2.28312E-04 5.22320E-14-2.57355E-13
 -1      2906 2.00000E+01-6.94366E-04 2.47049E-06 1.74336E-04-1.08589E-13 2.07147E-14
 -1      2907 2.00001E+01-7.64601E-04-2.69312E-06 1.57274E-04 3.37197E-14 6.36056E-17
 -1      2908 1.99999E+01-5.81543E-04-9.17608E-07 3.22913E-04 1.48465E-13-2.16628E-13
 -1      2909 2.00000E+01-6.22493E-04 2.87131E-06 2.85053E-04 1.65299E-13-3.39402E-13
 -1      2910 2.00000E+01-6.98675E-04-2.29071E-06 2.92119E-04-9.54001E-15-1.28194E-13
 -1      2911 1.99998E+01-4.65639E-04-5.41544E-07 3.70450E-04-5.38609E-14 2.33931E-13
 -1      2912 1.99999E+01-5.18723E-04 2.67379E-06 3.56785E-04 4.11897E-14 7.35303E-16
 -1      2913 1.99999E+01-5.95769E-04-1.55476E-06 3.88291E-04 8.76306E-14-1.75941E-13
 -1      2914 1.99997E+01-3.59436E-04-5.61720E-07 3.58344E-04-1.98990E-13 4.13963E-13
 -1      2915 2.87581E+01 1.81273E+00-1.61737E-01-1.90455E-01 7.27890E-13-4.40106E-13
 -1      2916 2.83446E+01 9.68165E-02-1.19237E-02 1.23367E-01 5.62932E-13-5.45147E-13
 -1      2917 1.69003E+01-2.46248E+00-1.52857E-02 6.21772E+00-3.82333E-13 1.18128E-13
 -1      2918 1.39939E+01-1.47236E+00 1.82816E-01 5.99554E+00-3.77115E-13 4.01956E-13
 -1      2919 1.38602E+01-1.70794E+00 1.20177E-01-6.16904E+00 5.62883E-13 4.33098E-13
 -1      2920 1.69290E+01-2.74763E+00-3.75213E-02-6.47566E+00 5.49866E-13 2.04163E-13
 -1      2921 2.83420E+01 1.24934E+00-8.73364E-02 3.07539E+00 4.50383E-13 2.98067E-13
 -1      2922 2.87541E+01 2.69698E+00-1.77876E-01 3.64567E+00 6.23598E-13 3.38507E-13
 -1      2923 2.72953E+01 5.78476E+00-1.61874E-01-1.17677E+00-7.37077E-13-3.43170E-13
 -1      2924 2.75045E+01 5.82755E+00-1.23447E-01-2.05028E+00-7.59198E-13-2.32397E-13
 -1      2925 2.68303E+01 8.70920E-01-1.90660E-02 3.87387E+00 3.06822E-13 4.93951E-13
 -1      2926 2.69307E+01 4.83879E-01-1.50605E-01 3.62127E+00 2.65694E-13 4.25465E-13
 -1      2927 2.68319E+01 9.93575E-02 7.00027E-03 2.50408E+00 1.50295E-13 3.06317E-13
 -1      2928 2.71030E+01 6.28251E-02-2.78570E-02 1.95468E+00 2.44275E-13 2.27915E-13
 -1      2929 2.71745E+01 1.32190E+00 3.16601E-02 4.02354E+00 3.57506E-13 5.25630E-13
 -1      2930 2.51815E+01 2.00350E+00-2.54553E-02 2.51040E+00 3.85345E-13 5.64009E-13
 -1      2931 2.57033E+01 1.58508E+00-2.71416E-02 3.05943E+00 3.91787E-13 6.25669E-13
 -1      2932 2.60936E+01 1.73934E+00-1.84773E-02 3.41089E+00 3.90521E-13 5.63374E-13
 -1      2933 2.86190E+01 3.99136E+00-8.01469E-02 3.61458E+00 7.04145E-13 3.25948E-13
 -1      2934 2.82558E+01 4.86385E+00-1.70097E-01 2.99704E+00 8.00138E-13 2.33494E-13
 -1      2935 2.04789E+01-3.13385E+00 1.24700E-01-5.62945E+00 5.68962E-13 5.75408E-15
 -1      2936 2.33356E+01-3.35321E+00-9.87912E-02-4.46123E+00 4.01346E-13-1.03466E-13
 -1      2937 2.80745E+01 5.57845E+00-1.45700E-01 2.03906E+00 8.86374E-13 9.96217E-14
 -1      2938 2.81738E+01 5.48600E+00-1.45778E-01 9.20883E-01 9.14324E-13-5.55667E-14
 -1      2939 2.73761E+01 4.01642E+00-1.38601E-01 2.65629E-01-5.12423E-13-5.44072E-13
 -1      2940 2.73724E+01 5.26460E+00-1.43616E-01-4.12036E-01-6.72518E-13-4.43059E-13
 -1      2941 2.50374E+01 2.05238E+00-3.71422E-02-3.18495E+00-3.87282E-13-8.72484E-14
 -1      2942 2.47107E+01 2.43633E+00-9.89732E-04-2.65721E+00-4.35898E-13-1.11218E-13
 -1      2943 2.50275E+01 3.17881E+00-4.01553E-02-2.56099E+00-5.00971E-13-1.57461E-13
 -1      2944 2.56620E+01-2.55270E+00 5.66473E-02-2.65330E+00 2.73403E-13-3.23769E-13
 -1      2945 2.67005E+01-1.78521E+00-1.27112E-01-1.67746E+00 7.75673E-14-4.15265E-13
 -1      2946 2.54719E+01 1.68128E+00-5.81820E-02-3.70991E+00-2.94154E-13-9.33840E-14
 -1      2947 2.52750E+01 1.84260E+00 1.09218E-03-3.47245E+00-3.37551E-13-6.48813E-14
 -1      2948 2.55786E+01 2.32018E+00-7.63344E-03-3.50592E+00-3.75672E-13-9.69901E-14
 -1      2949 2.57219E+01 1.73990E+00-4.63635E-03-3.74517E+00-2.27040E-13-8.95100E-14
 -1      2950 9.22729E+00 2.15387E-01 1.28946E-01-3.95045E+00 2.53575E-13 8.19289E-13
 -1      2951 1.12630E+01-7.10019E-01 8.97253E-02-5.50742E+00 4.21274E-13 6.30385E-13
 -1      2952 2.73588E+01 4.40882E+00-1.04065E-01 3.70585E-01 8.24396E-13-1.33050E-13
 -1      2953 2.50623E+01 2.41836E+00-3.42042E-03 1.75703E+00 4.42844E-13 4.41557E-13
 -1      2954 2.55029E+01 2.80140E+00-2.77532E-02 2.11265E+00 4.97616E-13 3.78339E-13
 -1      2955 2.49115E+01 2.55528E+00-4.92119E-03 1.09021E+00 4.86829E-13 3.23803E-13
 -1      2956 2.72353E+01 3.72917E+00-7.75352E-02-3.48276E+00-5.95884E-13 1.68338E-14
 -1      2957 2.79492E+01 3.06143E+00-7.60079E-02-3.21899E+00-5.85795E-13 9.46326E-14
 -1      2958 2.72414E+01 4.53236E+00-8.75985E-02 2.46561E+00 7.44765E-13 2.25570E-13
 -1      2959 2.55239E+01 3.30852E+00-8.13057E-02 3.63728E-01 6.23931E-13 6.58796E-14
 -1      2960 9.28652E+00 6.59246E-01 3.89300E-02 2.97741E+00-1.73854E-13 7.60614E-13
 -1      2961 7.74240E+00 8.38321E-01 1.85846E-01 2.15145E+00-7.16233E-14 9.43523E-13
 -1      2962 8.17352E+00 1.24637E+00 1.15854E-01 6.75483E-01 2.75474E-15 8.90177E-13
 -1      2963 1.99999E+01-5.18741E-04 2.67406E-06-3.56407E-04 3.77956E-14-6.89995E-13
 -1      2964 1.99998E+01-4.67406E-04-1.17717E-06-3.69820E-04-8.72997E-14-3.51478E-13
 -1      2965 1.99999E+01-5.96073E-04-1.87643E-06-3.88908E-04 3.07185E-14-5.91815E-13
 -1      2966 2.67429E+01-8.97373E-01-5.95515E-02-4.43069E-01 3.58949E-14-4.96242E-13
 -1      2967 8.81281E+00 1.15546E+00 1.16826E-01-1.65234E+00 8.35131E-14 8.43020E-13
 -1      2968 8.88468E+00 7.72406E-01 1.77050E-01-2.97091E+00 1.61926E-13 8.72635E-13
 -1      2969 1.10063E+01 5.98772E-01 1.00346E-01-3.53716E+00 2.03663E-13 6.59459E-13
 -1      2970 2.74594E+01-1.00547E+00 1.39889E-02 4.75194E-01 3.24811E-13-5.70238E-13
 -1      2971 1.99998E+01-4.06538E-04 2.43432E-06-3.76689E-04-3.30731E-14-1.57046E-13
 -1      2972 1.99997E+01-3.48747E-04-1.23780E-06-3.66456E-04 1.72909E-14-4.87214E-14
 -1      2973 1.99997E+01-3.61114E-04-2.44535E-06-4.18616E-04 2.10219E-13-1.86550E-13
 -1      2974 1.99998E+01-4.77012E-04 4.02543E-07-4.27302E-04-4.29817E-14-2.66489E-13
 -1      2975 1.99997E+01-3.81055E-04 7.75752E-07 4.31121E-04-2.20505E-13 3.09693E-13
 -1      2976 1.99998E+01-4.24849E-04 8.91973E-07 3.95414E-04-1.04402E-13 3.14657E-13
 -1      2977 1.99998E+01-4.94025E-04-1.70881E-06 4.47397E-04-1.18480E-13 1.74744E-13
 -1      2978 1.99997E+01-4.07765E-04-2.33005E-06 4.84043E-04-9.22089E-14 4.94566E-13
 -1      2979 1.88951E+01-2.45388E+00 8.27153E-02 5.40505E+00-4.57245E-13-3.08087E-15
 -1      2980 2.78044E+01 2.14518E+00-6.36009E-02-5.61640E-01 6.50077E-13-4.32376E-13
 -1      2981 1.30014E+01-6.90578E-01 1.38924E-01 5.21981E+00-3.39034E-13 4.33320E-13
 -1      2982 1.94051E+01-2.70373E+00 8.95074E-02-5.48017E+00 5.50643E-13 8.73190E-14
 -1      2983 2.69219E+01 5.12859E+00-6.90395E-02-2.43649E+00-6.93653E-13-1.89140E-13
 -1      2984 2.78942E+01 2.80452E+00-7.36002E-02 3.81067E+00 5.48270E-13 4.04628E-13
 -1      2985 2.42979E+01-3.26351E+00 5.66459E-02 3.64997E+00-1.42053E-13-4.11740E-13
 -1      2986 2.30866E+01-3.02899E+00 7.45601E-02 3.80523E+00-3.00829E-13-4.01604E-13
 -1      2987 2.51535E+01-3.13175E+00-1.61661E-01 2.29818E+00-5.60706E-14-5.35599E-13
 -1      2988 2.63952E+01 4.81721E+00-9.61639E-02-6.79087E-01-6.07875E-13-3.87666E-13
 -1      2989 2.42516E+01-2.91181E+00 1.45409E-02-3.13386E+00 3.76747E-13-2.32106E-13
 -1      2990 2.80474E+01 5.93252E-01-1.42978E-01 3.07056E+00 3.52562E-13 3.10751E-13
 -1      2991 2.77406E+01 1.42279E+00-7.26662E-02 3.92632E+00 3.79696E-13 4.67293E-13
 -1      2992 1.39251E+01-9.39424E-01 1.31949E-01-5.38874E+00 4.63213E-13 4.30239E-13
 -1      2993 2.78019E+01 2.51165E+00-1.40903E-01-2.94100E+00-5.34059E-13 1.27051E-13
 -1      2994 2.72654E+01 1.36601E+00-4.28077E-02-2.27812E+00-3.30576E-13 1.42567E-13
 -1      2995 2.71208E+01 2.33024E+00-4.57799E-02-3.39490E+00-4.17756E-13 7.27474E-14
 -1      2996 2.64985E+01 3.95021E+00-1.20344E-01-3.23243E+00-5.85920E-13-1.00593E-13
 -1      2997 2.64006E+01 3.11714E+00-8.42982E-02-3.42682E+00-5.06338E-13-4.15692E-14
 -1      2998 2.24240E+01-1.33980E+00 3.07798E-02 1.67057E+00-1.34388E-13-1.78341E-13
 -1      2999 2.30014E+01-1.62527E+00 2.13736E-02 1.42803E+00-1.27381E-13-2.33935E-13
 -1      3000 2.62088E+01 1.28888E+00-4.00452E-02-2.99229E+00-1.40284E-13 7.21645E-14
 -1      3001 2.49262E+01-2.20272E+00 4.35690E-02 1.11512E+00-8.23959E-14-4.89928E-13
 -1      3002 2.56148E+01-1.74892E+00 2.60951E-02 6.42275E-01 4.28468E-14-5.00301E-13
 -1      3003 2.57128E+01-1.42727E+00-5.76176E-03-4.80291E-01 8.22953E-14-4.99368E-13
 -1      3004 2.63140E+01-1.71919E-01-1.19386E-01 3.69667E-01-5.47045E-14-5.77559E-13
 -1      3005 2.53807E+01 3.53520E+00-8.30347E-02 1.22073E-01-4.36151E-13-4.57294E-13
 -1      3006 2.53719E+01 2.55838E+00-7.65700E-02 6.05555E-01-3.28987E-13-4.85747E-13
 -1      3007 2.51448E+01 3.23983E-01-1.42769E-02 7.63710E-01-1.01079E-13-5.12971E-13
 -1      3008 2.50067E+01-6.04876E-01-2.56425E-02 6.64553E-01-4.71151E-14-5.03080E-13
 -1      3009 2.44623E+01-1.19678E+00-1.58085E-02 1.72424E-01-1.46584E-16-4.15673E-13
 -1      3010 2.41401E+01-1.52531E+00 2.31741E-02-1.64341E-01 3.58324E-14-4.23264E-13
 -1      3011 2.48967E+01-1.35790E+00-1.81783E-02-6.48146E-02 4.53249E-14-4.88730E-13
 -1      3012 2.34474E+01-1.59598E+00-1.59859E-03-5.54710E-01 4.52798E-14-3.01814E-13
 -1      3013 2.30266E+01-1.54087E+00 3.04842E-02-8.57614E-01 6.09988E-14-2.83507E-13
 -1      3014 2.35477E+01-1.90744E+00-3.33593E-02-9.40617E-01 1.11183E-13-3.15278E-13
 -1      3015 2.24207E+01-1.34634E+00 3.52399E-03-1.04832E+00 6.55708E-14-2.27605E-13
 -1      3016 2.20152E+01-1.13247E+00 1.92335E-02-1.23008E+00 3.15676E-14-1.96483E-13
 -1      3017 2.22565E+01-1.62984E+00-4.47717E-02-1.46964E+00 7.79095E-14-1.55747E-13
 -1      3018 2.15928E+01-8.75793E-01 6.84929E-03-1.27022E+00 4.27285E-14-1.66317E-13
 -1      3019 2.12647E+01-6.50632E-01 9.97218E-03-1.34403E+00 2.37737E-14-1.42352E-13
 -1      3020 2.13156E+01-1.03236E+00-2.77197E-02-1.60973E+00 5.93887E-14-1.03418E-13
 -1      3021 2.10016E+01-4.27082E-01 7.06336E-03-1.30317E+00 1.48785E-14-4.54337E-14
 -1      3022 2.07637E+01-2.49033E-01 3.81195E-03-1.30476E+00 3.60216E-14-5.16647E-15
 -1      3023 2.06936E+01-4.90760E-01-1.63106E-02-1.54577E+00 9.83516E-14-2.88829E-14
 -1      3024 2.06152E+01-8.90669E-02 5.59748E-03-1.22843E+00 2.92111E-14-1.80093E-15
 -1      3025 2.04534E+01 3.05867E-02 3.36178E-04-1.18868E+00 4.58954E-14 1.26958E-14
 -1      3026 2.03229E+01-9.11813E-02-8.38080E-03-1.38846E+00 2.76557E-14 9.24257E-14
 -1      3027 2.03775E+01 1.29790E-01 3.92389E-03-1.10127E+00 9.46298E-15-3.05197E-14
 -1      3028 2.02705E+01 1.99081E-01-1.34733E-03-1.04096E+00-2.42113E-14-5.71294E-14
 -1      3029 2.01204E+01 1.63337E-01-3.58158E-03-1.20269E+00 8.58162E-15 9.12358E-14
 -1      3030 2.02371E+01 2.51095E-01 2.62256E-03-9.54073E-01 8.35668E-15-8.29930E-14
 -1      3031 2.01665E+01 2.83223E-01-2.01809E-03-8.85989E-01-2.24067E-14-6.44566E-14
 -1      3032 2.00206E+01 3.02934E-01-9.09622E-04-1.01753E+00-2.08032E-14 4.75926E-15
 -1      3033 2.01561E+01 3.02604E-01 1.73957E-03-8.05075E-01-6.01347E-14-2.75239E-14
 -1      3034 2.01085E+01 3.10045E-01-2.15959E-03-7.36854E-01-5.76199E-14-1.02185E-13
 -1      3035 1.99791E+01 3.61647E-01 4.45808E-04-8.45257E-01-1.21453E-14 2.71870E-14
 -1      3036 2.01095E+01 3.08879E-01 1.18076E-03-6.64378E-01-2.07386E-14-6.30271E-14
 -1      3037 2.00761E+01 3.01449E-01-2.04172E-03-6.00440E-01-2.89660E-14-2.23497E-14
 -1      3038 1.99683E+01 3.68243E-01 1.03089E-03-6.90734E-01-3.75123E-14 4.12641E-14
 -1      3039 2.00820E+01 2.88640E-01 8.37481E-04-5.37336E-01 3.73090E-14-7.52952E-14
 -1      3040 2.00575E+01 2.73328E-01-1.80896E-03-4.80049E-01 4.30793E-14-5.88128E-14
 -1      3041 1.99716E+01 3.44252E-01 1.18968E-03-5.55560E-01 8.30556E-15 1.63725E-14
 -1      3042 2.00646E+01 2.54941E-01 6.25390E-04-4.26382E-01 4.64394E-14-5.94227E-14
 -1      3043 2.00460E+01 2.36374E-01-1.53746E-03-3.76771E-01 3.10034E-14-3.58436E-14
 -1      3044 1.99802E+01 3.04617E-01 1.13046E-03-4.39740E-01 5.76078E-14-1.19494E-14
 -1      3045 2.00526E+01 2.16279E-01 4.88764E-04-3.32082E-01 5.40148E-14 7.61927E-15
 -1      3046 2.00380E+01 1.97318E-01-1.26712E-03-2.90296E-01-3.41579E-15 1.10569E-13
 -1      3047 1.99894E+01 2.59097E-01 9.74595E-04-3.42384E-01 9.00433E-14 6.87200E-14
 -1      3048 2.00434E+01 1.77816E-01 3.94225E-04-2.53806E-01-2.62681E-14 1.77346E-13
 -1      3049 2.00318E+01 1.60091E-01-1.01816E-03-2.19446E-01-8.02560E-15 2.27027E-13
 -1      3050 1.99972E+01 2.13673E-01 7.89616E-04-2.62036E-01 2.90178E-14 1.54627E-13
 -1      3051 2.00359E+01 1.42418E-01 3.23227E-04-1.90204E-01-2.82298E-14 1.69921E-13
 -1      3052 2.00267E+01 1.26743E-01-7.99812E-04-1.62554E-01 3.07101E-14 1.13235E-13
 -1      3053 2.00030E+01 1.71716E-01 6.10595E-04-1.96904E-01-5.12617E-14 2.14233E-13
 -1      3054 2.00295E+01 1.11447E-01 2.66127E-04-1.39546E-01-1.61680E-14-3.68862E-14
 -1      3055 2.00222E+01 9.81198E-02-6.14950E-04-1.17740E-01-7.36097E-14-1.75151E-13
 -1      3056 2.00068E+01 1.34863E-01 4.53635E-04-1.45033E-01-1.09875E-13 4.99007E-14
 -1      3057 2.00240E+01 8.53259E-02 2.18207E-04-9.99664E-02-2.46968E-14-2.01253E-13
 -1      3058 2.00182E+01 7.43345E-02-4.62786E-04-8.31038E-02-4.13691E-14-1.54186E-13
 -1      3059 2.00090E+01 1.03659E-01 3.24185E-04-1.04445E-01-3.56519E-14-4.11544E-14
 -1      3060 2.00192E+01 6.39242E-02 1.77261E-04-6.96285E-02 7.67659E-15-1.25029E-13
 -1      3061 2.00147E+01 5.50860E-02-3.40531E-04-5.68429E-02 1.82797E-14 8.69054E-15
 -1      3062 2.00098E+01 7.79922E-02 2.22056E-04-7.32538E-02 2.78828E-14-2.18359E-14
 -1      3063 2.00152E+01 4.68134E-02 1.42235E-04-4.68279E-02 8.48410E-14 5.20866E-14
 -1      3064 2.00117E+01 3.98646E-02-2.44442E-04-3.73310E-02 1.26761E-13 1.07682E-13
 -1      3065 2.00098E+01 5.73913E-02 1.44362E-04-4.97276E-02 1.35756E-13 1.54837E-13
 -1      3066 2.00118E+01 3.34313E-02 1.12528E-04-3.00484E-02 1.88139E-13 1.31523E-13
 -1      3067 2.00091E+01 2.80818E-02-1.70489E-04-2.31508E-02 2.28035E-13 1.70719E-13
 -1      3068 2.00091E+01 4.12157E-02 8.72016E-05-3.23359E-02 2.41926E-13 1.82460E-13
 -1      3069 2.00090E+01 2.31819E-02 8.76701E-05-1.79855E-02 1.73095E-13 8.82222E-14
 -1      3070 2.00070E+01 1.91483E-02-1.14753E-04-1.31021E-02 9.52023E-14 8.65968E-14
 -1      3071 2.00082E+01 2.87757E-02 4.65545E-05-1.97629E-02 1.68730E-13 7.33087E-14
 -1      3072 2.00067E+01 1.54943E-02 6.71914E-05-9.54682E-03-9.58558E-14 1.32333E-13
 -1      3073 2.00053E+01 1.25180E-02-7.36582E-05-6.19401E-03-1.75004E-13 6.62536E-15
 -1      3074 2.00071E+01 1.94043E-02 1.87369E-05-1.09054E-02-2.49057E-14 2.35941E-14
 -1      3075 2.00049E+01 9.85354E-03 5.05958E-05-3.83880E-03-7.07635E-14-9.06189E-15
 -1      3076 2.00039E+01 7.70860E-03-4.40789E-05-1.62572E-03-5.79926E-14-1.01234E-13
 -1      3077 2.00060E+01 1.24949E-02 5.88347E-07-4.85891E-03-1.24242E-13 1.02737E-14
 -1      3078 2.00035E+01 5.81415E-03 3.73707E-05-1.45992E-04-6.25981E-14-2.38687E-14
 -1      3079 2.00028E+01 4.30974E-03-2.33713E-05 1.23687E-03-7.00923E-14 5.19356E-14
 -1      3080 2.00049E+01 7.51954E-03-1.04831E-05-8.97123E-04-3.02607E-14-8.60613E-14
 -1      3081 2.00024E+01 3.00244E-03 2.70089E-05 2.09332E-03-1.41391E-13 2.10492E-13
 -1      3082 2.00019E+01 1.98173E-03-9.35992E-06 2.88630E-03-1.55744E-13 1.28670E-13
 -1      3083 2.00039E+01 4.03321E-03-1.65319E-05 1.55240E-03-1.96015E-14 3.25963E-14
 -1      3084 2.00016E+01 1.11308E-03 1.90303E-05 3.31175E-03-1.97440E-13 3.20326E-14
 -1      3085 2.00012E+01 4.50044E-04-2.95491E-07 3.69789E-03-1.71035E-13-2.82870E-14
 -1      3086 2.00031E+01 1.67048E-03-1.91399E-05 2.93227E-03-2.14277E-13 1.23448E-14
 -1      3087 2.00009E+01-9.79512E-05 1.29969E-05 3.83605E-03-2.31019E-13-2.34362E-13
 -1      3088 2.00008E+01-5.02484E-04 5.19852E-06 3.95198E-03-2.90086E-13-3.31213E-13
 -1      3089 2.00023E+01 1.38030E-04-1.94936E-05 3.57830E-03-3.53492E-13-1.86908E-13
 -1      3090 2.00005E+01-8.21747E-04 8.52227E-06 3.90802E-03-1.88778E-13-4.02852E-13
 -1      3091 2.00004E+01-1.04430E-03 8.18360E-06 3.85357E-03-1.50107E-13-4.42649E-13
 -1      3092 2.00017E+01-7.94806E-04-1.84587E-05 3.74027E-03-2.81072E-13-4.98533E-13
 -1      3093 2.00002E+01-1.20504E-03 5.27433E-06 3.70265E-03-7.94790E-14-3.07896E-13
 -1      3094 2.00002E+01-1.30351E-03 9.46183E-06 3.54898E-03-1.52188E-14-2.75720E-13
 -1      3095 2.00013E+01-1.30589E-03-1.66499E-05 3.59996E-03 3.17171E-15-3.19917E-13
 -1      3096 2.00000E+01-1.35833E-03 2.97478E-06 3.34330E-03 2.72049E-14-1.69470E-13
 -1      3097 2.00000E+01-1.37567E-03 9.62648E-06 3.13973E-03 4.45268E-14-3.52231E-14
 -1      3098 2.00009E+01-1.52973E-03-1.44888E-05 3.28646E-03 1.53041E-13-2.76046E-14
 -1      3099 1.99998E+01-1.36315E-03 1.39538E-06 2.91427E-03 9.94369E-14 4.59205E-14
 -1      3100 1.99999E+01-1.33054E-03 9.10611E-06 2.69373E-03 6.19410E-14 1.02070E-13
 -1      3101 2.00006E+01-1.56604E-03-1.22531E-05 2.88873E-03 8.54522E-14 1.08070E-13
 -1      3102 1.99998E+01-1.27835E-03 3.52793E-07 2.47084E-03 7.17588E-14 2.52677E-13
 -1      3103 1.99998E+01-1.21790E-03 8.20205E-06 2.25423E-03 1.46114E-13 2.99331E-13
 -1      3104 2.00003E+01-1.48716E-03-1.01156E-05 2.46582E-03 2.05867E-13 1.77413E-13
 -1      3105 1.99997E+01-1.14541E-03-2.97177E-07 2.04717E-03 1.75235E-13 3.48934E-13
 -1      3106 1.99997E+01-1.07237E-03 7.12172E-06 1.84679E-03 1.87743E-13 2.85632E-13
 -1      3107 2.00002E+01-1.34437E-03-8.17439E-06 2.05487E-03 1.72825E-13 3.61229E-13
 -1      3108 1.99997E+01-9.92717E-04-6.68200E-07 1.66246E-03 3.62962E-13 1.87680E-13
 -1      3109 1.99997E+01-9.17314E-04 5.99062E-06 1.48455E-03 3.85796E-13 1.95470E-13
 -1      3110 2.00000E+01-1.17300E-03-6.47340E-06 1.67737E-03 2.76338E-13 2.49682E-13
 -1      3111 1.99997E+01-8.39223E-04-8.63497E-07 1.32556E-03 3.08879E-13 2.01516E-13
 -1      3112 1.99997E+01-7.68060E-04 4.95597E-06 1.17230E-03 1.35788E-13 2.36090E-13
 -1      3113 1.99999E+01-9.96649E-04-5.01347E-06 1.34407E-03 2.91083E-13 1.90088E-13
 -1      3114 1.99997E+01-6.96521E-04-9.14504E-07 1.03811E-03 1.33737E-13 2.81165E-13
 -1      3115 1.99997E+01-6.33247E-04 3.87621E-06 9.09473E-04 1.47990E-13 3.81691E-13
 -1      3116 1.99999E+01-8.29819E-04-3.61839E-06 1.05768E-03 1.87217E-13 2.36379E-13
 -1      3117 1.99997E+01-5.71812E-04-6.28490E-07 7.98075E-04 1.97587E-13 3.51451E-13
 -1      3118 1.99997E+01-5.18704E-04 2.66176E-06 6.92357E-04 2.47671E-13 4.50920E-13
 -1      3119 1.99998E+01-6.83939E-04-3.00848E-06 8.18232E-04 2.13477E-13 3.99339E-13
 -1      3120 1.99997E+01-4.81335E-04-1.33345E-06 6.28046E-04 1.64061E-13 5.16296E-13
 -1      3121 1.99997E+01-4.37358E-04 1.43541E-06 5.38174E-04 7.97151E-14 5.28283E-13
 -1      3122 1.99998E+01-4.84524E-04 1.24158E-06 5.27143E-04-7.97534E-14 1.66249E-13
 -1      3123 1.99998E+01-5.71625E-04-2.19842E-06 6.46659E-04 2.76487E-13 3.03135E-13
 -1      3124 2.65292E+01 1.26155E+00-8.91870E-02-9.17015E-01 4.61069E-13-3.91263E-13
 -1      3125 2.34827E+01-1.94915E+00 3.79299E-02 1.55510E+00-1.42596E-13-3.25722E-13
 -1      3126 2.42255E+01-2.01969E+00 3.70571E-02 1.13261E+00-1.28222E-13-3.73406E-13
 -1      3127 2.35197E+01-2.85945E+00-6.91248E-02 2.65412E+00-2.58606E-13-4.36048E-13
 -1      3128 2.25009E+01-2.04713E+00-2.13946E-02 2.35648E+00-2.33700E-13-3.21609E-13
 -1      3129 2.08564E+01-1.73475E-01 8.91727E-03 1.64623E+00 1.99437E-14 2.23076E-14
 -1      3130 2.11240E+01-4.04771E-01 5.89688E-03 1.67341E+00-1.03400E-14 1.28852E-15
 -1      3131 2.05179E+01 1.41880E-01 3.32372E-03 1.46501E+00-2.31985E-14 1.03824E-13
 -1      3132 2.06927E+01 4.81501E-03 6.22938E-03 1.53301E+00 4.70363E-14 5.15497E-14
 -1      3133 2.03001E+01-4.32928E-02-1.18990E-02 1.75521E+00-4.11540E-14 1.01606E-13
 -1      3134 2.03319E+01 3.09695E-01 4.16810E-04 1.26076E+00-6.21699E-14 1.69468E-13
 -1      3135 2.04458E+01 2.41942E-01 5.06814E-03 1.34650E+00-7.35354E-14 1.39188E-13
 -1      3136 2.00928E+01 2.60191E-01-6.03717E-03 1.49794E+00-6.91556E-14 1.50277E-13
 -1      3137 2.02305E+01 3.76393E-01-9.88864E-04 1.05895E+00-1.17731E-13 1.28973E-13
 -1      3138 2.03076E+01 3.54154E-01 4.07823E-03 1.14874E+00-3.72826E-14 1.59907E-13
 -1      3139 2.00081E+01 4.10002E-01-2.60691E-03 1.25541E+00-7.53453E-14 2.01787E-13
 -1      3140 2.01732E+01 3.81179E-01-1.55619E-03 8.71694E-01-1.20000E-13 5.49173E-14
 -1      3141 2.02285E+01 3.85854E-01 3.34661E-03 9.57778E-01-1.56312E-13 2.97835E-14
 -1      3142 1.99842E+01 4.59240E-01-8.19575E-04 1.03705E+00-5.57782E-14 7.81905E-14
 -1      3143 2.01378E+01 3.52144E-01-1.67845E-03 7.04665E-01-9.62759E-14-6.62202E-15
 -1      3144 2.01800E+01 3.70875E-01 2.81193E-03 7.82842E-01-1.03044E-13 8.80288E-15
 -1      3145 1.99865E+01 4.48800E-01-1.26935E-05 8.44947E-01-9.74844E-14-5.74054E-14
 -1      3146 2.01130E+01 3.07590E-01-1.57706E-03 5.59966E-01 3.40976E-14-7.54667E-14
 -1      3147 2.01465E+01 3.32212E-01 2.39731E-03 6.28293E-01-1.95175E-14-5.22071E-14
 -1      3148 1.99971E+01 4.06917E-01 2.68197E-04 6.78822E-01-2.98408E-14-1.36380E-13
 -1      3149 2.00933E+01 2.58548E-01-1.37776E-03 4.37585E-01 1.33293E-13-3.36460E-14
 -1      3150 2.01206E+01 2.84255E-01 2.05088E-03 4.95558E-01 1.00954E-13-5.24238E-14
 -1      3151 2.00079E+01 3.51605E-01 3.00443E-04 5.37460E-01 3.09123E-14-8.64821E-14
 -1      3152 2.00767E+01 2.11165E-01-1.14981E-03 3.36234E-01 7.83099E-14-8.35397E-14
 -1      3153 2.00990E+01 2.35353E-01 1.74425E-03 3.84234E-01 1.62644E-13-1.76420E-14
 -1      3154 2.00159E+01 2.93578E-01 2.34764E-04 4.19110E-01 1.33306E-13-7.70755E-15
 -1      3155 2.00622E+01 1.68499E-01-9.29085E-04 2.53886E-01 1.08770E-13-1.60514E-13
 -1      3156 2.00804E+01 1.89935E-01 1.46614E-03 2.92796E-01 2.76409E-14-1.46522E-13
 -1      3157 2.00205E+01 2.38723E-01 1.45622E-04 3.21645E-01 1.07177E-13-1.39655E-13
 -1      3158 2.00496E+01 1.31763E-01-7.32159E-04 1.88166E-01 1.11627E-13-3.93770E-14
 -1      3159 2.00643E+01 1.50023E-01 1.21428E-03 2.19110E-01 1.00658E-13-1.63383E-13
 -1      3160 2.00223E+01 1.89895E-01 6.54145E-05 2.42691E-01 5.11115E-14-2.08295E-13
 -1      3161 2.00388E+01 1.01122E-01-5.64893E-04 1.36614E-01 9.60860E-14 1.12913E-13
 -1      3162 2.00505E+01 1.16231E-01 9.89626E-04 1.60783E-01 1.76993E-13 9.88887E-14
 -1      3163 2.00220E+01 1.48131E-01 4.92399E-06 1.79776E-01 3.30477E-14-9.09096E-14
 -1      3164 2.00298E+01 7.61867E-02-4.27482E-04 9.68625E-02 1.61482E-14 2.01688E-13
 -1      3165 2.00390E+01 8.84036E-02 7.93282E-04 1.15409E-01 7.12420E-14 2.02988E-13
 -1      3166 2.00204E+01 1.13443E-01-3.51859E-05 1.30460E-01 1.89747E-14 8.45948E-14
 -1      3167 2.00224E+01 5.63086E-02-3.17386E-04 6.67423E-02 5.82847E-14 2.14300E-13
 -1      3168 2.00295E+01 6.59933E-02 6.25338E-04 8.07198E-02 4.15502E-14 1.82212E-13
 -1      3169 2.00180E+01 8.52939E-02-5.82656E-05 9.24459E-02-2.02448E-14 8.55814E-14
 -1      3170 2.00165E+01 4.07526E-02-2.30961E-04 4.43390E-02 1.32859E-13 2.64242E-13
 -1      3171 2.00218E+01 4.82922E-02 4.84658E-04 5.46742E-02 1.10992E-13 2.46613E-13
 -1      3172 2.00154E+01 6.29038E-02-6.86690E-05 6.36484E-02 5.92324E-14 2.40922E-14
 -1      3173 2.00118E+01 2.87917E-02-1.64341E-04 2.80108E-02 4.53635E-14 3.33566E-13
 -1      3174 2.00158E+01 3.45593E-02 3.69122E-04 3.54933E-02 5.49639E-14 2.81963E-13
 -1      3175 2.00128E+01 4.54153E-02-7.04258E-05 4.22338E-02 7.90206E-14 2.00039E-13
 -1      3176 2.00082E+01 1.97563E-02-1.13870E-04 1.63830E-02 1.21090E-13 3.43642E-13
 -1      3177 2.00111E+01 2.40902E-02 2.75996E-04 2.16702E-02 1.27316E-13 4.20427E-13
 -1      3178 2.00103E+01 3.19928E-02-6.67791E-05 2.66312E-02 4.54543E-14 3.46120E-13
 -1      3179 2.00055E+01 1.30564E-02-7.63043E-05 8.32888E-03 2.12839E-13 2.09263E-13
 -1      3180 2.00075E+01 1.62517E-02 2.02267E-04 1.19563E-02 2.06144E-13 2.60536E-13
 -1      3181 2.00082E+01 2.18722E-02-6.01285E-05 1.55257E-02 2.40867E-13 3.29919E-13
 -1      3182 2.00035E+01 8.18880E-03-4.88706E-05 2.94221E-03 2.17983E-14 2.27470E-13
 -1      3183 2.00049E+01 1.04953E-02 1.44915E-04 5.33817E-03 5.09192E-14 2.60909E-13
 -1      3184 2.00064E+01 1.43830E-02-5.21391E-05 7.83913E-03 1.16801E-13 3.92035E-13
 -1      3185 2.00021E+01 4.73432E-03-2.92624E-05-4.93026E-04 4.91023E-14 3.17905E-13
 -1      3186 2.00030E+01 6.35873E-03 1.01086E-04 1.00795E-03 1.04585E-13 3.11093E-13
 -1      3187 2.00048E+01 8.95483E-03-4.38982E-05 2.70409E-03 3.56456E-14 5.24675E-13
 -1      3188 2.00011E+01 2.35101E-03-1.56008E-05-2.53274E-03-7.27815E-14 3.65394E-13
 -1      3189 2.00016E+01 3.46107E-03 6.82041E-05-1.66693E-03-3.99017E-14 3.27012E-13
 -1      3190 2.00036E+01 5.11340E-03-3.60669E-05-5.64906E-04 2.82505E-14 5.25071E-13
 -1      3191 2.00004E+01 7.64984E-04-6.38214E-06-3.60102E-03-4.38832E-14 2.40222E-13
 -1      3192 2.00007E+01 1.49436E-03 4.40196E-05-3.17329E-03 8.17148E-15 3.76966E-13
 -1      3193 2.00026E+01 2.47258E-03-2.90064E-05-2.50017E-03-5.33562E-14 4.72419E-13
 -1      3194 1.99999E+01-2.39378E-04-4.22202E-07-4.01557E-03-2.61491E-14 1.20614E-13
 -1      3195 2.00000E+01 2.14018E-04 2.66226E-05-3.87916E-03-8.08835E-14 1.46655E-13
 -1      3196 2.00018E+01 7.23568E-04-2.28765E-05-3.50775E-03 5.07282E-14 2.15998E-13
 -1      3197 1.99996E+01-8.29000E-04 3.19685E-06-4.00968E-03 1.52133E-13-1.40294E-13
 -1      3198 1.99997E+01-5.70923E-04 1.44289E-05-4.05750E-03 9.34110E-14-1.66181E-14
 -1      3199 2.00012E+01-3.76340E-04-1.77078E-05-3.89177E-03 3.10648E-14 2.07190E-13
 -1      3200 1.99995E+01-1.13091E-03 5.17527E-06-3.75087E-03 6.17289E-14-1.54818E-13
 -1      3201 1.99994E+01-1.00708E-03 6.15153E-06-3.90660E-03 1.37283E-13-2.17281E-13
 -1      3202 2.00008E+01-1.01472E-03-1.34536E-05-3.87544E-03 1.70530E-13-1.89896E-14
 -1      3203 1.99994E+01-1.24006E-03 6.03828E-06-3.35635E-03-9.25560E-14-1.77011E-13
 -1      3204 1.99993E+01-1.20509E-03 7.64746E-07-3.56707E-03-1.08984E-13-2.24628E-13
 -1      3205 2.00004E+01-1.33405E-03-1.00247E-05-3.61898E-03 5.24571E-15-2.48207E-13
 -1      3206 1.99994E+01-1.22609E-03 6.17264E-06-2.90542E-03-1.73586E-14-1.52927E-13
 -1      3207 1.99993E+01-1.24687E-03-2.53402E-06-3.13573E-03-4.97654E-14-1.91777E-13
 -1      3208 2.00002E+01-1.44064E-03-7.31334E-06-3.23434E-03-1.63171E-13-4.05786E-13
 -1      3209 1.99994E+01-1.13896E-03 5.85726E-06-2.44948E-03-1.83122E-13 8.89126E-14
 -1      3210 1.99993E+01-1.19192E-03-4.36138E-06-2.67681E-03-7.07677E-14 1.14712E-14
 -1      3211 2.00000E+01-1.41226E-03-5.20827E-06-2.79720E-03-1.48973E-13-1.38765E-13
 -1      3212 1.99994E+01-1.01369E-03 5.28840E-06-2.01972E-03-1.61880E-14 2.12346E-13
 -1      3213 1.99993E+01-1.08244E-03-5.18217E-06-2.23072E-03-1.58152E-13 1.13075E-13
 -1      3214 1.99999E+01-1.30459E-03-3.60414E-06-2.35651E-03-1.41949E-13 1.51185E-13
 -1      3215 1.99995E+01-8.74140E-04 4.60080E-06-1.63311E-03 9.55715E-14 1.83191E-13
 -1      3216 1.99994E+01-9.47602E-04-5.33900E-06-1.82088E-03 1.47618E-13 1.90291E-13
 -1      3217 1.99998E+01-1.15655E-03-2.40729E-06-1.94191E-03 1.69378E-15-2.09422E-14
 -1      3218 1.99995E+01-7.36040E-04 3.87769E-06-1.29685E-03-1.40423E-13 1.04356E-13
 -1      3219 1.99995E+01-8.07007E-04-5.07880E-06-1.45889E-03-4.16017E-14 3.09505E-13
 -1      3220 1.99998E+01-9.94537E-04-1.53658E-06-1.56941E-03-1.81026E-14-3.04821E-14
 -1      3221 1.99996E+01-6.09251E-04 3.23826E-06-1.01164E-03-1.61394E-13 1.29515E-13
 -1      3222 1.99995E+01-6.73336E-04-4.58117E-06-1.14833E-03-1.44225E-13 1.22769E-13
 -1      3223 1.99997E+01-8.35901E-04-9.20940E-07-1.24579E-03-1.44345E-13-1.77836E-13
 -1      3224 1.99996E+01-5.00298E-04 2.28650E-06-7.74713E-04-1.27677E-13-2.70929E-14
 -1      3225 1.99996E+01-5.54187E-04-3.93557E-06-8.87862E-04-1.80897E-13 4.60040E-14
 -1      3226 1.99997E+01-6.91016E-04-4.30125E-07-9.71462E-04-1.64798E-13-2.16519E-13
 -1      3227 1.99997E+01-4.10580E-04 1.35276E-06-5.79134E-04 1.11236E-13-2.19857E-13
 -1      3228 1.99996E+01-4.53902E-04-2.94734E-06-6.71443E-04 5.66835E-14-1.52286E-13
 -1      3229 1.99997E+01-5.69213E-04-5.21143E-07-7.44401E-04-5.75058E-14-3.09329E-13
 -1      3230 1.99997E+01-3.79795E-04-1.11384E-06-4.66091E-04 3.29535E-13-2.24596E-13
 -1      3231 1.99997E+01-3.94548E-04-3.03346E-06-5.27321E-04 1.60536E-13-1.48747E-13
 -1      3232 1.99997E+01-4.79257E-04 3.78608E-06-5.85418E-04 1.28497E-13-3.50645E-13
 -1      3233 1.99998E+01-4.39258E-04 1.58761E-07-4.81216E-04 1.12431E-13-1.79911E-13
 -1      3234 2.04979E+01-2.65768E+00-7.80266E-03 4.72798E+00-4.15182E-13-1.98560E-13
 -1      3235 1.80412E+01-1.77294E+00 6.94820E-02 4.98782E+00-4.54848E-13-3.44239E-14
 -1      3236 2.14490E+01-6.67964E-01 1.93296E-02 1.74575E+00-4.82576E-14-6.96843E-14
 -1      3237 2.18461E+01-9.84108E-01 8.54416E-03 1.69407E+00-7.62259E-14-9.57151E-14
 -1      3238 2.15500E+01-1.26904E+00-2.97647E-02 2.13201E+00-1.40934E-13-1.71162E-13
 -1      3239 2.07320E+01-5.59805E-01-2.30264E-02 1.99281E+00-8.73026E-14-1.94120E-14
 -1      3240 2.00000E+01-7.35814E-04-8.42748E-07 3.64136E-04 5.41525E-14-2.10484E-13
 -1      3241 2.00001E+01-7.74349E-04 3.05504E-06 3.01579E-04-5.33884E-15 5.54605E-14
 -1      3242 2.00002E+01-8.50732E-04 1.30592E-06 4.37463E-05 1.23839E-13 4.37368E-14
 -1      3243 2.00002E+01-8.50994E-04 1.31704E-06-4.04625E-05 1.66335E-13-1.08192E-13
 -1      3244 1.99999E+01-6.15397E-04-7.56706E-07 4.62809E-04-7.80649E-14-1.92876E-13
 -1      3245 2.00000E+01-6.70617E-04 3.00563E-06 4.25858E-04 1.56343E-14-2.45468E-13
 -1      3246 2.00001E+01-7.67641E-04-2.18859E-06 4.44486E-04-3.23936E-14-1.85585E-13
 -1      3247 2.00001E+01-8.16200E-04 1.66199E-07 2.17421E-04-3.40165E-14-4.48572E-14
 -1      3248 2.00002E+01-8.36053E-04 2.29314E-06 1.40223E-04 1.07694E-13-2.57177E-14
 -1      3249 2.00002E+01-9.20832E-04-3.06408E-06 1.02758E-04 1.38534E-13 5.33671E-16
 -1      3250 2.00002E+01-8.67794E-04-2.85587E-06 2.91560E-04 5.99804E-14-6.11544E-14
 -1      3251 2.53833E+01 4.33502E+00-1.18035E-01-1.62212E+00-6.01089E-13-2.92419E-13
 -1      3252 2.53046E+01 4.13533E+00-8.99718E-02-7.29504E-01-5.44911E-13-3.54191E-13
 -1      3253 2.55559E+01 3.38085E+00-6.00839E-02 1.07778E+00 6.01227E-13 1.76648E-13
 -1      3254 2.63953E+01 3.09208E+00-8.33929E-02 3.22663E+00 5.56596E-13 4.32342E-13
 -1      3255 2.67115E+01 2.35821E+00-1.03159E-01 3.72463E+00 4.96360E-13 4.95333E-13
 -1      3256 2.58998E+01 4.25329E+00-7.75063E-02-2.51238E+00-5.96176E-13-1.64646E-13
 -1      3257 2.61881E+01 1.54819E+00-6.82344E-02-3.41017E+00-2.20960E-13-1.30902E-14
 -1      3258 1.36612E+01-2.99668E-01 8.86699E-02-4.66337E+00 3.55896E-13 3.75561E-13
 -1      3259 1.57801E+01-1.37945E+00 1.62414E-02-5.39419E+00 4.67987E-13 1.88363E-13
 -1      3260 1.45941E+01-7.57165E-01 3.06577E-02 4.96995E+00-4.04891E-13 2.59279E-13
 -1      3261 1.19247E+01 2.99127E-01 2.12653E-01 4.34545E+00-3.22742E-13 4.82309E-13
 -1      3262 1.82598E+01-2.02129E+00 1.12060E-01-5.22310E+00 5.23206E-13 6.69291E-14
 -1      3263 2.06768E+01-2.89924E+00-7.95604E-02-4.65422E+00 5.13339E-13 2.06536E-14
 -1      3264 2.31195E+01-2.89380E+00 9.88252E-02-3.53856E+00 4.64139E-13-1.29299E-13
 -1      3265 2.45365E+01-2.66551E+00-6.49826E-02-2.08197E+00 3.07174E-13-3.34188E-13
 -1      3266 2.61527E+01 3.68184E+00-9.26619E-02 2.19781E+00 6.24556E-13 2.71106E-13
 -1      3267 2.68183E+01 1.95804E+00-3.86247E-02 5.79475E-01-2.92065E-13-5.99701E-13
 -1      3268 2.73323E+01 3.07664E+00-1.30698E-01 4.85855E-01-4.04246E-13-5.67456E-13
 -1      3269 2.63092E+01 3.42583E+00-8.27288E-02 4.22563E-01-4.36831E-13-5.49130E-13
 -1      3270 2.59490E+01 8.54556E-01-5.05354E-02 7.08990E-01-1.54328E-13-6.21489E-13
 -1      3271 1.77835E+01-1.42553E+00 8.08998E-02-4.70994E+00 4.50653E-13 8.74821E-14
 -1      3272 1.14016E+01 7.48147E-01 1.21149E-01 3.16824E+00-2.30538E-13 5.68337E-13
 -1      3273 2.00000E+01-6.70651E-04 3.98540E-06-4.25032E-04 9.67307E-14-4.98836E-13
 -1      3274 1.99999E+01-6.20570E-04-2.73514E-06-4.65457E-04-7.55834E-15-4.48808E-13
 -1      3275 9.27667E+00 1.45274E+00 1.69733E-01-5.91848E-01-3.18842E-15 8.58980E-13
 -1      3276 1.06106E+01 1.37471E+00 7.41951E-02-1.60328E+00 4.33317E-14 7.28750E-13
 -1      3277 9.90583E+00 1.43010E+00 3.50101E-02 4.70230E-01-1.06414E-13 7.96946E-13
 -1      3278 2.20848E+01-2.65749E+00 4.06988E-02 3.69235E+00-3.58213E-13-2.86500E-13
 -1      3279 2.00001E+01-7.74592E-04 3.12451E-06-3.01389E-04 1.89253E-13-2.74271E-13
 -1      3280 2.00000E+01-7.36622E-04-1.03495E-06-3.64230E-04 1.79023E-13-4.87679E-13
 -1      3281 2.00001E+01-7.66726E-04-1.93292E-06-4.43947E-04 2.21228E-13-4.67251E-13
 -1      3282 2.62877E+01 1.99178E+00-4.06856E-02-3.53415E+00-3.30534E-13 1.83187E-15
 -1      3283 2.00002E+01-8.36678E-04 2.31564E-06-1.37865E-04 4.67026E-14-8.18589E-14
 -1      3284 2.00001E+01-8.16586E-04 2.03351E-07-2.16534E-04 2.00180E-13-1.16901E-13
 -1      3285 2.00002E+01-8.68524E-04-2.70392E-06-2.90466E-04 1.41097E-13-2.83906E-13
 -1      3286 2.00002E+01-9.21347E-04-3.10325E-06-9.98700E-05 5.33347E-14 3.65039E-14
 -1      3287 1.99998E+01-5.31945E-04 6.45070E-07 5.14174E-04-1.88369E-13 4.00387E-14
 -1      3288 1.99999E+01-5.70116E-04 1.96164E-06 4.86556E-04-7.33057E-14-1.14754E-13
 -1      3289 1.99999E+01-6.59979E-04-2.16125E-06 5.31516E-04-8.91015E-14-2.72651E-13
 -1      3290 1.99998E+01-5.73437E-04-7.39765E-07 5.70816E-04 3.64730E-14 1.89261E-13
 -1      3291 1.85373E+01-1.27958E+00 6.62511E-02 4.19301E+00-4.46742E-13-6.04378E-14
 -1      3292 1.67743E+01-1.10262E+00 7.79592E-02 4.87937E+00-4.32487E-13 1.06179E-13
 -1      3293 1.53794E+01-3.16798E-01 2.10287E-02 4.21514E+00-3.63053E-13 1.36821E-13
 -1      3294 2.54210E+01 3.59178E+00-1.57223E-02-2.60457E+00-5.23900E-13-1.77688E-13
 -1      3295 2.50828E+01-2.14912E+00-5.70275E-03-1.01825E+00 1.79296E-13-4.07504E-13
 -1      3296 1.28858E+01 2.62959E-01 1.15977E-01-4.14596E+00 2.66932E-13 4.82073E-13
 -1      3297 1.47517E+01-1.03758E-01 7.29380E-02-4.16974E+00 3.10179E-13 2.71033E-13
 -1      3298 1.21700E+01 7.29344E-01 6.37596E-02-3.23727E+00 1.62391E-13 5.30742E-13
 -1      3299 2.18266E+01-2.58637E+00 3.48019E-02-3.62883E+00 4.57131E-13-1.98071E-14
 -1      3300 2.39308E+01-2.30317E+00-1.29927E-02-1.57913E+00 2.19647E-13-2.89612E-13
 -1      3301 2.56459E+01 2.98089E+00-5.08664E-02-3.29428E+00-4.73566E-13-1.26257E-13
 -1      3302 2.57779E+01 2.61783E+00-3.74538E-02-3.58366E+00-4.13905E-13-1.03990E-13
 -1      3303 1.96643E+01 4.50983E-01-2.38867E-03 1.44968E+00-8.92922E-14 9.92164E-14
 -1      3304 1.97434E+01 3.62494E-01 9.00019E-03 1.58061E+00-5.11942E-14 1.34072E-13
 -1      3305 1.70428E+01-7.91088E-01 5.22543E-02-4.23078E+00 3.52747E-13 8.13793E-14
 -1      3306 1.88438E+01-1.58040E+00-2.23939E-02-4.14287E+00 4.19565E-13 1.38708E-14
 -1      3307 2.65750E+01-2.28670E-01-1.67486E-01-8.15083E-01 3.42020E-13-4.78576E-13
 -1      3308 2.32665E+01-2.22667E+00 2.69865E-02-1.86398E+00 2.30659E-13-2.13852E-13
 -1      3309 2.21505E+01-1.79640E+00 8.00198E-04-1.96783E+00 1.52238E-13-8.33886E-14
 -1      3310 2.16005E+01-1.40973E+00 3.07299E-02-2.03743E+00 9.75895E-14-4.26794E-14
 -1      3311 2.11066E+01-1.08194E+00 1.18286E-02-1.95120E+00 4.13092E-14 3.36619E-14
 -1      3312 2.06847E+01-7.64888E-01 8.01289E-03-1.93225E+00 9.77382E-14 3.29892E-14
 -1      3313 2.07304E+01-1.27621E+00-1.61787E-02-2.46236E+00 1.37081E-13 1.10254E-13
 -1      3314 2.04416E+01-4.67866E-01 1.41207E-02-1.76443E+00 1.33343E-13 2.79042E-14
 -1      3315 2.01673E+01-2.41100E-01 9.19703E-04-1.69202E+00 9.30155E-14 6.87975E-14
 -1      3316 2.00259E+01-5.32310E-01-3.71603E-03-2.12118E+00 1.23572E-13 1.27745E-13
 -1      3317 2.00694E+01-3.68154E-02 1.09224E-02-1.52296E+00 2.19750E-14 6.52421E-14
 -1      3318 1.99072E+01 1.06736E-01-2.39905E-03-1.43295E+00 4.75869E-14 9.36863E-14
 -1      3319 1.96931E+01-2.67307E-02 3.02871E-03-1.75051E+00 8.42998E-14 1.02832E-13
 -1      3320 1.98878E+01 2.32213E-01 7.71982E-03-1.28344E+00 2.48051E-14 7.54645E-14
 -1      3321 1.97987E+01 3.10856E-01-3.49914E-03-1.19219E+00-4.41581E-14 3.39965E-14
 -1      3322 1.95664E+01 2.82638E-01 5.47252E-03-1.42305E+00 1.46834E-15 3.14786E-14
 -1      3323 1.98183E+01 3.76994E-01 5.22789E-03-1.06603E+00-2.83095E-14 6.79335E-14
 -1      3324 1.97736E+01 4.09967E-01-3.61428E-03-9.80266E-01-1.74819E-14 1.50866E-14
 -1      3325 1.95524E+01 4.47406E-01 5.92327E-03-1.14976E+00-4.59883E-14 4.53670E-14
 -1      3326 1.98099E+01 4.35406E-01 3.51084E-03-8.75318E-01 8.35002E-15-2.41631E-15
 -1      3327 1.97901E+01 4.38636E-01-3.32605E-03-7.97642E-01 1.44612E-14 2.90014E-14
 -1      3328 1.95940E+01 5.13762E-01 5.53755E-03-9.25505E-01 1.31337E-14 4.11058E-14
 -1      3329 1.98308E+01 4.38217E-01 2.39776E-03-7.10631E-01-4.72678E-15 3.24154E-14
 -1      3330 1.98241E+01 4.23664E-01-2.89977E-03-6.41946E-01-5.58175E-14 5.26730E-15
 -1      3331 1.96583E+01 5.17098E-01 4.84303E-03-7.41506E-01 2.53350E-14-2.06143E-14
 -1      3332 1.98628E+01 4.08238E-01 1.69435E-03-5.69947E-01-8.51247E-14 5.73254E-14
 -1      3333 1.98623E+01 3.84331E-01-2.45009E-03-5.10396E-01 2.36585E-14 1.52487E-14
 -1      3334 1.97271E+01 4.83036E-01 4.07690E-03-5.90029E-01-4.18807E-14-1.89939E-16
 -1      3335 1.98962E+01 3.61371E-01 1.24760E-03-4.51074E-01 6.63477E-14-2.15876E-14
 -1      3336 1.98980E+01 3.33736E-01-2.02434E-03-4.00388E-01 1.07530E-13-8.81226E-15
 -1      3337 1.97910E+01 4.29348E-01 3.34053E-03-4.65195E-01 5.83406E-14 2.52866E-14
 -1      3338 1.99261E+01 3.08119E-01 9.54412E-04-3.51874E-01 1.61367E-13 2.29997E-14
 -1      3339 1.99283E+01 2.80302E-01-1.64127E-03-3.09508E-01 1.19761E-13 2.30555E-14
 -1      3340 1.98459E+01 3.67872E-01 2.67653E-03-3.62638E-01 1.84583E-13 4.21171E-14
 -1      3341 1.99507E+01 2.55027E-01 7.51274E-04-2.70235E-01 9.77381E-14 5.61901E-14
 -1      3342 1.99525E+01 2.29097E-01-1.30730E-03-2.35450E-01 2.25961E-14 1.35215E-13
 -1      3343 1.98907E+01 3.06109E-01 2.10081E-03-2.78977E-01 1.55304E-13-2.32256E-14
 -1      3344 1.99698E+01 2.05856E-01 6.01436E-04-2.04048E-01-8.65058E-14 1.88263E-13
 -1      3345 1.99710E+01 1.82873E-01-1.02316E-03-1.75988E-01-1.37084E-13 9.02537E-14
 -1      3346 1.99258E+01 2.48478E-01 1.61598E-03-2.11418E-01-9.39597E-15 1.12854E-13
 -1      3347 1.99838E+01 1.62489E-01 4.84600E-04-1.51224E-01-1.94267E-13 1.61847E-13
 -1      3348 1.99844E+01 1.42854E-01-7.86496E-04-1.28983E-01-8.38084E-14 1.46528E-13
 -1      3349 1.99524E+01 1.97284E-01 1.21757E-03-1.57531E-01-1.53393E-13 9.16534E-14
 -1      3350 1.99937E+01 1.25590E-01 3.89910E-04-1.09745E-01 3.93557E-14 3.18370E-14
 -1      3351 1.99937E+01 1.09299E-01-5.93263E-04-9.24237E-02 6.03254E-14 1.00158E-13
 -1      3352 1.99718E+01 1.53427E-01 8.97316E-04-1.15142E-01-6.13297E-14 1.11669E-13
 -1      3353 2.00002E+01 9.50813E-02 3.11595E-04-7.77194E-02 5.51725E-14 7.93971E-14
 -1      3354 1.99999E+01 8.18929E-02-4.38470E-04-6.44717E-02 4.68132E-14 1.18620E-13
 -1      3355 1.99856E+01 1.16925E-01 6.45206E-04-8.22973E-02 8.96204E-14 1.01117E-13
 -1      3356 2.00042E+01 7.04605E-02 2.46445E-04-5.34279E-02 1.25385E-14 5.02892E-14
 -1      3357 2.00037E+01 6.00152E-02-3.16774E-04-4.34860E-02 1.33231E-13 4.53337E-14
 -1      3358 1.99949E+01 8.72768E-02 4.50769E-04-5.72608E-02 9.97640E-15-9.28965E-14
 -1      3359 2.00064E+01 5.10184E-02 1.92451E-04-3.53502E-02 1.95176E-13 7.18378E-14
 -1      3360 2.00057E+01 4.29137E-02-2.22878E-04-2.80407E-02 2.28302E-13 2.09125E-14
 -1      3361 2.00009E+01 6.37153E-02 3.03905E-04-3.85112E-02 1.49457E-13-1.53854E-13
 -1      3362 2.00074E+01 3.59767E-02 1.48124E-04-2.21768E-02 2.37430E-13 5.65622E-14
 -1      3363 2.00066E+01 2.98134E-02-1.51819E-04-1.69250E-02 2.01138E-13-5.11634E-15
 -1      3364 2.00045E+01 4.53681E-02 1.95390E-04-2.47424E-02 2.49900E-13-1.57215E-13
 -1      3365 2.00075E+01 2.45720E-02 1.12189E-04-1.28058E-02 6.38706E-14 7.47587E-14
 -1      3366 2.00068E+01 1.99810E-02-9.91329E-05-9.13291E-03-4.99211E-14 1.75408E-13
 -1      3367 2.00064E+01 3.13629E-02 1.17128E-04-1.48545E-02 1.40186E-13-3.55215E-14
 -1      3368 2.00070E+01 1.61034E-02 8.34696E-05-6.32960E-03-1.68240E-13 1.28235E-13
 -1      3369 2.00064E+01 1.27587E-02-6.09396E-05-3.84529E-03-1.21997E-13 7.02673E-14
 -1      3370 2.00071E+01 2.08874E-02 6.22439E-05-7.93859E-03-8.81566E-14-1.98240E-14
 -1      3371 2.00063E+01 9.95527E-03 6.08674E-05-2.01511E-03-8.97943E-14 3.63505E-14
 -1      3372 2.00057E+01 7.57894E-03-3.39593E-05-4.07515E-04-2.54554E-14-4.04762E-14
 -1      3373 2.00071E+01 1.32201E-02 2.50499E-05-3.25748E-03-1.17423E-13 1.09233E-14
 -1      3374 2.00055E+01 5.60481E-03 4.33640E-05 7.18458E-04 1.85574E-14-1.93554E-14
 -1      3375 2.00050E+01 3.96613E-03-1.54867E-05 1.69387E-03 4.00012E-15 2.63575E-14
 -1      3376 2.00066E+01 7.74296E-03 9.54759E-07-2.23982E-04-1.02544E-14 4.23039E-14
 -1      3377 2.00046E+01 2.61979E-03 3.00380E-05 2.32295E-03-1.76637E-13-4.50801E-14
 -1      3378 2.00042E+01 1.53179E-03-3.33901E-06 2.85437E-03-2.61368E-13-1.05822E-13
 -1      3379 2.00059E+01 3.94061E-03-1.36683E-05 1.62144E-03-1.94959E-13-1.54149E-13
 -1      3380 2.00038E+01 6.50961E-04 2.00763E-05 3.14344E-03-4.20423E-13-6.98566E-14
 -1      3381 2.00034E+01-3.47356E-05 4.20953E-06 3.37294E-03-4.48328E-13-2.06305E-13
 -1      3382 2.00051E+01 1.39378E-03-2.16249E-05 2.63203E-03-2.80150E-13-1.89402E-13
 -1      3383 2.00030E+01-5.78021E-04 1.27778E-05 3.43844E-03-3.37371E-13-1.77275E-13
 -1      3384 2.00027E+01-9.76898E-04 8.49687E-06 3.47113E-03-1.55997E-13-1.83431E-13
 -1      3385 2.00042E+01-2.31604E-04-2.50415E-05 3.07439E-03-3.20894E-13 8.79969E-14
 -1      3386 2.00023E+01-1.28161E-03 7.55158E-06 3.39764E-03 4.33220E-14-1.12776E-13
 -1      3387 2.00021E+01-1.48183E-03 1.05402E-05 3.30958E-03 1.26230E-13 3.27346E-14
 -1      3388 2.00034E+01-1.19654E-03-2.54951E-05 3.14574E-03 3.69956E-14 1.34213E-13
 -1      3389 2.00018E+01-1.62307E-03 3.90988E-06 3.15704E-03 1.69709E-13 1.52676E-13
 -1      3390 2.00016E+01-1.69062E-03 1.10974E-05 3.00186E-03 2.05722E-13 1.95180E-13
 -1      3391 2.00027E+01-1.70105E-03-2.41289E-05 2.98884E-03 1.67508E-13 4.10920E-13
 -1      3392 2.00013E+01-1.72424E-03 1.45781E-06 2.81148E-03 9.70420E-14 1.58950E-13
 -1      3393 2.00012E+01-1.70752E-03 1.07210E-05 2.62581E-03 1.00690E-13 2.38531E-13
 -1      3394 2.00021E+01-1.89548E-03-2.17501E-05 2.70447E-03 1.48899E-13 2.30962E-13
 -1      3395 2.00009E+01-1.67422E-03-1.18155E-07 2.42488E-03 1.16614E-13 1.08212E-13
 -1      3396 2.00008E+01-1.60794E-03 9.80472E-06 2.23277E-03 2.09953E-13 1.38158E-13
 -1      3397 2.00016E+01-1.89060E-03-1.89109E-05 2.36154E-03 9.42535E-14 1.10342E-13
 -1      3398 2.00006E+01-1.53666E-03-1.06202E-06 2.03840E-03 2.68246E-13 1.82630E-13
 -1      3399 2.00006E+01-1.44508E-03 8.62181E-06 1.85468E-03 2.75282E-13 2.89556E-13
 -1      3400 2.00012E+01-1.76624E-03-1.59710E-05 2.00537E-03 2.39083E-13 2.72576E-14
 -1      3401 2.00004E+01-1.35593E-03-1.56317E-06 1.67674E-03 1.56014E-13 2.85388E-13
 -1      3402 2.00003E+01-1.25550E-03 7.34960E-06 1.50975E-03 1.36723E-13 8.15661E-14
 -1      3403 2.00008E+01-1.57846E-03-1.31301E-05 1.66414E-03 1.56416E-13 1.43029E-13
 -1      3404 2.00002E+01-1.16198E-03-1.80086E-06 1.35300E-03 2.30722E-13 1.68005E-13
 -1      3405 2.00002E+01-1.06309E-03 6.24895E-06 1.20648E-03 3.22055E-13 1.90843E-13
 -1      3406 2.00005E+01-1.36536E-03-1.03351E-05 1.35392E-03 2.98086E-13 1.02427E-13
 -1      3407 2.00001E+01-9.76884E-04-2.77212E-06 1.07308E-03 3.19020E-13 2.10840E-13
 -1      3408 2.00000E+01-8.84676E-04 4.62845E-06 9.45317E-04 3.12222E-13 4.21895E-13
 -1      3409 2.00003E+01-1.14854E-03-6.25928E-06 1.08362E-03 3.60472E-13 2.15027E-13
 -1      3410 2.00000E+01-8.02514E-04-1.68276E-06 8.37724E-04 1.77412E-13 3.91134E-13
 -1      3411 1.99999E+01-7.29157E-04 1.90174E-06 7.31696E-04 2.70144E-13 4.18407E-13
 -1      3412 2.00001E+01-9.42812E-04 2.64909E-08 8.55142E-04 3.19761E-13 9.08022E-14
 -1      3413 1.96850E+01 5.42809E-01-3.09258E-03 1.18449E+00 1.18631E-14 4.06019E-14
 -1      3414 1.97168E+01 5.12628E-01 5.74518E-03 1.30061E+00-7.06053E-14 6.24918E-14
 -1      3415 1.93337E+01 5.93868E-01-7.47506E-04 1.37444E+00-1.55715E-14 9.37250E-15
 -1      3416 1.97285E+01 2.25375E-01-5.67217E-04 1.76692E+00-8.36364E-14 1.03493E-13
 -1      3417 1.98976E+01 4.97832E-02 1.41090E-02 1.90697E+00-8.44788E-14 6.87668E-14
 -1      3418 1.92621E+01 4.20928E-01-3.83012E-03 1.71831E+00-5.48016E-14 2.84252E-14
 -1      3419 1.97393E+01 5.52357E-01-3.08780E-03 9.62391E-01-3.96687E-14-2.45160E-14
 -1      3420 1.97483E+01 5.57523E-01 3.79801E-03 1.06388E+00 2.93474E-14 6.17783E-14
 -1      3421 1.94463E+01 6.48290E-01 9.18458E-04 1.10439E+00 1.60368E-14-8.81536E-14
 -1      3422 1.98003E+01 5.15363E-01-2.81681E-03 7.75781E-01-6.62236E-14-5.67562E-14
 -1      3423 1.98001E+01 5.39733E-01 2.63852E-03 8.63626E-01-8.23432E-14-3.95771E-14
 -1      3424 1.95642E+01 6.30941E-01 1.54529E-03 8.87852E-01-6.37332E-15-3.62207E-14
 -1      3425 1.98558E+01 4.55599E-01-2.45576E-03 6.18962E-01-2.26428E-14-3.08918E-14
 -1      3426 1.98531E+01 4.88691E-01 1.95923E-03 6.94157E-01-5.75842E-14-3.52657E-14
 -1      3427 1.96705E+01 5.74802E-01 1.61846E-03 7.11077E-01-3.18576E-14-6.62752E-14
 -1      3428 1.99013E+01 3.87909E-01-2.07874E-03 4.87835E-01 1.77692E-14-6.99694E-14
 -1      3429 1.98990E+01 4.23301E-01 1.55021E-03 5.51348E-01 3.74294E-16-2.92505E-14
 -1      3430 1.97593E+01 5.01146E-01 1.44497E-03 5.65150E-01-3.27055E-14-6.46846E-14
 -1      3431 1.99363E+01 3.20992E-01-1.72029E-03 3.79218E-01 1.53639E-13-8.45270E-14
 -1      3432 1.99353E+01 3.55002E-01 1.28105E-03 4.32063E-01 1.10545E-13-9.96048E-14
 -1      3433 1.98299E+01 4.23066E-01 1.18750E-03 4.44417E-01 7.50038E-14-1.40264E-13
 -1      3434 1.99620E+01 2.59522E-01-1.39663E-03 2.90344E-01 9.77314E-14-1.53735E-13
 -1      3435 1.99623E+01 2.90243E-01 1.08056E-03 3.33622E-01 1.66828E-13-1.23969E-13
 -1      3436 1.98839E+01 3.48157E-01 9.25039E-04 3.45006E-01 2.04247E-13-1.48010E-13
 -1      3437 1.99800E+01 2.05639E-01-1.11439E-03 2.18637E-01 2.46589E-14-1.06970E-13
 -1      3438 1.99812E+01 2.32267E-01 9.14278E-04 2.53510E-01 4.88064E-15-1.56885E-13
 -1      3439 1.99241E+01 2.80416E-01 6.92136E-04 2.63926E-01 8.40195E-15-9.51349E-14
 -1      3440 1.99921E+01 1.59953E-01-8.74695E-04 1.61644E-01-2.39548E-14-6.64225E-14
 -1      3441 1.99939E+01 1.82345E-01 7.67845E-04 1.89290E-01-3.16968E-14-1.18555E-13
 -1      3442 1.99531E+01 2.21564E-01 5.00334E-04 1.98615E-01 3.65379E-14-5.99065E-14
 -1      3443 1.99998E+01 1.22205E-01-6.75555E-04 1.17053E-01-7.09506E-15-2.15624E-14
 -1      3444 2.00019E+01 1.40587E-01 6.36536E-04 1.38609E-01 5.52852E-14-2.16026E-14
 -1      3445 1.99735E+01 1.71937E-01 3.49849E-04 1.46748E-01-2.98014E-14-8.80659E-14
 -1      3446 2.00044E+01 9.16773E-02-5.13240E-04 8.27329E-02-3.33798E-14-4.27274E-14
 -1      3447 2.00066E+01 1.06461E-01 5.19517E-04 9.92584E-02-3.22869E-14-4.06957E-14
 -1      3448 1.99874E+01 1.31080E-01 2.35927E-04 1.06184E-01 2.36724E-14-2.18419E-13
 -1      3449 2.00068E+01 6.74540E-02-3.83224E-04 5.67724E-02 7.44077E-14-1.43599E-14
 -1      3450 2.00089E+01 7.91264E-02 4.16993E-04 6.92180E-02-6.42910E-15-3.51928E-14
 -1      3451 1.99965E+01 9.81258E-02 1.52193E-04 7.49737E-02-2.10530E-14-2.01624E-13
 -1      3452 2.00078E+01 4.85712E-02-2.80782E-04 3.74986E-02-5.02983E-14 2.15223E-13
 -1      3453 2.00096E+01 5.76267E-02 3.29007E-04 4.66939E-02 6.85967E-14 1.14619E-13
 -1      3454 2.00021E+01 7.20322E-02 9.22995E-05 5.13731E-02 1.81388E-15 6.67359E-14
 -1      3455 2.00078E+01 3.41053E-02-2.01361E-04 2.34829E-02 4.29065E-14 2.50627E-13
 -1      3456 2.00094E+01 4.10093E-02 2.55076E-04 3.01332E-02-4.05622E-14 2.15734E-13
 -1      3457 2.00053E+01 5.17302E-02 5.06421E-05 3.38598E-02-4.09014E-14 1.74171E-13
 -1      3458 2.00073E+01 2.32189E-02-1.40789E-04 1.35311E-02 2.05625E-13 3.41422E-13
 -1      3459 2.00087E+01 2.83884E-02 1.94213E-04 1.82231E-02 1.70574E-13 2.70188E-13
 -1      3460 2.00069E+01 3.62064E-02 2.25824E-05 2.11333E-02 6.64454E-14 1.67572E-13
 -1      3461 2.00065E+01 1.51805E-02-9.53807E-05 6.66493E-03 3.54304E-14 4.79441E-13
 -1      3462 2.00076E+01 1.89765E-02 1.45076E-04 9.87698E-03 1.34716E-13 4.13614E-13
 -1      3463 2.00073E+01 2.45472E-02 4.43508E-06 1.21060E-02 6.87536E-14 4.46803E-13
 -1      3464 2.00056E+01 9.36909E-03-6.19708E-05 2.09804E-03 6.09702E-14 5.40589E-13
 -1      3465 2.00065E+01 1.20961E-02 1.06142E-04 4.21273E-03 7.63469E-14 5.32460E-13
 -1      3466 2.00071E+01 1.59573E-02-6.64612E-06 5.88657E-03 8.13658E-14 5.88639E-13
 -1      3467 2.00047E+01 5.26941E-03-3.79009E-05-7.90551E-04 3.00222E-14 4.55495E-13
 -1      3468 2.00054E+01 7.17867E-03 7.58531E-05 5.27464E-04 5.04776E-14 5.00939E-13
 -1      3469 2.00065E+01 9.76325E-03-1.28115E-05 1.75840E-03 6.82843E-14 4.94004E-13
 -1      3470 2.00038E+01 2.46250E-03-2.09834E-05-2.48248E-03-3.40589E-14 3.93525E-13
 -1      3471 2.00044E+01 3.75724E-03 5.27200E-05-1.72899E-03 5.22813E-14 4.60809E-13
 -1      3472 2.00058E+01 5.40738E-03-1.56549E-05-8.44465E-04 3.84788E-14 4.79915E-13
 -1      3473 2.00030E+01 6.13811E-04-9.44967E-06-3.34470E-03 6.01810E-14 3.11795E-13
 -1      3474 2.00035E+01 1.45553E-03 3.53864E-05-2.97969E-03-2.56159E-14 3.50146E-13
 -1      3475 2.00049E+01 2.43706E-03-1.63365E-05-2.36091E-03 2.25641E-14 3.91708E-13
 -1      3476 2.00024E+01-5.39230E-04-1.89400E-06-3.65159E-03 4.83673E-14 2.09243E-13
 -1      3477 2.00027E+01-2.43592E-05 2.26620E-05-3.54406E-03 6.40723E-14 2.68761E-13
 -1      3478 2.00040E+01 4.91438E-04-1.56848E-05-3.12520E-03 7.85853E-14 3.01350E-13
 -1      3479 2.00018E+01-1.19919E-03 2.78241E-06-3.60414E-03 1.65474E-13 1.78536E-13
 -1      3480 2.00020E+01-9.14291E-04 1.35332E-05-3.65865E-03 1.70251E-13 1.62213E-13
 -1      3481 2.00033E+01-7.12174E-04-1.42783E-05-3.38710E-03 1.70506E-13 2.58506E-13
 -1      3482 2.00013E+01-1.51967E-03 5.42441E-06-3.34625E-03 9.48371E-14 1.12858E-14
 -1      3483 2.00015E+01-1.39164E-03 7.15800E-06-3.49488E-03 1.95286E-13 1.99630E-13
 -1      3484 2.00026E+01-1.39149E-03-1.25105E-05-3.32943E-03 1.78599E-13 5.03254E-13
 -1      3485 2.00009E+01-1.61502E-03 6.67040E-06-2.97816E-03-1.23855E-13-1.58055E-13
 -1      3486 2.00010E+01-1.58973E-03 2.85232E-06-3.17393E-03-1.12762E-13-1.28103E-13
 -1      3487 2.00020E+01-1.71126E-03-1.06395E-05-3.08292E-03 1.03234E-13 3.86310E-13
 -1      3488 2.00006E+01-1.56867E-03 6.99409E-06-2.56734E-03-2.37545E-13-1.89260E-13
 -1      3489 2.00007E+01-1.60685E-03 7.13781E-08-2.77894E-03-2.13058E-13-3.02733E-13
 -1      3490 2.00015E+01-1.79387E-03-8.82671E-06-2.73850E-03-1.19188E-13-8.83283E-14
 -1      3491 2.00004E+01-1.44022E-03 6.74018E-06-2.15716E-03-1.65838E-13 2.68915E-14
 -1      3492 2.00004E+01-1.51402E-03-1.61043E-06-2.36472E-03-1.97006E-13-1.21903E-13
 -1      3493 2.00011E+01-1.72843E-03-7.16539E-06-2.35723E-03-2.21815E-13-2.77633E-13
 -1      3494 2.00002E+01-1.27113E-03 6.15286E-06-1.77362E-03-2.43371E-14 7.48772E-14
 -1      3495 2.00002E+01-1.36131E-03-2.52018E-06-1.96550E-03-4.92824E-14 5.59790E-14
 -1      3496 2.00007E+01-1.57837E-03-5.70288E-06-1.97825E-03-1.49811E-13-1.35346E-14
 -1      3497 2.00001E+01-1.08944E-03 5.40242E-06-1.43056E-03 1.13918E-13-1.62200E-13
 -1      3498 2.00001E+01-1.18312E-03-2.90250E-06-1.60082E-03 8.99445E-14-9.71265E-14
 -1      3499 2.00005E+01-1.38772E-03-4.45914E-06-1.62493E-03 1.40283E-13 1.31768E-14
 -1      3500 2.00000E+01-9.13346E-04 4.65316E-06-1.13348E-03-1.55975E-13-3.29116E-13
 -1      3501 2.00000E+01-1.00233E-03-2.94436E-06-1.28012E-03-6.69325E-14-3.49070E-13
 -1      3502 2.00003E+01-1.18607E-03-3.41963E-06-1.30961E-03 9.52335E-14-1.09156E-13
 -1      3503 1.99999E+01-7.54561E-04 3.71358E-06-8.82104E-04-1.47830E-13-4.37150E-13
 -1      3504 1.99999E+01-8.34326E-04-3.02101E-06-1.00611E-03-1.44358E-13-4.48691E-13
 -1      3505 2.00001E+01-9.92166E-04-2.41439E-06-1.03741E-03-5.90054E-14-4.11449E-13
 -1      3506 1.99998E+01-6.23028E-04-1.07583E-06-6.75999E-04 7.20995E-14-6.50367E-13
 -1      3507 1.99998E+01-6.82850E-04-2.07083E-06-7.76595E-04-6.10385E-14-5.49319E-13
 -1      3508 2.00000E+01-8.17025E-04-2.47905E-07-8.07783E-04-2.69526E-14-6.49110E-13
 -1      3509 1.99998E+01-4.94249E-04 2.53920E-06-4.77662E-04-7.04490E-14-4.22373E-13
 -1      3510 2.00001E+01-8.01802E-04 6.51865E-07 5.32728E-04-6.28073E-14-3.95182E-13
 -1      3511 2.00002E+01-8.58969E-04 3.89291E-06 4.69350E-04 2.34840E-14-3.90714E-13
 -1      3512 2.61849E+01 2.28677E+00-9.70263E-02-3.64998E+00-3.89452E-13-3.66478E-14
 -1      3513 1.28426E+01 6.59579E-01 1.98970E-02 3.26625E+00-3.41810E-13 3.61683E-13
 -1      3514 1.11010E+01 1.42722E+00 1.72299E-01 2.06629E+00-1.82354E-13 6.69659E-13
 -1      3515 1.16346E+01 1.49850E+00 9.28480E-02 9.22297E-01-1.68216E-13 7.09446E-13
 -1      3516 2.72178E+01 1.53455E+00-5.89826E-02 4.06066E+00 4.07400E-13 5.17964E-13
 -1      3517 2.64094E+01-1.29157E+00 5.88687E-02 1.92438E-01 1.89258E-13-5.64632E-13
 -1      3518 1.99999E+01-5.83786E-04-9.79862E-07-5.27570E-04 3.47896E-14-2.84243E-13
 -1      3519 2.07636E+01-1.88414E+00 6.60307E-02-3.43413E+00 3.52013E-13 3.37807E-14
 -1      3520 2.21973E+01-2.26988E+00-4.71960E-02-2.60999E+00 2.87103E-13-5.76414E-14
 -1      3521 2.14133E+01-2.25792E+00 8.47619E-03 3.46444E+00-3.37072E-13-2.55152E-13
 -1      3522 1.98937E+01-1.35033E+00 1.48303E-02-3.24112E+00 2.73536E-13 8.52964E-14
 -1      3523 1.18383E+01 1.37299E+00 9.46300E-03-1.52165E+00 2.44162E-14 6.23564E-13
 -1      3524 1.19797E+01 1.21193E+00 1.26351E-01-2.46285E+00 1.05020E-13 5.98632E-13
 -1      3525 1.34662E+01 8.24111E-01 5.57043E-02-2.97294E+00 1.73467E-13 4.28255E-13
 -1      3526 2.53619E+01 1.81888E+00-7.58775E-02 8.76409E-01-2.40013E-13-5.47905E-13
 -1      3527 1.64016E+01-7.96330E-02 4.05376E-02 3.59068E+00-3.89532E-13 9.74221E-14
 -1      3528 1.46950E+01 3.59603E-01 9.70818E-02 3.67788E+00-3.38420E-13 1.88270E-13
 -1      3529 1.39538E+01 8.61526E-01 1.12082E-02 2.78086E+00-3.14795E-13 3.20036E-13
 -1      3530 2.14208E+01-1.84710E+00 2.20058E-02 2.99399E+00-2.94055E-13-2.50347E-13
 -1      3531 1.98139E+01-1.61408E+00 2.45112E-02 3.85992E+00-3.47170E-13-1.02283E-13
 -1      3532 2.10586E+01-1.48489E+00 5.35471E-03 2.77080E+00-2.50400E-13-1.72672E-13
 -1      3533 1.99999E+01-6.14184E-04 5.51086E-07 6.30939E-04 2.07633E-13 3.37651E-13
 -1      3534 2.00000E+01-7.32350E-04-1.01978E-06 6.47691E-04 1.01804E-13 1.69146E-13
 -1      3535 2.00003E+01-9.74809E-04-3.16792E-06 4.72709E-04 2.73096E-14-3.22510E-13
 -1      3536 2.00002E+01-9.25152E-04-5.29110E-07 3.75543E-04 8.04664E-14-9.56658E-14
 -1      3537 2.00003E+01-9.60665E-04 2.84933E-06 2.84572E-04 1.03524E-13-1.14374E-13
 -1      3538 1.99738E+01-1.97373E-01 5.15125E-03 2.14222E+00-1.65495E-13-1.29665E-14
 -1      3539 2.03052E+01-5.05276E-01 1.63725E-02 2.26375E+00-1.69539E-13-8.52074E-14
 -1      3540 1.93048E+01 6.82507E-02-6.28161E-03 2.16092E+00-2.01253E-13-3.42928E-14
 -1      3541 1.84930E+01-9.76521E-01-6.02661E-03 3.74847E+00-3.25828E-13-1.77532E-14
 -1      3542 2.05444E+01-1.01778E+00 1.13598E-02 2.66299E+00-1.90133E-13-1.43222E-13
 -1      3543 2.00004E+01-1.00640E-03 2.09892E-06-6.02701E-05 2.12129E-13 1.94484E-13
 -1      3544 2.00003E+01-9.94807E-04 7.59860E-07-1.64823E-04 2.66374E-14 9.61517E-14
 -1      3545 1.53682E+01 1.21479E-01 2.28746E-02-3.57410E+00 2.38951E-13 1.53114E-13
 -1      3546 1.62351E+01-3.79411E-01 3.50809E-02-4.05271E+00 3.22638E-13 1.17767E-13
 -1      3547 1.75848E+01-5.06966E-01 4.21382E-02-3.57011E+00 2.76065E-13 2.09745E-14
 -1      3548 2.00002E+01-8.61708E-04 3.80273E-06-4.70431E-04 1.14655E-13-3.58455E-13
 -1      3549 2.00001E+01-8.05755E-04-2.18119E-06-5.36207E-04-4.25398E-15-4.24850E-13
 -1      3550 2.00003E+01-9.93401E-04 8.76292E-07 1.67618E-04 1.15454E-13-2.09700E-13
 -1      3551 2.00004E+01-1.00654E-03 1.80177E-06 6.43569E-05 1.86485E-13-1.13545E-13
 -1      3552 2.00005E+01-1.10074E-03-3.27785E-06 1.82576E-06 1.48792E-13-2.11678E-14
 -1      3553 2.00004E+01-1.06969E-03-3.81266E-06 2.51784E-04 2.23226E-13-2.71882E-13
 -1      3554 2.00001E+01-8.30301E-04-2.40220E-06-6.39761E-04-9.05278E-15-5.37859E-13
 -1      3555 2.00000E+01-7.13937E-04 3.86650E-06-6.03901E-04 4.20955E-14-6.18722E-13
 -1      3556 1.99998E+01-5.94584E-04-1.61473E-06-6.18628E-04 1.03171E-13-5.72348E-13
 -1      3557 2.00004E+01-1.06886E-03-2.76657E-06-2.49245E-04 2.32071E-14-4.41237E-14
 -1      3558 2.00003E+01-9.61069E-04 2.77801E-06-2.82291E-04 3.27344E-14-2.45497E-13
 -1      3559 2.00002E+01-9.26385E-04-7.11968E-07-3.72697E-04 1.54469E-14-2.78673E-13
 -1      3560 1.96661E+01-9.20251E-01 1.42194E-02-2.83061E+00 1.87498E-13 1.12862E-13
 -1      3561 1.91824E+01-5.20446E-01-8.10990E-03-2.61604E+00 1.48156E-13 1.60379E-13
 -1      3562 1.80839E+01-4.72078E-01 5.78546E-03-3.30026E+00 2.55938E-13 8.46892E-14
 -1      3563 1.90081E+01 7.45642E-01-6.83889E-03 1.21222E+00 7.47221E-15 1.83443E-14
 -1      3564 1.89696E+01 7.20996E-01 6.83788E-03 1.35912E+00-4.35792E-14-1.25266E-15
 -1      3565 1.92173E+01-2.09038E-01 1.46825E-02-2.25439E+00 6.66587E-14 1.62088E-13
 -1      3566 1.89663E+01 3.43630E-02-1.48837E-02-2.03288E+00 9.97906E-14 1.20134E-13
 -1      3567 1.81090E+01 1.70963E-01 9.09987E-03-2.44046E+00 1.20060E-13 9.46645E-14
 -1      3568 1.90742E+01 2.17829E-01 4.67116E-03-1.76826E+00 9.82958E-14 5.93919E-14
 -1      3569 1.89674E+01 3.69702E-01-1.47283E-02-1.57572E+00 2.24224E-14 8.42123E-14
 -1      3570 1.83071E+01 5.37020E-01 9.84501E-03-1.78497E+00 5.35773E-14 6.91443E-14
 -1      3571 1.90959E+01 4.64485E-01-3.00934E-04-1.38349E+00-1.42115E-14 7.90675E-14
 -1      3572 1.90698E+01 5.47105E-01-1.23850E-02-1.22635E+00-6.99928E-15-1.13874E-15
 -1      3573 1.85649E+01 7.19073E-01 1.14065E-02-1.32205E+00-1.03877E-14 5.46596E-14
 -1      3574 1.91947E+01 5.84475E-01-2.21650E-03-1.08603E+00 6.08335E-15-1.16606E-14
 -1      3575 1.92094E+01 6.18478E-01-9.76396E-03-9.60276E-01-1.94799E-14 7.33192E-16
 -1      3576 1.88199E+01 7.82374E-01 1.06742E-02-9.95017E-01 9.26125E-16 9.58576E-15
 -1      3577 1.93213E+01 6.19347E-01-2.77258E-03-8.55638E-01 6.55289E-15 3.04518E-14
 -1      3578 1.93539E+01 6.21374E-01-7.53086E-03-7.54777E-01 3.31334E-14 1.85508E-14
 -1      3579 1.90513E+01 7.73650E-01 9.17540E-03-7.59028E-01 4.30104E-14 6.15509E-14
 -1      3580 1.94501E+01 6.00184E-01-2.74206E-03-6.74927E-01 9.19249E-15 4.53352E-14
 -1      3581 1.94881E+01 5.82707E-01-5.77884E-03-5.93317E-01 1.53610E-14 5.36440E-14
 -1      3582 1.92524E+01 7.21896E-01 7.58255E-03-5.84259E-01 5.05131E-14 9.45085E-14
 -1      3583 1.95684E+01 5.49458E-01-2.46619E-03-5.31175E-01 2.55823E-14 7.95523E-14
 -1      3584 1.96051E+01 5.21384E-01-4.43766E-03-4.64662E-01 1.45213E-14 1.20612E-13
 -1      3585 1.94221E+01 6.46632E-01 6.15052E-03-4.51492E-01 6.54277E-14 2.14636E-13
 -1      3586 1.96707E+01 4.82891E-01-2.10755E-03-4.15675E-01 1.69417E-14 1.33271E-13
 -1      3587 1.97030E+01 4.50329E-01-3.41047E-03-3.61328E-01 1.11969E-13 9.98617E-14
 -1      3588 1.95619E+01 5.61077E-01 4.93038E-03-3.48588E-01 5.88278E-14 1.22965E-13
 -1      3589 1.97556E+01 4.11094E-01-1.74041E-03-3.22488E-01 1.67386E-13 4.78730E-14
 -1      3590 1.97824E+01 3.78028E-01-2.61640E-03-2.78199E-01 1.80986E-13-8.19019E-15
 -1      3591 1.96749E+01 4.74130E-01 3.91050E-03-2.67811E-01 1.24096E-13 2.62922E-14
 -1      3592 1.98238E+01 3.40858E-01-1.39883E-03-2.47413E-01 1.47316E-13-4.62635E-14
 -1      3593 1.98452E+01 3.09713E-01-1.99685E-03-2.11566E-01 8.60851E-14-5.04469E-14
 -1      3594 1.97643E+01 3.91520E-01 3.06591E-03-2.04050E-01 1.08371E-13-2.01906E-14
 -1      3595 1.98770E+01 2.76194E-01-1.09770E-03-1.87287E-01 7.39143E-14-5.83027E-14
 -1      3596 1.98934E+01 2.48291E-01-1.51095E-03-1.58563E-01-2.76938E-14 8.98776E-15
 -1      3597 1.98337E+01 3.16618E-01 2.37221E-03-1.53739E-01 8.62186E-14-1.11832E-13
 -1      3598 1.99176E+01 2.19154E-01-8.41959E-04-1.39576E-01-9.98608E-14 3.00511E-14
 -1      3599 1.99298E+01 1.95062E-01-1.12984E-03-1.16838E-01-1.67908E-13 1.22928E-13
 -1      3600 1.98865E+01 2.51081E-01 1.80807E-03-1.14240E-01-1.41346E-14-1.37381E-13
 -1      3601 1.99476E+01 1.70466E-01-6.31082E-04-1.02155E-01-1.66706E-13 1.76245E-13
 -1      3602 1.99564E+01 1.50265E-01-8.32290E-04-8.44030E-02-2.66556E-14 1.36071E-13
 -1      3603 1.99258E+01 1.95372E-01 1.35480E-03-8.34875E-02-5.72700E-14 4.83728E-14
 -1      3604 1.99693E+01 1.30011E-01-4.61576E-04-7.31964E-02 5.96844E-14 1.36574E-14
 -1      3605 1.99753E+01 1.13486E-01-6.01944E-04-5.95465E-02 6.20952E-14-4.48296E-14
 -1      3606 1.99544E+01 1.49167E-01 9.95661E-04-5.98087E-02-3.48671E-14-1.45869E-13
 -1      3607 1.99844E+01 9.71699E-02-3.28470E-04-5.11223E-02-4.25907E-14-7.17062E-14
 -1      3608 1.99884E+01 8.39441E-02-4.25679E-04-4.07984E-02-4.44917E-14-1.56875E-13
 -1      3609 1.99746E+01 1.11673E-01 7.15480E-04-4.18156E-02-5.43010E-14-2.37287E-13
 -1      3610 1.99946E+01 7.10635E-02-2.26275E-04-3.45741E-02 3.67249E-14-2.01862E-13
 -1      3611 1.99971E+01 6.06914E-02-2.92696E-04-2.69066E-02 1.60147E-13-2.71785E-13
 -1      3612 1.99885E+01 8.18533E-02 5.00547E-04-2.83498E-02-9.53327E-15-3.11625E-13
 -1      3613 2.00011E+01 5.07187E-02-1.49575E-04-2.23980E-02 2.08786E-13-3.14729E-13
 -1      3614 2.00025E+01 4.27428E-02-1.94021E-04-1.68186E-02 2.39228E-13-3.80378E-13
 -1      3615 1.99976E+01 5.85890E-02 3.38654E-04-1.84468E-02 1.08019E-13-3.52711E-13
 -1      3616 2.00050E+01 3.51701E-02-9.33739E-05-1.36284E-02 1.75378E-13-3.69594E-13
 -1      3617 2.00056E+01 2.91571E-02-1.22208E-04-9.66315E-03 1.57986E-14-3.76472E-13
 -1      3618 2.00033E+01 4.07809E-02 2.19135E-04-1.13105E-02 1.43056E-13-5.45444E-13
 -1      3619 2.00070E+01 2.35219E-02-5.32751E-05-7.46974E-03-5.26638E-14-2.97200E-13
 -1      3620 2.00072E+01 1.90823E-02-7.11234E-05-4.73097E-03-9.42859E-14-3.10077E-13
 -1      3621 2.00065E+01 2.74132E-02 1.32875E-04-6.29079E-03 2.96702E-14-3.18710E-13
 -1      3622 2.00078E+01 1.49796E-02-2.55468E-05-3.27776E-03-3.31704E-14-2.33820E-13
 -1      3623 2.00076E+01 1.17761E-02-3.57810E-05-1.45371E-03 4.04907E-14-1.94861E-13
 -1      3624 2.00080E+01 1.75858E-02 7.22446E-05-2.86439E-03 3.32544E-14-3.46034E-13
 -1      3625 2.00077E+01 8.86252E-03-7.11234E-06-5.39266E-04 1.56479E-14-1.91828E-13
 -1      3626 2.00074E+01 6.61130E-03-1.21826E-05 6.16421E-04-5.59852E-14-1.80207E-13
 -1      3627 2.00084E+01 1.05272E-02 3.09919E-05-6.15853E-04 2.30225E-14-3.65590E-13
 -1      3628 2.00072E+01 4.60273E-03 4.50134E-06 1.14773E-03-2.25337E-13-9.53957E-14
 -1      3629 2.00068E+01 3.07108E-03 2.82710E-06 1.82634E-03-2.36309E-13-2.03775E-13
 -1      3630 2.00081E+01 5.59322E-03 4.09393E-06 7.79591E-04-1.30756E-13-4.05037E-13
 -1      3631 2.00064E+01 1.73772E-03 1.12366E-05 2.09274E-03-1.86137E-13-1.49059E-13
 -1      3632 2.00059E+01 7.38763E-04 1.16974E-05 2.44016E-03-1.74926E-13-4.97508E-14
 -1      3633 2.00074E+01 2.25824E-03-1.24067E-05 1.57181E-03-1.18737E-13-8.64079E-14
 -1      3634 2.00055E+01-1.01523E-04 1.45860E-05 2.52983E-03-1.39286E-13 8.39385E-14
 -1      3635 2.00050E+01-7.14871E-04 1.62969E-05 2.65529E-03 1.15060E-14 2.73570E-13
 -1      3636 2.00064E+01 1.02263E-04-2.15692E-05 1.94982E-03 1.02867E-14 8.47586E-14
 -1      3637 2.00046E+01-1.20371E-03 1.56718E-05 2.63269E-03 6.03681E-14 2.53817E-13
 -1      3638 2.00042E+01-1.54502E-03 1.80255E-05 2.61628E-03 1.50152E-13 1.72398E-13
 -1      3639 2.00055E+01-1.20395E-03-2.57125E-05 2.05398E-03 1.87029E-13 1.90362E-13
 -1      3640 2.00037E+01-1.79049E-03 1.53188E-05 2.52748E-03 9.56515E-14 2.56846E-13
 -1      3641 2.00034E+01-1.94579E-03 1.79103E-05 2.42660E-03 1.19831E-13 1.95321E-13
 -1      3642 2.00045E+01-1.91370E-03-2.65594E-05 1.98643E-03 1.43721E-13 7.09345E-14
 -1      3643 2.00029E+01-2.02876E-03 1.41184E-05 2.30360E-03 1.02447E-13-1.06832E-14
 -1      3644 2.00026E+01-2.06198E-03 1.66886E-05 2.15829E-03-5.01239E-14-8.25433E-14
 -1      3645 2.00036E+01-2.21817E-03-2.53613E-05 1.81972E-03-1.01927E-14-1.40451E-13
 -1      3646 2.00023E+01-2.04174E-03 1.24822E-05 2.02259E-03-2.14461E-14-2.70846E-14
 -1      3647 2.00020E+01-1.99935E-03 1.48758E-05 1.85985E-03 1.85618E-13-7.32633E-14
 -1      3648 2.00028E+01-2.25888E-03-2.30044E-05 1.60396E-03 8.49631E-15-1.11593E-13
 -1      3649 2.00017E+01-1.91843E-03 1.06861E-05 1.72520E-03 1.89076E-13-3.44120E-14
 -1      3650 2.00015E+01-1.83347E-03 1.28176E-05 1.56241E-03 1.38809E-13-3.63300E-14
 -1      3651 2.00022E+01-2.13831E-03-2.00944E-05 1.37250E-03 1.38028E-13-1.09257E-13
 -1      3652 2.00012E+01-1.72162E-03 8.89429E-06 1.43704E-03 2.33923E-13-1.37988E-13
 -1      3653 2.00011E+01-1.61693E-03 1.07244E-05 1.28472E-03 2.37838E-13-7.98218E-14
 -1      3654 2.00016E+01-1.92895E-03-1.70140E-05 1.14644E-03 1.80045E-13-2.17173E-13
 -1      3655 2.00009E+01-1.49450E-03 7.09883E-06 1.17261E-03 2.96399E-13-6.55859E-14
 -1      3656 2.00007E+01-1.38518E-03 8.55260E-06 1.03638E-03 3.64387E-13 2.45315E-14
 -1      3657 2.00012E+01-1.68069E-03-1.39316E-05 9.37869E-04 3.14148E-13-1.81031E-13
 -1      3658 2.00006E+01-1.26820E-03 4.07997E-06 9.38178E-04 2.63194E-13-2.08770E-13
 -1      3659 2.00005E+01-1.16515E-03 2.28408E-06 8.25389E-04 3.36365E-13-1.74330E-13
 -1      3660 2.00008E+01-1.42617E-03-1.05161E-05 7.53218E-04 1.71755E-13-4.64323E-13
 -1      3661 2.00004E+01-1.06912E-03 7.27868E-07 7.23589E-04 2.09742E-13-3.21350E-13
 -1      3662 1.93946E+01 6.93179E-01-4.22059E-03 7.68111E-01-3.09933E-14-5.49167E-14
 -1      3663 1.93420E+01 7.25872E-01 2.16591E-03 8.60943E-01 3.67178E-14-1.35473E-14
 -1      3664 1.87955E+01 6.56892E-01-7.94594E-03 1.54380E+00-8.34714E-14-2.24538E-14
 -1      3665 1.87952E+01 5.71681E-01 1.20694E-02 1.73598E+00-1.01808E-13-5.49322E-14
 -1      3666 1.84985E+01 8.47671E-01 5.96938E-03 1.36992E+00-8.56609E-14-4.41956E-14
 -1      3667 1.95446E+01 6.15840E-01-3.35658E-03 6.12335E-01-4.76782E-14-5.18484E-14
 -1      3668 1.94985E+01 6.58238E-01 1.31544E-03 6.88596E-01-2.99199E-14-4.11761E-14
 -1      3669 1.92948E+01 7.51930E-01 3.41708E-03 6.61586E-01-2.85606E-14-2.72858E-15
 -1      3670 1.96651E+01 5.28888E-01-2.69540E-03 4.85132E-01-2.17325E-14-1.15269E-13
 -1      3671 1.96274E+01 5.74108E-01 8.87733E-04 5.48357E-01-4.58984E-14-1.26391E-13
 -1      3672 1.94718E+01 6.57581E-01 2.81525E-03 5.26138E-01-2.96468E-14-5.20423E-14
 -1      3673 1.97594E+01 4.42246E-01-2.17187E-03 3.80580E-01 1.65891E-13-1.64839E-13
 -1      3674 1.97301E+01 4.86100E-01 6.76786E-04 4.32982E-01 4.11998E-14-1.35176E-13
 -1      3675 1.96115E+01 5.59220E-01 2.26009E-03 4.16351E-01 3.59003E-14-1.42358E-13
 -1      3676 1.98315E+01 3.61629E-01-1.74587E-03 2.94841E-01 8.71759E-14 2.15837E-14
 -1      3677 1.98095E+01 4.01765E-01 5.66738E-04 3.37971E-01 1.59239E-13-3.36772E-14
 -1      3678 1.97200E+01 4.64628E-01 1.77774E-03 3.26449E-01 7.24559E-14-5.68464E-14
 -1      3679 1.98855E+01 2.89943E-01-1.39392E-03 2.25096E-01 1.84575E-14 8.57800E-14
 -1      3680 1.98696E+01 3.25236E-01 4.97765E-04 2.60204E-01 9.61057E-14 9.84233E-14
 -1      3681 1.98028E+01 3.78261E-01 1.37338E-03 2.52837E-01 6.97350E-14 1.34390E-13
 -1      3682 1.99252E+01 2.28281E-01-1.10195E-03 1.69024E-01 3.51058E-14 2.10410E-14
 -1      3683 1.99141E+01 2.58389E-01 4.42201E-04 1.97217E-01 2.61267E-14 4.30846E-15
 -1      3684 1.98650E+01 3.02292E-01 1.04300E-03 1.92983E-01 6.07342E-14 1.61064E-13
 -1      3685 1.99537E+01 1.76612E-01-8.60644E-04 1.24566E-01 2.05402E-14-1.08296E-13
 -1      3686 1.99462E+01 2.01676E-01 3.89420E-04 1.46871E-01 6.06521E-15-3.28500E-14
 -1      3687 1.99108E+01 2.37379E-01 7.78633E-04 1.44856E-01 5.24931E-14 3.86836E-14
 -1      3688 1.99737E+01 1.34257E-01-6.62969E-04 8.98524E-02-6.24430E-15-1.32772E-13
 -1      3689 1.99689E+01 1.54690E-01 3.36945E-04 1.07220E-01 5.75445E-14-1.44625E-13
 -1      3690 1.99439E+01 1.83223E-01 5.70883E-04 1.06690E-01 2.49970E-14-1.10613E-13
 -1      3691 1.99874E+01 1.00206E-01-5.02937E-04 6.31902E-02-3.12811E-14-1.24088E-13
 -1      3692 1.99844E+01 1.16551E-01 2.85586E-04 7.64874E-02-7.69435E-14-1.42157E-13
 -1      3693 1.99673E+01 1.38967E-01 4.10317E-04 7.68842E-02-3.32937E-14-1.42403E-14
 -1      3694 1.99964E+01 7.33171E-02-3.75118E-04 4.30708E-02-7.77538E-14 7.18950E-14
 -1      3695 1.99947E+01 8.61638E-02 2.37023E-04 5.30706E-02-2.85556E-14-9.20259E-15
 -1      3696 1.99834E+01 1.03475E-01 2.88192E-04 5.39929E-02-1.62786E-13-5.22055E-15
 -1      3697 2.00019E+01 5.24502E-02-2.74507E-04 2.81781E-02-6.13612E-14 1.97765E-13
 -1      3698 2.00012E+01 6.23740E-02 1.92737E-04 3.55526E-02-4.87489E-14 1.21174E-13
 -1      3699 1.99942E+01 7.55084E-02 1.96800E-04 3.67244E-02-1.11092E-13 4.91044E-14
 -1      3700 2.00052E+01 3.65360E-02-1.96522E-04 1.73893E-02 9.27334E-14 3.14820E-13
 -1      3701 2.00050E+01 4.40688E-02 1.53666E-04 2.27098E-02 1.69707E-14 2.61094E-13
 -1      3702 2.00009E+01 5.38499E-02 1.29575E-04 2.39502E-02-4.77632E-14 2.28050E-13
 -1      3703 2.00067E+01 2.46172E-02-1.37054E-04 9.76645E-03 1.27865E-14 4.20228E-13
 -1      3704 2.00070E+01 3.02304E-02 1.20184E-04 1.35080E-02 2.69763E-14 3.26059E-13
 -1      3705 2.00049E+01 3.73667E-02 8.10639E-05 1.47055E-02 8.65877E-15 1.87515E-13
 -1      3706 2.00072E+01 1.58640E-02-9.24925E-05 4.54163E-03-3.71496E-14 4.64729E-13
 -1      3707 2.00077E+01 1.99634E-02 9.22162E-05 7.09144E-03-2.84991E-14 4.54341E-13
 -1      3708 2.00070E+01 2.50499E-02 4.68261E-05 8.18316E-03-1.03441E-13 2.23344E-13
 -1      3709 2.00071E+01 9.57604E-03-5.97367E-05 1.09815E-03 1.61648E-13 4.19181E-13
 -1      3710 2.00076E+01 1.25019E-02 6.93823E-05 2.76601E-03 1.83251E-13 4.90519E-13
 -1      3711 2.00078E+01 1.60279E-02 2.33084E-05 3.72211E-03 6.78575E-14 2.42395E-13
 -1      3712 2.00065E+01 5.17463E-03-3.61776E-05-1.05013E-03 2.30293E-14 4.23857E-13
 -1      3713 2.00070E+01 7.20658E-03 5.11256E-05-2.09361E-05 5.45341E-14 4.24197E-13
 -1      3714 2.00078E+01 9.56655E-03 7.70958E-06 7.91058E-04 8.27320E-14 2.03264E-13
 -1      3715 2.00057E+01 2.19127E-03-1.96626E-05-2.27954E-03 5.62533E-14 2.55289E-13
 -1      3716 2.00062E+01 3.55468E-03 3.68134E-05-1.70138E-03 1.06180E-13 4.25281E-13
 -1      3717 2.00072E+01 5.06077E-03-2.14724E-06-1.02883E-03 6.43009E-14 2.16996E-13
 -1      3718 2.00049E+01 2.53299E-04-8.44743E-06-2.87602E-03 1.86385E-13 1.20785E-13
 -1      3719 2.00053E+01 1.12657E-03 2.58070E-05-2.60684E-03 6.72259E-14 1.94271E-13
 -1      3720 2.00064E+01 2.02155E-03-7.92926E-06-2.06165E-03 1.74623E-13 9.36592E-14
 -1      3721 2.00040E+01-9.30520E-04-1.14413E-06-3.05266E-03 2.00790E-13 2.37459E-13
 -1      3722 2.00044E+01-4.08607E-04 1.75056E-05-2.98697E-03 2.27241E-13 2.05030E-13
 -1      3723 2.00055E+01 6.07075E-05-1.08944E-05-2.55351E-03 1.49903E-13 3.86454E-14
 -1      3724 2.00033E+01-1.58391E-03 3.33332E-06-2.96492E-03 1.20562E-13 3.94410E-13
 -1      3725 2.00036E+01-1.30724E-03 1.13709E-05-3.02607E-03 1.35997E-13 2.93539E-13
 -1      3726 2.00046E+01-1.12456E-03-1.19764E-05-2.68763E-03 8.09407E-14 2.35286E-13
 -1      3727 2.00026E+01-1.87568E-03 5.81991E-06-2.72350E-03 1.69341E-13 2.37945E-13
 -1      3728 2.00029E+01-1.76457E-03 6.93805E-06-2.85715E-03 3.11679E-13 3.71006E-13
 -1      3729 2.00037E+01-1.76634E-03-1.18561E-05-2.59751E-03 1.77603E-13 4.82908E-14
 -1      3730 2.00020E+01-1.93086E-03 6.94626E-06-2.40504E-03-7.05043E-14-6.23001E-14
 -1      3731 2.00022E+01-1.92661E-03 3.81705E-06-2.57376E-03 5.12856E-14 1.73690E-13
 -1      3732 2.00030E+01-2.03940E-03-1.10193E-05-2.37807E-03 2.32690E-13-9.17361E-14
 -1      3733 2.00015E+01-1.84013E-03 7.17981E-06-2.06063E-03-2.13717E-13-1.27139E-13
 -1      3734 2.00017E+01-1.90042E-03 1.68866E-06-2.23965E-03-2.55859E-13-1.59662E-13
 -1      3735 2.00023E+01-2.07280E-03-9.80421E-06-2.09484E-03-8.16128E-14-1.84105E-13
 -1      3736 2.00011E+01-1.66778E-03 6.86190E-06-1.72270E-03-9.67409E-14 2.52870E-14
 -1      3737 2.00012E+01-1.76282E-03 2.96526E-07-1.89645E-03-1.79322E-13-7.47774E-14
 -1      3738 2.00017E+01-1.95995E-03-8.43815E-06-1.79141E-03-1.46123E-13-3.77766E-14
 -1      3739 2.00007E+01-1.45820E-03 6.22919E-06-1.41036E-03 2.23370E-13-2.26829E-13
 -1      3740 2.00008E+01-1.56756E-03-5.66542E-07-1.56983E-03 1.73895E-13-9.14528E-14
 -1      3741 2.00013E+01-1.76676E-03-7.06374E-06-1.49530E-03 1.02772E-13-1.80665E-13
 -1      3742 2.00005E+01-1.24099E-03 5.44034E-06-1.13337E-03 1.09320E-13-2.46206E-13
 -1      3743 2.00006E+01-1.35124E-03-1.05549E-06-1.27409E-03 1.66823E-13-1.00138E-13
 -1      3744 2.00009E+01-1.53857E-03-5.75955E-06-1.22264E-03 1.58926E-13-2.82438E-13
 -1      3745 2.00003E+01-1.03632E-03 4.07150E-06-8.95601E-04-2.10693E-14-4.22954E-13
 -1      3746 2.00003E+01-1.13848E-03-1.47097E-06-1.01558E-03-7.02442E-15-3.59309E-13
 -1      3747 2.00006E+01-1.30536E-03-4.33842E-06-9.81792E-04 1.07755E-13-3.78301E-13
 -1      3748 2.00001E+01-8.87320E-04 1.82398E-06-7.12503E-04 1.30032E-13-6.07562E-13
 -1      3749 2.00002E+01-9.74184E-04-2.10363E-06-8.12266E-04 6.19848E-14-4.34498E-13
 -1      3750 2.00004E+01-1.11779E-03-2.36600E-06-7.87432E-04 1.15038E-13-2.95338E-13
 -1      3751 2.00003E+01-9.78073E-04-7.90771E-07-6.35418E-04 1.64769E-13-3.14892E-13
 -1      3752 2.00000E+01-7.75093E-04 9.81890E-07 6.20106E-04-1.11356E-14-1.89096E-14
 -1      3753 2.00001E+01-8.84873E-04-4.66439E-07 6.56680E-04 3.14692E-14-2.35831E-13
 -1      3754 2.00004E+01-1.09271E-03-1.34396E-06 6.20705E-04 1.60650E-13-4.95717E-13
 -1      3755 1.95566E+01-6.57862E-01 9.35612E-04 2.86278E+00-2.23889E-13-1.08998E-13
 -1      3756 1.27603E+01 1.44681E+00 2.99776E-03 1.24415E+00-2.17045E-13 5.80848E-13
 -1      3757 1.21971E+01 1.77035E+00 1.19710E-01-1.29625E-01-1.09982E-13 7.35287E-13
 -1      3758 2.00003E+01-9.74070E-04 4.09770E-07-4.68431E-04 8.33162E-15-3.32147E-13
 -1      3759 1.92141E+01 7.44837E-01-5.37247E-03 9.62363E-01 5.61705E-14-1.37093E-14
 -1      3760 1.91616E+01 7.57098E-01 3.85612E-03 1.07762E+00 3.47732E-14 2.48305E-14
 -1      3761 1.90750E+01 8.29712E-01 3.99467E-03 8.32709E-01 2.43941E-14 1.99643E-14
 -1      3762 1.87516E+01-4.20036E-01 2.21382E-02 3.01788E+00-2.17098E-13 2.51570E-14
 -1      3763 1.75662E+01-1.57239E-01 3.03667E-02 3.33760E+00-2.79042E-13 1.20386E-13
 -1      3764 1.85429E+01 1.05337E-02-2.61271E-02 2.53888E+00-2.20549E-13 3.12944E-15
 -1      3765 1.31148E+01 1.51210E+00 5.84597E-02-9.43213E-01 1.36991E-14 5.40484E-13
 -1      3766 2.00006E+01-1.17389E-03 2.93273E-06-2.18137E-04 9.59561E-14 9.82010E-14
 -1      3767 2.00005E+01-1.14403E-03 1.73544E-06-3.39174E-04 3.42100E-14-1.28311E-13
 -1      3768 1.67803E+01 4.02509E-01 3.93363E-02 2.89116E+00-2.37730E-13 1.70732E-13
 -1      3769 1.74620E+01-5.97256E-02 3.04400E-02-3.09162E+00 1.99825E-13-4.38191E-15
 -1      3770 1.88080E+01 8.71667E-01 4.41775E-03 1.05736E+00 1.97482E-14 2.60444E-14
 -1      3771 2.00005E+01-1.15367E-03 1.64152E-06 5.14187E-04 2.11615E-13-2.76759E-13
 -1      3772 2.00004E+01-1.04071E-03-1.62058E-07-5.33296E-04 1.38116E-13-3.55452E-13
 -1      3773 1.86381E+01 4.29278E-01-1.30190E-02 1.96619E+00-1.30381E-13-6.22285E-14
 -1      3774 1.87299E+01 2.58999E-01 1.95221E-02 2.21866E+00-2.05106E-13-8.13678E-14
 -1      3775 1.79541E+01 4.81362E-01 2.66631E-02 2.33452E+00-1.54901E-13 7.99080E-14
 -1      3776 1.81995E+01 7.33267E-01 1.45012E-02 1.78843E+00-1.26105E-13-3.58134E-14
 -1      3777 1.49321E+01 5.33223E-01 5.35617E-02-3.19941E+00 1.80085E-13 1.97734E-13
 -1      3778 1.62662E+01 3.00782E-01 2.62938E-02-3.06664E+00 2.09764E-13 5.54522E-14
 -1      3779 1.43725E+01 8.89187E-01-9.79031E-03-2.51558E+00 1.33782E-13 3.32016E-13
 -1      3780 1.39433E+01 1.32928E+00 8.91960E-02 1.96605E+00-2.83153E-13 4.34246E-13
 -1      3781 1.40685E+01 1.46525E+00 3.40649E-03 1.03170E+00-1.65878E-13 4.50733E-13
 -1      3782 1.50939E+01 8.93309E-01-1.32740E-02 2.43281E+00-2.91554E-13 2.56139E-13
 -1      3783 2.00006E+01-1.19181E-03 2.59822E-06 6.78812E-05 9.06121E-14-2.27586E-13
 -1      3784 2.00006E+01-1.19686E-03 5.78095E-07-6.26831E-05 1.02190E-13 9.86159E-14
 -1      3785 2.00007E+01-1.29088E-03-9.37772E-07-1.55322E-04 4.12314E-14 7.42721E-14
 -1      3786 1.63004E+01 7.24594E-01-2.07614E-02 2.29036E+00-1.94823E-13 2.09813E-13
 -1      3787 1.39617E+01 1.54190E+00-1.34398E-02-3.80107E-01-2.00799E-14 3.95250E-13
 -1      3788 1.39983E+01 1.42117E+00 5.59539E-02-1.60328E+00 1.11589E-13 4.31308E-13
 -1      3789 1.52314E+01 1.12546E+00 3.17181E-02-1.84311E+00 1.19805E-13 3.09697E-13
 -1      3790 1.77644E+01 7.15975E-01 1.25381E-02-1.70392E+00 4.24479E-14 1.07094E-13
 -1      3791 1.78555E+01 7.86034E-01-1.88122E-02-1.45444E+00 1.90408E-14 5.04198E-14
 -1      3792 1.81733E+01 8.46163E-01 7.02637E-03-1.23457E+00 3.61330E-14 6.73633E-14
 -1      3793 1.82820E+01 8.63940E-01-1.37258E-02-1.06241E+00 2.95896E-14 1.09225E-13
 -1      3794 1.76744E+01 1.02323E+00 1.28618E-02-1.16113E+00 5.16742E-14 7.67849E-14
 -1      3795 1.85290E+01 8.78215E-01 3.40057E-03-9.12842E-01 1.11544E-14 1.53891E-13
 -1      3796 1.86385E+01 8.65538E-01-9.73787E-03-7.90379E-01 4.44860E-14 1.64794E-13
 -1      3797 1.81809E+01 1.01578E+00 9.09661E-03-8.31809E-01 7.82376E-14 1.52862E-13
 -1      3798 1.88322E+01 8.50563E-01 1.56563E-03-6.86103E-01 4.44781E-14 1.64038E-13
 -1      3799 1.89328E+01 8.18943E-01-6.94279E-03-5.96652E-01 3.71378E-14 1.79666E-13
 -1      3800 1.85825E+01 9.61557E-01 6.85635E-03-6.07844E-01 3.87255E-14 2.43815E-13
 -1      3801 1.90856E+01 7.86428E-01 6.01802E-04-5.21953E-01 7.93606E-14 1.37013E-13
 -1      3802 1.91734E+01 7.44044E-01-5.03925E-03-4.54711E-01 1.04783E-13 1.80638E-13
 -1      3803 1.89022E+01 8.78674E-01 5.24586E-03-4.51757E-01 3.66375E-14 2.05411E-13
 -1      3804 1.92944E+01 7.02031E-01 1.23220E-04-3.99763E-01 6.61684E-14 1.52274E-13
 -1      3805 1.93686E+01 6.54713E-01-3.73622E-03-3.47960E-01 5.41177E-14 1.74604E-13
 -1      3806 1.91576E+01 7.80373E-01 4.08841E-03-3.39419E-01 7.49009E-14 1.98862E-13
 -1      3807 1.94643E+01 6.08892E-01-1.03795E-04-3.06721E-01 3.80320E-14 1.68951E-13
 -1      3808 1.95254E+01 5.60861E-01-2.81908E-03-2.66110E-01 6.15662E-14 1.30567E-13
 -1      3809 1.93613E+01 6.75994E-01 3.22169E-03-2.56426E-01 1.42503E-14 1.51340E-13
 -1      3810 1.96006E+01 5.15183E-01-1.94525E-04-2.34731E-01 5.08220E-14 9.89666E-14
 -1      3811 1.96497E+01 4.69334E-01-2.15133E-03-2.02582E-01 1.45867E-13 7.68003E-14
 -1      3812 1.95229E+01 5.72560E-01 2.54728E-03-1.93895E-01 4.01217E-15 1.36578E-13
 -1      3813 1.97083E+01 4.26378E-01-2.12601E-04-1.78523E-01 1.83012E-13 2.29679E-14
 -1      3814 1.97470E+01 3.84521E-01-1.64981E-03-1.52997E-01 1.40489E-13 3.08047E-14
 -1      3815 1.96499E+01 4.75031E-01 2.00856E-03-1.46150E-01 1.10082E-13 3.20938E-14
 -1      3816 1.97920E+01 3.45805E-01-1.94651E-04-1.34509E-01 9.03822E-14 1.15494E-13
 -1      3817 1.98218E+01 3.08900E-01-1.26417E-03-1.14292E-01 5.87385E-14 2.30311E-14
 -1      3818 1.97485E+01 3.86557E-01 1.57201E-03-1.09432E-01 1.07487E-13 1.12560E-13
 -1      3819 1.98559E+01 2.75147E-01-1.61654E-04-1.00118E-01 6.91617E-15-4.11250E-14
 -1      3820 1.98784E+01 2.43529E-01-9.63321E-04-8.42109E-02-1.21591E-14 2.47403E-14
 -1      3821 1.98239E+01 3.08798E-01 1.21679E-03-8.11392E-02-5.86032E-16 2.21836E-13
 -1      3822 1.99039E+01 2.14903E-01-1.25203E-04-7.34083E-02-5.05536E-14-4.52232E-14
 -1      3823 1.99204E+01 1.88473E-01-7.27213E-04-6.10111E-02-7.26061E-14-6.05590E-14
 -1      3824 1.98806E+01 2.42267E-01 9.28844E-04-5.93921E-02-2.80589E-14 9.35013E-14
 -1      3825 1.99390E+01 1.64766E-01-9.12532E-05-5.28526E-02-4.11568E-14-1.29250E-13
 -1      3826 1.99509E+01 1.43149E-01-5.42067E-04-4.33042E-02 1.97625E-14-1.38048E-13
 -1      3827 1.99225E+01 1.86667E-01 6.97528E-04-4.27766E-02-1.08579E-13-7.84253E-14
 -1      3828 1.99642E+01 1.23929E-01-6.24337E-05-3.72148E-02 2.37036E-14-1.67989E-13
 -1      3829 1.99725E+01 1.06602E-01-3.97742E-04-2.99610E-02-5.32043E-14-1.48788E-13
 -1      3830 1.99527E+01 1.41177E-01 5.14022E-04-3.01949E-02-9.94181E-15-7.68543E-14
 -1      3831 1.99817E+01 9.13250E-02-3.94845E-05-2.54811E-02-1.40696E-13-1.68554E-13
 -1      3832 1.99873E+01 7.76984E-02-2.86312E-04-2.00561E-02-1.04438E-13-2.15526E-13
 -1      3833 1.99740E+01 1.04684E-01 3.70584E-04-2.07771E-02-1.29859E-13-5.70705E-14
 -1      3834 1.99935E+01 6.57829E-02-2.21403E-05-1.68173E-02-1.79079E-14-2.48445E-13
 -1      3835 1.99970E+01 5.52647E-02-2.01342E-04-1.28318E-02 1.43723E-13-3.94475E-13
 -1      3836 1.99885E+01 7.59520E-02 2.60296E-04-1.38263E-02-1.22473E-13 4.32963E-14
 -1      3837 2.00010E+01 4.61447E-02-9.66473E-06-1.05393E-02 2.15827E-13-5.03024E-13
 -1      3838 2.00031E+01 3.81783E-02-1.37498E-04-7.67121E-03 1.96441E-13-4.28511E-13
 -1      3839 1.99980E+01 5.37441E-02 1.77009E-04-8.78259E-03 6.93877E-14-3.04789E-13
 -1      3840 2.00054E+01 3.13318E-02-1.16165E-06-6.09068E-03 1.37052E-13-2.54056E-13
 -1      3841 2.00066E+01 2.54173E-02-9.03406E-05-4.07691E-03 1.03084E-13-2.21197E-13
 -1      3842 2.00039E+01 3.68973E-02 1.15345E-04-5.19676E-03 2.02537E-13-4.39239E-13
 -1      3843 2.00078E+01 2.03831E-02 4.25353E-06-3.02386E-03 3.21747E-16-1.75949E-13
 -1      3844 2.00082E+01 1.60866E-02-5.61920E-05-1.65258E-03 3.50748E-14-2.09966E-13
 -1      3845 2.00071E+01 2.43664E-02 7.06926E-05-2.71110E-03 9.31561E-14-2.40450E-13
 -1      3846 2.00087E+01 1.24694E-02 7.36906E-06-9.83333E-04-2.01890E-14-2.34308E-13
 -1      3847 2.00087E+01 9.42533E-03-3.20376E-05-8.64573E-05-4.58521E-14-3.29597E-13
 -1      3848 2.00086E+01 1.52439E-02 3.91840E-05-1.04320E-03-5.62927E-14-1.03199E-14
 -1      3849 2.00087E+01 6.89556E-03 8.84341E-06 3.09408E-04-1.50513E-14-3.99011E-13
 -1      3850 2.00084E+01 4.80251E-03-1.54380E-05 8.63188E-04-1.38995E-14-1.69763E-13
 -1      3851 2.00090E+01 8.76330E-03 1.76401E-05 2.74338E-05-3.92652E-14-4.96584E-14
 -1      3852 2.00081E+01 3.09130E-03 9.20102E-06 1.06933E-03-9.47895E-15-2.08595E-13
 -1      3853 2.00077E+01 1.70642E-03-4.44782E-06 1.38095E-03-3.96991E-14-1.02725E-13
 -1      3854 2.00086E+01 4.29254E-03 3.49979E-06 6.70756E-04 1.64350E-14-3.79608E-14
 -1      3855 2.00072E+01 5.98941E-04 8.84329E-06 1.45973E-03-1.91087E-14 2.16454E-14
 -1      3856 2.00067E+01-2.69806E-04 2.46008E-06 1.60545E-03 1.25375E-13 1.58555E-14
 -1      3857 2.00078E+01 1.32121E-03-5.25990E-06 1.01593E-03 4.77171E-14-1.54481E-13
 -1      3858 2.00062E+01-9.41982E-04 8.06631E-06 1.60250E-03 2.41773E-13 5.89953E-14
 -1      3859 2.00057E+01-1.44361E-03 6.46551E-06 1.63890E-03 3.31120E-13 1.32693E-13
 -1      3860 2.00068E+01-5.54895E-04-1.02071E-05 1.15956E-03 2.39078E-13-5.62632E-14
 -1      3861 2.00052E+01-1.81006E-03 7.08036E-06 1.58692E-03 2.72683E-13-5.98380E-14
 -1      3862 2.00047E+01-2.05807E-03 8.46428E-06 1.55509E-03 9.55297E-14-3.57659E-14
 -1      3863 2.00058E+01-1.64994E-03-1.25341E-05 1.17263E-03 2.29663E-13-1.25665E-14
 -1      3864 2.00042E+01-2.21664E-03 6.02836E-06 1.47692E-03-1.66122E-14-1.28375E-13
 -1      3865 2.00038E+01-2.29583E-03 9.12407E-06 1.40599E-03 1.87106E-14-8.73590E-14
 -1      3866 2.00047E+01-2.20363E-03-1.31294E-05 1.10621E-03 3.73588E-14-1.99519E-13
 -1      3867 2.00033E+01-2.31894E-03 5.00205E-06 1.31706E-03 6.36930E-15 2.28257E-14
 -1      3868 2.00030E+01-2.29138E-03 8.93247E-06 1.22712E-03 1.44505E-13 3.45523E-14
 -1      3869 2.00038E+01-2.39543E-03-1.26410E-05 9.96146E-04 2.90587E-14 1.06520E-13
 -1      3870 2.00026E+01-2.23153E-03 4.05583E-06 1.13741E-03 1.25697E-13-7.32382E-14
 -1      3871 2.00023E+01-2.14164E-03 8.24402E-06 1.04176E-03 1.47988E-13-6.05734E-14
 -1      3872 2.00030E+01-2.35698E-03-1.15291E-05 8.66825E-04 2.73120E-14 1.30229E-13
 -1      3873 2.00020E+01-2.03598E-03 3.21701E-06 9.57375E-04 1.88522E-13-1.84603E-13
 -1      3874 2.00017E+01-1.91458E-03 7.37467E-06 8.64333E-04 2.39189E-13-1.86293E-13
 -1      3875 2.00023E+01-2.18266E-03-1.00895E-05 7.34194E-04 1.65151E-13-1.32940E-13
 -1      3876 2.00014E+01-1.78955E-03 2.33967E-06 7.89024E-04 1.81696E-13-2.19496E-13
 -1      3877 2.00012E+01-1.65794E-03 6.17628E-06 7.02736E-04 1.79228E-13-3.47271E-13
 -1      3878 2.00017E+01-1.93796E-03-8.23761E-06 6.08665E-04 1.60889E-13-1.15988E-13
 -1      3879 2.00010E+01-1.52951E-03 1.55927E-06 6.37539E-04 2.08134E-13-4.10827E-13
 -1      3880 2.00008E+01-1.40007E-03 5.70320E-06 5.61553E-04 1.56171E-13-3.69128E-13
 -1      3881 2.00012E+01-1.66775E-03-5.70117E-06 4.96416E-04 8.19266E-14-2.80219E-13
 -1      3882 1.82114E+01 9.88475E-01-1.22206E-02 1.07444E+00-6.08896E-14 4.36669E-14
 -1      3883 1.80314E+01 9.76976E-01-4.49689E-03 1.25421E+00-1.08938E-13 3.90266E-14
 -1      3884 1.94056E+01 6.69834E-01-3.20413E-03 4.17226E-01 2.20913E-14-6.48638E-15
 -1      3885 1.93280E+01 7.24404E-01-1.33141E-04 4.72834E-01 2.35168E-14 5.40099E-14
 -1      3886 1.95624E+01 5.64795E-01-2.49396E-03 3.30375E-01 6.33603E-14-9.86561E-14
 -1      3887 1.95017E+01 6.17667E-01-1.57100E-04 3.76044E-01 3.35073E-14-3.13496E-14
 -1      3888 1.93828E+01 6.89550E-01 3.38094E-03 3.25062E-01 5.75636E-14 2.35835E-14
 -1      3889 1.96834E+01 4.66434E-01-1.96966E-03 2.59019E-01-3.67214E-14 6.24032E-15
 -1      3890 1.96367E+01 5.15228E-01-1.10993E-04 2.96704E-01-2.12385E-14-1.21016E-13
 -1      3891 1.95460E+01 5.77577E-01 2.61795E-03 2.58115E-01 1.77331E-15-5.99183E-14
 -1      3892 1.97756E+01 3.77992E-01-1.56318E-03 2.00453E-01 8.05163E-14 9.40563E-14
 -1      3893 1.97405E+01 4.21412E-01-4.67174E-05 2.31419E-01 3.55772E-14 4.09921E-14
 -1      3894 1.96716E+01 4.74765E-01 2.02040E-03 2.02827E-01-7.30081E-15 3.64436E-14
 -1      3895 1.98450E+01 3.00936E-01-1.23770E-03 1.52768E-01 9.28117E-14 8.85094E-14
 -1      3896 1.98190E+01 3.38467E-01 1.10404E-05 1.77963E-01 1.06144E-13 1.91839E-13
 -1      3897 1.97674E+01 3.83388E-01 1.54852E-03 1.57234E-01 4.40855E-14 4.47457E-14
 -1      3898 1.98964E+01 2.35514E-01-9.72786E-04 1.14411E-01 5.15081E-14 2.85420E-14
 -1      3899 1.98775E+01 2.67173E-01 5.32847E-05 1.34642E-01 7.37706E-14 7.59155E-14
 -1      3900 1.98393E+01 3.04352E-01 1.17520E-03 1.19962E-01 5.29653E-14 1.70218E-13
 -1      3901 1.99337E+01 1.81186E-01-7.56298E-04 8.40044E-02 4.18356E-14-9.41454E-14
 -1      3902 1.99203E+01 2.07332E-01 7.90971E-05 1.00007E-01 7.33215E-14-1.40850E-14
 -1      3903 1.98927E+01 2.37575E-01 8.80915E-04 8.98861E-02 8.95451E-14-4.92638E-15
 -1      3904 1.99604E+01 1.36956E-01-5.80146E-04 6.02861E-02-1.70292E-13 2.11245E-15
 -1      3905 1.99511E+01 1.58137E-01 9.10787E-05 7.27394E-02-6.70840E-14-7.81801E-14
 -1      3906 1.99315E+01 1.82318E-01 6.50626E-04 6.59900E-02-2.38034E-14-4.80146E-15
 -1      3907 1.99789E+01 1.01600E-01-4.38163E-04 4.21036E-02-2.32672E-13 6.75342E-14
 -1      3908 1.99727E+01 1.18453E-01 9.28692E-05 5.16279E-02-2.04261E-13 2.55451E-14
 -1      3909 1.99591E+01 1.37458E-01 4.72218E-04 4.73222E-02-2.19523E-13-5.08785E-14
 -1      3910 1.99913E+01 7.38268E-02-3.25144E-04 2.84223E-02-8.30052E-14 1.26826E-14
 -1      3911 1.99874E+01 8.70057E-02 8.79440E-05 3.55723E-02-1.40989E-13 9.17338E-15
 -1      3912 1.99783E+01 1.01686E-01 3.35662E-04 3.29996E-02-1.93374E-13 7.31571E-14
 -1      3913 1.99993E+01 5.23847E-02-2.36466E-04 1.83355E-02-7.63088E-14 1.33960E-13
 -1      3914 1.99970E+01 6.25133E-02 7.91376E-05 2.35950E-02-7.49097E-14 1.15318E-13
 -1      3915 1.99913E+01 7.36523E-02 2.32577E-04 2.22206E-02-1.43825E-13 4.28357E-14
 -1      3916 2.00042E+01 3.61203E-02-1.67972E-04 1.10669E-02-6.01379E-15 1.87713E-13
 -1      3917 2.00029E+01 4.37667E-02 6.85439E-05 1.48482E-02 2.35231E-14 1.53277E-13
 -1      3918 1.99996E+01 5.20596E-02 1.55972E-04 1.42767E-02-8.97483E-14 1.56412E-13
 -1      3919 2.00068E+01 2.40113E-02-1.15956E-04 5.96720E-03-9.21490E-14 2.45110E-14
 -1      3920 2.00063E+01 2.96749E-02 5.75895E-05 8.61372E-03-6.67424E-14 6.71195E-14
 -1      3921 2.00046E+01 3.57217E-02 1.00055E-04 8.55811E-03 3.74035E-15 1.29523E-13
 -1      3922 2.00080E+01 1.51786E-02-7.71757E-05 2.50492E-03 6.04209E-14-1.73010E-14
 -1      3923 2.00079E+01 1.92860E-02 4.71670E-05 4.29670E-03-2.83846E-14-8.02067E-14
 -1      3924 2.00073E+01 2.35916E-02 6.00834E-05 4.55273E-03-2.29473E-14-1.59835E-13
 -1      3925 2.00081E+01 8.88428E-03-4.88466E-05 2.53640E-04-1.74942E-14 1.60286E-14
 -1      3926 2.00084E+01 1.17914E-02 3.77743E-05 1.41465E-03 8.93003E-14 5.41441E-14
 -1      3927 2.00085E+01 1.47715E-02 3.22207E-05 1.84050E-03 4.07033E-14-3.19049E-14
 -1      3928 2.00077E+01 4.52203E-03-2.86307E-05-1.12206E-03 7.89868E-14 8.31748E-15
 -1      3929 2.00081E+01 6.51990E-03 2.96353E-05-4.16130E-04 3.76604E-14 5.73045E-14
 -1      3930 2.00086E+01 8.50994E-03 1.34057E-05 8.39492E-05 1.60726E-14 1.32705E-14
 -1      3931 2.00069E+01 1.60341E-03-1.46019E-05-1.88104E-03 1.24977E-13-1.00384E-13
 -1      3932 2.00074E+01 2.92537E-03 2.27947E-05-1.49492E-03 9.81186E-14-3.14766E-14
 -1      3933 2.00081E+01 4.19096E-03 1.22929E-06-9.82512E-04 2.85118E-14-1.43925E-13
 -1      3934 2.00060E+01-2.58126E-04-5.20372E-06-2.21925E-03 9.03963E-14 6.09564E-14
 -1      3935 2.00065E+01 5.71710E-04 1.71887E-05-2.05077E-03 9.22262E-14 4.09882E-14
 -1      3936 2.00073E+01 1.31941E-03-6.17602E-06-1.56385E-03 3.36553E-14-7.57677E-14
 -1      3937 2.00050E+01-1.36314E-03 7.98772E-07-2.28198E-03 8.22808E-14 3.52066E-14
 -1      3938 2.00055E+01-8.83165E-04 1.26944E-05-2.25553E-03 1.50041E-13 1.15066E-13
 -1      3939 2.00063E+01-4.95620E-04-1.02361E-05-1.81510E-03 7.77818E-14 6.35399E-14
 -1      3940 2.00041E+01-1.94125E-03 4.36788E-06-2.17464E-03 2.62975E-13-5.60674E-14
 -1      3941 2.00046E+01-1.70296E-03 9.16287E-06-2.23548E-03 1.17287E-13-2.53873E-14
 -1      3942 2.00053E+01-1.55737E-03-1.20217E-05-1.85112E-03 1.88314E-13 3.24861E-14
 -1      3943 2.00033E+01-2.16468E-03 6.24027E-06-1.97171E-03 1.44574E-13-1.43525E-13
 -1      3944 2.00037E+01-2.08734E-03 6.44084E-06-2.08123E-03 2.22967E-13-5.84516E-14
 -1      3945 2.00043E+01-2.09692E-03-1.23221E-05-1.75508E-03 2.04673E-13 9.47808E-14
 -1      3946 2.00026E+01-2.16014E-03 6.96976E-06-1.72426E-03-6.98532E-14-1.08532E-13
 -1      3947 2.00029E+01-2.18469E-03 4.38334E-06-1.85606E-03 1.03261E-13-2.56190E-14
 -1      3948 2.00035E+01-2.28711E-03-1.17072E-05-1.58565E-03 6.28428E-14 9.10553E-14
 -1      3949 2.00020E+01-2.01890E-03 6.96203E-06-1.46593E-03-6.94942E-14-1.67289E-13
 -1      3950 2.00022E+01-2.10303E-03 2.86134E-06-1.60269E-03-1.04469E-13-1.49872E-13
 -1      3951 2.00027E+01-2.25474E-03-1.05783E-05-1.38293E-03-1.75694E-14-7.84631E-14
 -1      3952 2.00014E+01-1.80496E-03 6.52938E-06-1.21760E-03 1.47877E-13-2.60404E-13
 -1      3953 2.00017E+01-1.91929E-03 1.76133E-06-1.34859E-03 8.71082E-14-1.57088E-13
 -1      3954 2.00021E+01-2.09081E-03-9.20458E-06-1.17322E-03 5.47766E-14-1.95239E-13
 -1      3955 2.00010E+01-1.56221E-03 5.73162E-06-9.91110E-04 1.28371E-13-2.10823E-13
 -1      3956 2.00012E+01-1.68685E-03 9.00702E-07-1.11045E-03 1.50567E-13-2.54787E-13
 -1      3957 2.00015E+01-1.85867E-03-7.66621E-06-9.72823E-04 1.44945E-13-1.82658E-13
 -1      3958 2.00007E+01-1.32059E-03 4.23389E-06-7.93458E-04 8.35750E-14-2.55679E-13
 -1      3959 2.00008E+01-1.44138E-03 2.39788E-07-8.97432E-04 9.35427E-14-1.88404E-13
 -1      3960 2.00011E+01-1.60150E-03-6.13328E-06-7.91640E-04 7.92408E-14-1.89184E-13
 -1      3961 2.00005E+01-1.14351E-03-1.18090E-06-4.77262E-04 2.96335E-14-4.95444E-13
 -1      3962 2.00005E+01-1.14565E-03 3.57676E-06-6.49760E-04 2.31778E-13-4.14125E-13
 -1      3963 2.00005E+01-1.22374E-03-5.08876E-07-7.32162E-04 9.10804E-14-3.03564E-13
 -1      3964 2.00006E+01-1.26335E-03-1.07980E-06-4.50470E-04 1.69160E-14-2.56956E-13
 -1      3965 1.86240E+01 9.50129E-01-8.31591E-03 8.34526E-01 3.95056E-15 2.97608E-14
 -1      3966 1.84819E+01 9.77531E-01 7.94786E-04 9.54046E-01-2.41610E-14-1.18882E-14
 -1      3967 1.81118E+01 1.11100E+00 9.78292E-03 8.31474E-01-4.36888E-14 1.26425E-13
 -1      3968 2.00007E+01-1.30133E-03-2.05985E-06 4.64971E-04 2.31848E-13-2.54074E-13
 -1      3969 2.00005E+01-1.16048E-03 2.71174E-06 3.16882E-04 2.53855E-13-1.26931E-13
 -1      3970 2.00006E+01-1.19196E-03 1.64765E-06 1.94849E-04 2.29462E-13-2.65688E-13
 -1      3971 2.00009E+01-1.41730E-03-2.35007E-06 3.48923E-04 2.99228E-13-1.61760E-13
 -1      3972 1.92044E+01 7.75842E-01-4.22602E-03 5.23960E-01-9.34490E-14 7.71765E-14
 -1      3973 1.91074E+01 8.28290E-01 5.56301E-05 5.92888E-01-5.62185E-14 6.79041E-14
 -1      3974 1.91725E+01 8.06647E-01 4.36933E-03 4.06963E-01-3.00780E-14 7.90040E-14
 -1      3975 1.89482E+01 8.73803E-01-5.78836E-03 6.58359E-01-1.05377E-14 3.79253E-14
 -1      3976 1.88298E+01 9.18407E-01 5.60360E-04 7.46723E-01-1.84748E-15 3.08812E-14
 -1      3977 1.85561E+01 1.02894E+00 7.35568E-03 6.45035E-01-1.36244E-14 5.70801E-14
 -1      3978 1.89027E+01 9.22697E-01 5.66876E-03 5.09852E-01-8.21487E-14 5.16875E-14
 -1      3979 1.68710E+01 2.26224E-01-1.83408E-02-2.79328E+00 1.62983E-13 5.06964E-14
 -1      3980 2.60404E+01 3.94140E+00-9.91647E-02 1.45834E+00 6.69284E-13 1.71699E-13
 -1      3981 1.73325E+01 4.44302E-01 2.27437E-02-2.35911E+00 1.50574E-13 6.80016E-14
 -1      3982 1.73620E+01 5.99135E-01-2.45541E-02-1.99741E+00 1.03280E-13 8.93969E-14
 -1      3983 1.70469E+01 9.64547E-01 2.08988E-02-1.63186E+00 7.19459E-14 1.48867E-13
 -1      3984 1.62353E+01 8.33475E-01 3.87098E-02-2.29610E+00 1.28366E-13 1.66567E-13
 -1      3985 1.69652E+01 9.45369E-01-2.58492E-02 1.66492E+00-6.23785E-14 1.50968E-13
 -1      3986 1.68226E+01 8.26020E-01-2.00737E-03 1.97285E+00-1.02392E-13 2.03967E-13
 -1      3987 1.55841E+01 1.40426E+00 5.23502E-02 1.41412E+00-1.37968E-13 3.04896E-13
 -1      3988 2.00007E+01-1.30669E-03-3.68848E-06 1.30841E-04 1.32642E-13-1.18973E-13
 -1      3989 2.00007E+01-1.36574E-03-4.25715E-06-6.51521E-04 1.12436E-13-3.64727E-13
 -1      3990 2.00008E+01-1.37651E-03-4.17926E-06-3.35176E-04 6.25873E-14 1.56508E-13
 -1      3991 2.00008E+01-1.36316E-03 3.16158E-06-4.83659E-04 1.29079E-13-2.43315E-13
 -1      3992 2.00009E+01-1.47223E-03 1.61095E-06-5.31934E-04 1.54470E-13-1.68455E-13
 -1      3993 1.76510E+01 9.97218E-01-1.80243E-02 1.32542E+00-1.15580E-13 9.55087E-14
 -1      3994 1.74786E+01 9.35239E-01-1.05144E-02 1.55607E+00-9.08453E-14 1.22431E-13
 -1      3995 1.66767E+01 1.33491E+00 3.62751E-02 1.10142E+00-6.51354E-14 3.12909E-13
 -1      3996 1.75196E+01 1.20400E+00 2.09421E-02 9.90105E-01-7.14901E-14 1.64755E-13
 -1      3997 1.50044E+01 1.42783E+00-1.77165E-03 9.16520E-01-1.07730E-13 3.37613E-13
 -1      3998 1.43827E+01 1.65773E+00 5.98583E-02 2.61220E-01-4.65194E-14 4.28328E-13
 -1      3999 1.49478E+01 1.51516E+00-3.75854E-03-3.38032E-01 2.99791E-14 2.89209E-13
 -1      4000 1.55621E+01 1.42298E+00-2.61350E-02 7.21669E-01-4.08291E-14 3.30268E-13
 -1      4001 2.00009E+01-1.38894E-03 4.06166E-06-1.73813E-04 3.54155E-14 2.27363E-14
 -1      4002 2.00009E+01-1.42013E-03 3.59307E-06 1.91942E-04 1.89134E-13 7.58107E-14
 -1      4003 2.00009E+01-1.43098E-03-3.04836E-06 6.30140E-05 1.20124E-13 1.31050E-13
 -1      4004 2.00010E+01-1.53668E-03 2.20065E-07 2.80703E-04 2.34787E-13 2.94493E-14
 -1      4005 1.78736E+01 1.11120E+00-6.58631E-04-6.59111E-01 8.78373E-14 9.69841E-14
 -1      4006 1.80961E+01 1.07352E+00-1.01847E-02-5.41827E-01 8.89885E-14 1.24021E-13
 -1      4007 1.83614E+01 1.03532E+00-1.38536E-03-4.70902E-01 6.41342E-14 8.68265E-14
 -1      4008 1.85394E+01 9.87325E-01-6.98821E-03-3.90813E-01 4.28323E-14 1.25698E-13
 -1      4009 1.81400E+01 1.14894E+00 1.26401E-02-2.97863E-01 6.56893E-14 4.71439E-14
 -1      4010 1.87396E+01 9.39534E-01-1.29987E-03-3.42226E-01 3.94298E-14 1.17934E-13
 -1      4011 1.88819E+01 8.85443E-01-4.89151E-03-2.85619E-01 2.63046E-14 1.51279E-13
 -1      4012 1.85811E+01 1.02957E+00 9.00636E-03-2.06050E-01 7.83488E-14 8.69008E-14
 -1      4013 1.90359E+01 8.32074E-01-1.17210E-03-2.51719E-01 7.17074E-14 1.52204E-13
 -1      4014 1.91498E+01 7.75517E-01-3.51546E-03-2.10480E-01 5.33546E-14 1.30591E-13
 -1      4015 1.89197E+01 9.06201E-01 6.58622E-03-1.43256E-01 1.10908E-13 1.19930E-13
 -1      4016 1.92694E+01 7.20416E-01-1.03767E-03-1.86570E-01-3.53518E-16 1.49874E-13
 -1      4017 1.93603E+01 6.64485E-01-2.58052E-03-1.55785E-01-5.55694E-16 1.04330E-13
 -1      4018 1.91830E+01 7.82769E-01 4.91285E-03-9.99742E-02 4.00276E-14 6.69748E-14
 -1      4019 1.94533E+01 6.10712E-01-9.00825E-04-1.38787E-01-3.60520E-14 1.75403E-13
 -1      4020 1.95253E+01 5.57792E-01-1.92118E-03-1.15380E-01-1.08493E-14 1.61421E-13
 -1      4021 1.93886E+01 6.63581E-01 3.70621E-03-6.99354E-02 4.39172E-15 4.77659E-14
 -1      4022 1.95973E+01 5.07550E-01-7.65495E-04-1.03235E-01 1.31917E-14 1.08223E-13
 -1      4023 1.96537E+01 4.59268E-01-1.44080E-03-8.52207E-02 1.01465E-13 5.06691E-14
 -1      4024 1.95488E+01 5.52303E-01 2.80797E-03-4.89692E-02-1.38712E-14 1.52477E-13
 -1      4025 1.97090E+01 4.13956E-01-6.36179E-04-7.65226E-02 1.71175E-13 4.95397E-14
 -1      4026 1.97526E+01 3.71238E-01-1.08202E-03-6.25729E-02 9.47528E-14 5.27186E-14
 -1      4027 1.96727E+01 4.51545E-01 2.12419E-03-3.42694E-02 1.43685E-13 4.68426E-14
 -1      4028 1.97946E+01 3.31569E-01-5.16916E-04-5.63439E-02 5.72278E-14 1.24596E-13
 -1      4029 1.98277E+01 2.94766E-01-8.09653E-04-4.55297E-02 2.33395E-14 2.24347E-13
 -1      4030 1.97677E+01 3.62784E-01 1.59680E-03-2.39260E-02 1.15092E-13-1.23714E-14
 -1      4031 1.98592E+01 2.60917E-01-4.10594E-04-4.10801E-02-9.67834E-14 1.88574E-13
 -1      4032 1.98840E+01 2.29946E-01-6.01147E-04-3.27221E-02-1.04474E-13 1.09082E-13
 -1      4033 1.98395E+01 2.86497E-01 1.18804E-03-1.66280E-02-5.49851E-14 1.38566E-13
 -1      4034 1.99072E+01 2.01714E-01-3.18744E-04-2.95594E-02-2.15265E-13 9.63919E-14
 -1      4035 1.99253E+01 1.76197E-01-4.41242E-04-2.31408E-02-1.70550E-13 4.51164E-14
 -1      4036 1.98929E+01 2.22377E-01 8.71721E-04-1.14694E-02-2.05683E-13 1.39570E-13
 -1      4037 1.99420E+01 1.53132E-01-2.41659E-04-2.09104E-02-5.36607E-15-4.49359E-14
 -1      4038 1.99549E+01 1.32518E-01-3.19021E-04-1.60260E-02-6.10092E-14-5.96088E-14
 -1      4039 1.99319E+01 1.69575E-01 6.28515E-04-7.82156E-03-1.81256E-13 9.43775E-14
 -1      4040 1.99667E+01 1.14034E-01-1.78675E-04-1.44708E-02-7.97118E-14-2.59805E-14
 -1      4041 1.99757E+01 9.76885E-02-2.26290E-04-1.07964E-02-5.23162E-14 2.61083E-14
 -1      4042 1.99597E+01 1.26919E-01 4.43403E-04-5.24559E-03-3.25347E-14-2.16137E-14
 -1      4043 1.99838E+01 8.31477E-02-1.28492E-04-9.72880E-03-1.38908E-13 1.00911E-13
 -1      4044 1.99898E+01 7.04205E-02-1.56678E-04-7.00293E-03-1.46331E-13 4.38002E-14
 -1      4045 1.99791E+01 9.30840E-02 3.04334E-04-3.43350E-03-5.05184E-14 2.86445E-14
 -1      4046 1.99951E+01 5.91885E-02-8.94675E-05-6.28575E-03-1.60589E-13 3.99101E-14
 -1      4047 1.99989E+01 4.94580E-02-1.05121E-04-4.29668E-03 3.87601E-14-7.57836E-14
 -1      4048 1.99921E+01 6.67224E-02 2.01486E-04-2.16762E-03-1.86907E-13-2.80547E-14
 -1      4049 2.00022E+01 4.09418E-02-5.98460E-05-3.82930E-03 1.82741E-13-5.49690E-14
 -1      4050 2.00045E+01 3.36423E-02-6.75569E-05-2.40627E-03 1.89085E-13-1.02311E-13
 -1      4051 2.00004E+01 4.65511E-02 1.26827E-04-1.29301E-03 5.59874E-14 7.56500E-14
 -1      4052 2.00064E+01 2.73103E-02-3.79182E-05-2.11496E-03 1.80173E-13-1.17772E-13
 -1      4053 2.00076E+01 2.19452E-02-4.07242E-05-1.12118E-03 8.23562E-14 3.96524E-14
 -1      4054 2.00054E+01 3.14034E-02 7.38220E-05-6.98498E-04 1.93319E-13 1.54217E-13
 -1      4055 2.00085E+01 1.73370E-02-2.21215E-05-9.52044E-04-7.97748E-14 7.87670E-14
 -1      4056 2.00089E+01 1.34827E-02-2.20171E-05-2.78951E-04-3.96308E-14 1.37593E-14
 -1      4057 2.00081E+01 2.02555E-02 3.72029E-05-3.03852E-04 7.23150E-14 7.42267E-14
 -1      4058 2.00092E+01 1.02099E-02-1.10919E-05-1.92795E-04-6.53870E-14 7.70400E-14
 -1      4059 2.00092E+01 7.51423E-03-9.37159E-06 2.44779E-04-7.62272E-14 2.47356E-14
 -1      4060 2.00091E+01 1.22343E-02 1.27762E-05-5.08314E-05-4.24856E-14-2.96256E-14
 -1      4061 2.00090E+01 5.25703E-03-3.68071E-06 2.76222E-04-7.51979E-15 5.21202E-14
 -1      4062 2.00087E+01 3.43307E-03-1.17084E-06 5.44255E-04 7.74728E-14 6.77594E-14
 -1      4063 2.00092E+01 6.61287E-03-2.75093E-06 1.02942E-04-3.31563E-15 1.21633E-13
 -1      4064 2.00083E+01 1.93330E-03 1.05050E-06 5.41138E-04 5.77753E-14 2.10685E-14
 -1      4065 2.00078E+01 7.52175E-04 3.83550E-06 6.90016E-04 6.63904E-14 2.40850E-14
 -1      4066 2.00086E+01 2.79935E-03-1.19249E-05 1.88298E-04 4.95105E-14 2.39709E-13
 -1      4067 2.00073E+01-1.94497E-04 3.84846E-06 6.66481E-04 1.00710E-13-8.84354E-14
 -1      4068 2.00068E+01-9.12097E-04 6.60063E-06 7.34084E-04 2.60664E-13-1.86243E-13
 -1      4069 2.00077E+01 3.20772E-04-1.66832E-05 2.27584E-04 5.05218E-14-3.90056E-14
 -1      4070 2.00063E+01-1.46441E-03 5.29309E-06 6.99845E-04 2.79278E-13-2.99388E-13
 -1      4071 2.00057E+01-1.85640E-03 7.83973E-06 7.14152E-04 1.48442E-13-3.71963E-13
 -1      4072 2.00066E+01-1.19368E-03-1.84746E-05 2.36878E-04 1.35037E-13-4.16353E-13
 -1      4073 2.00052E+01-2.13544E-03 5.82425E-06 6.75695E-04 8.38007E-14-3.88012E-13
 -1      4074 2.00047E+01-2.30594E-03 8.07985E-06 6.56959E-04 8.80567E-14-2.10075E-13
 -1      4075 2.00056E+01-2.02951E-03-1.83614E-05 2.27612E-04 1.43044E-13-5.36100E-13
 -1      4076 2.00042E+01-2.40233E-03 5.76753E-06 6.18439E-04 1.11104E-13-1.21936E-13
 -1      4077 2.00038E+01-2.42841E-03 7.70122E-06 5.80973E-04 1.16830E-13-2.01881E-14
 -1      4078 2.00045E+01-2.40253E-03-1.71060E-05 2.07781E-04 1.87437E-13-4.23598E-13
 -1      4079 2.00033E+01-2.40862E-03 5.35709E-06 5.44893E-04-2.93740E-14 1.80098E-13
 -1      4080 2.00030E+01-2.34616E-03 6.96736E-06 4.98516E-04 1.88025E-14 1.98280E-13
 -1      4081 2.00036E+01-2.47273E-03-1.52421E-05 1.82844E-04 1.98541E-13-1.34936E-13
 -1      4082 2.00026E+01-2.25787E-03 4.75070E-06 4.66192E-04 5.34228E-14 9.72980E-14
 -1      4083 2.00022E+01-2.14638E-03 6.03742E-06 4.17435E-04 1.96482E-13 3.21797E-14
 -1      4084 2.00028E+01-2.35626E-03-1.31258E-05 1.56412E-04 2.35869E-14 1.43610E-13
 -1      4085 2.00019E+01-2.02315E-03 3.86851E-06 3.89018E-04 1.60160E-13 5.57031E-14
 -1      4086 2.00017E+01-1.88823E-03 5.44534E-06 3.42480E-04 4.63017E-14-3.71824E-14
 -1      4087 2.00021E+01-2.13509E-03-1.08032E-05 1.30622E-04 6.45745E-14 6.64546E-14
 -1      4088 2.00014E+01-1.78309E-03 1.92441E-06 3.34869E-04-9.59924E-15-5.22289E-14
 -1      4089 2.00012E+01-1.64542E-03 3.22821E-06 2.91215E-04 1.07990E-13 1.39272E-14
 -1      4090 2.00012E+01-1.66511E-03-5.31162E-06 1.28396E-04 8.63771E-14 1.64011E-13
 -1      4091 2.00016E+01-1.88880E-03-6.97242E-06 1.21240E-04 1.00575E-13-4.39397E-14
 -1      4092 1.93680E+01 6.75813E-01-2.72511E-03 2.21982E-01 5.75061E-14 1.77922E-14
 -1      4093 1.92759E+01 7.35881E-01-1.11240E-03 2.53442E-01 9.40715E-14 2.70621E-14
 -1      4094 1.97613E+01 3.71267E-01-1.32969E-03 1.08725E-01 5.55984E-14 3.78875E-14
 -1      4095 1.97204E+01 4.15316E-01-3.74631E-04 1.27184E-01 3.74783E-14 2.66648E-14
 -1      4096 1.98349E+01 2.93735E-01-1.05064E-03 8.29407E-02 3.31668E-14 2.20464E-14
 -1      4097 1.98045E+01 3.31394E-01-2.33248E-04 9.81307E-02 1.01606E-13 5.52973E-14
 -1      4098 1.97693E+01 3.67138E-01 1.90546E-03 7.04482E-02 7.89292E-14-1.66512E-13
 -1      4099 1.98895E+01 2.28506E-01-8.23061E-04 6.20334E-02 8.12118E-14 3.35340E-14
 -1      4100 1.98673E+01 2.60013E-01-1.32103E-04 7.43368E-02 5.46263E-15 2.03452E-14
 -1      4101 1.98411E+01 2.89575E-01 1.40553E-03 5.41018E-02 2.67153E-14-1.14571E-13
 -1      4102 1.99293E+01 1.74730E-01-6.37053E-04 4.53832E-02-1.05716E-13 1.55374E-13
 -1      4103 1.99134E+01 2.00574E-01-6.27405E-05 5.51778E-02 5.67386E-14 1.73272E-13
 -1      4104 1.98943E+01 2.24592E-01 1.02299E-03 4.06600E-02-7.62499E-14 1.10087E-13
 -1      4105 1.99577E+01 1.31223E-01-4.85926E-04 3.23717E-02-2.26469E-13 1.44213E-13
 -1      4106 1.99466E+01 1.52034E-01-1.74130E-05 4.00292E-02-1.89190E-13 1.54711E-13
 -1      4107 1.99329E+01 1.71207E-01 7.31831E-04 2.98449E-02-1.24244E-13 3.20540E-13
 -1      4108 1.99775E+01 9.66470E-02-3.64465E-04 2.24018E-02-1.99506E-13 5.03280E-14
 -1      4109 1.99700E+01 1.13110E-01 1.04250E-05 2.82768E-02-2.14985E-13 9.63585E-14
 -1      4110 1.99605E+01 1.28149E-01 5.12253E-04 2.13305E-02-1.92488E-13 2.20147E-13
 -1      4111 1.99908E+01 6.96429E-02-2.68176E-04 1.49191E-02-1.84265E-13 4.98607E-14
 -1      4112 1.99859E+01 8.24423E-02 2.59963E-05 1.93381E-02-1.57925E-13 1.64111E-14
 -1      4113 1.99795E+01 9.40312E-02 3.48680E-04 1.47721E-02-1.29192E-13-2.11453E-14
 -1      4114 1.99994E+01 4.89187E-02-1.93017E-04 9.42762E-03-1.09772E-13 8.19619E-14
 -1      4115 1.99964E+01 5.86959E-02 3.32892E-05 1.26812E-02-1.64014E-13 2.23421E-14
 -1      4116 1.99923E+01 6.74635E-02 2.28660E-04 9.83244E-03-1.25273E-13-6.81344E-14
 -1      4117 2.00046E+01 3.32997E-02-1.35329E-04 5.49727E-03 4.45091E-14 6.01018E-14
 -1      4118 2.00029E+01 4.06320E-02 3.52408E-05 7.83641E-03-2.01966E-14 8.90773E-14
 -1      4119 2.00005E+01 4.71369E-02 1.42190E-04 6.19922E-03-2.66798E-14 2.55042E-14
 -1      4120 2.00074E+01 2.17544E-02-9.18446E-05 2.76604E-03 3.65555E-14-8.29413E-14
 -1      4121 2.00067E+01 2.71450E-02 3.39451E-05 4.40160E-03 8.82731E-14 3.19406E-14
 -1      4122 2.00054E+01 3.18683E-02 8.12578E-05 3.59614E-03 1.25607E-13-2.68050E-14
 -1      4123 2.00086E+01 1.34024E-02-5.97100E-05 9.36639E-04 9.07845E-14-4.30896E-14
 -1      4124 2.00085E+01 1.72779E-02 3.08486E-05 2.04169E-03 1.60591E-14-9.47525E-14
 -1      4125 2.00080E+01 2.06239E-02 3.94932E-05 1.78726E-03 6.74168E-14-1.90835E-13
 -1      4126 2.00088E+01 7.50948E-03-3.64839E-05-2.29465E-04-2.75184E-14-5.49339E-14
 -1      4127 2.00090E+01 1.02237E-02 2.69166E-05 4.84002E-04 8.53204E-14 9.85698E-15
 -1      4128 2.00090E+01 1.25245E-02 1.18834E-05 5.77032E-04 8.93988E-14-3.64596E-14
 -1      4129 2.00083E+01 3.47619E-03-2.01250E-05-9.19586E-04 3.99170E-14-1.32433E-13
 -1      4130 2.00087E+01 5.31659E-03 2.27672E-05-4.88449E-04-1.40596E-15-1.61758E-13
 -1      4131 2.00090E+01 6.83936E-03-5.46750E-06-1.92372E-04 8.24041E-14-5.78063E-14
 -1      4132 2.00075E+01 8.22374E-04-8.96138E-06-1.27780E-03-4.92228E-14-6.12836E-15
 -1      4133 2.00080E+01 2.01801E-03 1.87744E-05-1.04477E-03-1.98051E-14-6.76167E-14
 -1      4134 2.00085E+01 2.97398E-03-1.55461E-05-6.45389E-04-3.77305E-14-4.96247E-14
 -1      4135 2.00065E+01-8.29654E-04-1.65033E-06-1.41260E-03 6.03913E-14 1.14196E-13
 -1      4136 2.00070E+01-9.94087E-05 1.51447E-05-1.31408E-03 1.52999E-14 1.08379E-13
 -1      4137 2.00076E+01 4.53450E-04-2.06073E-05-8.77940E-04-5.04842E-14-3.18198E-14
 -1      4138 2.00055E+01-1.77174E-03 2.86602E-06-1.40397E-03 9.64812E-14 2.13987E-13
 -1      4139 2.00060E+01-1.36893E-03 1.19739E-05-1.39288E-03 4.25890E-14 1.37088E-13
 -1      4140 2.00065E+01-1.09459E-03-2.23255E-05-9.62356E-04 3.60346E-15 2.07884E-13
 -1      4141 2.00045E+01-2.22539E-03 5.40583E-06-1.30942E-03 2.24487E-13 2.26299E-13
 -1      4142 2.00050E+01-2.04582E-03 9.28665E-06-1.35174E-03 3.15060E-13 2.48870E-13
 -1      4143 2.00055E+01-1.95699E-03-2.19204E-05-9.51945E-04 1.43582E-13 2.78687E-13
 -1      4144 2.00036E+01-2.35556E-03 6.59063E-06-1.16919E-03 1.06022E-13 1.17741E-13
 -1      4145 2.00040E+01-2.32203E-03 7.06495E-06-1.24096E-03 1.38362E-13 1.88909E-13
 -1      4146 2.00045E+01-2.35069E-03-2.02610E-05-8.85034E-04 2.28947E-13 1.42876E-13
 -1      4147 2.00028E+01-2.28266E-03 6.88608E-06-1.01049E-03 3.71484E-14-5.24591E-14
 -1      4148 2.00032E+01-2.33915E-03 5.26795E-06-1.09539E-03 7.56811E-14 2.48657E-14
 -1      4149 2.00036E+01-2.43670E-03-1.79496E-05-7.88402E-04 1.76016E-13-3.64941E-14
 -1      4150 2.00021E+01-2.09263E-03 6.64446E-06-8.50927E-04 5.25495E-14-1.38176E-13
 -1      4151 2.00024E+01-2.19941E-03 3.84670E-06-9.38280E-04-8.27665E-15-1.15106E-13
 -1      4152 2.00028E+01-2.33205E-03-1.53893E-05-6.80123E-04 6.55816E-14-3.39146E-13
 -1      4153 2.00016E+01-1.84515E-03 5.93973E-06-7.01391E-04 1.66633E-13-3.33167E-14
 -1      4154 2.00018E+01-1.97501E-03 2.71034E-06-7.84307E-04 1.63775E-13 4.81679E-14
 -1      4155 2.00021E+01-2.11991E-03-1.28749E-05-5.71836E-04 9.16693E-15-1.12045E-13
 -1      4156 2.00011E+01-1.59126E-03 4.77360E-06-5.77248E-04 1.29188E-13-9.75583E-14
 -1      4157 2.00013E+01-1.72401E-03 2.20718E-06-6.51438E-04 1.40831E-13-9.10109E-14
 -1      4158 2.00016E+01-1.86977E-03-1.10560E-05-4.79134E-04 2.19146E-13 8.87249E-14
 -1      4159 2.00011E+01-1.61510E-03-7.39468E-06-3.97387E-04 1.64992E-13 7.09831E-15
 -1      4160 1.96635E+01 4.61377E-01-1.67692E-03 1.40007E-01-2.30058E-14 5.83133E-15
 -1      4161 1.96092E+01 5.11667E-01-5.64417E-04 1.62149E-01-1.54287E-14-9.49094E-15
 -1      4162 1.96739E+01 4.57778E-01 2.55864E-03 8.99065E-02 9.36191E-15-5.68034E-14
 -1      4163 1.95351E+01 5.63479E-01-2.12287E-03 1.77458E-01-6.10072E-15-6.09033E-15
 -1      4164 1.94640E+01 6.19329E-01-8.09044E-04 2.03821E-01 2.78080E-14 3.54856E-15
 -1      4165 1.95486E+01 5.61269E-01 3.41767E-03 1.12618E-01 1.56510E-15 2.52070E-14
 -1      4166 1.56599E+01 1.14875E+00-1.85844E-02-1.50841E+00 7.57094E-14 2.78910E-13
 -1      4167 1.80322E+01 1.14158E+00-1.00698E-02 5.35428E-01-1.31657E-14 2.09125E-13
 -1      4168 1.77704E+01 1.18133E+00-6.88979E-03 6.28951E-01-3.23423E-14 1.94792E-13
 -1      4169 1.91519E+01 7.95172E-01-3.59295E-03 2.75117E-01 4.84924E-14-3.02401E-14
 -1      4170 1.90333E+01 8.57379E-01-1.47919E-03 3.13333E-01-6.40320E-14 2.43471E-14
 -1      4171 1.91748E+01 8.01121E-01 6.13291E-03 1.68648E-01 3.31685E-14-4.07744E-14
 -1      4172 1.72365E+01 1.15262E+00 1.82368E-03-9.44844E-01 1.81398E-14 1.24281E-13
 -1      4173 1.75111E+01 1.13019E+00-1.59999E-02-7.68766E-01 4.83756E-14 8.59755E-14
 -1      4174 1.75449E+01 1.26098E+00 1.59816E-02-4.35022E-01 6.53224E-14 1.36858E-13
 -1      4175 2.00010E+01-1.52083E-03 1.77389E-06-1.21336E-04 8.12522E-14 9.67429E-14
 -1      4176 2.00012E+01-1.64585E-03 3.15179E-06-1.43688E-04 1.94233E-13 1.07817E-13
 -1      4177 1.85097E+01 1.03411E+00-7.10587E-03 4.22245E-01 3.23246E-14 1.00339E-13
 -1      4178 1.83142E+01 1.09140E+00-2.55210E-03 4.86872E-01 3.85597E-14 1.63637E-13
 -1      4179 1.80835E+01 1.19789E+00 1.58597E-02 3.00739E-01 4.58620E-14 2.27195E-13
 -1      4180 1.93856E+01 6.76453E-01 4.56454E-03 1.38738E-01 5.74960E-14 3.44811E-14
 -1      4181 1.55777E+01 1.46091E+00 4.13953E-02-9.30175E-01 2.72074E-14 2.53345E-13
 -1      4182 1.63583E+01 1.14216E+00 1.60500E-03-1.37063E+00 4.65012E-14 2.50662E-13
 -1      4183 1.67136E+01 1.14744E+00-2.00187E-02-1.12507E+00 2.13976E-14 2.18348E-13
 -1      4184 1.56321E+01 1.44146E+00-1.10304E-02-3.33945E-01-4.25354E-15 2.69220E-13
 -1      4185 1.89026E+01 9.32101E-01 8.34277E-03 2.03422E-01-1.76212E-14 4.39910E-14
 -1      4186 1.88726E+01 9.16730E-01-4.93231E-03 3.39862E-01-1.25981E-13 1.02184E-13
 -1      4187 1.87204E+01 9.78289E-01-1.92819E-03 3.88102E-01-6.07325E-14 5.35657E-14
 -1      4188 1.67299E+01 1.34359E+00 2.19848E-02-6.87000E-01-1.44105E-14 2.15476E-13
 -1      4189 1.80466E+01 1.14780E+00-1.01530E-02-3.19665E-02 8.45774E-14 1.81071E-13
 -1      4190 1.83081E+01 1.09555E+00-6.64659E-03 5.05659E-03 9.83742E-14 1.37404E-13
 -1      4191 1.74223E+01 1.27666E+00-5.73856E-03-6.86257E-02 1.36740E-15 2.53876E-13
 -1      4192 1.77690E+01 1.21404E+00-8.47042E-03-2.12977E-02 3.87037E-14 2.36607E-13
 -1      4193 1.85181E+01 1.02861E+00-7.41373E-03-3.86786E-03 5.19821E-14 1.14856E-13
 -1      4194 1.87167E+01 9.72079E-01-4.66905E-03 2.12389E-02 4.54489E-14 1.37451E-13
 -1      4195 1.88770E+01 9.05193E-01-5.35834E-03 1.29899E-02 5.95505E-14 5.80254E-14
 -1      4196 1.90302E+01 8.46584E-01-3.26632E-03 2.96910E-02 7.62086E-14 5.44946E-14
 -1      4197 1.91537E+01 7.81512E-01-3.97473E-03 2.16380E-02 7.54741E-14 1.52826E-14
 -1      4198 1.92728E+01 7.23544E-01-2.28941E-03 3.26243E-02 4.46882E-14 3.35923E-14
 -1      4199 1.93682E+01 6.62113E-01-3.01459E-03 2.47567E-02 2.22933E-14 2.96232E-14
 -1      4200 1.94610E+01 6.07065E-01-1.59585E-03 3.18932E-02-2.08326E-14 8.52882E-14
 -1      4201 1.95344E+01 5.50759E-01-2.31662E-03 2.44015E-02-3.32816E-14 7.66631E-14
 -1      4202 1.96065E+01 5.00273E-01-1.09766E-03 2.89695E-02 3.06718E-14 9.29717E-14
 -1      4203 1.96626E+01 4.50062E-01-1.78864E-03 2.20747E-02 6.45946E-14 3.64683E-14
 -1      4204 1.97181E+01 4.05132E-01-7.39305E-04 2.49519E-02 1.48382E-13-5.37838E-14
 -1      4205 1.97605E+01 3.61463E-01-1.37829E-03 1.88217E-02 1.39712E-13-4.72879E-14
 -1      4206 1.98027E+01 3.22518E-01-4.83204E-04 2.06039E-02 5.34166E-14-8.91486E-14
 -1      4207 1.98344E+01 2.85394E-01-1.05468E-03 1.53261E-02-1.81479E-14-3.84676E-15
 -1      4208 1.98661E+01 2.52417E-01-3.02455E-04 1.64124E-02-1.29278E-13-1.59132E-14
 -1      4209 1.98893E+01 2.21508E-01-7.98372E-04 1.19999E-02-1.41428E-13 6.85119E-14
 -1      4210 1.99127E+01 1.94170E-01-1.77122E-04 1.26527E-02-1.85009E-13 1.01344E-13
 -1      4211 1.99293E+01 1.68930E-01-5.95954E-04 9.06150E-03-2.21896E-13 1.98367E-13
 -1      4212 1.99462E+01 1.46705E-01-9.22254E-05 9.44991E-03-1.11645E-13 1.02364E-13
 -1      4213 1.99580E+01 1.26470E-01-4.37365E-04 6.59934E-03-1.11264E-13 4.12111E-14
 -1      4214 1.99699E+01 1.08733E-01-3.64803E-05 6.82984E-03-6.64852E-14-1.82200E-14
 -1      4215 1.99779E+01 9.27954E-02-3.14520E-04 4.62070E-03-5.91529E-14-5.20832E-14
 -1      4216 1.99861E+01 7.88924E-02-1.42917E-06 4.75876E-03-1.33002E-13-5.55515E-15
 -1      4217 1.99913E+01 6.65588E-02-2.20674E-04 3.08683E-03-1.41431E-13-3.54605E-15
 -1      4218 1.99967E+01 5.58538E-02 1.92092E-05 3.17171E-03-5.96445E-14 1.97643E-14
 -1      4219 1.99999E+01 4.64795E-02-1.50119E-04 1.93695E-03 4.39501E-14-4.21145E-15
 -1      4220 2.00033E+01 3.83870E-02 3.00455E-05 1.99154E-03 1.49821E-13-2.96120E-14
 -1      4221 2.00051E+01 3.13959E-02-9.80304E-05 1.10349E-03 1.78586E-13-3.37662E-14
 -1      4222 2.00070E+01 2.53964E-02 3.44175E-05 1.14079E-03 1.37880E-13-6.90973E-14
 -1      4223 2.00079E+01 2.02894E-02-6.03694E-05 5.21203E-04 7.91325E-14-6.75104E-14
 -1      4224 2.00088E+01 1.59363E-02 3.47031E-05 5.48342E-04 4.28065E-14-9.80496E-14
 -1      4225 2.00091E+01 1.22923E-02-3.38024E-05 1.31839E-04 5.88540E-15-1.49461E-14
 -1      4226 2.00093E+01 9.21099E-03 3.25648E-05 1.52666E-04 3.70539E-14-1.68650E-14
 -1      4227 2.00092E+01 6.68251E-03-1.56202E-05-1.13842E-04 8.56419E-14-5.62547E-14
 -1      4228 2.00090E+01 4.56565E-03 2.91378E-05-9.72936E-05 4.63244E-14 8.70803E-14
 -1      4229 2.00086E+01 2.87190E-03-3.65701E-06-2.55822E-04-8.14135E-14 1.36953E-13
 -1      4230 2.00083E+01 1.47240E-03 2.51746E-05-2.42461E-04-4.60372E-14 3.90316E-14
 -1      4231 2.00078E+01 3.90592E-04 3.78920E-06-3.25500E-04 7.11467E-14 1.24854E-14
 -1      4232 2.00072E+01-4.86520E-04 2.11539E-05-3.14696E-04 2.65114E-14-8.29141E-14
 -1      4233 2.00067E+01-1.12993E-03 8.03348E-06-3.46806E-04-2.04727E-15 9.95897E-14
 -1      4234 2.00062E+01-1.63573E-03 1.73623E-05-3.38146E-04 1.27698E-13-1.22388E-13
 -1      4235 2.00056E+01-1.97351E-03 1.00737E-05-3.37469E-04 1.57837E-13-1.61559E-13
 -1      4236 2.00051E+01-2.22297E-03 1.39539E-05-3.30632E-04 2.05220E-13-1.85984E-13
 -1      4237 2.00046E+01-2.35482E-03 1.06526E-05-3.10244E-04 1.86740E-13-1.54679E-13
 -1      4238 2.00041E+01-2.43375E-03 1.09948E-05-3.04953E-04 2.34304E-13-1.97068E-13
 -1      4239 2.00037E+01-2.43310E-03 1.03112E-05-2.74011E-04 2.67141E-13-2.70757E-13
 -1      4240 2.00032E+01-2.40430E-03 8.49427E-06-2.70011E-04 1.73843E-13-1.17350E-13
 -1      4241 2.00029E+01-2.32403E-03 9.43136E-06-2.34717E-04 9.08197E-14-1.08774E-13
 -1      4242 2.00025E+01-2.23244E-03 6.43022E-06-2.31774E-04-6.61173E-14-6.64031E-14
 -1      4243 2.00022E+01-2.11006E-03 8.15603E-06-1.96132E-04-2.03587E-14 2.84773E-14
 -1      4244 2.00019E+01-1.98636E-03 5.12870E-06-1.94259E-04 1.95593E-13-7.33549E-15
 -1      4245 1.59034E+01 1.53262E+00 3.22664E-02 1.72958E-01-1.93712E-14 3.20778E-13
 -1      4246 1.62660E+01 1.40342E+00-6.41670E-03-3.45021E-01 1.51528E-15 2.30053E-13
 -1      4247 1.67534E+01 1.35564E+00-1.64960E-02-2.21831E-01 4.34548E-15 2.37825E-13
 -1      4248 1.62173E+01 1.38788E+00-1.40195E-02 6.08762E-01-6.64988E-14 3.40425E-13
 -1      4249 2.00016E+01-1.86411E-03 5.12356E-06-1.69617E-04 2.52973E-13-7.82489E-14
 -1      4250 1.75170E+01 1.22478E+00-7.76898E-03 6.50007E-01-3.75446E-14 2.22642E-13
 -1      4251 1.71455E+01 1.26729E+00-1.32049E-02 6.79113E-01-1.86386E-14 3.14791E-13
 -1      4252 1.69016E+01 1.40104E+00 1.62124E-02 2.20578E-01-1.13508E-14 3.71542E-13
 -1      4253 1.67349E+01 1.33091E+00-7.94613E-03 6.06304E-01-5.39720E-14 3.18934E-13
 -1      4254 1.75564E+01 1.30328E+00 1.65913E-02 3.30869E-01-2.37202E-14 3.47956E-13
 -1      4255 1.85492E+01 1.06565E+00 1.15258E-02 2.45658E-01 5.44811E-14 1.54564E-13
 -1      4256 2.00014E+01-1.75142E-03 4.86561E-06-1.55309E-04 2.27103E-13 1.16582E-14
 -1      4257 1.71730E+01 1.31154E+00-6.09000E-03-9.94606E-02-1.63485E-14 2.70708E-13
 -3
    1PSTEP                         3           1           1          
  100CL  101 1.000000000        4257                     0    1           1
 -4  TOSTRAIN    6    1
 -5  EXX         1    4    1    1
 -5  EYY         1    4    2    2
 -5  EZZ         1    4    3    3
 -5  EXY         1    4    1    2
 -5  EYZ         1    4    2    3
 -5  EZX         1    4    3    1
 -1         1 2.80742E-04-8.69468E-05-7.19268E-05-1.18684E-06-1.08632E-19 7.07378E-19
 -1         2 2.68747E-05-8.20212E-05 1.25588E-05-5.94645E-07 9.34935E-18 5.44748E-19
 -1         3 9.52372E-05-2.85711E-05-2.85712E-05 1.17785E-11 1.31705E-18-1.85555E-19
 -1         4 9.52372E-05-2.85711E-05-2.85712E-05-1.26153E-11 1.89455E-18 4.28794E-20
 -1         5 1.96645E-04-2.93795E-05-5.81197E-05 5.18985E-05-2.49875E-19 2.21123E-17
 -1         6 1.87380E-04 3.24045E-10-5.62806E-05-6.96278E-05-1.54329E-18 1.62088E-17
 -1         7 1.13503E-04-1.42795E-06-4.86758E-05-3.84663E-05-1.57760E-19 7.70959E-19
 -1         8 1.04217E-04 9.44064E-08-4.44698E-05-2.69462E-05-1.32031E-19-3.23982E-18
 -1         9 1.00350E-04-2.11285E-07-4.23101E-05-1.87073E-05-7.99387E-21-4.52552E-18
 -1        10 9.55868E-05-4.89238E-07-3.97719E-05-8.96681E-06 9.68794E-20-4.65934E-18
 -1        11 8.62806E-05-6.04357E-07-3.55184E-05 2.34977E-06 2.07947E-19-4.28045E-18
 -1        12 7.02132E-05-3.14382E-07-2.90424E-05 1.24130E-05 3.16155E-19-3.73249E-18
 -1        13 4.92562E-05 4.86037E-07-2.13696E-05 1.63649E-05 3.71424E-19-3.35097E-18
 -1        14 3.20580E-05 1.32603E-06-1.54113E-05 1.14468E-05 2.61733E-19-3.23641E-18
 -1        15 2.62841E-05 1.54758E-06-1.34771E-05 1.53034E-06 6.15290E-20-3.33125E-18
 -1        16 3.30673E-05 1.17366E-06-1.57978E-05-8.28838E-06-1.34149E-19-3.51274E-18
 -1        17 5.05116E-05 4.31851E-07-2.18880E-05-1.27879E-05-1.82959E-19-3.56655E-18
 -1        18 7.26346E-05-2.96424E-07-3.00798E-05-8.29906E-06-1.03550E-19-3.08697E-18
 -1        19 8.99120E-05-5.30624E-07-3.71303E-05 2.42308E-06 3.02814E-20-1.94430E-18
 -1        20 1.00843E-04-3.49366E-07-4.21716E-05 1.41442E-05 1.31078E-19-3.46225E-20
 -1        21 1.08930E-04 2.89079E-08-4.62235E-05 2.46782E-05 2.15782E-19 3.30963E-18
 -1        22 1.21416E-04-5.34827E-08-5.14141E-05 3.63408E-05 2.28699E-20 9.45974E-18
 -1        23 1.41914E-04-4.80027E-05-4.44274E-05-3.68617E-06-9.58630E-19 1.14663E-17
 -1        24 1.12736E-04-3.37076E-05-3.51609E-05 3.83600E-07-2.99697E-19 7.04700E-18
 -1        25 1.02047E-04-3.07561E-05-3.08455E-05 2.55563E-08-9.13290E-20 3.43827E-18
 -1        26 9.45312E-05-2.84718E-05-2.84863E-05-1.20068E-07-4.39084E-20 8.62486E-19
 -1        27 9.04327E-05-2.72042E-05-2.73428E-05 3.88314E-08 4.14186E-20-7.65493E-19
 -1        28 9.03575E-05-2.71536E-05-2.73202E-05 2.92238E-07-6.69487E-20-1.73058E-18
 -1        29 9.38122E-05-2.81750E-05-2.82486E-05 4.68326E-07 2.30352E-19-2.88968E-18
 -1        30 9.91153E-05-2.97540E-05-2.97026E-05 4.81503E-07-5.59353E-20-3.47958E-18
 -1        31 1.04288E-04-3.12929E-05-3.11637E-05 3.63942E-07-5.83667E-20-3.99696E-18
 -1        32 1.07956E-04-3.23811E-05-3.22422E-05 2.01363E-07-2.62782E-19-4.81677E-18
 -1        33 1.09658E-04-3.28843E-05-3.27789E-05 6.28119E-08 3.51595E-19-5.37282E-18
 -1        34 1.09629E-04-3.28744E-05-3.28135E-05-2.50824E-08-4.08751E-20-4.77271E-18
 -1        35 1.08412E-04-3.25127E-05-3.24881E-05-6.62592E-08-8.15116E-20-5.12829E-18
 -1        36 1.06566E-04-3.19640E-05-3.19618E-05-7.60090E-08 2.48567E-19-4.81538E-18
 -1        37 1.04521E-04-3.13554E-05-3.13638E-05-6.90708E-08-3.41148E-19-5.49487E-18
 -1        38 1.02552E-04-3.07687E-05-3.07802E-05-5.55751E-08-8.85929E-20-6.78859E-18
 -1        39 1.00808E-04-3.02479E-05-3.02586E-05-4.11957E-08-1.21793E-19-6.88862E-18
 -1        40 9.93462E-05-2.98105E-05-2.98190E-05-2.85399E-08 4.33054E-19-7.45459E-18
 -1        41 9.81708E-05-2.94581E-05-2.94642E-05-1.84581E-08 9.56097E-20-7.97767E-18
 -1        42 9.72568E-05-2.91835E-05-2.91875E-05-1.09354E-08-2.66250E-19-9.06729E-18
 -1        43 9.65668E-05-2.89757E-05-2.89781E-05-5.60474E-09-2.35304E-19-8.59394E-18
 -1        44 9.60604E-05-2.88230E-05-2.88241E-05-2.00810E-09 2.38515E-19-6.10625E-18
 -1        45 9.56995E-05-2.87138E-05-2.87142E-05 2.86118E-10-1.52127E-19-5.71224E-18
 -1        46 9.54509E-05-2.86384E-05-2.86383E-05 1.64058E-09 1.67240E-19-5.63100E-18
 -1        47 9.52865E-05-2.85884E-05-2.85880E-05 2.34140E-09 2.06559E-19-3.55124E-18
 -1        48 9.51839E-05-2.85571E-05-2.85565E-05 2.60520E-09 5.57881E-20-2.77290E-18
 -1        49 9.51253E-05-2.85390E-05-2.85384E-05 2.59087E-09 5.96758E-20-5.45059E-18
 -1        50 9.50970E-05-2.85301E-05-2.85296E-05 2.41167E-09 1.37595E-19-7.90879E-18
 -1        51 9.50889E-05-2.85274E-05-2.85269E-05 2.14598E-09-1.18486E-19-6.47671E-18
 -1        52 9.50936E-05-2.85286E-05-2.85281E-05 1.84619E-09-8.03766E-21-5.94387E-18
 -1        53 9.51056E-05-2.85320E-05-2.85316E-05 1.54576E-09 1.03623E-19-5.18245E-18
 -1        54 9.51213E-05-2.85366E-05-2.85363E-05 1.26468E-09 5.65558E-19-3.77140E-18
 -1        55 9.51382E-05-2.85416E-05-2.85413E-05 1.01359E-09-2.45332E-19-3.41330E-18
 -1        56 9.51547E-05-2.85465E-05-2.85463E-05 7.96914E-10 6.81341E-20-3.31149E-18
 -1        57 9.51700E-05-2.85510E-05-2.85508E-05 6.15020E-10-8.25409E-21-2.12780E-18
 -1        58 9.51835E-05-2.85550E-05-2.85549E-05 4.65873E-10-4.45600E-21-2.66545E-18
 -1        59 9.51951E-05-2.85585E-05-2.85584E-05 3.46123E-10 1.67418E-19-2.21406E-18
 -1        60 9.52049E-05-2.85614E-05-2.85614E-05 2.51856E-10-6.13929E-19-2.75917E-18
 -1        61 9.52128E-05-2.85638E-05-2.85638E-05 1.79081E-10 4.38575E-19-3.22311E-18
 -1        62 9.52192E-05-2.85657E-05-2.85657E-05 1.24015E-10-2.95977E-19-2.98551E-18
 -1        63 9.52242E-05-2.85672E-05-2.85672E-05 8.32445E-11-6.82192E-19-6.07458E-18
 -1        64 9.52282E-05-2.85684E-05-2.85684E-05 5.37788E-11 5.93077E-19-7.73837E-18
 -1        65 9.52311E-05-2.85693E-05-2.85693E-05 3.30383E-11-1.89998E-19-5.03986E-18
 -1        66 9.52334E-05-2.85700E-05-2.85700E-05 1.87660E-11-2.10324E-19-4.91282E-18
 -1        67 9.52350E-05-2.85705E-05-2.85705E-05 8.82978E-12 7.50589E-19-2.53154E-18
 -1        68 9.52362E-05-2.85708E-05-2.85708E-05 8.48893E-13-6.56581E-19-2.93101E-19
 -1        69 9.52369E-05-2.85711E-05-2.85710E-05-8.40220E-12 6.28929E-19-1.10776E-18
 -1        70 9.52372E-05-2.85712E-05-2.85712E-05-2.50308E-11-3.22337E-19 3.20412E-19
 -1        71 9.52373E-05-2.85712E-05-2.85712E-05-4.39917E-11-5.14190E-20 6.30115E-19
 -1        72 1.41929E-04-4.27115E-05-4.68200E-05-2.74969E-06 1.35922E-19 2.15029E-17
 -1        73 1.24306E-04-3.70611E-05-3.84934E-05-2.51575E-07 1.98176E-19 1.83269E-17
 -1        74 1.11335E-04-3.34513E-05-3.36130E-05 4.27817E-07 1.47175E-19 1.56283E-17
 -1        75 1.00446E-04-3.01901E-05-3.03754E-05 6.11347E-07-1.76295E-19 1.46077E-17
 -1        76 9.37614E-05-2.80929E-05-2.85561E-05 3.81859E-07-2.46731E-20 1.36477E-17
 -1        77 9.31877E-05-2.78690E-05-2.83677E-05-1.07969E-07 8.40002E-20 1.21637E-17
 -1        78 9.80011E-05-2.93314E-05-2.95900E-05-5.13609E-07 3.20938E-20 1.07218E-17
 -1        79 1.05187E-04-3.15466E-05-3.14746E-05-6.39357E-07 8.64110E-20 1.07034E-17
 -1        80 1.11483E-04-3.34781E-05-3.32132E-05-5.07039E-07 6.64433E-20 9.80007E-18
 -1        81 1.15061E-04-3.45604E-05-3.42803E-05-2.80671E-07-7.41319E-20 8.70150E-18
 -1        82 1.15759E-04-3.47593E-05-3.45588E-05-8.72101E-08 2.44076E-20 8.70650E-18
 -1        83 1.14342E-04-3.43207E-05-3.42146E-05 3.19935E-08-5.80557E-21 8.23170E-18
 -1        84 1.11769E-04-3.35387E-05-3.35038E-05 8.64495E-08-1.92243E-19 6.86101E-18
 -1        85 1.08804E-04-3.26439E-05-3.26500E-05 9.95111E-08 1.66217E-19 5.06660E-18
 -1        86 1.05930E-04-3.17799E-05-3.18040E-05 9.15309E-08 1.41971E-19 3.92308E-18
 -1        87 1.03394E-04-3.10188E-05-3.10473E-05 7.55769E-08-3.04643E-19 3.12926E-18
 -1        88 1.01283E-04-3.03858E-05-3.04122E-05 5.85119E-08 6.61833E-20 3.49488E-18
 -1        89 9.95960E-05-2.98801E-05-2.99022E-05 4.33249E-08-7.12316E-21 3.37367E-18
 -1        90 9.82896E-05-2.94884E-05-2.95057E-05 3.09530E-08 9.09621E-20 3.44103E-18
 -1        91 9.73035E-05-2.91926E-05-2.92057E-05 2.13837E-08-4.72929E-19 4.79529E-18
 -1        92 9.65767E-05-2.89745E-05-2.89840E-05 1.42379E-08 3.87644E-19 4.07535E-18
 -1        93 9.60536E-05-2.88174E-05-2.88242E-05 9.04680E-09 1.02270E-19 2.07498E-18
 -1        94 9.56869E-05-2.87072E-05-2.87120E-05 5.36959E-09-1.66208E-19 3.59805E-18
 -1        95 9.54378E-05-2.86323E-05-2.86355E-05 2.83346E-09 1.85394E-19 1.96088E-18
 -1        96 9.52753E-05-2.85834E-05-2.85854E-05 1.13942E-09 5.51598E-19-3.42604E-18
 -1        97 9.51752E-05-2.85532E-05-2.85544E-05 5.49812E-11 2.64071E-20-4.73333E-18
 -1        98 9.51190E-05-2.85362E-05-2.85369E-05-5.96940E-10-7.65189E-19-1.50477E-18
 -1        99 9.50927E-05-2.85282E-05-2.85285E-05-9.49082E-10 4.54202E-19 9.81170E-19
 -1       100 9.50862E-05-2.85261E-05-2.85262E-05-1.09948E-09-3.36012E-19 5.94184E-19
 -1       101 9.50919E-05-2.85278E-05-2.85277E-05-1.11940E-09 4.85868E-20 2.22785E-18
 -1       102 9.51047E-05-2.85315E-05-2.85314E-05-1.05975E-09-2.91500E-19 1.82212E-19
 -1       103 9.51209E-05-2.85364E-05-2.85362E-05-9.56082E-10-5.13745E-20-1.29593E-18
 -1       104 9.51381E-05-2.85415E-05-2.85413E-05-8.32530E-10 3.39676E-19-2.69890E-18
 -1       105 9.51548E-05-2.85465E-05-2.85463E-05-7.04884E-10-1.74209E-19-4.16486E-19
 -1       106 9.51702E-05-2.85511E-05-2.85509E-05-5.82914E-10 1.38847E-19-1.84473E-18
 -1       107 9.51837E-05-2.85551E-05-2.85550E-05-4.72160E-10 1.02108E-19-4.91553E-18
 -1       108 9.51953E-05-2.85586E-05-2.85585E-05-3.75258E-10-9.15344E-19-2.67820E-18
 -1       109 9.52050E-05-2.85615E-05-2.85614E-05-2.92935E-10-4.30467E-19 2.98040E-18
 -1       110 9.52130E-05-2.85639E-05-2.85638E-05-2.24723E-10 4.40480E-19 2.94592E-18
 -1       111 9.52193E-05-2.85658E-05-2.85657E-05-1.69467E-10-7.62405E-19 5.37955E-18
 -1       112 9.52243E-05-2.85673E-05-2.85672E-05-1.25676E-10 3.71249E-19 4.59599E-18
 -1       113 9.52282E-05-2.85685E-05-2.85684E-05-9.17528E-11-6.84508E-19 1.05740E-18
 -1       114 9.52312E-05-2.85694E-05-2.85693E-05-6.61192E-11 1.65496E-19-4.05132E-19
 -1       115 9.52334E-05-2.85700E-05-2.85700E-05-4.72561E-11 2.45103E-19 5.60700E-19
 -1       116 9.52351E-05-2.85705E-05-2.85705E-05-3.35944E-11-2.90111E-19 3.10256E-18
 -1       117 9.52362E-05-2.85709E-05-2.85708E-05-2.31900E-11 2.85532E-20 2.74368E-18
 -1       118 9.52369E-05-2.85711E-05-2.85710E-05-1.29953E-11 2.87685E-19 2.38582E-20
 -1       119 9.52372E-05-2.85712E-05-2.85712E-05 5.22010E-12-2.23532E-19-3.53232E-18
 -1       120 9.52373E-05-2.85712E-05-2.85712E-05 3.83397E-11 8.41467E-20-8.95850E-19
 -1       121 9.52371E-05-2.85710E-05-2.85712E-05 4.98400E-11-2.42942E-18-5.78393E-19
 -1       122 9.52371E-05-2.85711E-05-2.85711E-05 1.31284E-11 2.12730E-18 1.01789E-19
 -1       123 9.52372E-05-2.85714E-05-2.85710E-05-1.33745E-11 5.71429E-18 1.36222E-18
 -1       124 9.52374E-05-2.85721E-05-2.85709E-05-2.78168E-11 4.61495E-18 7.59018E-19
 -1       125 9.52376E-05-2.85728E-05-2.85707E-05-3.18214E-11 2.06209E-18-1.47356E-18
 -1       126 9.52378E-05-2.85735E-05-2.85705E-05-2.84990E-11-9.17657E-18-9.68787E-19
 -1       127 9.52380E-05-2.85740E-05-2.85703E-05-1.93716E-11-1.23684E-17 3.14186E-19
 -1       128 9.52381E-05-2.85743E-05-2.85702E-05-6.76750E-12-8.15593E-18 1.70391E-19
 -1       129 9.52381E-05-2.85743E-05-2.85702E-05 6.97765E-12-1.94834E-18 1.34966E-18
 -1       130 9.52380E-05-2.85740E-05-2.85703E-05 1.95139E-11-5.70526E-19-2.41520E-18
 -1       131 9.52378E-05-2.85735E-05-2.85705E-05 2.88013E-11-1.19782E-17-9.92905E-19
 -1       132 9.52376E-05-2.85728E-05-2.85707E-05 3.18649E-11-1.25834E-17 3.24436E-18
 -1       133 9.52374E-05-2.85720E-05-2.85709E-05 2.75119E-11-1.06327E-17-3.43012E-19
 -1       134 9.52372E-05-2.85714E-05-2.85710E-05 1.54321E-11-4.34521E-18 1.13148E-18
 -1       135 9.52371E-05-2.85711E-05-2.85711E-05-1.81286E-11-3.91462E-18-1.90920E-18
 -1       136 9.52371E-05-2.85710E-05-2.85712E-05-7.71142E-11-2.25308E-18 2.73471E-19
 -1       137 1.83315E-05-6.02246E-05 7.96446E-06-1.52495E-05 2.02314E-17 4.22585E-18
 -1       138 5.52212E-06-1.16362E-05-4.37397E-06-4.01394E-06 2.52060E-17 1.25710E-17
 -1       139 1.59726E-05 2.64072E-05-2.09291E-05 3.81803E-05 2.49117E-17 1.92404E-17
 -1       140 7.23368E-05 2.79875E-05-4.04044E-05 9.07604E-05 1.81684E-17 2.10776E-17
 -1       141 1.61776E-04-9.03010E-06-5.79457E-05 1.15715E-04 9.05372E-18 1.62753E-17
 -1       142 2.47601E-04-5.96547E-05-6.95127E-05 8.95329E-05 2.37521E-18 6.98230E-18
 -1       143 2.87376E-04-8.81714E-05-7.33721E-05 1.97232E-05 2.78303E-19-5.48642E-18
 -1       144 2.57421E-04-7.40931E-05-6.85930E-05-5.18091E-05 2.77356E-18-1.67397E-17
 -1       145 1.75470E-04-3.05544E-05-5.65627E-05-8.90423E-05 9.23171E-18-2.32904E-17
 -1       146 8.47541E-05 9.58107E-06-4.03010E-05-7.91171E-05 1.59899E-17-2.39028E-17
 -1       147 2.76696E-05 2.14684E-05-2.50590E-05-4.37651E-05 2.02348E-17-2.02585E-17
 -1       148 3.95859E-06 7.85157E-06-1.13585E-05-8.31538E-06 2.03476E-17-1.31461E-17
 -1       149 4.49663E-06-1.51016E-05-1.89441E-06 7.84765E-06 1.55195E-17-5.96867E-18
 -1       150 9.78217E-06-2.92577E-05 2.66244E-06 5.48919E-06 7.32599E-18-1.45775E-18
 -1       151 1.02519E-05-2.97137E-05 2.99134E-06-2.00546E-06-2.93365E-18-5.32916E-19
 -1       152 4.93569E-06-1.59746E-05-9.45159E-07-6.43330E-06-1.19439E-17-3.76279E-18
 -1       153 3.35198E-06 7.02905E-06-1.00892E-05 7.57581E-06-1.78749E-17-1.01991E-17
 -1       154 1.97835E-05 2.29386E-05-2.23227E-05 3.82894E-05-1.83008E-17-1.60714E-17
 -1       155 7.33470E-05 1.51742E-05-3.82960E-05 7.65892E-05-1.43578E-17-1.93183E-17
 -1       156 1.51875E-04-1.84518E-05-5.29816E-05 9.16611E-05-8.39283E-18-1.78944E-17
 -1       157 2.37954E-04-6.40103E-05-6.58761E-05 6.39681E-05-2.66741E-18-1.01140E-17
 -1       158 2.56209E-04-6.74788E-05-6.98941E-05-7.61217E-05-3.21547E-18 1.14686E-17
 -1       159 1.70752E-04-1.54936E-05-5.86240E-05-1.13439E-04-9.24346E-18 1.89185E-17
 -1       160 7.83184E-05 2.69007E-05-4.19328E-05-9.55264E-05-1.49950E-17 1.88122E-17
 -1       161 1.98436E-05 2.97976E-05-2.31813E-05-4.51623E-05-2.00764E-17 1.56002E-17
 -1       162 4.61017E-06-8.45147E-06-4.97316E-06 2.88756E-06-1.82387E-17 9.44505E-18
 -1       163 1.82041E-05-5.96271E-05 7.80169E-06 1.62393E-05-5.52435E-18 1.90389E-18
 -1       164 1.16994E-04-1.61569E-05-4.36933E-05-2.98397E-05-2.12698E-18-8.68632E-19
 -1       165 1.11194E-04-1.35564E-05-4.20795E-05-2.47963E-05-1.31962E-18-2.83796E-18
 -1       166 1.08663E-04-1.49520E-05-4.02944E-05-1.72369E-05-1.94718E-20-3.28771E-18
 -1       167 1.03774E-04-1.69708E-05-3.72535E-05-7.53014E-06 1.34899E-18-3.01971E-18
 -1       168 9.08148E-05-1.58618E-05-3.20886E-05 4.02649E-06 2.69277E-18-2.74132E-18
 -1       169 6.61583E-05-7.91624E-06-2.48335E-05 1.38586E-05 3.64674E-18-2.68715E-18
 -1       170 3.63750E-05 4.98032E-06-1.75488E-05 1.55020E-05 3.60375E-18-3.19914E-18
 -1       171 1.70347E-05 1.39872E-05-1.30987E-05 8.25466E-06 2.34758E-18-3.83518E-18
 -1       172 1.58717E-05 1.44519E-05-1.28145E-05-3.19028E-06 5.42353E-19-4.12296E-18
 -1       173 3.53176E-05 5.33772E-06-1.72569E-05-1.16407E-05-9.62706E-19-3.79029E-18
 -1       174 6.79036E-05-8.56199E-06-2.53278E-05-9.97761E-06-1.37796E-18-2.73120E-18
 -1       175 9.43642E-05-1.68251E-05-3.32216E-05 7.71186E-07-4.90644E-19-1.49303E-18
 -1       176 1.08738E-04-1.80332E-05-3.89700E-05 1.29998E-05 7.37157E-19-1.15408E-20
 -1       177 1.16444E-04-1.69805E-05-4.28564E-05 2.32171E-05 1.73333E-18 2.22060E-18
 -1       178 1.26234E-04-1.97986E-05-4.59354E-05 3.10448E-05 1.96116E-18 6.05591E-18
 -1       179 1.41572E-04-3.52701E-05-4.71151E-05 2.71642E-05 1.40837E-18 1.10018E-17
 -1       180 1.27012E-04-3.35403E-05-4.00392E-05-2.00314E-05-2.55142E-18 2.67144E-18
 -1       181 1.16460E-04-3.41502E-05-3.53286E-05-1.18028E-05-2.04889E-18 1.86473E-18
 -1       182 1.07986E-04-3.16137E-05-3.26686E-05-8.05280E-06-1.50248E-18 8.67183E-19
 -1       183 1.02638E-04-2.97603E-05-3.11843E-05-4.52759E-06-1.16605E-18-1.06124E-19
 -1       184 1.00098E-04-2.89248E-05-3.04752E-05-5.59612E-07-7.86487E-19-8.63747E-19
 -1       185 1.00252E-04-2.93040E-05-3.03892E-05 2.85514E-06-8.48022E-19-1.58113E-18
 -1       186 1.02215E-04-3.04571E-05-3.07418E-05 4.63250E-06-6.12911E-19-2.22967E-18
 -1       187 1.04710E-04-3.16937E-05-3.12872E-05 4.53618E-06-3.11708E-19-2.38633E-18
 -1       188 1.06687E-04-3.25242E-05-3.17855E-05 3.15628E-06-4.35387E-19-2.22426E-18
 -1       189 1.07639E-04-3.28108E-05-3.20763E-05 1.35025E-06-2.08423E-19-2.12243E-18
 -1       190 1.07551E-04-3.26549E-05-3.21070E-05-2.41334E-07-1.95347E-20-2.83189E-18
 -1       191 1.06665E-04-3.22299E-05-3.19089E-05-1.33511E-06-6.64441E-20-3.11445E-18
 -1       192 1.05299E-04-3.16858E-05-3.15540E-05-1.91577E-06-1.56589E-20-3.22397E-18
 -1       193 1.03730E-04-3.11232E-05-3.11196E-05-2.09594E-06-3.42873E-19-3.43576E-18
 -1       194 1.02158E-04-3.05988E-05-3.06683E-05-2.01542E-06-5.69228E-19-2.39800E-18
 -1       195 1.00708E-04-3.01398E-05-3.02422E-05-1.79281E-06 4.37525E-20-2.59165E-18
 -1       196 9.94447E-05-2.97547E-05-2.98648E-05-1.51202E-06-1.27897E-19-2.64304E-18
 -1       197 9.83883E-05-2.94420E-05-2.95457E-05-1.22528E-06-7.40231E-19-3.35017E-18
 -1       198 9.75340E-05-2.91949E-05-2.92855E-05-9.61260E-07-9.98800E-19-4.21610E-18
 -1       199 9.68625E-05-2.90042E-05-2.90797E-05-7.32991E-07 5.34008E-19-4.01692E-18
 -1       200 9.63479E-05-2.88605E-05-2.89211E-05-5.44069E-07 9.90585E-19-3.35426E-18
 -1       201 9.59633E-05-2.87547E-05-2.88019E-05-3.92847E-07 5.49651E-20-3.35391E-18
 -1       202 9.56830E-05-2.86788E-05-2.87147E-05-2.75128E-07 8.36927E-19-2.68926E-18
 -1       203 9.54844E-05-2.86260E-05-2.86525E-05-1.85764E-07 1.25887E-18-1.24955E-18
 -1       204 9.53482E-05-2.85905E-05-2.86096E-05-1.19567E-07-2.47272E-19-8.57924E-19
 -1       205 9.52587E-05-2.85678E-05-2.85812E-05-7.17699E-08-1.20701E-18-1.20323E-18
 -1       206 9.52031E-05-2.85543E-05-2.85634E-05-3.82347E-08-9.34486E-19-1.57488E-18
 -1       207 9.51717E-05-2.85472E-05-2.85531E-05-1.55043E-08 3.59107E-19-2.42771E-18
 -1       208 9.51569E-05-2.85444E-05-2.85480E-05-7.75370E-10 5.48008E-19-2.03511E-18
 -1       209 9.51532E-05-2.85445E-05-2.85464E-05 8.16938E-09 4.83711E-19-1.74700E-18
 -1       210 9.51562E-05-2.85462E-05-2.85471E-05 1.30455E-08 2.33471E-19-1.19459E-18
 -1       211 9.51633E-05-2.85489E-05-2.85490E-05 1.51525E-08 5.82017E-19-1.10256E-18
 -1       212 9.51723E-05-2.85519E-05-2.85516E-05 1.54535E-08 4.66230E-19-6.70201E-19
 -1       213 9.51819E-05-2.85550E-05-2.85544E-05 1.46462E-08 2.30770E-19-6.64824E-19
 -1       214 9.51912E-05-2.85578E-05-2.85572E-05 1.32229E-08-3.74127E-19-1.52344E-18
 -1       215 9.51998E-05-2.85604E-05-2.85597E-05 1.15204E-08 1.84378E-20-1.84857E-18
 -1       216 9.52074E-05-2.85627E-05-2.85620E-05 9.75948E-09-5.35474E-19-3.09434E-18
 -1       217 9.52139E-05-2.85646E-05-2.85640E-05 8.07722E-09-4.37369E-19-1.68028E-18
 -1       218 9.52193E-05-2.85662E-05-2.85656E-05 6.55095E-09-5.57630E-19-2.59743E-18
 -1       219 9.52238E-05-2.85675E-05-2.85670E-05 5.21693E-09-7.85735E-19-3.24736E-18
 -1       220 9.52273E-05-2.85685E-05-2.85681E-05 4.08388E-09-2.95946E-19-6.06880E-19
 -1       221 9.52301E-05-2.85693E-05-2.85690E-05 3.14278E-09 2.00625E-18-1.94405E-19
 -1       222 9.52323E-05-2.85699E-05-2.85696E-05 2.37360E-09 4.76184E-19 1.68223E-18
 -1       223 9.52340E-05-2.85703E-05-2.85701E-05 1.74962E-09 9.74447E-19 2.07058E-18
 -1       224 9.52352E-05-2.85707E-05-2.85705E-05 1.24015E-09 1.70716E-18 9.36982E-19
 -1       225 9.52361E-05-2.85709E-05-2.85708E-05 8.12881E-10-1.55693E-19 1.19859E-18
 -1       226 9.52367E-05-2.85711E-05-2.85710E-05 4.40206E-10 1.31526E-18 1.06284E-18
 -1       227 9.52370E-05-2.85712E-05-2.85711E-05 1.16079E-10-2.69521E-19 2.43881E-18
 -1       228 1.31579E-04-3.84958E-05-4.00994E-05 1.49315E-05 1.66953E-18 1.01756E-17
 -1       229 1.19988E-04-3.56460E-05-3.61067E-05 1.13184E-05 1.30204E-18 9.16590E-18
 -1       230 1.11078E-04-3.25459E-05-3.36240E-05 8.72415E-06 6.40218E-19 8.19150E-18
 -1       231 1.05271E-04-3.02840E-05-3.21428E-05 4.38861E-06 9.50887E-19 7.08685E-18
 -1       232 1.03472E-04-2.97955E-05-3.15939E-05-8.21960E-07 9.90314E-19 5.75229E-18
 -1       233 1.05173E-04-3.09281E-05-3.18223E-05-4.55409E-06 6.68034E-19 4.99620E-18
 -1       234 1.08490E-04-3.26671E-05-3.24746E-05-5.52342E-06 4.07710E-19 4.06796E-18
 -1       235 1.11410E-04-3.39837E-05-3.31582E-05-4.12952E-06 2.72844E-19 3.78668E-18
 -1       236 1.12820E-04-3.44662E-05-3.35680E-05-1.77214E-06 2.48184E-19 3.86860E-18
 -1       237 1.12611E-04-3.42469E-05-3.35844E-05 3.76935E-07 3.18347E-19 3.45196E-18
 -1       238 1.11195E-04-3.36176E-05-3.32532E-05 1.80834E-06 3.41693E-19 2.72569E-18
 -1       239 1.09101E-04-3.28236E-05-3.26970E-05 2.50441E-06 6.17018E-19 2.50697E-18
 -1       240 1.06774E-04-3.20198E-05-3.20422E-05 2.65629E-06 7.02717E-19 1.99613E-18
 -1       241 1.04513E-04-3.12867E-05-3.13846E-05 2.48240E-06 2.15053E-19 2.18205E-18
 -1       242 1.02483E-04-3.06574E-05-3.07824E-05 2.15287E-06 3.02996E-21 2.54545E-18
 -1       243 1.00756E-04-3.01382E-05-3.02633E-05 1.77684E-06-2.23311E-19 2.09580E-18
 -1       244 9.93411E-05-2.97223E-05-2.98345E-05 1.41481E-06 2.36674E-19 2.45976E-18
 -1       245 9.82161E-05-2.93970E-05-2.94916E-05 1.09517E-06-6.94287E-19 2.86578E-18
 -1       246 9.73437E-05-2.91479E-05-2.92246E-05 8.27434E-07-1.32265E-19 2.29769E-18
 -1       247 9.66819E-05-2.89609E-05-2.90213E-05 6.11104E-07 8.57453E-19 1.41330E-18
 -1       248 9.61905E-05-2.88235E-05-2.88699E-05 4.40982E-07 5.35101E-19 1.80003E-18
 -1       249 9.58337E-05-2.87247E-05-2.87596E-05 3.10167E-07-2.49021E-19 1.33594E-18
 -1       250 9.55808E-05-2.86554E-05-2.86812E-05 2.11601E-07 1.81766E-18 8.19651E-19
 -1       251 9.54067E-05-2.86084E-05-2.86270E-05 1.38807E-07 2.19858E-18 1.10147E-19
 -1       252 9.52911E-05-2.85777E-05-2.85908E-05 8.61763E-08 8.83298E-20-9.88522E-19
 -1       253 9.52181E-05-2.85588E-05-2.85678E-05 4.90272E-08-1.86385E-18-4.33191E-20
 -1       254 9.51754E-05-2.85482E-05-2.85542E-05 2.35533E-08-1.23137E-19-5.93888E-19
 -1       255 9.51536E-05-2.85433E-05-2.85470E-05 6.72277E-09-5.46672E-19 4.16899E-19
 -1       256 9.51459E-05-2.85421E-05-2.85443E-05-3.83629E-09-2.68853E-19 2.43130E-19
 -1       257 9.51471E-05-2.85433E-05-2.85444E-05-9.94857E-09 1.38263E-18-1.04938E-18
 -1       258 9.51536E-05-2.85458E-05-2.85461E-05-1.29943E-08 3.91404E-19-2.12642E-18
 -1       259 9.51628E-05-2.85489E-05-2.85488E-05-1.39994E-08 3.10360E-19-7.14510E-19
 -1       260 9.51732E-05-2.85522E-05-2.85518E-05-1.37113E-08-1.04421E-18-2.05432E-19
 -1       261 9.51835E-05-2.85554E-05-2.85549E-05-1.26629E-08 1.29753E-18-1.01680E-19
 -1       262 9.51932E-05-2.85584E-05-2.85578E-05-1.12238E-08 8.16575E-19-3.51004E-19
 -1       263 9.52019E-05-2.85610E-05-2.85604E-05-9.64171E-09-1.88805E-18-3.53328E-19
 -1       264 9.52094E-05-2.85632E-05-2.85627E-05-8.07525E-09-1.66319E-18-3.03411E-19
 -1       265 9.52157E-05-2.85650E-05-2.85646E-05-6.61900E-09-9.21713E-19 2.44992E-19
 -1       266 9.52209E-05-2.85666E-05-2.85662E-05-5.32280E-09-1.02300E-18 1.63090E-18
 -1       267 9.52251E-05-2.85678E-05-2.85674E-05-4.20608E-09 1.53111E-18-3.48219E-19
 -1       268 9.52285E-05-2.85687E-05-2.85685E-05-3.26824E-09 7.77019E-19-1.77613E-19
 -1       269 9.52311E-05-2.85695E-05-2.85693E-05-2.49601E-09 8.08967E-19 1.50421E-18
 -1       270 9.52331E-05-2.85700E-05-2.85699E-05-1.86835E-09-2.27063E-19-1.65579E-18
 -1       271 9.52346E-05-2.85705E-05-2.85703E-05-1.35954E-09-1.50760E-18-1.75068E-18
 -1       272 9.52356E-05-2.85708E-05-2.85707E-05-9.41037E-10 1.23516E-19 4.83673E-19
 -1       273 9.52364E-05-2.85710E-05-2.85709E-05-5.84658E-10 8.08624E-19 1.36808E-18
 -1       274 9.52369E-05-2.85711E-05-2.85710E-05-2.67661E-10 9.83520E-19 2.32125E-18
 -1       275 9.52371E-05-2.85712E-05-2.85711E-05-9.24999E-12-2.21253E-19-9.45180E-19
 -1       276 9.52371E-05-2.85713E-05-2.85711E-05-1.39079E-10 5.50413E-19 3.62561E-18
 -1       277 9.52372E-05-2.85716E-05-2.85710E-05-4.27608E-10 1.40073E-19 7.98856E-19
 -1       278 9.52374E-05-2.85721E-05-2.85708E-05-6.59310E-10-2.94839E-19 9.32794E-19
 -1       279 9.52376E-05-2.85726E-05-2.85707E-05-7.62053E-10 9.06309E-20-1.50403E-18
 -1       280 9.52378E-05-2.85732E-05-2.85705E-05-7.25754E-10-3.01290E-19-7.66341E-18
 -1       281 9.52380E-05-2.85737E-05-2.85704E-05-5.62872E-10-1.34403E-18-2.58897E-18
 -1       282 9.52381E-05-2.85740E-05-2.85703E-05-3.05195E-10-3.09006E-18 1.10313E-18
 -1       283 9.52381E-05-2.85741E-05-2.85703E-05 2.52828E-12-2.71644E-18 2.67323E-18
 -1       284 9.52381E-05-2.85740E-05-2.85703E-05 3.09785E-10-1.84853E-18 9.36296E-19
 -1       285 9.52380E-05-2.85737E-05-2.85704E-05 5.66321E-10-1.90585E-18-6.70463E-18
 -1       286 9.52378E-05-2.85732E-05-2.85705E-05 7.25930E-10-2.28109E-18 1.34646E-18
 -1       287 9.52376E-05-2.85726E-05-2.85707E-05 7.61713E-10-2.11435E-18 9.75238E-19
 -1       288 9.52374E-05-2.85721E-05-2.85708E-05 6.55450E-10-1.72756E-18 2.92976E-18
 -1       289 9.52372E-05-2.85716E-05-2.85710E-05 4.25969E-10-2.33710E-18 2.47737E-19
 -1       290 9.52371E-05-2.85714E-05-2.85710E-05 2.92167E-10-9.91872E-19 8.63286E-19
 -1       291 9.98243E-06-2.31653E-05 3.58213E-06 1.17176E-05 4.15390E-18 6.59013E-18
 -1       292 2.64272E-05-2.62352E-05-2.48588E-06 2.74161E-05 8.69225E-18 6.86994E-18
 -1       293 5.58007E-05-2.39735E-05-1.50525E-05 4.19414E-05 1.00312E-17 7.88132E-18
 -1       294 9.47461E-05-2.33504E-05-3.06423E-05 5.06221E-05 9.81521E-18 7.30989E-18
 -1       295 1.39058E-04-2.91625E-05-4.60858E-05 4.32221E-05 8.36921E-18 3.80593E-18
 -1       296 1.71948E-04-2.78680E-05-5.92541E-05 4.04528E-05 7.29542E-18 2.91273E-18
 -1       297 1.89752E-04-2.92656E-05-6.57698E-05 2.33707E-05 6.23448E-18-3.17373E-19
 -1       298 1.97976E-04-3.59214E-05-6.61358E-05 4.38554E-06 5.81308E-18-4.28768E-18
 -1       299 1.77152E-04-3.50678E-05-5.87274E-05-1.40490E-05 6.40855E-18-7.21566E-18
 -1       300 1.41989E-04-3.17166E-05-4.65662E-05-3.01679E-05 6.98056E-18-9.21784E-18
 -1       301 9.67770E-05-2.17467E-05-3.28822E-05-3.85298E-05 8.28038E-18-1.03304E-17
 -1       302 5.40292E-05-1.14713E-05-1.99743E-05-3.35987E-05 8.54169E-18-9.46289E-18
 -1       303 2.18384E-05-4.43635E-06-9.49561E-06-2.13613E-05 7.42414E-18-7.63384E-18
 -1       304 5.65342E-06-2.61260E-06-3.07189E-06-8.92273E-06 5.02751E-18-5.89683E-18
 -1       305-5.11610E-07 2.34521E-06-1.73965E-06-2.07535E-07 1.89158E-18-5.40809E-18
 -1       306 3.19708E-06-1.21484E-06-2.37603E-06 8.75578E-06-1.38675E-18-4.96420E-18
 -1       307 1.88520E-05-9.10104E-07-9.01038E-06 2.30663E-05-3.02391E-18-5.51908E-18
 -1       308 4.64580E-05-6.93577E-06-1.83240E-05 3.41480E-05-5.68878E-18-6.56239E-18
 -1       309 9.02802E-05-1.99361E-05-3.08106E-05 3.80303E-05-5.66750E-18-6.26688E-18
 -1       310 1.30093E-04-2.60514E-05-4.41557E-05 3.75052E-05-6.60008E-18-7.40857E-18
 -1       311 1.65760E-04-3.19818E-05-5.57547E-05 1.88498E-05-6.11521E-18-4.48186E-18
 -1       312 1.88933E-04-3.32713E-05-6.39888E-05 1.24091E-06-5.76448E-18-1.94415E-18
 -1       313 1.95584E-04-3.31997E-05-6.61423E-05-2.05975E-05-5.04726E-18 1.63131E-18
 -1       314 1.72074E-04-2.69995E-05-5.96603E-05-3.61620E-05-5.61297E-18 3.69349E-18
 -1       315 1.38631E-04-2.28729E-05-4.78825E-05-5.21533E-05-6.07651E-18 6.95075E-18
 -1       316 9.58466E-05-2.02264E-05-3.22329E-05-5.15670E-05-7.43780E-18 6.46943E-18
 -1       317 5.78617E-05-2.30877E-05-1.61444E-05-4.25891E-05-5.71387E-18 6.15221E-18
 -1       318 2.58492E-05-2.65378E-05-2.33364E-06-2.62066E-05-2.72702E-18 7.74503E-18
 -1       319 9.92350E-06-2.69144E-05 4.56804E-06-1.04915E-05 1.32614E-18 6.98347E-18
 -1       320 1.24244E-04-2.45505E-05-4.29535E-05-2.99385E-05-2.45306E-18 1.25795E-18
 -1       321 1.16456E-04-2.40964E-05-3.97287E-05-2.32937E-05-1.05281E-18-1.39792E-18
 -1       322 1.18660E-04-2.57279E-05-3.99513E-05-2.56103E-05-2.27461E-18-8.08731E-19
 -1       323 1.10195E-04-2.85222E-05-3.50871E-05-5.71506E-06 1.83043E-18-8.63735E-19
 -1       324 9.19035E-05-2.43333E-05-2.88437E-05 1.09939E-05 3.39140E-18-1.03431E-18
 -1       325 5.70849E-05-9.38311E-06-2.02153E-05 2.33439E-05 3.94077E-18-2.49536E-18
 -1       326 6.07579E-06 1.68569E-05-9.39056E-06 2.76075E-06 1.81177E-18-5.06865E-18
 -1       327 1.78896E-05 1.07530E-05-1.18341E-05-1.32280E-05 4.35957E-20-4.94133E-18
 -1       328 5.51049E-05-8.06062E-06-1.98076E-05-1.92834E-05-1.45650E-18-3.28964E-18
 -1       329 9.35589E-05-2.48720E-05-2.93556E-05-6.15606E-06-1.22158E-18-9.39902E-19
 -1       330 1.13335E-04-2.94602E-05-3.60205E-05 1.05406E-05 7.03170E-20 6.16600E-19
 -1       331 1.21034E-04-2.83183E-05-3.98830E-05 2.17206E-05 1.42152E-18 2.12141E-18
 -1       332 1.26444E-04-2.93414E-05-4.18305E-05 2.63488E-05 2.13060E-18 4.56020E-18
 -1       333 1.30602E-04-3.41687E-05-4.14846E-05 2.33023E-05 2.14497E-18 6.85978E-18
 -1       334 1.24761E-04-3.58484E-05-3.80942E-05 1.89023E-05 1.72967E-18 6.45070E-18
 -1       335 1.16245E-04-3.14210E-05-3.63040E-05-1.75835E-05-2.08104E-18 1.31853E-19
 -1       336 1.10837E-04-2.94774E-05-3.48312E-05-1.19713E-05-1.96262E-18-1.29698E-19
 -1       337 1.06965E-04-2.76985E-05-3.39468E-05-5.50091E-06-1.74097E-18-6.67575E-19
 -1       338 1.05603E-04-2.79146E-05-3.32807E-05 9.47796E-07-1.38945E-18-1.29745E-18
 -1       339 1.06369E-04-3.00174E-05-3.27125E-05 5.28749E-06-9.79768E-19-1.56717E-18
 -1       340 1.07802E-04-3.25206E-05-3.22590E-05 6.45097E-06-6.82563E-19-1.84662E-18
 -1       341 1.08639E-04-3.41282E-05-3.19384E-05 5.02451E-06-2.16998E-19-1.94093E-18
 -1       342 1.08431E-04-3.44636E-05-3.17119E-05 2.41158E-06-1.88732E-19-1.85670E-18
 -1       343 1.07382E-04-3.38770E-05-3.15152E-05-1.74946E-07-2.33132E-19-1.99166E-18
 -1       344 1.05882E-04-3.28818E-05-3.12967E-05-2.10516E-06-2.16625E-19-2.01692E-18
 -1       345 1.04250E-04-3.18504E-05-3.10354E-05-3.23683E-06-2.13883E-19-1.99693E-18
 -1       346 1.02675E-04-3.09629E-05-3.07371E-05-3.68898E-06-1.71110E-19-1.44397E-18
 -1       347 1.01249E-04-3.02679E-05-3.04209E-05-3.66367E-06-6.02105E-20-1.05946E-18
 -1       348 1.00006E-04-2.97511E-05-3.01081E-05-3.35241E-06-4.05184E-19-1.10775E-18
 -1       349 9.89526E-05-2.93773E-05-2.98158E-05-2.90187E-06-3.33783E-19-9.38198E-19
 -1       350 9.80790E-05-2.91112E-05-2.95551E-05-2.41064E-06-6.54530E-19-1.24396E-18
 -1       351 9.73691E-05-2.89236E-05-2.93313E-05-1.93797E-06-6.48822E-19-6.64279E-19
 -1       352 9.68030E-05-2.87925E-05-2.91451E-05-1.51501E-06 9.80465E-20 3.00487E-19
 -1       353 9.63600E-05-2.87021E-05-2.89943E-05-1.15452E-06 5.36792E-19-2.14520E-19
 -1       354 9.60199E-05-2.86408E-05-2.88752E-05-8.58207E-07 6.15953E-19-1.19410E-18
 -1       355 9.57639E-05-2.86002E-05-2.87832E-05-6.21633E-07 2.78631E-19-7.49248E-19
 -1       356 9.55752E-05-2.85743E-05-2.87137E-05-4.37471E-07 1.40321E-18-1.09703E-18
 -1       357 9.54394E-05-2.85587E-05-2.86624E-05-2.97432E-07 9.44267E-19-2.02407E-18
 -1       358 9.53443E-05-2.85503E-05-2.86255E-05-1.93390E-07-6.56697E-19-1.97696E-18
 -1       359 9.52800E-05-2.85466E-05-2.85996E-05-1.17959E-07-3.42689E-19-6.32667E-20
 -1       360 9.52383E-05-2.85460E-05-2.85822E-05-6.47495E-08-7.93191E-19 8.04495E-19
 -1       361 9.52131E-05-2.85472E-05-2.85709E-05-2.84259E-08 4.21778E-19 8.13023E-19
 -1       362 9.51994E-05-2.85495E-05-2.85641E-05-4.65388E-09 2.64581E-19 3.98734E-19
 -1       363 9.51935E-05-2.85523E-05-2.85605E-05 1.00034E-08 1.37518E-19-4.73076E-20
 -1       364 9.51928E-05-2.85552E-05-2.85589E-05 1.82136E-08 6.54390E-19 3.64850E-19
 -1       365 9.51952E-05-2.85579E-05-2.85588E-05 2.20044E-08 6.55297E-19 1.03350E-18
 -1       366 9.51993E-05-2.85604E-05-2.85595E-05 2.28852E-08-4.88272E-20 4.48915E-20
 -1       367 9.52042E-05-2.85626E-05-2.85607E-05 2.19545E-08-6.28359E-19 4.72691E-19
 -1       368 9.52093E-05-2.85645E-05-2.85621E-05 1.99917E-08-2.59248E-19-1.24881E-19
 -1       369 9.52142E-05-2.85661E-05-2.85635E-05 1.75335E-08-8.64859E-19 8.45570E-20
 -1       370 9.52186E-05-2.85673E-05-2.85648E-05 1.49355E-08-5.23719E-19 1.61624E-19
 -1       371 9.52224E-05-2.85684E-05-2.85661E-05 1.24207E-08-2.30392E-19-1.37865E-18
 -1       372 9.52257E-05-2.85691E-05-2.85671E-05 1.01179E-08 3.01229E-19 1.18879E-18
 -1       373 9.52285E-05-2.85698E-05-2.85680E-05 8.09026E-09 1.29395E-18 2.95294E-18
 -1       374 9.52307E-05-2.85702E-05-2.85688E-05 6.35652E-09 1.87974E-18 4.27583E-18
 -1       375 9.52325E-05-2.85706E-05-2.85694E-05 4.90650E-09 1.51259E-18 3.19581E-18
 -1       376 9.52339E-05-2.85708E-05-2.85699E-05 3.71206E-09 1.07952E-18 3.64519E-18
 -1       377 9.52350E-05-2.85710E-05-2.85703E-05 2.73441E-09-7.81715E-20 2.53140E-18
 -1       378 9.52358E-05-2.85712E-05-2.85705E-05 1.93089E-09-2.14739E-19 2.23227E-18
 -1       379 9.52364E-05-2.85713E-05-2.85707E-05 1.25946E-09 1.09568E-18 2.62328E-18
 -1       380 9.52368E-05-2.85714E-05-2.85709E-05 7.28454E-10 1.06262E-18 1.84619E-18
 -1       381 1.17411E-04-3.27859E-05-3.62311E-05 1.50970E-05 1.37534E-18 5.73077E-18
 -1       382 1.11481E-04-2.94468E-05-3.51312E-05 8.76157E-06 1.48961E-18 4.79221E-18
 -1       383 1.08810E-04-2.85245E-05-3.43962E-05 7.02790E-07 1.66374E-18 3.45358E-18
 -1       384 1.09525E-04-3.05683E-05-3.38472E-05-5.41984E-06 1.46688E-18 2.30395E-18
 -1       385 1.11621E-04-3.35582E-05-3.34518E-05-7.41072E-06 6.74580E-19 1.53634E-18
 -1       386 1.13011E-04-3.55083E-05-3.32183E-05-5.63293E-06 4.96927E-19 1.53144E-18
 -1       387 1.12896E-04-3.58088E-05-3.30527E-05-2.25642E-06 1.65908E-19 1.01429E-18
 -1       388 1.11558E-04-3.49939E-05-3.28313E-05 9.13525E-07 4.67010E-19 1.50717E-18
 -1       389 1.09560E-04-3.37666E-05-3.24980E-05 3.07196E-06 6.23046E-19 1.22398E-18
 -1       390 1.07350E-04-3.25607E-05-3.20618E-05 4.15173E-06 4.93498E-19 1.03938E-18
 -1       391 1.05195E-04-3.15499E-05-3.15657E-05 4.40767E-06 7.87391E-19 1.12118E-18
 -1       392 1.03235E-04-3.07626E-05-3.10593E-05 4.15274E-06 1.65407E-19 1.67912E-18
 -1       393 1.01530E-04-3.01679E-05-3.05810E-05 3.64066E-06 6.27193E-20 1.33028E-18
 -1       394 1.00093E-04-2.97235E-05-3.01545E-05 3.04067E-06 8.99145E-22 1.39889E-18
 -1       395 9.89123E-05-2.93925E-05-2.97902E-05 2.45115E-06-1.24608E-19 2.15458E-18
 -1       396 9.79638E-05-2.91466E-05-2.94894E-05 1.92149E-06-7.19291E-19 2.54086E-18
 -1       397 9.72169E-05-2.89649E-05-2.92476E-05 1.47086E-06 2.43105E-19 1.69023E-18
 -1       398 9.66400E-05-2.88320E-05-2.90579E-05 1.10149E-06 1.07846E-18 1.76758E-18
 -1       399 9.62027E-05-2.87360E-05-2.89122E-05 8.07070E-07 5.50610E-19 1.34811E-18
 -1       400 9.58776E-05-2.86679E-05-2.88025E-05 5.77694E-07 7.43319E-19-7.15447E-20
 -1       401 9.56408E-05-2.86208E-05-2.87216E-05 4.02583E-07 1.04921E-18-7.13674E-19
 -1       402 9.54725E-05-2.85893E-05-2.86633E-05 2.71480E-07 1.72983E-18 2.99120E-19
 -1       403 9.53560E-05-2.85692E-05-2.86222E-05 1.75275E-07 8.51716E-19 1.53912E-18
 -1       404 9.52783E-05-2.85572E-05-2.85943E-05 1.06209E-07-9.05380E-19 3.97899E-19
 -1       405 9.52289E-05-2.85508E-05-2.85760E-05 5.78738E-08 1.75291E-19-1.41230E-18
 -1       406 9.51997E-05-2.85483E-05-2.85647E-05 2.50896E-08-1.13653E-18-6.70665E-19
 -1       407 9.51845E-05-2.85482E-05-2.85583E-05 3.75185E-09 3.87967E-20-5.13623E-19
 -1       408 9.51787E-05-2.85496E-05-2.85552E-05-9.33637E-09 2.20500E-18-7.83001E-19
 -1       409 9.51789E-05-2.85518E-05-2.85544E-05-1.66234E-08 7.86756E-19-6.36894E-19
 -1       410 9.51828E-05-2.85544E-05-2.85550E-05-1.99522E-08-6.29288E-19-3.39255E-19
 -1       411 9.51887E-05-2.85571E-05-2.85564E-05-2.06845E-08-6.34892E-19 3.66491E-20
 -1       412 9.51953E-05-2.85595E-05-2.85582E-05-1.98063E-08 1.32571E-18 4.07215E-19
 -1       413 9.52020E-05-2.85618E-05-2.85601E-05-1.80143E-08 6.58828E-19 1.70668E-18
 -1       414 9.52083E-05-2.85637E-05-2.85620E-05-1.57872E-08-1.05449E-18 1.70798E-18
 -1       415 9.52139E-05-2.85654E-05-2.85637E-05-1.34410E-08-7.79484E-19-4.57489E-19
 -1       416 9.52188E-05-2.85668E-05-2.85652E-05-1.11740E-08-1.29198E-18-9.79245E-19
 -1       417 9.52230E-05-2.85679E-05-2.85665E-05-9.10039E-09-1.44249E-18-2.49101E-18
 -1       418 9.52264E-05-2.85688E-05-2.85676E-05-7.27604E-09 1.25182E-18-2.41306E-18
 -1       419 9.52292E-05-2.85695E-05-2.85685E-05-5.71748E-09-3.35430E-20-2.21799E-18
 -1       420 9.52314E-05-2.85700E-05-2.85692E-05-4.41558E-09-1.21172E-19-1.07818E-18
 -1       421 9.52331E-05-2.85704E-05-2.85698E-05-3.34513E-09 8.71778E-19 2.97807E-19
 -1       422 9.52345E-05-2.85707E-05-2.85702E-05-2.47142E-09-8.71319E-19 9.48689E-19
 -1       423 9.52355E-05-2.85710E-05-2.85705E-05-1.75470E-09-4.31686E-19 3.27264E-19
 -1       424 9.52362E-05-2.85711E-05-2.85707E-05-1.15589E-09-4.14596E-19-3.83056E-19
 -1       425 9.52367E-05-2.85712E-05-2.85709E-05-6.48437E-10 1.17037E-18 2.11388E-18
 -1       426 9.52369E-05-2.85713E-05-2.85710E-05-3.72091E-10 1.75064E-18 2.78691E-18
 -1       427 9.52375E-05-2.85725E-05-2.85707E-05-1.33692E-09-2.76676E-19 1.66753E-18
 -1       428 9.52371E-05-2.85720E-05-2.85708E-05-1.09625E-09-4.12994E-19 1.08614E-18
 -1       429 9.52370E-05-2.85716E-05-2.85709E-05-7.43354E-10-5.23454E-20-6.76921E-19
 -1       430 9.52378E-05-2.85731E-05-2.85706E-05-1.35842E-09-5.50023E-19-6.30374E-18
 -1       431 9.52381E-05-2.85736E-05-2.85705E-05-1.16003E-09 1.19378E-18-4.66045E-18
 -1       432 9.52383E-05-2.85740E-05-2.85704E-05-7.75676E-10 1.38734E-18-2.27215E-18
 -1       433 9.52384E-05-2.85742E-05-2.85704E-05-2.69526E-10-1.21043E-18 1.78625E-18
 -1       434 9.52384E-05-2.85742E-05-2.85704E-05 2.78279E-10-1.34238E-18 1.77735E-18
 -1       435 9.52383E-05-2.85740E-05-2.85704E-05 7.82890E-10-2.09209E-18-2.86571E-18
 -1       436 9.52381E-05-2.85736E-05-2.85705E-05 1.15977E-09-4.37001E-19-2.48379E-18
 -1       437 9.52378E-05-2.85731E-05-2.85706E-05 1.35910E-09-5.86824E-19 3.43642E-18
 -1       438 9.52374E-05-2.85725E-05-2.85707E-05 1.33536E-09 5.95314E-19 2.58874E-18
 -1       439 9.52371E-05-2.85719E-05-2.85708E-05 1.09218E-09-5.92023E-19 3.11195E-20
 -1       440 5.95267E-05-3.04634E-05-1.26853E-05 4.47599E-05 1.77602E-18 4.88992E-18
 -1       441 1.45952E-05-7.63664E-06-2.85491E-06-2.39378E-06 6.59619E-19 7.30291E-18
 -1       442 2.91657E-05-1.73361E-05-5.23773E-06 3.14508E-05 1.20766E-18 5.71737E-18
 -1       443 9.86087E-05-4.22774E-05-2.42244E-05 4.39927E-05 3.33265E-18 2.39250E-18
 -1       444 1.30218E-04-4.71854E-05-3.56465E-05 2.87816E-05 4.10758E-18-5.36489E-19
 -1       445 1.15458E-04-2.62425E-05-3.83851E-05-1.72026E-05 2.67280E-19-1.38525E-18
 -1       446 1.50391E-04-1.97094E-05-5.59455E-05 8.64004E-06 6.82158E-18-1.03513E-18
 -1       447 1.49445E-04-1.26299E-05-5.85694E-05 1.20137E-05 7.06320E-18-7.51097E-19
 -1       448 1.52209E-04-1.91860E-05-5.68703E-05 1.46587E-05 6.56398E-18-4.71533E-19
 -1       449 1.47563E-04-3.34008E-05-4.89845E-05 7.74705E-06 4.63208E-18-9.84041E-19
 -1       450 1.29209E-04-3.96731E-05-3.85687E-05-9.08925E-06 3.08129E-18-2.28942E-18
 -1       451 9.59139E-05-3.14908E-05-2.79095E-05-2.53543E-05 2.58387E-18-4.24432E-18
 -1       452 5.81895E-05-1.60599E-05-1.82304E-05-2.89013E-05 1.48220E-18-5.00520E-18
 -1       453 2.22759E-05 6.62615E-07-1.00409E-05-2.17204E-05 1.73843E-18-5.96269E-18
 -1       454 5.17554E-06 9.36125E-06-6.23355E-06-9.28921E-06 1.58070E-18-5.99006E-18
 -1       455 3.32326E-06 1.24815E-05-6.58043E-06 9.12941E-06 1.86517E-18-5.58163E-18
 -1       456 1.84825E-05 5.39335E-06-9.98141E-06 2.10084E-05 2.18990E-18-5.08045E-18
 -1       457 4.81153E-05-9.53125E-06-1.67633E-05 3.07149E-05 8.55662E-19-3.64428E-18
 -1       458 8.41819E-05-2.47987E-05-2.57101E-05 2.93190E-05-3.74071E-19-2.79261E-18
 -1       459 1.23779E-04-3.57289E-05-3.78351E-05 1.34488E-05-2.33072E-18-1.41571E-18
 -1       460 1.40299E-04-3.25091E-05-4.63335E-05-6.89022E-07-4.18201E-18-7.18602E-19
 -1       461 1.44858E-04-1.92673E-05-5.39584E-05-1.32430E-05-6.03580E-18-2.75445E-19
 -1       462 1.53555E-04-1.40294E-05-5.94363E-05-1.12280E-05-6.28107E-18-1.31280E-18
 -1       463 1.48319E-04-1.55886E-05-5.67242E-05-8.69278E-06-5.25425E-18-1.36293E-18
 -1       464 1.43935E-04-3.19548E-05-4.80377E-05-1.17261E-05-2.90516E-18-1.37082E-18
 -1       465 1.30460E-04-4.09952E-05-3.82599E-05-3.02398E-05-1.97459E-18 7.69741E-19
 -1       466 1.02970E-04-4.30904E-05-2.56689E-05-4.20303E-05-5.64336E-20 9.24007E-19
 -1       467 5.94923E-05-3.05037E-05-1.26569E-05-4.48710E-05 1.49639E-18 4.71022E-18
 -1       468 2.73445E-05-1.72054E-05-4.61039E-06-3.06998E-05 1.61741E-18 7.27273E-18
 -1       469 1.47816E-04-3.25351E-05-4.92586E-05 1.27083E-05 6.55005E-18-1.54181E-18
 -1       470 1.91549E-05 9.81704E-06-1.20216E-05 1.82333E-05 3.44295E-18-4.25793E-18
 -1       471 2.66705E-05-7.15042E-06-7.86685E-06 1.60437E-05-5.45013E-19 6.41066E-18
 -1       472 1.14319E-04-3.44281E-05-3.42565E-05-6.79874E-07 1.44038E-18 1.79756E-19
 -1       473 1.32005E-04-1.29830E-05-5.14900E-05 4.05749E-06 6.29949E-18-9.59768E-19
 -1       474 8.85486E-05-2.85093E-05-2.56691E-05-1.90789E-05-4.58774E-19-2.30981E-18
 -1       475 1.26736E-04-3.39236E-05-3.98159E-05 2.56406E-05 1.95367E-18 3.66103E-18
 -1       476 1.26523E-04-3.50570E-05-3.92416E-05 2.34680E-05 1.92149E-18 4.89149E-18
 -1       477 1.16075E-04-2.80488E-05-3.77342E-05-1.96699E-05-2.16959E-18-3.31627E-19
 -1       478 1.21339E-04-3.22890E-05-3.81586E-05 2.02306E-05 2.07671E-18 4.70688E-18
 -1       479 1.15437E-04-2.75632E-05-3.76929E-05 1.32396E-05 1.97175E-18 3.66949E-18
 -1       480 1.11862E-04-2.48240E-05-3.73240E-05-1.27565E-05-2.54560E-18-6.90344E-19
 -1       481 1.09377E-04-2.38198E-05-3.67022E-05-3.83674E-06-2.00735E-18-1.40937E-18
 -1       482 1.09897E-04-2.69883E-05-3.55627E-05 3.64306E-06-1.53055E-18-1.87881E-18
 -1       483 1.11663E-04-3.20852E-05-3.41159E-05 6.68892E-06-1.01329E-18-2.25340E-18
 -1       484 1.12368E-04-3.59049E-05-3.27789E-05 5.59350E-06-3.95339E-19-1.86812E-18
 -1       485 1.11217E-04-3.70839E-05-3.17794E-05 2.42028E-06 2.13686E-20-1.59368E-18
 -1       486 1.08836E-04-3.62159E-05-3.11308E-05-8.52290E-07-3.92266E-20-1.14389E-18
 -1       487 1.06111E-04-3.44272E-05-3.07288E-05-3.27748E-06-1.44137E-19-1.04280E-18
 -1       488 1.03628E-04-3.25670E-05-3.04588E-05-4.67054E-06-1.96868E-19-1.11430E-18
 -1       489 1.01604E-04-3.10382E-05-3.02442E-05-5.20706E-06 6.31235E-20-9.82712E-19
 -1       490 1.00041E-04-2.99362E-05-3.00455E-05-5.14880E-06 1.86803E-19-8.78256E-19
 -1       491 9.88611E-05-2.92112E-05-2.98494E-05-4.73204E-06-1.86733E-19-4.72268E-19
 -1       492 9.79712E-05-2.87695E-05-2.96568E-05-4.13503E-06-1.25984E-19-1.74360E-19
 -1       493 9.72958E-05-2.85216E-05-2.94734E-05-3.47884E-06-4.47155E-19-2.91315E-19
 -1       494 9.67792E-05-2.83977E-05-2.93051E-05-2.83868E-06-2.27253E-19 8.57265E-20
 -1       495 9.63818E-05-2.83489E-05-2.91558E-05-2.25649E-06 3.06270E-19 9.16314E-19
 -1       496 9.60761E-05-2.83429E-05-2.90276E-05-1.75165E-06-3.62716E-19 8.84124E-19
 -1       497 9.58418E-05-2.83594E-05-2.89202E-05-1.32922E-06 1.96891E-19 6.75926E-19
 -1       498 9.56637E-05-2.83861E-05-2.88326E-05-9.85754E-07 4.76991E-19 4.73784E-19
 -1       499 9.55300E-05-2.84159E-05-2.87627E-05-7.13300E-07 9.26156E-19 5.04189E-19
 -1       500 9.54310E-05-2.84449E-05-2.87079E-05-5.01991E-07 3.29527E-19 4.61466E-19
 -1       501 9.53590E-05-2.84710E-05-2.86660E-05-3.41624E-07-2.24891E-19-4.97485E-19
 -1       502 9.53079E-05-2.84935E-05-2.86345E-05-2.22571E-07 3.63702E-19-1.00953E-18
 -1       503 9.52725E-05-2.85122E-05-2.86114E-05-1.36253E-07 1.27973E-19-1.51672E-18
 -1       504 9.52489E-05-2.85274E-05-2.85949E-05-7.53181E-08 6.80129E-19 5.61736E-19
 -1       505 9.52340E-05-2.85394E-05-2.85833E-05-3.36610E-08 6.91711E-19 2.22121E-18
 -1       506 9.52251E-05-2.85487E-05-2.85756E-05-6.33599E-09-2.39897E-19 1.90260E-18
 -1       507 9.52205E-05-2.85557E-05-2.85706E-05 1.05745E-08 1.48092E-19 1.98714E-18
 -1       508 9.52188E-05-2.85610E-05-2.85677E-05 2.01100E-08-4.05132E-19 9.69498E-19
 -1       509 9.52190E-05-2.85648E-05-2.85661E-05 2.45815E-08-2.72795E-20-7.07189E-19
 -1       510 9.52202E-05-2.85675E-05-2.85655E-05 2.57108E-08-2.31309E-19 9.43967E-20
 -1       511 9.52221E-05-2.85694E-05-2.85655E-05 2.47518E-08-8.95310E-19-4.38299E-19
 -1       512 9.52241E-05-2.85706E-05-2.85658E-05 2.25957E-08-4.34422E-19-3.98566E-19
 -1       513 9.52262E-05-2.85714E-05-2.85664E-05 1.98570E-08-7.76864E-19-4.49295E-19
 -1       514 9.52282E-05-2.85718E-05-2.85670E-05 1.69438E-08-9.26591E-19 5.35158E-19
 -1       515 9.52300E-05-2.85721E-05-2.85677E-05 1.41128E-08 5.39565E-19 5.79122E-19
 -1       516 9.52315E-05-2.85722E-05-2.85683E-05 1.15131E-08 1.50843E-18 4.61377E-19
 -1       517 9.52328E-05-2.85721E-05-2.85689E-05 9.21812E-09 2.51598E-18 7.68472E-19
 -1       518 9.52339E-05-2.85721E-05-2.85693E-05 7.25060E-09 1.09000E-18 1.43468E-18
 -1       519 9.52347E-05-2.85720E-05-2.85698E-05 5.60015E-09 4.76635E-19 1.48747E-18
 -1       520 9.52355E-05-2.85719E-05-2.85701E-05 4.23685E-09 4.87455E-19 1.60923E-18
 -1       521 9.52360E-05-2.85719E-05-2.85704E-05 3.11792E-09 5.26502E-19 2.90642E-18
 -1       522 9.52365E-05-2.85718E-05-2.85706E-05 2.19959E-09 5.56016E-19 2.93723E-18
 -1       523 5.55190E-05-2.35037E-05-1.33827E-05 3.89679E-05-1.43249E-18 3.76358E-18
 -1       524 1.13714E-04-2.65057E-05-3.74901E-05-3.09881E-06 2.65989E-18 4.78378E-19
 -1       525 1.16241E-04-3.29445E-05-3.57061E-05-7.80947E-06 1.64595E-18-3.85129E-19
 -1       526 1.17247E-04-3.77826E-05-3.40688E-05-6.58212E-06 7.30270E-19-7.80289E-19
 -1       527 1.15529E-04-3.89877E-05-3.28217E-05-2.34071E-06 2.18866E-19-5.76051E-19
 -1       528 1.12299E-04-3.75615E-05-3.20454E-05 1.85066E-06-6.00905E-21-4.96358E-19
 -1       529 1.08802E-04-3.51776E-05-3.15634E-05 4.73541E-06 2.48366E-19 4.79579E-19
 -1       530 1.05743E-04-3.29301E-05-3.12131E-05 6.19418E-06 6.40409E-19 5.43924E-19
 -1       531 1.03309E-04-3.12175E-05-3.08996E-05 6.55739E-06 6.65706E-19-1.00214E-19
 -1       532 1.01442E-04-3.00659E-05-3.05901E-05 6.22813E-06 2.01897E-19-3.40258E-19
 -1       533 1.00014E-04-2.93495E-05-3.02834E-05 5.53419E-06-3.13058E-19 5.38553E-19
 -1       534 9.89096E-05-2.89278E-05-2.99899E-05 4.69806E-06-3.24751E-19 9.05661E-19
 -1       535 9.80449E-05-2.86907E-05-2.97207E-05 3.85526E-06-1.31525E-18 1.83695E-18
 -1       536 9.73634E-05-2.85640E-05-2.94831E-05 3.07940E-06-1.65224E-19 1.52965E-18
 -1       537 9.68265E-05-2.85013E-05-2.92801E-05 2.40391E-06 5.35140E-19 5.83444E-19
 -1       538 9.64058E-05-2.84747E-05-2.91116E-05 1.83793E-06 5.66719E-19 7.43080E-20
 -1       539 9.60795E-05-2.84680E-05-2.89750E-05 1.37720E-06 3.76578E-19 6.33940E-19
 -1       540 9.58298E-05-2.84719E-05-2.88666E-05 1.01082E-06 1.48591E-18 7.00650E-19
 -1       541 9.56417E-05-2.84811E-05-2.87823E-05 7.25341E-07 9.64927E-19 5.52191E-19
 -1       542 9.55025E-05-2.84925E-05-2.87179E-05 5.07079E-07 9.04200E-19 1.73762E-18
 -1       543 9.54016E-05-2.85044E-05-2.86698E-05 3.43310E-07 5.92928E-19 1.77072E-18
 -1       544 9.53302E-05-2.85157E-05-2.86344E-05 2.22818E-07 7.15070E-19 1.48310E-18
 -1       545 9.52812E-05-2.85261E-05-2.86091E-05 1.36064E-07-2.67878E-19 2.03438E-18
 -1       546 9.52488E-05-2.85351E-05-2.85914E-05 7.51462E-08-2.23665E-19 1.48839E-18
 -1       547 9.52286E-05-2.85428E-05-2.85795E-05 3.36657E-08-7.44077E-19-8.69886E-19
 -1       548 9.52169E-05-2.85493E-05-2.85718E-05 6.53222E-09 1.10029E-18-1.17223E-18
 -1       549 9.52112E-05-2.85546E-05-2.85671E-05-1.02309E-08 1.25125E-18 2.36654E-19
 -1       550 9.52094E-05-2.85588E-05-2.85645E-05-1.96784E-08 5.29276E-19 6.00510E-19
 -1       551 9.52101E-05-2.85622E-05-2.85634E-05-2.41159E-08-6.12621E-19 5.35796E-20
 -1       552 9.52122E-05-2.85647E-05-2.85632E-05-2.52520E-08-1.03821E-18-3.19927E-20
 -1       553 9.52151E-05-2.85667E-05-2.85636E-05-2.43269E-08 7.52168E-20 1.43272E-18
 -1       554 9.52183E-05-2.85682E-05-2.85643E-05-2.22197E-08 6.33203E-19 2.56018E-18
 -1       555 9.52214E-05-2.85693E-05-2.85652E-05-1.95358E-08 5.44016E-19 4.15606E-19
 -1       556 9.52243E-05-2.85700E-05-2.85661E-05-1.66771E-08-1.15356E-18 5.45564E-19
 -1       557 9.52269E-05-2.85706E-05-2.85670E-05-1.38968E-08-3.05906E-20-7.52616E-20
 -1       558 9.52291E-05-2.85709E-05-2.85678E-05-1.13420E-08 7.93254E-19-3.91459E-19
 -1       559 9.52310E-05-2.85712E-05-2.85685E-05-9.08577E-09 5.58779E-19-9.85153E-19
 -1       560 9.52325E-05-2.85713E-05-2.85691E-05-7.15125E-09-1.12284E-18 3.15851E-19
 -1       561 9.52338E-05-2.85714E-05-2.85696E-05-5.52882E-09-1.11002E-18 1.11266E-18
 -1       562 9.52348E-05-2.85715E-05-2.85700E-05-4.18842E-09-1.41953E-18 2.11605E-18
 -1       563 9.52355E-05-2.85715E-05-2.85703E-05-3.09017E-09 2.39019E-20 1.90733E-18
 -1       564 9.52361E-05-2.85716E-05-2.85705E-05-2.19055E-09 4.01098E-19 1.92344E-18
 -1       565 9.52366E-05-2.85716E-05-2.85707E-05-1.44184E-09 9.06083E-19 6.65054E-19
 -1       566 9.52382E-05-2.85737E-05-2.85705E-05-1.83021E-09 1.19096E-18-5.82420E-18
 -1       567 9.52386E-05-2.85742E-05-2.85705E-05-1.39081E-09 6.95958E-19-2.85604E-18
 -1       568 9.52372E-05-2.85724E-05-2.85706E-05-1.87085E-09 3.60048E-19 4.48957E-19
 -1       569 9.52377E-05-2.85730E-05-2.85706E-05-1.99677E-09-1.25332E-18-1.64838E-18
 -1       570 9.52389E-05-2.85745E-05-2.85704E-05-7.46258E-10 1.82847E-18-1.09406E-18
 -1       571 9.52390E-05-2.85746E-05-2.85704E-05 6.42295E-12 8.48212E-20 1.78066E-18
 -1       572 9.52389E-05-2.85745E-05-2.85704E-05 7.58035E-10-1.42985E-18 4.17405E-20
 -1       573 9.52386E-05-2.85742E-05-2.85705E-05 1.38990E-09 1.00242E-18-3.26268E-18
 -1       574 9.52382E-05-2.85737E-05-2.85705E-05 1.82929E-09 8.58474E-19-1.29101E-19
 -1       575 9.52377E-05-2.85730E-05-2.85706E-05 1.99734E-09-7.67427E-19 3.78630E-18
 -1       576 9.52372E-05-2.85724E-05-2.85706E-05 1.86486E-09-1.38355E-18 1.69947E-19
 -1       577 3.16743E-05-8.52607E-06-9.38738E-06-2.03269E-05 1.46174E-18 6.20970E-18
 -1       578 1.13476E-04-2.53438E-05-3.78040E-05 5.19563E-06 2.66652E-18 2.20592E-18
 -1       579 1.38478E-04-2.67498E-05-4.82515E-05 8.63533E-08 5.63086E-18-2.30711E-18
 -1       580 1.18338E-04-5.07205E-05-2.89636E-05 2.94309E-05-1.65013E-19-1.86511E-18
 -1       581 9.19149E-05-4.12869E-05-2.14143E-05 4.11937E-05-1.59157E-18 6.94924E-19
 -1       582 5.51706E-05-2.34295E-05-1.32292E-05-3.96380E-05 3.43292E-18 4.35158E-18
 -1       583 1.09794E-04-3.48486E-05-3.22035E-05 1.19837E-05 9.18343E-19-3.66818E-19
 -1       584 1.26313E-04-3.58401E-05-3.89110E-05 2.17200E-05 1.21606E-18 2.40190E-18
 -1       585 1.20609E-04-3.86618E-05-3.52068E-05 5.94140E-06 7.58889E-20 9.32332E-19
 -1       586 1.36056E-04-4.35326E-05-3.99845E-05 7.24876E-06 3.59650E-18-3.61890E-18
 -1       587 1.36351E-04-3.85532E-05-4.20306E-05 1.36916E-05 2.44503E-18 1.00977E-18
 -1       588 1.31372E-04-1.27557E-05-5.13479E-05 1.63031E-05 5.90541E-18 5.92526E-19
 -1       589 7.57338E-05-2.03558E-05-2.36586E-05 2.36601E-05 2.97801E-18-1.92639E-18
 -1       590 1.36728E-04-2.38568E-05-4.87747E-05 2.17395E-05 4.70881E-18 1.59872E-18
 -1       591 1.23795E-04-4.09251E-05-3.56226E-05-2.95616E-06 1.16263E-18-3.73330E-19
 -1       592 1.27352E-04-1.01566E-05-5.07707E-05-1.42364E-05-5.30454E-18-1.03143E-18
 -1       593 1.29597E-04-3.58433E-05-4.03853E-05-8.19414E-06-1.56122E-18 8.27842E-19
 -1       594 1.32686E-04-2.48618E-05-4.65990E-05-1.79084E-05-4.11309E-18 7.96846E-19
 -1       595 1.26393E-04-9.84888E-06-5.05162E-05-5.64088E-06-5.00909E-18-2.48877E-18
 -1       596 1.29976E-04-2.24052E-05-4.66658E-05 1.78929E-06-3.02587E-18-3.33723E-18
 -1       597 1.34218E-04-4.36710E-05-3.90840E-05-1.01424E-05-4.22206E-19-2.41214E-18
 -1       598 1.23837E-04-5.03572E-05-3.14759E-05-2.54430E-05 1.66191E-18-1.06112E-18
 -1       599 9.10740E-05-4.14886E-05-2.10777E-05-4.20212E-05 3.40571E-18 8.73668E-19
 -1       600 1.18771E-04-2.86941E-05-3.86530E-05-2.33484E-05-1.76725E-18-6.06851E-19
 -1       601 1.20094E-04-3.19117E-05-3.78990E-05-1.66948E-05 9.54608E-20-1.14775E-19
 -1       602 4.61962E-05-1.33129E-05-1.36049E-05 2.71547E-05-1.50113E-18 4.17180E-18
 -1       603 9.52367E-05-2.85718E-05-2.85707E-05 1.65547E-09 1.03911E-19 3.47849E-18
 -1       604 3.24293E-05-4.89696E-06-1.12260E-05-3.10018E-06 4.95236E-19 5.89974E-18
 -1       605 1.29428E-04-5.06674E-05-3.39852E-05 1.16985E-05 4.57222E-19-3.88875E-18
 -1       606 1.19924E-04-2.91450E-05-3.89567E-05-2.24894E-05-9.49802E-19-7.70193E-19
 -1       607 1.23190E-04-1.63178E-05-4.61939E-05-2.02159E-05-4.22047E-18-3.40798E-19
 -1       608 1.29265E-04-3.49573E-05-4.06846E-05 2.89916E-06-1.03676E-18-3.47519E-18
 -1       609 1.26413E-04-2.23978E-05-4.50009E-05-3.59971E-06 4.71416E-18-2.08939E-18
 -1       610 1.24647E-04-3.21769E-05-3.97102E-05 2.47399E-05 2.28204E-18 3.74084E-18
 -1       611 1.20608E-04-4.29288E-05-3.33111E-05-7.04567E-07 5.02926E-20-2.07951E-18
 -1       612 1.23735E-04-3.94304E-05-3.62453E-05-6.70094E-06 1.32060E-18-2.60454E-18
 -1       613 1.12675E-04-1.82494E-05-4.06233E-05-1.10502E-05-3.22401E-18-1.38485E-18
 -1       614 1.12644E-04-2.09532E-05-3.94579E-05 1.44944E-07-2.37182E-18-2.52128E-18
 -1       615 1.15481E-04-2.94098E-05-3.69941E-05 6.16404E-06-1.14594E-18-2.72666E-18
 -1       616 1.17216E-04-3.70271E-05-3.44009E-05 5.38737E-06-4.81722E-19-2.39689E-18
 -1       617 1.15356E-04-4.01079E-05-3.22496E-05 1.16248E-06-8.90348E-20-2.36616E-18
 -1       618 1.11346E-04-3.92394E-05-3.08986E-05-2.91680E-06 2.63419E-19-1.99349E-18
 -1       619 1.06936E-04-3.65379E-05-3.01723E-05-5.57802E-06 6.79297E-20-1.57943E-18
 -1       620 1.03203E-04-3.36325E-05-2.98175E-05-6.81223E-06-2.12219E-19-1.15102E-18
 -1       621 1.00444E-04-3.12636E-05-2.96495E-05-7.05025E-06 1.75789E-19-7.01504E-19
 -1       622 9.85651E-05-2.96038E-05-2.95555E-05-6.69010E-06 3.79343E-19-6.60699E-19
 -1       623 9.73497E-05-2.85682E-05-2.94781E-05-6.01528E-06 1.12078E-20-7.13997E-19
 -1       624 9.65861E-05-2.79967E-05-2.93956E-05-5.20672E-06-9.92295E-20-5.54015E-19
 -1       625 9.61126E-05-2.77369E-05-2.93039E-05-4.37527E-06-2.13574E-19-9.13981E-19
 -1       626 9.58187E-05-2.76698E-05-2.92066E-05-3.58618E-06-1.74733E-19-4.10207E-19
 -1       627 9.56336E-05-2.77118E-05-2.91092E-05-2.87497E-06 3.66259E-19-3.97708E-19
 -1       628 9.55140E-05-2.78082E-05-2.90167E-05-2.25763E-06 2.34656E-19-6.20183E-19
 -1       629 9.54342E-05-2.79251E-05-2.89323E-05-1.73755E-06-2.15008E-19 9.06138E-19
 -1       630 9.53790E-05-2.80430E-05-2.88582E-05-1.31035E-06 4.10306E-20 1.07413E-18
 -1       631 9.53398E-05-2.81515E-05-2.87949E-05-9.67200E-07 8.33369E-19 9.23615E-19
 -1       632 9.53113E-05-2.82459E-05-2.87422E-05-6.97242E-07 1.69622E-19-5.39779E-19
 -1       633 9.52902E-05-2.83249E-05-2.86994E-05-4.89080E-07-5.53813E-19-8.95944E-19
 -1       634 9.52746E-05-2.83890E-05-2.86652E-05-3.31767E-07-3.69686E-19-8.95573E-20
 -1       635 9.52630E-05-2.84397E-05-2.86385E-05-2.15364E-07 4.78864E-19 2.46515E-19
 -1       636 9.52545E-05-2.84789E-05-2.86180E-05-1.31197E-07 1.30474E-18 1.29313E-18
 -1       637 9.52483E-05-2.85086E-05-2.86027E-05-7.19293E-08 5.69335E-19 1.64394E-18
 -1       638 9.52438E-05-2.85306E-05-2.85914E-05-3.15172E-08-4.54450E-19 2.08983E-19
 -1       639 9.52407E-05-2.85465E-05-2.85832E-05-5.09022E-09-5.01243E-19 1.99264E-19
 -1       640 9.52386E-05-2.85577E-05-2.85775E-05 1.11954E-08-4.49925E-19 6.00734E-19
 -1       641 9.52373E-05-2.85653E-05-2.85737E-05 2.03140E-08-1.11503E-18 5.23368E-19
 -1       642 9.52364E-05-2.85702E-05-2.85712E-05 2.45222E-08-2.04035E-19-8.15657E-19
 -1       643 9.52360E-05-2.85733E-05-2.85697E-05 2.54983E-08-1.43173E-18-1.96146E-18
 -1       644 9.52358E-05-2.85750E-05-2.85689E-05 2.44626E-08-7.97569E-19-2.55534E-18
 -1       645 9.52357E-05-2.85758E-05-2.85686E-05 2.22808E-08-3.30446E-19-2.10466E-18
 -1       646 9.52358E-05-2.85759E-05-2.85685E-05 1.95487E-08-6.01725E-20-4.08381E-19
 -1       647 9.52359E-05-2.85757E-05-2.85687E-05 1.66608E-08 3.22636E-19 1.03716E-18
 -1       648 9.52361E-05-2.85753E-05-2.85689E-05 1.38645E-08 1.03719E-18 2.29094E-18
 -1       649 9.52362E-05-2.85748E-05-2.85692E-05 1.13022E-08 1.76627E-18 2.15146E-18
 -1       650 9.52364E-05-2.85743E-05-2.85695E-05 9.04356E-09 2.12778E-18 2.33346E-18
 -1       651 9.52366E-05-2.85737E-05-2.85698E-05 7.10836E-09 1.21531E-18 2.11432E-18
 -1       652 9.52367E-05-2.85733E-05-2.85700E-05 5.48572E-09 7.67962E-19 3.21718E-18
 -1       653 9.52368E-05-2.85729E-05-2.85703E-05 4.15098E-09 1.33875E-18 4.26243E-18
 -1       654 9.52370E-05-2.85726E-05-2.85704E-05 3.05391E-09-1.42845E-20 4.23160E-18
 -1       655 1.14618E-04-4.11880E-05-3.14750E-05 4.57764E-06-2.25544E-19-1.38288E-18
 -1       656 1.08786E-04-3.74134E-05-3.05849E-05 7.75780E-06-4.74948E-19-5.96065E-19
 -1       657 1.04204E-04-3.37126E-05-3.02136E-05 8.90030E-06 2.18743E-19-3.66897E-19
 -1       658 1.01062E-04-3.09711E-05-3.00400E-05 8.84669E-06 6.26337E-19-7.06081E-21
 -1       659 9.90559E-05-2.92362E-05-2.99231E-05 8.14015E-06 7.32405E-20 7.85803E-19
 -1       660 9.78125E-05-2.82691E-05-2.98040E-05 7.14169E-06-4.16002E-19 9.14189E-19
 -1       661 9.70390E-05-2.78089E-05-2.96693E-05 6.05658E-06-8.20578E-19 6.71746E-19
 -1       662 9.65427E-05-2.76522E-05-2.95236E-05 5.00123E-06-8.39699E-19 1.07519E-18
 -1       663 9.62079E-05-2.76612E-05-2.93763E-05 4.03811E-06-3.95047E-19 6.41090E-19
 -1       664 9.59692E-05-2.77502E-05-2.92360E-05 3.19595E-06 4.43050E-19 3.86856E-20
 -1       665 9.57910E-05-2.78698E-05-2.91084E-05 2.48262E-06 7.60322E-19-3.45917E-21
 -1       666 9.56537E-05-2.79934E-05-2.89968E-05 1.89361E-06 7.79813E-20-3.27934E-19
 -1       667 9.55467E-05-2.81078E-05-2.89020E-05 1.41767E-06 8.41432E-19-6.24200E-19
 -1       668 9.54631E-05-2.82075E-05-2.88235E-05 1.04048E-06 1.43274E-18 7.02341E-19
 -1       669 9.53984E-05-2.82912E-05-2.87600E-05 7.46923E-07 4.40632E-19 9.67717E-19
 -1       670 9.53490E-05-2.83595E-05-2.87096E-05 5.22486E-07 2.84451E-19 1.76462E-18
 -1       671 9.53119E-05-2.84140E-05-2.86704E-05 3.53988E-07 8.22121E-19 2.44504E-18
 -1       672 9.52847E-05-2.84569E-05-2.86404E-05 2.29917E-07 5.24009E-19 1.93581E-18
 -1       673 9.52651E-05-2.84899E-05-2.86179E-05 1.40507E-07 5.16560E-19 2.07990E-18
 -1       674 9.52515E-05-2.85149E-05-2.86013E-05 7.76730E-08 7.12586E-19 1.59257E-18
 -1       675 9.52423E-05-2.85335E-05-2.85894E-05 3.48543E-08 8.16895E-19 3.72265E-19
 -1       676 9.52364E-05-2.85471E-05-2.85811E-05 6.82512E-09 2.55767E-19 5.53639E-19
 -1       677 9.52329E-05-2.85569E-05-2.85754E-05-1.05044E-08 2.11022E-19 8.12757E-19
 -1       678 9.52311E-05-2.85636E-05-2.85718E-05-2.02801E-08-4.99779E-19 1.51866E-18
 -1       679 9.52304E-05-2.85682E-05-2.85695E-05-2.48797E-08-8.13864E-19 8.54777E-19
 -1       680 9.52304E-05-2.85711E-05-2.85682E-05-2.60663E-08-2.98641E-19-4.91192E-19
 -1       681 9.52308E-05-2.85729E-05-2.85677E-05-2.51210E-08 5.89426E-19-1.77641E-18
 -1       682 9.52315E-05-2.85739E-05-2.85676E-05-2.29521E-08 2.79889E-19-9.90138E-19
 -1       683 9.52323E-05-2.85743E-05-2.85677E-05-2.01856E-08 3.61467E-20 2.52751E-19
 -1       684 9.52330E-05-2.85743E-05-2.85680E-05-1.72370E-08-1.91743E-19-2.75192E-19
 -1       685 9.52338E-05-2.85741E-05-2.85684E-05-1.43679E-08-1.14969E-18 7.13465E-19
 -1       686 9.52344E-05-2.85738E-05-2.85688E-05-1.17303E-08 7.68750E-19 3.06426E-18
 -1       687 9.52350E-05-2.85735E-05-2.85692E-05-9.39952E-09-2.74903E-19 2.98066E-18
 -1       688 9.52355E-05-2.85731E-05-2.85696E-05-7.39940E-09-1.30103E-18 2.09786E-18
 -1       689 9.52359E-05-2.85728E-05-2.85699E-05-5.72036E-09-1.03876E-18 2.10343E-18
 -1       690 9.52363E-05-2.85726E-05-2.85702E-05-4.33088E-09-5.27447E-19 1.23934E-18
 -1       691 9.52366E-05-2.85724E-05-2.85704E-05-3.19873E-09 2.97986E-19 8.83955E-19
 -1       692 9.52369E-05-2.85724E-05-2.85705E-05-2.48836E-09 1.81243E-18-1.25013E-18
 -1       693 9.52397E-05-2.85753E-05-2.85705E-05-4.92151E-10 1.08220E-18-5.75258E-19
 -1       694 9.52371E-05-2.85725E-05-2.85705E-05 2.42421E-09-8.54983E-19 2.28741E-18
 -1       695 9.52389E-05-2.85745E-05-2.85705E-05-2.16781E-09 6.34816E-19-3.76709E-18
 -1       696 9.52397E-05-2.85753E-05-2.85705E-05 5.09094E-10 5.13553E-19-6.17927E-21
 -1       697 9.52394E-05-2.85750E-05-2.85705E-05-1.42676E-09 1.26795E-18-7.31292E-19
 -1       698 1.06829E-04-4.57089E-05-2.60871E-05 3.05102E-05-2.44268E-18-1.57081E-18
 -1       699 9.52394E-05-2.85750E-05-2.85705E-05 1.42658E-09-4.98980E-19 5.16376E-20
 -1       700 9.52389E-05-2.85745E-05-2.85705E-05 2.16641E-09 7.59672E-19-1.99969E-18
 -1       701 9.52382E-05-2.85738E-05-2.85705E-05 2.60466E-09-8.75215E-20-9.83947E-20
 -1       702 1.32362E-04-3.72023E-05-4.10692E-05-3.64627E-06 3.30683E-18-3.19744E-18
 -1       703 7.89078E-05-3.07357E-05-2.03164E-05 3.55304E-05-2.94010E-18 1.18329E-18
 -1       704 8.04182E-05-3.30348E-05-2.00351E-05-3.74581E-05 3.48385E-18 1.29072E-18
 -1       705 1.30915E-04-3.12086E-05-4.31188E-05 2.45948E-05 2.84604E-18 2.75490E-18
 -1       706 1.17771E-04-1.22186E-05-4.56729E-05-9.54707E-06-4.23871E-18-1.89714E-18
 -1       707 1.30911E-04-3.54365E-05-4.12007E-05 2.42921E-05 1.90217E-18 2.93376E-18
 -1       708 1.18578E-04-2.52716E-05-4.01392E-05 1.78799E-05 2.74501E-18 3.03953E-18
 -1       709 1.25038E-04-2.07893E-05-4.50865E-05 2.18328E-05 4.04074E-18 2.32831E-18
 -1       710 1.10543E-04-4.75586E-05-2.68933E-05-2.89820E-05 3.32609E-18-2.79081E-19
 -1       711 1.20968E-04-1.46145E-05-4.60517E-05 8.50759E-06 5.03402E-18 3.53967E-19
 -1       712 1.19480E-04-1.74931E-05-4.41161E-05 1.02092E-06-3.22788E-18-3.13668E-18
 -1       713 1.16865E-04-2.33636E-05-4.01721E-05-2.00761E-05-2.75194E-18-7.12864E-19
 -1       714 1.26752E-04-4.84245E-05-3.36848E-05-9.24221E-06 1.40537E-18-2.76329E-18
 -1       715 1.19361E-04-2.73350E-05-3.95657E-05-2.34103E-05-1.95489E-18-5.11628E-19
 -1       716 5.50136E-05-1.63414E-05-1.61436E-05-2.83989E-05 1.93352E-18 3.67356E-18
 -1       717 1.16527E-04-2.13474E-05-4.08437E-05 8.51488E-06 3.42171E-18 1.70294E-18
 -1       718 1.24986E-04-2.53880E-05-4.29298E-05-2.21413E-05-3.00519E-18 3.13786E-19
 -1       719 4.21838E-05-7.10321E-06-1.46121E-05 1.09301E-05-5.71549E-19 5.19956E-18
 -1       720 9.52382E-05-2.85738E-05-2.85705E-05-2.60381E-09-7.28268E-19-3.36376E-18
 -1       721 4.83765E-05-9.77682E-06-1.61259E-05-1.64109E-05 6.69778E-19 4.40574E-18
 -1       722 9.52375E-05-2.85731E-05-2.85705E-05-2.67972E-09 4.35400E-19-7.88328E-19
 -1       723 9.52376E-05-2.85732E-05-2.85705E-05 2.92412E-09-1.30079E-18 1.37080E-18
 -1       724 1.21354E-04-5.00477E-05-3.05429E-05 1.63730E-05-1.42323E-18-3.11789E-18
 -1       725 1.25942E-04-2.97467E-05-4.15055E-05-1.97349E-05-2.17568E-18 7.56970E-19
 -1       726 1.18640E-04-2.09954E-05-4.21150E-05-2.05268E-05-3.14268E-18-8.33547E-19
 -1       727 1.07940E-04-3.95468E-05-2.93137E-05 1.33316E-05-1.27783E-18-1.44713E-18
 -1       728 1.22606E-04-4.01409E-05-3.54926E-05 2.85430E-06-2.12420E-21-3.63982E-18
 -1       729 1.18583E-04-4.38315E-05-3.20688E-05-3.46996E-06 6.70895E-19-2.51575E-18
 -1       730 1.11949E-04-4.16664E-05-3.01459E-05-7.95497E-06 6.62850E-19-1.31514E-18
 -1       731 1.05594E-04-3.72910E-05-2.92812E-05-9.84820E-06 2.63017E-19-6.87020E-19
 -1       732 1.00947E-04-3.33551E-05-2.89694E-05-9.94205E-06 6.71681E-19-5.24116E-19
 -1       733 9.78991E-05-3.04156E-05-2.89209E-05-9.15371E-06 3.13532E-19 2.61565E-19
 -1       734 9.61000E-05-2.85125E-05-2.89651E-05-8.04136E-06 3.31687E-19 8.29422E-19
 -1       735 9.51369E-05-2.74228E-05-2.90195E-05-6.86977E-06-2.68270E-19 1.92478E-19
 -1       736 9.46915E-05-2.69016E-05-2.90521E-05-5.75235E-06 4.41703E-20-1.39069E-19
 -1       737 9.45449E-05-2.67462E-05-2.90561E-05-4.73549E-06-2.76989E-19 2.74149E-19
 -1       738 9.45569E-05-2.68075E-05-2.90351E-05-3.83641E-06-3.69375E-19 3.12913E-19
 -1       739 9.46425E-05-2.69835E-05-2.89965E-05-3.05890E-06 4.18925E-19-1.73103E-19
 -1       740 9.47534E-05-2.72084E-05-2.89477E-05-2.39966E-06 5.92905E-19 9.79524E-20
 -1       741 9.48638E-05-2.74423E-05-2.88949E-05-1.85105E-06 4.49804E-19 4.96410E-19
 -1       742 9.49618E-05-2.76624E-05-2.88425E-05-1.40271E-06-8.52187E-20 1.53943E-18
 -1       743 9.50427E-05-2.78576E-05-2.87936E-05-1.04279E-06-7.51710E-19 8.65111E-19
 -1       744 9.51064E-05-2.80235E-05-2.87498E-05-7.58905E-07-5.04427E-19-2.77196E-19
 -1       745 9.51546E-05-2.81601E-05-2.87119E-05-5.38952E-07 7.01566E-20-1.20668E-19
 -1       746 9.51897E-05-2.82698E-05-2.86800E-05-3.71628E-07 3.00757E-19 6.05012E-19
 -1       747 9.52144E-05-2.83558E-05-2.86537E-05-2.46786E-07 1.21062E-18 1.11549E-18
 -1       748 9.52309E-05-2.84217E-05-2.86325E-05-1.55593E-07 1.57863E-18 1.04929E-18
 -1       749 9.52414E-05-2.84712E-05-2.86158E-05-9.05622E-08 7.61441E-19-1.52927E-19
 -1       750 9.52475E-05-2.85076E-05-2.86028E-05-4.54973E-08-1.09433E-18 5.98349E-19
 -1       751 9.52505E-05-2.85336E-05-2.85930E-05-1.53752E-08-4.56426E-19-4.18832E-19
 -1       752 9.52515E-05-2.85518E-05-2.85856E-05 3.79599E-09 5.20033E-20-4.03442E-19
 -1       753 9.52512E-05-2.85640E-05-2.85803E-05 1.51289E-08-6.78894E-19 8.52624E-19
 -1       754 9.52501E-05-2.85718E-05-2.85764E-05 2.10056E-08-1.80708E-18-1.49653E-19
 -1       755 9.52486E-05-2.85765E-05-2.85738E-05 2.32140E-08-2.46843E-18-2.46000E-18
 -1       756 9.52470E-05-2.85789E-05-2.85720E-05 2.30685E-08-6.21243E-19-2.91470E-18
 -1       757 9.52453E-05-2.85799E-05-2.85709E-05 2.15132E-08 5.39842E-19-9.80900E-19
 -1       758 9.52438E-05-2.85799E-05-2.85702E-05 1.92083E-08 8.54050E-19 2.04980E-19
 -1       759 9.52425E-05-2.85794E-05-2.85699E-05 1.65998E-08 8.76629E-19 8.53300E-19
 -1       760 9.52413E-05-2.85785E-05-2.85698E-05 1.39759E-08 1.24632E-18 1.67810E-18
 -1       761 9.52404E-05-2.85775E-05-2.85698E-05 1.15109E-08 1.27485E-18 2.31616E-18
 -1       762 9.52396E-05-2.85765E-05-2.85699E-05 9.29873E-09 1.87004E-18 9.27925E-19
 -1       763 9.52389E-05-2.85756E-05-2.85700E-05 7.37974E-09 1.63682E-18 8.59402E-19
 -1       764 9.52384E-05-2.85748E-05-2.85701E-05 5.75185E-09 1.07761E-18 2.50590E-18
 -1       765 9.52381E-05-2.85741E-05-2.85703E-05 4.39861E-09 2.09600E-18 2.24658E-18
 -1       766 9.52378E-05-2.85736E-05-2.85704E-05 3.61378E-09 8.40888E-19 1.93305E-18
 -1       767 1.13179E-04-4.45043E-05-2.94358E-05 1.55299E-05-1.64498E-18-2.55912E-18
 -1       768 9.78827E-05-3.03497E-05-2.89412E-05 1.16791E-05-3.47844E-19 3.27812E-19
 -1       769 9.58533E-05-2.80602E-05-2.90536E-05 1.00625E-05-2.24080E-19 9.09602E-19
 -1       770 9.48959E-05-2.68709E-05-2.91533E-05 8.49392E-06-7.55974E-19 1.08545E-18
 -1       771 9.45393E-05-2.63929E-05-2.92053E-05 7.06205E-06-4.07731E-20 1.18124E-18
 -1       772 9.44889E-05-2.63340E-05-2.92089E-05 5.79101E-06-7.04836E-19-2.24277E-19
 -1       773 9.45744E-05-2.64982E-05-2.91752E-05 4.68339E-06-5.02675E-19-6.03187E-19
 -1       774 9.47048E-05-2.67625E-05-2.91179E-05 3.73368E-06 2.97525E-20-6.71599E-19
 -1       775 9.48358E-05-2.70552E-05-2.90486E-05 2.93239E-06 6.02354E-19-4.97842E-19
 -1       776 9.49489E-05-2.73375E-05-2.89762E-05 2.26736E-06 9.49378E-19-2.92556E-19
 -1       777 9.50391E-05-2.75906E-05-2.89064E-05 1.72448E-06 3.76735E-19-1.30629E-18
 -1       778 9.51072E-05-2.78074E-05-2.88427E-05 1.28857E-06 8.61703E-20-1.06059E-18
 -1       779 9.51568E-05-2.79873E-05-2.87868E-05 9.44271E-07 5.45028E-19 1.31392E-19
 -1       780 9.51916E-05-2.81330E-05-2.87393E-05 6.76803E-07-1.38781E-19 8.63544E-19
 -1       781 9.52152E-05-2.82487E-05-2.86999E-05 4.72536E-07-3.37891E-20 3.29200E-19
 -1       782 9.52306E-05-2.83388E-05-2.86679E-05 3.19311E-07 9.37818E-19 6.76855E-19
 -1       783 9.52401E-05-2.84078E-05-2.86424E-05 2.06587E-07-1.53153E-19 1.65499E-18
 -1       784 9.52456E-05-2.84597E-05-2.86225E-05 1.25453E-07 1.00062E-18 2.43207E-18
 -1       785 9.52482E-05-2.84981E-05-2.86072E-05 6.85319E-08 1.75546E-18 1.89866E-18
 -1       786 9.52491E-05-2.85258E-05-2.85957E-05 2.98374E-08-6.04286E-21 2.90837E-18
 -1       787 9.52488E-05-2.85454E-05-2.85872E-05 4.60091E-09 4.72361E-19 3.39467E-18
 -1       788 9.52479E-05-2.85589E-05-2.85810E-05-1.09108E-08-1.82388E-19 2.95665E-18
 -1       789 9.52467E-05-2.85677E-05-2.85767E-05-1.95688E-08-1.77783E-19 2.31968E-18
 -1       790 9.52453E-05-2.85733E-05-2.85737E-05-2.35422E-08 2.03029E-19 1.56620E-18
 -1       791 9.52440E-05-2.85765E-05-2.85718E-05-2.44381E-08 8.72795E-19 4.16054E-19
 -1       792 9.52427E-05-2.85781E-05-2.85705E-05-2.34223E-08 8.72048E-19-7.24562E-19
 -1       793 9.52416E-05-2.85786E-05-2.85698E-05-2.13202E-08-9.01395E-19-2.59172E-18
 -1       794 9.52406E-05-2.85785E-05-2.85695E-05-1.86987E-08-7.85385E-19-1.90893E-18
 -1       795 9.52398E-05-2.85779E-05-2.85694E-05-1.59329E-08-1.11803E-18 1.62769E-19
 -1       796 9.52392E-05-2.85771E-05-2.85695E-05-1.32576E-08-5.74555E-19 2.70384E-19
 -1       797 9.52387E-05-2.85763E-05-2.85696E-05-1.08077E-08 3.37377E-19-1.26328E-19
 -1       798 9.52382E-05-2.85754E-05-2.85698E-05-8.64908E-09-3.62274E-19-9.25384E-19
 -1       799 9.52379E-05-2.85747E-05-2.85700E-05-6.80073E-09-1.07936E-18-1.14871E-18
 -1       800 9.52377E-05-2.85740E-05-2.85702E-05-5.25579E-09-1.05374E-18-1.41907E-18
 -1       801 9.52376E-05-2.85735E-05-2.85703E-05-3.97114E-09 6.92593E-19-2.73172E-18
 -1       802 9.52375E-05-2.85733E-05-2.85704E-05-3.30600E-09 8.95309E-19-1.73568E-18
 -1       803 9.69886E-05-3.79977E-05-2.51725E-05 2.71745E-05-2.74089E-18-8.89054E-19
 -1       804 1.01720E-04-3.41577E-05-2.89556E-05 1.29226E-05-6.53995E-19-6.73967E-19
 -1       805 9.52399E-05-2.85755E-05-2.85704E-05 2.33686E-09 3.68837E-19-5.38377E-19
 -1       806 9.52407E-05-2.85762E-05-2.85705E-05 1.21199E-11 1.25672E-18 3.55931E-19
 -1       807 9.52391E-05-2.85747E-05-2.85704E-05 3.12375E-09-9.87425E-19-1.68459E-18
 -1       808 9.52405E-05-2.85760E-05-2.85705E-05 1.25268E-09 2.03264E-19-6.24126E-19
 -1       809 7.52709E-05-2.55877E-05-2.10888E-05-2.92223E-05 2.38920E-18 1.15028E-18
 -1       810 6.41955E-05-1.87439E-05-1.91376E-05 2.65044E-05-2.22851E-18 1.69366E-18
 -1       811 9.74977E-05-3.89640E-05-2.49759E-05-2.78927E-05 3.12943E-18 1.95939E-19
 -1       812 1.16000E-04-4.66546E-05-2.96712E-05-1.59867E-05 2.27276E-18-1.13181E-18
 -1       813 1.21515E-04-2.48897E-05-4.16737E-05 4.72676E-06-2.13733E-18-3.82273E-18
 -1       814 9.52391E-05-2.85748E-05-2.85704E-05-3.13971E-09 3.72755E-19-2.46928E-18
 -1       815 4.92606E-05-7.81168E-06-1.74799E-05-3.95300E-06-4.60455E-19 4.95289E-18
 -1       816 9.52399E-05-2.85755E-05-2.85704E-05-2.33639E-09 1.19354E-18-2.22386E-18
 -1       817 9.52405E-05-2.85761E-05-2.85705E-05-1.24153E-09 2.93427E-19-7.23130E-19
 -1       818 9.52385E-05-2.85742E-05-2.85704E-05 3.43753E-09-3.14378E-19-2.36877E-19
 -1       819 8.31474E-05-2.79106E-05-2.35523E-05 2.54277E-05-2.60075E-18 2.57922E-19
 -1       820 6.56180E-05-1.80425E-05-2.01535E-05-2.29841E-05 1.37228E-18 2.05596E-18
 -1       821 9.10566E-05-2.49594E-05-2.83269E-05 9.46163E-06-2.56504E-19 2.80099E-19
 -1       822 8.80646E-05-3.04527E-05-2.46741E-05-2.33635E-05 2.04398E-18 2.49875E-19
 -1       823 1.04028E-04-3.85112E-05-2.80293E-05-1.60572E-05 1.15804E-18 2.94668E-19
 -1       824 9.79287E-05-3.30948E-05-2.77888E-05-1.43958E-05 6.02163E-19 1.01556E-18
 -1       825 9.46587E-05-2.94398E-05-2.79491E-05-1.19969E-05 9.36919E-19 6.67600E-19
 -1       826 9.30593E-05-2.72499E-05-2.82035E-05-9.79332E-06 9.29399E-20 5.79292E-19
 -1       827 9.24540E-05-2.60862E-05-2.84433E-05-7.92443E-06-7.52600E-20 4.48075E-20
 -1       828 9.24069E-05-2.56040E-05-2.86300E-05-6.38745E-06-2.10627E-19 3.09487E-19
 -1       829 9.26470E-05-2.55473E-05-2.87572E-05-5.12893E-06 2.25562E-19-1.94753E-20
 -1       830 9.30120E-05-2.57378E-05-2.88320E-05-4.09489E-06-5.13739E-20-2.41094E-19
 -1       831 9.34085E-05-2.60555E-05-2.88657E-05-3.24286E-06-2.10208E-19 3.77060E-19
 -1       832 9.37858E-05-2.64228E-05-2.88700E-05-2.54152E-06 8.53187E-19 1.50279E-19
 -1       833 9.41194E-05-2.67916E-05-2.88548E-05-1.96729E-06 1.30937E-18-2.55362E-20
 -1       834 9.44002E-05-2.71345E-05-2.88282E-05-1.50130E-06 6.56045E-19 8.77147E-20
 -1       835 9.46281E-05-2.74375E-05-2.87960E-05-1.12744E-06-6.46457E-19 7.00308E-19
 -1       836 9.48076E-05-2.76956E-05-2.87622E-05-8.31460E-07-1.28224E-18 1.20261E-18
 -1       837 9.49451E-05-2.79090E-05-2.87297E-05-6.00529E-07 4.75433E-19 6.47618E-19
 -1       838 9.50478E-05-2.80813E-05-2.86999E-05-4.23175E-07 4.58401E-19 4.52702E-19
 -1       839 9.51225E-05-2.82172E-05-2.86737E-05-2.89273E-07 1.01197E-19-8.15244E-19
 -1       840 9.51753E-05-2.83222E-05-2.86513E-05-1.90049E-07 1.46143E-18-1.02746E-18
 -1       841 9.52112E-05-2.84018E-05-2.86326E-05-1.18049E-07 1.76786E-18-7.70154E-19
 -1       842 9.52347E-05-2.84608E-05-2.86174E-05-6.70619E-08-1.68012E-20-3.29443E-20
 -1       843 9.52491E-05-2.85035E-05-2.86052E-05-3.20068E-08-1.10442E-18-1.20580E-19
 -1       844 9.52570E-05-2.85336E-05-2.85957E-05-8.80450E-09-2.23379E-19 4.18462E-20
 -1       845 9.52605E-05-2.85542E-05-2.85884E-05 5.76278E-09-2.85806E-19 2.71457E-19
 -1       846 9.52611E-05-2.85677E-05-2.85829E-05 1.41885E-08-1.58430E-18-1.46427E-18
 -1       847 9.52600E-05-2.85761E-05-2.85788E-05 1.83703E-08-2.51671E-18-2.98468E-19
 -1       848 9.52578E-05-2.85808E-05-2.85758E-05 1.97246E-08-8.74296E-19 1.09298E-18
 -1       849 9.52552E-05-2.85831E-05-2.85738E-05 1.92874E-08 8.93477E-19 1.51784E-18
 -1       850 9.52524E-05-2.85836E-05-2.85723E-05 1.77983E-08 1.40138E-18 2.36069E-18
 -1       851 9.52498E-05-2.85832E-05-2.85714E-05 1.57710E-08 1.44642E-19 1.03932E-18
 -1       852 9.52473E-05-2.85821E-05-2.85708E-05 1.35497E-08 1.33510E-18 2.93599E-19
 -1       853 9.52452E-05-2.85808E-05-2.85705E-05 1.13543E-08 1.56221E-18 5.57728E-19
 -1       854 9.52434E-05-2.85793E-05-2.85703E-05 9.31563E-09 8.74234E-19 5.32906E-19
 -1       855 9.52419E-05-2.85780E-05-2.85703E-05 7.50194E-09 2.23077E-18 1.15603E-18
 -1       856 9.52406E-05-2.85767E-05-2.85703E-05 5.94405E-09 2.67386E-18 1.56057E-18
 -1       857 9.52397E-05-2.85756E-05-2.85703E-05 4.62780E-09 8.90143E-19 8.61698E-19
 -1       858 9.13833E-05-2.46321E-05-2.86076E-05 7.59258E-06 7.66421E-20-2.91330E-19
 -1       859 9.12739E-05-2.60837E-05-2.79379E-05 1.18602E-05-6.65800E-19 3.10451E-20
 -1       860 9.19377E-05-2.47632E-05-2.87890E-05 6.10762E-06 2.88098E-19-2.58183E-19
 -1       861 9.25434E-05-2.51321E-05-2.88905E-05 4.90447E-06-2.83858E-19-4.40766E-19
 -1       862 9.31119E-05-2.56003E-05-2.89335E-05 3.91459E-06-3.52024E-19-3.21224E-19
 -1       863 9.36056E-05-2.60861E-05-2.89369E-05 3.09510E-06-5.95602E-20-4.79017E-19
 -1       864 9.40142E-05-2.65445E-05-2.89156E-05 2.41800E-06 1.26564E-18-1.01628E-18
 -1       865 9.43412E-05-2.69531E-05-2.88806E-05 1.86286E-06 8.73513E-19-6.68297E-19
 -1       866 9.45960E-05-2.73037E-05-2.88395E-05 1.41289E-06-3.39210E-20-4.80707E-19
 -1       867 9.47903E-05-2.75960E-05-2.87975E-05 1.05308E-06-2.68600E-19-5.02770E-19
 -1       868 9.49355E-05-2.78343E-05-2.87577E-05 7.69633E-07 2.74410E-19-9.43785E-19
 -1       869 9.50418E-05-2.80246E-05-2.87217E-05 5.49861E-07-2.98446E-19-1.36181E-18
 -1       870 9.51180E-05-2.81739E-05-2.86903E-05 3.82314E-07 1.61708E-19-6.12537E-19
 -1       871 9.51713E-05-2.82891E-05-2.86638E-05 2.56875E-07-2.89983E-19 9.28956E-19
 -1       872 9.52074E-05-2.83763E-05-2.86419E-05 1.64810E-07-2.05394E-19 1.13021E-18
 -1       873 9.52310E-05-2.84413E-05-2.86242E-05 9.87454E-08 7.78869E-19 1.88964E-18
 -1       874 9.52455E-05-2.84887E-05-2.86101E-05 5.25821E-08 3.13178E-19 3.43862E-18
 -1       875 9.52537E-05-2.85225E-05-2.85991E-05 2.13730E-08 5.50864E-19 3.79421E-18
 -1       876 9.52576E-05-2.85460E-05-2.85907E-05 1.17934E-09 3.69903E-19 2.85211E-18
 -1       877 9.52586E-05-2.85617E-05-2.85844E-05-1.10790E-08 2.25316E-19 3.03682E-18
 -1       878 9.52578E-05-2.85718E-05-2.85797E-05-1.77676E-08-7.48381E-21 2.14896E-18
 -1       879 9.52560E-05-2.85779E-05-2.85764E-05-2.06699E-08 9.56860E-19 1.80441E-18
 -1       880 9.52538E-05-2.85811E-05-2.85740E-05-2.11039E-08 1.22791E-18 2.01699E-18
 -1       881 9.52513E-05-2.85824E-05-2.85724E-05-2.00228E-08 1.47491E-18 3.45407E-18
 -1       882 9.52489E-05-2.85824E-05-2.85714E-05-1.80983E-08-2.51200E-19 1.21678E-18
 -1       883 9.52467E-05-2.85817E-05-2.85707E-05-1.57896E-08-1.50806E-18-1.45772E-18
 -1       884 9.52448E-05-2.85806E-05-2.85703E-05-1.33977E-08-1.38905E-18-1.13655E-18
 -1       885 9.52431E-05-2.85794E-05-2.85702E-05-1.11092E-08 1.44273E-20 6.10725E-19
 -1       886 9.52417E-05-2.85781E-05-2.85701E-05-9.02930E-09 1.31737E-18-4.80383E-19
 -1       887 9.52406E-05-2.85769E-05-2.85702E-05-7.20727E-09-2.66745E-19-1.91793E-18
 -1       888 9.52397E-05-2.85758E-05-2.85702E-05-5.66130E-09-5.09330E-19-3.26495E-18
 -1       889 9.52389E-05-2.85749E-05-2.85703E-05-4.37084E-09 4.08417E-19-5.20316E-18
 -1       890 9.52403E-05-2.85760E-05-2.85704E-05 3.49802E-09-2.07557E-19-3.38536E-18
 -1       891 5.77339E-05-1.18598E-05-1.94148E-05 1.42434E-05-1.78324E-18 3.21244E-18
 -1       892 6.04730E-05-1.28831E-05-2.02271E-05-1.40858E-05 7.58804E-19 3.12183E-18
 -1       893 7.30935E-05-1.97207E-05-2.27649E-05 1.94189E-05-2.10516E-18 9.73377E-19
 -1       894 9.61925E-05-3.41993E-05-2.65262E-05 2.08071E-05-1.66118E-18-6.82893E-19
 -1       895 9.52413E-05-2.85769E-05-2.85705E-05 2.29840E-09 1.00299E-18-5.90039E-19
 -1       896 9.25916E-05-2.84975E-05-2.74676E-05 1.49806E-05-1.50659E-18-6.45309E-19
 -1       897 9.52418E-05-2.85773E-05-2.85705E-05-7.83339E-10 8.54494E-19 1.66333E-18
 -1       898 8.02025E-05-2.44776E-05-2.37635E-05-2.11749E-05 1.52654E-18 5.87530E-20
 -1       899 9.52403E-05-2.85761E-05-2.85704E-05-3.50567E-09 3.70499E-20-1.82787E-18
 -1       900 9.52418E-05-2.85773E-05-2.85705E-05 8.07253E-10 1.04985E-18-2.18822E-18
 -1       901 9.52413E-05-2.85769E-05-2.85705E-05-2.27194E-09-1.81027E-19-1.97748E-18
 -1       902 8.60189E-05-2.61933E-05-2.56151E-05-1.75917E-05 1.10129E-18 3.77636E-19
 -1       903 8.75437E-05-2.24739E-05-2.78886E-05 7.36998E-06-1.82491E-19-1.70855E-19
 -1       904 8.59193E-05-2.40965E-05-2.64978E-05-1.28681E-05 3.24333E-19 7.46437E-19
 -1       905 8.67108E-05-2.32234E-05-2.72124E-05-9.46794E-06 1.21491E-19 1.51776E-19
 -1       906 8.78121E-05-2.30714E-05-2.77481E-05-7.07607E-06-1.80423E-19 3.26723E-19
 -1       907 8.89697E-05-2.33233E-05-2.81352E-05-5.36771E-06 2.23325E-19 1.70543E-19
 -1       908 9.00710E-05-2.37965E-05-2.84038E-05-4.11739E-06 2.69236E-19 4.24532E-19
 -1       909 9.10650E-05-2.43761E-05-2.85811E-05-3.17796E-06 3.01670E-19 9.73782E-19
 -1       910 9.19316E-05-2.49875E-05-2.86903E-05-2.45572E-06 3.78018E-19 1.16172E-18
 -1       911 9.26673E-05-2.55828E-05-2.87504E-05-1.89148E-06 3.63366E-19 6.87295E-19
 -1       912 9.32774E-05-2.61325E-05-2.87763E-05-1.44687E-06 1.09990E-18-6.25850E-21
 -1       913 9.37728E-05-2.66207E-05-2.87794E-05-1.09579E-06 5.51478E-19-2.53912E-19
 -1       914 9.41671E-05-2.70410E-05-2.87683E-05-8.19423E-07 3.13639E-19-1.11073E-18
 -1       915 9.44747E-05-2.73933E-05-2.87492E-05-6.03403E-07-3.97815E-19-1.24737E-19
 -1       916 9.47100E-05-2.76819E-05-2.87263E-05-4.36225E-07-4.52676E-19 8.89191E-20
 -1       917 9.48863E-05-2.79135E-05-2.87026E-05-3.08427E-07 2.70819E-19-1.34395E-18
 -1       918 9.50156E-05-2.80958E-05-2.86799E-05-2.12126E-07-5.81866E-19-1.36812E-18
 -1       919 9.51080E-05-2.82364E-05-2.86593E-05-1.40743E-07 1.21570E-19-2.06375E-18
 -1       920 9.51722E-05-2.83428E-05-2.86412E-05-8.88268E-08 1.28491E-18-3.25248E-18
 -1       921 9.52152E-05-2.84217E-05-2.86258E-05-5.19019E-08 5.78914E-19-2.72284E-18
 -1       922 9.52425E-05-2.84790E-05-2.86130E-05-2.63438E-08-1.80245E-19-1.98198E-18
 -1       923 9.52587E-05-2.85194E-05-2.86026E-05-9.25699E-09 4.78243E-19-2.09295E-18
 -1       924 9.52671E-05-2.85472E-05-2.85943E-05 1.63727E-09-6.82911E-20-3.17825E-18
 -1       925 9.52703E-05-2.85654E-05-2.85878E-05 8.10463E-09-9.46246E-19-1.39176E-18
 -1       926 9.52700E-05-2.85768E-05-2.85828E-05 1.14907E-08-6.59026E-19 1.99759E-19
 -1       927 9.52678E-05-2.85833E-05-2.85791E-05 1.28030E-08 7.95792E-19 9.69168E-19
 -1       928 9.52645E-05-2.85865E-05-2.85763E-05 1.27814E-08 1.55436E-18 8.75707E-19
 -1       929 9.52607E-05-2.85874E-05-2.85743E-05 1.19573E-08 7.32580E-20 1.63795E-19
 -1       930 9.52569E-05-2.85869E-05-2.85729E-05 1.07025E-08-2.76103E-19-1.07764E-18
 -1       931 9.52533E-05-2.85855E-05-2.85719E-05 9.26866E-09 7.21001E-19-8.41563E-19
 -1       932 9.52501E-05-2.85838E-05-2.85713E-05 7.81902E-09 7.99803E-19-6.66203E-19
 -1       933 9.52473E-05-2.85820E-05-2.85709E-05 6.45319E-09 1.69159E-18-1.34199E-18
 -1       934 9.52450E-05-2.85802E-05-2.85706E-05 5.22074E-09 1.94562E-18-2.04793E-18
 -1       935 9.52430E-05-2.85785E-05-2.85705E-05 4.17149E-09 1.18048E-18-3.25829E-18
 -1       936 9.02253E-05-2.36336E-05-2.85395E-05 4.57025E-06-2.12850E-20 4.45215E-20
 -1       937 8.60230E-05-2.23150E-05-2.73042E-05 9.66983E-06-8.19263E-19-2.73260E-19
 -1       938 9.13011E-05-2.43422E-05-2.86968E-05 3.63808E-06-2.85870E-19 8.76825E-20
 -1       939 9.21972E-05-2.50359E-05-2.87835E-05 2.88854E-06-1.17189E-19-7.01328E-19
 -1       940 9.29280E-05-2.56767E-05-2.88220E-05 2.27614E-06 4.63304E-19-1.05737E-18
 -1       941 9.35131E-05-2.62454E-05-2.88290E-05 1.77381E-06 2.38696E-19 4.27680E-19
 -1       942 9.39735E-05-2.67348E-05-2.88166E-05 1.36357E-06 5.86791E-19 1.54589E-18
 -1       943 9.43300E-05-2.71456E-05-2.87933E-05 1.03176E-06 3.64245E-19 3.61741E-19
 -1       944 9.46017E-05-2.74833E-05-2.87650E-05 7.66833E-07 2.18490E-19-1.04760E-19
 -1       945 9.48051E-05-2.77556E-05-2.87355E-05 5.58408E-07 1.76430E-19-7.37726E-19
 -1       946 9.49548E-05-2.79713E-05-2.87072E-05 3.97067E-07-8.23530E-19-9.46628E-20
 -1       947 9.50627E-05-2.81394E-05-2.86814E-05 2.74324E-07-9.84218E-19 1.93838E-19
 -1       948 9.51387E-05-2.82681E-05-2.86588E-05 1.82682E-07-4.88792E-19 8.30147E-19
 -1       949 9.51906E-05-2.83649E-05-2.86396E-05 1.15666E-07 1.31194E-19 1.39385E-18
 -1       950 9.52248E-05-2.84364E-05-2.86236E-05 6.78047E-08-3.67315E-19 1.21873E-18
 -1       951 9.52462E-05-2.84880E-05-2.86106E-05 3.45716E-08-7.04322E-19 1.40692E-18
 -1       952 9.52585E-05-2.85245E-05-2.86003E-05 1.22979E-08 1.22858E-18 1.57622E-18
 -1       953 9.52645E-05-2.85494E-05-2.85922E-05-1.93397E-09-3.18657E-20 1.23626E-18
 -1       954 9.52664E-05-2.85658E-05-2.85859E-05-1.04012E-08 8.32784E-19 1.18763E-18
 -1       955 9.52656E-05-2.85761E-05-2.85812E-05-1.48480E-08 9.73718E-19 8.76422E-20
 -1       956 9.52633E-05-2.85819E-05-2.85778E-05-1.65850E-08 1.00845E-18 1.06690E-18
 -1       957 9.52603E-05-2.85848E-05-2.85752E-05-1.65770E-08 1.10126E-19 8.06335E-19
 -1       958 9.52570E-05-2.85856E-05-2.85734E-05-1.55179E-08 1.99641E-18 2.07078E-19
 -1       959 9.52537E-05-2.85852E-05-2.85722E-05-1.38936E-08 8.17333E-19-6.10613E-19
 -1       960 9.52506E-05-2.85840E-05-2.85714E-05-1.20334E-08-1.35928E-18-8.44169E-19
 -1       961 9.52479E-05-2.85825E-05-2.85709E-05-1.01507E-08-5.07865E-19-2.84159E-19
 -1       962 9.52456E-05-2.85808E-05-2.85706E-05-8.37554E-09 1.28684E-18-2.14095E-18
 -1       963 9.52436E-05-2.85792E-05-2.85705E-05-6.77900E-09 9.53490E-19-1.54833E-18
 -1       964 9.52420E-05-2.85777E-05-2.85704E-05-5.39818E-09 1.65091E-19-2.15783E-18
 -1       965 9.52411E-05-2.85769E-05-2.85704E-05-4.37543E-09 1.54808E-18-2.17606E-18
 -1       966 6.07718E-05-1.09221E-05-2.12180E-05 1.87579E-06-6.89420E-19 3.51319E-18
 -1       967 8.89672E-05-2.29755E-05-2.82826E-05 5.76518E-06 2.56989E-19 1.99594E-19
 -1       968 8.43810E-05-2.41315E-05-2.57944E-05 1.65909E-05-1.07272E-18 8.90453E-19
 -1       969 9.52430E-05-2.85784E-05-2.85706E-05-1.91998E-09 2.83932E-19 8.46823E-19
 -1       970 8.49246E-05-2.27934E-05-2.66233E-05 1.26013E-05-7.37886E-19-1.29950E-19
 -1       971 7.40378E-05-1.93706E-05-2.33731E-05-1.68067E-05 9.27070E-19 8.73102E-19
 -1       972 6.92151E-05-1.51295E-05-2.31271E-05 1.05248E-05-1.44759E-18 1.98083E-18
 -1       973 9.52434E-05-2.85787E-05-2.85706E-05 2.74230E-11 3.28107E-19-9.01379E-21
 -1       974 6.82853E-05-1.40400E-05-2.32042E-05-6.18898E-06 4.06612E-19 1.93057E-18
 -1       975 8.11908E-05-2.00378E-05-2.62024E-05-8.48024E-06 1.88243E-19 6.50728E-19
 -1       976 8.39055E-05-2.07427E-05-2.70688E-05-6.00187E-06 5.07517E-19 5.68103E-19
 -1       977 8.61165E-05-2.15480E-05-2.76722E-05-4.34874E-06 3.98143E-19 1.36662E-18
 -1       978 8.79386E-05-2.24001E-05-2.80881E-05-3.21115E-06 2.22031E-19 1.34498E-18
 -1       979 8.94411E-05-2.32486E-05-2.83684E-05-2.40358E-06 4.15659E-19 1.29196E-18
 -1       980 9.06819E-05-2.40640E-05-2.85507E-05-1.81313E-06 2.31064E-19 1.07014E-18
 -1       981 9.17022E-05-2.48232E-05-2.86626E-05-1.37162E-06-2.48186E-21 9.85445E-19
 -1       982 9.25340E-05-2.55095E-05-2.87249E-05-1.03610E-06 1.91547E-19 7.64935E-19
 -1       983 9.32040E-05-2.61137E-05-2.87531E-05-7.78622E-07 1.03678E-18 2.85909E-19
 -1       984 9.37364E-05-2.66328E-05-2.87588E-05-5.80207E-07 2.29190E-19 1.24306E-18
 -1       985 9.41530E-05-2.70689E-05-2.87505E-05-4.27408E-07-1.60337E-19 1.23797E-18
 -1       986 9.44737E-05-2.74278E-05-2.87340E-05-3.10272E-07-6.62949E-19-8.92828E-20
 -1       987 9.47161E-05-2.77175E-05-2.87138E-05-2.21167E-07-8.69660E-20-5.77895E-19
 -1       988 9.48959E-05-2.79470E-05-2.86924E-05-1.54088E-07-3.95927E-19-5.42579E-19
 -1       989 9.50263E-05-2.81255E-05-2.86718E-05-1.04242E-07-1.06766E-18 1.20544E-19
 -1       990 9.51186E-05-2.82618E-05-2.86529E-05-6.77755E-08-3.70195E-19-5.61429E-19
 -1       991 9.51819E-05-2.83639E-05-2.86363E-05-4.15930E-08 1.32584E-18-2.50805E-18
 -1       992 9.52237E-05-2.84388E-05-2.86221E-05-2.32198E-08 1.04099E-18-2.18515E-18
 -1       993 9.52498E-05-2.84925E-05-2.86103E-05-1.06934E-08-1.65645E-19-2.04241E-19
 -1       994 9.52647E-05-2.85299E-05-2.86006E-05-2.47322E-09-2.86531E-19-2.05311E-19
 -1       995 9.52720E-05-2.85552E-05-2.85929E-05 2.63560E-09-1.53339E-19-5.14240E-19
 -1       996 9.52741E-05-2.85714E-05-2.85869E-05 5.54712E-09 3.37015E-19-9.05377E-19
 -1       997 9.52730E-05-2.85812E-05-2.85822E-05 6.95022E-09 5.35471E-19-4.30403E-19
 -1       998 9.52701E-05-2.85864E-05-2.85787E-05 7.35530E-09 2.13627E-18 2.98590E-19
 -1       999 9.52662E-05-2.85886E-05-2.85761E-05 7.13327E-09 8.35563E-19-1.17296E-18
 -1      1000 9.52619E-05-2.85888E-05-2.85742E-05 6.54762E-09 1.23084E-19-3.48002E-19
 -1      1001 9.52578E-05-2.85878E-05-2.85729E-05 5.78036E-09 6.29389E-20 1.14677E-18
 -1      1002 9.52539E-05-2.85861E-05-2.85719E-05 4.95271E-09 3.89792E-19 1.81613E-19
 -1      1003 9.52505E-05-2.85841E-05-2.85713E-05 4.14151E-09 1.46488E-18-8.07765E-19
 -1      1004 9.52476E-05-2.85821E-05-2.85709E-05 3.40244E-09 2.16317E-19-1.40955E-18
 -1      1005 9.52451E-05-2.85801E-05-2.85707E-05 2.74105E-09 1.50595E-18-1.56893E-18
 -1      1006 8.32374E-05-2.00598E-05-2.70795E-05 5.85563E-06-4.48881E-19 7.11705E-19
 -1      1007 9.07471E-05-2.40034E-05-2.86046E-05 2.24373E-06 4.85033E-19 2.82146E-19
 -1      1008 9.18000E-05-2.48168E-05-2.87072E-05 1.78853E-06 3.49866E-19-1.19085E-19
 -1      1009 9.26406E-05-2.55344E-05-2.87599E-05 1.41331E-06-3.21432E-19-1.77808E-19
 -1      1010 9.33053E-05-2.61536E-05-2.87794E-05 1.10308E-06 1.33288E-19 2.30851E-19
 -1      1011 9.38249E-05-2.66770E-05-2.87778E-05 8.48131E-07 5.53279E-19 1.00713E-18
 -1      1012 9.42257E-05-2.71111E-05-2.87635E-05 6.41021E-07 1.23206E-19 5.09488E-19
 -1      1013 9.45305E-05-2.74646E-05-2.87426E-05 4.75217E-07 7.59960E-19 4.16990E-20
 -1      1014 9.47585E-05-2.77476E-05-2.87190E-05 3.44642E-07-1.10204E-18-2.50933E-19
 -1      1015 9.49261E-05-2.79704E-05-2.86953E-05 2.43605E-07-1.48980E-18 3.22199E-19
 -1      1016 9.50467E-05-2.81429E-05-2.86731E-05 1.66874E-07-8.94157E-19-2.72540E-20
 -1      1017 9.51315E-05-2.82741E-05-2.86532E-05 1.09763E-07-9.90811E-19 7.28905E-19
 -1      1018 9.51892E-05-2.83721E-05-2.86359E-05 6.81888E-08-5.15481E-20 1.18250E-18
 -1      1019 9.52271E-05-2.84439E-05-2.86214E-05 3.86832E-08-4.43029E-20-1.47839E-19
 -1      1020 9.52505E-05-2.84953E-05-2.86094E-05 1.83714E-08-9.26842E-20-1.07726E-18
 -1      1021 9.52638E-05-2.85311E-05-2.85997E-05 4.92157E-09 4.10407E-19-5.49512E-21
 -1      1022 9.52701E-05-2.85553E-05-2.85921E-05-3.51866E-09 1.11047E-20-4.82330E-19
 -1      1023 9.52717E-05-2.85709E-05-2.85861E-05-8.39165E-09 3.39484E-19-1.12280E-18
 -1      1024 9.52705E-05-2.85803E-05-2.85815E-05-1.07986E-08 1.38874E-19 2.24512E-19
 -1      1025 9.52676E-05-2.85853E-05-2.85781E-05-1.15632E-08 9.10148E-19 1.77030E-19
 -1      1026 9.52639E-05-2.85875E-05-2.85756E-05-1.12884E-08 1.44010E-18 3.82467E-19
 -1      1027 9.52600E-05-2.85877E-05-2.85738E-05-1.04049E-08 6.74101E-19 6.67584E-19
 -1      1028 9.52561E-05-2.85868E-05-2.85726E-05-9.21154E-09 1.53872E-19 3.97328E-19
 -1      1029 9.52526E-05-2.85852E-05-2.85717E-05-7.90860E-09-2.72511E-19-8.02429E-19
 -1      1030 9.52494E-05-2.85834E-05-2.85712E-05-6.62311E-09 8.32742E-19-8.84832E-19
 -1      1031 9.52467E-05-2.85815E-05-2.85708E-05-5.43248E-09 8.85900E-19-1.43698E-18
 -1      1032 9.52444E-05-2.85797E-05-2.85706E-05-4.37969E-09 5.44446E-19-1.35367E-18
 -1      1033 9.52428E-05-2.85783E-05-2.85705E-05-3.68362E-09 5.62313E-19-3.35464E-18
 -1      1034 8.57842E-05-2.11053E-05-2.77220E-05 4.49314E-06-9.28806E-20 5.78862E-19
 -1      1035 9.52434E-05-2.85787E-05-2.85706E-05 1.60986E-09 1.64944E-18-7.69098E-19
 -1      1036 8.94367E-05-2.31028E-05-2.84292E-05 2.80539E-06-8.66918E-19 7.06134E-19
 -1      1037 8.78098E-05-2.21295E-05-2.81495E-05 3.52312E-06-2.16754E-19 1.60726E-19
 -1      1038 7.78989E-05-1.94617E-05-2.50186E-05-1.18548E-05 6.94646E-19 9.68523E-19
 -1      1039 7.45054E-05-1.64521E-05-2.48713E-05 7.27283E-06-3.49624E-19 1.96648E-18
 -1      1040 9.52448E-05-2.85798E-05-2.85707E-05-2.23973E-09 6.81138E-19 1.81540E-19
 -1      1041 7.96137E-05-1.85234E-05-2.61741E-05 6.50872E-06-4.18289E-19 1.60935E-18
 -1      1042 7.01018E-05-1.42882E-05-2.38991E-05 1.51615E-06-3.30368E-20 2.11764E-18
 -1      1043 9.52454E-05-2.85804E-05-2.85707E-05 7.70101E-10 9.83870E-19 1.55360E-18
 -1      1044 8.32692E-05-1.98116E-05-2.71961E-05-2.21016E-06 5.31560E-19 8.10598E-19
 -1      1045 8.58814E-05-2.10861E-05-2.77702E-05-1.52592E-06 4.32904E-19 2.19922E-19
 -1      1046 8.79108E-05-2.22118E-05-2.81573E-05-1.05850E-06 4.58202E-19 5.88407E-19
 -1      1047 8.95223E-05-2.32256E-05-2.84133E-05-7.37309E-07 7.10462E-19 5.05038E-19
 -1      1048 9.08142E-05-2.41365E-05-2.85764E-05-5.15004E-07 7.49832E-20 3.32826E-19
 -1      1049 9.18513E-05-2.49454E-05-2.86742E-05-3.60193E-07-3.16389E-19 8.61490E-19
 -1      1050 9.26801E-05-2.56518E-05-2.87266E-05-2.51869E-07 2.76875E-19 7.71806E-19
 -1      1051 9.33369E-05-2.62575E-05-2.87484E-05-1.75794E-07 1.19950E-18-1.32387E-19
 -1      1052 9.38512E-05-2.67672E-05-2.87503E-05-1.22215E-07 4.04104E-19 4.76941E-19
 -1      1053 9.42486E-05-2.71883E-05-2.87401E-05-8.44081E-08-9.65516E-19 5.90397E-19
 -1      1054 9.45508E-05-2.75300E-05-2.87232E-05-5.77105E-08-1.83301E-18 9.01737E-19
 -1      1055 9.47768E-05-2.78023E-05-2.87033E-05-3.88745E-08-2.60992E-19-1.76937E-19
 -1      1056 9.49424E-05-2.80157E-05-2.86829E-05-2.56257E-08-1.66149E-20-6.54973E-20
 -1      1057 9.50612E-05-2.81799E-05-2.86634E-05-1.63619E-08-1.00907E-18 1.09893E-19
 -1      1058 9.51441E-05-2.83040E-05-2.86458E-05-9.94649E-09-6.53152E-19 3.36534E-19
 -1      1059 9.52001E-05-2.83959E-05-2.86303E-05-5.56749E-09 1.16174E-18 8.13132E-19
 -1      1060 9.52362E-05-2.84626E-05-2.86172E-05-2.64092E-09 1.04876E-18 6.05543E-19
 -1      1061 9.52581E-05-2.85098E-05-2.86064E-05-7.44401E-10-2.02815E-19 2.12222E-21
 -1      1062 9.52699E-05-2.85422E-05-2.85976E-05 4.28598E-10-2.67117E-19 1.86897E-19
 -1      1063 9.52750E-05-2.85636E-05-2.85906E-05 1.10072E-09 1.51645E-19 1.45449E-18
 -1      1064 9.52756E-05-2.85769E-05-2.85851E-05 1.43330E-09 3.90978E-19 7.00255E-19
 -1      1065 9.52735E-05-2.85846E-05-2.85809E-05 1.54252E-09 2.15168E-19-1.20190E-18
 -1      1066 9.52699E-05-2.85884E-05-2.85778E-05 1.51122E-09 1.13137E-18-3.39817E-18
 -1      1067 9.52656E-05-2.85896E-05-2.85754E-05 1.39757E-09 1.03241E-18-2.87911E-18
 -1      1068 9.52612E-05-2.85891E-05-2.85738E-05 1.24157E-09 1.66324E-18-2.16793E-18
 -1      1069 9.52570E-05-2.85876E-05-2.85726E-05 1.06995E-09 4.84598E-19 7.40301E-19
 -1      1070 9.52531E-05-2.85857E-05-2.85718E-05 8.99702E-10-1.78253E-19 6.41396E-19
 -1      1071 9.52498E-05-2.85836E-05-2.85712E-05 7.41020E-10 7.42130E-19-2.05631E-19
 -1      1072 9.52474E-05-2.85819E-05-2.85709E-05 7.83332E-10 2.18686E-19 5.90214E-19
 -1      1073 9.07627E-05-2.40596E-05-2.85866E-05 9.42092E-07 4.56624E-19 8.53340E-20
 -1      1074 9.33348E-05-2.62364E-05-2.87563E-05 4.91704E-07 3.98710E-19-6.47766E-19
 -1      1075 9.38528E-05-2.67534E-05-2.87567E-05 3.81629E-07 5.91697E-19-8.31797E-19
 -1      1076 9.42513E-05-2.71790E-05-2.87451E-05 2.90073E-07-2.31330E-19-1.27792E-19
 -1      1077 9.45534E-05-2.75234E-05-2.87270E-05 2.15571E-07-5.11827E-19 1.39003E-18
 -1      1078 9.47786E-05-2.77974E-05-2.87062E-05 1.56260E-07-1.07992E-18 1.94492E-18
 -1      1079 9.49435E-05-2.80118E-05-2.86849E-05 1.10060E-07-1.05842E-18 6.27577E-19
 -1      1080 9.50615E-05-2.81767E-05-2.86649E-05 7.48603E-08-8.11821E-19-2.49955E-19
 -1      1081 9.51438E-05-2.83013E-05-2.86468E-05 4.86489E-08-6.93335E-19-1.17742E-19
 -1      1082 9.51994E-05-2.83937E-05-2.86310E-05 2.96086E-08 4.67585E-19-2.56319E-20
 -1      1083 9.52353E-05-2.84607E-05-2.86177E-05 1.61598E-08 8.90954E-19-6.38832E-19
 -1      1084 9.52571E-05-2.85082E-05-2.86067E-05 6.97453E-09 4.12666E-19-1.05603E-18
 -1      1085 9.52689E-05-2.85408E-05-2.85978E-05 9.66923E-10 3.13529E-19 6.79704E-20
 -1      1086 9.52740E-05-2.85625E-05-2.85907E-05-2.72922E-09 4.64904E-19-7.74109E-19
 -1      1087 9.52747E-05-2.85761E-05-2.85852E-05-4.78913E-09-8.29453E-19-2.33591E-19
 -1      1088 9.52727E-05-2.85839E-05-2.85809E-05-5.72771E-09 2.15349E-19 3.94341E-19
 -1      1089 9.52693E-05-2.85879E-05-2.85777E-05-5.92896E-09 2.06383E-20 1.74096E-18
 -1      1090 9.52651E-05-2.85891E-05-2.85754E-05-5.67254E-09 1.69087E-18 1.26106E-18
 -1      1091 9.52608E-05-2.85888E-05-2.85737E-05-5.15688E-09 1.14208E-18 8.29652E-19
 -1      1092 9.52566E-05-2.85874E-05-2.85725E-05-4.51840E-09 9.59696E-19-1.18538E-18
 -1      1093 9.52529E-05-2.85855E-05-2.85717E-05-3.84743E-09-1.90169E-19-1.70354E-18
 -1      1094 9.52496E-05-2.85835E-05-2.85712E-05-3.20208E-09 9.65337E-19 6.10342E-19
 -1      1095 9.52470E-05-2.85816E-05-2.85709E-05-2.69879E-09 1.49363E-18 9.17557E-20
 -1      1096 9.26702E-05-2.56191E-05-2.87359E-05 6.21275E-07-1.13693E-19-1.06680E-19
 -1      1097 9.18262E-05-2.48950E-05-2.86844E-05 7.71016E-07 8.99839E-20 3.10511E-19
 -1      1098 8.28027E-05-1.94475E-05-2.71523E-05 2.05331E-06-6.38853E-20 1.82672E-18
 -1      1099 8.94270E-05-2.31099E-05-2.84210E-05 1.13810E-06 8.43883E-20-2.24673E-19
 -1      1100 7.97670E-05-1.83115E-05-2.63479E-05-3.27040E-06 2.36775E-20 9.12849E-19
 -1      1101 8.56047E-05-2.08355E-05-2.77575E-05 1.65706E-06 6.73251E-19 1.26345E-18
 -1      1102 7.49990E-05-1.65819E-05-2.50199E-05-5.26319E-06-1.40758E-20 1.48326E-18
 -1      1103 8.77451E-05-2.20403E-05-2.81585E-05 1.36883E-06-2.64139E-19 7.51784E-19
 -1      1104 7.61843E-05-1.65693E-05-2.55491E-05 7.40406E-07-1.15460E-19 2.00617E-18
 -1      1105 8.03785E-05-1.83607E-05-2.65628E-05 2.01277E-06-5.21102E-20 2.35947E-18
 -1      1106 1.46227E-04 3.24045E-10-5.27846E-05-5.39398E-05-4.27752E-19 7.92823E-18
 -1      1107 1.09257E-04 8.42825E-11-4.59935E-05-3.17333E-05-1.39972E-19-9.40868E-19
 -1      1108 1.02457E-04 6.84635E-11-4.32963E-05-2.29334E-05-6.49039E-20-3.70414E-18
 -1      1109 9.80014E-05 7.75563E-11-4.10226E-05-1.39900E-05-7.62330E-21-4.44597E-18
 -1      1110 9.08274E-05 8.87580E-11-3.76691E-05-3.36591E-06 5.01867E-20-4.36810E-18
 -1      1111 7.79837E-05 8.16178E-11-3.23039E-05 7.60333E-06 9.31736E-20-3.89504E-18
 -1      1112 5.94945E-05 3.73238E-11-2.51689E-05 1.49702E-05 1.07573E-19-3.45906E-18
 -1      1113 4.06540E-05-3.24280E-11-1.82718E-05 1.45561E-05 9.06325E-20-3.22679E-18
 -1      1114 2.94332E-05-8.14750E-11-1.43060E-05 6.85780E-06 3.49401E-20-3.23932E-18
 -1      1115 3.01283E-05-8.24798E-11-1.45160E-05-3.46700E-06-4.44692E-21-3.39937E-18
 -1      1116 4.20647E-05-3.25249E-11-1.87534E-05-1.10345E-05-2.07523E-20-3.49263E-18
 -1      1117 6.13497E-05 4.09910E-11-2.59436E-05-1.11059E-05-2.20229E-20-3.26998E-18
 -1      1118 8.10103E-05 8.64005E-11-3.36176E-05-3.14558E-06-8.47033E-22-2.42405E-18
 -1      1119 9.53025E-05 9.36033E-11-3.96450E-05 8.35496E-06 4.74338E-20-8.80676E-19
 -1      1120 1.05030E-04 8.66314E-11-4.41106E-05 1.95499E-05 8.80914E-20 1.77374E-18
 -1      1121 1.15240E-04 9.86994E-11-4.84876E-05 3.03778E-05 1.26208E-19 6.45092E-18
 -1      1122 1.43996E-04 2.20427E-10-5.47970E-05 4.77438E-05 2.63427E-19 1.53622E-17
 -1      1123 1.67895E-04-3.24044E-05-5.11080E-05-3.41601E-05-1.68835E-18 1.38647E-17
 -1      1124 1.20220E-04-3.58023E-05-3.90849E-05-1.59669E-07-5.67936E-19 9.98567E-18
 -1      1125 1.06488E-04-3.18956E-05-3.29257E-05 1.60825E-07-1.88028E-19 5.02492E-18
 -1      1126 9.77330E-05-2.94656E-05-2.96291E-05-9.25299E-08-1.05118E-19 2.18613E-18
 -1      1127 9.18789E-05-2.77382E-05-2.78721E-05-4.90397E-08-5.41704E-20-8.68440E-20
 -1      1128 8.97912E-05-2.70929E-05-2.72841E-05 1.62779E-07 4.10282E-21-1.13561E-18
 -1      1129 9.16577E-05-2.75992E-05-2.77501E-05 3.80498E-07 1.04225E-21-2.44983E-18
 -1      1130 9.63263E-05-2.89327E-05-2.89663E-05 4.76356E-07 4.36503E-20-3.28162E-18
 -1      1131 1.01827E-04-3.05292E-05-3.04466E-05 4.25111E-07-3.58335E-21-3.90514E-18
 -1      1132 1.06390E-04-3.18711E-05-3.17281E-05 2.86151E-07-9.42622E-20-4.46069E-18
 -1      1133 1.09092E-04-3.26779E-05-3.25361E-05 1.36335E-07-2.93881E-20-5.24996E-18
 -1      1134 1.09868E-04-3.29203E-05-3.28155E-05 2.29825E-08 1.21223E-19-5.14543E-18
 -1      1135 1.09160E-04-3.27224E-05-3.26623E-05-4.25109E-08-1.03699E-19-4.89662E-18
 -1      1136 1.07553E-04-3.22540E-05-3.22298E-05-6.92833E-08 3.54662E-20-5.06096E-18
 -1      1137 1.05552E-04-3.16647E-05-3.16632E-05-7.18943E-08-3.80007E-20-4.99033E-18
 -1      1138 1.03512E-04-3.10599E-05-3.10699E-05-6.25516E-08-2.17468E-19-6.64088E-18
 -1      1139 1.01639E-04-3.05023E-05-3.05163E-05-4.91256E-08 6.46955E-20-6.78058E-18
 -1      1140 1.00031E-04-3.00216E-05-3.00354E-05-3.58282E-08-1.39330E-20-7.01534E-18
 -1      1141 9.87141E-05-2.96265E-05-2.96384E-05-2.44849E-08 3.12873E-19-7.90225E-18
 -1      1142 9.76743E-05-2.93137E-05-2.93231E-05-1.55979E-08-1.73191E-19-8.61052E-18
 -1      1143 9.68784E-05-2.90735E-05-2.90806E-05-9.03622E-09-1.18157E-19-9.36098E-18
 -1      1144 9.62865E-05-2.88943E-05-2.88994E-05-4.42516E-09 1.41088E-20-7.10025E-18
 -1      1145 9.58586E-05-2.87644E-05-2.87679E-05-1.34080E-09-1.87150E-21-5.69381E-18
 -1      1146 9.55588E-05-2.86731E-05-2.86753E-05 6.04223E-10-8.29104E-21-5.91605E-18
 -1      1147 9.53564E-05-2.86111E-05-2.86125E-05 1.73119E-09 8.39077E-20-4.88006E-18
 -1      1148 9.52263E-05-2.85711E-05-2.85718E-05 2.29204E-09 2.88076E-19-2.84615E-18
 -1      1149 9.51482E-05-2.85468E-05-2.85471E-05 2.47685E-09-2.02411E-20-3.73789E-18
 -1      1150 9.51068E-05-2.85337E-05-2.85338E-05 2.42468E-09 7.16885E-20-7.01975E-18
 -1      1151 9.50901E-05-2.85282E-05-2.85281E-05 2.23436E-09 9.35795E-20-7.96593E-18
 -1      1152 9.50895E-05-2.85277E-05-2.85274E-05 1.97402E-09 3.15781E-20-6.19172E-18
 -1      1153 9.50985E-05-2.85301E-05-2.85298E-05 1.68891E-09-9.66488E-20-5.93335E-18
 -1      1154 9.51129E-05-2.85342E-05-2.85339E-05 1.40770E-09 4.24791E-19-4.21313E-18
 -1      1155 9.51296E-05-2.85390E-05-2.85388E-05 1.14724E-09 4.74351E-20-3.73675E-18
 -1      1156 9.51465E-05-2.85440E-05-2.85438E-05 9.16235E-10-3.55659E-20-3.20723E-18
 -1      1157 9.51625E-05-2.85488E-05-2.85486E-05 7.17987E-10 1.97751E-19-2.95715E-18
 -1      1158 9.51770E-05-2.85531E-05-2.85529E-05 5.52326E-10 9.00082E-21-2.38055E-18
 -1      1159 9.51896E-05-2.85568E-05-2.85567E-05 4.17034E-10 5.31825E-20-2.74383E-18
 -1      1160 9.52003E-05-2.85600E-05-2.85599E-05 3.08812E-10-1.84179E-19-2.84104E-18
 -1      1161 9.52091E-05-2.85627E-05-2.85626E-05 2.23933E-10-4.65006E-20-2.68686E-18
 -1      1162 9.52162E-05-2.85648E-05-2.85647E-05 1.58653E-10 1.38404E-19-2.89365E-18
 -1      1163 9.52219E-05-2.85665E-05-2.85665E-05 1.09460E-10-4.38546E-19-3.91783E-18
 -1      1164 9.52264E-05-2.85679E-05-2.85678E-05 7.31943E-11-1.21353E-19-7.35024E-18
 -1      1165 9.52298E-05-2.85689E-05-2.85689E-05 4.70863E-11 5.12909E-19-7.01720E-18
 -1      1166 9.52324E-05-2.85697E-05-2.85697E-05 2.87137E-11-1.71788E-19-4.28767E-18
 -1      1167 9.52343E-05-2.85703E-05-2.85702E-05 1.58702E-11 6.66265E-20-4.67599E-18
 -1      1168 9.52357E-05-2.85707E-05-2.85707E-05 6.30001E-12 2.66973E-19-9.89499E-19
 -1      1169 9.52366E-05-2.85710E-05-2.85709E-05-2.73610E-12-2.14430E-19-8.71201E-19
 -1      1170 9.52371E-05-2.85711E-05-2.85711E-05-1.50258E-11-4.69519E-20 3.60794E-20
 -1      1171 9.52373E-05-2.85712E-05-2.85712E-05-3.75474E-11 8.52496E-20-7.17119E-20
 -1      1172 9.52372E-05-2.85712E-05-2.85712E-05-2.43813E-11 8.98208E-19 5.31865E-19
 -1      1173 1.81133E-04-5.20370E-05-5.28866E-05 1.66040E-05-2.46222E-19 2.27644E-17
 -1      1174 1.32482E-04-3.86943E-05-4.24615E-05 9.89761E-07 5.09543E-20 2.01990E-17
 -1      1175 1.17700E-04-3.51401E-05-3.60218E-05 3.87073E-07 1.25202E-19 1.70995E-17
 -1      1176 1.05712E-04-3.18386E-05-3.19795E-05 5.62220E-07 5.61821E-20 1.50952E-17
 -1      1177 9.65747E-05-2.91108E-05-2.94168E-05 5.86208E-07-1.36194E-19 1.44410E-17
 -1      1178 9.27006E-05-2.78466E-05-2.83854E-05 3.20152E-07-4.24311E-20 1.31318E-17
 -1      1179 9.49138E-05-2.84252E-05-2.89097E-05-9.88096E-08 1.39621E-19 1.15279E-17
 -1      1180 1.01242E-04-3.03072E-05-3.04949E-05-4.16952E-07 3.34595E-20 1.08808E-17
 -1      1181 1.08326E-04-3.24729E-05-3.23400E-05-5.09058E-07 5.92493E-20 1.06930E-17
 -1      1182 1.13460E-04-3.40509E-05-3.37641E-05-4.09565E-07 7.71462E-20 9.29661E-18
 -1      1183 1.15640E-04-3.47182E-05-3.44427E-05-2.38139E-07 2.75683E-20 8.62139E-18
 -1      1184 1.15237E-04-3.45938E-05-3.44062E-05-8.57086E-08 2.92987E-20 8.87173E-18
 -1      1185 1.13174E-04-3.39667E-05-3.38721E-05 1.44900E-08-1.16114E-19 7.58023E-18
 -1      1186 1.10345E-04-3.31112E-05-3.30838E-05 6.54794E-08 1.07914E-19 6.37275E-18
 -1      1187 1.07383E-04-3.22191E-05-3.22297E-05 8.24538E-08 5.78065E-20 4.60487E-18
 -1      1188 1.04653E-04-3.13986E-05-3.14258E-05 8.03707E-08 6.26258E-21 3.42405E-18
 -1      1189 1.02316E-04-3.06975E-05-3.07286E-05 6.96816E-08-3.20222E-20 3.32947E-18
 -1      1190 1.00413E-04-3.01266E-05-3.01555E-05 5.64581E-08-5.55187E-20 3.61393E-18
 -1      1191 9.89161E-05-2.96777E-05-2.97021E-05 4.37312E-08 1.52454E-19 3.18478E-18
 -1      1192 9.77721E-05-2.93345E-05-2.93539E-05 3.27500E-08-1.06149E-19 4.14789E-18
 -1      1193 9.69189E-05-2.90783E-05-2.90933E-05 2.38345E-08-7.71429E-20 4.86773E-18
 -1      1194 9.62974E-05-2.88916E-05-2.89028E-05 1.68742E-08 3.90943E-19 2.96093E-18
 -1      1195 9.58558E-05-2.87588E-05-2.87670E-05 1.15932E-08-1.07575E-20 3.07493E-18
 -1      1196 9.55509E-05-2.86670E-05-2.86729E-05 7.67987E-09-8.85156E-20 3.65689E-18
 -1      1197 9.53476E-05-2.86057E-05-2.86098E-05 4.84355E-09 2.47926E-19-8.30047E-19
 -1      1198 9.52184E-05-2.85666E-05-2.85694E-05 2.83514E-09 3.19760E-19-4.35448E-18
 -1      1199 9.51419E-05-2.85435E-05-2.85453E-05 1.45068E-09-1.35636E-19-3.78366E-18
 -1      1200 9.51020E-05-2.85313E-05-2.85324E-05 5.27975E-10-2.89241E-19-2.10874E-19
 -1      1201 9.50867E-05-2.85265E-05-2.85272E-05-5.94060E-11 2.46294E-19 1.06117E-18
 -1      1202 9.50871E-05-2.85265E-05-2.85268E-05-4.08350E-10-1.30058E-19 1.79227E-18
 -1      1203 9.50970E-05-2.85294E-05-2.85294E-05-5.91968E-10-2.52735E-19 1.56212E-18
 -1      1204 9.51119E-05-2.85338E-05-2.85337E-05-6.64557E-10-8.22086E-20-7.59752E-19
 -1      1205 9.51289E-05-2.85388E-05-2.85387E-05-6.65748E-10 3.19971E-19-1.87319E-18
 -1      1206 9.51461E-05-2.85439E-05-2.85437E-05-6.23890E-10-7.94347E-20-1.92711E-18
 -1      1207 9.51623E-05-2.85488E-05-2.85486E-05-5.58773E-10-4.36924E-20-1.18986E-18
 -1      1208 9.51769E-05-2.85531E-05-2.85529E-05-4.83800E-10 1.10561E-19-2.83993E-18
 -1      1209 9.51895E-05-2.85569E-05-2.85567E-05-4.07682E-10 2.53515E-20-4.49347E-18
 -1      1210 9.52002E-05-2.85601E-05-2.85599E-05-3.35756E-10-5.90282E-19 4.17678E-19
 -1      1211 9.52091E-05-2.85627E-05-2.85626E-05-2.70992E-10 5.35014E-20 3.37003E-18
 -1      1212 9.52162E-05-2.85649E-05-2.85648E-05-2.14753E-10-4.01485E-19 3.61918E-18
 -1      1213 9.52219E-05-2.85666E-05-2.85665E-05-1.67351E-10-1.09105E-19 5.65577E-18
 -1      1214 9.52264E-05-2.85679E-05-2.85678E-05-1.28460E-10-1.76594E-19 2.91709E-18
 -1      1215 9.52298E-05-2.85689E-05-2.85689E-05-9.73898E-11-6.74880E-20 1.22580E-19
 -1      1216 9.52324E-05-2.85697E-05-2.85697E-05-7.32637E-11 3.11281E-19-5.60210E-19
 -1      1217 9.52343E-05-2.85703E-05-2.85702E-05-5.50728E-11-4.27128E-19 2.66203E-18
 -1      1218 9.52357E-05-2.85707E-05-2.85707E-05-4.15314E-11-4.58343E-20 3.14178E-18
 -1      1219 9.52366E-05-2.85710E-05-2.85709E-05-3.06155E-11 1.79526E-19 1.85797E-18
 -1      1220 9.52371E-05-2.85711E-05-2.85711E-05-1.73951E-11 5.72063E-19-1.99909E-18
 -1      1221 9.52373E-05-2.85712E-05-2.85712E-05 7.92216E-12-2.35892E-19-2.56116E-18
 -1      1222 9.52372E-05-2.85712E-05-2.85712E-05 2.29301E-11 6.32114E-19-4.60887E-19
 -1      1223 9.52371E-05-2.85711E-05-2.85712E-05 2.33242E-11-3.09725E-19-7.48850E-19
 -1      1224 9.52371E-05-2.85710E-05-2.85712E-05 3.14877E-11-1.27025E-18 4.33571E-19
 -1      1225 9.52372E-05-2.85712E-05-2.85711E-05-5.34645E-13 4.64285E-18 1.03761E-18
 -1      1226 9.52373E-05-2.85717E-05-2.85710E-05-2.03744E-11 4.70764E-18-4.35648E-19
 -1      1227 9.52375E-05-2.85724E-05-2.85708E-05-2.93745E-11 5.13517E-18 2.90814E-19
 -1      1228 9.52377E-05-2.85731E-05-2.85706E-05-2.95427E-11-5.15405E-18-8.32208E-19
 -1      1229 9.52379E-05-2.85738E-05-2.85704E-05-2.36671E-11-1.11353E-17-6.17195E-19
 -1      1230 9.52381E-05-2.85742E-05-2.85702E-05-1.29154E-11-1.03595E-17 2.53865E-19
 -1      1231 9.52381E-05-2.85744E-05-2.85702E-05 1.03184E-13-5.45557E-18-1.41644E-19
 -1      1232 9.52381E-05-2.85742E-05-2.85702E-05 1.31067E-11 3.13010E-19 4.06221E-20
 -1      1233 9.52379E-05-2.85738E-05-2.85704E-05 2.37691E-11-6.59659E-18-1.94997E-18
 -1      1234 9.52377E-05-2.85731E-05-2.85706E-05 2.99458E-11-1.24356E-17 1.06920E-18
 -1      1235 9.52375E-05-2.85724E-05-2.85708E-05 2.93176E-11-1.32610E-17 1.50293E-19
 -1      1236 9.52373E-05-2.85717E-05-2.85710E-05 2.04964E-11-7.02465E-18 1.04168E-18
 -1      1237 9.52372E-05-2.85712E-05-2.85711E-05 9.93137E-13-4.27201E-18-5.30446E-19
 -1      1238 9.52371E-05-2.85710E-05-2.85712E-05-5.18153E-11-2.16573E-18-1.31530E-18
 -1      1239 9.52371E-05-2.85711E-05-2.85712E-05-2.85068E-11-5.44234E-19 2.68220E-19
 -1      1240 2.50928E-05-7.83268E-05 1.05663E-05-9.80571E-06 1.59628E-17 2.81914E-18
 -1      1241 1.25101E-05-4.02237E-05 1.98706E-06-1.40872E-05 2.31215E-17 8.88326E-18
 -1      1242 8.60465E-06 8.01589E-06-1.25553E-05 1.41836E-05 2.61767E-17 1.65451E-17
 -1      1243 4.14945E-05 3.09577E-05-3.06268E-05 6.53542E-05 2.24913E-17 2.13097E-17
 -1      1244 1.17376E-04 1.26675E-05-4.93175E-05 1.07045E-04 1.37541E-17 1.93699E-17
 -1      1245 2.10866E-04-3.48508E-05-6.39455E-05 1.08723E-04 5.57263E-18 1.23159E-17
 -1      1246 2.77108E-04-7.70457E-05-7.17808E-05 5.74033E-05 1.08632E-18 8.45127E-19
 -1      1247 2.82560E-04-8.51416E-05-7.12058E-05-1.77221E-05 1.31012E-18-1.14434E-17
 -1      1248 2.22006E-04-5.32920E-05-6.27805E-05-7.45836E-05 6.04210E-18-2.10742E-17
 -1      1249 1.30282E-04-8.47780E-06-4.84738E-05-8.74390E-05 1.27953E-17-2.44555E-17
 -1      1250 5.38701E-05 1.78421E-05-3.26197E-05-6.14797E-05 1.86178E-17-2.28301E-17
 -1      1251 1.36230E-05 1.52538E-05-1.80871E-05-2.37072E-05 2.08980E-17-1.72634E-17
 -1      1252 4.01056E-06-5.50448E-06-6.47062E-06 2.61865E-06 1.84009E-17-9.86539E-18
 -1      1253 8.36640E-06-2.55216E-05 4.83310E-07 8.37502E-06 1.17179E-17-3.81223E-18
 -1      1254 1.09807E-05-3.21167E-05 2.96183E-06 1.92520E-06 2.20911E-18-1.13312E-18
 -1      1255 9.28162E-06-2.65080E-05 1.11629E-06-5.63688E-06-7.80541E-18-2.18315E-18
 -1      1256 3.92325E-06-6.27525E-06-5.33783E-06-1.97128E-06-1.54516E-17-7.31413E-18
 -1      1257 9.75614E-06 1.49716E-05-1.60983E-05 2.01761E-05-1.89397E-17-1.38325E-17
 -1      1258 4.39621E-05 2.12976E-05-3.02445E-05 5.70150E-05-1.67687E-17-1.84289E-17
 -1      1259 1.12238E-04 4.94138E-07-4.56672E-05 8.70217E-05-1.15705E-17-1.95444E-17
 -1      1260 1.99063E-04-4.12322E-05-5.95959E-05 8.20248E-05-5.47649E-18-1.47299E-17
 -1      1261 2.67872E-04-7.83520E-05-6.91299E-05 3.37800E-05-1.10540E-18-4.92041E-18
 -1      1262 2.79096E-04-8.17725E-05-7.11961E-05-4.04629E-05-1.32984E-18 6.43279E-18
 -1      1263 2.19533E-04-4.22480E-05-6.45559E-05-9.97671E-05-6.31929E-18 1.60420E-17
 -1      1264 1.25489E-04 8.11357E-06-5.03809E-05-1.09201E-04-1.24412E-17 1.97350E-17
 -1      1265 4.67150E-05 3.16530E-05-3.25901E-05-7.13507E-05-1.78063E-17 1.78495E-17
 -1      1266 9.88695E-06 1.19165E-05-1.39697E-05-1.85732E-05-2.04406E-17 1.35119E-17
 -1      1267 1.20157E-05-3.77663E-05 1.62205E-06 1.39139E-05-1.25717E-17 5.97497E-18
 -1      1268 2.58014E-05-7.88053E-05 1.04809E-05 9.73053E-06 2.12859E-18 9.49762E-19
 -1      1269 1.30463E-04-2.76533E-05-4.75413E-05-2.26934E-05-7.97905E-19 5.80472E-18
 -1      1270 1.10699E-04-8.09745E-06-4.42346E-05-2.85448E-05-1.08505E-18-2.43390E-18
 -1      1271 1.16688E-04-9.50074E-06-4.58694E-05-3.28514E-05-9.46983E-19-3.25049E-20
 -1      1272 1.05802E-04-6.90813E-06-4.22699E-05-2.17191E-05-5.82123E-19-4.09122E-18
 -1      1273 1.07554E-04-6.64406E-06-4.33133E-05-2.57845E-05-9.29830E-19-3.49713E-18
 -1      1274 1.14081E-04-1.44915E-05-4.28330E-05-2.75799E-05-1.75961E-18-1.70730E-18
 -1      1275 1.02247E-04-7.91333E-06-4.00839E-05-1.31698E-05 1.47172E-19-4.40087E-18
 -1      1276 1.04339E-04-7.65426E-06-4.13322E-05-1.77401E-05-1.10644E-19-4.36169E-18
 -1      1277 1.09901E-04-1.38888E-05-4.11831E-05-2.10569E-05-6.57483E-19-2.93508E-18
 -1      1278 9.50725E-05-9.05643E-06-3.64236E-05-2.65989E-06 9.35760E-19-4.04945E-18
 -1      1279 9.95539E-05-8.93771E-06-3.85326E-05-7.93869E-06 6.97955E-19-4.30235E-18
 -1      1280 1.06276E-04-1.56028E-05-3.88224E-05-1.25046E-05 5.71774E-19-3.10655E-18
 -1      1281 8.02202E-05-8.21919E-06-3.05895E-05 8.20238E-06 1.69894E-18-3.59010E-18
 -1      1282 8.86248E-05-8.48110E-06-3.38223E-05 3.36439E-06 1.49671E-18-3.92658E-18
 -1      1283 9.73940E-05-1.62243E-05-3.47450E-05-1.84405E-06 1.88735E-18-2.80225E-18
 -1      1284 5.69845E-05-3.44609E-06-2.31139E-05 1.51258E-05 2.19106E-18-3.31836E-18
 -1      1285 6.86328E-05-4.22152E-06-2.69807E-05 1.29458E-05 2.07862E-18-3.57702E-18
 -1      1286 7.85717E-05-1.20440E-05-2.85034E-05 9.13003E-06 2.94916E-18-2.64317E-18
 -1      1287 3.35137E-05 3.82410E-06-1.65092E-05 1.34396E-05 2.01022E-18-3.46193E-18
 -1      1288 4.34912E-05 2.98985E-06-1.95424E-05 1.54283E-05 2.14193E-18-3.56760E-18
 -1      1289 5.11896E-05-1.88098E-06-2.11340E-05 1.52917E-05 3.43334E-18-2.90580E-18
 -1      1290 2.13020E-05 8.64130E-06-1.33469E-05 4.95791E-06 1.20075E-18-3.77774E-18
 -1      1291 2.50474E-05 8.29127E-06-1.43760E-05 9.27430E-06 1.47341E-18-3.75614E-18
 -1      1292 2.67147E-05 8.86229E-06-1.52154E-05 1.23703E-05 2.80717E-18-3.51889E-18
 -1      1293 2.47036E-05 8.44332E-06-1.43987E-05-5.43687E-06 1.27690E-19-3.99207E-18
 -1      1294 2.11095E-05 8.74482E-06-1.32611E-05-1.15382E-06 4.00223E-19-3.91234E-18
 -1      1295 1.62285E-05 1.37339E-05-1.27837E-05 2.64719E-06 1.39498E-18-4.03812E-18
 -1      1296 4.35887E-05 3.04893E-06-1.96631E-05-1.17539E-05-6.34216E-19-3.87322E-18
 -1      1297 3.36392E-05 3.84519E-06-1.65862E-05-9.96396E-06-5.46760E-19-3.84566E-18
 -1      1298 2.54173E-05 9.55550E-06-1.48814E-05-7.76645E-06-1.59401E-19-3.98656E-18
 -1      1299 7.07506E-05-4.57599E-06-2.77475E-05-8.88592E-06-7.33531E-19-3.20586E-18
 -1      1300 5.84456E-05-3.80215E-06-2.36125E-05-1.13719E-05-8.52115E-19-3.44599E-18
 -1      1301 5.15632E-05-1.95536E-06-2.12167E-05-1.14288E-05-1.08696E-18-3.24255E-18
 -1      1302 9.22160E-05-8.91796E-06-3.51915E-05 1.45500E-06-1.40184E-19-2.03907E-18
 -1      1303 8.31925E-05-8.69624E-06-3.16728E-05-3.77754E-06-3.95988E-19-2.59700E-18
 -1      1304 8.12512E-05-1.29159E-05-2.93170E-05-4.79316E-06-9.17654E-19-2.03320E-18
 -1      1305 1.04669E-04-9.35216E-06-4.05918E-05 1.33089E-05 6.06052E-19-3.36272E-19
 -1      1306 9.93636E-05-9.53107E-06-3.80969E-05 7.73450E-06 3.36060E-19-1.28516E-18
 -1      1307 1.01669E-04-1.73056E-05-3.61561E-05 6.98323E-06 1.14032E-19-6.70903E-19
 -1      1308 1.12525E-04-8.44188E-06-4.45767E-05 2.37916E-05 1.18309E-18 2.45544E-18
 -1      1309 1.08712E-04-8.77725E-06-4.25930E-05 1.86539E-05 9.29195E-19 7.99705E-19
 -1      1310 1.12617E-04-1.71871E-05-4.09300E-05 1.81946E-05 1.20141E-18 1.19352E-18
 -1      1311 1.23397E-04-9.86933E-06-4.87033E-05 3.37671E-05 1.14032E-18 7.38390E-18
 -1      1312 1.17396E-04-9.62818E-06-4.62596E-05 2.77567E-05 1.09670E-18 4.41489E-18
 -1      1313 1.20995E-04-1.76936E-05-4.43674E-05 2.70987E-05 1.79714E-18 4.22680E-18
 -1      1314 1.67835E-04-3.37995E-05-5.28039E-05 3.91811E-05 5.01020E-19 1.60979E-17
 -1      1315 1.33534E-04-1.94088E-05-4.97508E-05 3.26358E-05 4.94667E-19 1.01739E-17
 -1      1316 1.35140E-04-2.68049E-05-4.65801E-05 3.06392E-05 1.77751E-18 8.68124E-18
 -1      1317 1.39892E-04-3.82112E-05-4.70409E-05 1.09820E-05 9.69694E-19 1.60623E-17
 -1      1318 1.30853E-04-3.74226E-05-4.16048E-05-1.15050E-05-1.71037E-18 6.95965E-18
 -1      1319 1.20692E-04-3.44101E-05-3.76099E-05-8.92628E-06-1.48083E-18 4.86239E-18
 -1      1320 1.15272E-04-3.37819E-05-3.51958E-05-5.99163E-06-1.11724E-18 4.27423E-18
 -1      1321 1.09497E-04-3.23995E-05-3.30969E-05-5.68586E-06-1.01776E-18 2.64691E-18
 -1      1322 1.21059E-04-3.42679E-05-3.76180E-05-1.53633E-05-2.44337E-18 2.29832E-18
 -1      1323 1.05333E-04-3.12093E-05-3.17532E-05-4.15735E-06-8.27419E-19 2.13093E-18
 -1      1324 1.01555E-04-3.00657E-05-3.05996E-05-3.93109E-06-7.70972E-19 9.31639E-19
 -1      1325 1.11480E-04-3.26224E-05-3.39386E-05-9.87132E-06-1.79010E-18 1.43045E-18
 -1      1326 9.88626E-05-2.91942E-05-2.98336E-05-2.46264E-06-5.57454E-19 3.45209E-19
 -1      1327 9.68265E-05-2.85340E-05-2.92658E-05-2.07775E-06-5.04990E-19-4.21703E-19
 -1      1328 1.04890E-04-3.06720E-05-3.19014E-05-6.34029E-06-1.36384E-18 3.73032E-19
 -1      1329 9.55786E-05-2.81307E-05-2.89195E-05-4.30574E-07-3.22137E-19-8.05555E-19
 -1      1330 9.54666E-05-2.81393E-05-2.88770E-05-3.86291E-09-3.41645E-19-1.20337E-18
 -1      1331 1.00965E-04-2.93599E-05-3.08055E-05-2.55644E-06-9.87614E-19-4.88215E-19
 -1      1332 9.55871E-05-2.82391E-05-2.88843E-05 1.41668E-06-5.27854E-19-1.71911E-18
 -1      1333 9.71412E-05-2.88456E-05-2.92816E-05 1.71205E-06-2.86800E-19-2.24689E-18
 -1      1334 9.98499E-05-2.91353E-05-3.04126E-05 1.21171E-06-8.51983E-19-1.16464E-18
 -1      1335 9.81859E-05-2.92702E-05-2.95382E-05 2.45710E-06-1.46479E-19-2.55005E-18
 -1      1336 1.00626E-04-3.01712E-05-3.01806E-05 2.52814E-06-2.78090E-19-2.81199E-18
 -1      1337 1.01056E-04-2.98814E-05-3.05547E-05 3.85015E-06-6.72273E-19-2.01582E-18
 -1      1338 1.01949E-04-3.06525E-05-3.05386E-05 2.49341E-06-2.23643E-19-2.85604E-18
 -1      1339 1.04358E-04-3.15026E-05-3.11903E-05 2.37530E-06-1.57776E-19-3.14988E-18
 -1      1340 1.03447E-04-3.10585E-05-3.10131E-05 4.67642E-06-5.00538E-19-2.32463E-18
 -1      1341 1.05421E-04-3.18440E-05-3.15083E-05 1.80106E-06-3.16900E-19-2.98669E-18
 -1      1342 1.07148E-04-3.24207E-05-3.19905E-05 1.59645E-06-3.00703E-19-3.49968E-18
 -1      1343 1.05799E-04-3.20888E-05-3.15418E-05 3.89288E-06-4.32126E-19-2.31690E-18
 -1      1344 1.07685E-04-3.25538E-05-3.21787E-05 8.38946E-07-3.65025E-19-3.40861E-18
 -1      1345 1.08499E-04-3.28000E-05-3.24162E-05 6.40649E-07 4.81551E-20-3.75100E-18
 -1      1346 1.07310E-04-3.26542E-05-3.19392E-05 2.25728E-06-3.62768E-19-2.27671E-18
 -1      1347 1.08494E-04-3.27502E-05-3.24499E-05-3.00045E-08 1.66353E-19-4.13429E-18
 -1      1348 1.08489E-04-3.27211E-05-3.24579E-05-1.74528E-07-2.71150E-20-3.90747E-18
 -1      1349 1.07733E-04-3.27281E-05-3.20996E-05 5.34767E-07-5.33234E-20-2.57697E-18
 -1      1350 1.08064E-04-3.25486E-05-3.23598E-05-6.37190E-07-1.21225E-19-3.89928E-18
 -1      1351 1.07488E-04-3.23402E-05-3.22016E-05-7.19580E-07-2.01316E-19-4.14361E-18
 -1      1352 1.07208E-04-3.24435E-05-3.20139E-05-8.14306E-07-6.27632E-20-3.01525E-18
 -1      1353 1.06806E-04-3.21042E-05-3.20154E-05-9.66486E-07 9.33721E-20-4.08619E-18
 -1      1354 1.05919E-04-3.18069E-05-3.17635E-05-9.98498E-07 1.78704E-19-3.93108E-18
 -1      1355 1.06039E-04-3.19615E-05-3.17348E-05-1.64822E-06-4.00587E-20-3.16886E-18
 -1      1356 1.05126E-04-3.15516E-05-3.15338E-05-1.07657E-06 5.51636E-21-3.98397E-18
 -1      1357 1.04136E-04-3.12314E-05-3.12479E-05-1.07518E-06-3.57224E-19-4.21893E-18
 -1      1358 1.04534E-04-3.14084E-05-3.13379E-05-2.02210E-06-2.05587E-19-3.41302E-18
 -1      1359 1.03337E-04-3.09853E-05-3.10096E-05-1.04322E-06-4.89853E-19-4.15587E-18
 -1      1360 1.02378E-04-3.06824E-05-3.07299E-05-1.02322E-06-4.02799E-19-4.58592E-18
 -1      1361 1.02937E-04-3.08642E-05-3.08935E-05-2.06565E-06-4.68393E-19-3.00790E-18
 -1      1362 1.01640E-04-3.04612E-05-3.05060E-05-9.31251E-07 1.22602E-19-4.71137E-18
 -1      1363 1.00785E-04-3.01960E-05-3.02551E-05-9.03138E-07 1.24739E-21-4.79556E-18
 -1      1364 1.01410E-04-3.03715E-05-3.04538E-05-1.90931E-06-2.14181E-19-2.46214E-18
 -1      1365 1.00142E-04-3.00066E-05-3.00578E-05-7.86542E-07-5.61540E-20-4.71365E-18
 -1      1366 9.94224E-05-2.97863E-05-2.98455E-05-7.56823E-07 1.25291E-19-4.83553E-18
 -1      1367 1.00046E-04-2.99486E-05-3.00516E-05-1.65443E-06 7.59517E-21-2.57977E-18
 -1      1368 9.88845E-05-2.96301E-05-2.96796E-05-6.37610E-07-1.38678E-19-5.43949E-18
 -1      1369 9.83036E-05-2.94541E-05-2.95076E-05-6.09852E-07-2.86880E-19-5.49443E-18
 -1      1370 9.88846E-05-2.95990E-05-2.97032E-05-1.36876E-06-6.05368E-19-2.98640E-18
 -1      1371 9.78692E-05-2.93291E-05-2.93731E-05-5.00075E-07-3.79190E-19-6.15525E-18
 -1      1372 9.74156E-05-2.91930E-05-2.92383E-05-4.75923E-07-6.54593E-19-6.65435E-18
 -1      1373 9.79309E-05-2.93187E-05-2.94137E-05-1.09236E-06-8.06804E-19-3.81559E-18
 -1      1374 9.70747E-05-2.90955E-05-2.91325E-05-3.81058E-07 1.60473E-19-6.56660E-18
 -1      1375 9.67309E-05-2.89933E-05-2.90301E-05-3.61016E-07 1.50618E-19-6.54668E-18
 -1      1376 9.71714E-05-2.90995E-05-2.91808E-05-8.45756E-07-3.75086E-19-4.31788E-18
 -1      1377 9.64702E-05-2.89191E-05-2.89490E-05-2.82560E-07 3.81278E-19-5.62679E-18
 -1      1378 9.62168E-05-2.88444E-05-2.88733E-05-2.66502E-07 7.25713E-19-4.83182E-18
 -1      1379 9.65824E-05-2.89322E-05-2.89989E-05-6.37040E-07 6.95485E-19-3.74315E-18
 -1      1380 9.60223E-05-2.87893E-05-2.88129E-05-2.03759E-07 1.71777E-19-4.76529E-18
 -1      1381 9.58409E-05-2.87364E-05-2.87584E-05-1.91258E-07-5.61412E-20-4.49923E-18
 -1      1382 9.61369E-05-2.88074E-05-2.88603E-05-4.67032E-07 5.50666E-19-3.65918E-18
 -1      1383 9.56996E-05-2.86965E-05-2.87145E-05-1.42466E-07 3.62267E-19-4.27890E-18
 -1      1384 9.55739E-05-2.86603E-05-2.86766E-05-1.32980E-07 6.14240E-19-4.03342E-18
 -1      1385 9.58083E-05-2.87165E-05-2.87573E-05-3.32716E-07 2.97196E-19-2.99062E-18
 -1      1386 9.54741E-05-2.86322E-05-2.86456E-05-9.59832E-08 7.06868E-19-3.33148E-18
 -1      1387 9.53905E-05-2.86084E-05-2.86203E-05-8.89615E-08 6.77234E-19-2.29509E-18
 -1      1388 9.55721E-05-2.86522E-05-2.86828E-05-2.29363E-07 1.18982E-18-2.14449E-18
 -1      1389 9.53223E-05-2.85893E-05-2.85991E-05-6.15912E-08-1.21178E-20-2.00704E-18
 -1      1390 9.52695E-05-2.85746E-05-2.85830E-05-5.65259E-08-1.86814E-19-1.86702E-18
 -1      1391 9.54075E-05-2.86080E-05-2.86305E-05-1.51774E-07 4.94886E-19-1.02427E-18
 -1      1392 9.52250E-05-2.85622E-05-2.85691E-05-3.67932E-08-5.74024E-19-2.09781E-18
 -1      1393 9.51943E-05-2.85540E-05-2.85597E-05-3.32432E-08-6.31078E-19-3.28005E-18
 -1      1394 9.52969E-05-2.85790E-05-2.85950E-05-9.49538E-08-7.18588E-19-8.97259E-19
 -1      1395 9.51669E-05-2.85464E-05-2.85511E-05-1.94236E-08-3.92508E-19-3.75214E-18
 -1      1396 9.51515E-05-2.85426E-05-2.85463E-05-1.70206E-08-4.49543E-19-4.42863E-18
 -1      1397 9.52262E-05-2.85609E-05-2.85719E-05-5.44428E-08-1.07164E-18-1.71020E-18
 -1      1398 9.51362E-05-2.85384E-05-2.85416E-05-7.67543E-09 2.98254E-19-5.10561E-18
 -1      1399 9.51312E-05-2.85376E-05-2.85398E-05-6.12106E-09 3.15094E-19-4.72751E-18
 -1      1400 9.51841E-05-2.85506E-05-2.85580E-05-2.64407E-08-4.02568E-19-2.04953E-18
 -1      1401 9.51242E-05-2.85357E-05-2.85377E-05-8.50577E-11-1.59086E-19-4.10168E-18
 -1      1402 9.51257E-05-2.85367E-05-2.85379E-05 8.56454E-10 1.67551E-19-4.03822E-18
 -1      1403 9.51621E-05-2.85457E-05-2.85504E-05-7.81804E-09 4.47573E-19-2.66129E-18
 -1      1404 9.51242E-05-2.85364E-05-2.85375E-05 4.50391E-09 1.57952E-19-3.77830E-18
 -1      1405 9.51295E-05-2.85383E-05-2.85389E-05 5.01482E-09 2.97263E-19-3.28889E-18
 -1      1406 9.51536E-05-2.85444E-05-2.85471E-05 3.93320E-09 5.25517E-19-2.38918E-18
 -1      1407 9.51314E-05-2.85390E-05-2.85395E-05 6.98518E-09 3.30843E-19-2.79646E-18
 -1      1408 9.51387E-05-2.85414E-05-2.85415E-05 7.20339E-09 4.22455E-19-2.09162E-18
 -1      1409 9.51538E-05-2.85453E-05-2.85467E-05 1.07767E-08 4.87003E-19-1.37417E-18
 -1      1410 9.51426E-05-2.85426E-05-2.85427E-05 8.03484E-09 5.80203E-19-2.42789E-18
 -1      1411 9.51506E-05-2.85452E-05-2.85450E-05 8.06250E-09 2.90018E-19-2.06652E-18
 -1      1412 9.51593E-05-2.85475E-05-2.85480E-05 1.42169E-08 9.88388E-20-1.29854E-18
 -1      1413 9.51554E-05-2.85466E-05-2.85465E-05 8.15346E-09 7.01416E-20-1.87731E-18
 -1      1414 9.51633E-05-2.85492E-05-2.85488E-05 8.06446E-09 8.63675E-20-1.85131E-18
 -1      1415 9.51676E-05-2.85504E-05-2.85503E-05 1.53823E-08 7.57666E-19-7.99827E-19
 -1      1416 9.51683E-05-2.85506E-05-2.85504E-05 7.70312E-09 1.76796E-19-1.58069E-18
 -1      1417 9.51757E-05-2.85530E-05-2.85525E-05 7.54956E-09 2.31667E-19-1.28309E-18
 -1      1418 9.51770E-05-2.85534E-05-2.85530E-05 1.51007E-08 1.80789E-19-4.91979E-19
 -1      1419 9.51806E-05-2.85544E-05-2.85541E-05 6.93889E-09-4.79508E-19-1.43590E-18
 -1      1420 9.51871E-05-2.85564E-05-2.85560E-05 6.75634E-09-3.93273E-19-1.89755E-18
 -1      1421 9.51866E-05-2.85564E-05-2.85558E-05 1.39651E-08 1.36997E-20-1.36682E-18
 -1      1422 9.51916E-05-2.85577E-05-2.85574E-05 6.03485E-09 4.09904E-20-2.00181E-18
 -1      1423 9.51973E-05-2.85594E-05-2.85590E-05 5.84663E-09 1.11750E-19-1.86314E-18
 -1      1424 9.51956E-05-2.85591E-05-2.85585E-05 1.23879E-08-2.55209E-19-1.75653E-18
 -1      1425 9.52012E-05-2.85606E-05-2.85603E-05 5.10497E-09 2.49393E-19-2.27911E-18
 -1      1426 9.52059E-05-2.85620E-05-2.85617E-05 4.92550E-09-4.67428E-19-2.57800E-18
 -1      1427 9.52037E-05-2.85616E-05-2.85609E-05 1.06465E-08-5.44492E-20-2.88925E-18
 -1      1428 9.52093E-05-2.85630E-05-2.85627E-05 4.21962E-09-5.64588E-19-2.05113E-18
 -1      1429 9.52132E-05-2.85642E-05-2.85639E-05 4.05703E-09 1.79896E-19-2.65249E-18
 -1      1430 9.52108E-05-2.85636E-05-2.85630E-05 8.91874E-09-8.28374E-19-2.33231E-18
 -1      1431 9.52160E-05-2.85650E-05-2.85647E-05 3.41829E-09 1.93953E-20-3.09434E-18
 -1      1432 9.52191E-05-2.85659E-05-2.85656E-05 3.27638E-09-5.63421E-19-3.46235E-18
 -1      1433 9.52168E-05-2.85654E-05-2.85648E-05 7.31071E-09-2.97482E-19-1.81576E-18
 -1      1434 9.52214E-05-2.85666E-05-2.85664E-05 2.71921E-09-4.49448E-19-3.70291E-18
 -1      1435 9.52239E-05-2.85673E-05-2.85671E-05 2.59889E-09-9.05975E-19-4.86468E-18
 -1      1436 9.52217E-05-2.85668E-05-2.85663E-05 5.87854E-09-6.14413E-19-3.40705E-18
 -1      1437 9.52257E-05-2.85678E-05-2.85677E-05 2.12644E-09-6.15589E-19-3.75821E-18
 -1      1438 9.52277E-05-2.85684E-05-2.85682E-05 2.02680E-09 1.26343E-19-4.49298E-18
 -1      1439 9.52257E-05-2.85680E-05-2.85676E-05 4.64418E-09-8.33271E-19-1.81934E-18
 -1      1440 9.52291E-05-2.85688E-05-2.85687E-05 1.63494E-09 1.06233E-18-3.88444E-18
 -1      1441 9.52306E-05-2.85693E-05-2.85691E-05 1.55391E-09 9.72971E-19-2.91365E-18
 -1      1442 9.52288E-05-2.85689E-05-2.85685E-05 3.60709E-09 8.34018E-19-3.68809E-19
 -1      1443 9.52317E-05-2.85696E-05-2.85695E-05 1.23403E-09-8.44094E-20-1.17283E-18
 -1      1444 9.52328E-05-2.85699E-05-2.85698E-05 1.16890E-09 1.06704E-19-1.23191E-18
 -1      1445 9.52313E-05-2.85696E-05-2.85693E-05 2.75248E-09 1.50476E-18 6.04626E-19
 -1      1446 9.52336E-05-2.85702E-05-2.85701E-05 9.09630E-10 3.15125E-19-1.79073E-18
 -1      1447 9.52345E-05-2.85704E-05-2.85703E-05 8.57266E-10 9.86970E-19-5.91510E-19
 -1      1448 9.52332E-05-2.85701E-05-2.85699E-05 2.05680E-09 4.48688E-19 1.53304E-18
 -1      1449 9.52351E-05-2.85706E-05-2.85705E-05 6.45621E-10 1.53872E-18-5.85809E-19
 -1      1450 9.52356E-05-2.85708E-05-2.85707E-05 6.02551E-10 8.11118E-19 2.38846E-19
 -1      1451 9.52347E-05-2.85705E-05-2.85703E-05 1.49121E-09 1.32621E-18 1.40520E-18
 -1      1452 9.52361E-05-2.85709E-05-2.85708E-05 4.24843E-10-7.15362E-19 3.21607E-19
 -1      1453 9.52364E-05-2.85710E-05-2.85709E-05 3.87355E-10 5.95073E-21-1.10027E-19
 -1      1454 9.52357E-05-2.85708E-05-2.85707E-05 1.02413E-09 8.41403E-19 1.02882E-18
 -1      1455 9.52367E-05-2.85711E-05-2.85710E-05 2.32271E-10 1.08851E-18 1.58792E-20
 -1      1456 9.52369E-05-2.85711E-05-2.85711E-05 1.96948E-10 4.85120E-19 8.24473E-19
 -1      1457 9.52364E-05-2.85710E-05-2.85709E-05 6.25217E-10 2.71079E-19 8.20499E-19
 -1      1458 9.52371E-05-2.85712E-05-2.85711E-05 6.13068E-11-2.33627E-19 1.32091E-18
 -1      1459 9.52371E-05-2.85712E-05-2.85711E-05 2.70609E-11-2.04168E-19 1.79623E-18
 -1      1460 9.52369E-05-2.85711E-05-2.85710E-05 2.79401E-10 8.18428E-19 1.59584E-18
 -1      1461 9.52372E-05-2.85711E-05-2.85712E-05-4.38587E-11-1.21335E-18 8.11327E-19
 -1      1462 9.52371E-05-2.85711E-05-2.85711E-05 3.10800E-12-1.22705E-18 1.72071E-18
 -1      1463 1.28454E-04-3.80241E-05-3.93464E-05 6.92823E-06 1.03005E-18 1.41101E-17
 -1      1464 1.38756E-04-4.03253E-05-4.31780E-05 8.41819E-06 7.63071E-19 1.54603E-17
 -1      1465 1.36579E-04-3.60933E-05-4.33310E-05 2.07855E-05 1.51174E-18 1.10333E-17
 -1      1466 1.15898E-04-3.46038E-05-3.49112E-05 5.74749E-06 6.88082E-19 1.22728E-17
 -1      1467 1.22481E-04-3.62807E-05-3.71992E-05 5.75954E-06 6.86176E-19 1.33922E-17
 -1      1468 1.25414E-04-3.69473E-05-3.80905E-05 1.29910E-05 1.45520E-18 9.78436E-18
 -1      1469 1.06019E-04-3.14451E-05-3.20388E-05 4.47875E-06 2.65743E-19 1.11887E-17
 -1      1470 1.11243E-04-3.30065E-05-3.35530E-05 4.69487E-06 4.20168E-19 1.16977E-17
 -1      1471 1.15377E-04-3.41443E-05-3.48700E-05 1.01241E-05 9.82849E-19 8.81136E-18
 -1      1472 9.98827E-05-2.94089E-05-3.03662E-05 2.12824E-06 5.37442E-19 1.02216E-17
 -1      1473 1.02990E-04-3.02604E-05-3.12053E-05 2.71471E-06 3.71239E-19 1.07295E-17
 -1      1474 1.07910E-04-3.14297E-05-3.28698E-05 6.67425E-06 7.15425E-19 7.76888E-18
 -1      1475 9.86994E-05-2.91271E-05-2.99716E-05-6.95025E-07 5.17848E-19 8.79440E-18
 -1      1476 9.89151E-05-2.89306E-05-3.00580E-05 4.52065E-08 3.71900E-19 9.45397E-18
 -1      1477 1.03990E-04-2.99811E-05-3.18454E-05 1.83829E-06 8.91820E-19 6.47802E-18
 -1      1478 1.01815E-04-3.03579E-05-3.06794E-05-2.66971E-06 3.70438E-19 7.64394E-18
 -1      1479 9.95659E-05-2.93553E-05-3.01298E-05-2.13915E-06 4.81188E-19 8.28282E-18
 -1      1480 1.03967E-04-3.02884E-05-3.16859E-05-2.71125E-06 9.42536E-19 5.51080E-18
 -1      1481 1.06876E-04-3.21852E-05-3.19448E-05-3.11257E-06 1.28525E-19 7.14986E-18
 -1      1482 1.03576E-04-3.09520E-05-3.11037E-05-2.96242E-06 5.50381E-20 7.16802E-18
 -1      1483 1.06595E-04-3.17332E-05-3.21310E-05-5.08793E-06 4.98555E-19 4.56397E-18
 -1      1484 1.11348E-04-3.36816E-05-3.31617E-05-2.28053E-06 1.93004E-19 6.68399E-18
 -1      1485 1.08490E-04-3.27440E-05-3.23938E-05-2.44297E-06 2.23868E-19 7.12879E-18
 -1      1486 1.09863E-04-3.33067E-05-3.28054E-05-4.85556E-06 2.92776E-19 4.09101E-18
 -1      1487 1.13797E-04-3.44096E-05-3.39092E-05-9.62461E-07 8.47827E-20 6.20523E-18
 -1      1488 1.12202E-04-3.39773E-05-3.34499E-05-1.24552E-06 2.28057E-19 6.64921E-18
 -1      1489 1.12134E-04-3.42365E-05-3.33584E-05-2.95104E-06 3.59731E-19 3.98542E-18
 -1      1490 1.14058E-04-3.44032E-05-3.40653E-05 2.04837E-07 1.11947E-19 5.96591E-18
 -1      1491 1.13795E-04-3.44206E-05-3.39648E-05-5.10734E-08 8.72444E-20 5.99391E-18
 -1      1492 1.12784E-04-3.43772E-05-3.35758E-05-6.84589E-07 3.03741E-19 3.66456E-18
 -1      1493 1.12685E-04-3.38986E-05-3.37338E-05 9.62568E-07 2.38886E-19 5.42382E-18
 -1      1494 1.13400E-04-3.42051E-05-3.39155E-05 7.92303E-07 1.97438E-19 5.63855E-18
 -1      1495 1.11978E-04-3.39507E-05-3.34206E-05 1.10579E-06 2.77264E-19 3.15392E-18
 -1      1496 1.10394E-04-3.31425E-05-3.31039E-05 1.31849E-06 2.34560E-19 4.43832E-18
 -1      1497 1.11647E-04-3.35834E-05-3.34510E-05 1.23305E-06 3.53916E-19 5.23774E-18
 -1      1498 1.10207E-04-3.32333E-05-3.29777E-05 2.16517E-06 5.21246E-19 2.88336E-18
 -1      1499 1.07780E-04-3.23177E-05-3.23512E-05 1.38553E-06 4.85123E-19 3.44774E-18
 -1      1500 1.09215E-04-3.27844E-05-3.27616E-05 1.36158E-06 2.00375E-19 4.24980E-18
 -1      1501 1.07975E-04-3.24288E-05-3.23721E-05 2.58510E-06 5.94175E-19 2.23895E-18
 -1      1502 1.05231E-04-3.15346E-05-3.15996E-05 1.28436E-06 2.58488E-19 2.82255E-18
 -1      1503 1.06622E-04-3.19661E-05-3.20044E-05 1.29688E-06 2.80038E-19 3.20323E-18
 -1      1504 1.05660E-04-3.16562E-05-3.17153E-05 2.57164E-06 4.53522E-19 2.11848E-18
 -1      1505 1.02958E-04-3.08474E-05-3.09197E-05 1.10589E-06-1.73771E-19 2.68741E-18
 -1      1506 1.04187E-04-3.12167E-05-3.12815E-05 1.13609E-06 3.07066E-20 3.12084E-18
 -1      1507 1.03500E-04-3.09724E-05-3.10846E-05 2.31891E-06 6.23727E-20 2.55298E-18
 -1      1508 1.01042E-04-3.02745E-05-3.03419E-05 9.06832E-07-1.08186E-19 2.93103E-18
 -1      1509 1.02067E-04-3.05752E-05-3.06458E-05 9.42903E-07-2.35058E-19 2.53093E-18
 -1      1510 1.01612E-04-3.03966E-05-3.05233E-05 1.96590E-06-1.32911E-20 2.09718E-18
 -1      1511 9.94909E-05-2.98141E-05-2.98716E-05 7.17740E-07-1.12180E-19 2.81736E-18
 -1      1512 1.00312E-04-3.00504E-05-3.01162E-05 7.53182E-07 4.47505E-22 2.92630E-18
 -1      1513 1.00035E-04-2.99284E-05-3.00488E-05 1.59694E-06-6.46541E-20 2.45432E-18
 -1      1514 9.82730E-05-2.94546E-05-2.95012E-05 5.52396E-07-2.10934E-19 2.86706E-18
 -1      1515 9.89101E-05-2.96351E-05-2.96917E-05 5.84114E-07-1.38664E-19 2.87072E-18
 -1      1516 9.87637E-05-2.95576E-05-2.96626E-05 1.25622E-06-2.17400E-19 2.61025E-18
 -1      1517 9.73407E-05-2.91805E-05-2.92170E-05 4.14964E-07-5.12859E-19 3.41550E-18
 -1      1518 9.78227E-05-2.93151E-05-2.93616E-05 4.41836E-07-1.51705E-19 3.00068E-18
 -1      1519 9.77650E-05-2.92705E-05-2.93575E-05 9.62593E-07-3.47532E-19 2.75567E-18
 -1      1520 9.66434E-05-2.89762E-05-2.90041E-05 3.04640E-07 6.51928E-19 2.63831E-18
 -1      1521 9.69995E-05-2.90742E-05-2.91111E-05 3.26591E-07 2.67034E-19 3.05737E-18
 -1      1522 9.69990E-05-2.90527E-05-2.91223E-05 7.20542E-07 3.82358E-19 1.83866E-18
 -1      1523 9.61333E-05-2.88273E-05-2.88481E-05 2.18388E-07 4.21544E-19 1.75767E-18
 -1      1524 9.63904E-05-2.88969E-05-2.89255E-05 2.35842E-07 6.46509E-19 2.49989E-18
 -1      1525 9.64241E-05-2.88908E-05-2.89449E-05 5.27232E-07 7.39637E-19 1.43694E-18
 -1      1526 9.57691E-05-2.87213E-05-2.87365E-05 1.52429E-07-2.75502E-19 2.30631E-18
 -1      1527 9.59499E-05-2.87694E-05-2.87911E-05 1.66008E-07-2.06962E-19 1.64492E-18
 -1      1528 9.60019E-05-2.87729E-05-2.88142E-05 3.76639E-07 1.25075E-19 1.88936E-18
 -1      1529 9.55161E-05-2.86480E-05-2.86588E-05 1.03003E-07 1.21200E-18 1.29562E-18
 -1      1530 9.56393E-05-2.86800E-05-2.86962E-05 1.13362E-07 6.74940E-19 2.17280E-18
 -1      1531 9.56988E-05-2.86891E-05-2.87199E-05 2.61804E-07 5.38666E-19 1.36821E-18
 -1      1532 9.53460E-05-2.85990E-05-2.86065E-05 6.67076E-08 1.21026E-18-1.81113E-18
 -1      1533 9.54269E-05-2.86194E-05-2.86311E-05 7.44635E-08 1.23419E-18 4.28617E-19
 -1      1534 9.54869E-05-2.86311E-05-2.86537E-05 1.75978E-07 2.28367E-18 4.94201E-19
 -1      1535 9.52369E-05-2.85677E-05-2.85728E-05 4.06308E-08-2.96344E-19-2.85622E-18
 -1      1536 9.52870E-05-2.85798E-05-2.85882E-05 4.63254E-08 1.69896E-19-2.30622E-18
 -1      1537 9.53435E-05-2.85924E-05-2.86085E-05 1.13127E-07 1.07657E-18-5.64346E-19
 -1      1538 9.51712E-05-2.85491E-05-2.85524E-05 2.23591E-08-1.24851E-18-7.75257E-19
 -1      1539 9.51997E-05-2.85554E-05-2.85613E-05 2.64515E-08-7.11149E-19-2.20036E-18
 -1      1540 9.52504E-05-2.85678E-05-2.85790E-05 6.81118E-08-1.01278E-18-6.83305E-19
 -1      1541 9.51359E-05-2.85394E-05-2.85414E-05 9.94306E-09 1.19267E-19-1.20233E-19
 -1      1542 9.51496E-05-2.85418E-05-2.85457E-05 1.28114E-08-4.95825E-19-6.12396E-19
 -1      1543 9.51936E-05-2.85531E-05-2.85607E-05 3.66921E-08-9.51753E-19-2.04744E-19
 -1      1544 9.51212E-05-2.85355E-05-2.85366E-05 1.83843E-09-3.28605E-19 3.69814E-19
 -1      1545 9.51251E-05-2.85355E-05-2.85380E-05 3.78797E-09 1.13660E-19 6.48079E-19
 -1      1546 9.51621E-05-2.85455E-05-2.85504E-05 1.54488E-08-3.67690E-19-2.50311E-19
 -1      1547 9.51198E-05-2.85355E-05-2.85360E-05-3.15668E-09-1.57530E-19 1.20530E-18
 -1      1548 9.51175E-05-2.85340E-05-2.85355E-05-1.88414E-09-5.65685E-19 7.04581E-19
 -1      1549 9.51480E-05-2.85425E-05-2.85455E-05 1.67919E-09-5.47036E-19 6.64871E-19
 -1      1550 9.51264E-05-2.85378E-05-2.85379E-05-5.96241E-09 3.73225E-19-1.30545E-19
 -1      1551 9.51206E-05-2.85354E-05-2.85362E-05-5.17846E-09 4.94904E-19 5.19373E-19
 -1      1552 9.51452E-05-2.85426E-05-2.85442E-05-6.71672E-09 6.21309E-19-6.57589E-19
 -1      1553 9.51375E-05-2.85413E-05-2.85411E-05-7.27136E-09 3.50476E-19-1.69056E-18
 -1      1554 9.51300E-05-2.85386E-05-2.85389E-05-6.83158E-09 2.75808E-19-1.27022E-18
 -1      1555 9.51495E-05-2.85444E-05-2.85452E-05-1.13433E-08 9.80463E-19-1.60827E-18
 -1      1556 9.51506E-05-2.85453E-05-2.85450E-05-7.59556E-09 4.26641E-19-1.68895E-18
 -1      1557 9.51425E-05-2.85426E-05-2.85426E-05-7.39113E-09 2.38405E-19-1.31046E-18
 -1      1558 9.51576E-05-2.85473E-05-2.85474E-05-1.34056E-08 3.55101E-19-1.61436E-18
 -1      1559 9.51640E-05-2.85494E-05-2.85490E-05-7.30603E-09-5.35275E-19-2.89544E-19
 -1      1560 9.51561E-05-2.85468E-05-2.85467E-05-7.25641E-09-5.41289E-19-1.16905E-18
 -1      1561 9.51676E-05-2.85505E-05-2.85503E-05-1.37921E-08-6.69545E-19-3.71786E-19
 -1      1562 9.51768E-05-2.85532E-05-2.85529E-05-6.66540E-09 3.76329E-19-1.03285E-18
 -1      1563 9.51695E-05-2.85509E-05-2.85507E-05-6.71219E-09 5.43987E-19-1.35556E-19
 -1      1564 9.51781E-05-2.85538E-05-2.85533E-05-1.31448E-08 3.64631E-19-1.92911E-19
 -1      1565 9.51884E-05-2.85567E-05-2.85564E-05-5.85437E-09 7.08320E-19-2.42184E-18
 -1      1566 9.51819E-05-2.85547E-05-2.85544E-05-5.95620E-09 7.66743E-19-1.35747E-18
 -1      1567 9.51882E-05-2.85569E-05-2.85563E-05-1.19163E-08 8.46550E-19-3.21970E-19
 -1      1568 9.51985E-05-2.85597E-05-2.85594E-05-4.99277E-09-1.53484E-18-1.63856E-18
 -1      1569 9.51929E-05-2.85581E-05-2.85577E-05-5.12117E-09-6.87215E-19-2.92904E-18
 -1      1570 9.51975E-05-2.85597E-05-2.85591E-05-1.04166E-08-2.49717E-19-3.83723E-19
 -1      1571 9.52071E-05-2.85623E-05-2.85620E-05-4.15612E-09-9.89896E-19 1.07601E-18
 -1      1572 9.52024E-05-2.85609E-05-2.85606E-05-4.29222E-09-1.55657E-18-1.30749E-18
 -1      1573 9.52056E-05-2.85621E-05-2.85615E-05-8.84995E-09-2.10394E-18-1.18334E-19
 -1      1574 9.52142E-05-2.85644E-05-2.85642E-05-3.38835E-09 9.23437E-20 2.32621E-18
 -1      1575 9.52104E-05-2.85633E-05-2.85630E-05-3.52026E-09-4.99511E-19 1.56763E-18
 -1      1576 9.52126E-05-2.85641E-05-2.85636E-05-7.34370E-09-1.19346E-18-3.83130E-19
 -1      1577 9.52200E-05-2.85661E-05-2.85659E-05-2.71148E-09-1.06315E-18 3.71316E-18
 -1      1578 9.52169E-05-2.85652E-05-2.85650E-05-2.83230E-09-5.44688E-19 2.43282E-18
 -1      1579 9.52183E-05-2.85658E-05-2.85654E-05-5.97075E-09-9.61543E-19 1.23895E-18
 -1      1580 9.52247E-05-2.85675E-05-2.85673E-05-2.13275E-09 1.01190E-18 2.21670E-18
 -1      1581 9.52222E-05-2.85668E-05-2.85666E-05-2.23908E-09 4.26664E-19 2.50315E-18
 -1      1582 9.52231E-05-2.85672E-05-2.85668E-05-4.76628E-09 1.47536E-19 5.78168E-19
 -1      1583 9.52283E-05-2.85686E-05-2.85684E-05-1.64982E-09 2.64929E-19 5.28900E-19
 -1      1584 9.52264E-05-2.85680E-05-2.85679E-05-1.74064E-09 1.00027E-18 1.87952E-18
 -1      1585 9.52268E-05-2.85683E-05-2.85680E-05-3.74011E-09 1.45398E-18-2.23196E-19
 -1      1586 9.52311E-05-2.85694E-05-2.85693E-05-1.25438E-09 2.56342E-19 5.48887E-19
 -1      1587 9.52296E-05-2.85690E-05-2.85689E-05-1.33026E-09-2.06200E-19 1.10641E-18
 -1      1588 9.52298E-05-2.85691E-05-2.85689E-05-2.88564E-09 4.78717E-19 5.70959E-19
 -1      1589 9.52332E-05-2.85700E-05-2.85699E-05-9.34444E-10-2.92027E-20-8.22671E-19
 -1      1590 9.52321E-05-2.85697E-05-2.85696E-05-9.97095E-10 7.58343E-20-7.90886E-19
 -1      1591 9.52321E-05-2.85698E-05-2.85696E-05-2.18600E-09 6.10715E-19 2.72869E-19
 -1      1592 9.52348E-05-2.85705E-05-2.85704E-05-6.75845E-10-1.04754E-18 7.12036E-19
 -1      1593 9.52340E-05-2.85703E-05-2.85702E-05-7.27815E-10-9.03574E-19-3.47883E-19
 -1      1594 9.52339E-05-2.85703E-05-2.85701E-05-1.61803E-09-1.21862E-18-2.15658E-18
 -1      1595 9.52359E-05-2.85708E-05-2.85707E-05-4.63027E-10 1.80429E-19 1.63162E-18
 -1      1596 9.52353E-05-2.85707E-05-2.85706E-05-5.07601E-10 1.74663E-19 1.49357E-18
 -1      1597 9.52351E-05-2.85706E-05-2.85705E-05-1.15481E-09-5.50272E-19-7.64910E-19
 -1      1598 9.52366E-05-2.85710E-05-2.85710E-05-2.80485E-10 3.69777E-19 8.92739E-19
 -1      1599 9.52363E-05-2.85709E-05-2.85709E-05-3.21478E-10 4.52158E-19 1.61557E-18
 -1      1600 9.52360E-05-2.85709E-05-2.85708E-05-7.67957E-10 4.17125E-19 8.95276E-19
 -1      1601 9.52370E-05-2.85711E-05-2.85711E-05-1.14947E-10 1.02949E-19-7.11505E-19
 -1      1602 9.52369E-05-2.85711E-05-2.85710E-05-1.57231E-10 7.46607E-19 7.59944E-19
 -1      1603 9.52367E-05-2.85711E-05-2.85710E-05-4.32761E-10 1.17809E-18 2.32484E-18
 -1      1604 9.52371E-05-2.85712E-05-2.85711E-05 1.78818E-11-2.58823E-19-1.02151E-18
 -1      1605 9.52371E-05-2.85712E-05-2.85711E-05-1.84475E-11-5.78843E-19-1.82066E-18
 -1      1606 9.52370E-05-2.85712E-05-2.85711E-05-1.39999E-10 1.35598E-19 9.55654E-19
 -1      1607 9.52372E-05-2.85711E-05-2.85712E-05 3.75594E-11-8.07992E-19-1.02015E-18
 -1      1608 9.52371E-05-2.85712E-05-2.85711E-05-7.42714E-11 1.26974E-18 1.83754E-18
 -1      1609 9.52371E-05-2.85712E-05-2.85711E-05-4.13209E-11-1.14442E-18 2.20275E-18
 -1      1610 9.52372E-05-2.85715E-05-2.85710E-05-2.29366E-10 2.68735E-18 1.45909E-18
 -1      1611 9.52372E-05-2.85714E-05-2.85711E-05-1.98387E-10 1.41130E-18 9.12725E-19
 -1      1612 9.52371E-05-2.85714E-05-2.85710E-05-2.81454E-10 5.18501E-19 2.26357E-18
 -1      1613 9.52374E-05-2.85721E-05-2.85709E-05-3.45996E-10 1.59677E-18-2.86397E-19
 -1      1614 9.52373E-05-2.85718E-05-2.85709E-05-3.26782E-10 2.53368E-18 9.00735E-19
 -1      1615 9.52373E-05-2.85718E-05-2.85709E-05-5.48998E-10 1.69050E-19 8.29739E-19
 -1      1616 9.52376E-05-2.85727E-05-2.85707E-05-3.93657E-10 9.56230E-19-1.86679E-18
 -1      1617 9.52375E-05-2.85723E-05-2.85708E-05-3.89933E-10 2.41778E-18 5.06933E-19
 -1      1618 9.52375E-05-2.85723E-05-2.85708E-05-7.17755E-10 2.03971E-19 1.83600E-19
 -1      1619 9.52378E-05-2.85733E-05-2.85705E-05-3.68811E-10-4.57719E-18-3.79777E-18
 -1      1620 9.52377E-05-2.85730E-05-2.85706E-05-3.79129E-10 8.72326E-19-4.47951E-18
 -1      1621 9.52377E-05-2.85729E-05-2.85706E-05-7.50539E-10-4.42838E-19-5.61335E-18
 -1      1622 9.52380E-05-2.85738E-05-2.85704E-05-2.79272E-10-6.52604E-18-1.23089E-18
 -1      1623 9.52379E-05-2.85736E-05-2.85704E-05-3.01495E-10-4.87253E-18-1.99830E-18
 -1      1624 9.52379E-05-2.85734E-05-2.85705E-05-6.50104E-10-1.45009E-18-5.10443E-18
 -1      1625 9.52381E-05-2.85741E-05-2.85703E-05-1.42626E-10-5.29102E-18 9.17468E-19
 -1      1626 9.52380E-05-2.85740E-05-2.85703E-05-1.72386E-10-7.23962E-18 9.51014E-19
 -1      1627 9.52380E-05-2.85738E-05-2.85704E-05-4.37765E-10-2.28681E-18-4.05665E-19
 -1      1628 9.52381E-05-2.85742E-05-2.85702E-05 1.74641E-11-2.26622E-18 1.76692E-18
 -1      1629 9.52381E-05-2.85742E-05-2.85702E-05-1.48612E-11-5.25830E-18 1.49121E-18
 -1      1630 9.52381E-05-2.85741E-05-2.85703E-05-1.52605E-10-3.06987E-18 1.80633E-18
 -1      1631 9.52380E-05-2.85740E-05-2.85703E-05 1.74692E-10-1.61210E-18-7.36547E-19
 -1      1632 9.52381E-05-2.85741E-05-2.85703E-05 1.45042E-10-2.03149E-18 1.65527E-18
 -1      1633 9.52381E-05-2.85741E-05-2.85703E-05 1.57487E-10-1.83896E-18 2.07035E-18
 -1      1634 9.52379E-05-2.85735E-05-2.85704E-05 3.03110E-10-6.52548E-18-4.11529E-18
 -1      1635 9.52380E-05-2.85738E-05-2.85704E-05 2.81136E-10-1.62940E-18-4.52910E-18
 -1      1636 9.52380E-05-2.85738E-05-2.85704E-05 4.41830E-10-1.80544E-18-3.04813E-18
 -1      1637 9.52377E-05-2.85730E-05-2.85706E-05 3.79316E-10-6.55390E-18 2.62632E-18
 -1      1638 9.52378E-05-2.85733E-05-2.85705E-05 3.69161E-10-6.60561E-18-6.04711E-19
 -1      1639 9.52379E-05-2.85734E-05-2.85705E-05 6.51706E-10-2.31707E-18-3.53786E-18
 -1      1640 9.52375E-05-2.85723E-05-2.85708E-05 3.89499E-10-6.37313E-18-3.70029E-19
 -1      1641 9.52376E-05-2.85727E-05-2.85707E-05 3.93532E-10-7.36588E-18 2.07909E-18
 -1      1642 9.52377E-05-2.85729E-05-2.85706E-05 7.50803E-10-2.80490E-18 2.67619E-18
 -1      1643 9.52373E-05-2.85718E-05-2.85709E-05 3.25194E-10-3.52011E-18 2.39669E-18
 -1      1644 9.52374E-05-2.85721E-05-2.85709E-05 3.44302E-10-5.96006E-18 1.94409E-18
 -1      1645 9.52375E-05-2.85723E-05-2.85708E-05 7.16011E-10-2.05231E-18 1.47708E-18
 -1      1646 9.52372E-05-2.85714E-05-2.85711E-05 1.99348E-10-3.48065E-18-8.83819E-19
 -1      1647 9.52372E-05-2.85715E-05-2.85710E-05 2.31590E-10-3.29628E-18 6.05897E-19
 -1      1648 9.52373E-05-2.85718E-05-2.85709E-05 5.44650E-10-2.14590E-18 1.52790E-18
 -1      1649 9.52371E-05-2.85712E-05-2.85711E-05 9.08120E-11-1.78619E-18 2.44147E-19
 -1      1650 9.52371E-05-2.85713E-05-2.85711E-05 1.36793E-10-2.08373E-18-3.05616E-19
 -1      1651 9.52371E-05-2.85715E-05-2.85710E-05 3.60294E-10-1.48650E-18 7.67244E-19
 -1      1652 9.52370E-05-2.85713E-05-2.85710E-05 2.08394E-10-8.08924E-19 1.39205E-18
 -1      1653 1.51909E-05-4.02557E-05 5.94855E-06 3.84107E-07 1.18131E-17 4.82703E-18
 -1      1654 1.72572E-05-4.87471E-05 8.10462E-06 3.90924E-06 6.87780E-18 3.79788E-18
 -1      1655 1.79749E-05-1.91394E-05-3.25514E-06 1.22476E-05 1.66882E-17 9.22122E-18
 -1      1656 2.03438E-05-3.91709E-05 2.62146E-06 6.23287E-06 1.42022E-17 5.52688E-18
 -1      1657 3.75154E-05 3.65715E-07-1.77675E-05 3.86794E-05 1.74616E-17 1.28813E-17
 -1      1658 2.92232E-05-1.54999E-05-9.91194E-06 2.09662E-05 1.72541E-17 1.02686E-17
 -1      1659 8.18676E-05 2.96550E-06-3.52781E-05 6.80325E-05 1.42640E-17 1.37524E-17
 -1      1660 5.45848E-05 1.73675E-06-2.59889E-05 4.65665E-05 1.67128E-17 1.32264E-17
 -1      1661 1.46974E-04-1.80270E-05-5.17600E-05 7.62089E-05 9.00989E-18 9.82558E-18
 -1      1662 1.07888E-04-4.27678E-06-4.35439E-05 6.77008E-05 1.23840E-17 1.19423E-17
 -1      1663 2.04339E-04-4.11429E-05-6.42835E-05 6.51956E-05 5.00911E-18 4.99961E-18
 -1      1664 1.66623E-04-2.10455E-05-5.87662E-05 7.70653E-05 7.78402E-18 9.19031E-18
 -1      1665 2.34179E-04-5.76037E-05-6.95871E-05 2.38662E-05 3.37797E-18-2.49753E-18
 -1      1666 2.17116E-04-4.63252E-05-6.77479E-05 5.33257E-05 4.26185E-18 2.92353E-18
 -1      1667 2.25856E-04-5.60746E-05-6.74645E-05-2.14594E-05 4.07052E-18-1.00043E-17
 -1      1668 2.38788E-04-6.14626E-05-6.97288E-05 9.27873E-06 3.15689E-18-5.16521E-18
 -1      1669 1.76851E-04-3.55773E-05-5.78285E-05-5.02692E-05 7.37385E-18-1.48959E-17
 -1      1670 2.12626E-04-5.24943E-05-6.35259E-05-3.36586E-05 4.86823E-18-1.20702E-17
 -1      1671 1.14442E-04-1.32368E-05-4.36350E-05-5.55805E-05 1.09627E-17-1.63494E-17
 -1      1672 1.55223E-04-2.92099E-05-5.13597E-05-5.83841E-05 8.42671E-18-1.59310E-17
 -1      1673 6.21399E-05-3.10497E-07-2.91264E-05-4.31614E-05 1.38397E-17-1.52559E-17
 -1      1674 8.98077E-05-5.30806E-06-3.63946E-05-5.70883E-05 1.23633E-17-1.66849E-17
 -1      1675 2.78397E-05-3.38871E-07-1.57900E-05-2.25874E-05 1.41573E-17-1.13782E-17
 -1      1676 4.19298E-05 4.81753E-06-2.23544E-05-3.76627E-05 1.44411E-17-1.43589E-17
 -1      1677 1.19028E-05-7.89903E-06-5.75413E-06-7.31046E-06 1.13557E-17-6.91301E-18
 -1      1678 1.46918E-05 1.40998E-06-1.03078E-05-1.50244E-05 1.37922E-17-9.94163E-18
 -1      1679 6.96062E-06-1.41981E-05-2.37852E-07-1.43490E-06 6.24899E-18-3.63769E-18
 -1      1680 6.18190E-06-8.42697E-06-2.44297E-06-1.42940E-06 1.01263E-17-5.63325E-18
 -1      1681 4.81630E-06-1.23249E-05 6.23556E-07-2.37725E-07-2.21023E-19-3.05377E-18
 -1      1682 4.80923E-06-1.21545E-05 4.59927E-07 1.73435E-06 4.28498E-18-3.42911E-18
 -1      1683 5.02282E-06-8.12655E-06-1.61608E-06 1.91780E-06-6.56345E-18-4.01081E-18
 -1      1684 6.18619E-06-1.40227E-05 2.91883E-07 2.77311E-06-2.23680E-18-2.60177E-18
 -1      1685 1.30487E-05 2.62527E-06-9.41399E-06 1.57082E-05-1.01237E-17-7.38306E-18
 -1      1686 1.06865E-05-6.44731E-06-5.05340E-06 8.97794E-06-7.26881E-18-4.83553E-18
 -1      1687 3.42398E-05 7.82052E-06-2.01736E-05 3.54346E-05-1.20516E-17-1.08031E-17
 -1      1688 2.36409E-05 1.78275E-06-1.43188E-05 2.23589E-05-1.14375E-17-8.38563E-18
 -1      1689 8.20347E-05-2.63470E-06-3.43088E-05 5.51539E-05-1.01394E-17-1.22667E-17
 -1      1690 5.58439E-05 9.77685E-07-2.67666E-05 4.05536E-05-1.13147E-17-1.10089E-17
 -1      1691 1.37880E-04-2.02888E-05-4.84017E-05 6.34865E-05-7.75247E-18-1.25064E-17
 -1      1692 1.01769E-04-6.48584E-06-4.13891E-05 5.83987E-05-1.00035E-17-1.31476E-17
 -1      1693 1.97124E-04-4.58146E-05-6.06596E-05 4.15916E-05-4.70040E-18-7.29973E-18
 -1      1694 1.59763E-04-2.80773E-05-5.45684E-05 5.43866E-05-6.89781E-18-1.07217E-17
 -1      1695 2.30772E-04-5.89194E-05-6.79097E-05 1.99009E-06-3.04085E-18-9.41054E-19
 -1      1696 2.11952E-04-5.01651E-05-6.50485E-05 2.99056E-05-4.09159E-18-5.63955E-18
 -1      1697 2.23939E-04-5.15987E-05-6.80781E-05-4.52929E-05-3.80043E-18 6.25724E-18
 -1      1698 2.34881E-04-5.97013E-05-6.90609E-05-1.30302E-05-2.54915E-18 1.49692E-18
 -1      1699 1.72240E-04-2.47453E-05-5.93396E-05-7.28496E-05-7.02116E-18 1.09496E-17
 -1      1700 2.09082E-04-4.49816E-05-6.46803E-05-5.67187E-05-4.78685E-18 7.57247E-18
 -1      1701 1.08828E-04-1.16269E-07-4.50913E-05-7.48630E-05-1.02267E-17 1.27622E-17
 -1      1702 1.50191E-04-1.67106E-05-5.30634E-05-8.15504E-05-7.94517E-18 1.27072E-17
 -1      1703 5.74664E-05 4.59649E-06-2.79338E-05-5.04335E-05-1.30985E-17 1.08649E-17
 -1      1704 8.58496E-05 4.18929E-06-3.68784E-05-7.11134E-05-1.13257E-17 1.22828E-17
 -1      1705 2.97990E-05-1.37072E-05-1.07694E-05-2.19537E-05-1.15772E-17 7.96846E-18
 -1      1706 4.03314E-05 2.48810E-06-1.94191E-05-4.22248E-05-1.29249E-17 1.02474E-17
 -1      1707 1.99309E-05-3.93877E-05 2.61904E-06-4.77233E-06-4.39441E-18 4.89675E-18
 -1      1708 1.72179E-05-1.79188E-05-3.48869E-06-1.18050E-05-1.02711E-17 7.84310E-18
 -1      1709 1.75386E-05-5.09338E-05 8.53785E-06-3.88012E-06 4.91364E-18 3.43938E-18
 -1      1710 1.51903E-05-4.21052E-05 6.29426E-06 8.23219E-07-1.73134E-18 4.27180E-18
 -1      1711 1.19205E-04-2.58986E-05-3.85423E-05 4.86636E-05 9.26739E-18 5.88307E-18
 -1      1712 7.51274E-05-2.36683E-05-2.27747E-05 4.64229E-05 1.03330E-17 8.15481E-18
 -1      1713 9.52371E-05-2.85711E-05-2.85711E-05 2.74600E-11-1.20654E-18-1.30968E-18
 -1      1714 9.52371E-05-2.85712E-05-2.85711E-05-7.03515E-11 1.23994E-19 1.28986E-18
 -1      1715 1.76553E-05-2.77556E-05 8.72638E-07 1.90047E-05 6.73137E-18 6.52364E-18
 -1      1716 4.05480E-05-2.63280E-05-8.65262E-06 3.43794E-05 9.68413E-18 7.94332E-18
 -1      1717 9.03421E-06-2.76403E-05 4.35280E-06 5.69304E-07 3.25404E-18 7.14430E-18
 -1      1718 1.57088E-04-2.72642E-05-5.26897E-05 4.21123E-05 8.13406E-18 3.99503E-18
 -1      1719 1.85359E-04-2.80567E-05-6.27605E-05 3.28256E-05 6.75466E-18 1.34763E-18
 -1      1720 1.98477E-04-3.19361E-05-6.61911E-05 1.43869E-05 6.08000E-18-2.37042E-18
 -1      1721 1.91419E-04-3.49015E-05-6.25993E-05-5.17874E-06 6.12257E-18-6.12574E-18
 -1      1722 1.62332E-04-3.31235E-05-5.27526E-05-2.27435E-05 6.78050E-18-8.68293E-18
 -1      1723 1.20735E-04-2.67067E-05-3.97612E-05-3.51531E-05 7.81557E-18-1.02707E-17
 -1      1724 7.51638E-05-1.66866E-05-2.63647E-05-3.62901E-05 8.67319E-18-1.03406E-17
 -1      1725 3.70982E-05-8.46630E-06-1.46214E-05-2.71128E-05 8.27255E-18-8.87129E-18
 -1      1726 1.31237E-05-4.60606E-06-6.16436E-06-1.44450E-05 6.44274E-18-6.98029E-18
 -1      1727 2.43368E-06-1.61766E-06-2.28678E-06-4.17458E-06 3.21682E-18-5.79836E-18
 -1      1728 1.31145E-06-1.09074E-06-1.92962E-06 3.99262E-06 5.32360E-19-5.37972E-18
 -1      1729 1.02936E-05-1.88389E-06-5.61122E-06 1.55572E-05-2.61225E-18-5.60016E-18
 -1      1730 3.18970E-05-4.72705E-06-1.35035E-05 2.78432E-05-4.53925E-18-6.27739E-18
 -1      1731 6.83114E-05-1.35531E-05-2.45814E-05 3.68623E-05-5.94405E-18-6.85546E-18
 -1      1732 1.10127E-04-2.26954E-05-3.73632E-05 3.73876E-05-6.39213E-18-7.20232E-18
 -1      1733 1.51108E-04-2.91686E-05-5.01144E-05 2.93705E-05-6.41553E-18-6.34851E-18
 -1      1734 1.80335E-04-3.16988E-05-6.00083E-05 1.03857E-05-5.98831E-18-3.48978E-18
 -1      1735 1.96912E-04-3.31569E-05-6.52869E-05-9.64141E-06-5.32741E-18-1.35419E-19
 -1      1736 1.87294E-04-2.90056E-05-6.31155E-05-2.93107E-05-5.48030E-18 2.95784E-18
 -1      1737 1.58946E-04-2.44673E-05-5.39978E-05-4.52218E-05-5.84492E-18 5.75686E-18
 -1      1738 1.18449E-04-2.08234E-05-4.01128E-05-5.29386E-05-6.99141E-18 7.25314E-18
 -1      1739 7.69791E-05-2.19669E-05-2.41121E-05-4.68037E-05-6.95583E-18 6.46921E-18
 -1      1740 4.12782E-05-2.56582E-05-9.14108E-06-3.44301E-05-4.51807E-18 7.35098E-18
 -1      1741 1.74032E-05-2.95203E-05 1.38551E-06-1.78834E-05-6.51368E-19 7.70694E-18
 -1      1742 1.20222E-04-1.34864E-05-4.60420E-05-3.49018E-05-1.60555E-18 8.76679E-19
 -1      1743 1.35346E-04-3.46235E-05-4.36904E-05-1.99243E-05-1.77644E-18 6.02029E-18
 -1      1744 1.12830E-04-1.97680E-05-4.00096E-05-2.04313E-05-4.48305E-19-1.89854E-18
 -1      1745 1.13692E-04-1.91454E-05-4.08307E-05-2.38156E-05-1.24220E-18-1.76051E-18
 -1      1746 1.15183E-04-1.98064E-05-4.10563E-05-2.53374E-05-1.67584E-18-1.32661E-18
 -1      1747 1.17483E-04-2.10470E-05-4.16240E-05-2.73883E-05-2.29572E-18-3.58083E-19
 -1      1748 1.17317E-04-2.41850E-05-3.98930E-05-2.44524E-05-1.72164E-18-1.02298E-18
 -1      1749 1.00632E-04-2.23050E-05-3.35258E-05-8.70960E-07 2.34136E-18-1.43580E-18
 -1      1750 1.06681E-04-2.28507E-05-3.60488E-05-6.45795E-06 1.59221E-18-1.59920E-18
 -1      1751 7.85712E-05-1.60221E-05-2.67770E-05 1.24107E-05 3.57109E-18-1.56701E-18
 -1      1752 9.13948E-05-2.00381E-05-3.04204E-05 7.24950E-06 3.05779E-18-1.60407E-18
 -1      1753 1.01321E-04-2.65474E-05-3.21221E-05 2.45303E-06 2.53983E-18-8.79564E-19
 -1      1754 4.55893E-05-1.83346E-06-1.87676E-05 1.94653E-05 3.83918E-18-2.53644E-18
 -1      1755 6.23561E-05-8.46808E-06-2.25857E-05 1.80961E-05 3.90641E-18-2.27767E-18
 -1      1756 7.51494E-05-1.72536E-05-2.47183E-05 1.75017E-05 3.50036E-18-1.69015E-18
 -1      1757 1.11054E-05 1.57917E-05-1.12050E-05 1.17218E-07 1.09986E-18-4.32326E-18
 -1      1758 1.17816E-05 1.54729E-05-1.13599E-05 5.33867E-06 2.16724E-18-4.15798E-18
 -1      1759 2.73191E-05 8.14357E-06-1.46674E-05-1.21717E-05-5.13196E-19-4.13903E-18
 -1      1760 1.63494E-05 1.27391E-05-1.23433E-05-8.22112E-06 3.49878E-19-4.26163E-18
 -1      1761 6.22855E-05-8.19803E-06-2.26548E-05-1.40578E-05-1.32772E-18-2.74947E-18
 -1      1762 4.39849E-05-9.70600E-07-1.84631E-05-1.53202E-05-1.15324E-18-3.32005E-18
 -1      1763 9.39742E-05-2.06822E-05-3.12429E-05-2.48498E-06-7.69000E-19-9.77608E-19
 -1      1764 8.01970E-05-1.65926E-05-2.72904E-05-8.20189E-06-1.35483E-18-1.59306E-18
 -1      1765 7.46953E-05-1.69840E-05-2.46705E-05-1.31561E-05-1.23296E-18-2.04913E-18
 -1      1766 1.10689E-04-2.37480E-05-3.74146E-05 1.15977E-05 4.34448E-19 5.32254E-19
 -1      1767 1.03927E-04-2.30921E-05-3.46083E-05 5.70179E-06-2.69409E-19-1.76448E-19
 -1      1768 1.03485E-04-2.71287E-05-3.27974E-05 2.44515E-06-5.31566E-19-5.70688E-20
 -1      1769 1.18407E-04-2.28714E-05-4.12804E-05 2.21811E-05 1.61529E-18 2.39022E-18
 -1      1770 1.15147E-04-2.32596E-05-3.94232E-05 1.75471E-05 9.97143E-19 1.32269E-18
 -1      1771 1.17246E-04-2.84686E-05-3.80418E-05 1.64545E-05 7.64871E-19 1.44914E-18
 -1      1772 1.26176E-04-2.51564E-05-4.37294E-05 2.80702E-05 2.03608E-18 5.44325E-18
 -1      1773 1.21824E-04-2.33295E-05-4.23895E-05 2.51766E-05 1.84193E-18 3.61540E-18
 -1      1774 1.23685E-04-2.81132E-05-4.09532E-05 2.43763E-05 1.80874E-18 3.39448E-18
 -1      1775 1.35633E-04-3.44778E-05-4.39706E-05 2.39942E-05 1.76643E-18 9.07003E-18
 -1      1776 1.29549E-04-2.75610E-05-4.36562E-05 2.74148E-05 1.95500E-18 6.75583E-18
 -1      1777 1.28565E-04-3.13903E-05-4.17343E-05 2.51766E-05 2.22972E-18 5.78899E-18
 -1      1778 1.30586E-04-3.58196E-05-4.09107E-05 1.90918E-05 1.97997E-18 8.58111E-18
 -1      1779 1.26223E-04-2.90204E-05-4.14805E-05-2.58757E-05-2.35825E-18 2.32574E-18
 -1      1780 1.22315E-04-3.55873E-05-3.71865E-05 1.49919E-05 1.61550E-18 7.90255E-18
 -1      1781 1.27867E-04-3.69256E-05-3.90797E-05 1.67714E-05 1.64602E-18 8.27578E-18
 -1      1782 1.27902E-04-3.51211E-05-3.97438E-05 2.10667E-05 1.92803E-18 6.73471E-18
 -1      1783 1.16487E-04-3.27105E-05-3.58385E-05-1.48547E-05-1.96093E-18 9.44799E-19
 -1      1784 1.12256E-04-3.15285E-05-3.45295E-05-1.24967E-05-1.76355E-18 4.70262E-19
 -1      1785 1.09612E-04-3.06232E-05-3.37583E-05-1.01577E-05-1.68456E-18 3.38237E-19
 -1      1786 1.06927E-04-2.95819E-05-3.30434E-05-8.06196E-06-1.59192E-18-1.50845E-19
 -1      1787 1.13306E-04-3.04608E-05-3.55265E-05-1.47367E-05-2.06339E-18 1.12130E-19
 -1      1788 1.04992E-04-2.87749E-05-3.25795E-05-5.18034E-06-1.45307E-18-3.94441E-19
 -1      1789 1.03701E-04-2.83547E-05-3.22199E-05-2.86747E-06-1.20874E-18-8.16977E-19
 -1      1790 1.08638E-04-2.85927E-05-3.43733E-05-8.79365E-06-1.88681E-18-4.25697E-19
 -1      1791 1.02994E-04-2.83353E-05-3.19106E-05 2.04465E-08-1.12789E-18-1.08776E-18
 -1      1792 1.03062E-04-2.87709E-05-3.18160E-05 1.98670E-06-1.01505E-18-1.37728E-18
 -1      1793 1.06049E-04-2.78247E-05-3.36060E-05-2.22773E-06-1.58855E-18-9.96789E-19
 -1      1794 1.03383E-04-2.94758E-05-3.15985E-05 3.94855E-06-9.43866E-19-1.58964E-18
 -1      1795 1.04365E-04-3.04393E-05-3.16907E-05 4.95680E-06-7.63547E-19-1.87517E-18
 -1      1796 1.05841E-04-2.89704E-05-3.29923E-05 3.27119E-06-1.19055E-18-1.52364E-18
 -1      1797 1.05014E-04-3.13066E-05-3.15482E-05 5.49958E-06-7.74681E-19-1.97686E-18
 -1      1798 1.06265E-04-3.22590E-05-3.17332E-05 5.44110E-06-3.33749E-19-2.11136E-18
 -1      1799 1.07050E-04-3.12561E-05-3.24818E-05 6.02723E-06-8.77132E-19-1.66052E-18
 -1      1800 1.06639E-04-3.28036E-05-3.16483E-05 4.80548E-06-3.04012E-19-2.13169E-18
 -1      1801 1.07627E-04-3.33892E-05-3.18287E-05 4.03091E-06-2.23656E-19-1.95351E-18
 -1      1802 1.08260E-04-3.33104E-05-3.20955E-05 5.83142E-06-4.50024E-19-1.99433E-18
 -1      1803 1.07510E-04-3.34703E-05-3.17679E-05 2.83964E-06-2.58226E-19-1.95229E-18
 -1      1804 1.07982E-04-3.36278E-05-3.18720E-05 1.83570E-06-6.11948E-20-1.87988E-18
 -1      1805 1.08597E-04-3.42889E-05-3.18230E-05 3.73806E-06-2.37133E-19-1.89563E-18
 -1      1806 1.07467E-04-3.33731E-05-3.18013E-05 6.45656E-07-2.22737E-19-2.00009E-18
 -1      1807 1.07417E-04-3.32201E-05-3.18001E-05-2.35086E-07-9.63831E-20-2.26915E-18
 -1      1808 1.07960E-04-3.41681E-05-3.16131E-05 1.09427E-06-2.78138E-19-1.96599E-18
 -1      1809 1.06685E-04-3.28165E-05-3.16989E-05-1.12814E-06-2.23739E-19-2.23728E-18
 -1      1810 1.06238E-04-3.25031E-05-3.16001E-05-1.73185E-06-3.63198E-20-2.45892E-18
 -1      1811 1.06666E-04-3.33794E-05-3.14068E-05-1.17895E-06-2.16108E-19-2.13574E-18
 -1      1812 1.05441E-04-3.20855E-05-3.14654E-05-2.25831E-06-5.82219E-20-2.53152E-18
 -1      1813 1.04755E-04-3.17242E-05-3.12973E-05-2.57715E-06-2.68311E-19-2.74571E-18
 -1      1814 1.05081E-04-3.23667E-05-3.11672E-05-2.70724E-06-1.55900E-19-2.02507E-18
 -1      1815 1.03982E-04-3.13583E-05-3.11382E-05-2.79066E-06-2.79002E-19-2.59703E-18
 -1      1816 1.03197E-04-3.10127E-05-3.09337E-05-2.88627E-06-2.82998E-19-2.54319E-18
 -1      1817 1.03462E-04-3.14076E-05-3.08870E-05-3.48989E-06-2.16854E-19-1.96728E-18
 -1      1818 1.02493E-04-3.07172E-05-3.07639E-05-2.88009E-06-8.29510E-20-2.27049E-18
 -1      1819 1.01708E-04-3.04157E-05-3.05508E-05-2.82932E-06-1.31437E-19-1.60707E-18
 -1      1820 1.01950E-04-3.06165E-05-3.05791E-05-3.69351E-06-3.22950E-20-1.23476E-18
 -1      1821 1.01092E-04-3.01866E-05-3.03835E-05-2.69191E-06-4.54100E-19-1.66482E-18
 -1      1822 1.00368E-04-2.99372E-05-3.01812E-05-2.56056E-06-1.98430E-19-1.73126E-18
 -1      1823 1.00609E-04-3.00105E-05-3.02639E-05-3.51732E-06-3.27164E-19-1.19012E-18
 -1      1824 9.98433E-05-2.97634E-05-3.00258E-05-2.35945E-06-1.51516E-19-1.62317E-18
 -1      1825 9.92125E-05-2.95640E-05-2.98456E-05-2.19461E-06-2.24806E-19-1.86739E-18
 -1      1826 9.94567E-05-2.95650E-05-2.99608E-05-3.13092E-06-2.45302E-19-1.03098E-18
 -1      1827 9.87757E-05-2.94335E-05-2.97081E-05-1.97493E-06-5.39034E-19-2.05265E-18
 -1      1828 9.82482E-05-2.92782E-05-2.95548E-05-1.80631E-06-6.33383E-19-2.43023E-18
 -1      1829 9.84920E-05-2.92448E-05-2.96840E-05-2.65659E-06-6.10088E-19-1.05625E-18
 -1      1830 9.78922E-05-2.91810E-05-2.94376E-05-1.59503E-06-6.18652E-19-2.19625E-18
 -1      1831 9.74654E-05-2.90627E-05-2.93119E-05-1.43920E-06-6.59246E-19-2.22205E-18
 -1      1832 9.77010E-05-2.90177E-05-2.94416E-05-2.17272E-06-6.97240E-19-1.14144E-18
 -1      1833 9.71808E-05-2.89908E-05-2.92151E-05-1.25037E-06-6.95096E-19-1.75789E-18
 -1      1834 9.68451E-05-2.89025E-05-2.91150E-05-1.11505E-06 2.47731E-19-1.60059E-18
 -1      1835 9.70649E-05-2.88582E-05-2.92366E-05-1.72399E-06-3.99445E-19-1.63190E-19
 -1      1836 9.66219E-05-2.88500E-05-2.90372E-05-9.54374E-07 6.43517E-19-1.78103E-18
 -1      1837 9.63645E-05-2.87855E-05-2.89596E-05-8.41855E-07 7.93885E-19-1.70474E-18
 -1      1838 9.65629E-05-2.87474E-05-2.90683E-05-1.33199E-06 3.54616E-19-2.29939E-20
 -1      1839 9.61929E-05-2.87475E-05-2.88986E-05-7.10009E-07 8.09056E-19-2.21971E-18
 -1      1840 9.60003E-05-2.87016E-05-2.88399E-05-6.19501E-07 4.20362E-19-2.17621E-18
 -1      1841 9.61742E-05-2.86714E-05-2.89335E-05-1.00368E-06 5.94191E-19-8.42150E-19
 -1      1842 9.58709E-05-2.86747E-05-2.87931E-05-5.14432E-07-2.83305E-20-1.80059E-18
 -1      1843 9.57304E-05-2.86428E-05-2.87498E-05-4.43615E-07 3.56110E-19-1.70049E-18
 -1      1844 9.58789E-05-2.86204E-05-2.88282E-05-7.37499E-07 3.98156E-19-9.77337E-19
 -1      1845 9.56349E-05-2.86242E-05-2.87148E-05-3.61983E-07 1.17490E-18-1.89073E-18
 -1      1846 9.55352E-05-2.86029E-05-2.86837E-05-3.07931E-07 1.49732E-18-1.47828E-18
 -1      1847 9.56590E-05-2.85871E-05-2.87476E-05-5.27476E-07 8.40239E-19-7.62245E-19
 -1      1848 9.54664E-05-2.85904E-05-2.86580E-05-2.45986E-07 1.09958E-18-1.53202E-18
 -1      1849 9.53980E-05-2.85768E-05-2.86364E-05-2.05708E-07 4.51435E-19-1.42084E-18
 -1      1850 9.54990E-05-2.85664E-05-2.86874E-05-3.65733E-07 1.21022E-18-1.68539E-18
 -1      1851 9.53497E-05-2.85688E-05-2.86181E-05-1.59791E-07-4.95015E-19-1.33258E-18
 -1      1852 9.53046E-05-2.85608E-05-2.86035E-05-1.30512E-07-1.05207E-18-1.25779E-18
 -1      1853 9.53855E-05-2.85544E-05-2.86434E-05-2.44028E-07 1.05011E-19-2.25811E-18
 -1      1854 9.52719E-05-2.85559E-05-2.85909E-05-9.73083E-08-8.95308E-19-7.18395E-19
 -1      1855 9.52438E-05-2.85518E-05-2.85816E-05-7.66016E-08-6.67858E-19-5.63488E-19
 -1      1856 9.53073E-05-2.85483E-05-2.86121E-05-1.54588E-07-5.43976E-19-1.14507E-18
 -1      1857 9.52226E-05-2.85492E-05-2.85731E-05-5.32514E-08-8.90868E-19-2.86830E-19
 -1      1858 9.52066E-05-2.85476E-05-2.85676E-05-3.90746E-08-2.53158E-19-4.51315E-19
 -1      1859 9.52556E-05-2.85462E-05-2.85906E-05-9.05190E-08-6.36496E-19 3.44229E-19
 -1      1860 9.51937E-05-2.85465E-05-2.85623E-05-2.31961E-08 2.72739E-19-5.51646E-19
 -1      1861 9.51861E-05-2.85466E-05-2.85594E-05-1.38839E-08 9.78849E-19-3.64124E-19
 -1      1862 9.52231E-05-2.85465E-05-2.85763E-05-4.59596E-08-2.99065E-19 6.54442E-19
 -1      1863 9.51791E-05-2.85465E-05-2.85563E-05-3.54676E-09 4.98863E-19-4.33881E-19
 -1      1864 9.51770E-05-2.85475E-05-2.85552E-05 2.22556E-09 3.29320E-19-6.31272E-19
 -1      1865 9.52044E-05-2.85483E-05-2.85674E-05-1.60779E-08 4.75447E-19 6.95353E-19
 -1      1866 9.51739E-05-2.85480E-05-2.85536E-05 8.54897E-09 3.44989E-19-8.71260E-19
 -1      1867 9.51753E-05-2.85496E-05-2.85537E-05 1.18118E-08 2.93893E-19-8.95131E-19
 -1      1868 9.51952E-05-2.85509E-05-2.85622E-05 3.00637E-09 1.88783E-19 5.34156E-20
 -1      1869 9.51749E-05-2.85504E-05-2.85532E-05 1.53047E-08 6.15694E-20-6.91164E-19
 -1      1870 9.51783E-05-2.85523E-05-2.85539E-05 1.68430E-08 2.88891E-19-3.71714E-19
 -1      1871 9.51923E-05-2.85537E-05-2.85596E-05 1.43399E-08 3.96508E-19 1.55149E-19
 -1      1872 9.51794E-05-2.85532E-05-2.85540E-05 1.84029E-08 5.50705E-19-3.40167E-20
 -1      1873 9.51839E-05-2.85551E-05-2.85551E-05 1.88017E-08 8.71146E-19-4.27917E-21
 -1      1874 9.51935E-05-2.85565E-05-2.85588E-05 2.02650E-08 6.76338E-19 6.77741E-19
 -1      1875 9.51859E-05-2.85561E-05-2.85556E-05 1.90951E-08 2.67530E-19-3.42228E-19
 -1      1876 9.51906E-05-2.85578E-05-2.85569E-05 1.87812E-08 6.28308E-20-3.95244E-19
 -1      1877 9.51969E-05-2.85592E-05-2.85591E-05 2.25452E-08 3.44517E-19 5.99277E-19
 -1      1878 9.51931E-05-2.85587E-05-2.85576E-05 1.82920E-08-4.71960E-19-5.48023E-19
 -1      1879 9.51977E-05-2.85603E-05-2.85589E-05 1.75687E-08-1.89475E-19-8.34565E-19
 -1      1880 9.52016E-05-2.85615E-05-2.85601E-05 2.24803E-08-4.72394E-19-5.05372E-20
 -1      1881 9.52002E-05-2.85611E-05-2.85597E-05 1.66393E-08-1.84859E-19-1.06617E-18
 -1      1882 9.52045E-05-2.85625E-05-2.85608E-05 1.57159E-08-2.72896E-19-9.15489E-19
 -1      1883 9.52067E-05-2.85636E-05-2.85614E-05 2.10055E-08-1.98309E-19 2.20197E-19
 -1      1884 9.52069E-05-2.85632E-05-2.85616E-05 1.45812E-08-5.43007E-19-1.04940E-18
 -1      1885 9.52107E-05-2.85644E-05-2.85627E-05 1.35968E-08-1.10318E-18-1.55932E-18
 -1      1886 9.52118E-05-2.85653E-05-2.85628E-05 1.87761E-08-5.49138E-19-1.92386E-19
 -1      1887 9.52129E-05-2.85650E-05-2.85634E-05 1.24116E-08-5.03257E-19-1.63566E-18
 -1      1888 9.52161E-05-2.85660E-05-2.85644E-05 1.14541E-08-3.03428E-19-5.58780E-19
 -1      1889 9.52164E-05-2.85667E-05-2.85642E-05 1.62357E-08-5.49154E-19 1.65115E-19
 -1      1890 9.52181E-05-2.85665E-05-2.85650E-05 1.03149E-08-3.40111E-19-1.46119E-18
 -1      1891 9.52208E-05-2.85672E-05-2.85658E-05 9.43536E-09-1.95827E-19-1.24832E-18
 -1      1892 9.52206E-05-2.85678E-05-2.85654E-05 1.36717E-08-6.48126E-19-9.23077E-19
 -1      1893 9.52225E-05-2.85677E-05-2.85664E-05 8.39730E-09-1.04620E-19-4.85714E-19
 -1      1894 9.52247E-05-2.85683E-05-2.85670E-05 7.62127E-09-5.00810E-20-1.84413E-19
 -1      1895 9.52242E-05-2.85687E-05-2.85666E-05 1.12589E-08-3.13746E-20-4.70468E-19
 -1      1896 9.52261E-05-2.85686E-05-2.85675E-05 6.71058E-09 2.02411E-19 7.75633E-19
 -1      1897 9.52278E-05-2.85691E-05-2.85680E-05 6.04640E-09 6.25399E-19 1.47790E-18
 -1      1898 9.52272E-05-2.85694E-05-2.85676E-05 9.09193E-09 5.99529E-19 2.46098E-18
 -1      1899 9.52290E-05-2.85694E-05-2.85684E-05 5.27002E-09 5.81497E-19 2.33160E-18
 -1      1900 9.52304E-05-2.85697E-05-2.85689E-05 4.71473E-09 1.84921E-18 2.28068E-18
 -1      1901 9.52297E-05-2.85700E-05-2.85684E-05 7.21107E-09 1.64616E-18 3.25850E-18
 -1      1902 9.52313E-05-2.85699E-05-2.85692E-05 4.06704E-09 1.91267E-18 1.76997E-18
 -1      1903 9.52324E-05-2.85702E-05-2.85695E-05 3.61060E-09 1.46313E-18 2.12369E-18
 -1      1904 9.52316E-05-2.85704E-05-2.85691E-05 5.62002E-09 1.83872E-18 4.10277E-18
 -1      1905 9.52331E-05-2.85704E-05-2.85698E-05 3.07818E-09 6.84967E-19 2.77812E-18
 -1      1906 9.52339E-05-2.85706E-05-2.85700E-05 2.70622E-09 1.02736E-18 3.83003E-18
 -1      1907 9.52332E-05-2.85707E-05-2.85696E-05 4.29923E-09 1.34064E-18 2.95306E-18
 -1      1908 9.52344E-05-2.85707E-05-2.85702E-05 2.27105E-09 5.50172E-19 3.18810E-18
 -1      1909 9.52350E-05-2.85708E-05-2.85704E-05 1.96673E-09 6.67413E-19 2.16945E-18
 -1      1910 9.52345E-05-2.85709E-05-2.85701E-05 3.21502E-09 5.25988E-19 3.31657E-18
 -1      1911 9.52355E-05-2.85709E-05-2.85705E-05 1.60895E-09 2.68847E-19 1.24776E-18
 -1      1912 9.52359E-05-2.85711E-05-2.85707E-05 1.35501E-09 1.19337E-19 9.95022E-19
 -1      1913 9.52354E-05-2.85711E-05-2.85704E-05 2.32615E-09-1.71484E-19 2.10642E-18
 -1      1914 9.52362E-05-2.85711E-05-2.85708E-05 1.05466E-09 4.45452E-19 1.67014E-18
 -1      1915 9.52365E-05-2.85712E-05-2.85709E-05 8.36879E-10 6.92255E-19 1.88523E-18
 -1      1916 9.52361E-05-2.85713E-05-2.85706E-05 1.59066E-09 6.51125E-19 1.79552E-18
 -1      1917 9.52367E-05-2.85712E-05-2.85709E-05 5.95318E-10 1.35307E-18 1.65404E-18
 -1      1918 9.52369E-05-2.85713E-05-2.85710E-05 4.16124E-10 7.50597E-19 1.74257E-18
 -1      1919 9.52369E-05-2.85714E-05-2.85710E-05 5.05503E-10 3.48272E-19 1.25260E-18
 -1      1920 9.52366E-05-2.85713E-05-2.85708E-05 9.87180E-10 8.20172E-19 2.42330E-18
 -1      1921 1.14306E-04-3.25474E-05-3.49872E-05 1.17618E-05 1.07271E-18 7.03385E-18
 -1      1922 1.18783E-04-3.43313E-05-3.61483E-05 1.32577E-05 1.37157E-18 7.47765E-18
 -1      1923 1.21081E-04-3.44370E-05-3.71528E-05 1.70915E-05 1.51381E-18 6.15806E-18
 -1      1924 1.08449E-04-2.98665E-05-3.36717E-05 6.36934E-06 1.25509E-18 6.03055E-18
 -1      1925 1.11424E-04-3.10834E-05-3.43568E-05 8.84845E-06 1.02205E-18 6.53037E-18
 -1      1926 1.14311E-04-3.11716E-05-3.56781E-05 1.20382E-05 1.36301E-18 5.28646E-18
 -1      1927 1.06197E-04-2.92933E-05-3.30013E-05-2.61919E-07 1.32076E-18 4.76649E-18
 -1      1928 1.07151E-04-2.93005E-05-3.32834E-05 2.71030E-06 1.27713E-18 5.36717E-18
 -1      1929 1.09919E-04-2.89144E-05-3.47609E-05 4.75963E-06 1.60653E-18 4.20443E-18
 -1      1930 1.07363E-04-3.09000E-05-3.28211E-05-5.09417E-06 1.00834E-18 3.77303E-18
 -1      1931 1.06577E-04-2.99625E-05-3.27766E-05-2.98331E-06 1.26864E-18 4.11965E-18
 -1      1932 1.09043E-04-2.95783E-05-3.41095E-05-2.51250E-06 1.53343E-18 2.90612E-18
 -1      1933 1.10061E-04-3.32166E-05-3.29378E-05-6.48838E-06 7.33485E-19 2.84285E-18
 -1      1934 1.08419E-04-3.20272E-05-3.27092E-05-5.90586E-06 6.22040E-19 3.34061E-18
 -1      1935 1.10491E-04-3.20246E-05-3.36412E-05-6.61215E-06 1.03335E-18 1.91645E-18
 -1      1936 1.12241E-04-3.47884E-05-3.31609E-05-4.86170E-06 2.99651E-19 2.61396E-18
 -1      1937 1.10755E-04-3.39952E-05-3.29029E-05-5.54939E-06 5.34319E-19 3.03345E-18
 -1      1938 1.12288E-04-3.44744E-05-3.33293E-05-6.62004E-06 5.93952E-19 1.62532E-18
 -1      1939 1.12900E-04-3.51333E-05-3.32887E-05-1.97522E-06 1.62882E-19 2.40550E-18
 -1      1940 1.12149E-04-3.49051E-05-3.31366E-05-3.17405E-06 2.52998E-19 2.51456E-18
 -1      1941 1.12953E-04-3.56319E-05-3.31333E-05-3.94680E-06 4.26243E-19 1.19314E-18
 -1      1942 1.12120E-04-3.45972E-05-3.31952E-05 6.85072E-07 3.57858E-19 2.35250E-18
 -1      1943 1.12182E-04-3.47852E-05-3.32089E-05-4.18955E-07 2.95469E-19 2.53379E-18
 -1      1944 1.12232E-04-3.53939E-05-3.29424E-05-6.27432E-07 3.16076E-19 1.27810E-18
 -1      1945 1.10398E-04-3.36659E-05-3.28711E-05 2.47042E-06 4.74223E-19 1.98124E-18
 -1      1946 1.11079E-04-3.40658E-05-3.30369E-05 1.72492E-06 4.73630E-19 2.36706E-18
 -1      1947 1.10568E-04-3.43858E-05-3.26663E-05 2.04178E-06 5.25600E-19 1.42145E-18
 -1      1948 1.08231E-04-3.26697E-05-3.23805E-05 3.34520E-06 5.94473E-19 1.70976E-18
 -1      1949 1.09266E-04-3.31332E-05-3.26473E-05 2.97381E-06 4.28109E-19 1.81894E-18
 -1      1950 1.08463E-04-3.31741E-05-3.22816E-05 3.64904E-06 5.47951E-19 1.09005E-18
 -1      1951 1.05981E-04-3.17678E-05-3.18080E-05 3.53719E-06 7.93994E-19 1.58149E-18
 -1      1952 1.07142E-04-3.22124E-05-3.21201E-05 3.44799E-06 6.44924E-19 1.72777E-18
 -1      1953 1.06274E-04-3.20650E-05-3.18148E-05 4.30241E-06 7.02591E-19 9.82280E-19
 -1      1954 1.03866E-04-3.10125E-05-3.12271E-05 3.31410E-06 1.23506E-19 2.08624E-18
 -1      1955 1.05001E-04-3.14020E-05-3.15408E-05 3.39789E-06 3.50556E-19 1.91774E-18
 -1      1956 1.04210E-04-3.11633E-05-3.13126E-05 4.29136E-06 3.03042E-19 1.49174E-18
 -1      1957 1.01997E-04-3.04042E-05-3.06868E-05 2.88805E-06 8.40300E-20 2.14068E-18
 -1      1958 1.03019E-04-3.07282E-05-3.09749E-05 3.05785E-06 1.64841E-20 2.16985E-18
 -1      1959 1.02371E-04-3.04695E-05-3.08195E-05 3.90047E-06 2.01238E-19 1.41458E-18
 -1      1960 1.00416E-04-2.99250E-05-3.02133E-05 2.39758E-06-1.00279E-19 1.88298E-18
 -1      1961 1.01287E-04-3.01858E-05-3.04625E-05 2.59611E-06 8.41888E-20 2.15032E-18
 -1      1962 1.00796E-04-2.99477E-05-3.03666E-05 3.34034E-06 1.20724E-19 1.26171E-18
 -1      1963 9.91193E-05-2.95534E-05-2.98159E-05 1.92126E-06 2.67255E-19 2.34006E-18
 -1      1964 9.98343E-05-2.97581E-05-3.00225E-05 2.11571E-06-1.99711E-19 2.16768E-18
 -1      1965 9.94846E-05-2.95585E-05-2.99709E-05 2.74365E-06-1.95116E-19 1.79986E-18
 -1      1966 9.80842E-05-2.92691E-05-2.94933E-05 1.49722E-06-8.54686E-19 2.77428E-18
 -1      1967 9.86532E-05-2.94266E-05-2.96590E-05 1.67139E-06-1.69474E-19 2.77813E-18
 -1      1968 9.84197E-05-2.92692E-05-2.96382E-05 2.18339E-06-4.95509E-19 2.41203E-18
 -1      1969 9.72761E-05-2.90547E-05-2.92382E-05 1.13925E-06 2.82533E-19 2.06951E-18
 -1      1970 9.77178E-05-2.91734E-05-2.93677E-05 1.28705E-06-3.10293E-19 2.71255E-18
 -1      1971 9.75730E-05-2.90550E-05-2.93670E-05 1.69323E-06-2.18068E-19 1.98539E-18
 -1      1972 9.66580E-05-2.88954E-05-2.90412E-05 8.47843E-07 9.46302E-19 1.80943E-18
 -1      1973 9.69932E-05-2.89832E-05-2.91401E-05 9.68737E-07 6.99668E-19 1.92866E-18
 -1      1974 9.69129E-05-2.88975E-05-2.91514E-05 1.28354E-06 7.54244E-19 1.50304E-18
 -1      1975 9.61947E-05-2.87791E-05-2.88922E-05 6.17027E-07 4.78818E-19 1.50452E-18
 -1      1976 9.64437E-05-2.88428E-05-2.89661E-05 7.13227E-07 4.49467E-19 1.43793E-18
 -1      1977 9.64079E-05-2.87830E-05-2.89839E-05 9.52053E-07 6.40625E-19 1.64973E-18
 -1      1978 9.58544E-05-2.86959E-05-2.87818E-05 4.38277E-07 4.13028E-19 5.11642E-19
 -1      1979 9.60354E-05-2.87410E-05-2.88359E-05 5.13123E-07 4.17130E-19 9.70435E-19
 -1      1980 9.60289E-05-2.87011E-05-2.88564E-05 6.90574E-07 6.47101E-19 4.50320E-19
 -1      1981 9.56101E-05-2.86380E-05-2.87019E-05 3.02622E-07 1.42039E-18 4.72707E-20
 -1      1982 9.57384E-05-2.86690E-05-2.87405E-05 3.59697E-07 5.14618E-19 3.02990E-19
 -1      1983 9.57500E-05-2.86436E-05-2.87612E-05 4.88712E-07 9.32886E-19-2.54712E-19
 -1      1984 9.54393E-05-2.85988E-05-2.86455E-05 2.01677E-07 2.12162E-18 5.22547E-19
 -1      1985 9.55277E-05-2.86194E-05-2.86723E-05 2.44366E-07 1.86315E-18 7.41139E-19
 -1      1986 9.55493E-05-2.86045E-05-2.86918E-05 3.35931E-07 1.43383E-18-2.73524E-19
 -1      1987 9.53235E-05-2.85735E-05-2.86067E-05 1.28086E-07 8.83482E-19 4.68753E-19
 -1      1988 9.53822E-05-2.85865E-05-2.86247E-05 1.59384E-07 1.54675E-18 1.39988E-18
 -1      1989 9.54085E-05-2.85788E-05-2.86422E-05 2.22544E-07 1.30812E-18 1.22021E-18
 -1      1990 9.52483E-05-2.85581E-05-2.85812E-05 7.56453E-08-1.57658E-18 1.85141E-19
 -1      1991 9.52854E-05-2.85657E-05-2.85927E-05 9.80935E-08-5.09144E-19 3.46122E-19
 -1      1992 9.53127E-05-2.85628E-05-2.86079E-05 1.40123E-07-2.00725E-19 9.62807E-19
 -1      1993 9.52023E-05-2.85496E-05-2.85651E-05 3.92684E-08-8.07266E-21-1.29074E-18
 -1      1994 9.52241E-05-2.85535E-05-2.85721E-05 5.49628E-08-6.74928E-19-8.25224E-19
 -1      1995 9.52503E-05-2.85537E-05-2.85848E-05 8.15911E-08-5.96020E-20-7.79507E-19
 -1      1996 9.51768E-05-2.85459E-05-2.85559E-05 1.48710E-08-8.74430E-19-1.99566E-19
 -1      1997 9.51880E-05-2.85473E-05-2.85596E-05 2.55027E-08-4.99994E-19-6.52212E-19
 -1      1998 9.52118E-05-2.85493E-05-2.85701E-05 4.11610E-08-6.47702E-19-1.20064E-18
 -1      1999 9.51654E-05-2.85453E-05-2.85513E-05-7.64545E-10-2.08774E-19-3.75854E-19
 -1      2000 9.51694E-05-2.85451E-05-2.85528E-05 6.14356E-09-5.24416E-19-3.33500E-19
 -1      2001 9.51902E-05-2.85480E-05-2.85613E-05 1.41983E-08-6.53607E-19-7.26270E-19
 -1      2002 9.51631E-05-2.85465E-05-2.85498E-05-1.01303E-08 1.82941E-18-9.77756E-19
 -1      2003 9.51626E-05-2.85454E-05-2.85499E-05-5.90373E-09 1.08584E-18-8.07934E-19
 -1      2004 9.51803E-05-2.85488E-05-2.85566E-05-2.94147E-09 9.75990E-19-9.39763E-19
 -1      2005 9.51664E-05-2.85489E-05-2.85502E-05-1.51243E-08 2.96730E-19-1.24940E-18
 -1      2006 9.51632E-05-2.85473E-05-2.85495E-05-1.27818E-08 1.30619E-18-1.01761E-18
 -1      2007 9.51779E-05-2.85506E-05-2.85547E-05-1.30756E-08 1.67146E-18-5.70530E-19
 -1      2008 9.51730E-05-2.85517E-05-2.85519E-05-1.71673E-08 5.30068E-20-1.65562E-19
 -1      2009 9.51684E-05-2.85499E-05-2.85507E-05-1.61087E-08-2.04569E-19-8.99490E-19
 -1      2010 9.51803E-05-2.85531E-05-2.85547E-05-1.83453E-08-9.85454E-20-2.74280E-19
 -1      2011 9.51811E-05-2.85547E-05-2.85541E-05-1.73025E-08-9.60081E-19-3.76933E-19
 -1      2012 9.51759E-05-2.85529E-05-2.85527E-05-1.70849E-08-2.51836E-19 1.26082E-19
 -1      2013 9.51854E-05-2.85557E-05-2.85557E-05-2.03491E-08-5.34087E-19-2.32565E-19
 -1      2014 9.51895E-05-2.85575E-05-2.85565E-05-1.62802E-08 1.24200E-18-5.25783E-20
 -1      2015 9.51843E-05-2.85558E-05-2.85551E-05-1.65829E-08 8.21126E-20-1.52376E-19
 -1      2016 9.51918E-05-2.85583E-05-2.85573E-05-2.02581E-08 1.84327E-19 1.57018E-19
 -1      2017 9.51977E-05-2.85601E-05-2.85589E-05-1.46262E-08 3.43893E-19 6.11138E-19
 -1      2018 9.51928E-05-2.85586E-05-2.85575E-05-1.52228E-08 1.23999E-18 6.36116E-19
 -1      2019 9.51985E-05-2.85606E-05-2.85591E-05-1.89113E-08 1.20041E-18 1.45566E-18
 -1      2020 9.52051E-05-2.85624E-05-2.85612E-05-1.26980E-08-1.52544E-18 9.60285E-19
 -1      2021 9.52008E-05-2.85610E-05-2.85599E-05-1.34333E-08-5.49947E-19 9.14187E-19
 -1      2022 9.52051E-05-2.85628E-05-2.85610E-05-1.68946E-08-4.07977E-19 1.20476E-18
 -1      2023 9.52117E-05-2.85643E-05-2.85631E-05-1.07285E-08-1.14999E-18-3.17037E-19
 -1      2024 9.52079E-05-2.85632E-05-2.85621E-05-1.15000E-08-1.44373E-18-2.53992E-19
 -1      2025 9.52111E-05-2.85646E-05-2.85628E-05-1.46040E-08-9.50662E-19 8.24262E-19
 -1      2026 9.52173E-05-2.85659E-05-2.85649E-05-8.86090E-09-1.33562E-18-6.42483E-19
 -1      2027 9.52141E-05-2.85650E-05-2.85639E-05-9.60445E-09-1.29699E-18-7.49206E-19
 -1      2028 9.52164E-05-2.85661E-05-2.85644E-05-1.22957E-08-9.45347E-19-7.22874E-19
 -1      2029 9.52220E-05-2.85672E-05-2.85663E-05-7.17471E-09-1.15645E-18-6.06195E-19
 -1      2030 9.52193E-05-2.85665E-05-2.85655E-05-7.85353E-09-1.46508E-18-1.56382E-18
 -1      2031 9.52210E-05-2.85673E-05-2.85658E-05-1.01251E-08-1.48684E-18-1.76882E-18
 -1      2032 9.52258E-05-2.85683E-05-2.85675E-05-5.70575E-09 1.15454E-18-1.44122E-18
 -1      2033 9.52237E-05-2.85677E-05-2.85669E-05-6.30205E-09 2.86769E-19-1.20645E-18
 -1      2034 9.52248E-05-2.85683E-05-2.85670E-05-8.17678E-09 1.96489E-20-2.57506E-18
 -1      2035 9.52289E-05-2.85691E-05-2.85685E-05-4.46070E-09 3.41514E-20-1.19768E-18
 -1      2036 9.52272E-05-2.85686E-05-2.85680E-05-4.96952E-09 6.45007E-19-1.44313E-18
 -1      2037 9.52279E-05-2.85691E-05-2.85680E-05-6.48649E-09 7.22776E-19-2.33101E-18
 -1      2038 9.52313E-05-2.85697E-05-2.85692E-05-3.42745E-09 6.12357E-19 2.83884E-19
 -1      2039 9.52299E-05-2.85694E-05-2.85688E-05-3.85226E-09-1.20038E-19-5.05696E-19
 -1      2040 9.52304E-05-2.85697E-05-2.85688E-05-5.05773E-09-8.57577E-20-1.24856E-18
 -1      2041 9.52331E-05-2.85702E-05-2.85698E-05-2.58223E-09 6.02314E-19-6.04797E-19
 -1      2042 9.52321E-05-2.85700E-05-2.85695E-05-2.93197E-09 1.33730E-18 7.09465E-19
 -1      2043 9.52323E-05-2.85702E-05-2.85695E-05-3.87320E-09 3.57311E-19-6.70928E-19
 -1      2044 9.52345E-05-2.85706E-05-2.85703E-05-1.89442E-09-1.05253E-18-8.56672E-19
 -1      2045 9.52338E-05-2.85704E-05-2.85700E-05-2.18145E-09-5.56215E-19-8.58455E-19
 -1      2046 9.52339E-05-2.85706E-05-2.85700E-05-2.90285E-09 1.17184E-19 5.44383E-19
 -1      2047 9.52356E-05-2.85709E-05-2.85706E-05-1.32947E-09-3.19135E-19 4.70213E-20
 -1      2048 9.52350E-05-2.85707E-05-2.85704E-05-1.56853E-09-5.76671E-19-3.57720E-19
 -1      2049 9.52350E-05-2.85708E-05-2.85704E-05-2.10949E-09-5.64114E-19 8.23985E-19
 -1      2050 9.52363E-05-2.85711E-05-2.85708E-05-8.54197E-10 4.07610E-20 1.22913E-19
 -1      2051 9.52359E-05-2.85710E-05-2.85707E-05-1.05974E-09-4.78061E-19 4.68499E-19
 -1      2052 9.52359E-05-2.85710E-05-2.85706E-05-1.45334E-09-5.65696E-19-3.97204E-19
 -1      2053 9.52368E-05-2.85712E-05-2.85710E-05-4.48095E-10 1.42014E-18 2.43131E-18
 -1      2054 9.52365E-05-2.85711E-05-2.85709E-05-6.27035E-10 1.04641E-18 2.04719E-18
 -1      2055 9.52365E-05-2.85712E-05-2.85708E-05-9.00072E-10-1.85091E-20 8.81922E-19
 -1      2056 9.52370E-05-2.85712E-05-2.85711E-05-1.83060E-10 9.75624E-19 9.41405E-19
 -1      2057 9.52369E-05-2.85712E-05-2.85710E-05-3.24166E-10 1.24725E-18 2.58691E-18
 -1      2058 9.52368E-05-2.85713E-05-2.85710E-05-5.08990E-10 1.71224E-18 2.50230E-18
 -1      2059 9.52370E-05-2.85713E-05-2.85710E-05-2.51641E-10 1.15269E-18 2.97427E-18
 -1      2060 9.52375E-05-2.85726E-05-2.85707E-05-1.04714E-09 5.06592E-19 3.26928E-20
 -1      2061 9.52374E-05-2.85723E-05-2.85708E-05-9.91715E-10-1.30736E-19 1.59310E-18
 -1      2062 9.52373E-05-2.85720E-05-2.85708E-05-8.81591E-10-5.57936E-19 1.11299E-18
 -1      2063 9.52372E-05-2.85718E-05-2.85709E-05-7.50349E-10-6.21769E-19 3.47785E-19
 -1      2064 9.52373E-05-2.85722E-05-2.85707E-05-1.22829E-09-2.33452E-19 1.95206E-18
 -1      2065 9.52371E-05-2.85716E-05-2.85709E-05-5.87848E-10-2.92606E-19-1.05012E-19
 -1      2066 9.52370E-05-2.85714E-05-2.85710E-05-4.27263E-10 3.65503E-19 1.84120E-18
 -1      2067 9.52370E-05-2.85714E-05-2.85709E-05-5.55356E-10 1.01772E-18 1.46867E-18
 -1      2068 9.52371E-05-2.85718E-05-2.85708E-05-9.16831E-10-5.05662E-19-8.09943E-19
 -1      2069 9.52378E-05-2.85731E-05-2.85706E-05-1.03443E-09-8.55500E-19-6.74790E-18
 -1      2070 9.52377E-05-2.85729E-05-2.85706E-05-1.05882E-09-3.54994E-19-3.77661E-18
 -1      2071 9.52376E-05-2.85728E-05-2.85706E-05-1.35836E-09-4.16798E-19-2.63872E-18
 -1      2072 9.52380E-05-2.85736E-05-2.85705E-05-8.49430E-10-4.33314E-20-3.90269E-18
 -1      2073 9.52379E-05-2.85734E-05-2.85705E-05-9.47391E-10 2.45669E-19-5.95343E-18
 -1      2074 9.52379E-05-2.85734E-05-2.85705E-05-1.26917E-09 1.48888E-19-5.49063E-18
 -1      2075 9.52382E-05-2.85740E-05-2.85704E-05-5.25865E-10-9.87492E-19-8.91909E-19
 -1      2076 9.52381E-05-2.85738E-05-2.85704E-05-6.78899E-10 2.73463E-19-1.64253E-18
 -1      2077 9.52382E-05-2.85738E-05-2.85704E-05-9.75266E-10 1.54772E-18-3.41664E-18
 -1      2078 9.52383E-05-2.85741E-05-2.85703E-05-1.18494E-10-2.48026E-18 1.97654E-18
 -1      2079 9.52382E-05-2.85741E-05-2.85703E-05-3.00673E-10-2.02508E-18 1.00761E-18
 -1      2080 9.52383E-05-2.85741E-05-2.85704E-05-5.26496E-10 1.91248E-19-1.12440E-18
 -1      2081 9.52382E-05-2.85741E-05-2.85703E-05 3.07294E-10-1.21475E-18 1.25841E-18
 -1      2082 9.52383E-05-2.85741E-05-2.85703E-05 1.25393E-10-1.97012E-18 2.30939E-18
 -1      2083 9.52384E-05-2.85742E-05-2.85704E-05 4.43008E-12-1.46394E-18 2.02246E-18
 -1      2084 9.52381E-05-2.85738E-05-2.85704E-05 6.84044E-10-2.10034E-18-4.49103E-18
 -1      2085 9.52382E-05-2.85740E-05-2.85704E-05 5.31857E-10-1.73584E-18-6.89950E-19
 -1      2086 9.52383E-05-2.85741E-05-2.85704E-05 5.34589E-10-1.87080E-18-4.10066E-19
 -1      2087 9.52379E-05-2.85734E-05-2.85705E-05 9.47155E-10-1.24027E-18-8.30732E-19
 -1      2088 9.52380E-05-2.85736E-05-2.85705E-05 8.51207E-10-1.30551E-18-4.12320E-18
 -1      2089 9.52382E-05-2.85738E-05-2.85704E-05 9.78536E-10-1.51084E-18-3.31360E-18
 -1      2090 9.52377E-05-2.85728E-05-2.85706E-05 1.05895E-09-1.58870E-18 3.03572E-18
 -1      2091 9.52378E-05-2.85731E-05-2.85706E-05 1.03469E-09-1.77990E-18 3.19296E-18
 -1      2092 9.52379E-05-2.85734E-05-2.85705E-05 1.26934E-09-3.06175E-19 1.49897E-19
 -1      2093 9.52374E-05-2.85723E-05-2.85708E-05 9.89410E-10-1.13957E-19 2.36148E-18
 -1      2094 9.52375E-05-2.85726E-05-2.85707E-05 1.04615E-09-4.06536E-19 1.90783E-18
 -1      2095 9.52376E-05-2.85728E-05-2.85706E-05 1.35786E-09-1.56065E-19 3.62927E-18
 -1      2096 9.52372E-05-2.85718E-05-2.85709E-05 7.45481E-10-1.21194E-18-1.84526E-19
 -1      2097 9.52373E-05-2.85720E-05-2.85708E-05 8.77229E-10-8.28375E-19 7.16926E-19
 -1      2098 9.52373E-05-2.85722E-05-2.85707E-05 1.22285E-09 3.28662E-20 4.71374E-19
 -1      2099 5.80044E-05-2.72742E-05-1.37060E-05 4.38536E-05 5.92754E-18 5.96496E-18
 -1      2100 4.26746E-05-2.75539E-05-7.83940E-06 3.58878E-05 4.91872E-18 5.95803E-18
 -1      2101 1.20186E-05-1.46467E-05 2.93143E-07 5.41780E-06 2.12044E-18 6.96261E-18
 -1      2102 1.23482E-05-1.68057E-05 8.17760E-07-7.73377E-06 8.10928E-19 7.30058E-18
 -1      2103 2.84080E-05-2.21288E-05-3.76603E-06 3.04790E-05 4.99157E-18 5.99255E-18
 -1      2104 1.89853E-05-1.91683E-05-9.44985E-07 2.12297E-05 3.00760E-18 5.92140E-18
 -1      2105 4.38832E-05-2.46586E-05-8.74986E-06 3.82859E-05 1.58522E-18 5.57941E-18
 -1      2106 9.63304E-05-3.29960E-05-2.72035E-05 4.70751E-05 6.59458E-18 4.51066E-18
 -1      2107 7.69672E-05-3.30010E-05-1.98815E-05 4.26847E-05 6.34597E-18 5.12434E-18
 -1      2108 1.32537E-04-3.74415E-05-4.05653E-05 3.64464E-05 6.35211E-18 1.44334E-18
 -1      2109 1.13754E-04-3.66289E-05-3.33871E-05 3.91887E-05 6.52215E-18 3.35722E-18
 -1      2110 1.09936E-04-2.18303E-05-3.77893E-05-1.25262E-05 8.71504E-19-1.79378E-18
 -1      2111 1.11845E-04-2.08430E-05-3.92443E-05-1.69602E-05 1.17896E-19-2.00588E-18
 -1      2112 1.15884E-04-2.46410E-05-3.91141E-05-2.03622E-05-4.07856E-19-1.40295E-18
 -1      2113 1.12909E-04-2.70415E-05-3.68385E-05-1.17722E-05 9.64986E-19-1.05702E-18
 -1      2114 1.67397E-04-2.34974E-05-6.06749E-05 1.70608E-05 6.43110E-18-4.98055E-19
 -1      2115 1.60964E-04-2.49320E-05-5.76120E-05 2.24992E-05 6.88003E-18 7.20402E-19
 -1      2116 1.71500E-04-2.37362E-05-6.22406E-05 1.03005E-05 6.45778E-18-2.25755E-18
 -1      2117 1.67656E-04-2.09475E-05-6.20924E-05 1.56558E-05 6.55688E-18-6.63544E-19
 -1      2118 1.63608E-04-2.71989E-05-5.79521E-05 2.33555E-06 6.24750E-18-3.43260E-18
 -1      2119 1.72672E-04-2.70870E-05-6.12699E-05 8.37246E-06 6.22908E-18-2.34543E-18
 -1      2120 1.52407E-04-1.51400E-05-5.77566E-05 1.35366E-05 6.87791E-18-7.22307E-19
 -1      2121 1.44729E-04-3.32736E-05-4.79270E-05-9.57578E-06 5.44258E-18-4.78447E-18
 -1      2122 1.60342E-04-3.37353E-05-5.35850E-05-3.72226E-06 5.70974E-18-3.88958E-18
 -1      2123 1.13623E-04-3.16933E-05-3.59058E-05-2.30958E-05 5.28443E-18-6.12828E-18
 -1      2124 1.34323E-04-3.56126E-05-4.22648E-05-1.94958E-05 5.15589E-18-5.43965E-18
 -1      2125 7.48627E-05-2.16539E-05-2.41092E-05-2.96077E-05 5.26727E-18-6.78579E-18
 -1      2126 9.61825E-05-2.67379E-05-3.02158E-05-3.17312E-05 5.52774E-18-6.93635E-18
 -1      2127 3.96623E-05-9.86582E-06-1.40460E-05-2.54227E-05 4.17164E-18-6.32231E-18
 -1      2128 5.70817E-05-1.41835E-05-1.89840E-05-3.13570E-05 4.99368E-18-6.91179E-18
 -1      2129 1.32722E-05-2.36685E-07-6.63534E-06-1.50972E-05 3.40380E-18-5.87206E-18
 -1      2130 2.27971E-05-1.88309E-06-9.74294E-06-2.18987E-05 4.67245E-18-6.50246E-18
 -1      2131 2.03341E-06 6.44258E-06-4.02915E-06-4.49594E-06 1.70833E-18-5.42292E-18
 -1      2132 6.42772E-06 3.12772E-06-4.76351E-06-9.83571E-06 3.38676E-18-5.90213E-18
 -1      2133 1.38183E-05 4.27008E-06-8.07293E-06-1.53926E-05 1.78089E-18-6.16894E-18
 -1      2134 3.91054E-06 5.92755E-06-4.61184E-06 9.82274E-06 3.20390E-19-5.24970E-18
 -1      2135 1.36524E-06 7.84730E-06-4.20982E-06 4.06110E-06 1.94021E-18-5.29671E-18
 -1      2136 1.92212E-05 2.40791E-06-9.52055E-06 2.27162E-05-5.34266E-19-5.01041E-18
 -1      2137 1.01669E-05 3.03763E-06-6.35720E-06 1.48583E-05 5.91970E-19-5.00152E-18
 -1      2138 1.04290E-05 8.85067E-06-8.28269E-06 1.46343E-05 2.10848E-18-5.47183E-18
 -1      2139 4.85187E-05-8.64468E-06-1.75307E-05 3.23552E-05-2.53940E-18-5.02216E-18
 -1      2140 3.28080E-05-4.39398E-06-1.30508E-05 2.66230E-05-9.59900E-19-4.44703E-18
 -1      2141 8.66486E-05-2.20362E-05-2.81126E-05 3.38208E-05-3.21661E-18-4.41431E-18
 -1      2142 6.54227E-05-1.61014E-05-2.21971E-05 3.16700E-05-2.75709E-18-4.63496E-18
 -1      2143 1.26575E-04-3.11618E-05-4.07576E-05 2.49242E-05-4.57737E-18-4.23347E-18
 -1      2144 1.07151E-04-2.81071E-05-3.45483E-05 2.54023E-05-3.79344E-18-3.76718E-18
 -1      2145 1.50950E-04-3.17920E-05-5.07890E-05 9.40881E-06-5.25123E-18-2.64274E-18
 -1      2146 1.35716E-04-3.04452E-05-4.53929E-05 1.69870E-05-5.10634E-18-3.81207E-18
 -1      2147 1.32962E-04-3.39526E-05-4.20759E-05 6.12599E-06-3.26976E-18-1.23942E-18
 -1      2148 1.64938E-04-2.56993E-05-5.87382E-05-4.65535E-06-5.95083E-18-1.18923E-18
 -1      2149 1.54777E-04-2.60587E-05-5.49967E-05 7.11897E-07-5.82674E-18-2.16290E-18
 -1      2150 1.73242E-04-2.37925E-05-6.27120E-05-1.39381E-05-5.69587E-18-1.72609E-19
 -1      2151 1.69789E-04-2.36266E-05-6.17320E-05-6.08047E-06-5.99911E-18-1.32878E-18
 -1      2152 1.59156E-04-2.18912E-05-5.82489E-05-2.03525E-05-5.22132E-18 8.60585E-19
 -1      2153 1.69836E-04-2.34809E-05-6.12694E-05-1.63501E-05-5.35367E-18 7.98329E-20
 -1      2154 1.42376E-04-2.93088E-05-4.81369E-05-3.00554E-05-4.11518E-18 2.50468E-18
 -1      2155 1.55107E-04-2.84213E-05-5.35853E-05-2.44907E-05-4.31002E-18 1.07954E-18
 -1      2156 1.13344E-04-3.14042E-05-3.54656E-05-4.03826E-05-4.49097E-18 3.62530E-18
 -1      2157 1.33040E-04-3.15612E-05-4.28336E-05-4.06414E-05-4.15745E-18 3.62700E-18
 -1      2158 8.09265E-05-3.32983E-05-2.12165E-05-4.24629E-05-2.61225E-18 3.47601E-18
 -1      2159 9.97064E-05-3.22174E-05-2.86904E-05-4.66457E-05-3.87856E-18 3.26531E-18
 -1      2160 4.24007E-05-2.76864E-05-7.75342E-06-3.53902E-05-3.72694E-19 6.34571E-18
 -1      2161 5.87560E-05-2.67643E-05-1.42331E-05-4.41728E-05-2.20991E-18 5.30417E-18
 -1      2162 1.81064E-05-2.08111E-05-1.83784E-07-1.98949E-05 1.28474E-18 6.79490E-18
 -1      2163 2.73874E-05-2.19638E-05-3.43746E-06-2.98353E-05-5.42525E-19 7.44542E-18
 -1      2164 1.58367E-04-2.98007E-05-5.39844E-05 2.67289E-05 7.01428E-18 7.14049E-19
 -1      2165 1.42972E-04-3.10539E-05-4.78617E-05 2.69002E-05 7.24639E-18 9.21995E-19
 -1      2166 1.50376E-04-2.56715E-05-5.26643E-05 1.05934E-05 6.74514E-18-1.07997E-18
 -1      2167 1.12923E-05 1.38258E-05-1.03879E-05-5.32546E-06 9.75464E-19-5.15642E-18
 -1      2168 1.79543E-05 1.20105E-05-1.26741E-05 1.32169E-05 2.79844E-18-3.79873E-18
 -1      2169 2.87933E-05 7.56875E-06-1.50118E-05 1.64442E-05 3.63372E-18-3.48512E-18
 -1      2170 3.75726E-05 1.64200E-07-1.59493E-05 2.17041E-05 3.51593E-18-3.40126E-18
 -1      2171 3.61824E-05 1.33312E-06-1.57391E-05-1.69803E-05-5.81806E-19-4.25465E-18
 -1      2172 1.40562E-04-4.05016E-05-4.26062E-05 2.09726E-05 5.57872E-18-9.80017E-19
 -1      2173 1.18567E-04-3.05172E-05-3.78725E-05-1.93796E-05-2.20578E-18 4.78468E-19
 -1      2174 1.18202E-04-2.93885E-05-3.81109E-05-2.17710E-05-2.19424E-18-1.91707E-19
 -1      2175 1.22289E-04-2.84684E-05-4.00915E-05-2.38577E-05-2.34692E-18 7.72388E-19
 -1      2176 1.20113E-04-2.01268E-05-4.33148E-05-2.88499E-05-2.13209E-18 3.16473E-19
 -1      2177 1.90506E-05-1.41941E-05-2.53869E-06 1.42604E-05 1.39665E-18 6.65958E-18
 -1      2178 2.04574E-05-7.39091E-06-5.40685E-06 7.62089E-06 3.31560E-19 6.85588E-18
 -1      2179 2.73492E-05-1.22581E-05-6.48926E-06 2.32558E-05-4.23516E-21 6.06518E-18
 -1      2180 7.94386E-05-3.69614E-05-1.83402E-05 4.47740E-05 2.81427E-18 3.90170E-18
 -1      2181 9.52371E-05-2.85716E-05-2.85709E-05 6.92418E-10-5.98720E-19 5.39721E-19
 -1      2182 1.99504E-05-1.31877E-05-3.37959E-06-1.64608E-05 1.30771E-18 7.31455E-18
 -1      2183 1.15610E-04-4.44920E-05-3.00495E-05 3.74020E-05 3.87009E-18 1.21528E-18
 -1      2184 4.32235E-05-2.45675E-05-8.49112E-06-3.80454E-05 1.60979E-18 6.43131E-18
 -1      2185 8.17584E-05-3.73381E-05-1.91261E-05-4.44586E-05 4.37069E-19 2.97880E-18
 -1      2186 1.17546E-04-4.24802E-05-3.18894E-05-3.58855E-05-1.16192E-18 9.89123E-19
 -1      2187 1.39401E-04-3.63008E-05-4.34113E-05-2.17973E-05-2.52096E-18-1.19855E-19
 -1      2188 1.48186E-04-2.36220E-05-5.26833E-05-1.02142E-05-4.17608E-18-1.16636E-18
 -1      2189 1.52835E-04-1.39961E-05-5.82514E-05-1.03228E-05-5.78227E-18-1.21846E-18
 -1      2190 1.45267E-04-2.62649E-05-5.04297E-05-6.85609E-06-5.14710E-18-6.53062E-19
 -1      2191 1.05057E-04-3.09072E-05-3.17910E-05 2.22914E-05-1.45774E-18-2.35052E-18
 -1      2192 3.18074E-05-2.18332E-06-1.31290E-05 2.61775E-05 1.25911E-18-4.28112E-18
 -1      2193 3.50352E-06 1.05378E-05-6.09843E-06-1.89304E-07 1.69364E-18-5.90594E-18
 -1      2194 4.02147E-05-7.99835E-06-1.40903E-05-2.54105E-05 1.77496E-18-5.78418E-18
 -1      2195 7.70011E-05-2.40629E-05-2.29271E-05-2.71939E-05 2.13198E-18-4.95885E-18
 -1      2196 1.13768E-04-3.57531E-05-3.32971E-05-1.76452E-05 2.88478E-18-3.54907E-18
 -1      2197 1.52059E-04-2.62234E-05-5.31725E-05 1.14766E-05 5.60715E-18-9.02937E-19
 -1      2198 1.23313E-05 1.30986E-05-1.05820E-05 1.05201E-05 2.51389E-18-4.80882E-18
 -1      2199 1.52288E-04-1.57942E-05-5.75880E-05 1.04099E-05 6.95414E-18-8.66832E-19
 -1      2200 1.40097E-04-3.69091E-05-4.38141E-05-7.68321E-07 3.90019E-18-1.85839E-18
 -1      2201 6.67136E-05-1.75753E-05-2.12616E-05 3.03434E-05 6.77626E-20-3.50542E-18
 -1      2202 1.50624E-04-1.60655E-05-5.68673E-05-1.23166E-05-6.27567E-18-8.90443E-19
 -1      2203 1.20115E-04-2.49357E-05-4.12181E-05-2.65693E-05-2.26100E-18 3.01703E-19
 -1      2204 1.03501E-04-2.97795E-05-3.14649E-05 5.47636E-06 2.42728E-18-5.63462E-19
 -1      2205 1.11972E-04-3.15544E-05-3.46311E-05-2.95815E-06 1.56738E-18-4.85343E-19
 -1      2206 1.40180E-04-1.28064E-05-5.49625E-05 8.67251E-06 6.63671E-18-8.33904E-19
 -1      2207 1.41103E-04-1.64299E-05-5.37207E-05 5.60861E-06 6.54756E-18-1.08092E-18
 -1      2208 9.16281E-05-2.68540E-05-2.75244E-05-1.24412E-05-8.84620E-19-1.69539E-18
 -1      2209 7.11118E-05-1.83024E-05-2.25061E-05-1.90005E-05-1.04662E-18-2.91983E-18
 -1      2210 1.26315E-04-3.20885E-05-4.06853E-05 2.54645E-05 2.04123E-18 4.01007E-18
 -1      2211 1.24630E-04-3.16946E-05-3.98763E-05 2.39335E-05 1.60393E-18 2.80214E-18
 -1      2212 1.28402E-04-3.48900E-05-4.02870E-05 2.31534E-05 1.98574E-18 5.79238E-18
 -1      2213 1.26874E-04-3.25412E-05-4.04785E-05 2.48793E-05 2.02211E-18 4.76419E-18
 -1      2214 1.26338E-04-3.39723E-05-3.95434E-05 2.44800E-05 2.09921E-18 4.31805E-18
 -1      2215 1.25521E-04-3.50620E-05-3.87414E-05 2.12559E-05 1.85439E-18 5.68004E-18
 -1      2216 1.16072E-04-2.98776E-05-3.69996E-05-1.85874E-05-2.06390E-18-1.63325E-19
 -1      2217 1.13475E-04-2.86078E-05-3.63276E-05-1.56825E-05-2.10678E-18-2.52730E-19
 -1      2218 1.19358E-04-3.22777E-05-3.72461E-05 1.75940E-05 1.77136E-18 5.27159E-18
 -1      2219 1.23058E-04-3.43350E-05-3.80732E-05 1.95175E-05 1.79464E-18 5.55072E-18
 -1      2220 1.24105E-04-3.39110E-05-3.86824E-05 2.19830E-05 1.85998E-18 4.86898E-18
 -1      2221 1.13531E-04-2.84811E-05-3.64331E-05 1.09123E-05 1.76216E-18 4.19116E-18
 -1      2222 1.16518E-04-3.03370E-05-3.69258E-05 1.41954E-05 1.62517E-18 4.67617E-18
 -1      2223 1.18391E-04-3.00311E-05-3.79369E-05 1.68202E-05 2.00247E-18 4.20062E-18
 -1      2224 1.11429E-04-2.72888E-05-3.60576E-05-1.24192E-05-2.25950E-18-4.16308E-19
 -1      2225 1.09501E-04-2.62111E-05-3.56519E-05-8.99762E-06-2.16163E-18-6.87506E-19
 -1      2226 1.13948E-04-2.64372E-05-3.75240E-05-1.63547E-05-2.41995E-18-4.23344E-19
 -1      2227 1.08265E-04-2.57465E-05-3.53259E-05-4.79558E-06-1.87505E-18-1.02809E-18
 -1      2228 1.07593E-04-2.60418E-05-3.49714E-05-1.38126E-06-1.65425E-18-1.31872E-18
 -1      2229 1.10527E-04-2.43279E-05-3.70256E-05-8.34946E-06-2.24322E-18-1.09859E-18
 -1      2230 1.07792E-04-2.72212E-05-3.44534E-05 2.16359E-06-1.49043E-18-1.62152E-18
 -1      2231 1.08199E-04-2.88067E-05-3.40953E-05 4.41310E-06-1.13765E-18-1.71366E-18
 -1      2232 1.09585E-04-2.54121E-05-3.61492E-05 7.82277E-08-1.77848E-18-1.71896E-18
 -1      2233 1.08997E-04-3.07539E-05-3.34624E-05 5.92802E-06-1.04254E-18-1.88469E-18
 -1      2234 1.09740E-04-3.25467E-05-3.31459E-05 6.48126E-06-8.00391E-19-2.03671E-18
 -1      2235 1.10811E-04-2.95231E-05-3.48449E-05 5.41840E-06-1.30925E-18-2.07862E-18
 -1      2236 1.10041E-04-3.40037E-05-3.25641E-05 6.02283E-06-6.49481E-19-1.88336E-18
 -1      2237 1.10487E-04-3.51265E-05-3.23279E-05 5.24488E-06-2.42314E-19-1.97899E-18
 -1      2238 1.12068E-04-3.39802E-05-3.34420E-05 6.30233E-06-6.78843E-19-2.09428E-18
 -1      2239 1.09896E-04-3.55380E-05-3.18903E-05 3.73876E-06-8.99377E-20-1.95104E-18
 -1      2240 1.09808E-04-3.57732E-05-3.17278E-05 2.40061E-06-4.03664E-20-1.83901E-18
 -1      2241 1.11819E-04-3.65038E-05-3.22663E-05 4.03709E-06-1.86158E-19-1.83627E-18
 -1      2242 1.08626E-04-3.53673E-05-3.14379E-05 7.94549E-07-1.85202E-19-1.59259E-18
 -1      2243 1.08102E-04-3.49920E-05-3.13152E-05-4.98292E-07-1.26251E-19-1.53443E-18
 -1      2244 1.10005E-04-3.66618E-05-3.14425E-05 7.48806E-07-8.74826E-21-1.23964E-18
 -1      2245 1.06757E-04-3.42183E-05-3.11273E-05-1.71670E-06-2.01375E-19-1.50649E-18
 -1      2246 1.05998E-04-3.35890E-05-3.10117E-05-2.66549E-06-1.61546E-19-1.46804E-18
 -1      2247 1.07425E-04-3.53293E-05-3.09213E-05-2.11714E-06-1.22026E-19-1.10056E-18
 -1      2248 1.04772E-04-3.27916E-05-3.08764E-05-3.38304E-06-1.51905E-19-1.51894E-18
 -1      2249 1.03945E-04-3.21532E-05-3.07500E-05-3.92885E-06-1.22718E-19-1.35439E-18
 -1      2250 1.04816E-04-3.34983E-05-3.05893E-05-4.01911E-06-2.05527E-19-1.11644E-18
 -1      2251 1.02944E-04-3.14967E-05-3.06352E-05-4.22111E-06-1.10534E-19-1.27919E-18
 -1      2252 1.02148E-04-3.09611E-05-3.04955E-05-4.42771E-06-1.29863E-20-1.01960E-18
 -1      2253 1.02570E-04-3.18013E-05-3.03496E-05-4.97096E-06-1.32796E-19-9.54005E-19
 -1      2254 1.01374E-04-3.04843E-05-3.03859E-05-4.42164E-06 1.17093E-19-1.00206E-18
 -1      2255 1.00655E-04-3.00779E-05-3.02387E-05-4.39038E-06 6.64795E-22-8.00431E-19
 -1      2256 1.00787E-04-3.04853E-05-3.01442E-05-5.19808E-06 1.74277E-19-1.13816E-18
 -1      2257 1.00069E-04-2.97594E-05-3.01301E-05-4.20357E-06-3.40617E-19-8.31185E-19
 -1      2258 9.94437E-05-2.94688E-05-2.99841E-05-4.02976E-06-2.91147E-19-8.98227E-19
 -1      2259 9.94245E-05-2.95722E-05-2.99471E-05-4.95137E-06-1.71176E-19-6.43453E-19
 -1      2260 9.90007E-05-2.92693E-05-2.98784E-05-3.75154E-06-2.95626E-19-6.19267E-19
 -1      2261 9.84723E-05-2.90692E-05-2.97410E-05-3.50839E-06-2.50789E-19-5.84937E-19
 -1      2262 9.83949E-05-2.89895E-05-2.97527E-05-4.43813E-06-7.72037E-20-3.18827E-19
 -1      2263 9.81350E-05-2.89515E-05-2.96416E-05-3.19934E-06-5.29823E-19-6.52828E-19
 -1      2264 9.76976E-05-2.88174E-05-2.95183E-05-2.93642E-06-4.36029E-19-5.61080E-19
 -1      2265 9.76158E-05-2.86451E-05-2.95645E-05-3.80747E-06-4.13034E-19-3.70527E-19
 -1      2266 9.74388E-05-2.87525E-05-2.94281E-05-2.63397E-06-5.06684E-19-6.63460E-19
 -1      2267 9.70838E-05-2.86645E-05-2.93214E-05-2.38137E-06-4.24376E-19-3.05747E-19
 -1      2268 9.70221E-05-2.84595E-05-2.93884E-05-3.15694E-06-3.54905E-19-1.72048E-19
 -1      2269 9.68841E-05-2.86322E-05-2.92424E-05-2.10622E-06-3.26758E-19 2.81052E-19
 -1      2270 9.66012E-05-2.85759E-05-2.91530E-05-1.87993E-06 2.76840E-19 6.58767E-19
 -1      2271 9.65669E-05-2.83733E-05-2.92295E-05-2.54457E-06 1.36899E-19 4.50635E-19
 -1      2272 9.64472E-05-2.85628E-05-2.90857E-05-1.64157E-06 3.44386E-20 4.62782E-19
 -1      2273 9.62259E-05-2.85280E-05-2.90128E-05-1.44826E-06-5.34503E-21 1.11059E-19
 -1      2274 9.62171E-05-2.83459E-05-2.90907E-05-2.00061E-06-5.32111E-20 9.29354E-19
 -1      2275 9.61075E-05-2.85258E-05-2.89571E-05-1.24913E-06 2.75975E-19 6.48489E-20
 -1      2276 9.59375E-05-2.85053E-05-2.88991E-05-1.08976E-06 4.41634E-19-2.71468E-19
 -1      2277 9.59486E-05-2.83512E-05-2.89730E-05-1.53700E-06-1.32780E-19 6.16649E-19
 -1      2278 9.58473E-05-2.85089E-05-2.88540E-05-9.28162E-07 4.39932E-19-4.29641E-19
 -1      2279 9.57194E-05-2.84979E-05-2.88089E-05-8.00500E-07 5.21910E-19-4.29980E-19
 -1      2280 9.57439E-05-2.83728E-05-2.88756E-05-1.15432E-06 3.69772E-19 7.74311E-19
 -1      2281 9.56515E-05-2.85041E-05-2.87731E-05-6.72591E-07 7.27305E-19-3.43180E-19
 -1      2282 9.55571E-05-2.84992E-05-2.87388E-05-5.72849E-07 1.14307E-18-9.09983E-20
 -1      2283 9.55894E-05-2.84010E-05-2.87969E-05-8.46756E-07 6.61968E-19 1.71384E-19
 -1      2284 9.55068E-05-2.85063E-05-2.87111E-05-4.73878E-07 8.65396E-19-6.61476E-19
 -1      2285 9.54388E-05-2.85052E-05-2.86856E-05-3.97733E-07 7.26883E-19-8.56777E-19
 -1      2286 9.54743E-05-2.84304E-05-2.87347E-05-6.05307E-07 7.12701E-19 4.48294E-19
 -1      2287 9.54021E-05-2.85122E-05-2.86645E-05-3.22812E-07 3.24115E-19-1.43259E-18
 -1      2288 9.53545E-05-2.85134E-05-2.86460E-05-2.65990E-07-2.49768E-19-1.45926E-18
 -1      2289 9.53901E-05-2.84579E-05-2.86865E-05-4.19890E-07 8.99228E-20 2.77911E-19
 -1      2290 9.53284E-05-2.85197E-05-2.86303E-05-2.10528E-07 1.46551E-19-1.25586E-18
 -1      2291 9.52961E-05-2.85222E-05-2.86172E-05-1.69125E-07 2.94611E-19-4.84212E-19
 -1      2292 9.53295E-05-2.84822E-05-2.86499E-05-2.80564E-07 1.47050E-19-8.83168E-19
 -1      2293 9.52780E-05-2.85277E-05-2.86058E-05-1.29042E-07 1.28346E-19-8.52330E-19
 -1      2294 9.52571E-05-2.85307E-05-2.85969E-05-9.96614E-08-2.17382E-19-2.36967E-19
 -1      2295 9.52872E-05-2.85028E-05-2.86226E-05-1.78212E-07 2.27042E-19-1.56781E-18
 -1      2296 9.52449E-05-2.85354E-05-2.85888E-05-7.14745E-08-1.74305E-19 3.21041E-19
 -1      2297 9.52322E-05-2.85385E-05-2.85829E-05-5.12677E-08 4.06028E-19 5.77952E-19
 -1      2298 9.52584E-05-2.85198E-05-2.86029E-05-1.04866E-07 2.69251E-19-5.53915E-19
 -1      2299 9.52245E-05-2.85423E-05-2.85774E-05-3.20917E-08 4.12884E-19 1.27714E-18
 -1      2300 9.52175E-05-2.85454E-05-2.85737E-05-1.87342E-08 5.36160E-19 1.20814E-18
 -1      2301 9.52397E-05-2.85333E-05-2.85889E-05-5.37994E-08 7.03650E-19 1.54120E-18
 -1      2302 9.52129E-05-2.85484E-05-2.85700E-05-6.23832E-09-3.58350E-22 7.75217E-19
 -1      2303 9.52099E-05-2.85511E-05-2.85680E-05 2.12042E-09-5.85292E-20 8.80892E-19
 -1      2304 9.52283E-05-2.85440E-05-2.85793E-05-1.94918E-08 2.33620E-19 2.05969E-18
 -1      2305 9.52075E-05-2.85535E-05-2.85657E-05 9.77765E-09 1.11228E-19 7.76765E-19
 -1      2306 9.52071E-05-2.85559E-05-2.85647E-05 1.45799E-08 5.78450E-19 1.11858E-18
 -1      2307 9.52219E-05-2.85522E-05-2.85730E-05 2.48235E-09 4.03511E-20 2.01001E-18
 -1      2308 9.52061E-05-2.85577E-05-2.85634E-05 1.88235E-08 4.38236E-19 4.77718E-19
 -1      2309 9.52073E-05-2.85598E-05-2.85632E-05 2.11702E-08 3.46948E-19 6.95298E-19
 -1      2310 9.52191E-05-2.85583E-05-2.85691E-05 1.55952E-08-2.42379E-19 1.84578E-18
 -1      2311 9.52073E-05-2.85611E-05-2.85625E-05 2.30810E-08 3.18910E-19 2.42898E-19
 -1      2312 9.52093E-05-2.85628E-05-2.85627E-05 2.37952E-08 1.48887E-19 4.79846E-20
 -1      2313 9.52185E-05-2.85629E-05-2.85668E-05 2.25159E-08-2.55120E-19-1.91014E-19
 -1      2314 9.52099E-05-2.85638E-05-2.85626E-05 2.41758E-08-2.87594E-19 1.17804E-19
 -1      2315 9.52123E-05-2.85652E-05-2.85630E-05 2.38596E-08-2.98936E-19 1.66740E-19
 -1      2316 9.52193E-05-2.85661E-05-2.85657E-05 2.52554E-08-1.34785E-19-1.78865E-19
 -1      2317 9.52132E-05-2.85659E-05-2.85631E-05 2.32930E-08-8.48036E-19 1.69492E-19
 -1      2318 9.52157E-05-2.85670E-05-2.85637E-05 2.23759E-08-7.05708E-19-1.95213E-19
 -1      2319 9.52210E-05-2.85684E-05-2.85654E-05 2.52967E-08-3.94285E-19-1.90810E-19
 -1      2320 9.52167E-05-2.85675E-05-2.85640E-05 2.12749E-08-5.83665E-19-3.21137E-19
 -1      2321 9.52192E-05-2.85684E-05-2.85646E-05 2.00548E-08-6.58936E-19-2.22980E-19
 -1      2322 9.52230E-05-2.85700E-05-2.85656E-05 2.37086E-08-7.11455E-19-3.28608E-19
 -1      2323 9.52202E-05-2.85687E-05-2.85650E-05 1.87026E-08-4.21566E-19-5.14718E-20
 -1      2324 9.52224E-05-2.85694E-05-2.85656E-05 1.73786E-08-6.77131E-19 9.87472E-20
 -1      2325 9.52252E-05-2.85710E-05-2.85661E-05 2.12405E-08-3.02908E-19-5.27698E-19
 -1      2326 9.52234E-05-2.85696E-05-2.85659E-05 1.59623E-08-1.06905E-18 3.66996E-19
 -1      2327 9.52253E-05-2.85701E-05-2.85665E-05 1.46609E-08-4.90497E-19-2.28643E-19
 -1      2328 9.52272E-05-2.85716E-05-2.85667E-05 1.84011E-08-1.00666E-18-2.67727E-19
 -1      2329 9.52262E-05-2.85702E-05-2.85669E-05 1.32971E-08 2.97261E-19-1.73300E-19
 -1      2330 9.52278E-05-2.85706E-05-2.85674E-05 1.20932E-08 5.46553E-19 6.83433E-19
 -1      2331 9.52291E-05-2.85719E-05-2.85674E-05 1.55209E-08-1.25501E-19 5.98641E-19
 -1      2332 9.52286E-05-2.85707E-05-2.85677E-05 1.08486E-08 9.04409E-19 6.01893E-19
 -1      2333 9.52299E-05-2.85709E-05-2.85681E-05 9.78038E-09 1.67703E-18 1.53959E-18
 -1      2334 9.52308E-05-2.85721E-05-2.85680E-05 1.28012E-08 6.56927E-19 2.55923E-19
 -1      2335 9.52306E-05-2.85710E-05-2.85684E-05 8.68687E-09 2.00061E-18 1.60531E-18
 -1      2336 9.52317E-05-2.85712E-05-2.85688E-05 7.76783E-09 2.45761E-18 2.31859E-18
 -1      2337 9.52322E-05-2.85721E-05-2.85686E-05 1.03520E-08 2.28837E-18 9.38893E-19
 -1      2338 9.52323E-05-2.85712E-05-2.85691E-05 6.83386E-09 1.85828E-18 2.84802E-18
 -1      2339 9.52331E-05-2.85713E-05-2.85694E-05 6.06125E-09 1.08585E-18 2.17523E-18
 -1      2340 9.52334E-05-2.85721E-05-2.85691E-05 8.22072E-09 1.86462E-18 1.21147E-18
 -1      2341 9.52336E-05-2.85713E-05-2.85696E-05 5.28024E-09 8.06782E-19 1.90047E-18
 -1      2342 9.52343E-05-2.85714E-05-2.85698E-05 4.64112E-09 1.09188E-18 1.73654E-18
 -1      2343 9.52343E-05-2.85720E-05-2.85695E-05 6.41269E-09 6.80899E-19 1.29027E-18
 -1      2344 9.52346E-05-2.85714E-05-2.85700E-05 3.99734E-09 4.91454E-19 1.65216E-18
 -1      2345 9.52352E-05-2.85715E-05-2.85702E-05 3.47286E-09-2.47332E-19 1.87572E-18
 -1      2346 9.52351E-05-2.85720E-05-2.85699E-05 4.90725E-09 6.72760E-19 1.50954E-18
 -1      2347 9.52355E-05-2.85715E-05-2.85703E-05 2.94491E-09 1.65499E-19 2.57173E-18
 -1      2348 9.52359E-05-2.85715E-05-2.85704E-05 2.51403E-09 4.92489E-19 3.71787E-18
 -1      2349 9.52358E-05-2.85719E-05-2.85702E-05 3.66774E-09 3.97931E-19 2.14216E-18
 -1      2350 9.52361E-05-2.85715E-05-2.85706E-05 2.07918E-09 1.98864E-19 3.73014E-18
 -1      2351 9.52364E-05-2.85716E-05-2.85707E-05 1.72314E-09 8.71134E-19 3.06534E-18
 -1      2352 9.52363E-05-2.85718E-05-2.85705E-05 2.65034E-09 6.24764E-19 2.78682E-18
 -1      2353 5.69508E-05-2.68691E-05-1.29424E-05 4.22321E-05 2.77615E-19 4.30145E-18
 -1      2354 4.22294E-05-1.98315E-05-9.43637E-06 3.50275E-05-5.75982E-20 4.80649E-18
 -1      2355 1.11925E-04-2.90452E-05-3.56613E-05-4.13367E-06 2.10453E-18 1.33180E-18
 -1      2356 1.11499E-04-2.73631E-05-3.60369E-05-1.02320E-06 2.24480E-18 1.86447E-18
 -1      2357 1.13895E-04-3.34698E-05-3.45699E-05-7.46570E-06 1.07516E-18 6.01900E-19
 -1      2358 1.12872E-04-3.12487E-05-3.49081E-05-6.50695E-06 1.64172E-18 9.27375E-19
 -1      2359 1.15263E-04-3.00327E-05-3.65828E-05-5.78595E-06 2.11630E-18-5.82865E-20
 -1      2360 1.15049E-04-3.67472E-05-3.35875E-05-6.02719E-06 5.54353E-19 3.80880E-19
 -1      2361 1.14322E-04-3.53562E-05-3.38174E-05-7.01652E-06 6.84551E-19 3.57104E-19
 -1      2362 1.16726E-04-3.51651E-05-3.49514E-05-7.51395E-06 1.16574E-18-6.10229E-19
 -1      2363 1.14125E-04-3.73355E-05-3.29033E-05-2.29969E-06 1.03146E-19 1.93528E-19
 -1      2364 1.14162E-04-3.71303E-05-3.30526E-05-4.00077E-06 4.51409E-19 4.10867E-19
 -1      2365 1.16410E-04-3.84221E-05-3.34275E-05-4.47788E-06 6.08213E-19-6.50995E-19
 -1      2366 1.11863E-04-3.61557E-05-3.24241E-05 1.34030E-06 2.47492E-19 4.62151E-19
 -1      2367 1.12535E-04-3.66925E-05-3.25607E-05-2.15595E-07 4.91378E-20 2.54588E-19
 -1      2368 1.13869E-04-3.82906E-05-3.24174E-05-1.85591E-07 2.25051E-20-5.18318E-19
 -1      2369 1.09148E-04-3.43598E-05-3.20299E-05 3.85811E-06 4.24287E-19 9.90545E-19
 -1      2370 1.10156E-04-3.51443E-05-3.21956E-05 2.81517E-06 4.31990E-19 1.04333E-18
 -1      2371 1.10478E-04-3.63714E-05-3.17945E-05 3.36752E-06 1.66925E-19-5.21513E-20
 -1      2372 1.06539E-04-3.26655E-05-3.16442E-05 5.13887E-06 5.37907E-19 9.27835E-19
 -1      2373 1.07654E-04-3.34120E-05-3.18481E-05 4.62900E-06 6.32327E-19 9.69770E-19
 -1      2374 1.07206E-04-3.40556E-05-3.13839E-05 5.52340E-06 4.56915E-19 6.00760E-19
 -1      2375 1.04262E-04-3.13383E-05-3.12429E-05 5.46001E-06 6.97960E-19 4.32881E-19
 -1      2376 1.05346E-04-3.19404E-05-3.14723E-05 5.35615E-06 5.05058E-19 6.65033E-19
 -1      2377 1.04472E-04-3.20724E-05-3.10548E-05 6.41513E-06 6.84477E-19 2.12329E-19
 -1      2378 1.02360E-04-3.03950E-05-3.08357E-05 5.17574E-06 1.59423E-19 7.40016E-19
 -1      2379 1.03342E-04-3.08433E-05-3.10710E-05 5.32392E-06 4.49712E-19 6.01174E-19
 -1      2380 1.02334E-04-3.06403E-05-3.07443E-05 6.41483E-06 4.95161E-19-2.46755E-19
 -1      2381 1.00798E-04-2.97562E-05-3.04424E-05 4.57698E-06-6.00078E-20 8.45866E-19
 -1      2382 1.01651E-04-3.00779E-05-3.06664E-05 4.85275E-06 1.01326E-19 1.09438E-18
 -1      2383 1.00696E-04-2.97070E-05-3.04362E-05 5.89140E-06-1.24913E-19-3.28806E-20
 -1      2384 9.95282E-05-2.93323E-05-3.00809E-05 3.86101E-06-1.96143E-19 9.32117E-19
 -1      2385 1.00246E-04-2.95600E-05-3.02824E-05 4.18046E-06-9.08931E-20 9.83398E-19
 -1      2386 9.94347E-05-2.91384E-05-3.01357E-05 5.11894E-06-9.95979E-20 7.54370E-19
 -1      2387 9.85041E-05-2.90525E-05-2.97625E-05 3.14594E-06-8.03181E-19 2.00142E-18
 -1      2388 9.90936E-05-2.92129E-05-2.99360E-05 3.45957E-06-6.63483E-19 1.50847E-18
 -1      2389 9.84531E-05-2.88093E-05-2.98540E-05 4.27522E-06-8.51132E-19 1.36690E-18
 -1      2390 9.76863E-05-2.88675E-05-2.94917E-05 2.49392E-06-4.80591E-19 2.36317E-18
 -1      2391 9.81600E-05-2.89802E-05-2.96360E-05 2.77643E-06-2.86663E-19 2.21441E-18
 -1      2392 9.76824E-05-2.86275E-05-2.96004E-05 3.46376E-06-8.60157E-19 1.65399E-18
 -1      2393 9.70411E-05-2.87448E-05-2.92680E-05 1.93153E-06 1.87786E-19 1.14091E-18
 -1      2394 9.74142E-05-2.88236E-05-2.93848E-05 2.17281E-06 4.51905E-20 1.62208E-18
 -1      2395 9.70754E-05-2.85328E-05-2.93800E-05 2.73727E-06 2.47015E-19 1.14734E-18
 -1      2396 9.65390E-05-2.86637E-05-2.90878E-05 1.46455E-06 8.44647E-19 1.00859E-18
 -1      2397 9.68274E-05-2.87184E-05-2.91801E-05 1.66318E-06 3.75677E-19 9.51507E-19
 -1      2398 9.65989E-05-2.84880E-05-2.91944E-05 2.11647E-06 3.94994E-19 2.11674E-19
 -1      2399 9.61541E-05-2.86108E-05-2.89457E-05 1.08768E-06 5.61402E-19 1.25464E-18
 -1      2400 9.63730E-05-2.86480E-05-2.90171E-05 1.24674E-06 7.06626E-19 1.00232E-18
 -1      2401 9.62278E-05-2.84713E-05-2.90419E-05 1.60345E-06 6.28917E-19-2.72504E-20
 -1      2402 9.58639E-05-2.85771E-05-2.88360E-05 7.90500E-07 1.16086E-18 6.14417E-19
 -1      2403 9.60268E-05-2.86019E-05-2.88901E-05 9.15005E-07 1.12723E-18 9.77790E-19
 -1      2404 9.59422E-05-2.84698E-05-2.89196E-05 1.19041E-06 8.41259E-19 7.62096E-19
 -1      2405 9.56492E-05-2.85567E-05-2.87529E-05 5.60862E-07 7.00218E-19 2.09375E-19
 -1      2406 9.57679E-05-2.85725E-05-2.87931E-05 6.56372E-07 7.00276E-19 2.34654E-19
 -1      2407 9.57254E-05-2.84764E-05-2.88234E-05 8.65037E-07 1.30335E-18 2.57361E-19
 -1      2408 9.54935E-05-2.85454E-05-2.86912E-05 3.86774E-07 1.11785E-18 6.48111E-19
 -1      2409 9.55781E-05-2.85549E-05-2.87204E-05 4.58644E-07 1.03690E-18 2.16544E-19
 -1      2410 9.55637E-05-2.84867E-05-2.87493E-05 6.13709E-07 9.98365E-19 1.37060E-18
 -1      2411 9.53833E-05-2.85403E-05-2.86464E-05 2.57306E-07 6.48922E-19 1.39927E-18
 -1      2412 9.54419E-05-2.85453E-05-2.86671E-05 3.10334E-07 9.37621E-19 8.48742E-19
 -1      2413 9.54454E-05-2.84983E-05-2.86932E-05 4.23185E-07 6.46183E-19 1.97734E-18
 -1      2414 9.53075E-05-2.85391E-05-2.86146E-05 1.62968E-07 7.29931E-20 6.62618E-19
 -1      2415 9.53467E-05-2.85412E-05-2.86288E-05 2.01270E-07 6.92047E-19 9.95387E-19
 -1      2416 9.53607E-05-2.85100E-05-2.86516E-05 2.81480E-07 7.31189E-19 1.30855E-18
 -1      2417 9.52574E-05-2.85404E-05-2.85926E-05 9.57877E-08-1.14518E-19 3.63285E-19
 -1      2418 9.52824E-05-2.85405E-05-2.86021E-05 1.22787E-07-2.64456E-19 5.07722E-19
 -1      2419 9.53018E-05-2.85208E-05-2.86214E-05 1.78214E-07 2.77502E-19 1.58291E-18
 -1      2420 9.52259E-05-2.85431E-05-2.85780E-05 4.92327E-08-7.57873E-19 2.43059E-19
 -1      2421 9.52408E-05-2.85421E-05-2.85840E-05 6.77099E-08-1.31651E-19 5.17327E-19
 -1      2422 9.52621E-05-2.85305E-05-2.86000E-05 1.04672E-07-2.82876E-19 2.09340E-18
 -1      2423 9.52076E-05-2.85465E-05-2.85688E-05 1.80586E-08-2.04695E-19-2.12868E-19
 -1      2424 9.52154E-05-2.85449E-05-2.85723E-05 3.02295E-08-1.16466E-18-3.01458E-19
 -1      2425 9.52365E-05-2.85389E-05-2.85853E-05 5.37087E-08-4.94649E-19 4.52742E-21
 -1      2426 9.51985E-05-2.85501E-05-2.85634E-05-1.86888E-09 1.44437E-18-6.04444E-19
 -1      2427 9.52016E-05-2.85482E-05-2.85652E-05 5.72991E-09 6.66935E-19-4.65840E-19
 -1      2428 9.52212E-05-2.85460E-05-2.85755E-05 1.95881E-08 2.55908E-19-1.63838E-18
 -1      2429 9.51955E-05-2.85537E-05-2.85607E-05-1.37536E-08 1.02814E-18 4.71211E-20
 -1      2430 9.51955E-05-2.85517E-05-2.85613E-05-9.39228E-09 1.90504E-18 2.03035E-19
 -1      2431 9.52129E-05-2.85519E-05-2.85693E-05-2.21547E-09 1.25168E-18-2.44341E-19
 -1      2432 9.51963E-05-2.85569E-05-2.85597E-05-2.00362E-08-1.63753E-19-3.62669E-19
 -1      2433 9.51945E-05-2.85550E-05-2.85596E-05-1.79029E-08 7.59958E-19 5.17939E-20
 -1      2434 9.52095E-05-2.85567E-05-2.85657E-05-1.52103E-08 7.52280E-19 1.07706E-18
 -1      2435 9.51995E-05-2.85598E-05-2.85598E-05-2.25435E-08-6.58894E-19-4.96033E-19
 -1      2436 9.51966E-05-2.85581E-05-2.85593E-05-2.18882E-08-6.07222E-19-3.49740E-19
 -1      2437 9.52092E-05-2.85605E-05-2.85639E-05-2.20699E-08 1.28715E-20 5.88483E-19
 -1      2438 9.52038E-05-2.85622E-05-2.85606E-05-2.26164E-08 3.19321E-19 1.46132E-19
 -1      2439 9.52005E-05-2.85607E-05-2.85599E-05-2.28934E-08-6.82897E-19 5.44778E-20
 -1      2440 9.52109E-05-2.85634E-05-2.85633E-05-2.47958E-08-9.08828E-19-1.80971E-19
 -1      2441 9.52085E-05-2.85643E-05-2.85618E-05-2.12186E-08 3.74995E-19 2.08789E-18
 -1      2442 9.52052E-05-2.85630E-05-2.85609E-05-2.20392E-08 8.92257E-19 1.35645E-18
 -1      2443 9.52135E-05-2.85657E-05-2.85634E-05-2.48575E-08-5.75749E-19 6.07238E-19
 -1      2444 9.52132E-05-2.85660E-05-2.85631E-05-1.90247E-08-2.50113E-19 2.05695E-18
 -1      2445 9.52101E-05-2.85649E-05-2.85623E-05-2.01200E-08 5.09444E-19 2.45143E-18
 -1      2446 9.52166E-05-2.85674E-05-2.85640E-05-2.33105E-08 4.15417E-19 2.22879E-18
 -1      2447 9.52176E-05-2.85673E-05-2.85644E-05-1.64922E-08-1.22169E-20 3.01210E-20
 -1      2448 9.52148E-05-2.85665E-05-2.85636E-05-1.76825E-08 2.23375E-20 1.19510E-18
 -1      2449 9.52199E-05-2.85687E-05-2.85648E-05-2.08940E-08 7.03853E-19 1.38723E-18
 -1      2450 9.52215E-05-2.85684E-05-2.85656E-05-1.39186E-08-1.08958E-18 5.55281E-20
 -1      2451 9.52191E-05-2.85677E-05-2.85649E-05-1.50897E-08-7.68823E-19-1.41284E-19
 -1      2452 9.52229E-05-2.85696E-05-2.85657E-05-1.81090E-08-3.92206E-19 1.19253E-19
 -1      2453 9.52249E-05-2.85692E-05-2.85667E-05-1.14857E-08-6.03051E-19-1.08689E-18
 -1      2454 9.52228E-05-2.85687E-05-2.85661E-05-1.25699E-08-7.06896E-19 6.63574E-20
 -1      2455 9.52257E-05-2.85703E-05-2.85666E-05-1.52811E-08-8.35956E-19 3.34059E-19
 -1      2456 9.52277E-05-2.85698E-05-2.85677E-05-9.29327E-09 5.86161E-19-1.39472E-18
 -1      2457 9.52260E-05-2.85694E-05-2.85672E-05-1.02558E-08-4.90860E-19-1.81331E-18
 -1      2458 9.52281E-05-2.85708E-05-2.85674E-05-1.26089E-08 4.48579E-19-4.07994E-19
 -1      2459 9.52300E-05-2.85703E-05-2.85685E-05-7.38510E-09 3.16938E-19-1.62954E-18
 -1      2460 9.52287E-05-2.85700E-05-2.85680E-05-8.21335E-09 1.03037E-18-1.37422E-18
 -1      2461 9.52301E-05-2.85711E-05-2.85682E-05-1.02014E-08 6.65307E-19-5.95673E-19
 -1      2462 9.52319E-05-2.85706E-05-2.85691E-05-5.76732E-09-4.03834E-19-9.40214E-19
 -1      2463 9.52308E-05-2.85704E-05-2.85688E-05-6.46345E-09-5.33573E-19-8.59398E-19
 -1      2464 9.52318E-05-2.85713E-05-2.85688E-05-8.10565E-09-7.28030E-19-3.25995E-19
 -1      2465 9.52334E-05-2.85709E-05-2.85697E-05-4.42195E-09-3.55142E-19 5.47398E-19
 -1      2466 9.52325E-05-2.85707E-05-2.85694E-05-4.99740E-09-8.29049E-19-2.26502E-19
 -1      2467 9.52332E-05-2.85714E-05-2.85693E-05-6.32795E-09-7.83781E-19 8.83618E-19
 -1      2468 9.52346E-05-2.85711E-05-2.85701E-05-3.31611E-09-1.25590E-18 2.22242E-18
 -1      2469 9.52339E-05-2.85710E-05-2.85699E-05-3.78800E-09-4.12359E-19 1.53509E-18
 -1      2470 9.52343E-05-2.85715E-05-2.85698E-05-4.84804E-09-1.08579E-18 1.01413E-18
 -1      2471 9.52355E-05-2.85712E-05-2.85704E-05-2.41005E-09-1.89881E-19 1.08271E-18
 -1      2472 9.52350E-05-2.85711E-05-2.85702E-05-2.79794E-09-5.70368E-19 2.02765E-18
 -1      2473 9.52352E-05-2.85715E-05-2.85701E-05-3.63010E-09-7.52522E-19 2.48511E-18
 -1      2474 9.52362E-05-2.85713E-05-2.85706E-05-1.65871E-09 8.20218E-20 6.33027E-19
 -1      2475 9.52358E-05-2.85713E-05-2.85705E-05-1.98355E-09 1.17758E-19 8.18866E-19
 -1      2476 9.52359E-05-2.85715E-05-2.85704E-05-2.63353E-09 3.79143E-19 1.49927E-18
 -1      2477 9.52366E-05-2.85714E-05-2.85708E-05-1.03310E-09 3.27173E-19 1.09915E-18
 -1      2478 9.52364E-05-2.85714E-05-2.85707E-05-1.30709E-09-1.65598E-19 4.11223E-19
 -1      2479 9.52364E-05-2.85716E-05-2.85706E-05-1.80692E-09 1.16163E-19 1.62512E-18
 -1      2480 9.52368E-05-2.85714E-05-2.85709E-05-7.02476E-10 8.48379E-19 7.97263E-19
 -1      2481 9.52381E-05-2.85736E-05-2.85705E-05-1.48331E-09 9.53966E-19-5.14491E-18
 -1      2482 9.52380E-05-2.85734E-05-2.85705E-05-1.59397E-09 8.94421E-19-6.50790E-18
 -1      2483 9.52385E-05-2.85741E-05-2.85704E-05-1.07011E-09 9.22432E-19-2.64555E-18
 -1      2484 9.52383E-05-2.85739E-05-2.85705E-05-1.27990E-09 1.26684E-18-3.54141E-18
 -1      2485 9.52384E-05-2.85740E-05-2.85705E-05-1.62196E-09 9.84260E-19-3.94647E-18
 -1      2486 9.52373E-05-2.85724E-05-2.85707E-05-1.59664E-09-2.85103E-19 1.16751E-18
 -1      2487 9.52371E-05-2.85722E-05-2.85707E-05-1.48351E-09 6.29980E-19 1.33475E-18
 -1      2488 9.52378E-05-2.85731E-05-2.85706E-05-1.66856E-09-9.90257E-19-4.38362E-18
 -1      2489 9.52375E-05-2.85728E-05-2.85706E-05-1.66472E-09-1.24478E-18-1.87319E-19
 -1      2490 9.52374E-05-2.85727E-05-2.85706E-05-1.94560E-09-9.05335E-19-7.02892E-19
 -1      2491 9.52379E-05-2.85734E-05-2.85705E-05-1.92529E-09 4.16052E-19-3.94602E-18
 -1      2492 9.52386E-05-2.85743E-05-2.85704E-05-4.94886E-10 5.74975E-19 2.09257E-19
 -1      2493 9.52386E-05-2.85742E-05-2.85704E-05-7.69356E-10 1.39069E-18-2.32474E-18
 -1      2494 9.52387E-05-2.85744E-05-2.85704E-05-1.07578E-09 8.26764E-19-2.01193E-18
 -1      2495 9.52387E-05-2.85744E-05-2.85704E-05 1.53696E-10-7.91040E-19 1.88328E-18
 -1      2496 9.52387E-05-2.85744E-05-2.85704E-05-1.42942E-10-4.59965E-19 2.38777E-18
 -1      2497 9.52389E-05-2.85746E-05-2.85704E-05-3.72392E-10 1.25012E-18 6.22725E-19
 -1      2498 9.52386E-05-2.85742E-05-2.85704E-05 7.78689E-10-1.83128E-18-1.32187E-18
 -1      2499 9.52386E-05-2.85743E-05-2.85704E-05 5.05176E-10-1.80183E-18 5.39878E-19
 -1      2500 9.52389E-05-2.85746E-05-2.85704E-05 3.84858E-10-1.01133E-18 2.36920E-19
 -1      2501 9.52383E-05-2.85739E-05-2.85705E-05 1.27915E-09-9.34474E-20-3.08420E-18
 -1      2502 9.52385E-05-2.85741E-05-2.85704E-05 1.07343E-09-2.69283E-19-3.60812E-18
 -1      2503 9.52387E-05-2.85744E-05-2.85704E-05 1.08109E-09 4.85100E-21-1.66748E-18
 -1      2504 9.52380E-05-2.85734E-05-2.85705E-05 1.59414E-09 9.17445E-20 1.23422E-18
 -1      2505 9.52381E-05-2.85736E-05-2.85705E-05 1.48300E-09 4.85806E-19-9.66689E-19
 -1      2506 9.52384E-05-2.85740E-05-2.85705E-05 1.62105E-09 1.22469E-18-1.77453E-18
 -1      2507 9.52375E-05-2.85728E-05-2.85706E-05 1.66142E-09-3.73748E-19 4.30794E-18
 -1      2508 9.52377E-05-2.85731E-05-2.85706E-05 1.67004E-09-5.87625E-19 3.70334E-18
 -1      2509 9.52379E-05-2.85734E-05-2.85705E-05 1.92628E-09-3.43385E-19 2.02402E-18
 -1      2510 9.52371E-05-2.85722E-05-2.85707E-05 1.47086E-09-1.04332E-18 1.36778E-19
 -1      2511 9.52373E-05-2.85724E-05-2.85707E-05 1.59695E-09-5.81931E-19 7.11286E-19
 -1      2512 9.52374E-05-2.85727E-05-2.85706E-05 1.94243E-09-1.11569E-18 2.51479E-18
 -1      2513 9.52369E-05-2.85717E-05-2.85708E-05 9.26188E-10-5.82797E-20 1.53149E-18
 -1      2514 2.27697E-05-7.81039E-06-6.11521E-06-1.13246E-05 1.03560E-18 6.37541E-18
 -1      2515 2.94026E-05-1.26966E-05-6.97006E-06-2.57930E-05 1.47405E-18 6.62232E-18
 -1      2516 1.11259E-04-2.69707E-05-3.61415E-05 2.97339E-06 2.23801E-18 2.71401E-18
 -1      2517 1.12523E-04-2.72227E-05-3.65104E-05 7.06396E-06 2.12476E-18 3.55182E-18
 -1      2518 1.14256E-04-2.62357E-05-3.78099E-05 9.23690E-06 2.34271E-18 3.04995E-18
 -1      2519 1.13643E-04-2.58578E-05-3.77003E-05 1.18138E-06 2.73061E-18 1.34882E-18
 -1      2520 1.43714E-04-2.34863E-05-5.19302E-05 5.15545E-06 6.26741E-18-1.60216E-18
 -1      2521 1.42865E-04-2.92822E-05-4.87761E-05 5.55521E-06 6.07026E-18-1.84547E-18
 -1      2522 1.22685E-04-4.89265E-05-3.19877E-05 2.89631E-05 1.89693E-18-1.25721E-18
 -1      2523 1.09412E-04-4.69977E-05-2.67753E-05 3.59624E-05 1.41200E-18 2.25523E-19
 -1      2524 9.45746E-05-4.20831E-05-2.26031E-05 4.27419E-05 9.22207E-19 1.51111E-18
 -1      2525 7.65881E-05-3.58604E-05-1.73252E-05 4.27203E-05-4.23516E-20 2.92030E-18
 -1      2526 1.05991E-04-4.64198E-05-2.51733E-05 3.55429E-05-7.21884E-19-3.07552E-19
 -1      2527 4.14444E-05-1.99437E-05-9.12875E-06-3.48245E-05 2.53432E-18 5.87777E-18
 -1      2528 5.68310E-05-2.69529E-05-1.28622E-05-4.27094E-05 2.41743E-18 4.45751E-18
 -1      2529 1.15891E-04-3.54353E-05-3.48893E-05 1.30869E-05-8.47668E-19-8.73820E-19
 -1      2530 9.77141E-05-2.98068E-05-2.91573E-05 2.00761E-05 4.15364E-19-1.51841E-18
 -1      2531 1.22944E-04-3.23963E-05-3.91820E-05 2.10134E-05 1.35445E-18 2.14262E-18
 -1      2532 1.20424E-04-3.30057E-05-3.74148E-05 1.62400E-05 5.44119E-19 1.46541E-18
 -1      2533 1.26707E-04-3.43957E-05-3.94698E-05 2.40604E-05 1.58223E-18 3.03657E-18
 -1      2534 1.16309E-04-3.42628E-05-3.53744E-05 7.80524E-06 6.51951E-20 6.32548E-19
 -1      2535 1.07144E-04-3.20107E-05-3.21296E-05-3.66518E-07-6.91973E-19-1.22026E-19
 -1      2536 1.23881E-04-3.67542E-05-3.71997E-05 1.47099E-05 5.45443E-19 1.81547E-18
 -1      2537 1.41469E-04-3.85816E-05-4.43557E-05 1.08129E-05 5.18628E-18-2.53051E-18
 -1      2538 1.33926E-04-4.52324E-05-3.80601E-05 1.79659E-05 3.92663E-18-2.22918E-18
 -1      2539 1.18446E-05 1.03309E-05-9.17562E-06-1.08061E-05 6.36069E-19-5.48771E-18
 -1      2540 4.97203E-06 1.34868E-05-7.77081E-06-3.35217E-06 1.64745E-18-5.44070E-18
 -1      2541 5.09359E-06 1.46070E-05-8.02799E-06 6.15866E-06 1.76855E-18-5.31047E-18
 -1      2542 1.09022E-05 1.13727E-05-9.40540E-06 1.36322E-05 2.62337E-18-4.73640E-18
 -1      2543 1.32724E-04-3.86533E-05-4.04144E-05 3.25589E-06 2.63914E-18-5.23043E-19
 -1      2544 1.41006E-04-3.65400E-05-4.52044E-05 9.97023E-06 3.62416E-18-1.52466E-20
 -1      2545 1.41102E-04-1.57308E-05-5.40013E-05 1.62377E-05 6.22908E-18 4.08693E-20
 -1      2546 1.39712E-04-1.30379E-05-5.47818E-05 1.34145E-05 6.41987E-18-1.45637E-19
 -1      2547 7.93968E-05-2.24928E-05-2.45727E-05 2.68047E-05 1.19199E-18-2.29583E-18
 -1      2548 6.24432E-05-1.50228E-05-2.04478E-05 2.73745E-05 1.89439E-18-2.70029E-18
 -1      2549 1.41935E-04-2.80352E-05-4.90204E-05 1.56341E-05 4.60140E-18 3.80318E-19
 -1      2550 1.43626E-04-2.19013E-05-5.26293E-05 1.72831E-05 5.68952E-18 4.55915E-19
 -1      2551 1.10027E-04-3.63291E-05-3.18873E-05-1.41742E-05 1.76649E-18-2.21880E-18
 -1      2552 1.25106E-04-4.01316E-05-3.69335E-05-6.90795E-06 2.29609E-18-1.31714E-18
 -1      2553 1.30979E-04-3.94351E-05-3.89501E-05 5.63797E-06 1.75331E-18 3.04508E-19
 -1      2554 7.25743E-05-2.16632E-05-2.20173E-05-2.37559E-05 4.77938E-19-3.51540E-18
 -1      2555 9.18288E-05-2.99355E-05-2.66264E-05-2.25951E-05 1.21316E-18-3.26791E-18
 -1      2556 2.00481E-05 5.65107E-06-1.09634E-05-1.78031E-05 7.95999E-19-5.30116E-18
 -1      2557 1.96393E-05 7.53861E-06-1.10189E-05 1.93784E-05 2.86350E-18-4.76318E-18
 -1      2558 1.39855E-04-1.22813E-05-5.49048E-05-1.20934E-05-5.74564E-18-1.34932E-18
 -1      2559 1.35472E-04-1.42294E-05-5.24438E-05-1.38554E-05-5.71239E-18-6.15899E-19
 -1      2560 1.33965E-04-3.43133E-05-4.31735E-05-3.79111E-06-2.92761E-18 1.05032E-19
 -1      2561 1.26703E-04-3.52998E-05-3.92884E-05 1.52472E-06-1.84285E-18-2.29546E-19
 -1      2562 1.37907E-04-2.21977E-05-5.01110E-05-1.50870E-05-5.07923E-18 2.41828E-19
 -1      2563 1.36833E-04-2.84603E-05-4.66558E-05-1.02874E-05-4.02214E-18 1.68983E-19
 -1      2564 1.32206E-04-3.04590E-05-4.36465E-05-1.35704E-05-2.86255E-18 8.48409E-19
 -1      2565 1.36109E-04-1.25010E-05-5.35134E-05-6.34564E-06-5.10126E-18-2.08105E-18
 -1      2566 1.38720E-04-1.16185E-05-5.48064E-05-9.32435E-06-5.55357E-18-1.90789E-18
 -1      2567 1.27795E-04-9.81068E-06-5.07233E-05-1.02720E-05-5.12942E-18-1.74955E-18
 -1      2568 1.36863E-04-2.68778E-05-4.74959E-05-4.26802E-06-3.02444E-18-2.38863E-18
 -1      2569 1.38238E-04-1.89308E-05-5.14975E-05-3.97911E-06-4.17439E-18-2.35200E-18
 -1      2570 1.33235E-04-4.28402E-05-3.88201E-05-1.91930E-05-9.70223E-19-9.15219E-19
 -1      2571 1.37756E-04-3.76203E-05-4.33191E-05-1.08695E-05-1.69370E-18-1.89270E-18
 -1      2572 1.14044E-04-4.66021E-05-2.87926E-05-3.29047E-05 8.42480E-19-1.37325E-19
 -1      2573 1.26188E-04-4.60318E-05-3.45624E-05-2.81187E-05-2.35369E-19-2.44581E-19
 -1      2574 1.30068E-04-4.74633E-05-3.53054E-05-1.75087E-05 7.02640E-19-1.59581E-18
 -1      2575 7.60454E-05-3.58272E-05-1.70971E-05-4.30168E-05 2.41616E-18 2.40957E-18
 -1      2576 9.57763E-05-4.22592E-05-2.31842E-05-4.24321E-05 1.56871E-18 9.66782E-19
 -1      2577 1.18630E-04-2.76879E-05-3.91726E-05-2.39490E-05-1.93143E-18-7.57512E-19
 -1      2578 1.17410E-04-2.96482E-05-3.75783E-05-2.07135E-05-2.03960E-18-3.41861E-19
 -1      2579 1.17603E-04-2.83255E-05-3.82236E-05-2.17474E-05-1.96846E-18-4.18994E-19
 -1      2580 1.17978E-04-2.67266E-05-3.91568E-05-2.35372E-05-1.30848E-18-9.16251E-19
 -1      2581 3.93438E-05-3.44158E-06-1.51619E-05-2.08628E-05-1.85077E-19-4.64502E-18
 -1      2582 1.17393E-04-3.28827E-05-3.62701E-05-8.97239E-06 7.05314E-19 1.11014E-19
 -1      2583 1.15861E-04-3.03838E-05-3.66047E-05-1.13364E-05 1.01211E-18-5.72356E-19
 -1      2584 1.17385E-04-2.91370E-05-3.81301E-05-1.64838E-05 9.34896E-20-9.15510E-19
 -1      2585 6.59947E-05-1.48948E-05-2.19758E-05 2.33721E-05 3.50280E-18-2.18688E-18
 -1      2586 8.46961E-05-2.24415E-05-2.63301E-05 1.70691E-05 3.18881E-18-1.50335E-18
 -1      2587 1.36053E-04-1.96912E-05-5.00659E-05 1.94860E-06 5.95888E-18-1.58575E-18
 -1      2588 5.68865E-05-1.20289E-05-1.89960E-05-2.42298E-05-4.59515E-20-3.95998E-18
 -1      2589 3.22109E-05 1.32140E-07-1.39437E-05 2.43877E-05 2.33442E-18-3.94230E-18
 -1      2590 5.36628E-05-9.59919E-06-1.85442E-05 2.69227E-05 2.60918E-18-3.17150E-18
 -1      2591 1.05347E-04-3.41015E-05-3.07001E-05-6.74929E-06-1.22608E-19-5.44636E-19
 -1      2592 9.95061E-05-2.93323E-05-3.02198E-05 1.18241E-05 2.17698E-18-6.50018E-19
 -1      2593 1.12399E-04-3.46853E-05-3.32458E-05 5.23006E-06 1.23704E-18-4.27752E-20
 -1      2594 3.86989E-05-1.54140E-05-9.64865E-06 2.91119E-05-2.94873E-19 5.09956E-18
 -1      2595 3.62369E-05-9.84311E-06-1.07788E-05 2.18125E-05-8.10187E-19 5.24885E-18
 -1      2596 5.00064E-05-1.84980E-05-1.34252E-05 3.29084E-05-1.52985E-18 3.90376E-18
 -1      2597 4.29883E-05-1.60641E-05-1.10991E-05-3.01966E-05 2.45661E-18 5.58322E-18
 -1      2598 7.42658E-05-3.28493E-05-1.73587E-05 4.10326E-05-1.45626E-18 2.37730E-18
 -1      2599 1.38527E-04-3.57237E-05-4.41543E-05 3.21488E-06 4.67234E-18-2.91506E-18
 -1      2600 9.52368E-05-2.85716E-05-2.85708E-05-1.08500E-09 6.50391E-19-3.42547E-19
 -1      2601 9.52369E-05-2.85718E-05-2.85708E-05-1.27179E-09 1.04413E-18 5.69696E-19
 -1      2602 9.52367E-05-2.85716E-05-2.85708E-05 1.18701E-09 1.23345E-19 2.75362E-18
 -1      2603 9.52370E-05-2.85719E-05-2.85707E-05 1.36770E-09-5.72110E-19 1.99837E-18
 -1      2604 9.52369E-05-2.85721E-05-2.85707E-05 1.76892E-09-5.74834E-19 2.06234E-18
 -1      2605 9.52365E-05-2.85716E-05-2.85707E-05 1.46574E-09 8.34291E-19 3.42883E-18
 -1      2606 2.47104E-05-6.49397E-06-7.27150E-06-2.67813E-06 5.78841E-19 6.55222E-18
 -1      2607 3.16103E-05-6.69319E-06-1.02670E-05-1.09949E-05 1.19802E-18 5.85681E-18
 -1      2608 2.90899E-05-6.00419E-06-9.44048E-06 5.85364E-06-9.60059E-20 6.24115E-18
 -1      2609 1.30158E-04-4.95233E-05-3.46349E-05 1.99935E-05 1.93182E-18-2.44623E-18
 -1      2610 1.24459E-04-5.05037E-05-3.15392E-05 2.15582E-05 1.78406E-19-2.86525E-18
 -1      2611 1.31870E-04-4.77517E-05-3.67874E-05 9.67797E-06 1.84674E-18-3.74812E-18
 -1      2612 7.34034E-05-3.27233E-05-1.70417E-05-4.14372E-05 3.38728E-18 2.78489E-18
 -1      2613 9.34193E-05-2.80284E-05-2.78768E-05 1.83371E-05 1.92944E-18-1.28320E-18
 -1      2614 1.07140E-04-3.54017E-05-3.04992E-05-1.16212E-05 3.03026E-19-1.53646E-18
 -1      2615 1.37811E-04-3.18811E-05-4.54931E-05 1.77787E-05 3.63748E-18 1.27267E-18
 -1      2616 1.34872E-04-1.81693E-05-5.01648E-05 1.91719E-05 5.33377E-18 1.03751E-18
 -1      2617 1.08572E-04-4.66794E-05-2.63154E-05-3.45448E-05 2.40589E-18-3.50989E-20
 -1      2618 1.20721E-04-3.57730E-05-3.64742E-05 2.30883E-06-4.40722E-19 6.47980E-20
 -1      2619 1.18071E-04-2.78954E-05-3.87116E-05-2.00839E-05-2.95327E-19-1.06107E-18
 -1      2620 1.17924E-04-2.68565E-05-3.92910E-05-2.25856E-05-9.73625E-19-1.16341E-18
 -1      2621 1.19183E-04-2.83472E-05-3.88890E-05-2.29424E-05-1.43382E-18-6.35678E-19
 -1      2622 1.19818E-04-2.99776E-05-3.84889E-05-1.93986E-05-5.86901E-19-5.26643E-19
 -1      2623 1.24916E-04-1.32827E-05-4.84224E-05-1.72748E-05-4.77049E-18-6.22093E-19
 -1      2624 1.33040E-04-1.77476E-05-4.97575E-05-1.71062E-05-5.01825E-18-2.09641E-19
 -1      2625 1.28286E-04-2.04648E-05-4.64820E-05-1.90113E-05-4.25306E-18 1.76130E-19
 -1      2626 1.32407E-04-1.25447E-05-5.16055E-05 1.03557E-05 6.12595E-18-1.66468E-19
 -1      2627 1.29392E-04-1.60723E-05-4.88012E-05-1.78153E-06-4.11044E-18-2.93920E-18
 -1      2628 1.35908E-04-3.38094E-05-4.40530E-05-3.59468E-06-1.84394E-18-2.44782E-18
 -1      2629 1.29201E-04-2.84992E-05-4.35780E-05 2.57700E-06-2.00239E-18-3.34186E-18
 -1      2630 1.32100E-04-3.87811E-05-4.00252E-05-3.40076E-06-8.63074E-19-2.93952E-18
 -1      2631 9.52369E-05-2.85720E-05-2.85707E-05-1.67570E-09 1.53965E-18 2.56440E-19
 -1      2632 9.52366E-05-2.85718E-05-2.85706E-05 1.92032E-09 3.72805E-19 3.10870E-18
 -1      2633 1.21621E-04-3.54767E-05-3.71356E-05-4.21454E-06 3.78253E-20 5.42366E-19
 -1      2634 1.28847E-04-1.75229E-05-4.83191E-05 7.85567E-07 5.58279E-18-1.38940E-18
 -1      2635 1.32371E-04-2.40484E-05-4.67871E-05-2.05008E-06 5.09141E-18-2.15062E-18
 -1      2636 1.21882E-04-4.00427E-05-3.53558E-05 1.60282E-06 7.19660E-19 2.59933E-19
 -1      2637 1.25625E-04-3.41152E-05-3.93467E-05 2.35776E-05 1.99894E-18 4.26849E-18
 -1      2638 1.25754E-04-3.34988E-05-3.97599E-05 2.50353E-05 2.16146E-18 3.77050E-18
 -1      2639 1.22846E-04-3.17515E-05-3.89470E-05 2.22024E-05 2.20880E-18 4.26400E-18
 -1      2640 1.17857E-04-4.08300E-05-3.29741E-05-1.39103E-06 3.93903E-20-1.10380E-18
 -1      2641 1.18626E-04-4.01864E-05-3.36747E-05-3.27258E-06 4.06248E-19-1.27594E-18
 -1      2642 1.24399E-04-3.43478E-05-3.88222E-05-1.27669E-05-5.37019E-19 4.26031E-19
 -1      2643 1.20476E-04-3.88656E-05-3.50239E-05-6.21920E-06 9.25168E-19-1.42980E-18
 -1      2644 1.19485E-04-3.55994E-05-3.59012E-05-6.90042E-06 1.47850E-18-1.28699E-18
 -1      2645 1.21987E-04-4.15624E-05-3.47386E-05-3.27232E-06 7.98911E-19-2.49511E-18
 -1      2646 1.12309E-04-2.18666E-05-3.89029E-05-1.17249E-05-2.79829E-18-1.02916E-18
 -1      2647 1.11166E-04-2.12314E-05-3.86214E-05-7.28733E-06-2.62104E-18-1.32018E-18
 -1      2648 1.10972E-04-2.21635E-05-3.81033E-05-1.91594E-06-2.26396E-18-1.97033E-18
 -1      2649 1.11383E-04-2.43553E-05-3.74627E-05 1.78740E-06-1.90866E-18-2.18792E-18
 -1      2650 1.12845E-04-1.95349E-05-4.00950E-05-5.42779E-06-2.87539E-18-1.88884E-18
 -1      2651 1.12618E-04-2.77349E-05-3.63595E-05 4.80913E-06-1.47214E-18-2.22643E-18
 -1      2652 1.13646E-04-3.11261E-05-3.55202E-05 6.15874E-06-1.09744E-18-2.38069E-18
 -1      2653 1.14303E-04-2.52414E-05-3.82454E-05 3.38234E-06-1.74480E-18-2.61132E-18
 -1      2654 1.14235E-04-3.41471E-05-3.43031E-05 6.01543E-06-7.51298E-19-2.15889E-18
 -1      2655 1.14742E-04-3.66164E-05-3.35342E-05 5.39793E-06-3.10289E-19-2.08010E-18
 -1      2656 1.16438E-04-3.30494E-05-3.57531E-05 5.89886E-06-8.40376E-19-2.40618E-18
 -1      2657 1.13757E-04-3.78667E-05-3.25527E-05 3.34070E-06-2.61456E-19-1.94839E-18
 -1      2658 1.13258E-04-3.85489E-05-3.19949E-05 1.84234E-06-3.35707E-20-1.82878E-18
 -1      2659 1.16275E-04-3.87244E-05-3.32857E-05 3.20061E-06-3.27153E-19-2.47585E-18
 -1      2660 1.11275E-04-3.81830E-05-3.13636E-05-2.83250E-07 6.29087E-20-1.61159E-18
 -1      2661 1.10097E-04-3.76158E-05-3.10139E-05-1.78044E-06 1.62444E-19-1.47974E-18
 -1      2662 1.13235E-04-3.98036E-05-3.15367E-05-9.90070E-07 6.82986E-20-2.25941E-18
 -1      2663 1.07938E-04-3.64625E-05-3.06639E-05-3.24165E-06 5.88531E-20-1.44461E-18
 -1      2664 1.06553E-04-3.53834E-05-3.04568E-05-4.32942E-06 9.99168E-20-1.34085E-18
 -1      2665 1.08990E-04-3.79593E-05-3.05108E-05-4.34192E-06 1.99550E-19-1.75330E-18
 -1      2666 1.04723E-04-3.41138E-05-3.02777E-05-5.05974E-06-1.09302E-19-1.29835E-18
 -1      2667 1.03450E-04-3.30314E-05-3.01465E-05-5.66937E-06-1.35602E-19-1.18261E-18
 -1      2668 1.04933E-04-3.50995E-05-2.99820E-05-6.25193E-06-9.36689E-20-1.47201E-18
 -1      2669 1.02093E-04-3.19792E-05-3.00539E-05-5.86685E-06-2.11427E-21-1.03317E-18
 -1      2670 1.01054E-04-3.11101E-05-2.99553E-05-6.08272E-06 1.02902E-19-1.00459E-18
 -1      2671 1.01725E-04-3.24397E-05-2.97282E-05-6.96140E-06 4.05149E-20-6.44018E-19
 -1      2672 1.00128E-04-3.03632E-05-2.98974E-05-5.95057E-06 2.58209E-19-1.15627E-18
 -1      2673 9.93272E-05-2.97490E-05-2.98082E-05-5.89280E-06 3.53845E-19-8.28726E-19
 -1      2674 9.94432E-05-3.04190E-05-2.96015E-05-6.88347E-06 1.64590E-19-8.61954E-19
 -1      2675 9.87266E-05-2.92772E-05-2.97586E-05-5.58253E-06 5.56741E-20-7.11503E-19
 -1      2676 9.81235E-05-2.88816E-05-2.96705E-05-5.35933E-06-1.01881E-19-3.78551E-19
 -1      2677 9.79234E-05-2.90723E-05-2.95176E-05-6.35635E-06 2.72015E-19-5.11001E-19
 -1      2678 9.77454E-05-2.86169E-05-2.96195E-05-4.97004E-06 8.54980E-20-5.26807E-19
 -1      2679 9.72927E-05-2.83831E-05-2.95319E-05-4.66371E-06 8.54422E-20-1.88042E-19
 -1      2680 9.69509E-05-2.82717E-05-2.94382E-05-5.60944E-06-8.55409E-20-8.16317E-19
 -1      2681 9.70575E-05-2.82582E-05-2.94779E-05-4.25663E-06-1.15574E-19-5.65015E-19
 -1      2682 9.67157E-05-2.81341E-05-2.93934E-05-3.92374E-06-2.92878E-19-3.17594E-19
 -1      2683 9.63419E-05-2.78590E-05-2.93510E-05-4.78680E-06-1.95414E-19-7.07585E-19
 -1      2684 9.65688E-05-2.80958E-05-2.93382E-05-3.53487E-06-3.47016E-19-3.15529E-19
 -1      2685 9.63087E-05-2.80412E-05-2.92596E-05-3.21104E-06-2.00063E-19-5.67375E-20
 -1      2686 9.59629E-05-2.76979E-05-2.92562E-05-3.97541E-06-2.52190E-19-4.11732E-19
 -1      2687 9.62152E-05-2.80521E-05-2.92059E-05-2.85983E-06 1.71181E-19 3.26856E-20
 -1      2688 9.60162E-05-2.80388E-05-2.91355E-05-2.56519E-06 4.42745E-19 1.37439E-19
 -1      2689 9.57254E-05-2.76870E-05-2.91584E-05-3.22503E-06 1.72695E-19-3.08639E-19
 -1      2690 9.59549E-05-2.80745E-05-2.90855E-05-2.26040E-06 3.29294E-19 1.35326E-20
 -1      2691 9.58024E-05-2.80840E-05-2.90244E-05-2.00442E-06 2.95423E-20 7.50080E-20
 -1      2692 9.55735E-05-2.77573E-05-2.90632E-05-2.56104E-06 2.55750E-19-5.57195E-19
 -1      2693 9.57608E-05-2.81295E-05-2.89795E-05-1.74800E-06-1.53950E-19 8.63974E-19
 -1      2694 9.56443E-05-2.81502E-05-2.89280E-05-1.53324E-06 7.69513E-20 9.65381E-19
 -1      2695 9.54737E-05-2.78647E-05-2.89745E-05-1.99288E-06 1.18652E-19 4.93420E-20
 -1      2696 9.56150E-05-2.81968E-05-2.88891E-05-1.32303E-06 1.91259E-19 9.25233E-19
 -1      2697 9.55268E-05-2.82217E-05-2.88466E-05-1.14788E-06 3.66854E-19 9.55340E-19
 -1      2698 9.54059E-05-2.79827E-05-2.88951E-05-1.51990E-06-1.63385E-19 1.00931E-18
 -1      2699 9.55055E-05-2.82648E-05-2.88138E-05-9.79432E-07 7.03282E-19 9.87112E-19
 -1      2700 9.54394E-05-2.82899E-05-2.87796E-05-8.40038E-07 8.10946E-19 9.73435E-19
 -1      2701 9.53585E-05-2.80963E-05-2.88263E-05-1.13540E-06 4.59173E-19 1.11071E-18
 -1      2702 9.54236E-05-2.83274E-05-2.87526E-05-7.07864E-07 6.75305E-19 7.69276E-19
 -1      2703 9.53748E-05-2.83505E-05-2.87257E-05-5.99371E-07 2.35604E-19 6.02095E-19
 -1      2704 9.53244E-05-2.81980E-05-2.87683E-05-8.29482E-07 5.72015E-19 4.03082E-19
 -1      2705 9.53630E-05-2.83819E-05-2.87038E-05-4.97743E-07-3.05326E-19 3.62154E-19
 -1      2706 9.53276E-05-2.84022E-05-2.86831E-05-4.15090E-07-4.77205E-19-1.44475E-19
 -1      2707 9.52996E-05-2.82849E-05-2.87205E-05-5.90990E-07-3.09411E-19-8.40397E-19
 -1      2708 9.53187E-05-2.84276E-05-2.86658E-05-3.38527E-07-3.50764E-19-1.01480E-19
 -1      2709 9.52936E-05-2.84446E-05-2.86501E-05-2.76909E-07-1.50272E-19-4.91231E-19
 -1      2710 9.52812E-05-2.83566E-05-2.86820E-05-4.08740E-07-4.14554E-19-6.08078E-19
 -1      2711 9.52869E-05-2.84647E-05-2.86367E-05-2.20454E-07 2.36771E-19-6.77935E-19
 -1      2712 9.52696E-05-2.84786E-05-2.86251E-05-1.75563E-07 3.11322E-19-8.28642E-19
 -1      2713 9.52677E-05-2.84141E-05-2.86516E-05-2.72287E-07-8.52101E-21 2.13847E-20
 -1      2714 9.52646E-05-2.84941E-05-2.86149E-05-1.34905E-07 6.61980E-19-3.66719E-20
 -1      2715 9.52531E-05-2.85052E-05-2.86065E-05-1.03035E-07 1.02552E-18 8.48333E-19
 -1      2716 9.52577E-05-2.84592E-05-2.86280E-05-1.72330E-07 1.01144E-18 9.43450E-19
 -1      2717 9.52494E-05-2.85168E-05-2.85989E-05-7.45436E-08 8.35713E-19 1.28526E-18
 -1      2718 9.52421E-05-2.85255E-05-2.85930E-05-5.26003E-08 8.58335E-19 1.88754E-18
 -1      2719 9.52505E-05-2.84937E-05-2.86102E-05-1.00873E-07 9.17735E-19 1.60030E-18
 -1      2720 9.52395E-05-2.85341E-05-2.85875E-05-3.32921E-08 2.40819E-19 1.15356E-18
 -1      2721 9.52352E-05-2.85407E-05-2.85834E-05-1.87605E-08-2.03055E-19 1.08501E-18
 -1      2722 9.52453E-05-2.85196E-05-2.85969E-05-5.12356E-08-1.05439E-19 9.06628E-19
 -1      2723 9.52333E-05-2.85469E-05-2.85795E-05-6.23963E-09-3.59865E-19 1.36891E-18
 -1      2724 9.52312E-05-2.85519E-05-2.85769E-05 2.88042E-09-2.75966E-19 1.37228E-18
 -1      2725 9.52416E-05-2.85385E-05-2.85872E-05-1.79697E-08-2.04775E-19 4.24915E-19
 -1      2726 9.52299E-05-2.85562E-05-2.85742E-05 1.04989E-08-4.58054E-20 1.04346E-18
 -1      2727 9.52291E-05-2.85599E-05-2.85725E-05 1.57653E-08-3.89132E-19 9.50416E-19
 -1      2728 9.52392E-05-2.85521E-05-2.85803E-05 3.27230E-09-7.16831E-19 3.93956E-19
 -1      2729 9.52282E-05-2.85628E-05-2.85708E-05 1.99356E-08-1.08976E-18 1.00268E-18
 -1      2730 9.52284E-05-2.85654E-05-2.85698E-05 2.25377E-08-9.41036E-19-3.28931E-19
 -1      2731 9.52375E-05-2.85615E-05-2.85755E-05 1.58912E-08-6.38606E-19 7.75041E-19
 -1      2732 9.52278E-05-2.85673E-05-2.85687E-05 2.43595E-08-7.66606E-20-5.50461E-19
 -1      2733 9.52285E-05-2.85691E-05-2.85683E-05 2.51870E-08-5.38729E-20-5.96741E-19
 -1      2734 9.52365E-05-2.85678E-05-2.85724E-05 2.24956E-08-7.74402E-19-1.60911E-19
 -1      2735 9.52282E-05-2.85702E-05-2.85676E-05 2.54752E-08-8.64007E-19-6.18950E-19
 -1      2736 9.52291E-05-2.85715E-05-2.85675E-05 2.51793E-08-1.03978E-18-1.15159E-18
 -1      2737 9.52360E-05-2.85718E-05-2.85704E-05 2.50471E-08-6.86260E-19-1.61758E-18
 -1      2738 9.52290E-05-2.85721E-05-2.85672E-05 2.45242E-08-5.05759E-19-1.47862E-18
 -1      2739 9.52300E-05-2.85729E-05-2.85673E-05 2.35701E-08-2.82012E-19-1.15879E-18
 -1      2740 9.52357E-05-2.85741E-05-2.85693E-05 2.49904E-08-1.28743E-18-2.61600E-18
 -1      2741 9.52300E-05-2.85731E-05-2.85672E-05 2.23885E-08-2.51001E-20-1.33564E-18
 -1      2742 9.52310E-05-2.85736E-05-2.85674E-05 2.10992E-08-5.47266E-19-1.32529E-18
 -1      2743 9.52356E-05-2.85754E-05-2.85687E-05 2.33648E-08-5.18400E-19-2.25899E-18
 -1      2744 9.52310E-05-2.85736E-05-2.85675E-05 1.96764E-08-9.58765E-19-8.34150E-19
 -1      2745 9.52320E-05-2.85739E-05-2.85677E-05 1.82681E-08-5.50571E-19-4.46089E-19
 -1      2746 9.52357E-05-2.85759E-05-2.85685E-05 2.08981E-08-4.97013E-19-9.55454E-19
 -1      2747 9.52321E-05-2.85738E-05-2.85679E-05 1.67916E-08-9.04605E-20 5.04782E-19
 -1      2748 9.52329E-05-2.85739E-05-2.85681E-05 1.54021E-08 6.21741E-19 8.39854E-19
 -1      2749 9.52358E-05-2.85758E-05-2.85686E-05 1.80834E-08 2.83929E-19-5.83659E-20
 -1      2750 9.52330E-05-2.85737E-05-2.85683E-05 1.39881E-08 5.72975E-19 1.45039E-18
 -1      2751 9.52338E-05-2.85737E-05-2.85686E-05 1.26991E-08 9.49426E-19 1.45583E-18
 -1      2752 9.52360E-05-2.85755E-05-2.85688E-05 1.52398E-08 6.81327E-19 2.00414E-18
 -1      2753 9.52339E-05-2.85735E-05-2.85688E-05 1.14133E-08 1.65852E-18 1.68558E-18
 -1      2754 9.52345E-05-2.85734E-05-2.85690E-05 1.02668E-08 2.23374E-18 1.66543E-18
 -1      2755 9.52361E-05-2.85751E-05-2.85690E-05 1.25612E-08 1.34410E-18 2.34867E-18
 -1      2756 9.52346E-05-2.85732E-05-2.85692E-05 9.13988E-09 2.14462E-18 1.61607E-18
 -1      2757 9.52351E-05-2.85731E-05-2.85694E-05 8.15097E-09 1.65624E-18 2.55530E-18
 -1      2758 9.52363E-05-2.85745E-05-2.85693E-05 1.01526E-08 1.87659E-18 2.14298E-18
 -1      2759 9.52352E-05-2.85729E-05-2.85696E-05 7.19002E-09 1.62142E-18 2.16313E-18
 -1      2760 9.52356E-05-2.85728E-05-2.85698E-05 6.35626E-09 1.13705E-18 2.17050E-18
 -1      2761 9.52365E-05-2.85740E-05-2.85696E-05 8.05829E-09 1.74562E-18 2.64896E-18
 -1      2762 9.52357E-05-2.85727E-05-2.85699E-05 5.55355E-09 3.79220E-19 2.80292E-18
 -1      2763 9.52361E-05-2.85726E-05-2.85701E-05 4.86166E-09 9.62387E-19 3.25695E-18
 -1      2764 9.52366E-05-2.85735E-05-2.85699E-05 6.28212E-09 9.83343E-19 2.22324E-18
 -1      2765 9.52361E-05-2.85724E-05-2.85702E-05 4.20270E-09 9.74764E-19 3.18749E-18
 -1      2766 9.52364E-05-2.85724E-05-2.85703E-05 3.63026E-09 8.08426E-19 3.44058E-18
 -1      2767 9.52368E-05-2.85731E-05-2.85701E-05 4.80655E-09 1.10763E-18 3.75171E-18
 -1      2768 9.52365E-05-2.85723E-05-2.85704E-05 3.09542E-09-2.76071E-19 3.00462E-18
 -1      2769 9.52367E-05-2.85722E-05-2.85705E-05 2.62457E-09 1.48346E-19 2.90829E-18
 -1      2770 9.52369E-05-2.85728E-05-2.85703E-05 3.59175E-09 8.02882E-19 4.20648E-18
 -1      2771 1.20938E-04-2.87582E-05-3.97948E-05-5.82746E-06 2.95122E-18-1.36457E-18
 -1      2772 1.19366E-04-2.39514E-05-4.11165E-05-3.31621E-06 3.61974E-18-8.67679E-19
 -1      2773 1.13425E-04-3.92252E-05-3.17425E-05 3.19425E-06-2.02055E-19-9.06497E-19
 -1      2774 1.15067E-04-4.01664E-05-3.21621E-05 1.29764E-06-6.85981E-21-9.82093E-19
 -1      2775 1.17185E-04-4.22458E-05-3.22993E-05 2.11142E-06-9.81102E-20-1.44797E-18
 -1      2776 1.08839E-04-3.61680E-05-3.10821E-05 6.14258E-06-2.20258E-19-6.44026E-20
 -1      2777 1.10618E-04-3.76105E-05-3.13264E-05 4.84934E-06-2.68026E-19-3.95639E-19
 -1      2778 1.11379E-04-3.93041E-05-3.09846E-05 6.27128E-06-3.20215E-19-1.02365E-18
 -1      2779 1.05022E-04-3.32371E-05-3.07231E-05 7.47589E-06 4.30684E-19 7.83456E-20
 -1      2780 1.06578E-04-3.45530E-05-3.08876E-05 6.85548E-06 2.87422E-19-9.44756E-20
 -1      2781 1.06291E-04-3.55650E-05-3.03834E-05 8.40172E-06-1.50380E-19-4.59788E-19
 -1      2782 1.02221E-04-3.10450E-05-3.04794E-05 7.65693E-06 6.73887E-19-1.47069E-19
 -1      2783 1.03460E-04-3.20246E-05-3.06201E-05 7.54593E-06 5.73410E-19 1.45976E-19
 -1      2784 1.02495E-04-3.23343E-05-3.01202E-05 8.91438E-06 4.24414E-19-1.22414E-19
 -1      2785 1.00273E-04-2.96260E-05-3.02653E-05 7.15814E-06 3.10174E-19 3.42611E-19
 -1      2786 1.01220E-04-3.02690E-05-3.04032E-05 7.36461E-06 5.88325E-19 4.15206E-19
 -1      2787 9.99760E-05-3.00962E-05-2.99798E-05 8.51201E-06 4.19648E-19 3.84808E-19
 -1      2788 9.89295E-05-2.87999E-05-3.00512E-05 6.32295E-06-7.05943E-19 6.83384E-19
 -1      2789 9.96510E-05-2.91877E-05-3.01894E-05 6.69619E-06-2.37832E-19 3.44880E-19
 -1      2790 9.83875E-05-2.87477E-05-2.98636E-05 7.64829E-06-1.06672E-19 9.03781E-19
 -1      2791 9.79863E-05-2.83684E-05-2.98359E-05 5.36818E-06-3.37311E-19 9.70933E-19
 -1      2792 9.85420E-05-2.85856E-05-2.99700E-05 5.80496E-06-4.20851E-19 7.44255E-19
 -1      2793 9.73993E-05-2.80362E-05-2.97370E-05 6.60005E-06-6.63432E-19 6.80256E-19
 -1      2794 9.73036E-05-2.81768E-05-2.96272E-05 4.42210E-06-1.04421E-18 1.48510E-18
 -1      2795 9.77371E-05-2.82884E-05-2.97519E-05 4.85876E-06-7.18107E-19 1.21666E-18
 -1      2796 9.67747E-05-2.77292E-05-2.95966E-05 5.52618E-06-8.34422E-19 9.41618E-19
 -1      2797 9.67942E-05-2.81205E-05-2.94337E-05 3.55415E-06-2.19612E-19 7.67438E-19
 -1      2798 9.71350E-05-2.81701E-05-2.95451E-05 3.95559E-06-8.22260E-19 1.35042E-18
 -1      2799 9.63639E-05-2.76562E-05-2.94498E-05 4.51507E-06-6.42399E-19 8.66511E-19
 -1      2800 9.64055E-05-2.81345E-05-2.92611E-05 2.79620E-06 4.50756E-19 2.99640E-19
 -1      2801 9.66736E-05-2.81495E-05-2.93572E-05 3.14624E-06 2.43741E-19 5.30503E-19
 -1      2802 9.60793E-05-2.77055E-05-2.93057E-05 3.61170E-06 8.50942E-20 1.66912E-19
 -1      2803 9.61052E-05-2.81807E-05-2.91123E-05 2.15714E-06 4.71652E-19-1.44501E-19
 -1      2804 9.63150E-05-2.81776E-05-2.91928E-05 2.45123E-06 7.36598E-19 1.35534E-19
 -1      2805 9.58719E-05-2.78100E-05-2.91715E-05 2.83391E-06 6.77606E-19 2.68877E-19
 -1      2806 9.58726E-05-2.82384E-05-2.89876E-05 1.63274E-06 3.01858E-19 1.44018E-19
 -1      2807 9.60353E-05-2.82265E-05-2.90534E-05 1.87294E-06 5.22501E-19-2.71222E-20
 -1      2808 9.57148E-05-2.79317E-05-2.90519E-05 2.18309E-06 4.07767E-19-2.78218E-19
 -1      2809 9.56933E-05-2.82966E-05-2.88855E-05 1.21200E-06 1.10288E-18 4.30064E-20
 -1      2810 9.58179E-05-2.82812E-05-2.89381E-05 1.40370E-06 5.16090E-19 1.92496E-19
 -1      2811 9.55934E-05-2.80506E-05-2.89486E-05 1.65117E-06 3.92088E-19-4.60956E-19
 -1      2812 9.55566E-05-2.83500E-05-2.88037E-05 8.81043E-07 1.42304E-18 5.42813E-19
 -1      2813 9.56505E-05-2.83339E-05-2.88450E-05 1.03097E-06 1.48084E-18 5.94256E-19
 -1      2814 9.54988E-05-2.81577E-05-2.88620E-05 1.22524E-06 1.15926E-18-7.92198E-20
 -1      2815 9.54539E-05-2.83965E-05-2.87395E-05 6.25478E-07 4.85620E-19 1.48471E-18
 -1      2816 9.55234E-05-2.83813E-05-2.87712E-05 7.40543E-07 7.52167E-19 9.25491E-19
 -1      2817 9.54255E-05-2.82493E-05-2.87911E-05 8.90491E-07 8.84378E-19 7.38770E-19
 -1      2818 9.53781E-05-2.84357E-05-2.86901E-05 4.31679E-07 4.63540E-19 2.21101E-18
 -1      2819 9.54285E-05-2.84221E-05-2.87140E-05 5.18364E-07 5.78782E-19 2.04546E-18
 -1      2820 9.53693E-05-2.83253E-05-2.87343E-05 6.32081E-07 4.50236E-19 1.13080E-18
 -1      2821 9.53233E-05-2.84679E-05-2.86526E-05 2.87446E-07 7.36200E-19 2.32472E-18
 -1      2822 9.53590E-05-2.84561E-05-2.86703E-05 3.51502E-07 9.46381E-19 2.26014E-18
 -1      2823 9.53268E-05-2.83867E-05-2.86896E-05 4.36135E-07 7.69638E-19 2.15175E-18
 -1      2824 9.52846E-05-2.84938E-05-2.86249E-05 1.82253E-07-7.73844E-20 2.19451E-18
 -1      2825 9.53092E-05-2.84839E-05-2.86377E-05 2.28597E-07 4.46869E-19 2.10417E-18
 -1      2826 9.52953E-05-2.84354E-05-2.86550E-05 2.90298E-07 5.65982E-19 2.13291E-18
 -1      2827 9.52583E-05-2.85142E-05-2.86047E-05 1.07270E-07 8.11190E-21 1.71064E-18
 -1      2828 9.52745E-05-2.85061E-05-2.86137E-05 1.39997E-07 6.92126E-20 2.10310E-18
 -1      2829 9.52725E-05-2.84733E-05-2.86288E-05 1.83932E-07 5.90696E-19 1.83120E-18
 -1      2830 9.52410E-05-2.85302E-05-2.85904E-05 5.52572E-08 1.35855E-19 4.80864E-19
 -1      2831 9.52512E-05-2.85236E-05-2.85966E-05 7.76996E-08 2.52356E-19 1.19051E-18
 -1      2832 9.52564E-05-2.85024E-05-2.86094E-05 1.08118E-07 4.85598E-19 1.71383E-18
 -1      2833 9.52303E-05-2.85424E-05-2.85806E-05 2.03951E-08 1.02680E-18-6.44339E-19
 -1      2834 9.52362E-05-2.85371E-05-2.85847E-05 3.52133E-08 8.40136E-20-4.72173E-19
 -1      2835 9.52455E-05-2.85242E-05-2.85952E-05 5.55388E-08 8.22699E-19 1.18429E-18
 -1      2836 9.52243E-05-2.85516E-05-2.85741E-05-1.91321E-09 7.18612E-19 1.52756E-19
 -1      2837 9.52272E-05-2.85475E-05-2.85766E-05 7.36815E-09 8.01248E-19-2.45178E-20
 -1      2838 9.52383E-05-2.85403E-05-2.85851E-05 2.03098E-08 5.05400E-19 2.03987E-19
 -1      2839 9.52215E-05-2.85583E-05-2.85699E-05-1.52352E-08 4.74832E-19 7.73055E-19
 -1      2840 9.52225E-05-2.85552E-05-2.85714E-05-9.88124E-09 8.53711E-19 1.52652E-19
 -1      2841 9.52339E-05-2.85520E-05-2.85782E-05-2.21841E-09 2.12299E-19 7.26751E-19
 -1      2842 9.52208E-05-2.85632E-05-2.85675E-05-2.22925E-08-8.58055E-19 7.45811E-19
 -1      2843 9.52205E-05-2.85609E-05-2.85682E-05-1.96463E-08-1.79076E-19 5.55101E-19
 -1      2844 9.52314E-05-2.85602E-05-2.85735E-05-1.56558E-08-7.67071E-20 1.22004E-18
 -1      2845 9.52215E-05-2.85667E-05-2.85663E-05-2.51246E-08-9.18134E-19 2.69270E-19
 -1      2846 9.52204E-05-2.85649E-05-2.85665E-05-2.42787E-08-4.64414E-19 5.12632E-19
 -1      2847 9.52303E-05-2.85659E-05-2.85706E-05-2.27572E-08-4.97262E-19 1.70404E-18
 -1      2848 9.52228E-05-2.85691E-05-2.85659E-05-2.52300E-08-2.55852E-19 9.16667E-20
 -1      2849 9.52214E-05-2.85678E-05-2.85658E-05-2.55226E-08-9.05902E-19 1.65027E-20
 -1      2850 9.52301E-05-2.85697E-05-2.85688E-05-2.55869E-08-6.79337E-19 1.61380E-19
 -1      2851 9.52246E-05-2.85706E-05-2.85660E-05-2.36863E-08 4.50240E-19 2.69111E-19
 -1      2852 9.52230E-05-2.85697E-05-2.85657E-05-2.46459E-08 3.56207E-19-3.31789E-19
 -1      2853 9.52304E-05-2.85720E-05-2.85679E-05-2.56621E-08 2.36942E-19-1.47831E-18
 -1      2854 9.52265E-05-2.85716E-05-2.85664E-05-2.12484E-08 5.10523E-19-2.64664E-19
 -1      2855 9.52249E-05-2.85710E-05-2.85660E-05-2.25481E-08 8.70291E-19 2.67173E-19
 -1      2856 9.52310E-05-2.85734E-05-2.85676E-05-2.40732E-08 5.63221E-19-1.47432E-18
 -1      2857 9.52283E-05-2.85722E-05-2.85669E-05-1.84286E-08-4.77313E-19 5.78459E-19
 -1      2858 9.52269E-05-2.85717E-05-2.85665E-05-1.98496E-08 1.63594E-19 5.36963E-19
 -1      2859 9.52318E-05-2.85741E-05-2.85676E-05-2.15841E-08-2.49594E-20 4.19921E-21
 -1      2860 9.52300E-05-2.85724E-05-2.85675E-05-1.55599E-08-3.22184E-19-3.90343E-19
 -1      2861 9.52287E-05-2.85722E-05-2.85671E-05-1.69627E-08-9.79436E-19 2.00981E-19
 -1      2862 9.52326E-05-2.85743E-05-2.85679E-05-1.87126E-08-1.76099E-19-6.50779E-19
 -1      2863 9.52314E-05-2.85725E-05-2.85681E-05-1.28459E-08 1.27117E-19 6.12045E-19
 -1      2864 9.52303E-05-2.85724E-05-2.85677E-05-1.41478E-08-6.14830E-19-1.11147E-19
 -1      2865 9.52334E-05-2.85742E-05-2.85682E-05-1.57953E-08-5.77054E-19-2.39723E-20
 -1      2866 9.52327E-05-2.85725E-05-2.85687E-05-1.03982E-08 5.81726E-19 1.10026E-18
 -1      2867 9.52318E-05-2.85724E-05-2.85683E-05-1.15565E-08 1.18432E-18 1.92197E-18
 -1      2868 9.52341E-05-2.85740E-05-2.85686E-05-1.30373E-08-2.23247E-19 2.58194E-18
 -1      2869 9.52338E-05-2.85724E-05-2.85692E-05-8.26565E-09-1.35006E-18 1.82338E-18
 -1      2870 9.52330E-05-2.85724E-05-2.85689E-05-9.26461E-09-8.69984E-21 9.80062E-19
 -1      2871 9.52348E-05-2.85737E-05-2.85690E-05-1.05512E-08 5.01759E-19 2.50003E-18
 -1      2872 9.52346E-05-2.85723E-05-2.85696E-05-6.45498E-09-1.12456E-18 2.20287E-18
 -1      2873 9.52340E-05-2.85723E-05-2.85693E-05-7.29683E-09-1.30225E-18 1.55939E-18
 -1      2874 9.52353E-05-2.85733E-05-2.85694E-05-8.38556E-09-1.22392E-18 2.30602E-18
 -1      2875 9.52353E-05-2.85721E-05-2.85699E-05-4.94634E-09-1.25244E-18 1.55328E-18
 -1      2876 9.52348E-05-2.85721E-05-2.85697E-05-5.64434E-09-8.29337E-19 1.81273E-18
 -1      2877 9.52358E-05-2.85730E-05-2.85698E-05-6.54685E-09-9.08184E-19 2.42054E-18
 -1      2878 9.52359E-05-2.85720E-05-2.85702E-05-3.70304E-09-2.17003E-19 1.21142E-18
 -1      2879 9.52355E-05-2.85720E-05-2.85701E-05-4.27686E-09-1.04288E-18 1.60533E-18
 -1      2880 9.52361E-05-2.85727E-05-2.85700E-05-5.01436E-09-1.08385E-18 1.58025E-18
 -1      2881 9.52364E-05-2.85719E-05-2.85705E-05-2.68806E-09 2.47027E-19 1.65754E-18
 -1      2882 9.52361E-05-2.85720E-05-2.85703E-05-3.15381E-09 1.16258E-19 1.78284E-18
 -1      2883 9.52365E-05-2.85725E-05-2.85703E-05-3.75283E-09-4.08833E-22 1.47053E-18
 -1      2884 9.52367E-05-2.85720E-05-2.85706E-05-1.96282E-09 1.16649E-18 1.99631E-19
 -1      2885 9.52365E-05-2.85720E-05-2.85705E-05-2.35786E-09 8.18853E-19 4.28288E-19
 -1      2886 9.52368E-05-2.85724E-05-2.85705E-05-2.83366E-09 1.09082E-18-7.31813E-19
 -1      2887 9.52371E-05-2.85724E-05-2.85706E-05-2.17153E-09 9.44881E-19-2.51692E-19
 -1      2888 9.52393E-05-2.85750E-05-2.85704E-05-2.31176E-10 8.04084E-19 1.01277E-18
 -1      2889 9.52393E-05-2.85749E-05-2.85704E-05-6.28021E-10 1.52221E-18-4.05465E-19
 -1      2890 9.52368E-05-2.85722E-05-2.85705E-05 2.32194E-09 4.06511E-19 2.84051E-18
 -1      2891 9.52369E-05-2.85721E-05-2.85706E-05 2.04338E-09-2.54783E-20 3.06937E-18
 -1      2892 9.52371E-05-2.85724E-05-2.85706E-05 2.14236E-09-1.20100E-18 1.39505E-18
 -1      2893 9.52370E-05-2.85726E-05-2.85705E-05 2.73140E-09-2.01536E-19 3.21670E-18
 -1      2894 9.52388E-05-2.85743E-05-2.85705E-05-1.76593E-09 7.34108E-19-3.55677E-18
 -1      2895 9.52385E-05-2.85741E-05-2.85705E-05-2.00080E-09 7.69082E-19-4.43344E-18
 -1      2896 9.52393E-05-2.85749E-05-2.85704E-05 6.42209E-10-2.95409E-19-7.83306E-20
 -1      2897 9.52393E-05-2.85750E-05-2.85704E-05 2.46100E-10-5.90814E-20 3.53014E-19
 -1      2898 9.52397E-05-2.85753E-05-2.85705E-05 8.66740E-12 6.28691E-19-3.32557E-19
 -1      2899 9.52391E-05-2.85748E-05-2.85704E-05-1.07319E-09 1.43287E-18-2.47772E-19
 -1      2900 9.52390E-05-2.85746E-05-2.85705E-05-1.41393E-09 6.65880E-19-1.91273E-18
 -1      2901 9.52391E-05-2.85748E-05-2.85705E-05-1.80853E-09 8.92776E-19-2.25252E-18
 -1      2902 9.52395E-05-2.85752E-05-2.85705E-05-9.65520E-10 1.01236E-18-2.98680E-19
 -1      2903 1.11675E-04-4.80305E-05-2.74310E-05 2.99752E-05-1.29480E-18-1.74381E-18
 -1      2904 1.00073E-04-4.35613E-05-2.38832E-05 3.51172E-05-2.14850E-18-5.00477E-19
 -1      2905 9.52390E-05-2.85746E-05-2.85705E-05 1.41336E-09 3.23341E-19-1.59315E-18
 -1      2906 9.52391E-05-2.85748E-05-2.85704E-05 1.07922E-09-6.72221E-19 1.28234E-19
 -1      2907 9.52395E-05-2.85752E-05-2.85705E-05 9.73602E-10 2.08741E-19 3.93749E-22
 -1      2908 9.52385E-05-2.85741E-05-2.85705E-05 1.99899E-09 9.19068E-19-1.34103E-18
 -1      2909 9.52388E-05-2.85743E-05-2.85705E-05 1.76461E-09 1.02328E-18-2.10106E-18
 -1      2910 9.52391E-05-2.85748E-05-2.85705E-05 1.80836E-09-5.90572E-20-7.93580E-19
 -1      2911 9.52379E-05-2.85734E-05-2.85705E-05 2.29326E-09-3.33425E-19 1.44814E-18
 -1      2912 9.52382E-05-2.85737E-05-2.85705E-05 2.20867E-09 2.54984E-19 4.55188E-21
 -1      2913 9.52385E-05-2.85741E-05-2.85705E-05 2.40371E-09 5.42475E-19-1.08916E-18
 -1      2914 9.52374E-05-2.85728E-05-2.85706E-05 2.21832E-09-1.23184E-18 2.56263E-18
 -1      2915 1.34585E-04-3.22200E-05-4.44428E-05-1.17901E-06 4.50600E-18-2.72469E-18
 -1      2916 1.34853E-04-4.00142E-05-4.06874E-05 7.63699E-07 3.48480E-18-3.37479E-18
 -1      2917 8.40173E-05-3.58476E-05-2.06982E-05 3.84907E-05-2.36682E-18 7.31254E-19
 -1      2918 6.84797E-05-2.72637E-05-1.70173E-05 3.71152E-05-2.33453E-18 2.48837E-18
 -1      2919 6.82693E-05-2.81051E-05-1.67881E-05-3.81893E-05 3.48459E-18 2.68107E-18
 -1      2920 8.45932E-05-3.72147E-05-2.04378E-05-4.00874E-05 3.40401E-18 1.26388E-18
 -1      2921 1.33302E-04-3.44146E-05-4.26892E-05 1.90381E-05 2.78801E-18 1.84516E-18
 -1      2922 1.33326E-04-2.79805E-05-4.57772E-05 2.25685E-05 3.86025E-18 2.09556E-18
 -1      2923 1.21945E-04-1.12156E-05-4.80281E-05-7.28477E-06-4.56297E-18-2.12439E-18
 -1      2924 1.22825E-04-1.13656E-05-4.82051E-05-1.26922E-05-4.69976E-18-1.43861E-18
 -1      2925 1.26547E-04-3.41546E-05-3.96640E-05 2.39811E-05 1.89939E-18 3.05781E-18
 -1      2926 1.27765E-04-3.59531E-05-3.98809E-05 2.24174E-05 1.64481E-18 2.63386E-18
 -1      2927 1.27619E-04-3.78681E-05-3.84398E-05 1.55015E-05 9.30439E-19 1.89630E-18
 -1      2928 1.29012E-04-3.83797E-05-3.89410E-05 1.21004E-05 1.51217E-18 1.41095E-18
 -1      2929 1.27469E-04-3.25712E-05-4.05584E-05 2.49076E-05 2.21309E-18 3.25393E-18
 -1      2930 1.17086E-04-2.63967E-05-3.89569E-05 1.55406E-05 2.38546E-18 3.49150E-18
 -1      2931 1.20171E-04-2.91323E-05-3.91127E-05 1.89393E-05 2.42532E-18 3.87318E-18
 -1      2932 1.21797E-04-2.89676E-05-3.98493E-05 2.11151E-05 2.41754E-18 3.48755E-18
 -1      2933 1.30694E-04-2.17634E-05-4.69680E-05 2.23760E-05 4.35904E-18 2.01763E-18
 -1      2934 1.27846E-04-1.69612E-05-4.81237E-05 1.85531E-05 4.95355E-18 1.44544E-18
 -1      2935 1.01817E-04-4.43568E-05-2.41848E-05-3.48489E-05 3.52228E-18 3.56416E-20
 -1      2936 1.16053E-04-4.91631E-05-2.90167E-05-2.76172E-05 2.48456E-18-6.40436E-19
 -1      2937 1.25927E-04-1.33343E-05-4.87695E-05 1.26228E-05 5.48708E-18 6.16719E-19
 -1      2938 1.26532E-04-1.39162E-05-4.87796E-05 5.70070E-06 5.66009E-18-3.43975E-19
 -1      2939 1.24822E-04-1.97848E-05-4.55064E-05 1.64437E-06-3.17246E-18-3.36807E-18
 -1      2940 1.23029E-04-1.38287E-05-4.73081E-05-2.55070E-06-4.16317E-18-2.74272E-18
 -1      2941 1.16347E-04-2.59415E-05-3.88766E-05-1.97163E-05-2.39747E-18-5.40104E-19
 -1      2942 1.14191E-04-2.36980E-05-3.87862E-05-1.64494E-05-2.69844E-18-6.88499E-19
 -1      2943 1.14695E-04-2.05591E-05-4.04860E-05-1.58537E-05-3.10120E-18-9.74750E-19
 -1      2944 1.25766E-04-4.88966E-05-3.27436E-05-1.64252E-05 1.69256E-18-2.00429E-18
 -1      2945 1.29877E-04-4.64630E-05-3.61985E-05-1.03843E-05 4.80202E-19-2.57064E-18
 -1      2946 1.18976E-04-2.82993E-05-3.90673E-05-2.29661E-05-1.82095E-18-5.78106E-19
 -1      2947 1.17723E-04-2.73344E-05-3.87342E-05-2.14961E-05-2.08960E-18-4.01649E-19
 -1      2948 1.18499E-04-2.54814E-05-3.98917E-05-2.17033E-05-2.32560E-18-6.00414E-19
 -1      2949 1.20007E-04-2.84538E-05-3.92533E-05-2.31844E-05-1.40547E-18-5.54118E-19
 -1      2950 4.34476E-05-1.23404E-05-1.28755E-05-2.44552E-05 1.56950E-18 5.07161E-18
 -1      2951 5.45193E-05-1.95992E-05-1.46484E-05-3.40936E-05 2.60770E-18 3.90249E-18
 -1      2952 1.24130E-04-1.79410E-05-4.58779E-05 2.29410E-06 5.10327E-18-8.23634E-19
 -1      2953 1.15894E-04-2.42824E-05-3.92744E-05 1.08768E-05 2.74140E-18 2.73345E-18
 -1      2954 1.17480E-04-2.30531E-05-4.05669E-05 1.30783E-05 3.08050E-18 2.34209E-18
 -1      2955 1.14983E-04-2.34129E-05-3.92618E-05 6.74892E-06 3.01368E-18 2.00449E-18
 -1      2956 1.24475E-04-2.10389E-05-4.46042E-05-2.15599E-05-3.68883E-18 1.04238E-19
 -1      2957 1.28826E-04-2.52406E-05-4.46628E-05-1.99271E-05-3.62636E-18 5.85935E-19
 -1      2958 1.23371E-04-1.72085E-05-4.58082E-05 1.52633E-05 4.61040E-18 1.39633E-18
 -1      2959 1.16932E-04-2.05916E-05-4.15763E-05 2.25165E-06 3.86236E-18 4.07827E-19
 -1      2960 4.32241E-05-1.01828E-05-1.40229E-05 1.84316E-05-1.07626E-18 4.70844E-18
 -1      2961 3.54055E-05-7.33406E-06-1.13732E-05 1.33185E-05-4.43369E-19 5.84072E-18
 -1      2962 3.69755E-05-5.90686E-06-1.29053E-05 4.18156E-06 1.70465E-20 5.51080E-18
 -1      2963 9.52382E-05-2.85737E-05-2.85705E-05-2.20633E-09 2.33973E-19-4.27140E-18
 -1      2964 9.52379E-05-2.85734E-05-2.85705E-05-2.28936E-09-5.40427E-19-2.17582E-18
 -1      2965 9.52385E-05-2.85741E-05-2.85705E-05-2.40753E-09 1.90162E-19-3.66362E-18
 -1      2966 1.28714E-04-4.23922E-05-3.72057E-05-2.74281E-06 2.22240E-19-3.07198E-18
 -1      2967 4.01482E-05-7.25444E-06-1.36841E-05-1.02288E-05 5.16981E-19 5.21857E-18
 -1      2968 4.09516E-05-9.26720E-06-1.29527E-05-1.83914E-05 1.00236E-18 5.40206E-18
 -1      2969 5.14124E-05-1.30154E-05-1.61009E-05-2.18967E-05 1.26076E-18 4.08238E-18
 -1      2970 1.32175E-04-4.40356E-05-3.77247E-05 2.94168E-06 2.01070E-18-3.53001E-18
 -1      2971 9.52376E-05-2.85731E-05-2.85705E-05-2.33188E-09-2.04738E-19-9.72188E-19
 -1      2972 9.52373E-05-2.85727E-05-2.85706E-05-2.26854E-09 1.07039E-19-3.01608E-19
 -1      2973 9.52372E-05-2.85727E-05-2.85705E-05-2.59143E-09 1.30136E-18-1.15483E-18
 -1      2974 9.52379E-05-2.85734E-05-2.85705E-05-2.64520E-09-2.66077E-19-1.64969E-18
 -1      2975 9.52374E-05-2.85729E-05-2.85705E-05 2.66884E-09-1.36503E-18 1.91715E-18
 -1      2976 9.52377E-05-2.85731E-05-2.85705E-05 2.44780E-09-6.46295E-19 1.94788E-18
 -1      2977 9.52379E-05-2.85735E-05-2.85705E-05 2.76960E-09-7.33450E-19 1.08175E-18
 -1      2978 9.52373E-05-2.85730E-05-2.85704E-05 2.99646E-09-5.70817E-19 3.06160E-18
 -1      2979 9.33639E-05-3.87963E-05-2.30935E-05 3.34598E-05-2.83057E-18-1.90582E-20
 -1      2980 1.29428E-04-2.94146E-05-4.30880E-05-3.47682E-06 4.02425E-18-2.67678E-18
 -1      2981 6.26996E-05-2.20604E-05-1.69254E-05 3.23131E-05-2.09895E-18 2.68245E-18
 -1      2982 9.61399E-05-4.07244E-05-2.34329E-05-3.39249E-05 3.40867E-18 5.40592E-19
 -1      2983 1.20971E-04-1.39393E-05-4.61151E-05-1.50831E-05-4.29393E-18-1.17086E-18
 -1      2984 1.28928E-04-2.63889E-05-4.42058E-05 2.35899E-05 3.39406E-18 2.50478E-18
 -1      2985 1.20286E-04-5.03328E-05-2.97794E-05 2.25950E-05-8.79379E-19-2.54883E-18
 -1      2986 1.14157E-04-4.75112E-05-2.82987E-05 2.35562E-05-1.86231E-18-2.48612E-18
 -1      2987 1.24483E-04-5.06157E-05-3.22295E-05 1.42268E-05-3.47102E-19-3.31555E-18
 -1      2988 1.18947E-04-1.46310E-05-4.50471E-05-4.20387E-06-3.76305E-18-2.39983E-18
 -1      2989 1.19623E-04-4.85317E-05-3.04162E-05-1.94001E-05 2.33220E-18-1.43683E-18
 -1      2990 1.32916E-04-3.70384E-05-4.15960E-05 1.90083E-05 2.18257E-18 1.92382E-18
 -1      2991 1.30169E-04-3.27504E-05-4.20080E-05 2.43058E-05 2.35041E-18 2.89262E-18
 -1      2992 6.74636E-05-2.45550E-05-1.79226E-05-3.33589E-05 2.86752E-18 2.66339E-18
 -1      2993 1.29003E-04-2.75556E-05-4.39761E-05-1.82062E-05-3.30618E-18 7.86576E-19
 -1      2994 1.27945E-04-3.23846E-05-4.11058E-05-1.41027E-05-2.04648E-18 8.82450E-19
 -1      2995 1.25883E-04-2.75822E-05-4.22909E-05-2.10160E-05-2.58610E-18 4.50410E-19
 -1      2996 1.20712E-04-1.88726E-05-4.40713E-05-2.00103E-05-3.62705E-18-6.22715E-19
 -1      2997 1.21385E-04-2.27512E-05-4.25696E-05-2.12137E-05-3.13439E-18-2.57313E-19
 -1      2998 1.08651E-04-3.84582E-05-2.99737E-05 1.03416E-05-8.31932E-19-1.10402E-18
 -1      2999 1.11822E-04-4.06290E-05-3.04355E-05 8.84017E-06-7.88541E-19-1.44815E-18
 -1      3000 1.23020E-04-3.12465E-05-3.94731E-05-1.85237E-05-8.68447E-19 4.46704E-19
 -1      3001 1.21781E-04-4.61603E-05-3.22547E-05 6.90313E-06-5.10033E-19-3.03291E-18
 -1      3002 1.24436E-04-4.49581E-05-3.39699E-05 3.97599E-06 2.65221E-19-3.09712E-18
 -1      3003 1.24489E-04-4.35208E-05-3.47210E-05-2.97323E-06 5.09384E-19-3.09135E-18
 -1      3004 1.25721E-04-3.82395E-05-3.79143E-05 2.28842E-06-3.38628E-19-3.57533E-18
 -1      3005 1.15929E-04-1.93053E-05-4.17039E-05 7.55690E-07-2.70002E-18-2.83089E-18
 -1      3006 1.17273E-04-2.39534E-05-4.02650E-05 3.74867E-06-2.03664E-18-3.00697E-18
 -1      3007 1.19295E-04-3.43580E-05-3.64520E-05 4.72773E-06-6.25719E-19-3.17553E-18
 -1      3008 1.19980E-04-3.85676E-05-3.49819E-05 4.11390E-06-2.91671E-19-3.11432E-18
 -1      3009 1.18219E-04-4.06224E-05-3.33117E-05 1.06739E-06-9.01627E-22-2.57321E-18
 -1      3010 1.17099E-04-4.17823E-05-3.21964E-05-1.01735E-06 2.21820E-19-2.62022E-18
 -1      3011 1.20521E-04-4.20069E-05-3.37134E-05-4.01233E-07 2.80553E-19-3.02548E-18
 -1      3012 1.13937E-04-4.10939E-05-3.12240E-05-3.43392E-06 2.80308E-19-1.86838E-18
 -1      3013 1.11808E-04-4.02761E-05-3.05487E-05-5.30904E-06 3.77615E-19-1.75504E-18
 -1      3014 1.14905E-04-4.26750E-05-3.10735E-05-5.82287E-06 6.88277E-19-1.95172E-18
 -1      3015 1.08684E-04-3.84458E-05-3.00895E-05-6.48960E-06 4.05917E-19-1.40899E-18
 -1      3016 1.06425E-04-3.68705E-05-2.97408E-05-7.61478E-06 1.95413E-19-1.21633E-18
 -1      3017 1.08376E-04-3.94923E-05-2.96799E-05-9.09778E-06 4.82289E-19-9.64147E-19
 -1      3018 1.04064E-04-3.50271E-05-2.95631E-05-7.86326E-06 2.64508E-19-1.02958E-18
 -1      3019 1.02176E-04-3.34906E-05-2.94011E-05-8.32017E-06 1.47170E-19-8.81227E-19
 -1      3020 1.03017E-04-3.53273E-05-2.91081E-05-9.96498E-06 3.67643E-19-6.40206E-19
 -1      3021 1.00607E-04-3.20461E-05-2.93585E-05-8.06723E-06 9.21049E-20-2.81255E-19
 -1      3022 9.92251E-05-3.08537E-05-2.92885E-05-8.07706E-06 2.22990E-19-3.19838E-20
 -1      3023 9.92653E-05-3.18759E-05-2.89389E-05-9.56907E-06 6.08843E-19-1.78800E-19
 -1      3024 9.82868E-05-2.98824E-05-2.92964E-05-7.60459E-06 1.80831E-19-1.11485E-20
 -1      3025 9.73529E-05-2.90739E-05-2.92612E-05-7.35851E-06 2.84114E-19 7.85931E-20
 -1      3026 9.69179E-05-2.94549E-05-2.89424E-05-8.59523E-06 1.71203E-19 5.72159E-19
 -1      3027 9.68445E-05-2.84982E-05-2.92774E-05-6.81740E-06 5.85800E-20-1.88932E-19
 -1      3028 9.62438E-05-2.80080E-05-2.92487E-05-6.44403E-06-1.49880E-19-3.53658E-19
 -1      3029 9.55832E-05-2.79605E-05-2.89938E-05-7.44525E-06 5.31239E-20 5.64793E-19
 -1      3030 9.60046E-05-2.77182E-05-2.92563E-05-5.90616E-06 5.17321E-20-5.13767E-19
 -1      3031 9.56291E-05-2.74577E-05-2.92234E-05-5.48469E-06-1.38708E-19-3.99017E-19
 -1      3032 9.49047E-05-2.71570E-05-2.90379E-05-6.29901E-06-1.28782E-19 2.94620E-20
 -1      3033 9.55468E-05-2.73560E-05-2.92185E-05-4.98380E-06-3.72262E-19-1.70386E-19
 -1      3034 9.53147E-05-2.72469E-05-2.91796E-05-4.56148E-06-3.56695E-19-6.32575E-19
 -1      3035 9.46215E-05-2.68201E-05-2.90561E-05-5.23254E-06-7.51853E-20 1.68301E-19
 -1      3036 9.53168E-05-2.72587E-05-2.91635E-05-4.11282E-06-1.28382E-19-3.90168E-19
 -1      3037 9.51729E-05-2.72418E-05-2.91206E-05-3.71701E-06-1.79313E-19-1.38355E-19
 -1      3038 9.45594E-05-2.67740E-05-2.90472E-05-4.27597E-06-2.32219E-19 2.55444E-19
 -1      3039 9.52149E-05-2.73152E-05-2.90969E-05-3.32637E-06 2.30960E-19-4.66113E-19
 -1      3040 9.51242E-05-2.73495E-05-2.90527E-05-2.97173E-06 2.66681E-19-3.64080E-19
 -1      3041 9.46094E-05-2.68933E-05-2.90170E-05-3.43918E-06 5.14154E-20 1.01354E-19
 -1      3042 9.51805E-05-2.74506E-05-2.90249E-05-2.63951E-06 2.87482E-19-3.67855E-19
 -1      3043 9.51216E-05-2.75094E-05-2.89821E-05-2.33239E-06 1.91926E-19-2.21889E-19
 -1      3044 9.47069E-05-2.70941E-05-2.89729E-05-2.72220E-06 3.56620E-19-7.39723E-20
 -1      3045 9.51787E-05-2.76173E-05-2.89531E-05-2.05574E-06 3.34378E-19 4.71669E-20
 -1      3046 9.51391E-05-2.76843E-05-2.89137E-05-1.79707E-06-2.11453E-20 6.84477E-19
 -1      3047 9.48159E-05-2.73238E-05-2.89217E-05-2.11952E-06 5.57411E-19 4.25410E-19
 -1      3048 9.51902E-05-2.77872E-05-2.88856E-05-1.57118E-06-1.62612E-19 1.09785E-18
 -1      3049 9.51625E-05-2.78531E-05-2.88505E-05-1.35847E-06-4.96823E-20 1.40541E-18
 -1      3050 9.49184E-05-2.75511E-05-2.88689E-05-1.62213E-06 1.79634E-19 9.57217E-19
 -1      3051 9.52051E-05-2.79450E-05-2.88246E-05-1.17745E-06-1.74756E-19 1.05189E-18
 -1      3052 9.51852E-05-2.80049E-05-2.87944E-05-1.00628E-06 1.90110E-19 7.00976E-19
 -1      3053 9.50062E-05-2.77589E-05-2.88181E-05-1.21893E-06-3.17334E-19 1.32620E-18
 -1      3054 9.52191E-05-2.80833E-05-2.87715E-05-8.63857E-07-1.00088E-19-2.28343E-19
 -1      3055 9.52043E-05-2.81350E-05-2.87462E-05-7.28869E-07-4.55679E-19-1.08427E-18
 -1      3056 9.50773E-05-2.79396E-05-2.87717E-05-8.97822E-07-6.80178E-19 3.08909E-19
 -1      3057 9.52302E-05-2.81997E-05-2.87266E-05-6.18840E-07-1.52885E-19-1.24585E-18
 -1      3058 9.52191E-05-2.82428E-05-2.87058E-05-5.14452E-07-2.56094E-19-9.54483E-19
 -1      3059 9.51322E-05-2.80911E-05-2.87308E-05-6.46567E-07-2.20702E-19-2.54765E-19
 -1      3060 9.52382E-05-2.82948E-05-2.86894E-05-4.31034E-07 4.75217E-20-7.73988E-19
 -1      3061 9.52298E-05-2.83296E-05-2.86727E-05-3.51884E-07 1.13160E-19 5.37986E-20
 -1      3062 9.51731E-05-2.82144E-05-2.86958E-05-4.53476E-07 1.72608E-19-1.35174E-19
 -1      3063 9.52434E-05-2.83704E-05-2.86593E-05-2.89887E-07 5.25206E-19 3.22441E-19
 -1      3064 9.52371E-05-2.83979E-05-2.86462E-05-2.31097E-07 7.84713E-19 6.66603E-19
 -1      3065 9.52024E-05-2.83123E-05-2.86667E-05-3.07837E-07 8.40393E-19 9.58512E-19
 -1      3066 9.52463E-05-2.84292E-05-2.86355E-05-1.86014E-07 1.16467E-18 8.14191E-19
 -1      3067 9.52417E-05-2.84505E-05-2.86254E-05-1.43314E-07 1.41164E-18 1.05683E-18
 -1      3068 9.52226E-05-2.83883E-05-2.86430E-05-2.00175E-07 1.49764E-18 1.12951E-18
 -1      3069 9.52477E-05-2.84740E-05-2.86170E-05-1.11339E-07 1.07154E-18 5.46137E-19
 -1      3070 9.52442E-05-2.84901E-05-2.86093E-05-8.11083E-08 5.89348E-19 5.36075E-19
 -1      3071 9.52359E-05-2.84462E-05-2.86240E-05-1.22342E-07 1.04452E-18 4.53816E-19
 -1      3072 9.52478E-05-2.85073E-05-2.86028E-05-5.90994E-08-5.93393E-19 8.19205E-19
 -1      3073 9.52453E-05-2.85192E-05-2.85972E-05-3.83439E-08-1.08336E-18 4.10141E-20
 -1      3074 9.52441E-05-2.84892E-05-2.86092E-05-6.75093E-08-1.54178E-19 1.46059E-19
 -1      3075 9.52473E-05-2.85316E-05-2.85923E-05-2.37640E-08-4.38059E-19-5.60974E-20
 -1      3076 9.52455E-05-2.85402E-05-2.85882E-05-1.00640E-08-3.59002E-19-6.26689E-19
 -1      3077 9.52486E-05-2.85204E-05-2.85978E-05-3.00790E-08-7.69116E-19 6.35990E-20
 -1      3078 9.52463E-05-2.85488E-05-2.85845E-05-9.03762E-10-3.87512E-19-1.47759E-19
 -1      3079 9.52451E-05-2.85548E-05-2.85816E-05 7.65679E-09-4.33905E-19 3.21506E-19
 -1      3080 9.52506E-05-2.85426E-05-2.85892E-05-5.55362E-09-1.87328E-19-5.32760E-19
 -1      3081 9.52451E-05-2.85606E-05-2.85790E-05 1.29587E-08-8.75281E-19 1.30305E-18
 -1      3082 9.52443E-05-2.85647E-05-2.85770E-05 1.78676E-08-9.64131E-19 7.96529E-19
 -1      3083 9.52510E-05-2.85578E-05-2.85829E-05 9.61009E-09-1.21342E-19 2.01786E-19
 -1      3084 9.52439E-05-2.85684E-05-2.85752E-05 2.05013E-08-1.22225E-18 1.98297E-19
 -1      3085 9.52434E-05-2.85711E-05-2.85739E-05 2.28917E-08-1.05879E-18-1.75110E-19
 -1      3086 9.52503E-05-2.85678E-05-2.85783E-05 1.81521E-08-1.32647E-18 7.64202E-20
 -1      3087 9.52427E-05-2.85733E-05-2.85726E-05 2.37470E-08-1.43012E-18-1.45082E-18
 -1      3088 9.52424E-05-2.85749E-05-2.85718E-05 2.44646E-08-1.79577E-18-2.05036E-18
 -1      3089 9.52491E-05-2.85741E-05-2.85751E-05 2.21514E-08-2.18828E-18-1.15705E-18
 -1      3090 9.52417E-05-2.85761E-05-2.85709E-05 2.41925E-08-1.16862E-18-2.49385E-18
 -1      3091 9.52415E-05-2.85770E-05-2.85705E-05 2.38554E-08-9.29236E-19-2.74021E-18
 -1      3092 9.52475E-05-2.85777E-05-2.85729E-05 2.31540E-08-1.73997E-18-3.08616E-18
 -1      3093 9.52407E-05-2.85774E-05-2.85700E-05 2.29211E-08-4.92013E-19-1.90602E-18
 -1      3094 9.52407E-05-2.85779E-05-2.85697E-05 2.19699E-08-9.42115E-20-1.70684E-18
 -1      3095 9.52459E-05-2.85794E-05-2.85714E-05 2.22855E-08 1.96344E-20-1.98044E-18
 -1      3096 9.52399E-05-2.85779E-05-2.85694E-05 2.06966E-08 1.68411E-19-1.04910E-18
 -1      3097 9.52399E-05-2.85780E-05-2.85694E-05 1.94364E-08 2.75642E-19-2.18048E-19
 -1      3098 9.52444E-05-2.85799E-05-2.85705E-05 2.03447E-08 9.47397E-19-1.70885E-19
 -1      3099 9.52393E-05-2.85777E-05-2.85692E-05 1.80407E-08 6.15562E-19 2.84270E-19
 -1      3100 9.52393E-05-2.85776E-05-2.85693E-05 1.66755E-08 3.83444E-19 6.31862E-19
 -1      3101 9.52430E-05-2.85797E-05-2.85701E-05 1.78826E-08 5.28990E-19 6.69002E-19
 -1      3102 9.52387E-05-2.85772E-05-2.85692E-05 1.52957E-08 4.44221E-19 1.56419E-18
 -1      3103 9.52388E-05-2.85769E-05-2.85693E-05 1.39548E-08 9.04514E-19 1.85300E-18
 -1      3104 9.52418E-05-2.85790E-05-2.85698E-05 1.52646E-08 1.27442E-18 1.09827E-18
 -1      3105 9.52383E-05-2.85765E-05-2.85694E-05 1.26730E-08 1.08479E-18 2.16007E-18
 -1      3106 9.52384E-05-2.85762E-05-2.85695E-05 1.14325E-08 1.16222E-18 1.76820E-18
 -1      3107 9.52408E-05-2.85780E-05-2.85698E-05 1.27206E-08 1.06987E-18 2.23618E-18
 -1      3108 9.52380E-05-2.85757E-05-2.85695E-05 1.02914E-08 2.24691E-18 1.16183E-18
 -1      3109 9.52380E-05-2.85754E-05-2.85697E-05 9.19009E-09 2.38826E-18 1.21005E-18
 -1      3110 9.52399E-05-2.85770E-05-2.85698E-05 1.03837E-08 1.71066E-18 1.54565E-18
 -1      3111 9.52377E-05-2.85750E-05-2.85698E-05 8.20587E-09 1.91211E-18 1.24748E-18
 -1      3112 9.52378E-05-2.85747E-05-2.85699E-05 7.25710E-09 8.40595E-19 1.46151E-18
 -1      3113 9.52392E-05-2.85761E-05-2.85699E-05 8.32044E-09 1.80194E-18 1.17674E-18
 -1      3114 9.52375E-05-2.85743E-05-2.85700E-05 6.42640E-09 8.27895E-19 1.74055E-18
 -1      3115 9.52376E-05-2.85740E-05-2.85701E-05 5.63007E-09 9.16131E-19 2.36285E-18
 -1      3116 9.52386E-05-2.85752E-05-2.85701E-05 6.54753E-09 1.15896E-18 1.46330E-18
 -1      3117 9.52374E-05-2.85737E-05-2.85702E-05 4.94046E-09 1.22316E-18 2.17565E-18
 -1      3118 9.52375E-05-2.85735E-05-2.85703E-05 4.28602E-09 1.53320E-18 2.79141E-18
 -1      3119 9.52382E-05-2.85744E-05-2.85702E-05 5.06525E-09 1.32153E-18 2.47210E-18
 -1      3120 9.52373E-05-2.85733E-05-2.85703E-05 3.88790E-09 1.01562E-18 3.19612E-18
 -1      3121 9.52374E-05-2.85731E-05-2.85704E-05 3.33155E-09 4.93475E-19 3.27032E-18
 -1      3122 9.52377E-05-2.85734E-05-2.85704E-05 3.26327E-09-4.93711E-19 1.02916E-18
 -1      3123 9.52379E-05-2.85739E-05-2.85703E-05 4.00313E-09 1.71158E-18 1.87655E-18
 -1      3124 1.24655E-04-3.17640E-05-4.01257E-05-5.67676E-06 2.85429E-18-2.42209E-18
 -1      3125 1.14553E-04-4.28826E-05-3.05816E-05 9.62683E-06-8.82727E-19-2.01638E-18
 -1      3126 1.18192E-04-4.42784E-05-3.15461E-05 7.01138E-06-7.93723E-19-2.31157E-18
 -1      3127 1.16182E-04-4.71173E-05-2.98438E-05 1.64303E-05-1.60089E-18-2.69936E-18
 -1      3128 1.10102E-04-4.18618E-05-2.93216E-05 1.45877E-05-1.44671E-18-1.99091E-18
 -1      3129 9.95511E-05-3.06336E-05-2.95045E-05 1.01910E-05 1.23462E-19 1.38094E-19
 -1      3130 1.01160E-04-3.21131E-05-2.95708E-05 1.03592E-05-6.40089E-20 7.97506E-21
 -1      3131 9.74970E-05-2.86404E-05-2.94982E-05 9.06913E-06-1.43609E-19 6.42721E-19
 -1      3132 9.85209E-05-2.95470E-05-2.95382E-05 9.49006E-06 2.91178E-19 3.19118E-19
 -1      3133 9.67459E-05-2.91893E-05-2.89949E-05 1.08656E-05-2.54762E-19 6.28987E-19
 -1      3134 9.63756E-05-2.75714E-05-2.94860E-05 7.80471E-06-3.84861E-19 1.04909E-18
 -1      3135 9.70079E-05-2.80634E-05-2.95297E-05 8.33545E-06-4.55219E-19 8.61642E-19
 -1      3136 9.53168E-05-2.74563E-05-2.91044E-05 9.27298E-06-4.28106E-19 9.30288E-19
 -1      3137 9.57992E-05-2.71069E-05-2.94431E-05 6.55539E-06-7.28813E-19 7.98401E-19
 -1      3138 9.61910E-05-2.73302E-05-2.94973E-05 7.11123E-06-2.30797E-19 9.89901E-19
 -1      3139 9.46948E-05-2.66269E-05-2.91812E-05 7.77157E-06-4.66424E-19 1.24916E-18
 -1      3140 9.55205E-05-2.70015E-05-2.93708E-05 5.39620E-06-7.42858E-19 3.39964E-19
 -1      3141 9.57704E-05-2.70653E-05-2.94332E-05 5.92910E-06-9.67643E-19 1.84374E-19
 -1      3142 9.45081E-05-2.63609E-05-2.92089E-05 6.41986E-06-3.45294E-19 4.84036E-19
 -1      3143 9.53936E-05-2.70890E-05-2.92794E-05 4.36221E-06-5.95993E-19-4.09934E-20
 -1      3144 9.55612E-05-2.70665E-05-2.93449E-05 4.84616E-06-6.37894E-19 5.44939E-20
 -1      3145 9.45327E-05-2.64150E-05-2.91933E-05 5.23062E-06-6.03475E-19-3.55367E-19
 -1      3146 9.53388E-05-2.72658E-05-2.91797E-05 3.46645E-06 2.11080E-19-4.67175E-19
 -1      3147 9.54576E-05-2.72022E-05-2.92439E-05 3.88943E-06-1.20823E-19-3.23186E-19
 -1      3148 9.46426E-05-2.66300E-05-2.91473E-05 4.20223E-06-1.84729E-19-8.44257E-19
 -1      3149 9.53151E-05-2.74716E-05-2.90807E-05 2.70886E-06 8.25149E-19-2.08285E-19
 -1      3150 9.54035E-05-2.73931E-05-2.91401E-05 3.06774E-06 6.24954E-19-3.24528E-19
 -1      3151 9.47730E-05-2.69088E-05-2.90836E-05 3.32713E-06 1.91362E-19-5.35365E-19
 -1      3152 9.53031E-05-2.76737E-05-2.89881E-05 2.08145E-06 4.84775E-19-5.17151E-19
 -1      3153 9.53710E-05-2.75947E-05-2.90408E-05 2.37859E-06 1.00684E-18-1.09212E-19
 -1      3154 9.48940E-05-2.71965E-05-2.90124E-05 2.59449E-06 8.25225E-19-4.77134E-20
 -1      3155 9.52947E-05-2.78565E-05-2.89054E-05 1.57167E-06 6.73340E-19-9.93656E-19
 -1      3156 9.53476E-05-2.77840E-05-2.89507E-05 1.81255E-06 1.71110E-19-9.07040E-19
 -1      3157 9.49946E-05-2.74642E-05-2.89411E-05 1.99114E-06 6.63475E-19-8.64532E-19
 -1      3158 9.52870E-05-2.80138E-05-2.88340E-05 1.16484E-06 6.91026E-19-2.43763E-19
 -1      3159 9.53283E-05-2.79506E-05-2.88718E-05 1.35639E-06 6.23122E-19-1.01142E-18
 -1      3160 9.50729E-05-2.76991E-05-2.88742E-05 1.50238E-06 3.16404E-19-1.28944E-18
 -1      3161 9.52793E-05-2.81445E-05-2.87740E-05 8.45707E-07 5.94818E-19 6.98984E-19
 -1      3162 9.53113E-05-2.80916E-05-2.88050E-05 9.95322E-07 1.09567E-18 6.12168E-19
 -1      3163 9.51312E-05-2.78975E-05-2.88144E-05 1.11290E-06 2.04581E-19-5.62774E-19
 -1      3164 9.52718E-05-2.82506E-05-2.87249E-05 5.99625E-07 9.99653E-20 1.24855E-18
 -1      3165 9.52963E-05-2.82073E-05-2.87496E-05 7.14434E-07 4.41022E-19 1.25659E-18
 -1      3166 9.51730E-05-2.80603E-05-2.87627E-05 8.07610E-07 1.17463E-19 5.23682E-19
 -1      3167 9.52649E-05-2.83349E-05-2.86854E-05 4.13166E-07 3.60810E-19 1.32662E-18
 -1      3168 9.52833E-05-2.83002E-05-2.87048E-05 4.99694E-07 2.57215E-19 1.12798E-18
 -1      3169 9.52021E-05-2.81909E-05-2.87193E-05 5.72284E-07-1.25325E-19 5.29790E-19
 -1      3170 9.52587E-05-2.84006E-05-2.86543E-05 2.74480E-07 8.22462E-19 1.63579E-18
 -1      3171 9.52723E-05-2.83733E-05-2.86693E-05 3.38459E-07 6.87091E-19 1.52665E-18
 -1      3172 9.52216E-05-2.82938E-05-2.86836E-05 3.94014E-07 3.66677E-19 1.49142E-19
 -1      3173 9.52535E-05-2.84510E-05-2.86302E-05 1.73400E-07 2.80822E-19 2.06493E-18
 -1      3174 9.52633E-05-2.84299E-05-2.86416E-05 2.19721E-07 3.40253E-19 1.74549E-18
 -1      3175 9.52341E-05-2.83733E-05-2.86549E-05 2.61448E-07 4.89175E-19 1.23834E-18
 -1      3176 9.52493E-05-2.84890E-05-2.86120E-05 1.01418E-07 7.49604E-19 2.12731E-18
 -1      3177 9.52561E-05-2.84729E-05-2.86204E-05 1.34149E-07 7.88144E-19 2.60265E-18
 -1      3178 9.52418E-05-2.84338E-05-2.86322E-05 1.64860E-07 2.81384E-19 2.14265E-18
 -1      3179 9.52459E-05-2.85170E-05-2.85983E-05 5.15597E-08 1.31758E-18 1.29544E-18
 -1      3180 9.52504E-05-2.85051E-05-2.86044E-05 7.40153E-08 1.27613E-18 1.61284E-18
 -1      3181 9.52460E-05-2.84789E-05-2.86147E-05 9.61114E-08 1.49108E-18 2.04236E-18
 -1      3182 9.52432E-05-2.85374E-05-2.85884E-05 1.82137E-08 1.34942E-19 1.40814E-18
 -1      3183 9.52462E-05-2.85286E-05-2.85927E-05 3.30458E-08 3.15214E-19 1.61515E-18
 -1      3184 9.52479E-05-2.85119E-05-2.86013E-05 4.85279E-08 7.23056E-19 2.42689E-18
 -1      3185 9.52412E-05-2.85518E-05-2.85813E-05-3.05206E-09 3.03967E-19 1.96798E-18
 -1      3186 9.52430E-05-2.85455E-05-2.85843E-05 6.23970E-09 6.47429E-19 1.92582E-18
 -1      3187 9.52483E-05-2.85356E-05-2.85913E-05 1.67396E-08 2.20663E-19 3.24799E-18
 -1      3188 9.52398E-05-2.85617E-05-2.85764E-05-1.56788E-08-4.50552E-19 2.26196E-18
 -1      3189 9.52407E-05-2.85573E-05-2.85783E-05-1.03191E-08-2.47010E-19 2.02436E-18
 -1      3190 9.52479E-05-2.85521E-05-2.85840E-05-3.49704E-09 1.74884E-19 3.25044E-18
 -1      3191 9.52387E-05-2.85683E-05-2.85731E-05-2.22921E-08-2.71658E-19 1.48709E-18
 -1      3192 9.52391E-05-2.85653E-05-2.85743E-05-1.96442E-08 5.05854E-20 2.33360E-18
 -1      3193 9.52469E-05-2.85633E-05-2.85788E-05-1.54772E-08-3.30301E-19 2.92450E-18
 -1      3194 9.52380E-05-2.85724E-05-2.85709E-05-2.48583E-08-1.61875E-19 7.46661E-19
 -1      3195 9.52380E-05-2.85705E-05-2.85717E-05-2.40138E-08-5.00707E-19 9.07867E-19
 -1      3196 9.52457E-05-2.85705E-05-2.85751E-05-2.17147E-08 3.14032E-19 1.33713E-18
 -1      3197 9.52375E-05-2.85748E-05-2.85697E-05-2.48218E-08 9.41777E-19-8.68485E-19
 -1      3198 9.52373E-05-2.85737E-05-2.85701E-05-2.51179E-08 5.78258E-19-1.02874E-19
 -1      3199 9.52444E-05-2.85749E-05-2.85727E-05-2.40919E-08 1.92306E-19 1.28261E-18
 -1      3200 9.52372E-05-2.85761E-05-2.85690E-05-2.32197E-08 3.82132E-19-9.58397E-19
 -1      3201 9.52368E-05-2.85754E-05-2.85692E-05-2.41837E-08 8.49849E-19-1.34507E-18
 -1      3202 9.52432E-05-2.85773E-05-2.85711E-05-2.39908E-08 1.05566E-18-1.17555E-19
 -1      3203 9.52370E-05-2.85765E-05-2.85688E-05-2.07774E-08-5.72965E-19-1.09578E-18
 -1      3204 9.52366E-05-2.85762E-05-2.85687E-05-2.20818E-08-6.74663E-19-1.39056E-18
 -1      3205 9.52420E-05-2.85784E-05-2.85702E-05-2.24032E-08 3.24734E-20-1.53652E-18
 -1      3206 9.52369E-05-2.85764E-05-2.85688E-05-1.79859E-08-1.07458E-19-9.46692E-19
 -1      3207 9.52365E-05-2.85763E-05-2.85686E-05-1.94117E-08-3.08071E-19-1.18719E-18
 -1      3208 9.52410E-05-2.85785E-05-2.85697E-05-2.00221E-08-1.01011E-18-2.51201E-18
 -1      3209 9.52368E-05-2.85760E-05-2.85689E-05-1.51634E-08-1.13361E-18 5.50411E-19
 -1      3210 9.52365E-05-2.85761E-05-2.85687E-05-1.65707E-08-4.38086E-19 7.10124E-20
 -1      3211 9.52402E-05-2.85782E-05-2.85695E-05-1.73160E-08-9.22216E-19-8.59020E-19
 -1      3212 9.52368E-05-2.85754E-05-2.85691E-05-1.25030E-08-1.00211E-19 1.31452E-18
 -1      3213 9.52365E-05-2.85756E-05-2.85690E-05-1.38092E-08-9.79036E-19 6.99989E-19
 -1      3214 9.52395E-05-2.85775E-05-2.85694E-05-1.45879E-08-8.78732E-19 9.35909E-19
 -1      3215 9.52368E-05-2.85749E-05-2.85694E-05-1.01097E-08 5.91633E-19 1.13404E-18
 -1      3216 9.52366E-05-2.85751E-05-2.85692E-05-1.12721E-08 9.13827E-19 1.17799E-18
 -1      3217 9.52389E-05-2.85767E-05-2.85695E-05-1.20213E-08 1.04853E-20-1.29642E-19
 -1      3218 9.52369E-05-2.85743E-05-2.85697E-05-8.02813E-09-8.69285E-19 6.46011E-19
 -1      3219 9.52366E-05-2.85745E-05-2.85695E-05-9.03123E-09-2.57534E-19 1.91599E-18
 -1      3220 9.52384E-05-2.85758E-05-2.85697E-05-9.71543E-09-1.12064E-19-1.88698E-19
 -1      3221 9.52369E-05-2.85737E-05-2.85699E-05-6.26255E-09-9.99105E-19 8.01757E-19
 -1      3222 9.52367E-05-2.85739E-05-2.85698E-05-7.10868E-09-8.92823E-19 7.60002E-19
 -1      3223 9.52381E-05-2.85750E-05-2.85699E-05-7.71201E-09-8.93566E-19-1.10089E-18
 -1      3224 9.52370E-05-2.85733E-05-2.85702E-05-4.79584E-09-7.90381E-19-1.67718E-19
 -1      3225 9.52368E-05-2.85734E-05-2.85700E-05-5.49629E-09-1.11984E-18 2.84787E-19
 -1      3226 9.52378E-05-2.85743E-05-2.85701E-05-6.01381E-09-1.02018E-18-1.34035E-18
 -1      3227 9.52371E-05-2.85729E-05-2.85703E-05-3.58512E-09 6.88607E-19-1.36102E-18
 -1      3228 9.52369E-05-2.85730E-05-2.85702E-05-4.15655E-09 3.50898E-19-9.42723E-19
 -1      3229 9.52376E-05-2.85738E-05-2.85702E-05-4.60819E-09-3.55988E-19-1.91489E-18
 -1      3230 9.52372E-05-2.85728E-05-2.85705E-05-2.88533E-09 2.03998E-18-1.39036E-18
 -1      3231 9.52371E-05-2.85728E-05-2.85704E-05-3.26437E-09 9.93793E-19-9.20818E-19
 -1      3232 9.52376E-05-2.85733E-05-2.85704E-05-3.62401E-09 7.95459E-19-2.17066E-18
 -1      3233 9.52376E-05-2.85732E-05-2.85705E-05-2.97896E-09 6.96003E-19-1.11374E-18
 -1      3234 1.01417E-04-4.19272E-05-2.55232E-05 2.92684E-05-2.57016E-18-1.22918E-18
 -1      3235 8.83438E-05-3.43149E-05-2.29094E-05 3.08770E-05-2.81575E-18-2.13082E-19
 -1      3236 1.03065E-04-3.38498E-05-2.95951E-05 1.08070E-05-2.98738E-19-4.31380E-19
 -1      3237 1.05423E-04-3.59072E-05-2.97622E-05 1.04871E-05-4.71873E-19-5.92524E-19
 -1      3238 1.04475E-04-3.67863E-05-2.91146E-05 1.31982E-05-8.72439E-19-1.05957E-18
 -1      3239 9.95565E-05-3.22500E-05-2.89271E-05 1.23364E-05-5.40444E-19-1.20168E-19
 -1      3240 9.52394E-05-2.85750E-05-2.85705E-05 2.25418E-09 3.35230E-19-1.30299E-18
 -1      3241 9.52397E-05-2.85753E-05-2.85705E-05 1.86692E-09-3.30500E-20 3.43327E-19
 -1      3242 9.52402E-05-2.85757E-05-2.85705E-05 2.70810E-10 7.66621E-19 2.70752E-19
 -1      3243 9.52402E-05-2.85757E-05-2.85705E-05-2.50482E-10 1.02969E-18-6.69760E-19
 -1      3244 9.52386E-05-2.85742E-05-2.85704E-05 2.86501E-09-4.83259E-19-1.19399E-18
 -1      3245 9.52390E-05-2.85746E-05-2.85704E-05 2.63627E-09 9.67838E-20-1.51956E-18
 -1      3246 9.52395E-05-2.85752E-05-2.85704E-05 2.75158E-09-2.00532E-19-1.14886E-18
 -1      3247 9.52399E-05-2.85755E-05-2.85705E-05 1.34594E-09-2.10579E-19-2.77688E-19
 -1      3248 9.52401E-05-2.85757E-05-2.85705E-05 8.68049E-10 6.66676E-19-1.59205E-19
 -1      3249 9.52406E-05-2.85762E-05-2.85705E-05 6.36124E-10 8.57591E-19 3.30368E-21
 -1      3250 9.52402E-05-2.85758E-05-2.85705E-05 1.80490E-09 3.71307E-19-3.78575E-19
 -1      3251 1.14848E-04-1.54502E-05-4.30167E-05-1.00417E-05-3.72102E-18-1.81022E-18
 -1      3252 1.14719E-04-1.63288E-05-4.24855E-05-4.51598E-06-3.37336E-18-2.19262E-18
 -1      3253 1.16951E-04-2.03233E-05-4.16243E-05 6.67197E-06 3.72181E-18 1.09355E-18
 -1      3254 1.21394E-04-2.28643E-05-4.25220E-05 1.99744E-05 3.44568E-18 2.67639E-18
 -1      3255 1.23976E-04-2.67824E-05-4.20194E-05 2.30573E-05 3.07282E-18 3.06633E-18
 -1      3256 1.17367E-04-1.66352E-05-4.34450E-05-1.55528E-05-3.69063E-18-1.01926E-18
 -1      3257 1.22591E-04-2.99417E-05-3.99481E-05-2.11106E-05-1.36788E-18-8.10505E-20
 -1      3258 6.53546E-05-2.10696E-05-1.86656E-05-2.88685E-05 2.20313E-18 2.32500E-18
 -1      3259 7.70907E-05-2.91350E-05-2.04950E-05-3.33926E-05 2.89706E-18 1.16605E-18
 -1      3260 7.05338E-05-2.44981E-05-1.96211E-05 3.07663E-05-2.50648E-18 1.60502E-18
 -1      3261 5.60533E-05-1.59147E-05-1.64500E-05 2.69004E-05-1.99794E-18 2.98569E-18
 -1      3262 8.96790E-05-3.58708E-05-2.26643E-05-3.23335E-05 3.23884E-18 4.14331E-19
 -1      3263 1.02717E-04-4.32306E-05-2.57754E-05-2.88118E-05 3.17775E-18 1.27823E-19
 -1      3264 1.14086E-04-4.69491E-05-2.84233E-05-2.19054E-05 2.87325E-18-8.00393E-19
 -1      3265 1.20741E-04-4.76522E-05-3.15537E-05-1.28884E-05 1.90153E-18-2.06877E-18
 -1      3266 1.19409E-04-1.96960E-05-4.30620E-05 1.36055E-05 3.86628E-18 1.67829E-18
 -1      3267 1.24964E-04-2.89328E-05-4.12930E-05 3.58723E-06-1.80804E-18-3.71244E-18
 -1      3268 1.25946E-04-2.42088E-05-4.40638E-05 3.00768E-06-2.50245E-18-3.51275E-18
 -1      3269 1.20506E-04-2.11528E-05-4.28725E-05 2.61587E-06-2.70431E-18-3.39935E-18
 -1      3270 1.22418E-04-3.29284E-05-3.85314E-05 4.38899E-06-9.55347E-19-3.84733E-18
 -1      3271 8.66042E-05-3.23088E-05-2.29833E-05-2.91568E-05 2.78976E-18 5.41519E-19
 -1      3272 5.30515E-05-1.28985E-05-1.67799E-05 1.96129E-05-1.42714E-18 3.51836E-18
 -1      3273 9.52390E-05-2.85746E-05-2.85704E-05-2.63115E-09 5.98809E-19-3.08803E-18
 -1      3274 9.52386E-05-2.85743E-05-2.85704E-05-2.88140E-09-4.67897E-20-2.77833E-18
 -1      3275 4.18568E-05-6.57703E-06-1.45195E-05-3.66382E-06-1.97200E-20 5.31767E-18
 -1      3276 4.84568E-05-8.71776E-06-1.67685E-05-9.92506E-06 2.68251E-19 4.51119E-18
 -1      3277 4.50776E-05-7.39118E-06-1.60275E-05 2.91095E-06-6.58734E-19 4.93344E-18
 -1      3278 1.08904E-04-4.42626E-05-2.75595E-05 2.28574E-05-2.21751E-18-1.77355E-18
 -1      3279 9.52397E-05-2.85753E-05-2.85705E-05-1.86574E-09 1.17157E-18-1.69787E-18
 -1      3280 9.52394E-05-2.85750E-05-2.85705E-05-2.25476E-09 1.10824E-18-3.01897E-18
 -1      3281 9.52395E-05-2.85752E-05-2.85704E-05-2.74824E-09 1.36951E-18-2.89251E-18
 -1      3282 1.22392E-04-2.80111E-05-4.05930E-05-2.18780E-05-2.04617E-18 1.13952E-20
 -1      3283 9.52401E-05-2.85757E-05-2.85705E-05-8.53451E-10 2.89111E-19-5.06745E-19
 -1      3284 9.52399E-05-2.85755E-05-2.85705E-05-1.34045E-09 1.23921E-18-7.23675E-19
 -1      3285 9.52402E-05-2.85758E-05-2.85705E-05-1.79812E-09 8.73459E-19-1.75751E-18
 -1      3286 9.52406E-05-2.85762E-05-2.85705E-05-6.18243E-10 3.30167E-19 2.25976E-19
 -1      3287 9.52380E-05-2.85737E-05-2.85704E-05 3.18298E-09-1.16609E-18 2.47858E-19
 -1      3288 9.52383E-05-2.85740E-05-2.85704E-05 3.01202E-09-4.53797E-19-7.10379E-19
 -1      3289 9.52387E-05-2.85745E-05-2.85704E-05 3.29034E-09-5.51581E-19-1.68784E-18
 -1      3290 9.52381E-05-2.85739E-05-2.85704E-05 3.53362E-09 2.25785E-19 1.17161E-18
 -1      3291 9.00063E-05-3.26698E-05-2.43384E-05 2.59567E-05-2.76554E-18-3.74150E-19
 -1      3292 8.13416E-05-2.93253E-05-2.20169E-05 3.02056E-05-2.67734E-18 6.57324E-19
 -1      3293 7.36578E-05-2.35092E-05-2.14179E-05 2.60938E-05-2.24744E-18 8.47033E-19
 -1      3294 1.15944E-04-1.91896E-05-4.15217E-05-1.61235E-05-3.24308E-18-1.09997E-18
 -1      3295 1.22520E-04-4.60583E-05-3.27896E-05-6.30345E-06 1.10992E-18-2.52265E-18
 -1      3296 6.08197E-05-1.73218E-05-1.82317E-05-2.56655E-05 1.65238E-18 2.98420E-18
 -1      3297 7.02900E-05-2.16721E-05-2.05783E-05-2.58126E-05 1.92020E-18 1.67784E-18
 -1      3298 5.68194E-05-1.40037E-05-1.81240E-05-2.00402E-05 1.00527E-18 3.28543E-18
 -1      3299 1.07581E-04-4.35466E-05-2.73203E-05-2.24642E-05 2.82986E-18-1.22601E-19
 -1      3300 1.17265E-04-4.51358E-05-3.09585E-05-9.77559E-06 1.35972E-18-1.79283E-18
 -1      3301 1.17938E-04-2.23696E-05-4.11376E-05-2.03932E-05-2.93158E-18-7.81573E-19
 -1      3302 1.19065E-04-2.43061E-05-4.07436E-05-2.21845E-05-2.56225E-18-6.43738E-19
 -1      3303 9.29985E-05-2.59409E-05-2.87474E-05 8.97421E-06-5.52761E-19 6.14197E-19
 -1      3304 9.34854E-05-2.64915E-05-2.86798E-05 9.78474E-06-3.16916E-19 8.29970E-19
 -1      3305 8.22119E-05-2.81887E-05-2.29680E-05-2.61906E-05 2.18362E-18 5.03799E-19
 -1      3306 9.20221E-05-3.44134E-05-2.47686E-05-2.56463E-05 2.59730E-18 8.58680E-20
 -1      3307 1.27114E-04-3.88140E-05-3.84352E-05-5.04575E-06 2.11726E-18-2.96268E-18
 -1      3308 1.13935E-04-4.38796E-05-2.99284E-05-1.15389E-05 1.42789E-18-1.32385E-18
 -1      3309 1.08044E-04-4.01990E-05-2.90735E-05-1.21818E-05 9.42423E-19-5.16227E-19
 -1      3310 1.04830E-04-3.76148E-05-2.86977E-05-1.26127E-05 6.04116E-19-2.64208E-19
 -1      3311 1.02036E-04-3.53213E-05-2.85503E-05-1.20789E-05 2.55726E-19 2.08385E-19
 -1      3312 9.95799E-05-3.32034E-05-2.84187E-05-1.19616E-05 6.05046E-19 2.04218E-19
 -1      3313 1.00563E-04-3.56690E-05-2.78688E-05-1.52432E-05 8.48598E-19 6.82530E-19
 -1      3314 9.79893E-05-3.14504E-05-2.84667E-05-1.09227E-05 8.25460E-19 1.72739E-19
 -1      3315 9.63778E-05-2.99598E-05-2.84616E-05-1.04744E-05 5.75810E-19 4.25887E-19
 -1      3316 9.61273E-05-3.11380E-05-2.78657E-05-1.31311E-05 7.64967E-19 7.90805E-19
 -1      3317 9.56058E-05-2.88616E-05-2.85660E-05-9.42783E-06 1.36035E-19 4.03879E-19
 -1      3318 9.46471E-05-2.79272E-05-2.86028E-05-8.87065E-06 2.94585E-19 5.79962E-19
 -1      3319 9.38103E-05-2.82646E-05-2.80803E-05-1.08365E-05 5.21855E-19 6.36580E-19
 -1      3320 9.43610E-05-2.73164E-05-2.87061E-05-7.94513E-06 1.53556E-19 4.67161E-19
 -1      3321 9.38404E-05-2.67986E-05-2.87446E-05-7.38022E-06-2.73360E-19 2.10454E-19
 -1      3322 9.27618E-05-2.66140E-05-2.83297E-05-8.80937E-06 9.08906E-21 1.94866E-19
 -1      3323 9.38271E-05-2.65242E-05-2.88256E-05-6.59925E-06-1.75249E-19 4.20541E-19
 -1      3324 9.35793E-05-2.62906E-05-2.88508E-05-6.06831E-06-1.08221E-19 9.33928E-20
 -1      3325 9.24591E-05-2.58100E-05-2.85430E-05-7.11758E-06-2.84689E-19 2.80843E-19
 -1      3326 9.37056E-05-2.62314E-05-2.89051E-05-5.41864E-06 5.16906E-20-1.49581E-20
 -1      3327 9.36167E-05-2.61781E-05-2.89140E-05-4.93779E-06 8.95217E-20 1.79532E-19
 -1      3328 9.25631E-05-2.55529E-05-2.86991E-05-5.72932E-06 8.13036E-20 2.54465E-19
 -1      3329 9.38028E-05-2.62463E-05-2.89443E-05-4.39915E-06-2.92610E-20 2.00666E-19
 -1      3330 9.37993E-05-2.62985E-05-2.89392E-05-3.97395E-06-3.45537E-19 3.26070E-20
 -1      3331 9.28655E-05-2.56279E-05-2.87990E-05-4.59027E-06 1.56836E-19-1.27612E-19
 -1      3332 9.39992E-05-2.64339E-05-2.89506E-05-3.52824E-06-5.26963E-19 3.54872E-19
 -1      3333 9.40367E-05-2.65410E-05-2.89354E-05-3.15960E-06 1.46457E-19 9.43964E-20
 -1      3334 9.32426E-05-2.58872E-05-2.88522E-05-3.65256E-06-2.59261E-19-1.17563E-21
 -1      3335 9.42257E-05-2.67041E-05-2.89334E-05-2.79236E-06 4.10724E-19-1.33637E-19
 -1      3336 9.42783E-05-2.68335E-05-2.89121E-05-2.47859E-06 6.65664E-19-5.45523E-20
 -1      3337 9.36245E-05-2.62331E-05-2.88703E-05-2.87978E-06 3.61155E-19 1.56536E-19
 -1      3338 9.44445E-05-2.70000E-05-2.89014E-05-2.17826E-06 9.98940E-19 1.42379E-19
 -1      3339 9.44986E-05-2.71319E-05-2.88772E-05-1.91600E-06 7.41380E-19 1.42724E-19
 -1      3340 9.39749E-05-2.66033E-05-2.88641E-05-2.24490E-06 1.14265E-18 2.60725E-19
 -1      3341 9.46379E-05-2.72876E-05-2.88617E-05-1.67288E-06 6.05045E-19 3.47843E-19
 -1      3342 9.46866E-05-2.74108E-05-2.88371E-05-1.45755E-06 1.39881E-19 8.37043E-19
 -1      3343 9.42774E-05-2.69606E-05-2.88426E-05-1.72700E-06 9.61408E-19-1.43778E-19
 -1      3344 9.47992E-05-2.75488E-05-2.88195E-05-1.26316E-06-5.35512E-19 1.16543E-18
 -1      3345 9.48400E-05-2.76577E-05-2.87961E-05-1.08945E-06-8.48616E-19 5.58713E-19
 -1      3346 9.45276E-05-2.72845E-05-2.88127E-05-1.30878E-06-5.81653E-20 6.98619E-19
 -1      3347 9.49283E-05-2.77753E-05-2.87781E-05-9.36149E-07-1.20261E-18 1.00191E-18
 -1      3348 9.49607E-05-2.78677E-05-2.87569E-05-7.98463E-07-5.18814E-19 9.07077E-19
 -1      3349 9.47279E-05-2.75657E-05-2.87795E-05-9.75190E-07-9.49576E-19 5.67378E-19
 -1      3350 9.50280E-05-2.79649E-05-2.87400E-05-6.79373E-07 2.43631E-19 1.97086E-19
 -1      3351 9.50528E-05-2.80411E-05-2.87214E-05-5.72147E-07 3.73443E-19 6.20026E-19
 -1      3352 9.48836E-05-2.78019E-05-2.87461E-05-7.12781E-07-3.79660E-19 6.91284E-19
 -1      3353 9.51029E-05-2.81194E-05-2.87061E-05-4.81120E-07 3.41544E-19 4.91506E-19
 -1      3354 9.51211E-05-2.81806E-05-2.86903E-05-3.99111E-07 2.89796E-19 7.34315E-19
 -1      3355 9.50015E-05-2.79950E-05-2.87148E-05-5.09460E-07 5.54793E-19 6.25964E-19
 -1      3356 9.51573E-05-2.82423E-05-2.86770E-05-3.30744E-07 7.76195E-20 3.11314E-19
 -1      3357 9.51703E-05-2.82904E-05-2.86639E-05-2.69199E-07 8.24760E-19 2.80637E-19
 -1      3358 9.50886E-05-2.81492E-05-2.86867E-05-3.54472E-07 6.17587E-20-5.75073E-19
 -1      3359 9.51956E-05-2.83380E-05-2.86526E-05-2.18834E-07 1.20823E-18 4.44710E-19
 -1      3360 9.52045E-05-2.83750E-05-2.86420E-05-1.73585E-07 1.41330E-18 1.29458E-19
 -1      3361 9.51511E-05-2.82698E-05-2.86623E-05-2.38403E-07 9.25212E-19-9.52431E-19
 -1      3362 9.52216E-05-2.84109E-05-2.86327E-05-1.37285E-07 1.46980E-18 3.50147E-19
 -1      3363 9.52274E-05-2.84387E-05-2.86242E-05-1.04774E-07 1.24514E-18-3.16726E-20
 -1      3364 9.51946E-05-2.83621E-05-2.86418E-05-1.53167E-07 1.54700E-18-9.73234E-19
 -1      3365 9.52384E-05-2.84653E-05-2.86167E-05-7.92743E-08 3.95390E-19 4.62792E-19
 -1      3366 9.52419E-05-2.84858E-05-2.86101E-05-5.65371E-08-3.09035E-19 1.08586E-18
 -1      3367 9.52237E-05-2.84314E-05-2.86248E-05-9.19566E-08 8.67820E-19-2.19895E-19
 -1      3368 9.52485E-05-2.85049E-05-2.86041E-05-3.91833E-08-1.04149E-18 7.93839E-19
 -1      3369 9.52504E-05-2.85197E-05-2.85991E-05-2.38041E-08-7.55221E-19 4.34988E-19
 -1      3370 9.52421E-05-2.84822E-05-2.86112E-05-4.91437E-08-5.45731E-19-1.22720E-19
 -1      3371 9.52539E-05-2.85331E-05-2.85944E-05-1.24745E-08-5.55869E-19 2.25027E-19
 -1      3372 9.52547E-05-2.85435E-05-2.85906E-05-2.52271E-09-1.57581E-19-2.50567E-19
 -1      3373 9.52530E-05-2.85187E-05-2.86003E-05-2.01653E-08-7.26902E-19 6.76206E-20
 -1      3374 9.52561E-05-2.85526E-05-2.85870E-05 4.44760E-09 1.14879E-19-1.19819E-19
 -1      3375 9.52561E-05-2.85596E-05-2.85843E-05 1.04859E-08 2.47626E-20 1.63165E-19
 -1      3376 9.52586E-05-2.85440E-05-2.85919E-05-1.38656E-09-6.34796E-20 2.61881E-19
 -1      3377 9.52562E-05-2.85656E-05-2.85816E-05 1.43802E-08-1.09347E-18-2.79068E-19
 -1      3378 9.52558E-05-2.85701E-05-2.85796E-05 1.76699E-08-1.61799E-18-6.55089E-19
 -1      3379 9.52606E-05-2.85611E-05-2.85855E-05 1.00375E-08-1.20689E-18-9.54255E-19
 -1      3380 9.52550E-05-2.85737E-05-2.85776E-05 1.94594E-08-2.60262E-18-4.32445E-19
 -1      3381 9.52544E-05-2.85765E-05-2.85762E-05 2.08801E-08-2.77537E-18-1.27713E-18
 -1      3382 9.52602E-05-2.85720E-05-2.85808E-05 1.62935E-08-1.73426E-18-1.17249E-18
 -1      3383 9.52532E-05-2.85785E-05-2.85748E-05 2.12856E-08-2.08849E-18-1.09741E-18
 -1      3384 9.52524E-05-2.85800E-05-2.85739E-05 2.14880E-08-9.65696E-19-1.13552E-18
 -1      3385 9.52586E-05-2.85785E-05-2.85773E-05 1.90319E-08-1.98649E-18 5.44742E-19
 -1      3386 9.52510E-05-2.85809E-05-2.85729E-05 2.10330E-08 2.68184E-19-6.98138E-19
 -1      3387 9.52503E-05-2.85815E-05-2.85723E-05 2.04879E-08 7.81426E-19 2.02643E-19
 -1      3388 9.52562E-05-2.85820E-05-2.85747E-05 1.94736E-08 2.29021E-19 8.30844E-19
 -1      3389 9.52488E-05-2.85817E-05-2.85716E-05 1.95436E-08 1.05058E-18 9.45134E-19
 -1      3390 9.52481E-05-2.85818E-05-2.85713E-05 1.85829E-08 1.27352E-18 1.20826E-18
 -1      3391 9.52535E-05-2.85834E-05-2.85730E-05 1.85024E-08 1.03695E-18 2.54379E-18
 -1      3392 9.52468E-05-2.85815E-05-2.85708E-05 1.74044E-08 6.00736E-19 9.83978E-19
 -1      3393 9.52461E-05-2.85813E-05-2.85706E-05 1.62550E-08 6.23318E-19 1.47662E-18
 -1      3394 9.52509E-05-2.85834E-05-2.85718E-05 1.67419E-08 9.21753E-19 1.42976E-18
 -1      3395 9.52449E-05-2.85807E-05-2.85704E-05 1.50112E-08 7.21897E-19 6.69884E-19
 -1      3396 9.52443E-05-2.85803E-05-2.85703E-05 1.38219E-08 1.29971E-18 8.55266E-19
 -1      3397 9.52484E-05-2.85827E-05-2.85711E-05 1.46190E-08 5.83474E-19 6.83071E-19
 -1      3398 9.52432E-05-2.85796E-05-2.85701E-05 1.26187E-08 1.66057E-18 1.13057E-18
 -1      3399 9.52428E-05-2.85791E-05-2.85701E-05 1.14814E-08 1.70412E-18 1.79249E-18
 -1      3400 9.52461E-05-2.85815E-05-2.85706E-05 1.24142E-08 1.48004E-18 1.68737E-19
 -1      3401 9.52419E-05-2.85784E-05-2.85700E-05 1.03798E-08 9.65799E-19 1.76669E-18
 -1      3402 9.52415E-05-2.85779E-05-2.85701E-05 9.34609E-09 8.46379E-19 5.04933E-19
 -1      3403 9.52442E-05-2.85801E-05-2.85704E-05 1.03018E-08 9.68289E-19 8.85417E-19
 -1      3404 9.52407E-05-2.85772E-05-2.85701E-05 8.37574E-09 1.42828E-18 1.04003E-18
 -1      3405 9.52404E-05-2.85767E-05-2.85701E-05 7.46870E-09 1.99368E-18 1.18141E-18
 -1      3406 9.52426E-05-2.85787E-05-2.85703E-05 8.38139E-09 1.84530E-18 6.34070E-19
 -1      3407 9.52398E-05-2.85762E-05-2.85701E-05 6.64288E-09 1.97488E-18 1.30520E-18
 -1      3408 9.52395E-05-2.85757E-05-2.85702E-05 5.85196E-09 1.93280E-18 2.61173E-18
 -1      3409 9.52412E-05-2.85773E-05-2.85703E-05 6.70814E-09 2.23149E-18 1.33112E-18
 -1      3410 9.52391E-05-2.85752E-05-2.85702E-05 5.18591E-09 1.09827E-18 2.42131E-18
 -1      3411 9.52389E-05-2.85748E-05-2.85703E-05 4.52955E-09 1.67232E-18 2.59014E-18
 -1      3412 9.52402E-05-2.85761E-05-2.85703E-05 5.29373E-09 1.97948E-18 5.62109E-19
 -1      3413 9.29672E-05-2.55322E-05-2.89116E-05 7.33258E-06 7.34382E-20 2.51345E-19
 -1      3414 9.31489E-05-2.57339E-05-2.88718E-05 8.05142E-06-4.37080E-19 3.86854E-19
 -1      3415 9.12177E-05-2.47905E-05-2.84714E-05 8.50843E-06-9.63950E-20 5.80202E-20
 -1      3416 9.36239E-05-2.71095E-05-2.85082E-05 1.09381E-05-5.17749E-19 6.40670E-19
 -1      3417 9.46591E-05-2.82082E-05-2.84290E-05 1.18051E-05-5.22963E-19 4.25700E-19
 -1      3418 9.11286E-05-2.55074E-05-2.81369E-05 1.06371E-05-3.39248E-19 1.75965E-19
 -1      3419 9.32119E-05-2.55643E-05-2.90027E-05 5.95766E-06-2.45568E-19-1.51766E-19
 -1      3420 9.32377E-05-2.55624E-05-2.89903E-05 6.58593E-06 1.81674E-19 3.82438E-19
 -1      3421 9.16740E-05-2.46946E-05-2.87022E-05 6.83669E-06 9.92755E-20-5.45713E-19
 -1      3422 9.35549E-05-2.58280E-05-2.90358E-05 4.80245E-06-4.09956E-19-3.51348E-19
 -1      3423 9.35114E-05-2.57195E-05-2.90444E-05 5.34626E-06-5.09744E-19-2.45001E-19
 -1      3424 9.22591E-05-2.49465E-05-2.88428E-05 5.49623E-06-3.94538E-20-2.24223E-19
 -1      3425 9.39040E-05-2.61924E-05-2.90280E-05 3.83167E-06-1.40169E-19-1.91235E-19
 -1      3426 9.38376E-05-2.60373E-05-2.90504E-05 4.29716E-06-3.56474E-19-2.18312E-19
 -1      3427 9.28456E-05-2.53659E-05-2.89142E-05 4.40190E-06-1.97213E-19-4.10275E-19
 -1      3428 9.42171E-05-2.65803E-05-2.89945E-05 3.01993E-06 1.10000E-19-4.33144E-19
 -1      3429 9.41503E-05-2.64137E-05-2.90245E-05 3.41310E-06 2.31704E-21-1.81075E-19
 -1      3430 9.33740E-05-2.58432E-05-2.89366E-05 3.49855E-06-2.02462E-19-4.00429E-19
 -1      3431 9.44789E-05-2.69495E-05-2.89473E-05 2.34754E-06 9.51100E-19-5.23262E-19
 -1      3432 9.44211E-05-2.67904E-05-2.89801E-05 2.67467E-06 6.84328E-19-6.16601E-19
 -1      3433 9.38219E-05-2.63155E-05-2.89271E-05 2.75115E-06 4.64309E-19-8.68301E-19
 -1      3434 9.46884E-05-2.72793E-05-2.88945E-05 1.79737E-06 6.05004E-19-9.51695E-19
 -1      3435 9.46423E-05-2.71370E-05-2.89270E-05 2.06528E-06 1.03275E-18-7.67428E-19
 -1      3436 9.41866E-05-2.67490E-05-2.88986E-05 2.13575E-06 1.26439E-18-9.16251E-19
 -1      3437 9.48506E-05-2.75620E-05-2.88419E-05 1.35347E-06 1.52650E-19-6.62195E-19
 -1      3438 9.48157E-05-2.74399E-05-2.88721E-05 1.56935E-06 3.02135E-20-9.71193E-19
 -1      3439 9.44749E-05-2.71286E-05-2.88603E-05 1.63383E-06 5.20120E-20-5.88931E-19
 -1      3440 9.49731E-05-2.77972E-05-2.87928E-05 1.00065E-06-1.48292E-19-4.11187E-19
 -1      3441 9.49477E-05-2.76956E-05-2.88196E-05 1.17179E-06-1.96218E-19-7.33913E-19
 -1      3442 9.46975E-05-2.74501E-05-2.88186E-05 1.22952E-06 2.26187E-19-3.70850E-19
 -1      3443 9.50634E-05-2.79882E-05-2.87489E-05 7.24613E-07-4.39218E-20-1.33482E-19
 -1      3444 9.50456E-05-2.79056E-05-2.87720E-05 8.58056E-07 3.42242E-19-1.33730E-19
 -1      3445 9.48657E-05-2.77153E-05-2.87775E-05 9.08440E-07-1.84485E-19-5.45170E-19
 -1      3446 9.51286E-05-2.81404E-05-2.87111E-05 5.12156E-07-2.06637E-19-2.64503E-19
 -1      3447 9.51165E-05-2.80746E-05-2.87304E-05 6.14457E-07-1.99871E-19-2.51926E-19
 -1      3448 9.49903E-05-2.79295E-05-2.87395E-05 6.57331E-07 1.46543E-19-1.35212E-18
 -1      3449 9.51746E-05-2.82594E-05-2.86793E-05 3.51448E-07 4.60619E-19-8.88948E-20
 -1      3450 9.51666E-05-2.82079E-05-2.86951E-05 4.28493E-07-3.97992E-20-2.17860E-19
 -1      3451 9.50808E-05-2.80993E-05-2.87058E-05 4.64123E-07-1.30328E-19-1.24815E-18
 -1      3452 9.52060E-05-2.83508E-05-2.86532E-05 2.32134E-07-3.11370E-19 1.33233E-18
 -1      3453 9.52011E-05-2.83112E-05-2.86659E-05 2.89057E-07 4.24646E-19 7.09544E-19
 -1      3454 9.51450E-05-2.82315E-05-2.86769E-05 3.18024E-07 1.12288E-20 4.13127E-19
 -1      3455 9.52268E-05-2.84199E-05-2.86323E-05 1.45370E-07 2.65612E-19 1.55150E-18
 -1      3456 9.52240E-05-2.83900E-05-2.86423E-05 1.86539E-07-2.51099E-19 1.33550E-18
 -1      3457 9.51894E-05-2.83327E-05-2.86527E-05 2.09609E-07-2.53199E-19 1.07820E-18
 -1      3458 9.52399E-05-2.84711E-05-2.86157E-05 8.37637E-08 1.27291E-18 2.11356E-18
 -1      3459 9.52385E-05-2.84489E-05-2.86234E-05 1.12810E-07 1.05593E-18 1.67259E-18
 -1      3460 9.52190E-05-2.84089E-05-2.86329E-05 1.30825E-07 4.11329E-19 1.03735E-18
 -1      3461 9.52476E-05-2.85083E-05-2.86029E-05 4.12591E-08 2.19331E-19 2.96797E-18
 -1      3462 9.52471E-05-2.84922E-05-2.86088E-05 6.11432E-08 8.33957E-19 2.56047E-18
 -1      3463 9.52380E-05-2.84650E-05-2.86170E-05 7.49418E-08 4.25617E-19 2.76593E-18
 -1      3464 9.52515E-05-2.85347E-05-2.85931E-05 1.29878E-08 3.77435E-19 3.34650E-18
 -1      3465 9.52517E-05-2.85233E-05-2.85975E-05 2.60788E-08 4.72624E-19 3.29618E-18
 -1      3466 9.52493E-05-2.85056E-05-2.86045E-05 3.64407E-08 5.03693E-19 3.64396E-18
 -1      3467 9.52530E-05-2.85530E-05-2.85858E-05-4.89389E-09 1.85852E-19 2.81973E-18
 -1      3468 9.52534E-05-2.85451E-05-2.85890E-05 3.26525E-09 3.12481E-19 3.10105E-18
 -1      3469 9.52553E-05-2.85343E-05-2.85948E-05 1.08853E-08 4.22712E-19 3.05812E-18
 -1      3470 9.52528E-05-2.85651E-05-2.85805E-05-1.53677E-08-2.10841E-19 2.43611E-18
 -1      3471 9.52534E-05-2.85598E-05-2.85828E-05-1.07032E-08 3.23646E-19 2.85263E-18
 -1      3472 9.52578E-05-2.85539E-05-2.85874E-05-5.22764E-09 2.38202E-19 2.97090E-18
 -1      3473 9.52517E-05-2.85728E-05-2.85767E-05-2.07053E-08 3.72549E-19 1.93016E-18
 -1      3474 9.52524E-05-2.85695E-05-2.85783E-05-1.84457E-08-1.58574E-19 2.16757E-18
 -1      3475 9.52579E-05-2.85668E-05-2.85820E-05-1.46151E-08 1.39683E-19 2.42486E-18
 -1      3476 9.52501E-05-2.85774E-05-2.85740E-05-2.26051E-08 2.99417E-19 1.29531E-18
 -1      3477 9.52508E-05-2.85754E-05-2.85751E-05-2.19394E-08 3.96638E-19 1.66376E-18
 -1      3478 9.52567E-05-2.85749E-05-2.85780E-05-1.93464E-08 4.86481E-19 1.86550E-18
 -1      3479 9.52483E-05-2.85797E-05-2.85723E-05-2.23114E-08 1.02436E-18 1.10522E-18
 -1      3480 9.52490E-05-2.85787E-05-2.85729E-05-2.26488E-08 1.05394E-18 1.00418E-18
 -1      3481 9.52547E-05-2.85795E-05-2.85751E-05-2.09677E-08 1.05551E-18 1.60028E-18
 -1      3482 9.52465E-05-2.85806E-05-2.85711E-05-2.07149E-08 5.87087E-19 6.98644E-20
 -1      3483 9.52471E-05-2.85802E-05-2.85715E-05-2.16350E-08 1.20892E-18 1.23581E-18
 -1      3484 9.52524E-05-2.85817E-05-2.85732E-05-2.06108E-08 1.10561E-18 3.11538E-18
 -1      3485 9.52448E-05-2.85805E-05-2.85704E-05-1.84363E-08-7.66723E-19-9.78435E-19
 -1      3486 9.52453E-05-2.85805E-05-2.85706E-05-1.96481E-08-6.98051E-19-7.93018E-19
 -1      3487 9.52500E-05-2.85824E-05-2.85719E-05-1.90848E-08 6.39068E-19 2.39144E-18
 -1      3488 9.52433E-05-2.85798E-05-2.85701E-05-1.58931E-08-1.47052E-18-1.17161E-18
 -1      3489 9.52437E-05-2.85801E-05-2.85701E-05-1.72029E-08-1.31893E-18-1.87406E-18
 -1      3490 9.52477E-05-2.85821E-05-2.85710E-05-1.69526E-08-7.37833E-19-5.46794E-19
 -1      3491 9.52420E-05-2.85789E-05-2.85699E-05-1.33538E-08-1.02661E-18 1.66471E-19
 -1      3492 9.52423E-05-2.85793E-05-2.85699E-05-1.46387E-08-1.21956E-18-7.54638E-19
 -1      3493 9.52457E-05-2.85812E-05-2.85705E-05-1.45924E-08-1.37314E-18-1.71868E-18
 -1      3494 9.52409E-05-2.85778E-05-2.85699E-05-1.09795E-08-1.50658E-19 4.63525E-19
 -1      3495 9.52412E-05-2.85782E-05-2.85698E-05-1.21674E-08-3.05081E-19 3.46536E-19
 -1      3496 9.52439E-05-2.85800E-05-2.85703E-05-1.22463E-08-9.27404E-19-8.37859E-20
 -1      3497 9.52400E-05-2.85767E-05-2.85699E-05-8.85583E-09 7.05205E-19-1.00410E-18
 -1      3498 9.52402E-05-2.85772E-05-2.85699E-05-9.90985E-09 5.56799E-19-6.01260E-19
 -1      3499 9.52424E-05-2.85787E-05-2.85701E-05-1.00591E-08 8.68416E-19 8.15709E-20
 -1      3500 9.52393E-05-2.85757E-05-2.85701E-05-7.01676E-09-9.65558E-19-2.03738E-18
 -1      3501 9.52394E-05-2.85762E-05-2.85700E-05-7.92455E-09-4.14344E-19-2.16091E-18
 -1      3502 9.52411E-05-2.85775E-05-2.85701E-05-8.10710E-09 5.89541E-19-6.75725E-19
 -1      3503 9.52387E-05-2.85749E-05-2.85702E-05-5.46064E-09-9.15140E-19-2.70617E-18
 -1      3504 9.52388E-05-2.85753E-05-2.85701E-05-6.22830E-09-8.93644E-19-2.77761E-18
 -1      3505 9.52401E-05-2.85763E-05-2.85702E-05-6.42207E-09-3.65271E-19-2.54707E-18
 -1      3506 9.52382E-05-2.85742E-05-2.85703E-05-4.18475E-09 4.46330E-19-4.02608E-18
 -1      3507 9.52383E-05-2.85745E-05-2.85702E-05-4.80749E-09-3.77857E-19-3.40055E-18
 -1      3508 9.52393E-05-2.85753E-05-2.85703E-05-5.00056E-09-1.66849E-19-4.01830E-18
 -1      3509 9.52379E-05-2.85735E-05-2.85704E-05-2.95695E-09-4.36113E-19-2.61469E-18
 -1      3510 9.52397E-05-2.85754E-05-2.85704E-05 3.29784E-09-3.88807E-19-2.44637E-18
 -1      3511 9.52402E-05-2.85758E-05-2.85704E-05 2.90550E-09 1.45377E-19-2.41870E-18
 -1      3512 1.21562E-04-2.63790E-05-4.11358E-05-2.25951E-05-2.41081E-18-2.26872E-19
 -1      3513 6.01847E-05-1.52342E-05-1.91941E-05 2.02196E-05-2.11598E-18 2.23903E-18
 -1      3514 5.05767E-05-9.30835E-06-1.70769E-05 1.27913E-05-1.12886E-18 4.14570E-18
 -1      3515 5.31297E-05-9.61782E-06-1.83195E-05 5.70946E-06-1.04135E-18 4.39181E-18
 -1      3516 1.27500E-04-3.14909E-05-4.13556E-05 2.51374E-05 2.52191E-18 3.20642E-18
 -1      3517 1.27520E-04-4.39622E-05-3.56023E-05 1.19128E-06 1.17161E-18-3.49528E-18
 -1      3518 9.52383E-05-2.85740E-05-2.85704E-05-3.26591E-09 2.15364E-19-1.75960E-18
 -1      3519 1.01472E-04-3.87288E-05-2.66563E-05-2.12589E-05 2.17912E-18 2.09124E-19
 -1      3520 1.09011E-04-4.24519E-05-2.86925E-05-1.61571E-05 1.77728E-18-3.56839E-19
 -1      3521 1.05181E-04-4.13545E-05-2.73244E-05 2.14466E-05-2.08664E-18-1.57953E-18
 -1      3522 9.66397E-05-3.48709E-05-2.64199E-05-2.00641E-05 1.69332E-18 5.28026E-19
 -1      3523 5.43977E-05-1.03872E-05-1.88281E-05-9.41974E-06 1.51156E-19 3.86019E-18
 -1      3524 5.51342E-05-1.15232E-05-1.82435E-05-1.52462E-05 6.50124E-19 3.70577E-18
 -1      3525 6.28678E-05-1.53926E-05-2.01494E-05-1.84039E-05 1.07387E-18 2.65116E-18
 -1      3526 1.18281E-04-2.74616E-05-3.91911E-05 5.42539E-06-1.48575E-18-3.39181E-18
 -1      3527 7.81586E-05-2.38679E-05-2.31240E-05 2.22280E-05-2.41137E-18 6.03087E-19
 -1      3528 6.93240E-05-1.94192E-05-2.10443E-05 2.27678E-05-2.09498E-18 1.16552E-18
 -1      3529 6.51998E-05-1.58475E-05-2.11113E-05 1.72148E-05-1.94873E-18 1.98116E-18
 -1      3530 1.04611E-04-3.94284E-05-2.78577E-05 1.85342E-05-1.82034E-18-1.54977E-18
 -1      3531 9.66226E-05-3.60267E-05-2.58830E-05 2.38948E-05-2.14915E-18-6.33184E-19
 -1      3532 1.02392E-04-3.71622E-05-2.79369E-05 1.71526E-05-1.55010E-18-1.06892E-18
 -1      3533 9.52383E-05-2.85741E-05-2.85703E-05 3.90581E-09 1.28535E-18 2.09022E-18
 -1      3534 9.52390E-05-2.85749E-05-2.85704E-05 4.00952E-09 6.30214E-19 1.04709E-18
 -1      3535 9.52408E-05-2.85765E-05-2.85704E-05 2.92629E-09 1.69060E-19-1.99649E-18
 -1      3536 9.52406E-05-2.85762E-05-2.85705E-05 2.32479E-09 4.98125E-19-5.92217E-19
 -1      3537 9.52409E-05-2.85764E-05-2.85705E-05 1.76164E-09 6.40861E-19-7.08029E-19
 -1      3538 9.53881E-05-2.94813E-05-2.82276E-05 1.32614E-05-1.02449E-18-8.02675E-20
 -1      3539 9.73900E-05-3.14369E-05-2.82077E-05 1.40137E-05-1.04952E-18-5.27477E-19
 -1      3540 9.18389E-05-2.72443E-05-2.77056E-05 1.33771E-05-1.24585E-18-2.12289E-19
 -1      3541 8.94653E-05-3.10600E-05-2.50522E-05 2.32048E-05-2.01701E-18-1.09903E-19
 -1      3542 9.92681E-05-3.42119E-05-2.78410E-05 1.64852E-05-1.17701E-18-8.86616E-19
 -1      3543 9.52413E-05-2.85767E-05-2.85705E-05-3.73101E-10 1.31318E-18 1.20395E-18
 -1      3544 9.52412E-05-2.85767E-05-2.85705E-05-1.02033E-09 1.64898E-19 5.95225E-19
 -1      3545 7.29756E-05-2.14088E-05-2.20192E-05-2.21254E-05 1.47921E-18 9.47856E-19
 -1      3546 7.78017E-05-2.50498E-05-2.24839E-05-2.50882E-05 1.99728E-18 7.29084E-19
 -1      3547 8.44010E-05-2.75954E-05-2.41962E-05-2.21007E-05 1.70897E-18 1.29834E-19
 -1      3548 9.52402E-05-2.85758E-05-2.85704E-05-2.91219E-09 7.09769E-19-2.21901E-18
 -1      3549 9.52397E-05-2.85754E-05-2.85704E-05-3.31938E-09-2.63341E-20-2.63002E-18
 -1      3550 9.52411E-05-2.85766E-05-2.85705E-05 1.03763E-09 7.14714E-19-1.29815E-18
 -1      3551 9.52413E-05-2.85767E-05-2.85705E-05 3.98400E-10 1.15443E-18-7.02900E-19
 -1      3552 9.52418E-05-2.85773E-05-2.85705E-05 1.13023E-11 9.21091E-19-1.31039E-19
 -1      3553 9.52416E-05-2.85771E-05-2.85705E-05 1.55866E-09 1.38188E-18-1.68308E-18
 -1      3554 9.52397E-05-2.85755E-05-2.85704E-05-3.96042E-09-5.60410E-20-3.32960E-18
 -1      3555 9.52390E-05-2.85748E-05-2.85704E-05-3.73844E-09 2.60591E-19-3.83018E-18
 -1      3556 9.52382E-05-2.85740E-05-2.85704E-05-3.82960E-09 6.38677E-19-3.54311E-18
 -1      3557 9.52416E-05-2.85771E-05-2.85705E-05-1.54295E-09 1.43663E-19-2.73147E-19
 -1      3558 9.52409E-05-2.85764E-05-2.85705E-05-1.74752E-09 2.02641E-19-1.51974E-18
 -1      3559 9.52406E-05-2.85762E-05-2.85705E-05-2.30717E-09 9.56234E-20-1.72512E-18
 -1      3560 9.49423E-05-3.24968E-05-2.67120E-05-1.75228E-05 1.16070E-18 6.98673E-19
 -1      3561 9.20999E-05-2.98702E-05-2.66986E-05-1.61946E-05 9.17158E-19 9.92822E-19
 -1      3562 8.67799E-05-2.80904E-05-2.51322E-05-2.04302E-05 1.58438E-18 5.24247E-19
 -1      3563 8.94591E-05-2.35939E-05-2.82521E-05 7.50420E-06 4.62566E-20 1.13561E-19
 -1      3564 8.92917E-05-2.36759E-05-2.80969E-05 8.41361E-06-2.69776E-19-7.75420E-21
 -1      3565 9.17888E-05-2.84697E-05-2.70848E-05-1.39557E-05 4.12649E-19 1.00340E-18
 -1      3566 9.02877E-05-2.69097E-05-2.72146E-05-1.25845E-05 6.17753E-19 7.43685E-19
 -1      3567 8.59763E-05-2.50689E-05-2.60710E-05-1.51076E-05 7.43228E-19 5.86018E-19
 -1      3568 9.05118E-05-2.62183E-05-2.75378E-05-1.09464E-05 6.08498E-19 3.67669E-19
 -1      3569 8.98140E-05-2.53148E-05-2.76946E-05-9.75445E-06 1.38803E-19 5.21314E-19
 -1      3570 8.63955E-05-2.36099E-05-2.68733E-05-1.10498E-05 3.31668E-19 4.28039E-19
 -1      3571 9.02699E-05-2.50676E-05-2.79449E-05-8.56449E-06-8.79777E-20 4.89464E-19
 -1      3572 9.00447E-05-2.46196E-05-2.80831E-05-7.59166E-06-4.33290E-20-7.04882E-21
 -1      3573 8.73606E-05-2.31134E-05-2.74942E-05-8.18410E-06-6.43071E-20 3.38368E-19
 -1      3574 9.05714E-05-2.46346E-05-2.82665E-05-6.72302E-06 3.76591E-20-7.21839E-20
 -1      3575 9.06035E-05-2.44828E-05-2.83720E-05-5.94457E-06-1.20590E-19 4.53957E-21
 -1      3576 8.84856E-05-2.31752E-05-2.79524E-05-6.15963E-06 5.73278E-21 5.93411E-20
 -1      3577 9.11255E-05-2.46487E-05-2.84999E-05-5.29681E-06 4.05647E-20 1.88511E-19
 -1      3578 9.12847E-05-2.46788E-05-2.85720E-05-4.67243E-06 2.05111E-19 1.14837E-19
 -1      3579 8.96023E-05-2.35452E-05-2.82777E-05-4.69875E-06 2.66254E-19 3.81028E-19
 -1      3580 9.17662E-05-2.49240E-05-2.86564E-05-4.17812E-06 5.69069E-20 2.80646E-19
 -1      3581 9.19761E-05-2.50570E-05-2.87000E-05-3.67291E-06 9.50925E-20 3.32083E-19
 -1      3582 9.06360E-05-2.40767E-05-2.84986E-05-3.61684E-06 3.12702E-19 5.85052E-19
 -1      3583 9.24015E-05-2.53349E-05-2.87516E-05-3.28823E-06 1.58366E-19 4.92467E-19
 -1      3584 9.26189E-05-2.55181E-05-2.87732E-05-2.87648E-06 8.98946E-20 7.46647E-19
 -1      3585 9.15535E-05-2.46754E-05-2.86403E-05-2.79495E-06 4.05029E-19 1.32870E-18
 -1      3586 9.29833E-05-2.57985E-05-2.88009E-05-2.57322E-06 1.04877E-19 8.25013E-19
 -1      3587 9.31854E-05-2.59978E-05-2.88067E-05-2.23679E-06 6.93143E-19 6.18191E-19
 -1      3588 9.23436E-05-2.52809E-05-2.87237E-05-2.15793E-06 3.64172E-19 7.61214E-19
 -1      3589 9.34896E-05-2.62622E-05-2.88179E-05-1.99635E-06 1.03620E-18 2.96356E-19
 -1      3590 9.36658E-05-2.64568E-05-2.88131E-05-1.72218E-06 1.12039E-18-5.07009E-20
 -1      3591 9.30071E-05-2.58548E-05-2.87657E-05-1.65788E-06 7.68213E-19 1.62761E-19
 -1      3592 9.39141E-05-2.66946E-05-2.88133E-05-1.53160E-06 9.11954E-19-2.86393E-19
 -1      3593 9.40611E-05-2.68725E-05-2.88022E-05-1.30970E-06 5.32908E-19-3.12290E-19
 -1      3594 9.35522E-05-2.63748E-05-2.87795E-05-1.26317E-06 6.70867E-19-1.24989E-19
 -1      3595 9.42596E-05-2.70790E-05-2.87956E-05-1.15939E-06 4.57565E-19-3.60921E-19
 -1      3596 9.43782E-05-2.72347E-05-2.87811E-05-9.81578E-07-1.71438E-19 5.56384E-20
 -1      3597 9.39907E-05-2.68296E-05-2.87749E-05-9.51721E-07 5.33734E-19-6.92290E-19
 -1      3598 9.45337E-05-2.74089E-05-2.87707E-05-8.64041E-07-6.18186E-19 1.86030E-19
 -1      3599 9.46265E-05-2.75406E-05-2.87551E-05-7.23283E-07-1.03943E-18 7.60985E-19
 -1      3600 9.43365E-05-2.72163E-05-2.87594E-05-7.07197E-07-8.74996E-20-8.50452E-19
 -1      3601 9.47459E-05-2.76839E-05-2.87431E-05-6.32385E-07-1.03199E-18 1.09104E-18
 -1      3602 9.48168E-05-2.77924E-05-2.87277E-05-5.22495E-07-1.65011E-19 8.42341E-19
 -1      3603 9.46039E-05-2.75371E-05-2.87381E-05-5.16827E-07-3.54529E-19 2.99451E-19
 -1      3604 9.49066E-05-2.79078E-05-2.87154E-05-4.53121E-07 3.69475E-19 8.45456E-20
 -1      3605 9.49594E-05-2.79949E-05-2.87012E-05-3.68621E-07 3.84399E-19-2.77516E-19
 -1      3606 9.48065E-05-2.77974E-05-2.87147E-05-3.70245E-07-2.15844E-19-9.03000E-19
 -1      3607 9.50255E-05-2.80860E-05-2.86895E-05-3.16471E-07-2.63657E-19-4.43895E-19
 -1      3608 9.50637E-05-2.81545E-05-2.86768E-05-2.52562E-07-2.75425E-19-9.71129E-19
 -1      3609 9.49568E-05-2.80044E-05-2.86913E-05-2.58859E-07-3.36149E-19-1.46892E-18
 -1      3610 9.51112E-05-2.82250E-05-2.86663E-05-2.14030E-07 2.27345E-19-1.24962E-18
 -1      3611 9.51380E-05-2.82779E-05-2.86554E-05-1.66565E-07 9.91388E-19-1.68248E-18
 -1      3612 9.50658E-05-2.81660E-05-2.86696E-05-1.75499E-07-5.90155E-20-1.92910E-18
 -1      3613 9.51712E-05-2.83313E-05-2.86462E-05-1.38655E-07 1.29248E-18-1.94832E-18
 -1      3614 9.51894E-05-2.83712E-05-2.86370E-05-1.04115E-07 1.48094E-18-2.35472E-18
 -1      3615 9.51427E-05-2.82895E-05-2.86501E-05-1.14195E-07 6.68692E-19-2.18345E-18
 -1      3616 9.52117E-05-2.84109E-05-2.86292E-05-8.43663E-08 1.08567E-18-2.28796E-18
 -1      3617 9.52235E-05-2.84405E-05-2.86217E-05-5.98195E-08 9.78011E-20-2.33054E-18
 -1      3618 9.51952E-05-2.83823E-05-2.86334E-05-7.00173E-08 8.85584E-19-3.37656E-18
 -1      3619 9.52379E-05-2.84693E-05-2.86153E-05-4.62412E-08-3.26014E-19-1.83981E-18
 -1      3620 9.52451E-05-2.84907E-05-2.86093E-05-2.92870E-08-5.83675E-19-1.91952E-18
 -1      3621 9.52297E-05-2.84504E-05-2.86192E-05-3.89430E-08 1.83673E-19-1.97296E-18
 -1      3622 9.52537E-05-2.85111E-05-2.86040E-05-2.02909E-08-2.05341E-19-1.44746E-18
 -1      3623 9.52576E-05-2.85262E-05-2.85993E-05-8.99915E-09 2.50656E-19-1.20628E-18
 -1      3624 9.52510E-05-2.84992E-05-2.86076E-05-1.77319E-08 2.05861E-19-2.14212E-18
 -1      3625 9.52622E-05-2.85402E-05-2.85951E-05-3.33832E-09 9.68682E-20-1.18751E-18
 -1      3626 9.52638E-05-2.85505E-05-2.85915E-05 3.81594E-09-3.46575E-19-1.11557E-18
 -1      3627 9.52630E-05-2.85333E-05-2.85983E-05-3.81242E-09 1.42520E-19-2.26318E-18
 -1      3628 9.52657E-05-2.85598E-05-2.85882E-05 7.10500E-09-1.39494E-18-5.90545E-19
 -1      3629 9.52659E-05-2.85665E-05-2.85854E-05 1.13059E-08-1.46287E-18-1.26146E-18
 -1      3630 9.52686E-05-2.85563E-05-2.85909E-05 4.82604E-09-8.09441E-19-2.50737E-18
 -1      3631 9.52660E-05-2.85723E-05-2.85830E-05 1.29550E-08-1.15228E-18-9.22747E-19
 -1      3632 9.52653E-05-2.85764E-05-2.85809E-05 1.51058E-08-1.08288E-18-3.07981E-19
 -1      3633 9.52699E-05-2.85712E-05-2.85852E-05 9.73027E-09-7.35037E-19-5.34906E-19
 -1      3634 9.52643E-05-2.85798E-05-2.85790E-05 1.56609E-08-8.62250E-19 5.19619E-19
 -1      3635 9.52631E-05-2.85821E-05-2.85775E-05 1.64375E-08 7.12277E-20 1.69353E-18
 -1      3636 9.52686E-05-2.85801E-05-2.85809E-05 1.20703E-08 6.36797E-20 5.24696E-19
 -1      3637 9.52615E-05-2.85837E-05-2.85762E-05 1.62976E-08 3.73708E-19 1.57125E-18
 -1      3638 9.52601E-05-2.85848E-05-2.85751E-05 1.61960E-08 9.29515E-19 1.06723E-18
 -1      3639 9.52658E-05-2.85849E-05-2.85776E-05 1.27151E-08 1.15780E-18 1.17843E-18
 -1      3640 9.52583E-05-2.85853E-05-2.85741E-05 1.56463E-08 5.92128E-19 1.59000E-18
 -1      3641 9.52568E-05-2.85855E-05-2.85734E-05 1.50218E-08 7.41810E-19 1.20913E-18
 -1      3642 9.52623E-05-2.85869E-05-2.85752E-05 1.22969E-08 8.89701E-19 4.39118E-19
 -1      3643 9.52550E-05-2.85853E-05-2.85727E-05 1.42604E-08 6.34194E-19-6.61343E-20
 -1      3644 9.52536E-05-2.85850E-05-2.85722E-05 1.33609E-08-3.10291E-19-5.10982E-19
 -1      3645 9.52585E-05-2.85871E-05-2.85735E-05 1.12649E-08-6.30977E-20-8.69461E-19
 -1      3646 9.52518E-05-2.85844E-05-2.85717E-05 1.25208E-08-1.32762E-19-1.67666E-19
 -1      3647 9.52506E-05-2.85839E-05-2.85714E-05 1.15133E-08 1.14906E-18-4.53535E-19
 -1      3648 9.52549E-05-2.85862E-05-2.85724E-05 9.92927E-09 5.25962E-20-6.90811E-19
 -1      3649 9.52490E-05-2.85830E-05-2.85711E-05 1.06798E-08 1.17047E-18-2.13027E-19
 -1      3650 9.52479E-05-2.85823E-05-2.85709E-05 9.67206E-09 8.59293E-19-2.24900E-19
 -1      3651 9.52515E-05-2.85847E-05-2.85716E-05 8.49641E-09 8.54458E-19-6.76356E-19
 -1      3652 9.52465E-05-2.85814E-05-2.85707E-05 8.89593E-09 1.44809E-18-8.54210E-19
 -1      3653 9.52455E-05-2.85807E-05-2.85706E-05 7.95301E-09 1.47233E-18-4.94135E-19
 -1      3654 9.52486E-05-2.85829E-05-2.85711E-05 7.09704E-09 1.11457E-18-1.34441E-18
 -1      3655 9.52444E-05-2.85798E-05-2.85705E-05 7.25901E-09 1.83485E-18-4.06008E-19
 -1      3656 9.52436E-05-2.85791E-05-2.85705E-05 6.41569E-09 2.25573E-18 1.51862E-19
 -1      3657 9.52460E-05-2.85811E-05-2.85707E-05 5.80586E-09 1.94473E-18-1.12067E-18
 -1      3658 9.52426E-05-2.85783E-05-2.85704E-05 5.80777E-09 1.62930E-18-1.29239E-18
 -1      3659 9.52419E-05-2.85776E-05-2.85704E-05 5.10955E-09 2.08226E-18-1.07919E-18
 -1      3660 9.52439E-05-2.85793E-05-2.85706E-05 4.66278E-09 1.06324E-18-2.87438E-18
 -1      3661 9.52413E-05-2.85770E-05-2.85704E-05 4.47936E-09 1.29840E-18-1.98931E-18
 -1      3662 9.13709E-05-2.43996E-05-2.87169E-05 4.75497E-06-1.91863E-19-3.39960E-19
 -1      3663 9.10647E-05-2.41780E-05-2.86581E-05 5.32965E-06 2.27300E-19-8.38646E-20
 -1      3664 8.85754E-05-2.37113E-05-2.78270E-05 9.55686E-06-5.16728E-19-1.39000E-19
 -1      3665 8.86672E-05-2.41453E-05-2.76096E-05 1.07465E-05-6.30239E-19-3.40057E-19
 -1      3666 8.68686E-05-2.23984E-05-2.76090E-05 8.48045E-06-5.30281E-19-2.73592E-19
 -1      3667 9.21945E-05-2.49835E-05-2.88166E-05 3.79064E-06-2.95151E-19-3.20966E-19
 -1      3668 9.19076E-05-2.47224E-05-2.87890E-05 4.26273E-06-1.85218E-19-2.54900E-19
 -1      3669 9.08010E-05-2.39883E-05-2.86219E-05 4.09553E-06-1.76804E-19-1.68914E-20
 -1      3670 9.28916E-05-2.55706E-05-2.88614E-05 3.00320E-06-1.34534E-19-7.13568E-19
 -1      3671 9.26425E-05-2.53066E-05-2.88551E-05 3.39459E-06-2.84133E-19-7.82418E-19
 -1      3672 9.17793E-05-2.46895E-05-2.87428E-05 3.25704E-06-1.83528E-19-3.22167E-19
 -1      3673 9.34635E-05-2.61186E-05-2.88698E-05 2.35597E-06 1.02695E-18-1.02043E-18
 -1      3674 9.32573E-05-2.58720E-05-2.88770E-05 2.68036E-06 2.55046E-19-8.36806E-19
 -1      3675 9.25861E-05-2.53567E-05-2.88046E-05 2.57741E-06 2.22240E-19-8.81265E-19
 -1      3676 9.39214E-05-2.66061E-05-2.88556E-05 1.82520E-06 5.39660E-19 1.33613E-19
 -1      3677 9.37564E-05-2.63870E-05-2.88706E-05 2.09220E-06 9.85764E-19-2.08478E-19
 -1      3678 9.32385E-05-2.59615E-05-2.88267E-05 2.02087E-06 4.48536E-19-3.51906E-19
 -1      3679 9.42806E-05-2.70252E-05-2.88287E-05 1.39345E-06 1.14260E-19 5.31019E-19
 -1      3680 9.41520E-05-2.68372E-05-2.88474E-05 1.61078E-06 5.94940E-19 6.09287E-19
 -1      3681 9.37567E-05-2.64904E-05-2.88236E-05 1.56518E-06 4.31693E-19 8.31937E-19
 -1      3682 9.45572E-05-2.73759E-05-2.87959E-05 1.04634E-06 2.17322E-19 1.30254E-19
 -1      3683 9.44592E-05-2.72189E-05-2.88157E-05 1.22087E-06 1.61737E-19 2.66714E-20
 -1      3684 9.41617E-05-2.69405E-05-2.88054E-05 1.19465E-06 3.75974E-19 9.97061E-19
 -1      3685 9.47666E-05-2.76631E-05-2.87617E-05 7.71122E-07 1.27154E-19-6.70402E-19
 -1      3686 9.46933E-05-2.75348E-05-2.87808E-05 9.09199E-07 3.75465E-20-2.03357E-19
 -1      3687 9.44730E-05-2.73147E-05-2.87794E-05 8.96730E-07 3.24958E-19 2.39470E-19
 -1      3688 9.49222E-05-2.78936E-05-2.87289E-05 5.56229E-07-3.86552E-20-8.21922E-19
 -1      3689 9.48685E-05-2.77908E-05-2.87464E-05 6.63741E-07 3.56228E-19-8.95297E-19
 -1      3690 9.47084E-05-2.76196E-05-2.87503E-05 6.60460E-07 1.54743E-19-6.84747E-19
 -1      3691 9.50356E-05-2.80755E-05-2.86990E-05 3.91178E-07-1.93645E-19-7.68166E-19
 -1      3692 9.49971E-05-2.79946E-05-2.87143E-05 4.73493E-07-4.76317E-19-8.80022E-19
 -1      3693 9.48834E-05-2.78636E-05-2.87213E-05 4.75950E-07-2.06104E-19-8.81542E-20
 -1      3694 9.51165E-05-2.82166E-05-2.86727E-05 2.66629E-07-4.81333E-19 4.45064E-19
 -1      3695 9.50896E-05-2.81539E-05-2.86859E-05 3.28532E-07-1.76773E-19-5.69684E-20
 -1      3696 9.50110E-05-2.80555E-05-2.86942E-05 3.34242E-07-1.00772E-18-3.23177E-20
 -1      3697 9.51728E-05-2.83241E-05-2.86504E-05 1.74436E-07-3.79855E-19 1.22426E-18
 -1      3698 9.51545E-05-2.82764E-05-2.86614E-05 2.20088E-07-3.01779E-19 7.50125E-19
 -1      3699 9.51021E-05-2.82038E-05-2.86700E-05 2.27342E-07-6.87711E-19 3.03979E-19
 -1      3700 9.52108E-05-2.84045E-05-2.86319E-05 1.07648E-07 5.74064E-19 1.94888E-18
 -1      3701 9.51988E-05-2.83690E-05-2.86408E-05 1.40585E-07 1.05057E-19 1.61630E-18
 -1      3702 9.51655E-05-2.83165E-05-2.86491E-05 1.48263E-07-2.95677E-19 1.41174E-18
 -1      3703 9.52352E-05-2.84636E-05-2.86169E-05 6.04590E-08 7.91544E-20 2.60141E-18
 -1      3704 9.52278E-05-2.84376E-05-2.86240E-05 8.36208E-08 1.66996E-19 2.01846E-18
 -1      3705 9.52081E-05-2.84007E-05-2.86315E-05 9.10337E-08 5.36019E-20 1.16081E-18
 -1      3706 9.52501E-05-2.85061E-05-2.86049E-05 2.81148E-08-2.29974E-19 2.87689E-18
 -1      3707 9.52459E-05-2.84874E-05-2.86104E-05 4.38994E-08-1.76423E-19 2.81259E-18
 -1      3708 9.52357E-05-2.84622E-05-2.86170E-05 5.06577E-08-6.40350E-19 1.38261E-18
 -1      3709 9.52582E-05-2.85358E-05-2.85955E-05 6.79809E-09 1.00068E-18 2.59493E-18
 -1      3710 9.52562E-05-2.85228E-05-2.85998E-05 1.71229E-08 1.13441E-18 3.03655E-18
 -1      3711 9.52523E-05-2.85063E-05-2.86054E-05 2.30416E-08 4.20070E-19 1.50054E-18
 -1      3712 9.52617E-05-2.85560E-05-2.85883E-05-6.50080E-09 1.42562E-19 2.62388E-18
 -1      3713 9.52612E-05-2.85472E-05-2.85915E-05-1.29605E-10 3.37592E-19 2.62598E-18
 -1      3714 9.52614E-05-2.85370E-05-2.85961E-05 4.89703E-09 5.12151E-19 1.25830E-18
 -1      3715 9.52622E-05-2.85691E-05-2.85828E-05-1.41114E-08 3.48235E-19 1.58036E-18
 -1      3716 9.52626E-05-2.85634E-05-2.85852E-05-1.05324E-08 6.57304E-19 2.63269E-18
 -1      3717 9.52653E-05-2.85576E-05-2.85890E-05-6.36893E-09 3.98053E-19 1.34331E-18
 -1      3718 9.52609E-05-2.85772E-05-2.85788E-05-1.78040E-08 1.15381E-18 7.47717E-19
 -1      3719 9.52618E-05-2.85737E-05-2.85805E-05-1.61376E-08 4.16161E-19 1.20263E-18
 -1      3720 9.52658E-05-2.85710E-05-2.85835E-05-1.27626E-08 1.08100E-18 5.79795E-19
 -1      3721 9.52586E-05-2.85816E-05-2.85759E-05-1.88974E-08 1.24298E-18 1.46998E-18
 -1      3722 9.52598E-05-2.85797E-05-2.85771E-05-1.84908E-08 1.40673E-18 1.26923E-18
 -1      3723 9.52643E-05-2.85790E-05-2.85794E-05-1.58074E-08 9.27969E-19 2.39233E-19
 -1      3724 9.52559E-05-2.85836E-05-2.85738E-05-1.83542E-08 7.46334E-19 2.44158E-18
 -1      3725 9.52571E-05-2.85828E-05-2.85747E-05-1.87328E-08 8.41888E-19 1.81715E-18
 -1      3726 9.52616E-05-2.85833E-05-2.85765E-05-1.66377E-08 5.01062E-19 1.45653E-18
 -1      3727 9.52530E-05-2.85840E-05-2.85724E-05-1.68598E-08 1.04830E-18 1.47299E-18
 -1      3728 9.52542E-05-2.85839E-05-2.85730E-05-1.76871E-08 1.92944E-18 2.29671E-18
 -1      3729 9.52585E-05-2.85852E-05-2.85743E-05-1.60798E-08 1.09945E-18 2.98943E-19
 -1      3730 9.52502E-05-2.85835E-05-2.85715E-05-1.48883E-08-4.36455E-19-3.85667E-19
 -1      3731 9.52514E-05-2.85838E-05-2.85718E-05-1.59328E-08 3.17482E-19 1.07522E-18
 -1      3732 9.52552E-05-2.85854E-05-2.85728E-05-1.47214E-08 1.44046E-18-5.67890E-19
 -1      3733 9.52477E-05-2.85823E-05-2.85709E-05-1.27563E-08-1.32301E-18-7.87053E-19
 -1      3734 9.52487E-05-2.85829E-05-2.85711E-05-1.38645E-08-1.58389E-18-9.88382E-19
 -1      3735 9.52520E-05-2.85846E-05-2.85718E-05-1.29681E-08-5.05222E-19-1.13970E-18
 -1      3736 9.52455E-05-2.85809E-05-2.85705E-05-1.06644E-08-5.98872E-19 1.56538E-19
 -1      3737 9.52464E-05-2.85816E-05-2.85706E-05-1.17400E-08-1.11009E-18-4.62907E-19
 -1      3738 9.52492E-05-2.85832E-05-2.85711E-05-1.10897E-08-9.04574E-19-2.33855E-19
 -1      3739 9.52437E-05-2.85794E-05-2.85704E-05-8.73080E-09 1.38277E-18-1.40418E-18
 -1      3740 9.52444E-05-2.85801E-05-2.85704E-05-9.71800E-09 1.07649E-18-5.66136E-19
 -1      3741 9.52466E-05-2.85816E-05-2.85707E-05-9.25662E-09 6.36207E-19-1.11840E-18
 -1      3742 9.52421E-05-2.85780E-05-2.85703E-05-7.01611E-09 6.76744E-19-1.52413E-18
 -1      3743 9.52427E-05-2.85787E-05-2.85703E-05-7.88721E-09 1.03271E-18-6.19900E-19
 -1      3744 9.52445E-05-2.85800E-05-2.85705E-05-7.56873E-09 9.83826E-19-1.74843E-18
 -1      3745 9.52408E-05-2.85767E-05-2.85703E-05-5.54420E-09-1.30429E-19-2.61829E-18
 -1      3746 9.52413E-05-2.85773E-05-2.85703E-05-6.28693E-09-4.34845E-20-2.22429E-18
 -1      3747 9.52427E-05-2.85785E-05-2.85704E-05-6.07776E-09 6.67055E-19-2.34186E-18
 -1      3748 9.52400E-05-2.85759E-05-2.85703E-05-4.41073E-09 8.04960E-19-3.76110E-18
 -1      3749 9.52404E-05-2.85763E-05-2.85703E-05-5.02831E-09 3.83715E-19-2.68975E-18
 -1      3750 9.52415E-05-2.85773E-05-2.85704E-05-4.87458E-09 7.12143E-19-1.82828E-18
 -1      3751 9.52407E-05-2.85765E-05-2.85704E-05-3.93354E-09 1.02000E-18-1.94933E-18
 -1      3752 9.52394E-05-2.85752E-05-2.85704E-05 3.83875E-09-6.89345E-20-1.17059E-19
 -1      3753 9.52400E-05-2.85758E-05-2.85704E-05 4.06516E-09 1.94809E-19-1.45991E-18
 -1      3754 9.52416E-05-2.85772E-05-2.85704E-05 3.84246E-09 9.94501E-19-3.06873E-18
 -1      3755 9.40652E-05-3.10720E-05-2.69938E-05 1.77219E-05-1.38598E-18-6.74751E-19
 -1      3756 5.86923E-05-1.13437E-05-2.02816E-05 7.70189E-06-1.34362E-18 3.59576E-18
 -1      3757 5.53812E-05-9.16516E-06-1.93834E-05-8.02440E-07-6.80839E-19 4.55182E-18
 -1      3758 9.52409E-05-2.85765E-05-2.85705E-05-2.89981E-09 5.15767E-20-2.05615E-18
 -1      3759 9.04394E-05-2.38942E-05-2.85384E-05 5.95749E-06 3.47722E-19-8.48669E-20
 -1      3760 9.01587E-05-2.37740E-05-2.84369E-05 6.67098E-06 2.15262E-19 1.53713E-19
 -1      3761 8.96424E-05-2.33047E-05-2.84163E-05 5.15486E-06 1.51011E-19 1.23589E-19
 -1      3762 8.98619E-05-2.88198E-05-2.60826E-05 1.86821E-05-1.34394E-18 1.55735E-19
 -1      3763 8.38299E-05-2.58867E-05-2.47254E-05 2.06613E-05-1.72739E-18 7.45257E-19
 -1      3764 8.83219E-05-2.64024E-05-2.66293E-05 1.57169E-05-1.36531E-18 1.93693E-20
 -1      3765 6.02075E-05-1.16184E-05-2.06171E-05-5.83894E-06 8.48059E-20 3.34589E-18
 -1      3766 9.52425E-05-2.85778E-05-2.85705E-05-1.35037E-09 5.94014E-19 6.07911E-19
 -1      3767 9.52422E-05-2.85776E-05-2.85705E-05-2.09965E-09 2.11776E-19-7.94306E-19
 -1      3768 7.92749E-05-2.21113E-05-2.43595E-05 1.78977E-05-1.47167E-18 1.05691E-18
 -1      3769 8.31944E-05-2.52736E-05-2.47155E-05-1.91386E-05 1.23701E-18-2.71183E-20
 -1      3770 8.83101E-05-2.27240E-05-2.80927E-05 6.54557E-06 1.22251E-19 1.61227E-19
 -1      3771 9.52421E-05-2.85776E-05-2.85705E-05 3.18306E-09 1.31000E-18-1.71327E-18
 -1      3772 9.52413E-05-2.85769E-05-2.85704E-05-3.30135E-09 8.55005E-19-2.20042E-18
 -1      3773 8.81584E-05-2.45631E-05-2.73012E-05 1.21716E-05-8.07120E-19-3.85225E-19
 -1      3774 8.87921E-05-2.55516E-05-2.70340E-05 1.37346E-05-1.26970E-18-5.03707E-19
 -1      3775 8.47699E-05-2.33946E-05-2.62094E-05 1.44518E-05-9.58914E-19 4.94669E-19
 -1      3776 8.55962E-05-2.25283E-05-2.69778E-05 1.10713E-05-7.80647E-19-2.21702E-19
 -1      3777 7.02668E-05-1.88689E-05-2.18382E-05-1.98059E-05 1.11482E-18 1.22408E-18
 -1      3778 7.69907E-05-2.18427E-05-2.35419E-05-1.89840E-05 1.29854E-18 3.43267E-19
 -1      3779 6.71841E-05-1.62839E-05-2.18490E-05-1.55727E-05 8.28180E-19 2.05535E-18
 -1      3780 6.43702E-05-1.37165E-05-2.13932E-05 1.21708E-05-1.75286E-18 2.68818E-18
 -1      3781 6.48947E-05-1.31253E-05-2.21748E-05 6.38672E-06-1.02686E-18 2.79026E-18
 -1      3782 7.06186E-05-1.72899E-05-2.29021E-05 1.50603E-05-1.80486E-18 1.58562E-18
 -1      3783 9.52426E-05-2.85780E-05-2.85706E-05 4.20217E-10 5.60932E-19-1.40887E-18
 -1      3784 9.52426E-05-2.85780E-05-2.85706E-05-3.88038E-10 6.32602E-19 6.10479E-19
 -1      3785 9.52433E-05-2.85786E-05-2.85706E-05-9.61516E-10 2.55242E-19 4.59779E-19
 -1      3786 7.66156E-05-1.98062E-05-2.44203E-05 1.41784E-05-1.20604E-18 1.29883E-18
 -1      3787 6.43010E-05-1.25838E-05-2.22121E-05-2.35304E-06-1.24302E-19 2.44677E-18
 -1      3788 6.45484E-05-1.33100E-05-2.17614E-05-9.92507E-06 6.90792E-19 2.66998E-18
 -1      3789 7.08775E-05-1.64452E-05-2.32159E-05-1.14097E-05 7.41652E-19 1.91715E-18
 -1      3790 8.35515E-05-2.19862E-05-2.63408E-05-1.05481E-05 2.62773E-19 6.62960E-19
 -1      3791 8.39300E-05-2.17379E-05-2.67203E-05-9.00370E-06 1.17872E-19 3.12124E-19
 -1      3792 8.53208E-05-2.19426E-05-2.71372E-05-7.64257E-06 2.23681E-19 4.17011E-19
 -1      3793 8.58425E-05-2.19835E-05-2.74167E-05-6.57682E-06 1.83173E-19 6.76154E-19
 -1      3794 8.26838E-05-2.03950E-05-2.66497E-05-7.18793E-06 3.19889E-19 4.75334E-19
 -1      3795 8.69740E-05-2.22929E-05-2.77084E-05-5.65093E-06 6.90512E-20 9.52658E-19
 -1      3796 8.75320E-05-2.24908E-05-2.79092E-05-4.89282E-06 2.75390E-19 1.02015E-18
 -1      3797 8.51114E-05-2.11486E-05-2.73805E-05-5.14929E-06 4.84328E-19 9.46290E-19
 -1      3798 8.84600E-05-2.28551E-05-2.81108E-05-4.24730E-06 2.75340E-19 1.01547E-18
 -1      3799 8.89960E-05-2.31372E-05-2.82498E-05-3.69356E-06 2.29901E-19 1.11222E-18
 -1      3800 8.71046E-05-2.19774E-05-2.78874E-05-3.76284E-06 2.39729E-19 1.50933E-18
 -1      3801 8.97594E-05-2.35211E-05-2.83857E-05-3.23114E-06 4.91280E-19 8.48178E-19
 -1      3802 9.02463E-05-2.38403E-05-2.84775E-05-2.81488E-06 6.48655E-19 1.11823E-18
 -1      3803 8.87479E-05-2.28265E-05-2.82335E-05-2.79659E-06 2.26804E-19 1.27159E-18
 -1      3804 9.08750E-05-2.42206E-05-2.85658E-05-2.47472E-06 4.09614E-19 9.42647E-19
 -1      3805 9.13016E-05-2.45465E-05-2.86226E-05-2.15404E-06 3.35014E-19 1.08088E-18
 -1      3806 9.01059E-05-2.36577E-05-2.84633E-05-2.10116E-06 4.63672E-19 1.23105E-18
 -1      3807 9.18174E-05-2.49065E-05-2.86765E-05-1.89875E-06 2.35436E-19 1.04589E-18
 -1      3808 9.21808E-05-2.52186E-05-2.87081E-05-1.64735E-06 3.81124E-19 8.08270E-19
 -1      3809 9.12263E-05-2.44446E-05-2.86094E-05-1.58740E-06 8.82157E-20 9.36866E-19
 -1      3810 9.26004E-05-2.55473E-05-2.87377E-05-1.45310E-06 3.14612E-19 6.12651E-19
 -1      3811 9.29027E-05-2.58330E-05-2.87518E-05-1.25408E-06 9.02983E-19 4.75430E-19
 -1      3812 9.21446E-05-2.51670E-05-2.86957E-05-1.20030E-06 2.48373E-20 8.45482E-19
 -1      3813 9.32402E-05-2.61240E-05-2.87648E-05-1.10514E-06 1.13293E-18 1.42182E-19
 -1      3814 9.34862E-05-2.63765E-05-2.87671E-05-9.47124E-07 8.69691E-19 1.90695E-19
 -1      3815 9.28895E-05-2.58121E-05-2.87403E-05-9.04740E-07 6.81457E-19 1.98676E-19
 -1      3816 9.37539E-05-2.66273E-05-2.87692E-05-8.32674E-07 5.59509E-19 7.14962E-19
 -1      3817 9.39501E-05-2.68441E-05-2.87642E-05-7.07525E-07 3.63619E-19 1.42573E-19
 -1      3818 9.34859E-05-2.63736E-05-2.87569E-05-6.77436E-07 6.65393E-19 6.96802E-19
 -1      3819 9.41593E-05-2.70552E-05-2.87595E-05-6.19777E-07 4.28144E-20-2.54583E-19
 -1      3820 9.43127E-05-2.72367E-05-2.87502E-05-5.21306E-07-7.52705E-20 1.53154E-19
 -1      3821 9.39566E-05-2.68511E-05-2.87552E-05-5.02290E-07-3.62773E-21 1.37327E-18
 -1      3822 9.44735E-05-2.74106E-05-2.87417E-05-4.54432E-07-3.12951E-19-2.79953E-19
 -1      3823 9.45910E-05-2.75592E-05-2.87305E-05-3.77688E-07-4.49466E-19-3.74889E-19
 -1      3824 9.43222E-05-2.72486E-05-2.87426E-05-3.67666E-07-1.73698E-19 5.78818E-19
 -1      3825 9.47124E-05-2.76996E-05-2.87201E-05-3.27183E-07-2.54780E-19-8.00118E-19
 -1      3826 9.48006E-05-2.78189E-05-2.87084E-05-2.68073E-07 1.22339E-19-8.54584E-19
 -1      3827 9.46014E-05-2.75728E-05-2.87241E-05-2.64808E-07-6.72153E-19-4.85490E-19
 -1      3828 9.48906E-05-2.79300E-05-2.86976E-05-2.30377E-07 1.46736E-19-1.03993E-18
 -1      3829 9.49554E-05-2.80239E-05-2.86863E-05-1.85473E-07-3.29360E-19-9.21070E-19
 -1      3830 9.48106E-05-2.78324E-05-2.87031E-05-1.86921E-07-6.15446E-20-4.75765E-19
 -1      3831 9.50205E-05-2.81103E-05-2.86759E-05-1.57740E-07-8.70977E-19-1.04343E-18
 -1      3832 9.50669E-05-2.81829E-05-2.86656E-05-1.24157E-07-6.46524E-19-1.33421E-18
 -1      3833 9.49643E-05-2.80364E-05-2.86821E-05-1.28620E-07-8.03892E-19-3.53294E-19
 -1      3834 9.51130E-05-2.82488E-05-2.86562E-05-1.04107E-07-1.10859E-19-1.53799E-18
 -1      3835 9.51453E-05-2.83037E-05-2.86471E-05-7.94351E-08 8.89713E-19-2.44199E-18
 -1      3836 9.50746E-05-2.81937E-05-2.86623E-05-8.55916E-08-7.58167E-19 2.68025E-19
 -1      3837 9.51768E-05-2.83531E-05-2.86388E-05-6.52433E-08 1.33607E-18-3.11396E-18
 -1      3838 9.51985E-05-2.83939E-05-2.86310E-05-4.74884E-08 1.21606E-18-2.65269E-18
 -1      3839 9.51517E-05-2.83129E-05-2.86445E-05-5.43684E-08 4.29543E-19-1.88679E-18
 -1      3840 9.52192E-05-2.84300E-05-2.86240E-05-3.77042E-08 8.48417E-19-1.57273E-18
 -1      3841 9.52331E-05-2.84596E-05-2.86175E-05-2.52380E-08 6.38139E-19-1.36931E-18
 -1      3842 9.52037E-05-2.84014E-05-2.86291E-05-3.21704E-08 1.25380E-18-2.71910E-18
 -1      3843 9.52460E-05-2.84855E-05-2.86116E-05-1.87191E-08 1.99176E-21-1.08921E-18
 -1      3844 9.52543E-05-2.85065E-05-2.86064E-05-1.02303E-08 2.17130E-19-1.29979E-18
 -1      3845 9.52372E-05-2.84657E-05-2.86161E-05-1.67830E-08 5.76680E-19-1.48850E-18
 -1      3846 9.52616E-05-2.85245E-05-2.86016E-05-6.08730E-09-1.24979E-19-1.45048E-18
 -1      3847 9.52660E-05-2.85389E-05-2.85974E-05-5.35212E-10-2.83846E-19-2.04036E-18
 -1      3848 9.52575E-05-2.85113E-05-2.86054E-05-6.45789E-09-3.48478E-19-6.38853E-20
 -1      3849 9.52695E-05-2.85510E-05-2.85936E-05 1.91538E-09-9.31744E-20-2.47007E-18
 -1      3850 9.52712E-05-2.85605E-05-2.85903E-05 5.34354E-09-8.60445E-20-1.05091E-18
 -1      3851 9.52684E-05-2.85426E-05-2.85967E-05 1.69828E-10-2.43070E-19-3.07409E-19
 -1      3852 9.52721E-05-2.85683E-05-2.85873E-05 6.61966E-09-5.86792E-20-1.29130E-18
 -1      3853 9.52721E-05-2.85742E-05-2.85848E-05 8.54872E-09-2.45756E-19-6.35919E-19
 -1      3854 9.52730E-05-2.85633E-05-2.85898E-05 4.15230E-09 1.01741E-19-2.34996E-19
 -1      3855 9.52715E-05-2.85789E-05-2.85825E-05 9.03640E-09-1.18292E-19 1.33995E-19
 -1      3856 9.52705E-05-2.85823E-05-2.85806E-05 9.93850E-09 7.76129E-19 9.81532E-20
 -1      3857 9.52734E-05-2.85763E-05-2.85845E-05 6.28908E-09 2.95392E-19-9.56310E-19
 -1      3858 9.52689E-05-2.85848E-05-2.85789E-05 9.92026E-09 1.49669E-18 3.65209E-19
 -1      3859 9.52673E-05-2.85865E-05-2.85775E-05 1.01456E-08 2.04979E-18 8.21433E-19
 -1      3860 9.52714E-05-2.85838E-05-2.85804E-05 7.17825E-09 1.48001E-18-3.48296E-19
 -1      3861 9.52653E-05-2.85874E-05-2.85762E-05 9.82382E-09 1.68804E-18-3.70426E-19
 -1      3862 9.52635E-05-2.85880E-05-2.85752E-05 9.62675E-09 5.91375E-19-2.21408E-19
 -1      3863 9.52679E-05-2.85875E-05-2.85774E-05 7.25916E-09 1.42173E-18-7.77929E-20
 -1      3864 9.52613E-05-2.85880E-05-2.85742E-05 9.14282E-09-1.02838E-19-7.94705E-19
 -1      3865 9.52594E-05-2.85878E-05-2.85735E-05 8.70378E-09 1.15827E-19-5.40794E-19
 -1      3866 9.52639E-05-2.85887E-05-2.85751E-05 6.84798E-09 2.31269E-19-1.23512E-18
 -1      3867 9.52573E-05-2.85873E-05-2.85729E-05 8.15321E-09 3.94290E-20 1.41302E-19
 -1      3868 9.52556E-05-2.85866E-05-2.85724E-05 7.59644E-09 8.94554E-19 2.13895E-19
 -1      3869 9.52597E-05-2.85883E-05-2.85735E-05 6.16662E-09 1.79887E-19 6.59409E-19
 -1      3870 9.52536E-05-2.85858E-05-2.85719E-05 7.04109E-09 7.78123E-19-4.53379E-19
 -1      3871 9.52520E-05-2.85849E-05-2.85716E-05 6.44899E-09 9.16116E-19-3.74978E-19
 -1      3872 9.52557E-05-2.85869E-05-2.85724E-05 5.36606E-09 1.69074E-19 8.06180E-19
 -1      3873 9.52503E-05-2.85839E-05-2.85713E-05 5.92661E-09 1.16704E-18-1.14278E-18
 -1      3874 9.52489E-05-2.85830E-05-2.85711E-05 5.35063E-09 1.48070E-18-1.15324E-18
 -1      3875 9.52521E-05-2.85851E-05-2.85716E-05 4.54501E-09 1.02236E-18-8.22964E-19
 -1      3876 9.52475E-05-2.85820E-05-2.85709E-05 4.88443E-09 1.12479E-18-1.35879E-18
 -1      3877 9.52463E-05-2.85811E-05-2.85708E-05 4.35027E-09 1.10950E-18-2.14977E-18
 -1      3878 9.52489E-05-2.85831E-05-2.85711E-05 3.76793E-09 9.95982E-19-7.18019E-19
 -1      3879 9.52451E-05-2.85801E-05-2.85707E-05 3.94667E-09 1.28845E-18-2.54321E-18
 -1      3880 9.52441E-05-2.85793E-05-2.85706E-05 3.47628E-09 9.66773E-19-2.28508E-18
 -1      3881 9.52463E-05-2.85811E-05-2.85708E-05 3.07305E-09 5.07164E-19-1.73469E-18
 -1      3882 8.53265E-05-2.12919E-05-2.74866E-05 6.65132E-06-3.76935E-19 2.70319E-19
 -1      3883 8.44748E-05-2.11005E-05-2.71763E-05 7.76417E-06-6.74376E-19 2.41595E-19
 -1      3884 9.14551E-05-2.45280E-05-2.86944E-05 2.58283E-06 1.36756E-19-4.01536E-20
 -1      3885 9.10036E-05-2.41618E-05-2.86470E-05 2.92707E-06 1.45580E-19 3.34347E-19
 -1      3886 9.23509E-05-2.52532E-05-2.87650E-05 2.04518E-06 3.92230E-19-6.10728E-19
 -1      3887 9.19830E-05-2.49181E-05-2.87427E-05 2.32789E-06 2.07427E-19-1.94069E-19
 -1      3888 9.13093E-05-2.44110E-05-2.86587E-05 2.01229E-06 3.56346E-19 1.45993E-19
 -1      3889 9.30668E-05-2.58952E-05-2.87948E-05 1.60345E-06-2.27323E-19 3.86305E-20
 -1      3890 9.27724E-05-2.55989E-05-2.87891E-05 1.83674E-06-1.31476E-19-7.49148E-19
 -1      3891 9.22474E-05-2.51762E-05-2.87355E-05 1.59785E-06 1.09772E-20-3.70923E-19
 -1      3892 9.36318E-05-2.64487E-05-2.87983E-05 1.24090E-06 4.98435E-19 5.82253E-19
 -1      3893 9.34002E-05-2.61939E-05-2.88029E-05 1.43259E-06 2.20240E-19 2.53761E-19
 -1      3894 9.29933E-05-2.58444E-05-2.87710E-05 1.25560E-06-4.51958E-20 2.25603E-19
 -1      3895 9.40718E-05-2.69152E-05-2.87858E-05 9.45709E-07 5.74548E-19 5.47915E-19
 -1      3896 9.38925E-05-2.67011E-05-2.87963E-05 1.10167E-06 6.57083E-19 1.18758E-18
 -1      3897 9.35803E-05-2.64156E-05-2.87794E-05 9.73352E-07 2.72910E-19 2.76997E-19
 -1      3898 9.44096E-05-2.73005E-05-2.87645E-05 7.08260E-07 3.18860E-19 1.76688E-19
 -1      3899 9.42729E-05-2.71242E-05-2.87778E-05 8.33500E-07 4.56675E-19 4.69953E-19
 -1      3900 9.40366E-05-2.68943E-05-2.87711E-05 7.42619E-07 3.27881E-19 1.05373E-18
 -1      3901 9.46649E-05-2.76129E-05-2.87392E-05 5.20027E-07 2.58982E-19-5.82805E-19
 -1      3902 9.45625E-05-2.74705E-05-2.87534E-05 6.19091E-07 4.53895E-19-8.71927E-20
 -1      3903 9.43863E-05-2.72880E-05-2.87533E-05 5.56438E-07 5.54327E-19-3.04966E-20
 -1      3904 9.48546E-05-2.78618E-05-2.87132E-05 3.73200E-07-1.05419E-18 1.30771E-20
 -1      3905 9.47793E-05-2.77487E-05-2.87271E-05 4.50292E-07-4.15282E-19-4.83972E-19
 -1      3906 9.46504E-05-2.76063E-05-2.87309E-05 4.08510E-07-1.47354E-19-2.97233E-20
 -1      3907 9.49930E-05-2.80568E-05-2.86885E-05 2.60641E-07-1.44035E-18 4.18069E-19
 -1      3908 9.49387E-05-2.79685E-05-2.87012E-05 3.19601E-07-1.26447E-18 1.58136E-19
 -1      3909 9.48464E-05-2.78592E-05-2.87072E-05 2.92947E-07-1.35895E-18-3.14962E-19
 -1      3910 9.50918E-05-2.82070E-05-2.86660E-05 1.75948E-07-5.13842E-19 7.85116E-20
 -1      3911 9.50535E-05-2.81392E-05-2.86773E-05 2.20209E-07-8.72789E-19 5.67876E-20
 -1      3912 9.49892E-05-2.80567E-05-2.86842E-05 2.04283E-07-1.19708E-18 4.52877E-19
 -1      3913 9.51605E-05-2.83207E-05-2.86465E-05 1.13505E-07-4.72388E-19 8.29277E-19
 -1      3914 9.51343E-05-2.82695E-05-2.86560E-05 1.46064E-07-4.63727E-19 7.13876E-19
 -1      3915 9.50909E-05-2.82085E-05-2.86631E-05 1.37556E-07-8.90348E-19 2.65173E-19
 -1      3916 9.52067E-05-2.84052E-05-2.86298E-05 6.85093E-08-3.72282E-20 1.16203E-18
 -1      3917 9.51895E-05-2.83673E-05-2.86378E-05 9.19174E-08 1.45619E-19 9.48855E-19
 -1      3918 9.51615E-05-2.83231E-05-2.86445E-05 8.83798E-08-5.55585E-19 9.68265E-19
 -1      3919 9.52365E-05-2.84667E-05-2.86160E-05 3.69398E-08-5.70446E-19 1.51735E-19
 -1      3920 9.52257E-05-2.84392E-05-2.86226E-05 5.33230E-08-4.13167E-19 4.15502E-19
 -1      3921 9.52088E-05-2.84080E-05-2.86285E-05 5.29788E-08 2.31546E-20 8.01810E-19
 -1      3922 9.52544E-05-2.85104E-05-2.86049E-05 1.55066E-08 3.74034E-19-1.07101E-19
 -1      3923 9.52482E-05-2.84910E-05-2.86101E-05 2.65986E-08-1.75714E-19-4.96518E-19
 -1      3924 9.52391E-05-2.84696E-05-2.86153E-05 2.81836E-08-1.42055E-19-9.89457E-19
 -1      3925 9.52642E-05-2.85407E-05-2.85960E-05 1.57015E-09-1.08297E-19 9.92247E-20
 -1      3926 9.52611E-05-2.85273E-05-2.86001E-05 8.75733E-09 5.52811E-19 3.35178E-19
 -1      3927 9.52572E-05-2.85132E-05-2.86045E-05 1.13935E-08 2.51973E-19-1.97506E-19
 -1      3928 9.52683E-05-2.85608E-05-2.85890E-05-6.94606E-09 4.88966E-19 5.14892E-20
 -1      3929 9.52673E-05-2.85520E-05-2.85922E-05-2.57604E-09 2.33136E-19 3.54742E-19
 -1      3930 9.52669E-05-2.85432E-05-2.85958E-05 5.19685E-10 9.94973E-20 8.21509E-20
 -1      3931 9.52688E-05-2.85737E-05-2.85837E-05-1.16445E-08 7.73666E-19-6.21423E-19
 -1      3932 9.52691E-05-2.85681E-05-2.85861E-05-9.25427E-09 6.07401E-19-1.94855E-19
 -1      3933 9.52708E-05-2.85631E-05-2.85890E-05-6.08222E-09 1.76502E-19-8.90966E-19
 -1      3934 9.52670E-05-2.85812E-05-2.85796E-05-1.37382E-08 5.59596E-19 3.77349E-19
 -1      3935 9.52682E-05-2.85780E-05-2.85814E-05-1.26952E-08 5.70924E-19 2.53736E-19
 -1      3936 9.52710E-05-2.85756E-05-2.85838E-05-9.68096E-09 2.08342E-19-4.69038E-19
 -1      3937 9.52641E-05-2.85851E-05-2.85767E-05-1.41266E-08 5.09357E-19 2.17945E-19
 -1      3938 9.52656E-05-2.85835E-05-2.85780E-05-1.39628E-08 9.28825E-19 7.12313E-19
 -1      3939 9.52689E-05-2.85828E-05-2.85798E-05-1.12363E-08 4.81506E-19 3.93342E-19
 -1      3940 9.52605E-05-2.85866E-05-2.85745E-05-1.34620E-08 1.62794E-18-3.47084E-19
 -1      3941 9.52622E-05-2.85861E-05-2.85755E-05-1.38387E-08 7.26060E-19-1.57160E-19
 -1      3942 9.52656E-05-2.85864E-05-2.85768E-05-1.14593E-08 1.16575E-18 2.01104E-19
 -1      3943 9.52569E-05-2.85865E-05-2.85730E-05-1.22058E-08 8.94983E-19-8.88485E-19
 -1      3944 9.52585E-05-2.85866E-05-2.85737E-05-1.28838E-08 1.38027E-18-3.61843E-19
 -1      3945 9.52618E-05-2.85876E-05-2.85747E-05-1.08648E-08 1.26702E-18 5.86738E-19
 -1      3946 9.52534E-05-2.85854E-05-2.85720E-05-1.06740E-08-4.32425E-19-6.71863E-19
 -1      3947 9.52550E-05-2.85860E-05-2.85724E-05-1.14899E-08 6.39232E-19-1.58594E-19
 -1      3948 9.52579E-05-2.85873E-05-2.85732E-05-9.81591E-09 3.89027E-19 5.63676E-19
 -1      3949 9.52503E-05-2.85838E-05-2.85713E-05-9.07478E-09-4.30202E-19-1.03560E-18
 -1      3950 9.52516E-05-2.85846E-05-2.85716E-05-9.92139E-09-6.46713E-19-9.27779E-19
 -1      3951 9.52542E-05-2.85860E-05-2.85721E-05-8.56099E-09-1.08763E-19-4.85724E-19
 -1      3952 9.52475E-05-2.85821E-05-2.85709E-05-7.53752E-09 9.15431E-19-1.61202E-18
 -1      3953 9.52487E-05-2.85829E-05-2.85710E-05-8.34841E-09 5.39242E-19-9.72451E-19
 -1      3954 9.52509E-05-2.85843E-05-2.85714E-05-7.26282E-09 3.39093E-19-1.20862E-18
 -1      3955 9.52452E-05-2.85803E-05-2.85706E-05-6.13544E-09 7.94678E-19-1.30509E-18
 -1      3956 9.52462E-05-2.85812E-05-2.85707E-05-6.87422E-09 9.32082E-19-1.57725E-18
 -1      3957 9.52480E-05-2.85824E-05-2.85710E-05-6.02224E-09 8.97276E-19-1.13074E-18
 -1      3958 9.52432E-05-2.85787E-05-2.85705E-05-4.91188E-09 5.17369E-19-1.58277E-18
 -1      3959 9.52440E-05-2.85795E-05-2.85705E-05-5.55553E-09 5.79074E-19-1.16631E-18
 -1      3960 9.52455E-05-2.85806E-05-2.85707E-05-4.90063E-09 4.90539E-19-1.17114E-18
 -1      3961 9.52421E-05-2.85776E-05-2.85705E-05-2.95448E-09 1.83445E-19-3.06703E-18
 -1      3962 9.52420E-05-2.85776E-05-2.85705E-05-4.02232E-09 1.43482E-18-2.56363E-18
 -1      3963 9.52424E-05-2.85780E-05-2.85705E-05-4.53243E-09 5.63831E-19-1.87921E-18
 -1      3964 9.52429E-05-2.85784E-05-2.85705E-05-2.78862E-09 1.04718E-19-1.59068E-18
 -1      3965 8.73402E-05-2.20694E-05-2.80026E-05 5.16611E-06 2.44552E-20 1.84233E-19
 -1      3966 8.66114E-05-2.17489E-05-2.77954E-05 5.90600E-06-1.49568E-19-7.35942E-20
 -1      3967 8.46457E-05-2.05976E-05-2.74146E-05 5.14722E-06-2.70454E-19 7.82632E-19
 -1      3968 9.52432E-05-2.85786E-05-2.85706E-05 2.87839E-09 1.43525E-18-1.57284E-18
 -1      3969 9.52423E-05-2.85777E-05-2.85705E-05 1.96165E-09 1.57148E-18-7.85762E-19
 -1      3970 9.52426E-05-2.85779E-05-2.85706E-05 1.20621E-09 1.42048E-18-1.64473E-18
 -1      3971 9.52442E-05-2.85794E-05-2.85706E-05 2.16000E-09 1.85236E-18-1.00137E-18
 -1      3972 9.03470E-05-2.37343E-05-2.85633E-05 3.24356E-06-5.78494E-19 4.77760E-19
 -1      3973 8.98042E-05-2.33521E-05-2.84793E-05 3.67026E-06-3.48019E-19 4.20359E-19
 -1      3974 9.01392E-05-2.35544E-05-2.85209E-05 2.51930E-06-1.86197E-19 4.89072E-19
 -1      3975 8.89897E-05-2.28997E-05-2.83448E-05 4.07556E-06-6.52337E-20 2.34776E-19
 -1      3976 8.83529E-05-2.25272E-05-2.82091E-05 4.62257E-06-1.14364E-20 1.91169E-19
 -1      3977 8.68821E-05-2.16195E-05-2.79436E-05 3.99307E-06-8.43418E-20 3.53353E-19
 -1      3978 8.86865E-05-2.26181E-05-2.82950E-05 3.15623E-06-5.08540E-19 3.19971E-19
 -1      3979 8.00412E-05-2.29980E-05-2.45120E-05-1.72918E-05 1.00894E-18 3.13839E-19
 -1      3980 1.18513E-04-1.82903E-05-4.33033E-05 9.02784E-06 4.14300E-18 1.06292E-18
 -1      3981 8.18686E-05-2.26775E-05-2.52872E-05-1.46040E-05 9.32123E-19 4.20965E-19
 -1      3982 8.18555E-05-2.19148E-05-2.57757E-05-1.23649E-05 6.39349E-19 5.53410E-19
 -1      3983 7.97681E-05-1.97895E-05-2.56312E-05-1.01020E-05 4.45381E-19 9.21556E-19
 -1      3984 7.60651E-05-1.92797E-05-2.41997E-05-1.42139E-05 7.94649E-19 1.03113E-18
 -1      3985 7.94729E-05-1.96973E-05-2.57096E-05 1.03066E-05-3.86154E-19 9.34559E-19
 -1      3986 7.89305E-05-2.00960E-05-2.52219E-05 1.22129E-05-6.33854E-19 1.26264E-18
 -1      3987 7.21291E-05-1.56508E-05-2.40198E-05 8.75411E-06-8.54074E-19 1.88745E-18
 -1      3988 9.52433E-05-2.85787E-05-2.85706E-05 8.09966E-10 8.21114E-19-7.36497E-19
 -1      3989 9.52436E-05-2.85790E-05-2.85706E-05-4.03322E-09 6.96034E-19-2.25783E-18
 -1      3990 9.52439E-05-2.85791E-05-2.85706E-05-2.07490E-09 3.87445E-19 9.68858E-19
 -1      3991 9.52438E-05-2.85791E-05-2.85706E-05-2.99408E-09 7.99064E-19-1.50624E-18
 -1      3992 9.52446E-05-2.85798E-05-2.85706E-05-3.29293E-09 9.56245E-19-1.04281E-18
 -1      3993 8.26534E-05-2.04413E-05-2.67261E-05 8.20497E-06-7.15496E-19 5.91244E-19
 -1      3994 8.19105E-05-2.05009E-05-2.63556E-05 9.63281E-06-5.62381E-19 7.57909E-19
 -1      3995 7.74542E-05-1.75190E-05-2.55582E-05 6.81833E-06-4.03222E-19 1.93706E-18
 -1      3996 8.16766E-05-1.93245E-05-2.66482E-05 6.12922E-06-4.42557E-19 1.01992E-18
 -1      3997 6.94124E-05-1.46332E-05-2.34831E-05 5.67370E-06-6.66906E-19 2.08999E-18
 -1      3998 6.60353E-05-1.27383E-05-2.26299E-05 1.61708E-06-2.87981E-19 2.65154E-18
 -1      3999 6.90210E-05-1.41336E-05-2.35365E-05-2.09258E-06 1.85585E-19 1.79033E-18
 -1      4000 7.21097E-05-1.54181E-05-2.43888E-05 4.46747E-06-2.52748E-19 2.04452E-18
 -1      4001 9.52441E-05-2.85793E-05-2.85706E-05-1.07599E-09 2.19239E-19 1.40748E-19
 -1      4002 9.52444E-05-2.85795E-05-2.85707E-05 1.18821E-09 1.17083E-18 4.69304E-19
 -1      4003 9.52444E-05-2.85795E-05-2.85707E-05 3.90087E-10 7.43627E-19 8.11260E-19
 -1      4004 9.52452E-05-2.85802E-05-2.85707E-05 1.73768E-09 1.45344E-18 1.82305E-19
 -1      4005 8.35261E-05-2.02414E-05-2.71243E-05-4.08021E-06 5.43755E-19 6.00377E-19
 -1      4006 8.46527E-05-2.07250E-05-2.74336E-05-3.35417E-06 5.50882E-19 7.67749E-19
 -1      4007 8.59582E-05-2.12985E-05-2.77162E-05-2.91510E-06 3.97021E-19 5.37498E-19
 -1      4008 8.68825E-05-2.17734E-05-2.79286E-05-2.41932E-06 2.65152E-19 7.78132E-19
 -1      4009 8.47218E-05-2.04613E-05-2.74955E-05-1.84391E-06 4.06648E-19 2.91844E-19
 -1      4010 8.78960E-05-2.22951E-05-2.81193E-05-2.11854E-06 2.44089E-19 7.30066E-19
 -1      4011 8.86557E-05-2.27507E-05-2.82623E-05-1.76812E-06 1.62839E-19 9.36486E-19
 -1      4012 8.69976E-05-2.16545E-05-2.79723E-05-1.27555E-06 4.85016E-19 5.37956E-19
 -1      4013 8.94602E-05-2.32302E-05-2.83884E-05-1.55826E-06 4.43903E-19 9.42216E-19
 -1      4014 9.00867E-05-2.36589E-05-2.84815E-05-1.30297E-06 3.30290E-19 8.08422E-19
 -1      4015 8.87898E-05-2.27223E-05-2.82913E-05-8.86822E-07 6.86573E-19 7.42427E-19
 -1      4016 9.07313E-05-2.40957E-05-2.85618E-05-1.15496E-06-2.18872E-21 9.27791E-19
 -1      4017 9.12462E-05-2.44896E-05-2.86191E-05-9.64386E-07-3.44004E-21 6.45854E-19
 -1      4018 9.02223E-05-2.36838E-05-2.84991E-05-6.18888E-07 2.47789E-19 4.14606E-19
 -1      4019 9.17635E-05-2.48810E-05-2.86671E-05-8.59160E-07-2.23179E-19 1.08583E-18
 -1      4020 9.21833E-05-2.52343E-05-2.86992E-05-7.14257E-07-6.71622E-20 9.99271E-19
 -1      4021 9.13732E-05-2.45433E-05-2.86283E-05-4.32934E-07 2.71873E-20 2.95693E-19
 -1      4022 9.25965E-05-2.55782E-05-2.87249E-05-6.39074E-07 8.16626E-20 6.69950E-19
 -1      4023 9.29349E-05-2.58876E-05-2.87396E-05-5.27557E-07 6.28116E-19 3.13666E-19
 -1      4024 9.22963E-05-2.53008E-05-2.87024E-05-3.03142E-07-8.58692E-20 9.43902E-19
 -1      4025 9.32621E-05-2.61836E-05-2.87502E-05-4.73711E-07 1.05965E-18 3.06674E-19
 -1      4026 9.35311E-05-2.64486E-05-2.87535E-05-3.87356E-07 5.86565E-19 3.26353E-19
 -1      4027 9.30316E-05-2.59567E-05-2.87389E-05-2.12144E-07 8.89476E-19 2.89978E-19
 -1      4028 9.37872E-05-2.66984E-05-2.87542E-05-3.48796E-07 3.54267E-19 7.71309E-19
 -1      4029 9.39979E-05-2.69205E-05-2.87503E-05-2.81851E-07 1.44483E-19 1.38881E-18
 -1      4030 9.36114E-05-2.65143E-05-2.87503E-05-1.48114E-07 7.12474E-19-7.65847E-20
 -1      4031 9.41956E-05-2.71273E-05-2.87450E-05-2.54305E-07-5.99136E-19 1.16736E-18
 -1      4032 9.43580E-05-2.73098E-05-2.87370E-05-2.02566E-07-6.46746E-19 6.75271E-19
 -1      4033 9.40629E-05-2.69796E-05-2.87458E-05-1.02935E-07-3.40384E-19 8.57787E-19
 -1      4034 9.45083E-05-2.74778E-05-2.87285E-05-1.82987E-07-1.33260E-18 5.96712E-19
 -1      4035 9.46311E-05-2.76250E-05-2.87185E-05-1.43253E-07-1.05579E-18 2.79292E-19
 -1      4036 9.44092E-05-2.73608E-05-2.87320E-05-7.10011E-08-1.27328E-18 8.64008E-19
 -1      4037 9.47434E-05-2.77590E-05-2.87085E-05-1.29446E-07-3.32186E-20-2.78175E-19
 -1      4038 9.48346E-05-2.78756E-05-2.86979E-05-9.92084E-08-3.77676E-19-3.69007E-19
 -1      4039 9.46707E-05-2.76675E-05-2.87134E-05-4.84192E-08-1.12206E-18 5.84242E-19
 -1      4040 9.49169E-05-2.79806E-05-2.86876E-05-8.95809E-08-4.93454E-19-1.60832E-19
 -1      4041 9.49832E-05-2.80712E-05-2.86774E-05-6.68348E-08-3.23862E-19 1.61623E-19
 -1      4042 9.48645E-05-2.79102E-05-2.86931E-05-3.24727E-08-2.01405E-19-1.33799E-19
 -1      4043 9.50421E-05-2.81521E-05-2.86676E-05-6.02259E-08-8.59909E-19 6.24687E-19
 -1      4044 9.50891E-05-2.82213E-05-2.86582E-05-4.33514E-08-9.05856E-19 2.71144E-19
 -1      4045 9.50052E-05-2.80987E-05-2.86731E-05-2.12550E-08-3.12733E-19 1.77323E-19
 -1      4046 9.51302E-05-2.82824E-05-2.86494E-05-3.89118E-08-9.94124E-19 2.47062E-19
 -1      4047 9.51625E-05-2.83342E-05-2.86411E-05-2.65985E-08 2.39944E-19-4.69137E-19
 -1      4048 9.51049E-05-2.82427E-05-2.86545E-05-1.34186E-08-1.15704E-18-1.73672E-19
 -1      4049 9.51902E-05-2.83795E-05-2.86334E-05-2.37052E-08 1.13125E-18-3.40284E-19
 -1      4050 9.52116E-05-2.84176E-05-2.86263E-05-1.48960E-08 1.17053E-18-6.33352E-19
 -1      4051 9.51735E-05-2.83506E-05-2.86380E-05-8.00432E-09 3.46588E-19 4.68310E-19
 -1      4052 9.52294E-05-2.84504E-05-2.86197E-05-1.30926E-08 1.11535E-18-7.29063E-19
 -1      4053 9.52429E-05-2.84777E-05-2.86138E-05-6.94063E-09 5.09824E-19 2.45467E-19
 -1      4054 9.52190E-05-2.84297E-05-2.86237E-05-4.32403E-09 1.19674E-18 9.54676E-19
 -1      4055 9.52536E-05-2.85009E-05-2.86084E-05-5.89360E-09-4.93844E-19 4.87605E-19
 -1      4056 9.52614E-05-2.85199E-05-2.86035E-05-1.72684E-09-2.45333E-19 8.51766E-20
 -1      4057 9.52476E-05-2.84866E-05-2.86117E-05-1.88099E-09 4.47664E-19 4.59498E-19
 -1      4058 9.52671E-05-2.85359E-05-2.85992E-05-1.19349E-09-4.04777E-19 4.76914E-19
 -1      4059 9.52710E-05-2.85487E-05-2.85953E-05 1.51530E-09-4.71883E-19 1.53125E-19
 -1      4060 9.52642E-05-2.85263E-05-2.86019E-05-3.14671E-10-2.63006E-19-1.83396E-19
 -1      4061 9.52734E-05-2.85592E-05-2.85918E-05 1.70995E-09-4.65511E-20 3.22649E-19
 -1      4062 9.52746E-05-2.85675E-05-2.85888E-05 3.36920E-09 4.79594E-19 4.19463E-19
 -1      4063 9.52724E-05-2.85531E-05-2.85940E-05 6.37261E-10-2.05254E-20 7.52963E-19
 -1      4064 9.52748E-05-2.85741E-05-2.85860E-05 3.34990E-09 3.57657E-19 1.30424E-19
 -1      4065 9.52744E-05-2.85791E-05-2.85837E-05 4.27153E-09 4.10988E-19 1.49098E-19
 -1      4066 9.52752E-05-2.85704E-05-2.85878E-05 1.16565E-09 3.06494E-19 1.48391E-18
 -1      4067 9.52733E-05-2.85828E-05-2.85816E-05 4.12583E-09 6.23445E-19-5.47457E-19
 -1      4068 9.52718E-05-2.85855E-05-2.85798E-05 4.54433E-09 1.61364E-18-1.15293E-18
 -1      4069 9.52744E-05-2.85809E-05-2.85830E-05 1.40885E-09 3.12754E-19-2.41463E-19
 -1      4070 9.52700E-05-2.85874E-05-2.85783E-05 4.33237E-09 1.72887E-18-1.85336E-18
 -1      4071 9.52681E-05-2.85885E-05-2.85769E-05 4.42094E-09 9.18928E-19-2.30263E-18
 -1      4072 9.52715E-05-2.85866E-05-2.85793E-05 1.46639E-09 8.35941E-19-2.57742E-18
 -1      4073 9.52659E-05-2.85890E-05-2.85758E-05 4.18287E-09 5.18766E-19-2.40198E-18
 -1      4074 9.52638E-05-2.85892E-05-2.85748E-05 4.06689E-09 5.45113E-19-1.30046E-18
 -1      4075 9.52675E-05-2.85890E-05-2.85766E-05 1.40903E-09 8.85514E-19-3.31871E-18
 -1      4076 9.52616E-05-2.85889E-05-2.85740E-05 3.82843E-09 6.87785E-19-7.54840E-19
 -1      4077 9.52595E-05-2.85884E-05-2.85733E-05 3.59650E-09 7.23231E-19-1.24974E-19
 -1      4078 9.52632E-05-2.85893E-05-2.85746E-05 1.28626E-09 1.16033E-18-2.62227E-18
 -1      4079 9.52574E-05-2.85877E-05-2.85727E-05 3.37314E-09-1.81839E-19 1.11489E-18
 -1      4080 9.52555E-05-2.85868E-05-2.85723E-05 3.08605E-09 1.16396E-19 1.22745E-18
 -1      4081 9.52589E-05-2.85884E-05-2.85731E-05 1.13189E-09 1.22907E-18-8.35318E-19
 -1      4082 9.52536E-05-2.85859E-05-2.85719E-05 2.88595E-09 3.30713E-19 6.02321E-19
 -1      4083 9.52519E-05-2.85849E-05-2.85715E-05 2.58412E-09 1.21632E-18 1.99208E-19
 -1      4084 9.52549E-05-2.85867E-05-2.85721E-05 9.68263E-10 1.46014E-19 8.89012E-19
 -1      4085 9.52502E-05-2.85838E-05-2.85713E-05 2.40821E-09 9.91465E-19 3.44829E-19
 -1      4086 9.52487E-05-2.85828E-05-2.85711E-05 2.12012E-09 2.86629E-19-2.30177E-19
 -1      4087 9.52513E-05-2.85846E-05-2.85715E-05 8.08612E-10 3.99747E-19 4.11386E-19
 -1      4088 9.52475E-05-2.85820E-05-2.85709E-05 2.07300E-09-5.94239E-20-3.23322E-19
 -1      4089 9.52463E-05-2.85810E-05-2.85708E-05 1.80276E-09 6.68512E-19 8.62163E-20
 -1      4090 9.52463E-05-2.85811E-05-2.85708E-05 7.94829E-10 5.34715E-19 1.01531E-18
 -1      4091 9.52485E-05-2.85827E-05-2.85711E-05 7.50532E-10 6.22606E-19-2.72008E-19
 -1      4092 9.12671E-05-2.44466E-05-2.86470E-05 1.37418E-06 3.55990E-19 1.10142E-19
 -1      4093 9.07401E-05-2.40312E-05-2.85935E-05 1.56893E-06 5.82347E-19 1.67528E-19
 -1      4094 9.35729E-05-2.64606E-05-2.87671E-05 6.73060E-07 3.44181E-19 2.34542E-19
 -1      4095 9.33138E-05-2.61937E-05-2.87671E-05 7.87331E-07 2.32009E-19 1.65068E-19
 -1      4096 9.40339E-05-2.69354E-05-2.87602E-05 5.13443E-07 2.05319E-19 1.36478E-19
 -1      4097 9.38342E-05-2.67138E-05-2.87667E-05 6.07476E-07 6.28991E-19 3.42316E-19
 -1      4098 9.36124E-05-2.64963E-05-2.87573E-05 4.36108E-07 4.88610E-19-1.03079E-18
 -1      4099 9.43867E-05-2.73243E-05-2.87440E-05 3.84016E-07 5.02739E-19 2.07592E-19
 -1      4100 9.42351E-05-2.71436E-05-2.87540E-05 4.60180E-07 3.38163E-20 1.25946E-19
 -1      4101 9.40657E-05-2.69675E-05-2.87514E-05 3.34916E-07 1.65380E-19-7.09251E-19
 -1      4102 9.46528E-05-2.76375E-05-2.87231E-05 2.80944E-07-6.54435E-19 9.61842E-19
 -1      4103 9.45395E-05-2.74926E-05-2.87346E-05 3.41577E-07 3.51239E-19 1.07264E-18
 -1      4104 9.44122E-05-2.73523E-05-2.87363E-05 2.51705E-07-4.72023E-19 6.81492E-19
 -1      4105 9.48500E-05-2.78855E-05-2.87008E-05 2.00396E-07-1.40195E-18 8.92748E-19
 -1      4106 9.47668E-05-2.77712E-05-2.87125E-05 2.47800E-07-1.17117E-18 9.57732E-19
 -1      4107 9.46731E-05-2.76614E-05-2.87167E-05 1.84754E-07-7.69132E-19 1.98429E-18
 -1      4108 9.49934E-05-2.80785E-05-2.86791E-05 1.38678E-07-1.23504E-18 3.11554E-19
 -1      4109 9.49336E-05-2.79899E-05-2.86901E-05 1.75047E-07-1.33086E-18 5.96505E-19
 -1      4110 9.48660E-05-2.79054E-05-2.86956E-05 1.32046E-07-1.19159E-18 1.36282E-18
 -1      4111 9.50952E-05-2.82263E-05-2.86591E-05 9.23566E-08-1.14069E-18 3.08661E-19
 -1      4112 9.50533E-05-2.81588E-05-2.86690E-05 1.19712E-07-9.77633E-19 1.01593E-19
 -1      4113 9.50058E-05-2.80949E-05-2.86749E-05 9.14465E-08-7.99758E-19-1.30899E-19
 -1      4114 9.51657E-05-2.83374E-05-2.86414E-05 5.83614E-08-6.79539E-19 5.07383E-19
 -1      4115 9.51371E-05-2.82869E-05-2.86500E-05 7.85029E-08-1.01532E-18 1.38308E-19
 -1      4116 9.51048E-05-2.82395E-05-2.86557E-05 6.08675E-08-7.75501E-19-4.21784E-19
 -1      4117 9.52127E-05-2.84192E-05-2.86262E-05 3.40307E-08 2.75533E-19 3.72059E-19
 -1      4118 9.51940E-05-2.83822E-05-2.86335E-05 4.85111E-08-1.25026E-19 5.51431E-19
 -1      4119 9.51729E-05-2.83479E-05-2.86388E-05 3.83761E-08-1.65161E-19 1.57883E-19
 -1      4120 9.52425E-05-2.84783E-05-2.86136E-05 1.71231E-08 2.26296E-19-5.13446E-19
 -1      4121 9.52311E-05-2.84518E-05-2.86196E-05 2.72480E-08 5.46453E-19 1.97728E-19
 -1      4122 9.52181E-05-2.84275E-05-2.86243E-05 2.22618E-08 7.77567E-19-1.65936E-19
 -1      4123 9.52602E-05-2.85199E-05-2.86032E-05 5.79824E-09 5.61999E-19-2.66745E-19
 -1      4124 9.52537E-05-2.85013E-05-2.86081E-05 1.26390E-08 9.94132E-20-5.86563E-19
 -1      4125 9.52465E-05-2.84847E-05-2.86121E-05 1.10640E-08 4.17342E-19-1.18136E-18
 -1      4126 9.52694E-05-2.85482E-05-2.85949E-05-1.42049E-09-1.70352E-19-3.40067E-19
 -1      4127 9.52664E-05-2.85357E-05-2.85988E-05 2.99621E-09 5.28174E-19 6.10194E-20
 -1      4128 9.52631E-05-2.85247E-05-2.86021E-05 3.57210E-09 5.53421E-19-2.25702E-19
 -1      4129 9.52728E-05-2.85667E-05-2.85884E-05-5.69268E-09 2.47105E-19-8.19825E-19
 -1      4130 9.52721E-05-2.85586E-05-2.85914E-05-3.02373E-09-8.70357E-21-1.00136E-18
 -1      4131 9.52714E-05-2.85518E-05-2.85941E-05-1.19088E-09 5.10120E-19-3.57849E-19
 -1      4132 9.52726E-05-2.85782E-05-2.85834E-05-7.91016E-09-3.04712E-19-3.79375E-20
 -1      4133 9.52733E-05-2.85733E-05-2.85857E-05-6.46765E-09-1.22603E-19-4.18580E-19
 -1      4134 9.52742E-05-2.85693E-05-2.85879E-05-3.99526E-09-2.33570E-19-3.07201E-19
 -1      4135 9.52702E-05-2.85847E-05-2.85795E-05-8.74469E-09 3.73851E-19 7.06927E-19
 -1      4136 9.52717E-05-2.85820E-05-2.85813E-05-8.13478E-09 9.47135E-20 6.70917E-19
 -1      4137 9.52735E-05-2.85801E-05-2.85830E-05-5.43486E-09-3.12521E-19-1.96980E-19
 -1      4138 9.52666E-05-2.85877E-05-2.85767E-05-8.69125E-09 5.97265E-19 1.32468E-18
 -1      4139 9.52685E-05-2.85865E-05-2.85780E-05-8.62260E-09 2.63646E-19 8.48640E-19
 -1      4140 9.52708E-05-2.85859E-05-2.85793E-05-5.95744E-09 2.23071E-20 1.28690E-18
 -1      4141 9.52626E-05-2.85884E-05-2.85746E-05-8.10592E-09 1.38968E-18 1.40090E-18
 -1      4142 9.52646E-05-2.85883E-05-2.85755E-05-8.36791E-09 1.95037E-18 1.54063E-18
 -1      4143 9.52669E-05-2.85885E-05-2.85765E-05-5.89299E-09 8.88841E-19 1.72520E-18
 -1      4144 9.52585E-05-2.85878E-05-2.85731E-05-7.23782E-09 6.56325E-19 7.28873E-19
 -1      4145 9.52604E-05-2.85882E-05-2.85738E-05-7.68216E-09 8.56524E-19 1.16944E-18
 -1      4146 9.52627E-05-2.85890E-05-2.85745E-05-5.47878E-09 1.41729E-18 8.84474E-19
 -1      4147 9.52546E-05-2.85863E-05-2.85721E-05-6.25541E-09 2.29966E-19-3.24747E-19
 -1      4148 9.52564E-05-2.85871E-05-2.85726E-05-6.78100E-09 4.68502E-19 1.53931E-19
 -1      4149 9.52585E-05-2.85881E-05-2.85731E-05-4.88058E-09 1.08962E-18-2.25916E-19
 -1      4150 9.52512E-05-2.85844E-05-2.85714E-05-5.26764E-09 3.25306E-19-8.55373E-19
 -1      4151 9.52528E-05-2.85854E-05-2.85717E-05-5.80840E-09-5.12364E-20-7.12561E-19
 -1      4152 9.52546E-05-2.85865E-05-2.85721E-05-4.21029E-09 4.05981E-19-2.09948E-18
 -1      4153 9.52482E-05-2.85825E-05-2.85710E-05-4.34194E-09 1.03154E-18-2.06246E-19
 -1      4154 9.52495E-05-2.85834E-05-2.85712E-05-4.85524E-09 1.01384E-18 2.98182E-19
 -1      4155 9.52511E-05-2.85845E-05-2.85714E-05-3.53993E-09 5.67476E-20-6.93609E-19
 -1      4156 9.52457E-05-2.85806E-05-2.85707E-05-3.57344E-09 7.99733E-19-6.03932E-19
 -1      4157 9.52469E-05-2.85815E-05-2.85708E-05-4.03271E-09 8.71812E-19-5.63401E-19
 -1      4158 9.52482E-05-2.85825E-05-2.85710E-05-2.96607E-09 1.35662E-18 5.49250E-19
 -1      4159 9.52458E-05-2.85807E-05-2.85708E-05-2.46001E-09 1.02138E-18 4.39419E-20
 -1      4160 9.29789E-05-2.58913E-05-2.87578E-05 8.66707E-07-1.42417E-19 3.60987E-20
 -1      4161 9.26471E-05-2.55758E-05-2.87468E-05 1.00378E-06-9.55108E-20-5.87535E-20
 -1      4162 9.30276E-05-2.59293E-05-2.87474E-05 5.56564E-07 5.79548E-20-3.51640E-19
 -1      4163 9.22222E-05-2.52210E-05-2.87223E-05 1.09855E-06-3.77665E-20-3.77024E-20
 -1      4164 9.18020E-05-2.48554E-05-2.86943E-05 1.26175E-06 1.72145E-19 2.19670E-20
 -1      4165 9.22818E-05-2.52587E-05-2.87121E-05 6.97162E-07 9.68866E-21 1.56043E-19
 -1      4166 7.29565E-05-1.68745E-05-2.41009E-05-9.33777E-06 4.68687E-19 1.72658E-18
 -1      4167 8.42514E-05-2.03099E-05-2.74391E-05 3.31455E-06-8.15025E-20 1.29459E-18
 -1      4168 8.29433E-05-1.97511E-05-2.71067E-05 3.89350E-06-2.00215E-19 1.20585E-18
 -1      4169 9.00687E-05-2.35682E-05-2.85129E-05 1.70310E-06 3.00191E-19-1.87201E-19
 -1      4170 8.94120E-05-2.31055E-05-2.84223E-05 1.93968E-06-3.96388E-19 1.50721E-19
 -1      4171 9.01555E-05-2.35865E-05-2.85079E-05 1.04401E-06 2.05329E-19-2.52413E-19
 -1      4172 8.04293E-05-1.91375E-05-2.62615E-05-5.84904E-06 1.12295E-19 7.69362E-19
 -1      4173 8.17943E-05-1.96111E-05-2.67066E-05-4.75903E-06 2.99467E-19 5.32228E-19
 -1      4174 8.17231E-05-1.90824E-05-2.67895E-05-2.69299E-06 4.04375E-19 8.47217E-19
 -1      4175 9.52452E-05-2.85801E-05-2.85707E-05-7.51127E-10 5.02990E-19 5.98885E-19
 -1      4176 9.52463E-05-2.85810E-05-2.85708E-05-8.89498E-10 1.20240E-18 6.67438E-19
 -1      4177 8.66742E-05-2.15079E-05-2.79535E-05 2.61390E-06 2.00105E-19 6.21145E-19
 -1      4178 8.56550E-05-2.09624E-05-2.77344E-05 3.01397E-06 2.38702E-19 1.01299E-18
 -1      4179 8.43778E-05-2.01519E-05-2.74693E-05 1.86172E-06 2.83908E-19 1.40645E-18
 -1      4180 9.13394E-05-2.44790E-05-2.86383E-05 8.58854E-07 3.55928E-19 2.13454E-19
 -1      4181 7.20335E-05-1.53563E-05-2.41438E-05-5.75822E-06 1.68432E-19 1.56833E-18
 -1      4182 7.62629E-05-1.79325E-05-2.49931E-05-8.48487E-06 2.87867E-19 1.55171E-18
 -1      4183 7.79779E-05-1.83840E-05-2.56111E-05-6.96471E-06 1.32462E-19 1.35168E-18
 -1      4184 7.23952E-05-1.54518E-05-2.44434E-05-2.06728E-06-2.63275E-20 1.66659E-18
 -1      4185 8.86690E-05-2.25771E-05-2.82956E-05 1.25928E-06-1.09083E-19 2.72326E-19
 -1      4186 8.85668E-05-2.25884E-05-2.82939E-05 2.10391E-06-7.79884E-19 6.32568E-19
 -1      4187 8.77499E-05-2.20821E-05-2.81502E-05 2.40254E-06-3.75963E-19 3.31597E-19
 -1      4188 7.77152E-05-1.75332E-05-2.57145E-05-4.25285E-06-8.92089E-20 1.33390E-18
 -1      4189 8.43112E-05-2.03007E-05-2.74690E-05-1.97888E-07 5.23576E-19 1.12091E-18
 -1      4190 8.56261E-05-2.09281E-05-2.77512E-05 3.13027E-08 6.08983E-19 8.50595E-19
 -1      4191 8.11475E-05-1.88014E-05-2.67401E-05-4.24826E-07 8.46206E-21 1.57161E-18
 -1      4192 8.28921E-05-1.95910E-05-2.71590E-05-1.31843E-07 2.39595E-19 1.46471E-18
 -1      4193 8.67226E-05-2.15457E-05-2.79592E-05-2.39439E-08 3.21795E-19 7.11013E-19
 -1      4194 8.77452E-05-2.21026E-05-2.81491E-05 1.31479E-07 2.81350E-19 8.50887E-19
 -1      4195 8.86052E-05-2.26491E-05-2.82858E-05 8.04137E-08 3.68646E-19 3.59205E-19
 -1      4196 8.94153E-05-2.31500E-05-2.84110E-05 1.83801E-07 4.71768E-19 3.37348E-19
 -1      4197 9.00972E-05-2.36352E-05-2.84978E-05 1.33949E-07 4.67221E-19 9.46061E-20
 -1      4198 9.07450E-05-2.40839E-05-2.85771E-05 2.01960E-07 2.76642E-19 2.07952E-19
 -1      4199 9.12877E-05-2.45116E-05-2.86290E-05 1.53256E-07 1.38007E-19 1.83382E-19
 -1      4200 9.18065E-05-2.49084E-05-2.86763E-05 1.97434E-07-1.28964E-19 5.27974E-19
 -1      4201 9.22374E-05-2.52803E-05-2.87041E-05 1.51057E-07-2.06029E-19 4.74582E-19
 -1      4202 9.26511E-05-2.56255E-05-2.87292E-05 1.79335E-07 1.89873E-19 5.75539E-19
 -1      4203 9.29909E-05-2.59437E-05-2.87408E-05 1.36653E-07 3.99871E-19 2.25756E-19
 -1      4204 9.33180E-05-2.62384E-05-2.87510E-05 1.54464E-07 9.18558E-19-3.32947E-19
 -1      4205 9.35831E-05-2.65060E-05-2.87522E-05 1.16515E-07 8.64885E-19-2.92735E-19
 -1      4206 9.38387E-05-2.67531E-05-2.87527E-05 1.27548E-07 3.30674E-19-5.51872E-19
 -1      4207 9.40431E-05-2.69743E-05-2.87475E-05 9.48758E-08-1.12344E-19-2.38133E-20
 -1      4208 9.42402E-05-2.71777E-05-2.87421E-05 1.01601E-07-8.00290E-19-9.85100E-20
 -1      4209 9.43955E-05-2.73573E-05-2.87335E-05 7.42851E-08-8.75509E-19 4.24122E-19
 -1      4210 9.45450E-05-2.75218E-05-2.87249E-05 7.83264E-08-1.14530E-18 6.27369E-19
 -1      4211 9.46611E-05-2.76652E-05-2.87146E-05 5.60950E-08-1.37364E-18 1.22799E-18
 -1      4212 9.47727E-05-2.77959E-05-2.87047E-05 5.84995E-08-6.91136E-19 6.33682E-19
 -1      4213 9.48579E-05-2.79085E-05-2.86941E-05 4.08531E-08-6.88777E-19 2.55116E-19
 -1      4214 9.49395E-05-2.80106E-05-2.86839E-05 4.22799E-08-4.11575E-19-1.12790E-19
 -1      4215 9.50007E-05-2.80975E-05-2.86739E-05 2.86043E-08-3.66184E-19-3.22420E-19
 -1      4216 9.50590E-05-2.81758E-05-2.86642E-05 2.94590E-08-8.23344E-19-3.43890E-20
 -1      4217 9.51019E-05-2.82417E-05-2.86551E-05 1.91089E-08-8.75527E-19-2.19517E-20
 -1      4218 9.51425E-05-2.83007E-05-2.86464E-05 1.96344E-08-3.69228E-19 1.22351E-19
 -1      4219 9.51715E-05-2.83498E-05-2.86384E-05 1.19906E-08 2.72072E-19-2.60709E-20
 -1      4220 9.51988E-05-2.83934E-05-2.86308E-05 1.23286E-08 9.27466E-19-1.83312E-19
 -1      4221 9.52177E-05-2.84291E-05-2.86241E-05 6.83115E-09 1.10553E-18-2.09029E-19
 -1      4222 9.52353E-05-2.84606E-05-2.86176E-05 7.06201E-09 8.53545E-19-4.27745E-19
 -1      4223 9.52469E-05-2.84860E-05-2.86120E-05 3.22649E-09 4.89868E-19-4.17922E-19
 -1      4224 9.52574E-05-2.85082E-05-2.86067E-05 3.39450E-09 2.64993E-19-6.06974E-19
 -1      4225 9.52638E-05-2.85258E-05-2.86021E-05 8.16147E-10 3.64334E-20-9.25233E-20
 -1      4226 9.52694E-05-2.85410E-05-2.85978E-05 9.45075E-10 2.29381E-19-1.04402E-19
 -1      4227 9.52723E-05-2.85527E-05-2.85942E-05-7.04733E-10 5.30164E-19-3.48243E-19
 -1      4228 9.52746E-05-2.85626E-05-2.85907E-05-6.02294E-10 2.86770E-19 5.39069E-19
 -1      4229 9.52752E-05-2.85701E-05-2.85879E-05-1.58366E-09-5.03988E-19 8.47801E-19
 -1      4230 9.52753E-05-2.85763E-05-2.85852E-05-1.50095E-09-2.84992E-19 2.41624E-19
 -1      4231 9.52745E-05-2.85807E-05-2.85830E-05-2.01500E-09 4.40432E-19 7.72908E-20
 -1      4232 9.52733E-05-2.85841E-05-2.85810E-05-1.94812E-09 1.64118E-19-5.13278E-19
 -1      4233 9.52716E-05-2.85864E-05-2.85794E-05-2.14689E-09-1.26736E-20 6.16508E-19
 -1      4234 9.52697E-05-2.85880E-05-2.85778E-05-2.09328E-09 7.90512E-19-7.57637E-19
 -1      4235 9.52677E-05-2.85889E-05-2.85766E-05-2.08909E-09 9.77089E-19-1.00013E-18
 -1      4236 9.52655E-05-2.85893E-05-2.85755E-05-2.04677E-09 1.27041E-18-1.15133E-18
 -1      4237 9.52634E-05-2.85892E-05-2.85746E-05-1.92056E-09 1.15601E-18-9.57538E-19
 -1      4238 9.52611E-05-2.85889E-05-2.85738E-05-1.88780E-09 1.45046E-18-1.21994E-18
 -1      4239 9.52591E-05-2.85883E-05-2.85732E-05-1.69626E-09 1.65373E-18-1.67612E-18
 -1      4240 9.52569E-05-2.85875E-05-2.85726E-05-1.67149E-09 1.07617E-18-7.26451E-19
 -1      4241 9.52550E-05-2.85866E-05-2.85722E-05-1.45301E-09 5.62217E-19-6.73364E-19
 -1      4242 9.52531E-05-2.85856E-05-2.85718E-05-1.43479E-09-4.09297E-19-4.11067E-19
 -1      4243 9.52514E-05-2.85846E-05-2.85715E-05-1.21415E-09-1.26030E-19 1.76288E-19
 -1      4244 9.52498E-05-2.85835E-05-2.85712E-05-1.20256E-09 1.21082E-18-4.54102E-20
 -1      4245 7.34950E-05-1.54671E-05-2.47550E-05 1.07070E-06-1.19916E-19 1.98577E-18
 -1      4246 7.54616E-05-1.65451E-05-2.52726E-05-2.13585E-06 9.38023E-21 1.42414E-18
 -1      4247 7.78653E-05-1.74545E-05-2.59487E-05-1.37324E-06 2.69003E-20 1.47225E-18
 -1      4248 7.52626E-05-1.65386E-05-2.52170E-05 3.76853E-06-4.11661E-19 2.10739E-18
 -1      4249 9.52485E-05-2.85826E-05-2.85711E-05-1.05001E-09 1.56602E-18-4.84398E-19
 -1      4250 8.16756E-05-1.91809E-05-2.68109E-05 4.02385E-06-2.32419E-19 1.37826E-18
 -1      4251 7.98535E-05-1.84399E-05-2.63668E-05 4.20404E-06-1.15379E-19 1.94870E-18
 -1      4252 7.84593E-05-1.74967E-05-2.60695E-05 1.36548E-06-7.02640E-20 2.30002E-18
 -1      4253 7.78002E-05-1.75580E-05-2.58462E-05 3.75331E-06-3.34113E-19 1.97435E-18
 -1      4254 8.17163E-05-1.88982E-05-2.68634E-05 2.04824E-06-1.46839E-19 2.15402E-18
 -1      4255 8.67909E-05-2.14408E-05-2.79664E-05 1.52074E-06 3.37264E-19 9.56825E-19
 -1      4256 9.52473E-05-2.85818E-05-2.85709E-05-9.61434E-10 1.40588E-18 7.21700E-20
 -1      4257 7.99112E-05-1.82787E-05-2.64355E-05-6.15708E-07-1.01205E-19 1.67581E-18
 -3
    1PSTEP                         4           1           1          
  100CL  101 1.000000000        4257                     0    1           1
 -4  ERROR       1    1
 -5  STR(%)      1    1    0    0
 -1         1 1.17527E+01
 -1         2 3.08798E+01
 -1         3 3.09347E-05
 -1         4 3.55689E-05
 -1         5 1.39115E+01
 -1         6 1.44931E+01
 -1         7 1.44931E+01
 -1         8 3.89967E+00
 -1         9 2.43540E+00
 -1        10 3.00489E+00
 -1        11 4.56623E+00
 -1        12 7.88476E+00
 -1        13 9.90087E+00
 -1        14 1.12055E+01
 -1        15 1.13776E+01
 -1        16 1.26729E+01
 -1        17 1.00826E+01
 -1        18 8.04006E+00
 -1        19 4.81797E+00
 -1        20 3.43945E+00
 -1        21 4.29996E+00
 -1        22 9.34489E+00
 -1        23 1.44931E+01
 -1        24 4.97567E+00
 -1        25 4.33782E+00
 -1        26 3.99821E+00
 -1        27 3.81443E+00
 -1        28 3.23559E+00
 -1        29 2.95566E+00
 -1        30 2.14448E+00
 -1        31 1.12715E+00
 -1        32 8.14848E-01
 -1        33 7.68249E-01
 -1        34 8.24786E-01
 -1        35 8.24786E-01
 -1        36 7.57063E-01
 -1        37 6.27483E-01
 -1        38 4.99975E-01
 -1        39 4.02702E-01
 -1        40 3.50639E-01
 -1        41 2.91315E-01
 -1        42 2.33084E-01
 -1        43 1.80554E-01
 -1        44 1.35756E-01
 -1        45 9.91391E-02
 -1        46 8.38792E-02
 -1        47 6.90761E-02
 -1        48 5.55759E-02
 -1        49 4.37805E-02
 -1        50 3.38045E-02
 -1        51 2.55878E-02
 -1        52 1.97361E-02
 -1        53 1.63146E-02
 -1        54 1.31996E-02
 -1        55 1.04714E-02
 -1        56 8.15289E-03
 -1        57 6.34205E-03
 -1        58 4.91328E-03
 -1        59 3.73619E-03
 -1        60 2.78634E-03
 -1        61 2.03425E-03
 -1        62 1.63013E-03
 -1        63 1.30237E-03
 -1        64 1.02288E-03
 -1        65 7.90243E-04
 -1        66 6.00135E-04
 -1        67 4.46363E-04
 -1        68 3.55814E-04
 -1        69 3.02409E-04
 -1        70 2.31038E-04
 -1        71 1.19089E-04
 -1        72 1.39115E+01
 -1        73 3.52007E+00
 -1        74 2.97623E+00
 -1        75 3.53902E+00
 -1        76 3.53902E+00
 -1        77 3.45299E+00
 -1        78 3.45299E+00
 -1        79 2.55648E+00
 -1        80 1.26252E+00
 -1        81 9.21007E-01
 -1        82 1.15829E+00
 -1        83 1.20331E+00
 -1        84 1.20331E+00
 -1        85 1.08635E+00
 -1        86 9.16727E-01
 -1        87 7.53667E-01
 -1        88 5.89729E-01
 -1        89 4.42611E-01
 -1        90 3.28003E-01
 -1        91 2.55116E-01
 -1        92 1.93167E-01
 -1        93 1.42595E-01
 -1        94 1.02569E-01
 -1        95 7.16990E-02
 -1        96 5.05475E-02
 -1        97 4.23175E-02
 -1        98 3.46356E-02
 -1        99 2.77854E-02
 -1       100 2.18789E-02
 -1       101 1.78430E-02
 -1       102 1.55176E-02
 -1       103 1.31233E-02
 -1       104 1.08408E-02
 -1       105 8.77192E-03
 -1       106 7.02694E-03
 -1       107 5.63393E-03
 -1       108 4.43389E-03
 -1       109 3.42685E-03
 -1       110 2.60042E-03
 -1       111 1.93548E-03
 -1       112 1.41000E-03
 -1       113 1.01879E-03
 -1       114 7.87514E-04
 -1       115 5.98408E-04
 -1       116 4.45352E-04
 -1       117 3.20718E-04
 -1       118 2.15355E-04
 -1       119 1.75909E-04
 -1       120 9.89131E-05
 -1       121 3.81176E-05
 -1       122 4.15107E-05
 -1       123 4.15107E-05
 -1       124 2.73122E-05
 -1       125 1.57691E-05
 -1       126 3.06136E-05
 -1       127 4.05152E-05
 -1       128 4.35053E-05
 -1       129 4.35053E-05
 -1       130 4.03936E-05
 -1       131 3.01731E-05
 -1       132 1.59486E-05
 -1       133 2.78917E-05
 -1       134 4.09840E-05
 -1       135 5.10130E-05
 -1       136 5.52174E-05
 -1       137 3.08798E+01
 -1       138 4.03710E+01
 -1       139 4.03710E+01
 -1       140 1.61772E+01
 -1       141 1.22533E+01
 -1       142 1.22533E+01
 -1       143 1.22090E+01
 -1       144 1.16068E+01
 -1       145 1.15696E+01
 -1       146 1.31943E+01
 -1       147 2.83916E+01
 -1       148 5.04598E+01
 -1       149 5.04598E+01
 -1       150 4.43216E+01
 -1       151 4.43216E+01
 -1       152 5.00943E+01
 -1       153 5.00943E+01
 -1       154 2.99236E+01
 -1       155 1.45769E+01
 -1       156 1.15779E+01
 -1       157 1.17527E+01
 -1       158 1.23243E+01
 -1       159 1.23243E+01
 -1       160 1.40272E+01
 -1       161 3.75948E+01
 -1       162 3.75948E+01
 -1       163 2.94884E+01
 -1       164 3.89967E+00
 -1       165 2.62973E+00
 -1       166 2.92921E+00
 -1       167 4.01527E+00
 -1       168 6.98809E+00
 -1       169 1.09742E+01
 -1       170 1.20920E+01
 -1       171 1.66424E+01
 -1       172 1.83489E+01
 -1       173 1.31942E+01
 -1       174 1.21775E+01
 -1       175 7.31800E+00
 -1       176 4.12429E+00
 -1       177 3.36952E+00
 -1       178 4.66621E+00
 -1       179 1.39115E+01
 -1       180 4.97567E+00
 -1       181 4.33782E+00
 -1       182 3.99821E+00
 -1       183 3.81443E+00
 -1       184 3.23559E+00
 -1       185 2.95566E+00
 -1       186 2.14448E+00
 -1       187 1.34247E+00
 -1       188 8.14848E-01
 -1       189 7.68249E-01
 -1       190 7.57813E-01
 -1       191 8.24786E-01
 -1       192 7.57063E-01
 -1       193 6.27483E-01
 -1       194 5.27887E-01
 -1       195 4.59290E-01
 -1       196 3.75917E-01
 -1       197 2.92585E-01
 -1       198 2.33084E-01
 -1       199 1.82252E-01
 -1       200 1.42177E-01
 -1       201 1.07963E-01
 -1       202 8.38792E-02
 -1       203 6.90761E-02
 -1       204 5.55759E-02
 -1       205 4.37805E-02
 -1       206 3.38045E-02
 -1       207 2.58345E-02
 -1       208 2.01943E-02
 -1       209 1.63146E-02
 -1       210 1.31996E-02
 -1       211 1.04714E-02
 -1       212 8.42429E-03
 -1       213 6.69223E-03
 -1       214 5.41289E-03
 -1       215 4.33389E-03
 -1       216 3.40455E-03
 -1       217 2.62490E-03
 -1       218 1.98529E-03
 -1       219 1.47079E-03
 -1       220 1.06433E-03
 -1       221 7.90243E-04
 -1       222 6.08123E-04
 -1       223 4.66146E-04
 -1       224 3.55814E-04
 -1       225 3.02409E-04
 -1       226 2.31038E-04
 -1       227 1.30388E-04
 -1       228 3.52007E+00
 -1       229 2.84886E+00
 -1       230 2.97623E+00
 -1       231 3.53902E+00
 -1       232 3.43007E+00
 -1       233 3.45299E+00
 -1       234 2.55648E+00
 -1       235 1.26252E+00
 -1       236 7.56749E-01
 -1       237 9.52870E-01
 -1       238 1.15829E+00
 -1       239 1.20331E+00
 -1       240 1.08635E+00
 -1       241 9.16727E-01
 -1       242 7.65127E-01
 -1       243 6.18890E-01
 -1       244 4.79636E-01
 -1       245 3.58102E-01
 -1       246 2.58053E-01
 -1       247 1.93167E-01
 -1       248 1.42595E-01
 -1       249 1.04191E-01
 -1       250 7.49679E-02
 -1       251 5.24857E-02
 -1       252 4.23175E-02
 -1       253 3.46356E-02
 -1       254 2.77854E-02
 -1       255 2.18789E-02
 -1       256 1.78430E-02
 -1       257 1.55176E-02
 -1       258 1.31233E-02
 -1       259 1.08408E-02
 -1       260 8.77192E-03
 -1       261 7.02694E-03
 -1       262 5.63393E-03
 -1       263 4.44672E-03
 -1       264 3.50649E-03
 -1       265 2.71500E-03
 -1       266 2.06357E-03
 -1       267 1.53789E-03
 -1       268 1.12116E-03
 -1       269 7.96130E-04
 -1       270 5.98408E-04
 -1       271 4.45352E-04
 -1       272 3.20733E-04
 -1       273 2.26526E-04
 -1       274 1.75909E-04
 -1       275 9.89131E-05
 -1       276 6.32740E-05
 -1       277 6.96213E-05
 -1       278 6.96213E-05
 -1       279 3.84477E-05
 -1       280 5.82651E-05
 -1       281 7.83829E-05
 -1       282 8.66176E-05
 -1       283 8.66176E-05
 -1       284 8.65737E-05
 -1       285 7.78329E-05
 -1       286 5.84935E-05
 -1       287 3.87660E-05
 -1       288 7.08915E-05
 -1       289 7.08915E-05
 -1       290 8.08847E-05
 -1       291 4.17297E+01
 -1       292 3.56580E+01
 -1       293 4.03710E+01
 -1       294 1.61772E+01
 -1       295 1.12142E+01
 -1       296 1.22533E+01
 -1       297 1.22090E+01
 -1       298 1.16068E+01
 -1       299 1.15696E+01
 -1       300 1.01234E+01
 -1       301 1.34484E+01
 -1       302 2.83916E+01
 -1       303 5.04598E+01
 -1       304 4.67965E+01
 -1       305 4.67965E+01
 -1       306 4.64495E+01
 -1       307 5.00943E+01
 -1       308 2.99236E+01
 -1       309 1.45769E+01
 -1       310 9.60122E+00
 -1       311 1.15779E+01
 -1       312 1.17527E+01
 -1       313 1.11478E+01
 -1       314 1.23243E+01
 -1       315 1.10279E+01
 -1       316 1.40272E+01
 -1       317 3.75948E+01
 -1       318 3.56675E+01
 -1       319 4.17297E+01
 -1       320 4.27883E+00
 -1       321 1.53194E+00
 -1       322 2.98612E+00
 -1       323 5.23878E+00
 -1       324 1.03586E+01
 -1       325 1.70675E+01
 -1       326 2.31148E+01
 -1       327 2.12628E+01
 -1       328 1.70367E+01
 -1       329 1.12307E+01
 -1       330 5.98222E+00
 -1       331 2.49641E+00
 -1       332 1.79452E+00
 -1       333 2.37000E+00
 -1       334 2.71340E+00
 -1       335 2.81601E+00
 -1       336 2.71490E+00
 -1       337 2.37779E+00
 -1       338 1.89987E+00
 -1       339 1.71619E+00
 -1       340 1.26739E+00
 -1       341 9.04888E-01
 -1       342 6.40095E-01
 -1       343 6.12517E-01
 -1       344 5.72072E-01
 -1       345 6.25551E-01
 -1       346 6.01331E-01
 -1       347 5.46333E-01
 -1       348 4.94103E-01
 -1       349 4.26997E-01
 -1       350 3.50862E-01
 -1       351 2.76501E-01
 -1       352 2.09935E-01
 -1       353 1.53776E-01
 -1       354 1.08473E-01
 -1       355 7.98408E-02
 -1       356 5.74272E-02
 -1       357 4.19915E-02
 -1       358 3.50593E-02
 -1       359 2.88995E-02
 -1       360 2.33156E-02
 -1       361 1.84413E-02
 -1       362 1.43111E-02
 -1       363 1.16255E-02
 -1       364 9.84223E-03
 -1       365 8.13412E-03
 -1       366 6.62533E-03
 -1       367 5.43240E-03
 -1       368 4.37627E-03
 -1       369 3.52332E-03
 -1       370 2.83276E-03
 -1       371 2.23353E-03
 -1       372 1.72754E-03
 -1       373 1.30993E-03
 -1       374 9.72160E-04
 -1       375 7.04087E-04
 -1       376 4.95429E-04
 -1       377 3.49336E-04
 -1       378 2.53050E-04
 -1       379 1.80317E-04
 -1       380 1.22182E-04
 -1       381 2.24038E+00
 -1       382 2.16388E+00
 -1       383 1.94447E+00
 -1       384 1.77756E+00
 -1       385 1.53667E+00
 -1       386 1.06438E+00
 -1       387 8.15970E-01
 -1       388 7.38547E-01
 -1       389 8.67744E-01
 -1       390 8.79803E-01
 -1       391 8.49617E-01
 -1       392 7.63581E-01
 -1       393 6.70327E-01
 -1       394 5.55365E-01
 -1       395 4.39935E-01
 -1       396 3.35723E-01
 -1       397 2.49849E-01
 -1       398 1.87230E-01
 -1       399 1.41312E-01
 -1       400 1.04191E-01
 -1       401 7.49679E-02
 -1       402 5.24857E-02
 -1       403 3.55553E-02
 -1       404 2.60028E-02
 -1       405 2.23872E-02
 -1       406 1.87752E-02
 -1       407 1.53964E-02
 -1       408 1.23743E-02
 -1       409 9.76061E-03
 -1       410 8.37607E-03
 -1       411 7.08619E-03
 -1       412 5.85477E-03
 -1       413 4.82320E-03
 -1       414 3.92228E-03
 -1       415 3.12732E-03
 -1       416 2.44685E-03
 -1       417 1.87865E-03
 -1       418 1.41416E-03
 -1       419 1.04687E-03
 -1       420 7.64340E-04
 -1       421 5.72163E-04
 -1       422 4.33995E-04
 -1       423 3.20733E-04
 -1       424 2.26526E-04
 -1       425 1.49100E-04
 -1       426 8.07131E-05
 -1       427 7.83268E-05
 -1       428 1.28846E-04
 -1       429 1.28846E-04
 -1       430 8.04139E-05
 -1       431 1.11509E-04
 -1       432 1.26110E-04
 -1       433 1.26110E-04
 -1       434 1.25672E-04
 -1       435 1.25672E-04
 -1       436 1.11519E-04
 -1       437 8.08808E-05
 -1       438 8.07723E-05
 -1       439 1.13125E-04
 -1       440 2.40556E+01
 -1       441 4.17297E+01
 -1       442 2.65259E+01
 -1       443 1.42283E+01
 -1       444 7.78416E+00
 -1       445 2.60707E+00
 -1       446 9.76241E+00
 -1       447 1.05587E+01
 -1       448 9.67300E+00
 -1       449 7.25150E+00
 -1       450 7.91993E+00
 -1       451 1.34484E+01
 -1       452 2.13684E+01
 -1       453 3.39037E+01
 -1       454 4.67965E+01
 -1       455 4.64495E+01
 -1       456 3.41579E+01
 -1       457 2.06970E+01
 -1       458 1.38137E+01
 -1       459 9.21224E+00
 -1       460 6.78808E+00
 -1       461 9.35298E+00
 -1       462 9.62273E+00
 -1       463 1.03314E+01
 -1       464 8.48438E+00
 -1       465 7.54919E+00
 -1       466 1.34283E+01
 -1       467 2.40749E+01
 -1       468 2.85919E+01
 -1       469 7.53390E+00
 -1       470 2.23895E+01
 -1       471 2.80027E+01
 -1       472 5.98188E+00
 -1       473 6.73990E+00
 -1       474 1.16620E+01
 -1       475 1.78062E+00
 -1       476 1.67466E+00
 -1       477 1.78327E+00
 -1       478 1.75794E+00
 -1       479 1.48104E+00
 -1       480 1.78057E+00
 -1       481 1.81942E+00
 -1       482 1.54693E+00
 -1       483 1.21150E+00
 -1       484 1.28230E+00
 -1       485 1.13845E+00
 -1       486 1.01494E+00
 -1       487 7.84545E-01
 -1       488 7.63809E-01
 -1       489 6.91064E-01
 -1       490 5.96561E-01
 -1       491 5.36281E-01
 -1       492 4.67094E-01
 -1       493 3.89899E-01
 -1       494 3.14267E-01
 -1       495 2.45679E-01
 -1       496 1.86689E-01
 -1       497 1.37941E-01
 -1       498 9.89433E-02
 -1       499 6.86181E-02
 -1       500 4.56509E-02
 -1       501 3.00326E-02
 -1       502 2.08512E-02
 -1       503 1.75990E-02
 -1       504 1.53062E-02
 -1       505 1.29430E-02
 -1       506 1.06867E-02
 -1       507 8.63906E-03
 -1       508 7.24144E-03
 -1       509 6.22611E-03
 -1       510 5.21393E-03
 -1       511 4.30890E-03
 -1       512 3.54815E-03
 -1       513 2.86092E-03
 -1       514 2.26187E-03
 -1       515 1.77287E-03
 -1       516 1.39249E-03
 -1       517 1.07214E-03
 -1       518 8.08429E-04
 -1       519 5.95864E-04
 -1       520 4.28014E-04
 -1       521 2.98688E-04
 -1       522 2.01385E-04
 -1       523 1.70555E+01
 -1       524 4.34619E+00
 -1       525 2.55934E+00
 -1       526 1.77452E+00
 -1       527 1.52800E+00
 -1       528 1.24281E+00
 -1       529 1.15789E+00
 -1       530 1.07548E+00
 -1       531 9.42983E-01
 -1       532 8.24068E-01
 -1       533 7.33738E-01
 -1       534 6.20157E-01
 -1       535 5.03443E-01
 -1       536 3.95413E-01
 -1       537 3.01763E-01
 -1       538 2.24209E-01
 -1       539 1.62173E-01
 -1       540 1.13939E-01
 -1       541 7.73638E-02
 -1       542 5.02833E-02
 -1       543 3.52922E-02
 -1       544 2.60028E-02
 -1       545 2.23872E-02
 -1       546 1.87752E-02
 -1       547 1.53964E-02
 -1       548 1.23743E-02
 -1       549 9.82073E-03
 -1       550 8.37607E-03
 -1       551 7.08619E-03
 -1       552 5.85477E-03
 -1       553 4.83028E-03
 -1       554 3.94581E-03
 -1       555 3.15921E-03
 -1       556 2.52271E-03
 -1       557 2.01005E-03
 -1       558 1.57075E-03
 -1       559 1.20355E-03
 -1       560 9.03192E-04
 -1       561 6.62390E-04
 -1       562 4.73246E-04
 -1       563 3.28124E-04
 -1       564 2.17375E-04
 -1       565 1.49100E-04
 -1       566 1.43809E-04
 -1       567 1.67137E-04
 -1       568 1.24032E-04
 -1       569 1.16399E-04
 -1       570 1.69416E-04
 -1       571 1.69416E-04
 -1       572 1.69091E-04
 -1       573 1.66960E-04
 -1       574 1.43117E-04
 -1       575 1.36707E-04
 -1       576 1.36707E-04
 -1       577 2.52563E+01
 -1       578 2.44360E+00
 -1       579 4.98435E+00
 -1       580 7.12062E+00
 -1       581 1.16266E+01
 -1       582 1.76495E+01
 -1       583 8.84917E+00
 -1       584 3.49778E+00
 -1       585 8.29293E+00
 -1       586 3.32618E+00
 -1       587 4.50277E+00
 -1       588 6.69700E+00
 -1       589 1.13155E+01
 -1       590 4.91943E+00
 -1       591 8.29293E+00
 -1       592 7.21003E+00
 -1       593 5.74176E+00
 -1       594 4.10502E+00
 -1       595 8.41250E+00
 -1       596 6.20808E+00
 -1       597 3.87063E+00
 -1       598 8.39355E+00
 -1       599 1.13342E+01
 -1       600 1.35975E+00
 -1       601 3.92625E+00
 -1       602 1.59688E+01
 -1       603 1.22182E-04
 -1       604 1.58467E+01
 -1       605 4.14572E+00
 -1       606 1.90494E+00
 -1       607 5.05753E+00
 -1       608 4.02623E+00
 -1       609 4.34619E+00
 -1       610 2.37013E+00
 -1       611 2.71675E+00
 -1       612 3.12826E+00
 -1       613 4.12285E+00
 -1       614 3.17328E+00
 -1       615 2.37217E+00
 -1       616 1.56788E+00
 -1       617 1.72796E+00
 -1       618 1.60179E+00
 -1       619 1.42244E+00
 -1       620 1.18144E+00
 -1       621 9.68151E-01
 -1       622 8.40029E-01
 -1       623 6.99882E-01
 -1       624 5.68777E-01
 -1       625 4.54198E-01
 -1       626 3.57428E-01
 -1       627 2.77339E-01
 -1       628 2.12046E-01
 -1       629 1.59538E-01
 -1       630 1.17892E-01
 -1       631 8.53395E-02
 -1       632 6.02901E-02
 -1       633 4.13369E-02
 -1       634 2.72594E-02
 -1       635 1.70187E-02
 -1       636 1.00717E-02
 -1       637 9.37372E-03
 -1       638 8.68540E-03
 -1       639 7.71559E-03
 -1       640 6.63638E-03
 -1       641 5.55957E-03
 -1       642 4.84970E-03
 -1       643 4.12608E-03
 -1       644 3.42432E-03
 -1       645 2.78050E-03
 -1       646 2.21569E-03
 -1       647 1.77287E-03
 -1       648 1.39249E-03
 -1       649 1.07214E-03
 -1       650 8.12659E-04
 -1       651 6.23208E-04
 -1       652 4.67176E-04
 -1       653 3.41959E-04
 -1       654 2.23448E-04
 -1       655 1.93673E+00
 -1       656 1.81578E+00
 -1       657 1.46642E+00
 -1       658 1.16841E+00
 -1       659 9.87307E-01
 -1       660 8.35786E-01
 -1       661 6.86474E-01
 -1       662 5.50800E-01
 -1       663 4.33128E-01
 -1       664 3.34293E-01
 -1       665 2.53306E-01
 -1       666 1.88318E-01
 -1       667 1.37149E-01
 -1       668 9.75832E-02
 -1       669 6.75360E-02
 -1       670 4.51397E-02
 -1       671 2.87790E-02
 -1       672 1.77152E-02
 -1       673 1.29341E-02
 -1       674 1.19769E-02
 -1       675 1.06322E-02
 -1       676 9.14026E-03
 -1       677 7.65519E-03
 -1       678 6.28607E-03
 -1       679 5.41288E-03
 -1       680 4.57514E-03
 -1       681 3.79901E-03
 -1       682 3.13057E-03
 -1       683 2.54409E-03
 -1       684 2.02633E-03
 -1       685 1.58286E-03
 -1       686 1.23383E-03
 -1       687 9.55861E-04
 -1       688 7.25258E-04
 -1       689 5.38064E-04
 -1       690 3.89391E-04
 -1       691 2.71841E-04
 -1       692 1.84234E-04
 -1       693 2.29988E-04
 -1       694 1.36707E-04
 -1       695 2.19049E-04
 -1       696 2.28844E-04
 -1       697 2.29988E-04
 -1       698 7.46569E+00
 -1       699 2.28844E-04
 -1       700 2.17337E-04
 -1       701 1.67260E-04
 -1       702 2.98887E+00
 -1       703 1.26948E+01
 -1       704 9.68625E+00
 -1       705 2.37013E+00
 -1       706 4.54598E+00
 -1       707 4.28313E+00
 -1       708 3.09226E+00
 -1       709 3.87864E+00
 -1       710 7.75740E+00
 -1       711 4.64095E+00
 -1       712 3.88598E+00
 -1       713 1.78057E+00
 -1       714 4.91420E+00
 -1       715 1.71478E+00
 -1       716 1.33516E+01
 -1       717 2.44360E+00
 -1       718 1.96847E+00
 -1       719 1.15500E+01
 -1       720 2.39833E-04
 -1       721 1.18891E+01
 -1       722 1.58558E-04
 -1       723 1.56093E-04
 -1       724 4.83848E+00
 -1       725 1.93360E+00
 -1       726 2.23644E+00
 -1       727 3.44772E+00
 -1       728 1.98755E+00
 -1       729 2.88351E+00
 -1       730 2.60640E+00
 -1       731 1.77112E+00
 -1       732 1.42244E+00
 -1       733 1.18144E+00
 -1       734 9.36825E-01
 -1       735 7.33860E-01
 -1       736 5.71471E-01
 -1       737 4.54198E-01
 -1       738 3.57428E-01
 -1       739 2.77339E-01
 -1       740 2.12046E-01
 -1       741 1.59538E-01
 -1       742 1.17892E-01
 -1       743 8.53395E-02
 -1       744 6.02901E-02
 -1       745 4.13369E-02
 -1       746 2.72594E-02
 -1       747 1.70187E-02
 -1       748 9.74654E-03
 -1       749 6.25551E-03
 -1       750 4.63196E-03
 -1       751 4.98619E-03
 -1       752 4.99705E-03
 -1       753 4.68398E-03
 -1       754 4.19491E-03
 -1       755 3.63063E-03
 -1       756 3.11163E-03
 -1       757 2.64230E-03
 -1       758 2.18903E-03
 -1       759 1.77429E-03
 -1       760 1.40914E-03
 -1       761 1.09707E-03
 -1       762 8.36788E-04
 -1       763 6.23571E-04
 -1       764 4.67176E-04
 -1       765 3.41959E-04
 -1       766 2.23448E-04
 -1       767 4.60401E+00
 -1       768 1.64265E+00
 -1       769 1.30042E+00
 -1       770 9.98216E-01
 -1       771 7.62213E-01
 -1       772 5.86665E-01
 -1       773 4.47633E-01
 -1       774 3.41462E-01
 -1       775 2.57969E-01
 -1       776 1.92694E-01
 -1       777 1.42829E-01
 -1       778 1.04208E-01
 -1       779 7.45712E-02
 -1       780 5.21012E-02
 -1       781 3.53118E-02
 -1       782 2.29791E-02
 -1       783 1.40999E-02
 -1       784 8.12226E-03
 -1       785 7.08840E-03
 -1       786 7.07526E-03
 -1       787 6.61315E-03
 -1       788 5.91038E-03
 -1       789 5.10767E-03
 -1       790 4.37686E-03
 -1       791 3.81978E-03
 -1       792 3.23864E-03
 -1       793 2.68003E-03
 -1       794 2.17055E-03
 -1       795 1.72307E-03
 -1       796 1.34134E-03
 -1       797 1.02341E-03
 -1       798 7.64005E-04
 -1       799 5.56156E-04
 -1       800 3.96148E-04
 -1       801 2.80424E-04
 -1       802 3.43918E-04
 -1       803 5.93772E+00
 -1       804 2.07040E+00
 -1       805 2.99517E-04
 -1       806 2.90334E-04
 -1       807 2.62987E-04
 -1       808 2.99517E-04
 -1       809 7.88890E+00
 -1       810 1.15500E+01
 -1       811 5.90035E+00
 -1       812 5.02384E+00
 -1       813 2.54337E+00
 -1       814 3.43918E-04
 -1       815 9.26641E+00
 -1       816 2.95774E-04
 -1       817 2.95774E-04
 -1       818 2.80668E-04
 -1       819 6.15284E+00
 -1       820 7.75360E+00
 -1       821 1.20905E+00
 -1       822 4.34456E+00
 -1       823 4.07263E+00
 -1       824 3.49487E+00
 -1       825 2.58680E+00
 -1       826 1.83606E+00
 -1       827 1.27333E+00
 -1       828 8.87781E-01
 -1       829 6.77878E-01
 -1       830 5.16854E-01
 -1       831 3.91559E-01
 -1       832 2.94212E-01
 -1       833 2.18688E-01
 -1       834 1.60319E-01
 -1       835 1.15512E-01
 -1       836 8.22763E-02
 -1       837 5.78266E-02
 -1       838 3.95044E-02
 -1       839 2.59843E-02
 -1       840 1.61922E-02
 -1       841 9.25902E-03
 -1       842 4.48678E-03
 -1       843 3.33578E-03
 -1       844 3.97184E-03
 -1       845 4.10286E-03
 -1       846 3.91970E-03
 -1       847 3.55810E-03
 -1       848 3.21386E-03
 -1       849 2.86381E-03
 -1       850 2.46836E-03
 -1       851 2.07057E-03
 -1       852 1.69652E-03
 -1       853 1.36034E-03
 -1       854 1.06780E-03
 -1       855 8.17478E-04
 -1       856 6.58707E-04
 -1       857 6.58707E-04
 -1       858 9.12424E-01
 -1       859 1.72989E+00
 -1       860 7.23321E-01
 -1       861 5.67254E-01
 -1       862 4.38219E-01
 -1       863 3.33819E-01
 -1       864 2.50570E-01
 -1       865 1.85036E-01
 -1       866 1.34112E-01
 -1       867 9.50825E-02
 -1       868 6.61512E-02
 -1       869 4.53792E-02
 -1       870 3.00071E-02
 -1       871 1.88495E-02
 -1       872 1.10828E-02
 -1       873 5.70884E-03
 -1       874 3.89184E-03
 -1       875 4.61553E-03
 -1       876 4.75506E-03
 -1       877 4.53397E-03
 -1       878 4.10980E-03
 -1       879 3.59034E-03
 -1       880 3.16075E-03
 -1       881 2.74092E-03
 -1       882 2.31149E-03
 -1       883 1.90358E-03
 -1       884 1.53454E-03
 -1       885 1.21230E-03
 -1       886 9.38596E-04
 -1       887 7.11347E-04
 -1       888 5.26203E-04
 -1       889 4.45167E-04
 -1       890 5.95240E-04
 -1       891 8.15499E+00
 -1       892 5.89207E+00
 -1       893 5.89489E+00
 -1       894 3.68441E+00
 -1       895 5.55602E-04
 -1       896 2.84408E+00
 -1       897 3.69646E-04
 -1       898 4.40079E+00
 -1       899 4.45167E-04
 -1       900 4.35824E-04
 -1       901 3.69646E-04
 -1       902 3.81766E+00
 -1       903 1.20905E+00
 -1       904 2.58680E+00
 -1       905 1.87346E+00
 -1       906 1.34363E+00
 -1       907 9.59053E-01
 -1       908 6.90263E-01
 -1       909 5.16854E-01
 -1       910 3.91559E-01
 -1       911 2.94212E-01
 -1       912 2.18688E-01
 -1       913 1.60319E-01
 -1       914 1.15512E-01
 -1       915 8.22763E-02
 -1       916 5.78266E-02
 -1       917 3.95044E-02
 -1       918 2.59843E-02
 -1       919 1.61922E-02
 -1       920 1.01721E-02
 -1       921 6.00237E-03
 -1       922 3.46032E-03
 -1       923 2.49869E-03
 -1       924 3.15659E-03
 -1       925 3.47981E-03
 -1       926 3.45199E-03
 -1       927 3.21386E-03
 -1       928 2.86381E-03
 -1       929 2.46836E-03
 -1       930 2.07057E-03
 -1       931 1.69652E-03
 -1       932 1.36034E-03
 -1       933 1.06780E-03
 -1       934 8.17478E-04
 -1       935 6.58707E-04
 -1       936 6.83604E-01
 -1       937 1.91865E+00
 -1       938 5.15529E-01
 -1       939 3.89214E-01
 -1       940 2.92839E-01
 -1       941 2.18660E-01
 -1       942 1.61430E-01
 -1       943 1.17408E-01
 -1       944 8.37896E-02
 -1       945 5.83897E-02
 -1       946 3.99079E-02
 -1       947 2.68449E-02
 -1       948 1.72827E-02
 -1       949 1.04268E-02
 -1       950 5.70506E-03
 -1       951 3.15135E-03
 -1       952 3.02618E-03
 -1       953 3.44450E-03
 -1       954 3.47562E-03
 -1       955 3.27139E-03
 -1       956 2.93831E-03
 -1       957 2.55647E-03
 -1       958 2.24378E-03
 -1       959 1.91091E-03
 -1       960 1.58700E-03
 -1       961 1.28906E-03
 -1       962 1.02558E-03
 -1       963 7.99452E-04
 -1       964 6.10859E-04
 -1       965 4.69177E-04
 -1       966 5.62210E+00
 -1       967 9.12424E-01
 -1       968 5.02442E+00
 -1       969 3.69646E-04
 -1       970 3.15040E+00
 -1       971 4.52077E+00
 -1       972 5.02442E+00
 -1       973 4.51947E-04
 -1       974 4.39533E+00
 -1       975 2.00176E+00
 -1       976 1.39920E+00
 -1       977 9.65982E-01
 -1       978 6.82599E-01
 -1       979 4.92771E-01
 -1       980 3.61632E-01
 -1       981 2.67784E-01
 -1       982 1.98793E-01
 -1       983 1.47138E-01
 -1       984 1.08068E-01
 -1       985 8.08886E-02
 -1       986 5.94860E-02
 -1       987 4.28339E-02
 -1       988 3.00713E-02
 -1       989 2.10153E-02
 -1       990 1.44471E-02
 -1       991 9.55861E-03
 -1       992 5.99555E-03
 -1       993 3.46032E-03
 -1       994 1.70785E-03
 -1       995 1.86660E-03
 -1       996 2.07836E-03
 -1       997 2.07327E-03
 -1       998 1.93750E-03
 -1       999 1.73144E-03
 -1      1000 1.49603E-03
 -1      1001 1.25785E-03
 -1      1002 1.03311E-03
 -1      1003 8.36678E-04
 -1      1004 6.81795E-04
 -1      1005 5.57501E-04
 -1      1006 1.46039E+00
 -1      1007 4.08646E-01
 -1      1008 3.06093E-01
 -1      1009 2.29526E-01
 -1      1010 1.71269E-01
 -1      1011 1.26559E-01
 -1      1012 9.22210E-02
 -1      1013 6.59833E-02
 -1      1014 4.61243E-02
 -1      1015 3.12872E-02
 -1      1016 2.12340E-02
 -1      1017 1.38413E-02
 -1      1018 8.84209E-03
 -1      1019 5.48278E-03
 -1      1020 3.15135E-03
 -1      1021 2.05363E-03
 -1      1022 2.52921E-03
 -1      1023 2.65375E-03
 -1      1024 2.55864E-03
 -1      1025 2.33712E-03
 -1      1026 2.05344E-03
 -1      1027 1.75106E-03
 -1      1028 1.49466E-03
 -1      1029 1.24371E-03
 -1      1030 1.01200E-03
 -1      1031 8.06802E-04
 -1      1032 6.29783E-04
 -1      1033 4.91353E-04
 -1      1034 1.04636E+00
 -1      1035 4.51947E-04
 -1      1036 5.50377E-01
 -1      1037 7.55222E-01
 -1      1038 3.19739E+00
 -1      1039 3.84529E+00
 -1      1040 4.98083E-04
 -1      1041 2.36794E+00
 -1      1042 3.38050E+00
 -1      1043 4.75943E-04
 -1      1044 1.01866E+00
 -1      1045 7.14120E-01
 -1      1046 5.28469E-01
 -1      1047 3.98761E-01
 -1      1048 3.03920E-01
 -1      1049 2.32248E-01
 -1      1050 1.77321E-01
 -1      1051 1.34594E-01
 -1      1052 1.01003E-01
 -1      1053 7.46903E-02
 -1      1054 5.42475E-02
 -1      1055 3.85464E-02
 -1      1056 2.66556E-02
 -1      1057 1.85496E-02
 -1      1058 1.25331E-02
 -1      1059 8.10509E-03
 -1      1060 4.91593E-03
 -1      1061 2.67711E-03
 -1      1062 1.24797E-03
 -1      1063 1.76063E-03
 -1      1064 1.95727E-03
 -1      1065 1.95066E-03
 -1      1066 1.82187E-03
 -1      1067 1.62764E-03
 -1      1068 1.40638E-03
 -1      1069 1.18305E-03
 -1      1070 9.73381E-04
 -1      1071 7.95857E-04
 -1      1072 5.57501E-04
 -1      1073 3.68628E-01
 -1      1074 1.63681E-01
 -1      1075 1.22705E-01
 -1      1076 9.06118E-02
 -1      1077 6.56849E-02
 -1      1078 4.65525E-02
 -1      1079 3.29219E-02
 -1      1080 2.26628E-02
 -1      1081 1.50297E-02
 -1      1082 9.46451E-03
 -1      1083 5.50151E-03
 -1      1084 3.10765E-03
 -1      1085 1.47678E-03
 -1      1086 1.87097E-03
 -1      1087 1.99100E-03
 -1      1088 1.95727E-03
 -1      1089 1.95066E-03
 -1      1090 1.82187E-03
 -1      1091 1.62764E-03
 -1      1092 1.40638E-03
 -1      1093 1.18305E-03
 -1      1094 9.73381E-04
 -1      1095 7.51204E-04
 -1      1096 2.15818E-01
 -1      1097 2.82404E-01
 -1      1098 1.14848E+00
 -1      1099 4.83281E-01
 -1      1100 1.63888E+00
 -1      1101 8.68014E-01
 -1      1102 2.61384E+00
 -1      1103 6.41731E-01
 -1      1104 2.06169E+00
 -1      1105 1.38504E+00
 -1      1106 1.44931E+01
 -1      1107 9.19639E+00
 -1      1108 3.16753E+00
 -1      1109 2.72014E+00
 -1      1110 3.78556E+00
 -1      1111 6.22549E+00
 -1      1112 8.89281E+00
 -1      1113 1.05532E+01
 -1      1114 1.12915E+01
 -1      1115 1.20252E+01
 -1      1116 1.13777E+01
 -1      1117 9.06133E+00
 -1      1118 6.42902E+00
 -1      1119 4.12871E+00
 -1      1120 3.86970E+00
 -1      1121 6.82243E+00
 -1      1122 1.16282E+01
 -1      1123 1.44931E+01
 -1      1124 9.73439E+00
 -1      1125 4.65674E+00
 -1      1126 4.16802E+00
 -1      1127 3.90632E+00
 -1      1128 3.52501E+00
 -1      1129 3.09563E+00
 -1      1130 2.55007E+00
 -1      1131 1.63582E+00
 -1      1132 9.71002E-01
 -1      1133 7.91549E-01
 -1      1134 7.96518E-01
 -1      1135 8.24786E-01
 -1      1136 7.90925E-01
 -1      1137 6.92273E-01
 -1      1138 5.63729E-01
 -1      1139 4.51339E-01
 -1      1140 3.76671E-01
 -1      1141 3.20977E-01
 -1      1142 2.62200E-01
 -1      1143 2.06819E-01
 -1      1144 1.58155E-01
 -1      1145 1.17448E-01
 -1      1146 9.15092E-02
 -1      1147 7.64776E-02
 -1      1148 6.23260E-02
 -1      1149 4.96782E-02
 -1      1150 3.87925E-02
 -1      1151 2.96961E-02
 -1      1152 2.26620E-02
 -1      1153 1.80254E-02
 -1      1154 1.47571E-02
 -1      1155 1.18355E-02
 -1      1156 9.31214E-03
 -1      1157 7.24747E-03
 -1      1158 5.62766E-03
 -1      1159 4.32473E-03
 -1      1160 3.26126E-03
 -1      1161 2.41030E-03
 -1      1162 1.83219E-03
 -1      1163 1.46625E-03
 -1      1164 1.16263E-03
 -1      1165 9.06563E-04
 -1      1166 6.95189E-04
 -1      1167 5.23249E-04
 -1      1168 4.01088E-04
 -1      1169 3.29112E-04
 -1      1170 2.66724E-04
 -1      1171 1.75063E-04
 -1      1172 7.73287E-05
 -1      1173 1.39115E+01
 -1      1174 8.71576E+00
 -1      1175 3.24815E+00
 -1      1176 3.25763E+00
 -1      1177 3.53902E+00
 -1      1178 3.49601E+00
 -1      1179 3.45299E+00
 -1      1180 3.00473E+00
 -1      1181 1.90950E+00
 -1      1182 1.09176E+00
 -1      1183 1.03965E+00
 -1      1184 1.18080E+00
 -1      1185 1.20331E+00
 -1      1186 1.14483E+00
 -1      1187 1.00154E+00
 -1      1188 8.35197E-01
 -1      1189 6.71698E-01
 -1      1190 5.16170E-01
 -1      1191 3.85307E-01
 -1      1192 2.91559E-01
 -1      1193 2.24142E-01
 -1      1194 1.67881E-01
 -1      1195 1.22582E-01
 -1      1196 8.71341E-02
 -1      1197 6.11233E-02
 -1      1198 4.64325E-02
 -1      1199 3.84766E-02
 -1      1200 3.12105E-02
 -1      1201 2.48322E-02
 -1      1202 1.98609E-02
 -1      1203 1.66803E-02
 -1      1204 1.43204E-02
 -1      1205 1.19820E-02
 -1      1206 9.80637E-03
 -1      1207 7.89943E-03
 -1      1208 6.33044E-03
 -1      1209 5.03391E-03
 -1      1210 3.93037E-03
 -1      1211 3.01364E-03
 -1      1212 2.26795E-03
 -1      1213 1.67274E-03
 -1      1214 1.21439E-03
 -1      1215 9.03154E-04
 -1      1216 6.92961E-04
 -1      1217 5.21880E-04
 -1      1218 3.83035E-04
 -1      1219 2.68036E-04
 -1      1220 1.95632E-04
 -1      1221 1.37411E-04
 -1      1222 6.49239E-05
 -1      1223 3.45262E-05
 -1      1224 3.98141E-05
 -1      1225 4.15107E-05
 -1      1226 3.44115E-05
 -1      1227 2.15407E-05
 -1      1228 2.31914E-05
 -1      1229 3.55644E-05
 -1      1230 4.20102E-05
 -1      1231 4.35053E-05
 -1      1232 4.19495E-05
 -1      1233 3.52834E-05
 -1      1234 2.30608E-05
 -1      1235 2.19201E-05
 -1      1236 3.44378E-05
 -1      1237 4.59985E-05
 -1      1238 5.31152E-05
 -1      1239 4.53932E-05
 -1      1240 3.08798E+01
 -1      1241 3.56254E+01
 -1      1242 4.03710E+01
 -1      1243 2.82741E+01
 -1      1244 1.42153E+01
 -1      1245 1.22533E+01
 -1      1246 1.22312E+01
 -1      1247 1.19079E+01
 -1      1248 1.15882E+01
 -1      1249 1.23819E+01
 -1      1250 2.07930E+01
 -1      1251 3.94257E+01
 -1      1252 5.04598E+01
 -1      1253 4.73907E+01
 -1      1254 4.43216E+01
 -1      1255 4.72080E+01
 -1      1256 5.00943E+01
 -1      1257 4.00090E+01
 -1      1258 2.22503E+01
 -1      1259 1.30774E+01
 -1      1260 1.16653E+01
 -1      1261 1.17527E+01
 -1      1262 1.20385E+01
 -1      1263 1.23243E+01
 -1      1264 1.31757E+01
 -1      1265 2.58110E+01
 -1      1266 3.75948E+01
 -1      1267 3.35416E+01
 -1      1268 3.01841E+01
 -1      1269 1.44931E+01
 -1      1270 3.89967E+00
 -1      1271 9.19639E+00
 -1      1272 2.53257E+00
 -1      1273 3.26470E+00
 -1      1274 3.26470E+00
 -1      1275 2.96705E+00
 -1      1276 2.68230E+00
 -1      1277 2.77947E+00
 -1      1278 4.29075E+00
 -1      1279 3.51008E+00
 -1      1280 3.47224E+00
 -1      1281 7.43643E+00
 -1      1282 5.77716E+00
 -1      1283 5.50168E+00
 -1      1284 1.04375E+01
 -1      1285 9.42948E+00
 -1      1286 8.98115E+00
 -1      1287 1.16488E+01
 -1      1288 1.09965E+01
 -1      1289 1.15331E+01
 -1      1290 1.40100E+01
 -1      1291 1.39239E+01
 -1      1292 1.43672E+01
 -1      1293 1.55109E+01
 -1      1294 1.48633E+01
 -1      1295 1.74957E+01
 -1      1296 1.16384E+01
 -1      1297 1.29335E+01
 -1      1298 1.57715E+01
 -1      1299 1.01088E+01
 -1      1300 1.11301E+01
 -1      1301 1.26858E+01
 -1      1302 6.06798E+00
 -1      1303 7.67903E+00
 -1      1304 9.74777E+00
 -1      1305 3.78187E+00
 -1      1306 4.47113E+00
 -1      1307 5.72114E+00
 -1      1308 3.83474E+00
 -1      1309 3.40448E+00
 -1      1310 3.74691E+00
 -1      1311 7.00555E+00
 -1      1312 4.48309E+00
 -1      1313 4.01787E+00
 -1      1314 1.39115E+01
 -1      1315 1.16282E+01
 -1      1316 9.28883E+00
 -1      1317 1.39115E+01
 -1      1318 9.73439E+00
 -1      1319 4.97567E+00
 -1      1320 4.65674E+00
 -1      1321 4.33782E+00
 -1      1322 4.65674E+00
 -1      1323 4.16802E+00
 -1      1324 3.99821E+00
 -1      1325 4.16802E+00
 -1      1326 3.90632E+00
 -1      1327 3.81443E+00
 -1      1328 3.90632E+00
 -1      1329 3.52501E+00
 -1      1330 3.23559E+00
 -1      1331 3.52501E+00
 -1      1332 3.09563E+00
 -1      1333 2.95566E+00
 -1      1334 3.09563E+00
 -1      1335 2.55007E+00
 -1      1336 2.14448E+00
 -1      1337 2.55007E+00
 -1      1338 1.74347E+00
 -1      1339 1.23481E+00
 -1      1340 1.74347E+00
 -1      1341 9.71002E-01
 -1      1342 8.14848E-01
 -1      1343 1.07866E+00
 -1      1344 7.91549E-01
 -1      1345 7.68249E-01
 -1      1346 7.91549E-01
 -1      1347 7.63031E-01
 -1      1348 7.91300E-01
 -1      1349 7.63031E-01
 -1      1350 8.24786E-01
 -1      1351 8.24786E-01
 -1      1352 7.91300E-01
 -1      1353 7.90925E-01
 -1      1354 7.57063E-01
 -1      1355 7.90925E-01
 -1      1356 6.92273E-01
 -1      1357 6.27483E-01
 -1      1358 6.92273E-01
 -1      1359 5.77685E-01
 -1      1360 5.13931E-01
 -1      1361 5.77685E-01
 -1      1362 4.79632E-01
 -1      1363 4.30996E-01
 -1      1364 4.93588E-01
 -1      1365 3.89310E-01
 -1      1366 3.63278E-01
 -1      1367 4.17603E-01
 -1      1368 3.21612E-01
 -1      1369 2.91950E-01
 -1      1370 3.34251E-01
 -1      1371 2.62200E-01
 -1      1372 2.33084E-01
 -1      1373 2.62835E-01
 -1      1374 2.07668E-01
 -1      1375 1.81403E-01
 -1      1376 2.07668E-01
 -1      1377 1.61365E-01
 -1      1378 1.38966E-01
 -1      1379 1.62214E-01
 -1      1380 1.21859E-01
 -1      1381 1.03551E-01
 -1      1382 1.25070E-01
 -1      1383 9.15092E-02
 -1      1384 8.38792E-02
 -1      1385 9.59209E-02
 -1      1386 7.64776E-02
 -1      1387 6.90761E-02
 -1      1388 7.64776E-02
 -1      1389 6.23260E-02
 -1      1390 5.55759E-02
 -1      1391 6.23260E-02
 -1      1392 4.96782E-02
 -1      1393 4.37805E-02
 -1      1394 4.96782E-02
 -1      1395 3.87925E-02
 -1      1396 3.38045E-02
 -1      1397 3.87925E-02
 -1      1398 2.98195E-02
 -1      1399 2.57111E-02
 -1      1400 2.98195E-02
 -1      1401 2.28910E-02
 -1      1402 1.99652E-02
 -1      1403 2.30144E-02
 -1      1404 1.80254E-02
 -1      1405 1.63146E-02
 -1      1406 1.82544E-02
 -1      1407 1.47571E-02
 -1      1408 1.31996E-02
 -1      1409 1.47571E-02
 -1      1410 1.18355E-02
 -1      1411 1.04714E-02
 -1      1412 1.18355E-02
 -1      1413 9.44784E-03
 -1      1414 8.28859E-03
 -1      1415 9.44784E-03
 -1      1416 7.42256E-03
 -1      1417 6.51714E-03
 -1      1418 7.55826E-03
 -1      1419 5.87747E-03
 -1      1420 5.16308E-03
 -1      1421 6.05256E-03
 -1      1422 4.62359E-03
 -1      1423 4.03504E-03
 -1      1424 4.87339E-03
 -1      1425 3.57037E-03
 -1      1426 3.09544E-03
 -1      1427 3.86922E-03
 -1      1428 2.70562E-03
 -1      1429 2.32958E-03
 -1      1430 3.01472E-03
 -1      1431 2.00977E-03
 -1      1432 1.80771E-03
 -1      1433 2.30509E-03
 -1      1434 1.55046E-03
 -1      1435 1.38658E-03
 -1      1436 1.72804E-03
 -1      1437 1.18335E-03
 -1      1438 1.04361E-03
 -1      1439 1.26756E-03
 -1      1440 9.06563E-04
 -1      1441 7.90243E-04
 -1      1442 9.27286E-04
 -1      1443 6.99183E-04
 -1      1444 6.04129E-04
 -1      1445 6.99183E-04
 -1      1446 5.33141E-04
 -1      1447 4.56254E-04
 -1      1448 5.37135E-04
 -1      1449 4.01088E-04
 -1      1450 3.55814E-04
 -1      1451 4.10980E-04
 -1      1452 3.29112E-04
 -1      1453 3.02409E-04
 -1      1454 3.29112E-04
 -1      1455 2.66724E-04
 -1      1456 2.31038E-04
 -1      1457 2.66724E-04
 -1      1458 1.80713E-04
 -1      1459 1.24738E-04
 -1      1460 1.80713E-04
 -1      1461 8.71530E-05
 -1      1462 9.28027E-05
 -1      1463 3.52007E+00
 -1      1464 8.71576E+00
 -1      1465 8.71576E+00
 -1      1466 2.91255E+00
 -1      1467 3.18446E+00
 -1      1468 3.18446E+00
 -1      1469 3.25763E+00
 -1      1470 2.97623E+00
 -1      1471 2.91255E+00
 -1      1472 3.53902E+00
 -1      1473 3.53902E+00
 -1      1474 3.25763E+00
 -1      1475 3.44153E+00
 -1      1476 3.48454E+00
 -1      1477 3.48454E+00
 -1      1478 3.45299E+00
 -1      1479 3.45299E+00
 -1      1480 3.44153E+00
 -1      1481 2.55648E+00
 -1      1482 3.00473E+00
 -1      1483 3.00473E+00
 -1      1484 1.26252E+00
 -1      1485 1.90950E+00
 -1      1486 1.90950E+00
 -1      1487 8.38878E-01
 -1      1488 1.00963E+00
 -1      1489 1.00963E+00
 -1      1490 1.05558E+00
 -1      1491 9.36939E-01
 -1      1492 8.54809E-01
 -1      1493 1.18080E+00
 -1      1494 1.15829E+00
 -1      1495 1.05558E+00
 -1      1496 1.20331E+00
 -1      1497 1.20331E+00
 -1      1498 1.18080E+00
 -1      1499 1.08635E+00
 -1      1500 1.14483E+00
 -1      1501 1.14483E+00
 -1      1502 9.16727E-01
 -1      1503 1.00154E+00
 -1      1504 1.00154E+00
 -1      1505 7.59397E-01
 -1      1506 8.40927E-01
 -1      1507 8.40927E-01
 -1      1508 6.04310E-01
 -1      1509 6.86279E-01
 -1      1510 6.92009E-01
 -1      1511 4.61124E-01
 -1      1512 5.34683E-01
 -1      1513 5.49263E-01
 -1      1514 3.43052E-01
 -1      1515 4.00357E-01
 -1      1516 4.18869E-01
 -1      1517 2.56584E-01
 -1      1518 2.93028E-01
 -1      1519 3.08078E-01
 -1      1520 1.93167E-01
 -1      1521 2.24142E-01
 -1      1522 2.25610E-01
 -1      1523 1.42595E-01
 -1      1524 1.67881E-01
 -1      1525 1.67881E-01
 -1      1526 1.03380E-01
 -1      1527 1.23393E-01
 -1      1528 1.23393E-01
 -1      1529 7.33335E-02
 -1      1530 8.87686E-02
 -1      1531 8.95794E-02
 -1      1532 5.15166E-02
 -1      1533 6.20923E-02
 -1      1534 6.37268E-02
 -1      1535 4.23175E-02
 -1      1536 4.64325E-02
 -1      1537 4.74016E-02
 -1      1538 3.46356E-02
 -1      1539 3.84766E-02
 -1      1540 3.84766E-02
 -1      1541 2.77854E-02
 -1      1542 3.12105E-02
 -1      1543 3.12105E-02
 -1      1544 2.18789E-02
 -1      1545 2.48322E-02
 -1      1546 2.48322E-02
 -1      1547 1.78430E-02
 -1      1548 1.98609E-02
 -1      1549 1.98609E-02
 -1      1550 1.55176E-02
 -1      1551 1.66803E-02
 -1      1552 1.66803E-02
 -1      1553 1.31233E-02
 -1      1554 1.43204E-02
 -1      1555 1.43204E-02
 -1      1556 1.08408E-02
 -1      1557 1.19820E-02
 -1      1558 1.19820E-02
 -1      1559 8.77192E-03
 -1      1560 9.80637E-03
 -1      1561 9.80637E-03
 -1      1562 7.02694E-03
 -1      1563 7.89943E-03
 -1      1564 7.89943E-03
 -1      1565 5.63393E-03
 -1      1566 6.33044E-03
 -1      1567 6.33044E-03
 -1      1568 4.44031E-03
 -1      1569 5.04033E-03
 -1      1570 5.04033E-03
 -1      1571 3.46667E-03
 -1      1572 3.97019E-03
 -1      1573 3.97661E-03
 -1      1574 2.65771E-03
 -1      1575 3.07093E-03
 -1      1576 3.11075E-03
 -1      1577 1.99953E-03
 -1      1578 2.33200E-03
 -1      1579 2.38929E-03
 -1      1580 1.47394E-03
 -1      1581 1.73669E-03
 -1      1582 1.80073E-03
 -1      1583 1.06998E-03
 -1      1584 1.26558E-03
 -1      1585 1.32953E-03
 -1      1586 7.91822E-04
 -1      1587 9.07462E-04
 -1      1588 9.58645E-04
 -1      1589 5.98408E-04
 -1      1590 6.92961E-04
 -1      1591 6.97269E-04
 -1      1592 4.45352E-04
 -1      1593 5.21880E-04
 -1      1594 5.21880E-04
 -1      1595 3.20725E-04
 -1      1596 3.83042E-04
 -1      1597 3.83042E-04
 -1      1598 2.20940E-04
 -1      1599 2.73622E-04
 -1      1600 2.73629E-04
 -1      1601 1.75909E-04
 -1      1602 1.95632E-04
 -1      1603 2.01217E-04
 -1      1604 9.89131E-05
 -1      1605 1.37411E-04
 -1      1606 1.37411E-04
 -1      1607 6.85154E-05
 -1      1608 5.23923E-05
 -1      1609 5.06958E-05
 -1      1610 5.55660E-05
 -1      1611 5.55660E-05
 -1      1612 6.64476E-05
 -1      1613 4.84668E-05
 -1      1614 5.55660E-05
 -1      1615 6.96213E-05
 -1      1616 2.71084E-05
 -1      1617 3.28800E-05
 -1      1618 5.40345E-05
 -1      1619 4.44394E-05
 -1      1620 3.70171E-05
 -1      1621 4.83564E-05
 -1      1622 5.94490E-05
 -1      1623 5.44983E-05
 -1      1624 6.83240E-05
 -1      1625 6.50615E-05
 -1      1626 6.35664E-05
 -1      1627 8.25002E-05
 -1      1628 6.50615E-05
 -1      1629 6.50615E-05
 -1      1630 8.66176E-05
 -1      1631 6.34836E-05
 -1      1632 6.50395E-05
 -1      1633 8.65956E-05
 -1      1634 5.40030E-05
 -1      1635 5.91133E-05
 -1      1636 8.22033E-05
 -1      1637 3.72210E-05
 -1      1638 4.43333E-05
 -1      1639 6.81632E-05
 -1      1640 3.33288E-05
 -1      1641 2.73573E-05
 -1      1642 4.86298E-05
 -1      1643 5.59378E-05
 -1      1644 4.93916E-05
 -1      1645 5.48288E-05
 -1      1646 6.09523E-05
 -1      1647 5.59378E-05
 -1      1648 7.08915E-05
 -1      1649 6.80511E-05
 -1      1650 6.59489E-05
 -1      1651 7.58881E-05
 -1      1652 1.05636E-04
 -1      1653 3.63047E+01
 -1      1654 3.63047E+01
 -1      1655 3.80145E+01
 -1      1656 3.32689E+01
 -1      1657 4.03710E+01
 -1      1658 4.03710E+01
 -1      1659 1.61772E+01
 -1      1660 2.82741E+01
 -1      1661 1.17338E+01
 -1      1662 1.36957E+01
 -1      1663 1.22533E+01
 -1      1664 1.22533E+01
 -1      1665 1.22090E+01
 -1      1666 1.22312E+01
 -1      1667 1.16068E+01
 -1      1668 1.19079E+01
 -1      1669 1.15696E+01
 -1      1670 1.15882E+01
 -1      1671 1.16589E+01
 -1      1672 1.08465E+01
 -1      1673 2.09200E+01
 -1      1674 1.33214E+01
 -1      1675 3.94257E+01
 -1      1676 2.83916E+01
 -1      1677 5.04598E+01
 -1      1678 5.04598E+01
 -1      1679 4.55590E+01
 -1      1680 4.86282E+01
 -1      1681 4.55590E+01
 -1      1682 4.55590E+01
 -1      1683 4.82719E+01
 -1      1684 4.53856E+01
 -1      1685 5.00943E+01
 -1      1686 5.00943E+01
 -1      1687 2.99236E+01
 -1      1688 4.00090E+01
 -1      1689 1.45769E+01
 -1      1690 2.22503E+01
 -1      1691 1.05896E+01
 -1      1692 1.20891E+01
 -1      1693 1.16653E+01
 -1      1694 1.15779E+01
 -1      1695 1.17527E+01
 -1      1696 1.17527E+01
 -1      1697 1.17360E+01
 -1      1698 1.14502E+01
 -1      1699 1.23243E+01
 -1      1700 1.23243E+01
 -1      1701 1.25276E+01
 -1      1702 1.16761E+01
 -1      1703 2.58110E+01
 -1      1704 1.40272E+01
 -1      1705 3.75948E+01
 -1      1706 3.75948E+01
 -1      1707 3.25780E+01
 -1      1708 3.66312E+01
 -1      1709 3.63047E+01
 -1      1710 3.56090E+01
 -1      1711 1.36957E+01
 -1      1712 2.82741E+01
 -1      1713 6.85154E-05
 -1      1714 8.10935E-05
 -1      1715 3.86938E+01
 -1      1716 3.80145E+01
 -1      1717 4.17297E+01
 -1      1718 1.17338E+01
 -1      1719 1.22312E+01
 -1      1720 1.19079E+01
 -1      1721 1.15882E+01
 -1      1722 1.08465E+01
 -1      1723 1.17859E+01
 -1      1724 2.09200E+01
 -1      1725 3.94257E+01
 -1      1726 4.86282E+01
 -1      1727 4.67965E+01
 -1      1728 4.66230E+01
 -1      1729 4.82719E+01
 -1      1730 4.00090E+01
 -1      1731 2.22503E+01
 -1      1732 1.20891E+01
 -1      1733 1.05896E+01
 -1      1734 1.16653E+01
 -1      1735 1.14502E+01
 -1      1736 1.17360E+01
 -1      1737 1.16761E+01
 -1      1738 1.25276E+01
 -1      1739 2.58110E+01
 -1      1740 3.66312E+01
 -1      1741 3.86986E+01
 -1      1742 9.38597E+00
 -1      1743 9.38597E+00
 -1      1744 2.23057E+00
 -1      1745 2.08084E+00
 -1      1746 2.80793E+00
 -1      1747 3.44290E+00
 -1      1748 2.25903E+00
 -1      1749 6.11343E+00
 -1      1750 4.62702E+00
 -1      1751 1.06664E+01
 -1      1752 8.67336E+00
 -1      1753 7.79870E+00
 -1      1754 1.45798E+01
 -1      1755 1.40209E+01
 -1      1756 1.37131E+01
 -1      1757 2.07319E+01
 -1      1758 1.98786E+01
 -1      1759 1.72285E+01
 -1      1760 1.98059E+01
 -1      1761 1.46071E+01
 -1      1762 1.51154E+01
 -1      1763 9.27434E+00
 -1      1764 1.17041E+01
 -1      1765 1.41337E+01
 -1      1766 5.05326E+00
 -1      1767 6.65011E+00
 -1      1768 8.60645E+00
 -1      1769 2.93297E+00
 -1      1770 3.31035E+00
 -1      1771 4.23932E+00
 -1      1772 3.23036E+00
 -1      1773 2.58202E+00
 -1      1774 2.14546E+00
 -1      1775 8.14073E+00
 -1      1776 3.51811E+00
 -1      1777 2.08226E+00
 -1      1778 2.94504E+00
 -1      1779 4.62725E+00
 -1      1780 2.78113E+00
 -1      1781 3.11674E+00
 -1      1782 2.54170E+00
 -1      1783 3.57691E+00
 -1      1784 3.40711E+00
 -1      1785 3.35656E+00
 -1      1786 3.26467E+00
 -1      1787 2.76546E+00
 -1      1788 3.09611E+00
 -1      1789 2.80669E+00
 -1      1790 2.54635E+00
 -1      1791 2.56773E+00
 -1      1792 2.42776E+00
 -1      1793 2.13883E+00
 -1      1794 2.33593E+00
 -1      1795 1.93034E+00
 -1      1796 1.80803E+00
 -1      1797 1.70594E+00
 -1      1798 1.30493E+00
 -1      1799 1.49179E+00
 -1      1800 1.12368E+00
 -1      1801 8.59868E-01
 -1      1802 1.08614E+00
 -1      1803 7.27472E-01
 -1      1804 7.04172E-01
 -1      1805 7.72492E-01
 -1      1806 6.90383E-01
 -1      1807 6.85165E-01
 -1      1808 6.26306E-01
 -1      1809 6.64943E-01
 -1      1810 6.98429E-01
 -1      1811 5.92295E-01
 -1      1812 7.25169E-01
 -1      1813 6.91307E-01
 -1      1814 5.98812E-01
 -1      1815 6.79197E-01
 -1      1816 6.14407E-01
 -1      1817 6.13441E-01
 -1      1818 5.86908E-01
 -1      1819 5.37110E-01
 -1      1820 5.73832E-01
 -1      1821 5.10995E-01
 -1      1822 4.76697E-01
 -1      1823 5.20218E-01
 -1      1824 4.43143E-01
 -1      1825 4.01457E-01
 -1      1826 4.60550E-01
 -1      1827 3.63389E-01
 -1      1828 3.21723E-01
 -1      1829 3.88929E-01
 -1      1830 2.84543E-01
 -1      1831 2.54793E-01
 -1      1832 3.13682E-01
 -1      1833 2.21510E-01
 -1      1834 1.96093E-01
 -1      1835 2.43218E-01
 -1      1836 1.68014E-01
 -1      1837 1.47976E-01
 -1      1838 1.81855E-01
 -1      1839 1.25325E-01
 -1      1840 1.08218E-01
 -1      1841 1.31124E-01
 -1      1842 9.39018E-02
 -1      1843 8.18600E-02
 -1      1844 9.41568E-02
 -1      1845 7.06532E-02
 -1      1846 6.32517E-02
 -1      1847 6.86340E-02
 -1      1848 5.55338E-02
 -1      1849 4.87837E-02
 -1      1850 4.97094E-02
 -1      1851 4.53176E-02
 -1      1852 3.94199E-02
 -1      1853 3.85254E-02
 -1      1854 3.63400E-02
 -1      1855 3.13520E-02
 -1      1856 3.19794E-02
 -1      1857 2.85600E-02
 -1      1858 2.45751E-02
 -1      1859 2.61076E-02
 -1      1860 2.21379E-02
 -1      1861 1.93178E-02
 -1      1862 2.08784E-02
 -1      1863 1.72527E-02
 -1      1864 1.53128E-02
 -1      1865 1.63762E-02
 -1      1866 1.39700E-02
 -1      1867 1.24125E-02
 -1      1868 1.29683E-02
 -1      1869 1.15209E-02
 -1      1870 1.01568E-02
 -1      1871 1.07339E-02
 -1      1872 9.30275E-03
 -1      1873 8.27920E-03
 -1      1874 8.98817E-03
 -1      1875 7.52481E-03
 -1      1876 6.65878E-03
 -1      1877 7.37972E-03
 -1      1878 6.06231E-03
 -1      1879 5.42264E-03
 -1      1880 6.02886E-03
 -1      1881 4.89458E-03
 -1      1882 4.35508E-03
 -1      1883 4.90433E-03
 -1      1884 3.92861E-03
 -1      1885 3.46393E-03
 -1      1886 3.94980E-03
 -1      1887 3.11865E-03
 -1      1888 2.72883E-03
 -1      1889 3.17804E-03
 -1      1890 2.42922E-03
 -1      1891 2.10941E-03
 -1      1892 2.53315E-03
 -1      1893 1.85641E-03
 -1      1894 1.59916E-03
 -1      1895 1.98053E-03
 -1      1896 1.39036E-03
 -1      1897 1.18713E-03
 -1      1898 1.51873E-03
 -1      1899 1.01824E-03
 -1      1900 8.81202E-04
 -1      1901 1.14104E-03
 -1      1902 7.47165E-04
 -1      1903 6.56105E-04
 -1      1904 8.38123E-04
 -1      1905 5.51776E-04
 -1      1906 4.80788E-04
 -1      1907 5.99758E-04
 -1      1908 4.07741E-04
 -1      1909 3.52575E-04
 -1      1910 4.22383E-04
 -1      1911 3.04432E-04
 -1      1912 2.77730E-04
 -1      1913 3.01193E-04
 -1      1914 2.41363E-04
 -1      1915 2.05678E-04
 -1      1916 2.16684E-04
 -1      1917 1.76610E-04
 -1      1918 1.26285E-04
 -1      1919 1.01533E-04
 -1      1920 1.51250E-04
 -1      1921 2.60831E+00
 -1      1922 2.54462E+00
 -1      1923 2.47689E+00
 -1      1924 2.85145E+00
 -1      1925 2.57006E+00
 -1      1926 2.20213E+00
 -1      1927 2.68727E+00
 -1      1928 2.74175E+00
 -1      1929 2.05418E+00
 -1      1930 2.61527E+00
 -1      1931 2.60381E+00
 -1      1932 1.86102E+00
 -1      1933 2.04658E+00
 -1      1934 2.49483E+00
 -1      1935 1.65712E+00
 -1      1936 1.16345E+00
 -1      1937 1.81043E+00
 -1      1938 1.30053E+00
 -1      1939 7.86359E-01
 -1      1940 1.03925E+00
 -1      1941 9.40176E-01
 -1      1942 8.45708E-01
 -1      1943 7.47648E-01
 -1      1944 7.77259E-01
 -1      1945 1.01302E+00
 -1      1946 9.10307E-01
 -1      1947 8.03145E-01
 -1      1948 1.04156E+00
 -1      1949 1.01904E+00
 -1      1950 8.73773E-01
 -1      1951 9.67982E-01
 -1      1952 1.02647E+00
 -1      1953 8.64710E-01
 -1      1954 8.40154E-01
 -1      1955 9.24964E-01
 -1      1956 8.06599E-01
 -1      1957 7.17727E-01
 -1      1958 7.93527E-01
 -1      1959 7.16954E-01
 -1      1960 5.87128E-01
 -1      1961 6.60246E-01
 -1      1962 6.12846E-01
 -1      1963 4.59786E-01
 -1      1964 5.29413E-01
 -1      1965 4.97650E-01
 -1      1966 3.46913E-01
 -1      1967 4.07680E-01
 -1      1968 3.87829E-01
 -1      1969 2.53951E-01
 -1      1970 3.03976E-01
 -1      1971 2.92786E-01
 -1      1972 1.90199E-01
 -1      1973 2.22642E-01
 -1      1974 2.18540E-01
 -1      1975 1.41953E-01
 -1      1976 1.67240E-01
 -1      1977 1.64271E-01
 -1      1978 1.04191E-01
 -1      1979 1.23393E-01
 -1      1980 1.22752E-01
 -1      1981 7.49679E-02
 -1      1982 8.95794E-02
 -1      1983 8.95794E-02
 -1      1984 5.24857E-02
 -1      1985 6.37268E-02
 -1      1986 6.37268E-02
 -1      1987 3.89364E-02
 -1      1988 4.40205E-02
 -1      1989 4.40205E-02
 -1      1990 3.03192E-02
 -1      1991 3.41601E-02
 -1      1992 3.07790E-02
 -1      1993 2.50863E-02
 -1      1994 2.85114E-02
 -1      1995 2.41950E-02
 -1      1996 2.03270E-02
 -1      1997 2.32803E-02
 -1      1998 2.05812E-02
 -1      1999 1.66197E-02
 -1      2000 1.86376E-02
 -1      2001 1.70858E-02
 -1      2002 1.39460E-02
 -1      2003 1.51087E-02
 -1      2004 1.38853E-02
 -1      2005 1.14419E-02
 -1      2006 1.26391E-02
 -1      2007 1.10675E-02
 -1      2008 9.60845E-03
 -1      2009 1.07497E-02
 -1      2010 9.06834E-03
 -1      2011 7.92906E-03
 -1      2012 8.96351E-03
 -1      2013 7.73113E-03
 -1      2014 6.44085E-03
 -1      2015 7.31334E-03
 -1      2016 6.47048E-03
 -1      2017 5.22857E-03
 -1      2018 5.92507E-03
 -1      2019 5.33898E-03
 -1      2020 4.18450E-03
 -1      2021 4.77811E-03
 -1      2022 4.37274E-03
 -1      2023 3.31690E-03
 -1      2024 3.78702E-03
 -1      2025 3.52480E-03
 -1      2026 2.58093E-03
 -1      2027 2.97667E-03
 -1      2028 2.78708E-03
 -1      2029 1.97111E-03
 -1      2030 2.29682E-03
 -1      2031 2.16275E-03
 -1      2032 1.47603E-03
 -1      2033 1.73887E-03
 -1      2034 1.64640E-03
 -1      2035 1.08402E-03
 -1      2036 1.29238E-03
 -1      2037 1.23052E-03
 -1      2038 7.80235E-04
 -1      2039 9.42750E-04
 -1      2040 9.05606E-04
 -1      2041 5.85285E-04
 -1      2042 6.84147E-04
 -1      2043 6.68251E-04
 -1      2044 4.39673E-04
 -1      2045 5.16201E-04
 -1      2046 5.03079E-04
 -1      2047 3.20733E-04
 -1      2048 3.83042E-04
 -1      2049 3.77364E-04
 -1      2050 2.26526E-04
 -1      2051 2.73629E-04
 -1      2052 2.73629E-04
 -1      2053 1.62505E-04
 -1      2054 1.87813E-04
 -1      2055 1.87813E-04
 -1      2056 8.98131E-05
 -1      2057 1.28311E-04
 -1      2058 1.14907E-04
 -1      2059 7.19935E-05
 -1      2060 5.83873E-05
 -1      2061 7.39741E-05
 -1      2062 9.92335E-05
 -1      2063 9.92335E-05
 -1      2064 1.03586E-04
 -1      2065 9.92335E-05
 -1      2066 9.60599E-05
 -1      2067 1.04779E-04
 -1      2068 1.28846E-04
 -1      2069 6.93395E-05
 -1      2070 5.94308E-05
 -1      2071 7.93704E-05
 -1      2072 9.49457E-05
 -1      2073 8.48868E-05
 -1      2074 9.59612E-05
 -1      2075 1.06364E-04
 -1      2076 1.02246E-04
 -1      2077 1.18809E-04
 -1      2078 1.06364E-04
 -1      2079 1.06364E-04
 -1      2080 1.26110E-04
 -1      2081 1.06123E-04
 -1      2082 1.06145E-04
 -1      2083 1.25891E-04
 -1      2084 1.01752E-04
 -1      2085 1.06123E-04
 -1      2086 1.25672E-04
 -1      2087 8.50061E-05
 -1      2088 9.46757E-05
 -1      2089 1.18595E-04
 -1      2090 5.98234E-05
 -1      2091 6.96872E-05
 -1      2092 9.61997E-05
 -1      2093 7.58319E-05
 -1      2094 5.97692E-05
 -1      2095 8.08266E-05
 -1      2096 9.20083E-05
 -1      2097 9.20083E-05
 -1      2098 9.69487E-05
 -1      2099 3.22133E+01
 -1      2100 2.98568E+01
 -1      2101 4.17297E+01
 -1      2102 4.17297E+01
 -1      2103 3.10919E+01
 -1      2104 3.41278E+01
 -1      2105 2.52907E+01
 -1      2106 1.52027E+01
 -1      2107 2.72997E+01
 -1      2108 9.49920E+00
 -1      2109 1.19807E+01
 -1      2110 3.31117E+00
 -1      2111 2.76814E+00
 -1      2112 2.06950E+00
 -1      2113 3.92292E+00
 -1      2114 1.09857E+01
 -1      2115 1.10079E+01
 -1      2116 1.10827E+01
 -1      2117 1.13838E+01
 -1      2118 1.06213E+01
 -1      2119 1.06399E+01
 -1      2120 1.01158E+01
 -1      2121 8.68746E+00
 -1      2122 9.41054E+00
 -1      2123 1.06842E+01
 -1      2124 9.02168E+00
 -1      2125 2.09200E+01
 -1      2126 1.34484E+01
 -1      2127 3.59141E+01
 -1      2128 2.48800E+01
 -1      2129 4.03501E+01
 -1      2130 4.21818E+01
 -1      2131 4.67965E+01
 -1      2132 4.67965E+01
 -1      2133 4.03501E+01
 -1      2134 4.64495E+01
 -1      2135 4.66230E+01
 -1      2136 4.21261E+01
 -1      2137 4.03037E+01
 -1      2138 4.03037E+01
 -1      2139 2.53103E+01
 -1      2140 3.53957E+01
 -1      2141 1.41953E+01
 -1      2142 2.18686E+01
 -1      2143 9.40673E+00
 -1      2144 1.18946E+01
 -1      2145 9.18300E+00
 -1      2146 8.19465E+00
 -1      2147 8.00016E+00
 -1      2148 1.05529E+01
 -1      2149 1.04655E+01
 -1      2150 1.03852E+01
 -1      2151 1.06877E+01
 -1      2152 1.13279E+01
 -1      2153 1.07396E+01
 -1      2154 9.75616E+00
 -1      2155 1.04044E+01
 -1      2156 1.07882E+01
 -1      2157 9.28856E+00
 -1      2158 2.55116E+01
 -1      2159 1.37277E+01
 -1      2160 2.98712E+01
 -1      2161 3.08348E+01
 -1      2162 3.51608E+01
 -1      2163 3.21297E+01
 -1      2164 9.89360E+00
 -1      2165 9.37407E+00
 -1      2166 8.64815E+00
 -1      2167 2.21888E+01
 -1      2168 1.95159E+01
 -1      2169 1.72408E+01
 -1      2170 1.97285E+01
 -1      2171 1.91498E+01
 -1      2172 7.65903E+00
 -1      2173 3.66197E+00
 -1      2174 2.90107E+00
 -1      2175 3.98089E+00
 -1      2176 4.08925E+00
 -1      2177 3.48662E+01
 -1      2178 3.48662E+01
 -1      2179 2.72643E+01
 -1      2180 1.91419E+01
 -1      2181 9.70049E-05
 -1      2182 3.51608E+01
 -1      2183 1.10062E+01
 -1      2184 2.63334E+01
 -1      2185 1.87516E+01
 -1      2186 1.04887E+01
 -1      2187 8.01678E+00
 -1      2188 9.40791E+00
 -1      2189 9.97708E+00
 -1      2190 8.07053E+00
 -1      2191 1.15130E+01
 -1      2192 2.74275E+01
 -1      2193 4.66230E+01
 -1      2194 2.76361E+01
 -1      2195 1.74084E+01
 -1      2196 1.06842E+01
 -1      2197 8.46225E+00
 -1      2198 2.27522E+01
 -1      2199 1.01606E+01
 -1      2200 7.58571E+00
 -1      2201 1.72554E+01
 -1      2202 9.48786E+00
 -1      2203 3.63248E+00
 -1      2204 8.17026E+00
 -1      2205 5.61033E+00
 -1      2206 8.64930E+00
 -1      2207 8.25116E+00
 -1      2208 1.14463E+01
 -1      2209 1.43493E+01
 -1      2210 1.78757E+00
 -1      2211 2.13852E+00
 -1      2212 2.02233E+00
 -1      2213 1.73459E+00
 -1      2214 1.72764E+00
 -1      2215 2.19403E+00
 -1      2216 2.29964E+00
 -1      2217 2.24909E+00
 -1      2218 1.99916E+00
 -1      2219 2.23567E+00
 -1      2220 1.71630E+00
 -1      2221 1.82246E+00
 -1      2222 1.86071E+00
 -1      2223 1.61949E+00
 -1      2224 2.24773E+00
 -1      2225 2.07918E+00
 -1      2226 1.78192E+00
 -1      2227 2.09861E+00
 -1      2228 1.85964E+00
 -1      2229 1.79999E+00
 -1      2230 1.72340E+00
 -1      2231 1.63156E+00
 -1      2232 1.68317E+00
 -1      2233 1.46385E+00
 -1      2234 1.23945E+00
 -1      2235 1.37922E+00
 -1      2236 1.27485E+00
 -1      2237 1.09359E+00
 -1      2238 1.24690E+00
 -1      2239 1.02167E+00
 -1      2240 8.89274E-01
 -1      2241 1.21038E+00
 -1      2242 8.27516E-01
 -1      2243 8.13727E-01
 -1      2244 1.07670E+00
 -1      2245 6.98531E-01
 -1      2246 6.78309E-01
 -1      2247 8.99741E-01
 -1      2248 6.67941E-01
 -1      2249 6.94680E-01
 -1      2250 7.74177E-01
 -1      2251 6.58308E-01
 -1      2252 6.46197E-01
 -1      2253 7.27437E-01
 -1      2254 5.98946E-01
 -1      2255 5.71447E-01
 -1      2256 6.43813E-01
 -1      2257 5.41307E-01
 -1      2258 5.15192E-01
 -1      2259 5.66421E-01
 -1      2260 4.80599E-01
 -1      2261 4.47045E-01
 -1      2262 5.01688E-01
 -1      2263 4.08448E-01
 -1      2264 3.70381E-01
 -1      2265 4.28497E-01
 -1      2266 3.32564E-01
 -1      2267 2.95384E-01
 -1      2268 3.52083E-01
 -1      2269 2.61090E-01
 -1      2270 2.27807E-01
 -1      2271 2.79973E-01
 -1      2272 1.98312E-01
 -1      2273 1.70232E-01
 -1      2274 2.16184E-01
 -1      2275 1.45858E-01
 -1      2276 1.23207E-01
 -1      2277 1.62315E-01
 -1      2278 1.03708E-01
 -1      2279 8.93921E-02
 -1      2280 1.18442E-01
 -1      2281 7.42295E-02
 -1      2282 6.30227E-02
 -1      2283 8.37807E-02
 -1      2284 5.15391E-02
 -1      2285 4.38212E-02
 -1      2286 5.71345E-02
 -1      2287 3.60120E-02
 -1      2288 3.25459E-02
 -1      2289 3.78417E-02
 -1      2290 2.79552E-02
 -1      2291 2.48754E-02
 -1      2292 2.54419E-02
 -1      2293 2.32492E-02
 -1      2294 2.04573E-02
 -1      2295 1.92251E-02
 -1      2296 1.93109E-02
 -1      2297 1.68738E-02
 -1      2298 1.64526E-02
 -1      2299 1.56921E-02
 -1      2300 1.36270E-02
 -1      2301 1.41246E-02
 -1      2302 1.24989E-02
 -1      2303 1.11561E-02
 -1      2304 1.18148E-02
 -1      2305 1.01323E-02
 -1      2306 9.24065E-03
 -1      2307 9.66287E-03
 -1      2308 8.54184E-03
 -1      2309 7.68778E-03
 -1      2310 7.94025E-03
 -1      2311 7.18011E-03
 -1      2312 6.42572E-03
 -1      2313 6.73378E-03
 -1      2314 5.91963E-03
 -1      2315 5.32316E-03
 -1      2316 5.72002E-03
 -1      2317 4.87065E-03
 -1      2318 4.34258E-03
 -1      2319 4.76141E-03
 -1      2320 3.96221E-03
 -1      2321 3.53574E-03
 -1      2322 3.92852E-03
 -1      2323 3.19212E-03
 -1      2324 2.84684E-03
 -1      2325 3.20453E-03
 -1      2326 2.54732E-03
 -1      2327 2.24770E-03
 -1      2328 2.56140E-03
 -1      2329 2.00320E-03
 -1      2330 1.75020E-03
 -1      2331 2.01737E-03
 -1      2332 1.56001E-03
 -1      2333 1.35121E-03
 -1      2334 1.58268E-03
 -1      2335 1.19104E-03
 -1      2336 1.02215E-03
 -1      2337 1.23232E-03
 -1      2338 8.90295E-04
 -1      2339 7.56258E-04
 -1      2340 9.40285E-04
 -1      2341 6.49975E-04
 -1      2342 5.45646E-04
 -1      2343 7.02147E-04
 -1      2344 4.61722E-04
 -1      2345 3.88675E-04
 -1      2346 5.11939E-04
 -1      2347 3.24012E-04
 -1      2348 2.75869E-04
 -1      2349 3.63351E-04
 -1      2350 2.27218E-04
 -1      2351 1.90851E-04
 -1      2352 2.50037E-04
 -1      2353 2.05556E+01
 -1      2354 2.17907E+01
 -1      2355 3.06187E+00
 -1      2356 3.14533E+00
 -1      2357 2.04801E+00
 -1      2358 2.16845E+00
 -1      2359 3.45277E+00
 -1      2360 1.41945E+00
 -1      2361 1.65559E+00
 -1      2362 2.16693E+00
 -1      2363 1.17199E+00
 -1      2364 1.29619E+00
 -1      2365 1.65126E+00
 -1      2366 9.90679E-01
 -1      2367 1.02939E+00
 -1      2368 1.38541E+00
 -1      2369 1.01282E+00
 -1      2370 9.48221E-01
 -1      2371 1.20035E+00
 -1      2372 9.77640E-01
 -1      2373 9.71611E-01
 -1      2374 1.11669E+00
 -1      2375 8.96300E-01
 -1      2376 9.11393E-01
 -1      2377 1.00923E+00
 -1      2378 7.93824E-01
 -1      2379 8.36842E-01
 -1      2380 8.83525E-01
 -1      2381 7.02032E-01
 -1      2382 7.48660E-01
 -1      2383 7.78903E-01
 -1      2384 5.87761E-01
 -1      2385 6.45242E-01
 -1      2386 6.76948E-01
 -1      2387 4.71689E-01
 -1      2388 5.29404E-01
 -1      2389 5.61800E-01
 -1      2390 3.65568E-01
 -1      2391 4.17674E-01
 -1      2392 4.49428E-01
 -1      2393 2.75806E-01
 -1      2394 3.18743E-01
 -1      2395 3.48588E-01
 -1      2396 2.05720E-01
 -1      2397 2.37029E-01
 -1      2398 2.62986E-01
 -1      2399 1.51743E-01
 -1      2400 1.74702E-01
 -1      2401 1.93191E-01
 -1      2402 1.09065E-01
 -1      2403 1.27626E-01
 -1      2404 1.38056E-01
 -1      2405 7.61659E-02
 -1      2406 9.07774E-02
 -1      2407 9.56513E-02
 -1      2408 5.13845E-02
 -1      2409 6.26256E-02
 -1      2410 6.38235E-02
 -1      2411 3.54237E-02
 -1      2412 4.38889E-02
 -1      2413 4.27877E-02
 -1      2414 2.60028E-02
 -1      2415 3.07790E-02
 -1      2416 3.06475E-02
 -1      2417 2.23872E-02
 -1      2418 2.41950E-02
 -1      2419 2.41950E-02
 -1      2420 1.87752E-02
 -1      2421 2.05812E-02
 -1      2422 2.05812E-02
 -1      2423 1.53964E-02
 -1      2424 1.70858E-02
 -1      2425 1.70858E-02
 -1      2426 1.23743E-02
 -1      2427 1.38853E-02
 -1      2428 1.38853E-02
 -1      2429 9.79067E-03
 -1      2430 1.10975E-02
 -1      2431 1.10975E-02
 -1      2432 8.37607E-03
 -1      2433 9.06834E-03
 -1      2434 9.09840E-03
 -1      2435 7.08619E-03
 -1      2436 7.73113E-03
 -1      2437 7.73113E-03
 -1      2438 5.85477E-03
 -1      2439 6.47048E-03
 -1      2440 6.47048E-03
 -1      2441 4.82674E-03
 -1      2442 5.34252E-03
 -1      2443 5.34252E-03
 -1      2444 3.93404E-03
 -1      2445 4.38450E-03
 -1      2446 4.38805E-03
 -1      2447 3.14327E-03
 -1      2448 3.54075E-03
 -1      2449 3.55251E-03
 -1      2450 2.48478E-03
 -1      2451 2.82501E-03
 -1      2452 2.84096E-03
 -1      2453 1.94435E-03
 -1      2454 2.22845E-03
 -1      2455 2.26638E-03
 -1      2456 1.49245E-03
 -1      2457 1.72470E-03
 -1      2458 1.79040E-03
 -1      2459 1.12521E-03
 -1      2460 1.30886E-03
 -1      2461 1.38715E-03
 -1      2462 8.33766E-04
 -1      2463 9.75033E-04
 -1      2464 1.05337E-03
 -1      2465 6.17276E-04
 -1      2466 7.13365E-04
 -1      2467 7.82791E-04
 -1      2468 4.53620E-04
 -1      2469 5.22705E-04
 -1      2470 5.67818E-04
 -1      2471 3.24429E-04
 -1      2472 3.81060E-04
 -1      2473 4.00685E-04
 -1      2474 2.21950E-04
 -1      2475 2.69054E-04
 -1      2476 2.72750E-04
 -1      2477 1.49100E-04
 -1      2478 1.87813E-04
 -1      2479 1.83238E-04
 -1      2480 1.38973E-04
 -1      2481 1.27659E-04
 -1      2482 1.12112E-04
 -1      2483 1.46623E-04
 -1      2484 1.39323E-04
 -1      2485 1.55473E-04
 -1      2486 1.01179E-04
 -1      2487 1.26439E-04
 -1      2488 9.84065E-05
 -1      2489 9.73630E-05
 -1      2490 1.20216E-04
 -1      2491 1.30104E-04
 -1      2492 1.47763E-04
 -1      2493 1.47763E-04
 -1      2494 1.68277E-04
 -1      2495 1.47544E-04
 -1      2496 1.47763E-04
 -1      2497 1.69416E-04
 -1      2498 1.47381E-04
 -1      2499 1.47381E-04
 -1      2500 1.69253E-04
 -1      2501 1.39239E-04
 -1      2502 1.46316E-04
 -1      2503 1.68025E-04
 -1      2504 1.11999E-04
 -1      2505 1.27318E-04
 -1      2506 1.55039E-04
 -1      2507 1.08740E-04
 -1      2508 1.08794E-04
 -1      2509 1.39912E-04
 -1      2510 1.24916E-04
 -1      2511 1.08740E-04
 -1      2512 1.36707E-04
 -1      2513 1.17654E-04
 -1      2514 3.34930E+01
 -1      2515 2.69241E+01
 -1      2516 2.19404E+00
 -1      2517 2.30374E+00
 -1      2518 1.96232E+00
 -1      2519 3.39489E+00
 -1      2520 7.37338E+00
 -1      2521 6.25912E+00
 -1      2522 7.45239E+00
 -1      2523 1.06744E+01
 -1      2524 1.29274E+01
 -1      2525 1.78411E+01
 -1      2526 9.37361E+00
 -1      2527 2.31207E+01
 -1      2528 2.08622E+01
 -1      2529 9.03071E+00
 -1      2530 1.13314E+01
 -1      2531 2.99709E+00
 -1      2532 4.74000E+00
 -1      2533 2.63920E+00
 -1      2534 7.13758E+00
 -1      2535 9.76181E+00
 -1      2536 5.89536E+00
 -1      2537 5.43004E+00
 -1      2538 5.55517E+00
 -1      2539 3.40296E+01
 -1      2540 3.49557E+01
 -1      2541 3.47822E+01
 -1      2542 3.44195E+01
 -1      2543 6.21135E+00
 -1      2544 5.87713E+00
 -1      2545 8.18500E+00
 -1      2546 8.62785E+00
 -1      2547 1.25646E+01
 -1      2548 1.60063E+01
 -1      2549 6.08546E+00
 -1      2550 7.29621E+00
 -1      2551 1.08707E+01
 -1      2552 8.10643E+00
 -1      2553 6.39785E+00
 -1      2554 1.65152E+01
 -1      2555 1.25552E+01
 -1      2556 2.75833E+01
 -1      2557 2.82737E+01
 -1      2558 8.41638E+00
 -1      2559 8.28151E+00
 -1      2560 6.26492E+00
 -1      2561 7.47700E+00
 -1      2562 6.72900E+00
 -1      2563 5.44655E+00
 -1      2564 4.92339E+00
 -1      2565 9.37197E+00
 -1      2566 9.01761E+00
 -1      2567 7.81126E+00
 -1      2568 7.34623E+00
 -1      2569 8.26976E+00
 -1      2570 5.70991E+00
 -1      2571 6.17750E+00
 -1      2572 1.09109E+01
 -1      2573 7.97137E+00
 -1      2574 6.13209E+00
 -1      2575 1.77046E+01
 -1      2576 1.23813E+01
 -1      2577 2.17294E+00
 -1      2578 2.08788E+00
 -1      2579 1.57151E+00
 -1      2580 1.44584E+00
 -1      2581 2.54702E+01
 -1      2582 4.95406E+00
 -1      2583 4.58251E+00
 -1      2584 3.26666E+00
 -1      2585 1.41915E+01
 -1      2586 1.08371E+01
 -1      2587 5.86213E+00
 -1      2588 1.92025E+01
 -1      2589 2.15433E+01
 -1      2590 1.88823E+01
 -1      2591 9.97746E+00
 -1      2592 9.60390E+00
 -1      2593 7.41553E+00
 -1      2594 2.12473E+01
 -1      2595 2.19857E+01
 -1      2596 1.65121E+01
 -1      2597 2.14529E+01
 -1      2598 1.43411E+01
 -1      2599 4.15526E+00
 -1      2600 1.38973E-04
 -1      2601 1.38973E-04
 -1      2602 1.22182E-04
 -1      2603 1.17654E-04
 -1      2604 1.29445E-04
 -1      2605 1.51250E-04
 -1      2606 2.87882E+01
 -1      2607 2.05515E+01
 -1      2608 2.19247E+01
 -1      2609 5.96494E+00
 -1      2610 5.63317E+00
 -1      2611 3.73595E+00
 -1      2612 1.44919E+01
 -1      2613 1.00824E+01
 -1      2614 9.97746E+00
 -1      2615 4.71110E+00
 -1      2616 5.80821E+00
 -1      2617 9.86390E+00
 -1      2618 7.29547E+00
 -1      2619 2.25601E+00
 -1      2620 1.71844E+00
 -1      2621 1.63235E+00
 -1      2622 2.91559E+00
 -1      2623 6.13378E+00
 -1      2624 7.20526E+00
 -1      2625 4.58128E+00
 -1      2626 6.71845E+00
 -1      2627 7.31029E+00
 -1      2628 6.25530E+00
 -1      2629 5.11716E+00
 -1      2630 3.94843E+00
 -1      2631 1.36566E-04
 -1      2632 1.61784E-04
 -1      2633 5.86182E+00
 -1      2634 5.54305E+00
 -1      2635 4.66527E+00
 -1      2636 8.29293E+00
 -1      2637 2.02239E+00
 -1      2638 2.07538E+00
 -1      2639 2.06404E+00
 -1      2640 2.12238E+00
 -1      2641 2.24563E+00
 -1      2642 4.83400E+00
 -1      2643 2.45139E+00
 -1      2644 2.84380E+00
 -1      2645 2.92250E+00
 -1      2646 2.95171E+00
 -1      2647 2.97113E+00
 -1      2648 2.49635E+00
 -1      2649 2.36010E+00
 -1      2650 3.64806E+00
 -1      2651 1.95955E+00
 -1      2652 1.79184E+00
 -1      2653 2.77273E+00
 -1      2654 1.38969E+00
 -1      2655 1.42509E+00
 -1      2656 1.97003E+00
 -1      2657 1.50513E+00
 -1      2658 1.43321E+00
 -1      2659 1.64792E+00
 -1      2660 1.37012E+00
 -1      2661 1.30836E+00
 -1      2662 1.66487E+00
 -1      2663 1.21869E+00
 -1      2664 1.10349E+00
 -1      2665 1.51211E+00
 -1      2666 9.82994E-01
 -1      2667 9.72626E-01
 -1      2668 1.30194E+00
 -1      2669 8.65980E-01
 -1      2670 8.29607E-01
 -1      2671 1.07480E+00
 -1      2672 7.65547E-01
 -1      2673 7.18295E-01
 -1      2674 9.04090E-01
 -1      2675 6.48222E-01
 -1      2676 6.18081E-01
 -1      2677 7.69956E-01
 -1      2678 5.52529E-01
 -1      2679 5.17936E-01
 -1      2680 6.34329E-01
 -1      2681 4.60646E-01
 -1      2682 4.22049E-01
 -1      2683 5.11487E-01
 -1      2684 3.73664E-01
 -1      2685 3.35847E-01
 -1      2686 4.05813E-01
 -1      2687 2.95803E-01
 -1      2688 2.61509E-01
 -1      2689 3.17383E-01
 -1      2690 2.28862E-01
 -1      2691 1.99367E-01
 -1      2692 2.44692E-01
 -1      2693 1.73113E-01
 -1      2694 1.48739E-01
 -1      2695 1.85792E-01
 -1      2696 1.27916E-01
 -1      2697 1.08417E-01
 -1      2698 1.38715E-01
 -1      2699 9.21414E-02
 -1      2700 7.69788E-02
 -1      2701 1.01616E-01
 -1      2702 6.44541E-02
 -1      2703 5.29705E-02
 -1      2704 7.28148E-02
 -1      2705 4.34939E-02
 -1      2706 3.56847E-02
 -1      2707 5.08135E-02
 -1      2708 2.86460E-02
 -1      2709 2.40553E-02
 -1      2710 3.42982E-02
 -1      2711 1.89349E-02
 -1      2712 1.73088E-02
 -1      2713 2.21390E-02
 -1      2714 1.38353E-02
 -1      2715 1.26889E-02
 -1      2716 1.35452E-02
 -1      2717 1.23400E-02
 -1      2718 1.11583E-02
 -1      2719 9.72269E-03
 -1      2720 1.08142E-02
 -1      2721 9.68605E-03
 -1      2722 9.02956E-03
 -1      2723 9.20114E-03
 -1      2724 8.17733E-03
 -1      2725 8.20050E-03
 -1      2726 7.63772E-03
 -1      2727 6.93891E-03
 -1      2728 7.17599E-03
 -1      2729 6.40050E-03
 -1      2730 5.89284E-03
 -1      2731 6.09797E-03
 -1      2732 5.53790E-03
 -1      2733 5.03181E-03
 -1      2734 5.20463E-03
 -1      2735 4.67001E-03
 -1      2736 4.21749E-03
 -1      2737 4.48789E-03
 -1      2738 3.86661E-03
 -1      2739 3.48623E-03
 -1      2740 3.77520E-03
 -1      2741 3.16433E-03
 -1      2742 2.82071E-03
 -1      2743 3.10241E-03
 -1      2744 2.53830E-03
 -1      2745 2.23878E-03
 -1      2746 2.49810E-03
 -1      2747 2.01737E-03
 -1      2748 1.77287E-03
 -1      2749 1.99428E-03
 -1      2750 1.58268E-03
 -1      2751 1.39249E-03
 -1      2752 1.58268E-03
 -1      2753 1.23232E-03
 -1      2754 1.07214E-03
 -1      2755 1.23232E-03
 -1      2756 9.42400E-04
 -1      2757 8.10544E-04
 -1      2758 9.42400E-04
 -1      2759 7.15819E-04
 -1      2760 6.09536E-04
 -1      2761 7.17934E-04
 -1      2762 5.31520E-04
 -1      2763 4.47595E-04
 -1      2764 5.45192E-04
 -1      2765 3.84986E-04
 -1      2766 3.20323E-04
 -1      2767 4.04567E-04
 -1      2768 2.61068E-04
 -1      2769 2.12417E-04
 -1      2770 2.82704E-04
 -1      2771 3.45277E+00
 -1      2772 4.34619E+00
 -1      2773 1.58977E+00
 -1      2774 1.73237E+00
 -1      2775 2.32674E+00
 -1      2776 1.48684E+00
 -1      2777 1.52929E+00
 -1      2778 1.87625E+00
 -1      2779 1.27095E+00
 -1      2780 1.31216E+00
 -1      2781 1.64110E+00
 -1      2782 1.05569E+00
 -1      2783 1.12194E+00
 -1      2784 1.31741E+00
 -1      2785 9.05687E-01
 -1      2786 9.65145E-01
 -1      2787 1.07786E+00
 -1      2788 7.84762E-01
 -1      2789 8.29927E-01
 -1      2790 9.11546E-01
 -1      2791 6.53315E-01
 -1      2792 7.10106E-01
 -1      2793 7.61130E-01
 -1      2794 5.27122E-01
 -1      2795 5.85479E-01
 -1      2796 6.18637E-01
 -1      2797 4.14270E-01
 -1      2798 4.68286E-01
 -1      2799 4.91964E-01
 -1      2800 3.18028E-01
 -1      2801 3.64853E-01
 -1      2802 3.83710E-01
 -1      2803 2.38757E-01
 -1      2804 2.77535E-01
 -1      2805 2.93799E-01
 -1      2806 1.75246E-01
 -1      2807 2.06264E-01
 -1      2808 2.20812E-01
 -1      2809 1.25544E-01
 -1      2810 1.49661E-01
 -1      2811 1.62734E-01
 -1      2812 8.74735E-02
 -1      2813 1.05761E-01
 -1      2814 1.17366E-01
 -1      2815 5.89096E-02
 -1      2816 7.24499E-02
 -1      2817 8.25596E-02
 -1      2818 4.02159E-02
 -1      2819 4.77115E-02
 -1      2820 5.63378E-02
 -1      2821 2.73909E-02
 -1      2822 3.20356E-02
 -1      2823 3.69594E-02
 -1      2824 2.00512E-02
 -1      2825 2.18590E-02
 -1      2826 2.32471E-02
 -1      2827 1.58547E-02
 -1      2828 1.76607E-02
 -1      2829 1.53247E-02
 -1      2830 1.36867E-02
 -1      2831 1.53761E-02
 -1      2832 1.24555E-02
 -1      2833 1.15033E-02
 -1      2834 1.30143E-02
 -1      2835 1.13046E-02
 -1      2836 9.48049E-03
 -1      2837 1.07573E-02
 -1      2838 9.88624E-03
 -1      2839 8.01563E-03
 -1      2840 8.73796E-03
 -1      2841 8.39772E-03
 -1      2842 6.68613E-03
 -1      2843 7.33107E-03
 -1      2844 6.97063E-03
 -1      2845 5.63382E-03
 -1      2846 6.24953E-03
 -1      2847 5.84947E-03
 -1      2848 4.70271E-03
 -1      2849 5.21495E-03
 -1      2850 4.99401E-03
 -1      2851 3.87241E-03
 -1      2852 4.31465E-03
 -1      2853 4.18707E-03
 -1      2854 3.14489E-03
 -1      2855 3.53819E-03
 -1      2856 3.46479E-03
 -1      2857 2.53340E-03
 -1      2858 2.85165E-03
 -1      2859 2.83733E-03
 -1      2860 2.01819E-03
 -1      2861 2.27452E-03
 -1      2862 2.28521E-03
 -1      2863 1.57680E-03
 -1      2864 1.79646E-03
 -1      2865 1.80460E-03
 -1      2866 1.21869E-03
 -1      2867 1.40229E-03
 -1      2868 1.40835E-03
 -1      2869 9.29527E-04
 -1      2870 1.07971E-03
 -1      2871 1.09485E-03
 -1      2872 6.93824E-04
 -1      2873 8.14225E-04
 -1      2874 8.40559E-04
 -1      2875 5.05655E-04
 -1      2876 6.00227E-04
 -1      2877 6.31661E-04
 -1      2878 3.58758E-04
 -1      2879 4.31319E-04
 -1      2880 4.63727E-04
 -1      2881 2.44608E-04
 -1      2882 2.99983E-04
 -1      2883 3.30616E-04
 -1      2884 1.66667E-04
 -1      2885 2.00804E-04
 -1      2886 2.28037E-04
 -1      2887 1.54133E-04
 -1      2888 1.99702E-04
 -1      2889 1.99702E-04
 -1      2890 1.69046E-04
 -1      2891 1.29445E-04
 -1      2892 1.36707E-04
 -1      2893 1.80078E-04
 -1      2894 1.93093E-04
 -1      2895 1.81429E-04
 -1      2896 1.98967E-04
 -1      2897 1.99130E-04
 -1      2898 2.29416E-04
 -1      2899 1.99702E-04
 -1      2900 1.98562E-04
 -1      2901 2.24518E-04
 -1      2902 2.29988E-04
 -1      2903 7.29315E+00
 -1      2904 9.54615E+00
 -1      2905 1.97902E-04
 -1      2906 1.98967E-04
 -1      2907 2.28844E-04
 -1      2908 1.80227E-04
 -1      2909 1.92148E-04
 -1      2910 2.23090E-04
 -1      2911 1.51984E-04
 -1      2912 1.55189E-04
 -1      2913 1.92298E-04
 -1      2914 1.36707E-04
 -1      2915 3.98661E+00
 -1      2916 3.15752E+00
 -1      2917 1.21607E+01
 -1      2918 1.48751E+01
 -1      2919 1.36679E+01
 -1      2920 1.05103E+01
 -1      2921 3.43645E+00
 -1      2922 3.64478E+00
 -1      2923 6.47924E+00
 -1      2924 5.87801E+00
 -1      2925 2.93395E+00
 -1      2926 3.89046E+00
 -1      2927 6.28803E+00
 -1      2928 6.28803E+00
 -1      2929 3.32663E+00
 -1      2930 2.28665E+00
 -1      2931 2.42510E+00
 -1      2932 2.73119E+00
 -1      2933 4.39903E+00
 -1      2934 5.28782E+00
 -1      2935 9.54582E+00
 -1      2936 8.07548E+00
 -1      2937 5.66898E+00
 -1      2938 5.69043E+00
 -1      2939 5.04703E+00
 -1      2940 6.14924E+00
 -1      2941 1.78192E+00
 -1      2942 1.78057E+00
 -1      2943 2.95171E+00
 -1      2944 6.65388E+00
 -1      2945 4.39241E+00
 -1      2946 1.53726E+00
 -1      2947 1.74902E+00
 -1      2948 1.74767E+00
 -1      2949 1.80986E+00
 -1      2950 1.93039E+01
 -1      2951 1.55006E+01
 -1      2952 4.49357E+00
 -1      2953 1.96232E+00
 -1      2954 2.76793E+00
 -1      2955 2.44360E+00
 -1      2956 3.51300E+00
 -1      2957 3.03675E+00
 -1      2958 4.25980E+00
 -1      2959 4.49357E+00
 -1      2960 1.37594E+01
 -1      2961 1.97763E+01
 -1      2962 1.36983E+01
 -1      2963 1.91821E-04
 -1      2964 1.78116E-04
 -1      2965 2.29441E-04
 -1      2966 4.47022E+00
 -1      2967 1.38679E+01
 -1      2968 1.85727E+01
 -1      2969 1.26204E+01
 -1      2970 3.56729E+00
 -1      2971 1.37478E-04
 -1      2972 1.41295E-04
 -1      2973 1.71396E-04
 -1      2974 1.99195E-04
 -1      2975 1.46400E-04
 -1      2976 1.46400E-04
 -1      2977 1.61676E-04
 -1      2978 1.89771E-04
 -1      2979 1.00802E+01
 -1      2980 3.66753E+00
 -1      2981 1.43318E+01
 -1      2982 8.72183E+00
 -1      2983 4.80175E+00
 -1      2984 3.12438E+00
 -1      2985 5.97955E+00
 -1      2986 6.15208E+00
 -1      2987 4.49210E+00
 -1      2988 4.21598E+00
 -1      2989 6.33580E+00
 -1      2990 4.39295E+00
 -1      2991 3.32663E+00
 -1      2992 1.15189E+01
 -1      2993 3.01931E+00
 -1      2994 3.83768E+00
 -1      2995 1.95103E+00
 -1      2996 3.64698E+00
 -1      2997 2.10246E+00
 -1      2998 2.63175E+00
 -1      2999 2.69222E+00
 -1      3000 2.92992E+00
 -1      3001 3.77761E+00
 -1      3002 3.98337E+00
 -1      3003 3.45088E+00
 -1      3004 3.00689E+00
 -1      3005 3.52963E+00
 -1      3006 3.12908E+00
 -1      3007 2.17986E+00
 -1      3008 1.77771E+00
 -1      3009 2.22569E+00
 -1      3010 2.30573E+00
 -1      3011 2.43553E+00
 -1      3012 2.16718E+00
 -1      3013 2.10409E+00
 -1      3014 2.74496E+00
 -1      3015 1.68645E+00
 -1      3016 1.59678E+00
 -1      3017 2.18876E+00
 -1      3018 1.42244E+00
 -1      3019 1.30194E+00
 -1      3020 1.59678E+00
 -1      3021 1.18144E+00
 -1      3022 1.07480E+00
 -1      3023 1.30194E+00
 -1      3024 9.52488E-01
 -1      3025 8.88427E-01
 -1      3026 1.05913E+00
 -1      3027 7.86945E-01
 -1      3028 7.16871E-01
 -1      3029 8.35342E-01
 -1      3030 6.35676E-01
 -1      3031 5.70124E-01
 -1      3032 6.52665E-01
 -1      3033 5.11487E-01
 -1      3034 4.54198E-01
 -1      3035 5.12834E-01
 -1      3036 4.05813E-01
 -1      3037 3.57428E-01
 -1      3038 4.05813E-01
 -1      3039 3.17383E-01
 -1      3040 2.77339E-01
 -1      3041 3.17383E-01
 -1      3042 2.44692E-01
 -1      3043 2.12046E-01
 -1      3044 2.44692E-01
 -1      3045 1.85792E-01
 -1      3046 1.59538E-01
 -1      3047 1.85792E-01
 -1      3048 1.38715E-01
 -1      3049 1.17892E-01
 -1      3050 1.38715E-01
 -1      3051 1.01616E-01
 -1      3052 8.53395E-02
 -1      3053 1.01616E-01
 -1      3054 7.28148E-02
 -1      3055 6.02901E-02
 -1      3056 7.28148E-02
 -1      3057 5.08135E-02
 -1      3058 4.13369E-02
 -1      3059 5.08135E-02
 -1      3060 3.42982E-02
 -1      3061 2.72594E-02
 -1      3062 3.42982E-02
 -1      3063 2.21390E-02
 -1      3064 1.70187E-02
 -1      3065 2.21390E-02
 -1      3066 1.33826E-02
 -1      3067 9.90911E-03
 -1      3068 1.33826E-02
 -1      3069 8.16359E-03
 -1      3070 7.81461E-03
 -1      3071 8.00103E-03
 -1      3072 7.00284E-03
 -1      3073 6.65868E-03
 -1      3074 5.44373E-03
 -1      3075 6.83580E-03
 -1      3076 6.35089E-03
 -1      3077 4.80907E-03
 -1      3078 6.35632E-03
 -1      3079 5.81672E-03
 -1      3080 4.99162E-03
 -1      3081 5.66018E-03
 -1      3082 5.12177E-03
 -1      3083 4.84052E-03
 -1      3084 4.87724E-03
 -1      3085 4.52230E-03
 -1      3086 4.43945E-03
 -1      3087 4.24016E-03
 -1      3088 3.87836E-03
 -1      3089 3.91277E-03
 -1      3090 3.61886E-03
 -1      3091 3.26797E-03
 -1      3092 3.37113E-03
 -1      3093 3.03331E-03
 -1      3094 2.71140E-03
 -1      3095 2.87696E-03
 -1      3096 2.48477E-03
 -1      3097 2.20236E-03
 -1      3098 2.41566E-03
 -1      3099 1.99499E-03
 -1      3100 1.77358E-03
 -1      3101 1.98166E-03
 -1      3102 1.59101E-03
 -1      3103 1.40082E-03
 -1      3104 1.59171E-03
 -1      3105 1.24478E-03
 -1      3106 1.08460E-03
 -1      3107 1.25310E-03
 -1      3108 9.54465E-04
 -1      3109 8.24724E-04
 -1      3110 9.66927E-04
 -1      3111 7.18115E-04
 -1      3112 6.23390E-04
 -1      3113 7.30180E-04
 -1      3114 5.45192E-04
 -1      3115 4.67176E-04
 -1      3116 5.45374E-04
 -1      3117 4.04567E-04
 -1      3118 3.41959E-04
 -1      3119 4.04567E-04
 -1      3120 2.82704E-04
 -1      3121 2.23448E-04
 -1      3122 1.89771E-04
 -1      3123 2.82704E-04
 -1      3124 3.73722E+00
 -1      3125 3.27037E+00
 -1      3126 3.66038E+00
 -1      3127 4.72125E+00
 -1      3128 4.02587E+00
 -1      3129 1.40553E+00
 -1      3130 1.55453E+00
 -1      3131 1.14386E+00
 -1      3132 1.23441E+00
 -1      3133 1.47153E+00
 -1      3134 9.17001E-01
 -1      3135 9.92761E-01
 -1      3136 1.14932E+00
 -1      3137 7.24343E-01
 -1      3138 7.98999E-01
 -1      3139 8.80214E-01
 -1      3140 5.68733E-01
 -1      3141 6.36569E-01
 -1      3142 6.74439E-01
 -1      3143 4.40380E-01
 -1      3144 4.99217E-01
 -1      3145 5.17149E-01
 -1      3146 3.37877E-01
 -1      3147 3.87295E-01
 -1      3148 3.94547E-01
 -1      3149 2.55637E-01
 -1      3150 2.96131E-01
 -1      3151 2.99715E-01
 -1      3152 1.90506E-01
 -1      3153 2.23000E-01
 -1      3154 2.25331E-01
 -1      3155 1.39989E-01
 -1      3156 1.65574E-01
 -1      3157 1.67761E-01
 -1      3158 1.00896E-01
 -1      3159 1.20679E-01
 -1      3160 1.23518E-01
 -1      3161 7.10536E-02
 -1      3162 8.60772E-02
 -1      3163 8.93897E-02
 -1      3164 4.86205E-02
 -1      3165 5.98186E-02
 -1      3166 6.33362E-02
 -1      3167 3.20454E-02
 -1      3168 4.02257E-02
 -1      3169 4.37065E-02
 -1      3170 2.03472E-02
 -1      3171 2.58791E-02
 -1      3172 2.91454E-02
 -1      3173 1.35170E-02
 -1      3174 1.59075E-02
 -1      3175 1.85395E-02
 -1      3176 1.00496E-02
 -1      3177 1.05282E-02
 -1      3178 1.11111E-02
 -1      3179 8.86031E-03
 -1      3180 9.53266E-03
 -1      3181 7.60533E-03
 -1      3182 8.10776E-03
 -1      3183 8.85374E-03
 -1      3184 7.08183E-03
 -1      3185 7.13417E-03
 -1      3186 7.87670E-03
 -1      3187 6.84420E-03
 -1      3188 6.09822E-03
 -1      3189 6.78278E-03
 -1      3190 6.26176E-03
 -1      3191 5.26028E-03
 -1      3192 5.69687E-03
 -1      3193 5.50902E-03
 -1      3194 4.47600E-03
 -1      3195 4.89487E-03
 -1      3196 4.74227E-03
 -1      3197 3.80939E-03
 -1      3198 4.19746E-03
 -1      3199 4.09832E-03
 -1      3200 3.18460E-03
 -1      3201 3.51882E-03
 -1      3202 3.52921E-03
 -1      3203 2.61206E-03
 -1      3204 2.90530E-03
 -1      3205 2.95934E-03
 -1      3206 2.09844E-03
 -1      3207 2.35732E-03
 -1      3208 2.42529E-03
 -1      3209 1.65296E-03
 -1      3210 1.87470E-03
 -1      3211 1.94681E-03
 -1      3212 1.28759E-03
 -1      3213 1.46210E-03
 -1      3214 1.53220E-03
 -1      3215 9.89637E-04
 -1      3216 1.12862E-03
 -1      3217 1.18238E-03
 -1      3218 7.44631E-04
 -1      3219 8.59933E-04
 -1      3220 8.93709E-04
 -1      3221 5.47110E-04
 -1      3222 6.40707E-04
 -1      3223 6.60081E-04
 -1      3224 3.92770E-04
 -1      3225 4.67106E-04
 -1      3226 4.76152E-04
 -1      3227 2.76132E-04
 -1      3228 3.34908E-04
 -1      3229 3.38286E-04
 -1      3230 2.64076E-04
 -1      3231 3.07879E-04
 -1      3232 3.12171E-04
 -1      3233 2.51238E-04
 -1      3234 6.70170E+00
 -1      3235 9.31625E+00
 -1      3236 1.76841E+00
 -1      3237 1.94309E+00
 -1      3238 2.75906E+00
 -1      3239 1.85652E+00
 -1      3240 2.58427E-04
 -1      3241 2.64181E-04
 -1      3242 2.59589E-04
 -1      3243 2.60161E-04
 -1      3244 2.15124E-04
 -1      3245 2.40162E-04
 -1      3246 2.81252E-04
 -1      3247 2.64181E-04
 -1      3248 2.64181E-04
 -1      3249 2.94926E-04
 -1      3250 2.99517E-04
 -1      3251 4.33441E+00
 -1      3252 3.85963E+00
 -1      3253 3.54228E+00
 -1      3254 3.48545E+00
 -1      3255 3.12438E+00
 -1      3256 4.59019E+00
 -1      3257 1.91927E+00
 -1      3258 1.06203E+01
 -1      3259 8.78757E+00
 -1      3260 1.21224E+01
 -1      3261 1.37594E+01
 -1      3262 7.79330E+00
 -1      3263 6.82888E+00
 -1      3264 6.39062E+00
 -1      3265 4.96902E+00
 -1      3266 3.86661E+00
 -1      3267 3.28480E+00
 -1      3268 4.37573E+00
 -1      3269 3.21468E+00
 -1      3270 2.26546E+00
 -1      3271 6.89463E+00
 -1      3272 1.15500E+01
 -1      3273 2.81483E-04
 -1      3274 2.91875E-04
 -1      3275 1.25566E+01
 -1      3276 1.05778E+01
 -1      3277 1.04082E+01
 -1      3278 5.38810E+00
 -1      3279 2.62881E-04
 -1      3280 2.57411E-04
 -1      3281 3.19846E-04
 -1      3282 1.82419E+00
 -1      3283 2.62881E-04
 -1      3284 2.62881E-04
 -1      3285 2.95774E-04
 -1      3286 2.93054E-04
 -1      3287 2.18380E-04
 -1      3288 2.23964E-04
 -1      3289 2.71828E-04
 -1      3290 2.52058E-04
 -1      3291 6.04528E+00
 -1      3292 9.42381E+00
 -1      3293 8.85141E+00
 -1      3294 3.17964E+00
 -1      3295 3.89886E+00
 -1      3296 1.05526E+01
 -1      3297 7.82125E+00
 -1      3298 9.82137E+00
 -1      3299 5.46209E+00
 -1      3300 3.95367E+00
 -1      3301 2.00850E+00
 -1      3302 1.97561E+00
 -1      3303 1.10363E+00
 -1      3304 1.25473E+00
 -1      3305 6.11673E+00
 -1      3306 5.12246E+00
 -1      3307 3.05857E+00
 -1      3308 3.81512E+00
 -1      3309 3.33952E+00
 -1      3310 2.92187E+00
 -1      3311 2.63299E+00
 -1      3312 2.45866E+00
 -1      3313 3.78375E+00
 -1      3314 2.00462E+00
 -1      3315 1.88412E+00
 -1      3316 3.04084E+00
 -1      3317 1.50875E+00
 -1      3318 1.38644E+00
 -1      3319 2.21143E+00
 -1      3320 1.10508E+00
 -1      3321 1.00359E+00
 -1      3322 1.55469E+00
 -1      3323 8.10820E-01
 -1      3324 7.29626E-01
 -1      3325 1.08055E+00
 -1      3326 6.24675E-01
 -1      3327 5.66038E-01
 -1      3328 7.82829E-01
 -1      3329 4.85526E-01
 -1      3330 4.37141E-01
 -1      3331 5.97366E-01
 -1      3332 3.74493E-01
 -1      3333 3.34449E-01
 -1      3334 4.54207E-01
 -1      3335 2.85775E-01
 -1      3336 2.53129E-01
 -1      3337 3.42886E-01
 -1      3338 2.15367E-01
 -1      3339 1.89113E-01
 -1      3340 2.56450E-01
 -1      3341 1.59928E-01
 -1      3342 1.39105E-01
 -1      3343 1.89504E-01
 -1      3344 1.16702E-01
 -1      3345 1.00426E-01
 -1      3346 1.37915E-01
 -1      3347 8.38079E-02
 -1      3348 7.12832E-02
 -1      3349 9.88941E-02
 -1      3350 5.90583E-02
 -1      3351 4.95817E-02
 -1      3352 7.00514E-02
 -1      3353 4.04206E-02
 -1      3354 3.33819E-02
 -1      3355 4.86655E-02
 -1      3356 2.66219E-02
 -1      3357 2.15015E-02
 -1      3358 3.27443E-02
 -1      3359 1.66054E-02
 -1      3360 1.29693E-02
 -1      3361 2.10882E-02
 -1      3362 9.50278E-03
 -1      3363 7.75726E-03
 -1      3364 1.27256E-02
 -1      3365 5.37114E-03
 -1      3366 4.55937E-03
 -1      3367 6.87290E-03
 -1      3368 3.98387E-03
 -1      3369 4.16099E-03
 -1      3370 3.91128E-03
 -1      3371 4.47902E-03
 -1      3372 4.48444E-03
 -1      3373 3.65381E-03
 -1      3374 4.54995E-03
 -1      3375 4.39342E-03
 -1      3376 4.03735E-03
 -1      3377 4.30184E-03
 -1      3378 4.05731E-03
 -1      3379 4.01128E-03
 -1      3380 3.87651E-03
 -1      3381 3.59436E-03
 -1      3382 3.73890E-03
 -1      3383 3.42224E-03
 -1      3384 3.16275E-03
 -1      3385 3.38598E-03
 -1      3386 2.98772E-03
 -1      3387 2.75305E-03
 -1      3388 3.03883E-03
 -1      3389 2.55533E-03
 -1      3390 2.32870E-03
 -1      3391 2.66608E-03
 -1      3392 2.12980E-03
 -1      3393 1.92243E-03
 -1      3394 2.26946E-03
 -1      3395 1.73540E-03
 -1      3396 1.55283E-03
 -1      3397 1.88354E-03
 -1      3398 1.38474E-03
 -1      3399 1.22870E-03
 -1      3400 1.52843E-03
 -1      3401 1.08243E-03
 -1      3402 9.52294E-04
 -1      3403 1.21407E-03
 -1      3404 8.27133E-04
 -1      3405 7.20524E-04
 -1      3406 9.42639E-04
 -1      3407 6.41139E-04
 -1      3408 5.62941E-04
 -1      3409 7.38092E-04
 -1      3410 5.62941E-04
 -1      3411 5.00333E-04
 -1      3412 6.58707E-04
 -1      3413 8.37318E-01
 -1      3414 9.55320E-01
 -1      3415 1.06074E+00
 -1      3416 1.51515E+00
 -1      3417 1.68627E+00
 -1      3418 1.46947E+00
 -1      3419 6.54993E-01
 -1      3420 7.42767E-01
 -1      3421 8.17872E-01
 -1      3422 5.07443E-01
 -1      3423 5.76960E-01
 -1      3424 6.45288E-01
 -1      3425 3.89840E-01
 -1      3426 4.42926E-01
 -1      3427 5.02737E-01
 -1      3428 2.95894E-01
 -1      3429 3.37640E-01
 -1      3430 3.86019E-01
 -1      3431 2.21632E-01
 -1      3432 2.54269E-01
 -1      3433 2.92194E-01
 -1      3434 1.63932E-01
 -1      3435 1.88865E-01
 -1      3436 2.17803E-01
 -1      3437 1.19160E-01
 -1      3438 1.38470E-01
 -1      3439 1.59574E-01
 -1      3440 8.48268E-02
 -1      3441 9.96454E-02
 -1      3442 1.14597E-01
 -1      3443 5.91262E-02
 -1      3444 7.03612E-02
 -1      3445 8.06169E-02
 -1      3446 4.03455E-02
 -1      3447 4.87402E-02
 -1      3448 5.57652E-02
 -1      3449 2.64931E-02
 -1      3450 3.26595E-02
 -1      3451 3.76932E-02
 -1      3452 1.64747E-02
 -1      3453 2.09143E-02
 -1      3454 2.44283E-02
 -1      3455 9.60254E-03
 -1      3456 1.25913E-02
 -1      3457 1.49662E-02
 -1      3458 6.39862E-03
 -1      3459 6.91555E-03
 -1      3460 8.39583E-03
 -1      3461 5.48355E-03
 -1      3462 5.49012E-03
 -1      3463 4.80034E-03
 -1      3464 5.61434E-03
 -1      3465 5.84539E-03
 -1      3466 4.25368E-03
 -1      3467 5.33272E-03
 -1      3468 5.68411E-03
 -1      3469 4.68530E-03
 -1      3470 4.82082E-03
 -1      3471 5.22217E-03
 -1      3472 4.64452E-03
 -1      3473 4.24333E-03
 -1      3474 4.60874E-03
 -1      3475 4.32189E-03
 -1      3476 3.70506E-03
 -1      3477 3.98360E-03
 -1      3478 3.85007E-03
 -1      3479 3.19970E-03
 -1      3480 3.49027E-03
 -1      3481 3.37555E-03
 -1      3482 2.71047E-03
 -1      3483 2.98978E-03
 -1      3484 2.95084E-03
 -1      3485 2.24102E-03
 -1      3486 2.49576E-03
 -1      3487 2.52620E-03
 -1      3488 1.81332E-03
 -1      3489 2.03706E-03
 -1      3490 2.10754E-03
 -1      3491 1.43794E-03
 -1      3492 1.62880E-03
 -1      3493 1.71906E-03
 -1      3494 1.11785E-03
 -1      3495 1.27682E-03
 -1      3496 1.37342E-03
 -1      3497 8.51301E-04
 -1      3498 9.81004E-04
 -1      3499 1.07545E-03
 -1      3500 6.33752E-04
 -1      3501 7.37676E-04
 -1      3502 8.24972E-04
 -1      3503 4.61175E-04
 -1      3504 5.41179E-04
 -1      3505 6.18775E-04
 -1      3506 3.62796E-04
 -1      3507 4.20657E-04
 -1      3508 4.85685E-04
 -1      3509 2.91875E-04
 -1      3510 4.29114E-04
 -1      3511 4.47379E-04
 -1      3512 1.84162E+00
 -1      3513 9.85248E+00
 -1      3514 9.85248E+00
 -1      3515 8.71070E+00
 -1      3516 2.37013E+00
 -1      3517 3.63699E+00
 -1      3518 3.43918E-04
 -1      3519 4.98649E+00
 -1      3520 4.54823E+00
 -1      3521 5.27087E+00
 -1      3522 4.20859E+00
 -1      3523 7.57924E+00
 -1      3524 8.89061E+00
 -1      3525 6.82284E+00
 -1      3526 2.45777E+00
 -1      3527 6.02387E+00
 -1      3528 8.72243E+00
 -1      3529 7.02494E+00
 -1      3530 4.14421E+00
 -1      3531 4.81107E+00
 -1      3532 3.56607E+00
 -1      3533 3.11313E-04
 -1      3534 4.69687E-04
 -1      3535 5.75421E-04
 -1      3536 4.27560E-04
 -1      3537 4.27560E-04
 -1      3538 2.24337E+00
 -1      3539 2.45724E+00
 -1      3540 2.28699E+00
 -1      3541 4.91863E+00
 -1      3542 2.87741E+00
 -1      3543 3.29990E-04
 -1      3544 3.32710E-04
 -1      3545 6.07720E+00
 -1      3546 6.14484E+00
 -1      3547 4.37267E+00
 -1      3548 3.70470E-04
 -1      3549 3.94542E-04
 -1      3550 3.67670E-04
 -1      3551 3.63079E-04
 -1      3552 4.02735E-04
 -1      3553 4.95713E-04
 -1      3554 4.45167E-04
 -1      3555 3.94542E-04
 -1      3556 3.94542E-04
 -1      3557 3.69646E-04
 -1      3558 3.32710E-04
 -1      3559 3.32710E-04
 -1      3560 3.94514E+00
 -1      3561 3.65626E+00
 -1      3562 4.08111E+00
 -1      3563 1.06074E+00
 -1      3564 1.20905E+00
 -1      3565 3.04084E+00
 -1      3566 2.58680E+00
 -1      3567 3.20223E+00
 -1      3568 2.23013E+00
 -1      3569 1.85476E+00
 -1      3570 2.23013E+00
 -1      3571 1.58985E+00
 -1      3572 1.30848E+00
 -1      3573 1.60854E+00
 -1      3574 1.11619E+00
 -1      3575 9.23417E-01
 -1      3576 1.15134E+00
 -1      3577 7.89022E-01
 -1      3578 6.84071E-01
 -1      3579 8.24658E-01
 -1      3580 5.97366E-01
 -1      3581 5.16854E-01
 -1      3582 6.03559E-01
 -1      3583 4.54207E-01
 -1      3584 3.91559E-01
 -1      3585 4.54207E-01
 -1      3586 3.42886E-01
 -1      3587 2.94212E-01
 -1      3588 3.42886E-01
 -1      3589 2.56450E-01
 -1      3590 2.18688E-01
 -1      3591 2.56450E-01
 -1      3592 1.89504E-01
 -1      3593 1.60319E-01
 -1      3594 1.89504E-01
 -1      3595 1.37915E-01
 -1      3596 1.15512E-01
 -1      3597 1.37915E-01
 -1      3598 9.88941E-02
 -1      3599 8.22763E-02
 -1      3600 9.88941E-02
 -1      3601 7.00514E-02
 -1      3602 5.78266E-02
 -1      3603 7.00514E-02
 -1      3604 4.86655E-02
 -1      3605 3.95044E-02
 -1      3606 4.86655E-02
 -1      3607 3.27443E-02
 -1      3608 2.59843E-02
 -1      3609 3.27443E-02
 -1      3610 2.10882E-02
 -1      3611 1.61922E-02
 -1      3612 2.10882E-02
 -1      3613 1.31821E-02
 -1      3614 9.71554E-03
 -1      3615 1.31821E-02
 -1      3616 7.63069E-03
 -1      3617 5.24457E-03
 -1      3618 8.08722E-03
 -1      3619 3.97355E-03
 -1      3620 3.39805E-03
 -1      3621 4.73134E-03
 -1      3622 2.91724E-03
 -1      3623 3.23526E-03
 -1      3624 2.97950E-03
 -1      3625 3.56421E-03
 -1      3626 3.62972E-03
 -1      3627 2.82764E-03
 -1      3628 3.79134E-03
 -1      3629 3.69976E-03
 -1      3630 3.31820E-03
 -1      3631 3.68585E-03
 -1      3632 3.50505E-03
 -1      3633 3.46590E-03
 -1      3634 3.38598E-03
 -1      3635 3.21386E-03
 -1      3636 3.33293E-03
 -1      3637 3.03883E-03
 -1      3638 2.86381E-03
 -1      3639 3.03883E-03
 -1      3640 2.66608E-03
 -1      3641 2.46836E-03
 -1      3642 2.66608E-03
 -1      3643 2.26946E-03
 -1      3644 2.07057E-03
 -1      3645 2.26946E-03
 -1      3646 1.88354E-03
 -1      3647 1.69652E-03
 -1      3648 1.88354E-03
 -1      3649 1.52843E-03
 -1      3650 1.36034E-03
 -1      3651 1.52843E-03
 -1      3652 1.21407E-03
 -1      3653 1.06780E-03
 -1      3654 1.21407E-03
 -1      3655 9.42639E-04
 -1      3656 8.17478E-04
 -1      3657 9.42639E-04
 -1      3658 7.38092E-04
 -1      3659 6.58707E-04
 -1      3660 7.38092E-04
 -1      3661 6.58707E-04
 -1      3662 6.25429E-01
 -1      3663 7.03462E-01
 -1      3664 1.56385E+00
 -1      3665 1.82427E+00
 -1      3666 1.56385E+00
 -1      3667 4.76874E-01
 -1      3668 5.41392E-01
 -1      3669 5.99567E-01
 -1      3670 3.61516E-01
 -1      3671 4.13717E-01
 -1      3672 4.52372E-01
 -1      3673 2.71704E-01
 -1      3674 3.13329E-01
 -1      3675 3.41026E-01
 -1      3676 2.01848E-01
 -1      3677 2.34615E-01
 -1      3678 2.55749E-01
 -1      3679 1.47771E-01
 -1      3680 1.73233E-01
 -1      3681 1.90045E-01
 -1      3682 1.06245E-01
 -1      3683 1.25760E-01
 -1      3684 1.39419E-01
 -1      3685 7.49704E-02
 -1      3686 8.94360E-02
 -1      3687 1.00599E-01
 -1      3688 5.18844E-02
 -1      3689 6.22704E-02
 -1      3690 7.10896E-02
 -1      3691 3.49575E-02
 -1      3692 4.26435E-02
 -1      3693 4.91488E-02
 -1      3694 2.28472E-02
 -1      3695 2.84260E-02
 -1      3696 3.33764E-02
 -1      3697 1.41828E-02
 -1      3698 1.80661E-02
 -1      3699 2.20638E-02
 -1      3700 8.06783E-03
 -1      3701 1.07548E-02
 -1      3702 1.38548E-02
 -1      3703 4.79845E-03
 -1      3704 5.70695E-03
 -1      3705 8.06594E-03
 -1      3706 3.88344E-03
 -1      3707 3.52159E-03
 -1      3708 4.42821E-03
 -1      3709 3.89062E-03
 -1      3710 3.82085E-03
 -1      3711 3.08877E-03
 -1      3712 3.98924E-03
 -1      3713 4.09978E-03
 -1      3714 3.23534E-03
 -1      3715 3.79271E-03
 -1      3716 4.00479E-03
 -1      3717 3.46006E-03
 -1      3718 3.43087E-03
 -1      3719 3.69059E-03
 -1      3720 3.37350E-03
 -1      3721 3.04953E-03
 -1      3722 3.26433E-03
 -1      3723 3.10485E-03
 -1      3724 2.64869E-03
 -1      3725 2.85861E-03
 -1      3726 2.74739E-03
 -1      3727 2.27764E-03
 -1      3728 2.49235E-03
 -1      3729 2.40013E-03
 -1      3730 1.90724E-03
 -1      3731 2.11120E-03
 -1      3732 2.07734E-03
 -1      3733 1.56077E-03
 -1      3734 1.74529E-03
 -1      3735 1.74896E-03
 -1      3736 1.25068E-03
 -1      3737 1.41180E-03
 -1      3738 1.43803E-03
 -1      3739 9.82090E-04
 -1      3740 1.11894E-03
 -1      3741 1.15732E-03
 -1      3742 7.55399E-04
 -1      3743 8.69024E-04
 -1      3744 9.12518E-04
 -1      3745 5.68531E-04
 -1      3746 6.61103E-04
 -1      3747 7.05156E-04
 -1      3748 4.57172E-04
 -1      3749 4.97690E-04
 -1      3750 5.40018E-04
 -1      3751 4.57172E-04
 -1      3752 4.60847E-04
 -1      3753 6.26973E-04
 -1      3754 6.26973E-04
 -1      3755 3.26425E+00
 -1      3756 6.88854E+00
 -1      3757 7.44425E+00
 -1      3758 4.07407E-04
 -1      3759 8.17872E-01
 -1      3760 9.12424E-01
 -1      3761 7.98014E-01
 -1      3762 4.35442E+00
 -1      3763 5.58863E+00
 -1      3764 3.93425E+00
 -1      3765 5.75708E+00
 -1      3766 3.69646E-04
 -1      3767 3.69646E-04
 -1      3768 5.45966E+00
 -1      3769 4.10922E+00
 -1      3770 1.06074E+00
 -1      3771 6.07155E-04
 -1      3772 4.19412E-04
 -1      3773 2.44014E+00
 -1      3774 2.99724E+00
 -1      3775 4.08741E+00
 -1      3776 2.53453E+00
 -1      3777 6.13719E+00
 -1      3778 4.46078E+00
 -1      3779 5.20642E+00
 -1      3780 6.58971E+00
 -1      3781 5.32326E+00
 -1      3782 5.45966E+00
 -1      3783 4.43886E-04
 -1      3784 4.10797E-04
 -1      3785 4.10797E-04
 -1      3786 5.02442E+00
 -1      3787 5.00871E+00
 -1      3788 5.14370E+00
 -1      3789 4.45805E+00
 -1      3790 2.29428E+00
 -1      3791 1.93761E+00
 -1      3792 1.63633E+00
 -1      3793 1.37142E+00
 -1      3794 1.70048E+00
 -1      3795 1.15481E+00
 -1      3796 9.62518E-01
 -1      3797 1.18259E+00
 -1      3798 8.20826E-01
 -1      3799 6.86431E-01
 -1      3800 8.24291E-01
 -1      3801 5.91517E-01
 -1      3802 5.04813E-01
 -1      3803 5.87685E-01
 -1      3804 4.39243E-01
 -1      3805 3.76596E-01
 -1      3806 4.27202E-01
 -1      3807 3.29672E-01
 -1      3808 2.80998E-01
 -1      3809 3.14708E-01
 -1      3810 2.46502E-01
 -1      3811 2.08741E-01
 -1      3812 2.33288E-01
 -1      3813 1.82913E-01
 -1      3814 1.53728E-01
 -1      3815 1.72965E-01
 -1      3816 1.34193E-01
 -1      3817 1.11790E-01
 -1      3818 1.27603E-01
 -1      3819 9.82002E-02
 -1      3820 8.15824E-02
 -1      3821 9.44782E-02
 -1      3822 7.08811E-02
 -1      3823 5.86563E-02
 -1      3824 7.01873E-02
 -1      3825 5.03303E-02
 -1      3826 4.11692E-02
 -1      3827 5.11600E-02
 -1      3828 3.47878E-02
 -1      3829 2.80278E-02
 -1      3830 3.64526E-02
 -1      3831 2.34998E-02
 -1      3832 1.86037E-02
 -1      3833 2.55433E-02
 -1      3834 1.53196E-02
 -1      3835 1.23096E-02
 -1      3836 1.77312E-02
 -1      3837 9.86534E-03
 -1      3838 7.78049E-03
 -1      3839 1.20028E-02
 -1      3840 5.99896E-03
 -1      3841 4.72794E-03
 -1      3842 7.77708E-03
 -1      3843 3.46032E-03
 -1      3844 2.97950E-03
 -1      3845 4.72794E-03
 -1      3846 2.10327E-03
 -1      3847 2.43222E-03
 -1      3848 2.58408E-03
 -1      3849 2.51159E-03
 -1      3850 2.67320E-03
 -1      3851 1.78722E-03
 -1      3852 2.77909E-03
 -1      3853 2.76518E-03
 -1      3854 1.97248E-03
 -1      3855 2.76263E-03
 -1      3856 2.64357E-03
 -1      3857 2.07582E-03
 -1      3858 2.57568E-03
 -1      3859 2.40065E-03
 -1      3860 2.00539E-03
 -1      3861 2.29762E-03
 -1      3862 2.09990E-03
 -1      3863 1.83447E-03
 -1      3864 1.98219E-03
 -1      3865 1.78330E-03
 -1      3866 1.61373E-03
 -1      3867 1.66421E-03
 -1      3868 1.47718E-03
 -1      3869 1.37694E-03
 -1      3870 1.36481E-03
 -1      3871 1.19672E-03
 -1      3872 1.14548E-03
 -1      3873 1.09851E-03
 -1      3874 9.52239E-04
 -1      3875 9.34894E-04
 -1      3876 8.74797E-04
 -1      3877 7.49636E-04
 -1      3878 7.59237E-04
 -1      3879 6.87489E-04
 -1      3880 6.08104E-04
 -1      3881 6.19648E-04
 -1      3882 1.33472E+00
 -1      3883 1.68952E+00
 -1      3884 3.98930E-01
 -1      3885 4.62088E-01
 -1      3886 2.99466E-01
 -1      3887 3.47654E-01
 -1      3888 3.57370E-01
 -1      3889 2.24093E-01
 -1      3890 2.61182E-01
 -1      3891 2.67810E-01
 -1      3892 1.66349E-01
 -1      3893 1.94965E-01
 -1      3894 2.00397E-01
 -1      3895 1.21983E-01
 -1      3896 1.43995E-01
 -1      3897 1.48914E-01
 -1      3898 8.80053E-02
 -1      3899 1.04814E-01
 -1      3900 1.09390E-01
 -1      3901 6.21865E-02
 -1      3902 7.48864E-02
 -1      3903 7.91022E-02
 -1      3904 4.30161E-02
 -1      3905 5.22570E-02
 -1      3906 5.60538E-02
 -1      3907 2.90660E-02
 -1      3908 3.55975E-02
 -1      3909 3.87057E-02
 -1      3910 1.92584E-02
 -1      3911 2.40395E-02
 -1      3912 2.62606E-02
 -1      3913 1.21341E-02
 -1      3914 1.55620E-02
 -1      3915 1.75377E-02
 -1      3916 7.27358E-03
 -1      3917 9.63445E-03
 -1      3918 1.13417E-02
 -1      3919 4.31707E-03
 -1      3920 5.59392E-03
 -1      3921 7.16243E-03
 -1      3922 3.08877E-03
 -1      3923 3.15135E-03
 -1      3924 4.31707E-03
 -1      3925 2.74906E-03
 -1      3926 2.53990E-03
 -1      3927 2.60249E-03
 -1      3928 3.00241E-03
 -1      3929 2.98686E-03
 -1      3930 2.29142E-03
 -1      3931 2.96257E-03
 -1      3932 3.06468E-03
 -1      3933 2.59148E-03
 -1      3934 2.74848E-03
 -1      3935 2.91502E-03
 -1      3936 2.60620E-03
 -1      3937 2.44679E-03
 -1      3938 2.63771E-03
 -1      3939 2.44788E-03
 -1      3940 2.14861E-03
 -1      3941 2.30496E-03
 -1      3942 2.19528E-03
 -1      3943 1.83098E-03
 -1      3944 1.99742E-03
 -1      3945 1.90225E-03
 -1      3946 1.54083E-03
 -1      3947 1.70278E-03
 -1      3948 1.62286E-03
 -1      3949 1.26639E-03
 -1      3950 1.41536E-03
 -1      3951 1.36919E-03
 -1      3952 1.01879E-03
 -1      3953 1.15053E-03
 -1      3954 1.12786E-03
 -1      3955 8.03127E-04
 -1      3956 9.16193E-04
 -1      3957 9.09403E-04
 -1      3958 6.20321E-04
 -1      3959 7.14618E-04
 -1      3960 7.18292E-04
 -1      3961 4.30499E-04
 -1      3962 4.80265E-04
 -1      3963 5.51106E-04
 -1      3964 4.30499E-04
 -1      3965 9.79392E-01
 -1      3966 1.12771E+00
 -1      3967 1.25338E+00
 -1      3968 5.55327E-04
 -1      3969 5.03775E-04
 -1      3970 4.43886E-04
 -1      3971 5.04724E-04
 -1      3972 5.32953E-01
 -1      3973 6.16990E-01
 -1      3974 4.79512E-01
 -1      3975 7.19413E-01
 -1      3976 8.33823E-01
 -1      3977 9.00791E-01
 -1      3978 6.52799E-01
 -1      3979 4.16922E+00
 -1      3980 3.54228E+00
 -1      3981 3.50753E+00
 -1      3982 2.89210E+00
 -1      3983 2.59958E+00
 -1      3984 3.85908E+00
 -1      3985 3.49785E+00
 -1      3986 4.43485E+00
 -1      3987 4.43485E+00
 -1      3988 4.51947E-04
 -1      3989 5.60568E-04
 -1      3990 4.33865E-04
 -1      3991 4.94718E-04
 -1      3992 5.63933E-04
 -1      3993 2.14330E+00
 -1      3994 2.75917E+00
 -1      3995 3.10662E+00
 -1      3996 1.91417E+00
 -1      3997 4.20246E+00
 -1      3998 4.50130E+00
 -1      3999 3.88792E+00
 -1      4000 3.61290E+00
 -1      4001 4.75015E-04
 -1      4002 4.63945E-04
 -1      4003 4.63945E-04
 -1      4004 5.16722E-04
 -1      4005 1.20893E+00
 -1      4006 9.92323E-01
 -1      4007 8.40051E-01
 -1      4008 6.98359E-01
 -1      4009 8.66392E-01
 -1      4010 6.05534E-01
 -1      4011 5.10620E-01
 -1      4012 6.21294E-01
 -1      4013 4.45766E-01
 -1      4014 3.80197E-01
 -1      4015 4.63615E-01
 -1      4016 3.32776E-01
 -1      4017 2.85852E-01
 -1      4018 3.51341E-01
 -1      4019 2.50016E-01
 -1      4020 2.15520E-01
 -1      4021 2.68084E-01
 -1      4022 1.88057E-01
 -1      4023 1.62229E-01
 -1      4024 2.04784E-01
 -1      4025 1.40866E-01
 -1      4026 1.21331E-01
 -1      4027 1.55957E-01
 -1      4028 1.04535E-01
 -1      4029 9.09457E-02
 -1      4030 1.17798E-01
 -1      4031 7.77894E-02
 -1      4032 6.70881E-02
 -1      4033 8.78465E-02
 -1      4034 5.68667E-02
 -1      4035 4.85407E-02
 -1      4036 6.44689E-02
 -1      4037 4.06902E-02
 -1      4038 3.43088E-02
 -1      4039 4.63970E-02
 -1      4040 2.83634E-02
 -1      4041 2.38354E-02
 -1      4042 3.26010E-02
 -1      4043 1.97824E-02
 -1      4044 1.64983E-02
 -1      4045 2.26026E-02
 -1      4046 1.34901E-02
 -1      4047 1.10459E-02
 -1      4048 1.55413E-02
 -1      4049 8.83185E-03
 -1      4050 7.05032E-03
 -1      4051 1.03191E-02
 -1      4052 5.45574E-03
 -1      4053 4.18812E-03
 -1      4054 6.51051E-03
 -1      4055 3.06871E-03
 -1      4056 2.19248E-03
 -1      4057 3.79652E-03
 -1      4058 1.47791E-03
 -1      4059 1.55729E-03
 -1      4060 1.96254E-03
 -1      4061 1.81361E-03
 -1      4062 1.91950E-03
 -1      4063 1.50430E-03
 -1      4064 2.01782E-03
 -1      4065 2.01527E-03
 -1      4066 1.85895E-03
 -1      4067 2.01197E-03
 -1      4068 1.94408E-03
 -1      4069 1.95397E-03
 -1      4070 1.87969E-03
 -1      4071 1.77666E-03
 -1      4072 1.88627E-03
 -1      4073 1.67954E-03
 -1      4074 1.56183E-03
 -1      4075 1.72476E-03
 -1      4076 1.45120E-03
 -1      4077 1.33211E-03
 -1      4078 1.51701E-03
 -1      4079 1.22045E-03
 -1      4080 1.10808E-03
 -1      4081 1.29472E-03
 -1      4082 1.00324E-03
 -1      4083 9.05030E-04
 -1      4084 1.07822E-03
 -1      4085 8.16268E-04
 -1      4086 7.38826E-04
 -1      4087 8.84619E-04
 -1      4088 6.19648E-04
 -1      4089 5.57501E-04
 -1      4090 5.16722E-04
 -1      4091 6.76679E-04
 -1      4092 3.37361E-01
 -1      4093 3.88637E-01
 -1      4094 1.45120E-01
 -1      4095 1.67475E-01
 -1      4096 1.07463E-01
 -1      4097 1.24632E-01
 -1      4098 1.43193E-01
 -1      4099 7.82975E-02
 -1      4100 9.14164E-02
 -1      4101 1.06659E-01
 -1      4102 5.59046E-02
 -1      4103 6.58341E-02
 -1      4104 7.81484E-02
 -1      4105 3.89198E-02
 -1      4106 4.63384E-02
 -1      4107 5.61187E-02
 -1      4108 2.70780E-02
 -1      4109 3.21045E-02
 -1      4110 3.97372E-02
 -1      4111 1.82521E-02
 -1      4112 2.19484E-02
 -1      4113 2.77923E-02
 -1      4114 1.19359E-02
 -1      4115 1.44355E-02
 -1      4116 1.88463E-02
 -1      4117 7.47364E-03
 -1      4118 9.15330E-03
 -1      4119 1.22471E-02
 -1      4120 4.32643E-03
 -1      4121 5.49214E-03
 -1      4122 7.48301E-03
 -1      4123 2.58064E-03
 -1      4124 3.12950E-03
 -1      4125 4.30458E-03
 -1      4126 2.00300E-03
 -1      4127 1.76520E-03
 -1      4128 2.29222E-03
 -1      4129 2.26236E-03
 -1      4130 2.20009E-03
 -1      4131 1.67388E-03
 -1      4132 2.27482E-03
 -1      4133 2.32237E-03
 -1      4134 1.93098E-03
 -1      4135 2.14719E-03
 -1      4136 2.25796E-03
 -1      4137 1.97413E-03
 -1      4138 2.00205E-03
 -1      4139 2.14389E-03
 -1      4140 1.95397E-03
 -1      4141 1.78646E-03
 -1      4142 1.93766E-03
 -1      4143 1.88627E-03
 -1      4144 1.56115E-03
 -1      4145 1.68935E-03
 -1      4146 1.72476E-03
 -1      4147 1.32505E-03
 -1      4148 1.45052E-03
 -1      4149 1.51701E-03
 -1      4150 1.09753E-03
 -1      4151 1.21338E-03
 -1      4152 1.29472E-03
 -1      4153 8.90091E-04
 -1      4154 9.92693E-04
 -1      4155 1.07822E-03
 -1      4156 6.90494E-04
 -1      4157 7.79003E-04
 -1      4158 8.62293E-04
 -1      4159 6.24644E-04
 -1      4160 1.93543E-01
 -1      4161 2.22672E-01
 -1      4162 1.89750E-01
 -1      4163 2.55965E-01
 -1      4164 2.94249E-01
 -1      4165 2.49111E-01
 -1      4166 3.79636E+00
 -1      4167 1.09742E+00
 -1      4168 1.30444E+00
 -1      4169 4.45964E-01
 -1      4170 5.16829E-01
 -1      4171 4.25955E-01
 -1      4172 1.82032E+00
 -1      4173 1.51904E+00
 -1      4174 1.32877E+00
 -1      4175 4.87013E-04
 -1      4176 6.13574E-04
 -1      4177 8.11618E-01
 -1      4178 9.57187E-01
 -1      4179 1.00825E+00
 -1      4180 3.25516E-01
 -1      4181 3.50459E+00
 -1      4182 2.90562E+00
 -1      4183 2.30780E+00
 -1      4184 2.99717E+00
 -1      4185 5.62506E-01
 -1      4186 5.96054E-01
 -1      4187 6.98477E-01
 -1      4188 2.12636E+00
 -1      4189 9.43339E-01
 -1      4190 7.91067E-01
 -1      4191 1.39368E+00
 -1      4192 1.08357E+00
 -1      4193 6.77926E-01
 -1      4194 5.85100E-01
 -1      4195 5.05875E-01
 -1      4196 4.41021E-01
 -1      4197 3.83695E-01
 -1      4198 3.36274E-01
 -1      4199 2.93162E-01
 -1      4200 2.57326E-01
 -1      4201 2.24033E-01
 -1      4202 1.96569E-01
 -1      4203 1.70501E-01
 -1      4204 1.49138E-01
 -1      4205 1.28650E-01
 -1      4206 1.11854E-01
 -1      4207 9.58073E-02
 -1      4208 8.26510E-02
 -1      4209 7.01876E-02
 -1      4210 5.99662E-02
 -1      4211 5.04000E-02
 -1      4212 4.25494E-02
 -1      4213 3.57341E-02
 -1      4214 2.97887E-02
 -1      4215 2.46592E-02
 -1      4216 2.06062E-02
 -1      4217 1.67896E-02
 -1      4218 1.37814E-02
 -1      4219 1.09988E-02
 -1      4220 8.78480E-03
 -1      4221 6.80330E-03
 -1      4222 5.20872E-03
 -1      4223 4.01179E-03
 -1      4224 2.89238E-03
 -1      4225 2.07695E-03
 -1      4226 1.36238E-03
 -1      4227 1.55947E-03
 -1      4228 1.81580E-03
 -1      4229 1.87581E-03
 -1      4230 1.97413E-03
 -1      4231 1.95727E-03
 -1      4232 1.95397E-03
 -1      4233 1.95066E-03
 -1      4234 1.88627E-03
 -1      4235 1.82187E-03
 -1      4236 1.72476E-03
 -1      4237 1.62764E-03
 -1      4238 1.51701E-03
 -1      4239 1.40638E-03
 -1      4240 1.29472E-03
 -1      4241 1.18305E-03
 -1      4242 1.07822E-03
 -1      4243 9.73381E-04
 -1      4244 8.84619E-04
 -1      4245 2.72110E+00
 -1      4246 2.33777E+00
 -1      4247 1.85029E+00
 -1      4248 2.95349E+00
 -1      4249 7.73531E-04
 -1      4250 1.42272E+00
 -1      4251 1.87649E+00
 -1      4252 1.72337E+00
 -1      4253 2.21482E+00
 -1      4254 1.26676E+00
 -1      4255 7.54873E-01
 -1      4256 6.54353E-04
 -1      4257 1.51196E+00
 -3
 9999
