    1C
    1UUSER                                                              
    1UDATE              27.october.2022                                 
    1UTIME              00:24:41                                        
    1UHOST                                                              
    1UPGM               CalculiX                                        
    1UVERSION           Version 2.17                             
    1UCOMPILETIME       Thu Jul 23 21:43:50 CEST 2020                    
    1UDIR                                                               
    1UDBN                                                               
    1UMAT    1SOLIDMATERIAL                                             
    2C                          4283                                     1
 -1         1 7.09091E+01 4.30027E+01 0.00000E+00
 -1         2 7.96034E+01 3.62108E+01 0.00000E+00
 -1         3 1.50000E+02 0.00000E+00 0.00000E+00
 -1         4 1.50000E+02 5.00000E+01 0.00000E+00
 -1         5 0.00000E+00 0.00000E+00 0.00000E+00
 -1         6 0.00000E+00 5.00000E+01 0.00000E+00
 -1         7 0.00000E+00 4.70500E+01 0.00000E+00
 -1         8 0.00000E+00 4.41000E+01 0.00000E+00
 -1         9 0.00000E+00 4.11500E+01 0.00000E+00
 -1        10 0.00000E+00 3.82000E+01 0.00000E+00
 -1        11 0.00000E+00 3.52500E+01 0.00000E+00
 -1        12 0.00000E+00 3.23500E+01 0.00000E+00
 -1        13 0.00000E+00 2.94000E+01 0.00000E+00
 -1        14 0.00000E+00 2.64500E+01 0.00000E+00
 -1        15 0.00000E+00 2.35000E+01 0.00000E+00
 -1        16 0.00000E+00 2.05500E+01 0.00000E+00
 -1        17 0.00000E+00 1.76000E+01 0.00000E+00
 -1        18 0.00000E+00 1.47000E+01 0.00000E+00
 -1        19 0.00000E+00 1.17500E+01 0.00000E+00
 -1        20 0.00000E+00 8.80000E+00 0.00000E+00
 -1        21 0.00000E+00 5.85000E+00 0.00000E+00
 -1        22 0.00000E+00 2.90000E+00 0.00000E+00
 -1        23 3.00000E+00 5.00000E+01 0.00000E+00
 -1        24 6.00000E+00 5.00000E+01 0.00000E+00
 -1        25 9.00000E+00 5.00000E+01 0.00000E+00
 -1        26 1.20000E+01 5.00000E+01 0.00000E+00
 -1        27 1.50000E+01 5.00000E+01 0.00000E+00
 -1        28 1.80000E+01 5.00000E+01 0.00000E+00
 -1        29 2.08500E+01 5.00000E+01 0.00000E+00
 -1        30 2.38500E+01 5.00000E+01 0.00000E+00
 -1        31 2.68500E+01 5.00000E+01 0.00000E+00
 -1        32 2.98500E+01 5.00000E+01 0.00000E+00
 -1        33 3.28500E+01 5.00000E+01 0.00000E+00
 -1        34 3.58500E+01 5.00000E+01 0.00000E+00
 -1        35 3.88500E+01 5.00000E+01 0.00000E+00
 -1        36 4.17000E+01 5.00000E+01 0.00000E+00
 -1        37 4.47000E+01 5.00000E+01 0.00000E+00
 -1        38 4.77000E+01 5.00000E+01 0.00000E+00
 -1        39 5.07000E+01 5.00000E+01 0.00000E+00
 -1        40 5.37000E+01 5.00000E+01 0.00000E+00
 -1        41 5.67000E+01 5.00000E+01 0.00000E+00
 -1        42 5.97000E+01 5.00000E+01 0.00000E+00
 -1        43 6.25500E+01 5.00000E+01 0.00000E+00
 -1        44 6.55500E+01 5.00000E+01 0.00000E+00
 -1        45 6.82500E+01 5.00000E+01 0.00000E+00
 -1        46 7.09500E+01 5.00000E+01 0.00000E+00
 -1        47 7.33500E+01 5.00000E+01 0.00000E+00
 -1        48 7.62000E+01 5.00000E+01 0.00000E+00
 -1        49 7.87500E+01 5.00000E+01 0.00000E+00
 -1        50 8.16000E+01 5.00000E+01 0.00000E+00
 -1        51 8.46000E+01 5.00000E+01 0.00000E+00
 -1        52 8.76000E+01 5.00000E+01 0.00000E+00
 -1        53 9.04500E+01 5.00000E+01 0.00000E+00
 -1        54 9.34500E+01 5.00000E+01 0.00000E+00
 -1        55 9.64500E+01 5.00000E+01 0.00000E+00
 -1        56 9.94500E+01 5.00000E+01 0.00000E+00
 -1        57 1.02450E+02 5.00000E+01 0.00000E+00
 -1        58 1.05450E+02 5.00000E+01 0.00000E+00
 -1        59 1.08450E+02 5.00000E+01 0.00000E+00
 -1        60 1.11300E+02 5.00000E+01 0.00000E+00
 -1        61 1.14300E+02 5.00000E+01 0.00000E+00
 -1        62 1.17300E+02 5.00000E+01 0.00000E+00
 -1        63 1.20300E+02 5.00000E+01 0.00000E+00
 -1        64 1.23300E+02 5.00000E+01 0.00000E+00
 -1        65 1.26300E+02 5.00000E+01 0.00000E+00
 -1        66 1.29300E+02 5.00000E+01 0.00000E+00
 -1        67 1.32150E+02 5.00000E+01 0.00000E+00
 -1        68 1.35150E+02 5.00000E+01 0.00000E+00
 -1        69 1.38150E+02 5.00000E+01 0.00000E+00
 -1        70 1.41150E+02 5.00000E+01 0.00000E+00
 -1        71 1.44150E+02 5.00000E+01 0.00000E+00
 -1        72 1.47150E+02 5.00000E+01 0.00000E+00
 -1        73 3.15000E+00 0.00000E+00 0.00000E+00
 -1        74 6.15000E+00 0.00000E+00 0.00000E+00
 -1        75 9.15000E+00 0.00000E+00 0.00000E+00
 -1        76 1.21500E+01 0.00000E+00 0.00000E+00
 -1        77 1.51500E+01 0.00000E+00 0.00000E+00
 -1        78 1.81500E+01 0.00000E+00 0.00000E+00
 -1        79 2.11500E+01 0.00000E+00 0.00000E+00
 -1        80 2.41500E+01 0.00000E+00 0.00000E+00
 -1        81 2.71500E+01 0.00000E+00 0.00000E+00
 -1        82 3.01500E+01 0.00000E+00 0.00000E+00
 -1        83 3.31500E+01 0.00000E+00 0.00000E+00
 -1        84 3.61500E+01 0.00000E+00 0.00000E+00
 -1        85 3.91500E+01 0.00000E+00 0.00000E+00
 -1        86 4.21500E+01 0.00000E+00 0.00000E+00
 -1        87 4.51500E+01 0.00000E+00 0.00000E+00
 -1        88 4.81500E+01 0.00000E+00 0.00000E+00
 -1        89 5.11500E+01 0.00000E+00 0.00000E+00
 -1        90 5.41500E+01 0.00000E+00 0.00000E+00
 -1        91 5.71500E+01 0.00000E+00 0.00000E+00
 -1        92 6.01500E+01 0.00000E+00 0.00000E+00
 -1        93 6.31500E+01 0.00000E+00 0.00000E+00
 -1        94 6.61500E+01 0.00000E+00 0.00000E+00
 -1        95 6.91500E+01 0.00000E+00 0.00000E+00
 -1        96 7.21500E+01 0.00000E+00 0.00000E+00
 -1        97 7.51500E+01 0.00000E+00 0.00000E+00
 -1        98 7.81500E+01 0.00000E+00 0.00000E+00
 -1        99 8.11500E+01 0.00000E+00 0.00000E+00
 -1       100 8.41500E+01 0.00000E+00 0.00000E+00
 -1       101 8.71500E+01 0.00000E+00 0.00000E+00
 -1       102 9.01500E+01 0.00000E+00 0.00000E+00
 -1       103 9.31500E+01 0.00000E+00 0.00000E+00
 -1       104 9.61500E+01 0.00000E+00 0.00000E+00
 -1       105 9.91500E+01 0.00000E+00 0.00000E+00
 -1       106 1.02150E+02 0.00000E+00 0.00000E+00
 -1       107 1.05150E+02 0.00000E+00 0.00000E+00
 -1       108 1.08150E+02 0.00000E+00 0.00000E+00
 -1       109 1.11150E+02 0.00000E+00 0.00000E+00
 -1       110 1.14150E+02 0.00000E+00 0.00000E+00
 -1       111 1.17150E+02 0.00000E+00 0.00000E+00
 -1       112 1.20150E+02 0.00000E+00 0.00000E+00
 -1       113 1.23150E+02 0.00000E+00 0.00000E+00
 -1       114 1.26150E+02 0.00000E+00 0.00000E+00
 -1       115 1.29150E+02 0.00000E+00 0.00000E+00
 -1       116 1.32150E+02 0.00000E+00 0.00000E+00
 -1       117 1.35150E+02 0.00000E+00 0.00000E+00
 -1       118 1.38150E+02 0.00000E+00 0.00000E+00
 -1       119 1.41150E+02 0.00000E+00 0.00000E+00
 -1       120 1.44150E+02 0.00000E+00 0.00000E+00
 -1       121 1.47150E+02 0.00000E+00 0.00000E+00
 -1       122 1.50000E+02 2.95000E+00 0.00000E+00
 -1       123 1.50000E+02 5.90000E+00 0.00000E+00
 -1       124 1.50000E+02 8.85000E+00 0.00000E+00
 -1       125 1.50000E+02 1.18000E+01 0.00000E+00
 -1       126 1.50000E+02 1.47500E+01 0.00000E+00
 -1       127 1.50000E+02 1.76500E+01 0.00000E+00
 -1       128 1.50000E+02 2.06000E+01 0.00000E+00
 -1       129 1.50000E+02 2.35500E+01 0.00000E+00
 -1       130 1.50000E+02 2.65000E+01 0.00000E+00
 -1       131 1.50000E+02 2.94500E+01 0.00000E+00
 -1       132 1.50000E+02 3.24000E+01 0.00000E+00
 -1       133 1.50000E+02 3.53000E+01 0.00000E+00
 -1       134 1.50000E+02 3.82500E+01 0.00000E+00
 -1       135 1.50000E+02 4.12000E+01 0.00000E+00
 -1       136 1.50000E+02 4.41500E+01 0.00000E+00
 -1       137 1.50000E+02 4.71000E+01 0.00000E+00
 -1       138 7.94312E+01 3.46678E+01 0.00000E+00
 -1       139 7.89789E+01 3.33207E+01 0.00000E+00
 -1       140 7.82275E+01 3.20432E+01 0.00000E+00
 -1       141 7.71516E+01 3.08898E+01 0.00000E+00
 -1       142 7.59749E+01 3.00763E+01 0.00000E+00
 -1       143 7.45578E+01 2.94892E+01 0.00000E+00
 -1       144 7.30775E+01 2.92269E+01 0.00000E+00
 -1       145 7.15920E+01 2.92843E+01 0.00000E+00
 -1       146 7.01228E+01 2.96651E+01 0.00000E+00
 -1       147 6.87872E+01 3.03425E+01 0.00000E+00
 -1       148 6.76320E+01 3.12828E+01 0.00000E+00
 -1       149 6.67223E+01 3.24143E+01 0.00000E+00
 -1       150 6.60725E+01 3.36913E+01 0.00000E+00
 -1       151 6.56870E+01 3.51321E+01 0.00000E+00
 -1       152 6.56126E+01 3.65707E+01 0.00000E+00
 -1       153 6.58730E+01 3.81348E+01 0.00000E+00
 -1       154 6.64067E+01 3.94669E+01 0.00000E+00
 -1       155 6.72659E+01 4.07398E+01 0.00000E+00
 -1       156 6.83133E+01 4.17422E+01 0.00000E+00
 -1       157 6.95497E+01 4.25097E+01 0.00000E+00
 -1       158 7.22923E+01 4.32039E+01 0.00000E+00
 -1       159 7.37729E+01 4.31124E+01 0.00000E+00
 -1       160 7.50778E+01 4.27589E+01 0.00000E+00
 -1       161 7.63893E+01 4.20987E+01 0.00000E+00
 -1       162 7.74726E+01 4.12398E+01 0.00000E+00
 -1       163 7.83840E+01 4.01585E+01 0.00000E+00
 -1       164 7.90653E+01 3.89023E+01 0.00000E+00
 -1       165 7.94669E+01 3.75862E+01 0.00000E+00
 -1       166 2.59800E+00 4.55750E+01 0.00000E+00
 -1       167 2.59800E+00 4.26250E+01 0.00000E+00
 -1       168 2.59800E+00 3.96750E+01 0.00000E+00
 -1       169 2.59800E+00 3.67250E+01 0.00000E+00
 -1       170 2.59800E+00 3.38250E+01 0.00000E+00
 -1       171 2.59800E+00 3.08750E+01 0.00000E+00
 -1       172 2.59800E+00 2.79250E+01 0.00000E+00
 -1       173 2.59800E+00 2.49750E+01 0.00000E+00
 -1       174 2.59800E+00 2.20250E+01 0.00000E+00
 -1       175 2.59800E+00 1.90750E+01 0.00000E+00
 -1       176 2.59800E+00 1.61750E+01 0.00000E+00
 -1       177 2.59800E+00 1.32250E+01 0.00000E+00
 -1       178 2.59800E+00 1.02750E+01 0.00000E+00
 -1       179 2.59800E+00 7.32500E+00 0.00000E+00
 -1       180 2.59800E+00 4.37500E+00 0.00000E+00
 -1       181 2.87400E+00 2.18750E+00 0.00000E+00
 -1       182 4.50000E+00 4.74020E+01 0.00000E+00
 -1       183 7.50000E+00 4.74020E+01 0.00000E+00
 -1       184 1.05000E+01 4.74020E+01 0.00000E+00
 -1       185 1.35000E+01 4.74020E+01 0.00000E+00
 -1       186 1.65000E+01 4.74020E+01 0.00000E+00
 -1       187 1.93500E+01 4.74020E+01 0.00000E+00
 -1       188 2.23500E+01 4.74020E+01 0.00000E+00
 -1       189 2.53500E+01 4.74020E+01 0.00000E+00
 -1       190 2.83500E+01 4.74020E+01 0.00000E+00
 -1       191 3.13500E+01 4.74020E+01 0.00000E+00
 -1       192 3.43500E+01 4.74020E+01 0.00000E+00
 -1       193 3.73500E+01 4.74020E+01 0.00000E+00
 -1       194 4.02000E+01 4.74020E+01 0.00000E+00
 -1       195 4.32000E+01 4.74020E+01 0.00000E+00
 -1       196 4.62000E+01 4.74020E+01 0.00000E+00
 -1       197 4.92000E+01 4.74020E+01 0.00000E+00
 -1       198 5.22000E+01 4.74020E+01 0.00000E+00
 -1       199 5.52000E+01 4.74020E+01 0.00000E+00
 -1       200 5.82000E+01 4.74020E+01 0.00000E+00
 -1       201 6.10500E+01 4.74020E+01 0.00000E+00
 -1       202 6.40500E+01 4.74020E+01 0.00000E+00
 -1       203 6.67500E+01 4.74020E+01 0.00000E+00
 -1       204 6.94500E+01 4.74020E+01 0.00000E+00
 -1       205 7.18500E+01 4.74020E+01 0.00000E+00
 -1       206 7.74750E+01 4.77822E+01 0.00000E+00
 -1       207 8.03250E+01 4.77822E+01 0.00000E+00
 -1       208 8.33250E+01 4.77822E+01 0.00000E+00
 -1       209 8.63250E+01 4.77822E+01 0.00000E+00
 -1       210 8.91750E+01 4.77822E+01 0.00000E+00
 -1       211 9.21750E+01 4.77822E+01 0.00000E+00
 -1       212 9.51750E+01 4.77822E+01 0.00000E+00
 -1       213 9.81750E+01 4.77822E+01 0.00000E+00
 -1       214 1.01175E+02 4.77822E+01 0.00000E+00
 -1       215 1.04175E+02 4.77822E+01 0.00000E+00
 -1       216 1.07175E+02 4.77822E+01 0.00000E+00
 -1       217 1.10025E+02 4.77822E+01 0.00000E+00
 -1       218 1.13025E+02 4.77822E+01 0.00000E+00
 -1       219 1.16025E+02 4.77822E+01 0.00000E+00
 -1       220 1.19025E+02 4.77822E+01 0.00000E+00
 -1       221 1.22025E+02 4.77822E+01 0.00000E+00
 -1       222 1.25025E+02 4.77822E+01 0.00000E+00
 -1       223 1.28025E+02 4.77822E+01 0.00000E+00
 -1       224 1.30875E+02 4.77822E+01 0.00000E+00
 -1       225 1.33875E+02 4.77822E+01 0.00000E+00
 -1       226 1.36875E+02 4.77822E+01 0.00000E+00
 -1       227 1.39875E+02 4.77822E+01 0.00000E+00
 -1       228 1.42875E+02 4.77822E+01 0.00000E+00
 -1       229 1.45875E+02 4.77822E+01 0.00000E+00
 -1       230 1.47938E+02 4.74411E+01 0.00000E+00
 -1       231 5.87400E+00 2.18750E+00 0.00000E+00
 -1       232 8.87400E+00 2.18750E+00 0.00000E+00
 -1       233 1.18740E+01 2.18750E+00 0.00000E+00
 -1       234 1.48740E+01 2.18750E+00 0.00000E+00
 -1       235 1.78740E+01 2.18750E+00 0.00000E+00
 -1       236 2.08740E+01 2.18750E+00 0.00000E+00
 -1       237 2.38740E+01 2.18750E+00 0.00000E+00
 -1       238 2.68740E+01 2.18750E+00 0.00000E+00
 -1       239 2.98740E+01 2.18750E+00 0.00000E+00
 -1       240 3.28740E+01 2.18750E+00 0.00000E+00
 -1       241 3.58740E+01 2.18750E+00 0.00000E+00
 -1       242 3.88740E+01 2.18750E+00 0.00000E+00
 -1       243 4.18740E+01 2.18750E+00 0.00000E+00
 -1       244 4.48740E+01 2.18750E+00 0.00000E+00
 -1       245 4.78740E+01 2.18750E+00 0.00000E+00
 -1       246 5.08740E+01 2.18750E+00 0.00000E+00
 -1       247 5.38740E+01 2.18750E+00 0.00000E+00
 -1       248 5.68740E+01 2.18750E+00 0.00000E+00
 -1       249 5.98740E+01 2.18750E+00 0.00000E+00
 -1       250 6.28740E+01 2.18750E+00 0.00000E+00
 -1       251 6.58740E+01 2.18750E+00 0.00000E+00
 -1       252 6.88740E+01 2.18750E+00 0.00000E+00
 -1       253 7.18740E+01 2.18750E+00 0.00000E+00
 -1       254 7.48740E+01 2.18750E+00 0.00000E+00
 -1       255 7.78740E+01 2.18750E+00 0.00000E+00
 -1       256 8.08740E+01 2.18750E+00 0.00000E+00
 -1       257 8.38740E+01 2.18750E+00 0.00000E+00
 -1       258 8.68740E+01 2.18750E+00 0.00000E+00
 -1       259 8.98740E+01 2.18750E+00 0.00000E+00
 -1       260 9.28740E+01 2.18750E+00 0.00000E+00
 -1       261 9.58740E+01 2.18750E+00 0.00000E+00
 -1       262 9.88740E+01 2.18750E+00 0.00000E+00
 -1       263 1.01874E+02 2.18750E+00 0.00000E+00
 -1       264 1.04874E+02 2.18750E+00 0.00000E+00
 -1       265 1.07874E+02 2.18750E+00 0.00000E+00
 -1       266 1.10874E+02 2.18750E+00 0.00000E+00
 -1       267 1.13874E+02 2.18750E+00 0.00000E+00
 -1       268 1.16874E+02 2.18750E+00 0.00000E+00
 -1       269 1.19874E+02 2.18750E+00 0.00000E+00
 -1       270 1.22874E+02 2.18750E+00 0.00000E+00
 -1       271 1.25874E+02 2.18750E+00 0.00000E+00
 -1       272 1.28874E+02 2.18750E+00 0.00000E+00
 -1       273 1.31874E+02 2.18750E+00 0.00000E+00
 -1       274 1.34874E+02 2.18750E+00 0.00000E+00
 -1       275 1.37874E+02 2.18750E+00 0.00000E+00
 -1       276 1.40874E+02 2.18750E+00 0.00000E+00
 -1       277 1.43874E+02 2.18750E+00 0.00000E+00
 -1       278 1.46874E+02 2.18750E+00 0.00000E+00
 -1       279 1.47402E+02 4.42500E+00 0.00000E+00
 -1       280 1.47402E+02 7.37500E+00 0.00000E+00
 -1       281 1.47402E+02 1.03250E+01 0.00000E+00
 -1       282 1.47402E+02 1.32750E+01 0.00000E+00
 -1       283 1.47402E+02 1.61750E+01 0.00000E+00
 -1       284 1.47402E+02 1.91250E+01 0.00000E+00
 -1       285 1.47402E+02 2.20750E+01 0.00000E+00
 -1       286 1.47402E+02 2.50250E+01 0.00000E+00
 -1       287 1.47402E+02 2.79750E+01 0.00000E+00
 -1       288 1.47402E+02 3.09250E+01 0.00000E+00
 -1       289 1.47402E+02 3.38250E+01 0.00000E+00
 -1       290 1.47402E+02 3.67750E+01 0.00000E+00
 -1       291 1.47402E+02 3.97250E+01 0.00000E+00
 -1       292 1.47402E+02 4.26750E+01 0.00000E+00
 -1       293 1.47670E+02 4.50580E+01 0.00000E+00
 -1       294 8.08887E+01 3.52863E+01 0.00000E+00
 -1       295 8.04338E+01 3.35817E+01 0.00000E+00
 -1       296 7.97204E+01 3.20248E+01 0.00000E+00
 -1       297 7.87599E+01 3.04681E+01 0.00000E+00
 -1       298 7.72527E+01 2.94857E+01 0.00000E+00
 -1       299 7.57945E+01 2.85078E+01 0.00000E+00
 -1       300 7.40292E+01 2.81643E+01 0.00000E+00
 -1       301 7.22880E+01 2.80441E+01 0.00000E+00
 -1       302 7.05322E+01 2.82200E+01 0.00000E+00
 -1       303 6.89066E+01 2.89225E+01 0.00000E+00
 -1       304 6.73914E+01 2.98074E+01 0.00000E+00
 -1       305 6.62323E+01 3.10889E+01 0.00000E+00
 -1       306 6.53169E+01 3.25030E+01 0.00000E+00
 -1       307 6.46276E+01 3.40767E+01 0.00000E+00
 -1       308 6.43554E+01 3.57845E+01 0.00000E+00
 -1       309 6.43816E+01 3.75793E+01 0.00000E+00
 -1       310 6.50144E+01 3.92518E+01 0.00000E+00
 -1       311 6.57619E+01 4.08284E+01 0.00000E+00
 -1       312 6.68934E+01 4.21774E+01 0.00000E+00
 -1       313 6.82921E+01 4.31560E+01 0.00000E+00
 -1       314 6.97875E+01 4.39747E+01 0.00000E+00
 -1       315 7.14262E+01 4.43031E+01 0.00000E+00
 -1       316 7.31177E+01 4.45355E+01 0.00000E+00
 -1       317 7.47424E+01 4.41059E+01 0.00000E+00
 -1       318 7.63541E+01 4.36614E+01 0.00000E+00
 -1       319 7.76842E+01 4.26193E+01 0.00000E+00
 -1       320 7.88553E+01 4.14806E+01 0.00000E+00
 -1       321 7.98641E+01 4.01483E+01 0.00000E+00
 -1       322 8.04257E+01 3.85982E+01 0.00000E+00
 -1       323 8.07416E+01 3.70182E+01 0.00000E+00
 -1       324 7.47750E+01 4.74020E+01 0.00000E+00
 -1       325 5.19600E+00 4.11500E+01 0.00000E+00
 -1       326 5.19600E+00 4.41000E+01 0.00000E+00
 -1       327 5.19600E+00 3.52750E+01 0.00000E+00
 -1       328 5.19600E+00 3.23250E+01 0.00000E+00
 -1       329 5.19600E+00 2.93750E+01 0.00000E+00
 -1       330 5.19600E+00 2.64250E+01 0.00000E+00
 -1       331 5.19600E+00 2.34750E+01 0.00000E+00
 -1       332 5.19600E+00 2.05250E+01 0.00000E+00
 -1       333 5.19600E+00 1.76250E+01 0.00000E+00
 -1       334 5.19600E+00 1.46750E+01 0.00000E+00
 -1       335 5.19600E+00 1.17250E+01 0.00000E+00
 -1       336 5.19600E+00 8.77500E+00 0.00000E+00
 -1       337 5.19600E+00 5.82500E+00 0.00000E+00
 -1       338 5.53500E+00 4.00625E+00 0.00000E+00
 -1       339 8.53500E+00 4.00625E+00 0.00000E+00
 -1       340 9.00000E+00 4.48040E+01 0.00000E+00
 -1       341 1.20000E+01 4.48040E+01 0.00000E+00
 -1       342 1.50000E+01 4.48040E+01 0.00000E+00
 -1       343 1.78500E+01 4.48040E+01 0.00000E+00
 -1       344 2.08500E+01 4.48040E+01 0.00000E+00
 -1       345 2.38500E+01 4.48040E+01 0.00000E+00
 -1       346 2.68500E+01 4.48040E+01 0.00000E+00
 -1       347 2.98500E+01 4.48040E+01 0.00000E+00
 -1       348 3.28500E+01 4.48040E+01 0.00000E+00
 -1       349 3.58500E+01 4.48040E+01 0.00000E+00
 -1       350 3.87000E+01 4.48040E+01 0.00000E+00
 -1       351 4.17000E+01 4.48040E+01 0.00000E+00
 -1       352 4.47000E+01 4.48040E+01 0.00000E+00
 -1       353 4.77000E+01 4.48040E+01 0.00000E+00
 -1       354 5.07000E+01 4.48040E+01 0.00000E+00
 -1       355 5.37000E+01 4.48040E+01 0.00000E+00
 -1       356 5.67000E+01 4.48040E+01 0.00000E+00
 -1       357 5.95500E+01 4.48040E+01 0.00000E+00
 -1       358 6.25500E+01 4.48040E+01 0.00000E+00
 -1       359 6.52500E+01 4.48040E+01 0.00000E+00
 -1       360 8.05572E+01 3.04338E+01 0.00000E+00
 -1       361 8.18250E+01 4.53968E+01 0.00000E+00
 -1       362 8.48250E+01 4.53968E+01 0.00000E+00
 -1       363 8.76750E+01 4.53968E+01 0.00000E+00
 -1       364 9.06750E+01 4.53968E+01 0.00000E+00
 -1       365 9.36750E+01 4.53968E+01 0.00000E+00
 -1       366 9.66750E+01 4.53968E+01 0.00000E+00
 -1       367 9.96750E+01 4.53968E+01 0.00000E+00
 -1       368 1.02675E+02 4.53968E+01 0.00000E+00
 -1       369 1.05675E+02 4.53968E+01 0.00000E+00
 -1       370 1.08525E+02 4.53968E+01 0.00000E+00
 -1       371 1.11525E+02 4.53968E+01 0.00000E+00
 -1       372 1.14525E+02 4.53968E+01 0.00000E+00
 -1       373 1.17525E+02 4.53968E+01 0.00000E+00
 -1       374 1.20525E+02 4.53968E+01 0.00000E+00
 -1       375 1.23525E+02 4.53968E+01 0.00000E+00
 -1       376 1.26525E+02 4.53968E+01 0.00000E+00
 -1       377 1.29375E+02 4.53968E+01 0.00000E+00
 -1       378 1.32375E+02 4.53968E+01 0.00000E+00
 -1       379 1.35375E+02 4.53968E+01 0.00000E+00
 -1       380 1.38375E+02 4.53968E+01 0.00000E+00
 -1       381 1.41375E+02 4.53968E+01 0.00000E+00
 -1       382 1.44375E+02 4.53968E+01 0.00000E+00
 -1       383 1.33740E+01 4.78550E+00 0.00000E+00
 -1       384 1.63740E+01 4.78550E+00 0.00000E+00
 -1       385 1.93740E+01 4.78550E+00 0.00000E+00
 -1       386 2.23740E+01 4.78550E+00 0.00000E+00
 -1       387 2.53740E+01 4.78550E+00 0.00000E+00
 -1       388 2.83740E+01 4.78550E+00 0.00000E+00
 -1       389 3.13740E+01 4.78550E+00 0.00000E+00
 -1       390 3.43740E+01 4.78550E+00 0.00000E+00
 -1       391 3.73740E+01 4.78550E+00 0.00000E+00
 -1       392 4.03740E+01 4.78550E+00 0.00000E+00
 -1       393 4.33740E+01 4.78550E+00 0.00000E+00
 -1       394 4.63740E+01 4.78550E+00 0.00000E+00
 -1       395 4.93740E+01 4.78550E+00 0.00000E+00
 -1       396 5.23740E+01 4.78550E+00 0.00000E+00
 -1       397 5.53740E+01 4.78550E+00 0.00000E+00
 -1       398 5.83740E+01 4.78550E+00 0.00000E+00
 -1       399 6.13740E+01 4.78550E+00 0.00000E+00
 -1       400 6.43740E+01 4.78550E+00 0.00000E+00
 -1       401 6.73740E+01 4.78550E+00 0.00000E+00
 -1       402 7.03740E+01 4.78550E+00 0.00000E+00
 -1       403 7.33740E+01 4.78550E+00 0.00000E+00
 -1       404 7.63740E+01 4.78550E+00 0.00000E+00
 -1       405 7.93740E+01 4.78550E+00 0.00000E+00
 -1       406 8.23740E+01 4.78550E+00 0.00000E+00
 -1       407 8.53740E+01 4.78550E+00 0.00000E+00
 -1       408 8.83740E+01 4.78550E+00 0.00000E+00
 -1       409 9.13740E+01 4.78550E+00 0.00000E+00
 -1       410 9.43740E+01 4.78550E+00 0.00000E+00
 -1       411 9.73740E+01 4.78550E+00 0.00000E+00
 -1       412 1.00374E+02 4.78550E+00 0.00000E+00
 -1       413 1.03374E+02 4.78550E+00 0.00000E+00
 -1       414 1.06374E+02 4.78550E+00 0.00000E+00
 -1       415 1.09374E+02 4.78550E+00 0.00000E+00
 -1       416 1.12374E+02 4.78550E+00 0.00000E+00
 -1       417 1.15374E+02 4.78550E+00 0.00000E+00
 -1       418 1.18374E+02 4.78550E+00 0.00000E+00
 -1       419 1.21374E+02 4.78550E+00 0.00000E+00
 -1       420 1.24374E+02 4.78550E+00 0.00000E+00
 -1       421 1.27374E+02 4.78550E+00 0.00000E+00
 -1       422 1.30374E+02 4.78550E+00 0.00000E+00
 -1       423 1.33374E+02 4.78550E+00 0.00000E+00
 -1       424 1.36374E+02 4.78550E+00 0.00000E+00
 -1       425 1.39374E+02 4.78550E+00 0.00000E+00
 -1       426 1.42374E+02 4.78550E+00 0.00000E+00
 -1       427 1.44888E+02 4.60525E+00 0.00000E+00
 -1       428 1.44804E+02 1.18000E+01 0.00000E+00
 -1       429 1.44804E+02 8.85000E+00 0.00000E+00
 -1       430 1.44804E+02 1.47000E+01 0.00000E+00
 -1       431 1.44804E+02 1.76500E+01 0.00000E+00
 -1       432 1.44804E+02 2.06000E+01 0.00000E+00
 -1       433 1.44804E+02 2.35500E+01 0.00000E+00
 -1       434 1.44804E+02 2.65000E+01 0.00000E+00
 -1       435 1.44804E+02 2.94500E+01 0.00000E+00
 -1       436 1.44804E+02 3.23500E+01 0.00000E+00
 -1       437 1.44804E+02 3.53000E+01 0.00000E+00
 -1       438 1.44804E+02 3.82500E+01 0.00000E+00
 -1       439 1.44804E+02 4.12000E+01 0.00000E+00
 -1       440 1.09545E+01 4.39587E+00 0.00000E+00
 -1       441 8.14840E+01 3.21586E+01 0.00000E+00
 -1       442 7.88513E+01 2.86804E+01 0.00000E+00
 -1       443 8.23572E+01 3.62832E+01 0.00000E+00
 -1       444 5.19600E+00 3.82125E+01 0.00000E+00
 -1       445 7.89750E+01 4.53968E+01 0.00000E+00
 -1       446 7.73931E+01 2.77025E+01 0.00000E+00
 -1       447 7.52395E+01 2.66525E+01 0.00000E+00
 -1       448 7.34983E+01 2.65324E+01 0.00000E+00
 -1       449 7.12726E+01 2.67589E+01 0.00000E+00
 -1       450 6.91054E+01 2.71507E+01 0.00000E+00
 -1       451 6.73686E+01 2.80286E+01 0.00000E+00
 -1       452 6.57262E+01 2.94663E+01 0.00000E+00
 -1       453 6.44052E+01 3.09094E+01 0.00000E+00
 -1       454 6.37159E+01 3.24831E+01 0.00000E+00
 -1       455 6.32115E+01 3.47265E+01 0.00000E+00
 -1       456 6.28211E+01 3.67045E+01 0.00000E+00
 -1       457 6.32506E+01 3.89633E+01 0.00000E+00
 -1       458 6.41413E+01 4.06313E+01 0.00000E+00
 -1       459 6.51420E+01 4.24974E+01 0.00000E+00
 -1       460 6.66096E+01 4.40720E+01 0.00000E+00
 -1       461 6.81049E+01 4.48907E+01 0.00000E+00
 -1       462 7.03357E+01 4.54920E+01 0.00000E+00
 -1       463 7.20272E+01 4.57244E+01 0.00000E+00
 -1       464 7.43257E+01 4.58168E+01 0.00000E+00
 -1       465 7.59374E+01 4.53723E+01 0.00000E+00
 -1       466 7.78702E+01 4.42266E+01 0.00000E+00
 -1       467 7.91733E+01 4.29792E+01 0.00000E+00
 -1       468 8.05267E+01 4.16980E+01 0.00000E+00
 -1       469 8.15999E+01 3.99004E+01 0.00000E+00
 -1       470 8.19368E+01 3.80788E+01 0.00000E+00
 -1       471 8.20755E+01 3.40565E+01 0.00000E+00
 -1       472 1.44589E+02 4.32984E+01 0.00000E+00
 -1       473 7.79400E+00 3.08500E+01 0.00000E+00
 -1       474 7.79400E+00 3.38000E+01 0.00000E+00
 -1       475 7.79400E+00 2.49500E+01 0.00000E+00
 -1       476 7.79400E+00 2.20000E+01 0.00000E+00
 -1       477 7.79400E+00 1.91000E+01 0.00000E+00
 -1       478 7.79400E+00 1.61500E+01 0.00000E+00
 -1       479 7.79400E+00 1.32000E+01 0.00000E+00
 -1       480 7.79400E+00 1.02500E+01 0.00000E+00
 -1       481 7.79400E+00 7.30000E+00 0.00000E+00
 -1       482 8.16450E+00 5.65312E+00 0.00000E+00
 -1       483 1.05000E+01 4.22060E+01 0.00000E+00
 -1       484 8.33250E+01 4.35141E+01 0.00000E+00
 -1       485 7.84800E+00 4.16780E+01 0.00000E+00
 -1       486 8.09335E+01 2.83611E+01 0.00000E+00
 -1       487 1.35000E+01 4.22060E+01 0.00000E+00
 -1       488 1.63500E+01 4.22060E+01 0.00000E+00
 -1       489 1.93500E+01 4.22060E+01 0.00000E+00
 -1       490 2.23500E+01 4.22060E+01 0.00000E+00
 -1       491 2.53500E+01 4.22060E+01 0.00000E+00
 -1       492 2.83500E+01 4.22060E+01 0.00000E+00
 -1       493 3.13500E+01 4.22060E+01 0.00000E+00
 -1       494 3.43500E+01 4.22060E+01 0.00000E+00
 -1       495 3.72000E+01 4.22060E+01 0.00000E+00
 -1       496 4.02000E+01 4.22060E+01 0.00000E+00
 -1       497 4.32000E+01 4.22060E+01 0.00000E+00
 -1       498 4.62000E+01 4.22060E+01 0.00000E+00
 -1       499 4.92000E+01 4.22060E+01 0.00000E+00
 -1       500 5.22000E+01 4.22060E+01 0.00000E+00
 -1       501 5.52000E+01 4.22060E+01 0.00000E+00
 -1       502 5.80500E+01 4.22060E+01 0.00000E+00
 -1       503 6.10500E+01 4.22060E+01 0.00000E+00
 -1       504 7.89841E+01 2.69062E+01 0.00000E+00
 -1       505 8.26790E+01 3.04051E+01 0.00000E+00
 -1       506 8.62500E+01 4.30114E+01 0.00000E+00
 -1       507 8.92500E+01 4.30114E+01 0.00000E+00
 -1       508 9.22500E+01 4.30114E+01 0.00000E+00
 -1       509 9.52500E+01 4.30114E+01 0.00000E+00
 -1       510 9.82500E+01 4.30114E+01 0.00000E+00
 -1       511 1.01250E+02 4.30114E+01 0.00000E+00
 -1       512 1.04250E+02 4.30114E+01 0.00000E+00
 -1       513 1.07100E+02 4.30114E+01 0.00000E+00
 -1       514 1.10100E+02 4.30114E+01 0.00000E+00
 -1       515 1.13100E+02 4.30114E+01 0.00000E+00
 -1       516 1.16100E+02 4.30114E+01 0.00000E+00
 -1       517 1.19100E+02 4.30114E+01 0.00000E+00
 -1       518 1.22100E+02 4.30114E+01 0.00000E+00
 -1       519 1.25100E+02 4.30114E+01 0.00000E+00
 -1       520 1.27950E+02 4.30114E+01 0.00000E+00
 -1       521 1.30950E+02 4.30114E+01 0.00000E+00
 -1       522 1.33950E+02 4.30114E+01 0.00000E+00
 -1       523 1.36950E+02 4.30114E+01 0.00000E+00
 -1       524 1.39950E+02 4.30114E+01 0.00000E+00
 -1       525 1.42270E+02 4.31549E+01 0.00000E+00
 -1       526 2.08740E+01 7.38350E+00 0.00000E+00
 -1       527 1.78740E+01 7.38350E+00 0.00000E+00
 -1       528 1.48740E+01 7.38350E+00 0.00000E+00
 -1       529 2.38740E+01 7.38350E+00 0.00000E+00
 -1       530 2.68740E+01 7.38350E+00 0.00000E+00
 -1       531 2.98740E+01 7.38350E+00 0.00000E+00
 -1       532 3.28740E+01 7.38350E+00 0.00000E+00
 -1       533 3.58740E+01 7.38350E+00 0.00000E+00
 -1       534 3.88740E+01 7.38350E+00 0.00000E+00
 -1       535 4.18740E+01 7.38350E+00 0.00000E+00
 -1       536 4.48740E+01 7.38350E+00 0.00000E+00
 -1       537 4.78740E+01 7.38350E+00 0.00000E+00
 -1       538 5.08740E+01 7.38350E+00 0.00000E+00
 -1       539 5.38740E+01 7.38350E+00 0.00000E+00
 -1       540 5.68740E+01 7.38350E+00 0.00000E+00
 -1       541 5.98740E+01 7.38350E+00 0.00000E+00
 -1       542 6.28740E+01 7.38350E+00 0.00000E+00
 -1       543 6.58740E+01 7.38350E+00 0.00000E+00
 -1       544 6.88740E+01 7.38350E+00 0.00000E+00
 -1       545 7.18740E+01 7.38350E+00 0.00000E+00
 -1       546 7.48740E+01 7.38350E+00 0.00000E+00
 -1       547 7.78740E+01 7.38350E+00 0.00000E+00
 -1       548 8.08740E+01 7.38350E+00 0.00000E+00
 -1       549 8.38740E+01 7.38350E+00 0.00000E+00
 -1       550 8.68740E+01 7.38350E+00 0.00000E+00
 -1       551 8.98740E+01 7.38350E+00 0.00000E+00
 -1       552 9.28740E+01 7.38350E+00 0.00000E+00
 -1       553 9.58740E+01 7.38350E+00 0.00000E+00
 -1       554 9.88740E+01 7.38350E+00 0.00000E+00
 -1       555 1.01874E+02 7.38350E+00 0.00000E+00
 -1       556 1.04874E+02 7.38350E+00 0.00000E+00
 -1       557 1.07874E+02 7.38350E+00 0.00000E+00
 -1       558 1.10874E+02 7.38350E+00 0.00000E+00
 -1       559 1.13874E+02 7.38350E+00 0.00000E+00
 -1       560 1.16874E+02 7.38350E+00 0.00000E+00
 -1       561 1.19874E+02 7.38350E+00 0.00000E+00
 -1       562 1.22874E+02 7.38350E+00 0.00000E+00
 -1       563 1.25874E+02 7.38350E+00 0.00000E+00
 -1       564 1.28874E+02 7.38350E+00 0.00000E+00
 -1       565 1.31874E+02 7.38350E+00 0.00000E+00
 -1       566 1.34874E+02 7.38350E+00 0.00000E+00
 -1       567 1.37874E+02 7.38350E+00 0.00000E+00
 -1       568 1.40874E+02 7.38350E+00 0.00000E+00
 -1       569 1.42206E+02 1.61750E+01 0.00000E+00
 -1       570 1.42206E+02 1.32750E+01 0.00000E+00
 -1       571 1.42206E+02 1.03250E+01 0.00000E+00
 -1       572 8.38348E+01 3.49652E+01 0.00000E+00
 -1       573 1.42206E+02 1.91250E+01 0.00000E+00
 -1       574 1.42206E+02 2.20750E+01 0.00000E+00
 -1       575 1.42206E+02 2.50250E+01 0.00000E+00
 -1       576 1.42206E+02 2.79750E+01 0.00000E+00
 -1       577 1.42206E+02 3.08750E+01 0.00000E+00
 -1       578 1.42206E+02 3.38250E+01 0.00000E+00
 -1       579 1.42206E+02 3.67750E+01 0.00000E+00
 -1       580 1.42206E+02 3.97250E+01 0.00000E+00
 -1       581 7.69578E+01 2.58618E+01 0.00000E+00
 -1       582 8.32901E+01 3.92711E+01 0.00000E+00
 -1       583 6.39242E+01 2.91429E+01 0.00000E+00
 -1       584 7.79400E+00 2.79000E+01 0.00000E+00
 -1       585 8.37104E+01 3.74755E+01 0.00000E+00
 -1       586 6.98839E+01 2.52671E+01 0.00000E+00
 -1       587 7.44870E+01 2.48814E+01 0.00000E+00
 -1       588 6.13336E+01 3.53834E+01 0.00000E+00
 -1       589 7.22202E+01 2.50227E+01 0.00000E+00
 -1       590 6.73877E+01 2.59094E+01 0.00000E+00
 -1       591 6.54177E+01 2.74569E+01 0.00000E+00
 -1       592 6.24895E+01 3.10082E+01 0.00000E+00
 -1       593 6.18381E+01 3.31400E+01 0.00000E+00
 -1       594 6.13509E+01 3.81543E+01 0.00000E+00
 -1       595 6.21830E+01 4.06051E+01 0.00000E+00
 -1       596 8.08563E+01 4.34016E+01 0.00000E+00
 -1       597 8.25359E+01 4.16784E+01 0.00000E+00
 -1       598 8.34172E+01 3.25972E+01 0.00000E+00
 -1       599 7.79400E+00 3.67375E+01 0.00000E+00
 -1       600 1.05840E+01 6.04275E+00 0.00000E+00
 -1       601 6.39000E+01 4.25862E+01 0.00000E+00
 -1       602 1.27290E+01 6.71313E+00 0.00000E+00
 -1       603 7.82100E+00 3.92077E+01 0.00000E+00
 -1       604 1.03920E+01 2.05500E+01 0.00000E+00
 -1       605 1.03920E+01 2.35000E+01 0.00000E+00
 -1       606 1.03920E+01 1.46750E+01 0.00000E+00
 -1       607 1.03920E+01 1.17250E+01 0.00000E+00
 -1       608 1.02135E+01 7.68962E+00 0.00000E+00
 -1       609 8.44686E+01 4.14073E+01 0.00000E+00
 -1       610 1.04730E+01 3.97357E+01 0.00000E+00
 -1       611 1.03920E+01 3.23250E+01 0.00000E+00
 -1       612 1.34730E+01 3.97357E+01 0.00000E+00
 -1       613 1.63230E+01 3.97357E+01 0.00000E+00
 -1       614 1.93230E+01 3.97357E+01 0.00000E+00
 -1       615 2.23230E+01 3.97357E+01 0.00000E+00
 -1       616 2.53230E+01 3.97357E+01 0.00000E+00
 -1       617 2.83230E+01 3.97357E+01 0.00000E+00
 -1       618 3.13230E+01 3.97357E+01 0.00000E+00
 -1       619 3.43230E+01 3.97357E+01 0.00000E+00
 -1       620 3.71730E+01 3.97357E+01 0.00000E+00
 -1       621 4.01730E+01 3.97357E+01 0.00000E+00
 -1       622 4.31730E+01 3.97357E+01 0.00000E+00
 -1       623 4.61730E+01 3.97357E+01 0.00000E+00
 -1       624 4.91730E+01 3.97357E+01 0.00000E+00
 -1       625 5.21730E+01 3.97357E+01 0.00000E+00
 -1       626 5.51730E+01 3.97357E+01 0.00000E+00
 -1       627 5.80230E+01 3.97357E+01 0.00000E+00
 -1       628 1.39608E+02 2.35500E+01 0.00000E+00
 -1       629 1.39608E+02 1.47250E+01 0.00000E+00
 -1       630 8.77500E+01 4.09611E+01 0.00000E+00
 -1       631 9.07500E+01 4.06260E+01 0.00000E+00
 -1       632 9.37500E+01 4.06260E+01 0.00000E+00
 -1       633 9.67500E+01 4.06260E+01 0.00000E+00
 -1       634 9.97500E+01 4.06260E+01 0.00000E+00
 -1       635 1.02750E+02 4.06260E+01 0.00000E+00
 -1       636 1.05600E+02 4.06260E+01 0.00000E+00
 -1       637 1.08600E+02 4.06260E+01 0.00000E+00
 -1       638 1.11600E+02 4.06260E+01 0.00000E+00
 -1       639 1.14600E+02 4.06260E+01 0.00000E+00
 -1       640 1.17600E+02 4.06260E+01 0.00000E+00
 -1       641 1.20600E+02 4.06260E+01 0.00000E+00
 -1       642 1.23600E+02 4.06260E+01 0.00000E+00
 -1       643 1.26450E+02 4.06260E+01 0.00000E+00
 -1       644 1.29450E+02 4.06260E+01 0.00000E+00
 -1       645 1.32450E+02 4.06260E+01 0.00000E+00
 -1       646 1.35450E+02 4.06260E+01 0.00000E+00
 -1       647 1.38450E+02 4.06260E+01 0.00000E+00
 -1       648 1.93740E+01 9.98150E+00 0.00000E+00
 -1       649 2.23740E+01 9.98150E+00 0.00000E+00
 -1       650 1.63740E+01 9.98150E+00 0.00000E+00
 -1       651 2.83740E+01 9.98150E+00 0.00000E+00
 -1       652 3.13740E+01 9.98150E+00 0.00000E+00
 -1       653 3.43740E+01 9.98150E+00 0.00000E+00
 -1       654 3.73740E+01 9.98150E+00 0.00000E+00
 -1       655 4.03740E+01 9.98150E+00 0.00000E+00
 -1       656 4.33740E+01 9.98150E+00 0.00000E+00
 -1       657 4.63740E+01 9.98150E+00 0.00000E+00
 -1       658 4.93740E+01 9.98150E+00 0.00000E+00
 -1       659 5.23740E+01 9.98150E+00 0.00000E+00
 -1       660 5.53740E+01 9.98150E+00 0.00000E+00
 -1       661 5.83740E+01 9.98150E+00 0.00000E+00
 -1       662 6.13740E+01 9.98150E+00 0.00000E+00
 -1       663 6.43740E+01 9.98150E+00 0.00000E+00
 -1       664 6.73740E+01 9.98150E+00 0.00000E+00
 -1       665 7.03740E+01 9.98150E+00 0.00000E+00
 -1       666 7.33740E+01 9.98150E+00 0.00000E+00
 -1       667 7.63740E+01 9.98150E+00 0.00000E+00
 -1       668 7.93740E+01 9.98150E+00 0.00000E+00
 -1       669 8.23740E+01 9.98150E+00 0.00000E+00
 -1       670 8.53740E+01 9.98150E+00 0.00000E+00
 -1       671 8.83740E+01 9.98150E+00 0.00000E+00
 -1       672 9.13740E+01 9.98150E+00 0.00000E+00
 -1       673 9.43740E+01 9.98150E+00 0.00000E+00
 -1       674 9.73740E+01 9.98150E+00 0.00000E+00
 -1       675 1.00374E+02 9.98150E+00 0.00000E+00
 -1       676 1.03374E+02 9.98150E+00 0.00000E+00
 -1       677 1.06374E+02 9.98150E+00 0.00000E+00
 -1       678 1.09374E+02 9.98150E+00 0.00000E+00
 -1       679 1.12374E+02 9.98150E+00 0.00000E+00
 -1       680 1.15374E+02 9.98150E+00 0.00000E+00
 -1       681 1.18374E+02 9.98150E+00 0.00000E+00
 -1       682 1.21374E+02 9.98150E+00 0.00000E+00
 -1       683 1.24374E+02 9.98150E+00 0.00000E+00
 -1       684 1.27374E+02 9.98150E+00 0.00000E+00
 -1       685 1.30374E+02 9.98150E+00 0.00000E+00
 -1       686 1.33374E+02 9.98150E+00 0.00000E+00
 -1       687 1.36374E+02 9.98150E+00 0.00000E+00
 -1       688 1.39290E+02 1.01532E+01 0.00000E+00
 -1       689 1.39608E+02 2.06000E+01 0.00000E+00
 -1       690 6.18474E+01 2.90299E+01 0.00000E+00
 -1       691 1.39449E+02 1.24391E+01 0.00000E+00
 -1       692 1.39608E+02 1.76625E+01 0.00000E+00
 -1       693 2.53740E+01 9.98150E+00 0.00000E+00
 -1       694 1.39608E+02 2.65000E+01 0.00000E+00
 -1       695 1.39608E+02 2.94000E+01 0.00000E+00
 -1       696 1.39608E+02 3.23500E+01 0.00000E+00
 -1       697 1.39608E+02 3.53000E+01 0.00000E+00
 -1       698 1.39608E+02 3.82500E+01 0.00000E+00
 -1       699 8.53150E+01 3.34834E+01 0.00000E+00
 -1       700 5.99125E+01 3.38855E+01 0.00000E+00
 -1       701 6.02030E+01 3.14749E+01 0.00000E+00
 -1       702 8.10849E+01 2.61249E+01 0.00000E+00
 -1       703 8.48324E+01 3.09003E+01 0.00000E+00
 -1       704 6.52397E+01 2.52027E+01 0.00000E+00
 -1       705 5.94596E+01 3.67806E+01 0.00000E+00
 -1       706 6.81249E+01 2.36027E+01 0.00000E+00
 -1       707 7.08736E+01 2.34391E+01 0.00000E+00
 -1       708 8.56530E+01 3.63135E+01 0.00000E+00
 -1       709 6.02222E+01 3.99042E+01 0.00000E+00
 -1       710 7.32365E+01 2.30730E+01 0.00000E+00
 -1       711 8.51702E+01 3.87642E+01 0.00000E+00
 -1       712 6.32617E+01 2.70515E+01 0.00000E+00
 -1       713 7.63240E+01 2.38553E+01 0.00000E+00
 -1       714 1.03920E+01 1.76125E+01 0.00000E+00
 -1       715 7.87567E+01 2.48594E+01 0.00000E+00
 -1       716 8.33654E+01 2.80517E+01 0.00000E+00
 -1       717 1.03920E+01 2.64500E+01 0.00000E+00
 -1       718 1.03920E+01 3.52625E+01 0.00000E+00
 -1       719 1.33741E+01 9.98153E+00 0.00000E+00
 -1       720 7.50735E+01 2.20469E+01 0.00000E+00
 -1       721 1.03920E+01 2.93875E+01 0.00000E+00
 -1       722 1.29900E+01 1.32000E+01 0.00000E+00
 -1       723 6.08867E+01 2.68483E+01 0.00000E+00
 -1       724 1.04325E+01 3.74991E+01 0.00000E+00
 -1       725 6.56880E+01 2.26097E+01 0.00000E+00
 -1       726 1.48980E+01 3.71377E+01 0.00000E+00
 -1       727 1.78980E+01 3.71377E+01 0.00000E+00
 -1       728 2.08980E+01 3.71377E+01 0.00000E+00
 -1       729 2.38980E+01 3.71377E+01 0.00000E+00
 -1       730 2.68980E+01 3.71377E+01 0.00000E+00
 -1       731 2.98980E+01 3.71377E+01 0.00000E+00
 -1       732 3.28980E+01 3.71377E+01 0.00000E+00
 -1       733 3.57480E+01 3.71377E+01 0.00000E+00
 -1       734 3.87480E+01 3.71377E+01 0.00000E+00
 -1       735 4.17480E+01 3.71377E+01 0.00000E+00
 -1       736 4.47480E+01 3.71377E+01 0.00000E+00
 -1       737 4.77480E+01 3.71377E+01 0.00000E+00
 -1       738 5.07480E+01 3.71377E+01 0.00000E+00
 -1       739 5.37480E+01 3.71377E+01 0.00000E+00
 -1       740 5.65980E+01 3.71377E+01 0.00000E+00
 -1       741 1.37010E+02 2.79500E+01 0.00000E+00
 -1       742 1.48741E+01 1.25795E+01 0.00000E+00
 -1       743 9.52500E+01 3.80280E+01 0.00000E+00
 -1       744 9.82500E+01 3.80280E+01 0.00000E+00
 -1       745 1.01250E+02 3.80280E+01 0.00000E+00
 -1       746 1.04100E+02 3.80280E+01 0.00000E+00
 -1       747 1.07100E+02 3.80280E+01 0.00000E+00
 -1       748 1.10100E+02 3.80280E+01 0.00000E+00
 -1       749 1.13100E+02 3.80280E+01 0.00000E+00
 -1       750 1.16100E+02 3.80280E+01 0.00000E+00
 -1       751 1.19100E+02 3.80280E+01 0.00000E+00
 -1       752 1.22100E+02 3.80280E+01 0.00000E+00
 -1       753 1.24950E+02 3.80280E+01 0.00000E+00
 -1       754 1.27950E+02 3.80280E+01 0.00000E+00
 -1       755 1.30950E+02 3.80280E+01 0.00000E+00
 -1       756 1.33950E+02 3.80280E+01 0.00000E+00
 -1       757 1.36779E+02 3.81390E+01 0.00000E+00
 -1       758 1.37010E+02 3.09000E+01 0.00000E+00
 -1       759 5.93239E+01 2.91083E+01 0.00000E+00
 -1       760 2.08740E+01 1.25795E+01 0.00000E+00
 -1       761 1.78740E+01 1.25795E+01 0.00000E+00
 -1       762 3.28740E+01 1.25795E+01 0.00000E+00
 -1       763 2.98740E+01 1.25795E+01 0.00000E+00
 -1       764 3.88740E+01 1.25795E+01 0.00000E+00
 -1       765 4.18740E+01 1.25795E+01 0.00000E+00
 -1       766 4.48740E+01 1.25795E+01 0.00000E+00
 -1       767 4.78740E+01 1.25795E+01 0.00000E+00
 -1       768 5.08740E+01 1.25795E+01 0.00000E+00
 -1       769 5.38740E+01 1.25795E+01 0.00000E+00
 -1       770 5.68740E+01 1.25795E+01 0.00000E+00
 -1       771 5.98740E+01 1.25795E+01 0.00000E+00
 -1       772 6.28740E+01 1.25795E+01 0.00000E+00
 -1       773 6.58740E+01 1.25795E+01 0.00000E+00
 -1       774 6.88740E+01 1.25795E+01 0.00000E+00
 -1       775 7.18740E+01 1.25795E+01 0.00000E+00
 -1       776 7.48740E+01 1.25795E+01 0.00000E+00
 -1       777 7.78740E+01 1.25795E+01 0.00000E+00
 -1       778 8.08740E+01 1.25795E+01 0.00000E+00
 -1       779 8.38740E+01 1.25795E+01 0.00000E+00
 -1       780 8.68740E+01 1.25795E+01 0.00000E+00
 -1       781 8.98740E+01 1.25795E+01 0.00000E+00
 -1       782 9.28740E+01 1.25795E+01 0.00000E+00
 -1       783 9.58740E+01 1.25795E+01 0.00000E+00
 -1       784 9.88740E+01 1.25795E+01 0.00000E+00
 -1       785 1.01874E+02 1.25795E+01 0.00000E+00
 -1       786 1.04874E+02 1.25795E+01 0.00000E+00
 -1       787 1.07874E+02 1.25795E+01 0.00000E+00
 -1       788 1.10874E+02 1.25795E+01 0.00000E+00
 -1       789 1.13874E+02 1.25795E+01 0.00000E+00
 -1       790 1.16874E+02 1.25795E+01 0.00000E+00
 -1       791 1.19874E+02 1.25795E+01 0.00000E+00
 -1       792 1.22874E+02 1.25795E+01 0.00000E+00
 -1       793 1.25874E+02 1.25795E+01 0.00000E+00
 -1       794 1.28874E+02 1.25795E+01 0.00000E+00
 -1       795 1.31874E+02 1.25795E+01 0.00000E+00
 -1       796 1.34874E+02 1.25795E+01 0.00000E+00
 -1       797 1.37161E+02 1.25093E+01 0.00000E+00
 -1       798 1.37010E+02 2.20750E+01 0.00000E+00
 -1       799 1.37010E+02 3.38500E+01 0.00000E+00
 -1       800 5.78559E+01 3.24148E+01 0.00000E+00
 -1       801 8.69243E+01 3.18460E+01 0.00000E+00
 -1       802 1.37010E+02 2.50125E+01 0.00000E+00
 -1       803 8.59216E+01 2.85373E+01 0.00000E+00
 -1       804 5.78260E+01 3.50421E+01 0.00000E+00
 -1       805 8.74232E+01 3.79351E+01 0.00000E+00
 -1       806 5.92004E+01 3.91263E+01 0.00000E+00
 -1       807 8.35484E+01 2.55222E+01 0.00000E+00
 -1       808 3.58740E+01 1.25795E+01 0.00000E+00
 -1       809 9.22500E+01 3.80280E+01 0.00000E+00
 -1       810 8.76862E+01 3.46355E+01 0.00000E+00
 -1       811 7.17668E+01 2.13956E+01 0.00000E+00
 -1       812 8.08999E+01 2.36908E+01 0.00000E+00
 -1       813 1.29900E+01 2.20250E+01 0.00000E+00
 -1       814 6.90180E+01 2.15592E+01 0.00000E+00
 -1       815 8.89852E+01 3.84229E+01 0.00000E+00
 -1       816 6.28507E+01 2.46293E+01 0.00000E+00
 -1       817 1.26652E+01 3.73184E+01 0.00000E+00
 -1       818 7.84672E+01 2.26866E+01 0.00000E+00
 -1       819 7.72167E+01 2.08782E+01 0.00000E+00
 -1       820 2.68740E+01 1.25795E+01 0.00000E+00
 -1       821 1.29900E+01 3.37938E+01 0.00000E+00
 -1       822 6.65812E+01 2.05662E+01 0.00000E+00
 -1       823 1.37010E+02 1.61938E+01 0.00000E+00
 -1       824 5.69767E+01 3.00481E+01 0.00000E+00
 -1       825 2.38740E+01 1.25795E+01 0.00000E+00
 -1       826 8.61046E+01 2.60079E+01 0.00000E+00
 -1       827 1.37010E+02 1.91313E+01 0.00000E+00
 -1       828 1.29900E+01 1.61375E+01 0.00000E+00
 -1       829 7.36039E+01 2.03695E+01 0.00000E+00
 -1       830 1.29900E+01 1.90875E+01 0.00000E+00
 -1       831 1.29900E+01 3.08563E+01 0.00000E+00
 -1       832 1.29900E+01 2.49750E+01 0.00000E+00
 -1       833 8.05298E+01 2.11387E+01 0.00000E+00
 -1       834 1.48741E+01 1.55170E+01 0.00000E+00
 -1       835 1.93980E+01 3.45397E+01 0.00000E+00
 -1       836 2.23980E+01 3.45397E+01 0.00000E+00
 -1       837 2.53980E+01 3.45397E+01 0.00000E+00
 -1       838 2.83980E+01 3.45397E+01 0.00000E+00
 -1       839 3.13980E+01 3.45397E+01 0.00000E+00
 -1       840 3.42480E+01 3.45397E+01 0.00000E+00
 -1       841 3.72480E+01 3.45397E+01 0.00000E+00
 -1       842 4.02480E+01 3.45397E+01 0.00000E+00
 -1       843 4.32480E+01 3.45397E+01 0.00000E+00
 -1       844 4.62480E+01 3.45397E+01 0.00000E+00
 -1       845 4.92480E+01 3.45397E+01 0.00000E+00
 -1       846 5.22480E+01 3.45397E+01 0.00000E+00
 -1       847 5.50370E+01 3.47909E+01 0.00000E+00
 -1       848 6.28861E+01 2.16761E+01 0.00000E+00
 -1       849 8.92831E+01 3.27006E+01 0.00000E+00
 -1       850 1.34412E+02 2.94250E+01 0.00000E+00
 -1       851 9.97500E+01 3.54300E+01 0.00000E+00
 -1       852 1.02600E+02 3.54300E+01 0.00000E+00
 -1       853 1.05600E+02 3.54300E+01 0.00000E+00
 -1       854 1.08600E+02 3.54300E+01 0.00000E+00
 -1       855 1.11600E+02 3.54300E+01 0.00000E+00
 -1       856 1.14600E+02 3.54300E+01 0.00000E+00
 -1       857 1.17600E+02 3.54300E+01 0.00000E+00
 -1       858 1.20600E+02 3.54300E+01 0.00000E+00
 -1       859 1.23450E+02 3.54300E+01 0.00000E+00
 -1       860 1.26450E+02 3.54300E+01 0.00000E+00
 -1       861 1.29450E+02 3.54300E+01 0.00000E+00
 -1       862 1.32450E+02 3.54300E+01 0.00000E+00
 -1       863 1.34730E+02 3.46400E+01 0.00000E+00
 -1       864 9.37500E+01 3.54300E+01 0.00000E+00
 -1       865 3.13740E+01 1.51775E+01 0.00000E+00
 -1       866 4.33740E+01 1.51775E+01 0.00000E+00
 -1       867 4.03740E+01 1.51775E+01 0.00000E+00
 -1       868 4.93740E+01 1.51775E+01 0.00000E+00
 -1       869 5.23740E+01 1.51775E+01 0.00000E+00
 -1       870 5.53740E+01 1.51775E+01 0.00000E+00
 -1       871 5.83740E+01 1.51775E+01 0.00000E+00
 -1       872 6.13740E+01 1.51775E+01 0.00000E+00
 -1       873 6.43740E+01 1.51775E+01 0.00000E+00
 -1       874 6.73740E+01 1.51775E+01 0.00000E+00
 -1       875 7.03740E+01 1.51775E+01 0.00000E+00
 -1       876 7.33740E+01 1.51775E+01 0.00000E+00
 -1       877 7.63740E+01 1.51775E+01 0.00000E+00
 -1       878 7.93740E+01 1.51775E+01 0.00000E+00
 -1       879 8.23740E+01 1.51775E+01 0.00000E+00
 -1       880 8.53740E+01 1.51775E+01 0.00000E+00
 -1       881 8.83740E+01 1.51775E+01 0.00000E+00
 -1       882 9.13740E+01 1.51775E+01 0.00000E+00
 -1       883 9.43740E+01 1.51775E+01 0.00000E+00
 -1       884 9.73740E+01 1.51775E+01 0.00000E+00
 -1       885 1.00374E+02 1.51775E+01 0.00000E+00
 -1       886 1.03374E+02 1.51775E+01 0.00000E+00
 -1       887 1.06374E+02 1.51775E+01 0.00000E+00
 -1       888 1.09374E+02 1.51775E+01 0.00000E+00
 -1       889 1.12374E+02 1.51775E+01 0.00000E+00
 -1       890 1.15374E+02 1.51775E+01 0.00000E+00
 -1       891 1.18374E+02 1.51775E+01 0.00000E+00
 -1       892 1.21374E+02 1.51775E+01 0.00000E+00
 -1       893 1.24374E+02 1.51775E+01 0.00000E+00
 -1       894 1.27374E+02 1.51775E+01 0.00000E+00
 -1       895 1.30374E+02 1.51775E+01 0.00000E+00
 -1       896 1.33374E+02 1.51775E+01 0.00000E+00
 -1       897 1.34412E+02 2.06031E+01 0.00000E+00
 -1       898 1.34571E+02 3.20325E+01 0.00000E+00
 -1       899 1.34412E+02 1.76656E+01 0.00000E+00
 -1       900 5.81433E+01 2.66215E+01 0.00000E+00
 -1       901 1.29900E+01 2.79188E+01 0.00000E+00
 -1       902 4.63740E+01 1.51775E+01 0.00000E+00
 -1       903 9.67500E+01 3.54300E+01 0.00000E+00
 -1       904 8.91341E+01 3.55617E+01 0.00000E+00
 -1       905 8.34855E+01 2.27823E+01 0.00000E+00
 -1       906 1.63980E+01 3.45397E+01 0.00000E+00
 -1       907 8.85455E+01 2.95485E+01 0.00000E+00
 -1       908 7.02607E+01 1.92635E+01 0.00000E+00
 -1       909 6.00825E+01 2.41578E+01 0.00000E+00
 -1       910 7.57470E+01 1.92008E+01 0.00000E+00
 -1       911 6.37792E+01 1.96326E+01 0.00000E+00
 -1       912 1.93740E+01 1.51775E+01 0.00000E+00
 -1       913 2.83740E+01 1.51775E+01 0.00000E+00
 -1       914 8.60417E+01 2.32680E+01 0.00000E+00
 -1       915 1.34412E+02 2.64875E+01 0.00000E+00
 -1       916 3.43740E+01 1.51775E+01 0.00000E+00
 -1       917 2.23740E+01 1.51775E+01 0.00000E+00
 -1       918 1.71240E+01 1.53473E+01 0.00000E+00
 -1       919 1.34412E+02 2.35406E+01 0.00000E+00
 -1       920 3.73740E+01 1.51775E+01 0.00000E+00
 -1       921 8.87285E+01 2.70190E+01 0.00000E+00
 -1       922 1.55880E+01 3.23250E+01 0.00000E+00
 -1       923 1.55880E+01 2.35000E+01 0.00000E+00
 -1       924 1.55880E+01 2.05625E+01 0.00000E+00
 -1       925 5.46124E+01 3.22939E+01 0.00000E+00
 -1       926 1.50570E+01 1.72174E+01 0.00000E+00
 -1       927 9.82500E+01 3.28320E+01 0.00000E+00
 -1       928 2.38980E+01 3.19417E+01 0.00000E+00
 -1       929 2.68980E+01 3.19417E+01 0.00000E+00
 -1       930 2.98980E+01 3.19417E+01 0.00000E+00
 -1       931 3.27480E+01 3.19417E+01 0.00000E+00
 -1       932 3.57480E+01 3.19417E+01 0.00000E+00
 -1       933 3.87480E+01 3.19417E+01 0.00000E+00
 -1       934 4.17480E+01 3.19417E+01 0.00000E+00
 -1       935 4.47480E+01 3.19417E+01 0.00000E+00
 -1       936 4.77480E+01 3.19417E+01 0.00000E+00
 -1       937 5.07480E+01 3.19417E+01 0.00000E+00
 -1       938 1.31412E+02 1.76656E+01 0.00000E+00
 -1       939 1.55880E+01 2.64438E+01 0.00000E+00
 -1       940 1.04100E+02 3.28320E+01 0.00000E+00
 -1       941 1.07100E+02 3.28320E+01 0.00000E+00
 -1       942 1.10100E+02 3.28320E+01 0.00000E+00
 -1       943 1.13100E+02 3.28320E+01 0.00000E+00
 -1       944 1.16100E+02 3.28320E+01 0.00000E+00
 -1       945 1.19100E+02 3.28320E+01 0.00000E+00
 -1       946 1.21950E+02 3.28320E+01 0.00000E+00
 -1       947 1.24950E+02 3.28320E+01 0.00000E+00
 -1       948 1.27950E+02 3.28320E+01 0.00000E+00
 -1       949 1.30950E+02 3.28320E+01 0.00000E+00
 -1       950 1.32760E+02 3.24322E+01 0.00000E+00
 -1       951 2.53740E+01 1.51775E+01 0.00000E+00
 -1       952 9.12369E+01 3.05810E+01 0.00000E+00
 -1       953 5.38740E+01 1.77755E+01 0.00000E+00
 -1       954 5.08740E+01 1.77755E+01 0.00000E+00
 -1       955 5.98740E+01 1.77755E+01 0.00000E+00
 -1       956 6.88740E+01 1.77755E+01 0.00000E+00
 -1       957 8.08740E+01 1.77755E+01 0.00000E+00
 -1       958 8.38740E+01 1.77755E+01 0.00000E+00
 -1       959 8.68740E+01 1.77755E+01 0.00000E+00
 -1       960 8.98740E+01 1.77755E+01 0.00000E+00
 -1       961 9.28740E+01 1.77755E+01 0.00000E+00
 -1       962 9.58740E+01 1.77755E+01 0.00000E+00
 -1       963 9.88740E+01 1.77755E+01 0.00000E+00
 -1       964 1.01874E+02 1.77755E+01 0.00000E+00
 -1       965 1.04874E+02 1.77755E+01 0.00000E+00
 -1       966 1.07874E+02 1.77755E+01 0.00000E+00
 -1       967 1.10874E+02 1.77755E+01 0.00000E+00
 -1       968 1.13874E+02 1.77755E+01 0.00000E+00
 -1       969 1.16874E+02 1.77755E+01 0.00000E+00
 -1       970 1.19874E+02 1.77755E+01 0.00000E+00
 -1       971 1.22874E+02 1.77755E+01 0.00000E+00
 -1       972 1.25874E+02 1.77755E+01 0.00000E+00
 -1       973 1.28643E+02 1.77206E+01 0.00000E+00
 -1       974 1.85880E+01 3.23250E+01 0.00000E+00
 -1       975 4.18740E+01 1.77755E+01 0.00000E+00
 -1       976 9.52500E+01 3.28320E+01 0.00000E+00
 -1       977 1.01175E+02 3.28320E+01 0.00000E+00
 -1       978 1.55880E+01 2.93875E+01 0.00000E+00
 -1       979 5.53019E+01 2.75661E+01 0.00000E+00
 -1       980 7.26288E+01 1.77109E+01 0.00000E+00
 -1       981 2.12430E+01 3.21334E+01 0.00000E+00
 -1       982 7.90470E+01 1.87974E+01 0.00000E+00
 -1       983 5.70714E+01 2.37829E+01 0.00000E+00
 -1       984 5.97623E+01 2.09716E+01 0.00000E+00
 -1       985 8.32484E+01 1.97293E+01 0.00000E+00
 -1       986 9.22665E+01 3.27663E+01 0.00000E+00
 -1       987 5.68740E+01 1.77755E+01 0.00000E+00
 -1       988 8.86656E+01 2.42791E+01 0.00000E+00
 -1       989 1.31814E+02 2.79562E+01 0.00000E+00
 -1       990 1.81860E+01 2.49719E+01 0.00000E+00
 -1       991 9.14199E+01 2.80515E+01 0.00000E+00
 -1       992 1.84445E+01 1.78530E+01 0.00000E+00
 -1       993 4.78740E+01 1.77755E+01 0.00000E+00
 -1       994 6.58740E+01 1.77755E+01 0.00000E+00
 -1       995 1.31814E+02 2.20719E+01 0.00000E+00
 -1       996 1.32287E+02 3.01942E+01 0.00000E+00
 -1       997 4.48740E+01 1.77755E+01 0.00000E+00
 -1       998 3.88740E+01 1.77755E+01 0.00000E+00
 -1       999 3.28740E+01 1.77755E+01 0.00000E+00
 -1      1000 2.14445E+01 1.78530E+01 0.00000E+00
 -1      1001 2.98740E+01 1.77755E+01 0.00000E+00
 -1      1002 1.81860E+01 2.20344E+01 0.00000E+00
 -1      1003 8.52486E+01 2.04728E+01 0.00000E+00
 -1      1004 2.83980E+01 2.93438E+01 0.00000E+00
 -1      1005 3.12480E+01 2.93438E+01 0.00000E+00
 -1      1006 3.42480E+01 2.93438E+01 0.00000E+00
 -1      1007 3.72480E+01 2.93438E+01 0.00000E+00
 -1      1008 4.02480E+01 2.93438E+01 0.00000E+00
 -1      1009 4.32480E+01 2.93438E+01 0.00000E+00
 -1      1010 4.62480E+01 2.93438E+01 0.00000E+00
 -1      1011 4.92480E+01 2.93438E+01 0.00000E+00
 -1      1012 1.05600E+02 3.02340E+01 0.00000E+00
 -1      1013 1.81860E+01 2.79156E+01 0.00000E+00
 -1      1014 5.65400E+01 2.05808E+01 0.00000E+00
 -1      1015 1.08600E+02 3.02340E+01 0.00000E+00
 -1      1016 1.11600E+02 3.02340E+01 0.00000E+00
 -1      1017 1.14600E+02 3.02340E+01 0.00000E+00
 -1      1018 1.17600E+02 3.02340E+01 0.00000E+00
 -1      1019 1.20450E+02 3.02340E+01 0.00000E+00
 -1      1020 1.23450E+02 3.02340E+01 0.00000E+00
 -1      1021 1.26450E+02 3.02340E+01 0.00000E+00
 -1      1022 5.23740E+01 2.03735E+01 0.00000E+00
 -1      1023 1.29045E+02 2.21268E+01 0.00000E+00
 -1      1024 1.31729E+02 2.43072E+01 0.00000E+00
 -1      1025 9.13740E+01 2.03735E+01 0.00000E+00
 -1      1026 9.43740E+01 2.03735E+01 0.00000E+00
 -1      1027 9.73740E+01 2.03735E+01 0.00000E+00
 -1      1028 1.00374E+02 2.03735E+01 0.00000E+00
 -1      1029 1.03374E+02 2.03735E+01 0.00000E+00
 -1      1030 1.06374E+02 2.03735E+01 0.00000E+00
 -1      1031 1.09374E+02 2.03735E+01 0.00000E+00
 -1      1032 1.12374E+02 2.03735E+01 0.00000E+00
 -1      1033 1.15374E+02 2.03735E+01 0.00000E+00
 -1      1034 1.18374E+02 2.03735E+01 0.00000E+00
 -1      1035 1.21374E+02 2.03735E+01 0.00000E+00
 -1      1036 1.24374E+02 2.03735E+01 0.00000E+00
 -1      1037 8.81445E+01 2.11612E+01 0.00000E+00
 -1      1038 5.22750E+01 2.84549E+01 0.00000E+00
 -1      1039 9.67500E+01 3.02340E+01 0.00000E+00
 -1      1040 3.58740E+01 1.77755E+01 0.00000E+00
 -1      1041 9.33350E+01 3.04418E+01 0.00000E+00
 -1      1042 2.53980E+01 2.93438E+01 0.00000E+00
 -1      1043 5.38333E+01 2.45738E+01 0.00000E+00
 -1      1044 2.07840E+01 2.64438E+01 0.00000E+00
 -1      1045 2.07840E+01 2.35063E+01 0.00000E+00
 -1      1046 9.96750E+01 3.02340E+01 0.00000E+00
 -1      1047 1.02675E+02 3.02340E+01 0.00000E+00
 -1      1048 2.27430E+01 2.95354E+01 0.00000E+00
 -1      1049 9.13570E+01 2.53116E+01 0.00000E+00
 -1      1050 2.44445E+01 1.78530E+01 0.00000E+00
 -1      1051 1.29450E+02 3.02340E+01 0.00000E+00
 -1      1052 4.93740E+01 2.03735E+01 0.00000E+00
 -1      1053 1.26710E+02 2.12502E+01 0.00000E+00
 -1      1054 2.10135E+01 2.92886E+01 0.00000E+00
 -1      1055 2.71592E+01 1.78143E+01 0.00000E+00
 -1      1056 4.03740E+01 2.03735E+01 0.00000E+00
 -1      1057 1.28829E+02 2.72242E+01 0.00000E+00
 -1      1058 3.43740E+01 2.03735E+01 0.00000E+00
 -1      1059 3.13740E+01 2.03735E+01 0.00000E+00
 -1      1060 4.33740E+01 2.03735E+01 0.00000E+00
 -1      1061 2.98230E+01 2.67458E+01 0.00000E+00
 -1      1062 3.28230E+01 2.67458E+01 0.00000E+00
 -1      1063 3.58230E+01 2.67458E+01 0.00000E+00
 -1      1064 3.88230E+01 2.67458E+01 0.00000E+00
 -1      1065 4.18230E+01 2.67458E+01 0.00000E+00
 -1      1066 4.48230E+01 2.67458E+01 0.00000E+00
 -1      1067 4.78230E+01 2.67458E+01 0.00000E+00
 -1      1068 2.68230E+01 2.67458E+01 0.00000E+00
 -1      1069 1.10100E+02 2.76360E+01 0.00000E+00
 -1      1070 1.13100E+02 2.76360E+01 0.00000E+00
 -1      1071 1.16100E+02 2.76360E+01 0.00000E+00
 -1      1072 1.18950E+02 2.76360E+01 0.00000E+00
 -1      1073 1.21950E+02 2.76360E+01 0.00000E+00
 -1      1074 1.24950E+02 2.76360E+01 0.00000E+00
 -1      1075 9.13655E+01 2.28426E+01 0.00000E+00
 -1      1076 5.06432E+01 2.55463E+01 0.00000E+00
 -1      1077 1.07100E+02 2.76360E+01 0.00000E+00
 -1      1078 9.44049E+01 2.76222E+01 0.00000E+00
 -1      1079 4.63740E+01 2.03735E+01 0.00000E+00
 -1      1080 9.88740E+01 2.29715E+01 0.00000E+00
 -1      1081 9.43655E+01 2.28426E+01 0.00000E+00
 -1      1082 1.01874E+02 2.29715E+01 0.00000E+00
 -1      1083 1.04874E+02 2.29715E+01 0.00000E+00
 -1      1084 1.07874E+02 2.29715E+01 0.00000E+00
 -1      1085 1.10874E+02 2.29715E+01 0.00000E+00
 -1      1086 1.13874E+02 2.29715E+01 0.00000E+00
 -1      1087 1.16874E+02 2.29715E+01 0.00000E+00
 -1      1088 1.19874E+02 2.29715E+01 0.00000E+00
 -1      1089 1.22874E+02 2.29715E+01 0.00000E+00
 -1      1090 2.26142E+01 2.06796E+01 0.00000E+00
 -1      1091 1.26342E+02 2.45657E+01 0.00000E+00
 -1      1092 3.73740E+01 2.03735E+01 0.00000E+00
 -1      1093 2.33820E+01 2.49750E+01 0.00000E+00
 -1      1094 9.82125E+01 2.76360E+01 0.00000E+00
 -1      1095 3.58740E+01 2.29715E+01 0.00000E+00
 -1      1096 5.06496E+01 2.33263E+01 0.00000E+00
 -1      1097 1.04175E+02 2.76360E+01 0.00000E+00
 -1      1098 2.86592E+01 2.04123E+01 0.00000E+00
 -1      1099 3.28740E+01 2.29715E+01 0.00000E+00
 -1      1100 4.18740E+01 2.29715E+01 0.00000E+00
 -1      1101 3.88740E+01 2.29715E+01 0.00000E+00
 -1      1102 1.01194E+02 2.76360E+01 0.00000E+00
 -1      1103 3.73230E+01 2.41478E+01 0.00000E+00
 -1      1104 4.63230E+01 2.41478E+01 0.00000E+00
 -1      1105 1.11600E+02 2.50380E+01 0.00000E+00
 -1      1106 9.44505E+01 2.43966E+01 0.00000E+00
 -1      1107 1.00374E+02 2.55695E+01 0.00000E+00
 -1      1108 4.84863E+01 2.37370E+01 0.00000E+00
 -1      1109 2.62913E+01 2.35503E+01 0.00000E+00
 -1      1110 2.59445E+01 2.04510E+01 0.00000E+00
 -1      1111 9.74979E+01 2.47249E+01 0.00000E+00
 -1      1112 2.93281E+01 2.32254E+01 0.00000E+00
 -1      1113 0.00000E+00 4.85250E+01 0.00000E+00
 -1      1114 0.00000E+00 4.55750E+01 0.00000E+00
 -1      1115 0.00000E+00 4.26250E+01 0.00000E+00
 -1      1116 0.00000E+00 3.96750E+01 0.00000E+00
 -1      1117 0.00000E+00 3.67250E+01 0.00000E+00
 -1      1118 0.00000E+00 3.38000E+01 0.00000E+00
 -1      1119 0.00000E+00 3.08750E+01 0.00000E+00
 -1      1120 0.00000E+00 2.79250E+01 0.00000E+00
 -1      1121 0.00000E+00 2.49750E+01 0.00000E+00
 -1      1122 0.00000E+00 2.20250E+01 0.00000E+00
 -1      1123 0.00000E+00 1.90750E+01 0.00000E+00
 -1      1124 0.00000E+00 1.61500E+01 0.00000E+00
 -1      1125 0.00000E+00 1.32250E+01 0.00000E+00
 -1      1126 0.00000E+00 1.02750E+01 0.00000E+00
 -1      1127 0.00000E+00 7.32500E+00 0.00000E+00
 -1      1128 0.00000E+00 4.37500E+00 0.00000E+00
 -1      1129 0.00000E+00 1.45000E+00 0.00000E+00
 -1      1130 1.50000E+00 5.00000E+01 0.00000E+00
 -1      1131 4.50000E+00 5.00000E+01 0.00000E+00
 -1      1132 7.50000E+00 5.00000E+01 0.00000E+00
 -1      1133 1.05000E+01 5.00000E+01 0.00000E+00
 -1      1134 1.35000E+01 5.00000E+01 0.00000E+00
 -1      1135 1.65000E+01 5.00000E+01 0.00000E+00
 -1      1136 1.94250E+01 5.00000E+01 0.00000E+00
 -1      1137 2.23500E+01 5.00000E+01 0.00000E+00
 -1      1138 2.53500E+01 5.00000E+01 0.00000E+00
 -1      1139 2.83500E+01 5.00000E+01 0.00000E+00
 -1      1140 3.13500E+01 5.00000E+01 0.00000E+00
 -1      1141 3.43500E+01 5.00000E+01 0.00000E+00
 -1      1142 3.73500E+01 5.00000E+01 0.00000E+00
 -1      1143 4.02750E+01 5.00000E+01 0.00000E+00
 -1      1144 4.32000E+01 5.00000E+01 0.00000E+00
 -1      1145 4.62000E+01 5.00000E+01 0.00000E+00
 -1      1146 4.92000E+01 5.00000E+01 0.00000E+00
 -1      1147 5.22000E+01 5.00000E+01 0.00000E+00
 -1      1148 5.52000E+01 5.00000E+01 0.00000E+00
 -1      1149 5.82000E+01 5.00000E+01 0.00000E+00
 -1      1150 6.11250E+01 5.00000E+01 0.00000E+00
 -1      1151 6.40500E+01 5.00000E+01 0.00000E+00
 -1      1152 6.69000E+01 5.00000E+01 0.00000E+00
 -1      1153 6.96000E+01 5.00000E+01 0.00000E+00
 -1      1154 7.21500E+01 5.00000E+01 0.00000E+00
 -1      1155 7.47750E+01 5.00000E+01 0.00000E+00
 -1      1156 7.74750E+01 5.00000E+01 0.00000E+00
 -1      1157 8.01750E+01 5.00000E+01 0.00000E+00
 -1      1158 8.31000E+01 5.00000E+01 0.00000E+00
 -1      1159 8.61000E+01 5.00000E+01 0.00000E+00
 -1      1160 8.90250E+01 5.00000E+01 0.00000E+00
 -1      1161 9.19500E+01 5.00000E+01 0.00000E+00
 -1      1162 9.49500E+01 5.00000E+01 0.00000E+00
 -1      1163 9.79500E+01 5.00000E+01 0.00000E+00
 -1      1164 1.00950E+02 5.00000E+01 0.00000E+00
 -1      1165 1.03950E+02 5.00000E+01 0.00000E+00
 -1      1166 1.06950E+02 5.00000E+01 0.00000E+00
 -1      1167 1.09875E+02 5.00000E+01 0.00000E+00
 -1      1168 1.12800E+02 5.00000E+01 0.00000E+00
 -1      1169 1.15800E+02 5.00000E+01 0.00000E+00
 -1      1170 1.18800E+02 5.00000E+01 0.00000E+00
 -1      1171 1.21800E+02 5.00000E+01 0.00000E+00
 -1      1172 1.24800E+02 5.00000E+01 0.00000E+00
 -1      1173 1.27800E+02 5.00000E+01 0.00000E+00
 -1      1174 1.30725E+02 5.00000E+01 0.00000E+00
 -1      1175 1.33650E+02 5.00000E+01 0.00000E+00
 -1      1176 1.36650E+02 5.00000E+01 0.00000E+00
 -1      1177 1.39650E+02 5.00000E+01 0.00000E+00
 -1      1178 1.42650E+02 5.00000E+01 0.00000E+00
 -1      1179 1.45650E+02 5.00000E+01 0.00000E+00
 -1      1180 1.48575E+02 5.00000E+01 0.00000E+00
 -1      1181 1.57500E+00 0.00000E+00 0.00000E+00
 -1      1182 4.65000E+00 0.00000E+00 0.00000E+00
 -1      1183 7.65000E+00 0.00000E+00 0.00000E+00
 -1      1184 1.06500E+01 0.00000E+00 0.00000E+00
 -1      1185 1.36500E+01 0.00000E+00 0.00000E+00
 -1      1186 1.66500E+01 0.00000E+00 0.00000E+00
 -1      1187 1.96500E+01 0.00000E+00 0.00000E+00
 -1      1188 2.26500E+01 0.00000E+00 0.00000E+00
 -1      1189 2.56500E+01 0.00000E+00 0.00000E+00
 -1      1190 2.86500E+01 0.00000E+00 0.00000E+00
 -1      1191 3.16500E+01 0.00000E+00 0.00000E+00
 -1      1192 3.46500E+01 0.00000E+00 0.00000E+00
 -1      1193 3.76500E+01 0.00000E+00 0.00000E+00
 -1      1194 4.06500E+01 0.00000E+00 0.00000E+00
 -1      1195 4.36500E+01 0.00000E+00 0.00000E+00
 -1      1196 4.66500E+01 0.00000E+00 0.00000E+00
 -1      1197 4.96500E+01 0.00000E+00 0.00000E+00
 -1      1198 5.26500E+01 0.00000E+00 0.00000E+00
 -1      1199 5.56500E+01 0.00000E+00 0.00000E+00
 -1      1200 5.86500E+01 0.00000E+00 0.00000E+00
 -1      1201 6.16500E+01 0.00000E+00 0.00000E+00
 -1      1202 6.46500E+01 0.00000E+00 0.00000E+00
 -1      1203 6.76500E+01 0.00000E+00 0.00000E+00
 -1      1204 7.06500E+01 0.00000E+00 0.00000E+00
 -1      1205 7.36500E+01 0.00000E+00 0.00000E+00
 -1      1206 7.66500E+01 0.00000E+00 0.00000E+00
 -1      1207 7.96500E+01 0.00000E+00 0.00000E+00
 -1      1208 8.26500E+01 0.00000E+00 0.00000E+00
 -1      1209 8.56500E+01 0.00000E+00 0.00000E+00
 -1      1210 8.86500E+01 0.00000E+00 0.00000E+00
 -1      1211 9.16500E+01 0.00000E+00 0.00000E+00
 -1      1212 9.46500E+01 0.00000E+00 0.00000E+00
 -1      1213 9.76500E+01 0.00000E+00 0.00000E+00
 -1      1214 1.00650E+02 0.00000E+00 0.00000E+00
 -1      1215 1.03650E+02 0.00000E+00 0.00000E+00
 -1      1216 1.06650E+02 0.00000E+00 0.00000E+00
 -1      1217 1.09650E+02 0.00000E+00 0.00000E+00
 -1      1218 1.12650E+02 0.00000E+00 0.00000E+00
 -1      1219 1.15650E+02 0.00000E+00 0.00000E+00
 -1      1220 1.18650E+02 0.00000E+00 0.00000E+00
 -1      1221 1.21650E+02 0.00000E+00 0.00000E+00
 -1      1222 1.24650E+02 0.00000E+00 0.00000E+00
 -1      1223 1.27650E+02 0.00000E+00 0.00000E+00
 -1      1224 1.30650E+02 0.00000E+00 0.00000E+00
 -1      1225 1.33650E+02 0.00000E+00 0.00000E+00
 -1      1226 1.36650E+02 0.00000E+00 0.00000E+00
 -1      1227 1.39650E+02 0.00000E+00 0.00000E+00
 -1      1228 1.42650E+02 0.00000E+00 0.00000E+00
 -1      1229 1.45650E+02 0.00000E+00 0.00000E+00
 -1      1230 1.48575E+02 0.00000E+00 0.00000E+00
 -1      1231 1.50000E+02 1.47500E+00 0.00000E+00
 -1      1232 1.50000E+02 4.42500E+00 0.00000E+00
 -1      1233 1.50000E+02 7.37500E+00 0.00000E+00
 -1      1234 1.50000E+02 1.03250E+01 0.00000E+00
 -1      1235 1.50000E+02 1.32750E+01 0.00000E+00
 -1      1236 1.50000E+02 1.62000E+01 0.00000E+00
 -1      1237 1.50000E+02 1.91250E+01 0.00000E+00
 -1      1238 1.50000E+02 2.20750E+01 0.00000E+00
 -1      1239 1.50000E+02 2.50250E+01 0.00000E+00
 -1      1240 1.50000E+02 2.79750E+01 0.00000E+00
 -1      1241 1.50000E+02 3.09250E+01 0.00000E+00
 -1      1242 1.50000E+02 3.38500E+01 0.00000E+00
 -1      1243 1.50000E+02 3.67750E+01 0.00000E+00
 -1      1244 1.50000E+02 3.97250E+01 0.00000E+00
 -1      1245 1.50000E+02 4.26750E+01 0.00000E+00
 -1      1246 1.50000E+02 4.56250E+01 0.00000E+00
 -1      1247 1.50000E+02 4.85500E+01 0.00000E+00
 -1      1248 7.95602E+01 3.54345E+01 0.00000E+00
 -1      1249 7.92393E+01 3.39827E+01 0.00000E+00
 -1      1250 7.86371E+01 3.26620E+01 0.00000E+00
 -1      1251 7.77221E+01 3.14361E+01 0.00000E+00
 -1      1252 7.65841E+01 3.04529E+01 0.00000E+00
 -1      1253 7.52825E+01 2.97438E+01 0.00000E+00
 -1      1254 7.38247E+01 2.93182E+01 0.00000E+00
 -1      1255 7.23332E+01 2.92161E+01 0.00000E+00
 -1      1256 7.08471E+01 2.94347E+01 0.00000E+00
 -1      1257 6.94369E+01 2.99680E+01 0.00000E+00
 -1      1258 6.81845E+01 3.07818E+01 0.00000E+00
 -1      1259 6.71478E+01 3.18249E+01 0.00000E+00
 -1      1260 6.63647E+01 3.30361E+01 0.00000E+00
 -1      1261 6.58413E+01 3.44014E+01 0.00000E+00
 -1      1262 6.56127E+01 3.58495E+01 0.00000E+00
 -1      1263 6.56984E+01 3.73602E+01 0.00000E+00
 -1      1264 6.61056E+01 3.88145E+01 0.00000E+00
 -1      1265 6.68013E+01 4.01269E+01 0.00000E+00
 -1      1266 6.77636E+01 4.12682E+01 0.00000E+00
 -1      1267 6.89115E+01 4.21581E+01 0.00000E+00
 -1      1268 7.02167E+01 4.27914E+01 0.00000E+00
 -1      1269 7.15957E+01 4.31379E+01 0.00000E+00
 -1      1270 7.30351E+01 4.31975E+01 0.00000E+00
 -1      1271 7.44339E+01 4.29672E+01 0.00000E+00
 -1      1272 7.57509E+01 4.24633E+01 0.00000E+00
 -1      1273 7.69522E+01 4.16961E+01 0.00000E+00
 -1      1274 7.79557E+01 4.07222E+01 0.00000E+00
 -1      1275 7.87568E+01 3.95478E+01 0.00000E+00
 -1      1276 7.92985E+01 3.82541E+01 0.00000E+00
 -1      1277 7.95692E+01 3.69019E+01 0.00000E+00
 -1      1278 1.50000E+00 4.85250E+01 0.00000E+00
 -1      1279 1.29900E+00 4.48375E+01 0.00000E+00
 -1      1280 1.29900E+00 4.63125E+01 0.00000E+00
 -1      1281 1.29900E+00 4.18875E+01 0.00000E+00
 -1      1282 1.29900E+00 4.33625E+01 0.00000E+00
 -1      1283 2.59800E+00 4.41000E+01 0.00000E+00
 -1      1284 1.29900E+00 3.89375E+01 0.00000E+00
 -1      1285 1.29900E+00 4.04125E+01 0.00000E+00
 -1      1286 2.59800E+00 4.11500E+01 0.00000E+00
 -1      1287 1.29900E+00 3.59875E+01 0.00000E+00
 -1      1288 1.29900E+00 3.74625E+01 0.00000E+00
 -1      1289 2.59800E+00 3.82000E+01 0.00000E+00
 -1      1290 1.29900E+00 3.30875E+01 0.00000E+00
 -1      1291 1.29900E+00 3.45375E+01 0.00000E+00
 -1      1292 2.59800E+00 3.52750E+01 0.00000E+00
 -1      1293 1.29900E+00 3.01375E+01 0.00000E+00
 -1      1294 1.29900E+00 3.16125E+01 0.00000E+00
 -1      1295 2.59800E+00 3.23500E+01 0.00000E+00
 -1      1296 1.29900E+00 2.71875E+01 0.00000E+00
 -1      1297 1.29900E+00 2.86625E+01 0.00000E+00
 -1      1298 2.59800E+00 2.94000E+01 0.00000E+00
 -1      1299 1.29900E+00 2.42375E+01 0.00000E+00
 -1      1300 1.29900E+00 2.57125E+01 0.00000E+00
 -1      1301 2.59800E+00 2.64500E+01 0.00000E+00
 -1      1302 1.29900E+00 2.12875E+01 0.00000E+00
 -1      1303 1.29900E+00 2.27625E+01 0.00000E+00
 -1      1304 2.59800E+00 2.35000E+01 0.00000E+00
 -1      1305 1.29900E+00 1.83375E+01 0.00000E+00
 -1      1306 1.29900E+00 1.98125E+01 0.00000E+00
 -1      1307 2.59800E+00 2.05500E+01 0.00000E+00
 -1      1308 1.29900E+00 1.54375E+01 0.00000E+00
 -1      1309 1.29900E+00 1.68875E+01 0.00000E+00
 -1      1310 2.59800E+00 1.76250E+01 0.00000E+00
 -1      1311 1.29900E+00 1.24875E+01 0.00000E+00
 -1      1312 1.29900E+00 1.39625E+01 0.00000E+00
 -1      1313 2.59800E+00 1.47000E+01 0.00000E+00
 -1      1314 1.29900E+00 9.53750E+00 0.00000E+00
 -1      1315 1.29900E+00 1.10125E+01 0.00000E+00
 -1      1316 2.59800E+00 1.17500E+01 0.00000E+00
 -1      1317 1.29900E+00 6.58750E+00 0.00000E+00
 -1      1318 1.29900E+00 8.06250E+00 0.00000E+00
 -1      1319 2.59800E+00 8.80000E+00 0.00000E+00
 -1      1320 1.29900E+00 3.63750E+00 0.00000E+00
 -1      1321 1.29900E+00 5.11250E+00 0.00000E+00
 -1      1322 2.59800E+00 5.85000E+00 0.00000E+00
 -1      1323 1.43700E+00 1.09375E+00 0.00000E+00
 -1      1324 1.43700E+00 2.54375E+00 0.00000E+00
 -1      1325 2.73600E+00 3.28125E+00 0.00000E+00
 -1      1326 3.01200E+00 1.09375E+00 0.00000E+00
 -1      1327 3.75000E+00 4.87010E+01 0.00000E+00
 -1      1328 5.25000E+00 4.87010E+01 0.00000E+00
 -1      1329 6.75000E+00 4.87010E+01 0.00000E+00
 -1      1330 8.25000E+00 4.87010E+01 0.00000E+00
 -1      1331 6.00000E+00 4.74020E+01 0.00000E+00
 -1      1332 9.75000E+00 4.87010E+01 0.00000E+00
 -1      1333 1.12500E+01 4.87010E+01 0.00000E+00
 -1      1334 9.00000E+00 4.74020E+01 0.00000E+00
 -1      1335 1.27500E+01 4.87010E+01 0.00000E+00
 -1      1336 1.42500E+01 4.87010E+01 0.00000E+00
 -1      1337 1.20000E+01 4.74020E+01 0.00000E+00
 -1      1338 1.57500E+01 4.87010E+01 0.00000E+00
 -1      1339 1.72500E+01 4.87010E+01 0.00000E+00
 -1      1340 1.50000E+01 4.74020E+01 0.00000E+00
 -1      1341 1.86750E+01 4.87010E+01 0.00000E+00
 -1      1342 2.01000E+01 4.87010E+01 0.00000E+00
 -1      1343 1.79250E+01 4.74020E+01 0.00000E+00
 -1      1344 2.16000E+01 4.87010E+01 0.00000E+00
 -1      1345 2.31000E+01 4.87010E+01 0.00000E+00
 -1      1346 2.08500E+01 4.74020E+01 0.00000E+00
 -1      1347 2.46000E+01 4.87010E+01 0.00000E+00
 -1      1348 2.61000E+01 4.87010E+01 0.00000E+00
 -1      1349 2.38500E+01 4.74020E+01 0.00000E+00
 -1      1350 2.76000E+01 4.87010E+01 0.00000E+00
 -1      1351 2.91000E+01 4.87010E+01 0.00000E+00
 -1      1352 2.68500E+01 4.74020E+01 0.00000E+00
 -1      1353 3.06000E+01 4.87010E+01 0.00000E+00
 -1      1354 3.21000E+01 4.87010E+01 0.00000E+00
 -1      1355 2.98500E+01 4.74020E+01 0.00000E+00
 -1      1356 3.36000E+01 4.87010E+01 0.00000E+00
 -1      1357 3.51000E+01 4.87010E+01 0.00000E+00
 -1      1358 3.28500E+01 4.74020E+01 0.00000E+00
 -1      1359 3.66000E+01 4.87010E+01 0.00000E+00
 -1      1360 3.81000E+01 4.87010E+01 0.00000E+00
 -1      1361 3.58500E+01 4.74020E+01 0.00000E+00
 -1      1362 3.95250E+01 4.87010E+01 0.00000E+00
 -1      1363 4.09500E+01 4.87010E+01 0.00000E+00
 -1      1364 3.87750E+01 4.74020E+01 0.00000E+00
 -1      1365 4.24500E+01 4.87010E+01 0.00000E+00
 -1      1366 4.39500E+01 4.87010E+01 0.00000E+00
 -1      1367 4.17000E+01 4.74020E+01 0.00000E+00
 -1      1368 4.54500E+01 4.87010E+01 0.00000E+00
 -1      1369 4.69500E+01 4.87010E+01 0.00000E+00
 -1      1370 4.47000E+01 4.74020E+01 0.00000E+00
 -1      1371 4.84500E+01 4.87010E+01 0.00000E+00
 -1      1372 4.99500E+01 4.87010E+01 0.00000E+00
 -1      1373 4.77000E+01 4.74020E+01 0.00000E+00
 -1      1374 5.14500E+01 4.87010E+01 0.00000E+00
 -1      1375 5.29500E+01 4.87010E+01 0.00000E+00
 -1      1376 5.07000E+01 4.74020E+01 0.00000E+00
 -1      1377 5.44500E+01 4.87010E+01 0.00000E+00
 -1      1378 5.59500E+01 4.87010E+01 0.00000E+00
 -1      1379 5.37000E+01 4.74020E+01 0.00000E+00
 -1      1380 5.74500E+01 4.87010E+01 0.00000E+00
 -1      1381 5.89500E+01 4.87010E+01 0.00000E+00
 -1      1382 5.67000E+01 4.74020E+01 0.00000E+00
 -1      1383 6.03750E+01 4.87010E+01 0.00000E+00
 -1      1384 6.18000E+01 4.87010E+01 0.00000E+00
 -1      1385 5.96250E+01 4.74020E+01 0.00000E+00
 -1      1386 6.33000E+01 4.87010E+01 0.00000E+00
 -1      1387 6.48000E+01 4.87010E+01 0.00000E+00
 -1      1388 6.25500E+01 4.74020E+01 0.00000E+00
 -1      1389 6.61500E+01 4.87010E+01 0.00000E+00
 -1      1390 6.75000E+01 4.87010E+01 0.00000E+00
 -1      1391 6.54000E+01 4.74020E+01 0.00000E+00
 -1      1392 6.88500E+01 4.87010E+01 0.00000E+00
 -1      1393 7.02000E+01 4.87010E+01 0.00000E+00
 -1      1394 6.81000E+01 4.74020E+01 0.00000E+00
 -1      1395 7.14000E+01 4.87010E+01 0.00000E+00
 -1      1396 7.26000E+01 4.87010E+01 0.00000E+00
 -1      1397 7.06500E+01 4.74020E+01 0.00000E+00
 -1      1398 7.68375E+01 4.88911E+01 0.00000E+00
 -1      1399 7.81125E+01 4.88911E+01 0.00000E+00
 -1      1400 7.95375E+01 4.88911E+01 0.00000E+00
 -1      1401 8.09625E+01 4.88911E+01 0.00000E+00
 -1      1402 7.89000E+01 4.77822E+01 0.00000E+00
 -1      1403 8.24625E+01 4.88911E+01 0.00000E+00
 -1      1404 8.39625E+01 4.88911E+01 0.00000E+00
 -1      1405 8.18250E+01 4.77822E+01 0.00000E+00
 -1      1406 8.54625E+01 4.88911E+01 0.00000E+00
 -1      1407 8.69625E+01 4.88911E+01 0.00000E+00
 -1      1408 8.48250E+01 4.77822E+01 0.00000E+00
 -1      1409 8.83875E+01 4.88911E+01 0.00000E+00
 -1      1410 8.98125E+01 4.88911E+01 0.00000E+00
 -1      1411 8.77500E+01 4.77822E+01 0.00000E+00
 -1      1412 9.13125E+01 4.88911E+01 0.00000E+00
 -1      1413 9.28125E+01 4.88911E+01 0.00000E+00
 -1      1414 9.06750E+01 4.77822E+01 0.00000E+00
 -1      1415 9.43125E+01 4.88911E+01 0.00000E+00
 -1      1416 9.58125E+01 4.88911E+01 0.00000E+00
 -1      1417 9.36750E+01 4.77822E+01 0.00000E+00
 -1      1418 9.73125E+01 4.88911E+01 0.00000E+00
 -1      1419 9.88125E+01 4.88911E+01 0.00000E+00
 -1      1420 9.66750E+01 4.77822E+01 0.00000E+00
 -1      1421 1.00313E+02 4.88911E+01 0.00000E+00
 -1      1422 1.01813E+02 4.88911E+01 0.00000E+00
 -1      1423 9.96750E+01 4.77822E+01 0.00000E+00
 -1      1424 1.03313E+02 4.88911E+01 0.00000E+00
 -1      1425 1.04813E+02 4.88911E+01 0.00000E+00
 -1      1426 1.02675E+02 4.77822E+01 0.00000E+00
 -1      1427 1.06313E+02 4.88911E+01 0.00000E+00
 -1      1428 1.07813E+02 4.88911E+01 0.00000E+00
 -1      1429 1.05675E+02 4.77822E+01 0.00000E+00
 -1      1430 1.09238E+02 4.88911E+01 0.00000E+00
 -1      1431 1.10662E+02 4.88911E+01 0.00000E+00
 -1      1432 1.08600E+02 4.77822E+01 0.00000E+00
 -1      1433 1.12162E+02 4.88911E+01 0.00000E+00
 -1      1434 1.13662E+02 4.88911E+01 0.00000E+00
 -1      1435 1.11525E+02 4.77822E+01 0.00000E+00
 -1      1436 1.15162E+02 4.88911E+01 0.00000E+00
 -1      1437 1.16662E+02 4.88911E+01 0.00000E+00
 -1      1438 1.14525E+02 4.77822E+01 0.00000E+00
 -1      1439 1.18162E+02 4.88911E+01 0.00000E+00
 -1      1440 1.19662E+02 4.88911E+01 0.00000E+00
 -1      1441 1.17525E+02 4.77822E+01 0.00000E+00
 -1      1442 1.21162E+02 4.88911E+01 0.00000E+00
 -1      1443 1.22662E+02 4.88911E+01 0.00000E+00
 -1      1444 1.20525E+02 4.77822E+01 0.00000E+00
 -1      1445 1.24162E+02 4.88911E+01 0.00000E+00
 -1      1446 1.25662E+02 4.88911E+01 0.00000E+00
 -1      1447 1.23525E+02 4.77822E+01 0.00000E+00
 -1      1448 1.27162E+02 4.88911E+01 0.00000E+00
 -1      1449 1.28663E+02 4.88911E+01 0.00000E+00
 -1      1450 1.26525E+02 4.77822E+01 0.00000E+00
 -1      1451 1.30087E+02 4.88911E+01 0.00000E+00
 -1      1452 1.31512E+02 4.88911E+01 0.00000E+00
 -1      1453 1.29450E+02 4.77822E+01 0.00000E+00
 -1      1454 1.33012E+02 4.88911E+01 0.00000E+00
 -1      1455 1.34512E+02 4.88911E+01 0.00000E+00
 -1      1456 1.32375E+02 4.77822E+01 0.00000E+00
 -1      1457 1.36012E+02 4.88911E+01 0.00000E+00
 -1      1458 1.37512E+02 4.88911E+01 0.00000E+00
 -1      1459 1.35375E+02 4.77822E+01 0.00000E+00
 -1      1460 1.39012E+02 4.88911E+01 0.00000E+00
 -1      1461 1.40512E+02 4.88911E+01 0.00000E+00
 -1      1462 1.38375E+02 4.77822E+01 0.00000E+00
 -1      1463 1.42012E+02 4.88911E+01 0.00000E+00
 -1      1464 1.43512E+02 4.88911E+01 0.00000E+00
 -1      1465 1.41375E+02 4.77822E+01 0.00000E+00
 -1      1466 1.45012E+02 4.88911E+01 0.00000E+00
 -1      1467 1.46512E+02 4.88911E+01 0.00000E+00
 -1      1468 1.44375E+02 4.77822E+01 0.00000E+00
 -1      1469 1.47544E+02 4.87205E+01 0.00000E+00
 -1      1470 1.48969E+02 4.87205E+01 0.00000E+00
 -1      1471 1.48969E+02 4.72705E+01 0.00000E+00
 -1      1472 1.46906E+02 4.76116E+01 0.00000E+00
 -1      1473 6.01200E+00 1.09375E+00 0.00000E+00
 -1      1474 4.51200E+00 1.09375E+00 0.00000E+00
 -1      1475 4.37400E+00 2.18750E+00 0.00000E+00
 -1      1476 9.01200E+00 1.09375E+00 0.00000E+00
 -1      1477 7.51200E+00 1.09375E+00 0.00000E+00
 -1      1478 7.37400E+00 2.18750E+00 0.00000E+00
 -1      1479 1.20120E+01 1.09375E+00 0.00000E+00
 -1      1480 1.05120E+01 1.09375E+00 0.00000E+00
 -1      1481 1.03740E+01 2.18750E+00 0.00000E+00
 -1      1482 1.50120E+01 1.09375E+00 0.00000E+00
 -1      1483 1.35120E+01 1.09375E+00 0.00000E+00
 -1      1484 1.33740E+01 2.18750E+00 0.00000E+00
 -1      1485 1.80120E+01 1.09375E+00 0.00000E+00
 -1      1486 1.65120E+01 1.09375E+00 0.00000E+00
 -1      1487 1.63740E+01 2.18750E+00 0.00000E+00
 -1      1488 2.10120E+01 1.09375E+00 0.00000E+00
 -1      1489 1.95120E+01 1.09375E+00 0.00000E+00
 -1      1490 1.93740E+01 2.18750E+00 0.00000E+00
 -1      1491 2.40120E+01 1.09375E+00 0.00000E+00
 -1      1492 2.25120E+01 1.09375E+00 0.00000E+00
 -1      1493 2.23740E+01 2.18750E+00 0.00000E+00
 -1      1494 2.70120E+01 1.09375E+00 0.00000E+00
 -1      1495 2.55120E+01 1.09375E+00 0.00000E+00
 -1      1496 2.53740E+01 2.18750E+00 0.00000E+00
 -1      1497 3.00120E+01 1.09375E+00 0.00000E+00
 -1      1498 2.85120E+01 1.09375E+00 0.00000E+00
 -1      1499 2.83740E+01 2.18750E+00 0.00000E+00
 -1      1500 3.30120E+01 1.09375E+00 0.00000E+00
 -1      1501 3.15120E+01 1.09375E+00 0.00000E+00
 -1      1502 3.13740E+01 2.18750E+00 0.00000E+00
 -1      1503 3.60120E+01 1.09375E+00 0.00000E+00
 -1      1504 3.45120E+01 1.09375E+00 0.00000E+00
 -1      1505 3.43740E+01 2.18750E+00 0.00000E+00
 -1      1506 3.90120E+01 1.09375E+00 0.00000E+00
 -1      1507 3.75120E+01 1.09375E+00 0.00000E+00
 -1      1508 3.73740E+01 2.18750E+00 0.00000E+00
 -1      1509 4.20120E+01 1.09375E+00 0.00000E+00
 -1      1510 4.05120E+01 1.09375E+00 0.00000E+00
 -1      1511 4.03740E+01 2.18750E+00 0.00000E+00
 -1      1512 4.50120E+01 1.09375E+00 0.00000E+00
 -1      1513 4.35120E+01 1.09375E+00 0.00000E+00
 -1      1514 4.33740E+01 2.18750E+00 0.00000E+00
 -1      1515 4.80120E+01 1.09375E+00 0.00000E+00
 -1      1516 4.65120E+01 1.09375E+00 0.00000E+00
 -1      1517 4.63740E+01 2.18750E+00 0.00000E+00
 -1      1518 5.10120E+01 1.09375E+00 0.00000E+00
 -1      1519 4.95120E+01 1.09375E+00 0.00000E+00
 -1      1520 4.93740E+01 2.18750E+00 0.00000E+00
 -1      1521 5.40120E+01 1.09375E+00 0.00000E+00
 -1      1522 5.25120E+01 1.09375E+00 0.00000E+00
 -1      1523 5.23740E+01 2.18750E+00 0.00000E+00
 -1      1524 5.70120E+01 1.09375E+00 0.00000E+00
 -1      1525 5.55120E+01 1.09375E+00 0.00000E+00
 -1      1526 5.53740E+01 2.18750E+00 0.00000E+00
 -1      1527 6.00120E+01 1.09375E+00 0.00000E+00
 -1      1528 5.85120E+01 1.09375E+00 0.00000E+00
 -1      1529 5.83740E+01 2.18750E+00 0.00000E+00
 -1      1530 6.30120E+01 1.09375E+00 0.00000E+00
 -1      1531 6.15120E+01 1.09375E+00 0.00000E+00
 -1      1532 6.13740E+01 2.18750E+00 0.00000E+00
 -1      1533 6.60120E+01 1.09375E+00 0.00000E+00
 -1      1534 6.45120E+01 1.09375E+00 0.00000E+00
 -1      1535 6.43740E+01 2.18750E+00 0.00000E+00
 -1      1536 6.90120E+01 1.09375E+00 0.00000E+00
 -1      1537 6.75120E+01 1.09375E+00 0.00000E+00
 -1      1538 6.73740E+01 2.18750E+00 0.00000E+00
 -1      1539 7.20120E+01 1.09375E+00 0.00000E+00
 -1      1540 7.05120E+01 1.09375E+00 0.00000E+00
 -1      1541 7.03740E+01 2.18750E+00 0.00000E+00
 -1      1542 7.50120E+01 1.09375E+00 0.00000E+00
 -1      1543 7.35120E+01 1.09375E+00 0.00000E+00
 -1      1544 7.33740E+01 2.18750E+00 0.00000E+00
 -1      1545 7.80120E+01 1.09375E+00 0.00000E+00
 -1      1546 7.65120E+01 1.09375E+00 0.00000E+00
 -1      1547 7.63740E+01 2.18750E+00 0.00000E+00
 -1      1548 8.10120E+01 1.09375E+00 0.00000E+00
 -1      1549 7.95120E+01 1.09375E+00 0.00000E+00
 -1      1550 7.93740E+01 2.18750E+00 0.00000E+00
 -1      1551 8.40120E+01 1.09375E+00 0.00000E+00
 -1      1552 8.25120E+01 1.09375E+00 0.00000E+00
 -1      1553 8.23740E+01 2.18750E+00 0.00000E+00
 -1      1554 8.70120E+01 1.09375E+00 0.00000E+00
 -1      1555 8.55120E+01 1.09375E+00 0.00000E+00
 -1      1556 8.53740E+01 2.18750E+00 0.00000E+00
 -1      1557 9.00120E+01 1.09375E+00 0.00000E+00
 -1      1558 8.85120E+01 1.09375E+00 0.00000E+00
 -1      1559 8.83740E+01 2.18750E+00 0.00000E+00
 -1      1560 9.30120E+01 1.09375E+00 0.00000E+00
 -1      1561 9.15120E+01 1.09375E+00 0.00000E+00
 -1      1562 9.13740E+01 2.18750E+00 0.00000E+00
 -1      1563 9.60120E+01 1.09375E+00 0.00000E+00
 -1      1564 9.45120E+01 1.09375E+00 0.00000E+00
 -1      1565 9.43740E+01 2.18750E+00 0.00000E+00
 -1      1566 9.90120E+01 1.09375E+00 0.00000E+00
 -1      1567 9.75120E+01 1.09375E+00 0.00000E+00
 -1      1568 9.73740E+01 2.18750E+00 0.00000E+00
 -1      1569 1.02012E+02 1.09375E+00 0.00000E+00
 -1      1570 1.00512E+02 1.09375E+00 0.00000E+00
 -1      1571 1.00374E+02 2.18750E+00 0.00000E+00
 -1      1572 1.05012E+02 1.09375E+00 0.00000E+00
 -1      1573 1.03512E+02 1.09375E+00 0.00000E+00
 -1      1574 1.03374E+02 2.18750E+00 0.00000E+00
 -1      1575 1.08012E+02 1.09375E+00 0.00000E+00
 -1      1576 1.06512E+02 1.09375E+00 0.00000E+00
 -1      1577 1.06374E+02 2.18750E+00 0.00000E+00
 -1      1578 1.11012E+02 1.09375E+00 0.00000E+00
 -1      1579 1.09512E+02 1.09375E+00 0.00000E+00
 -1      1580 1.09374E+02 2.18750E+00 0.00000E+00
 -1      1581 1.14012E+02 1.09375E+00 0.00000E+00
 -1      1582 1.12512E+02 1.09375E+00 0.00000E+00
 -1      1583 1.12374E+02 2.18750E+00 0.00000E+00
 -1      1584 1.17012E+02 1.09375E+00 0.00000E+00
 -1      1585 1.15512E+02 1.09375E+00 0.00000E+00
 -1      1586 1.15374E+02 2.18750E+00 0.00000E+00
 -1      1587 1.20012E+02 1.09375E+00 0.00000E+00
 -1      1588 1.18512E+02 1.09375E+00 0.00000E+00
 -1      1589 1.18374E+02 2.18750E+00 0.00000E+00
 -1      1590 1.23012E+02 1.09375E+00 0.00000E+00
 -1      1591 1.21512E+02 1.09375E+00 0.00000E+00
 -1      1592 1.21374E+02 2.18750E+00 0.00000E+00
 -1      1593 1.26012E+02 1.09375E+00 0.00000E+00
 -1      1594 1.24512E+02 1.09375E+00 0.00000E+00
 -1      1595 1.24374E+02 2.18750E+00 0.00000E+00
 -1      1596 1.29012E+02 1.09375E+00 0.00000E+00
 -1      1597 1.27512E+02 1.09375E+00 0.00000E+00
 -1      1598 1.27374E+02 2.18750E+00 0.00000E+00
 -1      1599 1.32012E+02 1.09375E+00 0.00000E+00
 -1      1600 1.30512E+02 1.09375E+00 0.00000E+00
 -1      1601 1.30374E+02 2.18750E+00 0.00000E+00
 -1      1602 1.35012E+02 1.09375E+00 0.00000E+00
 -1      1603 1.33512E+02 1.09375E+00 0.00000E+00
 -1      1604 1.33374E+02 2.18750E+00 0.00000E+00
 -1      1605 1.38012E+02 1.09375E+00 0.00000E+00
 -1      1606 1.36512E+02 1.09375E+00 0.00000E+00
 -1      1607 1.36374E+02 2.18750E+00 0.00000E+00
 -1      1608 1.41012E+02 1.09375E+00 0.00000E+00
 -1      1609 1.39512E+02 1.09375E+00 0.00000E+00
 -1      1610 1.39374E+02 2.18750E+00 0.00000E+00
 -1      1611 1.44012E+02 1.09375E+00 0.00000E+00
 -1      1612 1.42512E+02 1.09375E+00 0.00000E+00
 -1      1613 1.42374E+02 2.18750E+00 0.00000E+00
 -1      1614 1.47012E+02 1.09375E+00 0.00000E+00
 -1      1615 1.45512E+02 1.09375E+00 0.00000E+00
 -1      1616 1.45374E+02 2.18750E+00 0.00000E+00
 -1      1617 1.48575E+02 1.47500E+00 0.00000E+00
 -1      1618 1.48701E+02 5.16250E+00 0.00000E+00
 -1      1619 1.48701E+02 3.68750E+00 0.00000E+00
 -1      1620 1.48701E+02 8.11250E+00 0.00000E+00
 -1      1621 1.48701E+02 6.63750E+00 0.00000E+00
 -1      1622 1.47402E+02 5.90000E+00 0.00000E+00
 -1      1623 1.48701E+02 1.10625E+01 0.00000E+00
 -1      1624 1.48701E+02 9.58750E+00 0.00000E+00
 -1      1625 1.47402E+02 8.85000E+00 0.00000E+00
 -1      1626 1.48701E+02 1.40125E+01 0.00000E+00
 -1      1627 1.48701E+02 1.25375E+01 0.00000E+00
 -1      1628 1.47402E+02 1.18000E+01 0.00000E+00
 -1      1629 1.48701E+02 1.69125E+01 0.00000E+00
 -1      1630 1.48701E+02 1.54625E+01 0.00000E+00
 -1      1631 1.47402E+02 1.47250E+01 0.00000E+00
 -1      1632 1.48701E+02 1.98625E+01 0.00000E+00
 -1      1633 1.48701E+02 1.83875E+01 0.00000E+00
 -1      1634 1.47402E+02 1.76500E+01 0.00000E+00
 -1      1635 1.48701E+02 2.28125E+01 0.00000E+00
 -1      1636 1.48701E+02 2.13375E+01 0.00000E+00
 -1      1637 1.47402E+02 2.06000E+01 0.00000E+00
 -1      1638 1.48701E+02 2.57625E+01 0.00000E+00
 -1      1639 1.48701E+02 2.42875E+01 0.00000E+00
 -1      1640 1.47402E+02 2.35500E+01 0.00000E+00
 -1      1641 1.48701E+02 2.87125E+01 0.00000E+00
 -1      1642 1.48701E+02 2.72375E+01 0.00000E+00
 -1      1643 1.47402E+02 2.65000E+01 0.00000E+00
 -1      1644 1.48701E+02 3.16625E+01 0.00000E+00
 -1      1645 1.48701E+02 3.01875E+01 0.00000E+00
 -1      1646 1.47402E+02 2.94500E+01 0.00000E+00
 -1      1647 1.48701E+02 3.45625E+01 0.00000E+00
 -1      1648 1.48701E+02 3.31125E+01 0.00000E+00
 -1      1649 1.47402E+02 3.23750E+01 0.00000E+00
 -1      1650 1.48701E+02 3.75125E+01 0.00000E+00
 -1      1651 1.48701E+02 3.60375E+01 0.00000E+00
 -1      1652 1.47402E+02 3.53000E+01 0.00000E+00
 -1      1653 1.48701E+02 4.04625E+01 0.00000E+00
 -1      1654 1.48701E+02 3.89875E+01 0.00000E+00
 -1      1655 1.47402E+02 3.82500E+01 0.00000E+00
 -1      1656 1.48701E+02 4.34125E+01 0.00000E+00
 -1      1657 1.48701E+02 4.19375E+01 0.00000E+00
 -1      1658 1.47402E+02 4.12000E+01 0.00000E+00
 -1      1659 1.48835E+02 4.60790E+01 0.00000E+00
 -1      1660 1.48835E+02 4.46040E+01 0.00000E+00
 -1      1661 1.47536E+02 4.38665E+01 0.00000E+00
 -1      1662 1.47804E+02 4.62496E+01 0.00000E+00
 -1      1663 8.01600E+01 3.49771E+01 0.00000E+00
 -1      1664 8.02461E+01 3.57486E+01 0.00000E+00
 -1      1665 7.97063E+01 3.34512E+01 0.00000E+00
 -1      1666 7.99325E+01 3.41248E+01 0.00000E+00
 -1      1667 7.89740E+01 3.20340E+01 0.00000E+00
 -1      1668 7.93497E+01 3.26727E+01 0.00000E+00
 -1      1669 7.79558E+01 3.06789E+01 0.00000E+00
 -1      1670 7.84937E+01 3.12556E+01 0.00000E+00
 -1      1671 7.66138E+01 2.97810E+01 0.00000E+00
 -1      1672 7.72021E+01 3.01878E+01 0.00000E+00
 -1      1673 7.51762E+01 2.89985E+01 0.00000E+00
 -1      1674 7.58847E+01 2.92921E+01 0.00000E+00
 -1      1675 7.35534E+01 2.86956E+01 0.00000E+00
 -1      1676 7.42935E+01 2.88267E+01 0.00000E+00
 -1      1677 7.19400E+01 2.86642E+01 0.00000E+00
 -1      1678 7.26828E+01 2.86355E+01 0.00000E+00
 -1      1679 7.03275E+01 2.89425E+01 0.00000E+00
 -1      1680 7.10621E+01 2.87521E+01 0.00000E+00
 -1      1681 6.88469E+01 2.96325E+01 0.00000E+00
 -1      1682 6.95147E+01 2.92938E+01 0.00000E+00
 -1      1683 6.75117E+01 3.05451E+01 0.00000E+00
 -1      1684 6.80893E+01 3.00750E+01 0.00000E+00
 -1      1685 6.64773E+01 3.17516E+01 0.00000E+00
 -1      1686 6.69322E+01 3.11858E+01 0.00000E+00
 -1      1687 6.56947E+01 3.30971E+01 0.00000E+00
 -1      1688 6.60196E+01 3.24586E+01 0.00000E+00
 -1      1689 6.51573E+01 3.46044E+01 0.00000E+00
 -1      1690 6.53501E+01 3.38840E+01 0.00000E+00
 -1      1691 6.49840E+01 3.61776E+01 0.00000E+00
 -1      1692 6.50212E+01 3.54583E+01 0.00000E+00
 -1      1693 6.51273E+01 3.78571E+01 0.00000E+00
 -1      1694 6.49971E+01 3.70750E+01 0.00000E+00
 -1      1695 6.57106E+01 3.93593E+01 0.00000E+00
 -1      1696 6.54437E+01 3.86933E+01 0.00000E+00
 -1      1697 6.65139E+01 4.07841E+01 0.00000E+00
 -1      1698 6.60843E+01 4.01476E+01 0.00000E+00
 -1      1699 6.76034E+01 4.19598E+01 0.00000E+00
 -1      1700 6.70797E+01 4.14586E+01 0.00000E+00
 -1      1701 6.89209E+01 4.28328E+01 0.00000E+00
 -1      1702 6.83027E+01 4.24491E+01 0.00000E+00
 -1      1703 7.03483E+01 4.34887E+01 0.00000E+00
 -1      1704 6.96686E+01 4.32422E+01 0.00000E+00
 -1      1705 7.18593E+01 4.37535E+01 0.00000E+00
 -1      1706 7.11676E+01 4.36529E+01 0.00000E+00
 -1      1707 7.34453E+01 4.38240E+01 0.00000E+00
 -1      1708 7.27050E+01 4.38697E+01 0.00000E+00
 -1      1709 7.49101E+01 4.34324E+01 0.00000E+00
 -1      1710 7.42577E+01 4.36092E+01 0.00000E+00
 -1      1711 7.63717E+01 4.28800E+01 0.00000E+00
 -1      1712 7.57160E+01 4.32101E+01 0.00000E+00
 -1      1713 7.75784E+01 4.19296E+01 0.00000E+00
 -1      1714 7.70367E+01 4.23590E+01 0.00000E+00
 -1      1715 7.86197E+01 4.08195E+01 0.00000E+00
 -1      1716 7.81640E+01 4.13602E+01 0.00000E+00
 -1      1717 7.94647E+01 3.95253E+01 0.00000E+00
 -1      1718 7.91241E+01 4.01534E+01 0.00000E+00
 -1      1719 7.99463E+01 3.80922E+01 0.00000E+00
 -1      1720 7.97455E+01 3.87502E+01 0.00000E+00
 -1      1721 8.01725E+01 3.66145E+01 0.00000E+00
 -1      1722 8.01043E+01 3.73022E+01 0.00000E+00
 -1      1723 7.40625E+01 4.87010E+01 0.00000E+00
 -1      1724 7.54875E+01 4.87010E+01 0.00000E+00
 -1      1725 7.92402E+01 3.12464E+01 0.00000E+00
 -1      1726 8.08152E+01 3.61523E+01 0.00000E+00
 -1      1727 1.48437E+02 2.56875E+00 0.00000E+00
 -1      1728 1.47138E+02 3.30625E+00 0.00000E+00
 -1      1729 8.06613E+01 3.44340E+01 0.00000E+00
 -1      1730 8.00771E+01 3.28032E+01 0.00000E+00
 -1      1731 7.80063E+01 2.99769E+01 0.00000E+00
 -1      1732 7.65236E+01 2.89968E+01 0.00000E+00
 -1      1733 7.49119E+01 2.83361E+01 0.00000E+00
 -1      1734 7.31586E+01 2.81042E+01 0.00000E+00
 -1      1735 7.14101E+01 2.81320E+01 0.00000E+00
 -1      1736 6.97194E+01 2.85713E+01 0.00000E+00
 -1      1737 6.81490E+01 2.93650E+01 0.00000E+00
 -1      1738 6.68118E+01 3.04481E+01 0.00000E+00
 -1      1739 6.57746E+01 3.17959E+01 0.00000E+00
 -1      1740 6.49723E+01 3.32898E+01 0.00000E+00
 -1      1741 6.44915E+01 3.49306E+01 0.00000E+00
 -1      1742 6.43685E+01 3.66819E+01 0.00000E+00
 -1      1743 6.46980E+01 3.84156E+01 0.00000E+00
 -1      1744 6.53882E+01 4.00401E+01 0.00000E+00
 -1      1745 6.63277E+01 4.15029E+01 0.00000E+00
 -1      1746 6.75928E+01 4.26667E+01 0.00000E+00
 -1      1747 6.90398E+01 4.35653E+01 0.00000E+00
 -1      1748 7.06068E+01 4.41389E+01 0.00000E+00
 -1      1749 7.22720E+01 4.44193E+01 0.00000E+00
 -1      1750 7.39301E+01 4.43207E+01 0.00000E+00
 -1      1751 7.55483E+01 4.38836E+01 0.00000E+00
 -1      1752 7.70191E+01 4.31403E+01 0.00000E+00
 -1      1753 7.82698E+01 4.20499E+01 0.00000E+00
 -1      1754 7.93597E+01 4.08144E+01 0.00000E+00
 -1      1755 8.01449E+01 3.93732E+01 0.00000E+00
 -1      1756 8.05837E+01 3.78082E+01 0.00000E+00
 -1      1757 7.61250E+01 4.75921E+01 0.00000E+00
 -1      1758 2.79900E+00 4.77875E+01 0.00000E+00
 -1      1759 7.33125E+01 4.74020E+01 0.00000E+00
 -1      1760 3.89700E+00 4.04125E+01 0.00000E+00
 -1      1761 3.89700E+00 4.18875E+01 0.00000E+00
 -1      1762 3.89700E+00 4.33625E+01 0.00000E+00
 -1      1763 3.89700E+00 4.48375E+01 0.00000E+00
 -1      1764 5.19600E+00 4.26250E+01 0.00000E+00
 -1      1765 3.89700E+00 3.45500E+01 0.00000E+00
 -1      1766 3.89700E+00 3.60000E+01 0.00000E+00
 -1      1767 3.89700E+00 3.16000E+01 0.00000E+00
 -1      1768 3.89700E+00 3.30750E+01 0.00000E+00
 -1      1769 5.19600E+00 3.38000E+01 0.00000E+00
 -1      1770 3.89700E+00 2.86500E+01 0.00000E+00
 -1      1771 3.89700E+00 3.01250E+01 0.00000E+00
 -1      1772 5.19600E+00 3.08500E+01 0.00000E+00
 -1      1773 3.89700E+00 2.57000E+01 0.00000E+00
 -1      1774 3.89700E+00 2.71750E+01 0.00000E+00
 -1      1775 5.19600E+00 2.79000E+01 0.00000E+00
 -1      1776 3.89700E+00 2.27500E+01 0.00000E+00
 -1      1777 3.89700E+00 2.42250E+01 0.00000E+00
 -1      1778 5.19600E+00 2.49500E+01 0.00000E+00
 -1      1779 3.89700E+00 1.98000E+01 0.00000E+00
 -1      1780 3.89700E+00 2.12750E+01 0.00000E+00
 -1      1781 5.19600E+00 2.20000E+01 0.00000E+00
 -1      1782 3.89700E+00 1.69000E+01 0.00000E+00
 -1      1783 3.89700E+00 1.83500E+01 0.00000E+00
 -1      1784 5.19600E+00 1.90750E+01 0.00000E+00
 -1      1785 3.89700E+00 1.39500E+01 0.00000E+00
 -1      1786 3.89700E+00 1.54250E+01 0.00000E+00
 -1      1787 5.19600E+00 1.61500E+01 0.00000E+00
 -1      1788 3.89700E+00 1.10000E+01 0.00000E+00
 -1      1789 3.89700E+00 1.24750E+01 0.00000E+00
 -1      1790 5.19600E+00 1.32000E+01 0.00000E+00
 -1      1791 3.89700E+00 8.05000E+00 0.00000E+00
 -1      1792 3.89700E+00 9.52500E+00 0.00000E+00
 -1      1793 5.19600E+00 1.02500E+01 0.00000E+00
 -1      1794 3.89700E+00 5.10000E+00 0.00000E+00
 -1      1795 3.89700E+00 6.57500E+00 0.00000E+00
 -1      1796 5.19600E+00 7.30000E+00 0.00000E+00
 -1      1797 4.20450E+00 3.09687E+00 0.00000E+00
 -1      1798 4.06650E+00 4.19063E+00 0.00000E+00
 -1      1799 5.36550E+00 4.91563E+00 0.00000E+00
 -1      1800 5.70450E+00 3.09687E+00 0.00000E+00
 -1      1801 3.54900E+00 4.64885E+01 0.00000E+00
 -1      1802 8.70450E+00 3.09687E+00 0.00000E+00
 -1      1803 7.20450E+00 3.09687E+00 0.00000E+00
 -1      1804 7.03500E+00 4.00625E+00 0.00000E+00
 -1      1805 8.25000E+00 4.61030E+01 0.00000E+00
 -1      1806 9.75000E+00 4.61030E+01 0.00000E+00
 -1      1807 1.12500E+01 4.61030E+01 0.00000E+00
 -1      1808 1.27500E+01 4.61030E+01 0.00000E+00
 -1      1809 1.05000E+01 4.48040E+01 0.00000E+00
 -1      1810 1.42500E+01 4.61030E+01 0.00000E+00
 -1      1811 1.57500E+01 4.61030E+01 0.00000E+00
 -1      1812 1.35000E+01 4.48040E+01 0.00000E+00
 -1      1813 1.71750E+01 4.61030E+01 0.00000E+00
 -1      1814 1.86000E+01 4.61030E+01 0.00000E+00
 -1      1815 1.64250E+01 4.48040E+01 0.00000E+00
 -1      1816 2.01000E+01 4.61030E+01 0.00000E+00
 -1      1817 2.16000E+01 4.61030E+01 0.00000E+00
 -1      1818 1.93500E+01 4.48040E+01 0.00000E+00
 -1      1819 2.31000E+01 4.61030E+01 0.00000E+00
 -1      1820 2.46000E+01 4.61030E+01 0.00000E+00
 -1      1821 2.23500E+01 4.48040E+01 0.00000E+00
 -1      1822 2.61000E+01 4.61030E+01 0.00000E+00
 -1      1823 2.76000E+01 4.61030E+01 0.00000E+00
 -1      1824 2.53500E+01 4.48040E+01 0.00000E+00
 -1      1825 2.91000E+01 4.61030E+01 0.00000E+00
 -1      1826 3.06000E+01 4.61030E+01 0.00000E+00
 -1      1827 2.83500E+01 4.48040E+01 0.00000E+00
 -1      1828 3.21000E+01 4.61030E+01 0.00000E+00
 -1      1829 3.36000E+01 4.61030E+01 0.00000E+00
 -1      1830 3.13500E+01 4.48040E+01 0.00000E+00
 -1      1831 3.51000E+01 4.61030E+01 0.00000E+00
 -1      1832 3.66000E+01 4.61030E+01 0.00000E+00
 -1      1833 3.43500E+01 4.48040E+01 0.00000E+00
 -1      1834 3.80250E+01 4.61030E+01 0.00000E+00
 -1      1835 3.94500E+01 4.61030E+01 0.00000E+00
 -1      1836 3.72750E+01 4.48040E+01 0.00000E+00
 -1      1837 4.09500E+01 4.61030E+01 0.00000E+00
 -1      1838 4.24500E+01 4.61030E+01 0.00000E+00
 -1      1839 4.02000E+01 4.48040E+01 0.00000E+00
 -1      1840 4.39500E+01 4.61030E+01 0.00000E+00
 -1      1841 4.54500E+01 4.61030E+01 0.00000E+00
 -1      1842 4.32000E+01 4.48040E+01 0.00000E+00
 -1      1843 4.69500E+01 4.61030E+01 0.00000E+00
 -1      1844 4.84500E+01 4.61030E+01 0.00000E+00
 -1      1845 4.62000E+01 4.48040E+01 0.00000E+00
 -1      1846 4.99500E+01 4.61030E+01 0.00000E+00
 -1      1847 5.14500E+01 4.61030E+01 0.00000E+00
 -1      1848 4.92000E+01 4.48040E+01 0.00000E+00
 -1      1849 5.29500E+01 4.61030E+01 0.00000E+00
 -1      1850 5.44500E+01 4.61030E+01 0.00000E+00
 -1      1851 5.22000E+01 4.48040E+01 0.00000E+00
 -1      1852 5.59500E+01 4.61030E+01 0.00000E+00
 -1      1853 5.74500E+01 4.61030E+01 0.00000E+00
 -1      1854 5.52000E+01 4.48040E+01 0.00000E+00
 -1      1855 5.88750E+01 4.61030E+01 0.00000E+00
 -1      1856 6.03000E+01 4.61030E+01 0.00000E+00
 -1      1857 5.81250E+01 4.48040E+01 0.00000E+00
 -1      1858 6.18000E+01 4.61030E+01 0.00000E+00
 -1      1859 6.33000E+01 4.61030E+01 0.00000E+00
 -1      1860 6.10500E+01 4.48040E+01 0.00000E+00
 -1      1861 6.46500E+01 4.61030E+01 0.00000E+00
 -1      1862 6.60000E+01 4.61030E+01 0.00000E+00
 -1      1863 6.39000E+01 4.48040E+01 0.00000E+00
 -1      1864 7.96586E+01 3.04509E+01 0.00000E+00
 -1      1865 8.01388E+01 3.12293E+01 0.00000E+00
 -1      1866 4.84800E+00 4.57510E+01 0.00000E+00
 -1      1867 8.10750E+01 4.65895E+01 0.00000E+00
 -1      1868 8.25750E+01 4.65895E+01 0.00000E+00
 -1      1869 8.40750E+01 4.65895E+01 0.00000E+00
 -1      1870 8.55750E+01 4.65895E+01 0.00000E+00
 -1      1871 8.33250E+01 4.53968E+01 0.00000E+00
 -1      1872 8.70000E+01 4.65895E+01 0.00000E+00
 -1      1873 8.84250E+01 4.65895E+01 0.00000E+00
 -1      1874 8.62500E+01 4.53968E+01 0.00000E+00
 -1      1875 8.99250E+01 4.65895E+01 0.00000E+00
 -1      1876 9.14250E+01 4.65895E+01 0.00000E+00
 -1      1877 8.91750E+01 4.53968E+01 0.00000E+00
 -1      1878 9.29250E+01 4.65895E+01 0.00000E+00
 -1      1879 9.44250E+01 4.65895E+01 0.00000E+00
 -1      1880 9.21750E+01 4.53968E+01 0.00000E+00
 -1      1881 9.59250E+01 4.65895E+01 0.00000E+00
 -1      1882 9.74250E+01 4.65895E+01 0.00000E+00
 -1      1883 9.51750E+01 4.53968E+01 0.00000E+00
 -1      1884 9.89250E+01 4.65895E+01 0.00000E+00
 -1      1885 1.00425E+02 4.65895E+01 0.00000E+00
 -1      1886 9.81750E+01 4.53968E+01 0.00000E+00
 -1      1887 1.01925E+02 4.65895E+01 0.00000E+00
 -1      1888 1.03425E+02 4.65895E+01 0.00000E+00
 -1      1889 1.01175E+02 4.53968E+01 0.00000E+00
 -1      1890 1.04925E+02 4.65895E+01 0.00000E+00
 -1      1891 1.06425E+02 4.65895E+01 0.00000E+00
 -1      1892 1.04175E+02 4.53968E+01 0.00000E+00
 -1      1893 1.07850E+02 4.65895E+01 0.00000E+00
 -1      1894 1.09275E+02 4.65895E+01 0.00000E+00
 -1      1895 1.07100E+02 4.53968E+01 0.00000E+00
 -1      1896 1.10775E+02 4.65895E+01 0.00000E+00
 -1      1897 1.12275E+02 4.65895E+01 0.00000E+00
 -1      1898 1.10025E+02 4.53968E+01 0.00000E+00
 -1      1899 1.13775E+02 4.65895E+01 0.00000E+00
 -1      1900 1.15275E+02 4.65895E+01 0.00000E+00
 -1      1901 1.13025E+02 4.53968E+01 0.00000E+00
 -1      1902 1.16775E+02 4.65895E+01 0.00000E+00
 -1      1903 1.18275E+02 4.65895E+01 0.00000E+00
 -1      1904 1.16025E+02 4.53968E+01 0.00000E+00
 -1      1905 1.19775E+02 4.65895E+01 0.00000E+00
 -1      1906 1.21275E+02 4.65895E+01 0.00000E+00
 -1      1907 1.19025E+02 4.53968E+01 0.00000E+00
 -1      1908 1.22775E+02 4.65895E+01 0.00000E+00
 -1      1909 1.24275E+02 4.65895E+01 0.00000E+00
 -1      1910 1.22025E+02 4.53968E+01 0.00000E+00
 -1      1911 1.25775E+02 4.65895E+01 0.00000E+00
 -1      1912 1.27275E+02 4.65895E+01 0.00000E+00
 -1      1913 1.25025E+02 4.53968E+01 0.00000E+00
 -1      1914 1.28700E+02 4.65895E+01 0.00000E+00
 -1      1915 1.30125E+02 4.65895E+01 0.00000E+00
 -1      1916 1.27950E+02 4.53968E+01 0.00000E+00
 -1      1917 1.31625E+02 4.65895E+01 0.00000E+00
 -1      1918 1.33125E+02 4.65895E+01 0.00000E+00
 -1      1919 1.30875E+02 4.53968E+01 0.00000E+00
 -1      1920 1.34625E+02 4.65895E+01 0.00000E+00
 -1      1921 1.36125E+02 4.65895E+01 0.00000E+00
 -1      1922 1.33875E+02 4.53968E+01 0.00000E+00
 -1      1923 1.37625E+02 4.65895E+01 0.00000E+00
 -1      1924 1.39125E+02 4.65895E+01 0.00000E+00
 -1      1925 1.36875E+02 4.53968E+01 0.00000E+00
 -1      1926 1.40625E+02 4.65895E+01 0.00000E+00
 -1      1927 1.42125E+02 4.65895E+01 0.00000E+00
 -1      1928 1.39875E+02 4.53968E+01 0.00000E+00
 -1      1929 1.43625E+02 4.65895E+01 0.00000E+00
 -1      1930 1.45125E+02 4.65895E+01 0.00000E+00
 -1      1931 1.42875E+02 4.53968E+01 0.00000E+00
 -1      1932 1.46772E+02 4.64201E+01 0.00000E+00
 -1      1933 1.41240E+01 3.48650E+00 0.00000E+00
 -1      1934 1.26240E+01 3.48650E+00 0.00000E+00
 -1      1935 1.71240E+01 3.48650E+00 0.00000E+00
 -1      1936 1.56240E+01 3.48650E+00 0.00000E+00
 -1      1937 1.48740E+01 4.78550E+00 0.00000E+00
 -1      1938 2.01240E+01 3.48650E+00 0.00000E+00
 -1      1939 1.86240E+01 3.48650E+00 0.00000E+00
 -1      1940 1.78740E+01 4.78550E+00 0.00000E+00
 -1      1941 2.31240E+01 3.48650E+00 0.00000E+00
 -1      1942 2.16240E+01 3.48650E+00 0.00000E+00
 -1      1943 2.08740E+01 4.78550E+00 0.00000E+00
 -1      1944 2.61240E+01 3.48650E+00 0.00000E+00
 -1      1945 2.46240E+01 3.48650E+00 0.00000E+00
 -1      1946 2.38740E+01 4.78550E+00 0.00000E+00
 -1      1947 2.91240E+01 3.48650E+00 0.00000E+00
 -1      1948 2.76240E+01 3.48650E+00 0.00000E+00
 -1      1949 2.68740E+01 4.78550E+00 0.00000E+00
 -1      1950 3.21240E+01 3.48650E+00 0.00000E+00
 -1      1951 3.06240E+01 3.48650E+00 0.00000E+00
 -1      1952 2.98740E+01 4.78550E+00 0.00000E+00
 -1      1953 3.51240E+01 3.48650E+00 0.00000E+00
 -1      1954 3.36240E+01 3.48650E+00 0.00000E+00
 -1      1955 3.28740E+01 4.78550E+00 0.00000E+00
 -1      1956 3.81240E+01 3.48650E+00 0.00000E+00
 -1      1957 3.66240E+01 3.48650E+00 0.00000E+00
 -1      1958 3.58740E+01 4.78550E+00 0.00000E+00
 -1      1959 4.11240E+01 3.48650E+00 0.00000E+00
 -1      1960 3.96240E+01 3.48650E+00 0.00000E+00
 -1      1961 3.88740E+01 4.78550E+00 0.00000E+00
 -1      1962 4.41240E+01 3.48650E+00 0.00000E+00
 -1      1963 4.26240E+01 3.48650E+00 0.00000E+00
 -1      1964 4.18740E+01 4.78550E+00 0.00000E+00
 -1      1965 4.71240E+01 3.48650E+00 0.00000E+00
 -1      1966 4.56240E+01 3.48650E+00 0.00000E+00
 -1      1967 4.48740E+01 4.78550E+00 0.00000E+00
 -1      1968 5.01240E+01 3.48650E+00 0.00000E+00
 -1      1969 4.86240E+01 3.48650E+00 0.00000E+00
 -1      1970 4.78740E+01 4.78550E+00 0.00000E+00
 -1      1971 5.31240E+01 3.48650E+00 0.00000E+00
 -1      1972 5.16240E+01 3.48650E+00 0.00000E+00
 -1      1973 5.08740E+01 4.78550E+00 0.00000E+00
 -1      1974 5.61240E+01 3.48650E+00 0.00000E+00
 -1      1975 5.46240E+01 3.48650E+00 0.00000E+00
 -1      1976 5.38740E+01 4.78550E+00 0.00000E+00
 -1      1977 5.91240E+01 3.48650E+00 0.00000E+00
 -1      1978 5.76240E+01 3.48650E+00 0.00000E+00
 -1      1979 5.68740E+01 4.78550E+00 0.00000E+00
 -1      1980 6.21240E+01 3.48650E+00 0.00000E+00
 -1      1981 6.06240E+01 3.48650E+00 0.00000E+00
 -1      1982 5.98740E+01 4.78550E+00 0.00000E+00
 -1      1983 6.51240E+01 3.48650E+00 0.00000E+00
 -1      1984 6.36240E+01 3.48650E+00 0.00000E+00
 -1      1985 6.28740E+01 4.78550E+00 0.00000E+00
 -1      1986 6.81240E+01 3.48650E+00 0.00000E+00
 -1      1987 6.66240E+01 3.48650E+00 0.00000E+00
 -1      1988 6.58740E+01 4.78550E+00 0.00000E+00
 -1      1989 7.11240E+01 3.48650E+00 0.00000E+00
 -1      1990 6.96240E+01 3.48650E+00 0.00000E+00
 -1      1991 6.88740E+01 4.78550E+00 0.00000E+00
 -1      1992 7.41240E+01 3.48650E+00 0.00000E+00
 -1      1993 7.26240E+01 3.48650E+00 0.00000E+00
 -1      1994 7.18740E+01 4.78550E+00 0.00000E+00
 -1      1995 7.71240E+01 3.48650E+00 0.00000E+00
 -1      1996 7.56240E+01 3.48650E+00 0.00000E+00
 -1      1997 7.48740E+01 4.78550E+00 0.00000E+00
 -1      1998 8.01240E+01 3.48650E+00 0.00000E+00
 -1      1999 7.86240E+01 3.48650E+00 0.00000E+00
 -1      2000 7.78740E+01 4.78550E+00 0.00000E+00
 -1      2001 8.31240E+01 3.48650E+00 0.00000E+00
 -1      2002 8.16240E+01 3.48650E+00 0.00000E+00
 -1      2003 8.08740E+01 4.78550E+00 0.00000E+00
 -1      2004 8.61240E+01 3.48650E+00 0.00000E+00
 -1      2005 8.46240E+01 3.48650E+00 0.00000E+00
 -1      2006 8.38740E+01 4.78550E+00 0.00000E+00
 -1      2007 8.91240E+01 3.48650E+00 0.00000E+00
 -1      2008 8.76240E+01 3.48650E+00 0.00000E+00
 -1      2009 8.68740E+01 4.78550E+00 0.00000E+00
 -1      2010 9.21240E+01 3.48650E+00 0.00000E+00
 -1      2011 9.06240E+01 3.48650E+00 0.00000E+00
 -1      2012 8.98740E+01 4.78550E+00 0.00000E+00
 -1      2013 9.51240E+01 3.48650E+00 0.00000E+00
 -1      2014 9.36240E+01 3.48650E+00 0.00000E+00
 -1      2015 9.28740E+01 4.78550E+00 0.00000E+00
 -1      2016 9.81240E+01 3.48650E+00 0.00000E+00
 -1      2017 9.66240E+01 3.48650E+00 0.00000E+00
 -1      2018 9.58740E+01 4.78550E+00 0.00000E+00
 -1      2019 1.01124E+02 3.48650E+00 0.00000E+00
 -1      2020 9.96240E+01 3.48650E+00 0.00000E+00
 -1      2021 9.88740E+01 4.78550E+00 0.00000E+00
 -1      2022 1.04124E+02 3.48650E+00 0.00000E+00
 -1      2023 1.02624E+02 3.48650E+00 0.00000E+00
 -1      2024 1.01874E+02 4.78550E+00 0.00000E+00
 -1      2025 1.07124E+02 3.48650E+00 0.00000E+00
 -1      2026 1.05624E+02 3.48650E+00 0.00000E+00
 -1      2027 1.04874E+02 4.78550E+00 0.00000E+00
 -1      2028 1.10124E+02 3.48650E+00 0.00000E+00
 -1      2029 1.08624E+02 3.48650E+00 0.00000E+00
 -1      2030 1.07874E+02 4.78550E+00 0.00000E+00
 -1      2031 1.13124E+02 3.48650E+00 0.00000E+00
 -1      2032 1.11624E+02 3.48650E+00 0.00000E+00
 -1      2033 1.10874E+02 4.78550E+00 0.00000E+00
 -1      2034 1.16124E+02 3.48650E+00 0.00000E+00
 -1      2035 1.14624E+02 3.48650E+00 0.00000E+00
 -1      2036 1.13874E+02 4.78550E+00 0.00000E+00
 -1      2037 1.19124E+02 3.48650E+00 0.00000E+00
 -1      2038 1.17624E+02 3.48650E+00 0.00000E+00
 -1      2039 1.16874E+02 4.78550E+00 0.00000E+00
 -1      2040 1.22124E+02 3.48650E+00 0.00000E+00
 -1      2041 1.20624E+02 3.48650E+00 0.00000E+00
 -1      2042 1.19874E+02 4.78550E+00 0.00000E+00
 -1      2043 1.25124E+02 3.48650E+00 0.00000E+00
 -1      2044 1.23624E+02 3.48650E+00 0.00000E+00
 -1      2045 1.22874E+02 4.78550E+00 0.00000E+00
 -1      2046 1.28124E+02 3.48650E+00 0.00000E+00
 -1      2047 1.26624E+02 3.48650E+00 0.00000E+00
 -1      2048 1.25874E+02 4.78550E+00 0.00000E+00
 -1      2049 1.31124E+02 3.48650E+00 0.00000E+00
 -1      2050 1.29624E+02 3.48650E+00 0.00000E+00
 -1      2051 1.28874E+02 4.78550E+00 0.00000E+00
 -1      2052 1.34124E+02 3.48650E+00 0.00000E+00
 -1      2053 1.32624E+02 3.48650E+00 0.00000E+00
 -1      2054 1.31874E+02 4.78550E+00 0.00000E+00
 -1      2055 1.37124E+02 3.48650E+00 0.00000E+00
 -1      2056 1.35624E+02 3.48650E+00 0.00000E+00
 -1      2057 1.34874E+02 4.78550E+00 0.00000E+00
 -1      2058 1.40124E+02 3.48650E+00 0.00000E+00
 -1      2059 1.38624E+02 3.48650E+00 0.00000E+00
 -1      2060 1.37874E+02 4.78550E+00 0.00000E+00
 -1      2061 1.43124E+02 3.48650E+00 0.00000E+00
 -1      2062 1.41624E+02 3.48650E+00 0.00000E+00
 -1      2063 1.40874E+02 4.78550E+00 0.00000E+00
 -1      2064 1.45881E+02 3.39637E+00 0.00000E+00
 -1      2065 1.44381E+02 3.39637E+00 0.00000E+00
 -1      2066 1.43631E+02 4.69537E+00 0.00000E+00
 -1      2067 1.46145E+02 4.51512E+00 0.00000E+00
 -1      2068 1.46103E+02 1.25375E+01 0.00000E+00
 -1      2069 1.46103E+02 1.10625E+01 0.00000E+00
 -1      2070 1.46103E+02 9.58750E+00 0.00000E+00
 -1      2071 1.46103E+02 8.11250E+00 0.00000E+00
 -1      2072 1.44804E+02 1.03250E+01 0.00000E+00
 -1      2073 1.46145E+02 5.99013E+00 0.00000E+00
 -1      2074 1.46103E+02 1.54375E+01 0.00000E+00
 -1      2075 1.46103E+02 1.39875E+01 0.00000E+00
 -1      2076 1.44804E+02 1.32500E+01 0.00000E+00
 -1      2077 1.46103E+02 1.83875E+01 0.00000E+00
 -1      2078 1.46103E+02 1.69125E+01 0.00000E+00
 -1      2079 1.44804E+02 1.61750E+01 0.00000E+00
 -1      2080 1.46103E+02 2.13375E+01 0.00000E+00
 -1      2081 1.46103E+02 1.98625E+01 0.00000E+00
 -1      2082 1.44804E+02 1.91250E+01 0.00000E+00
 -1      2083 1.46103E+02 2.42875E+01 0.00000E+00
 -1      2084 1.46103E+02 2.28125E+01 0.00000E+00
 -1      2085 1.44804E+02 2.20750E+01 0.00000E+00
 -1      2086 1.46103E+02 2.72375E+01 0.00000E+00
 -1      2087 1.46103E+02 2.57625E+01 0.00000E+00
 -1      2088 1.44804E+02 2.50250E+01 0.00000E+00
 -1      2089 1.46103E+02 3.01875E+01 0.00000E+00
 -1      2090 1.46103E+02 2.87125E+01 0.00000E+00
 -1      2091 1.44804E+02 2.79750E+01 0.00000E+00
 -1      2092 1.46103E+02 3.30875E+01 0.00000E+00
 -1      2093 1.46103E+02 3.16375E+01 0.00000E+00
 -1      2094 1.44804E+02 3.09000E+01 0.00000E+00
 -1      2095 1.46103E+02 3.60375E+01 0.00000E+00
 -1      2096 1.46103E+02 3.45625E+01 0.00000E+00
 -1      2097 1.44804E+02 3.38250E+01 0.00000E+00
 -1      2098 1.46103E+02 3.89875E+01 0.00000E+00
 -1      2099 1.46103E+02 3.75125E+01 0.00000E+00
 -1      2100 1.44804E+02 3.67750E+01 0.00000E+00
 -1      2101 1.46103E+02 4.19375E+01 0.00000E+00
 -1      2102 1.46103E+02 4.04625E+01 0.00000E+00
 -1      2103 1.44804E+02 3.97250E+01 0.00000E+00
 -1      2104 1.14143E+01 3.29169E+00 0.00000E+00
 -1      2105 9.91425E+00 3.29169E+00 0.00000E+00
 -1      2106 9.74475E+00 4.20106E+00 0.00000E+00
 -1      2107 1.21643E+01 4.59069E+00 0.00000E+00
 -1      2108 8.06022E+01 3.20917E+01 0.00000E+00
 -1      2109 8.09589E+01 3.28701E+01 0.00000E+00
 -1      2110 7.80520E+01 2.90831E+01 0.00000E+00
 -1      2111 7.88056E+01 2.95742E+01 0.00000E+00
 -1      2112 8.16230E+01 3.57848E+01 0.00000E+00
 -1      2113 8.15494E+01 3.66507E+01 0.00000E+00
 -1      2114 3.89700E+00 3.74688E+01 0.00000E+00
 -1      2115 3.89700E+00 3.89437E+01 0.00000E+00
 -1      2116 5.19600E+00 3.96813E+01 0.00000E+00
 -1      2117 5.19600E+00 3.67438E+01 0.00000E+00
 -1      2118 7.82250E+01 4.65895E+01 0.00000E+00
 -1      2119 7.96500E+01 4.65895E+01 0.00000E+00
 -1      2120 8.04000E+01 4.53968E+01 0.00000E+00
 -1      2121 7.65938E+01 2.81052E+01 0.00000E+00
 -1      2122 7.73229E+01 2.85941E+01 0.00000E+00
 -1      2123 7.81222E+01 2.81915E+01 0.00000E+00
 -1      2124 7.46344E+01 2.74084E+01 0.00000E+00
 -1      2125 7.55170E+01 2.75802E+01 0.00000E+00
 -1      2126 7.28931E+01 2.72882E+01 0.00000E+00
 -1      2127 7.37637E+01 2.73483E+01 0.00000E+00
 -1      2128 7.43689E+01 2.65924E+01 0.00000E+00
 -1      2129 7.09024E+01 2.74894E+01 0.00000E+00
 -1      2130 7.17803E+01 2.74015E+01 0.00000E+00
 -1      2131 6.90060E+01 2.80366E+01 0.00000E+00
 -1      2132 6.98188E+01 2.76853E+01 0.00000E+00
 -1      2133 6.73800E+01 2.89180E+01 0.00000E+00
 -1      2134 6.81376E+01 2.84756E+01 0.00000E+00
 -1      2135 6.59793E+01 3.02776E+01 0.00000E+00
 -1      2136 6.65588E+01 2.96368E+01 0.00000E+00
 -1      2137 6.48610E+01 3.17062E+01 0.00000E+00
 -1      2138 6.53187E+01 3.09992E+01 0.00000E+00
 -1      2139 6.41718E+01 3.32799E+01 0.00000E+00
 -1      2140 6.45164E+01 3.24930E+01 0.00000E+00
 -1      2141 6.40605E+01 3.16963E+01 0.00000E+00
 -1      2142 6.37834E+01 3.52555E+01 0.00000E+00
 -1      2143 6.39196E+01 3.44016E+01 0.00000E+00
 -1      2144 6.36013E+01 3.71419E+01 0.00000E+00
 -1      2145 6.35882E+01 3.62445E+01 0.00000E+00
 -1      2146 6.41325E+01 3.91075E+01 0.00000E+00
 -1      2147 6.38161E+01 3.82713E+01 0.00000E+00
 -1      2148 6.49516E+01 4.07299E+01 0.00000E+00
 -1      2149 6.45779E+01 3.99415E+01 0.00000E+00
 -1      2150 6.60177E+01 4.23374E+01 0.00000E+00
 -1      2151 6.54520E+01 4.16629E+01 0.00000E+00
 -1      2152 6.74508E+01 4.36140E+01 0.00000E+00
 -1      2153 6.67515E+01 4.31247E+01 0.00000E+00
 -1      2154 6.89462E+01 4.44327E+01 0.00000E+00
 -1      2155 6.81985E+01 4.40234E+01 0.00000E+00
 -1      2156 6.73572E+01 4.44814E+01 0.00000E+00
 -1      2157 7.08809E+01 4.48975E+01 0.00000E+00
 -1      2158 7.00616E+01 4.47333E+01 0.00000E+00
 -1      2159 7.25725E+01 4.51300E+01 0.00000E+00
 -1      2160 7.17267E+01 4.50137E+01 0.00000E+00
 -1      2161 7.11815E+01 4.56082E+01 0.00000E+00
 -1      2162 7.45341E+01 4.49614E+01 0.00000E+00
 -1      2163 7.37217E+01 4.51762E+01 0.00000E+00
 -1      2164 7.61457E+01 4.45168E+01 0.00000E+00
 -1      2165 7.53399E+01 4.47391E+01 0.00000E+00
 -1      2166 7.51315E+01 4.55946E+01 0.00000E+00
 -1      2167 7.77772E+01 4.34230E+01 0.00000E+00
 -1      2168 7.71121E+01 4.39440E+01 0.00000E+00
 -1      2169 7.90143E+01 4.22299E+01 0.00000E+00
 -1      2170 7.84287E+01 4.27993E+01 0.00000E+00
 -1      2171 8.01954E+01 4.09232E+01 0.00000E+00
 -1      2172 7.96910E+01 4.15893E+01 0.00000E+00
 -1      2173 8.10128E+01 3.92493E+01 0.00000E+00
 -1      2174 8.07320E+01 4.00243E+01 0.00000E+00
 -1      2175 8.13392E+01 3.75485E+01 0.00000E+00
 -1      2176 8.11813E+01 3.83385E+01 0.00000E+00
 -1      2177 8.12547E+01 3.38191E+01 0.00000E+00
 -1      2178 8.14821E+01 3.46714E+01 0.00000E+00
 -1      2179 1.46022E+02 4.52274E+01 0.00000E+00
 -1      2180 8.10206E+01 3.12962E+01 0.00000E+00
 -1      2181 6.34800E+00 4.57510E+01 0.00000E+00
 -1      2182 7.09800E+00 4.44520E+01 0.00000E+00
 -1      2183 7.30879E+01 4.66094E+01 0.00000E+00
 -1      2184 7.45504E+01 4.66094E+01 0.00000E+00
 -1      2185 7.97042E+01 2.95571E+01 0.00000E+00
 -1      2186 6.74275E+01 4.61464E+01 0.00000E+00
 -1      2187 6.87775E+01 4.61464E+01 0.00000E+00
 -1      2188 6.98928E+01 4.64470E+01 0.00000E+00
 -1      2189 7.10928E+01 4.64470E+01 0.00000E+00
 -1      2190 1.44846E+02 6.72762E+00 0.00000E+00
 -1      2191 8.22163E+01 3.51699E+01 0.00000E+00
 -1      2192 1.46130E+02 4.41782E+01 0.00000E+00
 -1      2193 1.45996E+02 4.29867E+01 0.00000E+00
 -1      2194 1.44697E+02 4.22492E+01 0.00000E+00
 -1      2195 1.44482E+02 4.43476E+01 0.00000E+00
 -1      2196 8.17798E+01 3.31076E+01 0.00000E+00
 -1      2197 7.63163E+01 2.71775E+01 0.00000E+00
 -1      2198 8.21470E+01 3.71810E+01 0.00000E+00
 -1      2199 8.17684E+01 3.89896E+01 0.00000E+00
 -1      2200 8.10633E+01 4.07992E+01 0.00000E+00
 -1      2201 7.98500E+01 4.23386E+01 0.00000E+00
 -1      2202 7.69038E+01 4.47995E+01 0.00000E+00
 -1      2203 7.31765E+01 4.57706E+01 0.00000E+00
 -1      2204 6.92203E+01 4.51913E+01 0.00000E+00
 -1      2205 6.58758E+01 4.32847E+01 0.00000E+00
 -1      2206 6.46416E+01 4.15644E+01 0.00000E+00
 -1      2207 6.36959E+01 3.97973E+01 0.00000E+00
 -1      2208 6.30359E+01 3.78339E+01 0.00000E+00
 -1      2209 6.34637E+01 3.36048E+01 0.00000E+00
 -1      2210 6.50657E+01 3.01878E+01 0.00000E+00
 -1      2211 6.65474E+01 2.87474E+01 0.00000E+00
 -1      2212 6.82370E+01 2.75897E+01 0.00000E+00
 -1      2213 7.23854E+01 2.66457E+01 0.00000E+00
 -1      2214 7.01890E+01 2.69548E+01 0.00000E+00
 -1      2215 6.30163E+01 3.57155E+01 0.00000E+00
 -1      2216 7.85218E+01 4.36029E+01 0.00000E+00
 -1      2217 7.53562E+01 4.63872E+01 0.00000E+00
 -1      2218 7.67062E+01 4.65772E+01 0.00000E+00
 -1      2219 6.49500E+00 3.01125E+01 0.00000E+00
 -1      2220 6.49500E+00 3.15875E+01 0.00000E+00
 -1      2221 6.49500E+00 3.30625E+01 0.00000E+00
 -1      2222 6.49500E+00 3.45375E+01 0.00000E+00
 -1      2223 7.79400E+00 3.23250E+01 0.00000E+00
 -1      2224 6.49500E+00 2.42125E+01 0.00000E+00
 -1      2225 6.49500E+00 2.56875E+01 0.00000E+00
 -1      2226 6.49500E+00 2.12625E+01 0.00000E+00
 -1      2227 6.49500E+00 2.27375E+01 0.00000E+00
 -1      2228 7.79400E+00 2.34750E+01 0.00000E+00
 -1      2229 6.49500E+00 1.83625E+01 0.00000E+00
 -1      2230 6.49500E+00 1.98125E+01 0.00000E+00
 -1      2231 7.79400E+00 2.05500E+01 0.00000E+00
 -1      2232 6.49500E+00 1.54125E+01 0.00000E+00
 -1      2233 6.49500E+00 1.68875E+01 0.00000E+00
 -1      2234 7.79400E+00 1.76250E+01 0.00000E+00
 -1      2235 6.49500E+00 1.24625E+01 0.00000E+00
 -1      2236 6.49500E+00 1.39375E+01 0.00000E+00
 -1      2237 7.79400E+00 1.46750E+01 0.00000E+00
 -1      2238 6.49500E+00 9.51250E+00 0.00000E+00
 -1      2239 6.49500E+00 1.09875E+01 0.00000E+00
 -1      2240 7.79400E+00 1.17250E+01 0.00000E+00
 -1      2241 6.49500E+00 6.56250E+00 0.00000E+00
 -1      2242 6.49500E+00 8.03750E+00 0.00000E+00
 -1      2243 7.79400E+00 8.77500E+00 0.00000E+00
 -1      2244 6.84975E+00 4.82969E+00 0.00000E+00
 -1      2245 6.68025E+00 5.73906E+00 0.00000E+00
 -1      2246 7.97925E+00 6.47656E+00 0.00000E+00
 -1      2247 8.34975E+00 4.82969E+00 0.00000E+00
 -1      2248 9.75000E+00 4.35050E+01 0.00000E+00
 -1      2249 1.12500E+01 4.35050E+01 0.00000E+00
 -1      2250 8.25750E+01 4.44554E+01 0.00000E+00
 -1      2251 8.40750E+01 4.44554E+01 0.00000E+00
 -1      2252 6.52200E+00 4.28890E+01 0.00000E+00
 -1      2253 8.42400E+00 4.32410E+01 0.00000E+00
 -1      2254 9.17400E+00 4.19420E+01 0.00000E+00
 -1      2255 6.52200E+00 4.14140E+01 0.00000E+00
 -1      2256 7.98924E+01 2.85208E+01 0.00000E+00
 -1      2257 8.07454E+01 2.93975E+01 0.00000E+00
 -1      2258 6.66775E+01 4.48474E+01 0.00000E+00
 -1      2259 1.27500E+01 4.35050E+01 0.00000E+00
 -1      2260 1.42500E+01 4.35050E+01 0.00000E+00
 -1      2261 1.20000E+01 4.22060E+01 0.00000E+00
 -1      2262 1.56750E+01 4.35050E+01 0.00000E+00
 -1      2263 1.71000E+01 4.35050E+01 0.00000E+00
 -1      2264 1.49250E+01 4.22060E+01 0.00000E+00
 -1      2265 1.86000E+01 4.35050E+01 0.00000E+00
 -1      2266 2.01000E+01 4.35050E+01 0.00000E+00
 -1      2267 1.78500E+01 4.22060E+01 0.00000E+00
 -1      2268 2.16000E+01 4.35050E+01 0.00000E+00
 -1      2269 2.31000E+01 4.35050E+01 0.00000E+00
 -1      2270 2.08500E+01 4.22060E+01 0.00000E+00
 -1      2271 2.46000E+01 4.35050E+01 0.00000E+00
 -1      2272 2.61000E+01 4.35050E+01 0.00000E+00
 -1      2273 2.38500E+01 4.22060E+01 0.00000E+00
 -1      2274 2.76000E+01 4.35050E+01 0.00000E+00
 -1      2275 2.91000E+01 4.35050E+01 0.00000E+00
 -1      2276 2.68500E+01 4.22060E+01 0.00000E+00
 -1      2277 3.06000E+01 4.35050E+01 0.00000E+00
 -1      2278 3.21000E+01 4.35050E+01 0.00000E+00
 -1      2279 2.98500E+01 4.22060E+01 0.00000E+00
 -1      2280 3.36000E+01 4.35050E+01 0.00000E+00
 -1      2281 3.51000E+01 4.35050E+01 0.00000E+00
 -1      2282 3.28500E+01 4.22060E+01 0.00000E+00
 -1      2283 3.65250E+01 4.35050E+01 0.00000E+00
 -1      2284 3.79500E+01 4.35050E+01 0.00000E+00
 -1      2285 3.57750E+01 4.22060E+01 0.00000E+00
 -1      2286 3.94500E+01 4.35050E+01 0.00000E+00
 -1      2287 4.09500E+01 4.35050E+01 0.00000E+00
 -1      2288 3.87000E+01 4.22060E+01 0.00000E+00
 -1      2289 4.24500E+01 4.35050E+01 0.00000E+00
 -1      2290 4.39500E+01 4.35050E+01 0.00000E+00
 -1      2291 4.17000E+01 4.22060E+01 0.00000E+00
 -1      2292 4.54500E+01 4.35050E+01 0.00000E+00
 -1      2293 4.69500E+01 4.35050E+01 0.00000E+00
 -1      2294 4.47000E+01 4.22060E+01 0.00000E+00
 -1      2295 4.84500E+01 4.35050E+01 0.00000E+00
 -1      2296 4.99500E+01 4.35050E+01 0.00000E+00
 -1      2297 4.77000E+01 4.22060E+01 0.00000E+00
 -1      2298 5.14500E+01 4.35050E+01 0.00000E+00
 -1      2299 5.29500E+01 4.35050E+01 0.00000E+00
 -1      2300 5.07000E+01 4.22060E+01 0.00000E+00
 -1      2301 5.44500E+01 4.35050E+01 0.00000E+00
 -1      2302 5.59500E+01 4.35050E+01 0.00000E+00
 -1      2303 5.37000E+01 4.22060E+01 0.00000E+00
 -1      2304 5.73750E+01 4.35050E+01 0.00000E+00
 -1      2305 5.88000E+01 4.35050E+01 0.00000E+00
 -1      2306 5.66250E+01 4.22060E+01 0.00000E+00
 -1      2307 6.03000E+01 4.35050E+01 0.00000E+00
 -1      2308 6.18000E+01 4.35050E+01 0.00000E+00
 -1      2309 5.95500E+01 4.22060E+01 0.00000E+00
 -1      2310 7.19386E+01 4.65632E+01 0.00000E+00
 -1      2311 1.43589E+02 6.81775E+00 0.00000E+00
 -1      2312 7.81886E+01 2.73043E+01 0.00000E+00
 -1      2313 7.89177E+01 2.77933E+01 0.00000E+00
 -1      2314 8.16181E+01 3.04194E+01 0.00000E+00
 -1      2315 8.20815E+01 3.12818E+01 0.00000E+00
 -1      2316 8.55375E+01 4.42041E+01 0.00000E+00
 -1      2317 8.69625E+01 4.42041E+01 0.00000E+00
 -1      2318 8.84625E+01 4.42041E+01 0.00000E+00
 -1      2319 8.99625E+01 4.42041E+01 0.00000E+00
 -1      2320 8.77500E+01 4.30114E+01 0.00000E+00
 -1      2321 9.14625E+01 4.42041E+01 0.00000E+00
 -1      2322 9.29625E+01 4.42041E+01 0.00000E+00
 -1      2323 9.07500E+01 4.30114E+01 0.00000E+00
 -1      2324 9.44625E+01 4.42041E+01 0.00000E+00
 -1      2325 9.59625E+01 4.42041E+01 0.00000E+00
 -1      2326 9.37500E+01 4.30114E+01 0.00000E+00
 -1      2327 9.74625E+01 4.42041E+01 0.00000E+00
 -1      2328 9.89625E+01 4.42041E+01 0.00000E+00
 -1      2329 9.67500E+01 4.30114E+01 0.00000E+00
 -1      2330 1.00463E+02 4.42041E+01 0.00000E+00
 -1      2331 1.01963E+02 4.42041E+01 0.00000E+00
 -1      2332 9.97500E+01 4.30114E+01 0.00000E+00
 -1      2333 1.03463E+02 4.42041E+01 0.00000E+00
 -1      2334 1.04963E+02 4.42041E+01 0.00000E+00
 -1      2335 1.02750E+02 4.30114E+01 0.00000E+00
 -1      2336 1.06387E+02 4.42041E+01 0.00000E+00
 -1      2337 1.07813E+02 4.42041E+01 0.00000E+00
 -1      2338 1.05675E+02 4.30114E+01 0.00000E+00
 -1      2339 1.09313E+02 4.42041E+01 0.00000E+00
 -1      2340 1.10813E+02 4.42041E+01 0.00000E+00
 -1      2341 1.08600E+02 4.30114E+01 0.00000E+00
 -1      2342 1.12313E+02 4.42041E+01 0.00000E+00
 -1      2343 1.13813E+02 4.42041E+01 0.00000E+00
 -1      2344 1.11600E+02 4.30114E+01 0.00000E+00
 -1      2345 1.15313E+02 4.42041E+01 0.00000E+00
 -1      2346 1.16813E+02 4.42041E+01 0.00000E+00
 -1      2347 1.14600E+02 4.30114E+01 0.00000E+00
 -1      2348 1.18313E+02 4.42041E+01 0.00000E+00
 -1      2349 1.19813E+02 4.42041E+01 0.00000E+00
 -1      2350 1.17600E+02 4.30114E+01 0.00000E+00
 -1      2351 1.21313E+02 4.42041E+01 0.00000E+00
 -1      2352 1.22813E+02 4.42041E+01 0.00000E+00
 -1      2353 1.20600E+02 4.30114E+01 0.00000E+00
 -1      2354 1.24313E+02 4.42041E+01 0.00000E+00
 -1      2355 1.25813E+02 4.42041E+01 0.00000E+00
 -1      2356 1.23600E+02 4.30114E+01 0.00000E+00
 -1      2357 1.27238E+02 4.42041E+01 0.00000E+00
 -1      2358 1.28663E+02 4.42041E+01 0.00000E+00
 -1      2359 1.26525E+02 4.30114E+01 0.00000E+00
 -1      2360 1.30163E+02 4.42041E+01 0.00000E+00
 -1      2361 1.31663E+02 4.42041E+01 0.00000E+00
 -1      2362 1.29450E+02 4.30114E+01 0.00000E+00
 -1      2363 1.33163E+02 4.42041E+01 0.00000E+00
 -1      2364 1.34663E+02 4.42041E+01 0.00000E+00
 -1      2365 1.32450E+02 4.30114E+01 0.00000E+00
 -1      2366 1.36163E+02 4.42041E+01 0.00000E+00
 -1      2367 1.37663E+02 4.42041E+01 0.00000E+00
 -1      2368 1.35450E+02 4.30114E+01 0.00000E+00
 -1      2369 1.39163E+02 4.42041E+01 0.00000E+00
 -1      2370 1.40663E+02 4.42041E+01 0.00000E+00
 -1      2371 1.38450E+02 4.30114E+01 0.00000E+00
 -1      2372 1.41822E+02 4.42758E+01 0.00000E+00
 -1      2373 1.43322E+02 4.42758E+01 0.00000E+00
 -1      2374 1.43430E+02 4.32266E+01 0.00000E+00
 -1      2375 1.41110E+02 4.30831E+01 0.00000E+00
 -1      2376 2.16240E+01 6.08450E+00 0.00000E+00
 -1      2377 2.01240E+01 6.08450E+00 0.00000E+00
 -1      2378 1.86240E+01 6.08450E+00 0.00000E+00
 -1      2379 1.71240E+01 6.08450E+00 0.00000E+00
 -1      2380 1.93740E+01 7.38350E+00 0.00000E+00
 -1      2381 1.56240E+01 6.08450E+00 0.00000E+00
 -1      2382 1.41240E+01 6.08450E+00 0.00000E+00
 -1      2383 1.63740E+01 7.38350E+00 0.00000E+00
 -1      2384 2.46240E+01 6.08450E+00 0.00000E+00
 -1      2385 2.31240E+01 6.08450E+00 0.00000E+00
 -1      2386 2.23740E+01 7.38350E+00 0.00000E+00
 -1      2387 2.76240E+01 6.08450E+00 0.00000E+00
 -1      2388 2.61240E+01 6.08450E+00 0.00000E+00
 -1      2389 2.53740E+01 7.38350E+00 0.00000E+00
 -1      2390 3.06240E+01 6.08450E+00 0.00000E+00
 -1      2391 2.91240E+01 6.08450E+00 0.00000E+00
 -1      2392 2.83740E+01 7.38350E+00 0.00000E+00
 -1      2393 3.36240E+01 6.08450E+00 0.00000E+00
 -1      2394 3.21240E+01 6.08450E+00 0.00000E+00
 -1      2395 3.13740E+01 7.38350E+00 0.00000E+00
 -1      2396 3.66240E+01 6.08450E+00 0.00000E+00
 -1      2397 3.51240E+01 6.08450E+00 0.00000E+00
 -1      2398 3.43740E+01 7.38350E+00 0.00000E+00
 -1      2399 3.96240E+01 6.08450E+00 0.00000E+00
 -1      2400 3.81240E+01 6.08450E+00 0.00000E+00
 -1      2401 3.73740E+01 7.38350E+00 0.00000E+00
 -1      2402 4.26240E+01 6.08450E+00 0.00000E+00
 -1      2403 4.11240E+01 6.08450E+00 0.00000E+00
 -1      2404 4.03740E+01 7.38350E+00 0.00000E+00
 -1      2405 4.56240E+01 6.08450E+00 0.00000E+00
 -1      2406 4.41240E+01 6.08450E+00 0.00000E+00
 -1      2407 4.33740E+01 7.38350E+00 0.00000E+00
 -1      2408 4.86240E+01 6.08450E+00 0.00000E+00
 -1      2409 4.71240E+01 6.08450E+00 0.00000E+00
 -1      2410 4.63740E+01 7.38350E+00 0.00000E+00
 -1      2411 5.16240E+01 6.08450E+00 0.00000E+00
 -1      2412 5.01240E+01 6.08450E+00 0.00000E+00
 -1      2413 4.93740E+01 7.38350E+00 0.00000E+00
 -1      2414 5.46240E+01 6.08450E+00 0.00000E+00
 -1      2415 5.31240E+01 6.08450E+00 0.00000E+00
 -1      2416 5.23740E+01 7.38350E+00 0.00000E+00
 -1      2417 5.76240E+01 6.08450E+00 0.00000E+00
 -1      2418 5.61240E+01 6.08450E+00 0.00000E+00
 -1      2419 5.53740E+01 7.38350E+00 0.00000E+00
 -1      2420 6.06240E+01 6.08450E+00 0.00000E+00
 -1      2421 5.91240E+01 6.08450E+00 0.00000E+00
 -1      2422 5.83740E+01 7.38350E+00 0.00000E+00
 -1      2423 6.36240E+01 6.08450E+00 0.00000E+00
 -1      2424 6.21240E+01 6.08450E+00 0.00000E+00
 -1      2425 6.13740E+01 7.38350E+00 0.00000E+00
 -1      2426 6.66240E+01 6.08450E+00 0.00000E+00
 -1      2427 6.51240E+01 6.08450E+00 0.00000E+00
 -1      2428 6.43740E+01 7.38350E+00 0.00000E+00
 -1      2429 6.96240E+01 6.08450E+00 0.00000E+00
 -1      2430 6.81240E+01 6.08450E+00 0.00000E+00
 -1      2431 6.73740E+01 7.38350E+00 0.00000E+00
 -1      2432 7.26240E+01 6.08450E+00 0.00000E+00
 -1      2433 7.11240E+01 6.08450E+00 0.00000E+00
 -1      2434 7.03740E+01 7.38350E+00 0.00000E+00
 -1      2435 7.56240E+01 6.08450E+00 0.00000E+00
 -1      2436 7.41240E+01 6.08450E+00 0.00000E+00
 -1      2437 7.33740E+01 7.38350E+00 0.00000E+00
 -1      2438 7.86240E+01 6.08450E+00 0.00000E+00
 -1      2439 7.71240E+01 6.08450E+00 0.00000E+00
 -1      2440 7.63740E+01 7.38350E+00 0.00000E+00
 -1      2441 8.16240E+01 6.08450E+00 0.00000E+00
 -1      2442 8.01240E+01 6.08450E+00 0.00000E+00
 -1      2443 7.93740E+01 7.38350E+00 0.00000E+00
 -1      2444 8.46240E+01 6.08450E+00 0.00000E+00
 -1      2445 8.31240E+01 6.08450E+00 0.00000E+00
 -1      2446 8.23740E+01 7.38350E+00 0.00000E+00
 -1      2447 8.76240E+01 6.08450E+00 0.00000E+00
 -1      2448 8.61240E+01 6.08450E+00 0.00000E+00
 -1      2449 8.53740E+01 7.38350E+00 0.00000E+00
 -1      2450 9.06240E+01 6.08450E+00 0.00000E+00
 -1      2451 8.91240E+01 6.08450E+00 0.00000E+00
 -1      2452 8.83740E+01 7.38350E+00 0.00000E+00
 -1      2453 9.36240E+01 6.08450E+00 0.00000E+00
 -1      2454 9.21240E+01 6.08450E+00 0.00000E+00
 -1      2455 9.13740E+01 7.38350E+00 0.00000E+00
 -1      2456 9.66240E+01 6.08450E+00 0.00000E+00
 -1      2457 9.51240E+01 6.08450E+00 0.00000E+00
 -1      2458 9.43740E+01 7.38350E+00 0.00000E+00
 -1      2459 9.96240E+01 6.08450E+00 0.00000E+00
 -1      2460 9.81240E+01 6.08450E+00 0.00000E+00
 -1      2461 9.73740E+01 7.38350E+00 0.00000E+00
 -1      2462 1.02624E+02 6.08450E+00 0.00000E+00
 -1      2463 1.01124E+02 6.08450E+00 0.00000E+00
 -1      2464 1.00374E+02 7.38350E+00 0.00000E+00
 -1      2465 1.05624E+02 6.08450E+00 0.00000E+00
 -1      2466 1.04124E+02 6.08450E+00 0.00000E+00
 -1      2467 1.03374E+02 7.38350E+00 0.00000E+00
 -1      2468 1.08624E+02 6.08450E+00 0.00000E+00
 -1      2469 1.07124E+02 6.08450E+00 0.00000E+00
 -1      2470 1.06374E+02 7.38350E+00 0.00000E+00
 -1      2471 1.11624E+02 6.08450E+00 0.00000E+00
 -1      2472 1.10124E+02 6.08450E+00 0.00000E+00
 -1      2473 1.09374E+02 7.38350E+00 0.00000E+00
 -1      2474 1.14624E+02 6.08450E+00 0.00000E+00
 -1      2475 1.13124E+02 6.08450E+00 0.00000E+00
 -1      2476 1.12374E+02 7.38350E+00 0.00000E+00
 -1      2477 1.17624E+02 6.08450E+00 0.00000E+00
 -1      2478 1.16124E+02 6.08450E+00 0.00000E+00
 -1      2479 1.15374E+02 7.38350E+00 0.00000E+00
 -1      2480 1.20624E+02 6.08450E+00 0.00000E+00
 -1      2481 1.19124E+02 6.08450E+00 0.00000E+00
 -1      2482 1.18374E+02 7.38350E+00 0.00000E+00
 -1      2483 1.23624E+02 6.08450E+00 0.00000E+00
 -1      2484 1.22124E+02 6.08450E+00 0.00000E+00
 -1      2485 1.21374E+02 7.38350E+00 0.00000E+00
 -1      2486 1.26624E+02 6.08450E+00 0.00000E+00
 -1      2487 1.25124E+02 6.08450E+00 0.00000E+00
 -1      2488 1.24374E+02 7.38350E+00 0.00000E+00
 -1      2489 1.29624E+02 6.08450E+00 0.00000E+00
 -1      2490 1.28124E+02 6.08450E+00 0.00000E+00
 -1      2491 1.27374E+02 7.38350E+00 0.00000E+00
 -1      2492 1.32624E+02 6.08450E+00 0.00000E+00
 -1      2493 1.31124E+02 6.08450E+00 0.00000E+00
 -1      2494 1.30374E+02 7.38350E+00 0.00000E+00
 -1      2495 1.35624E+02 6.08450E+00 0.00000E+00
 -1      2496 1.34124E+02 6.08450E+00 0.00000E+00
 -1      2497 1.33374E+02 7.38350E+00 0.00000E+00
 -1      2498 1.38624E+02 6.08450E+00 0.00000E+00
 -1      2499 1.37124E+02 6.08450E+00 0.00000E+00
 -1      2500 1.36374E+02 7.38350E+00 0.00000E+00
 -1      2501 1.41624E+02 6.08450E+00 0.00000E+00
 -1      2502 1.40124E+02 6.08450E+00 0.00000E+00
 -1      2503 1.39374E+02 7.38350E+00 0.00000E+00
 -1      2504 1.43505E+02 1.69125E+01 0.00000E+00
 -1      2505 1.43505E+02 1.54375E+01 0.00000E+00
 -1      2506 1.43505E+02 1.39875E+01 0.00000E+00
 -1      2507 1.43505E+02 1.25375E+01 0.00000E+00
 -1      2508 1.42206E+02 1.47250E+01 0.00000E+00
 -1      2509 1.43505E+02 1.10625E+01 0.00000E+00
 -1      2510 1.43505E+02 9.58750E+00 0.00000E+00
 -1      2511 1.42206E+02 1.18000E+01 0.00000E+00
 -1      2512 8.29552E+01 3.45109E+01 0.00000E+00
 -1      2513 8.30960E+01 3.56242E+01 0.00000E+00
 -1      2514 1.43505E+02 1.98625E+01 0.00000E+00
 -1      2515 1.43505E+02 1.83875E+01 0.00000E+00
 -1      2516 1.42206E+02 1.76500E+01 0.00000E+00
 -1      2517 1.43505E+02 2.28125E+01 0.00000E+00
 -1      2518 1.43505E+02 2.13375E+01 0.00000E+00
 -1      2519 1.42206E+02 2.06000E+01 0.00000E+00
 -1      2520 1.43505E+02 2.57625E+01 0.00000E+00
 -1      2521 1.43505E+02 2.42875E+01 0.00000E+00
 -1      2522 1.42206E+02 2.35500E+01 0.00000E+00
 -1      2523 1.43505E+02 2.87125E+01 0.00000E+00
 -1      2524 1.43505E+02 2.72375E+01 0.00000E+00
 -1      2525 1.42206E+02 2.65000E+01 0.00000E+00
 -1      2526 1.43505E+02 3.16125E+01 0.00000E+00
 -1      2527 1.43505E+02 3.01625E+01 0.00000E+00
 -1      2528 1.42206E+02 2.94250E+01 0.00000E+00
 -1      2529 1.43505E+02 3.45625E+01 0.00000E+00
 -1      2530 1.43505E+02 3.30875E+01 0.00000E+00
 -1      2531 1.42206E+02 3.23500E+01 0.00000E+00
 -1      2532 1.43505E+02 3.75125E+01 0.00000E+00
 -1      2533 1.43505E+02 3.60375E+01 0.00000E+00
 -1      2534 1.42206E+02 3.53000E+01 0.00000E+00
 -1      2535 1.43505E+02 4.04625E+01 0.00000E+00
 -1      2536 1.43505E+02 3.89875E+01 0.00000E+00
 -1      2537 1.42206E+02 3.82500E+01 0.00000E+00
 -1      2538 7.60986E+01 2.62572E+01 0.00000E+00
 -1      2539 7.71754E+01 2.67822E+01 0.00000E+00
 -1      2540 8.26135E+01 3.86749E+01 0.00000E+00
 -1      2541 8.24450E+01 3.95857E+01 0.00000E+00
 -1      2542 6.41647E+01 3.00262E+01 0.00000E+00
 -1      2543 6.48252E+01 2.93046E+01 0.00000E+00
 -1      2544 6.49500E+00 2.71625E+01 0.00000E+00
 -1      2545 6.49500E+00 2.86375E+01 0.00000E+00
 -1      2546 7.79400E+00 2.93750E+01 0.00000E+00
 -1      2547 7.79400E+00 2.64250E+01 0.00000E+00
 -1      2548 8.30338E+01 3.68794E+01 0.00000E+00
 -1      2549 8.28236E+01 3.77771E+01 0.00000E+00
 -1      2550 8.35003E+01 3.83733E+01 0.00000E+00
 -1      2551 6.94947E+01 2.62089E+01 0.00000E+00
 -1      2552 7.05782E+01 2.60130E+01 0.00000E+00
 -1      2553 7.39926E+01 2.57069E+01 0.00000E+00
 -1      2554 7.48633E+01 2.57670E+01 0.00000E+00
 -1      2555 6.20774E+01 3.60440E+01 0.00000E+00
 -1      2556 6.22726E+01 3.50550E+01 0.00000E+00
 -1      2557 7.17464E+01 2.58908E+01 0.00000E+00
 -1      2558 7.28593E+01 2.57775E+01 0.00000E+00
 -1      2559 6.73782E+01 2.69690E+01 0.00000E+00
 -1      2560 6.82466E+01 2.65301E+01 0.00000E+00
 -1      2561 6.55720E+01 2.84616E+01 0.00000E+00
 -1      2562 6.63932E+01 2.77428E+01 0.00000E+00
 -1      2563 6.31027E+01 3.17457E+01 0.00000E+00
 -1      2564 6.34473E+01 3.09588E+01 0.00000E+00
 -1      2565 7.90742E+01 4.41880E+01 0.00000E+00
 -1      2566 7.84226E+01 4.48117E+01 0.00000E+00
 -1      2567 6.25248E+01 3.39333E+01 0.00000E+00
 -1      2568 6.27770E+01 3.28116E+01 0.00000E+00
 -1      2569 6.15858E+01 3.42617E+01 0.00000E+00
 -1      2570 6.23008E+01 3.85588E+01 0.00000E+00
 -1      2571 6.20860E+01 3.74294E+01 0.00000E+00
 -1      2572 6.31621E+01 4.06182E+01 0.00000E+00
 -1      2573 6.27168E+01 3.97842E+01 0.00000E+00
 -1      2574 1.42839E+02 8.11675E+00 0.00000E+00
 -1      2575 7.74562E+01 4.53845E+01 0.00000E+00
 -1      2576 8.06915E+01 4.25498E+01 0.00000E+00
 -1      2577 8.00148E+01 4.31904E+01 0.00000E+00
 -1      2578 8.20679E+01 4.07894E+01 0.00000E+00
 -1      2579 8.15313E+01 4.16882E+01 0.00000E+00
 -1      2580 8.24506E+01 3.23779E+01 0.00000E+00
 -1      2581 8.27464E+01 3.33269E+01 0.00000E+00
 -1      2582 7.99157E+01 4.43992E+01 0.00000E+00
 -1      2583 7.79400E+00 3.52687E+01 0.00000E+00
 -1      2584 6.49500E+00 3.60062E+01 0.00000E+00
 -1      2585 6.49500E+00 3.74750E+01 0.00000E+00
 -1      2586 7.99588E+01 2.76336E+01 0.00000E+00
 -1      2587 9.55950E+00 5.02450E+00 0.00000E+00
 -1      2588 9.37425E+00 5.84794E+00 0.00000E+00
 -1      2589 1.07692E+01 5.21931E+00 0.00000E+00
 -1      2590 8.13407E+01 4.43992E+01 0.00000E+00
 -1      2591 8.20907E+01 4.34578E+01 0.00000E+00
 -1      2592 8.47875E+01 4.32627E+01 0.00000E+00
 -1      2593 6.32069E+01 3.00755E+01 0.00000E+00
 -1      2594 7.10521E+01 2.51449E+01 0.00000E+00
 -1      2595 6.32250E+01 4.36951E+01 0.00000E+00
 -1      2596 6.45750E+01 4.36951E+01 0.00000E+00
 -1      2597 6.24750E+01 4.23961E+01 0.00000E+00
 -1      2598 8.18063E+01 2.93831E+01 0.00000E+00
 -1      2599 8.30481E+01 3.15012E+01 0.00000E+00
 -1      2600 1.41540E+02 8.85425E+00 0.00000E+00
 -1      2601 8.37726E+01 3.62204E+01 0.00000E+00
 -1      2602 8.36260E+01 3.37812E+01 0.00000E+00
 -1      2603 7.79709E+01 2.63840E+01 0.00000E+00
 -1      2604 7.57224E+01 2.53716E+01 0.00000E+00
 -1      2605 1.30515E+01 5.74931E+00 0.00000E+00
 -1      2606 1.18418E+01 5.55450E+00 0.00000E+00
 -1      2607 1.16565E+01 6.37794E+00 0.00000E+00
 -1      2608 1.38015E+01 7.04831E+00 0.00000E+00
 -1      2609 6.50850E+00 3.87101E+01 0.00000E+00
 -1      2610 6.50850E+00 4.01789E+01 0.00000E+00
 -1      2611 7.83450E+00 4.04429E+01 0.00000E+00
 -1      2612 7.80750E+00 3.79726E+01 0.00000E+00
 -1      2613 8.29130E+01 4.04747E+01 0.00000E+00
 -1      2614 6.46710E+01 2.82999E+01 0.00000E+00
 -1      2615 6.21638E+01 3.20741E+01 0.00000E+00
 -1      2616 7.33536E+01 2.49521E+01 0.00000E+00
 -1      2617 6.64027E+01 2.66832E+01 0.00000E+00
 -1      2618 6.86358E+01 2.55882E+01 0.00000E+00
 -1      2619 6.13423E+01 3.67689E+01 0.00000E+00
 -1      2620 6.17670E+01 3.93797E+01 0.00000E+00
 -1      2621 6.45210E+01 4.25418E+01 0.00000E+00
 -1      2622 6.40206E+01 4.16087E+01 0.00000E+00
 -1      2623 8.16961E+01 4.25400E+01 0.00000E+00
 -1      2624 1.43537E+02 4.21774E+01 0.00000E+00
 -1      2625 6.30415E+01 4.15956E+01 0.00000E+00
 -1      2626 1.42238E+02 4.14399E+01 0.00000E+00
 -1      2627 9.09300E+00 1.98250E+01 0.00000E+00
 -1      2628 9.09300E+00 2.12750E+01 0.00000E+00
 -1      2629 9.09300E+00 2.27500E+01 0.00000E+00
 -1      2630 9.09300E+00 2.42250E+01 0.00000E+00
 -1      2631 1.03920E+01 2.20250E+01 0.00000E+00
 -1      2632 9.09300E+00 1.39375E+01 0.00000E+00
 -1      2633 9.09300E+00 1.54125E+01 0.00000E+00
 -1      2634 9.09300E+00 1.09875E+01 0.00000E+00
 -1      2635 9.09300E+00 1.24625E+01 0.00000E+00
 -1      2636 1.03920E+01 1.32000E+01 0.00000E+00
 -1      2637 9.18900E+00 6.67137E+00 0.00000E+00
 -1      2638 9.00375E+00 7.49481E+00 0.00000E+00
 -1      2639 1.03988E+01 6.86619E+00 0.00000E+00
 -1      2640 6.51960E+01 4.36507E+01 0.00000E+00
 -1      2641 8.38968E+01 4.24607E+01 0.00000E+00
 -1      2642 8.53593E+01 4.22093E+01 0.00000E+00
 -1      2643 9.16050E+00 4.07069E+01 0.00000E+00
 -1      2644 1.04865E+01 4.09709E+01 0.00000E+00
 -1      2645 9.14700E+00 3.94717E+01 0.00000E+00
 -1      2646 9.09300E+00 3.15875E+01 0.00000E+00
 -1      2647 9.09300E+00 3.30625E+01 0.00000E+00
 -1      2648 1.19865E+01 4.09709E+01 0.00000E+00
 -1      2649 1.34865E+01 4.09709E+01 0.00000E+00
 -1      2650 1.19730E+01 3.97357E+01 0.00000E+00
 -1      2651 1.49115E+01 4.09709E+01 0.00000E+00
 -1      2652 1.63365E+01 4.09709E+01 0.00000E+00
 -1      2653 1.48980E+01 3.97357E+01 0.00000E+00
 -1      2654 1.78365E+01 4.09709E+01 0.00000E+00
 -1      2655 1.93365E+01 4.09709E+01 0.00000E+00
 -1      2656 1.78230E+01 3.97357E+01 0.00000E+00
 -1      2657 2.08365E+01 4.09709E+01 0.00000E+00
 -1      2658 2.23365E+01 4.09709E+01 0.00000E+00
 -1      2659 2.08230E+01 3.97357E+01 0.00000E+00
 -1      2660 2.38365E+01 4.09709E+01 0.00000E+00
 -1      2661 2.53365E+01 4.09709E+01 0.00000E+00
 -1      2662 2.38230E+01 3.97357E+01 0.00000E+00
 -1      2663 2.68365E+01 4.09709E+01 0.00000E+00
 -1      2664 2.83365E+01 4.09709E+01 0.00000E+00
 -1      2665 2.68230E+01 3.97357E+01 0.00000E+00
 -1      2666 2.98365E+01 4.09709E+01 0.00000E+00
 -1      2667 3.13365E+01 4.09709E+01 0.00000E+00
 -1      2668 2.98230E+01 3.97357E+01 0.00000E+00
 -1      2669 3.28365E+01 4.09709E+01 0.00000E+00
 -1      2670 3.43365E+01 4.09709E+01 0.00000E+00
 -1      2671 3.28230E+01 3.97357E+01 0.00000E+00
 -1      2672 3.57615E+01 4.09709E+01 0.00000E+00
 -1      2673 3.71865E+01 4.09709E+01 0.00000E+00
 -1      2674 3.57480E+01 3.97357E+01 0.00000E+00
 -1      2675 3.86865E+01 4.09709E+01 0.00000E+00
 -1      2676 4.01865E+01 4.09709E+01 0.00000E+00
 -1      2677 3.86730E+01 3.97357E+01 0.00000E+00
 -1      2678 4.16865E+01 4.09709E+01 0.00000E+00
 -1      2679 4.31865E+01 4.09709E+01 0.00000E+00
 -1      2680 4.16730E+01 3.97357E+01 0.00000E+00
 -1      2681 4.46865E+01 4.09709E+01 0.00000E+00
 -1      2682 4.61865E+01 4.09709E+01 0.00000E+00
 -1      2683 4.46730E+01 3.97357E+01 0.00000E+00
 -1      2684 4.76865E+01 4.09709E+01 0.00000E+00
 -1      2685 4.91865E+01 4.09709E+01 0.00000E+00
 -1      2686 4.76730E+01 3.97357E+01 0.00000E+00
 -1      2687 5.06865E+01 4.09709E+01 0.00000E+00
 -1      2688 5.21865E+01 4.09709E+01 0.00000E+00
 -1      2689 5.06730E+01 3.97357E+01 0.00000E+00
 -1      2690 5.36865E+01 4.09709E+01 0.00000E+00
 -1      2691 5.51865E+01 4.09709E+01 0.00000E+00
 -1      2692 5.36730E+01 3.97357E+01 0.00000E+00
 -1      2693 5.66115E+01 4.09709E+01 0.00000E+00
 -1      2694 5.80365E+01 4.09709E+01 0.00000E+00
 -1      2695 5.65980E+01 3.97357E+01 0.00000E+00
 -1      2696 5.95365E+01 4.09709E+01 0.00000E+00
 -1      2697 1.40907E+02 2.42875E+01 0.00000E+00
 -1      2698 1.40907E+02 2.28125E+01 0.00000E+00
 -1      2699 6.16165E+01 4.14056E+01 0.00000E+00
 -1      2700 1.40907E+02 1.54500E+01 0.00000E+00
 -1      2701 1.40907E+02 1.40000E+01 0.00000E+00
 -1      2702 8.70000E+01 4.19863E+01 0.00000E+00
 -1      2703 8.85000E+01 4.19863E+01 0.00000E+00
 -1      2704 6.59298E+01 4.44380E+01 0.00000E+00
 -1      2705 9.00000E+01 4.18187E+01 0.00000E+00
 -1      2706 9.15000E+01 4.18187E+01 0.00000E+00
 -1      2707 9.30000E+01 4.18187E+01 0.00000E+00
 -1      2708 9.45000E+01 4.18187E+01 0.00000E+00
 -1      2709 9.22500E+01 4.06260E+01 0.00000E+00
 -1      2710 9.60000E+01 4.18187E+01 0.00000E+00
 -1      2711 9.75000E+01 4.18187E+01 0.00000E+00
 -1      2712 9.52500E+01 4.06260E+01 0.00000E+00
 -1      2713 9.90000E+01 4.18187E+01 0.00000E+00
 -1      2714 1.00500E+02 4.18187E+01 0.00000E+00
 -1      2715 9.82500E+01 4.06260E+01 0.00000E+00
 -1      2716 1.02000E+02 4.18187E+01 0.00000E+00
 -1      2717 1.03500E+02 4.18187E+01 0.00000E+00
 -1      2718 1.01250E+02 4.06260E+01 0.00000E+00
 -1      2719 1.04925E+02 4.18187E+01 0.00000E+00
 -1      2720 1.06350E+02 4.18187E+01 0.00000E+00
 -1      2721 1.04175E+02 4.06260E+01 0.00000E+00
 -1      2722 1.07850E+02 4.18187E+01 0.00000E+00
 -1      2723 1.09350E+02 4.18187E+01 0.00000E+00
 -1      2724 1.07100E+02 4.06260E+01 0.00000E+00
 -1      2725 1.10850E+02 4.18187E+01 0.00000E+00
 -1      2726 1.12350E+02 4.18187E+01 0.00000E+00
 -1      2727 1.10100E+02 4.06260E+01 0.00000E+00
 -1      2728 1.13850E+02 4.18187E+01 0.00000E+00
 -1      2729 1.15350E+02 4.18187E+01 0.00000E+00
 -1      2730 1.13100E+02 4.06260E+01 0.00000E+00
 -1      2731 1.16850E+02 4.18187E+01 0.00000E+00
 -1      2732 1.18350E+02 4.18187E+01 0.00000E+00
 -1      2733 1.16100E+02 4.06260E+01 0.00000E+00
 -1      2734 1.19850E+02 4.18187E+01 0.00000E+00
 -1      2735 1.21350E+02 4.18187E+01 0.00000E+00
 -1      2736 1.19100E+02 4.06260E+01 0.00000E+00
 -1      2737 1.22850E+02 4.18187E+01 0.00000E+00
 -1      2738 1.24350E+02 4.18187E+01 0.00000E+00
 -1      2739 1.22100E+02 4.06260E+01 0.00000E+00
 -1      2740 1.25775E+02 4.18187E+01 0.00000E+00
 -1      2741 1.27200E+02 4.18187E+01 0.00000E+00
 -1      2742 1.25025E+02 4.06260E+01 0.00000E+00
 -1      2743 1.28700E+02 4.18187E+01 0.00000E+00
 -1      2744 1.30200E+02 4.18187E+01 0.00000E+00
 -1      2745 1.27950E+02 4.06260E+01 0.00000E+00
 -1      2746 1.31700E+02 4.18187E+01 0.00000E+00
 -1      2747 1.33200E+02 4.18187E+01 0.00000E+00
 -1      2748 1.30950E+02 4.06260E+01 0.00000E+00
 -1      2749 1.34700E+02 4.18187E+01 0.00000E+00
 -1      2750 1.36200E+02 4.18187E+01 0.00000E+00
 -1      2751 1.33950E+02 4.06260E+01 0.00000E+00
 -1      2752 1.37700E+02 4.18187E+01 0.00000E+00
 -1      2753 1.39200E+02 4.18187E+01 0.00000E+00
 -1      2754 1.36950E+02 4.06260E+01 0.00000E+00
 -1      2755 1.41078E+02 4.13682E+01 0.00000E+00
 -1      2756 2.01240E+01 8.68250E+00 0.00000E+00
 -1      2757 1.86240E+01 8.68250E+00 0.00000E+00
 -1      2758 2.31240E+01 8.68250E+00 0.00000E+00
 -1      2759 2.16240E+01 8.68250E+00 0.00000E+00
 -1      2760 2.08740E+01 9.98150E+00 0.00000E+00
 -1      2761 1.71240E+01 8.68250E+00 0.00000E+00
 -1      2762 1.56240E+01 8.68250E+00 0.00000E+00
 -1      2763 1.78740E+01 9.98150E+00 0.00000E+00
 -1      2764 2.91240E+01 8.68250E+00 0.00000E+00
 -1      2765 2.76240E+01 8.68250E+00 0.00000E+00
 -1      2766 3.21240E+01 8.68250E+00 0.00000E+00
 -1      2767 3.06240E+01 8.68250E+00 0.00000E+00
 -1      2768 2.98740E+01 9.98150E+00 0.00000E+00
 -1      2769 3.51240E+01 8.68250E+00 0.00000E+00
 -1      2770 3.36240E+01 8.68250E+00 0.00000E+00
 -1      2771 3.28740E+01 9.98150E+00 0.00000E+00
 -1      2772 3.81240E+01 8.68250E+00 0.00000E+00
 -1      2773 3.66240E+01 8.68250E+00 0.00000E+00
 -1      2774 3.58740E+01 9.98150E+00 0.00000E+00
 -1      2775 4.11240E+01 8.68250E+00 0.00000E+00
 -1      2776 3.96240E+01 8.68250E+00 0.00000E+00
 -1      2777 3.88740E+01 9.98150E+00 0.00000E+00
 -1      2778 4.41240E+01 8.68250E+00 0.00000E+00
 -1      2779 4.26240E+01 8.68250E+00 0.00000E+00
 -1      2780 4.18740E+01 9.98150E+00 0.00000E+00
 -1      2781 4.71240E+01 8.68250E+00 0.00000E+00
 -1      2782 4.56240E+01 8.68250E+00 0.00000E+00
 -1      2783 4.48740E+01 9.98150E+00 0.00000E+00
 -1      2784 5.01240E+01 8.68250E+00 0.00000E+00
 -1      2785 4.86240E+01 8.68250E+00 0.00000E+00
 -1      2786 4.78740E+01 9.98150E+00 0.00000E+00
 -1      2787 5.31240E+01 8.68250E+00 0.00000E+00
 -1      2788 5.16240E+01 8.68250E+00 0.00000E+00
 -1      2789 5.08740E+01 9.98150E+00 0.00000E+00
 -1      2790 5.61240E+01 8.68250E+00 0.00000E+00
 -1      2791 5.46240E+01 8.68250E+00 0.00000E+00
 -1      2792 5.38740E+01 9.98150E+00 0.00000E+00
 -1      2793 5.91240E+01 8.68250E+00 0.00000E+00
 -1      2794 5.76240E+01 8.68250E+00 0.00000E+00
 -1      2795 5.68740E+01 9.98150E+00 0.00000E+00
 -1      2796 6.21240E+01 8.68250E+00 0.00000E+00
 -1      2797 6.06240E+01 8.68250E+00 0.00000E+00
 -1      2798 5.98740E+01 9.98150E+00 0.00000E+00
 -1      2799 6.51240E+01 8.68250E+00 0.00000E+00
 -1      2800 6.36240E+01 8.68250E+00 0.00000E+00
 -1      2801 6.28740E+01 9.98150E+00 0.00000E+00
 -1      2802 6.81240E+01 8.68250E+00 0.00000E+00
 -1      2803 6.66240E+01 8.68250E+00 0.00000E+00
 -1      2804 6.58740E+01 9.98150E+00 0.00000E+00
 -1      2805 7.11240E+01 8.68250E+00 0.00000E+00
 -1      2806 6.96240E+01 8.68250E+00 0.00000E+00
 -1      2807 6.88740E+01 9.98150E+00 0.00000E+00
 -1      2808 7.41240E+01 8.68250E+00 0.00000E+00
 -1      2809 7.26240E+01 8.68250E+00 0.00000E+00
 -1      2810 7.18740E+01 9.98150E+00 0.00000E+00
 -1      2811 7.71240E+01 8.68250E+00 0.00000E+00
 -1      2812 7.56240E+01 8.68250E+00 0.00000E+00
 -1      2813 7.48740E+01 9.98150E+00 0.00000E+00
 -1      2814 8.01240E+01 8.68250E+00 0.00000E+00
 -1      2815 7.86240E+01 8.68250E+00 0.00000E+00
 -1      2816 7.78740E+01 9.98150E+00 0.00000E+00
 -1      2817 8.31240E+01 8.68250E+00 0.00000E+00
 -1      2818 8.16240E+01 8.68250E+00 0.00000E+00
 -1      2819 8.08740E+01 9.98150E+00 0.00000E+00
 -1      2820 8.61240E+01 8.68250E+00 0.00000E+00
 -1      2821 8.46240E+01 8.68250E+00 0.00000E+00
 -1      2822 8.38740E+01 9.98150E+00 0.00000E+00
 -1      2823 8.91240E+01 8.68250E+00 0.00000E+00
 -1      2824 8.76240E+01 8.68250E+00 0.00000E+00
 -1      2825 8.68740E+01 9.98150E+00 0.00000E+00
 -1      2826 9.21240E+01 8.68250E+00 0.00000E+00
 -1      2827 9.06240E+01 8.68250E+00 0.00000E+00
 -1      2828 8.98740E+01 9.98150E+00 0.00000E+00
 -1      2829 9.51240E+01 8.68250E+00 0.00000E+00
 -1      2830 9.36240E+01 8.68250E+00 0.00000E+00
 -1      2831 9.28740E+01 9.98150E+00 0.00000E+00
 -1      2832 9.81240E+01 8.68250E+00 0.00000E+00
 -1      2833 9.66240E+01 8.68250E+00 0.00000E+00
 -1      2834 9.58740E+01 9.98150E+00 0.00000E+00
 -1      2835 1.01124E+02 8.68250E+00 0.00000E+00
 -1      2836 9.96240E+01 8.68250E+00 0.00000E+00
 -1      2837 9.88740E+01 9.98150E+00 0.00000E+00
 -1      2838 1.04124E+02 8.68250E+00 0.00000E+00
 -1      2839 1.02624E+02 8.68250E+00 0.00000E+00
 -1      2840 1.01874E+02 9.98150E+00 0.00000E+00
 -1      2841 1.07124E+02 8.68250E+00 0.00000E+00
 -1      2842 1.05624E+02 8.68250E+00 0.00000E+00
 -1      2843 1.04874E+02 9.98150E+00 0.00000E+00
 -1      2844 1.10124E+02 8.68250E+00 0.00000E+00
 -1      2845 1.08624E+02 8.68250E+00 0.00000E+00
 -1      2846 1.07874E+02 9.98150E+00 0.00000E+00
 -1      2847 1.13124E+02 8.68250E+00 0.00000E+00
 -1      2848 1.11624E+02 8.68250E+00 0.00000E+00
 -1      2849 1.10874E+02 9.98150E+00 0.00000E+00
 -1      2850 1.16124E+02 8.68250E+00 0.00000E+00
 -1      2851 1.14624E+02 8.68250E+00 0.00000E+00
 -1      2852 1.13874E+02 9.98150E+00 0.00000E+00
 -1      2853 1.19124E+02 8.68250E+00 0.00000E+00
 -1      2854 1.17624E+02 8.68250E+00 0.00000E+00
 -1      2855 1.16874E+02 9.98150E+00 0.00000E+00
 -1      2856 1.22124E+02 8.68250E+00 0.00000E+00
 -1      2857 1.20624E+02 8.68250E+00 0.00000E+00
 -1      2858 1.19874E+02 9.98150E+00 0.00000E+00
 -1      2859 1.25124E+02 8.68250E+00 0.00000E+00
 -1      2860 1.23624E+02 8.68250E+00 0.00000E+00
 -1      2861 1.22874E+02 9.98150E+00 0.00000E+00
 -1      2862 1.28124E+02 8.68250E+00 0.00000E+00
 -1      2863 1.26624E+02 8.68250E+00 0.00000E+00
 -1      2864 1.25874E+02 9.98150E+00 0.00000E+00
 -1      2865 1.31124E+02 8.68250E+00 0.00000E+00
 -1      2866 1.29624E+02 8.68250E+00 0.00000E+00
 -1      2867 1.28874E+02 9.98150E+00 0.00000E+00
 -1      2868 1.34124E+02 8.68250E+00 0.00000E+00
 -1      2869 1.32624E+02 8.68250E+00 0.00000E+00
 -1      2870 1.31874E+02 9.98150E+00 0.00000E+00
 -1      2871 1.37124E+02 8.68250E+00 0.00000E+00
 -1      2872 1.35624E+02 8.68250E+00 0.00000E+00
 -1      2873 1.34874E+02 9.98150E+00 0.00000E+00
 -1      2874 1.40082E+02 8.76838E+00 0.00000E+00
 -1      2875 1.38582E+02 8.76838E+00 0.00000E+00
 -1      2876 1.37832E+02 1.00674E+01 0.00000E+00
 -1      2877 1.40748E+02 1.02391E+01 0.00000E+00
 -1      2878 1.40907E+02 2.13375E+01 0.00000E+00
 -1      2879 1.40907E+02 1.98625E+01 0.00000E+00
 -1      2880 1.39608E+02 2.20750E+01 0.00000E+00
 -1      2881 6.21684E+01 3.00190E+01 0.00000E+00
 -1      2882 6.28858E+01 2.90864E+01 0.00000E+00
 -1      2883 1.40827E+02 1.28571E+01 0.00000E+00
 -1      2884 1.40827E+02 1.13821E+01 0.00000E+00
 -1      2885 1.39370E+02 1.12962E+01 0.00000E+00
 -1      2886 1.39529E+02 1.35821E+01 0.00000E+00
 -1      2887 1.40907E+02 1.83937E+01 0.00000E+00
 -1      2888 1.40907E+02 1.69188E+01 0.00000E+00
 -1      2889 1.39608E+02 1.61938E+01 0.00000E+00
 -1      2890 1.39608E+02 1.91313E+01 0.00000E+00
 -1      2891 2.61240E+01 8.68250E+00 0.00000E+00
 -1      2892 2.46240E+01 8.68250E+00 0.00000E+00
 -1      2893 2.38740E+01 9.98150E+00 0.00000E+00
 -1      2894 2.68740E+01 9.98150E+00 0.00000E+00
 -1      2895 1.40907E+02 2.72375E+01 0.00000E+00
 -1      2896 1.40907E+02 2.57625E+01 0.00000E+00
 -1      2897 1.39608E+02 2.50250E+01 0.00000E+00
 -1      2898 1.40907E+02 3.01375E+01 0.00000E+00
 -1      2899 1.40907E+02 2.86875E+01 0.00000E+00
 -1      2900 1.39608E+02 2.79500E+01 0.00000E+00
 -1      2901 1.40907E+02 3.30875E+01 0.00000E+00
 -1      2902 1.40907E+02 3.16125E+01 0.00000E+00
 -1      2903 1.39608E+02 3.08750E+01 0.00000E+00
 -1      2904 1.40907E+02 3.60375E+01 0.00000E+00
 -1      2905 1.40907E+02 3.45625E+01 0.00000E+00
 -1      2906 1.39608E+02 3.38250E+01 0.00000E+00
 -1      2907 1.40907E+02 3.89875E+01 0.00000E+00
 -1      2908 1.40907E+02 3.75125E+01 0.00000E+00
 -1      2909 1.39608E+02 3.67750E+01 0.00000E+00
 -1      2910 8.29305E+01 4.25962E+01 0.00000E+00
 -1      2911 8.43661E+01 3.30403E+01 0.00000E+00
 -1      2912 8.45749E+01 3.42243E+01 0.00000E+00
 -1      2913 6.06231E+01 3.46344E+01 0.00000E+00
 -1      2914 6.08753E+01 3.35127E+01 0.00000E+00
 -1      2915 6.10205E+01 3.23075E+01 0.00000E+00
 -1      2916 6.13463E+01 3.12416E+01 0.00000E+00
 -1      2917 8.00345E+01 2.65155E+01 0.00000E+00
 -1      2918 8.10092E+01 2.72430E+01 0.00000E+00
 -1      2919 8.37557E+01 3.06527E+01 0.00000E+00
 -1      2920 8.41248E+01 3.17488E+01 0.00000E+00
 -1      2921 6.53287E+01 2.63298E+01 0.00000E+00
 -1      2922 6.63137E+01 2.55560E+01 0.00000E+00
 -1      2923 6.04053E+01 3.74675E+01 0.00000E+00
 -1      2924 6.03966E+01 3.60820E+01 0.00000E+00
 -1      2925 6.77563E+01 2.47561E+01 0.00000E+00
 -1      2926 6.90044E+01 2.44349E+01 0.00000E+00
 -1      2927 7.03788E+01 2.43531E+01 0.00000E+00
 -1      2928 7.15469E+01 2.42309E+01 0.00000E+00
 -1      2929 8.47439E+01 3.56393E+01 0.00000E+00
 -1      2930 8.46817E+01 3.68945E+01 0.00000E+00
 -1      2931 6.12026E+01 4.02546E+01 0.00000E+00
 -1      2932 6.07866E+01 3.90292E+01 0.00000E+00
 -1      2933 7.27283E+01 2.40479E+01 0.00000E+00
 -1      2934 7.38617E+01 2.39772E+01 0.00000E+00
 -1      2935 8.44403E+01 3.81199E+01 0.00000E+00
 -1      2936 8.42302E+01 3.90176E+01 0.00000E+00
 -1      2937 6.35930E+01 2.80972E+01 0.00000E+00
 -1      2938 6.43397E+01 2.72542E+01 0.00000E+00
 -1      2939 7.54055E+01 2.43683E+01 0.00000E+00
 -1      2940 7.66409E+01 2.48585E+01 0.00000E+00
 -1      2941 9.09300E+00 1.68813E+01 0.00000E+00
 -1      2942 9.09300E+00 1.83563E+01 0.00000E+00
 -1      2943 1.03920E+01 1.90812E+01 0.00000E+00
 -1      2944 1.03920E+01 1.61437E+01 0.00000E+00
 -1      2945 7.78572E+01 2.53606E+01 0.00000E+00
 -1      2946 7.88704E+01 2.58828E+01 0.00000E+00
 -1      2947 8.21495E+01 2.82064E+01 0.00000E+00
 -1      2948 8.30222E+01 2.92284E+01 0.00000E+00
 -1      2949 8.38793E+01 4.03392E+01 0.00000E+00
 -1      2950 8.35023E+01 4.15428E+01 0.00000E+00
 -1      2951 1.03920E+01 2.49750E+01 0.00000E+00
 -1      2952 9.09300E+00 2.57000E+01 0.00000E+00
 -1      2953 9.09300E+00 2.71750E+01 0.00000E+00
 -1      2954 9.00375E+00 8.96981E+00 0.00000E+00
 -1      2955 6.25546E+01 2.80407E+01 0.00000E+00
 -1      2956 8.61093E+01 4.11842E+01 0.00000E+00
 -1      2957 6.06361E+01 4.10551E+01 0.00000E+00
 -1      2958 8.92500E+01 4.07936E+01 0.00000E+00
 -1      2959 1.03920E+01 3.37938E+01 0.00000E+00
 -1      2960 9.09300E+00 3.45313E+01 0.00000E+00
 -1      2961 9.09300E+00 3.60000E+01 0.00000E+00
 -1      2962 1.40328E+02 4.01755E+01 0.00000E+00
 -1      2963 1.48740E+01 9.98151E+00 0.00000E+00
 -1      2964 1.41240E+01 8.68251E+00 0.00000E+00
 -1      2965 6.10252E+01 3.02524E+01 0.00000E+00
 -1      2966 8.40989E+01 2.94760E+01 0.00000E+00
 -1      2967 7.47803E+01 2.34642E+01 0.00000E+00
 -1      2968 7.56988E+01 2.29511E+01 0.00000E+00
 -1      2969 7.41550E+01 2.25600E+01 0.00000E+00
 -1      2970 7.99208E+01 2.54921E+01 0.00000E+00
 -1      2971 6.00578E+01 3.26802E+01 0.00000E+00
 -1      2972 1.39029E+02 3.94380E+01 0.00000E+00
 -1      2973 5.96861E+01 3.53330E+01 0.00000E+00
 -1      2974 1.30515E+01 8.34733E+00 0.00000E+00
 -1      2975 8.50737E+01 3.21918E+01 0.00000E+00
 -1      2976 8.54116E+01 3.75389E+01 0.00000E+00
 -1      2977 7.20551E+01 2.32561E+01 0.00000E+00
 -1      2978 8.54840E+01 3.48984E+01 0.00000E+00
 -1      2979 6.94993E+01 2.35209E+01 0.00000E+00
 -1      2980 9.09300E+00 2.86437E+01 0.00000E+00
 -1      2981 9.09300E+00 3.01187E+01 0.00000E+00
 -1      2982 1.03920E+01 3.08563E+01 0.00000E+00
 -1      2983 1.03920E+01 2.79188E+01 0.00000E+00
 -1      2984 6.66823E+01 2.44027E+01 0.00000E+00
 -1      2985 8.22252E+01 2.70883E+01 0.00000E+00
 -1      2986 6.42507E+01 2.61271E+01 0.00000E+00
 -1      2987 8.48194E+01 4.00857E+01 0.00000E+00
 -1      2988 7.75404E+01 2.43574E+01 0.00000E+00
 -1      2989 1.03027E+01 9.70731E+00 0.00000E+00
 -1      2990 1.16910E+01 1.24625E+01 0.00000E+00
 -1      2991 1.16910E+01 1.39375E+01 0.00000E+00
 -1      2992 1.14712E+01 7.20138E+00 0.00000E+00
 -1      2993 6.13670E+01 2.79391E+01 0.00000E+00
 -1      2994 6.20742E+01 2.69499E+01 0.00000E+00
 -1      2995 9.11325E+00 3.71183E+01 0.00000E+00
 -1      2996 9.12675E+00 3.83534E+01 0.00000E+00
 -1      2997 1.04528E+01 3.86174E+01 0.00000E+00
 -1      2998 1.04122E+01 3.63808E+01 0.00000E+00
 -1      2999 6.54639E+01 2.39062E+01 0.00000E+00
 -1      3000 6.69064E+01 2.31062E+01 0.00000E+00
 -1      3001 1.41855E+01 3.84367E+01 0.00000E+00
 -1      3002 1.56105E+01 3.84367E+01 0.00000E+00
 -1      3003 1.71105E+01 3.84367E+01 0.00000E+00
 -1      3004 1.86105E+01 3.84367E+01 0.00000E+00
 -1      3005 1.63980E+01 3.71377E+01 0.00000E+00
 -1      3006 2.01105E+01 3.84367E+01 0.00000E+00
 -1      3007 2.16105E+01 3.84367E+01 0.00000E+00
 -1      3008 1.93980E+01 3.71377E+01 0.00000E+00
 -1      3009 2.31105E+01 3.84367E+01 0.00000E+00
 -1      3010 2.46105E+01 3.84367E+01 0.00000E+00
 -1      3011 2.23980E+01 3.71377E+01 0.00000E+00
 -1      3012 2.61105E+01 3.84367E+01 0.00000E+00
 -1      3013 2.76105E+01 3.84367E+01 0.00000E+00
 -1      3014 2.53980E+01 3.71377E+01 0.00000E+00
 -1      3015 2.91105E+01 3.84367E+01 0.00000E+00
 -1      3016 3.06105E+01 3.84367E+01 0.00000E+00
 -1      3017 2.83980E+01 3.71377E+01 0.00000E+00
 -1      3018 3.21105E+01 3.84367E+01 0.00000E+00
 -1      3019 3.36105E+01 3.84367E+01 0.00000E+00
 -1      3020 3.13980E+01 3.71377E+01 0.00000E+00
 -1      3021 3.50355E+01 3.84367E+01 0.00000E+00
 -1      3022 3.64605E+01 3.84367E+01 0.00000E+00
 -1      3023 3.43230E+01 3.71377E+01 0.00000E+00
 -1      3024 3.79605E+01 3.84367E+01 0.00000E+00
 -1      3025 3.94605E+01 3.84367E+01 0.00000E+00
 -1      3026 3.72480E+01 3.71377E+01 0.00000E+00
 -1      3027 4.09605E+01 3.84367E+01 0.00000E+00
 -1      3028 4.24605E+01 3.84367E+01 0.00000E+00
 -1      3029 4.02480E+01 3.71377E+01 0.00000E+00
 -1      3030 4.39605E+01 3.84367E+01 0.00000E+00
 -1      3031 4.54605E+01 3.84367E+01 0.00000E+00
 -1      3032 4.32480E+01 3.71377E+01 0.00000E+00
 -1      3033 4.69605E+01 3.84367E+01 0.00000E+00
 -1      3034 4.84605E+01 3.84367E+01 0.00000E+00
 -1      3035 4.62480E+01 3.71377E+01 0.00000E+00
 -1      3036 4.99605E+01 3.84367E+01 0.00000E+00
 -1      3037 5.14605E+01 3.84367E+01 0.00000E+00
 -1      3038 4.92480E+01 3.71377E+01 0.00000E+00
 -1      3039 5.29605E+01 3.84367E+01 0.00000E+00
 -1      3040 5.44605E+01 3.84367E+01 0.00000E+00
 -1      3041 5.22480E+01 3.71377E+01 0.00000E+00
 -1      3042 5.58855E+01 3.84367E+01 0.00000E+00
 -1      3043 5.73105E+01 3.84367E+01 0.00000E+00
 -1      3044 5.51730E+01 3.71377E+01 0.00000E+00
 -1      3045 1.38309E+02 2.86750E+01 0.00000E+00
 -1      3046 1.38309E+02 2.72250E+01 0.00000E+00
 -1      3047 1.56240E+01 1.12805E+01 0.00000E+00
 -1      3048 1.41241E+01 1.12805E+01 0.00000E+00
 -1      3049 9.45000E+01 3.93270E+01 0.00000E+00
 -1      3050 9.60000E+01 3.93270E+01 0.00000E+00
 -1      3051 9.75000E+01 3.93270E+01 0.00000E+00
 -1      3052 9.90000E+01 3.93270E+01 0.00000E+00
 -1      3053 9.67500E+01 3.80280E+01 0.00000E+00
 -1      3054 1.00500E+02 3.93270E+01 0.00000E+00
 -1      3055 1.02000E+02 3.93270E+01 0.00000E+00
 -1      3056 9.97500E+01 3.80280E+01 0.00000E+00
 -1      3057 1.03425E+02 3.93270E+01 0.00000E+00
 -1      3058 1.04850E+02 3.93270E+01 0.00000E+00
 -1      3059 1.02675E+02 3.80280E+01 0.00000E+00
 -1      3060 1.06350E+02 3.93270E+01 0.00000E+00
 -1      3061 1.07850E+02 3.93270E+01 0.00000E+00
 -1      3062 1.05600E+02 3.80280E+01 0.00000E+00
 -1      3063 1.09350E+02 3.93270E+01 0.00000E+00
 -1      3064 1.10850E+02 3.93270E+01 0.00000E+00
 -1      3065 1.08600E+02 3.80280E+01 0.00000E+00
 -1      3066 1.12350E+02 3.93270E+01 0.00000E+00
 -1      3067 1.13850E+02 3.93270E+01 0.00000E+00
 -1      3068 1.11600E+02 3.80280E+01 0.00000E+00
 -1      3069 1.15350E+02 3.93270E+01 0.00000E+00
 -1      3070 1.16850E+02 3.93270E+01 0.00000E+00
 -1      3071 1.14600E+02 3.80280E+01 0.00000E+00
 -1      3072 1.18350E+02 3.93270E+01 0.00000E+00
 -1      3073 1.19850E+02 3.93270E+01 0.00000E+00
 -1      3074 1.17600E+02 3.80280E+01 0.00000E+00
 -1      3075 1.21350E+02 3.93270E+01 0.00000E+00
 -1      3076 1.22850E+02 3.93270E+01 0.00000E+00
 -1      3077 1.20600E+02 3.80280E+01 0.00000E+00
 -1      3078 1.24275E+02 3.93270E+01 0.00000E+00
 -1      3079 1.25700E+02 3.93270E+01 0.00000E+00
 -1      3080 1.23525E+02 3.80280E+01 0.00000E+00
 -1      3081 1.27200E+02 3.93270E+01 0.00000E+00
 -1      3082 1.28700E+02 3.93270E+01 0.00000E+00
 -1      3083 1.26450E+02 3.80280E+01 0.00000E+00
 -1      3084 1.30200E+02 3.93270E+01 0.00000E+00
 -1      3085 1.31700E+02 3.93270E+01 0.00000E+00
 -1      3086 1.29450E+02 3.80280E+01 0.00000E+00
 -1      3087 1.33200E+02 3.93270E+01 0.00000E+00
 -1      3088 1.34700E+02 3.93270E+01 0.00000E+00
 -1      3089 1.32450E+02 3.80280E+01 0.00000E+00
 -1      3090 1.36115E+02 3.93825E+01 0.00000E+00
 -1      3091 1.37615E+02 3.93825E+01 0.00000E+00
 -1      3092 1.38193E+02 3.81945E+01 0.00000E+00
 -1      3093 1.35365E+02 3.80835E+01 0.00000E+00
 -1      3094 1.38309E+02 3.16250E+01 0.00000E+00
 -1      3095 1.38309E+02 3.01500E+01 0.00000E+00
 -1      3096 1.37010E+02 2.94250E+01 0.00000E+00
 -1      3097 5.97635E+01 3.02916E+01 0.00000E+00
 -1      3098 6.05856E+01 2.90691E+01 0.00000E+00
 -1      3099 2.16240E+01 1.12805E+01 0.00000E+00
 -1      3100 2.01240E+01 1.12805E+01 0.00000E+00
 -1      3101 1.86240E+01 1.12805E+01 0.00000E+00
 -1      3102 1.71240E+01 1.12805E+01 0.00000E+00
 -1      3103 1.63741E+01 1.25795E+01 0.00000E+00
 -1      3104 1.93740E+01 1.25795E+01 0.00000E+00
 -1      3105 3.36240E+01 1.12805E+01 0.00000E+00
 -1      3106 3.21240E+01 1.12805E+01 0.00000E+00
 -1      3107 3.06240E+01 1.12805E+01 0.00000E+00
 -1      3108 2.91240E+01 1.12805E+01 0.00000E+00
 -1      3109 3.13740E+01 1.25795E+01 0.00000E+00
 -1      3110 3.96240E+01 1.12805E+01 0.00000E+00
 -1      3111 3.81240E+01 1.12805E+01 0.00000E+00
 -1      3112 4.26240E+01 1.12805E+01 0.00000E+00
 -1      3113 4.11240E+01 1.12805E+01 0.00000E+00
 -1      3114 4.03740E+01 1.25795E+01 0.00000E+00
 -1      3115 4.56240E+01 1.12805E+01 0.00000E+00
 -1      3116 4.41240E+01 1.12805E+01 0.00000E+00
 -1      3117 4.33740E+01 1.25795E+01 0.00000E+00
 -1      3118 4.86240E+01 1.12805E+01 0.00000E+00
 -1      3119 4.71240E+01 1.12805E+01 0.00000E+00
 -1      3120 4.63740E+01 1.25795E+01 0.00000E+00
 -1      3121 5.16240E+01 1.12805E+01 0.00000E+00
 -1      3122 5.01240E+01 1.12805E+01 0.00000E+00
 -1      3123 4.93740E+01 1.25795E+01 0.00000E+00
 -1      3124 5.46240E+01 1.12805E+01 0.00000E+00
 -1      3125 5.31240E+01 1.12805E+01 0.00000E+00
 -1      3126 5.23740E+01 1.25795E+01 0.00000E+00
 -1      3127 5.76240E+01 1.12805E+01 0.00000E+00
 -1      3128 5.61240E+01 1.12805E+01 0.00000E+00
 -1      3129 5.53740E+01 1.25795E+01 0.00000E+00
 -1      3130 6.06240E+01 1.12805E+01 0.00000E+00
 -1      3131 5.91240E+01 1.12805E+01 0.00000E+00
 -1      3132 5.83740E+01 1.25795E+01 0.00000E+00
 -1      3133 6.36240E+01 1.12805E+01 0.00000E+00
 -1      3134 6.21240E+01 1.12805E+01 0.00000E+00
 -1      3135 6.13740E+01 1.25795E+01 0.00000E+00
 -1      3136 6.66240E+01 1.12805E+01 0.00000E+00
 -1      3137 6.51240E+01 1.12805E+01 0.00000E+00
 -1      3138 6.43740E+01 1.25795E+01 0.00000E+00
 -1      3139 6.96240E+01 1.12805E+01 0.00000E+00
 -1      3140 6.81240E+01 1.12805E+01 0.00000E+00
 -1      3141 6.73740E+01 1.25795E+01 0.00000E+00
 -1      3142 7.26240E+01 1.12805E+01 0.00000E+00
 -1      3143 7.11240E+01 1.12805E+01 0.00000E+00
 -1      3144 7.03740E+01 1.25795E+01 0.00000E+00
 -1      3145 7.56240E+01 1.12805E+01 0.00000E+00
 -1      3146 7.41240E+01 1.12805E+01 0.00000E+00
 -1      3147 7.33740E+01 1.25795E+01 0.00000E+00
 -1      3148 7.86240E+01 1.12805E+01 0.00000E+00
 -1      3149 7.71240E+01 1.12805E+01 0.00000E+00
 -1      3150 7.63740E+01 1.25795E+01 0.00000E+00
 -1      3151 8.16240E+01 1.12805E+01 0.00000E+00
 -1      3152 8.01240E+01 1.12805E+01 0.00000E+00
 -1      3153 7.93740E+01 1.25795E+01 0.00000E+00
 -1      3154 8.46240E+01 1.12805E+01 0.00000E+00
 -1      3155 8.31240E+01 1.12805E+01 0.00000E+00
 -1      3156 8.23740E+01 1.25795E+01 0.00000E+00
 -1      3157 8.76240E+01 1.12805E+01 0.00000E+00
 -1      3158 8.61240E+01 1.12805E+01 0.00000E+00
 -1      3159 8.53740E+01 1.25795E+01 0.00000E+00
 -1      3160 9.06240E+01 1.12805E+01 0.00000E+00
 -1      3161 8.91240E+01 1.12805E+01 0.00000E+00
 -1      3162 8.83740E+01 1.25795E+01 0.00000E+00
 -1      3163 9.36240E+01 1.12805E+01 0.00000E+00
 -1      3164 9.21240E+01 1.12805E+01 0.00000E+00
 -1      3165 9.13740E+01 1.25795E+01 0.00000E+00
 -1      3166 9.66240E+01 1.12805E+01 0.00000E+00
 -1      3167 9.51240E+01 1.12805E+01 0.00000E+00
 -1      3168 9.43740E+01 1.25795E+01 0.00000E+00
 -1      3169 9.96240E+01 1.12805E+01 0.00000E+00
 -1      3170 9.81240E+01 1.12805E+01 0.00000E+00
 -1      3171 9.73740E+01 1.25795E+01 0.00000E+00
 -1      3172 1.02624E+02 1.12805E+01 0.00000E+00
 -1      3173 1.01124E+02 1.12805E+01 0.00000E+00
 -1      3174 1.00374E+02 1.25795E+01 0.00000E+00
 -1      3175 1.05624E+02 1.12805E+01 0.00000E+00
 -1      3176 1.04124E+02 1.12805E+01 0.00000E+00
 -1      3177 1.03374E+02 1.25795E+01 0.00000E+00
 -1      3178 1.08624E+02 1.12805E+01 0.00000E+00
 -1      3179 1.07124E+02 1.12805E+01 0.00000E+00
 -1      3180 1.06374E+02 1.25795E+01 0.00000E+00
 -1      3181 1.11624E+02 1.12805E+01 0.00000E+00
 -1      3182 1.10124E+02 1.12805E+01 0.00000E+00
 -1      3183 1.09374E+02 1.25795E+01 0.00000E+00
 -1      3184 1.14624E+02 1.12805E+01 0.00000E+00
 -1      3185 1.13124E+02 1.12805E+01 0.00000E+00
 -1      3186 1.12374E+02 1.25795E+01 0.00000E+00
 -1      3187 1.17624E+02 1.12805E+01 0.00000E+00
 -1      3188 1.16124E+02 1.12805E+01 0.00000E+00
 -1      3189 1.15374E+02 1.25795E+01 0.00000E+00
 -1      3190 1.20624E+02 1.12805E+01 0.00000E+00
 -1      3191 1.19124E+02 1.12805E+01 0.00000E+00
 -1      3192 1.18374E+02 1.25795E+01 0.00000E+00
 -1      3193 1.23624E+02 1.12805E+01 0.00000E+00
 -1      3194 1.22124E+02 1.12805E+01 0.00000E+00
 -1      3195 1.21374E+02 1.25795E+01 0.00000E+00
 -1      3196 1.26624E+02 1.12805E+01 0.00000E+00
 -1      3197 1.25124E+02 1.12805E+01 0.00000E+00
 -1      3198 1.24374E+02 1.25795E+01 0.00000E+00
 -1      3199 1.29624E+02 1.12805E+01 0.00000E+00
 -1      3200 1.28124E+02 1.12805E+01 0.00000E+00
 -1      3201 1.27374E+02 1.25795E+01 0.00000E+00
 -1      3202 1.32624E+02 1.12805E+01 0.00000E+00
 -1      3203 1.31124E+02 1.12805E+01 0.00000E+00
 -1      3204 1.30374E+02 1.25795E+01 0.00000E+00
 -1      3205 1.35624E+02 1.12805E+01 0.00000E+00
 -1      3206 1.34124E+02 1.12805E+01 0.00000E+00
 -1      3207 1.33374E+02 1.25795E+01 0.00000E+00
 -1      3208 1.38226E+02 1.13313E+01 0.00000E+00
 -1      3209 1.36768E+02 1.12454E+01 0.00000E+00
 -1      3210 1.36018E+02 1.25444E+01 0.00000E+00
 -1      3211 1.38305E+02 1.24742E+01 0.00000E+00
 -1      3212 1.38309E+02 2.28125E+01 0.00000E+00
 -1      3213 1.38309E+02 2.13375E+01 0.00000E+00
 -1      3214 1.38309E+02 3.45750E+01 0.00000E+00
 -1      3215 1.38309E+02 3.31000E+01 0.00000E+00
 -1      3216 1.37010E+02 3.23750E+01 0.00000E+00
 -1      3217 1.38193E+02 3.67195E+01 0.00000E+00
 -1      3218 5.88842E+01 3.31502E+01 0.00000E+00
 -1      3219 5.90295E+01 3.19449E+01 0.00000E+00
 -1      3220 8.58783E+01 3.13732E+01 0.00000E+00
 -1      3221 8.61197E+01 3.26647E+01 0.00000E+00
 -1      3222 1.38309E+02 2.57563E+01 0.00000E+00
 -1      3223 1.38309E+02 2.42813E+01 0.00000E+00
 -1      3224 1.37010E+02 2.35438E+01 0.00000E+00
 -1      3225 1.37010E+02 2.64813E+01 0.00000E+00
 -1      3226 8.46435E+01 2.82945E+01 0.00000E+00
 -1      3227 8.53770E+01 2.97188E+01 0.00000E+00
 -1      3228 5.86428E+01 3.59114E+01 0.00000E+00
 -1      3229 5.88693E+01 3.44638E+01 0.00000E+00
 -1      3230 8.65381E+01 3.71243E+01 0.00000E+00
 -1      3231 8.62967E+01 3.83497E+01 0.00000E+00
 -1      3232 6.02757E+01 3.86403E+01 0.00000E+00
 -1      3233 5.93300E+01 3.79535E+01 0.00000E+00
 -1      3234 8.23166E+01 2.58235E+01 0.00000E+00
 -1      3235 8.34569E+01 2.67869E+01 0.00000E+00
 -1      3236 3.66240E+01 1.12805E+01 0.00000E+00
 -1      3237 3.51240E+01 1.12805E+01 0.00000E+00
 -1      3238 3.43740E+01 1.25795E+01 0.00000E+00
 -1      3239 3.73740E+01 1.25795E+01 0.00000E+00
 -1      3240 9.15000E+01 3.93270E+01 0.00000E+00
 -1      3241 9.30000E+01 3.93270E+01 0.00000E+00
 -1      3242 9.37500E+01 3.80280E+01 0.00000E+00
 -1      3243 1.17938E+01 8.83558E+00 0.00000E+00
 -1      3244 8.65006E+01 3.40594E+01 0.00000E+00
 -1      3245 8.66696E+01 3.54745E+01 0.00000E+00
 -1      3246 7.13202E+01 2.24173E+01 0.00000E+00
 -1      3247 7.25016E+01 2.22343E+01 0.00000E+00
 -1      3248 5.97113E+01 3.95152E+01 0.00000E+00
 -1      3249 7.98283E+01 2.42751E+01 0.00000E+00
 -1      3250 8.09924E+01 2.49078E+01 0.00000E+00
 -1      3251 1.16910E+01 2.12875E+01 0.00000E+00
 -1      3252 1.16910E+01 2.27625E+01 0.00000E+00
 -1      3253 6.85714E+01 2.25809E+01 0.00000E+00
 -1      3254 6.99458E+01 2.24991E+01 0.00000E+00
 -1      3255 7.03924E+01 2.14774E+01 0.00000E+00
 -1      3256 8.64601E+01 3.98627E+01 0.00000E+00
 -1      3257 8.83676E+01 3.96920E+01 0.00000E+00
 -1      3258 8.98676E+01 3.95245E+01 0.00000E+00
 -1      3259 6.30562E+01 2.58404E+01 0.00000E+00
 -1      3260 6.40452E+01 2.49160E+01 0.00000E+00
 -1      3261 1.15691E+01 3.85271E+01 0.00000E+00
 -1      3262 1.30691E+01 3.85271E+01 0.00000E+00
 -1      3263 1.37816E+01 3.72281E+01 0.00000E+00
 -1      3264 1.15489E+01 3.74088E+01 0.00000E+00
 -1      3265 7.73956E+01 2.32709E+01 0.00000E+00
 -1      3266 7.86120E+01 2.37730E+01 0.00000E+00
 -1      3267 7.96835E+01 2.31887E+01 0.00000E+00
 -1      3268 1.18830E+01 1.08533E+01 0.00000E+00
 -1      3269 8.75547E+01 3.62853E+01 0.00000E+00
 -1      3270 6.01053E+01 2.79783E+01 0.00000E+00
 -1      3271 6.42693E+01 2.36195E+01 0.00000E+00
 -1      3272 7.67704E+01 2.23668E+01 0.00000E+00
 -1      3273 7.78420E+01 2.17824E+01 0.00000E+00
 -1      3274 7.61451E+01 2.14626E+01 0.00000E+00
 -1      3275 5.91226E+01 3.98200E+01 0.00000E+00
 -1      3276 8.64230E+01 3.01917E+01 0.00000E+00
 -1      3277 1.39320E+01 1.28898E+01 0.00000E+00
 -1      3278 1.31820E+01 1.15908E+01 0.00000E+00
 -1      3279 2.76240E+01 1.12805E+01 0.00000E+00
 -1      3280 2.61240E+01 1.12805E+01 0.00000E+00
 -1      3281 2.83740E+01 1.25795E+01 0.00000E+00
 -1      3282 1.16910E+01 3.30594E+01 0.00000E+00
 -1      3283 1.16910E+01 3.45281E+01 0.00000E+00
 -1      3284 6.61346E+01 2.15879E+01 0.00000E+00
 -1      3285 6.73530E+01 2.20844E+01 0.00000E+00
 -1      3286 6.77996E+01 2.10627E+01 0.00000E+00
 -1      3287 1.38309E+02 1.69281E+01 0.00000E+00
 -1      3288 1.38309E+02 1.54594E+01 0.00000E+00
 -1      3289 5.74163E+01 3.12315E+01 0.00000E+00
 -1      3290 5.85899E+01 3.07615E+01 0.00000E+00
 -1      3291 5.81503E+01 2.95782E+01 0.00000E+00
 -1      3292 2.31240E+01 1.12805E+01 0.00000E+00
 -1      3293 2.23740E+01 1.25795E+01 0.00000E+00
 -1      3294 2.46240E+01 1.12805E+01 0.00000E+00
 -1      3295 8.47350E+01 2.70298E+01 0.00000E+00
 -1      3296 8.60131E+01 2.72726E+01 0.00000E+00
 -1      3297 8.48265E+01 2.57650E+01 0.00000E+00
 -1      3298 1.36895E+02 3.59945E+01 0.00000E+00
 -1      3299 1.38309E+02 1.98656E+01 0.00000E+00
 -1      3300 1.38309E+02 1.83969E+01 0.00000E+00
 -1      3301 1.37010E+02 1.76625E+01 0.00000E+00
 -1      3302 1.38385E+02 1.36172E+01 0.00000E+00
 -1      3303 1.37010E+02 2.06031E+01 0.00000E+00
 -1      3304 1.16910E+01 1.54063E+01 0.00000E+00
 -1      3305 1.16910E+01 1.68750E+01 0.00000E+00
 -1      3306 1.29900E+01 1.46687E+01 0.00000E+00
 -1      3307 7.34202E+01 2.17212E+01 0.00000E+00
 -1      3308 7.43387E+01 2.12082E+01 0.00000E+00
 -1      3309 7.26853E+01 2.08825E+01 0.00000E+00
 -1      3310 5.78409E+01 3.37285E+01 0.00000E+00
 -1      3311 1.37086E+02 1.43515E+01 0.00000E+00
 -1      3312 8.73053E+01 3.32407E+01 0.00000E+00
 -1      3313 8.22241E+01 2.46065E+01 0.00000E+00
 -1      3314 5.80288E+01 3.69592E+01 0.00000E+00
 -1      3315 5.72120E+01 3.60899E+01 0.00000E+00
 -1      3316 5.78992E+01 3.81320E+01 0.00000E+00
 -1      3317 9.06176E+01 3.82255E+01 0.00000E+00
 -1      3318 1.16910E+01 1.98188E+01 0.00000E+00
 -1      3319 1.29900E+01 2.05562E+01 0.00000E+00
 -1      3320 1.16910E+01 1.83500E+01 0.00000E+00
 -1      3321 6.18687E+01 2.57388E+01 0.00000E+00
 -1      3322 8.75866E+01 3.94481E+01 0.00000E+00
 -1      3323 1.16910E+01 3.01219E+01 0.00000E+00
 -1      3324 1.16910E+01 3.15906E+01 0.00000E+00
 -1      3325 1.29900E+01 3.23250E+01 0.00000E+00
 -1      3326 1.29900E+01 2.35000E+01 0.00000E+00
 -1      3327 1.16910E+01 2.42375E+01 0.00000E+00
 -1      3328 1.16910E+01 2.57125E+01 0.00000E+00
 -1      3329 8.82042E+01 3.81790E+01 0.00000E+00
 -1      3330 7.94985E+01 2.19126E+01 0.00000E+00
 -1      3331 8.07148E+01 2.24147E+01 0.00000E+00
 -1      3332 1.48741E+01 1.40483E+01 0.00000E+00
 -1      3333 1.39320E+01 1.43585E+01 0.00000E+00
 -1      3334 1.39320E+01 1.58273E+01 0.00000E+00
 -1      3335 1.86480E+01 3.58387E+01 0.00000E+00
 -1      3336 2.01480E+01 3.58387E+01 0.00000E+00
 -1      3337 2.16480E+01 3.58387E+01 0.00000E+00
 -1      3338 2.31480E+01 3.58387E+01 0.00000E+00
 -1      3339 2.08980E+01 3.45397E+01 0.00000E+00
 -1      3340 2.46480E+01 3.58387E+01 0.00000E+00
 -1      3341 2.61480E+01 3.58387E+01 0.00000E+00
 -1      3342 2.38980E+01 3.45397E+01 0.00000E+00
 -1      3343 2.76480E+01 3.58387E+01 0.00000E+00
 -1      3344 2.91480E+01 3.58387E+01 0.00000E+00
 -1      3345 2.68980E+01 3.45397E+01 0.00000E+00
 -1      3346 3.06480E+01 3.58387E+01 0.00000E+00
 -1      3347 3.21480E+01 3.58387E+01 0.00000E+00
 -1      3348 2.98980E+01 3.45397E+01 0.00000E+00
 -1      3349 3.35730E+01 3.58387E+01 0.00000E+00
 -1      3350 3.49980E+01 3.58387E+01 0.00000E+00
 -1      3351 3.28230E+01 3.45397E+01 0.00000E+00
 -1      3352 3.64980E+01 3.58387E+01 0.00000E+00
 -1      3353 3.79980E+01 3.58387E+01 0.00000E+00
 -1      3354 3.57480E+01 3.45397E+01 0.00000E+00
 -1      3355 3.94980E+01 3.58387E+01 0.00000E+00
 -1      3356 4.09980E+01 3.58387E+01 0.00000E+00
 -1      3357 3.87480E+01 3.45397E+01 0.00000E+00
 -1      3358 4.24980E+01 3.58387E+01 0.00000E+00
 -1      3359 4.39980E+01 3.58387E+01 0.00000E+00
 -1      3360 4.17480E+01 3.45397E+01 0.00000E+00
 -1      3361 4.54980E+01 3.58387E+01 0.00000E+00
 -1      3362 4.69980E+01 3.58387E+01 0.00000E+00
 -1      3363 4.47480E+01 3.45397E+01 0.00000E+00
 -1      3364 4.84980E+01 3.58387E+01 0.00000E+00
 -1      3365 4.99980E+01 3.58387E+01 0.00000E+00
 -1      3366 4.77480E+01 3.45397E+01 0.00000E+00
 -1      3367 5.14980E+01 3.58387E+01 0.00000E+00
 -1      3368 5.29980E+01 3.58387E+01 0.00000E+00
 -1      3369 5.07480E+01 3.45397E+01 0.00000E+00
 -1      3370 5.43925E+01 3.59643E+01 0.00000E+00
 -1      3371 5.58175E+01 3.59643E+01 0.00000E+00
 -1      3372 5.64315E+01 3.49165E+01 0.00000E+00
 -1      3373 5.36425E+01 3.46653E+01 0.00000E+00
 -1      3374 6.28684E+01 2.31527E+01 0.00000E+00
 -1      3375 6.42870E+01 2.21429E+01 0.00000E+00
 -1      3376 8.81037E+01 3.22733E+01 0.00000E+00
 -1      3377 8.84846E+01 3.36680E+01 0.00000E+00
 -1      3378 1.35711E+02 3.01625E+01 0.00000E+00
 -1      3379 1.35711E+02 2.86875E+01 0.00000E+00
 -1      3380 9.90000E+01 3.67290E+01 0.00000E+00
 -1      3381 1.00500E+02 3.67290E+01 0.00000E+00
 -1      3382 1.01925E+02 3.67290E+01 0.00000E+00
 -1      3383 1.03350E+02 3.67290E+01 0.00000E+00
 -1      3384 1.01175E+02 3.54300E+01 0.00000E+00
 -1      3385 1.04850E+02 3.67290E+01 0.00000E+00
 -1      3386 1.06350E+02 3.67290E+01 0.00000E+00
 -1      3387 1.04100E+02 3.54300E+01 0.00000E+00
 -1      3388 1.07850E+02 3.67290E+01 0.00000E+00
 -1      3389 1.09350E+02 3.67290E+01 0.00000E+00
 -1      3390 1.07100E+02 3.54300E+01 0.00000E+00
 -1      3391 1.10850E+02 3.67290E+01 0.00000E+00
 -1      3392 1.12350E+02 3.67290E+01 0.00000E+00
 -1      3393 1.10100E+02 3.54300E+01 0.00000E+00
 -1      3394 1.13850E+02 3.67290E+01 0.00000E+00
 -1      3395 1.15350E+02 3.67290E+01 0.00000E+00
 -1      3396 1.13100E+02 3.54300E+01 0.00000E+00
 -1      3397 1.16850E+02 3.67290E+01 0.00000E+00
 -1      3398 1.18350E+02 3.67290E+01 0.00000E+00
 -1      3399 1.16100E+02 3.54300E+01 0.00000E+00
 -1      3400 1.19850E+02 3.67290E+01 0.00000E+00
 -1      3401 1.21350E+02 3.67290E+01 0.00000E+00
 -1      3402 1.19100E+02 3.54300E+01 0.00000E+00
 -1      3403 1.22775E+02 3.67290E+01 0.00000E+00
 -1      3404 1.24200E+02 3.67290E+01 0.00000E+00
 -1      3405 1.22025E+02 3.54300E+01 0.00000E+00
 -1      3406 1.25700E+02 3.67290E+01 0.00000E+00
 -1      3407 1.27200E+02 3.67290E+01 0.00000E+00
 -1      3408 1.24950E+02 3.54300E+01 0.00000E+00
 -1      3409 1.28700E+02 3.67290E+01 0.00000E+00
 -1      3410 1.30200E+02 3.67290E+01 0.00000E+00
 -1      3411 1.27950E+02 3.54300E+01 0.00000E+00
 -1      3412 1.31700E+02 3.67290E+01 0.00000E+00
 -1      3413 1.33200E+02 3.67290E+01 0.00000E+00
 -1      3414 1.30950E+02 3.54300E+01 0.00000E+00
 -1      3415 1.34340E+02 3.63340E+01 0.00000E+00
 -1      3416 1.35755E+02 3.63895E+01 0.00000E+00
 -1      3417 1.35870E+02 3.42450E+01 0.00000E+00
 -1      3418 1.33590E+02 3.50350E+01 0.00000E+00
 -1      3419 9.30000E+01 3.67290E+01 0.00000E+00
 -1      3420 9.45000E+01 3.67290E+01 0.00000E+00
 -1      3421 3.21240E+01 1.38785E+01 0.00000E+00
 -1      3422 3.06240E+01 1.38785E+01 0.00000E+00
 -1      3423 4.41240E+01 1.38785E+01 0.00000E+00
 -1      3424 4.26240E+01 1.38785E+01 0.00000E+00
 -1      3425 4.11240E+01 1.38785E+01 0.00000E+00
 -1      3426 3.96240E+01 1.38785E+01 0.00000E+00
 -1      3427 4.18740E+01 1.51775E+01 0.00000E+00
 -1      3428 5.01240E+01 1.38785E+01 0.00000E+00
 -1      3429 4.86240E+01 1.38785E+01 0.00000E+00
 -1      3430 5.31240E+01 1.38785E+01 0.00000E+00
 -1      3431 5.16240E+01 1.38785E+01 0.00000E+00
 -1      3432 5.08740E+01 1.51775E+01 0.00000E+00
 -1      3433 5.61240E+01 1.38785E+01 0.00000E+00
 -1      3434 5.46240E+01 1.38785E+01 0.00000E+00
 -1      3435 5.38740E+01 1.51775E+01 0.00000E+00
 -1      3436 5.91240E+01 1.38785E+01 0.00000E+00
 -1      3437 5.76240E+01 1.38785E+01 0.00000E+00
 -1      3438 5.68740E+01 1.51775E+01 0.00000E+00
 -1      3439 6.21240E+01 1.38785E+01 0.00000E+00
 -1      3440 6.06240E+01 1.38785E+01 0.00000E+00
 -1      3441 5.98740E+01 1.51775E+01 0.00000E+00
 -1      3442 6.51240E+01 1.38785E+01 0.00000E+00
 -1      3443 6.36240E+01 1.38785E+01 0.00000E+00
 -1      3444 6.28740E+01 1.51775E+01 0.00000E+00
 -1      3445 6.81240E+01 1.38785E+01 0.00000E+00
 -1      3446 6.66240E+01 1.38785E+01 0.00000E+00
 -1      3447 6.58740E+01 1.51775E+01 0.00000E+00
 -1      3448 7.11240E+01 1.38785E+01 0.00000E+00
 -1      3449 6.96240E+01 1.38785E+01 0.00000E+00
 -1      3450 6.88740E+01 1.51775E+01 0.00000E+00
 -1      3451 7.41240E+01 1.38785E+01 0.00000E+00
 -1      3452 7.26240E+01 1.38785E+01 0.00000E+00
 -1      3453 7.18740E+01 1.51775E+01 0.00000E+00
 -1      3454 7.71240E+01 1.38785E+01 0.00000E+00
 -1      3455 7.56240E+01 1.38785E+01 0.00000E+00
 -1      3456 7.48740E+01 1.51775E+01 0.00000E+00
 -1      3457 8.01240E+01 1.38785E+01 0.00000E+00
 -1      3458 7.86240E+01 1.38785E+01 0.00000E+00
 -1      3459 7.78740E+01 1.51775E+01 0.00000E+00
 -1      3460 8.31240E+01 1.38785E+01 0.00000E+00
 -1      3461 8.16240E+01 1.38785E+01 0.00000E+00
 -1      3462 8.08740E+01 1.51775E+01 0.00000E+00
 -1      3463 8.61240E+01 1.38785E+01 0.00000E+00
 -1      3464 8.46240E+01 1.38785E+01 0.00000E+00
 -1      3465 8.38740E+01 1.51775E+01 0.00000E+00
 -1      3466 8.91240E+01 1.38785E+01 0.00000E+00
 -1      3467 8.76240E+01 1.38785E+01 0.00000E+00
 -1      3468 8.68740E+01 1.51775E+01 0.00000E+00
 -1      3469 9.21240E+01 1.38785E+01 0.00000E+00
 -1      3470 9.06240E+01 1.38785E+01 0.00000E+00
 -1      3471 8.98740E+01 1.51775E+01 0.00000E+00
 -1      3472 9.51240E+01 1.38785E+01 0.00000E+00
 -1      3473 9.36240E+01 1.38785E+01 0.00000E+00
 -1      3474 9.28740E+01 1.51775E+01 0.00000E+00
 -1      3475 9.81240E+01 1.38785E+01 0.00000E+00
 -1      3476 9.66240E+01 1.38785E+01 0.00000E+00
 -1      3477 9.58740E+01 1.51775E+01 0.00000E+00
 -1      3478 1.01124E+02 1.38785E+01 0.00000E+00
 -1      3479 9.96240E+01 1.38785E+01 0.00000E+00
 -1      3480 9.88740E+01 1.51775E+01 0.00000E+00
 -1      3481 1.04124E+02 1.38785E+01 0.00000E+00
 -1      3482 1.02624E+02 1.38785E+01 0.00000E+00
 -1      3483 1.01874E+02 1.51775E+01 0.00000E+00
 -1      3484 1.07124E+02 1.38785E+01 0.00000E+00
 -1      3485 1.05624E+02 1.38785E+01 0.00000E+00
 -1      3486 1.04874E+02 1.51775E+01 0.00000E+00
 -1      3487 1.10124E+02 1.38785E+01 0.00000E+00
 -1      3488 1.08624E+02 1.38785E+01 0.00000E+00
 -1      3489 1.07874E+02 1.51775E+01 0.00000E+00
 -1      3490 1.13124E+02 1.38785E+01 0.00000E+00
 -1      3491 1.11624E+02 1.38785E+01 0.00000E+00
 -1      3492 1.10874E+02 1.51775E+01 0.00000E+00
 -1      3493 1.16124E+02 1.38785E+01 0.00000E+00
 -1      3494 1.14624E+02 1.38785E+01 0.00000E+00
 -1      3495 1.13874E+02 1.51775E+01 0.00000E+00
 -1      3496 1.19124E+02 1.38785E+01 0.00000E+00
 -1      3497 1.17624E+02 1.38785E+01 0.00000E+00
 -1      3498 1.16874E+02 1.51775E+01 0.00000E+00
 -1      3499 1.22124E+02 1.38785E+01 0.00000E+00
 -1      3500 1.20624E+02 1.38785E+01 0.00000E+00
 -1      3501 1.19874E+02 1.51775E+01 0.00000E+00
 -1      3502 1.25124E+02 1.38785E+01 0.00000E+00
 -1      3503 1.23624E+02 1.38785E+01 0.00000E+00
 -1      3504 1.22874E+02 1.51775E+01 0.00000E+00
 -1      3505 1.28124E+02 1.38785E+01 0.00000E+00
 -1      3506 1.26624E+02 1.38785E+01 0.00000E+00
 -1      3507 1.25874E+02 1.51775E+01 0.00000E+00
 -1      3508 1.31124E+02 1.38785E+01 0.00000E+00
 -1      3509 1.29624E+02 1.38785E+01 0.00000E+00
 -1      3510 1.28874E+02 1.51775E+01 0.00000E+00
 -1      3511 1.34124E+02 1.38785E+01 0.00000E+00
 -1      3512 1.32624E+02 1.38785E+01 0.00000E+00
 -1      3513 1.31874E+02 1.51775E+01 0.00000E+00
 -1      3514 1.35942E+02 1.43866E+01 0.00000E+00
 -1      3515 1.35711E+02 2.13391E+01 0.00000E+00
 -1      3516 1.35711E+02 1.98672E+01 0.00000E+00
 -1      3517 1.35790E+02 3.29412E+01 0.00000E+00
 -1      3518 1.35790E+02 3.14662E+01 0.00000E+00
 -1      3519 1.34492E+02 3.07287E+01 0.00000E+00
 -1      3520 1.34650E+02 3.33362E+01 0.00000E+00
 -1      3521 1.35711E+02 1.83984E+01 0.00000E+00
 -1      3522 1.35711E+02 1.69297E+01 0.00000E+00
 -1      3523 1.34412E+02 1.91344E+01 0.00000E+00
 -1      3524 5.87336E+01 2.78649E+01 0.00000E+00
 -1      3525 5.95150E+01 2.67349E+01 0.00000E+00
 -1      3526 1.16910E+01 2.71844E+01 0.00000E+00
 -1      3527 1.16910E+01 2.86531E+01 0.00000E+00
 -1      3528 1.29900E+01 2.93875E+01 0.00000E+00
 -1      3529 4.71240E+01 1.38785E+01 0.00000E+00
 -1      3530 4.56240E+01 1.38785E+01 0.00000E+00
 -1      3531 4.48740E+01 1.51775E+01 0.00000E+00
 -1      3532 4.78740E+01 1.51775E+01 0.00000E+00
 -1      3533 9.60000E+01 3.67290E+01 0.00000E+00
 -1      3534 9.75000E+01 3.67290E+01 0.00000E+00
 -1      3535 9.52500E+01 3.54300E+01 0.00000E+00
 -1      3536 8.84102E+01 3.50986E+01 0.00000E+00
 -1      3537 8.82787E+01 3.67484E+01 0.00000E+00
 -1      3538 8.90596E+01 3.69923E+01 0.00000E+00
 -1      3539 8.92086E+01 3.41312E+01 0.00000E+00
 -1      3540 8.21927E+01 2.32365E+01 0.00000E+00
 -1      3541 8.35169E+01 2.41522E+01 0.00000E+00
 -1      3542 5.86117E+01 3.94310E+01 0.00000E+00
 -1      3543 5.64464E+01 3.36029E+01 0.00000E+00
 -1      3544 1.56480E+01 3.58387E+01 0.00000E+00
 -1      3545 1.71480E+01 3.58387E+01 0.00000E+00
 -1      3546 1.78980E+01 3.45397E+01 0.00000E+00
 -1      3547 8.72336E+01 2.90429E+01 0.00000E+00
 -1      3548 8.77349E+01 3.06972E+01 0.00000E+00
 -1      3549 6.96394E+01 2.04113E+01 0.00000E+00
 -1      3550 7.10137E+01 2.03295E+01 0.00000E+00
 -1      3551 1.15286E+01 3.62905E+01 0.00000E+00
 -1      3552 6.04846E+01 2.55031E+01 0.00000E+00
 -1      3553 6.14666E+01 2.43936E+01 0.00000E+00
 -1      3554 7.54103E+01 2.06238E+01 0.00000E+00
 -1      3555 7.64819E+01 2.00395E+01 0.00000E+00
 -1      3556 7.46755E+01 1.97851E+01 0.00000E+00
 -1      3557 6.47336E+01 2.11211E+01 0.00000E+00
 -1      3558 6.51802E+01 2.00994E+01 0.00000E+00
 -1      3559 6.33326E+01 2.06544E+01 0.00000E+00
 -1      3560 2.01240E+01 1.38785E+01 0.00000E+00
 -1      3561 1.86240E+01 1.38785E+01 0.00000E+00
 -1      3562 2.91240E+01 1.38785E+01 0.00000E+00
 -1      3563 2.76240E+01 1.38785E+01 0.00000E+00
 -1      3564 2.98740E+01 1.51775E+01 0.00000E+00
 -1      3565 8.89143E+01 3.11245E+01 0.00000E+00
 -1      3566 8.47636E+01 2.30251E+01 0.00000E+00
 -1      3567 8.47951E+01 2.43951E+01 0.00000E+00
 -1      3568 8.60732E+01 2.46379E+01 0.00000E+00
 -1      3569 2.53740E+01 1.25795E+01 0.00000E+00
 -1      3570 1.29900E+01 2.64469E+01 0.00000E+00
 -1      3571 6.84209E+01 1.99148E+01 0.00000E+00
 -1      3572 1.34412E+02 2.79562E+01 0.00000E+00
 -1      3573 1.35711E+02 2.72188E+01 0.00000E+00
 -1      3574 1.35711E+02 2.57500E+01 0.00000E+00
 -1      3575 5.75600E+01 2.83348E+01 0.00000E+00
 -1      3576 1.33893E+02 1.64216E+01 0.00000E+00
 -1      3577 1.35192E+02 1.56856E+01 0.00000E+00
 -1      3578 9.06921E+01 3.67949E+01 0.00000E+00
 -1      3579 3.36240E+01 1.38785E+01 0.00000E+00
 -1      3580 3.28740E+01 1.51775E+01 0.00000E+00
 -1      3581 3.51240E+01 1.38785E+01 0.00000E+00
 -1      3582 2.31240E+01 1.38785E+01 0.00000E+00
 -1      3583 2.16240E+01 1.38785E+01 0.00000E+00
 -1      3584 2.08740E+01 1.51775E+01 0.00000E+00
 -1      3585 1.74990E+01 1.39634E+01 0.00000E+00
 -1      3586 1.59991E+01 1.39634E+01 0.00000E+00
 -1      3587 1.59991E+01 1.54321E+01 0.00000E+00
 -1      3588 1.82490E+01 1.52624E+01 0.00000E+00
 -1      3589 9.82500E+01 3.54300E+01 0.00000E+00
 -1      3590 1.28276E+01 3.55561E+01 0.00000E+00
 -1      3591 1.35711E+02 2.28078E+01 0.00000E+00
 -1      3592 1.34412E+02 2.20719E+01 0.00000E+00
 -1      3593 1.35711E+02 2.42766E+01 0.00000E+00
 -1      3594 1.29900E+01 1.76125E+01 0.00000E+00
 -1      3595 7.19323E+01 1.98165E+01 0.00000E+00
 -1      3596 6.14843E+01 2.29170E+01 0.00000E+00
 -1      3597 3.81240E+01 1.38785E+01 0.00000E+00
 -1      3598 3.66240E+01 1.38785E+01 0.00000E+00
 -1      3599 3.58740E+01 1.51775E+01 0.00000E+00
 -1      3600 3.88740E+01 1.51775E+01 0.00000E+00
 -1      3601 8.74165E+01 2.65134E+01 0.00000E+00
 -1      3602 8.73250E+01 2.77782E+01 0.00000E+00
 -1      3603 8.86370E+01 2.82837E+01 0.00000E+00
 -1      3604 5.91129E+01 2.53897E+01 0.00000E+00
 -1      3605 1.42890E+01 3.15906E+01 0.00000E+00
 -1      3606 1.42890E+01 3.30594E+01 0.00000E+00
 -1      3607 1.39440E+01 3.54658E+01 0.00000E+00
 -1      3608 9.14421E+01 3.54959E+01 0.00000E+00
 -1      3609 1.42890E+01 2.27625E+01 0.00000E+00
 -1      3610 1.42890E+01 2.42375E+01 0.00000E+00
 -1      3611 7.88732E+01 2.10084E+01 0.00000E+00
 -1      3612 8.20076E+01 2.19605E+01 0.00000E+00
 -1      3613 1.42890E+01 1.98250E+01 0.00000E+00
 -1      3614 1.42890E+01 2.12938E+01 0.00000E+00
 -1      3615 1.55880E+01 2.20313E+01 0.00000E+00
 -1      3616 1.59930E+01 3.34324E+01 0.00000E+00
 -1      3617 1.46940E+01 3.41668E+01 0.00000E+00
 -1      3618 5.48247E+01 3.35424E+01 0.00000E+00
 -1      3619 5.62341E+01 3.23544E+01 0.00000E+00
 -1      3620 5.57946E+01 3.11710E+01 0.00000E+00
 -1      3621 5.34302E+01 3.34168E+01 0.00000E+00
 -1      3622 1.49655E+01 1.63672E+01 0.00000E+00
 -1      3623 1.40235E+01 1.66774E+01 0.00000E+00
 -1      3624 1.40235E+01 1.81524E+01 0.00000E+00
 -1      3625 1.60905E+01 1.62823E+01 0.00000E+00
 -1      3626 9.75000E+01 3.41310E+01 0.00000E+00
 -1      3627 9.90000E+01 3.41310E+01 0.00000E+00
 -1      3628 2.31480E+01 3.32407E+01 0.00000E+00
 -1      3629 2.46480E+01 3.32407E+01 0.00000E+00
 -1      3630 2.61480E+01 3.32407E+01 0.00000E+00
 -1      3631 2.76480E+01 3.32407E+01 0.00000E+00
 -1      3632 2.53980E+01 3.19417E+01 0.00000E+00
 -1      3633 2.91480E+01 3.32407E+01 0.00000E+00
 -1      3634 3.06480E+01 3.32407E+01 0.00000E+00
 -1      3635 2.83980E+01 3.19417E+01 0.00000E+00
 -1      3636 3.20730E+01 3.32407E+01 0.00000E+00
 -1      3637 3.34980E+01 3.32407E+01 0.00000E+00
 -1      3638 3.13230E+01 3.19417E+01 0.00000E+00
 -1      3639 3.49980E+01 3.32407E+01 0.00000E+00
 -1      3640 3.64980E+01 3.32407E+01 0.00000E+00
 -1      3641 3.42480E+01 3.19417E+01 0.00000E+00
 -1      3642 3.79980E+01 3.32407E+01 0.00000E+00
 -1      3643 3.94980E+01 3.32407E+01 0.00000E+00
 -1      3644 3.72480E+01 3.19417E+01 0.00000E+00
 -1      3645 4.09980E+01 3.32407E+01 0.00000E+00
 -1      3646 4.24980E+01 3.32407E+01 0.00000E+00
 -1      3647 4.02480E+01 3.19417E+01 0.00000E+00
 -1      3648 4.39980E+01 3.32407E+01 0.00000E+00
 -1      3649 4.54980E+01 3.32407E+01 0.00000E+00
 -1      3650 4.32480E+01 3.19417E+01 0.00000E+00
 -1      3651 4.69980E+01 3.32407E+01 0.00000E+00
 -1      3652 4.84980E+01 3.32407E+01 0.00000E+00
 -1      3653 4.62480E+01 3.19417E+01 0.00000E+00
 -1      3654 4.99980E+01 3.32407E+01 0.00000E+00
 -1      3655 5.14980E+01 3.32407E+01 0.00000E+00
 -1      3656 4.92480E+01 3.19417E+01 0.00000E+00
 -1      3657 1.32912E+02 1.76656E+01 0.00000E+00
 -1      3658 1.32393E+02 1.64216E+01 0.00000E+00
 -1      3659 1.30893E+02 1.64216E+01 0.00000E+00
 -1      3660 1.42890E+01 2.57094E+01 0.00000E+00
 -1      3661 1.42890E+01 2.71812E+01 0.00000E+00
 -1      3662 1.55880E+01 2.49719E+01 0.00000E+00
 -1      3663 1.03350E+02 3.41310E+01 0.00000E+00
 -1      3664 1.04850E+02 3.41310E+01 0.00000E+00
 -1      3665 1.06350E+02 3.41310E+01 0.00000E+00
 -1      3666 1.07850E+02 3.41310E+01 0.00000E+00
 -1      3667 1.05600E+02 3.28320E+01 0.00000E+00
 -1      3668 1.09350E+02 3.41310E+01 0.00000E+00
 -1      3669 1.10850E+02 3.41310E+01 0.00000E+00
 -1      3670 1.08600E+02 3.28320E+01 0.00000E+00
 -1      3671 1.12350E+02 3.41310E+01 0.00000E+00
 -1      3672 1.13850E+02 3.41310E+01 0.00000E+00
 -1      3673 1.11600E+02 3.28320E+01 0.00000E+00
 -1      3674 1.15350E+02 3.41310E+01 0.00000E+00
 -1      3675 1.16850E+02 3.41310E+01 0.00000E+00
 -1      3676 1.14600E+02 3.28320E+01 0.00000E+00
 -1      3677 1.18350E+02 3.41310E+01 0.00000E+00
 -1      3678 1.19850E+02 3.41310E+01 0.00000E+00
 -1      3679 1.17600E+02 3.28320E+01 0.00000E+00
 -1      3680 1.21275E+02 3.41310E+01 0.00000E+00
 -1      3681 1.22700E+02 3.41310E+01 0.00000E+00
 -1      3682 1.20525E+02 3.28320E+01 0.00000E+00
 -1      3683 1.24200E+02 3.41310E+01 0.00000E+00
 -1      3684 1.25700E+02 3.41310E+01 0.00000E+00
 -1      3685 1.23450E+02 3.28320E+01 0.00000E+00
 -1      3686 1.27200E+02 3.41310E+01 0.00000E+00
 -1      3687 1.28700E+02 3.41310E+01 0.00000E+00
 -1      3688 1.26450E+02 3.28320E+01 0.00000E+00
 -1      3689 1.30200E+02 3.41310E+01 0.00000E+00
 -1      3690 1.31700E+02 3.41310E+01 0.00000E+00
 -1      3691 1.29450E+02 3.28320E+01 0.00000E+00
 -1      3692 1.32605E+02 3.39311E+01 0.00000E+00
 -1      3693 1.33745E+02 3.35361E+01 0.00000E+00
 -1      3694 1.33666E+02 3.22324E+01 0.00000E+00
 -1      3695 1.31855E+02 3.26321E+01 0.00000E+00
 -1      3696 2.61240E+01 1.38785E+01 0.00000E+00
 -1      3697 2.46240E+01 1.38785E+01 0.00000E+00
 -1      3698 2.38740E+01 1.51775E+01 0.00000E+00
 -1      3699 2.68740E+01 1.51775E+01 0.00000E+00
 -1      3700 8.98912E+01 3.00647E+01 0.00000E+00
 -1      3701 9.02600E+01 3.16408E+01 0.00000E+00
 -1      3702 5.46240E+01 1.64765E+01 0.00000E+00
 -1      3703 5.31240E+01 1.64765E+01 0.00000E+00
 -1      3704 5.16240E+01 1.64765E+01 0.00000E+00
 -1      3705 5.01240E+01 1.64765E+01 0.00000E+00
 -1      3706 5.23740E+01 1.77755E+01 0.00000E+00
 -1      3707 6.06240E+01 1.64765E+01 0.00000E+00
 -1      3708 5.91240E+01 1.64765E+01 0.00000E+00
 -1      3709 6.40766E+01 1.74051E+01 0.00000E+00
 -1      3710 6.25766E+01 1.74051E+01 0.00000E+00
 -1      3711 6.96240E+01 1.64765E+01 0.00000E+00
 -1      3712 6.81240E+01 1.64765E+01 0.00000E+00
 -1      3713 7.60605E+01 1.71891E+01 0.00000E+00
 -1      3714 7.45605E+01 1.71891E+01 0.00000E+00
 -1      3715 8.16240E+01 1.64765E+01 0.00000E+00
 -1      3716 8.01240E+01 1.64765E+01 0.00000E+00
 -1      3717 8.46240E+01 1.64765E+01 0.00000E+00
 -1      3718 8.31240E+01 1.64765E+01 0.00000E+00
 -1      3719 8.23740E+01 1.77755E+01 0.00000E+00
 -1      3720 8.76240E+01 1.64765E+01 0.00000E+00
 -1      3721 8.61240E+01 1.64765E+01 0.00000E+00
 -1      3722 8.53740E+01 1.77755E+01 0.00000E+00
 -1      3723 9.06240E+01 1.64765E+01 0.00000E+00
 -1      3724 8.91240E+01 1.64765E+01 0.00000E+00
 -1      3725 8.83740E+01 1.77755E+01 0.00000E+00
 -1      3726 9.36240E+01 1.64765E+01 0.00000E+00
 -1      3727 9.21240E+01 1.64765E+01 0.00000E+00
 -1      3728 9.13740E+01 1.77755E+01 0.00000E+00
 -1      3729 9.66240E+01 1.64765E+01 0.00000E+00
 -1      3730 9.51240E+01 1.64765E+01 0.00000E+00
 -1      3731 9.43740E+01 1.77755E+01 0.00000E+00
 -1      3732 9.96240E+01 1.64765E+01 0.00000E+00
 -1      3733 9.81240E+01 1.64765E+01 0.00000E+00
 -1      3734 9.73740E+01 1.77755E+01 0.00000E+00
 -1      3735 1.02624E+02 1.64765E+01 0.00000E+00
 -1      3736 1.01124E+02 1.64765E+01 0.00000E+00
 -1      3737 1.00374E+02 1.77755E+01 0.00000E+00
 -1      3738 1.05624E+02 1.64765E+01 0.00000E+00
 -1      3739 1.04124E+02 1.64765E+01 0.00000E+00
 -1      3740 1.03374E+02 1.77755E+01 0.00000E+00
 -1      3741 1.08624E+02 1.64765E+01 0.00000E+00
 -1      3742 1.07124E+02 1.64765E+01 0.00000E+00
 -1      3743 1.06374E+02 1.77755E+01 0.00000E+00
 -1      3744 1.11624E+02 1.64765E+01 0.00000E+00
 -1      3745 1.10124E+02 1.64765E+01 0.00000E+00
 -1      3746 1.09374E+02 1.77755E+01 0.00000E+00
 -1      3747 1.14624E+02 1.64765E+01 0.00000E+00
 -1      3748 1.13124E+02 1.64765E+01 0.00000E+00
 -1      3749 1.12374E+02 1.77755E+01 0.00000E+00
 -1      3750 1.17624E+02 1.64765E+01 0.00000E+00
 -1      3751 1.16124E+02 1.64765E+01 0.00000E+00
 -1      3752 1.15374E+02 1.77755E+01 0.00000E+00
 -1      3753 1.20624E+02 1.64765E+01 0.00000E+00
 -1      3754 1.19124E+02 1.64765E+01 0.00000E+00
 -1      3755 1.18374E+02 1.77755E+01 0.00000E+00
 -1      3756 1.23624E+02 1.64765E+01 0.00000E+00
 -1      3757 1.22124E+02 1.64765E+01 0.00000E+00
 -1      3758 1.21374E+02 1.77755E+01 0.00000E+00
 -1      3759 1.26624E+02 1.64765E+01 0.00000E+00
 -1      3760 1.25124E+02 1.64765E+01 0.00000E+00
 -1      3761 1.24374E+02 1.77755E+01 0.00000E+00
 -1      3762 1.29508E+02 1.64490E+01 0.00000E+00
 -1      3763 1.28008E+02 1.64490E+01 0.00000E+00
 -1      3764 1.27258E+02 1.77480E+01 0.00000E+00
 -1      3765 1.30027E+02 1.76931E+01 0.00000E+00
 -1      3766 6.77276E+01 1.91708E+01 0.00000E+00
 -1      3767 6.95673E+01 1.85195E+01 0.00000E+00
 -1      3768 1.74930E+01 3.34324E+01 0.00000E+00
 -1      3769 1.89930E+01 3.34324E+01 0.00000E+00
 -1      3770 1.70880E+01 3.23250E+01 0.00000E+00
 -1      3771 4.26240E+01 1.64765E+01 0.00000E+00
 -1      3772 4.11240E+01 1.64765E+01 0.00000E+00
 -1      3773 9.45000E+01 3.41310E+01 0.00000E+00
 -1      3774 9.60000E+01 3.41310E+01 0.00000E+00
 -1      3775 9.67500E+01 3.28320E+01 0.00000E+00
 -1      3776 1.00463E+02 3.41310E+01 0.00000E+00
 -1      3777 1.01887E+02 3.41310E+01 0.00000E+00
 -1      3778 1.02637E+02 3.28320E+01 0.00000E+00
 -1      3779 9.97125E+01 3.28320E+01 0.00000E+00
 -1      3780 1.42890E+01 2.86531E+01 0.00000E+00
 -1      3781 1.42890E+01 3.01219E+01 0.00000E+00
 -1      3782 1.55880E+01 3.08563E+01 0.00000E+00
 -1      3783 5.61393E+01 2.88071E+01 0.00000E+00
 -1      3784 5.67226E+01 2.70938E+01 0.00000E+00
 -1      3785 7.14447E+01 1.84872E+01 0.00000E+00
 -1      3786 7.31164E+01 1.90402E+01 0.00000E+00
 -1      3787 1.32912E+02 1.91344E+01 0.00000E+00
 -1      3788 2.03205E+01 3.33366E+01 0.00000E+00
 -1      3789 2.18205E+01 3.33366E+01 0.00000E+00
 -1      3790 2.25705E+01 3.20376E+01 0.00000E+00
 -1      3791 1.99155E+01 3.22292E+01 0.00000E+00
 -1      3792 7.81319E+01 1.98378E+01 0.00000E+00
 -1      3793 7.97884E+01 1.99680E+01 0.00000E+00
 -1      3794 5.76074E+01 2.52022E+01 0.00000E+00
 -1      3795 5.85769E+01 2.39704E+01 0.00000E+00
 -1      3796 5.99224E+01 2.25647E+01 0.00000E+00
 -1      3797 6.13242E+01 2.13239E+01 0.00000E+00
 -1      3798 8.18891E+01 2.04340E+01 0.00000E+00
 -1      3799 8.33669E+01 2.12558E+01 0.00000E+00
 -1      3800 9.07003E+01 3.41640E+01 0.00000E+00
 -1      3801 9.30083E+01 3.40981E+01 0.00000E+00
 -1      3802 9.37583E+01 3.27991E+01 0.00000E+00
 -1      3803 9.07748E+01 3.27334E+01 0.00000E+00
 -1      3804 5.76240E+01 1.64765E+01 0.00000E+00
 -1      3805 5.61240E+01 1.64765E+01 0.00000E+00
 -1      3806 5.53740E+01 1.77755E+01 0.00000E+00
 -1      3807 7.73970E+01 1.89991E+01 0.00000E+00
 -1      3808 1.70880E+01 3.08563E+01 0.00000E+00
 -1      3809 7.41879E+01 1.84558E+01 0.00000E+00
 -1      3810 9.17517E+01 3.16736E+01 0.00000E+00
 -1      3811 5.26802E+01 3.21178E+01 0.00000E+00
 -1      3812 8.73537E+01 2.37735E+01 0.00000E+00
 -1      3813 8.73851E+01 2.51435E+01 0.00000E+00
 -1      3814 8.86970E+01 2.56490E+01 0.00000E+00
 -1      3815 1.33113E+02 2.86906E+01 0.00000E+00
 -1      3816 1.33113E+02 2.72219E+01 0.00000E+00
 -1      3817 1.68870E+01 2.42359E+01 0.00000E+00
 -1      3818 1.68870E+01 2.57078E+01 0.00000E+00
 -1      3819 1.55880E+01 2.79156E+01 0.00000E+00
 -1      3820 8.99827E+01 2.88000E+01 0.00000E+00
 -1      3821 9.13284E+01 2.93163E+01 0.00000E+00
 -1      3822 9.00742E+01 2.75352E+01 0.00000E+00
 -1      3823 1.89093E+01 1.65153E+01 0.00000E+00
 -1      3824 1.77843E+01 1.66001E+01 0.00000E+00
 -1      3825 5.83740E+01 1.77755E+01 0.00000E+00
 -1      3826 4.93740E+01 1.77755E+01 0.00000E+00
 -1      3827 4.86240E+01 1.64765E+01 0.00000E+00
 -1      3828 4.71240E+01 1.64765E+01 0.00000E+00
 -1      3829 6.18266E+01 1.87041E+01 0.00000E+00
 -1      3830 6.66240E+01 1.64765E+01 0.00000E+00
 -1      3831 6.51240E+01 1.64765E+01 0.00000E+00
 -1      3832 7.30014E+01 1.64442E+01 0.00000E+00
 -1      3833 7.15014E+01 1.64442E+01 0.00000E+00
 -1      3834 7.99605E+01 1.82865E+01 0.00000E+00
 -1      3835 7.92105E+01 1.69875E+01 0.00000E+00
 -1      3836 7.77105E+01 1.69875E+01 0.00000E+00
 -1      3837 1.33113E+02 2.28062E+01 0.00000E+00
 -1      3838 1.33113E+02 2.13375E+01 0.00000E+00
 -1      3839 8.11477E+01 1.92634E+01 0.00000E+00
 -1      3840 1.33429E+02 3.11134E+01 0.00000E+00
 -1      3841 1.33350E+02 2.98096E+01 0.00000E+00
 -1      3842 1.32051E+02 2.90752E+01 0.00000E+00
 -1      3843 1.32524E+02 3.13132E+01 0.00000E+00
 -1      3844 5.84168E+01 2.23773E+01 0.00000E+00
 -1      3845 4.41240E+01 1.64765E+01 0.00000E+00
 -1      3846 4.33740E+01 1.77755E+01 0.00000E+00
 -1      3847 4.56240E+01 1.64765E+01 0.00000E+00
 -1      3848 3.96240E+01 1.64765E+01 0.00000E+00
 -1      3849 3.81240E+01 1.64765E+01 0.00000E+00
 -1      3850 4.03740E+01 1.77755E+01 0.00000E+00
 -1      3851 3.36240E+01 1.64765E+01 0.00000E+00
 -1      3852 3.21240E+01 1.64765E+01 0.00000E+00
 -1      3853 1.34412E+02 2.50141E+01 0.00000E+00
 -1      3854 5.49571E+01 2.99300E+01 0.00000E+00
 -1      3855 5.61867E+01 2.56745E+01 0.00000E+00
 -1      3856 2.19093E+01 1.65153E+01 0.00000E+00
 -1      3857 2.04093E+01 1.65153E+01 0.00000E+00
 -1      3858 1.99445E+01 1.78530E+01 0.00000E+00
 -1      3859 1.31613E+02 1.98687E+01 0.00000E+00
 -1      3860 3.06240E+01 1.64765E+01 0.00000E+00
 -1      3861 2.91240E+01 1.64765E+01 0.00000E+00
 -1      3862 3.13740E+01 1.77755E+01 0.00000E+00
 -1      3863 1.53225E+01 1.88899E+01 0.00000E+00
 -1      3864 1.68870E+01 2.12984E+01 0.00000E+00
 -1      3865 1.68870E+01 2.27672E+01 0.00000E+00
 -1      3866 1.81860E+01 2.35031E+01 0.00000E+00
 -1      3867 6.73740E+01 1.77755E+01 0.00000E+00
 -1      3868 6.48266E+01 1.87041E+01 0.00000E+00
 -1      3869 6.17707E+01 2.03021E+01 0.00000E+00
 -1      3870 6.62276E+01 1.91708E+01 0.00000E+00
 -1      3871 8.43670E+01 2.16275E+01 0.00000E+00
 -1      3872 8.56452E+01 2.18704E+01 0.00000E+00
 -1      3873 7.07514E+01 1.77432E+01 0.00000E+00
 -1      3874 2.76480E+01 3.06427E+01 0.00000E+00
 -1      3875 2.91480E+01 3.06427E+01 0.00000E+00
 -1      3876 3.05730E+01 3.06427E+01 0.00000E+00
 -1      3877 3.19980E+01 3.06427E+01 0.00000E+00
 -1      3878 2.98230E+01 2.93438E+01 0.00000E+00
 -1      3879 3.34980E+01 3.06427E+01 0.00000E+00
 -1      3880 3.49980E+01 3.06427E+01 0.00000E+00
 -1      3881 3.27480E+01 2.93438E+01 0.00000E+00
 -1      3882 3.64980E+01 3.06427E+01 0.00000E+00
 -1      3883 3.79980E+01 3.06427E+01 0.00000E+00
 -1      3884 3.57480E+01 2.93438E+01 0.00000E+00
 -1      3885 3.94980E+01 3.06427E+01 0.00000E+00
 -1      3886 4.09980E+01 3.06427E+01 0.00000E+00
 -1      3887 3.87480E+01 2.93438E+01 0.00000E+00
 -1      3888 4.24980E+01 3.06427E+01 0.00000E+00
 -1      3889 4.39980E+01 3.06427E+01 0.00000E+00
 -1      3890 4.17480E+01 2.93438E+01 0.00000E+00
 -1      3891 4.54980E+01 3.06427E+01 0.00000E+00
 -1      3892 4.69980E+01 3.06427E+01 0.00000E+00
 -1      3893 4.47480E+01 2.93438E+01 0.00000E+00
 -1      3894 4.84980E+01 3.06427E+01 0.00000E+00
 -1      3895 4.99980E+01 3.06427E+01 0.00000E+00
 -1      3896 4.77480E+01 2.93438E+01 0.00000E+00
 -1      3897 1.04850E+02 3.15330E+01 0.00000E+00
 -1      3898 1.06350E+02 3.15330E+01 0.00000E+00
 -1      3899 1.81860E+01 2.64438E+01 0.00000E+00
 -1      3900 1.68870E+01 2.71797E+01 0.00000E+00
 -1      3901 1.68870E+01 2.86516E+01 0.00000E+00
 -1      3902 5.68057E+01 2.21818E+01 0.00000E+00
 -1      3903 5.81511E+01 2.07762E+01 0.00000E+00
 -1      3904 1.07850E+02 3.15330E+01 0.00000E+00
 -1      3905 1.09350E+02 3.15330E+01 0.00000E+00
 -1      3906 1.07100E+02 3.02340E+01 0.00000E+00
 -1      3907 1.10850E+02 3.15330E+01 0.00000E+00
 -1      3908 1.12350E+02 3.15330E+01 0.00000E+00
 -1      3909 1.10100E+02 3.02340E+01 0.00000E+00
 -1      3910 1.13850E+02 3.15330E+01 0.00000E+00
 -1      3911 1.15350E+02 3.15330E+01 0.00000E+00
 -1      3912 1.13100E+02 3.02340E+01 0.00000E+00
 -1      3913 1.16850E+02 3.15330E+01 0.00000E+00
 -1      3914 1.18350E+02 3.15330E+01 0.00000E+00
 -1      3915 1.16100E+02 3.02340E+01 0.00000E+00
 -1      3916 1.19775E+02 3.15330E+01 0.00000E+00
 -1      3917 1.21200E+02 3.15330E+01 0.00000E+00
 -1      3918 1.19025E+02 3.02340E+01 0.00000E+00
 -1      3919 1.22700E+02 3.15330E+01 0.00000E+00
 -1      3920 1.24200E+02 3.15330E+01 0.00000E+00
 -1      3921 1.21950E+02 3.02340E+01 0.00000E+00
 -1      3922 1.25700E+02 3.15330E+01 0.00000E+00
 -1      3923 1.27200E+02 3.15330E+01 0.00000E+00
 -1      3924 1.24950E+02 3.02340E+01 0.00000E+00
 -1      3925 5.31240E+01 1.90745E+01 0.00000E+00
 -1      3926 5.16240E+01 1.90745E+01 0.00000E+00
 -1      3927 1.30430E+02 2.20993E+01 0.00000E+00
 -1      3928 1.30229E+02 1.98962E+01 0.00000E+00
 -1      3929 1.28844E+02 1.99237E+01 0.00000E+00
 -1      3930 5.98181E+01 1.93736E+01 0.00000E+00
 -1      3931 5.83181E+01 1.93736E+01 0.00000E+00
 -1      3932 1.67508E+01 1.75352E+01 0.00000E+00
 -1      3933 1.33070E+02 2.39239E+01 0.00000E+00
 -1      3934 1.31771E+02 2.31895E+01 0.00000E+00
 -1      3935 1.30387E+02 2.32170E+01 0.00000E+00
 -1      3936 1.33070E+02 2.53973E+01 0.00000E+00
 -1      3937 9.21240E+01 1.90745E+01 0.00000E+00
 -1      3938 9.06240E+01 1.90745E+01 0.00000E+00
 -1      3939 9.51240E+01 1.90745E+01 0.00000E+00
 -1      3940 9.36240E+01 1.90745E+01 0.00000E+00
 -1      3941 9.28740E+01 2.03735E+01 0.00000E+00
 -1      3942 9.81240E+01 1.90745E+01 0.00000E+00
 -1      3943 9.66240E+01 1.90745E+01 0.00000E+00
 -1      3944 9.58740E+01 2.03735E+01 0.00000E+00
 -1      3945 1.01124E+02 1.90745E+01 0.00000E+00
 -1      3946 9.96240E+01 1.90745E+01 0.00000E+00
 -1      3947 9.88740E+01 2.03735E+01 0.00000E+00
 -1      3948 1.04124E+02 1.90745E+01 0.00000E+00
 -1      3949 1.02624E+02 1.90745E+01 0.00000E+00
 -1      3950 1.01874E+02 2.03735E+01 0.00000E+00
 -1      3951 1.07124E+02 1.90745E+01 0.00000E+00
 -1      3952 1.05624E+02 1.90745E+01 0.00000E+00
 -1      3953 1.04874E+02 2.03735E+01 0.00000E+00
 -1      3954 1.10124E+02 1.90745E+01 0.00000E+00
 -1      3955 1.08624E+02 1.90745E+01 0.00000E+00
 -1      3956 1.07874E+02 2.03735E+01 0.00000E+00
 -1      3957 1.13124E+02 1.90745E+01 0.00000E+00
 -1      3958 1.11624E+02 1.90745E+01 0.00000E+00
 -1      3959 1.10874E+02 2.03735E+01 0.00000E+00
 -1      3960 1.16124E+02 1.90745E+01 0.00000E+00
 -1      3961 1.14624E+02 1.90745E+01 0.00000E+00
 -1      3962 1.13874E+02 2.03735E+01 0.00000E+00
 -1      3963 1.19124E+02 1.90745E+01 0.00000E+00
 -1      3964 1.17624E+02 1.90745E+01 0.00000E+00
 -1      3965 1.16874E+02 2.03735E+01 0.00000E+00
 -1      3966 1.22124E+02 1.90745E+01 0.00000E+00
 -1      3967 1.20624E+02 1.90745E+01 0.00000E+00
 -1      3968 1.19874E+02 2.03735E+01 0.00000E+00
 -1      3969 1.25124E+02 1.90745E+01 0.00000E+00
 -1      3970 1.23624E+02 1.90745E+01 0.00000E+00
 -1      3971 1.22874E+02 2.03735E+01 0.00000E+00
 -1      3972 8.66965E+01 2.08170E+01 0.00000E+00
 -1      3973 8.70931E+01 2.22146E+01 0.00000E+00
 -1      3974 5.67070E+01 1.91782E+01 0.00000E+00
 -1      3975 5.15115E+01 3.01983E+01 0.00000E+00
 -1      3976 5.34437E+01 3.03744E+01 0.00000E+00
 -1      3977 5.37884E+01 2.80105E+01 0.00000E+00
 -1      3978 5.07615E+01 2.88993E+01 0.00000E+00
 -1      3979 9.60000E+01 3.15330E+01 0.00000E+00
 -1      3980 9.75000E+01 3.15330E+01 0.00000E+00
 -1      3981 3.51240E+01 1.64765E+01 0.00000E+00
 -1      3982 3.43740E+01 1.77755E+01 0.00000E+00
 -1      3983 3.66240E+01 1.64765E+01 0.00000E+00
 -1      3984 8.90092E+01 1.94683E+01 0.00000E+00
 -1      3985 8.75092E+01 1.94683E+01 0.00000E+00
 -1      3986 9.22859E+01 3.05114E+01 0.00000E+00
 -1      3987 9.28007E+01 3.16040E+01 0.00000E+00
 -1      3988 9.42925E+01 3.16369E+01 0.00000E+00
 -1      3989 9.23774E+01 2.92466E+01 0.00000E+00
 -1      3990 1.83870E+01 3.01203E+01 0.00000E+00
 -1      3991 2.46480E+01 3.06427E+01 0.00000E+00
 -1      3992 2.61480E+01 3.06427E+01 0.00000E+00
 -1      3993 2.68980E+01 2.93438E+01 0.00000E+00
 -1      3994 5.52070E+01 1.91782E+01 0.00000E+00
 -1      3995 8.42485E+01 2.01010E+01 0.00000E+00
 -1      3996 1.70162E+01 1.92078E+01 0.00000E+00
 -1      3997 5.45676E+01 2.60699E+01 0.00000E+00
 -1      3998 5.54524E+01 2.41783E+01 0.00000E+00
 -1      3999 1.83152E+01 1.99437E+01 0.00000E+00
 -1      4000 1.94850E+01 2.57078E+01 0.00000E+00
 -1      4001 1.94850E+01 2.71797E+01 0.00000E+00
 -1      4002 1.94850E+01 2.42391E+01 0.00000E+00
 -1      4003 2.07840E+01 2.49750E+01 0.00000E+00
 -1      4004 1.94850E+01 2.27703E+01 0.00000E+00
 -1      4005 1.31771E+02 2.61317E+01 0.00000E+00
 -1      4006 5.44570E+01 2.04771E+01 0.00000E+00
 -1      4007 8.84050E+01 2.27201E+01 0.00000E+00
 -1      4008 9.82125E+01 3.02340E+01 0.00000E+00
 -1      4009 9.89625E+01 3.15330E+01 0.00000E+00
 -1      4010 1.00425E+02 3.15330E+01 0.00000E+00
 -1      4011 1.03387E+02 3.15330E+01 0.00000E+00
 -1      4012 1.04137E+02 3.02340E+01 0.00000E+00
 -1      4013 1.01925E+02 3.15330E+01 0.00000E+00
 -1      4014 2.19930E+01 3.08344E+01 0.00000E+00
 -1      4015 2.33205E+01 3.07386E+01 0.00000E+00
 -1      4016 2.40705E+01 2.94396E+01 0.00000E+00
 -1      4017 5.51867E+01 2.25773E+01 0.00000E+00
 -1      4018 5.30541E+01 2.65143E+01 0.00000E+00
 -1      4019 9.00427E+01 2.61653E+01 0.00000E+00
 -1      4020 9.13885E+01 2.66816E+01 0.00000E+00
 -1      4021 9.00113E+01 2.47954E+01 0.00000E+00
 -1      4022 2.49092E+01 1.65153E+01 0.00000E+00
 -1      4023 2.34093E+01 1.65153E+01 0.00000E+00
 -1      4024 2.29445E+01 1.78530E+01 0.00000E+00
 -1      4025 1.28700E+02 3.15330E+01 0.00000E+00
 -1      4026 1.30200E+02 3.15330E+01 0.00000E+00
 -1      4027 1.31619E+02 3.15131E+01 0.00000E+00
 -1      4028 1.98152E+01 1.99437E+01 0.00000E+00
 -1      4029 5.01240E+01 1.90745E+01 0.00000E+00
 -1      4030 4.86240E+01 1.90745E+01 0.00000E+00
 -1      4031 5.08740E+01 2.03735E+01 0.00000E+00
 -1      4032 1.30869E+02 3.02141E+01 0.00000E+00
 -1      4033 8.35612E+01 1.87524E+01 0.00000E+00
 -1      4034 8.20612E+01 1.87524E+01 0.00000E+00
 -1      4035 8.60613E+01 1.91241E+01 0.00000E+00
 -1      4036 1.27676E+02 1.94854E+01 0.00000E+00
 -1      4037 1.26292E+02 1.95128E+01 0.00000E+00
 -1      4038 1.25542E+02 2.08118E+01 0.00000E+00
 -1      4039 1.27877E+02 2.16885E+01 0.00000E+00
 -1      4040 8.45613E+01 1.91241E+01 0.00000E+00
 -1      4041 1.95998E+01 2.86021E+01 0.00000E+00
 -1      4042 1.98008E+01 3.08068E+01 0.00000E+00
 -1      4043 2.11283E+01 3.07110E+01 0.00000E+00
 -1      4044 2.08988E+01 2.78662E+01 0.00000E+00
 -1      4045 3.73740E+01 1.77755E+01 0.00000E+00
 -1      4046 2.77666E+01 1.64959E+01 0.00000E+00
 -1      4047 2.62666E+01 1.64959E+01 0.00000E+00
 -1      4048 2.58019E+01 1.78336E+01 0.00000E+00
 -1      4049 2.85166E+01 1.77949E+01 0.00000E+00
 -1      4050 4.63740E+01 1.77755E+01 0.00000E+00
 -1      4051 1.30632E+02 2.90951E+01 0.00000E+00
 -1      4052 4.11240E+01 1.90745E+01 0.00000E+00
 -1      4053 3.96240E+01 1.90745E+01 0.00000E+00
 -1      4054 1.29140E+02 2.87291E+01 0.00000E+00
 -1      4055 1.30322E+02 2.75902E+01 0.00000E+00
 -1      4056 3.51240E+01 1.90745E+01 0.00000E+00
 -1      4057 3.36240E+01 1.90745E+01 0.00000E+00
 -1      4058 8.97592E+01 2.07673E+01 0.00000E+00
 -1      4059 9.50425E+01 3.03379E+01 0.00000E+00
 -1      4060 3.21240E+01 1.90745E+01 0.00000E+00
 -1      4061 3.06240E+01 1.90745E+01 0.00000E+00
 -1      4062 3.28740E+01 2.03735E+01 0.00000E+00
 -1      4063 4.41240E+01 1.90745E+01 0.00000E+00
 -1      4064 4.26240E+01 1.90745E+01 0.00000E+00
 -1      4065 4.18740E+01 2.03735E+01 0.00000E+00
 -1      4066 1.30279E+02 2.57657E+01 0.00000E+00
 -1      4067 1.27950E+02 3.02340E+01 0.00000E+00
 -1      4068 2.91105E+01 2.80448E+01 0.00000E+00
 -1      4069 3.05355E+01 2.80448E+01 0.00000E+00
 -1      4070 3.20355E+01 2.80448E+01 0.00000E+00
 -1      4071 3.35355E+01 2.80448E+01 0.00000E+00
 -1      4072 3.13230E+01 2.67458E+01 0.00000E+00
 -1      4073 3.50355E+01 2.80448E+01 0.00000E+00
 -1      4074 3.65355E+01 2.80448E+01 0.00000E+00
 -1      4075 3.43230E+01 2.67458E+01 0.00000E+00
 -1      4076 3.80355E+01 2.80448E+01 0.00000E+00
 -1      4077 3.95355E+01 2.80448E+01 0.00000E+00
 -1      4078 3.73230E+01 2.67458E+01 0.00000E+00
 -1      4079 4.10355E+01 2.80448E+01 0.00000E+00
 -1      4080 4.25355E+01 2.80448E+01 0.00000E+00
 -1      4081 4.03230E+01 2.67458E+01 0.00000E+00
 -1      4082 4.40355E+01 2.80448E+01 0.00000E+00
 -1      4083 4.55355E+01 2.80448E+01 0.00000E+00
 -1      4084 4.33230E+01 2.67458E+01 0.00000E+00
 -1      4085 4.70355E+01 2.80448E+01 0.00000E+00
 -1      4086 4.85355E+01 2.80448E+01 0.00000E+00
 -1      4087 4.63230E+01 2.67458E+01 0.00000E+00
 -1      4088 2.61105E+01 2.80448E+01 0.00000E+00
 -1      4089 2.76105E+01 2.80448E+01 0.00000E+00
 -1      4090 2.83230E+01 2.67458E+01 0.00000E+00
 -1      4091 5.31037E+01 2.24736E+01 0.00000E+00
 -1      4092 1.09350E+02 2.89350E+01 0.00000E+00
 -1      4093 1.10850E+02 2.89350E+01 0.00000E+00
 -1      4094 1.12350E+02 2.89350E+01 0.00000E+00
 -1      4095 1.13850E+02 2.89350E+01 0.00000E+00
 -1      4096 1.11600E+02 2.76360E+01 0.00000E+00
 -1      4097 1.15350E+02 2.89350E+01 0.00000E+00
 -1      4098 1.16850E+02 2.89350E+01 0.00000E+00
 -1      4099 1.14600E+02 2.76360E+01 0.00000E+00
 -1      4100 1.18275E+02 2.89350E+01 0.00000E+00
 -1      4101 1.19700E+02 2.89350E+01 0.00000E+00
 -1      4102 1.17525E+02 2.76360E+01 0.00000E+00
 -1      4103 1.21200E+02 2.89350E+01 0.00000E+00
 -1      4104 1.22700E+02 2.89350E+01 0.00000E+00
 -1      4105 1.20450E+02 2.76360E+01 0.00000E+00
 -1      4106 1.24200E+02 2.89350E+01 0.00000E+00
 -1      4107 1.25700E+02 2.89350E+01 0.00000E+00
 -1      4108 1.23450E+02 2.76360E+01 0.00000E+00
 -1      4109 8.97550E+01 2.20019E+01 0.00000E+00
 -1      4110 9.00156E+01 2.35608E+01 0.00000E+00
 -1      4111 9.13613E+01 2.40771E+01 0.00000E+00
 -1      4112 9.13698E+01 2.16080E+01 0.00000E+00
 -1      4113 5.14591E+01 2.70006E+01 0.00000E+00
 -1      4114 5.22383E+01 2.50600E+01 0.00000E+00
 -1      4115 1.06350E+02 2.89350E+01 0.00000E+00
 -1      4116 1.07850E+02 2.89350E+01 0.00000E+00
 -1      4117 1.08600E+02 2.76360E+01 0.00000E+00
 -1      4118 9.29124E+01 2.78369E+01 0.00000E+00
 -1      4119 9.38699E+01 2.90320E+01 0.00000E+00
 -1      4120 4.71240E+01 1.90745E+01 0.00000E+00
 -1      4121 4.56240E+01 1.90745E+01 0.00000E+00
 -1      4122 4.48740E+01 2.03735E+01 0.00000E+00
 -1      4123 9.96240E+01 2.16725E+01 0.00000E+00
 -1      4124 9.81240E+01 2.16725E+01 0.00000E+00
 -1      4125 9.43698E+01 2.16080E+01 0.00000E+00
 -1      4126 9.28698E+01 2.16080E+01 0.00000E+00
 -1      4127 9.28655E+01 2.28426E+01 0.00000E+00
 -1      4128 1.02624E+02 2.16725E+01 0.00000E+00
 -1      4129 1.01124E+02 2.16725E+01 0.00000E+00
 -1      4130 1.00374E+02 2.29715E+01 0.00000E+00
 -1      4131 1.05624E+02 2.16725E+01 0.00000E+00
 -1      4132 1.04124E+02 2.16725E+01 0.00000E+00
 -1      4133 1.03374E+02 2.29715E+01 0.00000E+00
 -1      4134 1.08624E+02 2.16725E+01 0.00000E+00
 -1      4135 1.07124E+02 2.16725E+01 0.00000E+00
 -1      4136 1.06374E+02 2.29715E+01 0.00000E+00
 -1      4137 1.11624E+02 2.16725E+01 0.00000E+00
 -1      4138 1.10124E+02 2.16725E+01 0.00000E+00
 -1      4139 1.09374E+02 2.29715E+01 0.00000E+00
 -1      4140 1.14624E+02 2.16725E+01 0.00000E+00
 -1      4141 1.13124E+02 2.16725E+01 0.00000E+00
 -1      4142 1.12374E+02 2.29715E+01 0.00000E+00
 -1      4143 1.17624E+02 2.16725E+01 0.00000E+00
 -1      4144 1.16124E+02 2.16725E+01 0.00000E+00
 -1      4145 1.15374E+02 2.29715E+01 0.00000E+00
 -1      4146 1.20624E+02 2.16725E+01 0.00000E+00
 -1      4147 1.19124E+02 2.16725E+01 0.00000E+00
 -1      4148 1.18374E+02 2.29715E+01 0.00000E+00
 -1      4149 1.23624E+02 2.16725E+01 0.00000E+00
 -1      4150 1.22124E+02 2.16725E+01 0.00000E+00
 -1      4151 1.21374E+02 2.29715E+01 0.00000E+00
 -1      4152 4.99456E+01 2.74450E+01 0.00000E+00
 -1      4153 2.20294E+01 1.92663E+01 0.00000E+00
 -1      4154 2.04001E+01 2.13570E+01 0.00000E+00
 -1      4155 2.16991E+01 2.20929E+01 0.00000E+00
 -1      4156 2.35294E+01 1.92663E+01 0.00000E+00
 -1      4157 1.27640E+02 2.87291E+01 0.00000E+00
 -1      4158 1.28937E+02 2.46755E+01 0.00000E+00
 -1      4159 1.27585E+02 2.58950E+01 0.00000E+00
 -1      4160 1.27693E+02 2.33463E+01 0.00000E+00
 -1      4161 9.55775E+01 2.89281E+01 0.00000E+00
 -1      4162 3.81240E+01 1.90745E+01 0.00000E+00
 -1      4163 3.66240E+01 1.90745E+01 0.00000E+00
 -1      4164 3.58740E+01 2.03735E+01 0.00000E+00
 -1      4165 3.88740E+01 2.03735E+01 0.00000E+00
 -1      4166 1.26890E+02 2.74301E+01 0.00000E+00
 -1      4167 9.58698E+01 2.16080E+01 0.00000E+00
 -1      4168 2.20830E+01 2.42406E+01 0.00000E+00
 -1      4169 2.20830E+01 2.57094E+01 0.00000E+00
 -1      4170 4.78740E+01 2.03735E+01 0.00000E+00
 -1      4171 9.74812E+01 2.89350E+01 0.00000E+00
 -1      4172 9.89437E+01 2.89350E+01 0.00000E+00
 -1      4173 1.01175E+02 3.02340E+01 0.00000E+00
 -1      4174 2.43900E+01 2.71594E+01 0.00000E+00
 -1      4175 2.51025E+01 2.58604E+01 0.00000E+00
 -1      4176 2.18783E+01 2.94120E+01 0.00000E+00
 -1      4177 4.92331E+01 2.61460E+01 0.00000E+00
 -1      4178 3.66240E+01 2.16725E+01 0.00000E+00
 -1      4179 3.51240E+01 2.16725E+01 0.00000E+00
 -1      4180 5.22415E+01 2.39500E+01 0.00000E+00
 -1      4181 5.15118E+01 2.18499E+01 0.00000E+00
 -1      4182 9.66198E+01 2.29070E+01 0.00000E+00
 -1      4183 1.04887E+02 2.89350E+01 0.00000E+00
 -1      4184 1.05637E+02 2.76360E+01 0.00000E+00
 -1      4185 1.03425E+02 2.89350E+01 0.00000E+00
 -1      4186 3.00166E+01 2.03929E+01 0.00000E+00
 -1      4187 2.92666E+01 1.90939E+01 0.00000E+00
 -1      4188 2.79092E+01 1.91133E+01 0.00000E+00
 -1      4189 5.00118E+01 2.18499E+01 0.00000E+00
 -1      4190 9.28810E+01 2.64669E+01 0.00000E+00
 -1      4191 3.36240E+01 2.16725E+01 0.00000E+00
 -1      4192 3.21240E+01 2.16725E+01 0.00000E+00
 -1      4193 3.43740E+01 2.29715E+01 0.00000E+00
 -1      4194 1.25358E+02 2.24696E+01 0.00000E+00
 -1      4195 1.24608E+02 2.37686E+01 0.00000E+00
 -1      4196 1.25646E+02 2.61009E+01 0.00000E+00
 -1      4197 9.63087E+01 2.76291E+01 0.00000E+00
 -1      4198 4.26240E+01 2.16725E+01 0.00000E+00
 -1      4199 4.11240E+01 2.16725E+01 0.00000E+00
 -1      4200 5.06464E+01 2.44363E+01 0.00000E+00
 -1      4201 3.96240E+01 2.16725E+01 0.00000E+00
 -1      4202 3.81240E+01 2.16725E+01 0.00000E+00
 -1      4203 4.03740E+01 2.29715E+01 0.00000E+00
 -1      4204 2.30625E+01 2.72552E+01 0.00000E+00
 -1      4205 2.17635E+01 2.79896E+01 0.00000E+00
 -1      4206 1.00434E+02 2.89350E+01 0.00000E+00
 -1      4207 1.01934E+02 2.89350E+01 0.00000E+00
 -1      4208 1.02684E+02 2.76360E+01 0.00000E+00
 -1      4209 9.97031E+01 2.76360E+01 0.00000E+00
 -1      4210 3.28485E+01 2.48586E+01 0.00000E+00
 -1      4211 3.43485E+01 2.48586E+01 0.00000E+00
 -1      4212 3.65730E+01 2.54468E+01 0.00000E+00
 -1      4213 3.80730E+01 2.54468E+01 0.00000E+00
 -1      4214 4.03485E+01 2.48586E+01 0.00000E+00
 -1      4215 4.18485E+01 2.48586E+01 0.00000E+00
 -1      4216 4.33485E+01 2.48586E+01 0.00000E+00
 -1      4217 4.55730E+01 2.54468E+01 0.00000E+00
 -1      4218 4.70730E+01 2.54468E+01 0.00000E+00
 -1      4219 1.10850E+02 2.63370E+01 0.00000E+00
 -1      4220 1.12350E+02 2.63370E+01 0.00000E+00
 -1      4221 9.29038E+01 2.48541E+01 0.00000E+00
 -1      4222 9.44277E+01 2.60094E+01 0.00000E+00
 -1      4223 1.13487E+02 2.53037E+01 0.00000E+00
 -1      4224 1.14987E+02 2.53037E+01 0.00000E+00
 -1      4225 1.16487E+02 2.53037E+01 0.00000E+00
 -1      4226 1.17912E+02 2.53037E+01 0.00000E+00
 -1      4227 1.19412E+02 2.53037E+01 0.00000E+00
 -1      4228 1.20912E+02 2.53037E+01 0.00000E+00
 -1      4229 1.01124E+02 2.42705E+01 0.00000E+00
 -1      4230 9.96240E+01 2.42705E+01 0.00000E+00
 -1      4231 3.13485E+01 2.48586E+01 0.00000E+00
 -1      4232 1.07487E+02 2.53037E+01 0.00000E+00
 -1      4233 1.08987E+02 2.53037E+01 0.00000E+00
 -1      4234 4.63485E+01 2.22606E+01 0.00000E+00
 -1      4235 4.48485E+01 2.22606E+01 0.00000E+00
 -1      4236 1.04524E+02 2.53037E+01 0.00000E+00
 -1      4237 1.03024E+02 2.53037E+01 0.00000E+00
 -1      4238 4.81546E+01 2.52414E+01 0.00000E+00
 -1      4239 4.95648E+01 2.46417E+01 0.00000E+00
 -1      4240 4.95679E+01 2.35317E+01 0.00000E+00
 -1      4241 4.74046E+01 2.39424E+01 0.00000E+00
 -1      4242 1.26526E+02 2.29079E+01 0.00000E+00
 -1      4243 1.05987E+02 2.53037E+01 0.00000E+00
 -1      4244 1.22412E+02 2.53037E+01 0.00000E+00
 -1      4245 1.23912E+02 2.53037E+01 0.00000E+00
 -1      4246 2.48366E+01 2.42627E+01 0.00000E+00
 -1      4247 2.65571E+01 2.51480E+01 0.00000E+00
 -1      4248 4.89301E+01 2.20553E+01 0.00000E+00
 -1      4249 2.80571E+01 2.51480E+01 0.00000E+00
 -1      4250 4.40985E+01 2.35596E+01 0.00000E+00
 -1      4251 9.63315E+01 2.60163E+01 0.00000E+00
 -1      4252 2.65519E+01 1.91326E+01 0.00000E+00
 -1      4253 2.51945E+01 1.91520E+01 0.00000E+00
 -1      4254 2.73019E+01 2.04316E+01 0.00000E+00
 -1      4255 2.29981E+01 2.28273E+01 0.00000E+00
 -1      4256 4.74301E+01 2.20553E+01 0.00000E+00
 -1      4257 9.92933E+01 2.66027E+01 0.00000E+00
 -1      4258 1.00784E+02 2.66027E+01 0.00000E+00
 -1      4259 1.09737E+02 2.40047E+01 0.00000E+00
 -1      4260 3.73740E+01 2.29715E+01 0.00000E+00
 -1      4261 9.28613E+01 2.40771E+01 0.00000E+00
 -1      4262 1.12737E+02 2.40047E+01 0.00000E+00
 -1      4263 1.11237E+02 2.40047E+01 0.00000E+00
 -1      4264 2.44528E+01 2.21150E+01 0.00000E+00
 -1      4265 3.88485E+01 2.48586E+01 0.00000E+00
 -1      4266 9.78552E+01 2.61804E+01 0.00000E+00
 -1      4267 9.89360E+01 2.51472E+01 0.00000E+00
 -1      4268 9.81860E+01 2.38482E+01 0.00000E+00
 -1      4269 9.59317E+01 2.37837E+01 0.00000E+00
 -1      4270 3.80985E+01 2.35596E+01 0.00000E+00
 -1      4271 3.65985E+01 2.35596E+01 0.00000E+00
 -1      4272 2.95755E+01 2.49856E+01 0.00000E+00
 -1      4273 3.11010E+01 2.30984E+01 0.00000E+00
 -1      4274 3.03510E+01 2.17994E+01 0.00000E+00
 -1      4275 2.89937E+01 2.18188E+01 0.00000E+00
 -1      4276 9.44080E+01 2.36196E+01 0.00000E+00
 -1      4277 1.02274E+02 2.66027E+01 0.00000E+00
 -1      4278 9.59742E+01 2.45607E+01 0.00000E+00
 -1      4279 3.58485E+01 2.48586E+01 0.00000E+00
 -1      4280 2.78097E+01 2.33878E+01 0.00000E+00
 -1      4281 2.74753E+01 2.19813E+01 0.00000E+00
 -1      4282 2.42794E+01 2.05653E+01 0.00000E+00
 -1      4283 2.61179E+01 2.20007E+01 0.00000E+00
 -3
    3C                          2059                                     1
 -1       166    8    0    1
 -2         6         7        23      1113      1278      1130
 -1       167    8    0    1
 -2         7         8       166      1114      1279      1280
 -1       168    8    0    1
 -2         8         9       167      1115      1281      1282
 -1       169    8    0    1
 -2         8       167       166      1282      1283      1279
 -1       170    8    0    1
 -2         9        10       168      1116      1284      1285
 -1       171    8    0    1
 -2         9       168       167      1285      1286      1281
 -1       172    8    0    1
 -2        10        11       169      1117      1287      1288
 -1       173    8    0    1
 -2        10       169       168      1288      1289      1284
 -1       174    8    0    1
 -2        11        12       170      1118      1290      1291
 -1       175    8    0    1
 -2        11       170       169      1291      1292      1287
 -1       176    8    0    1
 -2        12        13       171      1119      1293      1294
 -1       177    8    0    1
 -2        12       171       170      1294      1295      1290
 -1       178    8    0    1
 -2        13        14       172      1120      1296      1297
 -1       179    8    0    1
 -2        13       172       171      1297      1298      1293
 -1       180    8    0    1
 -2        14        15       173      1121      1299      1300
 -1       181    8    0    1
 -2        14       173       172      1300      1301      1296
 -1       182    8    0    1
 -2        15        16       174      1122      1302      1303
 -1       183    8    0    1
 -2        15       174       173      1303      1304      1299
 -1       184    8    0    1
 -2        16        17       175      1123      1305      1306
 -1       185    8    0    1
 -2        16       175       174      1306      1307      1302
 -1       186    8    0    1
 -2        17        18       176      1124      1308      1309
 -1       187    8    0    1
 -2        17       176       175      1309      1310      1305
 -1       188    8    0    1
 -2        18        19       177      1125      1311      1312
 -1       189    8    0    1
 -2        18       177       176      1312      1313      1308
 -1       190    8    0    1
 -2        19        20       178      1126      1314      1315
 -1       191    8    0    1
 -2        19       178       177      1315      1316      1311
 -1       192    8    0    1
 -2        20        21       179      1127      1317      1318
 -1       193    8    0    1
 -2        20       179       178      1318      1319      1314
 -1       194    8    0    1
 -2        21        22       180      1128      1320      1321
 -1       195    8    0    1
 -2        21       180       179      1321      1322      1317
 -1       196    8    0    1
 -2        22         5       181      1129      1323      1324
 -1       197    8    0    1
 -2       180        22       181      1320      1324      1325
 -1       198    8    0    1
 -2         5        73       181      1181      1326      1323
 -1       199    8    0    1
 -2        24        23       182      1131      1327      1328
 -1       200    8    0    1
 -2        25        24       183      1132      1329      1330
 -1       201    8    0    1
 -2        24       182       183      1328      1331      1329
 -1       202    8    0    1
 -2        26        25       184      1133      1332      1333
 -1       203    8    0    1
 -2        25       183       184      1330      1334      1332
 -1       204    8    0    1
 -2        27        26       185      1134      1335      1336
 -1       205    8    0    1
 -2        26       184       185      1333      1337      1335
 -1       206    8    0    1
 -2        28        27       186      1135      1338      1339
 -1       207    8    0    1
 -2        27       185       186      1336      1340      1338
 -1       208    8    0    1
 -2        29        28       187      1136      1341      1342
 -1       209    8    0    1
 -2        28       186       187      1339      1343      1341
 -1       210    8    0    1
 -2        30        29       188      1137      1344      1345
 -1       211    8    0    1
 -2        29       187       188      1342      1346      1344
 -1       212    8    0    1
 -2        31        30       189      1138      1347      1348
 -1       213    8    0    1
 -2        30       188       189      1345      1349      1347
 -1       214    8    0    1
 -2        32        31       190      1139      1350      1351
 -1       215    8    0    1
 -2        31       189       190      1348      1352      1350
 -1       216    8    0    1
 -2        33        32       191      1140      1353      1354
 -1       217    8    0    1
 -2        32       190       191      1351      1355      1353
 -1       218    8    0    1
 -2        34        33       192      1141      1356      1357
 -1       219    8    0    1
 -2        33       191       192      1354      1358      1356
 -1       220    8    0    1
 -2        35        34       193      1142      1359      1360
 -1       221    8    0    1
 -2        34       192       193      1357      1361      1359
 -1       222    8    0    1
 -2        36        35       194      1143      1362      1363
 -1       223    8    0    1
 -2        35       193       194      1360      1364      1362
 -1       224    8    0    1
 -2        37        36       195      1144      1365      1366
 -1       225    8    0    1
 -2        36       194       195      1363      1367      1365
 -1       226    8    0    1
 -2        38        37       196      1145      1368      1369
 -1       227    8    0    1
 -2        37       195       196      1366      1370      1368
 -1       228    8    0    1
 -2        39        38       197      1146      1371      1372
 -1       229    8    0    1
 -2        38       196       197      1369      1373      1371
 -1       230    8    0    1
 -2        40        39       198      1147      1374      1375
 -1       231    8    0    1
 -2        39       197       198      1372      1376      1374
 -1       232    8    0    1
 -2        41        40       199      1148      1377      1378
 -1       233    8    0    1
 -2        40       198       199      1375      1379      1377
 -1       234    8    0    1
 -2        42        41       200      1149      1380      1381
 -1       235    8    0    1
 -2        41       199       200      1378      1382      1380
 -1       236    8    0    1
 -2        43        42       201      1150      1383      1384
 -1       237    8    0    1
 -2        42       200       201      1381      1385      1383
 -1       238    8    0    1
 -2        44        43       202      1151      1386      1387
 -1       239    8    0    1
 -2        43       201       202      1384      1388      1386
 -1       240    8    0    1
 -2        45        44       203      1152      1389      1390
 -1       241    8    0    1
 -2        44       202       203      1387      1391      1389
 -1       242    8    0    1
 -2        46        45       204      1153      1392      1393
 -1       243    8    0    1
 -2        45       203       204      1390      1394      1392
 -1       244    8    0    1
 -2        47        46       205      1154      1395      1396
 -1       245    8    0    1
 -2        46       204       205      1393      1397      1395
 -1       246    8    0    1
 -2        49        48       206      1156      1398      1399
 -1       247    8    0    1
 -2        50        49       207      1157      1400      1401
 -1       248    8    0    1
 -2        49       206       207      1399      1402      1400
 -1       249    8    0    1
 -2        51        50       208      1158      1403      1404
 -1       250    8    0    1
 -2        50       207       208      1401      1405      1403
 -1       251    8    0    1
 -2        52        51       209      1159      1406      1407
 -1       252    8    0    1
 -2        51       208       209      1404      1408      1406
 -1       253    8    0    1
 -2        53        52       210      1160      1409      1410
 -1       254    8    0    1
 -2        52       209       210      1407      1411      1409
 -1       255    8    0    1
 -2        54        53       211      1161      1412      1413
 -1       256    8    0    1
 -2        53       210       211      1410      1414      1412
 -1       257    8    0    1
 -2        55        54       212      1162      1415      1416
 -1       258    8    0    1
 -2        54       211       212      1413      1417      1415
 -1       259    8    0    1
 -2        56        55       213      1163      1418      1419
 -1       260    8    0    1
 -2        55       212       213      1416      1420      1418
 -1       261    8    0    1
 -2        57        56       214      1164      1421      1422
 -1       262    8    0    1
 -2        56       213       214      1419      1423      1421
 -1       263    8    0    1
 -2        58        57       215      1165      1424      1425
 -1       264    8    0    1
 -2        57       214       215      1422      1426      1424
 -1       265    8    0    1
 -2        59        58       216      1166      1427      1428
 -1       266    8    0    1
 -2        58       215       216      1425      1429      1427
 -1       267    8    0    1
 -2        60        59       217      1167      1430      1431
 -1       268    8    0    1
 -2        59       216       217      1428      1432      1430
 -1       269    8    0    1
 -2        61        60       218      1168      1433      1434
 -1       270    8    0    1
 -2        60       217       218      1431      1435      1433
 -1       271    8    0    1
 -2        62        61       219      1169      1436      1437
 -1       272    8    0    1
 -2        61       218       219      1434      1438      1436
 -1       273    8    0    1
 -2        63        62       220      1170      1439      1440
 -1       274    8    0    1
 -2        62       219       220      1437      1441      1439
 -1       275    8    0    1
 -2        64        63       221      1171      1442      1443
 -1       276    8    0    1
 -2        63       220       221      1440      1444      1442
 -1       277    8    0    1
 -2        65        64       222      1172      1445      1446
 -1       278    8    0    1
 -2        64       221       222      1443      1447      1445
 -1       279    8    0    1
 -2        66        65       223      1173      1448      1449
 -1       280    8    0    1
 -2        65       222       223      1446      1450      1448
 -1       281    8    0    1
 -2        67        66       224      1174      1451      1452
 -1       282    8    0    1
 -2        66       223       224      1449      1453      1451
 -1       283    8    0    1
 -2        68        67       225      1175      1454      1455
 -1       284    8    0    1
 -2        67       224       225      1452      1456      1454
 -1       285    8    0    1
 -2        69        68       226      1176      1457      1458
 -1       286    8    0    1
 -2        68       225       226      1455      1459      1457
 -1       287    8    0    1
 -2        70        69       227      1177      1460      1461
 -1       288    8    0    1
 -2        69       226       227      1458      1462      1460
 -1       289    8    0    1
 -2        71        70       228      1178      1463      1464
 -1       290    8    0    1
 -2        70       227       228      1461      1465      1463
 -1       291    8    0    1
 -2        72        71       229      1179      1466      1467
 -1       292    8    0    1
 -2        71       228       229      1464      1468      1466
 -1       293    8    0    1
 -2         4        72       230      1180      1469      1470
 -1       294    8    0    1
 -2       137         4       230      1247      1470      1471
 -1       295    8    0    1
 -2        72       229       230      1467      1472      1469
 -1       296    8    0    1
 -2        73        74       231      1182      1473      1474
 -1       297    8    0    1
 -2        73       231       181      1474      1475      1326
 -1       298    8    0    1
 -2        74        75       232      1183      1476      1477
 -1       299    8    0    1
 -2        74       232       231      1477      1478      1473
 -1       300    8    0    1
 -2        75        76       233      1184      1479      1480
 -1       301    8    0    1
 -2        75       233       232      1480      1481      1476
 -1       302    8    0    1
 -2        76        77       234      1185      1482      1483
 -1       303    8    0    1
 -2        76       234       233      1483      1484      1479
 -1       304    8    0    1
 -2        77        78       235      1186      1485      1486
 -1       305    8    0    1
 -2        77       235       234      1486      1487      1482
 -1       306    8    0    1
 -2        78        79       236      1187      1488      1489
 -1       307    8    0    1
 -2        78       236       235      1489      1490      1485
 -1       308    8    0    1
 -2        79        80       237      1188      1491      1492
 -1       309    8    0    1
 -2        79       237       236      1492      1493      1488
 -1       310    8    0    1
 -2        80        81       238      1189      1494      1495
 -1       311    8    0    1
 -2        80       238       237      1495      1496      1491
 -1       312    8    0    1
 -2        81        82       239      1190      1497      1498
 -1       313    8    0    1
 -2        81       239       238      1498      1499      1494
 -1       314    8    0    1
 -2        82        83       240      1191      1500      1501
 -1       315    8    0    1
 -2        82       240       239      1501      1502      1497
 -1       316    8    0    1
 -2        83        84       241      1192      1503      1504
 -1       317    8    0    1
 -2        83       241       240      1504      1505      1500
 -1       318    8    0    1
 -2        84        85       242      1193      1506      1507
 -1       319    8    0    1
 -2        84       242       241      1507      1508      1503
 -1       320    8    0    1
 -2        85        86       243      1194      1509      1510
 -1       321    8    0    1
 -2        85       243       242      1510      1511      1506
 -1       322    8    0    1
 -2        86        87       244      1195      1512      1513
 -1       323    8    0    1
 -2        86       244       243      1513      1514      1509
 -1       324    8    0    1
 -2        87        88       245      1196      1515      1516
 -1       325    8    0    1
 -2        87       245       244      1516      1517      1512
 -1       326    8    0    1
 -2        88        89       246      1197      1518      1519
 -1       327    8    0    1
 -2        88       246       245      1519      1520      1515
 -1       328    8    0    1
 -2        89        90       247      1198      1521      1522
 -1       329    8    0    1
 -2        89       247       246      1522      1523      1518
 -1       330    8    0    1
 -2        90        91       248      1199      1524      1525
 -1       331    8    0    1
 -2        90       248       247      1525      1526      1521
 -1       332    8    0    1
 -2        91        92       249      1200      1527      1528
 -1       333    8    0    1
 -2        91       249       248      1528      1529      1524
 -1       334    8    0    1
 -2        92        93       250      1201      1530      1531
 -1       335    8    0    1
 -2        92       250       249      1531      1532      1527
 -1       336    8    0    1
 -2        93        94       251      1202      1533      1534
 -1       337    8    0    1
 -2        93       251       250      1534      1535      1530
 -1       338    8    0    1
 -2        94        95       252      1203      1536      1537
 -1       339    8    0    1
 -2        94       252       251      1537      1538      1533
 -1       340    8    0    1
 -2        95        96       253      1204      1539      1540
 -1       341    8    0    1
 -2        95       253       252      1540      1541      1536
 -1       342    8    0    1
 -2        96        97       254      1205      1542      1543
 -1       343    8    0    1
 -2        96       254       253      1543      1544      1539
 -1       344    8    0    1
 -2        97        98       255      1206      1545      1546
 -1       345    8    0    1
 -2        97       255       254      1546      1547      1542
 -1       346    8    0    1
 -2        98        99       256      1207      1548      1549
 -1       347    8    0    1
 -2        98       256       255      1549      1550      1545
 -1       348    8    0    1
 -2        99       100       257      1208      1551      1552
 -1       349    8    0    1
 -2        99       257       256      1552      1553      1548
 -1       350    8    0    1
 -2       100       101       258      1209      1554      1555
 -1       351    8    0    1
 -2       100       258       257      1555      1556      1551
 -1       352    8    0    1
 -2       101       102       259      1210      1557      1558
 -1       353    8    0    1
 -2       101       259       258      1558      1559      1554
 -1       354    8    0    1
 -2       102       103       260      1211      1560      1561
 -1       355    8    0    1
 -2       102       260       259      1561      1562      1557
 -1       356    8    0    1
 -2       103       104       261      1212      1563      1564
 -1       357    8    0    1
 -2       103       261       260      1564      1565      1560
 -1       358    8    0    1
 -2       104       105       262      1213      1566      1567
 -1       359    8    0    1
 -2       104       262       261      1567      1568      1563
 -1       360    8    0    1
 -2       105       106       263      1214      1569      1570
 -1       361    8    0    1
 -2       105       263       262      1570      1571      1566
 -1       362    8    0    1
 -2       106       107       264      1215      1572      1573
 -1       363    8    0    1
 -2       106       264       263      1573      1574      1569
 -1       364    8    0    1
 -2       107       108       265      1216      1575      1576
 -1       365    8    0    1
 -2       107       265       264      1576      1577      1572
 -1       366    8    0    1
 -2       108       109       266      1217      1578      1579
 -1       367    8    0    1
 -2       108       266       265      1579      1580      1575
 -1       368    8    0    1
 -2       109       110       267      1218      1581      1582
 -1       369    8    0    1
 -2       109       267       266      1582      1583      1578
 -1       370    8    0    1
 -2       110       111       268      1219      1584      1585
 -1       371    8    0    1
 -2       110       268       267      1585      1586      1581
 -1       372    8    0    1
 -2       111       112       269      1220      1587      1588
 -1       373    8    0    1
 -2       111       269       268      1588      1589      1584
 -1       374    8    0    1
 -2       112       113       270      1221      1590      1591
 -1       375    8    0    1
 -2       112       270       269      1591      1592      1587
 -1       376    8    0    1
 -2       113       114       271      1222      1593      1594
 -1       377    8    0    1
 -2       113       271       270      1594      1595      1590
 -1       378    8    0    1
 -2       114       115       272      1223      1596      1597
 -1       379    8    0    1
 -2       114       272       271      1597      1598      1593
 -1       380    8    0    1
 -2       115       116       273      1224      1599      1600
 -1       381    8    0    1
 -2       115       273       272      1600      1601      1596
 -1       382    8    0    1
 -2       116       117       274      1225      1602      1603
 -1       383    8    0    1
 -2       116       274       273      1603      1604      1599
 -1       384    8    0    1
 -2       117       118       275      1226      1605      1606
 -1       385    8    0    1
 -2       117       275       274      1606      1607      1602
 -1       386    8    0    1
 -2       118       119       276      1227      1608      1609
 -1       387    8    0    1
 -2       118       276       275      1609      1610      1605
 -1       388    8    0    1
 -2       119       120       277      1228      1611      1612
 -1       389    8    0    1
 -2       119       277       276      1612      1613      1608
 -1       390    8    0    1
 -2       120       121       278      1229      1614      1615
 -1       391    8    0    1
 -2       120       278       277      1615      1616      1611
 -1       392    8    0    1
 -2       121         3       122      1230      1231      1617
 -1       393    8    0    1
 -2       122       123       279      1232      1618      1619
 -1       394    8    0    1
 -2       123       124       280      1233      1620      1621
 -1       395    8    0    1
 -2       123       280       279      1621      1622      1618
 -1       396    8    0    1
 -2       124       125       281      1234      1623      1624
 -1       397    8    0    1
 -2       124       281       280      1624      1625      1620
 -1       398    8    0    1
 -2       125       126       282      1235      1626      1627
 -1       399    8    0    1
 -2       125       282       281      1627      1628      1623
 -1       400    8    0    1
 -2       126       127       283      1236      1629      1630
 -1       401    8    0    1
 -2       126       283       282      1630      1631      1626
 -1       402    8    0    1
 -2       127       128       284      1237      1632      1633
 -1       403    8    0    1
 -2       127       284       283      1633      1634      1629
 -1       404    8    0    1
 -2       128       129       285      1238      1635      1636
 -1       405    8    0    1
 -2       128       285       284      1636      1637      1632
 -1       406    8    0    1
 -2       129       130       286      1239      1638      1639
 -1       407    8    0    1
 -2       129       286       285      1639      1640      1635
 -1       408    8    0    1
 -2       130       131       287      1240      1641      1642
 -1       409    8    0    1
 -2       130       287       286      1642      1643      1638
 -1       410    8    0    1
 -2       131       132       288      1241      1644      1645
 -1       411    8    0    1
 -2       131       288       287      1645      1646      1641
 -1       412    8    0    1
 -2       132       133       289      1242      1647      1648
 -1       413    8    0    1
 -2       132       289       288      1648      1649      1644
 -1       414    8    0    1
 -2       133       134       290      1243      1650      1651
 -1       415    8    0    1
 -2       133       290       289      1651      1652      1647
 -1       416    8    0    1
 -2       134       135       291      1244      1653      1654
 -1       417    8    0    1
 -2       134       291       290      1654      1655      1650
 -1       418    8    0    1
 -2       135       136       292      1245      1656      1657
 -1       419    8    0    1
 -2       135       292       291      1657      1658      1653
 -1       420    8    0    1
 -2       136       137       293      1246      1659      1660
 -1       421    8    0    1
 -2       292       136       293      1656      1660      1661
 -1       422    8    0    1
 -2       137       230       293      1471      1662      1659
 -1       423    8    0    1
 -2         2       138       294      1248      1663      1664
 -1       424    8    0    1
 -2       138       139       295      1249      1665      1666
 -1       425    8    0    1
 -2       139       140       296      1250      1667      1668
 -1       426    8    0    1
 -2       140       141       297      1251      1669      1670
 -1       427    8    0    1
 -2       141       142       298      1252      1671      1672
 -1       428    8    0    1
 -2       142       143       299      1253      1673      1674
 -1       429    8    0    1
 -2       143       144       300      1254      1675      1676
 -1       430    8    0    1
 -2       144       145       301      1255      1677      1678
 -1       431    8    0    1
 -2       145       146       302      1256      1679      1680
 -1       432    8    0    1
 -2       146       147       303      1257      1681      1682
 -1       433    8    0    1
 -2       147       148       304      1258      1683      1684
 -1       434    8    0    1
 -2       148       149       305      1259      1685      1686
 -1       435    8    0    1
 -2       149       150       306      1260      1687      1688
 -1       436    8    0    1
 -2       150       151       307      1261      1689      1690
 -1       437    8    0    1
 -2       151       152       308      1262      1691      1692
 -1       438    8    0    1
 -2       152       153       309      1263      1693      1694
 -1       439    8    0    1
 -2       153       154       310      1264      1695      1696
 -1       440    8    0    1
 -2       154       155       311      1265      1697      1698
 -1       441    8    0    1
 -2       155       156       312      1266      1699      1700
 -1       442    8    0    1
 -2       156       157       313      1267      1701      1702
 -1       443    8    0    1
 -2       157         1       314      1268      1703      1704
 -1       444    8    0    1
 -2         1       158       315      1269      1705      1706
 -1       445    8    0    1
 -2       158       159       316      1270      1707      1708
 -1       446    8    0    1
 -2       159       160       317      1271      1709      1710
 -1       447    8    0    1
 -2       160       161       318      1272      1711      1712
 -1       448    8    0    1
 -2       161       162       319      1273      1713      1714
 -1       449    8    0    1
 -2       162       163       320      1274      1715      1716
 -1       450    8    0    1
 -2       163       164       321      1275      1717      1718
 -1       451    8    0    1
 -2       164       165       322      1276      1719      1720
 -1       452    8    0    1
 -2       165         2       323      1277      1721      1722
 -1       453    8    0    1
 -2        48        47       324      1155      1723      1724
 -1       454    8    0    1
 -2       296       140       297      1667      1670      1725
 -1       455    8    0    1
 -2         2       294       323      1664      1726      1721
 -1       456    8    0    1
 -2       121       122       278      1617      1727      1614
 -1       457    8    0    1
 -2       122       279       278      1619      1728      1727
 -1       458    8    0    1
 -2       294       138       295      1663      1666      1729
 -1       459    8    0    1
 -2       295       139       296      1665      1668      1730
 -1       460    8    0    1
 -2       141       298       297      1672      1731      1669
 -1       461    8    0    1
 -2       142       299       298      1674      1732      1671
 -1       462    8    0    1
 -2       143       300       299      1676      1733      1673
 -1       463    8    0    1
 -2       144       301       300      1678      1734      1675
 -1       464    8    0    1
 -2       145       302       301      1680      1735      1677
 -1       465    8    0    1
 -2       146       303       302      1682      1736      1679
 -1       466    8    0    1
 -2       147       304       303      1684      1737      1681
 -1       467    8    0    1
 -2       148       305       304      1686      1738      1683
 -1       468    8    0    1
 -2       149       306       305      1688      1739      1685
 -1       469    8    0    1
 -2       150       307       306      1690      1740      1687
 -1       470    8    0    1
 -2       151       308       307      1692      1741      1689
 -1       471    8    0    1
 -2       152       309       308      1694      1742      1691
 -1       472    8    0    1
 -2       153       310       309      1696      1743      1693
 -1       473    8    0    1
 -2       154       311       310      1698      1744      1695
 -1       474    8    0    1
 -2       155       312       311      1700      1745      1697
 -1       475    8    0    1
 -2       156       313       312      1702      1746      1699
 -1       476    8    0    1
 -2       157       314       313      1704      1747      1701
 -1       477    8    0    1
 -2         1       315       314      1706      1748      1703
 -1       478    8    0    1
 -2       158       316       315      1708      1749      1705
 -1       479    8    0    1
 -2       159       317       316      1710      1750      1707
 -1       480    8    0    1
 -2       160       318       317      1712      1751      1709
 -1       481    8    0    1
 -2       161       319       318      1714      1752      1711
 -1       482    8    0    1
 -2       162       320       319      1716      1753      1713
 -1       483    8    0    1
 -2       163       321       320      1718      1754      1715
 -1       484    8    0    1
 -2       164       322       321      1720      1755      1717
 -1       485    8    0    1
 -2       165       323       322      1722      1756      1719
 -1       486    8    0    1
 -2        48       324       206      1724      1757      1398
 -1       487    8    0    1
 -2        23         7       166      1278      1280      1758
 -1       488    8    0    1
 -2       324        47       205      1723      1396      1759
 -1       489    8    0    1
 -2       167       168       325      1286      1760      1761
 -1       490    8    0    1
 -2       166       167       326      1283      1762      1763
 -1       491    8    0    1
 -2       167       325       326      1761      1764      1762
 -1       492    8    0    1
 -2       169       170       327      1292      1765      1766
 -1       493    8    0    1
 -2       170       171       328      1295      1767      1768
 -1       494    8    0    1
 -2       170       328       327      1768      1769      1765
 -1       495    8    0    1
 -2       171       172       329      1298      1770      1771
 -1       496    8    0    1
 -2       171       329       328      1771      1772      1767
 -1       497    8    0    1
 -2       172       173       330      1301      1773      1774
 -1       498    8    0    1
 -2       172       330       329      1774      1775      1770
 -1       499    8    0    1
 -2       173       174       331      1304      1776      1777
 -1       500    8    0    1
 -2       173       331       330      1777      1778      1773
 -1       501    8    0    1
 -2       174       175       332      1307      1779      1780
 -1       502    8    0    1
 -2       174       332       331      1780      1781      1776
 -1       503    8    0    1
 -2       175       176       333      1310      1782      1783
 -1       504    8    0    1
 -2       175       333       332      1783      1784      1779
 -1       505    8    0    1
 -2       176       177       334      1313      1785      1786
 -1       506    8    0    1
 -2       176       334       333      1786      1787      1782
 -1       507    8    0    1
 -2       177       178       335      1316      1788      1789
 -1       508    8    0    1
 -2       177       335       334      1789      1790      1785
 -1       509    8    0    1
 -2       178       179       336      1319      1791      1792
 -1       510    8    0    1
 -2       178       336       335      1792      1793      1788
 -1       511    8    0    1
 -2       179       180       337      1322      1794      1795
 -1       512    8    0    1
 -2       179       337       336      1795      1796      1791
 -1       513    8    0    1
 -2       180       181       338      1325      1797      1798
 -1       514    8    0    1
 -2       337       180       338      1794      1798      1799
 -1       515    8    0    1
 -2       181       231       338      1475      1800      1797
 -1       516    8    0    1
 -2       182        23       166      1327      1758      1801
 -1       517    8    0    1
 -2       231       232       339      1478      1802      1803
 -1       518    8    0    1
 -2       231       339       338      1803      1804      1800
 -1       519    8    0    1
 -2       184       183       340      1334      1805      1806
 -1       520    8    0    1
 -2       185       184       341      1337      1807      1808
 -1       521    8    0    1
 -2       184       340       341      1806      1809      1807
 -1       522    8    0    1
 -2       186       185       342      1340      1810      1811
 -1       523    8    0    1
 -2       185       341       342      1808      1812      1810
 -1       524    8    0    1
 -2       187       186       343      1343      1813      1814
 -1       525    8    0    1
 -2       186       342       343      1811      1815      1813
 -1       526    8    0    1
 -2       188       187       344      1346      1816      1817
 -1       527    8    0    1
 -2       187       343       344      1814      1818      1816
 -1       528    8    0    1
 -2       189       188       345      1349      1819      1820
 -1       529    8    0    1
 -2       188       344       345      1817      1821      1819
 -1       530    8    0    1
 -2       190       189       346      1352      1822      1823
 -1       531    8    0    1
 -2       189       345       346      1820      1824      1822
 -1       532    8    0    1
 -2       191       190       347      1355      1825      1826
 -1       533    8    0    1
 -2       190       346       347      1823      1827      1825
 -1       534    8    0    1
 -2       192       191       348      1358      1828      1829
 -1       535    8    0    1
 -2       191       347       348      1826      1830      1828
 -1       536    8    0    1
 -2       193       192       349      1361      1831      1832
 -1       537    8    0    1
 -2       192       348       349      1829      1833      1831
 -1       538    8    0    1
 -2       194       193       350      1364      1834      1835
 -1       539    8    0    1
 -2       193       349       350      1832      1836      1834
 -1       540    8    0    1
 -2       195       194       351      1367      1837      1838
 -1       541    8    0    1
 -2       194       350       351      1835      1839      1837
 -1       542    8    0    1
 -2       196       195       352      1370      1840      1841
 -1       543    8    0    1
 -2       195       351       352      1838      1842      1840
 -1       544    8    0    1
 -2       197       196       353      1373      1843      1844
 -1       545    8    0    1
 -2       196       352       353      1841      1845      1843
 -1       546    8    0    1
 -2       198       197       354      1376      1846      1847
 -1       547    8    0    1
 -2       197       353       354      1844      1848      1846
 -1       548    8    0    1
 -2       199       198       355      1379      1849      1850
 -1       549    8    0    1
 -2       198       354       355      1847      1851      1849
 -1       550    8    0    1
 -2       200       199       356      1382      1852      1853
 -1       551    8    0    1
 -2       199       355       356      1850      1854      1852
 -1       552    8    0    1
 -2       201       200       357      1385      1855      1856
 -1       553    8    0    1
 -2       200       356       357      1853      1857      1855
 -1       554    8    0    1
 -2       202       201       358      1388      1858      1859
 -1       555    8    0    1
 -2       201       357       358      1856      1860      1858
 -1       556    8    0    1
 -2       203       202       359      1391      1861      1862
 -1       557    8    0    1
 -2       202       358       359      1859      1863      1861
 -1       558    8    0    1
 -2       296       297       360      1725      1864      1865
 -1       559    8    0    1
 -2       182       166       326      1801      1763      1866
 -1       560    8    0    1
 -2       208       207       361      1405      1867      1868
 -1       561    8    0    1
 -2       209       208       362      1408      1869      1870
 -1       562    8    0    1
 -2       208       361       362      1868      1871      1869
 -1       563    8    0    1
 -2       210       209       363      1411      1872      1873
 -1       564    8    0    1
 -2       209       362       363      1870      1874      1872
 -1       565    8    0    1
 -2       211       210       364      1414      1875      1876
 -1       566    8    0    1
 -2       210       363       364      1873      1877      1875
 -1       567    8    0    1
 -2       212       211       365      1417      1878      1879
 -1       568    8    0    1
 -2       211       364       365      1876      1880      1878
 -1       569    8    0    1
 -2       213       212       366      1420      1881      1882
 -1       570    8    0    1
 -2       212       365       366      1879      1883      1881
 -1       571    8    0    1
 -2       214       213       367      1423      1884      1885
 -1       572    8    0    1
 -2       213       366       367      1882      1886      1884
 -1       573    8    0    1
 -2       215       214       368      1426      1887      1888
 -1       574    8    0    1
 -2       214       367       368      1885      1889      1887
 -1       575    8    0    1
 -2       216       215       369      1429      1890      1891
 -1       576    8    0    1
 -2       215       368       369      1888      1892      1890
 -1       577    8    0    1
 -2       217       216       370      1432      1893      1894
 -1       578    8    0    1
 -2       216       369       370      1891      1895      1893
 -1       579    8    0    1
 -2       218       217       371      1435      1896      1897
 -1       580    8    0    1
 -2       217       370       371      1894      1898      1896
 -1       581    8    0    1
 -2       219       218       372      1438      1899      1900
 -1       582    8    0    1
 -2       218       371       372      1897      1901      1899
 -1       583    8    0    1
 -2       220       219       373      1441      1902      1903
 -1       584    8    0    1
 -2       219       372       373      1900      1904      1902
 -1       585    8    0    1
 -2       221       220       374      1444      1905      1906
 -1       586    8    0    1
 -2       220       373       374      1903      1907      1905
 -1       587    8    0    1
 -2       222       221       375      1447      1908      1909
 -1       588    8    0    1
 -2       221       374       375      1906      1910      1908
 -1       589    8    0    1
 -2       223       222       376      1450      1911      1912
 -1       590    8    0    1
 -2       222       375       376      1909      1913      1911
 -1       591    8    0    1
 -2       224       223       377      1453      1914      1915
 -1       592    8    0    1
 -2       223       376       377      1912      1916      1914
 -1       593    8    0    1
 -2       225       224       378      1456      1917      1918
 -1       594    8    0    1
 -2       224       377       378      1915      1919      1917
 -1       595    8    0    1
 -2       226       225       379      1459      1920      1921
 -1       596    8    0    1
 -2       225       378       379      1918      1922      1920
 -1       597    8    0    1
 -2       227       226       380      1462      1923      1924
 -1       598    8    0    1
 -2       226       379       380      1921      1925      1923
 -1       599    8    0    1
 -2       228       227       381      1465      1926      1927
 -1       600    8    0    1
 -2       227       380       381      1924      1928      1926
 -1       601    8    0    1
 -2       229       228       382      1468      1929      1930
 -1       602    8    0    1
 -2       228       381       382      1927      1931      1929
 -1       603    8    0    1
 -2       230       229       293      1472      1932      1662
 -1       604    8    0    1
 -2       233       234       383      1484      1933      1934
 -1       605    8    0    1
 -2       234       235       384      1487      1935      1936
 -1       606    8    0    1
 -2       234       384       383      1936      1937      1933
 -1       607    8    0    1
 -2       235       236       385      1490      1938      1939
 -1       608    8    0    1
 -2       235       385       384      1939      1940      1935
 -1       609    8    0    1
 -2       236       237       386      1493      1941      1942
 -1       610    8    0    1
 -2       236       386       385      1942      1943      1938
 -1       611    8    0    1
 -2       237       238       387      1496      1944      1945
 -1       612    8    0    1
 -2       237       387       386      1945      1946      1941
 -1       613    8    0    1
 -2       238       239       388      1499      1947      1948
 -1       614    8    0    1
 -2       238       388       387      1948      1949      1944
 -1       615    8    0    1
 -2       239       240       389      1502      1950      1951
 -1       616    8    0    1
 -2       239       389       388      1951      1952      1947
 -1       617    8    0    1
 -2       240       241       390      1505      1953      1954
 -1       618    8    0    1
 -2       240       390       389      1954      1955      1950
 -1       619    8    0    1
 -2       241       242       391      1508      1956      1957
 -1       620    8    0    1
 -2       241       391       390      1957      1958      1953
 -1       621    8    0    1
 -2       242       243       392      1511      1959      1960
 -1       622    8    0    1
 -2       242       392       391      1960      1961      1956
 -1       623    8    0    1
 -2       243       244       393      1514      1962      1963
 -1       624    8    0    1
 -2       243       393       392      1963      1964      1959
 -1       625    8    0    1
 -2       244       245       394      1517      1965      1966
 -1       626    8    0    1
 -2       244       394       393      1966      1967      1962
 -1       627    8    0    1
 -2       245       246       395      1520      1968      1969
 -1       628    8    0    1
 -2       245       395       394      1969      1970      1965
 -1       629    8    0    1
 -2       246       247       396      1523      1971      1972
 -1       630    8    0    1
 -2       246       396       395      1972      1973      1968
 -1       631    8    0    1
 -2       247       248       397      1526      1974      1975
 -1       632    8    0    1
 -2       247       397       396      1975      1976      1971
 -1       633    8    0    1
 -2       248       249       398      1529      1977      1978
 -1       634    8    0    1
 -2       248       398       397      1978      1979      1974
 -1       635    8    0    1
 -2       249       250       399      1532      1980      1981
 -1       636    8    0    1
 -2       249       399       398      1981      1982      1977
 -1       637    8    0    1
 -2       250       251       400      1535      1983      1984
 -1       638    8    0    1
 -2       250       400       399      1984      1985      1980
 -1       639    8    0    1
 -2       251       252       401      1538      1986      1987
 -1       640    8    0    1
 -2       251       401       400      1987      1988      1983
 -1       641    8    0    1
 -2       252       253       402      1541      1989      1990
 -1       642    8    0    1
 -2       252       402       401      1990      1991      1986
 -1       643    8    0    1
 -2       253       254       403      1544      1992      1993
 -1       644    8    0    1
 -2       253       403       402      1993      1994      1989
 -1       645    8    0    1
 -2       254       255       404      1547      1995      1996
 -1       646    8    0    1
 -2       254       404       403      1996      1997      1992
 -1       647    8    0    1
 -2       255       256       405      1550      1998      1999
 -1       648    8    0    1
 -2       255       405       404      1999      2000      1995
 -1       649    8    0    1
 -2       256       257       406      1553      2001      2002
 -1       650    8    0    1
 -2       256       406       405      2002      2003      1998
 -1       651    8    0    1
 -2       257       258       407      1556      2004      2005
 -1       652    8    0    1
 -2       257       407       406      2005      2006      2001
 -1       653    8    0    1
 -2       258       259       408      1559      2007      2008
 -1       654    8    0    1
 -2       258       408       407      2008      2009      2004
 -1       655    8    0    1
 -2       259       260       409      1562      2010      2011
 -1       656    8    0    1
 -2       259       409       408      2011      2012      2007
 -1       657    8    0    1
 -2       260       261       410      1565      2013      2014
 -1       658    8    0    1
 -2       260       410       409      2014      2015      2010
 -1       659    8    0    1
 -2       261       262       411      1568      2016      2017
 -1       660    8    0    1
 -2       261       411       410      2017      2018      2013
 -1       661    8    0    1
 -2       262       263       412      1571      2019      2020
 -1       662    8    0    1
 -2       262       412       411      2020      2021      2016
 -1       663    8    0    1
 -2       263       264       413      1574      2022      2023
 -1       664    8    0    1
 -2       263       413       412      2023      2024      2019
 -1       665    8    0    1
 -2       264       265       414      1577      2025      2026
 -1       666    8    0    1
 -2       264       414       413      2026      2027      2022
 -1       667    8    0    1
 -2       265       266       415      1580      2028      2029
 -1       668    8    0    1
 -2       265       415       414      2029      2030      2025
 -1       669    8    0    1
 -2       266       267       416      1583      2031      2032
 -1       670    8    0    1
 -2       266       416       415      2032      2033      2028
 -1       671    8    0    1
 -2       267       268       417      1586      2034      2035
 -1       672    8    0    1
 -2       267       417       416      2035      2036      2031
 -1       673    8    0    1
 -2       268       269       418      1589      2037      2038
 -1       674    8    0    1
 -2       268       418       417      2038      2039      2034
 -1       675    8    0    1
 -2       269       270       419      1592      2040      2041
 -1       676    8    0    1
 -2       269       419       418      2041      2042      2037
 -1       677    8    0    1
 -2       270       271       420      1595      2043      2044
 -1       678    8    0    1
 -2       270       420       419      2044      2045      2040
 -1       679    8    0    1
 -2       271       272       421      1598      2046      2047
 -1       680    8    0    1
 -2       271       421       420      2047      2048      2043
 -1       681    8    0    1
 -2       272       273       422      1601      2049      2050
 -1       682    8    0    1
 -2       272       422       421      2050      2051      2046
 -1       683    8    0    1
 -2       273       274       423      1604      2052      2053
 -1       684    8    0    1
 -2       273       423       422      2053      2054      2049
 -1       685    8    0    1
 -2       274       275       424      1607      2055      2056
 -1       686    8    0    1
 -2       274       424       423      2056      2057      2052
 -1       687    8    0    1
 -2       275       276       425      1610      2058      2059
 -1       688    8    0    1
 -2       275       425       424      2059      2060      2055
 -1       689    8    0    1
 -2       276       277       426      1613      2061      2062
 -1       690    8    0    1
 -2       276       426       425      2062      2063      2058
 -1       691    8    0    1
 -2       277       278       427      1616      2064      2065
 -1       692    8    0    1
 -2       426       277       427      2061      2065      2066
 -1       693    8    0    1
 -2       278       279       427      1728      2067      2064
 -1       694    8    0    1
 -2       281       282       428      1628      2068      2069
 -1       695    8    0    1
 -2       280       281       429      1625      2070      2071
 -1       696    8    0    1
 -2       281       428       429      2069      2072      2070
 -1       697    8    0    1
 -2       279       280       427      1622      2073      2067
 -1       698    8    0    1
 -2       282       283       430      1631      2074      2075
 -1       699    8    0    1
 -2       282       430       428      2075      2076      2068
 -1       700    8    0    1
 -2       283       284       431      1634      2077      2078
 -1       701    8    0    1
 -2       283       431       430      2078      2079      2074
 -1       702    8    0    1
 -2       284       285       432      1637      2080      2081
 -1       703    8    0    1
 -2       284       432       431      2081      2082      2077
 -1       704    8    0    1
 -2       285       286       433      1640      2083      2084
 -1       705    8    0    1
 -2       285       433       432      2084      2085      2080
 -1       706    8    0    1
 -2       286       287       434      1643      2086      2087
 -1       707    8    0    1
 -2       286       434       433      2087      2088      2083
 -1       708    8    0    1
 -2       287       288       435      1646      2089      2090
 -1       709    8    0    1
 -2       287       435       434      2090      2091      2086
 -1       710    8    0    1
 -2       288       289       436      1649      2092      2093
 -1       711    8    0    1
 -2       288       436       435      2093      2094      2089
 -1       712    8    0    1
 -2       289       290       437      1652      2095      2096
 -1       713    8    0    1
 -2       289       437       436      2096      2097      2092
 -1       714    8    0    1
 -2       290       291       438      1655      2098      2099
 -1       715    8    0    1
 -2       290       438       437      2099      2100      2095
 -1       716    8    0    1
 -2       291       292       439      1658      2101      2102
 -1       717    8    0    1
 -2       291       439       438      2102      2103      2098
 -1       718    8    0    1
 -2       232       233       440      1481      2104      2105
 -1       719    8    0    1
 -2       339       232       440      1802      2105      2106
 -1       720    8    0    1
 -2       233       383       440      1934      2107      2104
 -1       721    8    0    1
 -2       295       296       441      1730      2108      2109
 -1       722    8    0    1
 -2       297       298       442      1731      2110      2111
 -1       723    8    0    1
 -2       323       294       443      1726      2112      2113
 -1       724    8    0    1
 -2       168       169       444      1289      2114      2115
 -1       725    8    0    1
 -2       325       168       444      1760      2115      2116
 -1       726    8    0    1
 -2       169       327       444      1766      2117      2114
 -1       727    8    0    1
 -2       207       206       445      1402      2118      2119
 -1       728    8    0    1
 -2       207       445       361      2119      2120      1867
 -1       729    8    0    1
 -2       298       299       446      1732      2121      2122
 -1       730    8    0    1
 -2       298       446       442      2122      2123      2110
 -1       731    8    0    1
 -2       299       300       447      1733      2124      2125
 -1       732    8    0    1
 -2       300       301       448      1734      2126      2127
 -1       733    8    0    1
 -2       300       448       447      2127      2128      2124
 -1       734    8    0    1
 -2       301       302       449      1735      2129      2130
 -1       735    8    0    1
 -2       302       303       450      1736      2131      2132
 -1       736    8    0    1
 -2       303       304       451      1737      2133      2134
 -1       737    8    0    1
 -2       304       305       452      1738      2135      2136
 -1       738    8    0    1
 -2       305       306       453      1739      2137      2138
 -1       739    8    0    1
 -2       306       307       454      1740      2139      2140
 -1       740    8    0    1
 -2       306       454       453      2140      2141      2137
 -1       741    8    0    1
 -2       307       308       455      1741      2142      2143
 -1       742    8    0    1
 -2       308       309       456      1742      2144      2145
 -1       743    8    0    1
 -2       309       310       457      1743      2146      2147
 -1       744    8    0    1
 -2       310       311       458      1744      2148      2149
 -1       745    8    0    1
 -2       311       312       459      1745      2150      2151
 -1       746    8    0    1
 -2       312       313       460      1746      2152      2153
 -1       747    8    0    1
 -2       313       314       461      1747      2154      2155
 -1       748    8    0    1
 -2       313       461       460      2155      2156      2152
 -1       749    8    0    1
 -2       314       315       462      1748      2157      2158
 -1       750    8    0    1
 -2       315       316       463      1749      2159      2160
 -1       751    8    0    1
 -2       315       463       462      2160      2161      2157
 -1       752    8    0    1
 -2       316       317       464      1750      2162      2163
 -1       753    8    0    1
 -2       317       318       465      1751      2164      2165
 -1       754    8    0    1
 -2       317       465       464      2165      2166      2162
 -1       755    8    0    1
 -2       318       319       466      1752      2167      2168
 -1       756    8    0    1
 -2       319       320       467      1753      2169      2170
 -1       757    8    0    1
 -2       320       321       468      1754      2171      2172
 -1       758    8    0    1
 -2       321       322       469      1755      2173      2174
 -1       759    8    0    1
 -2       322       323       470      1756      2175      2176
 -1       760    8    0    1
 -2       294       295       471      1729      2177      2178
 -1       761    8    0    1
 -2       293       229       382      1932      1930      2179
 -1       762    8    0    1
 -2       296       360       441      1865      2180      2108
 -1       763    8    0    1
 -2       340       183       326      1805      2181      2182
 -1       764    8    0    1
 -2       183       182       326      1331      1866      2181
 -1       765    8    0    1
 -2       324       205       464      1759      2183      2184
 -1       766    8    0    1
 -2       360       297       442      1864      2111      2185
 -1       767    8    0    1
 -2       204       203       461      1394      2186      2187
 -1       768    8    0    1
 -2       205       204       462      1397      2188      2189
 -1       769    8    0    1
 -2       427       280       429      2073      2071      2190
 -1       770    8    0    1
 -2       443       294       471      2112      2178      2191
 -1       771    8    0    1
 -2       292       293       472      1661      2192      2193
 -1       772    8    0    1
 -2       439       292       472      2101      2193      2194
 -1       773    8    0    1
 -2       293       382       472      2179      2195      2192
 -1       774    8    0    1
 -2       295       441       471      2109      2196      2177
 -1       775    8    0    1
 -2       299       447       446      2125      2197      2121
 -1       776    8    0    1
 -2       323       443       470      2113      2198      2175
 -1       777    8    0    1
 -2       469       322       470      2173      2176      2199
 -1       778    8    0    1
 -2       468       321       469      2171      2174      2200
 -1       779    8    0    1
 -2       467       320       468      2169      2172      2201
 -1       780    8    0    1
 -2       465       318       466      2164      2168      2202
 -1       781    8    0    1
 -2       463       316       464      2159      2163      2203
 -1       782    8    0    1
 -2       461       314       462      2154      2158      2204
 -1       783    8    0    1
 -2       459       312       460      2150      2153      2205
 -1       784    8    0    1
 -2       458       311       459      2148      2151      2206
 -1       785    8    0    1
 -2       457       310       458      2146      2149      2207
 -1       786    8    0    1
 -2       456       309       457      2144      2147      2208
 -1       787    8    0    1
 -2       454       307       455      2139      2143      2209
 -1       788    8    0    1
 -2       452       305       453      2135      2138      2210
 -1       789    8    0    1
 -2       451       304       452      2133      2136      2211
 -1       790    8    0    1
 -2       450       303       451      2131      2134      2212
 -1       791    8    0    1
 -2       448       301       449      2126      2130      2213
 -1       792    8    0    1
 -2       449       302       450      2129      2132      2214
 -1       793    8    0    1
 -2       455       308       456      2142      2145      2215
 -1       794    8    0    1
 -2       466       319       467      2167      2170      2216
 -1       795    8    0    1
 -2       206       324       465      1757      2217      2218
 -1       796    8    0    1
 -2       324       464       465      2184      2166      2217
 -1       797    8    0    1
 -2       462       204       461      2188      2187      2204
 -1       798    8    0    1
 -2       328       329       473      1772      2219      2220
 -1       799    8    0    1
 -2       327       328       474      1769      2221      2222
 -1       800    8    0    1
 -2       328       473       474      2220      2223      2221
 -1       801    8    0    1
 -2       330       331       475      1778      2224      2225
 -1       802    8    0    1
 -2       331       332       476      1781      2226      2227
 -1       803    8    0    1
 -2       331       476       475      2227      2228      2224
 -1       804    8    0    1
 -2       332       333       477      1784      2229      2230
 -1       805    8    0    1
 -2       332       477       476      2230      2231      2226
 -1       806    8    0    1
 -2       333       334       478      1787      2232      2233
 -1       807    8    0    1
 -2       333       478       477      2233      2234      2229
 -1       808    8    0    1
 -2       334       335       479      1790      2235      2236
 -1       809    8    0    1
 -2       334       479       478      2236      2237      2232
 -1       810    8    0    1
 -2       335       336       480      1793      2238      2239
 -1       811    8    0    1
 -2       335       480       479      2239      2240      2235
 -1       812    8    0    1
 -2       336       337       481      1796      2241      2242
 -1       813    8    0    1
 -2       336       481       480      2242      2243      2238
 -1       814    8    0    1
 -2       337       338       482      1799      2244      2245
 -1       815    8    0    1
 -2       481       337       482      2241      2245      2246
 -1       816    8    0    1
 -2       338       339       482      1804      2247      2244
 -1       817    8    0    1
 -2       341       340       483      1809      2248      2249
 -1       818    8    0    1
 -2       362       361       484      1871      2250      2251
 -1       819    8    0    1
 -2       340       326       485      2182      2252      2253
 -1       820    8    0    1
 -2       483       340       485      2248      2253      2254
 -1       821    8    0    1
 -2       326       325       485      1764      2255      2252
 -1       822    8    0    1
 -2       360       442       486      2185      2256      2257
 -1       823    8    0    1
 -2       203       359       461      1862      2258      2186
 -1       824    8    0    1
 -2       342       341       487      1812      2259      2260
 -1       825    8    0    1
 -2       341       483       487      2249      2261      2259
 -1       826    8    0    1
 -2       343       342       488      1815      2262      2263
 -1       827    8    0    1
 -2       342       487       488      2260      2264      2262
 -1       828    8    0    1
 -2       344       343       489      1818      2265      2266
 -1       829    8    0    1
 -2       343       488       489      2263      2267      2265
 -1       830    8    0    1
 -2       345       344       490      1821      2268      2269
 -1       831    8    0    1
 -2       344       489       490      2266      2270      2268
 -1       832    8    0    1
 -2       346       345       491      1824      2271      2272
 -1       833    8    0    1
 -2       345       490       491      2269      2273      2271
 -1       834    8    0    1
 -2       347       346       492      1827      2274      2275
 -1       835    8    0    1
 -2       346       491       492      2272      2276      2274
 -1       836    8    0    1
 -2       348       347       493      1830      2277      2278
 -1       837    8    0    1
 -2       347       492       493      2275      2279      2277
 -1       838    8    0    1
 -2       349       348       494      1833      2280      2281
 -1       839    8    0    1
 -2       348       493       494      2278      2282      2280
 -1       840    8    0    1
 -2       350       349       495      1836      2283      2284
 -1       841    8    0    1
 -2       349       494       495      2281      2285      2283
 -1       842    8    0    1
 -2       351       350       496      1839      2286      2287
 -1       843    8    0    1
 -2       350       495       496      2284      2288      2286
 -1       844    8    0    1
 -2       352       351       497      1842      2289      2290
 -1       845    8    0    1
 -2       351       496       497      2287      2291      2289
 -1       846    8    0    1
 -2       353       352       498      1845      2292      2293
 -1       847    8    0    1
 -2       352       497       498      2290      2294      2292
 -1       848    8    0    1
 -2       354       353       499      1848      2295      2296
 -1       849    8    0    1
 -2       353       498       499      2293      2297      2295
 -1       850    8    0    1
 -2       355       354       500      1851      2298      2299
 -1       851    8    0    1
 -2       354       499       500      2296      2300      2298
 -1       852    8    0    1
 -2       356       355       501      1854      2301      2302
 -1       853    8    0    1
 -2       355       500       501      2299      2303      2301
 -1       854    8    0    1
 -2       357       356       502      1857      2304      2305
 -1       855    8    0    1
 -2       356       501       502      2302      2306      2304
 -1       856    8    0    1
 -2       358       357       503      1860      2307      2308
 -1       857    8    0    1
 -2       357       502       503      2305      2309      2307
 -1       858    8    0    1
 -2       205       462       463      2189      2161      2310
 -1       859    8    0    1
 -2       427       429       426      2190      2311      2066
 -1       860    8    0    1
 -2       205       463       464      2310      2203      2183
 -1       861    8    0    1
 -2       442       446       504      2123      2312      2313
 -1       862    8    0    1
 -2       441       360       505      2180      2314      2315
 -1       863    8    0    1
 -2       363       362       506      1874      2316      2317
 -1       864    8    0    1
 -2       364       363       507      1877      2318      2319
 -1       865    8    0    1
 -2       363       506       507      2317      2320      2318
 -1       866    8    0    1
 -2       365       364       508      1880      2321      2322
 -1       867    8    0    1
 -2       364       507       508      2319      2323      2321
 -1       868    8    0    1
 -2       366       365       509      1883      2324      2325
 -1       869    8    0    1
 -2       365       508       509      2322      2326      2324
 -1       870    8    0    1
 -2       367       366       510      1886      2327      2328
 -1       871    8    0    1
 -2       366       509       510      2325      2329      2327
 -1       872    8    0    1
 -2       368       367       511      1889      2330      2331
 -1       873    8    0    1
 -2       367       510       511      2328      2332      2330
 -1       874    8    0    1
 -2       369       368       512      1892      2333      2334
 -1       875    8    0    1
 -2       368       511       512      2331      2335      2333
 -1       876    8    0    1
 -2       370       369       513      1895      2336      2337
 -1       877    8    0    1
 -2       369       512       513      2334      2338      2336
 -1       878    8    0    1
 -2       371       370       514      1898      2339      2340
 -1       879    8    0    1
 -2       370       513       514      2337      2341      2339
 -1       880    8    0    1
 -2       372       371       515      1901      2342      2343
 -1       881    8    0    1
 -2       371       514       515      2340      2344      2342
 -1       882    8    0    1
 -2       373       372       516      1904      2345      2346
 -1       883    8    0    1
 -2       372       515       516      2343      2347      2345
 -1       884    8    0    1
 -2       374       373       517      1907      2348      2349
 -1       885    8    0    1
 -2       373       516       517      2346      2350      2348
 -1       886    8    0    1
 -2       375       374       518      1910      2351      2352
 -1       887    8    0    1
 -2       374       517       518      2349      2353      2351
 -1       888    8    0    1
 -2       376       375       519      1913      2354      2355
 -1       889    8    0    1
 -2       375       518       519      2352      2356      2354
 -1       890    8    0    1
 -2       377       376       520      1916      2357      2358
 -1       891    8    0    1
 -2       376       519       520      2355      2359      2357
 -1       892    8    0    1
 -2       378       377       521      1919      2360      2361
 -1       893    8    0    1
 -2       377       520       521      2358      2362      2360
 -1       894    8    0    1
 -2       379       378       522      1922      2363      2364
 -1       895    8    0    1
 -2       378       521       522      2361      2365      2363
 -1       896    8    0    1
 -2       380       379       523      1925      2366      2367
 -1       897    8    0    1
 -2       379       522       523      2364      2368      2366
 -1       898    8    0    1
 -2       381       380       524      1928      2369      2370
 -1       899    8    0    1
 -2       380       523       524      2367      2371      2369
 -1       900    8    0    1
 -2       382       381       525      1931      2372      2373
 -1       901    8    0    1
 -2       472       382       525      2195      2373      2374
 -1       902    8    0    1
 -2       381       524       525      2370      2375      2372
 -1       903    8    0    1
 -2       385       386       526      1943      2376      2377
 -1       904    8    0    1
 -2       384       385       527      1940      2378      2379
 -1       905    8    0    1
 -2       385       526       527      2377      2380      2378
 -1       906    8    0    1
 -2       383       384       528      1937      2381      2382
 -1       907    8    0    1
 -2       384       527       528      2379      2383      2381
 -1       908    8    0    1
 -2       386       387       529      1946      2384      2385
 -1       909    8    0    1
 -2       386       529       526      2385      2386      2376
 -1       910    8    0    1
 -2       387       388       530      1949      2387      2388
 -1       911    8    0    1
 -2       387       530       529      2388      2389      2384
 -1       912    8    0    1
 -2       388       389       531      1952      2390      2391
 -1       913    8    0    1
 -2       388       531       530      2391      2392      2387
 -1       914    8    0    1
 -2       389       390       532      1955      2393      2394
 -1       915    8    0    1
 -2       389       532       531      2394      2395      2390
 -1       916    8    0    1
 -2       390       391       533      1958      2396      2397
 -1       917    8    0    1
 -2       390       533       532      2397      2398      2393
 -1       918    8    0    1
 -2       391       392       534      1961      2399      2400
 -1       919    8    0    1
 -2       391       534       533      2400      2401      2396
 -1       920    8    0    1
 -2       392       393       535      1964      2402      2403
 -1       921    8    0    1
 -2       392       535       534      2403      2404      2399
 -1       922    8    0    1
 -2       393       394       536      1967      2405      2406
 -1       923    8    0    1
 -2       393       536       535      2406      2407      2402
 -1       924    8    0    1
 -2       394       395       537      1970      2408      2409
 -1       925    8    0    1
 -2       394       537       536      2409      2410      2405
 -1       926    8    0    1
 -2       395       396       538      1973      2411      2412
 -1       927    8    0    1
 -2       395       538       537      2412      2413      2408
 -1       928    8    0    1
 -2       396       397       539      1976      2414      2415
 -1       929    8    0    1
 -2       396       539       538      2415      2416      2411
 -1       930    8    0    1
 -2       397       398       540      1979      2417      2418
 -1       931    8    0    1
 -2       397       540       539      2418      2419      2414
 -1       932    8    0    1
 -2       398       399       541      1982      2420      2421
 -1       933    8    0    1
 -2       398       541       540      2421      2422      2417
 -1       934    8    0    1
 -2       399       400       542      1985      2423      2424
 -1       935    8    0    1
 -2       399       542       541      2424      2425      2420
 -1       936    8    0    1
 -2       400       401       543      1988      2426      2427
 -1       937    8    0    1
 -2       400       543       542      2427      2428      2423
 -1       938    8    0    1
 -2       401       402       544      1991      2429      2430
 -1       939    8    0    1
 -2       401       544       543      2430      2431      2426
 -1       940    8    0    1
 -2       402       403       545      1994      2432      2433
 -1       941    8    0    1
 -2       402       545       544      2433      2434      2429
 -1       942    8    0    1
 -2       403       404       546      1997      2435      2436
 -1       943    8    0    1
 -2       403       546       545      2436      2437      2432
 -1       944    8    0    1
 -2       404       405       547      2000      2438      2439
 -1       945    8    0    1
 -2       404       547       546      2439      2440      2435
 -1       946    8    0    1
 -2       405       406       548      2003      2441      2442
 -1       947    8    0    1
 -2       405       548       547      2442      2443      2438
 -1       948    8    0    1
 -2       406       407       549      2006      2444      2445
 -1       949    8    0    1
 -2       406       549       548      2445      2446      2441
 -1       950    8    0    1
 -2       407       408       550      2009      2447      2448
 -1       951    8    0    1
 -2       407       550       549      2448      2449      2444
 -1       952    8    0    1
 -2       408       409       551      2012      2450      2451
 -1       953    8    0    1
 -2       408       551       550      2451      2452      2447
 -1       954    8    0    1
 -2       409       410       552      2015      2453      2454
 -1       955    8    0    1
 -2       409       552       551      2454      2455      2450
 -1       956    8    0    1
 -2       410       411       553      2018      2456      2457
 -1       957    8    0    1
 -2       410       553       552      2457      2458      2453
 -1       958    8    0    1
 -2       411       412       554      2021      2459      2460
 -1       959    8    0    1
 -2       411       554       553      2460      2461      2456
 -1       960    8    0    1
 -2       412       413       555      2024      2462      2463
 -1       961    8    0    1
 -2       412       555       554      2463      2464      2459
 -1       962    8    0    1
 -2       413       414       556      2027      2465      2466
 -1       963    8    0    1
 -2       413       556       555      2466      2467      2462
 -1       964    8    0    1
 -2       414       415       557      2030      2468      2469
 -1       965    8    0    1
 -2       414       557       556      2469      2470      2465
 -1       966    8    0    1
 -2       415       416       558      2033      2471      2472
 -1       967    8    0    1
 -2       415       558       557      2472      2473      2468
 -1       968    8    0    1
 -2       416       417       559      2036      2474      2475
 -1       969    8    0    1
 -2       416       559       558      2475      2476      2471
 -1       970    8    0    1
 -2       417       418       560      2039      2477      2478
 -1       971    8    0    1
 -2       417       560       559      2478      2479      2474
 -1       972    8    0    1
 -2       418       419       561      2042      2480      2481
 -1       973    8    0    1
 -2       418       561       560      2481      2482      2477
 -1       974    8    0    1
 -2       419       420       562      2045      2483      2484
 -1       975    8    0    1
 -2       419       562       561      2484      2485      2480
 -1       976    8    0    1
 -2       420       421       563      2048      2486      2487
 -1       977    8    0    1
 -2       420       563       562      2487      2488      2483
 -1       978    8    0    1
 -2       421       422       564      2051      2489      2490
 -1       979    8    0    1
 -2       421       564       563      2490      2491      2486
 -1       980    8    0    1
 -2       422       423       565      2054      2492      2493
 -1       981    8    0    1
 -2       422       565       564      2493      2494      2489
 -1       982    8    0    1
 -2       423       424       566      2057      2495      2496
 -1       983    8    0    1
 -2       423       566       565      2496      2497      2492
 -1       984    8    0    1
 -2       424       425       567      2060      2498      2499
 -1       985    8    0    1
 -2       424       567       566      2499      2500      2495
 -1       986    8    0    1
 -2       425       426       568      2063      2501      2502
 -1       987    8    0    1
 -2       425       568       567      2502      2503      2498
 -1       988    8    0    1
 -2       430       431       569      2079      2504      2505
 -1       989    8    0    1
 -2       428       430       570      2076      2506      2507
 -1       990    8    0    1
 -2       430       569       570      2505      2508      2506
 -1       991    8    0    1
 -2       429       428       571      2072      2509      2510
 -1       992    8    0    1
 -2       428       570       571      2507      2511      2509
 -1       993    8    0    1
 -2       443       471       572      2191      2512      2513
 -1       994    8    0    1
 -2       431       432       573      2082      2514      2515
 -1       995    8    0    1
 -2       431       573       569      2515      2516      2504
 -1       996    8    0    1
 -2       432       433       574      2085      2517      2518
 -1       997    8    0    1
 -2       432       574       573      2518      2519      2514
 -1       998    8    0    1
 -2       433       434       575      2088      2520      2521
 -1       999    8    0    1
 -2       433       575       574      2521      2522      2517
 -1      1000    8    0    1
 -2       434       435       576      2091      2523      2524
 -1      1001    8    0    1
 -2       434       576       575      2524      2525      2520
 -1      1002    8    0    1
 -2       435       436       577      2094      2526      2527
 -1      1003    8    0    1
 -2       435       577       576      2527      2528      2523
 -1      1004    8    0    1
 -2       436       437       578      2097      2529      2530
 -1      1005    8    0    1
 -2       436       578       577      2530      2531      2526
 -1      1006    8    0    1
 -2       437       438       579      2100      2532      2533
 -1      1007    8    0    1
 -2       437       579       578      2533      2534      2529
 -1      1008    8    0    1
 -2       438       439       580      2103      2535      2536
 -1      1009    8    0    1
 -2       438       580       579      2536      2537      2532
 -1      1010    8    0    1
 -2       446       447       581      2197      2538      2539
 -1      1011    8    0    1
 -2       469       470       582      2199      2540      2541
 -1      1012    8    0    1
 -2       452       453       583      2210      2542      2543
 -1      1013    8    0    1
 -2       329       330       584      1775      2544      2545
 -1      1014    8    0    1
 -2       473       329       584      2219      2545      2546
 -1      1015    8    0    1
 -2       330       475       584      2225      2547      2544
 -1      1016    8    0    1
 -2       470       443       585      2198      2548      2549
 -1      1017    8    0    1
 -2       470       585       582      2549      2550      2540
 -1      1018    8    0    1
 -2       449       450       586      2214      2551      2552
 -1      1019    8    0    1
 -2       447       448       587      2128      2553      2554
 -1      1020    8    0    1
 -2       455       456       588      2215      2555      2556
 -1      1021    8    0    1
 -2       448       449       589      2213      2557      2558
 -1      1022    8    0    1
 -2       450       451       590      2212      2559      2560
 -1      1023    8    0    1
 -2       451       452       591      2211      2561      2562
 -1      1024    8    0    1
 -2       453       454       592      2141      2563      2564
 -1      1025    8    0    1
 -2       466       467       445      2216      2565      2566
 -1      1026    8    0    1
 -2       454       455       593      2209      2567      2568
 -1      1027    8    0    1
 -2       455       588       593      2556      2569      2567
 -1      1028    8    0    1
 -2       456       457       594      2208      2570      2571
 -1      1029    8    0    1
 -2       457       458       595      2207      2572      2573
 -1      1030    8    0    1
 -2       426       429       568      2311      2574      2501
 -1      1031    8    0    1
 -2       206       465       445      2218      2575      2118
 -1      1032    8    0    1
 -2       467       468       596      2201      2576      2577
 -1      1033    8    0    1
 -2       468       469       597      2200      2578      2579
 -1      1034    8    0    1
 -2       471       441       598      2196      2580      2581
 -1      1035    8    0    1
 -2       445       467       596      2565      2577      2582
 -1      1036    8    0    1
 -2       327       474       599      2222      2583      2584
 -1      1037    8    0    1
 -2       327       599       444      2584      2585      2117
 -1      1038    8    0    1
 -2       486       442       504      2256      2313      2586
 -1      1039    8    0    1
 -2       482       339       600      2247      2587      2588
 -1      1040    8    0    1
 -2       339       440       600      2106      2589      2587
 -1      1041    8    0    1
 -2       484       361       596      2250      2590      2591
 -1      1042    8    0    1
 -2       362       484       506      2251      2592      2316
 -1      1043    8    0    1
 -2       583       453       592      2542      2564      2593
 -1      1044    8    0    1
 -2       449       586       589      2552      2594      2557
 -1      1045    8    0    1
 -2       361       445       596      2120      2582      2590
 -1      1046    8    0    1
 -2       359       358       601      1863      2595      2596
 -1      1047    8    0    1
 -2       358       503       601      2308      2597      2595
 -1      1048    8    0    1
 -2       505       360       486      2314      2257      2598
 -1      1049    8    0    1
 -2       441       505       598      2315      2599      2580
 -1      1050    8    0    1
 -2       429       571       568      2510      2600      2574
 -1      1051    8    0    1
 -2       445       465       466      2575      2202      2566
 -1      1052    8    0    1
 -2       443       572       585      2513      2601      2548
 -1      1053    8    0    1
 -2       572       471       598      2512      2581      2602
 -1      1054    8    0    1
 -2       446       581       504      2539      2603      2312
 -1      1055    8    0    1
 -2       581       447       587      2538      2554      2604
 -1      1056    8    0    1
 -2       440       383       602      2107      2605      2606
 -1      1057    8    0    1
 -2       600       440       602      2589      2606      2607
 -1      1058    8    0    1
 -2       383       528       602      2382      2608      2605
 -1      1059    8    0    1
 -2       325       444       603      2116      2609      2610
 -1      1060    8    0    1
 -2       485       325       603      2255      2610      2611
 -1      1061    8    0    1
 -2       444       599       603      2585      2612      2609
 -1      1062    8    0    1
 -2       469       582       597      2541      2613      2578
 -1      1063    8    0    1
 -2       452       583       591      2543      2614      2561
 -1      1064    8    0    1
 -2       592       454       593      2563      2568      2615
 -1      1065    8    0    1
 -2       587       448       589      2553      2558      2616
 -1      1066    8    0    1
 -2       590       451       591      2559      2562      2617
 -1      1067    8    0    1
 -2       586       450       590      2551      2560      2618
 -1      1068    8    0    1
 -2       456       594       588      2571      2619      2555
 -1      1069    8    0    1
 -2       594       457       595      2570      2573      2620
 -1      1070    8    0    1
 -2       458       459       601      2206      2621      2622
 -1      1071    8    0    1
 -2       596       468       597      2576      2579      2623
 -1      1072    8    0    1
 -2       439       472       525      2194      2374      2624
 -1      1073    8    0    1
 -2       458       601       595      2622      2625      2572
 -1      1074    8    0    1
 -2       439       525       580      2624      2626      2535
 -1      1075    8    0    1
 -2       476       477       604      2231      2627      2628
 -1      1076    8    0    1
 -2       475       476       605      2228      2629      2630
 -1      1077    8    0    1
 -2       476       604       605      2628      2631      2629
 -1      1078    8    0    1
 -2       478       479       606      2237      2632      2633
 -1      1079    8    0    1
 -2       479       480       607      2240      2634      2635
 -1      1080    8    0    1
 -2       479       607       606      2635      2636      2632
 -1      1081    8    0    1
 -2       481       482       608      2246      2637      2638
 -1      1082    8    0    1
 -2       482       600       608      2588      2639      2637
 -1      1083    8    0    1
 -2       359       601       459      2596      2621      2640
 -1      1084    8    0    1
 -2       506       484       609      2592      2641      2642
 -1      1085    8    0    1
 -2       483       485       610      2254      2643      2644
 -1      1086    8    0    1
 -2       485       603       610      2611      2645      2643
 -1      1087    8    0    1
 -2       474       473       611      2223      2646      2647
 -1      1088    8    0    1
 -2       487       483       612      2261      2648      2649
 -1      1089    8    0    1
 -2       483       610       612      2644      2650      2648
 -1      1090    8    0    1
 -2       488       487       613      2264      2651      2652
 -1      1091    8    0    1
 -2       487       612       613      2649      2653      2651
 -1      1092    8    0    1
 -2       489       488       614      2267      2654      2655
 -1      1093    8    0    1
 -2       488       613       614      2652      2656      2654
 -1      1094    8    0    1
 -2       490       489       615      2270      2657      2658
 -1      1095    8    0    1
 -2       489       614       615      2655      2659      2657
 -1      1096    8    0    1
 -2       491       490       616      2273      2660      2661
 -1      1097    8    0    1
 -2       490       615       616      2658      2662      2660
 -1      1098    8    0    1
 -2       492       491       617      2276      2663      2664
 -1      1099    8    0    1
 -2       491       616       617      2661      2665      2663
 -1      1100    8    0    1
 -2       493       492       618      2279      2666      2667
 -1      1101    8    0    1
 -2       492       617       618      2664      2668      2666
 -1      1102    8    0    1
 -2       494       493       619      2282      2669      2670
 -1      1103    8    0    1
 -2       493       618       619      2667      2671      2669
 -1      1104    8    0    1
 -2       495       494       620      2285      2672      2673
 -1      1105    8    0    1
 -2       494       619       620      2670      2674      2672
 -1      1106    8    0    1
 -2       496       495       621      2288      2675      2676
 -1      1107    8    0    1
 -2       495       620       621      2673      2677      2675
 -1      1108    8    0    1
 -2       497       496       622      2291      2678      2679
 -1      1109    8    0    1
 -2       496       621       622      2676      2680      2678
 -1      1110    8    0    1
 -2       498       497       623      2294      2681      2682
 -1      1111    8    0    1
 -2       497       622       623      2679      2683      2681
 -1      1112    8    0    1
 -2       499       498       624      2297      2684      2685
 -1      1113    8    0    1
 -2       498       623       624      2682      2686      2684
 -1      1114    8    0    1
 -2       500       499       625      2300      2687      2688
 -1      1115    8    0    1
 -2       499       624       625      2685      2689      2687
 -1      1116    8    0    1
 -2       501       500       626      2303      2690      2691
 -1      1117    8    0    1
 -2       500       625       626      2688      2692      2690
 -1      1118    8    0    1
 -2       502       501       627      2306      2693      2694
 -1      1119    8    0    1
 -2       501       626       627      2691      2695      2693
 -1      1120    8    0    1
 -2       503       502       627      2309      2694      2696
 -1      1121    8    0    1
 -2       574       575       628      2522      2697      2698
 -1      1122    8    0    1
 -2       601       503       595      2597      2699      2625
 -1      1123    8    0    1
 -2       570       569       629      2508      2700      2701
 -1      1124    8    0    1
 -2       507       506       630      2320      2702      2703
 -1      1125    8    0    1
 -2       359       459       460      2640      2205      2704
 -1      1126    8    0    1
 -2       508       507       631      2323      2705      2706
 -1      1127    8    0    1
 -2       509       508       632      2326      2707      2708
 -1      1128    8    0    1
 -2       508       631       632      2706      2709      2707
 -1      1129    8    0    1
 -2       510       509       633      2329      2710      2711
 -1      1130    8    0    1
 -2       509       632       633      2708      2712      2710
 -1      1131    8    0    1
 -2       511       510       634      2332      2713      2714
 -1      1132    8    0    1
 -2       510       633       634      2711      2715      2713
 -1      1133    8    0    1
 -2       512       511       635      2335      2716      2717
 -1      1134    8    0    1
 -2       511       634       635      2714      2718      2716
 -1      1135    8    0    1
 -2       513       512       636      2338      2719      2720
 -1      1136    8    0    1
 -2       512       635       636      2717      2721      2719
 -1      1137    8    0    1
 -2       514       513       637      2341      2722      2723
 -1      1138    8    0    1
 -2       513       636       637      2720      2724      2722
 -1      1139    8    0    1
 -2       515       514       638      2344      2725      2726
 -1      1140    8    0    1
 -2       514       637       638      2723      2727      2725
 -1      1141    8    0    1
 -2       516       515       639      2347      2728      2729
 -1      1142    8    0    1
 -2       515       638       639      2726      2730      2728
 -1      1143    8    0    1
 -2       517       516       640      2350      2731      2732
 -1      1144    8    0    1
 -2       516       639       640      2729      2733      2731
 -1      1145    8    0    1
 -2       518       517       641      2353      2734      2735
 -1      1146    8    0    1
 -2       517       640       641      2732      2736      2734
 -1      1147    8    0    1
 -2       519       518       642      2356      2737      2738
 -1      1148    8    0    1
 -2       518       641       642      2735      2739      2737
 -1      1149    8    0    1
 -2       520       519       643      2359      2740      2741
 -1      1150    8    0    1
 -2       519       642       643      2738      2742      2740
 -1      1151    8    0    1
 -2       521       520       644      2362      2743      2744
 -1      1152    8    0    1
 -2       520       643       644      2741      2745      2743
 -1      1153    8    0    1
 -2       522       521       645      2365      2746      2747
 -1      1154    8    0    1
 -2       521       644       645      2744      2748      2746
 -1      1155    8    0    1
 -2       523       522       646      2368      2749      2750
 -1      1156    8    0    1
 -2       522       645       646      2747      2751      2749
 -1      1157    8    0    1
 -2       524       523       647      2371      2752      2753
 -1      1158    8    0    1
 -2       523       646       647      2750      2754      2752
 -1      1159    8    0    1
 -2       525       524       580      2375      2755      2626
 -1      1160    8    0    1
 -2       527       526       648      2380      2756      2757
 -1      1161    8    0    1
 -2       526       529       649      2386      2758      2759
 -1      1162    8    0    1
 -2       526       649       648      2759      2760      2756
 -1      1163    8    0    1
 -2       528       527       650      2383      2761      2762
 -1      1164    8    0    1
 -2       527       648       650      2757      2763      2761
 -1      1165    8    0    1
 -2       530       531       651      2392      2764      2765
 -1      1166    8    0    1
 -2       531       532       652      2395      2766      2767
 -1      1167    8    0    1
 -2       531       652       651      2767      2768      2764
 -1      1168    8    0    1
 -2       532       533       653      2398      2769      2770
 -1      1169    8    0    1
 -2       532       653       652      2770      2771      2766
 -1      1170    8    0    1
 -2       533       534       654      2401      2772      2773
 -1      1171    8    0    1
 -2       533       654       653      2773      2774      2769
 -1      1172    8    0    1
 -2       534       535       655      2404      2775      2776
 -1      1173    8    0    1
 -2       534       655       654      2776      2777      2772
 -1      1174    8    0    1
 -2       535       536       656      2407      2778      2779
 -1      1175    8    0    1
 -2       535       656       655      2779      2780      2775
 -1      1176    8    0    1
 -2       536       537       657      2410      2781      2782
 -1      1177    8    0    1
 -2       536       657       656      2782      2783      2778
 -1      1178    8    0    1
 -2       537       538       658      2413      2784      2785
 -1      1179    8    0    1
 -2       537       658       657      2785      2786      2781
 -1      1180    8    0    1
 -2       538       539       659      2416      2787      2788
 -1      1181    8    0    1
 -2       538       659       658      2788      2789      2784
 -1      1182    8    0    1
 -2       539       540       660      2419      2790      2791
 -1      1183    8    0    1
 -2       539       660       659      2791      2792      2787
 -1      1184    8    0    1
 -2       540       541       661      2422      2793      2794
 -1      1185    8    0    1
 -2       540       661       660      2794      2795      2790
 -1      1186    8    0    1
 -2       541       542       662      2425      2796      2797
 -1      1187    8    0    1
 -2       541       662       661      2797      2798      2793
 -1      1188    8    0    1
 -2       542       543       663      2428      2799      2800
 -1      1189    8    0    1
 -2       542       663       662      2800      2801      2796
 -1      1190    8    0    1
 -2       543       544       664      2431      2802      2803
 -1      1191    8    0    1
 -2       543       664       663      2803      2804      2799
 -1      1192    8    0    1
 -2       544       545       665      2434      2805      2806
 -1      1193    8    0    1
 -2       544       665       664      2806      2807      2802
 -1      1194    8    0    1
 -2       545       546       666      2437      2808      2809
 -1      1195    8    0    1
 -2       545       666       665      2809      2810      2805
 -1      1196    8    0    1
 -2       546       547       667      2440      2811      2812
 -1      1197    8    0    1
 -2       546       667       666      2812      2813      2808
 -1      1198    8    0    1
 -2       547       548       668      2443      2814      2815
 -1      1199    8    0    1
 -2       547       668       667      2815      2816      2811
 -1      1200    8    0    1
 -2       548       549       669      2446      2817      2818
 -1      1201    8    0    1
 -2       548       669       668      2818      2819      2814
 -1      1202    8    0    1
 -2       549       550       670      2449      2820      2821
 -1      1203    8    0    1
 -2       549       670       669      2821      2822      2817
 -1      1204    8    0    1
 -2       550       551       671      2452      2823      2824
 -1      1205    8    0    1
 -2       550       671       670      2824      2825      2820
 -1      1206    8    0    1
 -2       551       552       672      2455      2826      2827
 -1      1207    8    0    1
 -2       551       672       671      2827      2828      2823
 -1      1208    8    0    1
 -2       552       553       673      2458      2829      2830
 -1      1209    8    0    1
 -2       552       673       672      2830      2831      2826
 -1      1210    8    0    1
 -2       553       554       674      2461      2832      2833
 -1      1211    8    0    1
 -2       553       674       673      2833      2834      2829
 -1      1212    8    0    1
 -2       554       555       675      2464      2835      2836
 -1      1213    8    0    1
 -2       554       675       674      2836      2837      2832
 -1      1214    8    0    1
 -2       555       556       676      2467      2838      2839
 -1      1215    8    0    1
 -2       555       676       675      2839      2840      2835
 -1      1216    8    0    1
 -2       556       557       677      2470      2841      2842
 -1      1217    8    0    1
 -2       556       677       676      2842      2843      2838
 -1      1218    8    0    1
 -2       557       558       678      2473      2844      2845
 -1      1219    8    0    1
 -2       557       678       677      2845      2846      2841
 -1      1220    8    0    1
 -2       558       559       679      2476      2847      2848
 -1      1221    8    0    1
 -2       558       679       678      2848      2849      2844
 -1      1222    8    0    1
 -2       559       560       680      2479      2850      2851
 -1      1223    8    0    1
 -2       559       680       679      2851      2852      2847
 -1      1224    8    0    1
 -2       560       561       681      2482      2853      2854
 -1      1225    8    0    1
 -2       560       681       680      2854      2855      2850
 -1      1226    8    0    1
 -2       561       562       682      2485      2856      2857
 -1      1227    8    0    1
 -2       561       682       681      2857      2858      2853
 -1      1228    8    0    1
 -2       562       563       683      2488      2859      2860
 -1      1229    8    0    1
 -2       562       683       682      2860      2861      2856
 -1      1230    8    0    1
 -2       563       564       684      2491      2862      2863
 -1      1231    8    0    1
 -2       563       684       683      2863      2864      2859
 -1      1232    8    0    1
 -2       564       565       685      2494      2865      2866
 -1      1233    8    0    1
 -2       564       685       684      2866      2867      2862
 -1      1234    8    0    1
 -2       565       566       686      2497      2868      2869
 -1      1235    8    0    1
 -2       565       686       685      2869      2870      2865
 -1      1236    8    0    1
 -2       566       567       687      2500      2871      2872
 -1      1237    8    0    1
 -2       566       687       686      2872      2873      2868
 -1      1238    8    0    1
 -2       567       568       688      2503      2874      2875
 -1      1239    8    0    1
 -2       687       567       688      2871      2875      2876
 -1      1240    8    0    1
 -2       568       571       688      2600      2877      2874
 -1      1241    8    0    1
 -2       573       574       689      2519      2878      2879
 -1      1242    8    0    1
 -2       574       628       689      2698      2880      2878
 -1      1243    8    0    1
 -2       583       592       690      2593      2881      2882
 -1      1244    8    0    1
 -2       571       570       691      2511      2883      2884
 -1      1245    8    0    1
 -2       688       571       691      2877      2884      2885
 -1      1246    8    0    1
 -2       570       629       691      2701      2886      2883
 -1      1247    8    0    1
 -2       569       573       692      2516      2887      2888
 -1      1248    8    0    1
 -2       629       569       692      2700      2888      2889
 -1      1249    8    0    1
 -2       573       689       692      2879      2890      2887
 -1      1250    8    0    1
 -2       529       530       693      2389      2891      2892
 -1      1251    8    0    1
 -2       649       529       693      2758      2892      2893
 -1      1252    8    0    1
 -2       530       651       693      2765      2894      2891
 -1      1253    8    0    1
 -2       575       576       694      2525      2895      2896
 -1      1254    8    0    1
 -2       575       694       628      2896      2897      2697
 -1      1255    8    0    1
 -2       576       577       695      2528      2898      2899
 -1      1256    8    0    1
 -2       576       695       694      2899      2900      2895
 -1      1257    8    0    1
 -2       577       578       696      2531      2901      2902
 -1      1258    8    0    1
 -2       577       696       695      2902      2903      2898
 -1      1259    8    0    1
 -2       578       579       697      2534      2904      2905
 -1      1260    8    0    1
 -2       578       697       696      2905      2906      2901
 -1      1261    8    0    1
 -2       579       580       698      2537      2907      2908
 -1      1262    8    0    1
 -2       579       698       697      2908      2909      2904
 -1      1263    8    0    1
 -2       484       596       597      2591      2623      2910
 -1      1264    8    0    1
 -2       572       598       699      2602      2911      2912
 -1      1265    8    0    1
 -2       593       588       700      2569      2913      2914
 -1      1266    8    0    1
 -2       592       593       701      2615      2915      2916
 -1      1267    8    0    1
 -2       486       504       702      2586      2917      2918
 -1      1268    8    0    1
 -2       598       505       703      2599      2919      2920
 -1      1269    8    0    1
 -2       590       591       704      2617      2921      2922
 -1      1270    8    0    1
 -2       588       594       705      2619      2923      2924
 -1      1271    8    0    1
 -2       586       590       706      2618      2925      2926
 -1      1272    8    0    1
 -2       589       586       707      2594      2927      2928
 -1      1273    8    0    1
 -2       585       572       708      2601      2929      2930
 -1      1274    8    0    1
 -2       594       595       709      2620      2931      2932
 -1      1275    8    0    1
 -2       587       589       710      2616      2933      2934
 -1      1276    8    0    1
 -2       582       585       711      2550      2935      2936
 -1      1277    8    0    1
 -2       591       583       712      2614      2937      2938
 -1      1278    8    0    1
 -2       581       587       713      2604      2939      2940
 -1      1279    8    0    1
 -2       477       478       714      2234      2941      2942
 -1      1280    8    0    1
 -2       604       477       714      2627      2942      2943
 -1      1281    8    0    1
 -2       478       606       714      2633      2944      2941
 -1      1282    8    0    1
 -2       504       581       715      2603      2945      2946
 -1      1283    8    0    1
 -2       505       486       716      2598      2947      2948
 -1      1284    8    0    1
 -2       597       582       609      2613      2949      2950
 -1      1285    8    0    1
 -2       484       597       609      2910      2950      2641
 -1      1286    8    0    1
 -2       475       605       717      2630      2951      2952
 -1      1287    8    0    1
 -2       475       717       584      2952      2953      2547
 -1      1288    8    0    1
 -2       481       608       480      2638      2954      2243
 -1      1289    8    0    1
 -2       583       690       712      2882      2955      2937
 -1      1290    8    0    1
 -2       461       359       460      2258      2704      2156
 -1      1291    8    0    1
 -2       630       506       609      2702      2642      2956
 -1      1292    8    0    1
 -2       595       503       709      2699      2957      2931
 -1      1293    8    0    1
 -2       507       630       631      2703      2958      2705
 -1      1294    8    0    1
 -2       474       611       718      2647      2959      2960
 -1      1295    8    0    1
 -2       474       718       599      2960      2961      2583
 -1      1296    8    0    1
 -2       580       524       647      2755      2753      2962
 -1      1297    8    0    1
 -2       528       650       719      2762      2963      2964
 -1      1298    8    0    1
 -2       690       592       701      2881      2916      2965
 -1      1299    8    0    1
 -2       703       505       716      2919      2948      2966
 -1      1300    8    0    1
 -2       713       587       720      2939      2967      2968
 -1      1301    8    0    1
 -2       587       710       720      2934      2969      2967
 -1      1302    8    0    1
 -2       702       504       715      2917      2946      2970
 -1      1303    8    0    1
 -2       701       593       700      2915      2914      2971
 -1      1304    8    0    1
 -2       698       580       647      2907      2962      2972
 -1      1305    8    0    1
 -2       700       588       705      2913      2924      2973
 -1      1306    8    0    1
 -2       602       528       719      2608      2964      2974
 -1      1307    8    0    1
 -2       699       598       703      2911      2920      2975
 -1      1308    8    0    1
 -2       711       585       708      2935      2930      2976
 -1      1309    8    0    1
 -2       710       589       707      2933      2928      2977
 -1      1310    8    0    1
 -2       708       572       699      2929      2912      2978
 -1      1311    8    0    1
 -2       707       586       706      2927      2926      2979
 -1      1312    8    0    1
 -2       473       584       721      2546      2980      2981
 -1      1313    8    0    1
 -2       611       473       721      2646      2981      2982
 -1      1314    8    0    1
 -2       584       717       721      2953      2983      2980
 -1      1315    8    0    1
 -2       706       590       704      2925      2922      2984
 -1      1316    8    0    1
 -2       486       702       716      2918      2985      2947
 -1      1317    8    0    1
 -2       704       591       712      2921      2938      2986
 -1      1318    8    0    1
 -2       582       711       609      2936      2987      2949
 -1      1319    8    0    1
 -2       581       713       715      2940      2988      2945
 -1      1320    8    0    1
 -2       607       480       608      2634      2954      2989
 -1      1321    8    0    1
 -2       606       607       722      2636      2990      2991
 -1      1322    8    0    1
 -2       608       600       602      2639      2607      2992
 -1      1323    8    0    1
 -2       712       690       723      2955      2993      2994
 -1      1324    8    0    1
 -2       603       599       724      2612      2995      2996
 -1      1325    8    0    1
 -2       610       603       724      2645      2996      2997
 -1      1326    8    0    1
 -2       599       718       724      2961      2998      2995
 -1      1327    8    0    1
 -2       706       704       725      2984      2999      3000
 -1      1328    8    0    1
 -2       613       612       726      2653      3001      3002
 -1      1329    8    0    1
 -2       614       613       727      2656      3003      3004
 -1      1330    8    0    1
 -2       613       726       727      3002      3005      3003
 -1      1331    8    0    1
 -2       615       614       728      2659      3006      3007
 -1      1332    8    0    1
 -2       614       727       728      3004      3008      3006
 -1      1333    8    0    1
 -2       616       615       729      2662      3009      3010
 -1      1334    8    0    1
 -2       615       728       729      3007      3011      3009
 -1      1335    8    0    1
 -2       617       616       730      2665      3012      3013
 -1      1336    8    0    1
 -2       616       729       730      3010      3014      3012
 -1      1337    8    0    1
 -2       618       617       731      2668      3015      3016
 -1      1338    8    0    1
 -2       617       730       731      3013      3017      3015
 -1      1339    8    0    1
 -2       619       618       732      2671      3018      3019
 -1      1340    8    0    1
 -2       618       731       732      3016      3020      3018
 -1      1341    8    0    1
 -2       620       619       733      2674      3021      3022
 -1      1342    8    0    1
 -2       619       732       733      3019      3023      3021
 -1      1343    8    0    1
 -2       621       620       734      2677      3024      3025
 -1      1344    8    0    1
 -2       620       733       734      3022      3026      3024
 -1      1345    8    0    1
 -2       622       621       735      2680      3027      3028
 -1      1346    8    0    1
 -2       621       734       735      3025      3029      3027
 -1      1347    8    0    1
 -2       623       622       736      2683      3030      3031
 -1      1348    8    0    1
 -2       622       735       736      3028      3032      3030
 -1      1349    8    0    1
 -2       624       623       737      2686      3033      3034
 -1      1350    8    0    1
 -2       623       736       737      3031      3035      3033
 -1      1351    8    0    1
 -2       625       624       738      2689      3036      3037
 -1      1352    8    0    1
 -2       624       737       738      3034      3038      3036
 -1      1353    8    0    1
 -2       626       625       739      2692      3039      3040
 -1      1354    8    0    1
 -2       625       738       739      3037      3041      3039
 -1      1355    8    0    1
 -2       627       626       740      2695      3042      3043
 -1      1356    8    0    1
 -2       626       739       740      3040      3044      3042
 -1      1357    8    0    1
 -2       694       695       741      2900      3045      3046
 -1      1358    8    0    1
 -2       719       650       742      2963      3047      3048
 -1      1359    8    0    1
 -2       633       632       743      2712      3049      3050
 -1      1360    8    0    1
 -2       634       633       744      2715      3051      3052
 -1      1361    8    0    1
 -2       633       743       744      3050      3053      3051
 -1      1362    8    0    1
 -2       635       634       745      2718      3054      3055
 -1      1363    8    0    1
 -2       634       744       745      3052      3056      3054
 -1      1364    8    0    1
 -2       636       635       746      2721      3057      3058
 -1      1365    8    0    1
 -2       635       745       746      3055      3059      3057
 -1      1366    8    0    1
 -2       637       636       747      2724      3060      3061
 -1      1367    8    0    1
 -2       636       746       747      3058      3062      3060
 -1      1368    8    0    1
 -2       638       637       748      2727      3063      3064
 -1      1369    8    0    1
 -2       637       747       748      3061      3065      3063
 -1      1370    8    0    1
 -2       639       638       749      2730      3066      3067
 -1      1371    8    0    1
 -2       638       748       749      3064      3068      3066
 -1      1372    8    0    1
 -2       640       639       750      2733      3069      3070
 -1      1373    8    0    1
 -2       639       749       750      3067      3071      3069
 -1      1374    8    0    1
 -2       641       640       751      2736      3072      3073
 -1      1375    8    0    1
 -2       640       750       751      3070      3074      3072
 -1      1376    8    0    1
 -2       642       641       752      2739      3075      3076
 -1      1377    8    0    1
 -2       641       751       752      3073      3077      3075
 -1      1378    8    0    1
 -2       643       642       753      2742      3078      3079
 -1      1379    8    0    1
 -2       642       752       753      3076      3080      3078
 -1      1380    8    0    1
 -2       644       643       754      2745      3081      3082
 -1      1381    8    0    1
 -2       643       753       754      3079      3083      3081
 -1      1382    8    0    1
 -2       645       644       755      2748      3084      3085
 -1      1383    8    0    1
 -2       644       754       755      3082      3086      3084
 -1      1384    8    0    1
 -2       646       645       756      2751      3087      3088
 -1      1385    8    0    1
 -2       645       755       756      3085      3089      3087
 -1      1386    8    0    1
 -2       647       646       757      2754      3090      3091
 -1      1387    8    0    1
 -2       698       647       757      2972      3091      3092
 -1      1388    8    0    1
 -2       646       756       757      3088      3093      3090
 -1      1389    8    0    1
 -2       695       696       758      2903      3094      3095
 -1      1390    8    0    1
 -2       695       758       741      3095      3096      3045
 -1      1391    8    0    1
 -2       690       701       759      2965      3097      3098
 -1      1392    8    0    1
 -2       648       649       760      2760      3099      3100
 -1      1393    8    0    1
 -2       650       648       761      2763      3101      3102
 -1      1394    8    0    1
 -2       742       650       761      3047      3102      3103
 -1      1395    8    0    1
 -2       648       760       761      3100      3104      3101
 -1      1396    8    0    1
 -2       652       653       762      2771      3105      3106
 -1      1397    8    0    1
 -2       651       652       763      2768      3107      3108
 -1      1398    8    0    1
 -2       652       762       763      3106      3109      3107
 -1      1399    8    0    1
 -2       654       655       764      2777      3110      3111
 -1      1400    8    0    1
 -2       655       656       765      2780      3112      3113
 -1      1401    8    0    1
 -2       655       765       764      3113      3114      3110
 -1      1402    8    0    1
 -2       656       657       766      2783      3115      3116
 -1      1403    8    0    1
 -2       656       766       765      3116      3117      3112
 -1      1404    8    0    1
 -2       657       658       767      2786      3118      3119
 -1      1405    8    0    1
 -2       657       767       766      3119      3120      3115
 -1      1406    8    0    1
 -2       658       659       768      2789      3121      3122
 -1      1407    8    0    1
 -2       658       768       767      3122      3123      3118
 -1      1408    8    0    1
 -2       659       660       769      2792      3124      3125
 -1      1409    8    0    1
 -2       659       769       768      3125      3126      3121
 -1      1410    8    0    1
 -2       660       661       770      2795      3127      3128
 -1      1411    8    0    1
 -2       660       770       769      3128      3129      3124
 -1      1412    8    0    1
 -2       661       662       771      2798      3130      3131
 -1      1413    8    0    1
 -2       661       771       770      3131      3132      3127
 -1      1414    8    0    1
 -2       662       663       772      2801      3133      3134
 -1      1415    8    0    1
 -2       662       772       771      3134      3135      3130
 -1      1416    8    0    1
 -2       663       664       773      2804      3136      3137
 -1      1417    8    0    1
 -2       663       773       772      3137      3138      3133
 -1      1418    8    0    1
 -2       664       665       774      2807      3139      3140
 -1      1419    8    0    1
 -2       664       774       773      3140      3141      3136
 -1      1420    8    0    1
 -2       665       666       775      2810      3142      3143
 -1      1421    8    0    1
 -2       665       775       774      3143      3144      3139
 -1      1422    8    0    1
 -2       666       667       776      2813      3145      3146
 -1      1423    8    0    1
 -2       666       776       775      3146      3147      3142
 -1      1424    8    0    1
 -2       667       668       777      2816      3148      3149
 -1      1425    8    0    1
 -2       667       777       776      3149      3150      3145
 -1      1426    8    0    1
 -2       668       669       778      2819      3151      3152
 -1      1427    8    0    1
 -2       668       778       777      3152      3153      3148
 -1      1428    8    0    1
 -2       669       670       779      2822      3154      3155
 -1      1429    8    0    1
 -2       669       779       778      3155      3156      3151
 -1      1430    8    0    1
 -2       670       671       780      2825      3157      3158
 -1      1431    8    0    1
 -2       670       780       779      3158      3159      3154
 -1      1432    8    0    1
 -2       671       672       781      2828      3160      3161
 -1      1433    8    0    1
 -2       671       781       780      3161      3162      3157
 -1      1434    8    0    1
 -2       672       673       782      2831      3163      3164
 -1      1435    8    0    1
 -2       672       782       781      3164      3165      3160
 -1      1436    8    0    1
 -2       673       674       783      2834      3166      3167
 -1      1437    8    0    1
 -2       673       783       782      3167      3168      3163
 -1      1438    8    0    1
 -2       674       675       784      2837      3169      3170
 -1      1439    8    0    1
 -2       674       784       783      3170      3171      3166
 -1      1440    8    0    1
 -2       675       676       785      2840      3172      3173
 -1      1441    8    0    1
 -2       675       785       784      3173      3174      3169
 -1      1442    8    0    1
 -2       676       677       786      2843      3175      3176
 -1      1443    8    0    1
 -2       676       786       785      3176      3177      3172
 -1      1444    8    0    1
 -2       677       678       787      2846      3178      3179
 -1      1445    8    0    1
 -2       677       787       786      3179      3180      3175
 -1      1446    8    0    1
 -2       678       679       788      2849      3181      3182
 -1      1447    8    0    1
 -2       678       788       787      3182      3183      3178
 -1      1448    8    0    1
 -2       679       680       789      2852      3184      3185
 -1      1449    8    0    1
 -2       679       789       788      3185      3186      3181
 -1      1450    8    0    1
 -2       680       681       790      2855      3187      3188
 -1      1451    8    0    1
 -2       680       790       789      3188      3189      3184
 -1      1452    8    0    1
 -2       681       682       791      2858      3190      3191
 -1      1453    8    0    1
 -2       681       791       790      3191      3192      3187
 -1      1454    8    0    1
 -2       682       683       792      2861      3193      3194
 -1      1455    8    0    1
 -2       682       792       791      3194      3195      3190
 -1      1456    8    0    1
 -2       683       684       793      2864      3196      3197
 -1      1457    8    0    1
 -2       683       793       792      3197      3198      3193
 -1      1458    8    0    1
 -2       684       685       794      2867      3199      3200
 -1      1459    8    0    1
 -2       684       794       793      3200      3201      3196
 -1      1460    8    0    1
 -2       685       686       795      2870      3202      3203
 -1      1461    8    0    1
 -2       685       795       794      3203      3204      3199
 -1      1462    8    0    1
 -2       686       687       796      2873      3205      3206
 -1      1463    8    0    1
 -2       686       796       795      3206      3207      3202
 -1      1464    8    0    1
 -2       687       688       797      2876      3208      3209
 -1      1465    8    0    1
 -2       796       687       797      3205      3209      3210
 -1      1466    8    0    1
 -2       688       691       797      2885      3211      3208
 -1      1467    8    0    1
 -2       689       628       798      2880      3212      3213
 -1      1468    8    0    1
 -2       696       697       799      2906      3214      3215
 -1      1469    8    0    1
 -2       696       799       758      3215      3216      3094
 -1      1470    8    0    1
 -2       697       698       757      2909      3092      3217
 -1      1471    8    0    1
 -2       701       700       800      2971      3218      3219
 -1      1472    8    0    1
 -2       699       703       801      2975      3220      3221
 -1      1473    8    0    1
 -2       628       694       802      2897      3222      3223
 -1      1474    8    0    1
 -2       798       628       802      3212      3223      3224
 -1      1475    8    0    1
 -2       694       741       802      3046      3225      3222
 -1      1476    8    0    1
 -2       703       716       803      2966      3226      3227
 -1      1477    8    0    1
 -2       700       705       804      2973      3228      3229
 -1      1478    8    0    1
 -2       711       708       805      2976      3230      3231
 -1      1479    8    0    1
 -2       705       594       806      2923      3232      3233
 -1      1480    8    0    1
 -2       716       702       807      2985      3234      3235
 -1      1481    8    0    1
 -2       653       654       808      2774      3236      3237
 -1      1482    8    0    1
 -2       762       653       808      3105      3237      3238
 -1      1483    8    0    1
 -2       654       764       808      3111      3239      3236
 -1      1484    8    0    1
 -2       632       631       809      2709      3240      3241
 -1      1485    8    0    1
 -2       632       809       743      3241      3242      3049
 -1      1486    8    0    1
 -2       602       719       608      2974      3243      2992
 -1      1487    8    0    1
 -2       708       699       810      2978      3244      3245
 -1      1488    8    0    1
 -2       710       707       811      2977      3246      3247
 -1      1489    8    0    1
 -2       594       709       806      2932      3248      3232
 -1      1490    8    0    1
 -2       702       715       812      2970      3249      3250
 -1      1491    8    0    1
 -2       605       604       813      2631      3251      3252
 -1      1492    8    0    1
 -2       707       706       814      2979      3253      3254
 -1      1493    8    0    1
 -2       707       814       811      3254      3255      3246
 -1      1494    8    0    1
 -2       630       609       711      2956      2987      3256
 -1      1495    8    0    1
 -2       631       630       815      2958      3257      3258
 -1      1496    8    0    1
 -2       704       712       816      2986      3259      3260
 -1      1497    8    0    1
 -2       612       610       817      2650      3261      3262
 -1      1498    8    0    1
 -2       726       612       817      3001      3262      3263
 -1      1499    8    0    1
 -2       610       724       817      2997      3264      3261
 -1      1500    8    0    1
 -2       715       713       818      2988      3265      3266
 -1      1501    8    0    1
 -2       715       818       812      3266      3267      3249
 -1      1502    8    0    1
 -2       607       608       719      2989      3243      3268
 -1      1503    8    0    1
 -2       708       810       805      3245      3269      3230
 -1      1504    8    0    1
 -2       723       690       759      2993      3098      3270
 -1      1505    8    0    1
 -2       725       704       816      2999      3260      3271
 -1      1506    8    0    1
 -2       818       713       819      3265      3272      3273
 -1      1507    8    0    1
 -2       713       720       819      2968      3274      3272
 -1      1508    8    0    1
 -2       503       627       709      2696      3275      2957
 -1      1509    8    0    1
 -2       703       803       801      3227      3276      3220
 -1      1510    8    0    1
 -2       719       742       722      3048      3277      3278
 -1      1511    8    0    1
 -2       693       651       820      2894      3279      3280
 -1      1512    8    0    1
 -2       651       763       820      3108      3281      3279
 -1      1513    8    0    1
 -2       718       611       821      2959      3282      3283
 -1      1514    8    0    1
 -2       706       725       822      3000      3284      3285
 -1      1515    8    0    1
 -2       706       822       814      3285      3286      3253
 -1      1516    8    0    1
 -2       629       692       823      2889      3287      3288
 -1      1517    8    0    1
 -2       701       800       824      3219      3289      3290
 -1      1518    8    0    1
 -2       701       824       759      3290      3291      3097
 -1      1519    8    0    1
 -2       760       649       825      3099      3292      3293
 -1      1520    8    0    1
 -2       649       693       825      2893      3294      3292
 -1      1521    8    0    1
 -2       803       716       826      3226      3295      3296
 -1      1522    8    0    1
 -2       716       807       826      3235      3297      3295
 -1      1523    8    0    1
 -2       799       697       757      3214      3217      3298
 -1      1524    8    0    1
 -2       692       689       827      2890      3299      3300
 -1      1525    8    0    1
 -2       692       827       823      3300      3301      3287
 -1      1526    8    0    1
 -2       691       629       797      2886      3302      3211
 -1      1527    8    0    1
 -2       689       798       827      3213      3303      3299
 -1      1528    8    0    1
 -2       714       606       828      2944      3304      3305
 -1      1529    8    0    1
 -2       606       722       828      2991      3306      3304
 -1      1530    8    0    1
 -2       720       710       829      2969      3307      3308
 -1      1531    8    0    1
 -2       710       811       829      3247      3309      3307
 -1      1532    8    0    1
 -2       719       722       607      3278      2990      3268
 -1      1533    8    0    1
 -2       800       700       804      3218      3229      3310
 -1      1534    8    0    1
 -2       629       823       797      3288      3311      3302
 -1      1535    8    0    1
 -2       699       801       810      3221      3312      3244
 -1      1536    8    0    1
 -2       807       702       812      3234      3250      3313
 -1      1537    8    0    1
 -2       804       705       740      3228      3314      3315
 -1      1538    8    0    1
 -2       705       806       740      3233      3316      3314
 -1      1539    8    0    1
 -2       809       631       815      3240      3258      3317
 -1      1540    8    0    1
 -2       813       604       830      3251      3318      3319
 -1      1541    8    0    1
 -2       604       714       830      2943      3320      3318
 -1      1542    8    0    1
 -2       712       723       816      2994      3321      3259
 -1      1543    8    0    1
 -2       630       711       805      3256      3231      3322
 -1      1544    8    0    1
 -2       611       721       831      2982      3323      3324
 -1      1545    8    0    1
 -2       611       831       821      3324      3325      3282
 -1      1546    8    0    1
 -2       605       813       832      3252      3326      3327
 -1      1547    8    0    1
 -2       605       832       717      3327      3328      2951
 -1      1548    8    0    1
 -2       630       805       815      3322      3329      3257
 -1      1549    8    0    1
 -2       812       818       833      3267      3330      3331
 -1      1550    8    0    1
 -2       722       742       834      3277      3332      3333
 -1      1551    8    0    1
 -2       722       834       828      3333      3334      3306
 -1      1552    8    0    1
 -2       728       727       835      3008      3335      3336
 -1      1553    8    0    1
 -2       729       728       836      3011      3337      3338
 -1      1554    8    0    1
 -2       728       835       836      3336      3339      3337
 -1      1555    8    0    1
 -2       730       729       837      3014      3340      3341
 -1      1556    8    0    1
 -2       729       836       837      3338      3342      3340
 -1      1557    8    0    1
 -2       731       730       838      3017      3343      3344
 -1      1558    8    0    1
 -2       730       837       838      3341      3345      3343
 -1      1559    8    0    1
 -2       732       731       839      3020      3346      3347
 -1      1560    8    0    1
 -2       731       838       839      3344      3348      3346
 -1      1561    8    0    1
 -2       733       732       840      3023      3349      3350
 -1      1562    8    0    1
 -2       732       839       840      3347      3351      3349
 -1      1563    8    0    1
 -2       734       733       841      3026      3352      3353
 -1      1564    8    0    1
 -2       733       840       841      3350      3354      3352
 -1      1565    8    0    1
 -2       735       734       842      3029      3355      3356
 -1      1566    8    0    1
 -2       734       841       842      3353      3357      3355
 -1      1567    8    0    1
 -2       736       735       843      3032      3358      3359
 -1      1568    8    0    1
 -2       735       842       843      3356      3360      3358
 -1      1569    8    0    1
 -2       737       736       844      3035      3361      3362
 -1      1570    8    0    1
 -2       736       843       844      3359      3363      3361
 -1      1571    8    0    1
 -2       738       737       845      3038      3364      3365
 -1      1572    8    0    1
 -2       737       844       845      3362      3366      3364
 -1      1573    8    0    1
 -2       739       738       846      3041      3367      3368
 -1      1574    8    0    1
 -2       738       845       846      3365      3369      3367
 -1      1575    8    0    1
 -2       740       739       847      3044      3370      3371
 -1      1576    8    0    1
 -2       804       740       847      3315      3371      3372
 -1      1577    8    0    1
 -2       739       846       847      3368      3373      3370
 -1      1578    8    0    1
 -2       725       816       848      3271      3374      3375
 -1      1579    8    0    1
 -2       810       801       849      3312      3376      3377
 -1      1580    8    0    1
 -2       741       758       850      3096      3378      3379
 -1      1581    8    0    1
 -2       745       744       851      3056      3380      3381
 -1      1582    8    0    1
 -2       746       745       852      3059      3382      3383
 -1      1583    8    0    1
 -2       745       851       852      3381      3384      3382
 -1      1584    8    0    1
 -2       747       746       853      3062      3385      3386
 -1      1585    8    0    1
 -2       746       852       853      3383      3387      3385
 -1      1586    8    0    1
 -2       748       747       854      3065      3388      3389
 -1      1587    8    0    1
 -2       747       853       854      3386      3390      3388
 -1      1588    8    0    1
 -2       749       748       855      3068      3391      3392
 -1      1589    8    0    1
 -2       748       854       855      3389      3393      3391
 -1      1590    8    0    1
 -2       750       749       856      3071      3394      3395
 -1      1591    8    0    1
 -2       749       855       856      3392      3396      3394
 -1      1592    8    0    1
 -2       751       750       857      3074      3397      3398
 -1      1593    8    0    1
 -2       750       856       857      3395      3399      3397
 -1      1594    8    0    1
 -2       752       751       858      3077      3400      3401
 -1      1595    8    0    1
 -2       751       857       858      3398      3402      3400
 -1      1596    8    0    1
 -2       753       752       859      3080      3403      3404
 -1      1597    8    0    1
 -2       752       858       859      3401      3405      3403
 -1      1598    8    0    1
 -2       754       753       860      3083      3406      3407
 -1      1599    8    0    1
 -2       753       859       860      3404      3408      3406
 -1      1600    8    0    1
 -2       755       754       861      3086      3409      3410
 -1      1601    8    0    1
 -2       754       860       861      3407      3411      3409
 -1      1602    8    0    1
 -2       756       755       862      3089      3412      3413
 -1      1603    8    0    1
 -2       755       861       862      3410      3414      3412
 -1      1604    8    0    1
 -2       757       756       863      3093      3415      3416
 -1      1605    8    0    1
 -2       799       757       863      3298      3416      3417
 -1      1606    8    0    1
 -2       756       862       863      3413      3418      3415
 -1      1607    8    0    1
 -2       743       809       864      3242      3419      3420
 -1      1608    8    0    1
 -2       763       762       865      3109      3421      3422
 -1      1609    8    0    1
 -2       765       766       866      3117      3423      3424
 -1      1610    8    0    1
 -2       764       765       867      3114      3425      3426
 -1      1611    8    0    1
 -2       765       866       867      3424      3427      3425
 -1      1612    8    0    1
 -2       767       768       868      3123      3428      3429
 -1      1613    8    0    1
 -2       768       769       869      3126      3430      3431
 -1      1614    8    0    1
 -2       768       869       868      3431      3432      3428
 -1      1615    8    0    1
 -2       769       770       870      3129      3433      3434
 -1      1616    8    0    1
 -2       769       870       869      3434      3435      3430
 -1      1617    8    0    1
 -2       770       771       871      3132      3436      3437
 -1      1618    8    0    1
 -2       770       871       870      3437      3438      3433
 -1      1619    8    0    1
 -2       771       772       872      3135      3439      3440
 -1      1620    8    0    1
 -2       771       872       871      3440      3441      3436
 -1      1621    8    0    1
 -2       772       773       873      3138      3442      3443
 -1      1622    8    0    1
 -2       772       873       872      3443      3444      3439
 -1      1623    8    0    1
 -2       773       774       874      3141      3445      3446
 -1      1624    8    0    1
 -2       773       874       873      3446      3447      3442
 -1      1625    8    0    1
 -2       774       775       875      3144      3448      3449
 -1      1626    8    0    1
 -2       774       875       874      3449      3450      3445
 -1      1627    8    0    1
 -2       775       776       876      3147      3451      3452
 -1      1628    8    0    1
 -2       775       876       875      3452      3453      3448
 -1      1629    8    0    1
 -2       776       777       877      3150      3454      3455
 -1      1630    8    0    1
 -2       776       877       876      3455      3456      3451
 -1      1631    8    0    1
 -2       777       778       878      3153      3457      3458
 -1      1632    8    0    1
 -2       777       878       877      3458      3459      3454
 -1      1633    8    0    1
 -2       778       779       879      3156      3460      3461
 -1      1634    8    0    1
 -2       778       879       878      3461      3462      3457
 -1      1635    8    0    1
 -2       779       780       880      3159      3463      3464
 -1      1636    8    0    1
 -2       779       880       879      3464      3465      3460
 -1      1637    8    0    1
 -2       780       781       881      3162      3466      3467
 -1      1638    8    0    1
 -2       780       881       880      3467      3468      3463
 -1      1639    8    0    1
 -2       781       782       882      3165      3469      3470
 -1      1640    8    0    1
 -2       781       882       881      3470      3471      3466
 -1      1641    8    0    1
 -2       782       783       883      3168      3472      3473
 -1      1642    8    0    1
 -2       782       883       882      3473      3474      3469
 -1      1643    8    0    1
 -2       783       784       884      3171      3475      3476
 -1      1644    8    0    1
 -2       783       884       883      3476      3477      3472
 -1      1645    8    0    1
 -2       784       785       885      3174      3478      3479
 -1      1646    8    0    1
 -2       784       885       884      3479      3480      3475
 -1      1647    8    0    1
 -2       785       786       886      3177      3481      3482
 -1      1648    8    0    1
 -2       785       886       885      3482      3483      3478
 -1      1649    8    0    1
 -2       786       787       887      3180      3484      3485
 -1      1650    8    0    1
 -2       786       887       886      3485      3486      3481
 -1      1651    8    0    1
 -2       787       788       888      3183      3487      3488
 -1      1652    8    0    1
 -2       787       888       887      3488      3489      3484
 -1      1653    8    0    1
 -2       788       789       889      3186      3490      3491
 -1      1654    8    0    1
 -2       788       889       888      3491      3492      3487
 -1      1655    8    0    1
 -2       789       790       890      3189      3493      3494
 -1      1656    8    0    1
 -2       789       890       889      3494      3495      3490
 -1      1657    8    0    1
 -2       790       791       891      3192      3496      3497
 -1      1658    8    0    1
 -2       790       891       890      3497      3498      3493
 -1      1659    8    0    1
 -2       791       792       892      3195      3499      3500
 -1      1660    8    0    1
 -2       791       892       891      3500      3501      3496
 -1      1661    8    0    1
 -2       792       793       893      3198      3502      3503
 -1      1662    8    0    1
 -2       792       893       892      3503      3504      3499
 -1      1663    8    0    1
 -2       793       794       894      3201      3505      3506
 -1      1664    8    0    1
 -2       793       894       893      3506      3507      3502
 -1      1665    8    0    1
 -2       794       795       895      3204      3508      3509
 -1      1666    8    0    1
 -2       794       895       894      3509      3510      3505
 -1      1667    8    0    1
 -2       795       796       896      3207      3511      3512
 -1      1668    8    0    1
 -2       795       896       895      3512      3513      3508
 -1      1669    8    0    1
 -2       796       797       823      3210      3311      3514
 -1      1670    8    0    1
 -2       827       798       897      3303      3515      3516
 -1      1671    8    0    1
 -2       758       799       898      3216      3517      3518
 -1      1672    8    0    1
 -2       850       758       898      3378      3518      3519
 -1      1673    8    0    1
 -2       799       863       898      3417      3520      3517
 -1      1674    8    0    1
 -2       823       827       899      3301      3521      3522
 -1      1675    8    0    1
 -2       827       897       899      3516      3523      3521
 -1      1676    8    0    1
 -2       723       759       900      3270      3524      3525
 -1      1677    8    0    1
 -2       721       717       901      2983      3526      3527
 -1      1678    8    0    1
 -2       721       901       831      3527      3528      3323
 -1      1679    8    0    1
 -2       766       767       902      3120      3529      3530
 -1      1680    8    0    1
 -2       866       766       902      3423      3530      3531
 -1      1681    8    0    1
 -2       767       868       902      3429      3532      3529
 -1      1682    8    0    1
 -2       744       743       903      3053      3533      3534
 -1      1683    8    0    1
 -2       743       864       903      3420      3535      3533
 -1      1684    8    0    1
 -2       805       810       904      3269      3536      3537
 -1      1685    8    0    1
 -2       815       805       904      3329      3537      3538
 -1      1686    8    0    1
 -2       810       849       904      3377      3539      3536
 -1      1687    8    0    1
 -2       807       812       905      3313      3540      3541
 -1      1688    8    0    1
 -2       806       709       627      3248      3275      3542
 -1      1689    8    0    1
 -2       800       804       847      3310      3372      3543
 -1      1690    8    0    1
 -2       727       726       906      3005      3544      3545
 -1      1691    8    0    1
 -2       727       906       835      3545      3546      3335
 -1      1692    8    0    1
 -2       801       803       907      3276      3547      3548
 -1      1693    8    0    1
 -2       811       814       908      3255      3549      3550
 -1      1694    8    0    1
 -2       724       718       817      2998      3551      3264
 -1      1695    8    0    1
 -2       816       723       909      3321      3552      3553
 -1      1696    8    0    1
 -2       806       627       740      3542      3043      3316
 -1      1697    8    0    1
 -2       819       720       910      3274      3554      3555
 -1      1698    8    0    1
 -2       720       829       910      3308      3556      3554
 -1      1699    8    0    1
 -2       822       725       911      3284      3557      3558
 -1      1700    8    0    1
 -2       725       848       911      3375      3559      3557
 -1      1701    8    0    1
 -2       761       760       912      3104      3560      3561
 -1      1702    8    0    1
 -2       820       763       913      3281      3562      3563
 -1      1703    8    0    1
 -2       763       865       913      3422      3564      3562
 -1      1704    8    0    1
 -2       801       907       849      3548      3565      3376
 -1      1705    8    0    1
 -2       807       905       914      3541      3566      3567
 -1      1706    8    0    1
 -2       807       914       826      3567      3568      3297
 -1      1707    8    0    1
 -2       693       820       825      3280      3569      3294
 -1      1708    8    0    1
 -2       717       832       901      3328      3570      3526
 -1      1709    8    0    1
 -2       814       822       908      3286      3571      3549
 -1      1710    8    0    1
 -2       741       850       915      3379      3572      3573
 -1      1711    8    0    1
 -2       741       915       802      3573      3574      3225
 -1      1712    8    0    1
 -2       759       824       900      3291      3575      3524
 -1      1713    8    0    1
 -2       823       899       896      3522      3576      3577
 -1      1714    8    0    1
 -2       815       904       809      3538      3578      3317
 -1      1715    8    0    1
 -2       865       762       916      3421      3579      3580
 -1      1716    8    0    1
 -2       762       808       916      3238      3581      3579
 -1      1717    8    0    1
 -2       760       825       917      3293      3582      3583
 -1      1718    8    0    1
 -2       760       917       912      3583      3584      3560
 -1      1719    8    0    1
 -2       742       761       918      3103      3585      3586
 -1      1720    8    0    1
 -2       834       742       918      3332      3586      3587
 -1      1721    8    0    1
 -2       761       912       918      3561      3588      3585
 -1      1722    8    0    1
 -2       744       903       851      3534      3589      3380
 -1      1723    8    0    1
 -2       718       821       817      3283      3590      3551
 -1      1724    8    0    1
 -2       796       823       896      3514      3577      3511
 -1      1725    8    0    1
 -2       897       798       919      3515      3591      3592
 -1      1726    8    0    1
 -2       798       802       919      3224      3593      3591
 -1      1727    8    0    1
 -2       714       828       830      3305      3594      3320
 -1      1728    8    0    1
 -2       829       811       908      3309      3550      3595
 -1      1729    8    0    1
 -2       816       909       848      3553      3596      3374
 -1      1730    8    0    1
 -2       808       764       920      3239      3597      3598
 -1      1731    8    0    1
 -2       916       808       920      3581      3598      3599
 -1      1732    8    0    1
 -2       764       867       920      3426      3600      3597
 -1      1733    8    0    1
 -2       803       826       921      3296      3601      3602
 -1      1734    8    0    1
 -2       803       921       907      3602      3603      3547
 -1      1735    8    0    1
 -2       723       900       909      3525      3604      3552
 -1      1736    8    0    1
 -2       821       831       922      3325      3605      3606
 -1      1737    8    0    1
 -2       817       821       726      3590      3607      3263
 -1      1738    8    0    1
 -2       864       809       904      3419      3578      3608
 -1      1739    8    0    1
 -2       832       813       923      3326      3609      3610
 -1      1740    8    0    1
 -2       833       818       819      3330      3273      3611
 -1      1741    8    0    1
 -2       812       833       905      3331      3612      3540
 -1      1742    8    0    1
 -2       813       830       924      3319      3613      3614
 -1      1743    8    0    1
 -2       813       924       923      3614      3615      3609
 -1      1744    8    0    1
 -2       821       922       906      3606      3616      3617
 -1      1745    8    0    1
 -2       800       847       925      3543      3618      3619
 -1      1746    8    0    1
 -2       824       800       925      3289      3619      3620
 -1      1747    8    0    1
 -2       847       846       925      3373      3621      3618
 -1      1748    8    0    1
 -2       726       821       906      3607      3617      3544
 -1      1749    8    0    1
 -2       828       834       926      3334      3622      3623
 -1      1750    8    0    1
 -2       830       828       926      3594      3623      3624
 -1      1751    8    0    1
 -2       834       918       926      3587      3625      3622
 -1      1752    8    0    1
 -2       851       903       927      3589      3626      3627
 -1      1753    8    0    1
 -2       837       836       928      3342      3628      3629
 -1      1754    8    0    1
 -2       838       837       929      3345      3630      3631
 -1      1755    8    0    1
 -2       837       928       929      3629      3632      3630
 -1      1756    8    0    1
 -2       839       838       930      3348      3633      3634
 -1      1757    8    0    1
 -2       838       929       930      3631      3635      3633
 -1      1758    8    0    1
 -2       840       839       931      3351      3636      3637
 -1      1759    8    0    1
 -2       839       930       931      3634      3638      3636
 -1      1760    8    0    1
 -2       841       840       932      3354      3639      3640
 -1      1761    8    0    1
 -2       840       931       932      3637      3641      3639
 -1      1762    8    0    1
 -2       842       841       933      3357      3642      3643
 -1      1763    8    0    1
 -2       841       932       933      3640      3644      3642
 -1      1764    8    0    1
 -2       843       842       934      3360      3645      3646
 -1      1765    8    0    1
 -2       842       933       934      3643      3647      3645
 -1      1766    8    0    1
 -2       844       843       935      3363      3648      3649
 -1      1767    8    0    1
 -2       843       934       935      3646      3650      3648
 -1      1768    8    0    1
 -2       845       844       936      3366      3651      3652
 -1      1769    8    0    1
 -2       844       935       936      3649      3653      3651
 -1      1770    8    0    1
 -2       846       845       937      3369      3654      3655
 -1      1771    8    0    1
 -2       845       936       937      3652      3656      3654
 -1      1772    8    0    1
 -2       896       899       938      3576      3657      3658
 -1      1773    8    0    1
 -2       896       938       895      3658      3659      3513
 -1      1774    8    0    1
 -2       901       832       939      3570      3660      3661
 -1      1775    8    0    1
 -2       832       923       939      3610      3662      3660
 -1      1776    8    0    1
 -2       853       852       940      3387      3663      3664
 -1      1777    8    0    1
 -2       854       853       941      3390      3665      3666
 -1      1778    8    0    1
 -2       853       940       941      3664      3667      3665
 -1      1779    8    0    1
 -2       855       854       942      3393      3668      3669
 -1      1780    8    0    1
 -2       854       941       942      3666      3670      3668
 -1      1781    8    0    1
 -2       856       855       943      3396      3671      3672
 -1      1782    8    0    1
 -2       855       942       943      3669      3673      3671
 -1      1783    8    0    1
 -2       857       856       944      3399      3674      3675
 -1      1784    8    0    1
 -2       856       943       944      3672      3676      3674
 -1      1785    8    0    1
 -2       858       857       945      3402      3677      3678
 -1      1786    8    0    1
 -2       857       944       945      3675      3679      3677
 -1      1787    8    0    1
 -2       859       858       946      3405      3680      3681
 -1      1788    8    0    1
 -2       858       945       946      3678      3682      3680
 -1      1789    8    0    1
 -2       860       859       947      3408      3683      3684
 -1      1790    8    0    1
 -2       859       946       947      3681      3685      3683
 -1      1791    8    0    1
 -2       861       860       948      3411      3686      3687
 -1      1792    8    0    1
 -2       860       947       948      3684      3688      3686
 -1      1793    8    0    1
 -2       862       861       949      3414      3689      3690
 -1      1794    8    0    1
 -2       861       948       949      3687      3691      3689
 -1      1795    8    0    1
 -2       863       862       950      3418      3692      3693
 -1      1796    8    0    1
 -2       898       863       950      3520      3693      3694
 -1      1797    8    0    1
 -2       862       949       950      3690      3695      3692
 -1      1798    8    0    1
 -2       825       820       951      3569      3696      3697
 -1      1799    8    0    1
 -2       917       825       951      3582      3697      3698
 -1      1800    8    0    1
 -2       820       913       951      3563      3699      3696
 -1      1801    8    0    1
 -2       849       907       952      3565      3700      3701
 -1      1802    8    0    1
 -2       869       870       953      3435      3702      3703
 -1      1803    8    0    1
 -2       868       869       954      3432      3704      3705
 -1      1804    8    0    1
 -2       869       953       954      3703      3706      3704
 -1      1805    8    0    1
 -2       871       872       955      3441      3707      3708
 -1      1806    8    0    1
 -2       872       873       911      3444      3709      3710
 -1      1807    8    0    1
 -2       874       875       956      3450      3711      3712
 -1      1808    8    0    1
 -2       876       877       910      3456      3713      3714
 -1      1809    8    0    1
 -2       878       879       957      3462      3715      3716
 -1      1810    8    0    1
 -2       879       880       958      3465      3717      3718
 -1      1811    8    0    1
 -2       879       958       957      3718      3719      3715
 -1      1812    8    0    1
 -2       880       881       959      3468      3720      3721
 -1      1813    8    0    1
 -2       880       959       958      3721      3722      3717
 -1      1814    8    0    1
 -2       881       882       960      3471      3723      3724
 -1      1815    8    0    1
 -2       881       960       959      3724      3725      3720
 -1      1816    8    0    1
 -2       882       883       961      3474      3726      3727
 -1      1817    8    0    1
 -2       882       961       960      3727      3728      3723
 -1      1818    8    0    1
 -2       883       884       962      3477      3729      3730
 -1      1819    8    0    1
 -2       883       962       961      3730      3731      3726
 -1      1820    8    0    1
 -2       884       885       963      3480      3732      3733
 -1      1821    8    0    1
 -2       884       963       962      3733      3734      3729
 -1      1822    8    0    1
 -2       885       886       964      3483      3735      3736
 -1      1823    8    0    1
 -2       885       964       963      3736      3737      3732
 -1      1824    8    0    1
 -2       886       887       965      3486      3738      3739
 -1      1825    8    0    1
 -2       886       965       964      3739      3740      3735
 -1      1826    8    0    1
 -2       887       888       966      3489      3741      3742
 -1      1827    8    0    1
 -2       887       966       965      3742      3743      3738
 -1      1828    8    0    1
 -2       888       889       967      3492      3744      3745
 -1      1829    8    0    1
 -2       888       967       966      3745      3746      3741
 -1      1830    8    0    1
 -2       889       890       968      3495      3747      3748
 -1      1831    8    0    1
 -2       889       968       967      3748      3749      3744
 -1      1832    8    0    1
 -2       890       891       969      3498      3750      3751
 -1      1833    8    0    1
 -2       890       969       968      3751      3752      3747
 -1      1834    8    0    1
 -2       891       892       970      3501      3753      3754
 -1      1835    8    0    1
 -2       891       970       969      3754      3755      3750
 -1      1836    8    0    1
 -2       892       893       971      3504      3756      3757
 -1      1837    8    0    1
 -2       892       971       970      3757      3758      3753
 -1      1838    8    0    1
 -2       893       894       972      3507      3759      3760
 -1      1839    8    0    1
 -2       893       972       971      3760      3761      3756
 -1      1840    8    0    1
 -2       894       895       973      3510      3762      3763
 -1      1841    8    0    1
 -2       972       894       973      3759      3763      3764
 -1      1842    8    0    1
 -2       895       938       973      3659      3765      3762
 -1      1843    8    0    1
 -2       908       822       956      3571      3766      3767
 -1      1844    8    0    1
 -2       835       906       974      3546      3768      3769
 -1      1845    8    0    1
 -2       906       922       974      3616      3770      3768
 -1      1846    8    0    1
 -2       867       866       975      3427      3771      3772
 -1      1847    8    0    1
 -2       903       864       976      3535      3773      3774
 -1      1848    8    0    1
 -2       903       976       927      3774      3775      3626
 -1      1849    8    0    1
 -2       852       851       977      3384      3776      3777
 -1      1850    8    0    1
 -2       940       852       977      3663      3777      3778
 -1      1851    8    0    1
 -2       851       927       977      3627      3779      3776
 -1      1852    8    0    1
 -2       831       901       978      3528      3780      3781
 -1      1853    8    0    1
 -2       831       978       922      3781      3782      3605
 -1      1854    8    0    1
 -2       900       824       979      3575      3783      3784
 -1      1855    8    0    1
 -2       829       908       980      3595      3785      3786
 -1      1856    8    0    1
 -2       899       897       938      3523      3787      3657
 -1      1857    8    0    1
 -2       836       835       981      3339      3788      3789
 -1      1858    8    0    1
 -2       928       836       981      3628      3789      3790
 -1      1859    8    0    1
 -2       835       974       981      3769      3791      3788
 -1      1860    8    0    1
 -2       833       819       982      3611      3792      3793
 -1      1861    8    0    1
 -2       909       900       983      3604      3794      3795
 -1      1862    8    0    1
 -2       848       909       984      3596      3796      3797
 -1      1863    8    0    1
 -2       905       833       985      3612      3798      3799
 -1      1864    8    0    1
 -2       864       904       986      3608      3800      3801
 -1      1865    8    0    1
 -2       976       864       986      3773      3801      3802
 -1      1866    8    0    1
 -2       904       849       986      3539      3803      3800
 -1      1867    8    0    1
 -2       870       871       987      3438      3804      3805
 -1      1868    8    0    1
 -2       870       987       953      3805      3806      3702
 -1      1869    8    0    1
 -2       982       819       910      3792      3555      3807
 -1      1870    8    0    1
 -2       922       978       974      3782      3808      3770
 -1      1871    8    0    1
 -2       910       829       980      3556      3786      3809
 -1      1872    8    0    1
 -2       849       952       986      3701      3810      3803
 -1      1873    8    0    1
 -2       846       937       925      3655      3811      3621
 -1      1874    8    0    1
 -2       826       914       988      3568      3812      3813
 -1      1875    8    0    1
 -2       826       988       921      3813      3814      3601
 -1      1876    8    0    1
 -2       915       850       989      3572      3815      3816
 -1      1877    8    0    1
 -2       939       923       990      3662      3817      3818
 -1      1878    8    0    1
 -2       978       901       939      3780      3661      3819
 -1      1879    8    0    1
 -2       952       907       991      3700      3820      3821
 -1      1880    8    0    1
 -2       907       921       991      3603      3822      3820
 -1      1881    8    0    1
 -2       918       912       992      3588      3823      3824
 -1      1882    8    0    1
 -2       871       955       987      3708      3825      3804
 -1      1883    8    0    1
 -2       868       954       993      3705      3826      3827
 -1      1884    8    0    1
 -2       868       993       902      3827      3828      3532
 -1      1885    8    0    1
 -2       955       872       911      3707      3710      3829
 -1      1886    8    0    1
 -2       873       874       994      3447      3830      3831
 -1      1887    8    0    1
 -2       875       876       980      3453      3832      3833
 -1      1888    8    0    1
 -2       878       957       982      3716      3834      3835
 -1      1889    8    0    1
 -2       877       878       982      3459      3835      3836
 -1      1890    8    0    1
 -2       897       919       995      3592      3837      3838
 -1      1891    8    0    1
 -2       985       833       982      3798      3793      3839
 -1      1892    8    0    1
 -2       850       898       996      3519      3840      3841
 -1      1893    8    0    1
 -2       989       850       996      3815      3841      3842
 -1      1894    8    0    1
 -2       898       950       996      3694      3843      3840
 -1      1895    8    0    1
 -2       984       909       983      3796      3795      3844
 -1      1896    8    0    1
 -2       975       866       997      3771      3845      3846
 -1      1897    8    0    1
 -2       866       902       997      3531      3847      3845
 -1      1898    8    0    1
 -2       920       867       998      3600      3848      3849
 -1      1899    8    0    1
 -2       867       975       998      3772      3850      3848
 -1      1900    8    0    1
 -2       865       916       999      3580      3851      3852
 -1      1901    8    0    1
 -2       919       802       915      3593      3574      3853
 -1      1902    8    0    1
 -2       979       824       925      3783      3620      3854
 -1      1903    8    0    1
 -2       900       979       983      3784      3855      3794
 -1      1904    8    0    1
 -2       910       877       982      3713      3836      3807
 -1      1905    8    0    1
 -2       912       917      1000      3584      3856      3857
 -1      1906    8    0    1
 -2       912      1000       992      3857      3858      3823
 -1      1907    8    0    1
 -2       938       897       995      3787      3838      3859
 -1      1908    8    0    1
 -2       913       865      1001      3564      3860      3861
 -1      1909    8    0    1
 -2       865       999      1001      3852      3862      3860
 -1      1910    8    0    1
 -2       830       926       924      3624      3863      3613
 -1      1911    8    0    1
 -2       923       924      1002      3615      3864      3865
 -1      1912    8    0    1
 -2       923      1002       990      3865      3866      3817
 -1      1913    8    0    1
 -2       994       874       956      3830      3712      3867
 -1      1914    8    0    1
 -2       911       873       994      3709      3831      3868
 -1      1915    8    0    1
 -2       911       848       984      3559      3797      3869
 -1      1916    8    0    1
 -2       994       956       822      3867      3766      3870
 -1      1917    8    0    1
 -2       914       905      1003      3566      3871      3872
 -1      1918    8    0    1
 -2       908       956       980      3767      3873      3785
 -1      1919    8    0    1
 -2       930       929      1004      3635      3874      3875
 -1      1920    8    0    1
 -2       931       930      1005      3638      3876      3877
 -1      1921    8    0    1
 -2       930      1004      1005      3875      3878      3876
 -1      1922    8    0    1
 -2       932       931      1006      3641      3879      3880
 -1      1923    8    0    1
 -2       931      1005      1006      3877      3881      3879
 -1      1924    8    0    1
 -2       933       932      1007      3644      3882      3883
 -1      1925    8    0    1
 -2       932      1006      1007      3880      3884      3882
 -1      1926    8    0    1
 -2       934       933      1008      3647      3885      3886
 -1      1927    8    0    1
 -2       933      1007      1008      3883      3887      3885
 -1      1928    8    0    1
 -2       935       934      1009      3650      3888      3889
 -1      1929    8    0    1
 -2       934      1008      1009      3886      3890      3888
 -1      1930    8    0    1
 -2       936       935      1010      3653      3891      3892
 -1      1931    8    0    1
 -2       935      1009      1010      3889      3893      3891
 -1      1932    8    0    1
 -2       937       936      1011      3656      3894      3895
 -1      1933    8    0    1
 -2       936      1010      1011      3892      3896      3894
 -1      1934    8    0    1
 -2       941       940      1012      3667      3897      3898
 -1      1935    8    0    1
 -2       939       990      1013      3818      3899      3900
 -1      1936    8    0    1
 -2       939      1013       978      3900      3901      3819
 -1      1937    8    0    1
 -2       984       983      1014      3844      3902      3903
 -1      1938    8    0    1
 -2       942       941      1015      3670      3904      3905
 -1      1939    8    0    1
 -2       941      1012      1015      3898      3906      3904
 -1      1940    8    0    1
 -2       943       942      1016      3673      3907      3908
 -1      1941    8    0    1
 -2       942      1015      1016      3905      3909      3907
 -1      1942    8    0    1
 -2       944       943      1017      3676      3910      3911
 -1      1943    8    0    1
 -2       943      1016      1017      3908      3912      3910
 -1      1944    8    0    1
 -2       945       944      1018      3679      3913      3914
 -1      1945    8    0    1
 -2       944      1017      1018      3911      3915      3913
 -1      1946    8    0    1
 -2       946       945      1019      3682      3916      3917
 -1      1947    8    0    1
 -2       945      1018      1019      3914      3918      3916
 -1      1948    8    0    1
 -2       947       946      1020      3685      3919      3920
 -1      1949    8    0    1
 -2       946      1019      1020      3917      3921      3919
 -1      1950    8    0    1
 -2       948       947      1021      3688      3922      3923
 -1      1951    8    0    1
 -2       947      1020      1021      3920      3924      3922
 -1      1952    8    0    1
 -2       954       953      1022      3706      3925      3926
 -1      1953    8    0    1
 -2       938       995      1023      3859      3927      3928
 -1      1954    8    0    1
 -2       938      1023       973      3928      3929      3765
 -1      1955    8    0    1
 -2       987       955       984      3825      3930      3931
 -1      1956    8    0    1
 -2       918       992       926      3824      3932      3625
 -1      1957    8    0    1
 -2       980       876       910      3832      3714      3809
 -1      1958    8    0    1
 -2       911       984       955      3869      3930      3829
 -1      1959    8    0    1
 -2       911       994       822      3868      3870      3558
 -1      1960    8    0    1
 -2       875       980       956      3833      3873      3711
 -1      1961    8    0    1
 -2       995       919      1024      3837      3933      3934
 -1      1962    8    0    1
 -2      1023       995      1024      3927      3934      3935
 -1      1963    8    0    1
 -2       919       915      1024      3853      3936      3933
 -1      1964    8    0    1
 -2       960       961      1025      3728      3937      3938
 -1      1965    8    0    1
 -2       961       962      1026      3731      3939      3940
 -1      1966    8    0    1
 -2       961      1026      1025      3940      3941      3937
 -1      1967    8    0    1
 -2       962       963      1027      3734      3942      3943
 -1      1968    8    0    1
 -2       962      1027      1026      3943      3944      3939
 -1      1969    8    0    1
 -2       963       964      1028      3737      3945      3946
 -1      1970    8    0    1
 -2       963      1028      1027      3946      3947      3942
 -1      1971    8    0    1
 -2       964       965      1029      3740      3948      3949
 -1      1972    8    0    1
 -2       964      1029      1028      3949      3950      3945
 -1      1973    8    0    1
 -2       965       966      1030      3743      3951      3952
 -1      1974    8    0    1
 -2       965      1030      1029      3952      3953      3948
 -1      1975    8    0    1
 -2       966       967      1031      3746      3954      3955
 -1      1976    8    0    1
 -2       966      1031      1030      3955      3956      3951
 -1      1977    8    0    1
 -2       967       968      1032      3749      3957      3958
 -1      1978    8    0    1
 -2       967      1032      1031      3958      3959      3954
 -1      1979    8    0    1
 -2       968       969      1033      3752      3960      3961
 -1      1980    8    0    1
 -2       968      1033      1032      3961      3962      3957
 -1      1981    8    0    1
 -2       969       970      1034      3755      3963      3964
 -1      1982    8    0    1
 -2       969      1034      1033      3964      3965      3960
 -1      1983    8    0    1
 -2       970       971      1035      3758      3966      3967
 -1      1984    8    0    1
 -2       970      1035      1034      3967      3968      3963
 -1      1985    8    0    1
 -2       971       972      1036      3761      3969      3970
 -1      1986    8    0    1
 -2       971      1036      1035      3970      3971      3966
 -1      1987    8    0    1
 -2       914      1003      1037      3872      3972      3973
 -1      1988    8    0    1
 -2       987       984      1014      3931      3903      3974
 -1      1989    8    0    1
 -2       925       937      1038      3811      3975      3976
 -1      1990    8    0    1
 -2       979       925      1038      3854      3976      3977
 -1      1991    8    0    1
 -2       937      1011      1038      3895      3978      3975
 -1      1992    8    0    1
 -2       927       976      1039      3775      3979      3980
 -1      1993    8    0    1
 -2       999       916      1040      3851      3981      3982
 -1      1994    8    0    1
 -2       916       920      1040      3599      3983      3981
 -1      1995    8    0    1
 -2       959       960      1037      3725      3984      3985
 -1      1996    8    0    1
 -2       986       952      1041      3810      3986      3987
 -1      1997    8    0    1
 -2       976       986      1041      3802      3987      3988
 -1      1998    8    0    1
 -2       952       991      1041      3821      3989      3986
 -1      1999    8    0    1
 -2       974       978      1013      3808      3901      3990
 -1      2000    8    0    1
 -2       929       928      1042      3632      3991      3992
 -1      2001    8    0    1
 -2       929      1042      1004      3992      3993      3874
 -1      2002    8    0    1
 -2       953       987      1014      3806      3974      3994
 -1      2003    8    0    1
 -2       905       985      1003      3799      3995      3871
 -1      2004    8    0    1
 -2       924       926       992      3863      3932      3996
 -1      2005    8    0    1
 -2       983       979      1043      3855      3997      3998
 -1      2006    8    0    1
 -2       924       992      1002      3996      3999      3864
 -1      2007    8    0    1
 -2      1013       990      1044      3899      4000      4001
 -1      2008    8    0    1
 -2      1044       990      1045      4000      4002      4003
 -1      2009    8    0    1
 -2       990      1002      1045      3866      4004      4002
 -1      2010    8    0    1
 -2      1024       915       989      3936      3816      4005
 -1      2011    8    0    1
 -2       953      1014      1022      3994      4006      3925
 -1      2012    8    0    1
 -2       988       914      1037      3812      3973      4007
 -1      2013    8    0    1
 -2       927      1039      1046      3980      4008      4009
 -1      2014    8    0    1
 -2       927      1046       977      4009      4010      3779
 -1      2015    8    0    1
 -2      1012       940      1047      3897      4011      4012
 -1      2016    8    0    1
 -2       940       977      1047      3778      4013      4011
 -1      2017    8    0    1
 -2       928       981      1048      3790      4014      4015
 -1      2018    8    0    1
 -2       928      1048      1042      4015      4016      3991
 -1      2019    8    0    1
 -2      1014       983      1043      3902      3998      4017
 -1      2020    8    0    1
 -2       979      1038      1043      3977      4018      3997
 -1      2021    8    0    1
 -2       991       921      1049      3822      4019      4020
 -1      2022    8    0    1
 -2       921       988      1049      3814      4021      4019
 -1      2023    8    0    1
 -2       917       951      1050      3698      4022      4023
 -1      2024    8    0    1
 -2       917      1050      1000      4023      4024      3856
 -1      2025    8    0    1
 -2       949       948      1051      3691      4025      4026
 -1      2026    8    0    1
 -2       950       949       996      3695      4027      3843
 -1      2027    8    0    1
 -2       992      1000      1002      3858      4028      3999
 -1      2028    8    0    1
 -2       993       954      1052      3826      4029      4030
 -1      2029    8    0    1
 -2       954      1022      1052      3926      4031      4029
 -1      2030    8    0    1
 -2       949      1051       996      4026      4032      4027
 -1      2031    8    0    1
 -2       957       958       985      3719      4033      4034
 -1      2032    8    0    1
 -2      1037      1003       959      3972      4035      3985
 -1      2033    8    0    1
 -2       972       973      1053      3764      4036      4037
 -1      2034    8    0    1
 -2      1036       972      1053      3969      4037      4038
 -1      2035    8    0    1
 -2       973      1023      1053      3929      4039      4036
 -1      2036    8    0    1
 -2      1003       985       958      3995      4033      4040
 -1      2037    8    0    1
 -2       974      1013      1054      3990      4041      4042
 -1      2038    8    0    1
 -2       981       974      1054      3791      4042      4043
 -1      2039    8    0    1
 -2      1013      1044      1054      4001      4044      4041
 -1      2040    8    0    1
 -2      1040       920       998      3983      3849      4045
 -1      2041    8    0    1
 -2       951       913      1055      3699      4046      4047
 -1      2042    8    0    1
 -2      1050       951      1055      4022      4047      4048
 -1      2043    8    0    1
 -2       913      1001      1055      3861      4049      4046
 -1      2044    8    0    1
 -2       997       902       993      3847      3828      4050
 -1      2045    8    0    1
 -2       989       996      1051      3842      4032      4051
 -1      2046    8    0    1
 -2       998       975      1056      3850      4052      4053
 -1      2047    8    0    1
 -2       989      1051      1057      4051      4054      4055
 -1      2048    8    0    1
 -2       999      1040      1058      3982      4056      4057
 -1      2049    8    0    1
 -2      1037       960      1025      3984      3938      4058
 -1      2050    8    0    1
 -2       976      1041      1039      3988      4059      3979
 -1      2051    8    0    1
 -2       958       959      1003      3722      4035      4040
 -1      2052    8    0    1
 -2      1001       999      1059      3862      4060      4061
 -1      2053    8    0    1
 -2       999      1058      1059      4057      4062      4060
 -1      2054    8    0    1
 -2       975       997      1060      3846      4063      4064
 -1      2055    8    0    1
 -2       975      1060      1056      4064      4065      4052
 -1      2056    8    0    1
 -2      1024       989      1057      4005      4055      4066
 -1      2057    8    0    1
 -2      1051       948      1021      4025      3923      4067
 -1      2058    8    0    1
 -2      1005      1004      1061      3878      4068      4069
 -1      2059    8    0    1
 -2       982       957       985      3834      4034      3839
 -1      2060    8    0    1
 -2      1006      1005      1062      3881      4070      4071
 -1      2061    8    0    1
 -2      1005      1061      1062      4069      4072      4070
 -1      2062    8    0    1
 -2      1007      1006      1063      3884      4073      4074
 -1      2063    8    0    1
 -2      1006      1062      1063      4071      4075      4073
 -1      2064    8    0    1
 -2      1008      1007      1064      3887      4076      4077
 -1      2065    8    0    1
 -2      1007      1063      1064      4074      4078      4076
 -1      2066    8    0    1
 -2      1009      1008      1065      3890      4079      4080
 -1      2067    8    0    1
 -2      1008      1064      1065      4077      4081      4079
 -1      2068    8    0    1
 -2      1010      1009      1066      3893      4082      4083
 -1      2069    8    0    1
 -2      1009      1065      1066      4080      4084      4082
 -1      2070    8    0    1
 -2      1011      1010      1067      3896      4085      4086
 -1      2071    8    0    1
 -2      1010      1066      1067      4083      4087      4085
 -1      2072    8    0    1
 -2      1004      1042      1068      3993      4088      4089
 -1      2073    8    0    1
 -2      1004      1068      1061      4089      4090      4068
 -1      2074    8    0    1
 -2      1022      1014      1043      4006      4017      4091
 -1      2075    8    0    1
 -2      1016      1015      1069      3909      4092      4093
 -1      2076    8    0    1
 -2      1017      1016      1070      3912      4094      4095
 -1      2077    8    0    1
 -2      1016      1069      1070      4093      4096      4094
 -1      2078    8    0    1
 -2      1018      1017      1071      3915      4097      4098
 -1      2079    8    0    1
 -2      1017      1070      1071      4095      4099      4097
 -1      2080    8    0    1
 -2      1019      1018      1072      3918      4100      4101
 -1      2081    8    0    1
 -2      1018      1071      1072      4098      4102      4100
 -1      2082    8    0    1
 -2      1020      1019      1073      3921      4103      4104
 -1      2083    8    0    1
 -2      1019      1072      1073      4101      4105      4103
 -1      2084    8    0    1
 -2      1021      1020      1074      3924      4106      4107
 -1      2085    8    0    1
 -2      1020      1073      1074      4104      4108      4106
 -1      2086    8    0    1
 -2       988      1037      1075      4007      4109      4110
 -1      2087    8    0    1
 -2      1049       988      1075      4021      4110      4111
 -1      2088    8    0    1
 -2      1037      1025      1075      4058      4112      4109
 -1      2089    8    0    1
 -2      1043      1038      1076      4018      4113      4114
 -1      2090    8    0    1
 -2      1015      1012      1077      3906      4115      4116
 -1      2091    8    0    1
 -2      1015      1077      1069      4116      4117      4092
 -1      2092    8    0    1
 -2      1041       991      1078      3989      4118      4119
 -1      2093    8    0    1
 -2       997       993      1079      4050      4120      4121
 -1      2094    8    0    1
 -2       997      1079      1060      4121      4122      4063
 -1      2095    8    0    1
 -2      1027      1028      1080      3947      4123      4124
 -1      2096    8    0    1
 -2      1025      1026      1081      3941      4125      4126
 -1      2097    8    0    1
 -2      1025      1081      1075      4126      4127      4112
 -1      2098    8    0    1
 -2      1028      1029      1082      3950      4128      4129
 -1      2099    8    0    1
 -2      1028      1082      1080      4129      4130      4123
 -1      2100    8    0    1
 -2      1029      1030      1083      3953      4131      4132
 -1      2101    8    0    1
 -2      1029      1083      1082      4132      4133      4128
 -1      2102    8    0    1
 -2      1030      1031      1084      3956      4134      4135
 -1      2103    8    0    1
 -2      1030      1084      1083      4135      4136      4131
 -1      2104    8    0    1
 -2      1031      1032      1085      3959      4137      4138
 -1      2105    8    0    1
 -2      1031      1085      1084      4138      4139      4134
 -1      2106    8    0    1
 -2      1032      1033      1086      3962      4140      4141
 -1      2107    8    0    1
 -2      1032      1086      1085      4141      4142      4137
 -1      2108    8    0    1
 -2      1033      1034      1087      3965      4143      4144
 -1      2109    8    0    1
 -2      1033      1087      1086      4144      4145      4140
 -1      2110    8    0    1
 -2      1034      1035      1088      3968      4146      4147
 -1      2111    8    0    1
 -2      1034      1088      1087      4147      4148      4143
 -1      2112    8    0    1
 -2      1035      1036      1089      3971      4149      4150
 -1      2113    8    0    1
 -2      1035      1089      1088      4150      4151      4146
 -1      2114    8    0    1
 -2      1038      1011      1076      3978      4152      4113
 -1      2115    8    0    1
 -2      1002      1000      1090      4028      4153      4154
 -1      2116    8    0    1
 -2      1045      1002      1090      4004      4154      4155
 -1      2117    8    0    1
 -2      1000      1050      1090      4024      4156      4153
 -1      2118    8    0    1
 -2      1057      1051      1021      4054      4067      4157
 -1      2119    8    0    1
 -2      1024      1057      1023      4066      4158      3935
 -1      2120    8    0    1
 -2      1023      1057      1091      4158      4159      4160
 -1      2121    8    0    1
 -2      1039      1041      1078      4059      4119      4161
 -1      2122    8    0    1
 -2      1040       998      1092      4045      4162      4163
 -1      2123    8    0    1
 -2      1058      1040      1092      4056      4163      4164
 -1      2124    8    0    1
 -2       998      1056      1092      4053      4165      4162
 -1      2125    8    0    1
 -2      1057      1021      1074      4157      4107      4166
 -1      2126    8    0    1
 -2      1026      1027      1081      3944      4167      4125
 -1      2127    8    0    1
 -2      1044      1045      1093      4003      4168      4169
 -1      2128    8    0    1
 -2      1079       993      1052      4120      4030      4170
 -1      2129    8    0    1
 -2      1046      1039      1094      4008      4171      4172
 -1      2130    8    0    1
 -2      1047       977      1046      4013      4010      4173
 -1      2131    8    0    1
 -2      1068      1042      1093      4088      4174      4175
 -1      2132    8    0    1
 -2      1048       981      1054      4014      4043      4176
 -1      2133    8    0    1
 -2      1011      1067      1076      4086      4177      4152
 -1      2134    8    0    1
 -2      1058      1092      1095      4164      4178      4179
 -1      2135    8    0    1
 -2      1022      1043      1096      4091      4180      4181
 -1      2136    8    0    1
 -2      1081      1027      1080      4167      4124      4182
 -1      2137    8    0    1
 -2      1077      1012      1097      4115      4183      4184
 -1      2138    8    0    1
 -2      1012      1047      1097      4012      4185      4183
 -1      2139    8    0    1
 -2      1001      1059      1098      4061      4186      4187
 -1      2140    8    0    1
 -2      1001      1098      1055      4187      4188      4049
 -1      2141    8    0    1
 -2      1052      1022      1096      4031      4181      4189
 -1      2142    8    0    1
 -2      1078       991      1049      4118      4020      4190
 -1      2143    8    0    1
 -2      1059      1058      1099      4062      4191      4192
 -1      2144    8    0    1
 -2      1058      1095      1099      4179      4193      4191
 -1      2145    8    0    1
 -2      1089      1036      1091      4149      4194      4195
 -1      2146    8    0    1
 -2      1091      1057      1074      4159      4166      4196
 -1      2147    8    0    1
 -2      1039      1078      1094      4161      4197      4171
 -1      2148    8    0    1
 -2      1056      1060      1100      4065      4198      4199
 -1      2149    8    0    1
 -2      1043      1076      1096      4114      4200      4180
 -1      2150    8    0    1
 -2      1092      1056      1101      4165      4201      4202
 -1      2151    8    0    1
 -2      1056      1100      1101      4199      4203      4201
 -1      2152    8    0    1
 -2      1042      1048      1093      4016      4204      4174
 -1      2153    8    0    1
 -2      1044      1093      1048      4169      4204      4205
 -1      2154    8    0    1
 -2      1047      1046      1102      4173      4206      4207
 -1      2155    8    0    1
 -2      1097      1047      1102      4185      4207      4208
 -1      2156    8    0    1
 -2      1046      1094      1102      4172      4209      4206
 -1      2157    8    0    1
 -2      1044      1048      1054      4205      4176      4044
 -1      2158    8    0    1
 -2      1063      1062      1099      4075      4210      4211
 -1      2159    8    0    1
 -2      1064      1063      1103      4078      4212      4213
 -1      2160    8    0    1
 -2      1065      1064      1100      4081      4214      4215
 -1      2161    8    0    1
 -2      1066      1065      1100      4084      4215      4216
 -1      2162    8    0    1
 -2      1067      1066      1104      4087      4217      4218
 -1      2163    8    0    1
 -2      1070      1069      1105      4096      4219      4220
 -1      2164    8    0    1
 -2      1078      1049      1106      4190      4221      4222
 -1      2165    8    0    1
 -2      1071      1070      1086      4099      4223      4224
 -1      2166    8    0    1
 -2      1072      1071      1087      4102      4225      4226
 -1      2167    8    0    1
 -2      1073      1072      1088      4105      4227      4228
 -1      2168    8    0    1
 -2      1080      1082      1107      4130      4229      4230
 -1      2169    8    0    1
 -2      1062      1061      1099      4072      4231      4210
 -1      2170    8    0    1
 -2      1069      1077      1084      4117      4232      4233
 -1      2171    8    0    1
 -2      1060      1079      1104      4122      4234      4235
 -1      2172    8    0    1
 -2      1082      1083      1097      4133      4236      4237
 -1      2173    8    0    1
 -2      1076      1067      1108      4177      4238      4239
 -1      2174    8    0    1
 -2      1096      1076      1108      4200      4239      4240
 -1      2175    8    0    1
 -2      1067      1104      1108      4218      4241      4238
 -1      2176    8    0    1
 -2      1091      1036      1053      4194      4038      4242
 -1      2177    8    0    1
 -2      1083      1084      1077      4136      4232      4243
 -1      2178    8    0    1
 -2      1086      1087      1071      4145      4225      4224
 -1      2179    8    0    1
 -2      1087      1088      1072      4148      4227      4226
 -1      2180    8    0    1
 -2      1088      1089      1073      4151      4244      4228
 -1      2181    8    0    1
 -2      1089      1091      1074      4195      4196      4245
 -1      2182    8    0    1
 -2      1068      1093      1109      4175      4246      4247
 -1      2183    8    0    1
 -2      1053      1023      1091      4039      4160      4242
 -1      2184    8    0    1
 -2      1052      1096      1108      4189      4240      4248
 -1      2185    8    0    1
 -2      1061      1068      1109      4090      4247      4249
 -1      2186    8    0    1
 -2      1100      1060      1104      4198      4235      4250
 -1      2187    8    0    1
 -2      1094      1078      1106      4197      4222      4251
 -1      2188    8    0    1
 -2      1083      1077      1097      4243      4184      4236
 -1      2189    8    0    1
 -2      1050      1055      1110      4048      4252      4253
 -1      2190    8    0    1
 -2      1055      1098      1110      4188      4254      4252
 -1      2191    8    0    1
 -2      1093      1045      1090      4168      4155      4255
 -1      2192    8    0    1
 -2      1066      1100      1104      4216      4250      4217
 -1      2193    8    0    1
 -2      1073      1089      1074      4244      4245      4108
 -1      2194    8    0    1
 -2      1079      1052      1108      4170      4248      4256
 -1      2195    8    0    1
 -2      1102      1094      1107      4209      4257      4258
 -1      2196    8    0    1
 -2      1069      1084      1105      4233      4259      4219
 -1      2197    8    0    1
 -2      1095      1092      1101      4178      4202      4260
 -1      2198    8    0    1
 -2      1079      1108      1104      4256      4241      4234
 -1      2199    8    0    1
 -2      1075      1081      1049      4127      4261      4111
 -1      2200    8    0    1
 -2      1085      1086      1105      4142      4262      4263
 -1      2201    8    0    1
 -2      1109      1093      1090      4246      4255      4264
 -1      2202    8    0    1
 -2      1086      1070      1105      4223      4220      4262
 -1      2203    8    0    1
 -2      1100      1064      1101      4214      4265      4203
 -1      2204    8    0    1
 -2      1107      1094      1111      4257      4266      4267
 -1      2205    8    0    1
 -2      1081      1080      1111      4182      4268      4269
 -1      2206    8    0    1
 -2      1095      1101      1103      4260      4270      4271
 -1      2207    8    0    1
 -2      1080      1107      1111      4230      4267      4268
 -1      2208    8    0    1
 -2      1099      1061      1112      4231      4272      4273
 -1      2209    8    0    1
 -2      1098      1059      1112      4186      4274      4275
 -1      2210    8    0    1
 -2      1049      1081      1106      4261      4276      4221
 -1      2211    8    0    1
 -2      1107      1082      1097      4229      4237      4277
 -1      2212    8    0    1
 -2      1094      1106      1111      4251      4278      4266
 -1      2213    8    0    1
 -2      1099      1095      1063      4193      4279      4211
 -1      2214    8    0    1
 -2      1061      1109      1112      4249      4280      4272
 -1      2215    8    0    1
 -2      1101      1064      1103      4265      4213      4270
 -1      2216    8    0    1
 -2      1084      1085      1105      4139      4263      4259
 -1      2217    8    0    1
 -2      1112      1109      1098      4280      4281      4275
 -1      2218    8    0    1
 -2      1090      1050      1110      4156      4253      4282
 -1      2219    8    0    1
 -2      1059      1099      1112      4192      4273      4274
 -1      2220    8    0    1
 -2      1063      1095      1103      4279      4271      4212
 -1      2221    8    0    1
 -2      1081      1111      1106      4269      4278      4276
 -1      2222    8    0    1
 -2      1098      1109      1110      4281      4283      4254
 -1      2223    8    0    1
 -2      1090      1110      1109      4282      4283      4264
 -1      2224    8    0    1
 -2      1097      1102      1107      4208      4258      4277
 -3
    1PSTEP                         1           1           1          
  100CL  101 1.000000000        4283                     0    1           1
 -4  DISP        4    1
 -5  D1          1    2    1    0
 -5  D2          1    2    2    0
 -5  D3          1    2    3    0
 -5  ALL         1    2    0    0    1ALL
 -1         1 7.26470E-03-2.04960E-03-2.26131E-15
 -1         2 1.01857E-02-1.05293E-03-2.41126E-15
 -1         3 1.38346E-02-3.87153E-03-8.54173E-15
 -1         4 1.67995E-02-5.29997E-03-1.50597E-14
 -1         5 0.00000E+00 0.00000E+00 0.00000E+00
 -1         6 0.00000E+00 0.00000E+00 0.00000E+00
 -1         7 0.00000E+00 0.00000E+00 0.00000E+00
 -1         8 0.00000E+00 0.00000E+00 0.00000E+00
 -1         9 0.00000E+00 0.00000E+00 0.00000E+00
 -1        10 0.00000E+00 0.00000E+00 0.00000E+00
 -1        11 0.00000E+00 0.00000E+00 0.00000E+00
 -1        12 0.00000E+00 0.00000E+00 0.00000E+00
 -1        13 0.00000E+00 0.00000E+00 0.00000E+00
 -1        14 0.00000E+00 0.00000E+00 0.00000E+00
 -1        15 0.00000E+00 0.00000E+00 0.00000E+00
 -1        16 0.00000E+00 0.00000E+00 0.00000E+00
 -1        17 0.00000E+00 0.00000E+00 0.00000E+00
 -1        18 0.00000E+00 0.00000E+00 0.00000E+00
 -1        19 0.00000E+00 0.00000E+00 0.00000E+00
 -1        20 0.00000E+00 0.00000E+00 0.00000E+00
 -1        21 0.00000E+00 0.00000E+00 0.00000E+00
 -1        22 0.00000E+00 0.00000E+00 0.00000E+00
 -1        23 3.94469E-04-2.51406E-04-2.60039E-17
 -1        24 6.88381E-04-3.93718E-04-7.03207E-17
 -1        25 9.58679E-04-4.91784E-04-1.28295E-16
 -1        26 1.22319E-03-5.60377E-04-1.97813E-16
 -1        27 1.48678E-03-6.08842E-04-2.75909E-16
 -1        28 1.75172E-03-6.42603E-04-3.62601E-16
 -1        29 2.00570E-03-6.64441E-04-4.51828E-16
 -1        30 2.27603E-03-6.79203E-04-5.51235E-16
 -1        31 2.54981E-03-6.87475E-04-6.56532E-16
 -1        32 2.82737E-03-6.90744E-04-7.69384E-16
 -1        33 3.10919E-03-6.90151E-04-8.86613E-16
 -1        34 3.39603E-03-6.86622E-04-1.00372E-15
 -1        35 3.68919E-03-6.81031E-04-1.12093E-15
 -1        36 3.97547E-03-6.74824E-04-1.23543E-15
 -1        37 4.28821E-03-6.68986E-04-1.36563E-15
 -1        38 4.61769E-03-6.66971E-04-1.50649E-15
 -1        39 4.97150E-03-6.74795E-04-1.65149E-15
 -1        40 5.36001E-03-7.03861E-04-1.79386E-15
 -1        41 5.79517E-03-7.74718E-04-1.93401E-15
 -1        42 6.28484E-03-9.20612E-04-2.07762E-15
 -1        43 6.79135E-03-1.16692E-03-2.21591E-15
 -1        44 7.32081E-03-1.56192E-03-2.37818E-15
 -1        45 7.72241E-03-1.98692E-03-2.55368E-15
 -1        46 8.00712E-03-2.33438E-03-2.76212E-15
 -1        47 8.19822E-03-2.44787E-03-2.97808E-15
 -1        48 8.46662E-03-2.31124E-03-3.27501E-15
 -1        49 8.81385E-03-2.06327E-03-3.57819E-15
 -1        50 9.29966E-03-1.81946E-03-3.95364E-15
 -1        51 9.83951E-03-1.69182E-03-4.35949E-15
 -1        52 1.03456E-02-1.69217E-03-4.76265E-15
 -1        53 1.07762E-02-1.77402E-03-5.15994E-15
 -1        54 1.11809E-02-1.91024E-03-5.58274E-15
 -1        55 1.15472E-02-2.07368E-03-6.00958E-15
 -1        56 1.18865E-02-2.25027E-03-6.44931E-15
 -1        57 1.22075E-02-2.43263E-03-6.90797E-15
 -1        58 1.25164E-02-2.61704E-03-7.37642E-15
 -1        59 1.28172E-02-2.80174E-03-7.83612E-15
 -1        60 1.30981E-02-2.97676E-03-8.26127E-15
 -1        61 1.33903E-02-3.16022E-03-8.72256E-15
 -1        62 1.36801E-02-3.34283E-03-9.20697E-15
 -1        63 1.39684E-02-3.52464E-03-9.71326E-15
 -1        64 1.42556E-02-3.70572E-03-1.02266E-14
 -1        65 1.45421E-02-3.88618E-03-1.07356E-14
 -1        66 1.48283E-02-4.06612E-03-1.12579E-14
 -1        67 1.50998E-02-4.23667E-03-1.17803E-14
 -1        68 1.53855E-02-4.41584E-03-1.23505E-14
 -1        69 1.56712E-02-4.59473E-03-1.29259E-14
 -1        70 1.59568E-02-4.77342E-03-1.34894E-14
 -1        71 1.62424E-02-4.95196E-03-1.40433E-14
 -1        72 1.65281E-02-5.13043E-03-1.45730E-14
 -1        73 4.13117E-04 2.60720E-04 4.15893E-17
 -1        74 7.02131E-04 4.02147E-04 1.21339E-16
 -1        75 9.72742E-04 4.97607E-04 2.32670E-16
 -1        76 1.23755E-03 5.65131E-04 3.68053E-16
 -1        77 1.50148E-03 6.13113E-04 5.20275E-16
 -1        78 1.76679E-03 6.46858E-04 6.82936E-16
 -1        79 2.03457E-03 6.70088E-04 8.51397E-16
 -1        80 2.30533E-03 6.85564E-04 1.02176E-15
 -1        81 2.57925E-03 6.95429E-04 1.18845E-15
 -1        82 2.85636E-03 7.01410E-04 1.34938E-15
 -1        83 3.13650E-03 7.04952E-04 1.50121E-15
 -1        84 3.41944E-03 7.07301E-04 1.64291E-15
 -1        85 3.70474E-03 7.09557E-04 1.77379E-15
 -1        86 3.99178E-03 7.12672E-04 1.89197E-15
 -1        87 4.27958E-03 7.17383E-04 1.99382E-15
 -1        88 4.56678E-03 7.24071E-04 2.07355E-15
 -1        89 4.85156E-03 7.32528E-04 2.12941E-15
 -1        90 5.13169E-03 7.41660E-04 2.16583E-15
 -1        91 5.40474E-03 7.49184E-04 2.18461E-15
 -1        92 5.66850E-03 7.51442E-04 2.18105E-15
 -1        93 5.92153E-03 7.43490E-04 2.15065E-15
 -1        94 6.16379E-03 7.19606E-04 2.08495E-15
 -1        95 6.39705E-03 6.74219E-04 1.98952E-15
 -1        96 6.62484E-03 6.03090E-04 1.87508E-15
 -1        97 6.85190E-03 5.04346E-04 1.72684E-15
 -1        98 7.08312E-03 3.78974E-04 1.55085E-15
 -1        99 7.32251E-03 2.30552E-04 1.33376E-15
 -1       100 7.57245E-03 6.43475E-05 1.08760E-15
 -1       101 7.83349E-03-1.13859E-04 8.15832E-16
 -1       102 8.10464E-03-2.98807E-04 5.14430E-16
 -1       103 8.38394E-03-4.86389E-04 1.94699E-16
 -1       104 8.66911E-03-6.73857E-04-1.51080E-16
 -1       105 8.95797E-03-8.59686E-04-5.26079E-16
 -1       106 9.24875E-03-1.04328E-03-9.22100E-16
 -1       107 9.54015E-03-1.22465E-03-1.35122E-15
 -1       108 9.83134E-03-1.40414E-03-1.79802E-15
 -1       109 1.01219E-02-1.58219E-03-2.26400E-15
 -1       110 1.04115E-02-1.75927E-03-2.74266E-15
 -1       111 1.07003E-02-1.93577E-03-3.22911E-15
 -1       112 1.09882E-02-2.11199E-03-3.70850E-15
 -1       113 1.12755E-02-2.28816E-03-4.19693E-15
 -1       114 1.15622E-02-2.46440E-03-4.67950E-15
 -1       115 1.18485E-02-2.64082E-03-5.15928E-15
 -1       116 1.21346E-02-2.81742E-03-5.64819E-15
 -1       117 1.24204E-02-2.99424E-03-6.12779E-15
 -1       118 1.27061E-02-3.17124E-03-6.60254E-15
 -1       119 1.29918E-02-3.34839E-03-7.09359E-15
 -1       120 1.32775E-02-3.52568E-03-7.58434E-15
 -1       121 1.35632E-02-3.70303E-03-8.08136E-15
 -1       122 1.40090E-02-3.95582E-03-8.94427E-15
 -1       123 1.41834E-02-4.04014E-03-9.37809E-15
 -1       124 1.43579E-02-4.12446E-03-9.81100E-15
 -1       125 1.45325E-02-4.20878E-03-1.02485E-14
 -1       126 1.47071E-02-4.29306E-03-1.06768E-14
 -1       127 1.48789E-02-4.37587E-03-1.11124E-14
 -1       128 1.50537E-02-4.46008E-03-1.15485E-14
 -1       129 1.52285E-02-4.54426E-03-1.19819E-14
 -1       130 1.54034E-02-4.62843E-03-1.24061E-14
 -1       131 1.55784E-02-4.71264E-03-1.27948E-14
 -1       132 1.57534E-02-4.79688E-03-1.31555E-14
 -1       133 1.59255E-02-4.87974E-03-1.35082E-14
 -1       134 1.61007E-02-4.96407E-03-1.38585E-14
 -1       135 1.62760E-02-5.04843E-03-1.41719E-14
 -1       136 1.64515E-02-5.13279E-03-1.44574E-14
 -1       137 1.66270E-02-5.21711E-03-1.47378E-14
 -1       138 1.00440E-02-8.55060E-04-2.26145E-15
 -1       139 9.82321E-03-6.78050E-04-2.10356E-15
 -1       140 9.51056E-03-5.03192E-04-1.91549E-15
 -1       141 9.10125E-03-3.33992E-04-1.70952E-15
 -1       142 8.67556E-03-2.02105E-04-1.52930E-15
 -1       143 8.18368E-03-8.93459E-05-1.35874E-15
 -1       144 7.68214E-03-1.40663E-05-1.21992E-15
 -1       145 7.18920E-03 2.28605E-05-1.11807E-15
 -1       146 6.71071E-03 1.99768E-05-1.05824E-15
 -1       147 6.28004E-03-2.20615E-05-1.03888E-15
 -1       148 5.91191E-03-1.00718E-04-1.05686E-15
 -1       149 5.62388E-03-2.09147E-04-1.10525E-15
 -1       150 5.41999E-03-3.43760E-04-1.17520E-15
 -1       151 5.30110E-03-5.08867E-04-1.27431E-15
 -1       152 5.28278E-03-6.90500E-04-1.38480E-15
 -1       153 5.37603E-03-9.11939E-04-1.51953E-15
 -1       154 5.56320E-03-1.13291E-03-1.65258E-15
 -1       155 5.87075E-03-1.38492E-03-1.80694E-15
 -1       156 6.25732E-03-1.62969E-03-1.95831E-15
 -1       157 6.73034E-03-1.86245E-03-2.11352E-15
 -1       158 7.81807E-03-2.15600E-03-2.39226E-15
 -1       159 8.40013E-03-2.16876E-03-2.50676E-15
 -1       160 8.89865E-03-2.09626E-03-2.58776E-15
 -1       161 9.36658E-03-1.95292E-03-2.64183E-15
 -1       162 9.72221E-03-1.78566E-03-2.66219E-15
 -1       163 9.98863E-03-1.60158E-03-2.65239E-15
 -1       164 1.01548E-02-1.41374E-03-2.60554E-15
 -1       165 1.02171E-02-1.23309E-03-2.52277E-15
 -1       166 2.40237E-04-1.25053E-04-1.77335E-17
 -1       167 2.25306E-04-9.41332E-05-1.40269E-17
 -1       168 2.19633E-04-7.22805E-05-1.05269E-17
 -1       169 2.16836E-04-5.46163E-05-7.26754E-18
 -1       170 2.15328E-04-3.95386E-05-4.13352E-18
 -1       171 2.14465E-04-2.55981E-05-1.12486E-18
 -1       172 2.14020E-04-1.24761E-05 1.79232E-18
 -1       173 2.13882E-04 2.71013E-07 4.56043E-18
 -1       174 2.14023E-04 1.30300E-05 7.37935E-18
 -1       175 2.14475E-04 2.61894E-05 1.05201E-17
 -1       176 2.15335E-04 3.99542E-05 1.39489E-17
 -1       177 2.16896E-04 5.53998E-05 1.79063E-17
 -1       178 2.19749E-04 7.32741E-05 2.23413E-17
 -1       179 2.25465E-04 9.54908E-05 2.71322E-17
 -1       180 2.39243E-04 1.27087E-04 3.14690E-17
 -1       181 2.97421E-04 1.84916E-04 3.81775E-17
 -1       182 4.53096E-04-2.55622E-04-4.16672E-17
 -1       183 7.51759E-04-3.75278E-04-8.69395E-17
 -1       184 1.03607E-03-4.58418E-04-1.42600E-16
 -1       185 1.31385E-03-5.16692E-04-2.06673E-16
 -1       186 1.58896E-03-5.57231E-04-2.78162E-16
 -1       187 1.84989E-03-5.83616E-04-3.52996E-16
 -1       188 2.12541E-03-6.01750E-04-4.37391E-16
 -1       189 2.40263E-03-6.12342E-04-5.28498E-16
 -1       190 2.68218E-03-6.17129E-04-6.25019E-16
 -1       191 2.96460E-03-6.17393E-04-7.27171E-16
 -1       192 3.25052E-03-6.14093E-04-8.32976E-16
 -1       193 3.54078E-03-6.08003E-04-9.40051E-16
 -1       194 3.82166E-03-6.00359E-04-1.04440E-15
 -1       195 4.12442E-03-5.91391E-04-1.16128E-15
 -1       196 4.43695E-03-5.83427E-04-1.28669E-15
 -1       197 4.76275E-03-5.80344E-04-1.42003E-15
 -1       198 5.10642E-03-5.89888E-04-1.55570E-15
 -1       199 5.47351E-03-6.26978E-04-1.69290E-15
 -1       200 5.86975E-03-7.18236E-04-1.83032E-15
 -1       201 6.27709E-03-8.92565E-04-1.96714E-15
 -1       202 6.73699E-03-1.21211E-03-2.12062E-15
 -1       203 7.16678E-03-1.62356E-03-2.27965E-15
 -1       204 7.59139E-03-2.06488E-03-2.46598E-15
 -1       205 7.95275E-03-2.32810E-03-2.65986E-15
 -1       206 8.78452E-03-2.09357E-03-3.24889E-15
 -1       207 9.23446E-03-1.80203E-03-3.59367E-15
 -1       208 9.70822E-03-1.61501E-03-3.98114E-15
 -1       209 1.01568E-02-1.57478E-03-4.37854E-15
 -1       210 1.05513E-02-1.63611E-03-4.76115E-15
 -1       211 1.09346E-02-1.76307E-03-5.17514E-15
 -1       212 1.12906E-02-1.92389E-03-5.59395E-15
 -1       213 1.16259E-02-2.10084E-03-6.02467E-15
 -1       214 1.19460E-02-2.28462E-03-6.46933E-15
 -1       215 1.22554E-02-2.47068E-03-6.92873E-15
 -1       216 1.25573E-02-2.65690E-03-7.39047E-15
 -1       217 1.28393E-02-2.83313E-03-7.82316E-15
 -1       218 1.31326E-02-3.01764E-03-8.28334E-15
 -1       219 1.34234E-02-3.20109E-03-8.75903E-15
 -1       220 1.37124E-02-3.38354E-03-9.24975E-15
 -1       221 1.40003E-02-3.56514E-03-9.75739E-15
 -1       222 1.42874E-02-3.74599E-03-1.02683E-14
 -1       223 1.45739E-02-3.92624E-03-1.07875E-14
 -1       224 1.48458E-02-4.09700E-03-1.12989E-14
 -1       225 1.51317E-02-4.27635E-03-1.18526E-14
 -1       226 1.54176E-02-4.45537E-03-1.24161E-14
 -1       227 1.57033E-02-4.63415E-03-1.29857E-14
 -1       228 1.59890E-02-4.81274E-03-1.35502E-14
 -1       229 1.62747E-02-4.99123E-03-1.40998E-14
 -1       230 1.64508E-02-5.10417E-03-1.44284E-14
 -1       231 6.04072E-04 3.29626E-04 1.09721E-16
 -1       232 8.93107E-04 4.30256E-04 2.09346E-16
 -1       233 1.17209E-03 5.00807E-04 3.31471E-16
 -1       234 1.44677E-03 5.50526E-04 4.69578E-16
 -1       235 1.72017E-03 5.85204E-04 6.17507E-16
 -1       236 1.99402E-03 6.08860E-04 7.71088E-16
 -1       237 2.26925E-03 6.24426E-04 9.26685E-16
 -1       238 2.54636E-03 6.34157E-04 1.07967E-15
 -1       239 2.82558E-03 6.39850E-04 1.22722E-15
 -1       240 3.10697E-03 6.43003E-04 1.36615E-15
 -1       241 3.39040E-03 6.44907E-04 1.49486E-15
 -1       242 3.67562E-03 6.46713E-04 1.61370E-15
 -1       243 3.96218E-03 6.49440E-04 1.72082E-15
 -1       244 4.24937E-03 6.53917E-04 1.81116E-15
 -1       245 4.53622E-03 6.60651E-04 1.88081E-15
 -1       246 4.82142E-03 6.69589E-04 1.92993E-15
 -1       247 5.10343E-03 6.79800E-04 1.95899E-15
 -1       248 5.38054E-03 6.89136E-04 1.96986E-15
 -1       249 5.65121E-03 6.93992E-04 1.95831E-15
 -1       250 5.91442E-03 6.89330E-04 1.91982E-15
 -1       251 6.17010E-03 6.69153E-04 1.84995E-15
 -1       252 6.41937E-03 6.27457E-04 1.75170E-15
 -1       253 6.66462E-03 5.59508E-04 1.63198E-15
 -1       254 6.90906E-03 4.63022E-04 1.48300E-15
 -1       255 7.15610E-03 3.38786E-04 1.30292E-15
 -1       256 7.40861E-03 1.90429E-04 1.08712E-15
 -1       257 7.66839E-03 2.34721E-05 8.40308E-16
 -1       258 7.93596E-03-1.55954E-04 5.68193E-16
 -1       259 8.21079E-03-3.42256E-04 2.70268E-16
 -1       260 8.49161E-03-5.31085E-04-5.46743E-17
 -1       261 8.77686E-03-7.19553E-04-4.02249E-16
 -1       262 9.06499E-03-9.06092E-04-7.77878E-16
 -1       263 9.35472E-03-1.09013E-03-1.17572E-15
 -1       264 9.64505E-03-1.27172E-03-1.59985E-15
 -1       265 9.93531E-03-1.45125E-03-2.04359E-15
 -1       266 1.02251E-02-1.62926E-03-2.50495E-15
 -1       267 1.05143E-02-1.80623E-03-2.98128E-15
 -1       268 1.08028E-02-1.98259E-03-3.46246E-15
 -1       269 1.10906E-02-2.15868E-03-3.94465E-15
 -1       270 1.13778E-02-2.33472E-03-4.43125E-15
 -1       271 1.16646E-02-2.51086E-03-4.91813E-15
 -1       272 1.19511E-02-2.68719E-03-5.40700E-15
 -1       273 1.22372E-02-2.86372E-03-5.89629E-15
 -1       274 1.25232E-02-3.04049E-03-6.37659E-15
 -1       275 1.28090E-02-3.21745E-03-6.85534E-15
 -1       276 1.30948E-02-3.39459E-03-7.34061E-15
 -1       277 1.33805E-02-3.57186E-03-7.83750E-15
 -1       278 1.36662E-02-3.74921E-03-8.33379E-15
 -1       279 1.38488E-02-3.84436E-03-8.73051E-15
 -1       280 1.40232E-02-3.92864E-03-9.14884E-15
 -1       281 1.41977E-02-4.01291E-03-9.56778E-15
 -1       282 1.43724E-02-4.09714E-03-9.99642E-15
 -1       283 1.45441E-02-4.17991E-03-1.04167E-14
 -1       284 1.47189E-02-4.26407E-03-1.08428E-14
 -1       285 1.48937E-02-4.34820E-03-1.12687E-14
 -1       286 1.50686E-02-4.43231E-03-1.16843E-14
 -1       287 1.52435E-02-4.51644E-03-1.20870E-14
 -1       288 1.54185E-02-4.60059E-03-1.24645E-14
 -1       289 1.55905E-02-4.68334E-03-1.28164E-14
 -1       290 1.57657E-02-4.76757E-03-1.31592E-14
 -1       291 1.59409E-02-4.85183E-03-1.34938E-14
 -1       292 1.61163E-02-4.93612E-03-1.38194E-14
 -1       293 1.62836E-02-5.02014E-03-1.41293E-14
 -1       294 1.01450E-02-1.06263E-03-2.48896E-15
 -1       295 9.90334E-03-9.36279E-04-2.28072E-15
 -1       296 9.56198E-03-7.80074E-04-2.06145E-15
 -1       297 9.11646E-03-5.89693E-04-1.81872E-15
 -1       298 8.69141E-03-3.49873E-04-1.58417E-15
 -1       299 8.23526E-03-1.48704E-04-1.36342E-15
 -1       300 7.82255E-03 9.57816E-06-1.19177E-15
 -1       301 7.41741E-03 8.86491E-05-1.05673E-15
 -1       302 7.02149E-03 8.46964E-05-9.61470E-16
 -1       303 6.62102E-03 1.27299E-06-9.30578E-16
 -1       304 6.23694E-03-1.27655E-04-9.27447E-16
 -1       305 5.86985E-03-2.64421E-04-9.77124E-16
 -1       306 5.56753E-03-3.92124E-04-1.04892E-15
 -1       307 5.34939E-03-5.05985E-04-1.14332E-15
 -1       308 5.25068E-03-6.02153E-04-1.26496E-15
 -1       309 5.29840E-03-7.04070E-04-1.40738E-15
 -1       310 5.49884E-03-8.60111E-04-1.56839E-15
 -1       311 5.83373E-03-1.05421E-03-1.73151E-15
 -1       312 6.26762E-03-1.32715E-03-1.90218E-15
 -1       313 6.72948E-03-1.64954E-03-2.06935E-15
 -1       314 7.22165E-03-1.96016E-03-2.24331E-15
 -1       315 7.66560E-03-2.18687E-03-2.39931E-15
 -1       316 8.10718E-03-2.27843E-03-2.55889E-15
 -1       317 8.53284E-03-2.19196E-03-2.66714E-15
 -1       318 8.94748E-03-2.00073E-03-2.78255E-15
 -1       319 9.38004E-03-1.76976E-03-2.82617E-15
 -1       320 9.74596E-03-1.55743E-03-2.84856E-15
 -1       321 1.00313E-02-1.37897E-03-2.83735E-15
 -1       322 1.02039E-02-1.25568E-03-2.75083E-15
 -1       323 1.02442E-02-1.15517E-03-2.63503E-15
 -1       324 8.38636E-03-2.32372E-03-2.93158E-15
 -1       325 4.55480E-04-1.63618E-04-3.24820E-17
 -1       326 4.74295E-04-2.11936E-04-4.14572E-17
 -1       327 4.40643E-04-9.30219E-05-1.47621E-17
 -1       328 4.37602E-04-6.41268E-05-5.94956E-18
 -1       329 4.35901E-04-3.74088E-05 2.21245E-18
 -1       330 4.35136E-04-1.18593E-05 1.03304E-17
 -1       331 4.35150E-04 1.33388E-05 1.83942E-17
 -1       332 4.35951E-04 3.89490E-05 2.69289E-17
 -1       333 4.37669E-04 6.53263E-05 3.61276E-17
 -1       334 4.40784E-04 9.43924E-05 4.62344E-17
 -1       335 4.46203E-04 1.27178E-04 5.71646E-17
 -1       336 4.56104E-04 1.66111E-04 6.88604E-17
 -1       337 4.75855E-04 2.15773E-04 8.02648E-17
 -1       338 5.31786E-04 2.68653E-04 9.49117E-17
 -1       339 8.24278E-04 3.71168E-04 1.85158E-16
 -1       340 8.48901E-04-3.50916E-04-9.70903E-17
 -1       341 1.13561E-03-4.19396E-04-1.48122E-16
 -1       342 1.41888E-03-4.67686E-04-2.05839E-16
 -1       343 1.68623E-03-4.99542E-04-2.66554E-16
 -1       344 1.96699E-03-5.21925E-04-3.36384E-16
 -1       345 2.24797E-03-5.35616E-04-4.12119E-16
 -1       346 2.52983E-03-5.42662E-04-4.94078E-16
 -1       347 2.81309E-03-5.44566E-04-5.81251E-16
 -1       348 3.09815E-03-5.42435E-04-6.72283E-16
 -1       349 3.38541E-03-5.37115E-04-7.67812E-16
 -1       350 3.66074E-03-5.29783E-04-8.61500E-16
 -1       351 3.95359E-03-5.20495E-04-9.66725E-16
 -1       352 4.25006E-03-5.10952E-04-1.07851E-15
 -1       353 4.55075E-03-5.03713E-04-1.19823E-15
 -1       354 4.85640E-03-5.03755E-04-1.32405E-15
 -1       355 5.16828E-03-5.20530E-04-1.45382E-15
 -1       356 5.48961E-03-5.71180E-04-1.58598E-15
 -1       357 5.81115E-03-6.77363E-04-1.71472E-15
 -1       358 6.18410E-03-8.92405E-04-1.86078E-15
 -1       359 6.57052E-03-1.21988E-03-2.00442E-15
 -1       360 9.29338E-03-8.12761E-04-1.99533E-15
 -1       361 9.63108E-03-1.55514E-03-3.57335E-15
 -1       362 1.00354E-02-1.46907E-03-3.95669E-15
 -1       363 1.03816E-02-1.50244E-03-4.32798E-15
 -1       364 1.07222E-02-1.61220E-03-4.72917E-15
 -1       365 1.10482E-02-1.76423E-03-5.13919E-15
 -1       366 1.13642E-02-1.93747E-03-5.55530E-15
 -1       367 1.16728E-02-2.12028E-03-5.98833E-15
 -1       368 1.19756E-02-2.30666E-03-6.43427E-15
 -1       369 1.22740E-02-2.49373E-03-6.89215E-15
 -1       370 1.25542E-02-2.67091E-03-7.32636E-15
 -1       371 1.28467E-02-2.85637E-03-7.78725E-15
 -1       372 1.31372E-02-3.04065E-03-8.25918E-15
 -1       373 1.34263E-02-3.22381E-03-8.74104E-15
 -1       374 1.37143E-02-3.40598E-03-9.23880E-15
 -1       375 1.40016E-02-3.58730E-03-9.74809E-15
 -1       376 1.42884E-02-3.76792E-03-1.02644E-14
 -1       377 1.45604E-02-3.93896E-03-1.07620E-14
 -1       378 1.48466E-02-4.11854E-03-1.13036E-14
 -1       379 1.51325E-02-4.29774E-03-1.18544E-14
 -1       380 1.54184E-02-4.47664E-03-1.24166E-14
 -1       381 1.57042E-02-4.65532E-03-1.29872E-14
 -1       382 1.59899E-02-4.83384E-03-1.35568E-14
 -1       383 1.27190E-03 4.56861E-04 3.60890E-16
 -1       384 1.55325E-03 4.98229E-04 4.89382E-16
 -1       385 1.83329E-03 5.26667E-04 6.24487E-16
 -1       386 2.11315E-03 5.45559E-04 7.63654E-16
 -1       387 2.39355E-03 5.57491E-04 9.02022E-16
 -1       388 2.67495E-03 5.64494E-04 1.03665E-15
 -1       389 2.95760E-03 5.68219E-04 1.16441E-15
 -1       390 3.24164E-03 5.70068E-04 1.28333E-15
 -1       391 3.52706E-03 5.71276E-04 1.39178E-15
 -1       392 3.81373E-03 5.72960E-04 1.48848E-15
 -1       393 4.10141E-03 5.76105E-04 1.57284E-15
 -1       394 4.38965E-03 5.81483E-04 1.63822E-15
 -1       395 4.67778E-03 5.89465E-04 1.68516E-15
 -1       396 4.96491E-03 5.99739E-04 1.71252E-15
 -1       397 5.24987E-03 6.10933E-04 1.72084E-15
 -1       398 5.53138E-03 6.20255E-04 1.70968E-15
 -1       399 5.80824E-03 6.23283E-04 1.67390E-15
 -1       400 6.07970E-03 6.14131E-04 1.61141E-15
 -1       401 6.34584E-03 5.86175E-04 1.51912E-15
 -1       402 6.60782E-03 5.33325E-04 1.40363E-15
 -1       403 6.86783E-03 4.51530E-04 1.26246E-15
 -1       404 7.12858E-03 3.39919E-04 1.09289E-15
 -1       405 7.39259E-03 2.01053E-04 8.90421E-16
 -1       406 7.66158E-03 4.01697E-05 6.54319E-16
 -1       407 7.93618E-03-1.36208E-04 3.92278E-16
 -1       408 8.21603E-03-3.21720E-04 1.03277E-16
 -1       409 8.50014E-03-5.11169E-04-2.12981E-16
 -1       410 8.78730E-03-7.00947E-04-5.53187E-16
 -1       411 9.07634E-03-8.88969E-04-9.19600E-16
 -1       412 9.36630E-03-1.07435E-03-1.31009E-15
 -1       413 9.65650E-03-1.25700E-03-1.72268E-15
 -1       414 9.94646E-03-1.43728E-03-2.15714E-15
 -1       415 1.02360E-02-1.61573E-03-2.60898E-15
 -1       416 1.05248E-02-1.79291E-03-3.07727E-15
 -1       417 1.08131E-02-1.96932E-03-3.55505E-15
 -1       418 1.11009E-02-2.14533E-03-4.03523E-15
 -1       419 1.13881E-02-2.32123E-03-4.51980E-15
 -1       420 1.16749E-02-2.49720E-03-5.01087E-15
 -1       421 1.19614E-02-2.67335E-03-5.49977E-15
 -1       422 1.22476E-02-2.84972E-03-5.99300E-15
 -1       423 1.25337E-02-3.02634E-03-6.47945E-15
 -1       424 1.28196E-02-3.20318E-03-6.96262E-15
 -1       425 1.31054E-02-3.38022E-03-7.44610E-15
 -1       426 1.33912E-02-3.55743E-03-7.93990E-15
 -1       427 1.36200E-02-3.70087E-03-8.33680E-15
 -1       428 1.40376E-02-3.90134E-03-9.32474E-15
 -1       429 1.38630E-02-3.81713E-03-8.90812E-15
 -1       430 1.42094E-02-3.98406E-03-9.73414E-15
 -1       431 1.43841E-02-4.06817E-03-1.01474E-14
 -1       432 1.45589E-02-4.15223E-03-1.05587E-14
 -1       433 1.47338E-02-4.23626E-03-1.09705E-14
 -1       434 1.49087E-02-4.32029E-03-1.13769E-14
 -1       435 1.50836E-02-4.40433E-03-1.17664E-14
 -1       436 1.52556E-02-4.48697E-03-1.21279E-14
 -1       437 1.54307E-02-4.57109E-03-1.24721E-14
 -1       438 1.56059E-02-4.65527E-03-1.28104E-14
 -1       439 1.57812E-02-4.73949E-03-1.31518E-14
 -1       440 1.04890E-03 4.21479E-04 2.69224E-16
 -1       441 9.69879E-03-9.80776E-04-2.26169E-15
 -1       442 8.74794E-03-5.25884E-04-1.65495E-15
 -1       443 1.02382E-02-1.16400E-03-2.76517E-15
 -1       444 4.45914E-04-1.25382E-04-2.35848E-17
 -1       445 9.19155E-03-1.78857E-03-3.22559E-15
 -1       446 8.36860E-03-3.04600E-04-1.42430E-15
 -1       447 7.89237E-03-4.42620E-05-1.14429E-15
 -1       448 7.59571E-03 8.09256E-05-1.00298E-15
 -1       449 7.21987E-03 1.31291E-04-8.77757E-16
 -1       450 6.83961E-03 6.62929E-05-7.90661E-16
 -1       451 6.49039E-03-6.26687E-05-7.78118E-16
 -1       452 6.08289E-03-2.36394E-04-8.22394E-16
 -1       453 5.73846E-03-3.78204E-04-8.80470E-16
 -1       454 5.48518E-03-4.71097E-04-9.76344E-16
 -1       455 5.26939E-03-5.54517E-04-1.13128E-15
 -1       456 5.23722E-03-5.98723E-04-1.26855E-15
 -1       457 5.40569E-03-6.81949E-04-1.46355E-15
 -1       458 5.69009E-03-8.23955E-04-1.63431E-15
 -1       459 6.13979E-03-1.05071E-03-1.82717E-15
 -1       460 6.65988E-03-1.39008E-03-2.03018E-15
 -1       461 7.06159E-03-1.71282E-03-2.18930E-15
 -1       462 7.56165E-03-2.11302E-03-2.39744E-15
 -1       463 7.90396E-03-2.28937E-03-2.55315E-15
 -1       464 8.33998E-03-2.29411E-03-2.76486E-15
 -1       465 8.66116E-03-2.14046E-03-2.88502E-15
 -1       466 9.13227E-03-1.83920E-03-2.99390E-15
 -1       467 9.51450E-03-1.60363E-03-3.03235E-15
 -1       468 9.85992E-03-1.40656E-03-3.07357E-15
 -1       469 1.01415E-02-1.27084E-03-3.02988E-15
 -1       470 1.02570E-02-1.20422E-03-2.89063E-15
 -1       471 1.00263E-02-1.09173E-03-2.51271E-15
 -1       472 1.58855E-02-4.78666E-03-1.33556E-14
 -1       473 6.65815E-04-7.41090E-05-2.45640E-18
 -1       474 6.69937E-04-1.14441E-04-1.80926E-17
 -1       475 6.62955E-04 1.05136E-06 2.85315E-17
 -1       476 6.63692E-04 3.81602E-05 4.43642E-17
 -1       477 6.65916E-04 7.57250E-05 6.09288E-17
 -1       478 6.70133E-04 1.16232E-04 7.88554E-17
 -1       479 6.77256E-04 1.60565E-04 9.81643E-17
 -1       480 6.89158E-04 2.10769E-04 1.18686E-16
 -1       481 7.09904E-04 2.69740E-04 1.39330E-16
 -1       482 7.63515E-04 3.18337E-04 1.61458E-16
 -1       483 9.62399E-04-3.22364E-04-1.00004E-16
 -1       484 9.96989E-03-1.39818E-03-3.59113E-15
 -1       485 7.05883E-04-2.47900E-04-6.21722E-17
 -1       486 8.97522E-03-7.34211E-04-1.82858E-15
 -1       487 1.24854E-03-3.76570E-04-1.44856E-16
 -1       488 1.51972E-03-4.13494E-04-1.92490E-16
 -1       489 1.80442E-03-4.40264E-04-2.47740E-16
 -1       490 2.08869E-03-4.57431E-04-3.09035E-16
 -1       491 2.37290E-03-4.67238E-04-3.75120E-16
 -1       492 2.65733E-03-4.71396E-04-4.46640E-16
 -1       493 2.94215E-03-4.71203E-04-5.23006E-16
 -1       494 3.22740E-03-4.67666E-04-6.04378E-16
 -1       495 3.49867E-03-4.61996E-04-6.87167E-16
 -1       496 3.78416E-03-4.54447E-04-7.80402E-16
 -1       497 4.06890E-03-4.46452E-04-8.79102E-16
 -1       498 4.35167E-03-4.39929E-04-9.84672E-16
 -1       499 4.63067E-03-4.38186E-04-1.09809E-15
 -1       500 4.90359E-03-4.46905E-04-1.21838E-15
 -1       501 5.16854E-03-4.75506E-04-1.34273E-15
 -1       502 5.41408E-03-5.34738E-04-1.46583E-15
 -1       503 5.67518E-03-6.57249E-04-1.60318E-15
 -1       504 8.49831E-03-4.51350E-04-1.49328E-15
 -1       505 9.49700E-03-9.89044E-04-2.21845E-15
 -1       506 1.02994E-02-1.39073E-03-3.91342E-15
 -1       507 1.05815E-02-1.48586E-03-4.30176E-15
 -1       508 1.08616E-02-1.62614E-03-4.69862E-15
 -1       509 1.11450E-02-1.79121E-03-5.10518E-15
 -1       510 1.14316E-02-1.96905E-03-5.52331E-15
 -1       511 1.17201E-02-2.15276E-03-5.95760E-15
 -1       512 1.20095E-02-2.33862E-03-6.40461E-15
 -1       513 1.22844E-02-2.51543E-03-6.83805E-15
 -1       514 1.25733E-02-2.70095E-03-7.29994E-15
 -1       515 1.28618E-02-2.88551E-03-7.77192E-15
 -1       516 1.31497E-02-3.06903E-03-8.24920E-15
 -1       517 1.34371E-02-3.25156E-03-8.73810E-15
 -1       518 1.37240E-02-3.43322E-03-9.24326E-15
 -1       519 1.40106E-02-3.61413E-03-9.75363E-15
 -1       520 1.42827E-02-3.78541E-03-1.02476E-14
 -1       521 1.45688E-02-3.96519E-03-1.07746E-14
 -1       522 1.48548E-02-4.14455E-03-1.13159E-14
 -1       523 1.51407E-02-4.32358E-03-1.18708E-14
 -1       524 1.54265E-02-4.50234E-03-1.24376E-14
 -1       525 1.56560E-02-4.64454E-03-1.28952E-14
 -1       526 1.95249E-03 4.64901E-04 6.16914E-16
 -1       527 1.66860E-03 4.42339E-04 4.94904E-16
 -1       528 1.38405E-03 4.09064E-04 3.77451E-16
 -1       529 2.23618E-03 4.79461E-04 7.40449E-16
 -1       530 2.52008E-03 4.88200E-04 8.62490E-16
 -1       531 2.80451E-03 4.92884E-04 9.78391E-16
 -1       532 3.08973E-03 4.94985E-04 1.08741E-15
 -1       533 3.37592E-03 4.95783E-04 1.18608E-15
 -1       534 3.66326E-03 4.96431E-04 1.27352E-15
 -1       535 3.95183E-03 4.97993E-04 1.34801E-15
 -1       536 4.24169E-03 5.01415E-04 1.40875E-15
 -1       537 4.53272E-03 5.07421E-04 1.45201E-15
 -1       538 4.82460E-03 5.16291E-04 1.47663E-15
 -1       539 5.11669E-03 5.27521E-04 1.48267E-15
 -1       540 5.40794E-03 5.39372E-04 1.46909E-15
 -1       541 5.69697E-03 5.48426E-04 1.43575E-15
 -1       542 5.98233E-03 5.49360E-04 1.37689E-15
 -1       543 6.26303E-03 5.35230E-04 1.29101E-15
 -1       544 6.53911E-03 4.98548E-04 1.18138E-15
 -1       545 6.81197E-03 4.33079E-04 1.04731E-15
 -1       546 7.08416E-03 3.35725E-04 8.85776E-16
 -1       547 7.35847E-03 2.07564E-04 6.95638E-16
 -1       548 7.63692E-03 5.34636E-05 4.71953E-16
 -1       549 7.92024E-03-1.19487E-04 2.18084E-16
 -1       550 8.20790E-03-3.03914E-04-6.00580E-17
 -1       551 8.49860E-03-4.93625E-04-3.65644E-16
 -1       552 8.79092E-03-6.84260E-04-7.00063E-16
 -1       553 9.08367E-03-8.73270E-04-1.05922E-15
 -1       554 9.37604E-03-1.05953E-03-1.44196E-15
 -1       555 9.66761E-03-1.24286E-03-1.84660E-15
 -1       556 9.95822E-03-1.42359E-03-2.27056E-15
 -1       557 1.02479E-02-1.60230E-03-2.71506E-15
 -1       558 1.05367E-02-1.77959E-03-3.17503E-15
 -1       559 1.08247E-02-1.95599E-03-3.64669E-15
 -1       560 1.11122E-02-2.13191E-03-4.12657E-15
 -1       561 1.13992E-02-2.30768E-03-4.61326E-15
 -1       562 1.16859E-02-2.48349E-03-5.10332E-15
 -1       563 1.19722E-02-2.65948E-03-5.59295E-15
 -1       564 1.22584E-02-2.83571E-03-6.08555E-15
 -1       565 1.25444E-02-3.01218E-03-6.57495E-15
 -1       566 1.28303E-02-3.18891E-03-7.06089E-15
 -1       567 1.31162E-02-3.36586E-03-7.54863E-15
 -1       568 1.34020E-02-3.54300E-03-8.04319E-15
 -1       569 1.40494E-02-3.87240E-03-9.47371E-15
 -1       570 1.38776E-02-3.78977E-03-9.07501E-15
 -1       571 1.37029E-02-3.70565E-03-8.66793E-15
 -1       572 1.01758E-02-1.19111E-03-2.81104E-15
 -1       573 1.42242E-02-3.95639E-03-9.87500E-15
 -1       574 1.43991E-02-4.04032E-03-1.02759E-14
 -1       575 1.45739E-02-4.12423E-03-1.06744E-14
 -1       576 1.47488E-02-4.20814E-03-1.10645E-14
 -1       577 1.49208E-02-4.29065E-03-1.14332E-14
 -1       578 1.50958E-02-4.37464E-03-1.17862E-14
 -1       579 1.52708E-02-4.45870E-03-1.21311E-14
 -1       580 1.54461E-02-4.54284E-03-1.24767E-14
 -1       581 8.08408E-03-1.90125E-04-1.20837E-15
 -1       582 1.02568E-02-1.24365E-03-3.17794E-15
 -1       583 5.90096E-03-2.99760E-04-7.12907E-16
 -1       584 6.63624E-04-3.60136E-05 1.29359E-17
 -1       585 1.02984E-02-1.21970E-03-3.04987E-15
 -1       586 7.01620E-03 1.35565E-04-6.65395E-16
 -1       587 7.65755E-03 4.15585E-05-9.20379E-16
 -1       588 5.20418E-03-5.34448E-04-1.10173E-15
 -1       589 7.34626E-03 1.40575E-04-7.78728E-16
 -1       590 6.63768E-03 2.66943E-05-5.96155E-16
 -1       591 6.25658E-03-1.43236E-04-6.38934E-16
 -1       592 5.55780E-03-4.23269E-04-8.04720E-16
 -1       593 5.32417E-03-4.98973E-04-9.46746E-16
 -1       594 5.27555E-03-5.69729E-04-1.31594E-15
 -1       595 5.55980E-03-6.66761E-04-1.53930E-15
 -1       596 9.68251E-03-1.48831E-03-3.27412E-15
 -1       597 1.00426E-02-1.32611E-03-3.31879E-15
 -1       598 9.88561E-03-1.11999E-03-2.52200E-15
 -1       599 6.76872E-04-1.58315E-04-3.44031E-17
 -1       600 9.90593E-04 3.69819E-04 2.37986E-16
 -1       601 6.01426E-03-9.01229E-04-1.76911E-15
 -1       602 1.18716E-03 3.94352E-04 3.07514E-16
 -1       603 6.88673E-04-2.00145E-04-4.81657E-17
 -1       604 8.99340E-04 7.28460E-05 8.42628E-17
 -1       605 8.97149E-04 2.46700E-05 5.82250E-17
 -1       606 9.11835E-04 1.75814E-04 1.40286E-16
 -1       607 9.24401E-04 2.33979E-04 1.70989E-16
 -1       608 9.36894E-04 3.20628E-04 2.08556E-16
 -1       609 1.02190E-02-1.31263E-03-3.53269E-15
 -1       610 9.40215E-04-2.64958E-04-7.86521E-17
 -1       611 9.03738E-04-1.20401E-04-1.50298E-17
 -1       612 1.22503E-03-3.13714E-04-1.14170E-16
 -1       613 1.49679E-03-3.47725E-04-1.52385E-16
 -1       614 1.78308E-03-3.72767E-04-1.96410E-16
 -1       615 2.06922E-03-3.89018E-04-2.45701E-16
 -1       616 2.35506E-03-3.98449E-04-2.99233E-16
 -1       617 2.64050E-03-4.02663E-04-3.57733E-16
 -1       618 2.92540E-03-4.02948E-04-4.22842E-16
 -1       619 3.20942E-03-4.00379E-04-4.93065E-16
 -1       620 3.47788E-03-3.96195E-04-5.66109E-16
 -1       621 3.75810E-03-3.90998E-04-6.50074E-16
 -1       622 4.03433E-03-3.86392E-04-7.39033E-16
 -1       623 4.30419E-03-3.84461E-04-8.35069E-16
 -1       624 4.56419E-03-3.88371E-04-9.39380E-16
 -1       625 4.80963E-03-4.02804E-04-1.05041E-15
 -1       626 5.03469E-03-4.34274E-04-1.16861E-15
 -1       627 5.22428E-03-4.88889E-04-1.28779E-15
 -1       628 1.42393E-02-3.92832E-03-9.99526E-15
 -1       629 1.37161E-02-3.67750E-03-8.82178E-15
 -1       630 1.04773E-02-1.38594E-03-3.90411E-15
 -1       631 1.07041E-02-1.50669E-03-4.25670E-15
 -1       632 1.09464E-02-1.65886E-03-4.65153E-15
 -1       633 1.12042E-02-1.82679E-03-5.05654E-15
 -1       634 1.14730E-02-2.00370E-03-5.47934E-15
 -1       635 1.17491E-02-2.18527E-03-5.91304E-15
 -1       636 1.20155E-02-2.35964E-03-6.33825E-15
 -1       637 1.22986E-02-2.54373E-03-6.80118E-15
 -1       638 1.25833E-02-2.72758E-03-7.27068E-15
 -1       639 1.28687E-02-2.91082E-03-7.74534E-15
 -1       640 1.31546E-02-3.09332E-03-8.22861E-15
 -1       641 1.34406E-02-3.27505E-03-8.72784E-15
 -1       642 1.37266E-02-3.45610E-03-9.23374E-15
 -1       643 1.39983E-02-3.62752E-03-9.71514E-15
 -1       644 1.42843E-02-3.80745E-03-1.02396E-14
 -1       645 1.45702E-02-3.98694E-03-1.07739E-14
 -1       646 1.48560E-02-4.16607E-03-1.13130E-14
 -1       647 1.51418E-02-4.34492E-03-1.18709E-14
 -1       648 1.79045E-03 3.83529E-04 4.87508E-16
 -1       649 2.07658E-03 4.00595E-04 5.95610E-16
 -1       650 1.50423E-03 3.57868E-04 3.81233E-16
 -1       651 2.64886E-03 4.17041E-04 8.07809E-16
 -1       652 2.93539E-03 4.19653E-04 9.05675E-16
 -1       653 3.22250E-03 4.20269E-04 9.95016E-16
 -1       654 3.51052E-03 4.20009E-04 1.07244E-15
 -1       655 3.79981E-03 4.19919E-04 1.13829E-15
 -1       656 4.09079E-03 4.21001E-04 1.19269E-15
 -1       657 4.38385E-03 4.24198E-04 1.23237E-15
 -1       658 4.67929E-03 4.30276E-04 1.25242E-15
 -1       659 4.97707E-03 4.39580E-04 1.25450E-15
 -1       660 5.27662E-03 4.51610E-04 1.23817E-15
 -1       661 5.57667E-03 4.64403E-04 1.20360E-15
 -1       662 5.87526E-03 4.73873E-04 1.14807E-15
 -1       663 6.17023E-03 4.73442E-04 1.06722E-15
 -1       664 6.46010E-03 4.54453E-04 9.63151E-16
 -1       665 6.74511E-03 4.07967E-04 8.34792E-16
 -1       666 7.02757E-03 3.27569E-04 6.81601E-16
 -1       667 7.31094E-03 2.11852E-04 5.01467E-16
 -1       668 7.59829E-03 6.49769E-05 2.91318E-16
 -1       669 7.89089E-03-1.05035E-04 4.82877E-17
 -1       670 8.18800E-03-2.89107E-04-2.23095E-16
 -1       671 8.48768E-03-4.79532E-04-5.20309E-16
 -1       672 8.78778E-03-6.71004E-04-8.43906E-16
 -1       673 9.08667E-03-8.60580E-04-1.19505E-15
 -1       674 9.38346E-03-1.04708E-03-1.57097E-15
 -1       675 9.67790E-03-1.23039E-03-1.97081E-15
 -1       676 9.97015E-03-1.41098E-03-2.38643E-15
 -1       677 1.02605E-02-1.58947E-03-2.82231E-15
 -1       678 1.05495E-02-1.76653E-03-3.27333E-15
 -1       679 1.08374E-02-1.94270E-03-3.73831E-15
 -1       680 1.11246E-02-2.11842E-03-4.21445E-15
 -1       681 1.14113E-02-2.29400E-03-4.70291E-15
 -1       682 1.16976E-02-2.46965E-03-5.19428E-15
 -1       683 1.19837E-02-2.64549E-03-5.68460E-15
 -1       684 1.22697E-02-2.82158E-03-6.17472E-15
 -1       685 1.25555E-02-2.99795E-03-6.66528E-15
 -1       686 1.28413E-02-3.17458E-03-7.15620E-15
 -1       687 1.31271E-02-3.35146E-03-7.64790E-15
 -1       688 1.34150E-02-3.52847E-03-8.15396E-15
 -1       689 1.40644E-02-3.84454E-03-9.60831E-15
 -1       690 5.67558E-03-3.29594E-04-6.15166E-16
 -1       691 1.35655E-02-3.60301E-03-8.48773E-15
 -1       692 1.38902E-02-3.76106E-03-9.21853E-15
 -1       693 2.36266E-03 4.11179E-04 7.03590E-16
 -1       694 1.44141E-02-4.01207E-03-1.03803E-14
 -1       695 1.45861E-02-4.09441E-03-1.07472E-14
 -1       696 1.47610E-02-4.17823E-03-1.11081E-14
 -1       697 1.49359E-02-4.26214E-03-1.14580E-14
 -1       698 1.51110E-02-4.34615E-03-1.18070E-14
 -1       699 1.00934E-02-1.22074E-03-2.83595E-15
 -1       700 5.19291E-03-4.78765E-04-9.25566E-16
 -1       701 5.33945E-03-4.26093E-04-7.47029E-16
 -1       702 8.70048E-03-6.20071E-04-1.61522E-15
 -1       703 9.75562E-03-1.13024E-03-2.50888E-15
 -1       704 6.35969E-03-3.22018E-05-4.35565E-16
 -1       705 5.15328E-03-4.97329E-04-1.13032E-15
 -1       706 6.78383E-03 1.27866E-04-4.23605E-16
 -1       707 7.13625E-03 1.67897E-04-5.51615E-16
 -1       708 1.03212E-02-1.26547E-03-3.16834E-15
 -1       709 5.36611E-03-5.56470E-04-1.39776E-15
 -1       710 7.42008E-03 1.20931E-04-6.61648E-16
 -1       711 1.03493E-02-1.27225E-03-3.35941E-15
 -1       712 5.99418E-03-1.96374E-04-5.09656E-16
 -1       713 7.84807E-03-7.96145E-05-9.61030E-16
 -1       714 9.03987E-04 1.22705E-04 1.11429E-16
 -1       715 8.25158E-03-3.34155E-04-1.26705E-15
 -1       716 9.22919E-03-9.12846E-04-2.04913E-15
 -1       717 8.97110E-04-2.28552E-05 3.34476E-17
 -1       718 9.11405E-04-1.73255E-04-3.96073E-17
 -1       719 1.21821E-03 3.21224E-04 2.81140E-16
 -1       720 7.60299E-03 3.89398E-05-6.87052E-16
 -1       721 8.99206E-04-7.07302E-05 9.32753E-18
 -1       722 1.16161E-03 2.40056E-04 2.21204E-16
 -1       723 5.71276E-03-2.20229E-04-3.95154E-16
 -1       724 9.23992E-04-2.17257E-04-5.89094E-17
 -1       725 6.47229E-03 9.49267E-05-2.20879E-16
 -1       726 1.34404E-03-2.67754E-04-9.57452E-17
 -1       727 1.63019E-03-2.94052E-04-1.26679E-16
 -1       728 1.91709E-03-3.12052E-04-1.61458E-16
 -1       729 2.20399E-03-3.23413E-04-1.99419E-16
 -1       730 2.49035E-03-3.29657E-04-2.41438E-16
 -1       731 2.77572E-03-3.32105E-04-2.89817E-16
 -1       732 3.05953E-03-3.31926E-04-3.45708E-16
 -1       733 3.32701E-03-3.30332E-04-4.05641E-16
 -1       734 3.60524E-03-3.28315E-04-4.75040E-16
 -1       735 3.87839E-03-3.27398E-04-5.50395E-16
 -1       736 4.14404E-03-3.29561E-04-6.32534E-16
 -1       737 4.39867E-03-3.37531E-04-7.23068E-16
 -1       738 4.63736E-03-3.54951E-04-8.21127E-16
 -1       739 4.85322E-03-3.86338E-04-9.27603E-16
 -1       740 5.02839E-03-4.33379E-04-1.03841E-15
 -1       741 1.42529E-02-3.89902E-03-1.00828E-14
 -1       742 1.34371E-03 2.76215E-04 2.83780E-16
 -1       743 1.09798E-02-1.69771E-03-4.57255E-15
 -1       744 1.12264E-02-1.86299E-03-4.98247E-15
 -1       745 1.14866E-02-2.03625E-03-5.40700E-15
 -1       746 1.17424E-02-2.20522E-03-5.82166E-15
 -1       747 1.20176E-02-2.38558E-03-6.27899E-15
 -1       748 1.22968E-02-2.56709E-03-6.74592E-15
 -1       749 1.25786E-02-2.74892E-03-7.22053E-15
 -1       750 1.28620E-02-2.93059E-03-7.69804E-15
 -1       751 1.31463E-02-3.11188E-03-8.19014E-15
 -1       752 1.34312E-02-3.29270E-03-8.68912E-15
 -1       753 1.37022E-02-3.46404E-03-9.16640E-15
 -1       754 1.39877E-02-3.64395E-03-9.67852E-15
 -1       755 1.42733E-02-3.82346E-03-1.02031E-14
 -1       756 1.45590E-02-4.00263E-03-1.07381E-14
 -1       757 1.48350E-02-4.17449E-03-1.12678E-14
 -1       758 1.44278E-02-3.98262E-03-1.04497E-14
 -1       759 5.41371E-03-3.26302E-04-5.22748E-16
 -1       760 1.91717E-03 3.22038E-04 4.66990E-16
 -1       761 1.63002E-03 3.03327E-04 3.73758E-16
 -1       762 3.06762E-03 3.44975E-04 8.18095E-16
 -1       763 2.77975E-03 3.44313E-04 7.38992E-16
 -1       764 3.64558E-03 3.42484E-04 9.42998E-16
 -1       765 3.93680E-03 3.41177E-04 9.89917E-16
 -1       766 4.23052E-03 3.41102E-04 1.02289E-15
 -1       767 4.52759E-03 3.43287E-04 1.03901E-15
 -1       768 4.82872E-03 3.48737E-04 1.03776E-15
 -1       769 5.13416E-03 3.58156E-04 1.01916E-15
 -1       770 5.44329E-03 3.71367E-04 9.81626E-16
 -1       771 5.75422E-03 3.86358E-04 9.25773E-16
 -1       772 6.06394E-03 3.98119E-04 8.48361E-16
 -1       773 6.36908E-03 3.97946E-04 7.49001E-16
 -1       774 6.66775E-03 3.74080E-04 6.25940E-16
 -1       775 6.96107E-03 3.15327E-04 4.81437E-16
 -1       776 7.25314E-03 2.15649E-04 3.11180E-16
 -1       777 7.54877E-03 7.71798E-05 1.10138E-16
 -1       778 7.85074E-03-9.08575E-05-1.21119E-16
 -1       779 8.15850E-03-2.76427E-04-3.82879E-16
 -1       780 8.46910E-03-4.69157E-04-6.70969E-16
 -1       781 8.77922E-03-6.62220E-04-9.86800E-16
 -1       782 9.08633E-03-8.52275E-04-1.32848E-15
 -1       783 9.38923E-03-1.03836E-03-1.69746E-15
 -1       784 9.68777E-03-1.22078E-03-2.09040E-15
 -1       785 9.98246E-03-1.40032E-03-2.50105E-15
 -1       786 1.02741E-02-1.57784E-03-2.93085E-15
 -1       787 1.05635E-02-1.75409E-03-3.37509E-15
 -1       788 1.08513E-02-1.92964E-03-3.83277E-15
 -1       789 1.11381E-02-2.10491E-03-4.30372E-15
 -1       790 1.14243E-02-2.28017E-03-4.78839E-15
 -1       791 1.17101E-02-2.45559E-03-5.28096E-15
 -1       792 1.19958E-02-2.63128E-03-5.77143E-15
 -1       793 1.22814E-02-2.80726E-03-6.26039E-15
 -1       794 1.25670E-02-2.98355E-03-6.75246E-15
 -1       795 1.28526E-02-3.16012E-03-7.24391E-15
 -1       796 1.31382E-02-3.33695E-03-7.74364E-15
 -1       797 1.33519E-02-3.46993E-03-8.11451E-15
 -1       798 1.39047E-02-3.73259E-03-9.33434E-15
 -1       799 1.46026E-02-4.06632E-03-1.08037E-14
 -1       800 5.13014E-03-4.04937E-04-7.30752E-16
 -1       801 1.00219E-02-1.24620E-03-2.85247E-15
 -1       802 1.40788E-02-3.81581E-03-9.70809E-15
 -1       803 9.56448E-03-1.08772E-03-2.38124E-15
 -1       804 5.06961E-03-4.43033E-04-9.31211E-16
 -1       805 1.04504E-02-1.33716E-03-3.55566E-15
 -1       806 5.25079E-03-5.10991E-04-1.29489E-15
 -1       807 8.95667E-03-7.88325E-04-1.80088E-15
 -1       808 3.35607E-03 3.44056E-04 8.85905E-16
 -1       809 1.07531E-02-1.54463E-03-4.17818E-15
 -1       810 1.03122E-02-1.32110E-03-3.24115E-15
 -1       811 7.19736E-03 1.76583E-04-4.09632E-16
 -1       812 8.44339E-03-4.79237E-04-1.34463E-15
 -1       813 1.13729E-03 5.77708E-05 1.02366E-16
 -1       814 6.88044E-03 1.87796E-04-2.77081E-16
 -1       815 1.05477E-02-1.40242E-03-3.80284E-15
 -1       816 6.05997E-03-7.19537E-05-2.82997E-16
 -1       817 1.13320E-03-2.45920E-04-7.67276E-17
 -1       818 8.05517E-03-2.27915E-04-1.02177E-15
 -1       819 7.80547E-03-8.06136E-05-7.34357E-16
 -1       820 2.49213E-03 3.41069E-04 6.52483E-16
 -1       821 1.14901E-03-1.73206E-04-3.80386E-17
 -1       822 6.57895E-03 1.81520E-04-6.93483E-17
 -1       823 1.35559E-02-3.56575E-03-8.57553E-15
 -1       824 5.15691E-03-3.27301E-04-5.12933E-16
 -1       825 2.20461E-03 3.34095E-04 5.60367E-16
 -1       826 9.30975E-03-9.81202E-04-2.12216E-15
 -1       827 1.37301E-02-3.64914E-03-8.95682E-15
 -1       828 1.14948E-03 1.76106E-04 1.79808E-16
 -1       829 7.37344E-03 1.31765E-04-4.21111E-16
 -1       830 1.14165E-03 1.15580E-04 1.40208E-16
 -1       831 1.14139E-03-1.13216E-04-3.20517E-18
 -1       832 1.13584E-03 9.91007E-07 6.59703E-17
 -1       833 8.21897E-03-3.41167E-04-1.03997E-15
 -1       834 1.32948E-03 2.06659E-04 2.32914E-16
 -1       835 1.76037E-03-2.36493E-04-8.85420E-17
 -1       836 2.04749E-03-2.48796E-04-1.12225E-16
 -1       837 2.33451E-03-2.56431E-04-1.38148E-16
 -1       838 2.62064E-03-2.60608E-04-1.69115E-16
 -1       839 2.90515E-03-2.62469E-04-2.08218E-16
 -1       840 3.17319E-03-2.63117E-04-2.53493E-16
 -1       841 3.45196E-03-2.63802E-04-3.08002E-16
 -1       842 3.72589E-03-2.65922E-04-3.67880E-16
 -1       843 3.99304E-03-2.71344E-04-4.35961E-16
 -1       844 4.25079E-03-2.82506E-04-5.11767E-16
 -1       845 4.49558E-03-3.02495E-04-5.95813E-16
 -1       846 4.72269E-03-3.34736E-04-6.89881E-16
 -1       847 4.91206E-03-3.81883E-04-8.05461E-16
 -1       848 6.12685E-03 7.19287E-05-2.17891E-17
 -1       849 1.02616E-02-1.35399E-03-3.22861E-15
 -1       850 1.40933E-02-3.78645E-03-9.79120E-15
 -1       851 1.12249E-02-1.89769E-03-4.90210E-15
 -1       852 1.14714E-02-2.05884E-03-5.31075E-15
 -1       853 1.17392E-02-2.23336E-03-5.75786E-15
 -1       854 1.20129E-02-2.41090E-03-6.21821E-15
 -1       855 1.22907E-02-2.59008E-03-6.68856E-15
 -1       856 1.25712E-02-2.77004E-03-7.16633E-15
 -1       857 1.28535E-02-2.95024E-03-7.65192E-15
 -1       858 1.31370E-02-3.13038E-03-8.14807E-15
 -1       859 1.34070E-02-3.30131E-03-8.61404E-15
 -1       860 1.36918E-02-3.48097E-03-9.11491E-15
 -1       861 1.39769E-02-3.66034E-03-9.63303E-15
 -1       862 1.42623E-02-3.83943E-03-1.01603E-14
 -1       863 1.44325E-02-3.95297E-03-1.04772E-14
 -1       864 1.07466E-02-1.58487E-03-4.09003E-15
 -1       865 2.91248E-03 2.70237E-04 6.55187E-16
 -1       866 4.07352E-03 2.59681E-04 8.26443E-16
 -1       867 3.78069E-03 2.62949E-04 8.00077E-16
 -1       868 4.67134E-03 2.57631E-04 8.32125E-16
 -1       869 4.97903E-03 2.61677E-04 8.10367E-16
 -1       870 5.29360E-03 2.71171E-04 7.71732E-16
 -1       871 5.61431E-03 2.86725E-04 7.13598E-16
 -1       872 5.93832E-03 3.06479E-04 6.36257E-16
 -1       873 6.26066E-03 3.23933E-04 5.40109E-16
 -1       874 6.57672E-03 3.26069E-04 4.23167E-16
 -1       875 6.88417E-03 2.96021E-04 2.85084E-16
 -1       876 7.18659E-03 2.19193E-04 1.23125E-16
 -1       877 7.49051E-03 9.26532E-05-6.89180E-17
 -1       878 7.80194E-03-7.38189E-05-2.90254E-16
 -1       879 8.12172E-03-2.63940E-04-5.42555E-16
 -1       880 8.44528E-03-4.62034E-04-8.22472E-16
 -1       881 8.76766E-03-6.58530E-04-1.12921E-15
 -1       882 9.08488E-03-8.49499E-04-1.46156E-15
 -1       883 9.39518E-03-1.03462E-03-1.82179E-15
 -1       884 9.69859E-03-1.21510E-03-2.20536E-15
 -1       885 9.99610E-03-1.39246E-03-2.61316E-15
 -1       886 1.02891E-02-1.56800E-03-3.03746E-15
 -1       887 1.05788E-02-1.74265E-03-3.47668E-15
 -1       888 1.08664E-02-1.91701E-03-3.92969E-15
 -1       889 1.11527E-02-2.09145E-03-4.39430E-15
 -1       890 1.14382E-02-2.26618E-03-4.87251E-15
 -1       891 1.17235E-02-2.44127E-03-5.36598E-15
 -1       892 1.20086E-02-2.61677E-03-5.85726E-15
 -1       893 1.22937E-02-2.79265E-03-6.34304E-15
 -1       894 1.25789E-02-2.96889E-03-6.83377E-15
 -1       895 1.28642E-02-3.14544E-03-7.32965E-15
 -1       896 1.31496E-02-3.32227E-03-7.82811E-15
 -1       897 1.35703E-02-3.53720E-03-8.69553E-15
 -1       898 1.42629E-02-3.86965E-03-1.01344E-14
 -1       899 1.33960E-02-3.45406E-03-8.32409E-15
 -1       900 5.41663E-03-2.09163E-04-2.77000E-16
 -1       901 1.13716E-03-5.56035E-05 3.13301E-17
 -1       902 4.36994E-03 2.57481E-04 8.36946E-16
 -1       903 1.09773E-02-1.73561E-03-4.48853E-15
 -1       904 1.04491E-02-1.38446E-03-3.51912E-15
 -1       905 8.70125E-03-6.43615E-04-1.49589E-15
 -1       906 1.47408E-03-2.18273E-04-6.74001E-17
 -1       907 9.91649E-03-1.24757E-03-2.79209E-15
 -1       908 6.97637E-03 2.25233E-04-1.19215E-16
 -1       909 5.72945E-03-8.73395E-05-1.36332E-16
 -1       910 7.56890E-03 4.57253E-05-4.49998E-16
 -1       911 6.24084E-03 1.70168E-04 1.33946E-16
 -1       912 1.76001E-03 2.45382E-04 3.54568E-16
 -1       913 2.62417E-03 2.69388E-04 5.87651E-16
 -1       914 9.04984E-03-8.45518E-04-1.81074E-15
 -1       915 1.39193E-02-3.70347E-03-9.42728E-15
 -1       916 3.20101E-03 2.68973E-04 7.14269E-16
 -1       917 2.04773E-03 2.57988E-04 4.33871E-16
 -1       918 1.54417E-03 2.27741E-04 2.92098E-16
 -1       919 1.37446E-02-3.62023E-03-9.05924E-15
 -1       920 3.49018E-03 2.66309E-04 7.62330E-16
 -1       921 9.68740E-03-1.16655E-03-2.52983E-15
 -1       922 1.38928E-03-1.61006E-04-2.75184E-17
 -1       923 1.37925E-03 3.30120E-05 1.12391E-16
 -1       924 1.38267E-03 9.74053E-05 1.61610E-16
 -1       925 4.90817E-03-3.37479E-04-6.04710E-16
 -1       926 1.34073E-03 1.69295E-04 2.08333E-16
 -1       927 1.09538E-02-1.76671E-03-4.40271E-15
 -1       928 2.18111E-03-1.83774E-04-4.85689E-17
 -1       929 2.46792E-03-1.88757E-04-6.37240E-17
 -1       930 2.75349E-03-1.91888E-04-8.53741E-17
 -1       931 3.02285E-03-1.94072E-04-1.13604E-16
 -1       932 3.30351E-03-1.96624E-04-1.51900E-16
 -1       933 3.58018E-03-2.00734E-04-1.96864E-16
 -1       934 3.85159E-03-2.08051E-04-2.48719E-16
 -1       935 4.11619E-03-2.20638E-04-3.09018E-16
 -1       936 4.37218E-03-2.41003E-04-3.78942E-16
 -1       937 4.61769E-03-2.72010E-04-4.58553E-16
 -1       938 1.31108E-02-3.27699E-03-7.81424E-15
 -1       939 1.37914E-03-3.08858E-05 6.49810E-17
 -1       940 1.14590E-02-2.08661E-03-5.24068E-15
 -1       941 1.17288E-02-2.25900E-03-5.69449E-15
 -1       942 1.20033E-02-2.43453E-03-6.15912E-15
 -1       943 1.22812E-02-2.61195E-03-6.63152E-15
 -1       944 1.25615E-02-2.79042E-03-7.11190E-15
 -1       945 1.28435E-02-2.96939E-03-7.60204E-15
 -1       946 1.31125E-02-3.13957E-03-8.06563E-15
 -1       947 1.33964E-02-3.31871E-03-8.55915E-15
 -1       948 1.36810E-02-3.49773E-03-9.06493E-15
 -1       949 1.39659E-02-3.67660E-03-9.58269E-15
 -1       950 1.41144E-02-3.77317E-03-9.85634E-15
 -1       951 2.33590E-03 2.65621E-04 5.12275E-16
 -1       952 1.02331E-02-1.39007E-03-3.23260E-15
 -1       953 5.12674E-03 1.68041E-04 5.71100E-16
 -1       954 4.81225E-03 1.66335E-04 6.12981E-16
 -1       955 5.78598E-03 1.98110E-04 4.34901E-16
 -1       956 6.79168E-03 2.61434E-04 9.55318E-17
 -1       957 8.08016E-03-2.48627E-04-7.02692E-16
 -1       958 8.41939E-03-4.56998E-04-9.72262E-16
 -1       959 8.75677E-03-6.60311E-04-1.27003E-15
 -1       960 9.08597E-03-8.53249E-04-1.59446E-15
 -1       961 9.40450E-03-1.03696E-03-1.94700E-15
 -1       962 9.71289E-03-1.21426E-03-2.32279E-15
 -1       963 1.00129E-02-1.38806E-03-2.72109E-15
 -1       964 1.03067E-02-1.56037E-03-3.14100E-15
 -1       965 1.05963E-02-1.73243E-03-3.57511E-15
 -1       966 1.08832E-02-1.90490E-03-4.02497E-15
 -1       967 1.11686E-02-2.07806E-03-4.48576E-15
 -1       968 1.14533E-02-2.25197E-03-4.95875E-15
 -1       969 1.17376E-02-2.42660E-03-5.44499E-15
 -1       970 1.20220E-02-2.60186E-03-5.93763E-15
 -1       971 1.23064E-02-2.77765E-03-6.42628E-15
 -1       972 1.25912E-02-2.95388E-03-6.90913E-15
 -1       973 1.28509E-02-3.11531E-03-7.35880E-15
 -1       974 1.67445E-03-1.76870E-04-3.72220E-17
 -1       975 3.91482E-03 1.81293E-04 6.42407E-16
 -1       976 1.07101E-02-1.61605E-03-4.00056E-15
 -1       977 1.12023E-02-1.92324E-03-4.81532E-15
 -1       978 1.38238E-03-9.52270E-05 1.88109E-17
 -1       979 5.09590E-03-2.20666E-04-2.63288E-16
 -1       980 7.18627E-03 2.00751E-04-9.41562E-17
 -1       981 1.92757E-03-1.81992E-04-4.26329E-17
 -1       982 7.92130E-03-1.53486E-04-6.62586E-16
 -1       983 5.39278E-03-7.89001E-05-8.67362E-18
 -1       984 5.75706E-03 6.16383E-05 1.50819E-16
 -1       985 8.46107E-03-4.90282E-04-1.13239E-15
 -1       986 1.04775E-02-1.47787E-03-3.60551E-15
 -1       987 5.45164E-03 1.77864E-04 5.12421E-16
 -1       988 9.43243E-03-1.05019E-03-2.21135E-15
 -1       989 1.37595E-02-3.59071E-03-9.14326E-15
 -1       990 1.62462E-03 9.15562E-07 1.11608E-16
 -1       991 1.00362E-02-1.32967E-03-2.96955E-15
 -1       992 1.66072E-03 1.73061E-04 2.68919E-16
 -1       993 4.50688E-03 1.69508E-04 6.37626E-16
 -1       994 6.46386E-03 2.55268E-04 2.28106E-16
 -1       995 1.34106E-02-3.42505E-03-8.42630E-15
 -1       996 1.39369E-02-3.68186E-03-9.50042E-15
 -1       997 4.20846E-03 1.75070E-04 6.46845E-16
 -1       998 3.62415E-03 1.87096E-04 6.24219E-16
 -1       999 3.04666E-03 1.95071E-04 5.56023E-16
 -1      1000 1.94797E-03 1.83809E-04 3.33562E-16
 -1      1001 2.75836E-03 1.96411E-04 5.07061E-16
 -1      1002 1.62664E-03 7.06472E-05 1.72747E-16
 -1      1003 8.74444E-03-6.63606E-04-1.41109E-15
 -1      1004 2.60453E-03-1.20584E-04 2.36525E-17
 -1      1005 2.87541E-03-1.23419E-04 1.27360E-17
 -1      1006 3.15839E-03-1.26873E-04-7.60636E-18
 -1      1007 3.43842E-03-1.31877E-04-3.53009E-17
 -1      1008 3.71480E-03-1.39745E-04-7.13236E-17
 -1      1009 3.98689E-03-1.52060E-04-1.16176E-16
 -1      1010 4.25422E-03-1.70688E-04-1.69786E-16
 -1      1011 4.51658E-03-1.97410E-04-2.34557E-16
 -1      1012 1.14410E-02-2.11025E-03-5.17006E-15
 -1      1013 1.62633E-03-6.88335E-05 5.22721E-17
 -1      1014 5.39282E-03 6.06872E-05 2.76692E-16
 -1      1015 1.17141E-02-2.28172E-03-5.62892E-15
 -1      1016 1.19904E-02-2.45613E-03-6.09989E-15
 -1      1017 1.22693E-02-2.63240E-03-6.57431E-15
 -1      1018 1.25501E-02-2.80981E-03-7.05612E-15
 -1      1019 1.28182E-02-2.97893E-03-7.52149E-15
 -1      1020 1.31014E-02-3.15727E-03-8.00750E-15
 -1      1021 1.33853E-02-3.33574E-03-8.50175E-15
 -1      1022 4.94571E-03 6.87687E-05 3.83282E-16
 -1      1023 1.31510E-02-3.26293E-03-7.96170E-15
 -1      1024 1.35351E-02-3.48294E-03-8.68534E-15
 -1      1025 9.42218E-03-1.04644E-03-2.07292E-15
 -1      1026 9.73446E-03-1.21902E-03-2.44071E-15
 -1      1027 1.00355E-02-1.38740E-03-2.83079E-15
 -1      1028 1.03288E-02-1.55504E-03-3.24296E-15
 -1      1029 1.06170E-02-1.72339E-03-3.67073E-15
 -1      1030 1.09024E-02-1.89320E-03-4.11841E-15
 -1      1031 1.11862E-02-2.06459E-03-4.57278E-15
 -1      1032 1.14694E-02-2.23743E-03-5.04122E-15
 -1      1033 1.17525E-02-2.41146E-03-5.52305E-15
 -1      1034 1.20359E-02-2.58644E-03-6.01001E-15
 -1      1035 1.23196E-02-2.76216E-03-6.49786E-15
 -1      1036 1.26037E-02-2.93844E-03-6.98071E-15
 -1      1037 9.12624E-03-8.83997E-04-1.79460E-15
 -1      1038 4.79488E-03-2.09833E-04-2.45877E-16
 -1      1039 1.06635E-02-1.63690E-03-3.90598E-15
 -1      1040 3.33508E-03 1.91835E-04 5.95464E-16
 -1      1041 1.03927E-02-1.47943E-03-3.48195E-15
 -1      1042 2.31795E-03-1.17212E-04 2.80334E-17
 -1      1043 5.02942E-03-9.72252E-05 1.53279E-17
 -1      1044 1.87270E-03-3.63966E-05 9.79746E-17
 -1      1045 1.87301E-03 3.75021E-05 1.71500E-16
 -1      1046 1.09151E-02-1.78611E-03-4.30631E-15
 -1      1047 1.11789E-02-1.94725E-03-4.73523E-15
 -1      1048 2.06419E-03-1.18259E-04 2.33713E-17
 -1      1049 9.79955E-03-1.23463E-03-2.64735E-15
 -1      1050 2.23611E-03 1.90414E-04 3.97347E-16
 -1      1051 1.36698E-02-3.51423E-03-9.00989E-15
 -1      1052 4.63804E-03 7.68501E-05 4.27159E-16
 -1      1053 1.28773E-02-3.10051E-03-7.46712E-15
 -1      1054 1.89820E-03-1.08551E-04 2.86162E-17
 -1      1055 2.49725E-03 1.94547E-04 4.54298E-16
 -1      1056 3.75698E-03 1.06720E-04 4.72306E-16
 -1      1057 1.34329E-02-3.39301E-03-8.53799E-15
 -1      1058 3.18182E-03 1.19199E-04 4.41884E-16
 -1      1059 2.89432E-03 1.22511E-04 4.13244E-16
 -1      1060 4.04639E-03 9.77369E-05 4.69853E-16
 -1      1061 2.73765E-03-5.18461E-05 1.25629E-16
 -1      1062 3.02270E-03-5.52816E-05 1.23901E-16
 -1      1063 3.30585E-03-6.02716E-05 1.13513E-16
 -1      1064 3.58669E-03-6.76892E-05 9.41562E-17
 -1      1065 3.86509E-03-7.86932E-05 6.66141E-17
 -1      1066 4.14166E-03-9.45438E-05 2.85755E-17
 -1      1067 4.41714E-03-1.15962E-04-2.03728E-17
 -1      1068 2.45110E-03-4.92165E-05 1.18744E-16
 -1      1069 1.16973E-02-2.30178E-03-5.55974E-15
 -1      1070 1.19759E-02-2.47578E-03-6.03175E-15
 -1      1071 1.22561E-02-2.65143E-03-6.51102E-15
 -1      1072 1.25236E-02-2.81931E-03-6.97076E-15
 -1      1073 1.28062E-02-2.99666E-03-7.45745E-15
 -1      1074 1.30897E-02-3.17440E-03-7.94047E-15
 -1      1075 9.60320E-03-1.14217E-03-2.36159E-15
 -1      1076 4.69684E-03-1.04678E-04 1.35559E-17
 -1      1077 1.14209E-02-2.13027E-03-5.09745E-15
 -1      1078 1.02719E-02-1.45801E-03-3.29618E-15
 -1      1079 4.33932E-03 8.72808E-05 4.54176E-16
 -1      1080 1.03575E-02-1.55157E-03-3.34423E-15
 -1      1081 9.90931E-03-1.30527E-03-2.73303E-15
 -1      1082 1.06423E-02-1.71507E-03-3.76646E-15
 -1      1083 1.09245E-02-1.88154E-03-4.20804E-15
 -1      1084 1.12056E-02-2.05073E-03-4.65799E-15
 -1      1085 1.14867E-02-2.22224E-03-5.12303E-15
 -1      1086 1.17682E-02-2.39562E-03-5.59740E-15
 -1      1087 1.20503E-02-2.57035E-03-6.08020E-15
 -1      1088 1.23331E-02-2.74606E-03-6.56779E-15
 -1      1089 1.26165E-02-2.92245E-03-7.05140E-15
 -1      1090 2.05243E-03 1.12043E-04 2.74100E-16
 -1      1091 1.30395E-02-3.17141E-03-7.80414E-15
 -1      1092 3.46917E-03 1.13930E-04 4.61948E-16
 -1      1093 2.12109E-03-8.41905E-08 1.56660E-16
 -1      1094 1.06151E-02-1.64793E-03-3.80436E-15
 -1      1095 3.31750E-03 4.32312E-05 3.13643E-16
 -1      1096 4.73139E-03-3.14558E-05 1.81556E-16
 -1      1097 1.11536E-02-1.96642E-03-4.65625E-15
 -1      1098 2.63370E-03 1.22701E-04 3.76025E-16
 -1      1099 3.03168E-03 4.82444E-05 3.03373E-16
 -1      1100 3.88750E-03 2.57944E-05 3.04834E-16
 -1      1101 3.60255E-03 3.58825E-05 3.14530E-16
 -1      1102 1.08834E-02-1.80419E-03-4.22027E-15
 -1      1103 3.45179E-03 7.18216E-06 2.48906E-16
 -1      1104 4.30214E-03-3.02006E-05 1.86513E-16
 -1      1105 1.16802E-02-2.31977E-03-5.48633E-15
 -1      1106 1.00324E-02-1.36210E-03-2.92652E-15
 -1      1107 1.06732E-02-1.70639E-03-3.86067E-15
 -1      1108 4.51398E-03-3.11394E-05 1.86239E-16
 -1      1109 2.40092E-03 3.71585E-05 2.28895E-16
 -1      1110 2.37282E-03 1.21205E-04 3.34802E-16
 -1      1111 1.03476E-02-1.53074E-03-3.36460E-15
 -1      1112 2.69235E-03 4.46957E-05 2.68459E-16
 -1      1113 0.00000E+00 0.00000E+00 0.00000E+00
 -1      1114 0.00000E+00 0.00000E+00 0.00000E+00
 -1      1115 0.00000E+00 0.00000E+00 0.00000E+00
 -1      1116 0.00000E+00 0.00000E+00 0.00000E+00
 -1      1117 0.00000E+00 0.00000E+00 0.00000E+00
 -1      1118 0.00000E+00 0.00000E+00 0.00000E+00
 -1      1119 0.00000E+00 0.00000E+00 0.00000E+00
 -1      1120 0.00000E+00 0.00000E+00 0.00000E+00
 -1      1121 0.00000E+00 0.00000E+00 0.00000E+00
 -1      1122 0.00000E+00 0.00000E+00 0.00000E+00
 -1      1123 0.00000E+00 0.00000E+00 0.00000E+00
 -1      1124 0.00000E+00 0.00000E+00 0.00000E+00
 -1      1125 0.00000E+00 0.00000E+00 0.00000E+00
 -1      1126 0.00000E+00 0.00000E+00 0.00000E+00
 -1      1127 0.00000E+00 0.00000E+00 0.00000E+00
 -1      1128 0.00000E+00 0.00000E+00 0.00000E+00
 -1      1129 0.00000E+00 0.00000E+00 0.00000E+00
 -1      1130 2.02375E-04-1.42768E-04-1.33492E-17
 -1      1131 5.36079E-04-3.29308E-04-5.06458E-17
 -1      1132 8.18520E-04-4.52198E-04-1.00871E-16
 -1      1133 1.08822E-03-5.34200E-04-1.64257E-16
 -1      1134 1.35372E-03-5.90980E-04-2.38186E-16
 -1      1135 1.61874E-03-6.30595E-04-3.20300E-16
 -1      1136 1.87862E-03-6.57160E-04-4.08392E-16
 -1      1137 2.14097E-03-6.74721E-04-5.02677E-16
 -1      1138 2.41319E-03-6.85553E-04-6.04958E-16
 -1      1139 2.68899E-03-6.90771E-04-7.14218E-16
 -1      1140 2.96882E-03-6.91630E-04-8.28927E-16
 -1      1141 3.25333E-03-6.89092E-04-9.46048E-16
 -1      1142 3.54356E-03-6.83959E-04-1.06344E-15
 -1      1143 3.83369E-03-6.77250E-04-1.17967E-15
 -1      1144 4.13345E-03-6.69893E-04-1.30232E-15
 -1      1145 4.45495E-03-6.63643E-04-1.43703E-15
 -1      1146 4.79685E-03-6.62556E-04-1.57994E-15
 -1      1147 5.16779E-03-6.74476E-04-1.72445E-15
 -1      1148 5.57860E-03-7.14814E-04-1.86476E-15
 -1      1149 6.03953E-03-8.11806E-04-2.00653E-15
 -1      1150 6.53832E-03-1.00267E-03-2.14886E-15
 -1      1151 7.06205E-03-1.33176E-03-2.29913E-15
 -1      1152 7.53504E-03-1.77889E-03-2.46954E-15
 -1      1153 7.87984E-03-2.21280E-03-2.66248E-15
 -1      1154 8.10535E-03-2.46328E-03-2.87556E-15
 -1      1155 8.31854E-03-2.44590E-03-3.12861E-15
 -1      1156 8.62535E-03-2.20562E-03-3.42926E-15
 -1      1157 9.04750E-03-1.91909E-03-3.77088E-15
 -1      1158 9.56826E-03-1.71333E-03-4.16117E-15
 -1      1159 1.00934E-02-1.65288E-03-4.56449E-15
 -1      1160 1.05600E-02-1.70575E-03-4.96212E-15
 -1      1161 1.09770E-02-1.82431E-03-5.37374E-15
 -1      1162 1.13620E-02-1.98173E-03-5.79890E-15
 -1      1163 1.17149E-02-2.15645E-03-6.23027E-15
 -1      1164 1.20454E-02-2.33863E-03-6.67999E-15
 -1      1165 1.23607E-02-2.52351E-03-7.14342E-15
 -1      1166 1.26659E-02-2.70886E-03-7.60764E-15
 -1      1167 1.29570E-02-2.88911E-03-8.05143E-15
 -1      1168 1.32437E-02-3.06855E-03-8.49357E-15
 -1      1169 1.35349E-02-3.25168E-03-8.96609E-15
 -1      1170 1.38240E-02-3.43392E-03-9.46159E-15
 -1      1171 1.41118E-02-3.61537E-03-9.97443E-15
 -1      1172 1.43988E-02-3.79613E-03-1.04869E-14
 -1      1173 1.46851E-02-3.97631E-03-1.10011E-14
 -1      1174 1.49640E-02-4.15152E-03-1.15184E-14
 -1      1175 1.52426E-02-4.32636E-03-1.20650E-14
 -1      1176 1.55283E-02-4.50537E-03-1.26372E-14
 -1      1177 1.58139E-02-4.68414E-03-1.32069E-14
 -1      1178 1.60996E-02-4.86273E-03-1.37635E-14
 -1      1179 1.63852E-02-5.04122E-03-1.43101E-14
 -1      1180 1.66638E-02-5.21521E-03-1.48152E-14
 -1      1181 2.28024E-04 1.60375E-04 1.99222E-17
 -1      1182 5.52935E-04 3.41086E-04 8.57333E-17
 -1      1183 8.33260E-04 4.59213E-04 1.80181E-16
 -1      1184 1.10273E-03 5.39320E-04 3.03129E-16
 -1      1185 1.36831E-03 5.95295E-04 4.45892E-16
 -1      1186 1.63360E-03 6.34660E-04 6.02315E-16
 -1      1187 1.90051E-03 6.61985E-04 7.66802E-16
 -1      1188 2.16997E-03 6.80429E-04 9.36290E-16
 -1      1189 2.44242E-03 6.92370E-04 1.10418E-15
 -1      1190 2.71798E-03 6.99691E-04 1.26807E-15
 -1      1191 2.99662E-03 7.03943E-04 1.42456E-15
 -1      1192 3.27814E-03 7.06454E-04 1.57293E-15
 -1      1193 3.56221E-03 7.08394E-04 1.70811E-15
 -1      1194 3.84830E-03 7.10807E-04 1.83054E-15
 -1      1195 4.13562E-03 7.14578E-04 1.94051E-15
 -1      1196 4.42300E-03 7.20334E-04 2.03093E-15
 -1      1197 4.70886E-03 7.28249E-04 2.09761E-15
 -1      1198 4.99119E-03 7.37764E-04 2.14444E-15
 -1      1199 5.26770E-03 7.47249E-04 2.17137E-15
 -1      1200 5.53608E-03 7.53727E-04 2.17803E-15
 -1      1201 5.79451E-03 7.52772E-04 2.16090E-15
 -1      1202 6.04225E-03 7.38799E-04 2.11429E-15
 -1      1203 6.28015E-03 7.05815E-04 2.03493E-15
 -1      1204 6.51084E-03 6.48563E-04 1.92895E-15
 -1      1205 6.73844E-03 5.63751E-04 1.79643E-15
 -1      1206 6.96774E-03 4.50904E-04 1.63467E-15
 -1      1207 7.20320E-03 3.12492E-04 1.43940E-15
 -1      1208 7.44798E-03 1.53268E-04 1.20764E-15
 -1      1209 7.70353E-03-2.08834E-05 9.50195E-16
 -1      1210 7.96963E-03-2.04158E-04 6.61187E-16
 -1      1211 8.24480E-03-3.91718E-04 3.50631E-16
 -1      1212 8.52694E-03-5.80103E-04 2.00848E-17
 -1      1213 8.81385E-03-7.67231E-04-3.40467E-16
 -1      1214 9.10356E-03-9.52138E-04-7.26388E-16
 -1      1215 9.39455E-03-1.13463E-03-1.13805E-15
 -1      1216 9.68578E-03-1.31497E-03-1.57746E-15
 -1      1217 9.97658E-03-1.49360E-03-2.03178E-15
 -1      1218 1.02666E-02-1.67103E-03-2.50269E-15
 -1      1219 1.05558E-02-1.84770E-03-2.98658E-15
 -1      1220 1.08442E-02-2.02396E-03-3.46786E-15
 -1      1221 1.11318E-02-2.20009E-03-3.95320E-15
 -1      1222 1.14188E-02-2.37626E-03-4.44080E-15
 -1      1223 1.17053E-02-2.55256E-03-4.91848E-15
 -1      1224 1.19915E-02-2.72906E-03-5.40070E-15
 -1      1225 1.22775E-02-2.90577E-03-5.88040E-15
 -1      1226 1.25632E-02-3.08268E-03-6.36126E-15
 -1      1227 1.28490E-02-3.25977E-03-6.84912E-15
 -1      1228 1.31346E-02-3.43700E-03-7.34191E-15
 -1      1229 1.34203E-02-3.61434E-03-7.83145E-15
 -1      1230 1.36989E-02-3.78727E-03-8.31583E-15
 -1      1231 1.39218E-02-3.91367E-03-8.74160E-15
 -1      1232 1.40962E-02-3.99797E-03-9.16395E-15
 -1      1233 1.42706E-02-4.08229E-03-9.59804E-15
 -1      1234 1.44452E-02-4.16662E-03-1.00325E-14
 -1      1235 1.46198E-02-4.25092E-03-1.04639E-14
 -1      1236 1.47930E-02-4.33446E-03-1.08919E-14
 -1      1237 1.49663E-02-4.41797E-03-1.13297E-14
 -1      1238 1.51411E-02-4.50217E-03-1.17647E-14
 -1      1239 1.53160E-02-4.58635E-03-1.21956E-14
 -1      1240 1.54909E-02-4.67054E-03-1.26013E-14
 -1      1241 1.56658E-02-4.75476E-03-1.29725E-14
 -1      1242 1.58394E-02-4.83831E-03-1.33299E-14
 -1      1243 1.60131E-02-4.92191E-03-1.36883E-14
 -1      1244 1.61883E-02-5.00626E-03-1.40148E-14
 -1      1245 1.63637E-02-5.09061E-03-1.43120E-14
 -1      1246 1.65392E-02-5.17496E-03-1.45856E-14
 -1      1247 1.67132E-02-5.25855E-03-1.48912E-14
 -1      1248 1.01712E-02-9.71062E-04-2.33946E-15
 -1      1249 9.96717E-03-8.04492E-04-2.18775E-15
 -1      1250 9.67256E-03-6.33822E-04-2.01566E-15
 -1      1251 9.28411E-03-4.49735E-04-1.81902E-15
 -1      1252 8.84939E-03-2.74407E-04-1.63002E-15
 -1      1253 8.39192E-03-1.24211E-04-1.45896E-15
 -1      1254 7.91130E-03-8.43833E-06-1.30530E-15
 -1      1255 7.43916E-03 5.35215E-05-1.17942E-15
 -1      1256 6.97627E-03 5.86854E-05-1.09057E-15
 -1      1257 6.53312E-03 1.19354E-05-1.04626E-15
 -1      1258 6.12851E-03-7.63569E-05-1.04377E-15
 -1      1259 5.78039E-03-1.90276E-04-1.07698E-15
 -1      1260 5.50671E-03-3.17900E-04-1.13498E-15
 -1      1261 5.31779E-03-4.56803E-04-1.22047E-15
 -1      1262 5.23355E-03-6.06505E-04-1.32919E-15
 -1      1263 5.26917E-03-7.77943E-04-1.45138E-15
 -1      1264 5.42855E-03-9.75710E-04-1.58568E-15
 -1      1265 5.70306E-03-1.20515E-03-1.73150E-15
 -1      1266 6.08112E-03-1.46876E-03-1.89041E-15
 -1      1267 6.52854E-03-1.74147E-03-2.04898E-15
 -1      1268 7.03254E-03-1.99292E-03-2.20090E-15
 -1      1269 7.55992E-03-2.17050E-03-2.34106E-15
 -1      1270 8.10257E-03-2.23625E-03-2.46762E-15
 -1      1271 8.62060E-03-2.18406E-03-2.56780E-15
 -1      1272 9.09733E-03-2.03866E-03-2.63686E-15
 -1      1273 9.51830E-03-1.84542E-03-2.66563E-15
 -1      1274 9.85367E-03-1.64637E-03-2.66152E-15
 -1      1275 1.00989E-02-1.45645E-03-2.63051E-15
 -1      1276 1.02360E-02-1.28651E-03-2.56379E-15
 -1      1277 1.02619E-02-1.13145E-03-2.46643E-15
 -1      1278 1.58510E-04-1.04907E-04-1.33763E-17
 -1      1279 1.12477E-04-5.67668E-05-1.00695E-17
 -1      1280 1.17475E-04-6.73168E-05-1.08827E-17
 -1      1281 1.08449E-04-4.32827E-05-8.14507E-18
 -1      1282 1.10285E-04-4.93987E-05-8.95822E-18
 -1      1283 2.26290E-04-1.07192E-04-2.16027E-17
 -1      1284 1.06909E-04-3.33935E-05-6.09864E-18
 -1      1285 1.07741E-04-3.81230E-05-6.78982E-18
 -1      1286 2.19188E-04-8.20103E-05-1.70220E-17
 -1      1287 1.06138E-04-2.51234E-05-4.13352E-18
 -1      1288 1.06568E-04-2.91490E-05-4.74338E-18
 -1      1289 2.16013E-04-6.28032E-05-1.24006E-17
 -1      1290 1.05725E-04-1.78940E-05-2.24972E-18
 -1      1291 1.05958E-04-2.14421E-05-2.83248E-18
 -1      1292 2.14345E-04-4.67327E-05-7.90112E-18
 -1      1293 1.05494E-04-1.10977E-05-2.98156E-19
 -1      1294 1.05623E-04-1.44509E-05-8.53809E-19
 -1      1295 2.13404E-04-3.23786E-05-3.34747E-18
 -1      1296 1.05385E-04-4.62321E-06 1.54499E-18
 -1      1297 1.05442E-04-7.83637E-06 9.48677E-19
 -1      1298 2.12881E-04-1.89432E-05 1.04354E-18
 -1      1299 1.05368E-04 1.72376E-06 3.37458E-18
 -1      1300 1.05368E-04-1.44651E-06 2.83248E-18
 -1      1301 2.12645E-04-6.07314E-06 5.29904E-18
 -1      1302 1.05441E-04 8.12221E-06 5.38035E-18
 -1      1303 1.05383E-04 4.90314E-06 4.86536E-18
 -1      1304 2.12644E-04 6.62409E-06 9.81203E-18
 -1      1305 1.05622E-04 1.47587E-05 7.44034E-18
 -1      1306 1.05492E-04 1.13923E-05 6.77626E-18
 -1      1307 2.12881E-04 1.95177E-05 1.44605E-17
 -1      1308 1.05959E-04 2.17283E-05 9.78492E-18
 -1      1309 1.05722E-04 1.81598E-05 9.03954E-18
 -1      1310 2.13406E-04 3.28876E-05 1.94479E-17
 -1      1311 1.06583E-04 2.95696E-05 1.22379E-17
 -1      1312 1.06144E-04 2.55038E-05 1.13570E-17
 -1      1313 2.14360E-04 4.73246E-05 2.47198E-17
 -1      1314 1.07769E-04 3.86691E-05 1.48129E-17
 -1      1315 1.06924E-04 3.38726E-05 1.39049E-17
 -1      1316 2.16072E-04 6.36912E-05 3.03441E-17
 -1      1317 1.10271E-04 5.01286E-05 1.76047E-17
 -1      1318 1.08457E-04 4.39359E-05 1.64934E-17
 -1      1319 2.19288E-04 8.32028E-05 3.62395E-17
 -1      1320 1.16867E-04 6.74212E-05 1.96783E-17
 -1      1321 1.12156E-04 5.75668E-05 1.88787E-17
 -1      1322 2.26299E-04 1.08972E-04 4.19586E-17
 -1      1323 1.57366E-04 1.09619E-04 2.09387E-17
 -1      1324 1.35547E-04 8.58710E-05 2.13181E-17
 -1      1325 2.55881E-04 1.51601E-04 4.73932E-17
 -1      1326 3.34653E-04 2.20144E-04 5.13912E-17
 -1      1327 4.05561E-04-2.52881E-04-3.91939E-17
 -1      1328 5.59022E-04-3.29041E-04-5.90348E-17
 -1      1329 7.06544E-04-3.90347E-04-8.27788E-17
 -1      1330 8.49980E-04-4.40054E-04-1.09572E-16
 -1      1331 5.96756E-04-3.23624E-04-6.66107E-17
 -1      1332 9.90202E-04-4.81270E-04-1.39049E-16
 -1      1333 1.12821E-03-5.15192E-04-1.71290E-16
 -1      1334 8.90470E-04-4.25014E-04-1.16362E-16
 -1      1335 1.26486E-03-5.43725E-04-2.05700E-16
 -1      1336 1.40068E-03-5.67355E-04-2.42184E-16
 -1      1337 1.17336E-03-4.94306E-04-1.75993E-16
 -1      1338 1.53613E-03-5.87158E-04-2.80713E-16
 -1      1339 1.67150E-03-6.03469E-04-3.21019E-16
 -1      1340 1.45078E-03-5.42255E-04-2.43796E-16
 -1      1341 1.80026E-03-6.16297E-04-3.60972E-16
 -1      1342 1.92930E-03-6.26783E-04-4.02835E-16
 -1      1343 1.71928E-03-5.74412E-04-3.16967E-16
 -1      1344 2.06559E-03-6.35663E-04-4.48128E-16
 -1      1345 2.20241E-03-6.42573E-04-4.94667E-16
 -1      1346 1.98775E-03-5.95890E-04-3.96425E-16
 -1      1347 2.33987E-03-6.47769E-04-5.42806E-16
 -1      1348 2.47803E-03-6.51467E-04-5.92747E-16
 -1      1349 2.26429E-03-6.09512E-04-4.83947E-16
 -1      1350 2.61696E-03-6.53826E-04-6.44287E-16
 -1      1351 2.75673E-03-6.55034E-04-6.97305E-16
 -1      1352 2.54281E-03-6.16605E-04-5.77731E-16
 -1      1353 2.89740E-03-6.55178E-04-7.51650E-16
 -1      1354 3.03907E-03-6.54430E-04-8.06186E-16
 -1      1355 2.82392E-03-6.18628E-04-6.77152E-16
 -1      1356 3.18183E-03-6.52821E-04-8.61155E-16
 -1      1357 3.32581E-03-6.50527E-04-9.17601E-16
 -1      1358 3.10824E-03-6.16641E-04-7.80449E-16
 -1      1359 3.47117E-03-6.47533E-04-9.74427E-16
 -1      1360 3.61810E-03-6.44050E-04-1.03083E-15
 -1      1361 3.39654E-03-6.11432E-04-8.87081E-16
 -1      1362 3.75934E-03-6.40244E-04-1.08565E-15
 -1      1363 3.90247E-03-6.36206E-04-1.14152E-15
 -1      1364 3.68247E-03-6.03884E-04-9.93509E-16
 -1      1365 4.05549E-03-6.31674E-04-1.20215E-15
 -1      1366 4.21135E-03-6.27280E-04-1.26562E-15
 -1      1367 3.97461E-03-5.94581E-04-1.10461E-15
 -1      1368 4.37056E-03-6.23070E-04-1.33044E-15
 -1      1369 4.53373E-03-6.19756E-04-1.39662E-15
 -1      1370 4.28277E-03-5.84405E-04-1.22579E-15
 -1      1371 4.70154E-03-6.17667E-04-1.46558E-15
 -1      1372 4.87484E-03-6.17989E-04-1.53546E-15
 -1      1373 4.60249E-03-5.75959E-04-1.35453E-15
 -1      1374 5.05445E-03-6.21742E-04-1.60452E-15
 -1      1375 5.24139E-03-6.30947E-04-1.67527E-15
 -1      1376 4.93762E-03-5.74289E-04-1.48831E-15
 -1      1377 5.43653E-03-6.48027E-04-1.74444E-15
 -1      1378 5.64076E-03-6.76375E-04-1.81265E-15
 -1      1379 5.29280E-03-5.89853E-04-1.62403E-15
 -1      1380 5.85471E-03-7.20675E-04-1.88297E-15
 -1      1381 6.07854E-03-7.86477E-04-1.95529E-15
 -1      1382 5.67322E-03-6.43091E-04-1.76138E-15
 -1      1383 6.30010E-03-8.75026E-04-2.02429E-15
 -1      1384 6.52851E-03-9.95290E-04-2.09500E-15
 -1      1385 6.07349E-03-7.65593E-04-1.89898E-15
 -1      1386 6.77477E-03-1.16078E-03-2.17299E-15
 -1      1387 7.02074E-03-1.36838E-03-2.25522E-15
 -1      1388 6.50655E-03-1.00660E-03-2.04524E-15
 -1      1389 7.23916E-03-1.58648E-03-2.33660E-15
 -1      1390 7.44616E-03-1.82146E-03-2.42602E-15
 -1      1391 6.95676E-03-1.39290E-03-2.20365E-15
 -1      1392 7.64016E-03-2.05391E-03-2.52152E-15
 -1      1393 7.81787E-03-2.25343E-03-2.62319E-15
 -1      1394 7.39041E-03-1.86543E-03-2.37829E-15
 -1      1395 7.96229E-03-2.38567E-03-2.72174E-15
 -1      1396 8.10254E-03-2.45255E-03-2.82840E-15
 -1      1397 7.78074E-03-2.26443E-03-2.56983E-15
 -1      1398 8.62101E-03-2.22927E-03-3.27254E-15
 -1      1399 8.80652E-03-2.08275E-03-3.42105E-15
 -1      1400 9.02992E-03-1.92314E-03-3.59531E-15
 -1      1401 9.26266E-03-1.78768E-03-3.77854E-15
 -1      1402 9.00268E-03-1.93622E-03-3.42586E-15
 -1      1403 9.51213E-03-1.68421E-03-3.97531E-15
 -1      1404 9.75959E-03-1.62176E-03-4.17304E-15
 -1      1405 9.47089E-03-1.66604E-03-3.79144E-15
 -1      1406 1.00007E-02-1.59815E-03-4.37405E-15
 -1      1407 1.02330E-02-1.60635E-03-4.57375E-15
 -1      1408 9.93298E-03-1.55148E-03-4.18448E-15
 -1      1409 1.04444E-02-1.63741E-03-4.76613E-15
 -1      1410 1.06464E-02-1.68577E-03-4.96325E-15
 -1      1411 1.03523E-02-1.57364E-03-4.57356E-15
 -1      1412 1.08496E-02-1.75014E-03-5.17117E-15
 -1      1413 1.10436E-02-1.82460E-03-5.38072E-15
 -1      1414 1.07402E-02-1.67810E-03-4.97139E-15
 -1      1415 1.12295E-02-1.90586E-03-5.59250E-15
 -1      1416 1.14084E-02-1.99179E-03-5.80471E-15
 -1      1417 1.11095E-02-1.83071E-03-5.38789E-15
 -1      1418 1.15811E-02-2.08080E-03-6.02049E-15
 -1      1419 1.17487E-02-2.17172E-03-6.24069E-15
 -1      1420 1.14555E-02-2.00521E-03-5.81172E-15
 -1      1421 1.19120E-02-2.26388E-03-6.46587E-15
 -1      1422 1.20716E-02-2.35663E-03-6.69316E-15
 -1      1423 1.17838E-02-2.18892E-03-6.25154E-15
 -1      1424 1.22283E-02-2.44975E-03-6.92128E-15
 -1      1425 1.23824E-02-2.54289E-03-7.15232E-15
 -1      1426 1.20991E-02-2.37574E-03-6.70186E-15
 -1      1427 1.25345E-02-2.63601E-03-7.38328E-15
 -1      1428 1.26849E-02-2.72891E-03-7.61180E-15
 -1      1429 1.24052E-02-2.56291E-03-7.16021E-15
 -1      1430 1.28265E-02-2.81700E-03-7.82981E-15
 -1      1431 1.29671E-02-2.90482E-03-8.04845E-15
 -1      1432 1.26975E-02-2.74467E-03-7.60735E-15
 -1      1433 1.31141E-02-2.99704E-03-8.27592E-15
 -1      1434 1.32604E-02-3.08896E-03-8.50589E-15
 -1      1435 1.29854E-02-2.92534E-03-8.05528E-15
 -1      1436 1.34060E-02-3.18064E-03-8.74484E-15
 -1      1437 1.35510E-02-3.27206E-03-8.98828E-15
 -1      1438 1.32776E-02-3.10946E-03-8.52337E-15
 -1      1439 1.36957E-02-3.36326E-03-9.23517E-15
 -1      1440 1.38399E-02-3.45422E-03-9.48650E-15
 -1      1441 1.35676E-02-3.29247E-03-9.00958E-15
 -1      1442 1.39839E-02-3.54499E-03-9.74013E-15
 -1      1443 1.41276E-02-3.63556E-03-9.99515E-15
 -1      1444 1.38562E-02-3.47451E-03-9.50847E-15
 -1      1445 1.42712E-02-3.72597E-03-1.02508E-14
 -1      1446 1.44146E-02-3.81621E-03-1.05087E-14
 -1      1447 1.41437E-02-3.65573E-03-1.00186E-14
 -1      1448 1.45578E-02-3.90632E-03-1.07681E-14
 -1      1449 1.47010E-02-3.99629E-03-1.10298E-14
 -1      1450 1.44306E-02-3.83627E-03-1.05329E-14
 -1      1451 1.48369E-02-4.08165E-03-1.12829E-14
 -1      1452 1.49727E-02-4.16692E-03-1.15403E-14
 -1      1453 1.47098E-02-4.01175E-03-1.10457E-14
 -1      1454 1.51157E-02-4.25659E-03-1.18191E-14
 -1      1455 1.52586E-02-4.34617E-03-1.21020E-14
 -1      1456 1.49887E-02-4.18679E-03-1.15769E-14
 -1      1457 1.54015E-02-4.43567E-03-1.23878E-14
 -1      1458 1.55443E-02-4.52511E-03-1.26716E-14
 -1      1459 1.52746E-02-4.36595E-03-1.21366E-14
 -1      1460 1.56872E-02-4.61449E-03-1.29537E-14
 -1      1461 1.58300E-02-4.70382E-03-1.32357E-14
 -1      1462 1.55604E-02-4.54483E-03-1.27033E-14
 -1      1463 1.59729E-02-4.79312E-03-1.35138E-14
 -1      1464 1.61157E-02-4.88238E-03-1.37937E-14
 -1      1465 1.58461E-02-4.72349E-03-1.32651E-14
 -1      1466 1.62585E-02-4.97161E-03-1.40667E-14
 -1      1467 1.64014E-02-5.06084E-03-1.43357E-14
 -1      1468 1.61318E-02-4.90201E-03-1.38238E-14
 -1      1469 1.64895E-02-5.11731E-03-1.44948E-14
 -1      1470 1.66252E-02-5.20207E-03-1.47368E-14
 -1      1471 1.65389E-02-5.16064E-03-1.45758E-14
 -1      1472 1.63628E-02-5.04770E-03-1.42583E-14
 -1      1473 6.42362E-04 3.70584E-04 1.23613E-16
 -1      1474 4.92356E-04 3.02696E-04 8.29144E-17
 -1      1475 4.44497E-04 2.64958E-04 7.99870E-17
 -1      1476 9.27842E-04 4.69560E-04 2.27411E-16
 -1      1477 7.87021E-04 4.24586E-04 1.72117E-16
 -1      1478 7.44235E-04 3.88861E-04 1.63389E-16
 -1      1479 1.20280E-03 5.37769E-04 3.54331E-16
 -1      1480 1.06608E-03 5.06704E-04 2.88425E-16
 -1      1481 1.03029E-03 4.73184E-04 2.73449E-16
 -1      1482 1.47367E-03 5.85596E-04 4.97459E-16
 -1      1483 1.33843E-03 5.63833E-04 4.24167E-16
 -1      1484 1.30842E-03 5.31696E-04 4.02564E-16
 -1      1485 1.74383E-03 6.18938E-04 6.51050E-16
 -1      1486 1.60866E-03 6.03829E-04 5.73529E-16
 -1      1487 1.58313E-03 5.72512E-04 5.44527E-16
 -1      1488 2.01504E-03 6.41680E-04 8.10983E-16
 -1      1489 1.87921E-03 6.31454E-04 7.30441E-16
 -1      1490 1.85708E-03 6.00572E-04 6.94567E-16
 -1      1491 2.28822E-03 6.56632E-04 9.73112E-16
 -1      1492 2.15134E-03 6.49990E-04 8.92109E-16
 -1      1493 2.13179E-03 6.19298E-04 8.48849E-16
 -1      1494 2.56381E-03 6.65960E-04 1.13173E-15
 -1      1495 2.42569E-03 6.61886E-04 1.05296E-15
 -1      1496 2.40804E-03 6.31226E-04 1.00249E-15
 -1      1497 2.84196E-03 6.71403E-04 1.28538E-15
 -1      1498 2.70256E-03 6.69074E-04 1.20931E-15
 -1      1499 2.68624E-03 6.38340E-04 1.15213E-15
 -1      1500 3.12265E-03 6.74417E-04 1.43147E-15
 -1      1501 2.98199E-03 6.73135E-04 1.35951E-15
 -1      1502 2.96654E-03 6.42257E-04 1.29550E-15
 -1      1503 3.40568E-03 6.76267E-04 1.56705E-15
 -1      1504 3.26388E-03 6.75421E-04 1.50047E-15
 -1      1505 3.24892E-03 6.44353E-04 1.43020E-15
 -1      1506 3.69071E-03 6.78085E-04 1.69028E-15
 -1      1507 3.54797E-03 6.77126E-04 1.63057E-15
 -1      1508 3.53319E-03 6.45846E-04 1.55358E-15
 -1      1509 3.97717E-03 6.80877E-04 1.80136E-15
 -1      1510 3.83380E-03 6.79321E-04 1.74780E-15
 -1      1511 3.81898E-03 6.47834E-04 1.66599E-15
 -1      1512 4.26421E-03 6.85465E-04 1.89632E-15
 -1      1513 4.12068E-03 6.82933E-04 1.85092E-15
 -1      1514 4.10572E-03 6.51280E-04 1.76373E-15
 -1      1515 4.55066E-03 6.92343E-04 1.97058E-15
 -1      1516 4.40759E-03 6.88643E-04 1.93648E-15
 -1      1517 4.39258E-03 6.56914E-04 1.84308E-15
 -1      1518 4.83500E-03 7.01439E-04 2.02305E-15
 -1      1519 4.69320E-03 6.96696E-04 1.99943E-15
 -1      1520 4.67843E-03 6.65047E-04 1.90229E-15
 -1      1521 5.11540E-03 7.11785E-04 2.05685E-15
 -1      1522 4.97582E-03 7.06611E-04 2.04172E-15
 -1      1523 4.96186E-03 6.75276E-04 1.94126E-15
 -1      1524 5.38993E-03 7.21177E-04 2.06902E-15
 -1      1525 5.25353E-03 7.16841E-04 2.06561E-15
 -1      1526 5.24128E-03 6.86131E-04 1.96029E-15
 -1      1527 5.65686E-03 7.25932E-04 2.06015E-15
 -1      1528 5.52445E-03 7.24454E-04 2.06783E-15
 -1      1529 5.51509E-03 6.94738E-04 1.95884E-15
 -1      1530 5.91511E-03 7.20932E-04 2.02564E-15
 -1      1531 5.78712E-03 7.25020E-04 2.04635E-15
 -1      1532 5.78205E-03 6.96675E-04 1.93347E-15
 -1      1533 6.16469E-03 7.00118E-04 1.95879E-15
 -1      1534 6.04095E-03 7.12862E-04 1.99633E-15
 -1      1535 6.04160E-03 6.86190E-04 1.88011E-15
 -1      1536 6.40701E-03 6.57477E-04 1.86538E-15
 -1      1537 6.28662E-03 6.81803E-04 1.91494E-15
 -1      1538 6.29427E-03 6.56948E-04 1.79689E-15
 -1      1539 6.64488E-03 5.88335E-04 1.74414E-15
 -1      1540 6.52629E-03 6.26343E-04 1.80811E-15
 -1      1541 6.54179E-03 6.03222E-04 1.68767E-15
 -1      1542 6.88199E-03 4.90524E-04 1.59546E-15
 -1      1543 6.76327E-03 5.42947E-04 1.67417E-15
 -1      1544 6.78692E-03 5.21249E-04 1.55359E-15
 -1      1545 7.12224E-03 3.64975E-04 1.41677E-15
 -1      1546 7.00148E-03 4.30975E-04 1.50929E-15
 -1      1547 7.03293E-03 4.10221E-04 1.38767E-15
 -1      1548 7.36887E-03 2.15451E-04 1.20153E-15
 -1      1549 7.24458E-03 2.92850E-04 1.31436E-15
 -1      1550 7.28295E-03 2.72507E-04 1.19016E-15
 -1      1551 7.62390E-03 4.75663E-05 9.58652E-16
 -1      1552 7.49524E-03 1.33408E-04 1.08294E-15
 -1      1553 7.53925E-03 1.13000E-04 9.60047E-16
 -1      1554 7.88795E-03-1.32511E-04 6.84362E-16
 -1      1555 7.75480E-03-4.13085E-05 8.24753E-16
 -1      1556 7.80300E-03-6.21159E-05 7.01452E-16
 -1      1557 8.16039E-03-3.19202E-04 3.84756E-16
 -1      1558 8.02319E-03-2.25309E-04 5.38455E-16
 -1      1559 8.07417E-03-2.46691E-04 4.14938E-16
 -1      1560 8.43977E-03-5.08203E-04 6.36698E-17
 -1      1561 8.29932E-03-4.13597E-04 2.26246E-16
 -1      1562 8.35190E-03-4.35587E-04 1.04192E-16
 -1      1563 8.72430E-03-6.96692E-04-2.83993E-16
 -1      1564 8.58151E-03-6.02609E-04-1.06577E-16
 -1      1565 8.63478E-03-6.25141E-04-2.31545E-16
 -1      1566 9.01222E-03-8.83164E-04-6.57962E-16
 -1      1567 8.86795E-03-7.90214E-04-4.67535E-16
 -1      1568 8.92131E-03-8.13171E-04-5.92815E-16
 -1      1569 9.30203E-03-1.06710E-03-1.05562E-15
 -1      1570 9.15698E-03-9.75441E-04-8.53335E-16
 -1      1571 9.21009E-03-9.98694E-04-9.79455E-16
 -1      1572 9.59260E-03-1.24858E-03-1.48194E-15
 -1      1573 9.44728E-03-1.15812E-03-1.26525E-15
 -1      1574 9.49999E-03-1.18155E-03-1.39044E-15
 -1      1575 9.88314E-03-1.42804E-03-1.92506E-15
 -1      1576 9.73791E-03-1.33853E-03-1.70103E-15
 -1      1577 9.79020E-03-1.36204E-03-1.82452E-15
 -1      1578 1.01732E-02-1.60598E-03-2.38701E-15
 -1      1579 1.00283E-02-1.51717E-03-2.15417E-15
 -1      1580 1.00802E-02-1.54069E-03-2.27575E-15
 -1      1581 1.04626E-02-1.78293E-03-2.86307E-15
 -1      1582 1.03180E-02-1.69455E-03-2.62396E-15
 -1      1583 1.03696E-02-1.71805E-03-2.74380E-15
 -1      1584 1.07512E-02-1.95929E-03-3.34567E-15
 -1      1585 1.06070E-02-1.87116E-03-3.10373E-15
 -1      1586 1.06585E-02-1.89460E-03-3.22264E-15
 -1      1587 1.10391E-02-2.13539E-03-3.82794E-15
 -1      1588 1.08953E-02-2.04736E-03-3.58771E-15
 -1      1589 1.09466E-02-2.07074E-03-3.70462E-15
 -1      1590 1.13265E-02-2.31145E-03-4.31648E-15
 -1      1591 1.11829E-02-2.22341E-03-4.07121E-15
 -1      1592 1.12341E-02-2.24673E-03-4.19012E-15
 -1      1593 1.16133E-02-2.48762E-03-4.79990E-15
 -1      1594 1.14699E-02-2.39952E-03-4.55838E-15
 -1      1595 1.15212E-02-2.42278E-03-4.67741E-15
 -1      1596 1.18997E-02-2.66397E-03-5.28253E-15
 -1      1597 1.17565E-02-2.57577E-03-5.04046E-15
 -1      1598 1.18078E-02-2.59898E-03-5.16143E-15
 -1      1599 1.21858E-02-2.84054E-03-5.76434E-15
 -1      1600 1.20428E-02-2.75223E-03-5.52466E-15
 -1      1601 1.20941E-02-2.77540E-03-5.64707E-15
 -1      1602 1.24717E-02-3.01732E-03-6.24839E-15
 -1      1603 1.23288E-02-2.92890E-03-6.00759E-15
 -1      1604 1.23802E-02-2.95205E-03-6.13164E-15
 -1      1605 1.27575E-02-3.19431E-03-6.72891E-15
 -1      1606 1.26146E-02-3.10579E-03-6.48747E-15
 -1      1607 1.26661E-02-3.12891E-03-6.61367E-15
 -1      1608 1.30433E-02-3.37146E-03-7.22084E-15
 -1      1609 1.29004E-02-3.28287E-03-6.97324E-15
 -1      1610 1.29519E-02-3.30597E-03-7.09849E-15
 -1      1611 1.33290E-02-3.54875E-03-7.71131E-15
 -1      1612 1.31861E-02-3.46009E-03-7.46565E-15
 -1      1613 1.32376E-02-3.48319E-03-7.58986E-15
 -1      1614 1.36147E-02-3.72611E-03-8.20519E-15
 -1      1615 1.34718E-02-3.63742E-03-7.95933E-15
 -1      1616 1.35233E-02-3.66051E-03-8.08514E-15
 -1      1617 1.37861E-02-3.82942E-03-8.51385E-15
 -1      1618 1.40161E-02-3.94224E-03-9.05473E-15
 -1      1619 1.39289E-02-3.90009E-03-8.84306E-15
 -1      1620 1.41905E-02-4.02654E-03-9.47998E-15
 -1      1621 1.41033E-02-3.98439E-03-9.26771E-15
 -1      1622 1.39360E-02-3.88649E-03-8.94002E-15
 -1      1623 1.43651E-02-4.11082E-03-9.90940E-15
 -1      1624 1.42778E-02-4.06868E-03-9.69259E-15
 -1      1625 1.41104E-02-3.97077E-03-9.35924E-15
 -1      1626 1.45397E-02-4.19508E-03-1.03367E-14
 -1      1627 1.44524E-02-4.15295E-03-1.01264E-14
 -1      1628 1.42850E-02-4.05502E-03-9.78515E-15
 -1      1629 1.47115E-02-4.27787E-03-1.07614E-14
 -1      1630 1.46256E-02-4.23648E-03-1.05468E-14
 -1      1631 1.44582E-02-4.13852E-03-1.02078E-14
 -1      1632 1.48863E-02-4.36205E-03-1.11935E-14
 -1      1633 1.47989E-02-4.31996E-03-1.09787E-14
 -1      1634 1.46315E-02-4.22198E-03-1.06289E-14
 -1      1635 1.50611E-02-4.44622E-03-1.16218E-14
 -1      1636 1.49737E-02-4.40414E-03-1.14063E-14
 -1      1637 1.48063E-02-4.30613E-03-1.10530E-14
 -1      1638 1.52360E-02-4.53037E-03-1.20399E-14
 -1      1639 1.51485E-02-4.48829E-03-1.18340E-14
 -1      1640 1.49811E-02-4.39026E-03-1.14731E-14
 -1      1641 1.54109E-02-4.61454E-03-1.24338E-14
 -1      1642 1.53234E-02-4.57245E-03-1.22409E-14
 -1      1643 1.51560E-02-4.47438E-03-1.18838E-14
 -1      1644 1.55859E-02-4.69874E-03-1.28057E-14
 -1      1645 1.54984E-02-4.65663E-03-1.26202E-14
 -1      1646 1.53310E-02-4.55851E-03-1.22704E-14
 -1      1647 1.57580E-02-4.78155E-03-1.31556E-14
 -1      1648 1.56719E-02-4.74014E-03-1.29837E-14
 -1      1649 1.55045E-02-4.64197E-03-1.26350E-14
 -1      1650 1.59332E-02-4.86582E-03-1.35070E-14
 -1      1651 1.58456E-02-4.82368E-03-1.33338E-14
 -1      1652 1.56781E-02-4.72546E-03-1.29854E-14
 -1      1653 1.61085E-02-4.95013E-03-1.38317E-14
 -1      1654 1.60208E-02-4.90797E-03-1.36740E-14
 -1      1655 1.58533E-02-4.80971E-03-1.33269E-14
 -1      1656 1.62839E-02-5.03445E-03-1.41409E-14
 -1      1657 1.61961E-02-4.99229E-03-1.39878E-14
 -1      1658 1.60286E-02-4.89398E-03-1.36557E-14
 -1      1659 1.64552E-02-5.11862E-03-1.44291E-14
 -1      1660 1.63675E-02-5.07647E-03-1.42823E-14
 -1      1661 1.61999E-02-4.97814E-03-1.39689E-14
 -1      1662 1.63672E-02-5.06216E-03-1.42679E-14
 -1      1663 1.01364E-02-1.00653E-03-2.37589E-15
 -1      1664 1.02194E-02-1.05928E-03-2.45290E-15
 -1      1665 9.87570E-03-8.71584E-04-2.19387E-15
 -1      1666 1.00073E-02-9.34132E-04-2.27622E-15
 -1      1667 9.51475E-03-7.02877E-04-1.99248E-15
 -1      1668 9.69295E-03-7.85706E-04-2.08816E-15
 -1      1669 9.05792E-03-4.99999E-04-1.77079E-15
 -1      1670 9.27147E-03-6.03474E-04-1.87407E-15
 -1      1671 8.63146E-03-2.75504E-04-1.57207E-15
 -1      1672 8.83131E-03-3.69679E-04-1.65859E-15
 -1      1673 8.17304E-03-8.41289E-05-1.37940E-15
 -1      1674 8.37872E-03-1.71173E-04-1.46459E-15
 -1      1675 7.75065E-03 5.19472E-05-1.22528E-15
 -1      1676 7.94675E-03-1.51437E-06-1.29397E-15
 -1      1677 7.33921E-03 1.06599E-04-1.10109E-15
 -1      1678 7.52689E-03 9.19065E-05-1.15386E-15
 -1      1679 6.93259E-03 7.95622E-05-1.01660E-15
 -1      1680 7.12040E-03 1.03376E-04-1.04894E-15
 -1      1681 6.52250E-03-1.76332E-05-9.87329E-16
 -1      1682 6.70923E-03 3.39125E-05-9.97141E-16
 -1      1683 6.13321E-03-1.54836E-04-9.91882E-16
 -1      1684 6.31251E-03-8.89295E-05-9.82518E-16
 -1      1685 5.77195E-03-2.92817E-04-1.03921E-15
 -1      1686 5.93022E-03-2.28374E-04-1.01527E-15
 -1      1687 5.48222E-03-4.20336E-04-1.11007E-15
 -1      1688 5.60624E-03-3.63748E-04-1.07478E-15
 -1      1689 5.28319E-03-5.35658E-04-1.20729E-15
 -1      1690 5.36284E-03-4.86005E-04-1.15730E-15
 -1      1691 5.21136E-03-6.37455E-04-1.32705E-15
 -1      1692 5.22718E-03-5.91467E-04-1.27086E-15
 -1      1693 5.29130E-03-7.57392E-04-1.46411E-15
 -1      1694 5.23332E-03-6.97607E-04-1.39758E-15
 -1      1695 5.51214E-03-9.25293E-04-1.61172E-15
 -1      1696 5.39561E-03-8.46847E-04-1.54514E-15
 -1      1697 5.87189E-03-1.14612E-03-1.77229E-15
 -1      1698 5.68967E-03-1.03092E-03-1.69567E-15
 -1      1699 6.31297E-03-1.43252E-03-1.93798E-15
 -1      1700 6.10476E-03-1.29499E-03-1.86162E-15
 -1      1701 6.78620E-03-1.75798E-03-2.10482E-15
 -1      1702 6.56075E-03-1.60776E-03-2.02862E-15
 -1      1703 7.28114E-03-2.05537E-03-2.26262E-15
 -1      1704 7.05889E-03-1.92390E-03-2.19212E-15
 -1      1705 7.73775E-03-2.24982E-03-2.40788E-15
 -1      1706 7.52820E-03-2.17739E-03-2.34117E-15
 -1      1707 8.19949E-03-2.29456E-03-2.54617E-15
 -1      1708 7.98867E-03-2.29775E-03-2.48646E-15
 -1      1709 8.63978E-03-2.17869E-03-2.64537E-15
 -1      1710 8.44350E-03-2.24508E-03-2.60149E-15
 -1      1711 9.07508E-03-1.96077E-03-2.73021E-15
 -1      1712 8.86815E-03-2.07192E-03-2.69969E-15
 -1      1713 9.50019E-03-1.72812E-03-2.75221E-15
 -1      1714 9.31769E-03-1.83567E-03-2.74334E-15
 -1      1715 9.85465E-03-1.51534E-03-2.74974E-15
 -1      1716 9.69921E-03-1.61001E-03-2.75554E-15
 -1      1717 1.01174E-02-1.34090E-03-2.71842E-15
 -1      1718 1.00076E-02-1.41356E-03-2.74037E-15
 -1      1719 1.02606E-02-1.21726E-03-2.63212E-15
 -1      1720 1.02112E-02-1.27119E-03-2.67352E-15
 -1      1721 1.02715E-02-1.11324E-03-2.51942E-15
 -1      1722 1.02829E-02-1.15955E-03-2.57528E-15
 -1      1723 8.27105E-03-2.44595E-03-2.96718E-15
 -1      1724 8.44859E-03-2.35797E-03-3.11081E-15
 -1      1725 9.32616E-03-7.28415E-04-1.94647E-15
 -1      1726 1.02540E-02-1.11003E-03-2.56005E-15
 -1      1727 1.38376E-02-3.85251E-03-8.64323E-15
 -1      1728 1.37575E-02-3.79678E-03-8.53121E-15
 -1      1729 1.00693E-02-1.03204E-03-2.38717E-15
 -1      1730 9.75052E-03-9.04835E-04-2.17544E-15
 -1      1731 8.86931E-03-4.92699E-04-1.71133E-15
 -1      1732 8.41667E-03-2.44743E-04-1.48940E-15
 -1      1733 7.99904E-03-3.59178E-05-1.29459E-15
 -1      1734 7.61066E-03 9.70196E-05-1.13898E-15
 -1      1735 7.23617E-03 1.30925E-04-1.01861E-15
 -1      1736 6.86208E-03 6.64065E-05-9.50303E-16
 -1      1737 6.47110E-03-6.83551E-05-9.28863E-16
 -1      1738 6.08357E-03-2.28522E-04-9.50222E-16
 -1      1739 5.72217E-03-3.74935E-04-1.01035E-15
 -1      1740 5.43183E-03-4.93705E-04-1.09406E-15
 -1      1741 5.24908E-03-5.78280E-04-1.20457E-15
 -1      1742 5.21318E-03-6.48027E-04-1.33804E-15
 -1      1743 5.34671E-03-7.42537E-04-1.48878E-15
 -1      1744 5.63870E-03-9.01604E-04-1.65188E-15
 -1      1745 6.05575E-03-1.13551E-03-1.82114E-15
 -1      1746 6.53093E-03-1.45803E-03-1.99535E-15
 -1      1747 7.02112E-03-1.81542E-03-2.16919E-15
 -1      1748 7.47530E-03-2.12826E-03-2.33206E-15
 -1      1749 7.89788E-03-2.31023E-03-2.48860E-15
 -1      1750 8.29113E-03-2.30149E-03-2.62518E-15
 -1      1751 8.70100E-03-2.12725E-03-2.73948E-15
 -1      1752 9.12123E-03-1.87098E-03-2.81577E-15
 -1      1753 9.54256E-03-1.61801E-03-2.84015E-15
 -1      1754 9.89770E-03-1.40903E-03-2.83961E-15
 -1      1755 1.01551E-02-1.26797E-03-2.78846E-15
 -1      1756 1.02796E-02-1.17852E-03-2.68648E-15
 -1      1757 8.57821E-03-2.25066E-03-3.09518E-15
 -1      1758 2.77308E-04-1.71629E-04-2.80131E-17
 -1      1759 8.16587E-03-2.42080E-03-2.80087E-15
 -1      1760 3.32315E-04-1.16024E-04-2.36898E-17
 -1      1761 3.36370E-04-1.32247E-04-2.72948E-17
 -1      1762 3.42257E-04-1.51274E-04-3.07507E-17
 -1      1763 3.51702E-04-1.73318E-04-3.39355E-17
 -1      1764 4.58443E-04-1.86997E-04-4.04814E-17
 -1      1765 3.24733E-04-6.46948E-05-9.83913E-18
 -1      1766 3.25896E-04-7.59400E-05-1.33899E-17
 -1      1767 3.23198E-04-4.33560E-05-3.07642E-18
 -1      1768 3.23874E-04-5.37582E-05-6.54587E-18
 -1      1769 4.36691E-04-7.83878E-05-1.12757E-17
 -1      1770 3.22368E-04-2.34553E-05 3.29326E-18
 -1      1771 3.22721E-04-3.32532E-05 0.00000E+00
 -1      1772 4.34618E-04-5.06616E-05-1.87025E-18
 -1      1773 3.22044E-04-4.27594E-06 9.90690E-18
 -1      1774 3.22153E-04-1.37976E-05 6.57298E-18
 -1      1775 4.33531E-04-2.45852E-05 7.38613E-18
 -1      1776 3.22159E-04 1.47789E-05 1.67374E-17
 -1      1777 3.22045E-04 5.24731E-06 1.31595E-17
 -1      1778 4.33197E-04 7.41567E-07 1.68322E-17
 -1      1779 3.22741E-04 3.42863E-05 2.36356E-17
 -1      1780 3.22379E-04 2.44569E-05 1.99629E-17
 -1      1781 4.33556E-04 2.60983E-05 2.63597E-17
 -1      1782 3.23899E-04 5.45319E-05 3.11437E-17
 -1      1783 3.23221E-04 4.42584E-05 2.71864E-17
 -1      1784 4.34668E-04 5.20403E-05 3.64021E-17
 -1      1785 3.25981E-04 7.70509E-05 3.91804E-17
 -1      1786 3.24773E-04 6.55278E-05 3.50739E-17
 -1      1787 4.36777E-04 7.96726E-05 4.71357E-17
 -1      1788 3.29678E-04 1.02821E-04 4.77862E-17
 -1      1789 3.27525E-04 8.94994E-05 4.32190E-17
 -1      1790 4.40466E-04 1.10480E-04 5.85469E-17
 -1      1791 3.36714E-04 1.34302E-04 5.67851E-17
 -1      1792 3.32575E-04 1.17769E-04 5.21772E-17
 -1      1793 4.46979E-04 1.46173E-04 7.08662E-17
 -1      1794 3.52207E-04 1.76772E-04 6.48217E-17
 -1      1795 3.42818E-04 1.53919E-04 6.08508E-17
 -1      1796 4.59374E-04 1.90253E-04 8.31854E-17
 -1      1797 4.07430E-04 2.32797E-04 7.49997E-17
 -1      1798 3.77941E-04 2.01821E-04 7.02427E-17
 -1      1799 4.95771E-04 2.42790E-04 9.59925E-17
 -1      1800 5.58224E-04 3.01182E-04 1.10453E-16
 -1      1801 3.32270E-04-1.86610E-04-3.36509E-17
 -1      1802 8.53275E-04 4.04770E-04 2.03694E-16
 -1      1803 7.06837E-04 3.57542E-04 1.53957E-16
 -1      1804 6.73241E-04 3.27040E-04 1.44538E-16
 -1      1805 7.92474E-04-3.67457E-04-9.57486E-17
 -1      1806 9.37963E-04-4.08747E-04-1.21051E-16
 -1      1807 1.08103E-03-4.43345E-04-1.48807E-16
 -1      1808 1.22295E-03-4.71980E-04-1.78243E-16
 -1      1809 9.89705E-04-3.91372E-04-1.24128E-16
 -1      1810 1.36362E-03-4.96035E-04-2.09522E-16
 -1      1811 1.50363E-03-5.15819E-04-2.42726E-16
 -1      1812 1.27585E-03-4.48778E-04-1.78202E-16
 -1      1813 1.63619E-03-5.31490E-04-2.75889E-16
 -1      1814 1.76852E-03-5.44322E-04-3.10244E-16
 -1      1815 1.55183E-03-4.87698E-04-2.37522E-16
 -1      1816 1.90779E-03-5.55342E-04-3.48097E-16
 -1      1817 2.04711E-03-5.64002E-04-3.87440E-16
 -1      1818 1.82630E-03-5.14104E-04-3.02845E-16
 -1      1819 2.18665E-03-5.70706E-04-4.28328E-16
 -1      1820 2.32647E-03-5.75630E-04-4.70381E-16
 -1      1821 2.10744E-03-5.31397E-04-3.75608E-16
 -1      1822 2.46669E-03-5.79039E-04-5.14183E-16
 -1      1823 2.60736E-03-5.81083E-04-5.59638E-16
 -1      1824 2.38905E-03-5.41148E-04-4.53847E-16
 -1      1825 2.74856E-03-5.81932E-04-6.05961E-16
 -1      1826 2.89035E-03-5.81717E-04-6.53422E-16
 -1      1827 2.67177E-03-5.45095E-04-5.37913E-16
 -1      1828 3.03281E-03-5.80538E-04-7.02549E-16
 -1      1829 3.17603E-03-5.78513E-04-7.51555E-16
 -1      1830 2.95608E-03-5.44496E-04-6.26764E-16
 -1      1831 3.32003E-03-5.75693E-04-8.01903E-16
 -1      1832 3.46503E-03-5.72200E-04-8.53674E-16
 -1      1833 3.24242E-03-5.40266E-04-7.19883E-16
 -1      1834 3.60364E-03-5.68281E-04-9.03561E-16
 -1      1835 3.74342E-03-5.63902E-04-9.54166E-16
 -1      1836 3.52395E-03-5.33316E-04-8.15157E-16
 -1      1837 3.89166E-03-5.58839E-04-1.00874E-15
 -1      1838 4.04156E-03-5.53499E-04-1.06551E-15
 -1      1839 3.80825E-03-5.24189E-04-9.15311E-16
 -1      1840 4.19285E-03-5.48029E-04-1.12359E-15
 -1      1841 4.34634E-03-5.42726E-04-1.18357E-15
 -1      1842 4.10318E-03-5.13439E-04-1.02376E-15
 -1      1843 4.50152E-03-5.38003E-04-1.24533E-15
 -1      1844 4.65956E-03-5.34361E-04-1.30881E-15
 -1      1845 4.40200E-03-5.02882E-04-1.13881E-15
 -1      1846 4.81968E-03-5.32784E-04-1.37398E-15
 -1      1847 4.98345E-03-5.34207E-04-1.43921E-15
 -1      1848 4.70518E-03-4.95753E-04-1.26104E-15
 -1      1849 5.14992E-03-5.40637E-04-1.50578E-15
 -1      1850 5.32094E-03-5.54008E-04-1.57247E-15
 -1      1851 5.01338E-03-4.98543E-04-1.38828E-15
 -1      1852 5.49601E-03-5.77873E-04-1.64030E-15
 -1      1853 5.67669E-03-6.16165E-04-1.70868E-15
 -1      1854 5.32846E-03-5.23865E-04-1.51959E-15
 -1      1855 5.85490E-03-6.70231E-04-1.77466E-15
 -1      1856 6.03960E-03-7.48733E-04-1.84312E-15
 -1      1857 5.64784E-03-5.91914E-04-1.65093E-15
 -1      1858 6.24726E-03-8.61536E-04-1.91616E-15
 -1      1859 6.46353E-03-1.01759E-03-1.99381E-15
 -1      1860 5.99397E-03-7.38484E-04-1.78835E-15
 -1      1861 6.67648E-03-1.19177E-03-2.06893E-15
 -1      1862 6.89394E-03-1.40763E-03-2.14885E-15
 -1      1863 6.38242E-03-1.00757E-03-1.93431E-15
 -1      1864 9.17700E-03-7.49112E-04-1.91226E-15
 -1      1865 9.40352E-03-8.48099E-04-2.03530E-15
 -1      1866 4.51436E-04-2.32532E-04-4.61735E-17
 -1      1867 9.42731E-03-1.64983E-03-3.58872E-15
 -1      1868 9.65477E-03-1.55479E-03-3.77937E-15
 -1      1869 9.87509E-03-1.50607E-03-3.97284E-15
 -1      1870 1.00813E-02-1.49259E-03-4.16910E-15
 -1      1871 9.83525E-03-1.46371E-03-3.76537E-15
 -1      1872 1.02705E-02-1.50888E-03-4.35867E-15
 -1      1873 1.04517E-02-1.54601E-03-4.54832E-15
 -1      1874 1.02108E-02-1.44929E-03-4.14455E-15
 -1      1875 1.06362E-02-1.60236E-03-4.74925E-15
 -1      1876 1.08152E-02-1.67157E-03-4.95349E-15
 -1      1877 1.05523E-02-1.53170E-03-4.53066E-15
 -1      1878 1.09888E-02-1.74953E-03-5.16053E-15
 -1      1879 1.11587E-02-1.83380E-03-5.36793E-15
 -1      1880 1.08840E-02-1.67225E-03-4.93464E-15
 -1      1881 1.13242E-02-1.92201E-03-5.57920E-15
 -1      1882 1.14870E-02-2.01293E-03-5.79392E-15
 -1      1883 1.12044E-02-1.84139E-03-5.34830E-15
 -1      1884 1.16463E-02-2.10542E-03-6.01074E-15
 -1      1885 1.18036E-02-2.19882E-03-6.23313E-15
 -1      1886 1.15167E-02-2.02349E-03-5.77393E-15
 -1      1887 1.19583E-02-2.29268E-03-6.45736E-15
 -1      1888 1.21114E-02-2.38663E-03-6.68243E-15
 -1      1889 1.18227E-02-2.21052E-03-6.21177E-15
 -1      1890 1.22627E-02-2.48054E-03-6.91221E-15
 -1      1891 1.24128E-02-2.57422E-03-7.14079E-15
 -1      1892 1.21237E-02-2.39866E-03-6.66424E-15
 -1      1893 1.25542E-02-2.66299E-03-7.35848E-15
 -1      1894 1.26948E-02-2.75144E-03-7.57762E-15
 -1      1895 1.24132E-02-2.58156E-03-7.11097E-15
 -1      1896 1.28419E-02-2.84427E-03-7.80674E-15
 -1      1897 1.29883E-02-2.93675E-03-8.03883E-15
 -1      1898 1.26998E-02-2.76332E-03-7.55777E-15
 -1      1899 1.31341E-02-3.02893E-03-8.27435E-15
 -1      1900 1.32794E-02-3.12079E-03-8.51265E-15
 -1      1901 1.29915E-02-2.94844E-03-8.02502E-15
 -1      1902 1.34242E-02-3.21238E-03-8.75606E-15
 -1      1903 1.35687E-02-3.30369E-03-9.00202E-15
 -1      1904 1.32814E-02-3.13228E-03-8.50374E-15
 -1      1905 1.37129E-02-3.39477E-03-9.25188E-15
 -1      1906 1.38569E-02-3.48562E-03-9.50389E-15
 -1      1907 1.35701E-02-3.31501E-03-8.99428E-15
 -1      1908 1.40006E-02-3.57627E-03-9.75669E-15
 -1      1909 1.41442E-02-3.66673E-03-1.00120E-14
 -1      1910 1.38578E-02-3.49678E-03-9.49894E-15
 -1      1911 1.42877E-02-3.75702E-03-1.02694E-14
 -1      1912 1.44310E-02-3.84716E-03-1.05311E-14
 -1      1913 1.41449E-02-3.67775E-03-1.00070E-14
 -1      1914 1.45670E-02-3.93267E-03-1.07819E-14
 -1      1915 1.47030E-02-4.01806E-03-1.10337E-14
 -1      1916 1.44243E-02-3.85356E-03-1.05158E-14
 -1      1917 1.48461E-02-4.10784E-03-1.13047E-14
 -1      1918 1.49891E-02-4.19751E-03-1.15786E-14
 -1      1919 1.47035E-02-4.02886E-03-1.10358E-14
 -1      1920 1.51321E-02-4.28710E-03-1.18567E-14
 -1      1921 1.52750E-02-4.37661E-03-1.21387E-14
 -1      1922 1.49895E-02-4.20823E-03-1.15811E-14
 -1      1923 1.54179E-02-4.46605E-03-1.24201E-14
 -1      1924 1.55608E-02-4.55543E-03-1.27013E-14
 -1      1925 1.52754E-02-4.38726E-03-1.21373E-14
 -1      1926 1.57037E-02-4.64477E-03-1.29847E-14
 -1      1927 1.58466E-02-4.73406E-03-1.32672E-14
 -1      1928 1.55613E-02-4.56603E-03-1.27030E-14
 -1      1929 1.59894E-02-4.82332E-03-1.35454E-14
 -1      1930 1.61323E-02-4.91255E-03-1.38253E-14
 -1      1931 1.58470E-02-4.74462E-03-1.32677E-14
 -1      1932 1.62791E-02-5.00570E-03-1.41056E-14
 -1      1933 1.35855E-03 5.07473E-04 4.16361E-16
 -1      1934 1.21833E-03 4.83115E-04 3.51851E-16
 -1      1935 1.63695E-03 5.44793E-04 5.53106E-16
 -1      1936 1.49797E-03 5.27937E-04 4.83744E-16
 -1      1937 1.41160E-03 4.82315E-04 4.26999E-16
 -1      1938 1.91440E-03 5.70179E-04 6.96803E-16
 -1      1939 1.77571E-03 5.58797E-04 6.24622E-16
 -1      1940 1.69280E-03 5.16202E-04 5.58310E-16
 -1      1941 2.19218E-03 5.86830E-04 8.42967E-16
 -1      1942 2.05321E-03 5.79455E-04 7.69648E-16
 -1      1943 1.97304E-03 5.39001E-04 6.94933E-16
 -1      1944 2.47101E-03 5.97167E-04 9.87762E-16
 -1      1945 2.33144E-03 5.92675E-04 9.15785E-16
 -1      1946 2.25334E-03 5.53688E-04 8.33033E-16
 -1      1947 2.75130E-03 6.03093E-04 1.12780E-15
 -1      1948 2.61096E-03 6.00588E-04 1.05833E-15
 -1      1949 2.53433E-03 5.62549E-04 9.68965E-16
 -1      1950 3.03322E-03 6.06175E-04 1.26118E-15
 -1      1951 2.89206E-03 6.04910E-04 1.19521E-15
 -1      1952 2.81640E-03 5.67399E-04 1.09960E-15
 -1      1953 3.31681E-03 6.07758E-04 1.38492E-15
 -1      1954 3.17482E-03 6.07084E-04 1.32424E-15
 -1      1955 3.09975E-03 5.69747E-04 1.22263E-15
 -1      1956 3.60192E-03 6.09044E-04 1.49785E-15
 -1      1957 3.45920E-03 6.08376E-04 1.44286E-15
 -1      1958 3.38445E-03 5.70903E-04 1.33632E-15
 -1      1959 3.88828E-03 6.11124E-04 1.59935E-15
 -1      1960 3.74499E-03 6.09932E-04 1.55044E-15
 -1      1961 3.67044E-03 5.72048E-04 1.43857E-15
 -1      1962 4.17541E-03 6.14945E-04 1.68493E-15
 -1      1963 4.03181E-03 6.12777E-04 1.64433E-15
 -1      1964 3.95753E-03 5.74259E-04 1.52856E-15
 -1      1965 4.46260E-03 6.21196E-04 1.75271E-15
 -1      1966 4.31908E-03 6.17749E-04 1.72118E-15
 -1      1967 4.24539E-03 5.78462E-04 1.60251E-15
 -1      1968 4.74893E-03 6.30092E-04 1.80040E-15
 -1      1969 4.60598E-03 6.25333E-04 1.77912E-15
 -1      1970 4.53348E-03 5.85298E-04 1.65861E-15
 -1      1971 5.03318E-03 6.41053E-04 1.82908E-15
 -1      1972 4.89144E-03 6.35391E-04 1.81737E-15
 -1      1973 4.82103E-03 5.94882E-04 1.69604E-15
 -1      1974 5.31403E-03 6.52328E-04 1.83658E-15
 -1      1975 5.17417E-03 6.46807E-04 1.83503E-15
 -1      1976 5.10704E-03 6.06455E-04 1.71266E-15
 -1      1977 5.59013E-03 6.60660E-04 1.82482E-15
 -1      1978 5.45279E-03 6.57109E-04 1.83439E-15
 -1      1979 5.39030E-03 6.17982E-04 1.71040E-15
 -1      1980 5.86045E-03 6.61183E-04 1.78651E-15
 -1      1981 5.72607E-03 6.62230E-04 1.80846E-15
 -1      1982 5.66956E-03 6.25821E-04 1.68650E-15
 -1      1983 6.12459E-03 6.47755E-04 1.72068E-15
 -1      1984 5.99326E-03 6.56593E-04 1.75753E-15
 -1      1985 5.94383E-03 6.24661E-04 1.63673E-15
 -1      1986 6.38313E-03 6.13839E-04 1.62809E-15
 -1      1987 6.25442E-03 6.33717E-04 1.67738E-15
 -1      1988 6.21273E-03 6.07962E-04 1.55983E-15
 -1      1989 6.63774E-03 5.53845E-04 1.50910E-15
 -1      1990 6.51070E-03 5.87354E-04 1.57204E-15
 -1      1991 6.47684E-03 5.68997E-04 1.45675E-15
 -1      1992 6.89095E-03 4.64534E-04 1.36375E-15
 -1      1993 6.76424E-03 5.12933E-04 1.44024E-15
 -1      1994 6.73784E-03 5.02361E-04 1.32888E-15
 -1      1995 7.14565E-03 3.45912E-04 1.18792E-15
 -1      1996 7.01785E-03 4.08768E-04 1.28000E-15
 -1      1997 6.99821E-03 4.05420E-04 1.17263E-15
 -1      1998 7.40438E-03 2.01224E-04 9.79685E-16
 -1      1999 7.27432E-03 2.76545E-04 1.08811E-15
 -1      2000 7.26061E-03 2.79080E-04 9.87654E-16
 -1      2001 7.66883E-03 3.60451E-05 7.41052E-16
 -1      2002 7.53580E-03 1.20826E-04 8.63459E-16
 -1      2003 7.52720E-03 1.27510E-04 7.68618E-16
 -1      2004 7.93960E-03-1.43111E-04 4.71804E-16
 -1      2005 7.80343E-03-5.21612E-05 6.09810E-16
 -1      2006 7.79911E-03-4.30433E-05 5.18953E-16
 -1      2007 8.21635E-03-3.30121E-04 1.79042E-16
 -1      2008 8.07731E-03-2.35952E-04 3.28974E-16
 -1      2009 8.07643E-03-2.25804E-04 2.43471E-16
 -1      2010 8.49811E-03-5.20134E-04-1.41122E-16
 -1      2011 8.35672E-03-4.24984E-04 2.24972E-17
 -1      2012 8.35847E-03-4.14773E-04-5.81132E-17
 -1      2013 8.78359E-03-7.09879E-04-4.85424E-16
 -1      2014 8.64051E-03-6.15182E-04-3.09865E-16
 -1      2015 8.64411E-03-6.05461E-04-3.87480E-16
 -1      2016 9.07156E-03-8.97551E-04-8.55056E-16
 -1      2017 8.92737E-03-8.04044E-04-6.66866E-16
 -1      2018 8.93216E-03-7.95038E-04-7.39683E-16
 -1      2019 9.36091E-03-1.08247E-03-1.25026E-15
 -1      2020 9.21614E-03-9.90372E-04-1.04971E-15
 -1      2021 9.22159E-03-9.82094E-04-1.11842E-15
 -1      2022 9.65082E-03-1.26466E-03-1.66693E-15
 -1      2023 9.50586E-03-1.17389E-03-1.45505E-15
 -1      2024 9.51158E-03-1.16624E-03-1.52050E-15
 -1      2025 9.94073E-03-1.44457E-03-2.10479E-15
 -1      2026 9.79581E-03-1.35488E-03-1.88455E-15
 -1      2027 9.80157E-03-1.34769E-03-1.94250E-15
 -1      2028 1.02303E-02-1.62275E-03-2.56076E-15
 -1      2029 1.00856E-02-1.53385E-03-2.33047E-15
 -1      2030 1.00912E-02-1.52697E-03-2.38548E-15
 -1      2031 1.05193E-02-1.79976E-03-3.03112E-15
 -1      2032 1.03748E-02-1.71137E-03-2.79346E-15
 -1      2033 1.03804E-02-1.70467E-03-2.84485E-15
 -1      2034 1.08076E-02-1.97608E-03-3.50794E-15
 -1      2035 1.06635E-02-1.88799E-03-3.26890E-15
 -1      2036 1.06689E-02-1.88135E-03-3.31576E-15
 -1      2037 1.10954E-02-2.15208E-03-3.99202E-15
 -1      2038 1.09516E-02-2.06411E-03-3.74990E-15
 -1      2039 1.09569E-02-2.05746E-03-3.79537E-15
 -1      2040 1.13827E-02-2.32801E-03-4.47804E-15
 -1      2041 1.12392E-02-2.24004E-03-4.23431E-15
 -1      2042 1.12444E-02-2.23334E-03-4.27922E-15
 -1      2043 1.16696E-02-2.50403E-03-4.96536E-15
 -1      2044 1.15262E-02-2.41600E-03-4.72269E-15
 -1      2045 1.15314E-02-2.40923E-03-4.76749E-15
 -1      2046 1.19561E-02-2.68025E-03-5.45329E-15
 -1      2047 1.18129E-02-2.59211E-03-5.20920E-15
 -1      2048 1.18181E-02-2.58525E-03-5.25536E-15
 -1      2049 1.22423E-02-2.85669E-03-5.93868E-15
 -1      2050 1.20992E-02-2.76844E-03-5.69694E-15
 -1      2051 1.21045E-02-2.76149E-03-5.74397E-15
 -1      2052 1.25284E-02-3.03338E-03-6.42641E-15
 -1      2053 1.23854E-02-2.94501E-03-6.18269E-15
 -1      2054 1.23906E-02-2.93798E-03-6.23247E-15
 -1      2055 1.28143E-02-3.21028E-03-6.91033E-15
 -1      2056 1.26713E-02-3.12180E-03-6.66866E-15
 -1      2057 1.26766E-02-3.11471E-03-6.72037E-15
 -1      2058 1.31001E-02-3.38738E-03-7.39720E-15
 -1      2059 1.29572E-02-3.29881E-03-7.15145E-15
 -1      2060 1.29625E-02-3.29165E-03-7.20573E-15
 -1      2061 1.33858E-02-3.56462E-03-7.89016E-15
 -1      2062 1.32430E-02-3.47598E-03-7.64372E-15
 -1      2063 1.32483E-02-3.46879E-03-7.69525E-15
 -1      2064 1.36431E-02-3.72503E-03-8.33563E-15
 -1      2065 1.35002E-02-3.63635E-03-8.08597E-15
 -1      2066 1.35056E-02-3.62912E-03-8.14031E-15
 -1      2067 1.37344E-02-3.77260E-03-8.53464E-15
 -1      2068 1.42050E-02-3.99921E-03-9.66395E-15
 -1      2069 1.41177E-02-3.95711E-03-9.45161E-15
 -1      2070 1.40304E-02-3.91500E-03-9.24272E-15
 -1      2071 1.39431E-02-3.87288E-03-9.03443E-15
 -1      2072 1.39503E-02-3.85923E-03-9.12324E-15
 -1      2073 1.38216E-02-3.81474E-03-8.74024E-15
 -1      2074 1.43767E-02-4.08196E-03-1.00751E-14
 -1      2075 1.42908E-02-4.04059E-03-9.86942E-15
 -1      2076 1.41235E-02-3.94270E-03-9.53469E-15
 -1      2077 1.45515E-02-4.16609E-03-1.04965E-14
 -1      2078 1.44641E-02-4.12403E-03-1.02856E-14
 -1      2079 1.42967E-02-4.02611E-03-9.94549E-15
 -1      2080 1.47263E-02-4.25019E-03-1.09130E-14
 -1      2081 1.46389E-02-4.20815E-03-1.07051E-14
 -1      2082 1.44715E-02-4.11020E-03-1.03590E-14
 -1      2083 1.49012E-02-4.33428E-03-1.13263E-14
 -1      2084 1.48137E-02-4.29224E-03-1.11191E-14
 -1      2085 1.46463E-02-4.19424E-03-1.07688E-14
 -1      2086 1.50761E-02-4.41836E-03-1.17282E-14
 -1      2087 1.49886E-02-4.37632E-03-1.15296E-14
 -1      2088 1.48212E-02-4.27827E-03-1.11748E-14
 -1      2089 1.52510E-02-4.50246E-03-1.21080E-14
 -1      2090 1.51635E-02-4.46040E-03-1.19205E-14
 -1      2091 1.49961E-02-4.36231E-03-1.15690E-14
 -1      2092 1.54230E-02-4.58516E-03-1.24662E-14
 -1      2093 1.53370E-02-4.54381E-03-1.22878E-14
 -1      2094 1.51696E-02-4.44565E-03-1.19418E-14
 -1      2095 1.55981E-02-4.66934E-03-1.28157E-14
 -1      2096 1.55106E-02-4.62725E-03-1.26439E-14
 -1      2097 1.53431E-02-4.52904E-03-1.22975E-14
 -1      2098 1.57734E-02-4.75356E-03-1.31543E-14
 -1      2099 1.56857E-02-4.71144E-03-1.29857E-14
 -1      2100 1.55182E-02-4.61318E-03-1.26443E-14
 -1      2101 1.59487E-02-4.83781E-03-1.34900E-14
 -1      2102 1.58610E-02-4.79568E-03-1.33216E-14
 -1      2103 1.56935E-02-4.69738E-03-1.29848E-14
 -1      2104 1.10784E-03 4.65231E-04 3.04593E-16
 -1      2105 9.65385E-04 4.31467E-04 2.46073E-16
 -1      2106 9.33311E-04 4.02080E-04 2.31938E-16
 -1      2107 1.15834E-03 4.44180E-04 3.18823E-16
 -1      2108 9.62734E-03-9.38718E-04-2.16559E-15
 -1      2109 9.80976E-03-1.00435E-03-2.27678E-15
 -1      2110 8.66997E-03-4.59839E-04-1.62956E-15
 -1      2111 8.88089E-03-5.92418E-04-1.74479E-15
 -1      2112 1.02353E-02-1.13376E-03-2.62611E-15
 -1      2113 1.02852E-02-1.14714E-03-2.69766E-15
 -1      2114 3.27403E-04-8.82145E-05-1.66696E-17
 -1      2115 3.29503E-04-1.01380E-04-2.03017E-17
 -1      2116 4.46585E-04-1.44025E-04-3.07100E-17
 -1      2117 4.40286E-04-1.08903E-04-2.09929E-17
 -1      2118 8.96004E-03-1.94247E-03-3.24647E-15
 -1      2119 9.19434E-03-1.77780E-03-3.41503E-15
 -1      2120 9.40343E-03-1.62841E-03-3.40106E-15
 -1      2121 8.26008E-03-2.18453E-04-1.40965E-15
 -1      2122 8.46273E-03-3.37554E-04-1.51910E-15
 -1      2123 8.51765E-03-4.24380E-04-1.54972E-15
 -1      2124 7.83556E-03 1.94904E-05-1.18417E-15
 -1      2125 8.00441E-03-7.54594E-05-1.26933E-15
 -1      2126 7.52006E-03 1.31855E-04-1.04411E-15
 -1      2127 7.67591E-03 8.65284E-05-1.11394E-15
 -1      2128 7.72512E-03 5.49057E-05-1.08602E-15
 -1      2129 7.16290E-03 1.43513E-04-9.29080E-16
 -1      2130 7.31973E-03 1.54055E-04-9.78628E-16
 -1      2131 6.79539E-03 4.33745E-05-8.64705E-16
 -1      2132 6.96157E-03 1.02274E-04-8.80860E-16
 -1      2133 6.42677E-03-1.15326E-04-8.53186E-16
 -1      2134 6.60384E-03-3.27182E-05-8.55625E-16
 -1      2135 6.02004E-03-2.95000E-04-8.96893E-16
 -1      2136 6.20156E-03-2.15144E-04-8.71942E-16
 -1      2137 5.66798E-03-4.38147E-04-9.62975E-16
 -1      2138 5.82826E-03-3.76761E-04-9.26193E-16
 -1      2139 5.39900E-03-5.28700E-04-1.05843E-15
 -1      2140 5.52439E-03-4.88538E-04-1.01070E-15
 -1      2141 5.60695E-03-4.67939E-04-9.26837E-16
 -1      2142 5.21944E-03-5.91230E-04-1.19930E-15
 -1      2143 5.27722E-03-5.70301E-04-1.13647E-15
 -1      2144 5.22389E-03-6.28743E-04-1.33986E-15
 -1      2145 5.19927E-03-6.12270E-04-1.26952E-15
 -1      2146 5.42455E-03-7.15485E-04-1.51683E-15
 -1      2147 5.31202E-03-6.69065E-04-1.43663E-15
 -1      2148 5.75898E-03-8.71936E-04-1.68480E-15
 -1      2149 5.57773E-03-7.91790E-04-1.60377E-15
 -1      2150 6.23228E-03-1.12953E-03-1.86949E-15
 -1      2151 6.00592E-03-9.93359E-04-1.78468E-15
 -1      2152 6.74443E-03-1.49279E-03-2.06074E-15
 -1      2153 6.51757E-03-1.31711E-03-1.97491E-15
 -1      2154 7.18153E-03-1.85156E-03-2.22562E-15
 -1      2155 6.96324E-03-1.67089E-03-2.14295E-15
 -1      2156 6.89431E-03-1.53760E-03-2.11785E-15
 -1      2157 7.63223E-03-2.20526E-03-2.40983E-15
 -1      2158 7.44940E-03-2.07111E-03-2.33312E-15
 -1      2159 7.98895E-03-2.35193E-03-2.56585E-15
 -1      2160 7.81660E-03-2.30108E-03-2.48618E-15
 -1      2161 7.75151E-03-2.26544E-03-2.48537E-15
 -1      2162 8.38426E-03-2.29099E-03-2.73111E-15
 -1      2163 8.22000E-03-2.34875E-03-2.67147E-15
 -1      2164 8.73955E-03-2.08260E-03-2.85121E-15
 -1      2165 8.56101E-03-2.20170E-03-2.79003E-15
 -1      2166 8.47163E-03-2.26225E-03-2.83831E-15
 -1      2167 9.19664E-03-1.77547E-03-2.91986E-15
 -1      2168 8.99552E-03-1.91110E-03-2.89834E-15
 -1      2169 9.59679E-03-1.52704E-03-2.94052E-15
 -1      2170 9.40849E-03-1.64160E-03-2.93040E-15
 -1      2171 9.94355E-03-1.33522E-03-2.95116E-15
 -1      2172 9.78633E-03-1.41515E-03-2.95748E-15
 -1      2173 1.01995E-02-1.22084E-03-2.88468E-15
 -1      2174 1.01012E-02-1.26006E-03-2.92792E-15
 -1      2175 1.02952E-02-1.16696E-03-2.75868E-15
 -1      2176 1.02678E-02-1.18697E-03-2.81676E-15
 -1      2177 9.98930E-03-1.06196E-03-2.39912E-15
 -1      2178 1.01203E-02-1.09914E-03-2.50578E-15
 -1      2179 1.61367E-02-4.92701E-03-1.38350E-14
 -1      2180 9.49689E-03-9.40413E-04-2.13381E-15
 -1      2181 6.00377E-04-2.93985E-04-6.55536E-17
 -1      2182 6.56391E-04-2.88286E-04-7.01614E-17
 -1      2183 8.11287E-03-2.39841E-03-2.72259E-15
 -1      2184 8.35018E-03-2.35338E-03-2.85985E-15
 -1      2185 8.99730E-03-7.02646E-04-1.83027E-15
 -1      2186 7.14482E-03-1.66669E-03-2.24426E-15
 -1      2187 7.37626E-03-1.91662E-03-2.33841E-15
 -1      2188 7.59452E-03-2.12483E-03-2.44395E-15
 -1      2189 7.79432E-03-2.28258E-03-2.53882E-15
 -1      2190 1.37415E-02-3.75900E-03-8.62696E-15
 -1      2191 1.01863E-02-1.14533E-03-2.63937E-15
 -1      2192 1.60845E-02-4.90341E-03-1.37398E-14
 -1      2193 1.60009E-02-4.86141E-03-1.35842E-14
 -1      2194 1.58333E-02-4.76309E-03-1.32532E-14
 -1      2195 1.59377E-02-4.81027E-03-1.34487E-14
 -1      2196 9.89125E-03-1.07447E-03-2.39091E-15
 -1      2197 8.08951E-03-1.52925E-04-1.29524E-15
 -1      2198 1.03002E-02-1.17010E-03-2.82518E-15
 -1      2199 1.02422E-02-1.20142E-03-2.95509E-15
 -1      2200 1.00251E-02-1.28260E-03-3.04532E-15
 -1      2201 9.68122E-03-1.45048E-03-3.04886E-15
 -1      2202 8.85644E-03-1.99759E-03-2.95041E-15
 -1      2203 8.11884E-03-2.37551E-03-2.66771E-15
 -1      2204 7.34468E-03-1.94633E-03-2.30241E-15
 -1      2205 6.41754E-03-1.17681E-03-1.93475E-15
 -1      2206 5.90443E-03-8.81072E-04-1.73428E-15
 -1      2207 5.51269E-03-7.04928E-04-1.55022E-15
 -1      2208 5.26282E-03-6.17374E-04-1.36826E-15
 -1      2209 5.33713E-03-5.48053E-04-1.05376E-15
 -1      2210 5.92738E-03-3.46581E-04-8.48307E-16
 -1      2211 6.32414E-03-1.67963E-04-7.98556E-16
 -1      2212 6.70646E-03 1.01996E-05-7.85857E-16
 -1      2213 7.41388E-03 1.54668E-04-9.49815E-16
 -1      2214 7.05709E-03 1.34145E-04-8.39172E-16
 -1      2215 5.19981E-03-5.88414E-04-1.20194E-15
 -1      2216 9.29271E-03-1.68942E-03-3.01641E-15
 -1      2217 8.48481E-03-2.27416E-03-2.92304E-15
 -1      2218 8.70372E-03-2.13311E-03-3.07875E-15
 -1      2219 5.47828E-04-5.45624E-05 9.08019E-19
 -1      2220 5.48920E-04-7.10913E-05-5.35325E-18
 -1      2221 5.50399E-04-8.82499E-05-1.15468E-17
 -1      2222 5.52322E-04-1.06089E-04-1.82281E-17
 -1      2223 6.65375E-04-9.42372E-05-1.05574E-17
 -1      2224 5.46322E-04 8.71266E-06 2.66578E-17
 -1      2225 5.46313E-04-6.89587E-06 2.01526E-17
 -1      2226 5.47100E-04 4.02827E-05 3.96140E-17
 -1      2227 5.46582E-04 2.44240E-05 3.29597E-17
 -1      2228 6.61151E-04 1.96003E-05 3.91397E-17
 -1      2229 5.48996E-04 7.25255E-05 5.33292E-17
 -1      2230 5.47894E-04 5.62135E-05 4.63090E-17
 -1      2231 6.62531E-04 5.69274E-05 5.62023E-17
 -1      2232 5.52480E-04 1.07700E-04 6.82505E-17
 -1      2233 5.50510E-04 8.97612E-05 6.06882E-17
 -1      2234 6.65504E-04 9.59438E-05 7.44576E-17
 -1      2235 5.58427E-04 1.46845E-04 8.40528E-17
 -1      2236 5.55083E-04 1.26699E-04 7.60839E-17
 -1      2237 6.70729E-04 1.38367E-04 9.40816E-17
 -1      2238 5.68795E-04 1.92331E-04 1.00668E-16
 -1      2239 5.62908E-04 1.68670E-04 9.21572E-17
 -1      2240 6.79460E-04 1.85694E-04 1.14831E-16
 -1      2241 5.88110E-04 2.47923E-04 1.16619E-16
 -1      2242 5.77050E-04 2.18668E-04 1.08759E-16
 -1      2243 6.94454E-04 2.40510E-04 1.35918E-16
 -1      2244 6.42086E-04 2.99608E-04 1.35037E-16
 -1      2245 6.14452E-04 2.72163E-04 1.25767E-16
 -1      2246 7.31647E-04 2.95723E-04 1.57142E-16
 -1      2247 7.88558E-04 3.47477E-04 1.79883E-16
 -1      2248 9.01073E-04-3.39988E-04-1.01901E-16
 -1      2249 1.04532E-03-3.73161E-04-1.24954E-16
 -1      2250 9.80321E-03-1.43510E-03-3.58273E-15
 -1      2251 9.99373E-03-1.40137E-03-3.77254E-15
 -1      2252 5.85156E-04-2.35323E-04-5.58500E-17
 -1      2253 7.70747E-04-2.99581E-04-8.12745E-17
 -1      2254 8.30435E-04-2.88408E-04-8.25755E-17
 -1      2255 5.75725E-04-2.07590E-04-4.92228E-17
 -1      2256 8.83314E-03-6.59642E-04-1.74815E-15
 -1      2257 9.10181E-03-8.06627E-04-1.91930E-15
 -1      2258 6.83556E-03-1.43979E-03-2.09992E-15
 -1      2259 1.18876E-03-4.01234E-04-1.49633E-16
 -1      2260 1.33181E-03-4.24669E-04-1.75898E-16
 -1      2261 1.10323E-03-3.53968E-04-1.23775E-16
 -1      2262 1.46713E-03-4.43361E-04-2.02095E-16
 -1      2263 1.60215E-03-4.58854E-04-2.29824E-16
 -1      2264 1.38274E-03-3.98842E-04-1.69827E-16
 -1      2265 1.74396E-03-4.72316E-04-2.60656E-16
 -1      2266 1.88560E-03-4.83082E-04-2.92694E-16
 -1      2267 1.66126E-03-4.30181E-04-2.21204E-16
 -1      2268 2.02714E-03-4.91620E-04-3.26087E-16
 -1      2269 2.16867E-03-4.98121E-04-3.61026E-16
 -1      2270 1.94613E-03-4.51486E-04-2.79684E-16
 -1      2271 2.31027E-03-5.02915E-04-3.96967E-16
 -1      2272 2.45198E-03-5.06153E-04-4.34386E-16
 -1      2273 2.23065E-03-4.64379E-04-3.43204E-16
 -1      2274 2.59388E-03-5.08068E-04-4.73281E-16
 -1      2275 2.73600E-03-5.08782E-04-5.13166E-16
 -1      2276 2.51518E-03-4.70833E-04-4.11346E-16
 -1      2277 2.87837E-03-5.08453E-04-5.54461E-16
 -1      2278 3.02104E-03-5.07182E-04-5.96772E-16
 -1      2279 2.79999E-03-4.72325E-04-4.85099E-16
 -1      2280 3.16401E-03-5.05079E-04-6.40858E-16
 -1      2281 3.30734E-03-5.02227E-04-6.85677E-16
 -1      2282 3.08520E-03-4.69963E-04-5.64151E-16
 -1      2283 3.44378E-03-4.98913E-04-7.28814E-16
 -1      2284 3.58060E-03-4.95067E-04-7.74703E-16
 -1      2285 3.36363E-03-4.64779E-04-6.46401E-16
 -1      2286 3.72488E-03-4.90566E-04-8.23357E-16
 -1      2287 3.86959E-03-4.85666E-04-8.73799E-16
 -1      2288 3.64218E-03-4.57470E-04-7.33612E-16
 -1      2289 4.01445E-03-4.80587E-04-9.25760E-16
 -1      2290 4.15973E-03-4.75417E-04-9.79089E-16
 -1      2291 3.92745E-03-4.48643E-04-8.29482E-16
 -1      2292 4.30492E-03-4.70593E-04-1.03487E-15
 -1      2293 4.45046E-03-4.66253E-04-1.09166E-15
 -1      2294 4.21127E-03-4.39798E-04-9.31953E-16
 -1      2295 4.59554E-03-4.63258E-04-1.14997E-15
 -1      2296 4.74084E-03-4.61869E-04-1.21057E-15
 -1      2297 4.49194E-03-4.33237E-04-1.04098E-15
 -1      2298 4.88526E-03-4.63651E-04-1.27243E-15
 -1      2299 5.02991E-03-4.69202E-04-1.33513E-15
 -1      2300 4.76706E-03-4.33028E-04-1.15722E-15
 -1      2301 5.17352E-03-4.81053E-04-1.39998E-15
 -1      2302 5.31824E-03-5.00886E-04-1.46530E-15
 -1      2303 5.03397E-03-4.46139E-04-1.28054E-15
 -1      2304 5.45609E-03-5.30256E-04-1.52660E-15
 -1      2305 5.59765E-03-5.73526E-04-1.59131E-15
 -1      2306 5.28579E-03-4.82861E-04-1.40412E-15
 -1      2307 5.75140E-03-6.36454E-04-1.66039E-15
 -1      2308 5.91656E-03-7.29562E-04-1.73223E-15
 -1      2309 5.53586E-03-5.61003E-04-1.53283E-15
 -1      2310 7.93346E-03-2.36431E-03-2.61645E-15
 -1      2311 1.36271E-02-3.68726E-03-8.42745E-15
 -1      2312 8.39650E-03-3.84969E-04-1.46934E-15
 -1      2313 8.57669E-03-5.03225E-04-1.58222E-15
 -1      2314 9.38599E-03-9.44215E-04-2.11106E-15
 -1      2315 9.58921E-03-1.02327E-03-2.24598E-15
 -1      2316 1.01785E-02-1.39441E-03-3.93740E-15
 -1      2317 1.03337E-02-1.42094E-03-4.12296E-15
 -1      2318 1.04910E-02-1.46865E-03-4.31923E-15
 -1      2319 1.06454E-02-1.53045E-03-4.51595E-15
 -1      2320 1.04460E-02-1.41022E-03-4.10692E-15
 -1      2321 1.07972E-02-1.60255E-03-4.71800E-15
 -1      2322 1.09487E-02-1.68242E-03-4.92087E-15
 -1      2323 1.07236E-02-1.53824E-03-4.50181E-15
 -1      2324 1.10988E-02-1.76724E-03-5.12378E-15
 -1      2325 1.12491E-02-1.85595E-03-5.33188E-15
 -1      2326 1.10034E-02-1.69761E-03-4.90378E-15
 -1      2327 1.13984E-02-1.94680E-03-5.54610E-15
 -1      2328 1.15477E-02-2.03933E-03-5.76057E-15
 -1      2329 1.12875E-02-1.87341E-03-5.31575E-15
 -1      2330 1.16961E-02-2.13261E-03-5.97704E-15
 -1      2331 1.18444E-02-2.22641E-03-6.19833E-15
 -1      2332 1.15748E-02-2.05693E-03-5.74496E-15
 -1      2333 1.19919E-02-2.32031E-03-6.42241E-15
 -1      2334 1.21391E-02-2.41419E-03-6.64980E-15
 -1      2335 1.18638E-02-2.24341E-03-6.18254E-15
 -1      2336 1.22784E-02-2.50319E-03-6.86776E-15
 -1      2337 1.24173E-02-2.59197E-03-7.08583E-15
 -1      2338 1.21461E-02-2.42576E-03-6.62410E-15
 -1      2339 1.25631E-02-2.68513E-03-7.31515E-15
 -1      2340 1.27086E-02-2.77797E-03-7.54683E-15
 -1      2341 1.24282E-02-2.60753E-03-7.07252E-15
 -1      2342 1.28537E-02-2.87050E-03-7.78113E-15
 -1      2343 1.29985E-02-2.96270E-03-8.01797E-15
 -1      2344 1.27171E-02-2.79293E-03-7.53812E-15
 -1      2345 1.31430E-02-3.05462E-03-8.25663E-15
 -1      2346 1.32873E-02-3.14623E-03-8.49936E-15
 -1      2347 1.30054E-02-2.97717E-03-8.01087E-15
 -1      2348 1.34313E-02-3.23759E-03-8.74612E-15
 -1      2349 1.35752E-02-3.32870E-03-8.99535E-15
 -1      2350 1.32931E-02-3.16031E-03-8.49616E-15
 -1      2351 1.37189E-02-3.41958E-03-9.24623E-15
 -1      2352 1.38625E-02-3.51025E-03-9.49800E-15
 -1      2353 1.35804E-02-3.34246E-03-8.99385E-15
 -1      2354 1.40059E-02-3.60074E-03-9.75290E-15
 -1      2355 1.41493E-02-3.69104E-03-1.00114E-14
 -1      2356 1.38672E-02-3.52377E-03-9.49986E-15
 -1      2357 1.42854E-02-3.77670E-03-1.02581E-14
 -1      2358 1.44214E-02-3.86222E-03-1.05088E-14
 -1      2359 1.41465E-02-3.69986E-03-1.00015E-14
 -1      2360 1.45645E-02-3.95212E-03-1.07744E-14
 -1      2361 1.47076E-02-4.04191E-03-1.10414E-14
 -1      2362 1.44257E-02-3.87539E-03-1.05133E-14
 -1      2363 1.48506E-02-4.13159E-03-1.13149E-14
 -1      2364 1.49936E-02-4.22118E-03-1.15902E-14
 -1      2365 1.47118E-02-4.05495E-03-1.10502E-14
 -1      2366 1.51366E-02-4.31070E-03-1.18667E-14
 -1      2367 1.52795E-02-4.40014E-03-1.21459E-14
 -1      2368 1.49977E-02-4.23413E-03-1.15972E-14
 -1      2369 1.54224E-02-4.48952E-03-1.24288E-14
 -1      2370 1.55653E-02-4.57886E-03-1.27129E-14
 -1      2371 1.52836E-02-4.41302E-03-1.21543E-14
 -1      2372 1.56801E-02-4.64995E-03-1.29416E-14
 -1      2373 1.58229E-02-4.73921E-03-1.32233E-14
 -1      2374 1.57707E-02-4.71563E-03-1.31231E-14
 -1      2375 1.55412E-02-4.57348E-03-1.26670E-14
 -1      2376 2.03295E-03 5.07028E-04 6.88672E-16
 -1      2377 1.89181E-03 4.97993E-04 6.23809E-16
 -1      2378 1.75057E-03 4.86712E-04 5.59746E-16
 -1      2379 1.60913E-03 4.72979E-04 4.96036E-16
 -1      2380 1.80992E-03 4.56568E-04 5.57050E-16
 -1      2381 1.46740E-03 4.56193E-04 4.34033E-16
 -1      2382 1.32519E-03 4.36107E-04 3.74090E-16
 -1      2383 1.52525E-03 4.29365E-04 4.37977E-16
 -1      2384 2.31528E-03 5.19872E-04 8.19047E-16
 -1      2385 2.17409E-03 5.14263E-04 7.54103E-16
 -1      2386 2.09398E-03 4.74470E-04 6.79212E-16
 -1      2387 2.59806E-03 5.27373E-04 9.46075E-16
 -1      2388 2.45660E-03 5.24192E-04 8.83313E-16
 -1      2389 2.37795E-03 4.85545E-04 8.01361E-16
 -1      2390 2.88165E-03 5.31249E-04 1.06738E-15
 -1      2391 2.73975E-03 5.29681E-04 1.00759E-15
 -1      2392 2.66222E-03 4.91760E-04 9.19674E-16
 -1      2393 3.16625E-03 5.32942E-04 1.18079E-15
 -1      2394 3.02382E-03 5.32295E-04 1.12524E-15
 -1      2395 2.94710E-03 4.94725E-04 1.03178E-15
 -1      2396 3.45199E-03 5.33720E-04 1.28390E-15
 -1      2397 3.30899E-03 5.33379E-04 1.23351E-15
 -1      2398 3.23281E-03 4.95805E-04 1.13512E-15
 -1      2399 3.73890E-03 5.34739E-04 1.37557E-15
 -1      2400 3.59531E-03 5.34138E-04 1.33133E-15
 -1      2401 3.51955E-03 4.96219E-04 1.22774E-15
 -1      2402 4.02692E-03 5.37055E-04 1.45410E-15
 -1      2403 3.88280E-03 5.35680E-04 1.41692E-15
 -1      2404 3.80745E-03 4.97088E-04 1.30847E-15
 -1      2405 4.31586E-03 5.41574E-04 1.51700E-15
 -1      2406 4.17132E-03 5.38996E-04 1.48776E-15
 -1      2407 4.09661E-03 4.99447E-04 1.37654E-15
 -1      2408 4.60537E-03 5.48895E-04 1.56139E-15
 -1      2409 4.46062E-03 5.44865E-04 1.54106E-15
 -1      2410 4.38702E-03 5.04185E-04 1.42787E-15
 -1      2411 4.89485E-03 5.59051E-04 1.58815E-15
 -1      2412 4.75021E-03 5.53645E-04 1.57755E-15
 -1      2413 4.67848E-03 5.11878E-04 1.46157E-15
 -1      2414 5.18342E-03 5.71129E-04 1.59370E-15
 -1      2415 5.03937E-03 5.64948E-04 1.59359E-15
 -1      2416 4.97055E-03 5.22506E-04 1.47634E-15
 -1      2417 5.46991E-03 5.82836E-04 1.58106E-15
 -1      2418 5.32705E-03 5.77227E-04 1.58935E-15
 -1      2419 5.26240E-03 5.35031E-04 1.47168E-15
 -1      2420 5.75304E-03 5.90147E-04 1.54458E-15
 -1      2421 5.61200E-03 5.87354E-04 1.56627E-15
 -1      2422 5.55278E-03 5.46918E-04 1.44737E-15
 -1      2423 6.03169E-03 5.87274E-04 1.48479E-15
 -1      2424 5.89297E-03 5.90395E-04 1.51841E-15
 -1      2425 5.84024E-03 5.53738E-04 1.40162E-15
 -1      2426 6.30538E-03 5.67207E-04 1.39689E-15
 -1      2427 6.16910E-03 5.79840E-04 1.44371E-15
 -1      2428 6.12342E-03 5.49149E-04 1.32949E-15
 -1      2429 6.57472E-03 5.22968E-04 1.28479E-15
 -1      2430 6.44042E-03 5.48495E-04 1.34379E-15
 -1      2431 6.40173E-03 5.25569E-04 1.23180E-15
 -1      2432 6.84150E-03 4.49327E-04 1.14642E-15
 -1      2433 6.70817E-03 4.90033E-04 1.21940E-15
 -1      2434 6.67588E-03 4.75702E-04 1.10999E-15
 -1      2435 7.10831E-03 3.44342E-04 9.79780E-16
 -1      2436 6.97462E-03 4.00720E-04 1.06604E-15
 -1      2437 6.94796E-03 3.94548E-04 9.61254E-16
 -1      2438 7.37775E-03 2.09965E-04 7.83051E-16
 -1      2439 7.24248E-03 2.80564E-04 8.85305E-16
 -1      2440 7.22081E-03 2.81022E-04 7.84285E-16
 -1      2441 7.65162E-03 5.14185E-05 5.55857E-16
 -1      2442 7.51402E-03 1.33303E-04 6.73425E-16
 -1      2443 7.49699E-03 1.38319E-04 5.78286E-16
 -1      2444 7.93053E-03-1.24344E-04 2.96719E-16
 -1      2445 7.79045E-03-3.47569E-05 4.30144E-16
 -1      2446 7.77793E-03-2.71792E-05 3.40887E-16
 -1      2447 8.21405E-03-3.10336E-04 1.35254E-17
 -1      2448 8.07180E-03-2.16449E-04 1.57968E-16
 -1      2449 8.06364E-03-2.07826E-04 7.37935E-17
 -1      2450 8.50109E-03-5.00790E-04-2.97370E-16
 -1      2451 8.35725E-03-4.05289E-04-1.38412E-16
 -1      2452 8.35309E-03-3.96549E-04-2.18331E-16
 -1      2453 8.79040E-03-6.91684E-04-6.34096E-16
 -1      2454 8.64558E-03-5.96356E-04-4.62602E-16
 -1      2455 8.64482E-03-5.87949E-04-5.37046E-16
 -1      2456 9.08086E-03-8.80697E-04-9.96937E-16
 -1      2457 8.93559E-03-7.86510E-04-8.12759E-16
 -1      2458 8.93749E-03-7.78574E-04-8.83964E-16
 -1      2459 9.37165E-03-1.06684E-03-1.38206E-15
 -1      2460 9.22629E-03-9.74150E-04-1.18610E-15
 -1      2461 9.23010E-03-9.66662E-04-1.25483E-15
 -1      2462 9.66224E-03-1.25002E-03-1.79071E-15
 -1      2463 9.51702E-03-1.15879E-03-1.58460E-15
 -1      2464 9.52205E-03-1.15166E-03-1.64745E-15
 -1      2465 9.95231E-03-1.43062E-03-2.21966E-15
 -1      2466 9.80737E-03-1.34061E-03-2.00216E-15
 -1      2467 9.81309E-03-1.33373E-03-2.06198E-15
 -1      2468 1.02417E-02-1.60922E-03-2.66554E-15
 -1      2469 1.00971E-02-1.52013E-03-2.44004E-15
 -1      2470 1.01032E-02-1.51340E-03-2.49541E-15
 -1      2471 1.05305E-02-1.78644E-03-3.12884E-15
 -1      2472 1.03862E-02-1.69797E-03-2.89647E-15
 -1      2473 1.03923E-02-1.69131E-03-2.94735E-15
 -1      2474 1.08187E-02-1.96280E-03-3.60186E-15
 -1      2475 1.06747E-02-1.87470E-03-3.36471E-15
 -1      2476 1.06807E-02-1.86805E-03-3.41270E-15
 -1      2477 1.11063E-02-2.13873E-03-4.08250E-15
 -1      2478 1.09625E-02-2.05080E-03-3.84030E-15
 -1      2479 1.09684E-02-2.04412E-03-3.88859E-15
 -1      2480 1.13934E-02-2.31452E-03-4.56784E-15
 -1      2481 1.12499E-02-2.22663E-03-4.32430E-15
 -1      2482 1.12557E-02-2.21989E-03-4.36917E-15
 -1      2483 1.16802E-02-2.49038E-03-5.05741E-15
 -1      2484 1.15369E-02-2.40244E-03-4.81203E-15
 -1      2485 1.15425E-02-2.39562E-03-4.85773E-15
 -1      2486 1.19667E-02-2.66643E-03-5.54750E-15
 -1      2487 1.18235E-02-2.57838E-03-5.30309E-15
 -1      2488 1.18290E-02-2.57148E-03-5.34856E-15
 -1      2489 1.22529E-02-2.84271E-03-6.03430E-15
 -1      2490 1.21098E-02-2.75454E-03-5.79139E-15
 -1      2491 1.21153E-02-2.74757E-03-5.83820E-15
 -1      2492 1.25390E-02-3.01925E-03-6.52728E-15
 -1      2493 1.23960E-02-2.93095E-03-6.28245E-15
 -1      2494 1.24014E-02-2.92390E-03-6.32957E-15
 -1      2495 1.28249E-02-3.19603E-03-7.01309E-15
 -1      2496 1.26819E-02-3.10761E-03-6.76870E-15
 -1      2497 1.26874E-02-3.10050E-03-6.81916E-15
 -1      2498 1.31108E-02-3.37302E-03-7.50097E-15
 -1      2499 1.29678E-02-3.28450E-03-7.25716E-15
 -1      2500 1.29732E-02-3.27734E-03-7.30548E-15
 -1      2501 1.33965E-02-3.55020E-03-7.99507E-15
 -1      2502 1.32537E-02-3.46159E-03-7.74669E-15
 -1      2503 1.32590E-02-3.45439E-03-7.79816E-15
 -1      2504 1.42167E-02-3.97026E-03-9.81235E-15
 -1      2505 1.41293E-02-3.92823E-03-9.60741E-15
 -1      2506 1.40434E-02-3.88689E-03-9.40810E-15
 -1      2507 1.39576E-02-3.84554E-03-9.20637E-15
 -1      2508 1.39634E-02-3.83109E-03-9.28054E-15
 -1      2509 1.38702E-02-3.80347E-03-9.00105E-15
 -1      2510 1.37829E-02-3.76137E-03-8.79704E-15
 -1      2511 1.37902E-02-3.74771E-03-8.87817E-15
 -1      2512 1.01321E-02-1.16719E-03-2.66370E-15
 -1      2513 1.02413E-02-1.18139E-03-2.78877E-15
 -1      2514 1.43915E-02-4.05428E-03-1.02198E-14
 -1      2515 1.43041E-02-4.01228E-03-1.00164E-14
 -1      2516 1.41368E-02-3.91440E-03-9.68090E-15
 -1      2517 1.45664E-02-4.13827E-03-1.06244E-14
 -1      2518 1.44790E-02-4.09628E-03-1.04236E-14
 -1      2519 1.43116E-02-3.99836E-03-1.00833E-14
 -1      2520 1.47413E-02-4.22224E-03-1.10259E-14
 -1      2521 1.46538E-02-4.18026E-03-1.08264E-14
 -1      2522 1.44865E-02-4.08228E-03-1.04824E-14
 -1      2523 1.49162E-02-4.30622E-03-1.14098E-14
 -1      2524 1.48287E-02-4.26423E-03-1.12186E-14
 -1      2525 1.46613E-02-4.16618E-03-1.08728E-14
 -1      2526 1.50882E-02-4.38881E-03-1.17745E-14
 -1      2527 1.50022E-02-4.34751E-03-1.15957E-14
 -1      2528 1.48348E-02-4.24939E-03-1.12494E-14
 -1      2529 1.52632E-02-4.47287E-03-1.21312E-14
 -1      2530 1.51757E-02-4.43083E-03-1.19532E-14
 -1      2531 1.50082E-02-4.33264E-03-1.16112E-14
 -1      2532 1.54383E-02-4.55699E-03-1.24771E-14
 -1      2533 1.53507E-02-4.51493E-03-1.23045E-14
 -1      2534 1.51833E-02-4.41667E-03-1.19645E-14
 -1      2535 1.56136E-02-4.64118E-03-1.28198E-14
 -1      2536 1.55259E-02-4.59908E-03-1.26477E-14
 -1      2537 1.53584E-02-4.50077E-03-1.23110E-14
 -1      2538 7.96252E-03-9.90627E-05-1.18918E-15
 -1      2539 8.17690E-03-2.40046E-04-1.33105E-15
 -1      2540 1.02852E-02-1.19840E-03-3.03116E-15
 -1      2541 1.02256E-02-1.21373E-03-3.09816E-15
 -1      2542 5.84339E-03-3.75635E-04-7.96021E-16
 -1      2543 6.01706E-03-3.04220E-04-7.65257E-16
 -1      2544 5.46552E-04-2.25888E-05 1.36203E-17
 -1      2545 5.47047E-04-3.84102E-05 7.16929E-18
 -1      2546 6.62452E-04-5.50338E-05 5.75982E-18
 -1      2547 6.61122E-04-1.74697E-05 2.24023E-17
 -1      2548 1.03053E-02-1.18954E-03-2.90477E-15
 -1      2549 1.03117E-02-1.18894E-03-2.96777E-15
 -1      2550 1.03178E-02-1.20952E-03-3.11125E-15
 -1      2551 6.97139E-03 1.23630E-04-7.33354E-16
 -1      2552 7.13270E-03 1.63386E-04-7.78430E-16
 -1      2553 7.61749E-03 9.30699E-05-9.74806E-16
 -1      2554 7.74319E-03 2.68315E-05-1.04422E-15
 -1      2555 5.18386E-03-5.64861E-04-1.18745E-15
 -1      2556 5.20527E-03-5.64567E-04-1.11682E-15
 -1      2557 7.30376E-03 1.71672E-04-8.38142E-16
 -1      2558 7.45765E-03 1.48100E-04-9.01541E-16
 -1      2559 6.61611E-03-1.87130E-05-6.89187E-16
 -1      2560 6.77155E-03 5.43240E-05-6.95245E-16
 -1      2561 6.21544E-03-2.14049E-04-7.28381E-16
 -1      2562 6.40806E-03-1.19001E-04-7.07483E-16
 -1      2563 5.52416E-03-4.85526E-04-8.90028E-16
 -1      2564 5.65221E-03-4.44559E-04-8.41253E-16
 -1      2565 9.30874E-03-1.66528E-03-3.13276E-15
 -1      2566 9.12634E-03-1.79498E-03-3.11724E-15
 -1      2567 5.27351E-03-5.50522E-04-1.04007E-15
 -1      2568 5.38658E-03-5.25979E-04-9.61752E-16
 -1      2569 5.22362E-03-5.37226E-04-1.02621E-15
 -1      2570 5.30746E-03-5.92781E-04-1.38975E-15
 -1      2571 5.21992E-03-5.75887E-04-1.29432E-15
 -1      2572 5.61191E-03-6.93018E-04-1.58683E-15
 -1      2573 5.46137E-03-6.38980E-04-1.50228E-15
 -1      2574 1.36325E-02-3.68002E-03-8.47828E-15
 -1      2575 8.90626E-03-1.96503E-03-3.06038E-15
 -1      2576 9.75653E-03-1.40038E-03-3.16992E-15
 -1      2577 9.57817E-03-1.49682E-03-3.14974E-15
 -1      2578 1.01016E-02-1.25533E-03-3.16994E-15
 -1      2579 9.95455E-03-1.30892E-03-3.19117E-15
 -1      2580 9.80483E-03-1.09169E-03-2.39645E-15
 -1      2581 9.97220E-03-1.13419E-03-2.52416E-15
 -1      2582 9.42201E-03-1.59893E-03-3.25140E-15
 -1      2583 6.70460E-04-1.36353E-04-2.73354E-17
 -1      2584 5.54849E-04-1.24882E-04-2.47876E-17
 -1      2585 5.58090E-04-1.44777E-04-3.13877E-17
 -1      2586 8.70927E-03-6.10097E-04-1.66665E-15
 -1      2587 9.02646E-04 3.75271E-04 2.17979E-16
 -1      2588 8.73597E-04 3.48957E-04 2.04643E-16
 -1      2589 1.01636E-03 3.98627E-04 2.58745E-16
 -1      2590 9.63627E-03-1.48674E-03-3.42303E-15
 -1      2591 9.82541E-03-1.39248E-03-3.42814E-15
 -1      2592 1.01465E-02-1.35056E-03-3.75101E-15
 -1      2593 5.73065E-03-3.98032E-04-7.59260E-16
 -1      2594 7.19519E-03 1.76111E-04-7.26551E-16
 -1      2595 6.11841E-03-8.58052E-04-1.81781E-15
 -1      2596 6.30192E-03-1.01551E-03-1.89051E-15
 -1      2597 5.83349E-03-7.22707E-04-1.68593E-15
 -1      2598 9.22980E-03-8.96235E-04-2.02707E-15
 -1      2599 9.70502E-03-1.08833E-03-2.37554E-15
 -1      2600 1.35524E-02-3.62431E-03-8.35951E-15
 -1      2601 1.02889E-02-1.20566E-03-2.92998E-15
 -1      2602 1.00679E-02-1.17911E-03-2.67112E-15
 -1      2603 8.25661E-03-3.15042E-04-1.35920E-15
 -1      2604 7.84137E-03-4.28392E-05-1.07325E-15
 -1      2605 1.22728E-03 4.28345E-04 3.37350E-16
 -1      2606 1.11438E-03 4.11822E-04 2.94239E-16
 -1      2607 1.08635E-03 3.86181E-04 2.76987E-16
 -1      2608 1.28377E-03 4.05235E-04 3.45928E-16
 -1      2609 5.62888E-04-1.63057E-04-3.69442E-17
 -1      2610 5.68291E-04-1.86045E-04-4.35985E-17
 -1      2611 6.92929E-04-2.24443E-04-5.75982E-17
 -1      2612 6.79333E-04-1.79458E-04-4.30428E-17
 -1      2613 1.01843E-02-1.24215E-03-3.24516E-15
 -1      2614 6.10345E-03-2.45142E-04-6.75675E-16
 -1      2615 5.42188E-03-4.94496E-04-8.77540E-16
 -1      2616 7.49728E-03 1.30391E-04-8.56845E-16
 -1      2617 6.48321E-03-5.97956E-05-6.17372E-16
 -1      2618 6.85588E-03 1.03295E-04-6.32415E-16
 -1      2619 5.18317E-03-5.47182E-04-1.20997E-15
 -1      2620 5.37220E-03-5.84076E-04-1.42773E-15
 -1      2621 6.08652E-03-9.25859E-04-1.80145E-15
 -1      2622 5.85176E-03-8.14262E-04-1.70449E-15
 -1      2623 9.87487E-03-1.35343E-03-3.29329E-15
 -1      2624 1.57186E-02-4.69204E-03-1.30250E-14
 -1      2625 5.76074E-03-7.28599E-04-1.65430E-15
 -1      2626 1.55510E-02-4.59370E-03-1.26910E-14
 -1      2627 7.79975E-04 7.61370E-05 7.68157E-17
 -1      2628 7.78655E-04 5.45719E-05 6.56620E-17
 -1      2629 7.77771E-04 3.29823E-05 5.47387E-17
 -1      2630 7.77335E-04 1.16545E-05 4.40864E-17
 -1      2631 8.96022E-04 4.87838E-05 7.38748E-17
 -1      2632 7.91658E-04 1.71021E-04 1.24995E-16
 -1      2633 7.87564E-04 1.45788E-04 1.12310E-16
 -1      2634 8.03621E-04 2.25983E-04 1.50840E-16
 -1      2635 7.96981E-04 1.97687E-04 1.37667E-16
 -1      2636 9.14980E-04 2.05199E-04 1.60503E-16
 -1      2637 8.45946E-04 3.23602E-04 1.91619E-16
 -1      2638 8.19814E-04 2.99100E-04 1.78948E-16
 -1      2639 9.60195E-04 3.47410E-04 2.28306E-16
 -1      2640 6.38492E-03-1.09526E-03-1.92237E-15
 -1      2641 1.01110E-02-1.31589E-03-3.56127E-15
 -1      2642 1.02604E-02-1.32264E-03-3.72223E-15
 -1      2643 8.19577E-04-2.60735E-04-7.36715E-17
 -1      2644 9.47648E-04-2.94877E-04-9.14931E-17
 -1      2645 8.10817E-04-2.34705E-04-6.45371E-17
 -1      2646 7.81703E-04-9.65820E-05-7.90112E-18
 -1      2647 7.84119E-04-1.19674E-04-1.81468E-17
 -1      2648 1.09072E-03-3.22796E-04-1.10792E-16
 -1      2649 1.23416E-03-3.46697E-04-1.31392E-16
 -1      2650 1.08004E-03-2.92742E-04-9.77408E-17
 -1      2651 1.37030E-03-3.65970E-04-1.52019E-16
 -1      2652 1.50647E-03-3.82187E-04-1.73852E-16
 -1      2653 1.35918E-03-3.33750E-04-1.34333E-16
 -1      2654 1.64959E-03-3.96413E-04-1.98355E-16
 -1      2655 1.79266E-03-4.07948E-04-2.24091E-16
 -1      2656 1.63880E-03-3.62999E-04-1.75478E-16
 -1      2657 1.93555E-03-4.17226E-04-2.50898E-16
 -1      2658 2.07838E-03-4.24424E-04-2.79290E-16
 -1      2659 1.92547E-03-3.83156E-04-2.22139E-16
 -1      2660 2.22110E-03-4.29889E-04-3.08605E-16
 -1      2661 2.36379E-03-4.33760E-04-3.38867E-16
 -1      2662 2.21178E-03-3.95519E-04-2.73639E-16
 -1      2663 2.50642E-03-4.36302E-04-3.70892E-16
 -1      2664 2.64902E-03-4.37624E-04-4.03770E-16
 -1      2665 2.49768E-03-4.01891E-04-3.29367E-16
 -1      2666 2.79157E-03-4.37925E-04-4.38045E-16
 -1      2667 2.93409E-03-4.37297E-04-4.74000E-16
 -1      2668 2.78306E-03-4.03706E-04-3.90963E-16
 -1      2669 3.07651E-03-4.35889E-04-5.11228E-16
 -1      2670 3.21887E-03-4.33789E-04-5.50653E-16
 -1      2671 3.06769E-03-4.02114E-04-4.58211E-16
 -1      2672 3.35389E-03-4.31266E-04-5.88857E-16
 -1      2673 3.48877E-03-4.28304E-04-6.28173E-16
 -1      2674 3.34405E-03-3.98217E-04-5.30514E-16
 -1      2675 3.63032E-03-4.24851E-04-6.70620E-16
 -1      2676 3.77152E-03-4.21147E-04-7.15777E-16
 -1      2677 3.61853E-03-3.92916E-04-6.08115E-16
 -1      2678 3.91190E-03-4.17406E-04-7.62370E-16
 -1      2679 4.05162E-03-4.13748E-04-8.10007E-16
 -1      2680 3.89680E-03-3.87138E-04-6.93740E-16
 -1      2681 4.18991E-03-4.10549E-04-8.59596E-16
 -1      2682 4.32704E-03-4.07960E-04-9.11407E-16
 -1      2683 4.16972E-03-3.82622E-04-7.86385E-16
 -1      2684 4.46185E-03-4.06656E-04-9.64384E-16
 -1      2685 4.59478E-03-4.06813E-04-1.01924E-15
 -1      2686 4.43417E-03-3.81822E-04-8.86674E-16
 -1      2687 4.72416E-03-4.09585E-04-1.07573E-15
 -1      2688 4.85082E-03-4.15172E-04-1.13463E-15
 -1      2689 4.68569E-03-3.88447E-04-9.93685E-16
 -1      2690 4.97250E-03-4.25371E-04-1.19505E-15
 -1      2691 5.09081E-03-4.40475E-04-1.25739E-15
 -1      2692 4.91848E-03-4.07784E-04-1.10900E-15
 -1      2693 5.19754E-03-4.61324E-04-1.31683E-15
 -1      2694 5.30160E-03-4.89996E-04-1.37751E-15
 -1      2695 5.12107E-03-4.45143E-04-1.22747E-15
 -1      2696 5.40971E-03-5.30073E-04-1.44413E-15
 -1      2697 1.44066E-02-4.02625E-03-1.03359E-14
 -1      2698 1.43191E-02-3.98433E-03-1.01410E-14
 -1      2699 5.61081E-03-6.27078E-04-1.57121E-15
 -1      2700 1.38827E-02-3.77492E-03-9.15027E-15
 -1      2701 1.37968E-02-3.73363E-03-8.95399E-15
 -1      2702 1.04070E-02-1.36106E-03-3.90996E-15
 -1      2703 1.05315E-02-1.41660E-03-4.10352E-15
 -1      2704 6.64302E-03-1.27453E-03-2.02400E-15
 -1      2705 1.06565E-02-1.47892E-03-4.28156E-15
 -1      2706 1.07831E-02-1.55261E-03-4.47990E-15
 -1      2707 1.09120E-02-1.63163E-03-4.67962E-15
 -1      2708 1.10444E-02-1.71550E-03-4.87961E-15
 -1      2709 1.08277E-02-1.57145E-03-4.45466E-15
 -1      2710 1.11789E-02-1.80214E-03-5.08435E-15
 -1      2711 1.13159E-02-1.89143E-03-5.29450E-15
 -1      2712 1.10758E-02-1.73551E-03-4.85594E-15
 -1      2713 1.14544E-02-1.98205E-03-5.50685E-15
 -1      2714 1.15945E-02-2.07393E-03-5.72104E-15
 -1      2715 1.13383E-02-1.91057E-03-5.26968E-15
 -1      2716 1.17355E-02-2.16631E-03-5.94201E-15
 -1      2717 1.18774E-02-2.25915E-03-6.16167E-15
 -1      2718 1.16104E-02-2.09158E-03-5.69996E-15
 -1      2719 1.20127E-02-2.34741E-03-6.37549E-15
 -1      2720 1.21484E-02-2.43572E-03-6.59435E-15
 -1      2721 1.18816E-02-2.27070E-03-6.13091E-15
 -1      2722 1.22914E-02-2.52854E-03-6.82257E-15
 -1      2723 1.24348E-02-2.62120E-03-7.05398E-15
 -1      2724 1.21565E-02-2.45064E-03-6.57414E-15
 -1      2725 1.25781E-02-2.71364E-03-7.28662E-15
 -1      2726 1.27216E-02-2.80585E-03-7.52203E-15
 -1      2727 1.24405E-02-2.63508E-03-7.03611E-15
 -1      2728 1.28650E-02-2.89781E-03-7.76041E-15
 -1      2729 1.30085E-02-2.98951E-03-7.99890E-15
 -1      2730 1.27256E-02-2.81891E-03-7.50829E-15
 -1      2731 1.31519E-02-3.08098E-03-8.24201E-15
 -1      2732 1.32953E-02-3.17220E-03-8.48915E-15
 -1      2733 1.30114E-02-3.00195E-03-7.98909E-15
 -1      2734 1.34386E-02-3.26321E-03-8.73550E-15
 -1      2735 1.35819E-02-3.35401E-03-8.98533E-15
 -1      2736 1.32974E-02-3.18416E-03-8.47822E-15
 -1      2737 1.37252E-02-3.44463E-03-9.23914E-15
 -1      2738 1.38683E-02-3.53506E-03-9.49399E-15
 -1      2739 1.35834E-02-3.36561E-03-8.97885E-15
 -1      2740 1.40043E-02-3.62082E-03-9.73966E-15
 -1      2741 1.41403E-02-3.70644E-03-9.98370E-15
 -1      2742 1.38623E-02-3.54186E-03-9.47610E-15
 -1      2743 1.42834E-02-3.79645E-03-1.02439E-14
 -1      2744 1.44264E-02-3.88632E-03-1.05088E-14
 -1      2745 1.41412E-02-3.71755E-03-9.97723E-15
 -1      2746 1.45694E-02-3.97609E-03-1.07768E-14
 -1      2747 1.47124E-02-4.06576E-03-1.10476E-14
 -1      2748 1.44272E-02-3.89726E-03-1.05046E-14
 -1      2749 1.48553E-02-4.15534E-03-1.13216E-14
 -1      2750 1.49983E-02-4.24484E-03-1.15949E-14
 -1      2751 1.47130E-02-4.07657E-03-1.10434E-14
 -1      2752 1.51412E-02-4.33428E-03-1.18748E-14
 -1      2753 1.52841E-02-4.42365E-03-1.21569E-14
 -1      2754 1.49989E-02-4.25555E-03-1.15943E-14
 -1      2755 1.54362E-02-4.52262E-03-1.24611E-14
 -1      2756 1.87074E-03 4.25732E-04 5.51127E-16
 -1      2757 1.72793E-03 4.14990E-04 4.94505E-16
 -1      2758 2.15610E-03 4.41304E-04 6.66337E-16
 -1      2759 2.01345E-03 4.34443E-04 6.08725E-16
 -1      2760 1.93278E-03 3.94323E-04 5.42304E-16
 -1      2761 1.58500E-03 4.01769E-04 4.38844E-16
 -1      2762 1.44189E-03 3.85854E-04 3.83848E-16
 -1      2763 1.64621E-03 3.73479E-04 4.35985E-16
 -1      2764 2.72685E-03 4.55698E-04 8.89588E-16
 -1      2765 2.58407E-03 4.53660E-04 8.35784E-16
 -1      2766 3.01281E-03 4.57802E-04 9.92696E-16
 -1      2767 2.86976E-03 4.57039E-04 9.42212E-16
 -1      2768 2.79192E-03 4.19270E-04 8.56154E-16
 -1      2769 3.29950E-03 4.58287E-04 1.08510E-15
 -1      2770 3.15605E-03 4.58180E-04 1.03998E-15
 -1      2771 3.07879E-03 4.20536E-04 9.49178E-16
 -1      2772 3.58719E-03 4.58310E-04 1.16813E-15
 -1      2773 3.44322E-03 4.58293E-04 1.12821E-15
 -1      2774 3.36635E-03 4.20411E-04 1.03201E-15
 -1      2775 3.87616E-03 4.58953E-04 1.23802E-15
 -1      2776 3.73152E-03 4.58491E-04 1.20449E-15
 -1      2777 3.65498E-03 4.19981E-04 1.10408E-15
 -1      2778 4.16664E-03 4.61232E-04 1.29550E-15
 -1      2779 4.02122E-03 4.59827E-04 1.26854E-15
 -1      2780 3.94508E-03 4.20288E-04 1.16376E-15
 -1      2781 4.45883E-03 4.66033E-04 1.33468E-15
 -1      2782 4.31255E-03 4.63266E-04 1.31703E-15
 -1      2783 4.23709E-03 4.22336E-04 1.20985E-15
 -1      2784 4.75272E-03 4.73943E-04 1.35775E-15
 -1      2785 4.60562E-03 4.69574E-04 1.34844E-15
 -1      2786 4.53139E-03 4.27034E-04 1.23846E-15
 -1      2787 5.04796E-03 4.84938E-04 1.36122E-15
 -1      2788 4.90026E-03 4.79083E-04 1.36203E-15
 -1      2789 4.82815E-03 4.35026E-04 1.25026E-15
 -1      2790 5.34373E-03 4.97912E-04 1.34659E-15
 -1      2791 5.19591E-03 4.91297E-04 1.35680E-15
 -1      2792 5.12712E-03 4.46347E-04 1.24361E-15
 -1      2793 5.63861E-03 5.10120E-04 1.31163E-15
 -1      2794 5.49143E-03 5.04365E-04 1.33192E-15
 -1      2795 5.42737E-03 4.59884E-04 1.21818E-15
 -1      2796 5.93082E-03 5.16696E-04 1.25430E-15
 -1      2797 5.78519E-03 5.14520E-04 1.28519E-15
 -1      2798 5.72720E-03 4.72682E-04 1.17194E-15
 -1      2799 6.21867E-03 5.10616E-04 1.17160E-15
 -1      2800 6.07535E-03 5.15773E-04 1.21671E-15
 -1      2801 6.02439E-03 4.79343E-04 1.10396E-15
 -1      2802 6.50145E-03 4.83529E-04 1.06454E-15
 -1      2803 6.36061E-03 5.00252E-04 1.12071E-15
 -1      2804 6.31685E-03 4.71938E-04 1.01115E-15
 -1      2805 6.78006E-03 4.27696E-04 9.34000E-16
 -1      2806 6.64104E-03 4.59621E-04 1.00321E-15
 -1      2807 6.60381E-03 4.41130E-04 8.95700E-16
 -1      2808 7.05708E-03 3.38381E-04 7.74283E-16
 -1      2809 6.91845E-03 3.87341E-04 8.56926E-16
 -1      2810 6.88661E-03 3.78649E-04 7.53886E-16
 -1      2811 7.33573E-03 2.15606E-04 5.88315E-16
 -1      2812 7.19590E-03 2.80958E-04 6.85446E-16
 -1      2813 7.16849E-03 2.80250E-04 5.86242E-16
 -1      2814 7.61857E-03 6.40981E-05 3.72667E-16
 -1      2815 7.47646E-03 1.42974E-04 4.83825E-16
 -1      2816 7.45312E-03 1.47440E-04 3.90746E-16
 -1      2817 7.90653E-03-1.08429E-04 1.25578E-16
 -1      2818 7.76191E-03-2.01003E-05 2.53473E-16
 -1      2819 7.74289E-03-1.32033E-05 1.65178E-16
 -1      2820 8.19889E-03-2.93641E-04-1.50677E-16
 -1      2821 8.05227E-03-1.99945E-04-9.17506E-18
 -1      2822 8.03801E-03-1.92526E-04-9.18726E-17
 -1      2823 8.49399E-03-4.84550E-04-4.52560E-16
 -1      2824 8.34626E-03-3.88743E-04-2.98982E-16
 -1      2825 8.33690E-03-3.81702E-04-3.77357E-16
 -1      2826 8.79005E-03-6.76297E-04-7.78552E-16
 -1      2827 8.64205E-03-5.80528E-04-6.11991E-16
 -1      2828 8.63729E-03-5.74057E-04-6.87167E-16
 -1      2829 9.08568E-03-8.66131E-04-1.13544E-15
 -1      2830 8.93802E-03-7.71546E-04-9.53881E-16
 -1      2831 8.93716E-03-7.65479E-04-1.02336E-15
 -1      2832 9.38006E-03-1.05290E-03-1.51319E-15
 -1      2833 9.23309E-03-9.59917E-04-1.32136E-15
 -1      2834 9.23523E-03-9.54014E-04-1.38686E-15
 -1      2835 9.67289E-03-1.23649E-03-1.91402E-15
 -1      2836 9.52671E-03-1.14507E-03-1.71068E-15
 -1      2837 9.53094E-03-1.13915E-03-1.77393E-15
 -1      2838 9.96418E-03-1.41732E-03-2.33387E-15
 -1      2839 9.81874E-03-1.32721E-03-2.12176E-15
 -1      2840 9.82428E-03-1.32115E-03-2.18095E-15
 -1      2841 1.02541E-02-1.59600E-03-2.77161E-15
 -1      2842 1.01093E-02-1.50688E-03-2.55097E-15
 -1      2843 1.01156E-02-1.50066E-03-2.60653E-15
 -1      2844 1.05429E-02-1.77321E-03-3.22985E-15
 -1      2845 1.03986E-02-1.68475E-03-2.99870E-15
 -1      2846 1.04052E-02-1.67835E-03-3.05101E-15
 -1      2847 1.08309E-02-1.94949E-03-3.69629E-15
 -1      2848 1.06870E-02-1.86143E-03-3.46130E-15
 -1      2849 1.06936E-02-1.85488E-03-3.50964E-15
 -1      2850 1.11182E-02-2.12529E-03-4.17271E-15
 -1      2851 1.09746E-02-2.03743E-03-3.93424E-15
 -1      2852 1.09811E-02-2.03074E-03-3.97908E-15
 -1      2853 1.14051E-02-2.30093E-03-4.65876E-15
 -1      2854 1.12617E-02-2.21312E-03-4.41414E-15
 -1      2855 1.12679E-02-2.20632E-03-4.45919E-15
 -1      2856 1.16916E-02-2.47664E-03-5.14572E-15
 -1      2857 1.15483E-02-2.38877E-03-4.90137E-15
 -1      2858 1.15544E-02-2.38188E-03-4.94623E-15
 -1      2859 1.19778E-02-2.65253E-03-5.63845E-15
 -1      2860 1.18347E-02-2.56455E-03-5.39217E-15
 -1      2861 1.18406E-02-2.55758E-03-5.43586E-15
 -1      2862 1.22639E-02-2.82867E-03-6.12642E-15
 -1      2863 1.21209E-02-2.74056E-03-5.88257E-15
 -1      2864 1.21266E-02-2.73352E-03-5.92615E-15
 -1      2865 1.25499E-02-3.00507E-03-6.62102E-15
 -1      2866 1.24069E-02-2.91684E-03-6.37365E-15
 -1      2867 1.24125E-02-2.90973E-03-6.41799E-15
 -1      2868 1.28358E-02-3.18175E-03-7.10964E-15
 -1      2869 1.26928E-02-3.09338E-03-6.86606E-15
 -1      2870 1.26984E-02-3.08623E-03-6.90940E-15
 -1      2871 1.31216E-02-3.35865E-03-7.60119E-15
 -1      2872 1.29787E-02-3.27017E-03-7.35521E-15
 -1      2873 1.29842E-02-3.26298E-03-7.40394E-15
 -1      2874 1.34084E-02-3.53573E-03-8.10167E-15
 -1      2875 1.32656E-02-3.44715E-03-7.85294E-15
 -1      2876 1.32710E-02-3.43993E-03-7.90289E-15
 -1      2877 1.35589E-02-3.61703E-03-8.41513E-15
 -1      2878 1.42317E-02-3.94241E-03-9.94331E-15
 -1      2879 1.41442E-02-3.90047E-03-9.74602E-15
 -1      2880 1.41518E-02-3.88643E-03-9.80296E-15
 -1      2881 5.62619E-03-4.04162E-04-7.11928E-16
 -1      2882 5.79787E-03-3.45601E-04-6.64806E-16
 -1      2883 1.37215E-02-3.69636E-03-8.78484E-15
 -1      2884 1.36342E-02-3.65432E-03-8.58463E-15
 -1      2885 1.34902E-02-3.56574E-03-8.32484E-15
 -1      2886 1.36408E-02-3.64026E-03-8.65981E-15
 -1      2887 1.40572E-02-3.85870E-03-9.54777E-15
 -1      2888 1.39698E-02-3.81673E-03-9.34651E-15
 -1      2889 1.38031E-02-3.71929E-03-9.02258E-15
 -1      2890 1.39773E-02-3.80281E-03-9.41266E-15
 -1      2891 2.44137E-03 4.50695E-04 7.80355E-16
 -1      2892 2.29873E-03 4.46671E-04 7.23651E-16
 -1      2893 2.21915E-03 4.07652E-04 6.49898E-16
 -1      2894 2.50546E-03 4.15428E-04 7.55635E-16
 -1      2895 1.45814E-02-4.11008E-03-1.07179E-14
 -1      2896 1.44940E-02-4.06817E-03-1.05290E-14
 -1      2897 1.43267E-02-3.97019E-03-1.01883E-14
 -1      2898 1.47534E-02-4.19252E-03-1.10881E-14
 -1      2899 1.46674E-02-4.15130E-03-1.09067E-14
 -1      2900 1.45001E-02-4.05324E-03-1.05660E-14
 -1      2901 1.49283E-02-4.27643E-03-1.14495E-14
 -1      2902 1.48408E-02-4.23447E-03-1.12703E-14
 -1      2903 1.46735E-02-4.13632E-03-1.09340E-14
 -1      2904 1.51033E-02-4.36043E-03-1.18003E-14
 -1      2905 1.50158E-02-4.31842E-03-1.16238E-14
 -1      2906 1.48484E-02-4.22018E-03-1.12902E-14
 -1      2907 1.52785E-02-4.44451E-03-1.21457E-14
 -1      2908 1.51909E-02-4.40246E-03-1.19723E-14
 -1      2909 1.50234E-02-4.30414E-03-1.16382E-14
 -1      2910 1.00043E-02-1.32471E-03-3.45200E-15
 -1      2911 1.00104E-02-1.19403E-03-2.68172E-15
 -1      2912 1.01555E-02-1.21834E-03-2.82509E-15
 -1      2913 5.17437E-03-5.16212E-04-1.01462E-15
 -1      2914 5.23681E-03-5.10559E-04-9.37293E-16
 -1      2915 5.32525E-03-4.85764E-04-8.48808E-16
 -1      2916 5.43898E-03-4.55543E-04-7.76641E-16
 -1      2917 8.57475E-03-5.49701E-04-1.55912E-15
 -1      2918 8.80550E-03-6.92907E-04-1.72780E-15
 -1      2919 9.63253E-03-1.08992E-03-2.36620E-15
 -1      2920 9.82417E-03-1.14929E-03-2.52255E-15
 -1      2921 6.34574E-03-9.49315E-05-5.37127E-16
 -1      2922 6.52288E-03-5.36262E-06-5.15647E-16
 -1      2923 5.18346E-03-5.19407E-04-1.22220E-15
 -1      2924 5.14904E-03-5.18544E-04-1.11643E-15
 -1      2925 6.74670E-03 9.07612E-05-5.13654E-16
 -1      2926 6.91815E-03 1.47493E-04-5.47874E-16
 -1      2927 7.09896E-03 1.77460E-04-6.15312E-16
 -1      2928 7.24360E-03 1.81517E-04-6.72883E-16
 -1      2929 1.02782E-02-1.23483E-03-2.98901E-15
 -1      2930 1.03385E-02-1.23346E-03-3.10798E-15
 -1      2931 5.44109E-03-5.76007E-04-1.46752E-15
 -1      2932 5.29661E-03-5.42925E-04-1.35736E-15
 -1      2933 7.38756E-03 1.58186E-04-7.30346E-16
 -1      2934 7.52363E-03 1.09997E-04-8.00195E-16
 -1      2935 1.03499E-02-1.23150E-03-3.20186E-15
 -1      2936 1.03277E-02-1.23134E-03-3.26539E-15
 -1      2937 5.97581E-03-2.70051E-04-6.11964E-16
 -1      2938 6.14620E-03-1.90531E-04-5.73150E-16
 -1      2939 7.73924E-03 3.18336E-06-9.50059E-16
 -1      2940 7.93289E-03-1.18456E-04-1.09727E-15
 -1      2941 7.84328E-04 1.21743E-04 1.00207E-16
 -1      2942 7.81854E-04 9.85522E-05 8.83218E-17
 -1      2943 8.99290E-04 9.78401E-05 1.01508E-16
 -1      2944 9.05255E-04 1.49401E-04 1.30308E-16
 -1      2945 8.14245E-03-2.57983E-04-1.24827E-15
 -1      2946 8.33698E-03-3.92591E-04-1.38831E-15
 -1      2947 9.08982E-03-8.51527E-04-1.94220E-15
 -1      2948 9.34726E-03-9.76050E-04-2.13935E-15
 -1      2949 1.02537E-02-1.24794E-03-3.35277E-15
 -1      2950 1.01438E-02-1.27804E-03-3.42247E-15
 -1      2951 8.94957E-04 9.11050E-07 4.75016E-17
 -1      2952 7.77318E-04-9.61890E-06 3.36374E-17
 -1      2953 7.77721E-04-3.09238E-05 2.29444E-17
 -1      2954 8.07779E-04 2.65919E-04 1.66262E-16
 -1      2955 5.84634E-03-2.85948E-04-5.64612E-16
 -1      2956 1.03625E-02-1.31580E-03-3.71738E-15
 -1      2957 5.49583E-03-5.73608E-04-1.50027E-15
 -1      2958 1.05985E-02-1.42823E-03-4.08063E-15
 -1      2959 9.04942E-04-1.46956E-04-2.81893E-17
 -1      2960 7.87274E-04-1.43601E-04-2.85687E-17
 -1      2961 7.91248E-04-1.68585E-04-3.91261E-17
 -1      2962 1.52939E-02-4.44394E-03-1.21775E-14
 -1      2963 1.35950E-03 3.42773E-04 3.33555E-16
 -1      2964 1.29867E-03 3.66700E-04 3.30519E-16
 -1      2965 5.49476E-03-4.08537E-04-6.84477E-16
 -1      2966 9.49786E-03-1.05062E-03-2.28214E-15
 -1      2967 7.61650E-03 5.98221E-05-8.16621E-16
 -1      2968 7.70639E-03 6.27458E-07-8.34199E-16
 -1      2969 7.50739E-03 1.03300E-04-6.84037E-16
 -1      2970 8.45115E-03-4.80562E-04-1.44416E-15
 -1      2971 5.24261E-03-4.72676E-04-8.38834E-16
 -1      2972 1.51264E-02-4.34555E-03-1.18429E-14
 -1      2973 5.13004E-03-4.95061E-04-1.02890E-15
 -1      2974 1.19923E-03 3.59541E-04 2.98793E-16
 -1      2975 9.94649E-03-1.19823E-03-2.67476E-15
 -1      2976 1.03752E-02-1.25767E-03-3.26270E-15
 -1      2977 7.28300E-03 1.76967E-04-6.13008E-16
 -1      2978 1.02480E-02-1.25292E-03-3.00156E-15
 -1      2979 6.97603E-03 1.74823E-04-4.90534E-16
 -1      2980 7.78563E-04-5.23758E-05 1.28207E-17
 -1      2981 7.79865E-04-7.42474E-05 2.50722E-18
 -1      2982 8.99116E-04-9.56209E-05-2.88669E-18
 -1      2983 8.95945E-04-4.68117E-05 2.22668E-17
 -1      2984 6.60148E-03 6.07558E-05-4.30577E-16
 -1      2985 8.95160E-03-7.87073E-04-1.83287E-15
 -1      2986 6.20112E-03-1.24120E-04-4.73539E-16
 -1      2987 1.03191E-02-1.26253E-03-3.44471E-15
 -1      2988 8.02353E-03-1.90853E-04-1.11993E-15
 -1      2989 9.25630E-04 2.77454E-04 1.95400E-16
 -1      2990 1.04046E-03 2.40124E-04 2.01174E-16
 -1      2991 1.03369E-03 2.08573E-04 1.82756E-16
 -1      2992 1.05941E-03 3.61056E-04 2.60425E-16
 -1      2993 5.70951E-03-2.92321E-04-5.08870E-16
 -1      2994 5.86251E-03-2.27406E-04-4.53346E-16
 -1      2995 7.96954E-04-1.88894E-04-4.71086E-17
 -1      2996 8.03236E-04-2.12246E-04-5.61617E-17
 -1      2997 9.28979E-04-2.41913E-04-7.04596E-17
 -1      2998 9.14952E-04-1.95771E-04-5.05103E-17
 -1      2999 6.44476E-03 3.60091E-05-3.30966E-16
 -1      3000 6.64318E-03 1.17476E-04-3.24651E-16
 -1      3001 1.28217E-03-2.92680E-04-1.07594E-16
 -1      3002 1.41824E-03-3.08566E-04-1.23816E-16
 -1      3003 1.56164E-03-3.22724E-04-1.42166E-16
 -1      3004 1.70519E-03-3.34387E-04-1.61682E-16
 -1      3005 1.48550E-03-2.83220E-04-1.11795E-16
 -1      3006 1.84872E-03-3.43928E-04-1.81631E-16
 -1      3007 1.99224E-03-3.51487E-04-2.03139E-16
 -1      3008 1.77255E-03-3.05056E-04-1.44362E-16
 -1      3009 2.13566E-03-3.57390E-04-2.25690E-16
 -1      3010 2.27898E-03-3.61756E-04-2.48730E-16
 -1      3011 2.05985E-03-3.19362E-04-1.80723E-16
 -1      3012 2.42213E-03-3.64859E-04-2.73937E-16
 -1      3013 2.56511E-03-3.66793E-04-3.00107E-16
 -1      3014 2.34679E-03-3.27779E-04-2.21313E-16
 -1      3015 2.70785E-03-3.67789E-04-3.27632E-16
 -1      3016 2.85034E-03-3.67917E-04-3.56648E-16
 -1      3017 2.63290E-03-3.31737E-04-2.67093E-16
 -1      3018 2.99246E-03-3.67387E-04-3.87141E-16
 -1      3019 3.13420E-03-3.66245E-04-4.19844E-16
 -1      3020 2.91768E-03-3.32469E-04-3.19094E-16
 -1      3021 3.26833E-03-3.64796E-04-4.51977E-16
 -1      3022 3.40195E-03-3.63010E-04-4.85926E-16
 -1      3023 3.19344E-03-3.31139E-04-3.76367E-16
 -1      3024 3.54177E-03-3.61027E-04-5.23453E-16
 -1      3025 3.68069E-03-3.58933E-04-5.61725E-16
 -1      3026 3.46643E-03-3.28836E-04-4.40240E-16
 -1      3027 3.81829E-03-3.57122E-04-6.02247E-16
 -1      3028 3.95450E-03-3.55548E-04-6.44518E-16
 -1      3029 3.74214E-03-3.26712E-04-5.12651E-16
 -1      3030 4.08868E-03-3.54816E-04-6.87967E-16
 -1      3031 4.22071E-03-3.54808E-04-7.33612E-16
 -1      3032 4.01140E-03-3.26490E-04-5.91188E-16
 -1      3033 4.34970E-03-3.56469E-04-7.81479E-16
 -1      3034 4.47543E-03-3.59542E-04-8.30919E-16
 -1      3035 4.27110E-03-3.30476E-04-6.77437E-16
 -1      3036 4.59669E-03-3.65490E-04-8.82541E-16
 -1      3037 4.71314E-03-3.73717E-04-9.35504E-16
 -1      3038 4.51677E-03-3.41857E-04-7.72169E-16
 -1      3039 4.82316E-03-3.86424E-04-9.91516E-16
 -1      3040 4.92638E-03-4.02352E-04-1.04949E-15
 -1      3041 4.74208E-03-3.64765E-04-8.75182E-16
 -1      3042 5.01617E-03-4.23534E-04-1.10524E-15
 -1      3043 5.09768E-03-4.47527E-04-1.16363E-15
 -1      3044 4.93382E-03-4.02627E-04-9.83609E-16
 -1      3045 1.44195E-02-3.99669E-03-1.04162E-14
 -1      3046 1.43335E-02-3.95556E-03-1.02305E-14
 -1      3047 1.42181E-03 3.17952E-04 3.33812E-16
 -1      3048 1.27854E-03 3.00767E-04 2.87070E-16
 -1      3049 1.09720E-02-1.67231E-03-4.61632E-15
 -1      3050 1.10942E-02-1.75565E-03-4.81935E-15
 -1      3051 1.12204E-02-1.84096E-03-5.02434E-15
 -1      3052 1.13502E-02-1.92861E-03-5.23400E-15
 -1      3053 1.11038E-02-1.77575E-03-4.77987E-15
 -1      3054 1.14826E-02-2.01738E-03-5.44755E-15
 -1      3055 1.16175E-02-2.10743E-03-5.66497E-15
 -1      3056 1.13565E-02-1.94646E-03-5.19715E-15
 -1      3057 1.17472E-02-2.19349E-03-5.87446E-15
 -1      3058 1.18783E-02-2.28011E-03-6.08755E-15
 -1      3059 1.16142E-02-2.11867E-03-5.61876E-15
 -1      3060 1.20173E-02-2.37148E-03-6.31579E-15
 -1      3061 1.21574E-02-2.46309E-03-6.54465E-15
 -1      3062 1.18795E-02-2.29404E-03-6.05649E-15
 -1      3063 1.22981E-02-2.55469E-03-6.77552E-15
 -1      3064 1.24394E-02-2.64630E-03-7.00830E-15
 -1      3065 1.21568E-02-2.47550E-03-6.51479E-15
 -1      3066 1.25811E-02-2.73780E-03-7.24536E-15
 -1      3067 1.27231E-02-2.82919E-03-7.48437E-15
 -1      3068 1.24374E-02-2.65751E-03-6.98252E-15
 -1      3069 1.28653E-02-2.92043E-03-7.72421E-15
 -1      3070 1.30078E-02-3.01152E-03-7.96758E-15
 -1      3071 1.27200E-02-2.83949E-03-7.45928E-15
 -1      3072 1.31504E-02-3.10244E-03-8.21118E-15
 -1      3073 1.32931E-02-3.19320E-03-8.45805E-15
 -1      3074 1.30039E-02-3.02111E-03-7.94293E-15
 -1      3075 1.34358E-02-3.28380E-03-8.70842E-15
 -1      3076 1.35786E-02-3.37424E-03-8.95928E-15
 -1      3077 1.32886E-02-3.20225E-03-8.43780E-15
 -1      3078 1.37143E-02-3.46002E-03-9.20051E-15
 -1      3079 1.38501E-02-3.54568E-03-9.44352E-15
 -1      3080 1.35666E-02-3.37837E-03-8.92645E-15
 -1      3081 1.39929E-02-3.63573E-03-9.70080E-15
 -1      3082 1.41358E-02-3.72565E-03-9.95887E-15
 -1      3083 1.38449E-02-3.55402E-03-9.42093E-15
 -1      3084 1.42787E-02-3.81546E-03-1.02227E-14
 -1      3085 1.44216E-02-3.90518E-03-1.04890E-14
 -1      3086 1.41304E-02-3.73375E-03-9.94105E-15
 -1      3087 1.45645E-02-3.99480E-03-1.07567E-14
 -1      3088 1.47074E-02-4.08434E-03-1.10291E-14
 -1      3089 1.44161E-02-3.91309E-03-1.04710E-14
 -1      3090 1.48454E-02-4.17030E-03-1.12946E-14
 -1      3091 1.49883E-02-4.25971E-03-1.15716E-14
 -1      3092 1.49730E-02-4.26036E-03-1.15398E-14
 -1      3093 1.46969E-02-4.08860E-03-1.10038E-14
 -1      3094 1.45943E-02-4.08041E-03-1.07790E-14
 -1      3095 1.45069E-02-4.03854E-03-1.05977E-14
 -1      3096 1.43403E-02-3.94081E-03-1.02672E-14
 -1      3097 5.37719E-03-3.94550E-04-6.37314E-16
 -1      3098 5.54374E-03-3.50953E-04-5.70250E-16
 -1      3099 1.99596E-03 3.62309E-04 5.30256E-16
 -1      3100 1.85236E-03 3.54360E-04 4.80085E-16
 -1      3101 1.70879E-03 3.44467E-04 4.30157E-16
 -1      3102 1.56523E-03 3.32448E-04 3.81531E-16
 -1      3103 1.48525E-03 2.92156E-04 3.30817E-16
 -1      3104 1.77245E-03 3.14744E-04 4.21700E-16
 -1      3105 3.14505E-03 3.82894E-04 9.01216E-16
 -1      3106 3.00119E-03 3.82900E-04 8.61277E-16
 -1      3107 2.85745E-03 3.82457E-04 8.18573E-16
 -1      3108 2.71381E-03 3.81463E-04 7.73402E-16
 -1      3109 2.92338E-03 3.45319E-04 7.76668E-16
 -1      3110 3.72289E-03 3.81140E-04 1.03627E-15
 -1      3111 3.57796E-03 3.81592E-04 1.00724E-15
 -1      3112 4.01415E-03 3.80953E-04 1.08606E-15
 -1      3113 3.86827E-03 3.80880E-04 1.06249E-15
 -1      3114 3.79088E-03 3.41760E-04 9.65008E-16
 -1      3115 4.30781E-03 3.82565E-04 1.11978E-15
 -1      3116 4.16066E-03 3.81462E-04 1.10487E-15
 -1      3117 4.08333E-03 3.40891E-04 1.00355E-15
 -1      3118 4.60446E-03 3.86942E-04 1.13905E-15
 -1      3119 4.45576E-03 3.84336E-04 1.13206E-15
 -1      3120 4.37876E-03 3.41840E-04 1.02804E-15
 -1      3121 4.90448E-03 3.94850E-04 1.14054E-15
 -1      3122 4.75409E-03 3.90406E-04 1.14255E-15
 -1      3123 4.67801E-03 3.45684E-04 1.03659E-15
 -1      3124 5.20766E-03 4.06468E-04 1.12191E-15
 -1      3125 5.05577E-03 4.00209E-04 1.13279E-15
 -1      3126 4.98165E-03 3.53392E-04 1.02650E-15
 -1      3127 5.51296E-03 4.20756E-04 1.08603E-15
 -1      3128 5.36022E-03 4.13414E-04 1.10670E-15
 -1      3129 5.28953E-03 3.65399E-04 9.97615E-16
 -1      3130 5.81828E-03 4.34573E-04 1.02908E-15
 -1      3131 5.66584E-03 4.28052E-04 1.06065E-15
 -1      3132 5.60037E-03 3.80815E-04 9.51225E-16
 -1      3133 6.12078E-03 4.41882E-04 9.51238E-16
 -1      3134 5.97008E-03 4.39606E-04 9.93075E-16
 -1      3135 5.91154E-03 3.96285E-04 8.84533E-16
 -1      3136 6.41789E-03 4.33548E-04 8.48944E-16
 -1      3137 6.27008E-03 4.40415E-04 9.02910E-16
 -1      3138 6.21948E-03 4.04868E-04 7.95669E-16
 -1      3139 6.70882E-03 3.98879E-04 7.24423E-16
 -1      3140 6.56396E-03 4.20216E-04 7.89191E-16
 -1      3141 6.52107E-03 3.95764E-04 6.85243E-16
 -1      3142 6.99561E-03 3.28956E-04 5.73855E-16
 -1      3143 6.85236E-03 3.68738E-04 6.52961E-16
 -1      3144 6.81580E-03 3.56587E-04 5.50842E-16
 -1      3145 7.28236E-03 2.20284E-04 3.96696E-16
 -1      3146 7.13854E-03 2.79376E-04 4.88094E-16
 -1      3147 7.10665E-03 2.77825E-04 3.92454E-16
 -1      3148 7.57326E-03 7.64083E-05 1.90210E-16
 -1      3149 7.42699E-03 1.52214E-04 2.97071E-16
 -1      3150 7.39883E-03 1.57367E-04 2.04331E-16
 -1      3151 7.87036E-03-9.38366E-05-4.45336E-17
 -1      3152 7.72099E-03-6.18706E-06 7.66531E-17
 -1      3153 7.69684E-03 1.46944E-06-1.12215E-17
 -1      3154 8.17281E-03-2.79681E-04-3.11302E-16
 -1      3155 8.02107E-03-1.85488E-04-1.74543E-16
 -1      3156 8.00188E-03-1.78312E-04-2.57200E-16
 -1      3157 8.47807E-03-4.72110E-04-6.04768E-16
 -1      3158 8.32533E-03-3.75553E-04-4.53712E-16
 -1      3159 8.31178E-03-3.69917E-04-5.31842E-16
 -1      3160 8.78329E-03-6.65062E-04-9.23212E-16
 -1      3161 8.63090E-03-5.68775E-04-7.61896E-16
 -1      3162 8.62301E-03-5.64515E-04-8.33277E-16
 -1      3163 9.08637E-03-8.55421E-04-1.27063E-15
 -1      3164 8.93524E-03-7.60656E-04-1.09350E-15
 -1      3165 8.93234E-03-7.57066E-04-1.16315E-15
 -1      3166 9.38625E-03-1.04213E-03-1.64024E-15
 -1      3167 9.23678E-03-9.49222E-04-1.45211E-15
 -1      3168 9.23781E-03-9.45620E-04-1.51763E-15
 -1      3169 9.68274E-03-1.22529E-03-2.03514E-15
 -1      3170 9.53493E-03-1.13410E-03-1.83509E-15
 -1      3171 9.53875E-03-1.13005E-03-1.89650E-15
 -1      3172 9.97619E-03-1.40556E-03-2.44962E-15
 -1      3173 9.82983E-03-1.31573E-03-2.24031E-15
 -1      3174 9.83544E-03-1.31104E-03-2.29821E-15
 -1      3175 1.02672E-02-1.58369E-03-2.87949E-15
 -1      3176 1.01220E-02-1.49484E-03-2.66193E-15
 -1      3177 1.01286E-02-1.48951E-03-2.71765E-15
 -1      3178 1.05563E-02-1.76041E-03-3.32941E-15
 -1      3179 1.04120E-02-1.67219E-03-3.10314E-15
 -1      3180 1.04190E-02-1.66631E-03-3.15535E-15
 -1      3181 1.08442E-02-1.93630E-03-3.78960E-15
 -1      3182 1.07004E-02-1.84843E-03-3.55797E-15
 -1      3183 1.07075E-02-1.84211E-03-3.60667E-15
 -1      3184 1.11312E-02-2.11179E-03-4.26334E-15
 -1      3185 1.09878E-02-2.02407E-03-4.02503E-15
 -1      3186 1.09948E-02-2.01744E-03-4.07110E-15
 -1      3187 1.14176E-02-2.28719E-03-4.74642E-15
 -1      3188 1.12745E-02-2.19949E-03-4.50359E-15
 -1      3189 1.12812E-02-2.19264E-03-4.54771E-15
 -1      3190 1.17037E-02-2.46271E-03-5.23350E-15
 -1      3191 1.15607E-02-2.37493E-03-4.98980E-15
 -1      3192 1.15672E-02-2.36793E-03-5.03349E-15
 -1      3193 1.19896E-02-2.63845E-03-5.72621E-15
 -1      3194 1.18467E-02-2.55055E-03-5.47975E-15
 -1      3195 1.18529E-02-2.54345E-03-5.52392E-15
 -1      3196 1.22754E-02-2.81447E-03-6.21481E-15
 -1      3197 1.21325E-02-2.72642E-03-5.97012E-15
 -1      3198 1.21386E-02-2.71926E-03-6.01322E-15
 -1      3199 1.25612E-02-2.99078E-03-6.70713E-15
 -1      3200 1.24183E-02-2.90259E-03-6.45961E-15
 -1      3201 1.24242E-02-2.89538E-03-6.50252E-15
 -1      3202 1.28469E-02-3.16737E-03-7.20070E-15
 -1      3203 1.27040E-02-3.07904E-03-6.95460E-15
 -1      3204 1.27098E-02-3.07180E-03-6.99683E-15
 -1      3205 1.31326E-02-3.34421E-03-7.69687E-15
 -1      3206 1.29897E-02-3.25576E-03-7.44789E-15
 -1      3207 1.29954E-02-3.24850E-03-7.49176E-15
 -1      3208 1.33834E-02-3.49920E-03-8.13421E-15
 -1      3209 1.32394E-02-3.41069E-03-7.88005E-15
 -1      3210 1.32450E-02-3.40341E-03-7.92534E-15
 -1      3211 1.34587E-02-3.53645E-03-8.30106E-15
 -1      3212 1.40719E-02-3.83042E-03-9.66673E-15
 -1      3213 1.39845E-02-3.78858E-03-9.47425E-15
 -1      3214 1.47692E-02-4.16423E-03-1.11346E-14
 -1      3215 1.46818E-02-4.12231E-03-1.09590E-14
 -1      3216 1.45152E-02-4.02446E-03-1.06271E-14
 -1      3217 1.48854E-02-4.21836E-03-1.13668E-14
 -1      3218 5.15174E-03-4.52751E-04-8.28466E-16
 -1      3219 5.21922E-03-4.32670E-04-7.40185E-16
 -1      3220 9.90223E-03-1.20713E-03-2.68217E-15
 -1      3221 1.00674E-02-1.24668E-03-2.84540E-15
 -1      3222 1.42464E-02-3.91391E-03-1.00428E-14
 -1      3223 1.41590E-02-3.87208E-03-9.85461E-15
 -1      3224 1.39917E-02-3.77420E-03-9.52535E-15
 -1      3225 1.41659E-02-3.85741E-03-9.89837E-15
 -1      3226 9.39830E-03-1.02246E-03-2.21734E-15
 -1      3227 9.65575E-03-1.12696E-03-2.45102E-15
 -1      3228 5.08874E-03-4.68762E-04-1.02966E-15
 -1      3229 5.11061E-03-4.68474E-04-9.29012E-16
 -1      3230 1.04079E-02-1.29532E-03-3.36105E-15
 -1      3231 1.04204E-02-1.28923E-03-3.45633E-15
 -1      3232 5.24517E-03-5.22081E-04-1.30583E-15
 -1      3233 5.16930E-03-4.92561E-04-1.21285E-15
 -1      3234 8.81568E-03-7.18994E-04-1.70964E-15
 -1      3235 9.07379E-03-8.63495E-04-1.92880E-15
 -1      3236 3.43338E-03 3.82118E-04 9.74535E-16
 -1      3237 3.28911E-03 3.82598E-04 9.39271E-16
 -1      3238 3.21158E-03 3.44913E-04 8.50109E-16
 -1      3239 3.50055E-03 3.43418E-04 9.13251E-16
 -1      3240 1.07435E-02-1.51632E-03-4.22066E-15
 -1      3241 1.08550E-02-1.59277E-03-4.41558E-15
 -1      3242 1.08688E-02-1.61474E-03-4.37665E-15
 -1      3243 1.07454E-03 3.26000E-04 2.50613E-16
 -1      3244 1.02229E-02-1.28036E-03-3.03871E-15
 -1      3245 1.03365E-02-1.29392E-03-3.20599E-15
 -1      3246 7.17634E-03 1.93350E-04-4.88758E-16
 -1      3247 7.30555E-03 1.71537E-04-5.42779E-16
 -1      3248 5.28730E-03-5.12755E-04-1.34598E-15
 -1      3249 8.32902E-03-4.09834E-04-1.31145E-15
 -1      3250 8.54451E-03-5.52632E-04-1.48410E-15
 -1      3251 1.01591E-03 6.69081E-05 9.69141E-17
 -1      3252 1.01467E-03 4.03731E-05 8.06782E-17
 -1      3253 6.85213E-03 1.74534E-04-3.55537E-16
 -1      3254 7.01588E-03 1.95234E-04-4.20020E-16
 -1      3255 7.04718E-03 2.07387E-04-3.46904E-16
 -1      3256 1.04207E-02-1.30771E-03-3.62962E-15
 -1      3257 1.05367E-02-1.37781E-03-3.85447E-15
 -1      3258 1.06340E-02-1.44187E-03-4.02929E-15
 -1      3259 6.05186E-03-1.43251E-04-3.98105E-16
 -1      3260 6.22552E-03-6.09573E-05-3.58532E-16
 -1      3261 1.03393E-03-2.58470E-04-8.07189E-17
 -1      3262 1.17642E-03-2.80510E-04-9.64398E-17
 -1      3263 1.23659E-03-2.58808E-04-8.72512E-17
 -1      3264 1.02607E-03-2.33590E-04-6.89959E-17
 -1      3265 7.93639E-03-1.44110E-04-9.98442E-16
 -1      3266 8.12671E-03-2.73430E-04-1.15156E-15
 -1      3267 8.23001E-03-3.48484E-04-1.18486E-15
 -1      3268 1.06799E-03 2.79272E-04 2.26991E-16
 -1      3269 1.04175E-02-1.32812E-03-3.40190E-15
 -1      3270 5.56364E-03-2.93177E-04-4.62616E-16
 -1      3271 6.28832E-03 1.26597E-05-2.54083E-16
 -1      3272 7.80987E-03-6.96018E-05-8.58105E-16
 -1      3273 7.91250E-03-1.41518E-04-8.83259E-16
 -1      3274 7.69592E-03-5.74653E-06-7.18934E-16
 -1      3275 5.27937E-03-4.99185E-04-1.34228E-15
 -1      3276 9.80644E-03-1.18922E-03-2.61903E-15
 -1      3277 1.25059E-03 2.59555E-04 2.55316E-16
 -1      3278 1.18678E-03 2.81034E-04 2.54137E-16
 -1      3279 2.57021E-03 3.79730E-04 7.27242E-16
 -1      3280 2.42665E-03 3.77149E-04 6.79320E-16
 -1      3281 2.63555E-03 3.43674E-04 6.95109E-16
 -1      3282 1.02354E-03-1.46780E-04-2.59395E-17
 -1      3283 1.02778E-03-1.75670E-04-4.10235E-17
 -1      3284 6.54327E-03 1.47444E-04-1.49173E-16
 -1      3285 6.69757E-03 1.61356E-04-2.50220E-16
 -1      3286 6.73954E-03 1.96216E-04-1.76061E-16
 -1      3287 1.37230E-02-3.66338E-03-8.89398E-15
 -1      3288 1.36360E-02-3.62162E-03-8.70219E-15
 -1      3289 5.13677E-03-3.77758E-04-6.23477E-16
 -1      3290 5.25022E-03-3.90540E-04-6.30484E-16
 -1      3291 5.27740E-03-3.41643E-04-5.20132E-16
 -1      3292 2.13953E-03 3.68638E-04 5.80170E-16
 -1      3293 2.06009E-03 3.29756E-04 5.14508E-16
 -1      3294 2.28310E-03 3.73494E-04 6.30084E-16
 -1      3295 9.25656E-03-9.61996E-04-2.09202E-15
 -1      3296 9.42961E-03-1.04703E-03-2.25725E-15
 -1      3297 9.12949E-03-8.98628E-04-1.96387E-15
 -1      3298 1.47187E-02-4.12038E-03-1.10389E-14
 -1      3299 1.38972E-02-3.74681E-03-9.28245E-15
 -1      3300 1.38101E-02-3.70510E-03-9.08991E-15
 -1      3301 1.36430E-02-3.60745E-03-8.76911E-15
 -1      3302 1.35340E-02-3.57369E-03-8.46679E-15
 -1      3303 1.38174E-02-3.69087E-03-9.15042E-15
 -1      3304 1.02820E-03 1.78445E-04 1.64880E-16
 -1      3305 1.02387E-03 1.49405E-04 1.47343E-16
 -1      3306 1.15293E-03 2.08474E-04 2.03871E-16
 -1      3307 7.39418E-03 1.43639E-04-5.52957E-16
 -1      3308 7.47939E-03 1.05556E-04-5.64571E-16
 -1      3309 7.28722E-03 1.74861E-04-4.23259E-16
 -1      3310 5.07686E-03-4.33165E-04-8.31793E-16
 -1      3311 1.34538E-02-3.51786E-03-8.34421E-15
 -1      3312 1.01929E-02-1.29621E-03-3.04868E-15
 -1      3313 8.68350E-03-6.41731E-04-1.57173E-15
 -1      3314 5.07857E-03-4.57701E-04-1.08397E-15
 -1      3315 5.02709E-03-4.36512E-04-9.85797E-16
 -1      3316 5.11401E-03-4.57836E-04-1.16586E-15
 -1      3317 1.06565E-02-1.46370E-03-3.98997E-15
 -1      3318 1.01781E-03 9.37533E-05 1.13353E-16
 -1      3319 1.13729E-03 8.67770E-05 1.23748E-16
 -1      3320 1.02042E-03 1.21143E-04 1.30280E-16
 -1      3321 5.89977E-03-1.59066E-04-3.42418E-16
 -1      3322 1.04885E-02-1.34516E-03-3.73175E-15
 -1      3323 1.01763E-03-9.14783E-05 4.20128E-18
 -1      3324 1.02017E-03-1.18764E-04-1.09640E-17
 -1      3325 1.14288E-03-1.43409E-04-2.15756E-17
 -1      3326 1.13445E-03 2.94140E-05 8.58959E-17
 -1      3327 1.01404E-03 1.40672E-05 6.49437E-17
 -1      3328 1.01402E-03-1.21282E-05 4.94938E-17
 -1      3329 1.05119E-02-1.36015E-03-3.67873E-15
 -1      3330 8.12475E-03-2.81735E-04-1.03688E-15
 -1      3331 8.31100E-03-4.06003E-04-1.19775E-15
 -1      3332 1.33426E-03 2.42013E-04 2.60927E-16
 -1      3333 1.24334E-03 2.25407E-04 2.31491E-16
 -1      3334 1.23741E-03 1.92255E-04 2.08614E-16
 -1      3335 1.69365E-03-2.66618E-04-1.09775E-16
 -1      3336 1.83732E-03-2.74843E-04-1.23870E-16
 -1      3337 1.98102E-03-2.81491E-04-1.38900E-16
 -1      3338 2.12472E-03-2.86696E-04-1.54648E-16
 -1      3339 1.90290E-03-2.44033E-04-1.00153E-16
 -1      3340 2.26829E-03-2.90686E-04-1.71548E-16
 -1      3341 2.41168E-03-2.93572E-04-1.89844E-16
 -1      3342 2.19032E-03-2.53710E-04-1.25564E-16
 -1      3343 2.55479E-03-2.95569E-04-2.09603E-16
 -1      3344 2.69757E-03-2.96764E-04-2.30366E-16
 -1      3345 2.47718E-03-2.59306E-04-1.55190E-16
 -1      3346 2.83991E-03-2.97366E-04-2.53202E-16
 -1      3347 2.98174E-03-2.97440E-04-2.77976E-16
 -1      3348 2.76272E-03-2.61996E-04-1.90643E-16
 -1      3349 3.11589E-03-2.97228E-04-3.02614E-16
 -1      3350 3.24936E-03-2.96781E-04-3.29503E-16
 -1      3351 3.03912E-03-2.62897E-04-2.32114E-16
 -1      3352 3.38897E-03-2.96311E-04-3.59156E-16
 -1      3353 3.52751E-03-2.95878E-04-3.90448E-16
 -1      3354 3.31266E-03-2.63182E-04-2.81242E-16
 -1      3355 3.66473E-03-2.95839E-04-4.24126E-16
 -1      3356 3.80040E-03-2.96209E-04-4.58889E-16
 -1      3357 3.58903E-03-2.64119E-04-3.37932E-16
 -1      3358 3.93417E-03-2.97506E-04-4.95101E-16
 -1      3359 4.06570E-03-2.99702E-04-5.33834E-16
 -1      3360 3.85946E-03-2.67349E-04-4.01819E-16
 -1      3361 4.19451E-03-3.03564E-04-5.75007E-16
 -1      3362 4.32007E-03-3.08960E-04-6.17399E-16
 -1      3363 4.12157E-03-2.75037E-04-4.74189E-16
 -1      3364 4.44181E-03-3.17021E-04-6.62393E-16
 -1      3365 4.55886E-03-3.27401E-04-7.09678E-16
 -1      3366 4.37211E-03-2.90032E-04-5.54746E-16
 -1      3367 4.67060E-03-3.41781E-04-7.58020E-16
 -1      3368 4.77567E-03-3.59243E-04-8.10190E-16
 -1      3369 4.60668E-03-3.15950E-04-6.43582E-16
 -1      3370 4.86785E-03-3.81475E-04-8.69598E-16
 -1      3371 4.95226E-03-4.05906E-04-9.22670E-16
 -1      3372 4.98224E-03-4.12166E-04-8.68033E-16
 -1      3373 4.81238E-03-3.56552E-04-7.48350E-16
 -1      3374 6.11451E-03 1.94928E-08-1.55569E-16
 -1      3375 6.31011E-03 8.14677E-05-1.22135E-16
 -1      3376 1.01542E-02-1.30863E-03-3.04108E-15
 -1      3377 1.02988E-02-1.34253E-03-3.23871E-15
 -1      3378 1.42605E-02-3.88451E-03-1.01188E-14
 -1      3379 1.41731E-02-3.84276E-03-9.93872E-15
 -1      3380 1.12299E-02-1.87867E-03-4.94753E-15
 -1      3381 1.13576E-02-1.96403E-03-5.16026E-15
 -1      3382 1.14815E-02-2.04629E-03-5.36340E-15
 -1      3383 1.16077E-02-2.12980E-03-5.57327E-15
 -1      3384 1.13484E-02-1.97624E-03-5.11071E-15
 -1      3385 1.17423E-02-2.21842E-03-5.79502E-15
 -1      3386 1.18786E-02-2.30784E-03-6.02268E-15
 -1      3387 1.16051E-02-2.14461E-03-5.53680E-15
 -1      3388 1.20161E-02-2.39763E-03-6.25327E-15
 -1      3389 1.21548E-02-2.48783E-03-6.48339E-15
 -1      3390 1.18758E-02-2.32112E-03-5.98954E-15
 -1      3391 1.22942E-02-2.57818E-03-6.71858E-15
 -1      3392 1.24344E-02-2.66869E-03-6.95642E-15
 -1      3393 1.21515E-02-2.49984E-03-6.45503E-15
 -1      3394 1.25751E-02-2.75921E-03-7.19349E-15
 -1      3395 1.27163E-02-2.84976E-03-7.43385E-15
 -1      3396 1.24307E-02-2.67966E-03-6.92805E-15
 -1      3397 1.28578E-02-2.94025E-03-7.67715E-15
 -1      3398 1.29996E-02-3.03069E-03-7.92038E-15
 -1      3399 1.27121E-02-2.85990E-03-7.40774E-15
 -1      3400 1.31417E-02-3.12103E-03-8.16617E-15
 -1      3401 1.32839E-02-3.21130E-03-8.41462E-15
 -1      3402 1.29950E-02-3.04018E-03-7.89627E-15
 -1      3403 1.34191E-02-3.29695E-03-8.65276E-15
 -1      3404 1.35544E-02-3.38251E-03-8.89061E-15
 -1      3405 1.32719E-02-3.21579E-03-8.37915E-15
 -1      3406 1.36970E-02-3.47248E-03-9.14167E-15
 -1      3407 1.38396E-02-3.56236E-03-9.39875E-15
 -1      3408 1.35493E-02-3.39113E-03-8.86366E-15
 -1      3409 1.39823E-02-3.65214E-03-9.65745E-15
 -1      3410 1.41250E-02-3.74184E-03-9.91889E-15
 -1      3411 1.38343E-02-3.57067E-03-9.37469E-15
 -1      3412 1.42678E-02-3.83146E-03-1.01831E-14
 -1      3413 1.44105E-02-3.92100E-03-1.04499E-14
 -1      3414 1.41195E-02-3.74991E-03-9.89435E-15
 -1      3415 1.44957E-02-3.97779E-03-1.06107E-14
 -1      3416 1.46336E-02-4.06368E-03-1.08756E-14
 -1      3417 1.45175E-02-4.00967E-03-1.06426E-14
 -1      3418 1.43473E-02-3.89623E-03-1.03187E-14
 -1      3419 1.07614E-02-1.56182E-03-4.13650E-15
 -1      3420 1.08705E-02-1.63677E-03-4.33471E-15
 -1      3421 2.98971E-03 3.07845E-04 7.31742E-16
 -1      3422 2.84556E-03 3.07844E-04 6.96654E-16
 -1      3423 4.15242E-03 2.99993E-04 9.17289E-16
 -1      3424 4.00526E-03 3.00716E-04 9.05797E-16
 -1      3425 3.85884E-03 3.01772E-04 8.89818E-16
 -1      3426 3.71308E-03 3.02985E-04 8.70506E-16
 -1      3427 3.92667E-03 2.61144E-04 8.10563E-16
 -1      3428 4.75161E-03 3.03046E-04 9.30666E-16
 -1      3429 4.60000E-03 3.01033E-04 9.33024E-16
 -1      3430 5.05916E-03 3.10395E-04 9.08765E-16
 -1      3431 4.90472E-03 3.06081E-04 9.22236E-16
 -1      3432 4.82511E-03 2.58952E-04 8.19914E-16
 -1      3433 5.37218E-03 3.22873E-04 8.70154E-16
 -1      3434 5.21511E-03 3.15967E-04 8.91404E-16
 -1      3435 5.13684E-03 2.65872E-04 7.88418E-16
 -1      3436 5.68916E-03 3.39847E-04 8.13518E-16
 -1      3437 5.53043E-03 3.30935E-04 8.44648E-16
 -1      3438 5.45546E-03 2.79079E-04 7.40117E-16
 -1      3439 6.00678E-03 3.57769E-04 7.36485E-16
 -1      3440 5.84823E-03 3.49149E-04 7.77644E-16
 -1      3441 5.77912E-03 2.98388E-04 6.73425E-16
 -1      3442 6.32057E-03 3.68556E-04 6.38866E-16
 -1      3443 6.16450E-03 3.64874E-04 6.90474E-16
 -1      3444 6.10366E-03 3.19854E-04 5.86757E-16
 -1      3445 6.62675E-03 3.59095E-04 5.19888E-16
 -1      3446 6.47467E-03 3.67476E-04 5.82379E-16
 -1      3447 6.42337E-03 3.33761E-04 4.80911E-16
 -1      3448 6.92515E-03 3.14714E-04 3.77207E-16
 -1      3449 6.77658E-03 3.42173E-04 4.50676E-16
 -1      3450 6.73400E-03 3.23709E-04 3.52339E-16
 -1      3451 7.22024E-03 2.25479E-04 2.07720E-16
 -1      3452 7.07248E-03 2.76015E-04 2.96651E-16
 -1      3453 7.03623E-03 2.72530E-04 2.01147E-16
 -1      3454 7.51835E-03 9.13309E-05 1.07336E-17
 -1      3455 7.36821E-03 1.63506E-04 1.12161E-16
 -1      3456 7.33621E-03 1.70455E-04 2.19958E-17
 -1      3457 7.82439E-03-7.77699E-05-2.15865E-16
 -1      3458 7.67022E-03 1.00904E-05-9.97602E-17
 -1      3459 7.64194E-03 2.04430E-05-1.86320E-16
 -1      3460 8.13797E-03-2.66947E-04-4.71194E-16
 -1      3461 7.98044E-03-1.70899E-04-3.39328E-16
 -1      3462 7.95740E-03-1.62406E-04-4.22907E-16
 -1      3463 8.45535E-03-4.63355E-04-7.56150E-16
 -1      3464 8.29656E-03-3.64944E-04-6.11571E-16
 -1      3465 8.27997E-03-3.59932E-04-6.88834E-16
 -1      3466 8.77198E-03-6.58838E-04-1.06633E-15
 -1      3467 8.61409E-03-5.61530E-04-9.07816E-16
 -1      3468 8.60434E-03-5.59496E-04-9.82870E-16
 -1      3469 9.08454E-03-8.49889E-04-1.40488E-15
 -1      3470 8.92898E-03-7.54990E-04-1.23183E-15
 -1      3471 8.92533E-03-7.54342E-04-1.30104E-15
 -1      3472 9.39146E-03-1.03588E-03-1.76619E-15
 -1      3473 9.23879E-03-9.43450E-04-1.58220E-15
 -1      3474 9.23988E-03-9.42782E-04-1.64654E-15
 -1      3475 9.69267E-03-1.21761E-03-2.15371E-15
 -1      3476 9.54278E-03-1.12717E-03-1.95743E-15
 -1      3477 9.54715E-03-1.12560E-03-2.01824E-15
 -1      3478 9.98893E-03-1.39626E-03-2.56282E-15
 -1      3479 9.84137E-03-1.30722E-03-2.35563E-15
 -1      3480 9.84776E-03-1.30440E-03-2.41221E-15
 -1      3481 1.02813E-02-1.57292E-03-2.98700E-15
 -1      3482 1.01356E-02-1.48477E-03-2.77354E-15
 -1      3483 1.01430E-02-1.48070E-03-2.82741E-15
 -1      3484 1.05709E-02-1.74845E-03-3.43135E-15
 -1      3485 1.04264E-02-1.66077E-03-3.20706E-15
 -1      3486 1.04343E-02-1.65565E-03-3.25896E-15
 -1      3487 1.08587E-02-1.92344E-03-3.88554E-15
 -1      3488 1.07150E-02-1.83597E-03-3.65639E-15
 -1      3489 1.07229E-02-1.83004E-03-3.70578E-15
 -1      3490 1.11452E-02-2.09831E-03-4.35338E-15
 -1      3491 1.10021E-02-2.01087E-03-4.11813E-15
 -1      3492 1.10097E-02-2.00436E-03-4.16423E-15
 -1      3493 1.14311E-02-2.27329E-03-4.83358E-15
 -1      3494 1.12882E-02-2.18577E-03-4.59252E-15
 -1      3495 1.12956E-02-2.17889E-03-4.63555E-15
 -1      3496 1.17167E-02-2.44853E-03-5.32057E-15
 -1      3497 1.15739E-02-2.36088E-03-5.07600E-15
 -1      3498 1.15809E-02-2.35376E-03-5.11864E-15
 -1      3499 1.20021E-02-2.62410E-03-5.81195E-15
 -1      3500 1.18594E-02-2.53628E-03-5.56625E-15
 -1      3501 1.18660E-02-2.52902E-03-5.60888E-15
 -1      3502 1.22875E-02-2.80002E-03-6.29955E-15
 -1      3503 1.21448E-02-2.71202E-03-6.05719E-15
 -1      3504 1.21511E-02-2.70469E-03-6.09845E-15
 -1      3505 1.25729E-02-2.97626E-03-6.79085E-15
 -1      3506 1.24302E-02-2.88810E-03-6.54443E-15
 -1      3507 1.24362E-02-2.88074E-03-6.58569E-15
 -1      3508 1.28583E-02-3.15281E-03-7.28755E-15
 -1      3509 1.27156E-02-3.06450E-03-7.03790E-15
 -1      3510 1.27215E-02-3.05713E-03-7.07938E-15
 -1      3511 1.31439E-02-3.32963E-03-7.78380E-15
 -1      3512 1.30011E-02-3.24119E-03-7.53465E-15
 -1      3513 1.30069E-02-3.23382E-03-7.57493E-15
 -1      3514 1.33470E-02-3.45133E-03-8.15754E-15
 -1      3515 1.37375E-02-3.63486E-03-9.01488E-15
 -1      3516 1.36502E-02-3.59318E-03-8.82813E-15
 -1      3517 1.44327E-02-3.96796E-03-1.04708E-14
 -1      3518 1.43453E-02-3.92616E-03-1.02901E-14
 -1      3519 1.41781E-02-3.82803E-03-9.96440E-15
 -1      3520 1.43476E-02-3.91129E-03-1.03077E-14
 -1      3521 1.35630E-02-3.55156E-03-8.63982E-15
 -1      3522 1.34759E-02-3.50990E-03-8.44962E-15
 -1      3523 1.34832E-02-3.49564E-03-8.50921E-15
 -1      3524 5.42247E-03-2.79482E-04-4.01765E-16
 -1      3525 5.56629E-03-2.29036E-04-3.37255E-16
 -1      3526 1.01460E-03-3.83506E-05 3.43963E-17
 -1      3527 1.01578E-03-6.47167E-05 1.94072E-17
 -1      3528 1.13710E-03-8.45025E-05 1.39862E-17
 -1      3529 4.44963E-03 3.00003E-04 9.31777E-16
 -1      3530 4.30052E-03 2.99678E-04 9.26491E-16
 -1      3531 4.22129E-03 2.58191E-04 8.28764E-16
 -1      3532 4.52028E-03 2.56965E-04 8.32274E-16
 -1      3533 1.09856E-02-1.71443E-03-4.53687E-15
 -1      3534 1.11057E-02-1.79558E-03-4.73975E-15
 -1      3535 1.08638E-02-1.65671E-03-4.29149E-15
 -1      3536 1.03952E-02-1.35344E-03-3.38137E-15
 -1      3537 1.04727E-02-1.35608E-03-3.53959E-15
 -1      3538 1.05228E-02-1.38815E-03-3.66178E-15
 -1      3539 1.03751E-02-1.37397E-03-3.37657E-15
 -1      3540 8.56162E-03-5.67357E-04-1.42350E-15
 -1      3541 8.80996E-03-7.19931E-04-1.65228E-15
 -1      3542 5.22241E-03-4.83058E-04-1.29145E-15
 -1      3543 4.99899E-03-3.99827E-04-7.70366E-16
 -1      3544 1.40706E-03-2.44603E-04-8.39850E-17
 -1      3545 1.55021E-03-2.56590E-04-9.66837E-17
 -1      3546 1.61576E-03-2.29015E-04-7.81439E-17
 -1      3547 9.74880E-03-1.18331E-03-2.58970E-15
 -1      3548 9.97082E-03-1.25810E-03-2.82756E-15
 -1      3549 6.93972E-03 2.22985E-04-2.04982E-16
 -1      3550 7.08868E-03 2.16411E-04-2.70183E-16
 -1      3551 1.01914E-03-2.09635E-04-5.76389E-17
 -1      3552 5.73682E-03-1.62115E-04-2.69763E-16
 -1      3553 5.90220E-03-8.99589E-05-2.09820E-16
 -1      3554 7.57840E-03 5.46135E-05-5.80062E-16
 -1      3555 7.67639E-03-2.58759E-06-5.98778E-16
 -1      3556 7.46823E-03 1.05349E-04-4.43371E-16
 -1      3557 6.36924E-03 1.33564E-04-4.62277E-17
 -1      3558 6.41812E-03 1.80019E-04 3.08049E-17
 -1      3559 6.19661E-03 1.24351E-04 5.18384E-17
 -1      3560 1.83717E-03 2.84309E-04 4.10072E-16
 -1      3561 1.69334E-03 2.75786E-04 3.67395E-16
 -1      3562 2.70146E-03 3.07252E-04 6.59398E-16
 -1      3563 2.55738E-03 3.05984E-04 6.20435E-16
 -1      3564 2.76787E-03 2.70522E-04 6.20218E-16
 -1      3565 1.01039E-02-1.31338E-03-3.01507E-15
 -1      3566 8.86959E-03-7.51250E-04-1.65682E-15
 -1      3567 8.99182E-03-8.24476E-04-1.81081E-15
 -1      3568 9.16892E-03-9.19842E-04-1.97374E-15
 -1      3569 2.34782E-03 3.38904E-04 6.06706E-16
 -1      3570 1.13439E-03-2.73307E-05 4.96700E-17
 -1      3571 6.79187E-03 2.27422E-04-9.63991E-17
 -1      3572 1.40063E-02-3.74495E-03-9.61105E-15
 -1      3573 1.40861E-02-3.80121E-03-9.75516E-15
 -1      3574 1.39990E-02-3.75966E-03-9.56983E-15
 -1      3575 5.28165E-03-2.84644E-04-3.99393E-16
 -1      3576 1.32728E-02-3.38816E-03-8.07380E-15
 -1      3577 1.33527E-02-3.44396E-03-8.20004E-15
 -1      3578 1.06109E-02-1.45691E-03-3.84764E-15
 -1      3579 3.13395E-03 3.07393E-04 7.64471E-16
 -1      3580 3.05636E-03 2.70083E-04 6.82966E-16
 -1      3581 3.27832E-03 3.06573E-04 7.95100E-16
 -1      3582 2.12516E-03 2.96648E-04 4.95467E-16
 -1      3583 1.98112E-03 2.91216E-04 4.52709E-16
 -1      3584 1.90276E-03 2.53171E-04 3.95070E-16
 -1      3585 1.58520E-03 2.66026E-04 3.33853E-16
 -1      3586 1.44185E-03 2.54243E-04 2.92816E-16
 -1      3587 1.43507E-03 2.18487E-04 2.64369E-16
 -1      3588 1.65069E-03 2.37824E-04 3.24759E-16
 -1      3589 1.11018E-02-1.81385E-03-4.69995E-15
 -1      3590 1.13829E-03-2.10010E-04-5.90890E-17
 -1      3591 1.38246E-02-3.67643E-03-9.20093E-15
 -1      3592 1.36574E-02-3.57873E-03-8.87875E-15
 -1      3593 1.39117E-02-3.71798E-03-9.38418E-15
 -1      3594 1.14322E-03 1.46050E-04 1.63200E-16
 -1      3595 7.17386E-03 2.04464E-04-2.73246E-16
 -1      3596 5.94225E-03-1.24100E-05-8.29550E-17
 -1      3597 3.56779E-03 3.04270E-04 8.48361E-16
 -1      3598 3.42292E-03 3.05498E-04 8.23059E-16
 -1      3599 3.34523E-03 2.67900E-04 7.36499E-16
 -1      3600 3.63504E-03 2.64675E-04 7.79297E-16
 -1      3601 9.50141E-03-1.08605E-03-2.32976E-15
 -1      3602 9.62196E-03-1.13732E-03-2.46019E-15
 -1      3603 9.80251E-03-1.21707E-03-2.66837E-15
 -1      3604 5.57775E-03-1.60416E-04-2.10173E-16
 -1      3605 1.26300E-03-1.37129E-04-1.44334E-17
 -1      3606 1.26709E-03-1.69104E-04-3.49655E-17
 -1      3607 1.24345E-03-2.19881E-04-6.56484E-17
 -1      3608 1.05975E-02-1.47802E-03-3.80334E-15
 -1      3609 1.25614E-03 4.66341E-05 1.10467E-16
 -1      3610 1.25534E-03 1.61944E-05 8.88775E-17
 -1      3611 7.99948E-03-2.00224E-04-8.89141E-16
 -1      3612 8.44525E-03-4.91422E-04-1.26896E-15
 -1      3613 1.26008E-03 1.08115E-04 1.54458E-16
 -1      3614 1.25771E-03 7.71888E-05 1.32042E-16
 -1      3615 1.37897E-03 6.53054E-05 1.38466E-16
 -1      3616 1.42975E-03-1.89880E-04-4.76100E-17
 -1      3617 1.30923E-03-1.97138E-04-5.26380E-17
 -1      3618 4.89645E-03-3.63786E-04-7.08262E-16
 -1      3619 5.01332E-03-3.75914E-04-6.68262E-16
 -1      3620 5.01750E-03-3.41760E-04-5.62484E-16
 -1      3621 4.80293E-03-3.37299E-04-6.50955E-16
 -1      3622 1.33326E-03 1.88668E-04 2.22980E-16
 -1      3623 1.24312E-03 1.74252E-04 1.97528E-16
 -1      3624 1.23886E-03 1.42243E-04 1.74936E-16
 -1      3625 1.44041E-03 1.98803E-04 2.50410E-16
 -1      3626 1.09701E-02-1.75100E-03-4.45142E-15
 -1      3627 1.10933E-02-1.83058E-03-4.65791E-15
 -1      3628 2.11305E-03-2.17023E-04-8.24807E-17
 -1      3629 2.25671E-03-2.20434E-04-9.27535E-17
 -1      3630 2.40019E-03-2.23067E-04-1.04083E-16
 -1      3631 2.54338E-03-2.25006E-04-1.17162E-16
 -1      3632 2.32385E-03-1.86907E-04-5.65140E-17
 -1      3633 2.68619E-03-2.26444E-04-1.31893E-16
 -1      3634 2.82851E-03-2.27450E-04-1.47858E-16
 -1      3635 2.61029E-03-1.90719E-04-7.59348E-17
 -1      3636 2.96316E-03-2.28201E-04-1.65192E-16
 -1      3637 3.09718E-03-2.28800E-04-1.83894E-16
 -1      3638 2.88791E-03-1.93113E-04-1.01007E-16
 -1      3639 3.23743E-03-2.29503E-04-2.05673E-16
 -1      3640 3.37671E-03-2.30338E-04-2.29133E-16
 -1      3641 3.16307E-03-1.95201E-04-1.33506E-16
 -1      3642 3.51485E-03-2.31615E-04-2.55181E-16
 -1      3643 3.65164E-03-2.33392E-04-2.82421E-16
 -1      3644 3.44176E-03-1.98212E-04-1.74516E-16
 -1      3645 3.78689E-03-2.36093E-04-3.11288E-16
 -1      3646 3.92029E-03-2.39761E-04-3.42012E-16
 -1      3647 3.71572E-03-2.03587E-04-2.23075E-16
 -1      3648 4.05164E-03-2.44982E-04-3.75215E-16
 -1      3649 4.18047E-03-2.51767E-04-4.10967E-16
 -1      3650 3.98347E-03-2.13226E-04-2.79277E-16
 -1      3651 4.30661E-03-2.60925E-04-4.48358E-16
 -1      3652 4.42934E-03-2.72359E-04-4.88541E-16
 -1      3653 4.24322E-03-2.29516E-04-3.44329E-16
 -1      3654 4.54857E-03-2.87170E-04-5.31476E-16
 -1      3655 4.66322E-03-3.05003E-04-5.75888E-16
 -1      3656 4.49293E-03-2.55337E-04-4.19803E-16
 -1      3657 1.32533E-02-3.36549E-03-8.06840E-15
 -1      3658 1.31301E-02-3.29966E-03-7.82187E-15
 -1      3659 1.29875E-02-3.21122E-03-7.57195E-15
 -1      3660 1.25530E-03-1.40951E-05 6.80879E-17
 -1      3661 1.25602E-03-4.44309E-05 4.73661E-17
 -1      3662 1.37722E-03 1.06654E-06 8.96500E-17
 -1      3663 1.14671E-02-2.07237E-03-5.28085E-15
 -1      3664 1.16003E-02-2.15868E-03-5.50237E-15
 -1      3665 1.17352E-02-2.24587E-03-5.72955E-15
 -1      3666 1.18714E-02-2.33391E-03-5.95911E-15
 -1      3667 1.15939E-02-2.17178E-03-5.46888E-15
 -1      3668 1.20088E-02-2.42247E-03-6.19005E-15
 -1      3669 1.21472E-02-2.51152E-03-6.42466E-15
 -1      3670 1.18659E-02-2.34604E-03-5.92716E-15
 -1      3671 1.22864E-02-2.60084E-03-6.66417E-15
 -1      3672 1.24262E-02-2.69041E-03-6.90101E-15
 -1      3673 1.21420E-02-2.52275E-03-6.39720E-15
 -1      3674 1.25666E-02-2.78011E-03-7.14016E-15
 -1      3675 1.27074E-02-2.86991E-03-7.38339E-15
 -1      3676 1.24211E-02-2.70086E-03-6.87417E-15
 -1      3677 1.28486E-02-2.95974E-03-7.62751E-15
 -1      3678 1.29901E-02-3.04959E-03-7.87096E-15
 -1      3679 1.27023E-02-2.87971E-03-7.35615E-15
 -1      3680 1.31248E-02-3.13492E-03-8.10470E-15
 -1      3681 1.32596E-02-3.22024E-03-8.34060E-15
 -1      3682 1.29778E-02-3.05437E-03-7.83436E-15
 -1      3683 1.34017E-02-3.30999E-03-8.59104E-15
 -1      3684 1.35440E-02-3.39970E-03-8.83995E-15
 -1      3685 1.32543E-02-3.22908E-03-8.31446E-15
 -1      3686 1.36864E-02-3.48935E-03-9.09430E-15
 -1      3687 1.38289E-02-3.57894E-03-9.35158E-15
 -1      3688 1.35386E-02-3.40820E-03-8.81600E-15
 -1      3689 1.39714E-02-3.66848E-03-9.61397E-15
 -1      3690 1.41140E-02-3.75796E-03-9.87711E-15
 -1      3691 1.38234E-02-3.58717E-03-9.33068E-15
 -1      3692 1.41883E-02-3.80628E-03-1.00107E-14
 -1      3693 1.42733E-02-3.86303E-03-1.01704E-14
 -1      3694 1.41886E-02-3.82142E-03-9.99697E-15
 -1      3695 1.40401E-02-3.72489E-03-9.72689E-15
 -1      3696 2.41330E-03 3.03875E-04 5.79940E-16
 -1      3697 2.26922E-03 3.00828E-04 5.38198E-16
 -1      3698 2.19101E-03 2.63026E-04 4.73349E-16
 -1      3699 2.47944E-03 2.68462E-04 5.49338E-16
 -1      3700 1.00832E-02-1.32662E-03-3.01597E-15
 -1      3701 1.02509E-02-1.37722E-03-3.23538E-15
 -1      3702 5.21390E-03 2.19558E-04 6.65280E-16
 -1      3703 5.05480E-03 2.15462E-04 6.88048E-16
 -1      3704 4.89780E-03 2.13223E-04 7.06236E-16
 -1      3705 4.74305E-03 2.12314E-04 7.20534E-16
 -1      3706 4.96943E-03 1.65771E-04 5.90307E-16
 -1      3707 5.86990E-03 2.55975E-04 5.31151E-16
 -1      3708 5.70393E-03 2.43872E-04 5.71808E-16
 -1      3709 6.26409E-03 2.55701E-04 3.29774E-16
 -1      3710 6.09530E-03 2.40358E-04 3.82385E-16
 -1      3711 6.84365E-03 2.90294E-04 1.84938E-16
 -1      3712 6.68732E-03 3.00860E-04 2.56156E-16
 -1      3713 7.52525E-03 7.66463E-05-2.71674E-16
 -1      3714 7.36875E-03 1.48461E-04-1.68499E-16
 -1      3715 8.09642E-03-2.52770E-04-6.29312E-16
 -1      3716 7.93236E-03-1.52818E-04-5.03869E-16
 -1      3717 8.42830E-03-4.57524E-04-9.08304E-16
 -1      3718 8.26221E-03-3.55224E-04-7.66748E-16
 -1      3719 8.24381E-03-3.49441E-04-8.42534E-16
 -1      3720 8.75898E-03-6.58184E-04-1.20914E-15
 -1      3721 8.59438E-03-5.58790E-04-1.05508E-15
 -1      3722 8.58445E-03-5.58855E-04-1.12795E-15
 -1      3723 9.08306E-03-8.50689E-04-1.53829E-15
 -1      3724 8.92221E-03-7.55471E-04-1.37089E-15
 -1      3725 8.91976E-03-7.58241E-04-1.43954E-15
 -1      3726 9.39820E-03-1.03541E-03-1.89182E-15
 -1      3727 9.24183E-03-9.43845E-04-1.71243E-15
 -1      3728 9.24490E-03-9.46717E-04-1.77705E-15
 -1      3729 9.70465E-03-1.21450E-03-2.27167E-15
 -1      3730 9.55248E-03-1.12545E-03-2.07959E-15
 -1      3731 9.55901E-03-1.12691E-03-2.14096E-15
 -1      3732 1.00038E-02-1.39023E-03-2.67345E-15
 -1      3733 9.85504E-03-1.30263E-03-2.46966E-15
 -1      3734 9.86343E-03-1.30205E-03-2.52698E-15
 -1      3735 1.02975E-02-1.56424E-03-3.09319E-15
 -1      3736 1.01512E-02-1.47734E-03-2.88140E-15
 -1      3737 1.01604E-02-1.47478E-03-2.93517E-15
 -1      3738 1.05873E-02-1.73764E-03-3.52959E-15
 -1      3739 1.04428E-02-1.65095E-03-3.30741E-15
 -1      3740 1.04520E-02-1.64673E-03-3.35822E-15
 -1      3741 1.08746E-02-1.91108E-03-3.97986E-15
 -1      3742 1.07312E-02-1.82432E-03-3.75393E-15
 -1      3743 1.07401E-02-1.81884E-03-3.80028E-15
 -1      3744 1.11605E-02-2.08489E-03-4.44435E-15
 -1      3745 1.10177E-02-1.99792E-03-4.21076E-15
 -1      3746 1.10262E-02-1.99156E-03-4.25552E-15
 -1      3747 1.14456E-02-2.25920E-03-4.91907E-15
 -1      3748 1.13031E-02-2.17198E-03-4.67970E-15
 -1      3749 1.13111E-02-2.16504E-03-4.72333E-15
 -1      3750 1.17304E-02-2.43405E-03-5.40450E-15
 -1      3751 1.15881E-02-2.34656E-03-5.16170E-15
 -1      3752 1.15955E-02-2.33928E-03-5.20185E-15
 -1      3753 1.20152E-02-2.60941E-03-5.89340E-15
 -1      3754 1.18728E-02-2.52167E-03-5.64789E-15
 -1      3755 1.18798E-02-2.51421E-03-5.68880E-15
 -1      3756 1.23000E-02-2.78523E-03-6.38214E-15
 -1      3757 1.21576E-02-2.69726E-03-6.13862E-15
 -1      3758 1.21642E-02-2.68972E-03-6.17686E-15
 -1      3759 1.25850E-02-2.96144E-03-6.87159E-15
 -1      3760 1.24425E-02-2.87329E-03-6.62732E-15
 -1      3761 1.24488E-02-2.86573E-03-6.66464E-15
 -1      3762 1.28575E-02-3.13042E-03-7.34468E-15
 -1      3763 1.27149E-02-3.04211E-03-7.09601E-15
 -1      3764 1.27210E-02-3.03457E-03-7.13400E-15
 -1      3765 1.29808E-02-3.19613E-03-7.58712E-15
 -1      3766 6.70086E-03 2.39247E-04 8.95822E-18
 -1      3767 6.88781E-03 2.54461E-04-1.63037E-17
 -1      3768 1.57257E-03-1.99199E-04-5.49013E-17
 -1      3769 1.71586E-03-2.07045E-04-6.24636E-17
 -1      3770 1.53012E-03-1.70125E-04-3.26887E-17
 -1      3771 3.99414E-03 2.19862E-04 7.27811E-16
 -1      3772 3.84781E-03 2.22250E-04 7.19314E-16
 -1      3773 1.07354E-02-1.60081E-03-4.04726E-15
 -1      3774 1.08504E-02-1.67453E-03-4.24774E-15
 -1      3775 1.08334E-02-1.68967E-03-4.20332E-15
 -1      3776 1.12166E-02-1.91011E-03-4.86416E-15
 -1      3777 1.13391E-02-1.98956E-03-5.06817E-15
 -1      3778 1.13309E-02-2.00360E-03-5.02995E-15
 -1      3779 1.10787E-02-1.84338E-03-4.61114E-15
 -1      3780 1.25751E-03-7.49759E-05 2.64816E-17
 -1      3781 1.25981E-03-1.05795E-04 5.85469E-18
 -1      3782 1.38379E-03-1.28321E-04-4.90601E-18
 -1      3783 5.12785E-03-2.81747E-04-3.89744E-16
 -1      3784 5.25141E-03-2.25742E-04-2.71728E-16
 -1      3785 7.08590E-03 2.31088E-04-1.13624E-16
 -1      3786 7.27709E-03 1.79722E-04-2.68313E-16
 -1      3787 1.33405E-02-3.40703E-03-8.25361E-15
 -1      3788 1.84253E-03-2.10377E-04-6.76000E-17
 -1      3789 1.98623E-03-2.15733E-04-7.65311E-17
 -1      3790 2.05339E-03-1.83688E-04-4.58482E-17
 -1      3791 1.79976E-03-1.80427E-04-4.02239E-17
 -1      3792 7.85561E-03-1.10277E-04-7.05002E-16
 -1      3793 8.05543E-03-2.37998E-04-8.55395E-16
 -1      3794 5.41317E-03-1.49983E-04-1.45405E-16
 -1      3795 5.56312E-03-9.13858E-05-7.36444E-17
 -1      3796 5.75722E-03-1.46313E-05 3.00866E-18
 -1      3797 5.94742E-03 6.25979E-05 6.38866E-17
 -1      3798 8.33272E-03-4.16012E-04-1.09190E-15
 -1      3799 8.56537E-03-5.64874E-04-1.32037E-15
 -1      3800 1.04708E-02-1.43252E-03-3.56528E-15
 -1      3801 1.06237E-02-1.53135E-03-3.85117E-15
 -1      3802 1.05968E-02-1.54600E-03-3.80391E-15
 -1      3803 1.03750E-02-1.41727E-03-3.41913E-15
 -1      3804 5.53863E-03 2.33656E-04 6.07384E-16
 -1      3805 5.37537E-03 2.25495E-04 6.38541E-16
 -1      3806 5.29012E-03 1.71481E-04 5.39797E-16
 -1      3807 7.73777E-03-3.99490E-05-5.59313E-16
 -1      3808 1.52602E-03-1.35267E-04-5.92245E-18
 -1      3809 7.37176E-03 1.44993E-04-2.75360E-16
 -1      3810 1.03649E-02-1.43867E-03-3.42456E-15
 -1      3811 4.76097E-03-3.03892E-04-5.32519E-16
 -1      3812 9.23984E-03-9.55848E-04-2.01592E-15
 -1      3813 9.36589E-03-1.02223E-03-2.17320E-15
 -1      3814 9.55580E-03-1.11558E-03-2.37920E-15
 -1      3815 1.39263E-02-3.68853E-03-9.46701E-15
 -1      3816 1.38393E-02-3.64711E-03-9.28774E-15
 -1      3817 1.50009E-03 1.78217E-05 1.14288E-16
 -1      3818 1.50002E-03-1.57735E-05 8.71563E-17
 -1      3819 1.37877E-03-6.31431E-05 4.20128E-17
 -1      3820 9.97530E-03-1.29405E-03-2.88597E-15
 -1      3821 1.01386E-02-1.36653E-03-3.10835E-15
 -1      3822 9.86730E-03-1.25605E-03-2.75447E-15
 -1      3823 1.70863E-03 2.09457E-04 3.11735E-16
 -1      3824 1.60070E-03 2.01557E-04 2.83261E-16
 -1      3825 5.62153E-03 1.86914E-04 4.72577E-16
 -1      3826 4.65910E-03 1.66883E-04 6.23769E-16
 -1      3827 4.59019E-03 2.12631E-04 7.29953E-16
 -1      3828 4.43914E-03 2.13697E-04 7.34235E-16
 -1      3829 6.01626E-03 1.82264E-04 2.86324E-16
 -1      3830 6.52856E-03 3.00847E-04 3.21046E-16
 -1      3831 6.36673E-03 2.94168E-04 3.80948E-16
 -1      3832 7.18673E-03 2.19547E-04 4.35036E-18
 -1      3833 7.03423E-03 2.60239E-04 8.96771E-17
 -1      3834 7.99448E-03-1.96260E-04-6.87547E-16
 -1      3835 7.85447E-03-1.07432E-04-4.86007E-16
 -1      3836 7.69252E-03-1.34190E-05-3.68276E-16
 -1      3837 1.35775E-02-3.52259E-03-8.74360E-15
 -1      3838 1.34904E-02-3.48114E-03-8.56143E-15
 -1      3839 8.17970E-03-3.15011E-04-8.96486E-16
 -1      3840 1.40998E-02-3.77571E-03-9.81989E-15
 -1      3841 1.40151E-02-3.73417E-03-9.64872E-15
 -1      3842 1.38482E-02-3.63626E-03-9.32667E-15
 -1      3843 1.40256E-02-3.72749E-03-9.68361E-15
 -1      3844 5.58185E-03-1.54276E-05 6.73425E-17
 -1      3845 4.14134E-03 2.17514E-04 7.34086E-16
 -1      3846 4.06107E-03 1.77891E-04 6.42512E-16
 -1      3847 4.28958E-03 2.15438E-04 7.36146E-16
 -1      3848 3.70215E-03 2.24635E-04 7.07794E-16
 -1      3849 3.55700E-03 2.26872E-04 6.92399E-16
 -1      3850 3.76899E-03 1.84153E-04 6.31290E-16
 -1      3851 3.12330E-03 2.32047E-04 6.30274E-16
 -1      3852 2.97901E-03 2.33023E-04 6.04809E-16
 -1      3853 1.38319E-02-3.66185E-03-9.24548E-15
 -1      3854 4.98768E-03-2.94267E-04-4.39251E-16
 -1      3855 5.24445E-03-1.61993E-04-1.41041E-16
 -1      3856 1.99647E-03 2.21214E-04 3.82696E-16
 -1      3857 1.85242E-03 2.15980E-04 3.47229E-16
 -1      3858 1.80296E-03 1.79532E-04 3.01896E-16
 -1      3859 1.32607E-02-3.35105E-03-8.12267E-15
 -1      3860 2.83475E-03 2.33499E-04 5.77026E-16
 -1      3861 2.69049E-03 2.33420E-04 5.47183E-16
 -1      3862 2.90202E-03 1.96239E-04 5.30229E-16
 -1      3863 1.35953E-03 1.33879E-04 1.87323E-16
 -1      3864 1.50286E-03 8.52762E-05 1.70071E-16
 -1      3865 1.50103E-03 5.14379E-05 1.42139E-16
 -1      3866 1.62381E-03 3.58423E-05 1.42695E-16
 -1      3867 6.63457E-03 2.70896E-04 1.60706E-16
 -1      3868 6.36340E-03 2.21282E-04 1.77118E-16
 -1      3869 6.00799E-03 1.15045E-04 1.40323E-16
 -1      3870 6.53078E-03 2.24938E-04 7.51623E-17
 -1      3871 8.71347E-03-6.55463E-04-1.46182E-15
 -1      3872 8.88595E-03-7.56235E-04-1.61935E-15
 -1      3873 6.99281E-03 2.53722E-04-1.27394E-18
 -1      3874 2.53511E-03-1.54942E-04-2.34594E-17
 -1      3875 2.67804E-03-1.56434E-04-3.14825E-17
 -1      3876 2.81339E-03-1.57731E-04-4.04678E-17
 -1      3877 2.94823E-03-1.58959E-04-5.12421E-17
 -1      3878 2.73952E-03-1.22097E-04 1.71033E-17
 -1      3879 3.08951E-03-1.60376E-04-6.42796E-17
 -1      3880 3.23002E-03-1.61981E-04-7.90383E-17
 -1      3881 3.01661E-03-1.25050E-04 1.74828E-18
 -1      3882 3.36964E-03-1.64024E-04-9.68599E-17
 -1      3883 3.50823E-03-1.66581E-04-1.16267E-16
 -1      3884 3.29817E-03-1.29080E-04-2.23346E-17
 -1      3885 3.64571E-03-1.69974E-04-1.37301E-16
 -1      3886 3.78186E-03-1.74289E-04-1.60394E-16
 -1      3887 3.57633E-03-1.35311E-04-5.42779E-17
 -1      3888 3.91667E-03-1.79938E-04-1.85344E-16
 -1      3889 4.04981E-03-1.87013E-04-2.12856E-16
 -1      3890 3.85038E-03-1.45262E-04-9.43256E-17
 -1      3891 4.18138E-03-1.96025E-04-2.42780E-16
 -1      3892 4.31091E-03-2.07039E-04-2.75645E-16
 -1      3893 4.11974E-03-1.60756E-04-1.43779E-16
 -1      3894 4.43879E-03-2.20641E-04-3.10759E-16
 -1      3895 4.56429E-03-2.36891E-04-3.48693E-16
 -1      3896 4.38404E-03-1.83803E-04-2.03600E-16
 -1      3897 1.14512E-02-2.09851E-03-5.20688E-15
 -1      3898 1.15861E-02-2.18399E-03-5.43448E-15
 -1      3899 1.62364E-03-3.40124E-05 8.17759E-17
 -1      3900 1.50084E-03-4.94007E-05 6.05256E-17
 -1      3901 1.50256E-03-8.31995E-05 3.35967E-17
 -1      3902 5.40084E-03-1.13713E-05 1.29698E-16
 -1      3903 5.57673E-03 5.66638E-05 2.12883E-16
 -1      3904 1.17222E-02-2.27036E-03-5.66460E-15
 -1      3905 1.18593E-02-2.35755E-03-5.89607E-15
 -1      3906 1.15776E-02-2.19529E-03-5.39946E-15
 -1      3907 1.19974E-02-2.44530E-03-6.12839E-15
 -1      3908 1.21361E-02-2.53356E-03-6.36646E-15
 -1      3909 1.18522E-02-2.36841E-03-5.86389E-15
 -1      3910 1.22755E-02-2.62214E-03-6.60709E-15
 -1      3911 1.24155E-02-2.71103E-03-6.84540E-15
 -1      3912 1.21297E-02-2.54390E-03-6.33556E-15
 -1      3913 1.25560E-02-2.80009E-03-7.08683E-15
 -1      3914 1.26968E-02-2.88930E-03-7.32918E-15
 -1      3915 1.24096E-02-2.72086E-03-6.81622E-15
 -1      3916 1.28309E-02-2.97414E-03-7.56037E-15
 -1      3917 1.29653E-02-3.05903E-03-7.79175E-15
 -1      3918 1.26840E-02-2.89422E-03-7.28764E-15
 -1      3919 1.31070E-02-3.14842E-03-8.03823E-15
 -1      3920 1.32489E-02-3.23783E-03-8.28729E-15
 -1      3921 1.29596E-02-3.06801E-03-7.76300E-15
 -1      3922 1.33909E-02-3.32723E-03-8.53602E-15
 -1      3923 1.35331E-02-3.41662E-03-8.78751E-15
 -1      3924 1.32432E-02-3.24645E-03-8.25590E-15
 -1      3925 5.03896E-03 1.16414E-04 4.71235E-16
 -1      3926 4.88126E-03 1.17276E-04 4.95358E-16
 -1      3927 1.32807E-02-3.34396E-03-8.19581E-15
 -1      3928 1.31308E-02-3.27009E-03-7.89162E-15
 -1      3929 1.30010E-02-3.18918E-03-7.66257E-15
 -1      3930 5.78188E-03 1.31739E-04 2.88804E-16
 -1      3931 5.60912E-03 1.19327E-04 3.31061E-16
 -1      3932 1.49884E-03 1.73027E-04 2.40693E-16
 -1      3933 1.36398E-02-3.55159E-03-8.87334E-15
 -1      3934 1.34728E-02-3.45400E-03-8.55776E-15
 -1      3935 1.33430E-02-3.37286E-03-8.32384E-15
 -1      3936 1.37271E-02-3.59314E-03-9.05512E-15
 -1      3937 9.41046E-03-1.04191E-03-2.01758E-15
 -1      3938 9.25019E-03-9.51625E-04-1.84172E-15
 -1      3939 9.72184E-03-1.21687E-03-2.39010E-15
 -1      3940 9.56762E-03-1.13000E-03-2.20122E-15
 -1      3941 9.57873E-03-1.13491E-03-2.26212E-15
 -1      3942 1.00231E-02-1.38799E-03-2.78342E-15
 -1      3943 9.87357E-03-1.30263E-03-2.58421E-15
 -1      3944 9.88573E-03-1.30452E-03-2.64043E-15
 -1      3945 1.03171E-02-1.55793E-03-3.19630E-15
 -1      3946 1.01708E-02-1.47296E-03-2.98756E-15
 -1      3947 1.01829E-02-1.47199E-03-3.03975E-15
 -1      3948 1.06063E-02-1.72813E-03-3.62653E-15
 -1      3949 1.04622E-02-1.64292E-03-3.41030E-15
 -1      3950 1.04735E-02-1.63956E-03-3.45982E-15
 -1      3951 1.08926E-02-1.89924E-03-4.07263E-15
 -1      3952 1.07497E-02-1.81353E-03-3.84815E-15
 -1      3953 1.07601E-02-1.80842E-03-3.89680E-15
 -1      3954 1.11773E-02-2.07149E-03-4.53286E-15
 -1      3955 1.10351E-02-1.98522E-03-4.30111E-15
 -1      3956 1.10446E-02-1.97890E-03-4.34577E-15
 -1      3957 1.14613E-02-2.24485E-03-5.00355E-15
 -1      3958 1.13193E-02-2.15804E-03-4.76668E-15
 -1      3959 1.13279E-02-2.15096E-03-4.80897E-15
 -1      3960 1.17450E-02-2.41916E-03-5.48388E-15
 -1      3961 1.16031E-02-2.33189E-03-5.24182E-15
 -1      3962 1.16110E-02-2.32438E-03-5.28198E-15
 -1      3963 1.20289E-02-2.59426E-03-5.96996E-15
 -1      3964 1.18869E-02-2.50662E-03-5.72844E-15
 -1      3965 1.18942E-02-2.49888E-03-5.76455E-15
 -1      3966 1.23130E-02-2.76999E-03-6.45716E-15
 -1      3967 1.21709E-02-2.68206E-03-6.21287E-15
 -1      3968 1.21778E-02-2.67424E-03-6.25066E-15
 -1      3969 1.25974E-02-2.94623E-03-6.94677E-15
 -1      3970 1.24552E-02-2.85806E-03-6.70197E-15
 -1      3971 1.24616E-02-2.85025E-03-6.73707E-15
 -1      3972 8.93198E-03-7.77765E-04-1.60912E-15
 -1      3973 9.08213E-03-8.67577E-04-1.81040E-15
 -1      3974 5.42831E-03 1.18958E-04 3.89323E-16
 -1      3975 4.69593E-03-2.46512E-04-3.57014E-16
 -1      3976 4.85147E-03-2.79920E-04-4.26430E-16
 -1      3977 4.93984E-03-2.21034E-04-2.56305E-16
 -1      3978 4.65175E-03-2.05357E-04-2.42360E-16
 -1      3979 1.06903E-02-1.62804E-03-3.95517E-15
 -1      3980 1.08139E-02-1.70228E-03-4.15722E-15
 -1      3981 3.26767E-03 2.30655E-04 6.53327E-16
 -1      3982 3.19043E-03 1.93787E-04 5.74126E-16
 -1      3983 3.41221E-03 2.28908E-04 6.74089E-16
 -1      3984 9.10022E-03-8.68231E-04-1.70523E-15
 -1      3985 8.93251E-03-7.72309E-04-1.54045E-15
 -1      3986 1.03165E-02-1.43750E-03-3.36074E-15
 -1      3987 1.04404E-02-1.48202E-03-3.54782E-15
 -1      3988 1.05595E-02-1.54960E-03-3.74329E-15
 -1      3989 1.02226E-02-1.41066E-03-3.22954E-15
 -1      3990 1.64790E-03-1.22586E-04 7.87402E-18
 -1      3991 2.24827E-03-1.50974E-04-1.27936E-17
 -1      3992 2.39182E-03-1.53143E-04-1.76725E-17
 -1      3993 2.46061E-03-1.19166E-04 2.50180E-17
 -1      3994 5.26277E-03 1.14234E-04 4.22785E-16
 -1      3995 8.59570E-03-5.77306E-04-1.27836E-15
 -1      3996 1.51937E-03 1.34610E-04 2.13046E-16
 -1      3997 5.06698E-03-1.63756E-04-1.26540E-16
 -1      3998 5.20881E-03-9.51631E-05 5.14996E-19
 -1      3999 1.64134E-03 1.21720E-04 2.21177E-16
 -1      4000 1.74711E-03-1.72465E-05 1.06699E-16
 -1      4001 1.74797E-03-5.33746E-05 7.34682E-17
 -1      4002 1.74722E-03 1.87901E-05 1.40242E-16
 -1      4003 1.87119E-03 5.42121E-07 1.34726E-16
 -1      4004 1.74829E-03 5.49412E-05 1.74733E-16
 -1      4005 1.36473E-02-3.53681E-03-8.91684E-15
 -1      4006 5.16773E-03 6.04475E-05 3.29340E-16
 -1      4007 9.27198E-03-9.71109E-04-2.01283E-15
 -1      4008 1.07906E-02-1.71080E-03-4.10598E-15
 -1      4009 1.09370E-02-1.77711E-03-4.35912E-15
 -1      4010 1.10620E-02-1.85439E-03-4.56463E-15
 -1      4011 1.13210E-02-2.01639E-03-4.99092E-15
 -1      4012 1.13102E-02-2.02792E-03-4.95246E-15
 -1      4013 1.11923E-02-1.93552E-03-4.77938E-15
 -1      4014 1.99445E-03-1.50807E-04-1.19804E-17
 -1      4015 2.12137E-03-1.51152E-04-1.23057E-17
 -1      4016 2.19017E-03-1.18141E-04 2.45707E-17
 -1      4017 5.21429E-03-2.68909E-05 1.38534E-16
 -1      4018 4.90805E-03-1.62915E-04-1.20889E-16
 -1      4019 9.74106E-03-1.20495E-03-2.59440E-15
 -1      4020 9.91820E-03-1.28835E-03-2.81529E-15
 -1      4021 9.61831E-03-1.14931E-03-2.43454E-15
 -1      4022 2.28492E-03 2.28338E-04 4.53671E-16
 -1      4023 2.14065E-03 2.25303E-04 4.18434E-16
 -1      4024 2.09101E-03 1.88082E-04 3.65972E-16
 -1      4025 1.36754E-02-3.50599E-03-9.04394E-15
 -1      4026 1.38178E-02-3.59533E-03-9.30401E-15
 -1      4027 1.39514E-02-3.67924E-03-9.54960E-15
 -1      4028 1.78468E-03 1.25987E-04 2.47361E-16
 -1      4029 4.72626E-03 1.19726E-04 5.14237E-16
 -1      4030 4.57376E-03 1.22981E-04 5.29511E-16
 -1      4031 4.79126E-03 7.10104E-05 4.02659E-16
 -1      4032 1.38033E-02-3.59804E-03-9.25802E-15
 -1      4033 8.43302E-03-4.71866E-04-1.06143E-15
 -1      4034 8.25891E-03-3.63153E-04-9.21016E-16
 -1      4035 8.74461E-03-6.61455E-04-1.34955E-15
 -1      4036 1.28640E-02-3.10801E-03-7.41505E-15
 -1      4037 1.27343E-02-3.02723E-03-7.19149E-15
 -1      4038 1.27405E-02-3.01943E-03-7.22504E-15
 -1      4039 1.30141E-02-3.18168E-03-7.71711E-15
 -1      4040 8.57152E-03-5.57982E-04-1.20066E-15
 -1      4041 1.76070E-03-8.86179E-05 4.19315E-17
 -1      4042 1.78454E-03-1.44102E-04-7.81981E-18
 -1      4043 1.91131E-03-1.45464E-04-7.08797E-18
 -1      4044 1.88382E-03-7.25200E-05 6.33039E-17
 -1      4045 3.47917E-03 1.89628E-04 6.08292E-16
 -1      4046 2.55986E-03 2.32234E-04 5.17856E-16
 -1      4047 2.41557E-03 2.30850E-04 4.84828E-16
 -1      4048 2.36592E-03 1.93214E-04 4.26024E-16
 -1      4049 2.62721E-03 1.96073E-04 4.79678E-16
 -1      4050 4.35708E-03 1.71656E-04 6.39815E-16
 -1      4051 1.37146E-02-3.55251E-03-9.07939E-15
 -1      4052 3.83536E-03 1.43301E-04 5.51466E-16
 -1      4053 3.69047E-03 1.46884E-04 5.47021E-16
 -1      4054 1.35513E-02-3.45357E-03-8.78087E-15
 -1      4055 1.35961E-02-3.49181E-03-8.84420E-15
 -1      4056 3.25771E-03 1.55353E-04 5.14346E-16
 -1      4057 3.11369E-03 1.57310E-04 4.98652E-16
 -1      4058 9.27370E-03-9.68142E-04-1.93931E-15
 -1      4059 1.05298E-02-1.55797E-03-3.69325E-15
 -1      4060 2.96967E-03 1.58785E-04 4.79881E-16
 -1      4061 2.82558E-03 1.59766E-04 4.59322E-16
 -1      4062 3.03758E-03 1.21209E-04 4.26200E-16
 -1      4063 4.12714E-03 1.35304E-04 5.53038E-16
 -1      4064 3.98084E-03 1.39393E-04 5.54149E-16
 -1      4065 3.90108E-03 1.02092E-04 4.68795E-16
 -1      4066 1.34839E-02-3.43806E-03-8.61479E-15
 -1      4067 1.35275E-02-3.42496E-03-8.75894E-15
 -1      4068 2.66992E-03-8.63654E-05 7.07171E-17
 -1      4069 2.80556E-03-8.77532E-05 6.82912E-17
 -1      4070 2.94789E-03-8.93912E-05 6.33039E-17
 -1      4071 3.08965E-03-9.12663E-05 5.74356E-17
 -1      4072 2.87973E-03-5.34347E-05 1.22867E-16
 -1      4073 3.23082E-03-9.35743E-05 4.91821E-17
 -1      4074 3.37126E-03-9.63648E-05 3.80419E-17
 -1      4075 3.16390E-03-5.75143E-05 1.16769E-16
 -1      4076 3.51096E-03-9.98557E-05 2.56956E-17
 -1      4077 3.64982E-03-1.04163E-04 1.10047E-17
 -1      4078 3.44589E-03-6.36593E-05 1.02633E-16
 -1      4079 3.78788E-03-1.09531E-04-6.39679E-18
 -1      4080 3.92505E-03-1.16068E-04-2.56143E-17
 -1      4081 3.72537E-03-7.28861E-05 7.95804E-17
 -1      4082 4.06149E-03-1.24143E-04-4.74881E-17
 -1      4083 4.19696E-03-1.33774E-04-7.19504E-17
 -1      4084 4.00263E-03-8.62930E-05 4.63767E-17
 -1      4085 4.33196E-03-1.45217E-04-9.92316E-17
 -1      4086 4.46631E-03-1.58704E-04-1.29156E-16
 -1      4087 4.27832E-03-1.05382E-04 3.33392E-18
 -1      4088 2.38327E-03-8.34970E-05 7.05545E-17
 -1      4089 2.52673E-03-8.49312E-05 7.18013E-17
 -1      4090 2.59376E-03-5.04787E-05 1.21132E-16
 -1      4091 4.99473E-03-1.57949E-05 1.95211E-16
 -1      4092 1.17062E-02-2.29189E-03-5.59599E-15
 -1      4093 1.18445E-02-2.37870E-03-5.82848E-15
 -1      4094 1.19835E-02-2.46603E-03-6.06493E-15
 -1      4095 1.21229E-02-2.55383E-03-6.30474E-15
 -1      4096 1.18366E-02-2.38843E-03-5.79471E-15
 -1      4097 1.22629E-02-2.64196E-03-6.54559E-15
 -1      4098 1.24033E-02-2.73039E-03-6.78475E-15
 -1      4099 1.21159E-02-2.56336E-03-6.27094E-15
 -1      4100 1.25370E-02-2.81458E-03-7.01526E-15
 -1      4101 1.26710E-02-2.89893E-03-7.24502E-15
 -1      4102 1.23898E-02-2.73521E-03-6.74119E-15
 -1      4103 1.28123E-02-2.98783E-03-7.48780E-15
 -1      4104 1.29538E-02-3.07682E-03-7.73226E-15
 -1      4105 1.26648E-02-2.90787E-03-7.21539E-15
 -1      4106 1.30956E-02-3.16586E-03-7.97969E-15
 -1      4107 1.32375E-02-3.25496E-03-8.22693E-15
 -1      4108 1.29479E-02-3.08546E-03-7.70210E-15
 -1      4109 9.36501E-03-1.01935E-03-2.08220E-15
 -1      4110 9.51598E-03-1.09944E-03-2.29306E-15
 -1      4111 9.69925E-03-1.19240E-03-2.51208E-15
 -1      4112 9.50941E-03-1.09659E-03-2.22535E-15
 -1      4113 4.74736E-03-1.60664E-04-1.18801E-16
 -1      4114 4.85956E-03-1.05464E-04 1.06929E-17
 -1      4115 1.14316E-02-2.12051E-03-5.13507E-15
 -1      4116 1.15685E-02-2.20581E-03-5.36546E-15
 -1      4117 1.15592E-02-2.21561E-03-5.32700E-15
 -1      4118 1.01558E-02-1.39643E-03-3.13524E-15
 -1      4119 1.03343E-02-1.47259E-03-3.39243E-15
 -1      4120 4.42330E-03 1.26900E-04 5.41518E-16
 -1      4121 4.27453E-03 1.31022E-04 5.48796E-16
 -1      4122 4.19213E-03 9.20253E-05 4.60556E-16
 -1      4123 1.03424E-02-1.55387E-03-3.29905E-15
 -1      4124 1.01971E-02-1.47163E-03-3.09429E-15
 -1      4125 9.82026E-03-1.26397E-03-2.59474E-15
 -1      4126 9.66657E-03-1.18082E-03-2.40780E-15
 -1      4127 9.75747E-03-1.22651E-03-2.55277E-15
 -1      4128 1.06293E-02-1.71966E-03-3.72461E-15
 -1      4129 1.04863E-02-1.63649E-03-3.50949E-15
 -1      4130 1.05007E-02-1.63369E-03-3.55979E-15
 -1      4131 1.09133E-02-1.88768E-03-4.16408E-15
 -1      4132 1.07715E-02-1.80335E-03-3.94221E-15
 -1      4133 1.07839E-02-1.79830E-03-3.98825E-15
 -1      4134 1.11959E-02-2.05788E-03-4.61958E-15
 -1      4135 1.10546E-02-1.97250E-03-4.39037E-15
 -1      4136 1.10654E-02-1.96597E-03-4.43412E-15
 -1      4137 1.14781E-02-2.23001E-03-5.08584E-15
 -1      4138 1.13370E-02-2.14372E-03-4.85061E-15
 -1      4139 1.13464E-02-2.13630E-03-4.89223E-15
 -1      4140 1.17604E-02-2.40368E-03-5.56017E-15
 -1      4141 1.16192E-02-2.31668E-03-5.32177E-15
 -1      4142 1.16276E-02-2.30878E-03-5.36081E-15
 -1      4143 1.20431E-02-2.57851E-03-6.04416E-15
 -1      4144 1.19017E-02-2.49096E-03-5.80231E-15
 -1      4145 1.19093E-02-2.48283E-03-5.83867E-15
 -1      4146 1.23264E-02-2.75420E-03-6.52913E-15
 -1      4147 1.21847E-02-2.66626E-03-6.28681E-15
 -1      4148 1.21917E-02-2.65809E-03-6.32280E-15
 -1      4149 1.26101E-02-2.93052E-03-7.01575E-15
 -1      4150 1.24682E-02-2.84229E-03-6.77204E-15
 -1      4151 1.24748E-02-2.83417E-03-6.80864E-15
 -1      4152 4.60124E-03-1.56740E-04-1.17216E-16
 -1      4153 1.99872E-03 1.48592E-04 3.05542E-16
 -1      4154 1.83779E-03 9.15233E-05 2.21801E-16
 -1      4155 1.96107E-03 7.44002E-05 2.20852E-16
 -1      4156 2.14286E-03 1.51220E-04 3.33636E-16
 -1      4157 1.34091E-02-3.36445E-03-8.52575E-15
 -1      4158 1.32920E-02-3.32801E-03-8.25491E-15
 -1      4159 1.32361E-02-3.28209E-03-8.17499E-15
 -1      4160 1.30952E-02-3.21723E-03-7.88493E-15
 -1      4161 1.04743E-02-1.55054E-03-3.60190E-15
 -1      4162 3.54600E-03 1.50123E-04 5.38781E-16
 -1      4163 3.40178E-03 1.52950E-04 5.27207E-16
 -1      4164 3.32503E-03 1.16811E-04 4.50540E-16
 -1      4165 3.61256E-03 1.10440E-04 4.65177E-16
 -1      4166 1.32612E-02-3.28368E-03-8.24595E-15
 -1      4167 9.97089E-03-1.34638E-03-2.78690E-15
 -1      4168 1.99580E-03 1.92085E-05 1.65978E-16
 -1      4169 1.99560E-03-1.86366E-05 1.25564E-16
 -1      4170 4.48787E-03 8.11129E-05 4.39115E-16
 -1      4171 1.06407E-02-1.64401E-03-3.85686E-15
 -1      4172 1.07687E-02-1.71828E-03-4.05791E-15
 -1      4173 1.10476E-02-1.86575E-03-4.52146E-15
 -1      4174 2.21752E-03-5.82426E-05 9.55318E-17
 -1      4175 2.28512E-03-2.42748E-05 1.40445E-16
 -1      4176 1.98010E-03-1.13717E-04 2.54245E-17
 -1      4177 4.55389E-03-1.12566E-04-7.35902E-18
 -1      4178 3.39233E-03 7.82618E-05 3.83157E-16
 -1      4179 3.24910E-03 8.11934E-05 3.77384E-16
 -1      4180 4.88058E-03-6.61261E-05 9.67786E-17
 -1      4181 4.83930E-03 1.48485E-05 2.75794E-16
 -1      4182 1.01359E-02-1.42957E-03-3.03952E-15
 -1      4183 1.12989E-02-2.03836E-03-4.91598E-15
 -1      4184 1.12876E-02-2.04791E-03-4.87839E-15
 -1      4185 1.11671E-02-1.95732E-03-4.69949E-15
 -1      4186 2.76343E-03 1.22999E-04 3.93145E-16
 -1      4187 2.69509E-03 1.59638E-04 4.38126E-16
 -1      4188 2.56453E-03 1.59065E-04 4.15642E-16
 -1      4189 4.68681E-03 2.16652E-05 3.00148E-16
 -1      4190 1.00423E-02-1.35290E-03-2.97275E-15
 -1      4191 3.10577E-03 8.35859E-05 3.68751E-16
 -1      4192 2.96227E-03 8.54765E-05 3.57461E-16
 -1      4193 3.17414E-03 4.59951E-05 3.07344E-16
 -1      4194 1.28217E-02-3.05486E-03-7.39353E-15
 -1      4195 1.28280E-02-3.04678E-03-7.42649E-15
 -1      4196 1.30646E-02-3.17296E-03-7.87838E-15
 -1      4197 1.04455E-02-1.55333E-03-3.54975E-15
 -1      4198 3.96598E-03 6.07006E-05 3.82493E-16
 -1      4199 3.82216E-03 6.59978E-05 3.87277E-16
 -1      4200 4.71405E-03-7.08540E-05 9.19403E-17
 -1      4201 3.67877E-03 7.07118E-05 3.88415E-16
 -1      4202 3.53551E-03 7.47795E-05 3.87020E-16
 -1      4203 3.74447E-03 3.10259E-05 3.08225E-16
 -1      4204 2.09037E-03-5.94874E-05 8.75900E-17
 -1      4205 1.96675E-03-7.69197E-05 6.28024E-17
 -1      4206 1.09003E-02-1.79601E-03-4.26772E-15
 -1      4207 1.10336E-02-1.87614E-03-4.48212E-15
 -1      4208 1.10191E-02-1.88491E-03-4.44123E-15
 -1      4209 1.07503E-02-1.72584E-03-4.01357E-15
 -1      4210 3.02574E-03-3.84220E-06 2.10186E-16
 -1      4211 3.16814E-03-6.16928E-06 2.11934E-16
 -1      4212 3.37753E-03-2.67546E-05 1.77213E-16
 -1      4213 3.51864E-03-3.06010E-05 1.71141E-16
 -1      4214 3.73415E-03-2.18693E-05 1.93164E-16
 -1      4215 3.87492E-03-2.78363E-05 1.82268E-16
 -1      4216 4.01548E-03-3.48495E-05 1.68688E-16
 -1      4217 4.21967E-03-6.41249E-05 1.03297E-16
 -1      4218 4.35992E-03-7.44594E-05 8.17759E-17
 -1      4219 1.16890E-02-2.31094E-03-5.52440E-15
 -1      4220 1.18285E-02-2.39769E-03-5.76160E-15
 -1      4221 9.91625E-03-1.30044E-03-2.79166E-15
 -1      4222 1.01528E-02-1.41424E-03-3.11693E-15
 -1      4223 1.18726E-02-2.43614E-03-5.81693E-15
 -1      4224 1.20130E-02-2.52351E-03-6.05770E-15
 -1      4225 1.21536E-02-2.61119E-03-6.29858E-15
 -1      4226 1.22875E-02-2.69474E-03-6.52794E-15
 -1      4227 1.24286E-02-2.78289E-03-6.77000E-15
 -1      4228 1.25700E-02-2.87123E-03-7.01200E-15
 -1      4229 1.06576E-02-1.71149E-03-3.81993E-15
 -1      4230 1.05170E-02-1.63086E-03-3.61001E-15
 -1      4231 2.88291E-03-1.97794E-06 2.07205E-16
 -1      4232 1.13141E-02-2.09154E-03-4.88356E-15
 -1      4233 1.14533E-02-2.17679E-03-5.11180E-15
 -1      4234 4.32105E-03 2.65917E-05 3.16587E-16
 -1      4235 4.17600E-03 3.36446E-05 3.28852E-16
 -1      4236 1.10399E-02-1.92554E-03-4.43567E-15
 -1      4237 1.09012E-02-1.84297E-03-4.21618E-15
 -1      4238 4.46390E-03-7.65385E-05 7.91332E-17
 -1      4239 4.60607E-03-6.91374E-05 9.77002E-17
 -1      4240 4.62156E-03-3.30193E-05 1.80709E-16
 -1      4241 4.40691E-03-3.18083E-05 1.83976E-16
 -1      4242 1.29584E-02-3.13600E-03-7.63856E-15
 -1      4243 1.11751E-02-2.00707E-03-4.65369E-15
 -1      4244 1.27116E-02-2.95970E-03-7.25368E-15
 -1      4245 1.28533E-02-3.04829E-03-7.49959E-15
 -1      4246 2.25992E-03 1.84319E-05 1.90765E-16
 -1      4247 2.42460E-03-6.02169E-06 1.73283E-16
 -1      4248 4.57636E-03 2.01102E-05 3.01205E-16
 -1      4249 2.56828E-03-6.92972E-06 1.81468E-16
 -1      4250 4.09479E-03-1.50163E-06 2.47388E-16
 -1      4251 1.03310E-02-1.50961E-03-3.36601E-15
 -1      4252 2.43393E-03 1.57988E-04 3.91980E-16
 -1      4253 2.30331E-03 1.56394E-04 3.67653E-16
 -1      4254 2.50253E-03 1.22414E-04 3.54792E-16
 -1      4255 2.08473E-03 5.62347E-05 2.16353E-16
 -1      4256 4.42840E-03 2.76425E-05 3.20395E-16
 -1      4257 1.06441E-02-1.67777E-03-3.83631E-15
 -1      4258 1.07798E-02-1.75624E-03-4.04754E-15
 -1      4259 1.14437E-02-2.18501E-03-5.07384E-15
 -1      4260 3.45951E-03 3.97964E-05 3.12277E-16
 -1      4261 9.85152E-03-1.27114E-03-2.69652E-15
 -1      4262 1.17242E-02-2.35774E-03-5.54325E-15
 -1      4263 1.15838E-02-2.27114E-03-5.30770E-15
 -1      4264 2.22536E-03 7.57812E-05 2.56671E-16
 -1      4265 3.59311E-03-1.68079E-05 2.00781E-16
 -1      4266 1.04835E-02-1.59194E-03-3.58994E-15
 -1      4267 1.05122E-02-1.61937E-03-3.61815E-15
 -1      4268 1.03523E-02-1.54200E-03-3.36138E-15
 -1      4269 1.01315E-02-1.42106E-03-3.05305E-15
 -1      4270 3.52637E-03 2.13948E-05 2.78396E-16
 -1      4271 3.38415E-03 2.52046E-05 2.80063E-16
 -1      4272 2.71357E-03-3.67523E-06 1.95116E-16
 -1      4273 2.86150E-03 4.68278E-05 2.85037E-16
 -1      4274 2.79217E-03 8.35382E-05 3.35791E-16
 -1      4275 2.66197E-03 8.37990E-05 3.21236E-16
 -1      4276 9.97064E-03-1.33602E-03-2.83726E-15
 -1      4277 1.09158E-02-1.83635E-03-4.26147E-15
 -1      4278 1.01917E-02-1.44780E-03-3.15003E-15
 -1      4279 3.31018E-03-9.03865E-06 2.10593E-16
 -1      4280 2.54593E-03 4.11491E-05 2.47713E-16
 -1      4281 2.51592E-03 7.97702E-05 2.98061E-16
 -1      4282 2.21167E-03 1.17210E-04 3.04525E-16
 -1      4283 2.38551E-03 7.93098E-05 2.81337E-16
 -3
    1PSTEP                         2           1           1          
  100CL  101 1.000000000        4283                     0    1           1
 -4  STRESS      6    1
 -5  SXX         1    4    1    1
 -5  SYY         1    4    2    2
 -5  SZZ         1    4    3    3
 -5  SXY         1    4    1    2
 -5  SYZ         1    4    2    3
 -5  SZX         1    4    3    1
 -1         1 6.95458E+01 4.85788E+00 4.73227E+00 1.62550E+01-1.38958E-13-4.86944E-13
 -1         2-7.52387E-01-2.70407E+01-3.48765E+00-9.03587E-03 1.17499E-12 1.87007E-13
 -1         3 1.99999E+01 9.80833E-05 5.35789E-04 8.75039E-05-5.73507E-13-5.12749E-13
 -1         4 1.99999E+01 1.58463E-04 5.03774E-04-2.42000E-04-5.60967E-13 4.73535E-13
 -1         5 3.27068E+01 6.13126E+00 2.73378E+00 6.21319E+00-1.50782E-14 5.77358E-13
 -1         6 3.58689E+01 1.23222E+01 5.20505E+00-8.74039E+00-3.48055E-14-4.61464E-13
 -1         7 2.07028E+01 6.09980E+00-1.44904E-01-4.68644E+00-6.10623E-15-4.51621E-13
 -1         8 1.96691E+01 5.93532E+00 5.15161E-02-3.26105E+00 2.74780E-15-3.55082E-13
 -1         9 1.91436E+01 5.77389E+00 4.96302E-02-2.51324E+00 1.07900E-14-2.60084E-13
 -1        10 1.89070E+01 5.69540E+00 5.15800E-02-1.93692E+00 1.16920E-14-1.89940E-13
 -1        11 1.87861E+01 5.65482E+00 5.04169E-02-1.44218E+00 1.07006E-14-1.26404E-13
 -1        12 1.87218E+01 5.63289E+00 4.84806E-02-1.00352E+00 8.95247E-15-6.53520E-14
 -1        13 1.86868E+01 5.62101E+00 4.68721E-02-5.87580E-01 1.14304E-14-7.23618E-15
 -1        14 1.86714E+01 5.61579E+00 4.60126E-02-1.88381E-01 1.22897E-14 4.82190E-14
 -1        15 1.86711E+01 5.61574E+00 4.60394E-02 2.05662E-01 1.26920E-14 1.01689E-13
 -1        16 1.86863E+01 5.62091E+00 4.69647E-02 6.05578E-01 1.39927E-14 1.48969E-13
 -1        17 1.87215E+01 5.63275E+00 4.86851E-02 1.02323E+00 9.60365E-15 2.18069E-13
 -1        18 1.87865E+01 5.65482E+00 5.06855E-02 1.46461E+00 1.10628E-14 3.01320E-13
 -1        19 1.89089E+01 5.69600E+00 5.18500E-02 1.96458E+00 1.38813E-14 3.96104E-13
 -1        20 1.91477E+01 5.77572E+00 4.96597E-02 2.54904E+00 1.03823E-14 4.93575E-13
 -1        21 1.96639E+01 5.94827E+00 4.66264E-02 3.29580E+00 7.24421E-15 6.20295E-13
 -1        22 2.11837E+01 6.37571E+00 1.39972E-01 4.51176E+00-1.69309E-15 7.01815E-13
 -1        23 2.32275E+01-1.30419E+00-9.17348E-01-8.31073E-01-2.24473E-14-5.49144E-13
 -1        24 1.94034E+01-1.08854E-01-3.29634E-01 6.49017E-02-2.26642E-15-5.90937E-13
 -1        25 1.86824E+01-5.86011E-02-7.50290E-02 6.19031E-02-8.49017E-15-6.35998E-13
 -1        26 1.84767E+01-2.33123E-02-8.11888E-03 3.33732E-02 1.48714E-14-6.48013E-13
 -1        27 1.84973E+01-1.28816E-02 8.83395E-04 2.25876E-02 4.34657E-16-6.27377E-13
 -1        28 1.86317E+01-7.21682E-03 1.02313E-03 1.64720E-02-1.87545E-14-6.37145E-13
 -1        29 1.88166E+01-4.69234E-03 5.59235E-04 1.19324E-02-8.65925E-16-6.45812E-13
 -1        30 1.90437E+01-3.36122E-03 1.05720E-04 9.04227E-03-1.94453E-14-6.44043E-13
 -1        31 1.92958E+01-3.10365E-03-6.56871E-04 6.87398E-03 1.45930E-14-6.70451E-13
 -1        32 1.95753E+01-3.75428E-03-2.07956E-03 5.43497E-03-1.32373E-14-6.50620E-13
 -1        33 1.98968E+01-5.32545E-03-4.49154E-03 4.77891E-03 6.39118E-15-6.39809E-13
 -1        34 2.02886E+01-8.08874E-03-8.44218E-03 5.15921E-03 2.93964E-14-5.13718E-13
 -1        35 2.07969E+01-1.12172E-02-1.45661E-02 8.36012E-03-2.45750E-14-4.79504E-13
 -1        36 2.14533E+01-1.74461E-02-2.42222E-02 1.21403E-02-1.65577E-14-5.40503E-13
 -1        37 2.24259E+01-2.41340E-02-3.93207E-02 2.31266E-02 3.67462E-14-4.93964E-13
 -1        38 2.38351E+01-3.16431E-02-6.05944E-02 4.37018E-02-4.42745E-15-5.14210E-13
 -1        39 2.58682E+01-3.61173E-02-8.29466E-02 8.03118E-02 1.99517E-14-3.95350E-13
 -1        40 2.87021E+01-2.86895E-02-8.32286E-02 1.37691E-01 3.12515E-14-1.65930E-13
 -1        41 3.23221E+01 5.59041E-03-5.15556E-03 2.04389E-01 8.87962E-16-6.59681E-14
 -1        42 3.60566E+01 6.62750E-02 2.20721E-01 1.97231E-01 4.45334E-14-1.33678E-13
 -1        43 3.79365E+01 1.50111E-01 5.31484E-01-1.70715E-02 3.13690E-14 4.01970E-14
 -1        44 3.50079E+01 1.07718E-01 4.68233E-01-6.94933E-01-6.85858E-14-3.41116E-14
 -1        45 2.67915E+01-3.30968E-02-4.16289E-01-1.20567E+00-1.81959E-14-3.04895E-13
 -1        46 1.80726E+01-1.08811E-01-1.61047E+00-7.05893E-01 1.08663E-14-4.71484E-13
 -1        47 1.63974E+01-2.36697E-01-1.91809E+00 3.77854E-01-3.87260E-14-7.74950E-13
 -1        48 2.39159E+01-1.69115E-01-7.86054E-01 1.11277E+00 8.43076E-15-1.37051E-12
 -1        49 3.29058E+01 7.64766E-02 3.11740E-01 7.08960E-01 1.18846E-14-1.90484E-12
 -1        50 3.78136E+01 1.18077E-01 6.08993E-01 1.71037E-01 1.18083E-14-1.92986E-12
 -1        51 3.70589E+01 7.24787E-02 3.26279E-01-1.29402E-01 4.06415E-14-1.30998E-12
 -1        52 3.35451E+01 1.61341E-02 4.43204E-02-1.70197E-01-6.45426E-14-1.21662E-12
 -1        53 2.99316E+01-1.99880E-02-7.35256E-02-1.27280E-01-4.74119E-14-1.25253E-12
 -1        54 2.68289E+01-2.83055E-02-9.08240E-02-7.83581E-02 5.03623E-14-7.89709E-13
 -1        55 2.45760E+01-2.66991E-02-7.14636E-02-4.38553E-02 3.84979E-15-5.72559E-13
 -1        56 2.30290E+01-2.11995E-02-4.83371E-02-2.34159E-02-1.23026E-14-9.49213E-13
 -1        57 2.19931E+01-1.55588E-02-3.08711E-02-1.21039E-02-1.45036E-14-7.86790E-13
 -1        58 2.13067E+01-1.09974E-02-1.93663E-02-6.05330E-03 2.12673E-14-6.37487E-13
 -1        59 2.08538E+01-7.38014E-03-1.19792E-02-2.48562E-03-1.19028E-13-2.96882E-13
 -1        60 2.05651E+01-5.47098E-03-7.97697E-03-1.43918E-03 5.12527E-14-2.46305E-13
 -1        61 2.03617E+01-3.63281E-03-5.04407E-03-4.53770E-04-3.62568E-14-1.73876E-13
 -1        62 2.02269E+01-2.49812E-03-3.26045E-03-2.46617E-05-1.41978E-14-5.74021E-13
 -1        63 2.01377E+01-1.72209E-03-2.13476E-03 1.73890E-04-1.26016E-13-6.62802E-13
 -1        64 2.00791E+01-1.19261E-03-1.41229E-03 2.56831E-04 8.50323E-14 5.35134E-14
 -1        65 2.00412E+01-8.32205E-04-9.41960E-04 2.82274E-04-2.26276E-14 2.64268E-13
 -1        66 2.00175E+01-5.61523E-04-6.24825E-04 3.09846E-04-6.23320E-14 1.00278E-12
 -1        67 2.00038E+01-4.19079E-04-4.41842E-04 2.54522E-04 2.82313E-15 7.03102E-13
 -1        68 1.99961E+01-2.85652E-04-3.03964E-04 2.51327E-04-5.89007E-14 2.32910E-13
 -1        69 1.99930E+01-1.95045E-04-2.16506E-04 2.43831E-04 3.32196E-14 3.60004E-13
 -1        70 1.99931E+01-1.21754E-04-1.41740E-04 2.51906E-04-1.02508E-13 1.91096E-13
 -1        71 1.99955E+01-3.98413E-05-6.06018E-06 2.83432E-04 1.47054E-14 5.19318E-14
 -1        72 1.99985E+01-7.32537E-06 2.41295E-04 2.62113E-04 1.56184E-13 8.76864E-13
 -1        73 2.10103E+01-4.04541E-01-9.79921E-01-3.11452E-01-1.08247E-14 7.32747E-13
 -1        74 1.93131E+01-6.66071E-02-2.90442E-01-5.38132E-02-1.58038E-14 8.90666E-13
 -1        75 1.86819E+01-2.13844E-02-6.37428E-02-2.08658E-02-7.21688E-15 1.00701E-12
 -1        76 1.84943E+01-1.07160E-02-9.37588E-03-1.58389E-02-3.55727E-16 1.05698E-12
 -1        77 1.85241E+01-5.69026E-03 9.43522E-05-1.24947E-02-9.57351E-17 1.09906E-12
 -1        78 1.86623E+01-2.97840E-03 1.03033E-03-1.00477E-02-9.30853E-15 1.14142E-12
 -1        79 1.88542E+01-1.44011E-03 1.10543E-03-8.34617E-03 2.52294E-15 1.26855E-12
 -1        80 1.90699E+01-4.96824E-04 1.23606E-03-7.13678E-03 6.78570E-15 1.25716E-12
 -1        81 1.92922E+01 1.56834E-04 1.41450E-03-6.31316E-03-1.99013E-14 1.28290E-12
 -1        82 1.95102E+01 7.13716E-04 1.67669E-03-5.84378E-03 6.92724E-15 1.29294E-12
 -1        83 1.97149E+01 1.31286E-03 2.16313E-03-5.70267E-03 1.52033E-14 1.31144E-12
 -1        84 1.98968E+01 2.05412E-03 3.06112E-03-5.82071E-03 6.73607E-15 1.02156E-12
 -1        85 2.00423E+01 2.98875E-03 4.54861E-03-6.04017E-03 2.40306E-14 8.64526E-13
 -1        86 2.01325E+01 4.09219E-03 6.72410E-03-6.06983E-03-1.15307E-14 8.70368E-13
 -1        87 2.01415E+01 5.22608E-03 9.50099E-03-5.45705E-03 3.29632E-14 8.31376E-13
 -1        88 2.00385E+01 6.10616E-03 1.24728E-02-3.61379E-03 2.10140E-15 6.86513E-13
 -1        89 1.97917E+01 6.30756E-03 1.48023E-02 5.21808E-05-2.48443E-14 8.36687E-13
 -1        90 1.93783E+01 5.34744E-03 1.52415E-02 5.86260E-03-1.03663E-14 8.17660E-13
 -1        91 1.87968E+01 2.87171E-03 1.24153E-02 1.34809E-02-4.24569E-14 8.63090E-13
 -1        92 1.80813E+01-1.08229E-03 5.43847E-03 2.15718E-02-3.48990E-14 8.43534E-13
 -1        93 1.73098E+01-5.87037E-03-5.27745E-03 2.78101E-02 1.24280E-14 9.21298E-13
 -1        94 1.65987E+01-1.02792E-02-1.75138E-02 2.95419E-02-8.75168E-16 8.55226E-13
 -1        95 1.60797E+01-1.29334E-02-2.76436E-02 2.50389E-02-1.74121E-14 6.68486E-13
 -1        96 1.58617E+01-1.29184E-02-3.21056E-02 1.46686E-02-1.29951E-14 7.28011E-13
 -1        97 1.59936E+01-1.02406E-02-2.92088E-02 1.07790E-03-4.09280E-14 8.69027E-13
 -1        98 1.64472E+01-5.81446E-03-2.00605E-02-1.19102E-02 5.31796E-14 8.10022E-13
 -1        99 1.71272E+01-1.00194E-03-7.94497E-03-2.10206E-02-4.95933E-14 4.78551E-13
 -1       100 1.79053E+01 2.98793E-03 3.36418E-03-2.47852E-02 1.94808E-15 5.38125E-13
 -1       101 1.86596E+01 5.48879E-03 1.12226E-02-2.36982E-02-9.07016E-16 3.87828E-13
 -1       102 1.93023E+01 6.42899E-03 1.48091E-02-1.94573E-02-1.55869E-14 4.82879E-13
 -1       103 1.97900E+01 6.14290E-03 1.47760E-02-1.39757E-02 3.21189E-14 6.31990E-13
 -1       104 2.01177E+01 5.12020E-03 1.24725E-02-8.71748E-03-1.12125E-14 2.60286E-13
 -1       105 2.03061E+01 3.81171E-03 9.23966E-03-4.48386E-03-2.42367E-14 2.25592E-13
 -1       106 2.03878E+01 2.53649E-03 6.04194E-03-1.51218E-03 8.20227E-14 5.66865E-14
 -1       107 2.03966E+01 1.46930E-03 3.39629E-03 3.09523E-04-8.92270E-14-2.70338E-13
 -1       108 2.03615E+01 6.71417E-04 1.46953E-03 1.24486E-03 1.85971E-14-3.41224E-14
 -1       109 2.03050E+01 1.32699E-04 2.18109E-04 1.57882E-03 4.90349E-14-3.01908E-13
 -1       110 2.02421E+01-1.91978E-04-4.95417E-04 1.55261E-03-7.61634E-14-3.50864E-13
 -1       111 2.01821E+01-3.57824E-04-8.27401E-04 1.34296E-03-3.28070E-14-4.73742E-14
 -1       112 2.01300E+01-4.16192E-04-9.15093E-04 1.06548E-03 1.36217E-14-2.16556E-13
 -1       113 2.00876E+01-4.08572E-04-8.63279E-04 7.87739E-04-1.64029E-13-3.41198E-14
 -1       114 2.00550E+01-3.65379E-04-7.44489E-04 5.43700E-04 4.61700E-14 5.07563E-13
 -1       115 2.00312E+01-3.07113E-04-6.04911E-04 3.45885E-04-1.08897E-13 2.21859E-13
 -1       116 2.00148E+01-2.46376E-04-4.71673E-04 1.94204E-04 4.55004E-14-1.12603E-13
 -1       117 2.00044E+01-1.89713E-04-3.59179E-04 8.13107E-05 8.25461E-14-6.32855E-13
 -1       118 1.99987E+01-1.38560E-04-2.71889E-04-5.26954E-06-9.76608E-15-1.42547E-12
 -1       119 1.99965E+01-8.85041E-05-1.99667E-04-8.19262E-05-3.94974E-14-1.12459E-12
 -1       120 1.99970E+01-2.22797E-05-8.26920E-05-1.81142E-04 3.78625E-14-1.31599E-12
 -1       121 1.99988E+01 5.68438E-05 1.69556E-04-2.88597E-04 2.15194E-13-1.36814E-12
 -1       122 1.99998E+01-1.04232E-03 1.28225E-04-3.41594E-04-1.36014E-12 1.61769E-13
 -1       123 1.99997E+01-2.72428E-03-1.28175E-04-2.06079E-04-1.37785E-12 7.65900E-14
 -1       124 1.99997E+01-2.76969E-03-1.79684E-04-5.96535E-05-7.17167E-13 6.78324E-14
 -1       125 1.99998E+01-1.08524E-03-1.18131E-04 3.26233E-05-4.65557E-13 1.23481E-14
 -1       126 1.99998E+01 1.68852E-03-2.91275E-05 7.87108E-05-1.97540E-13-1.46892E-13
 -1       127 1.99998E+01 4.60215E-03 5.45827E-05 8.02721E-05-6.31230E-13 6.07605E-15
 -1       128 1.99999E+01 6.87524E-03 1.16986E-04 4.70342E-05-7.35551E-13-5.75395E-15
 -1       129 1.99999E+01 7.78804E-03 1.45579E-04-6.89810E-06-9.26545E-13 3.42074E-14
 -1       130 1.99999E+01 7.02792E-03 1.34134E-04-6.46927E-05-2.79466E-13-1.39775E-13
 -1       131 1.99999E+01 4.71239E-03 8.26095E-05-1.08003E-04 5.61431E-13 8.86022E-14
 -1       132 1.99998E+01 1.38845E-03-1.40707E-06-1.18834E-04 1.93255E-13-1.50963E-13
 -1       133 1.99998E+01-2.01212E-03-1.00375E-04-8.45577E-05-4.08183E-13 7.94908E-14
 -1       134 1.99997E+01-4.58565E-03-1.89355E-04 3.42570E-06 5.14050E-13 1.81253E-14
 -1       135 1.99997E+01-5.36881E-03-2.15761E-04 1.38222E-04 8.40893E-13 6.14801E-14
 -1       136 1.99998E+01-4.04699E-03-9.66983E-05 2.93948E-04 1.59940E-12 1.10443E-13
 -1       137 1.99998E+01-1.35104E-03 1.96984E-04 2.40810E-04-1.22491E-13-1.59624E-13
 -1       138-1.34493E+00-1.93505E+01-2.94171E+00-3.62032E+00 1.79218E-12 5.56756E-13
 -1       139-1.03769E+00-6.69160E+00-2.03106E+00-2.08802E+00 1.46611E-12 4.53637E-13
 -1       140 4.57508E+00 5.77298E+00-7.65206E-01 5.36621E+00 7.69773E-13 5.96800E-13
 -1       141 1.88757E+01 1.23567E+01 6.87881E-01 1.50913E+01 4.73233E-13 6.13010E-13
 -1       142 3.83256E+01 1.09331E+01 2.00547E+00 1.98726E+01 2.36811E-13 3.90576E-13
 -1       143 5.80627E+01 5.38545E+00 3.02219E+00 1.63568E+01-2.48135E-14-2.69118E-13
 -1       144 6.92512E+01 1.05293E+00 3.52723E+00 4.54283E+00-6.24431E-14-1.23990E-12
 -1       145 6.66416E+01 2.15253E+00 3.42517E+00-9.46324E+00 1.70884E-13-1.24528E-12
 -1       146 5.15850E+01 7.48308E+00 2.71686E+00-1.86933E+01 2.67203E-13-9.73499E-13
 -1       147 3.07315E+01 1.22646E+01 1.54858E+00-1.90365E+01 3.55049E-13-4.50251E-13
 -1       148 1.25731E+01 1.10434E+01 1.71750E-01-1.17309E+01 2.60403E-13-2.78999E-13
 -1       149 1.86338E+00 2.45583E+00-1.19009E+00-2.47566E+00 2.50133E-13-2.16216E-13
 -1       150-1.47354E+00-1.05979E+01-2.33335E+00 3.23099E+00 6.78346E-14-6.07847E-14
 -1       151-1.10424E+00-2.26478E+01-3.16233E+00 3.04360E+00-1.83631E-13 1.08396E-13
 -1       152-9.03302E-01-2.74527E+01-3.56316E+00-1.55697E+00 1.62141E-13 3.73625E-14
 -1       153-2.28370E+00-2.26806E+01-3.52330E+00-5.83200E+00-6.84175E-14-1.87211E-14
 -1       154-3.00768E+00-1.11717E+01-3.01610E+00-5.05707E+00-5.06151E-13-3.80029E-13
 -1       155 2.75969E+00 1.74756E+00-1.91379E+00 2.73279E+00-9.05609E-13-7.13707E-13
 -1       156 1.83577E+01 9.22917E+00-1.59011E-01 1.31082E+01-8.38607E-13-1.16362E-12
 -1       157 4.36539E+01 9.39904E+00 2.31542E+00 1.95600E+01-5.33351E-13-8.99725E-13
 -1       158 8.32401E+01 1.50469E+00 6.02138E+00 3.14338E+00-8.25728E-16 9.10105E-14
 -1       159 7.69109E+01 3.07754E+00 5.43487E+00-1.17673E+01-1.38018E-13 7.86204E-13
 -1       160 5.53089E+01 7.70170E+00 3.39008E+00-1.94832E+01-6.49952E-13 1.58318E-12
 -1       161 2.83911E+01 1.00541E+01 8.32118E-01-1.66561E+01-1.29213E-12 2.16349E-12
 -1       162 8.64460E+00 6.15393E+00-1.19626E+00-7.55396E+00-1.55598E-12 1.69120E-12
 -1       163-1.16276E+00-4.20561E+00-2.54677E+00 1.74413E+00-1.09934E-12 7.11431E-13
 -1       164-3.09822E+00-1.66068E+01-3.28483E+00 6.26193E+00-7.01772E-13 3.46945E-13
 -1       165-1.61243E+00-2.55177E+01-3.57282E+00 4.83518E+00-7.43017E-14 1.83225E-13
 -1       166 2.10026E+01 3.69735E+00-5.18592E-02-3.60950E+00 2.36148E-14-3.48273E-13
 -1       167 1.99941E+01 4.20835E+00-4.53637E-02-2.79393E+00 6.94713E-14-2.71120E-13
 -1       168 1.95202E+01 4.47866E+00-3.11810E-02-2.17996E+00 1.09073E-13-2.11007E-13
 -1       169 1.92791E+01 4.62097E+00-2.33691E-02-1.65864E+00 1.25613E-13-1.47217E-13
 -1       170 1.91471E+01 4.70596E+00-1.93960E-02-1.20486E+00 1.29343E-13-8.03767E-14
 -1       171 1.90707E+01 4.75949E+00-1.72815E-02-7.81474E-01 1.35659E-13-2.95536E-14
 -1       172 1.90311E+01 4.78885E+00-1.62543E-02-3.81239E-01 1.44477E-13 3.05875E-14
 -1       173 1.90188E+01 4.79777E+00-1.59585E-02 8.25576E-03 1.53610E-13 7.82959E-14
 -1       174 1.90313E+01 4.78725E+00-1.62983E-02 3.98075E-01 1.62336E-13 1.15684E-13
 -1       175 1.90716E+01 4.75601E+00-1.73668E-02 7.99320E-01 1.45704E-13 1.63391E-13
 -1       176 1.91477E+01 4.70116E+00-1.95522E-02 1.21709E+00 1.37875E-13 2.32390E-13
 -1       177 1.92843E+01 4.61111E+00-2.38667E-02 1.68145E+00 1.29807E-13 3.17992E-13
 -1       178 1.95309E+01 4.46182E+00-3.24882E-02 2.20824E+00 1.10264E-13 4.00254E-13
 -1       179 2.00153E+01 4.18274E+00-4.69820E-02 2.83116E+00 4.84821E-14 4.99517E-13
 -1       180 2.11273E+01 3.45968E+00-5.98467E-02 3.52139E+00-1.19696E-14 5.96051E-13
 -1       181 2.23996E+01 1.14170E+00-3.35983E-01 3.00368E+00-6.11421E-14 6.55462E-13
 -1       182 2.20175E+01 9.22248E-01-6.38993E-04-2.02525E+00 1.39298E-14-3.82180E-13
 -1       183 2.04883E+01 2.08789E-01-1.10212E-02-7.92439E-01-9.16107E-15-3.43958E-13
 -1       184 1.97014E+01 1.06539E-01 1.33141E-02-2.90188E-01 6.10102E-15-3.18027E-13
 -1       185 1.93631E+01 5.07965E-02 1.03226E-02-6.05784E-02 9.23307E-15-3.31061E-13
 -1       186 1.92478E+01 2.64254E-02 5.59769E-03 5.73717E-02 3.24375E-14-3.04254E-13
 -1       187 1.92585E+01 1.48609E-02 2.89664E-03 1.19777E-01-1.02455E-14-2.47630E-13
 -1       188 1.93471E+01 9.32759E-03 1.73783E-03 1.59360E-01 1.51144E-14-2.61763E-13
 -1       189 1.94882E+01 8.03834E-03 1.28774E-03 1.87776E-01-1.29210E-14-2.22944E-13
 -1       190 1.96705E+01 1.03532E-02 1.26910E-03 2.15882E-01 2.58481E-14-2.09718E-13
 -1       191 1.98946E+01 1.63715E-02 1.55262E-03 2.53595E-01 7.86350E-15-1.42894E-13
 -1       192 2.01712E+01 2.69400E-02 2.12477E-03 3.11580E-01 2.08712E-14-2.14909E-13
 -1       193 2.05214E+01 4.37696E-02 2.91285E-03 4.03583E-01 1.27823E-14-2.70020E-13
 -1       194 2.09532E+01 6.73525E-02 3.96405E-03 5.38209E-01 4.57360E-15-1.95269E-13
 -1       195 2.15558E+01 1.03385E-01 4.86587E-03 7.50776E-01 5.53910E-14-7.09850E-14
 -1       196 2.23704E+01 1.52204E-01 4.95017E-03 1.06442E+00 9.18059E-15-2.18619E-14
 -1       197 2.34663E+01 2.08952E-01 3.10623E-03 1.49971E+00 8.31553E-14-1.36907E-14
 -1       198 2.49054E+01 2.47445E-01-1.12238E-03 2.04132E+00 1.23974E-13 3.93748E-14
 -1       199 2.67078E+01 1.91196E-01-3.67172E-03 2.55936E+00 1.46928E-14-4.66814E-15
 -1       200 2.87899E+01-1.28285E-01 3.30031E-03 2.67153E+00 2.55967E-14-7.67303E-14
 -1       201 3.08225E+01-8.53623E-01 2.30412E-02 1.71505E+00 2.54224E-14-3.58706E-14
 -1       202 3.25893E+01-1.81102E+00 1.66804E-02-1.09293E+00-1.95087E-14-7.13193E-14
 -1       203 3.32237E+01-1.61934E+00-7.99081E-02-4.49214E+00-1.92773E-13-5.98096E-14
 -1       204 3.25875E+01 9.11764E-01-2.44446E-01-5.32014E+00-1.14270E-13-1.03946E-13
 -1       205 3.17683E+01 3.37632E+00-3.27801E-01-1.59213E+00-8.81795E-14-1.77868E-13
 -1       206 3.22436E+01-8.16219E-01-1.69514E-01 5.07964E+00-3.44454E-13-1.06602E-12
 -1       207 3.32029E+01-1.51970E+00 3.81223E-02 2.17398E+00 2.06953E-14-1.19365E-12
 -1       208 3.21854E+01-8.68434E-01 5.62680E-02-9.20304E-01 2.36398E-13-1.05059E-12
 -1       209 3.01207E+01-1.91804E-01 1.46306E-02-2.26056E+00 1.44800E-13-8.77425E-13
 -1       210 2.79410E+01 1.06671E-01-6.80426E-03-2.34800E+00 6.63114E-14-6.09115E-13
 -1       211 2.58601E+01 1.88381E-01-8.87932E-03-1.92848E+00 2.02453E-13-3.74120E-13
 -1       212 2.41917E+01 1.69461E-01-3.27184E-03-1.42138E+00 1.64264E-13-4.05970E-13
 -1       213 2.29376E+01 1.27299E-01 8.95022E-04-9.93668E-01-1.50599E-13-2.72909E-13
 -1       214 2.20329E+01 8.86109E-02 2.55619E-03-6.77108E-01 1.25312E-13-2.83665E-13
 -1       215 2.13953E+01 5.95919E-02 2.71243E-03-4.56219E-01 9.60852E-14-3.04777E-13
 -1       216 2.09523E+01 3.94645E-02 2.33635E-03-3.06142E-01 4.61100E-14-3.17732E-13
 -1       217 2.06581E+01 2.65957E-02 1.68298E-03-2.09505E-01-9.91924E-14-3.03898E-13
 -1       218 2.04424E+01 1.76875E-02 1.28839E-03-1.40820E-01 3.76428E-14-4.32973E-13
 -1       219 2.02942E+01 1.17889E-02 9.16234E-04-9.45749E-02-1.00304E-13-2.32865E-13
 -1       220 2.01925E+01 7.91734E-03 6.45890E-04-6.33639E-02 2.87934E-14-2.07895E-13
 -1       221 2.01231E+01 5.35647E-03 4.53751E-04-4.21577E-02 3.82567E-13 8.27980E-14
 -1       222 2.00760E+01 3.64760E-03 3.19765E-04-2.76594E-02 1.21821E-13 1.44018E-13
 -1       223 2.00446E+01 2.49561E-03 2.27632E-04-1.76787E-02 4.40073E-13 4.11442E-13
 -1       224 2.00249E+01 1.74513E-03 1.55652E-04-1.10809E-02-1.61852E-13 4.83960E-13
 -1       225 2.00118E+01 1.21102E-03 1.11714E-04-6.23339E-03-1.38817E-13 4.77942E-13
 -1       226 2.00041E+01 8.41263E-04 7.38480E-05-2.85692E-03-3.52225E-15 3.82906E-13
 -1       227 2.00003E+01 5.78189E-04 4.43506E-05-5.32144E-04-1.56740E-13 1.09735E-13
 -1       228 1.99989E+01 3.41450E-04 2.84490E-05 9.63509E-04-1.19854E-13-1.00136E-13
 -1       229 1.99990E+01 3.90945E-06 5.05623E-05 1.53073E-03 3.17011E-13-3.75769E-13
 -1       230 1.99995E+01-6.46543E-04 6.17762E-05 1.29124E-03 1.93769E-14-6.04153E-13
 -1       231 2.09534E+01 2.77723E-01-5.06497E-02 1.15624E+00-5.45432E-14 6.11650E-13
 -1       232 1.98751E+01 1.30930E-01 1.00861E-02 4.37779E-01-3.62236E-14 6.19147E-13
 -1       233 1.93837E+01 5.71891E-02 1.34650E-02 1.37647E-01-1.45405E-14 6.02223E-13
 -1       234 1.91885E+01 2.38967E-02 7.37736E-03-7.82747E-03-1.81216E-14 5.95287E-13
 -1       235 1.91581E+01 1.15446E-02 3.62804E-03-8.10979E-02-3.71401E-14 6.14538E-13
 -1       236 1.92206E+01 5.17317E-03 1.76979E-03-1.18482E-01-4.46807E-14 6.40336E-13
 -1       237 1.93342E+01 1.55173E-03 8.88671E-04-1.36016E-01 1.66362E-14 6.58039E-13
 -1       238 1.94737E+01-7.17717E-04 4.15367E-04-1.41591E-01-3.28190E-14 6.88981E-13
 -1       239 1.96230E+01-2.47141E-03 1.11386E-04-1.39027E-01 1.76767E-14 7.34453E-13
 -1       240 1.97702E+01-4.35803E-03-1.15618E-04-1.29453E-01 5.92221E-14 6.58481E-13
 -1       241 1.99044E+01-6.93621E-03-2.99364E-04-1.11925E-01 1.58905E-13 5.90898E-13
 -1       242 2.00133E+01-1.06614E-02-4.46076E-04-8.38244E-02 9.92658E-14 4.59344E-13
 -1       243 2.00820E+01-1.57798E-02-5.44033E-04-4.14271E-02-5.16405E-16 3.96677E-13
 -1       244 2.00919E+01-2.21290E-02-5.70348E-04 1.90921E-02 2.68470E-14 3.82889E-13
 -1       245 2.00219E+01-2.88693E-02-5.03265E-04 9.99536E-02 3.26143E-14 5.01728E-13
 -1       246 1.98515E+01-3.42515E-02-3.40477E-04 1.99340E-01-7.55145E-14 4.21784E-13
 -1       247 1.95669E+01-3.56277E-02-1.16206E-04 3.08669E-01 3.20132E-15 4.02943E-13
 -1       248 1.91686E+01-2.99839E-02 9.54469E-05 4.10727E-01-2.88277E-14 4.84204E-13
 -1       249 1.86802E+01-1.51758E-02 2.06469E-04 4.80508E-01-6.87205E-15 5.33127E-13
 -1       250 1.81532E+01 8.34462E-03 1.73496E-04 4.90516E-01-6.82916E-14 5.56712E-13
 -1       251 1.76639E+01 3.62049E-02 6.07554E-05 4.20702E-01-9.59259E-15 6.16190E-13
 -1       252 1.72991E+01 6.05824E-02 2.30756E-05 2.69730E-01 4.76199E-14 6.40301E-13
 -1       253 1.71321E+01 7.31763E-02 2.03467E-04 6.10821E-02 2.83486E-14 7.15921E-13
 -1       254 1.71993E+01 6.93392E-02 6.00345E-04-1.61687E-01-5.10215E-14 6.59496E-13
 -1       255 1.74870E+01 5.06139E-02 1.03760E-03-3.50018E-01 1.26952E-13 6.01107E-13
 -1       256 1.79370E+01 2.38332E-02 1.27609E-03-4.68055E-01 7.04993E-14 6.40665E-13
 -1       257 1.84666E+01-2.47740E-03 1.16888E-03-5.03550E-01 2.53101E-14 4.82573E-13
 -1       258 1.89937E+01-2.19013E-02 7.46015E-04-4.67397E-01-4.86742E-15 4.55995E-13
 -1       259 1.94557E+01-3.19598E-02 1.79811E-04-3.84447E-01-1.14801E-13 5.32320E-13
 -1       260 1.98180E+01-3.36167E-02-3.41599E-04-2.82177E-01 2.36519E-15 5.25346E-13
 -1       261 2.00718E+01-2.96173E-02-6.91599E-04-1.82601E-01 1.38830E-13 5.64340E-13
 -1       262 2.02267E+01-2.29204E-02-8.36277E-04-9.90583E-02 1.10830E-13 3.51386E-13
 -1       263 2.03022E+01-1.57935E-02-8.09784E-04-3.68151E-02 1.37965E-13 1.73587E-13
 -1       264 2.03204E+01-9.57090E-03-6.76792E-04 4.53025E-03 6.22616E-14 1.15898E-13
 -1       265 2.03020E+01-4.79997E-03-5.00342E-04 2.84291E-02 7.27024E-14 1.58968E-14
 -1       266 2.02634E+01-1.51596E-03-3.26137E-04 3.93653E-02 6.18358E-14-8.06256E-14
 -1       267 2.02166E+01 5.07324E-04-1.79788E-04 4.16218E-02-1.05654E-13-1.74206E-13
 -1       268 2.01696E+01 1.58326E-03-7.06243E-05 3.86993E-02-9.29068E-14-1.10828E-13
 -1       269 2.01270E+01 2.01341E-03 2.37506E-06 3.31650E-02-2.94367E-14-2.21940E-14
 -1       270 2.00908E+01 2.04403E-03 4.53876E-05 2.67341E-02-1.36619E-13 2.82105E-13
 -1       271 2.00619E+01 1.85622E-03 6.61131E-05 2.04436E-02-1.15270E-13 1.52661E-13
 -1       272 2.00398E+01 1.57248E-03 7.16705E-05 1.48413E-02 7.26726E-14 2.96575E-13
 -1       273 2.00237E+01 1.26922E-03 6.76203E-05 1.01480E-02 3.30713E-13 6.72477E-14
 -1       274 2.00127E+01 9.89674E-04 5.75729E-05 6.38539E-03 4.20374E-13-2.67219E-13
 -1       275 2.00057E+01 7.52762E-04 4.33437E-05 3.46892E-03 7.16133E-14-3.45189E-13
 -1       276 2.00017E+01 5.51097E-04 2.80264E-05 1.28727E-03-5.92677E-14-4.67586E-13
 -1       277 2.00000E+01 3.60602E-04 2.68170E-05-2.34570E-04 2.24011E-13-6.66015E-13
 -1       278 1.99997E+01-2.52087E-05 6.65588E-05-9.24669E-04-2.05189E-13-7.35595E-13
 -1       279 2.00001E+01 2.44853E-05 2.18468E-05-6.41681E-04-4.55720E-13 3.60099E-14
 -1       280 2.00004E+01 8.93312E-04 5.15859E-07 4.74010E-04-2.84976E-13 3.16333E-13
 -1       281 2.00003E+01 2.64141E-03 1.01818E-06 1.63470E-03-2.62122E-13 1.78492E-13
 -1       282 2.00000E+01 5.09537E-03-5.22903E-07 2.38263E-03-2.59361E-13 2.36420E-13
 -1       283 1.99997E+01 7.70651E-03-6.39047E-06 2.46035E-03-1.03427E-13-2.64535E-13
 -1       284 1.99995E+01 1.00129E-02-1.23566E-05 1.87759E-03-2.77371E-13-3.74691E-13
 -1       285 1.99993E+01 1.14518E-02-1.67467E-05 7.85051E-04-2.60290E-13-2.34710E-13
 -1       286 1.99993E+01 1.16857E-02-1.76597E-05-5.49286E-04-1.26673E-13 3.90866E-13
 -1       287 1.99994E+01 1.06322E-02-1.47666E-05-1.79990E-03 1.81439E-13 2.32461E-13
 -1       288 1.99996E+01 8.49326E-03-9.07624E-06-2.64328E-03 2.15309E-13-2.09150E-13
 -1       289 1.99999E+01 5.77368E-03-2.32882E-06-2.83006E-03 3.68187E-13-5.50403E-13
 -1       290 2.00002E+01 2.97611E-03 1.67886E-06-2.26068E-03 2.02150E-13 3.13928E-13
 -1       291 2.00004E+01 7.50945E-04 1.94718E-06-1.03632E-03 1.02335E-13 1.06974E-13
 -1       292 2.00004E+01-5.10630E-04 2.80110E-06 4.74633E-04-2.49693E-13 1.59739E-13
 -1       293 2.00000E+01-9.87986E-04 4.73556E-06 1.37236E-03-1.38702E-13-4.46639E-13
 -1       294-5.51004E-01-1.04426E+01-8.00215E-01 2.81222E+00 4.25895E-13 4.76674E-13
 -1       295 3.77070E+00-8.08729E+00-6.62696E-01 4.84467E+00 4.46282E-13-6.02643E-14
 -1       296 1.10056E+01-4.19639E+00-3.75367E-01 6.87367E+00 4.99545E-13 6.43374E-14
 -1       297 2.16432E+01-7.28064E-01-1.32054E-02 8.03824E+00 4.01540E-13 7.82430E-14
 -1       298 3.14220E+01 3.78389E+00 3.86125E-01 8.72592E+00 2.55504E-13 1.21569E-13
 -1       299 4.05274E+01 5.70526E+00 6.26467E-01 6.19301E+00 3.09031E-13-1.31062E-13
 -1       300 4.79805E+01 6.93751E+00 9.75836E-01 3.71718E+00 4.00111E-13-4.21010E-13
 -1       301 4.98253E+01 7.17786E+00 1.06659E+00-7.86083E-01 3.92464E-14-6.94032E-13
 -1       302 4.54801E+01 6.75458E+00 8.53499E-01-4.79223E+00 2.73392E-15-5.58775E-13
 -1       303 3.79614E+01 5.32057E+00 6.47332E-01-8.04427E+00 6.29843E-14-5.83533E-13
 -1       304 2.76884E+01 2.31278E+00 2.38843E-01-8.52895E+00 4.95992E-14-3.43420E-13
 -1       305 1.69068E+01-1.05685E+00-1.55384E-01-7.89363E+00 1.32061E-13-1.21597E-13
 -1       306 8.18546E+00-5.42205E+00-5.18090E-01-5.98799E+00 2.72005E-14-1.88273E-13
 -1       307 2.05107E+00-9.17856E+00-7.58964E-01-4.11751E+00 1.13465E-13-1.23179E-13
 -1       308-1.22982E+00-1.14799E+01-9.08028E-01-2.01956E+00 1.24706E-13 6.51701E-14
 -1       309-1.08287E+00-1.11936E+01-9.04617E-01 3.61923E-01-1.65146E-15-1.07608E-13
 -1       310 2.56677E+00-1.02513E+01-1.01915E+00 2.22827E+00-1.65534E-13-4.54442E-13
 -1       311 1.09636E+01-6.88015E+00-7.40539E-01 4.75351E+00-2.30538E-13-4.41869E-13
 -1       312 2.29280E+01-3.58703E+00-3.37560E-01 5.91409E+00-3.14915E-13-4.70068E-13
 -1       313 3.57481E+01 2.40666E-01 3.08701E-01 5.64460E+00-4.92717E-13-2.91489E-13
 -1       314 4.69977E+01 3.66362E+00 1.04125E+00 3.07507E+00-3.64861E-13-1.09190E-13
 -1       315 5.45564E+01 6.49066E+00 1.72481E+00 1.44367E+00-2.49106E-13-1.60288E-13
 -1       316 5.34755E+01 7.37881E+00 1.58646E+00-2.92508E-01-3.06227E-13-1.69018E-13
 -1       317 5.08976E+01 5.02539E+00 1.37422E+00-2.58998E+00-6.23862E-13 2.27041E-13
 -1       318 4.09999E+01 1.21325E+00 5.61686E-01-3.69778E+00-9.01466E-13 5.61606E-13
 -1       319 2.82800E+01-1.60080E+00-9.41012E-02-6.19615E+00-6.83426E-13 1.24223E-12
 -1       320 1.58981E+01-5.01857E+00-6.32735E-01-5.42616E+00-5.56333E-13 1.08938E-12
 -1       321 6.77665E+00-8.37507E+00-8.54260E-01-3.80905E+00-4.61353E-13 6.84252E-13
 -1       322 5.93612E-01-1.12612E+01-1.05196E+00-1.32606E+00-3.02341E-13 5.52086E-13
 -1       323-1.63708E+00-1.24895E+01-1.05975E+00 5.98719E-01 1.77001E-13 7.04381E-13
 -1       324 3.21001E+01 2.01443E+00-2.93695E-01 4.30487E+00-5.68684E-13-3.54418E-13
 -1       325 2.01465E+01 3.00244E+00-2.19234E-02-2.07769E+00 1.00051E-13-2.08620E-13
 -1       326 2.07549E+01 2.20674E+00-1.78296E-02-2.34827E+00 6.21105E-14-2.51424E-13
 -1       327 1.95925E+01 3.70558E+00-1.55287E-02-1.29763E+00 1.43123E-13-1.04328E-13
 -1       328 1.94653E+01 3.86788E+00-1.36162E-02-9.07874E-01 1.54893E-13-4.04433E-14
 -1       329 1.93924E+01 3.96242E+00-1.25938E-02-5.33760E-01 1.77311E-13 1.72878E-14
 -1       330 1.93593E+01 4.00549E+00-1.21572E-02-1.69943E-01 1.91165E-13 6.86140E-14
 -1       331 1.93599E+01 4.00355E+00-1.21746E-02 1.90551E-01 1.97572E-13 9.35320E-14
 -1       332 1.93945E+01 3.95637E+00-1.26357E-02 5.54859E-01 1.79583E-13 1.15940E-13
 -1       333 1.94680E+01 3.85924E+00-1.36708E-02 9.23443E-01 1.65964E-13 1.74181E-13
 -1       334 1.95980E+01 3.69184E+00-1.56123E-02 1.31397E+00 1.57598E-13 2.45499E-13
 -1       335 1.98149E+01 3.41793E+00-1.90040E-02 1.71841E+00 1.18013E-13 3.18924E-13
 -1       336 2.01816E+01 2.95406E+00-2.32235E-02 2.10308E+00 7.11421E-14 3.79734E-13
 -1       337 2.07605E+01 2.10573E+00-2.93959E-02 2.28933E+00 1.90165E-14 4.63886E-13
 -1       338 2.10887E+01 1.18544E+00-2.40135E-02 1.90026E+00-2.43746E-14 5.11461E-13
 -1       339 2.03862E+01 4.95019E-01 7.87009E-03 9.09543E-01-3.67076E-14 4.61618E-13
 -1       340 2.04869E+01 7.04645E-01 1.18965E-02-1.04148E+00 1.90087E-14-2.15105E-13
 -1       341 2.00722E+01 3.54943E-01 7.27066E-03-4.52735E-01 1.73167E-14-2.01778E-13
 -1       342 1.98280E+01 1.93227E-01 4.41079E-03-1.24371E-01 4.97329E-14-1.81192E-13
 -1       343 1.97134E+01 1.13060E-01 2.18590E-03 6.02426E-02 5.04377E-14-1.30200E-13
 -1       344 1.96822E+01 6.87370E-02 1.17956E-03 1.80141E-01 5.85794E-15-1.12440E-13
 -1       345 1.97149E+01 4.89643E-02 7.44928E-04 2.59693E-01 4.33314E-14-7.39823E-14
 -1       346 1.97939E+01 4.67302E-02 6.74629E-04 3.22874E-01 3.06581E-14-3.90648E-14
 -1       347 1.99099E+01 5.97854E-02 8.37102E-04 3.88191E-01-9.95823E-15-1.11487E-13
 -1       348 2.00597E+01 8.89833E-02 1.22445E-03 4.72581E-01-6.05137E-14-1.82293E-13
 -1       349 2.02445E+01 1.38066E-01 1.87197E-03 5.94303E-01-1.54515E-14-2.12984E-13
 -1       350 2.04571E+01 2.07847E-01 2.70754E-03 7.63934E-01 4.97906E-14-1.57876E-13
 -1       351 2.07252E+01 3.13038E-01 3.91929E-03 1.02376E+00 1.12679E-13-9.75202E-14
 -1       352 2.10426E+01 4.56504E-01 5.15217E-03 1.39738E+00 1.08822E-13-5.04134E-14
 -1       353 2.14100E+01 6.31886E-01 5.95410E-03 1.91292E+00 1.32897E-14 3.73575E-14
 -1       354 2.18281E+01 7.95099E-01 5.62990E-03 2.58012E+00 1.33947E-13-2.47325E-14
 -1       355 2.23253E+01 8.07704E-01 5.26049E-03 3.35022E+00 6.13147E-14-2.92549E-14
 -1       356 2.30461E+01 3.46033E-01 1.29009E-02 4.03709E+00-5.33948E-15 5.02441E-14
 -1       357 2.43036E+01-9.74555E-01 3.26077E-02 4.21772E+00 1.10250E-13 1.29926E-13
 -1       358 2.70638E+01-3.59375E+00 4.52042E-02 3.11627E+00 7.32990E-14 1.98548E-13
 -1       359 3.13266E+01-5.34996E+00-2.24385E-02 4.46945E-01-1.89536E-13 1.47195E-13
 -1       360 2.04223E+01-5.10157E+00-5.70975E-03 7.65452E+00 2.51424E-13 1.52302E-13
 -1       361 2.92913E+01-3.76771E+00 2.14972E-02-1.62226E+00 3.22652E-13-2.72721E-13
 -1       362 2.62338E+01-1.43824E+00 3.49397E-02-3.60103E+00 3.48655E-13-2.85901E-13
 -1       363 2.45143E+01 2.75225E-02 9.02873E-03-3.87672E+00 1.55248E-13-2.71737E-13
 -1       364 2.34145E+01 6.20884E-01 4.30483E-03-3.35983E+00 2.30493E-13-1.44163E-13
 -1       365 2.26362E+01 6.90606E-01 5.81833E-03-2.61328E+00 2.00445E-13-1.52677E-13
 -1       366 2.20200E+01 5.74443E-01 6.91326E-03-1.91777E+00 2.40271E-13-6.59701E-14
 -1       367 2.15230E+01 4.26404E-01 6.39138E-03-1.36246E+00-1.25317E-13-8.09427E-14
 -1       368 2.11294E+01 3.00033E-01 5.08799E-03-9.51076E-01-3.84870E-14-2.47340E-13
 -1       369 2.08260E+01 2.05635E-01 3.77546E-03-6.58179E-01-2.25074E-14-4.57308E-13
 -1       370 2.06059E+01 1.42359E-01 2.63007E-03-4.61941E-01-1.03969E-13-4.18290E-13
 -1       371 2.04321E+01 9.62707E-02 1.84053E-03-3.17812E-01-1.09447E-13-2.71515E-13
 -1       372 2.03045E+01 6.52532E-02 1.25173E-03-2.18384E-01 2.24556E-14-3.34990E-13
 -1       373 2.02118E+01 4.44286E-02 8.49149E-04-1.49736E-01 9.48027E-14-1.73327E-13
 -1       374 2.01450E+01 3.04207E-02 5.77855E-04-1.02182E-01 2.52118E-13 1.43778E-13
 -1       375 2.00973E+01 2.09465E-02 3.95635E-04-6.91082E-02 1.80293E-13 9.29962E-14
 -1       376 2.00637E+01 1.44837E-02 2.74904E-04-4.60180E-02 1.91492E-13 9.95141E-15
 -1       377 2.00413E+01 1.02479E-02 1.87632E-04-3.05189E-02 2.34603E-13-2.87704E-13
 -1       378 2.00251E+01 7.13269E-03 1.32788E-04-1.89797E-02-9.34584E-14 4.12858E-14
 -1       379 2.00144E+01 4.96440E-03 9.02939E-05-1.08925E-02 2.43849E-14 1.87802E-13
 -1       380 2.00076E+01 3.41826E-03 5.90238E-05-5.27533E-03-2.17365E-13 1.03472E-13
 -1       381 2.00035E+01 2.22239E-03 4.04890E-05-1.48138E-03-1.11517E-13 2.05534E-13
 -1       382 2.00011E+01 9.76455E-04 1.83977E-05 7.86706E-04-2.23291E-13 1.39082E-13
 -1       383 1.98651E+01 2.30675E-01 6.95020E-03 2.49042E-01-1.26008E-14 4.16061E-13
 -1       384 1.96866E+01 1.20011E-01 3.39621E-03 1.35238E-02-1.48152E-14 4.06570E-13
 -1       385 1.96161E+01 6.41511E-02 1.60090E-03-1.18415E-01-3.00942E-14 3.17693E-13
 -1       386 1.96183E+01 3.18068E-02 7.15757E-04-1.91424E-01-3.65985E-14 3.30838E-13
 -1       387 1.96661E+01 1.19568E-02 2.60287E-04-2.28599E-01-4.10117E-14 3.46328E-13
 -1       388 1.97409E+01-1.66985E-03-2.08534E-05-2.42414E-01-2.17060E-14 3.36834E-13
 -1       389 1.98297E+01-1.32697E-02-2.45987E-04-2.38805E-01 7.20429E-14 3.50985E-13
 -1       390 1.99224E+01-2.60891E-02-4.74847E-04-2.19058E-01 1.70454E-13 3.56454E-13
 -1       391 2.00100E+01-4.27203E-02-7.40934E-04-1.80849E-01 1.99230E-13 3.59995E-13
 -1       392 2.00830E+01-6.48799E-02-1.05603E-03-1.19196E-01 5.45971E-14 3.64719E-13
 -1       393 2.01304E+01-9.27423E-02-1.40397E-03-2.78719E-02-5.32365E-14 3.30473E-13
 -1       394 2.01390E+01-1.23896E-01-1.73146E-03 9.82456E-02-4.16734E-14 3.13532E-13
 -1       395 2.00940E+01-1.52220E-01-1.94591E-03 2.59583E-01 4.41236E-14 2.61960E-13
 -1       396 1.99811E+01-1.67396E-01-1.92630E-03 4.47270E-01-4.01470E-14 2.71400E-13
 -1       397 1.97900E+01-1.56152E-01-1.55150E-03 6.38778E-01-7.44255E-14 2.97610E-13
 -1       398 1.95213E+01-1.06341E-01-7.56542E-04 7.96380E-01-5.58653E-14 3.30957E-13
 -1       399 1.91933E+01-1.38809E-02 3.98695E-04 8.71885E-01-5.77316E-14 3.65788E-13
 -1       400 1.88467E+01 1.09824E-01 1.70237E-03 8.20110E-01-6.07284E-14 4.87326E-13
 -1       401 1.85423E+01 2.35391E-01 2.87283E-03 6.19289E-01 3.20788E-14 5.54996E-13
 -1       402 1.83463E+01 3.23593E-01 3.61846E-03 2.89187E-01 1.06694E-14 6.04796E-13
 -1       403 1.83071E+01 3.42959E-01 3.76491E-03-1.06476E-01-4.72779E-14 5.68174E-13
 -1       404 1.84358E+01 2.86484E-01 3.26593E-03-4.79747E-01 6.94093E-14 5.47091E-13
 -1       405 1.87009E+01 1.75395E-01 2.25169E-03-7.51636E-01 8.85279E-14 6.73860E-13
 -1       406 1.90428E+01 4.74539E-02 9.66830E-04-8.79999E-01 9.94534E-14 5.93935E-13
 -1       407 1.93962E+01-6.14500E-02-2.89507E-04-8.67895E-01 6.77022E-14 6.35369E-13
 -1       408 1.97104E+01-1.30801E-01-1.23964E-03-7.51816E-01-1.94245E-14 6.18984E-13
 -1       409 1.99570E+01-1.57840E-01-1.77293E-03-5.80861E-01-2.30892E-14 4.83312E-13
 -1       410 2.01284E+01-1.51818E-01-1.90026E-03-3.99162E-01 1.29434E-13 3.51970E-13
 -1       411 2.02313E+01-1.26289E-01-1.72876E-03-2.36865E-01 1.23680E-13 4.68892E-13
 -1       412 2.02791E+01-9.34580E-02-1.39029E-03-1.08998E-01 1.86917E-13 5.40818E-13
 -1       413 2.02872E+01-6.16874E-02-1.00193E-03-1.88122E-02 2.39795E-13 3.76463E-13
 -1       414 2.02696E+01-3.53675E-02-6.42064E-04 3.76204E-02 6.95617E-14 4.16923E-13
 -1       415 2.02375E+01-1.59052E-02-3.50455E-04 6.74485E-02 2.77438E-14 5.60309E-13
 -1       416 2.01994E+01-2.91701E-03-1.38331E-04 7.83639E-02 1.04970E-13 5.28049E-13
 -1       417 2.01607E+01 4.80890E-03 6.92800E-07 7.71404E-02 6.64242E-14 2.28307E-13
 -1       418 2.01249E+01 8.68536E-03 8.09988E-05 6.90572E-02-1.01953E-13-1.21411E-13
 -1       419 2.00937E+01 9.99217E-03 1.18768E-04 5.78582E-02-2.51247E-13 5.17442E-14
 -1       420 2.00680E+01 9.74387E-03 1.28501E-04 4.59725E-02-2.89441E-13 2.00131E-13
 -1       421 2.00475E+01 8.67346E-03 1.21617E-04 3.48202E-02 1.31887E-14 1.42757E-13
 -1       422 2.00319E+01 7.26963E-03 1.06227E-04 2.51097E-02 3.01934E-13 4.55113E-14
 -1       423 2.00203E+01 5.83085E-03 8.76124E-05 1.70870E-02 4.26298E-13 7.69608E-14
 -1       424 2.00122E+01 4.51575E-03 6.87292E-05 1.07264E-02 3.26359E-13 3.41916E-13
 -1       425 2.00067E+01 3.37290E-03 5.06078E-05 5.87867E-03 1.31376E-13 2.34868E-13
 -1       426 2.00032E+01 2.33911E-03 2.73796E-05 2.41441E-03 9.43750E-14 3.04276E-14
 -1       427 2.00012E+01 1.28517E-03 1.75983E-05 3.53468E-04 8.94595E-14 8.29087E-14
 -1       428 2.00009E+01 7.90275E-03 7.99777E-06 4.59715E-03-6.69063E-14 1.30578E-13
 -1       429 2.00017E+01 4.76578E-03 1.42590E-05 3.13056E-03-3.76990E-14 2.96252E-13
 -1       430 1.99999E+01 1.11997E-02 4.46440E-07 5.08507E-03-7.17058E-14-2.44285E-13
 -1       431 1.99988E+01 1.42518E-02-7.90124E-06 4.43873E-03-6.94302E-14-2.02674E-13
 -1       432 1.99980E+01 1.65483E-02-1.44775E-05 2.77606E-03-6.44382E-14-3.08321E-13
 -1       433 1.99976E+01 1.77134E-02-1.75620E-05 4.49794E-04-3.41195E-13 1.87695E-13
 -1       434 1.99977E+01 1.75391E-02-1.62573E-05-2.04012E-03-3.25877E-13 2.55954E-13
 -1       435 1.99984E+01 1.60300E-02-1.06504E-05-4.14014E-03-2.38734E-13 1.59010E-13
 -1       436 1.99994E+01 1.34703E-02-2.49183E-06-5.33924E-03 1.03394E-13-1.32332E-13
 -1       437 2.00006E+01 1.01874E-02 6.37665E-06-5.35664E-03 5.43735E-13-2.95267E-14
 -1       438 2.00017E+01 6.74325E-03 1.18672E-05-4.12975E-03 1.51864E-13-5.16995E-14
 -1       439 2.00022E+01 3.70942E-03 1.43484E-05-2.02704E-03-3.43592E-13-3.16797E-13
 -1       440 2.00538E+01 3.32046E-01 1.05476E-02 5.17095E-01-1.27537E-14 4.54432E-13
 -1       441 1.20621E+01-5.25027E+00 1.88264E-02 8.28204E+00 1.26968E-13-9.12950E-14
 -1       442 2.92621E+01-2.18116E+00 2.74207E-02 4.58104E+00 3.38896E-13 1.05471E-14
 -1       443 1.02556E+00-3.95813E+00 3.43651E-03 1.68413E+00-2.85119E-14 8.64919E-13
 -1       444 1.98018E+01 3.44107E+00-1.86523E-02-1.69896E+00 1.22628E-13-1.51985E-13
 -1       445 3.37380E+01-4.37128E+00-7.23561E-02 1.93435E+00-1.02671E-13-4.25521E-13
 -1       446 3.34522E+01 1.45021E+00-2.19868E-02 2.09676E+00 2.65316E-13-5.13478E-14
 -1       447 3.57836E+01 6.45326E+00-3.35851E-02-1.64718E-01 5.05401E-13-1.50865E-13
 -1       448 3.71991E+01 8.72832E+00-5.93785E-03-1.53497E-02 3.91798E-13 1.17129E-14
 -1       449 3.80939E+01 8.28127E+00 5.96236E-02-1.44664E-01-5.68157E-14-1.66547E-13
 -1       450 3.56633E+01 4.62318E+00 4.20581E-03-7.71289E-01-9.97952E-14-2.27887E-13
 -1       451 3.24387E+01 2.54100E-01 1.33005E-02-2.91809E+00-7.22651E-14-1.74277E-13
 -1       452 2.57524E+01-3.58263E+00-9.95227E-03-6.15999E+00-1.87766E-14-8.77770E-14
 -1       453 1.80757E+01-5.30338E+00 5.50451E-03-8.05063E+00-6.32827E-15-2.81684E-14
 -1       454 1.04775E+01-5.25963E+00 1.35101E-02-8.06827E+00 3.34455E-14-7.15261E-14
 -1       455 2.64210E+00-5.03436E+00-6.22444E-02-4.97806E+00 2.43888E-13 4.27852E-14
 -1       456 1.04253E+00-3.87065E+00 1.64404E-02-6.21605E-01 5.04971E-14-1.71946E-13
 -1       457 4.75812E+00-4.89097E+00-1.24589E-02 4.25608E+00-1.47715E-13-4.75245E-13
 -1       458 1.16230E+01-6.47278E+00-1.29453E-01 6.14963E+00-7.08600E-14-4.05870E-13
 -1       459 2.31006E+01-6.78937E+00-8.17271E-02 5.24808E+00-8.41827E-14-2.49085E-13
 -1       460 3.30670E+01-5.36441E+00-3.23024E-02 1.12934E+00-1.33268E-13 1.54293E-13
 -1       461 3.76094E+01-1.81989E+00 7.33522E-03-2.53585E+00-2.40225E-13 2.06501E-13
 -1       462 4.11895E+01 4.04322E+00 2.46064E-01-3.19175E+00-1.33782E-13-2.37310E-14
 -1       463 4.16555E+01 6.45316E+00 2.91912E-01-9.40699E-01-2.14356E-13-1.13447E-13
 -1       464 4.00216E+01 4.99438E+00 1.60250E-01 3.01413E+00-5.84449E-13-2.65427E-13
 -1       465 3.95552E+01 1.24288E+00 1.22965E-01 3.73346E+00-9.28438E-13-2.59515E-13
 -1       466 3.54109E+01-3.97867E+00-2.64083E-02-2.70015E-01-4.68806E-13 1.80939E-13
 -1       467 2.71653E+01-6.17629E+00-1.18075E-01-4.00721E+00-6.46150E-14 6.92085E-13
 -1       468 1.78915E+01-6.80352E+00-8.98579E-02-6.06450E+00-9.45910E-14 7.45722E-13
 -1       469 8.26081E+00-5.61184E+00-4.57428E-02-5.58806E+00-2.69701E-13 5.66436E-13
 -1       470 2.12965E+00-5.13806E+00-7.52992E-02-2.39605E+00-7.87287E-14 8.89427E-13
 -1       471 4.74576E+00-4.60793E+00 1.16154E-02 6.26684E+00 2.36616E-14-2.73392E-15
 -1       472 2.00020E+01 2.21250E-03 1.32873E-05-4.99308E-04-2.69948E-13 1.69004E-13
 -1       473 1.97301E+01 3.13720E+00-5.37054E-03-6.16978E-01 1.64667E-13 5.85567E-15
 -1       474 1.98319E+01 2.95788E+00-5.97163E-03-9.27257E-01 1.44558E-13-5.70108E-14
 -1       475 1.96559E+01 3.26434E+00-4.96723E-03 8.07499E-03 1.85843E-13 7.08729E-14
 -1       476 1.96752E+01 3.22919E+00-5.05108E-03 3.20643E-01 1.84196E-13 8.06322E-14
 -1       477 1.97322E+01 3.12789E+00-5.37880E-03 6.28366E-01 1.70217E-13 1.25597E-13
 -1       478 1.98357E+01 2.94378E+00-5.90923E-03 9.38107E-01 1.51588E-13 1.85909E-13
 -1       479 1.99966E+01 2.65050E+00-6.54038E-03 1.22996E+00 1.01397E-13 2.51409E-13
 -1       480 2.02302E+01 2.20411E+00-5.78411E-03 1.46360E+00 5.52112E-14 3.04419E-13
 -1       481 2.04858E+01 1.55054E+00-3.22284E-03 1.51912E+00 2.43425E-14 3.79292E-13
 -1       482 2.05399E+01 9.93246E-01 3.23841E-03 1.27774E+00-8.65540E-15 4.20391E-13
 -1       483 2.03644E+01 1.01087E+00 2.69131E-03-9.33679E-01 5.72357E-14-1.47080E-13
 -1       484 2.28160E+01-3.31558E+00 8.66851E-02-4.87184E+00 2.76980E-13 7.78093E-14
 -1       485 2.04007E+01 1.78820E+00-5.14980E-03-1.51469E+00 6.04647E-14-1.87559E-13
 -1       486 2.60909E+01-4.88536E+00 6.77687E-03 4.79339E+00 1.11938E-13-1.68279E-13
 -1       487 2.02021E+01 5.82699E-01 2.53176E-03-4.43037E-01 4.80696E-14-9.69381E-14
 -1       488 2.00723E+01 3.54207E-01 1.46411E-03-1.32368E-01 9.28111E-14-9.06127E-14
 -1       489 1.99850E+01 2.17024E-01 8.22244E-04 8.25842E-02 2.50924E-14-7.43842E-14
 -1       490 1.99446E+01 1.44147E-01 5.00277E-04 2.25739E-01 3.52157E-14-4.81191E-14
 -1       491 1.99415E+01 1.14390E-01 3.95556E-04 3.29249E-01 2.03802E-14-2.77919E-14
 -1       492 1.99655E+01 1.18407E-01 4.17044E-04 4.17556E-01-5.66646E-14-5.32024E-14
 -1       493 2.00071E+01 1.53714E-01 5.51641E-04 5.10912E-01-3.88705E-14-6.77985E-14
 -1       494 2.00565E+01 2.23234E-01 8.58449E-04 6.28247E-01 3.95956E-15 1.99714E-14
 -1       495 2.01003E+01 3.26251E-01 1.17228E-03 7.78888E-01 7.28675E-14 2.87118E-14
 -1       496 2.01261E+01 4.83816E-01 1.89807E-03 9.98742E-01 1.14797E-13-2.61412E-14
 -1       497 2.01029E+01 7.01592E-01 2.78266E-03 1.30340E+00 7.72106E-14-2.41909E-14
 -1       498 1.99896E+01 9.80685E-01 3.85545E-03 1.71500E+00 4.91201E-14-9.20882E-14
 -1       499 1.97318E+01 1.29151E+00 5.04243E-03 2.25232E+00 2.78073E-14-1.04394E-13
 -1       500 1.92814E+01 1.52620E+00 7.28589E-03 2.92718E+00 5.99053E-14-1.79145E-13
 -1       501 1.86563E+01 1.39352E+00 1.24311E-02 3.75181E+00 1.03817E-14-1.56620E-13
 -1       502 1.81261E+01 3.64953E-01 5.35162E-02 4.70992E+00 1.09083E-13-1.68206E-13
 -1       503 1.80856E+01-2.15630E+00 1.11241E-01 5.71063E+00 6.98781E-14-1.36266E-13
 -1       504 3.03582E+01-1.74492E+00-7.21294E-02 1.19091E+00 2.58370E-13 2.85258E-14
 -1       505 1.86357E+01-4.84618E+00 8.29573E-02 7.65998E+00 3.74215E-14 7.82187E-15
 -1       506 1.99208E+01-3.70074E-01 5.79990E-02-4.87097E+00 1.16100E-13-8.34610E-14
 -1       507 1.98030E+01 1.02477E+00 1.92451E-02-4.03646E+00 2.56667E-13-1.10913E-13
 -1       508 2.00658E+01 1.33903E+00 6.53982E-03-3.16760E+00 2.22681E-13 2.27956E-14
 -1       509 2.03006E+01 1.20559E+00 4.63819E-03-2.40067E+00 2.68389E-13-1.37688E-13
 -1       510 2.04212E+01 9.43902E-01 3.92601E-03-1.77415E+00-1.33914E-13-2.74800E-13
 -1       511 2.04444E+01 6.91451E-01 3.11434E-03-1.28823E+00-2.95624E-14-1.50942E-13
 -1       512 2.04104E+01 4.89362E-01 2.32935E-03-9.24677E-01-2.11994E-13-3.64602E-13
 -1       513 2.03533E+01 3.46882E-01 1.64043E-03-6.69695E-01 5.90657E-15-4.76420E-13
 -1       514 2.02866E+01 2.39505E-01 1.13167E-03-4.74453E-01-3.54573E-14-4.73054E-13
 -1       515 2.02242E+01 1.65135E-01 7.66811E-04-3.34980E-01-1.81317E-14-4.39408E-13
 -1       516 2.01703E+01 1.14066E-01 5.16578E-04-2.35609E-01 1.96037E-13-3.00642E-13
 -1       517 2.01263E+01 7.90789E-02 3.48414E-04-1.64881E-01 8.79694E-14-2.15384E-13
 -1       518 2.00915E+01 5.50557E-02 2.36376E-04-1.14508E-01 1.84579E-13-2.35071E-13
 -1       519 2.00649E+01 3.84727E-02 1.64436E-04-7.86092E-02 3.89087E-13-6.00929E-14
 -1       520 2.00457E+01 2.74566E-02 1.10348E-04-5.40631E-02-8.75880E-14-3.02343E-13
 -1       521 2.00308E+01 1.92669E-02 7.86515E-05-3.54710E-02 2.20418E-13-3.91020E-13
 -1       522 2.00201E+01 1.35050E-02 5.37268E-05-2.22601E-02 1.75321E-13-2.28895E-13
 -1       523 2.00125E+01 9.39902E-03 3.73297E-05-1.29507E-02-2.47756E-13-3.46582E-13
 -1       524 2.00072E+01 6.33981E-03 1.57832E-05-6.55519E-03 1.92018E-13-2.28002E-13
 -1       525 2.00042E+01 4.21919E-03 1.66578E-05-2.93793E-03-4.09157E-14 1.73916E-13
 -1       526 1.99073E+01 1.28435E-01 4.51076E-04-1.41398E-01-5.65012E-16 2.84059E-13
 -1       527 1.99725E+01 2.30275E-01 1.02711E-03 1.15657E-02 2.51828E-14 3.14911E-13
 -1       528 2.00930E+01 4.02077E-01 1.17218E-03 2.63404E-01 6.99690E-16 3.38566E-13
 -1       529 1.98868E+01 6.57154E-02 1.82352E-04-2.31527E-01-3.75043E-14 2.54392E-13
 -1       530 1.98993E+01 2.45760E-02 3.96742E-05-2.80158E-01 1.42734E-14 1.60954E-13
 -1       531 1.99352E+01-6.18486E-03-6.11451E-05-2.99672E-01-2.60371E-15 1.52903E-13
 -1       532 1.99875E+01-3.48157E-02-1.56186E-04-2.95823E-01 7.01798E-14 1.76973E-13
 -1       533 2.00509E+01-6.78946E-02-2.65414E-04-2.69077E-01 1.25476E-13 3.15127E-13
 -1       534 2.01212E+01-1.10420E-01-3.99938E-04-2.15622E-01 1.42035E-13 3.67924E-13
 -1       535 2.01937E+01-1.64957E-01-5.60859E-04-1.28566E-01 3.21890E-14 4.40581E-13
 -1       536 2.02620E+01-2.29877E-01-7.34036E-04 7.97994E-05 1.19691E-14 3.31110E-13
 -1       537 2.03165E+01-2.96936E-01-8.82701E-04 1.76033E-01 7.74329E-14 2.91570E-13
 -1       538 2.03429E+01-3.49140E-01-9.51908E-04 3.97537E-01-3.18007E-14 2.85966E-13
 -1       539 2.03231E+01-3.60774E-01-8.77841E-04 6.48717E-01-1.86384E-14 2.12254E-13
 -1       540 2.02380E+01-3.02239E-01-5.91343E-04 8.93484E-01-6.29129E-14 2.44927E-13
 -1       541 2.00767E+01-1.51797E-01-6.69156E-05 1.07423E+00-1.45093E-13 3.47959E-13
 -1       542 1.98480E+01 8.73124E-02 5.87530E-04 1.12111E+00-1.04502E-13 3.45099E-13
 -1       543 1.95911E+01 3.71880E-01 1.16335E-03 9.75731E-01-7.75006E-14 3.81332E-13
 -1       544 1.93732E+01 6.21325E-01 1.56382E-03 6.25389E-01-7.76412E-14 5.53542E-13
 -1       545 1.92650E+01 7.48515E-01 1.73436E-03 1.26395E-01-8.14426E-15 6.29120E-13
 -1       546 1.93060E+01 7.04890E-01 1.68153E-03-4.05784E-01 7.75942E-14 5.25966E-13
 -1       547 1.94819E+01 5.08534E-01 1.41303E-03-8.42376E-01 4.03643E-15 5.55155E-13
 -1       548 1.97339E+01 2.32805E-01 9.19873E-04-1.09490E+00 1.21042E-13 4.68499E-13
 -1       549 1.99892E+01-3.34886E-02 2.66744E-04-1.14342E+00 1.22237E-13 5.27841E-13
 -1       550 2.01939E+01-2.26750E-01-2.92561E-04-1.02828E+00 6.33581E-16 3.83417E-13
 -1       551 2.03254E+01-3.25167E-01-6.89169E-04-8.17575E-01-3.60714E-14 4.32688E-13
 -1       552 2.03867E+01-3.40457E-01-8.64481E-04-5.77197E-01 1.91723E-13 4.14018E-13
 -1       553 2.03948E+01-3.00501E-01-8.57630E-04-3.54184E-01 1.21221E-13 4.58941E-13
 -1       554 2.03690E+01-2.34174E-01-7.28269E-04-1.73535E-01 1.86670E-13 1.97880E-13
 -1       555 2.03256E+01-1.63303E-01-5.49475E-04-4.26421E-02 2.17607E-13 3.32857E-13
 -1       556 2.02760E+01-1.00774E-01-3.71030E-04 4.20604E-02 1.18573E-13 5.16781E-13
 -1       557 2.02270E+01-5.20736E-02-2.19048E-04 8.93370E-02-5.19781E-14 5.50231E-13
 -1       558 2.01821E+01-1.78342E-02-1.04078E-04 1.09257E-01 3.74166E-14 4.03446E-13
 -1       559 2.01431E+01 3.87869E-03-2.54423E-05 1.11011E-01 2.02682E-13 4.95538E-13
 -1       560 2.01102E+01 1.59468E-02 2.25598E-05 1.01978E-01 1.76555E-13 6.20574E-13
 -1       561 2.00833E+01 2.12465E-02 4.76019E-05 8.75467E-02-4.68557E-13 6.65357E-13
 -1       562 2.00617E+01 2.22009E-02 5.69840E-05 7.13415E-02-2.93116E-13 5.96504E-13
 -1       563 2.00447E+01 2.06480E-02 5.66374E-05 5.55900E-02-3.41268E-14 2.37505E-13
 -1       564 2.00316E+01 1.78727E-02 5.09843E-05 4.15019E-02 1.14298E-13 4.17296E-14
 -1       565 2.00217E+01 1.47033E-02 4.28573E-05 2.95985E-02 3.73660E-13 1.19367E-14
 -1       566 2.00144E+01 1.16201E-02 3.47461E-05 1.99790E-02 9.78939E-14 2.98439E-13
 -1       567 2.00090E+01 8.85015E-03 2.73145E-05 1.25051E-02 3.01756E-13 4.97596E-13
 -1       568 2.00052E+01 6.44079E-03 2.37367E-05 6.93382E-03 3.41430E-13 4.30813E-13
 -1       569 1.99985E+01 1.85908E-02-2.65450E-06 8.04763E-03 1.96633E-13-2.44285E-13
 -1       570 2.00008E+01 1.42419E-02-4.05040E-06 8.45563E-03 6.20094E-14-1.06554E-13
 -1       571 2.00028E+01 9.62786E-03 3.86235E-06 7.34482E-03 2.97722E-13 5.04974E-14
 -1       572 5.47286E+00-1.05451E+00 1.92628E-01 4.26194E+00-1.94442E-13 5.80314E-13
 -1       573 1.99965E+01 2.22847E-02-5.41411E-06 6.09724E-03 8.11727E-14-5.96934E-13
 -1       574 1.99951E+01 2.47619E-02-7.45297E-06 2.93363E-03-1.30315E-13-4.85877E-13
 -1       575 1.99948E+01 2.56791E-02-7.85634E-06-8.60913E-04 2.47734E-14 4.67417E-13
 -1       576 1.99956E+01 2.48674E-02-6.17382E-06-4.56634E-03-2.36158E-14 5.58871E-13
 -1       577 1.99973E+01 2.24475E-02-2.92930E-06-7.39755E-03 7.63128E-14 1.01898E-13
 -1       578 1.99998E+01 1.86316E-02-4.55779E-07-8.84977E-03 2.33386E-13 1.13565E-13
 -1       579 2.00023E+01 1.39714E-02 4.87226E-07-8.50865E-03 1.51482E-13-3.08103E-13
 -1       580 2.00042E+01 9.15583E-03 8.68723E-06-6.52451E-03-5.07572E-14-2.73852E-13
 -1       581 3.18517E+01 2.91471E+00-1.32666E-01-1.08806E+00 4.11372E-13-7.69315E-14
 -1       582 7.90284E+00-2.09246E+00 1.59153E-01-4.55233E+00 2.00603E-14 8.01859E-13
 -1       583 2.38898E+01-5.27362E+00 3.25194E-02-6.11663E+00-4.88706E-14 2.06675E-14
 -1       584 1.96735E+01 3.23501E+00-5.06056E-03-3.04317E-01 1.81382E-13 6.43731E-14
 -1       585 4.65320E+00-8.26416E-01 2.00235E-01-1.05631E+00-2.10923E-13 7.48068E-13
 -1       586 3.16803E+01 6.08505E+00-1.67177E-01 1.47787E+00-1.35267E-13 1.16018E-14
 -1       587 3.09813E+01 7.14965E+00-1.89685E-01-1.27448E+00 3.65916E-13-5.89181E-14
 -1       588 4.94217E+00-8.47805E-01 1.99788E-01-3.38558E+00-8.07340E-15-1.24664E-13
 -1       589 3.15791E+01 8.44151E+00-1.89104E-01 2.88324E-01 2.03962E-13 3.34975E-14
 -1       590 3.10958E+01 1.01920E+00-1.29167E-01 8.15762E-01-1.33581E-13 7.06588E-14
 -1       591 2.90294E+01-3.35142E+00-4.95914E-02-2.56097E+00-1.19229E-13-1.03771E-13
 -1       592 1.65872E+01-4.63224E+00 1.01928E-01-7.99635E+00-9.01848E-14 1.92485E-14
 -1       593 9.36717E+00-2.75369E+00 1.61165E-01-7.13807E+00 9.69225E-14 1.51879E-13
 -1       594 5.96645E+00-7.64034E-01 2.12689E-01 2.50219E+00-7.40241E-14-4.20844E-13
 -1       595 1.23961E+01-3.12832E+00 1.54359E-01 6.00495E+00-4.77049E-14-3.40963E-13
 -1       596 2.57807E+01-6.15616E+00 1.24410E-02-4.08007E+00 2.48676E-13 3.82257E-13
 -1       597 1.68746E+01-4.30944E+00 1.26681E-01-6.25180E+00 8.95672E-14 3.03826E-13
 -1       598 1.11674E+01-3.00284E+00 1.57376E-01 7.58012E+00-5.69961E-14-1.11203E-13
 -1       599 1.99890E+01 2.67111E+00-6.55608E-03-1.21787E+00 1.24179E-13-1.05285E-13
 -1       600 2.02801E+01 6.60178E-01 6.28080E-03 7.71073E-01-1.56299E-14 3.92234E-13
 -1       601 2.17574E+01-5.99376E+00 2.33759E-02 5.53017E+00-1.87628E-14-2.07434E-13
 -1       602 2.01594E+01 5.10702E-01 3.57361E-03 4.85509E-01-4.72257E-15 3.74165E-13
 -1       603 2.01745E+01 2.30421E+00-5.92719E-03-1.41530E+00 9.59945E-14-1.41732E-13
 -1       604 1.99454E+01 2.49592E+00-1.58613E-03 3.75575E-01 1.48304E-13 8.63698E-14
 -1       605 1.99101E+01 2.57571E+00-1.50195E-03 1.28096E-01 1.75909E-13 7.42464E-14
 -1       606 2.01187E+01 2.07658E+00-1.77751E-03 8.18537E-01 9.06794E-14 1.60995E-13
 -1       607 2.02471E+01 1.70356E+00-1.99507E-03 9.67973E-01 3.90044E-14 2.41533E-13
 -1       608 2.03760E+01 1.03468E+00 3.47453E-03 9.81538E-01 7.13405E-15 3.42721E-13
 -1       609 1.56678E+01-1.47387E+00 1.32176E-01-5.58688E+00 4.09534E-14 1.48860E-13
 -1       610 2.03025E+01 1.47007E+00 2.10741E-04-9.76033E-01 8.48893E-14-1.16417E-13
 -1       611 2.00128E+01 2.34921E+00-1.62943E-03-6.02469E-01 1.45543E-13-1.45096E-14
 -1       612 2.02843E+01 9.14574E-01 3.92737E-04-5.29677E-01 6.68310E-14-9.08063E-14
 -1       613 2.02260E+01 5.83883E-01-2.15860E-05-2.11470E-01 8.48885E-14-8.66084E-14
 -1       614 2.01591E+01 3.71852E-01-1.00660E-04 2.80074E-02 7.31372E-14-1.04321E-13
 -1       615 2.01044E+01 2.51951E-01-9.73027E-05 1.95109E-01 3.42087E-14-2.56566E-14
 -1       616 2.00632E+01 1.97152E-01-2.92957E-05 3.16974E-01-1.71389E-14-3.36297E-14
 -1       617 2.00299E+01 1.93794E-01 6.00278E-05 4.16029E-01-4.81327E-14-1.33021E-14
 -1       618 1.99947E+01 2.36794E-01 1.72252E-04 5.10904E-01-6.63892E-14-3.99592E-14
 -1       619 1.99428E+01 3.27404E-01 2.89502E-04 6.17301E-01 5.09754E-14-6.22776E-14
 -1       620 1.98587E+01 4.63699E-01 4.79855E-04 7.41906E-01 4.81947E-14 4.00042E-15
 -1       621 1.97036E+01 6.67961E-01 6.67541E-04 9.08284E-01 4.98360E-14 9.78934E-15
 -1       622 1.94320E+01 9.44783E-01 7.94694E-04 1.12036E+00 4.48561E-14-1.15000E-13
 -1       623 1.89754E+01 1.29329E+00 8.06175E-04 1.38418E+00 9.92893E-15-1.83298E-13
 -1       624 1.82394E+01 1.68409E+00 1.13723E-03 1.70504E+00 1.42743E-14-2.29955E-13
 -1       625 1.71051E+01 2.02111E+00 4.27407E-03 2.09989E+00-8.11102E-14-2.98708E-13
 -1       626 1.54394E+01 2.07815E+00 2.28250E-02 2.64062E+00-1.73793E-14-3.92986E-13
 -1       627 1.31881E+01 1.49632E+00 1.05006E-01 3.40195E+00 1.05539E-13-3.71883E-13
 -1       628 1.99908E+01 3.49320E-02-2.65253E-06 2.13236E-03 3.12502E-13 1.28761E-13
 -1       629 1.99990E+01 2.24674E-02 3.35987E-07 1.29970E-02 2.44917E-13-1.27954E-13
 -1       630 1.57495E+01 1.25549E+00 5.73126E-02-4.02708E+00 9.15327E-14 1.35782E-13
 -1       631 1.68035E+01 1.95022E+00 1.49697E-02-2.89675E+00 2.07672E-13 1.51544E-13
 -1       632 1.80560E+01 1.85142E+00 4.93084E-03-2.25292E+00-3.50528E-14-1.42534E-13
 -1       633 1.89037E+01 1.51872E+00 2.05028E-03-1.74558E+00 3.89990E-14-3.97176E-13
 -1       634 1.94386E+01 1.15813E+00 1.38639E-03-1.33751E+00 7.80339E-14-3.46549E-13
 -1       635 1.97545E+01 8.48288E-01 1.04276E-03-1.01127E+00-9.52848E-14-2.88281E-13
 -1       636 1.99227E+01 6.17893E-01 7.97486E-04-7.65898E-01-1.96691E-13-1.07935E-13
 -1       637 2.00139E+01 4.37161E-01 5.34745E-04-5.65744E-01-1.88514E-15-6.59014E-14
 -1       638 2.00539E+01 3.07687E-01 3.70703E-04-4.14522E-01-1.94500E-14 4.05026E-14
 -1       639 2.00659E+01 2.16297E-01 2.50400E-04-3.01396E-01 1.46799E-13 4.56504E-14
 -1       640 2.00637E+01 1.52247E-01 1.68883E-04-2.17453E-01 3.05619E-13-2.54959E-13
 -1       641 2.00554E+01 1.07425E-01 1.13611E-04-1.55498E-01 2.32926E-13 1.96321E-14
 -1       642 2.00452E+01 7.59918E-02 8.01997E-05-1.09980E-01 1.55014E-13-1.48705E-13
 -1       643 2.00356E+01 5.47993E-02 5.24383E-05-7.80188E-02-2.57801E-13-4.69619E-13
 -1       644 2.00267E+01 3.88464E-02 3.76257E-05-5.32507E-02 1.40809E-13-3.97572E-13
 -1       645 2.00194E+01 2.75051E-02 2.51045E-05-3.52784E-02 1.38194E-14-6.38239E-13
 -1       646 2.00135E+01 1.93278E-02 1.76617E-05-2.23412E-02 6.96046E-14-5.95453E-13
 -1       647 2.00089E+01 1.34120E-02 1.76910E-05-1.31534E-02 7.87782E-14-1.46389E-13
 -1       648 2.01386E+01 3.19265E-01 2.00919E-04-1.80501E-02 4.17343E-14 2.03922E-13
 -1       649 2.00884E+01 1.83372E-01 7.01329E-05-1.65538E-01 5.51020E-15 2.06973E-13
 -1       650 2.02088E+01 5.33476E-01 5.34579E-04 2.09394E-01 2.37367E-14 2.26572E-13
 -1       651 2.00557E+01 3.27114E-02-9.43318E-06-3.09856E-01 2.40752E-14 9.19142E-14
 -1       652 2.00707E+01-1.76401E-02-3.57144E-05-3.33403E-01 2.59382E-14 3.96256E-14
 -1       653 2.01060E+01-6.84423E-02-6.70365E-05-3.32282E-01 4.02872E-14 4.19845E-14
 -1       654 2.01626E+01-1.29576E-01-1.07889E-04-3.05573E-01 5.12274E-14 1.43523E-13
 -1       655 2.02421E+01-2.08179E-01-1.61474E-04-2.47690E-01 3.07608E-14 1.51771E-13
 -1       656 2.03456E+01-3.06704E-01-2.26144E-04-1.49366E-01 5.42743E-14 1.25385E-13
 -1       657 2.04712E+01-4.19495E-01-2.95620E-04 3.41889E-04 3.60226E-14 1.75055E-13
 -1       658 2.06098E+01-5.28377E-01-3.42311E-04 2.09949E-01 6.56004E-15 2.76786E-13
 -1       659 2.07421E+01-5.99327E-01-3.43913E-04 4.78436E-01-4.55969E-14 3.96130E-13
 -1       660 2.08369E+01-5.83916E-01-2.89056E-04 7.85200E-01-6.76404E-14 3.95595E-13
 -1       661 2.08561E+01-4.30840E-01-9.84258E-05 1.07980E+00-1.28501E-13 2.95168E-13
 -1       662 2.07704E+01-1.11288E-01 2.80926E-04 1.27915E+00-1.34354E-13 2.90024E-13
 -1       663 2.05822E+01 3.48050E-01 6.41206E-04 1.28272E+00-1.61466E-13 3.05687E-13
 -1       664 2.03479E+01 8.38032E-01 5.87729E-04 1.01500E+00-1.68817E-13 3.56603E-13
 -1       665 2.01660E+01 1.19394E+00 5.72851E-04 4.86907E-01-1.45792E-13 2.91899E-13
 -1       666 2.01257E+01 1.27314E+00 4.00205E-04-1.80769E-01 8.76541E-14 3.13771E-13
 -1       667 2.02483E+01 1.04401E+00 5.45751E-04-7.99715E-01 1.41693E-13 3.39631E-13
 -1       668 2.04722E+01 6.03809E-01 6.48880E-04-1.20687E+00 1.07656E-13 3.17781E-13
 -1       669 2.06959E+01 1.15938E-01 2.95793E-04-1.33667E+00 1.40471E-13 1.74451E-13
 -1       670 2.08381E+01-2.74817E-01 1.15001E-04-1.22961E+00 1.17994E-13 1.57168E-13
 -1       671 2.08716E+01-5.03171E-01-1.25974E-04-9.80454E-01 1.48787E-14 2.99312E-13
 -1       672 2.08132E+01-5.74176E-01-2.68990E-04-6.84698E-01 9.61040E-14 1.79700E-13
 -1       673 2.06993E+01-5.32625E-01-3.31796E-04-4.09477E-01 9.58485E-14 9.87981E-14
 -1       674 2.05658E+01-4.31073E-01-2.96960E-04-1.88640E-01 2.27321E-13 2.72458E-13
 -1       675 2.04375E+01-3.11769E-01-2.28274E-04-3.08756E-02 6.58532E-14 3.92810E-13
 -1       676 2.03273E+01-2.01112E-01-1.57989E-04 6.95472E-02-1.02684E-13 5.83242E-13
 -1       677 2.02393E+01-1.11661E-01-9.61298E-05 1.24377E-01 5.18771E-16 8.03016E-13
 -1       678 2.01725E+01-4.65373E-02-4.93426E-05 1.46376E-01 1.71432E-13 6.67720E-13
 -1       679 2.01233E+01-3.55175E-03-1.65468E-05 1.46817E-01 9.85735E-14 7.12752E-13
 -1       680 2.00880E+01 2.17518E-02 3.76212E-06 1.34558E-01 8.11777E-14 7.08107E-13
 -1       681 2.00628E+01 3.42183E-02 1.46359E-05 1.15981E-01-1.99876E-13 8.14573E-13
 -1       682 2.00449E+01 3.81225E-02 1.92535E-05 9.53578E-02-2.91345E-13 6.83248E-13
 -1       683 2.00322E+01 3.68245E-02 1.98076E-05 7.53228E-02 2.26158E-13 1.76883E-13
 -1       684 2.00230E+01 3.27529E-02 1.80121E-05 5.73242E-02 1.32352E-13 3.97632E-14
 -1       685 2.00164E+01 2.75353E-02 1.52536E-05 4.20085E-02 1.57943E-13 8.56270E-14
 -1       686 2.00115E+01 2.21702E-02 1.13510E-05 2.95075E-02 3.81058E-13 9.25353E-14
 -1       687 2.00079E+01 1.71880E-02 1.69543E-05 1.96964E-02 4.25663E-14-1.61208E-13
 -1       688 2.00050E+01 1.32525E-02 1.47093E-05 1.25607E-02 1.46160E-13 3.24236E-14
 -1       689 1.99923E+01 3.23708E-02-2.18984E-06 7.26440E-03 2.54316E-13-6.58070E-13
 -1       690 2.15210E+01-4.72010E+00 5.88799E-02-6.22605E+00-1.13545E-13 9.55919E-15
 -1       691 2.00022E+01 1.79649E-02 1.23241E-05 1.34140E-02 2.29774E-13-4.86804E-13
 -1       692 1.99953E+01 2.80314E-02-2.05559E-06 1.10864E-02 2.33214E-13-3.37613E-13
 -1       693 2.00611E+01 9.46967E-02 1.93933E-05-2.57296E-01 5.03953E-14 1.60995E-13
 -1       694 1.99910E+01 3.53114E-02-2.52302E-06-3.48074E-03 6.50771E-14 3.45405E-13
 -1       695 1.99931E+01 3.34139E-02-2.29709E-06-8.51123E-03 2.46628E-13 3.71967E-13
 -1       696 1.99967E+01 2.93433E-02-6.84732E-07-1.21999E-02 2.45177E-13 1.29400E-13
 -1       697 2.00011E+01 2.36038E-02 8.99562E-06-1.37440E-02 9.16938E-14-2.88053E-13
 -1       698 2.00051E+01 1.69898E-02 2.22984E-05-1.28583E-02-2.75426E-14-4.84300E-13
 -1       699 1.03452E+01-4.96279E-01 1.48554E-01 5.51324E+00-3.16948E-13 1.00905E-13
 -1       700 9.55142E+00-2.50424E-01 1.49663E-01-5.02005E+00 1.52309E-15 3.78447E-14
 -1       701 1.48500E+01-2.35119E+00 1.10270E-01-6.82518E+00-3.22346E-14 1.45453E-13
 -1       702 2.77132E+01-3.62964E+00-3.01764E-02 1.65740E+00 1.84742E-13 8.84917E-14
 -1       703 1.61898E+01-2.86487E+00 8.56395E-02 6.95332E+00-4.42354E-15 2.13697E-13
 -1       704 2.86921E+01-1.96358E+00-6.91059E-02 1.53202E-01-1.69408E-13 1.68639E-13
 -1       705 7.95562E+00 1.26017E+00 1.63418E-01-2.97528E-01 1.26075E-14-3.49665E-13
 -1       706 2.84056E+01 2.92670E+00-1.18746E-01 2.17144E+00-1.71158E-13 6.00527E-14
 -1       707 2.81611E+01 6.56070E+00-1.54011E-01 1.29344E+00 5.07511E-14 1.94731E-13
 -1       708 7.68057E+00 1.19165E+00 1.66199E-01 1.16178E+00-2.36060E-13 7.13651E-13
 -1       709 1.16977E+01-3.18586E-01 1.45232E-01 4.47281E+00 7.90826E-14-3.88883E-13
 -1       710 2.75037E+01 6.94295E+00-1.60347E-01-4.59452E-01 2.45894E-13 7.68973E-14
 -1       711 9.28154E+00 5.42048E-01 1.66309E-01-3.03189E+00-6.40703E-14 6.15702E-13
 -1       712 2.62380E+01-4.57581E+00-8.00368E-03-3.34407E+00-8.46146E-14 8.66425E-14
 -1       713 2.87707E+01 4.16885E+00-1.36011E-01-2.07570E+00 4.11053E-13-1.55910E-13
 -1       714 2.00156E+01 2.33380E+00-1.69329E-03 6.10710E-01 1.30933E-13 1.33464E-13
 -1       715 2.92669E+01-7.44447E-02-9.29967E-02-1.13072E+00 3.79318E-13-2.40710E-14
 -1       716 2.33229E+01-4.71265E+00 3.98858E-02 5.16213E+00 1.10127E-13-7.76896E-15
 -1       717 1.99094E+01 2.57891E+00-1.49478E-03-1.22024E-01 1.78573E-13 6.24445E-14
 -1       718 2.01176E+01 2.09639E+00-1.13536E-03-8.10296E-01 1.31907E-13-7.69816E-14
 -1       719 2.02885E+01 8.77089E-01 1.75159E-03 5.42578E-01 4.19321E-15 2.54762E-13
 -1       720 2.63189E+01 5.11119E+00-9.92161E-02-1.58458E+00 2.88748E-13-2.02911E-14
 -1       721 1.99433E+01 2.50567E+00-1.56013E-03-3.67778E-01 1.57308E-13 5.22710E-14
 -1       722 2.02666E+01 1.34243E+00-6.71501E-04 5.87940E-01 2.84874E-14 1.75313E-13
 -1       723 2.36973E+01-4.19678E+00 1.09399E-02-3.95457E+00-3.14974E-14 3.76372E-14
 -1       724 2.02105E+01 1.82214E+00-2.19905E-04-9.24425E-01 1.02896E-13-8.44432E-14
 -1       725 2.69980E+01-9.60335E-03-3.76014E-02 1.68788E+00-1.44317E-13-3.21791E-15
 -1       726 2.02951E+01 1.00741E+00-1.09626E-04-3.87281E-01 7.59749E-14-7.77265E-14
 -1       727 2.02768E+01 6.60935E-01 1.27543E-04-1.20755E-01 6.86990E-14-9.15394E-14
 -1       728 2.02316E+01 4.43556E-01 2.58978E-05 7.48096E-02 7.23626E-14-1.00832E-13
 -1       729 2.01727E+01 3.21321E-01-1.27874E-05 2.16605E-01 3.54198E-14-8.85047E-14
 -1       730 2.01032E+01 2.72907E-01-3.38522E-05 3.22106E-01-4.32991E-14-5.57824E-14
 -1       731 2.00179E+01 2.86403E-01-5.44420E-05 4.06619E-01-6.96130E-14-3.34549E-14
 -1       732 1.99045E+01 3.57352E-01-5.72795E-05 4.81632E-01-5.35162E-15-5.08188E-14
 -1       733 1.97524E+01 4.78939E-01-1.29122E-04 5.51022E-01 7.23363E-14-6.70396E-14
 -1       734 1.95169E+01 6.67852E-01-1.80335E-04 6.24264E-01 6.90538E-15-1.07764E-13
 -1       735 1.91580E+01 9.25686E-01-3.17119E-04 6.92851E-01-3.43856E-14-1.50857E-13
 -1       736 1.86108E+01 1.25274E+00-5.61045E-04 7.44144E-01 8.57139E-15-1.60303E-13
 -1       737 1.77812E+01 1.63364E+00-6.24257E-04 7.56639E-01-1.05444E-13-2.37430E-13
 -1       738 1.65374E+01 2.01826E+00 2.45769E-03 7.04185E-01-7.29615E-14-3.45074E-13
 -1       739 1.46783E+01 2.29147E+00 1.60728E-02 5.69239E-01-6.21481E-14-3.29948E-13
 -1       740 1.20249E+01 2.26705E+00 6.68396E-02 3.93244E-01 1.40085E-14-3.16597E-13
 -1       741 1.99863E+01 4.66266E-02-2.36080E-06-7.94505E-03-1.09868E-13 6.68305E-13
 -1       742 2.02920E+01 9.66455E-01 5.20006E-04 3.93259E-01 2.85534E-14 1.58517E-13
 -1       743 1.71775E+01 1.97406E+00 2.11513E-03-1.03447E+00-2.66683E-13 8.88542E-14
 -1       744 1.82335E+01 1.57351E+00 4.22788E-04-9.18238E-01-1.64363E-13-8.75214E-14
 -1       745 1.89198E+01 1.20121E+00 1.22169E-04-7.84085E-01 4.99036E-14-3.83403E-13
 -1       746 1.93405E+01 9.05981E-01 1.88951E-04-6.52527E-01 6.27733E-14-7.21489E-14
 -1       747 1.96199E+01 6.61996E-01 9.21119E-05-5.22731E-01 1.69616E-14 1.59297E-13
 -1       748 1.97901E+01 4.79158E-01 8.29268E-05-4.09540E-01 3.15573E-16 3.06712E-13
 -1       749 1.98912E+01 3.45147E-01 5.87296E-05-3.14880E-01 4.32885E-15 3.90888E-14
 -1       750 1.99494E+01 2.48169E-01 4.05405E-05-2.38244E-01 1.23342E-13 2.92713E-13
 -1       751 1.99816E+01 1.78420E-01 2.68395E-05-1.77608E-01 3.16102E-13 8.42774E-14
 -1       752 1.99984E+01 1.28357E-01 2.05440E-05-1.30483E-01-9.03844E-15-1.24503E-13
 -1       753 2.00060E+01 9.38924E-02 1.41497E-05-9.58338E-02-1.19190E-13-3.12658E-13
 -1       754 2.00091E+01 6.74829E-02 9.00506E-06-6.79334E-02-9.43840E-15-1.38191E-13
 -1       755 2.00094E+01 4.83792E-02 9.21968E-06-4.70356E-02-2.39025E-14-5.24744E-13
 -1       756 2.00084E+01 3.45550E-02 1.85555E-05-3.16541E-02 6.31358E-14-4.64430E-13
 -1       757 2.00071E+01 2.44658E-02 1.49786E-05-2.09002E-02 4.04183E-13-3.14621E-13
 -1       758 1.99906E+01 4.28976E-02-8.91660E-06-1.47436E-02-2.52057E-14 3.35165E-13
 -1       759 1.93316E+01-3.02645E+00 2.92174E-02-5.59561E+00 1.28404E-14-1.73576E-14
 -1       760 2.02354E+01 3.76338E-01-2.51381E-05-5.98866E-02 2.69706E-14 1.33361E-13
 -1       761 2.02729E+01 6.12065E-01 2.08377E-04 1.28984E-01 4.25438E-14 1.45746E-13
 -1       762 2.01582E+01-3.46812E-02-7.65510E-06-3.58557E-01 2.91451E-15 1.77340E-13
 -1       763 2.01527E+01 3.47984E-02-2.30863E-06-3.28481E-01 1.11770E-14 1.47381E-13
 -1       764 2.02569E+01-2.04669E-01-3.15853E-05-3.53310E-01 5.51084E-14 6.86642E-14
 -1       765 2.03666E+01-3.27292E-01-5.51302E-05-3.07711E-01 7.62836E-14 4.96876E-14
 -1       766 2.05272E+01-4.79821E-01-8.40645E-05-2.17721E-01-2.39049E-14 9.21886E-14
 -1       767 2.07409E+01-6.50730E-01-1.23283E-04-6.61840E-02-1.27732E-13 2.38896E-13
 -1       768 2.09978E+01-8.07844E-01-1.22491E-04 1.63288E-01-7.57192E-14 2.22012E-13
 -1       769 2.12682E+01-8.92556E-01-1.25094E-04 4.76484E-01-1.83248E-14 2.18047E-13
 -1       770 2.14990E+01-8.23388E-01-2.25553E-04 8.51169E-01-3.96902E-14 1.88524E-13
 -1       771 2.16203E+01-5.17363E-01-2.15698E-04 1.21774E+00-8.85529E-14 1.89444E-13
 -1       772 2.15800E+01 5.56248E-02 2.00029E-04 1.45172E+00-2.88844E-13 2.09354E-13
 -1       773 2.13763E+01 8.25447E-01 4.55723E-04 1.39532E+00-2.25167E-13 2.35291E-13
 -1       774 2.11229E+01 1.54410E+00-2.47625E-04 9.56201E-01-9.66045E-14 3.05295E-13
 -1       775 2.09691E+01 1.92985E+00-4.81277E-04 1.99259E-01 2.10411E-14 1.11363E-13
 -1       776 2.10227E+01 1.79926E+00-1.44131E-04-6.29115E-01-1.87903E-15 6.40770E-14
 -1       777 2.12488E+01 1.21321E+00 5.87735E-04-1.24520E+00 1.50131E-13 2.86654E-13
 -1       778 2.14953E+01 4.36599E-01-4.22418E-04-1.49232E+00 7.78270E-14 3.76242E-13
 -1       779 2.16202E+01-2.42355E-01 8.80477E-05-1.38858E+00 1.40743E-13 4.30596E-13
 -1       780 2.15734E+01-6.74797E-01 7.91736E-05-1.07857E+00 5.15376E-14 3.28691E-13
 -1       781 2.13854E+01-8.42968E-01 3.26001E-05-7.07375E-01 9.26338E-14 1.61415E-13
 -1       782 2.11236E+01-8.14094E-01-1.22287E-04-3.73583E-01 2.93682E-14 2.98462E-13
 -1       783 2.08512E+01-6.75274E-01-1.16503E-04-1.19736E-01 2.25983E-14 3.42169E-13
 -1       784 2.06089E+01-4.98461E-01-8.27162E-05 4.93713E-02 1.32832E-13 2.04432E-13
 -1       785 2.04144E+01-3.29080E-01-5.81762E-05 1.47472E-01-3.89501E-14 3.31446E-13
 -1       786 2.02697E+01-1.89238E-01-3.28763E-05 1.93201E-01-1.33684E-13 1.74144E-13
 -1       787 2.01685E+01-8.54840E-02-1.70033E-05 2.03901E-01 1.67449E-14 2.04123E-13
 -1       788 2.01013E+01-1.55042E-02-4.47241E-06 1.93361E-01 1.08127E-14 5.09555E-13
 -1       789 2.00589E+01 2.69537E-02 2.56556E-06 1.71542E-01 8.62669E-14 5.26855E-13
 -1       790 2.00334E+01 4.90703E-02 5.57193E-06 1.45098E-01-1.39555E-13 6.01575E-13
 -1       791 2.00187E+01 5.73230E-02 6.42910E-06 1.18171E-01-2.44921E-13 3.42019E-13
 -1       792 2.00108E+01 5.68984E-02 6.43102E-06 9.31474E-02 3.02699E-14 2.28446E-13
 -1       793 2.00067E+01 5.16246E-02 5.14397E-06 7.12170E-02 3.10765E-13 3.88578E-13
 -1       794 2.00046E+01 4.41097E-02 2.38672E-06 5.28018E-02 1.69203E-13 1.84531E-13
 -1       795 2.00036E+01 3.60335E-02 3.64373E-06 3.78776E-02 3.06047E-13 7.84598E-14
 -1       796 2.00029E+01 2.83947E-02-2.73672E-06 2.61963E-02 1.50598E-13 2.53767E-13
 -1       797 2.00026E+01 2.28782E-02 9.04277E-06 1.90995E-02 2.06377E-13 3.85306E-14
 -1       798 1.99859E+01 4.48952E-02-3.23684E-07 7.57400E-03 2.95815E-13-2.69967E-13
 -1       799 1.99969E+01 3.64368E-02-2.37431E-05-1.92874E-02 2.09439E-13 2.05176E-14
 -1       800 1.36524E+01-4.96098E-02 5.90639E-02-4.76442E+00 1.41319E-14 1.74201E-13
 -1       801 1.44124E+01-7.18424E-01 6.08015E-02 5.43018E+00-1.10518E-13 2.98589E-13
 -1       802 1.99847E+01 4.72671E-02-2.10147E-06-8.58854E-05 2.14967E-13 2.44799E-13
 -1       803 2.02068E+01-3.11937E+00 4.67512E-02 5.31692E+00-1.51906E-13-2.04697E-14
 -1       804 1.08033E+01 1.42992E+00 8.98071E-02-2.38331E+00 1.95937E-15-3.12493E-14
 -1       805 1.10313E+01 2.00602E+00 8.23646E-02-1.32929E+00-2.02465E-13 5.25188E-13
 -1       806 1.09531E+01 1.08234E+00 1.36630E-01 3.10687E+00 1.21275E-13-3.91048E-13
 -1       807 2.52328E+01-3.88206E+00-1.29092E-02 2.38513E+00-1.25612E-13-9.25764E-14
 -1       808 2.01903E+01-1.10157E-01-1.55969E-05-3.67642E-01 3.80242E-14 1.75650E-13
 -1       809 1.55889E+01 2.31460E+00 9.09648E-03-1.15120E+00-4.63299E-14 5.78088E-14
 -1       810 1.13226E+01 1.43833E+00 8.41077E-02 2.82383E+00-3.63235E-13 3.04756E-13
 -1       811 2.55638E+01 5.74777E+00-8.90209E-02 5.61167E-01 4.37324E-14 1.89019E-13
 -1       812 2.71903E+01-1.84750E+00-3.33527E-02-5.59509E-01 1.71140E-13-3.16392E-13
 -1       813 2.01111E+01 1.95427E+00-2.85485E-04 1.80474E-01 1.33089E-13 4.66951E-14
 -1       814 2.59706E+01 3.98155E+00-6.59950E-02 1.95291E+00 1.12757E-15 8.37212E-14
 -1       815 1.33393E+01 2.23257E+00 6.99250E-02-1.68683E+00 3.67165E-14 3.87250E-13
 -1       816 2.65274E+01-3.32015E+00-2.05981E-02-9.74240E-01-8.39295E-14 4.57577E-14
 -1       817 2.02731E+01 1.35687E+00-5.52675E-04-6.36912E-01 7.78800E-14-6.81379E-14
 -1       818 2.71784E+01 1.24867E+00-6.42025E-02-1.97714E+00 3.67841E-13-2.83404E-13
 -1       819 2.55326E+01 2.73082E+00-4.37498E-02-2.09535E+00 3.09920E-13-4.04763E-14
 -1       820 2.01674E+01 1.13759E-01-2.68373E-06-2.74646E-01 6.68135E-14 1.38146E-13
 -1       821 2.02095E+01 1.64792E+00-2.80822E-04-4.92872E-01 9.37439E-14-2.16388E-14
 -1       822 2.53708E+01 1.43356E+00-2.87296E-02 2.09109E+00-1.39041E-13 7.62962E-14
 -1       823 1.99949E+01 3.32230E-02-1.22531E-05 1.80931E-02 2.23858E-13-3.01809E-13
 -1       824 1.73713E+01-1.23090E+00 2.25447E-02-4.74647E+00-1.63662E-14 2.07365E-14
 -1       825 2.01970E+01 2.20285E-01-4.94633E-06-1.89269E-01 5.36857E-14 1.07969E-13
 -1       826 2.27779E+01-3.33998E+00 8.56978E-03 3.39629E+00-1.01024E-13-1.70291E-13
 -1       827 1.99896E+01 3.99717E-02-7.03815E-06 1.39118E-02 1.83411E-13-4.80250E-13
 -1       828 2.02070E+01 1.62913E+00-8.54777E-04 4.94697E-01 7.82474E-14 1.01877E-13
 -1       829 2.46602E+01 5.10334E+00-5.02454E-02-5.86495E-01 1.35461E-13 2.31437E-13
 -1       830 2.01511E+01 1.83347E+00-2.04041E-04 3.50089E-01 1.14365E-13 8.43219E-14
 -1       831 2.01478E+01 1.84830E+00-2.68353E-04-3.47621E-01 1.35113E-13 3.75748E-14
 -1       832 2.00963E+01 1.99757E+00-3.11170E-04-2.43386E-04 1.66196E-13 6.72718E-14
 -1       833 2.57071E+01-3.46472E-01-2.75919E-02-1.62042E+00 8.23027E-14-3.70771E-13
 -1       834 2.02776E+01 1.24063E+00 1.21064E-03 3.57544E-01 8.00300E-14 9.45134E-14
 -1       835 2.02988E+01 6.97504E-01 4.63968E-05-4.45393E-02 5.32784E-14-1.26222E-14
 -1       836 2.02572E+01 4.88309E-01 2.16508E-05 1.00174E-01 3.42574E-14-7.36318E-14
 -1       837 2.01856E+01 3.73199E-01-3.48174E-06 2.04460E-01 1.85402E-14-9.92843E-14
 -1       838 2.00854E+01 3.35932E-01-6.39532E-06 2.77804E-01-1.23847E-14-3.26184E-14
 -1       839 1.99515E+01 3.64832E-01 7.59824E-06 3.26808E-01-4.49272E-14-3.17390E-14
 -1       840 1.97812E+01 4.48088E-01-4.55124E-05 3.53364E-01 3.40715E-14 1.90096E-14
 -1       841 1.95362E+01 5.91843E-01-5.64653E-05 3.56421E-01 1.08613E-14-9.89502E-14
 -1       842 1.91912E+01 7.91959E-01-1.02827E-04 3.21027E-01-8.58577E-15-1.05878E-13
 -1       843 1.87009E+01 1.04277E+00-2.42023E-04 2.23127E-01-1.87127E-14-1.29522E-13
 -1       844 1.80025E+01 1.32745E+00-4.35111E-04 2.31354E-02-8.03483E-14-2.55963E-13
 -1       845 1.70061E+01 1.60753E+00-3.54309E-05-3.36092E-01-5.51349E-14-3.04701E-14
 -1       846 1.55992E+01 1.80578E+00 1.14375E-02-9.20405E-01-4.59782E-14 7.10176E-14
 -1       847 1.36323E+01 1.88769E+00 4.20600E-02-1.56309E+00-7.60291E-15 3.87589E-14
 -1       848 2.55779E+01-1.72590E+00-3.97650E-03 7.08890E-01-9.98472E-14-6.49929E-14
 -1       849 1.44220E+01 7.99918E-01 4.06095E-02 3.53486E+00-4.02590E-13 4.65976E-13
 -1       850 1.99808E+01 5.96611E-02-1.74076E-05-1.51573E-02-9.66729E-15 5.50873E-13
 -1       851 1.81915E+01 1.38380E+00 1.56438E-05-2.14924E-01-1.05530E-13 3.55812E-13
 -1       852 1.87914E+01 1.09439E+00-8.02762E-05-2.93757E-01 1.37358E-13 4.28332E-13
 -1       853 1.92194E+01 8.35306E-01-8.33241E-05-3.09617E-01 1.58969E-13 2.25567E-13
 -1       854 1.95028E+01 6.27455E-01-2.06824E-05-2.88347E-01 6.42187E-14 1.99152E-13
 -1       855 1.96880E+01 4.66733E-01-9.91154E-06-2.50085E-01 1.25899E-13 6.11414E-13
 -1       856 1.98076E+01 3.45095E-01-6.36463E-06-2.06902E-01 6.26260E-14 7.06532E-13
 -1       857 1.98840E+01 2.54206E-01-4.90191E-06-1.65370E-01 1.13285E-13 3.99812E-13
 -1       858 1.99320E+01 1.86853E-01-1.91068E-06-1.28591E-01-2.37134E-15 1.02396E-13
 -1       859 1.99607E+01 1.39180E-01 1.69805E-06-9.89031E-02-1.36739E-13 6.78085E-14
 -1       860 1.99794E+01 1.01762E-01-2.04331E-06-7.32594E-02-2.38302E-14-3.50088E-14
 -1       861 1.99904E+01 7.41332E-02-1.44755E-07-5.29404E-02-1.49044E-13 2.24812E-14
 -1       862 1.99966E+01 5.37564E-02 9.57148E-07-3.72902E-02-8.29736E-14-1.73578E-14
 -1       863 1.99966E+01 4.45375E-02-3.36501E-06-2.71946E-02 1.58065E-13 3.14259E-14
 -1       864 1.59490E+01 1.99145E+00-2.37366E-04 3.40439E-01-1.81855E-13-3.63967E-15
 -1       865 2.01990E+01 3.45454E-02 4.77527E-06-3.43148E-01-4.16656E-15 1.30587E-13
 -1       866 2.04755E+01-4.53299E-01-6.09483E-06-4.23676E-01-1.07109E-14 2.38062E-13
 -1       867 2.03221E+01-2.80707E-01-5.80960E-06-4.34274E-01 4.68301E-14 2.18502E-13
 -1       868 2.10418E+01-9.13684E-01-9.74123E-05-2.36552E-01-6.04165E-14 1.46847E-13
 -1       869 2.14547E+01-1.13354E+00 2.38426E-05 9.49397E-04-1.36508E-13 7.09855E-14
 -1       870 2.19054E+01-1.23285E+00 1.76570E-04 3.68523E-01-3.81702E-14 1.89250E-13
 -1       871 2.23126E+01-1.08710E+00-6.83372E-04 8.49020E-01-1.50589E-13 2.82558E-13
 -1       872 2.25488E+01-5.62035E-01 8.84185E-04 1.33964E+00-1.97191E-13 3.34346E-13
 -1       873 2.24998E+01 4.27352E-01-3.95861E-03 1.64358E+00-2.17591E-13 2.64578E-13
 -1       874 2.22585E+01 1.59365E+00-1.63464E-03 1.47390E+00-2.07194E-13 8.84386E-14
 -1       875 2.19669E+01 2.54440E+00-2.03995E-03 7.67080E-01 2.70318E-14 1.94364E-14
 -1       876 2.18751E+01 2.76649E+00-3.94336E-03-2.78792E-01 9.97834E-14-8.32800E-14
 -1       877 2.20875E+01 2.13623E+00-4.54966E-03-1.21000E+00-1.81389E-14-1.71817E-13
 -1       878 2.24185E+01 9.98227E-01-1.31505E-03-1.64924E+00-6.02730E-14 1.42162E-13
 -1       879 2.25538E+01-9.56646E-02-1.28695E-03-1.53852E+00-5.29335E-15 2.07614E-13
 -1       880 2.24391E+01-8.40021E-01-4.63307E-04-1.12914E+00 1.62954E-13 1.99372E-13
 -1       881 2.20961E+01-1.15569E+00 3.89211E-04-6.34693E-01 1.08284E-13 2.61332E-13
 -1       882 2.16461E+01-1.14834E+00-8.73865E-05-2.19186E-01 2.52408E-14 3.18193E-13
 -1       883 2.11969E+01-9.61874E-01-5.06537E-05 6.64987E-02-4.89608E-14 2.09485E-13
 -1       884 2.08113E+01-7.12205E-01 1.02238E-05 2.29679E-01 2.06151E-13 2.02467E-13
 -1       885 2.05133E+01-4.71732E-01-2.18773E-05 3.01862E-01-8.22224E-14 3.06257E-13
 -1       886 2.03002E+01-2.72779E-01-9.53233E-06 3.15428E-01 6.56441E-14 1.05152E-13
 -1       887 2.01581E+01-1.25016E-01-1.06425E-05 2.95480E-01-9.79024E-14 1.68032E-13
 -1       888 2.00698E+01-2.49953E-02-4.81862E-07 2.59373E-01-5.35443E-14 1.13344E-13
 -1       889 2.00193E+01 3.61214E-02 3.92242E-06 2.17903E-01-1.65498E-14 1.86433E-13
 -1       890 1.99935E+01 6.84854E-02 4.38526E-06 1.77232E-01 3.31648E-15 1.92474E-13
 -1       891 1.99829E+01 8.11910E-02 3.45467E-06 1.40366E-01-1.03108E-13 2.36677E-14
 -1       892 1.99808E+01 8.14367E-02 2.96873E-06 1.08582E-01-5.91209E-14-2.95399E-14
 -1       893 1.99829E+01 7.45882E-02 5.07456E-07 8.21358E-02-3.53182E-14 3.90522E-14
 -1       894 1.99867E+01 6.43344E-02-3.15163E-06 6.06963E-02 3.20461E-13 7.22313E-14
 -1       895 1.99907E+01 5.30384E-02-1.08093E-06 4.37257E-02 2.14835E-13-1.99699E-13
 -1       896 1.99940E+01 4.22246E-02-4.56831E-06 3.05772E-02 1.59385E-13-1.35156E-13
 -1       897 1.99808E+01 5.49676E-02-3.79732E-06 1.60609E-02 2.61492E-13-3.01375E-13
 -1       898 1.99879E+01 5.33494E-02-1.41935E-05-2.26277E-02-2.46525E-14 2.39385E-13
 -1       899 1.99879E+01 4.69297E-02 3.18456E-05 2.32536E-02 1.89232E-13-3.53057E-13
 -1       900 2.16854E+01-2.99481E+00 1.67306E-02-3.86102E+00-5.52644E-14 1.13440E-15
 -1       901 2.01089E+01 1.96275E+00-2.97521E-04-1.80177E-01 1.58988E-13 8.85841E-14
 -1       902 2.07126E+01-6.70587E-01-4.33408E-05-3.67116E-01-1.21911E-13 3.34506E-13
 -1       903 1.72711E+01 1.70738E+00 8.62748E-04-2.18862E-02-1.84267E-13 1.48098E-13
 -1       904 1.24767E+01 2.05856E+00 3.80304E-02 1.26266E+00-3.27107E-13 3.90094E-13
 -1       905 2.53601E+01-2.62671E+00-1.79530E-02 2.77531E-01-5.26901E-14-4.28127E-13
 -1       906 2.03012E+01 1.02411E+00 2.49575E-04-2.38977E-01 6.78818E-14 5.90501E-15
 -1       907 1.78517E+01-1.21442E+00 2.73423E-02 4.55342E+00-2.49619E-13 2.74000E-14
 -1       908 2.39959E+01 4.04781E+00-4.94918E-02 1.22241E+00 1.39841E-13 1.69404E-14
 -1       909 2.44171E+01-3.36525E+00-2.35154E-03-1.83610E+00 4.94524E-14 9.06509E-14
 -1       910 2.40543E+01 3.56832E+00-1.87679E-02-1.49762E+00 1.65240E-13 1.23333E-13
 -1       911 2.46991E+01-5.43670E-01-1.59547E-03 1.52836E+00-1.30464E-13 4.03488E-14
 -1       912 2.03112E+01 6.39338E-01-9.96182E-05 4.70281E-02 4.99579E-14 7.26251E-14
 -1       913 2.02208E+01 1.24553E-01 4.98747E-05-2.85472E-01 1.31066E-14 1.38879E-13
 -1       914 2.38885E+01-2.90753E+00 3.09604E-03 1.49567E+00-1.32957E-13-3.30074E-13
 -1       915 1.99768E+01 6.19965E-02 4.36980E-06-4.56231E-03 1.77651E-13 9.92861E-14
 -1       916 2.01998E+01-5.07548E-02 9.30391E-06-3.86847E-01 1.68754E-14 1.95009E-13
 -1       917 2.02886E+01 4.02122E-01 6.05057E-05-1.00874E-01 3.27616E-14 8.57831E-14
 -1       918 2.03093E+01 8.95644E-01-7.37389E-04 1.90963E-01 5.07548E-14 7.06414E-14
 -1       919 1.99769E+01 6.02348E-02-7.70073E-06 6.46306E-03 3.18258E-13 4.66608E-14
 -1       920 2.02358E+01-1.50316E-01 1.01876E-05-4.18454E-01 8.39807E-14 1.89801E-13
 -1       921 2.04094E+01-2.08598E+00 5.68996E-03 3.71219E+00-2.43803E-13-5.28568E-14
 -1       922 2.02697E+01 1.29414E+00 4.78392E-04-2.56779E-01 9.50057E-14 5.63161E-14
 -1       923 2.02304E+01 1.49431E+00 1.55577E-05 5.26922E-02 9.92429E-14 2.82444E-14
 -1       924 2.02495E+01 1.41649E+00 7.77029E-05 1.63642E-01 9.74503E-14 5.14638E-14
 -1       925 1.54285E+01 7.85248E-01 1.01398E-02-3.04331E+00-5.63568E-14 9.61150E-14
 -1       926 2.02653E+01 1.33033E+00 3.10967E-04 3.01251E-01 7.62490E-14 5.79628E-14
 -1       927 1.78338E+01 1.26058E+00 5.62390E-04 6.03453E-01-4.07069E-14 4.41815E-13
 -1       928 2.02548E+01 4.98430E-01-8.44141E-05 9.44494E-02 1.54058E-14 3.64095E-14
 -1       929 2.01660E+01 3.96925E-01 1.02560E-05 1.53546E-01 2.34053E-14 5.73204E-14
 -1       930 2.00394E+01 3.70090E-01 1.55634E-05 1.82330E-01-2.65195E-14 6.64387E-14
 -1       931 1.98804E+01 4.02006E-01-1.78760E-05 1.80836E-01 7.34540E-15 8.79807E-14
 -1       932 1.96626E+01 4.86545E-01-8.03771E-06 1.42067E-01-5.27519E-14 7.17768E-14
 -1       933 1.93762E+01 6.13416E-01-5.17699E-05 4.96114E-02-3.19475E-14 4.32526E-14
 -1       934 1.89986E+01 7.69493E-01-5.89135E-05-1.22880E-01-4.42329E-14 3.11617E-15
 -1       935 1.85014E+01 9.30754E-01-2.56427E-04-4.16061E-01-8.03204E-14-4.97653E-14
 -1       936 1.78588E+01 1.04927E+00-5.49463E-04-8.89762E-01 3.03768E-14-3.31880E-14
 -1       937 1.70412E+01 1.05947E+00 1.14659E-03-1.64276E+00 1.24963E-14-5.19224E-14
 -1       938 1.99810E+01 6.02348E-02-8.53699E-06 3.44150E-02 1.44535E-13-1.87237E-13
 -1       939 2.02280E+01 1.50086E+00 2.45801E-05-6.15650E-02 1.38617E-13 7.49059E-14
 -1       940 1.89296E+01 8.84492E-01-7.44130E-05 5.63304E-02-2.91414E-14 3.44424E-13
 -1       941 1.92682E+01 7.01432E-01-3.14664E-05-5.36000E-02 1.24592E-13 2.11380E-13
 -1       942 1.95053E+01 5.45806E-01-2.81346E-05-1.02769E-01 2.88589E-13 1.64781E-13
 -1       943 1.96694E+01 4.19303E-01-2.26433E-05-1.16708E-01 1.11476E-13-7.93355E-14
 -1       944 1.97818E+01 3.18980E-01-2.11140E-05-1.11733E-01-8.03003E-14-1.91584E-14
 -1       945 1.98580E+01 2.41124E-01-1.57848E-05-9.79503E-02-3.45671E-14-1.41747E-13
 -1       946 1.99071E+01 1.83803E-01-6.00035E-06-8.18338E-02-8.90509E-14 3.14406E-14
 -1       947 1.99419E+01 1.37314E-01-8.37184E-06-6.48767E-02 2.70060E-14 2.17481E-13
 -1       948 1.99648E+01 1.01948E-01-4.34178E-06-4.96484E-02 1.90548E-14 3.00791E-13
 -1       949 1.99796E+01 7.51774E-02-8.70323E-08-3.67646E-02-1.44062E-13 4.88215E-13
 -1       950 1.99842E+01 6.35421E-02 1.31679E-05-2.89905E-02-7.09649E-14 4.51686E-13
 -1       951 2.02543E+01 2.39488E-01 7.29373E-05-2.07825E-01 2.33238E-14 1.15936E-13
 -1       952 1.69309E+01 2.09455E-01 7.80216E-03 3.21032E+00-3.70960E-13 3.81471E-13
 -1       953 2.19444E+01-1.52133E+00-1.69432E-03-3.17314E-01-1.39135E-13 2.75599E-13
 -1       954 2.13294E+01-1.20062E+00-1.69418E-04-5.50224E-01-4.53590E-14 3.63283E-13
 -1       955 2.32603E+01-1.37747E+00-1.31420E-04 7.52697E-01-1.17220E-13 2.12298E-13
 -1       956 2.33037E+01 2.80753E+00-2.69513E-02 1.49609E+00-3.98297E-14 6.73639E-14
 -1       957 2.37013E+01 2.12581E-01-1.00011E-02-1.69788E+00-1.23550E-13-3.11334E-13
 -1       958 2.35229E+01-1.00791E+00-3.18506E-03-1.15376E+00 1.47756E-13-2.10096E-13
 -1       959 2.29573E+01-1.54082E+00 1.13600E-04-4.49931E-01 8.44082E-14-1.19896E-13
 -1       960 2.22454E+01-1.55103E+00-1.99983E-05 8.66529E-02 1.31473E-14-1.21318E-14
 -1       961 2.15620E+01-1.29076E+00 2.75061E-04 4.08907E-01 2.15110E-15 1.53014E-13
 -1       962 2.09987E+01-9.39740E-01 2.59450E-04 5.44180E-01 7.24954E-14 1.06792E-13
 -1       963 2.05827E+01-6.10500E-01-3.69085E-05 5.56431E-01-6.89080E-14 2.22392E-13
 -1       964 2.02985E+01-3.43711E-01 6.65189E-06 5.07314E-01 8.63271E-14 3.28827E-13
 -1       965 2.01185E+01-1.49388E-01-4.82382E-05 4.31243E-01-4.80802E-15 2.74696E-13
 -1       966 2.00140E+01-2.00883E-02-1.10757E-05 3.50762E-01 1.21496E-13 8.83935E-14
 -1       967 1.99602E+01 5.77092E-02 7.53235E-06 2.76631E-01-7.75926E-14 3.93521E-14
 -1       968 1.99384E+01 9.77834E-02-2.04369E-06 2.13470E-01-1.53140E-13 2.31187E-13
 -1       969 1.99351E+01 1.12874E-01-2.55757E-06 1.61862E-01-7.56628E-14 4.51170E-13
 -1       970 1.99415E+01 1.12052E-01-1.78974E-06 1.20835E-01 1.92849E-13 4.23165E-13
 -1       971 1.99520E+01 1.02285E-01 2.03700E-06 8.89176E-02 1.05999E-13 2.51413E-14
 -1       972 1.99632E+01 8.83638E-02 2.61086E-06 6.46251E-02 2.21247E-13-1.81404E-13
 -1       973 1.99731E+01 7.39971E-02 2.70281E-05 4.76322E-02 4.29997E-13-1.30282E-13
 -1       974 2.03121E+01 8.93578E-01-2.82868E-04-9.45311E-02 3.29095E-14 5.71598E-14
 -1       975 2.03338E+01-3.39351E-01-5.03601E-05-5.65324E-01 4.57206E-14 1.37269E-13
 -1       976 1.69532E+01 1.38587E+00 4.55751E-03 1.17980E+00-1.93302E-14 4.23425E-13
 -1       977 1.84675E+01 1.07843E+00-1.03069E-05 2.57400E-01 8.82391E-15 4.45028E-13
 -1       978 2.02446E+01 1.43260E+00 8.14817E-05-1.70443E-01 1.20783E-13 8.34195E-14
 -1       979 1.96291E+01-1.55543E+00 1.15484E-02-3.65981E+00-7.45419E-14 2.22181E-14
 -1       980 2.29779E+01 3.83796E+00-2.49264E-02 2.12218E-02 1.93438E-13 7.41551E-15
 -1       981 2.02988E+01 6.58378E-01 2.65754E-05 1.80746E-02 2.15714E-14 2.80760E-14
 -1       982 2.42175E+01 1.23288E+00-1.71995E-02-1.98250E+00-4.72023E-14-1.82828E-13
 -1       983 2.26632E+01-2.66737E+00 4.63870E-03-2.17724E+00-1.04949E-13 1.30318E-13
 -1       984 2.41432E+01-2.36712E+00-9.47503E-03-1.78603E-01-5.08207E-14 8.94018E-14
 -1       985 2.44423E+01-1.36205E+00-7.36375E-03-9.96512E-01-4.67788E-14-4.49327E-13
 -1       986 1.58455E+01 1.30165E+00 7.04191E-03 2.11665E+00-3.26697E-13 3.68861E-13
 -1       987 2.26428E+01-1.65288E+00 2.63226E-04 1.19188E-01-1.50928E-13 3.28846E-13
 -1       988 2.21167E+01-2.42044E+00 1.34857E-03 2.40595E+00-1.57210E-13-1.90184E-13
 -1       989 1.99670E+01 7.94928E-02 1.20084E-05-1.17192E-02 5.04264E-13 3.98020E-13
 -1       990 2.03010E+01 1.11409E+00 6.34186E-05-1.17324E-02 8.78001E-14 4.12908E-15
 -1       991 1.88627E+01-7.59965E-01-1.78810E-03 3.18332E+00-2.49952E-13 9.08982E-14
 -1       992 2.03256E+01 8.85718E-01 6.23755E-04 9.31183E-02 7.03322E-14 4.36001E-14
 -1       993 2.08580E+01-8.60576E-01 1.16760E-04-6.29003E-01-4.69554E-14 2.91838E-13
 -1       994 2.36793E+01 1.03740E+00-8.72390E-03 1.83049E+00-1.24323E-13 6.56881E-14
 -1       995 1.99687E+01 7.34503E-02 7.19466E-05 1.73253E-02 5.13744E-13-2.13119E-13
 -1       996 1.99747E+01 7.27152E-02 1.99117E-06-2.17842E-02 1.87263E-13 3.08966E-13
 -1       997 2.05339E+01-5.66616E-01-1.37126E-05-6.20219E-01-1.36025E-13 2.20290E-13
 -1       998 2.02276E+01-1.73247E-01 3.56030E-05-4.96713E-01 3.90999E-14 1.52653E-13
 -1       999 2.01954E+01 4.07728E-02 1.31494E-05-3.57812E-01 3.27689E-14 4.93228E-14
 -1      1000 2.03308E+01 5.78137E-01-4.10465E-04-4.01174E-02 3.93891E-14 6.05431E-14
 -1      1001 2.02272E+01 1.33138E-01 1.68980E-05-2.89902E-01 2.42726E-14 9.92708E-14
 -1      1002 2.03122E+01 1.07019E+00-2.21331E-05 4.62325E-02 7.68604E-14 3.77484E-14
 -1      1003 2.40687E+01-2.06176E+00 2.68079E-03-9.95483E-02-4.93570E-14-4.26261E-13
 -1      1004 2.01361E+01 3.85325E-01-3.16256E-05 6.31130E-02-1.18424E-14 1.52240E-13
 -1      1005 2.00037E+01 3.62241E-01-2.35198E-05 4.46052E-02-1.31372E-14 1.63445E-13
 -1      1006 1.98282E+01 3.84716E-01-7.20431E-06-1.37257E-02-3.65918E-14 9.91371E-14
 -1      1007 1.96109E+01 4.41015E-01 7.98328E-06-1.25181E-01-4.07198E-14 1.53121E-13
 -1      1008 1.93484E+01 5.10177E-01 1.57658E-04-3.14191E-01-7.20013E-14 1.48105E-13
 -1      1009 1.90407E+01 5.60425E-01 2.20111E-04-6.13543E-01-5.58291E-14 1.37600E-13
 -1      1010 1.86924E+01 5.52621E-01 9.87035E-04-1.06611E+00-2.45331E-14 1.08897E-13
 -1      1011 1.83140E+01 4.10467E-01-1.99413E-05-1.73957E+00-1.64602E-14 1.07905E-13
 -1      1012 1.91638E+01 6.58035E-01 1.19256E-04 2.56247E-01-5.14393E-15 1.38984E-13
 -1      1013 2.03001E+01 1.09236E+00-3.65067E-04-6.31403E-02 7.90827E-14 1.28585E-13
 -1      1014 2.28367E+01-2.13921E+00 7.45953E-03-7.98212E-01-1.21497E-13 1.43872E-13
 -1      1015 1.93962E+01 5.49790E-01-1.11096E-05 1.08124E-01 2.84287E-14-4.27330E-14
 -1      1016 1.95711E+01 4.46433E-01-7.30842E-05 2.42817E-02 2.39027E-14-3.81960E-13
 -1      1017 1.96997E+01 3.55378E-01-2.23630E-05-1.88844E-02 1.96253E-14-2.64781E-13
 -1      1018 1.97922E+01 2.79018E-01-5.36174E-05-3.79853E-02-1.63022E-13-1.31453E-13
 -1      1019 1.98558E+01 2.19258E-01-3.68526E-05-4.28214E-02 1.13720E-13-4.46497E-14
 -1      1020 1.99037E+01 1.68231E-01-2.95305E-05-4.05785E-02 1.77688E-13-4.98854E-14
 -1      1021 1.99370E+01 1.27971E-01 1.03446E-05-3.48081E-02-8.85929E-14 9.26621E-14
 -1      1022 2.15299E+01-1.49678E+00-2.31231E-04-1.05920E+00-1.55897E-14 2.21390E-13
 -1      1023 1.99542E+01 9.24540E-02-1.23428E-05 2.61750E-02 3.18958E-13-3.58221E-14
 -1      1024 1.99646E+01 7.85257E-02-4.12223E-05 6.83754E-03 5.00534E-13 2.06694E-13
 -1      1025 2.18659E+01-1.66697E+00 1.01559E-03 9.83124E-01-1.43297E-13-2.04214E-13
 -1      1026 2.10826E+01-1.16346E+00-3.02458E-03 1.02730E+00-2.67163E-14-1.47864E-13
 -1      1027 2.05590E+01-7.14341E-01 6.31914E-04 9.27482E-01 5.26426E-14-8.87160E-14
 -1      1028 2.02151E+01-3.75893E-01-4.42171E-05 7.79087E-01-6.08682E-14-3.03312E-13
 -1      1029 2.00142E+01-1.35222E-01-8.33321E-05 6.14093E-01-2.63448E-15-2.21553E-13
 -1      1030 1.99112E+01 1.62613E-02 5.85794E-05 4.67303E-01 9.26329E-14-1.27523E-13
 -1      1031 1.98679E+01 1.03734E-01 1.04544E-04 3.46533E-01-7.41077E-14-5.17390E-15
 -1      1032 1.98605E+01 1.44748E-01-8.62223E-06 2.51594E-01-3.02717E-13 1.60011E-13
 -1      1033 1.98717E+01 1.57215E-01-1.65667E-05 1.80666E-01-1.54822E-13 2.16642E-13
 -1      1034 1.98918E+01 1.51403E-01-1.42182E-05 1.27941E-01 7.35966E-14 1.57202E-13
 -1      1035 1.99141E+01 1.35896E-01 1.62775E-06 8.98893E-02 3.22328E-13 1.69818E-13
 -1      1036 1.99342E+01 1.16839E-01-1.61140E-05 6.26861E-02 3.60670E-13-2.81912E-13
 -1      1037 2.29842E+01-2.23094E+00 1.73189E-03 8.95595E-01-8.83617E-14-2.96353E-13
 -1      1038 1.85477E+01-3.11083E-01-5.10335E-03-2.73021E+00-4.75399E-14 1.06385E-13
 -1      1039 1.80465E+01 7.77950E-01 1.95034E-03 1.44809E+00-5.30825E-14 1.37874E-13
 -1      1040 2.01896E+01-5.39668E-02 2.77314E-05-4.25945E-01 3.07277E-14 4.00100E-14
 -1      1041 1.73840E+01 5.50432E-01 4.69201E-03 2.41023E+00-2.77895E-13 3.66664E-13
 -1      1042 2.02393E+01 4.74082E-01-1.19581E-04 5.15630E-02 3.61826E-14 1.59473E-13
 -1      1043 2.09778E+01-1.69762E+00-2.66893E-03-2.37082E+00-4.24797E-14 6.66711E-14
 -1      1044 2.03223E+01 8.14944E-01 2.72582E-04-2.39776E-02 4.06985E-14 7.64304E-14
 -1      1045 2.03307E+01 7.96968E-01-4.70360E-04-2.08350E-02 5.55228E-14 1.65704E-14
 -1      1046 1.84910E+01 8.07490E-01-1.06799E-04 8.79441E-01-7.66067E-14-4.09611E-14
 -1      1047 1.88686E+01 7.55030E-01 1.77999E-04 4.95095E-01 2.11049E-13 7.36389E-14
 -1      1048 2.02943E+01 6.19859E-01-1.88105E-04 2.06235E-02 3.07846E-14 1.55954E-13
 -1      1049 2.05386E+01-1.45580E+00 2.09609E-03 2.56403E+00-6.71091E-14 4.09718E-14
 -1      1050 2.03031E+01 3.69217E-01-1.68874E-04-1.46528E-01-1.15629E-14 6.24981E-14
 -1      1051 1.99600E+01 9.61394E-02 1.80984E-05-2.80319E-02-1.04964E-13-3.58616E-14
 -1      1052 2.09055E+01-1.02492E+00 2.24308E-03-1.03760E+00-1.22893E-13 2.49128E-13
 -1      1053 1.99441E+01 1.05390E-01 1.30404E-05 4.18484E-02 1.86409E-13-9.43839E-14
 -1      1054 2.03143E+01 7.60203E-01 5.87103E-04-1.27024E-02 2.99234E-14 1.56166E-13
 -1      1055 2.02656E+01 2.34585E-01-3.47892E-05-2.23272E-01 2.22480E-15 8.73217E-14
 -1      1056 2.01405E+01-1.56890E-01 6.80004E-05-6.07547E-01-1.46829E-14 1.03484E-13
 -1      1057 1.99473E+01 1.05241E-01 1.22380E-05-7.95686E-03 1.12999E-14 2.17587E-13
 -1      1058 2.01363E+01 6.60495E-02-3.28505E-05-3.72622E-01 2.48668E-14 4.50304E-14
 -1      1059 2.01862E+01 1.49758E-01-1.08356E-04-2.85815E-01 1.46606E-14-7.71172E-15
 -1      1060 2.02572E+01-3.55772E-01-4.14014E-04-7.52763E-01-1.76688E-13 1.91524E-13
 -1      1061 2.01184E+01 3.36697E-01 4.46623E-06-5.65433E-02-2.23325E-14 4.63038E-14
 -1      1062 1.99833E+01 3.06370E-01-9.79467E-05-1.20092E-01-7.11538E-14 9.57669E-14
 -1      1063 1.98327E+01 2.98188E-01-1.97845E-04-2.32913E-01-3.82682E-14 1.57821E-13
 -1      1064 1.96574E+01 3.04648E-01 3.72933E-04-4.07888E-01-3.26477E-14 1.38808E-13
 -1      1065 1.94905E+01 2.69704E-01-1.54835E-03-6.57899E-01-9.03490E-14 1.16201E-13
 -1      1066 1.93569E+01 1.75148E-01 1.23176E-03-1.02784E+00-6.64548E-14 7.22939E-14
 -1      1067 1.92771E+01-4.80230E-02 4.04396E-04-1.53604E+00-8.81558E-14 7.99689E-14
 -1      1068 2.02227E+01 4.19792E-01 1.45498E-04-2.34158E-02 1.86208E-14 8.35765E-14
 -1      1069 1.95432E+01 4.10859E-01 1.00716E-04 1.94736E-01-1.33053E-13 6.55041E-14
 -1      1070 1.96620E+01 3.47776E-01 4.90063E-05 1.01373E-01-1.62454E-13-2.77969E-13
 -1      1071 1.97496E+01 2.90641E-01-7.61272E-05 4.62957E-02-6.79198E-14-3.96885E-13
 -1      1072 1.98176E+01 2.37889E-01-1.21460E-05 1.57219E-02 1.59168E-13-2.91242E-13
 -1      1073 1.98718E+01 1.89354E-01 1.35960E-05-1.45320E-03 1.76340E-13-6.43395E-14
 -1      1074 1.99123E+01 1.47900E-01 3.78279E-05-9.15216E-03 1.73792E-13-1.15717E-13
 -1      1075 2.14509E+01-1.71260E+00-3.60887E-03 1.77100E+00-1.25312E-13-3.47040E-13
 -1      1076 1.98500E+01-7.10165E-01 2.43506E-03-2.02389E+00-8.22463E-14-3.18024E-14
 -1      1077 1.93998E+01 4.59726E-01-1.37978E-04 3.48463E-01-1.02928E-13 1.40712E-13
 -1      1078 1.88785E+01-1.66068E-01-1.35673E-03 2.26229E+00-1.20921E-13 3.01138E-13
 -1      1079 2.04955E+01-6.43141E-01-1.81594E-04-9.07442E-01-1.01390E-13 2.64759E-13
 -1      1080 1.99754E+01-3.28338E-01 8.23743E-04 1.12702E+00-2.08812E-14-1.30679E-13
 -1      1081 2.06445E+01-1.03480E+00 6.74950E-04 1.56375E+00-1.02073E-13-2.90441E-13
 -1      1082 1.97980E+01-5.48807E-02 1.76398E-04 8.43741E-01 6.02884E-14-2.41519E-13
 -1      1083 1.97279E+01 1.03264E-01-3.60963E-04 6.08192E-01 9.34819E-14-4.03342E-13
 -1      1084 1.97202E+01 1.90353E-01 3.09605E-04 4.21775E-01-1.79168E-13-4.83903E-13
 -1      1085 1.97533E+01 2.18560E-01 6.49180E-04 2.84266E-01-2.26412E-13-2.60298E-13
 -1      1086 1.97866E+01 2.20464E-01-5.30721E-05 1.92718E-01-3.88019E-13-2.04893E-13
 -1      1087 1.98288E+01 2.02970E-01-2.89322E-05 1.27079E-01 1.11285E-14-1.01639E-13
 -1      1088 1.98678E+01 1.77442E-01-2.42503E-05 8.29304E-02 8.89195E-14-2.13266E-13
 -1      1089 1.99013E+01 1.49550E-01 2.35030E-05 5.32012E-02 4.55396E-13 5.56045E-14
 -1      1090 2.03347E+01 5.75500E-01 3.61325E-04-6.45937E-02 3.05684E-14 9.08029E-15
 -1      1091 1.99273E+01 1.24351E-01-1.06513E-04 1.84839E-02 1.19067E-13 1.69867E-13
 -1      1092 2.01139E+01-2.76208E-02 1.36664E-04-4.77636E-01 5.68456E-15-9.12085E-15
 -1      1093 2.03109E+01 5.94485E-01-1.70991E-04-3.93432E-02 3.61901E-14 5.46719E-14
 -1      1094 1.89099E+01 3.10721E-01-1.73735E-04 1.38779E+00-2.80519E-14 2.82391E-14
 -1      1095 2.00102E+01 1.27207E-01-3.27625E-04-3.81576E-01 2.54608E-14 4.36199E-14
 -1      1096 2.05895E+01-1.05777E+00-1.44494E-03-1.67389E+00-4.01458E-14-2.77448E-14
 -1      1097 1.92366E+01 4.84832E-01 6.84087E-04 5.73039E-01 1.49804E-13 4.40370E-14
 -1      1098 2.02402E+01 2.38401E-01-1.10387E-04-2.16640E-01-1.15682E-14-6.94940E-14
 -1      1099 2.00964E+01 1.87148E-01 8.96052E-05-2.69020E-01-5.07416E-15 3.00335E-14
 -1      1100 1.99490E+01-7.82380E-02 5.03745E-04-7.45254E-01-1.43107E-13 1.02300E-13
 -1      1101 1.99566E+01 4.47365E-02 2.03706E-04-5.37530E-01-1.06559E-13 4.29391E-14
 -1      1102 1.90819E+01 4.40666E-01 4.68329E-04 8.98198E-01 1.68988E-13 1.52996E-13
 -1      1103 1.99090E+01 1.55270E-01 1.85604E-04-4.19806E-01-1.52625E-14 1.22332E-13
 -1      1104 1.99016E+01-3.10568E-01-8.32907E-04-1.21588E+00-6.50874E-14-1.94578E-14
 -1      1105 1.96764E+01 2.94298E-01-9.71761E-04 2.20847E-01-3.31282E-13-1.52648E-13
 -1      1106 2.01519E+01-8.36064E-01-5.38680E-03 1.89198E+00-8.02034E-14-3.12488E-14
 -1      1107 1.94074E+01 1.30565E-01-2.04013E-03 1.05881E+00 1.60797E-13 6.87695E-14
 -1      1108 2.01666E+01-6.45277E-01-2.31901E-03-1.46344E+00-1.13497E-13-5.78280E-14
 -1      1109 2.02706E+01 4.01133E-01 5.35198E-05-1.00674E-01 1.56276E-14 1.14154E-14
 -1      1110 2.02886E+01 3.60911E-01 3.80820E-04-1.51144E-01 2.07068E-14-5.89126E-14
 -1      1111 1.97088E+01-2.70782E-01 4.19134E-03 1.44202E+00-1.45007E-13-2.14912E-14
 -1      1112 2.01917E+01 2.83681E-01 1.66392E-04-1.64980E-01-2.39415E-14 1.62452E-14
 -1      1113 2.78838E+01 9.06116E+00 2.31987E+00-6.70175E+00-1.56541E-14-4.54248E-13
 -1      1114 2.05286E+01 6.22104E+00 2.08186E-01-3.88614E+00-2.22045E-15-4.08305E-13
 -1      1115 1.94362E+01 5.85358E+00 7.57116E-02-2.87495E+00 2.87270E-15-3.04838E-13
 -1      1116 1.90349E+01 5.72873E+00 6.08606E-02-2.22148E+00 4.07660E-15-2.24676E-13
 -1      1117 1.88520E+01 5.67302E+00 5.80638E-02-1.68735E+00 4.46171E-15-1.58226E-13
 -1      1118 1.87581E+01 5.64408E+00 5.54665E-02-1.22139E+00 4.45824E-15-9.86095E-14
 -1      1119 1.87081E+01 5.62844E+00 5.33717E-02-7.94634E-01 4.35069E-15-3.37317E-14
 -1      1120 1.86826E+01 5.62037E+00 5.19090E-02-3.87540E-01 4.39904E-15 1.95260E-14
 -1      1121 1.86747E+01 5.61785E+00 5.14224E-02 8.62617E-03 4.29539E-15 7.36989E-14
 -1      1122 1.86823E+01 5.62028E+00 5.19796E-02 4.05145E-01 6.72075E-15 1.25369E-13
 -1      1123 1.87076E+01 5.62835E+00 5.35352E-02 8.13400E-01 5.07710E-15 1.80754E-13
 -1      1124 1.87586E+01 5.64438E+00 5.59987E-02 1.24243E+00 4.38712E-15 2.60254E-13
 -1      1125 1.88534E+01 5.67361E+00 5.85688E-02 1.71231E+00 4.80171E-15 3.48412E-13
 -1      1126 1.90382E+01 5.72980E+00 6.11236E-02 2.25316E+00 4.37497E-15 4.43549E-13
 -1      1127 1.94322E+01 5.85074E+00 7.02184E-02 2.91483E+00 3.16414E-15 5.56263E-13
 -1      1128 2.04429E+01 6.17899E+00 1.53673E-01 3.86661E+00-3.44169E-15 6.64892E-13
 -1      1129 2.51822E+01 7.98272E+00 1.42672E+00 5.83431E+00-2.77001E-14 6.69714E-13
 -1      1130 2.90608E+01 3.73708E+00 1.36364E+00-4.35951E+00-3.67206E-14-5.13478E-13
 -1      1131 2.03589E+01-1.70694E-01-6.23860E-01-1.48252E-01-8.49321E-15-5.75595E-13
 -1      1132 1.88440E+01-9.83155E-02-2.49952E-01 6.27148E-02-5.61530E-15-6.15379E-13
 -1      1133 1.84982E+01-5.01507E-02-6.44278E-02 4.11115E-02 3.63425E-16-6.63629E-13
 -1      1134 1.84471E+01-2.62178E-02-1.71814E-02 2.69569E-02 1.01854E-14-6.48953E-13
 -1      1135 1.85438E+01-1.43962E-02-6.50285E-03 1.90122E-02-1.54746E-14-6.42948E-13
 -1      1136 1.87128E+01-9.17936E-03-3.62103E-03 1.41503E-02-7.95089E-15-6.59611E-13
 -1      1137 1.89223E+01-5.88591E-03-2.59046E-03 1.06906E-02-6.46976E-15-6.32595E-13
 -1      1138 1.91633E+01-4.73907E-03-2.62288E-03 8.16706E-03-7.14440E-15-6.80261E-13
 -1      1139 1.94278E+01-5.17025E-03-4.02423E-03 6.46281E-03-2.87205E-15-6.69840E-13
 -1      1140 1.97245E+01-7.07001E-03-7.05448E-03 5.53522E-03-3.48766E-15-6.82421E-13
 -1      1141 2.00743E+01-1.06075E-02-1.22455E-02 5.59946E-03 1.39203E-14-5.89379E-13
 -1      1142 2.05137E+01-1.57563E-02-2.04014E-02 7.28990E-03 5.66539E-15-4.64099E-13
 -1      1143 2.10820E+01-2.43502E-02-3.29352E-02 1.16902E-02-1.14947E-14-5.14656E-13
 -1      1144 2.18723E+01-3.50381E-02-5.17354E-02 1.93731E-02 8.74821E-15-5.38462E-13
 -1      1145 2.30342E+01-4.91220E-02-7.83435E-02 3.54726E-02 1.39316E-14-5.02612E-13
 -1      1146 2.47239E+01-6.38229E-02-1.09298E-01 6.42981E-02 1.05341E-14-4.83821E-13
 -1      1147 2.71426E+01-7.11319E-02-1.25900E-01 1.10809E-01 2.00924E-14-2.97720E-13
 -1      1148 3.04204E+01-5.08135E-02-7.62823E-02 1.71370E-01 4.61176E-15-7.44127E-14
 -1      1149 3.43109E+01 3.11196E-02 1.28581E-01 2.03211E-01 1.23942E-14-1.10162E-13
 -1      1150 3.75148E+01 1.99028E-01 5.11286E-01 8.77015E-02 3.62974E-14-1.06928E-14
 -1      1151 3.73954E+01 3.58234E-01 7.66386E-01-3.39946E-01 6.08194E-15 5.29576E-14
 -1      1152 3.13974E+01 3.00953E-01 2.10805E-01-9.61749E-01-5.11761E-14-1.85740E-13
 -1      1153 2.17151E+01-1.96611E-01-1.21805E+00-1.02499E+00 1.13798E-15-3.87135E-13
 -1      1154 1.57873E+01-7.39938E-01-2.27243E+00-1.32582E-01-1.43774E-14-6.53269E-13
 -1      1155 1.91058E+01-4.92950E-01-1.68478E+00 8.47709E-01-1.54043E-15-1.04133E-12
 -1      1156 2.85753E+01 8.35970E-02-1.79379E-01 9.11224E-01 2.75890E-14-1.64335E-12
 -1      1157 3.61017E+01 3.24379E-01 6.84594E-01 4.56363E-01-2.29365E-14-2.11747E-12
 -1      1158 3.80110E+01 1.81485E-01 6.06095E-01 4.13718E-02 3.61395E-14-1.55009E-12
 -1      1159 3.54829E+01 3.31089E-02 2.14916E-01-1.36571E-01 1.54139E-14-1.13569E-12
 -1      1160 3.17059E+01-3.13860E-02-3.26828E-02-1.46162E-01-6.07088E-14-1.40551E-12
 -1      1161 2.82828E+01-5.30480E-02-1.11758E-01-1.09499E-01-7.44196E-16-1.03606E-12
 -1      1162 2.56013E+01-4.94418E-02-1.09291E-01-6.85787E-02 2.09143E-14-5.64479E-13
 -1      1163 2.37222E+01-3.88073E-02-8.18061E-02-4.01716E-02-2.18107E-14-7.40540E-13
 -1      1164 2.24532E+01-2.82637E-02-5.54481E-02-2.26714E-02 6.11139E-14-8.80782E-13
 -1      1165 2.16100E+01-1.98250E-02-3.61641E-02-1.25097E-02-1.65087E-14-7.14722E-13
 -1      1166 2.10529E+01-1.34581E-02-2.32207E-02-6.75014E-03-3.34440E-14-4.13798E-13
 -1      1167 2.06914E+01-1.00627E-02-1.55171E-02-3.06625E-03 6.25086E-15-2.52966E-13
 -1      1168 2.04509E+01-6.51183E-03-1.00477E-02-1.91807E-03-2.78369E-15-1.81676E-13
 -1      1169 2.02859E+01-4.46671E-03-6.59219E-03-9.08477E-04-8.90436E-14-4.26620E-13
 -1      1170 2.01766E+01-3.07458E-03-4.37174E-03-3.65182E-04-8.07209E-14-6.25259E-13
 -1      1171 2.01045E+01-2.12665E-03-2.92893E-03-7.30473E-05 4.92220E-15-3.46701E-13
 -1      1172 2.00575E+01-1.47639E-03-1.97830E-03 8.06592E-05 2.76198E-14 2.09942E-13
 -1      1173 2.00275E+01-1.00692E-03-1.33675E-03 1.57372E-04-3.44743E-14 6.36416E-13
 -1      1174 2.00094E+01-7.68971E-04-9.44809E-04 2.26151E-04-4.06230E-14 9.53064E-13
 -1      1175 1.99990E+01-5.14627E-04-6.53340E-04 2.06691E-04-1.14664E-14 4.41031E-13
 -1      1176 1.99939E+01-3.58059E-04-4.57982E-04 2.14807E-04 6.16325E-14 1.18768E-13
 -1      1177 1.99926E+01-2.42653E-04-3.16957E-04 2.27966E-04-1.87093E-14 3.32663E-13
 -1      1178 1.99940E+01-1.40557E-04-1.61310E-04 2.53732E-04-5.14986E-14 1.00542E-13
 -1      1179 1.99970E+01-1.17508E-06 1.19280E-04 2.72755E-04 1.16800E-14 4.79611E-13
 -1      1180 1.99995E+01 8.77129E-05 4.45381E-04 3.05109E-05-1.20438E-13 7.40592E-13
 -1      1181 2.77428E+01 5.24596E-01 3.73344E-01 1.96321E+00-1.17892E-14 6.10179E-13
 -1      1182 2.00599E+01-6.67816E-02-5.73334E-01 1.29204E-01-1.27190E-14 8.10046E-13
 -1      1183 1.88947E+01-4.22153E-02-1.93174E-01 1.93895E-02-1.36063E-14 9.54915E-13
 -1      1184 1.85290E+01-2.30564E-02-5.08158E-02 1.41396E-03-3.42825E-15 1.04328E-12
 -1      1185 1.84744E+01-1.42828E-02-1.44334E-02-4.05387E-03-8.39715E-15 1.09121E-12
 -1      1186 1.85713E+01-8.62238E-03-5.90569E-03-5.27570E-03-2.86923E-15 1.11449E-12
 -1      1187 1.87439E+01-5.27336E-03-3.24294E-03-5.44320E-03-9.00799E-15 1.22410E-12
 -1      1188 1.89524E+01-3.14480E-03-1.72749E-03-5.27004E-03-3.96916E-15 1.30579E-12
 -1      1189 1.91746E+01-1.67751E-03-6.01587E-04-5.04993E-03-9.97911E-15 1.25602E-12
 -1      1190 1.93970E+01-4.98916E-04 3.70431E-04-4.93605E-03 6.11890E-16 1.31432E-12
 -1      1191 1.96105E+01 6.81904E-04 1.45364E-03-5.03586E-03 7.86937E-15 1.32249E-12
 -1      1192 1.98062E+01 2.10972E-03 2.96903E-03-5.40991E-03 8.26327E-15 1.17414E-12
 -1      1193 1.99730E+01 3.97545E-03 5.23866E-03-6.04510E-03 1.64092E-14 9.37432E-13
 -1      1194 2.00952E+01 6.37100E-03 8.50280E-03-6.81164E-03 1.42551E-15 8.64216E-13
 -1      1195 2.01506E+01 9.20912E-03 1.27886E-02-7.41319E-03-9.25193E-15 8.75423E-13
 -1      1196 2.01104E+01 1.21240E-02 1.77264E-02-7.35465E-03 2.87888E-14 7.77570E-13
 -1      1197 1.99426E+01 1.43993E-02 2.23613E-02-5.97384E-03-1.87704E-14 7.67744E-13
 -1      1198 1.96180E+01 1.50044E-02 2.50849E-02-2.59479E-03-7.45844E-15 8.44677E-13
 -1      1199 1.91221E+01 1.28349E-02 2.38637E-02 3.16135E-03-2.73267E-14 8.23074E-13
 -1      1200 1.84689E+01 7.19514E-03 1.69199E-02 1.09574E-02-2.29127E-14 8.91447E-13
 -1      1201 1.77130E+01-1.59754E-03 3.80309E-03 1.94076E-02-2.31973E-14 9.24774E-13
 -1      1202 1.69529E+01-1.18332E-02-1.36071E-02 2.61565E-02 2.36773E-14 8.83269E-13
 -1      1203 1.63166E+01-2.07176E-02-3.10004E-02 2.86127E-02 4.22470E-15 7.60593E-13
 -1      1204 1.59303E+01-2.54640E-02-4.30108E-02 2.51661E-02-3.38371E-14 7.47531E-13
 -1      1205 1.58781E+01-2.46411E-02-4.56443E-02 1.61859E-02 2.07039E-15 7.15866E-13
 -1      1206 1.61724E+01-1.88662E-02-3.82900E-02 4.06519E-03-2.19221E-14 9.76405E-13
 -1      1207 1.67498E+01-1.03885E-02-2.39511E-02-7.81656E-03 3.14440E-14 5.71411E-13
 -1      1208 1.74940E+01-1.90573E-03-7.58950E-03-1.65680E-02-4.84387E-14 5.54959E-13
 -1      1209 1.82752E+01 4.58314E-03 6.22769E-03-2.08143E-02 4.21809E-16 4.58064E-13
 -1      1210 1.89850E+01 8.27723E-03 1.49572E-02-2.08142E-02 2.68406E-14 3.68199E-13
 -1      1211 1.95569E+01 9.39541E-03 1.83257E-02-1.78665E-02-2.81296E-15 6.40182E-13
 -1      1212 1.99669E+01 8.69629E-03 1.75712E-02-1.35296E-02 1.00972E-14 4.55755E-13
 -1      1213 2.02244E+01 7.02984E-03 1.44474E-02-9.07344E-03-2.00023E-14 1.78526E-13
 -1      1214 2.03572E+01 5.07629E-03 1.04984E-02-5.26696E-03-2.40628E-14 1.77345E-13
 -1      1215 2.03997E+01 3.26474E-03 6.75152E-03-2.41848E-03 7.31852E-14-1.33621E-13
 -1      1216 2.03840E+01 1.80144E-03 3.71788E-03-5.23492E-04-4.41255E-14-1.48259E-13
 -1      1217 2.03360E+01 7.37839E-04 1.53425E-03 5.82484E-04 3.28663E-14-1.48629E-13
 -1      1218 2.02747E+01 3.77618E-05 1.24195E-04 1.11278E-03 2.27162E-14-2.88780E-13
 -1      1219 2.02123E+01-3.72436E-04-6.77840E-04 1.26625E-03-5.11040E-14-2.64304E-13
 -1      1220 2.01556E+01-5.72803E-04-1.05025E-03 1.20039E-03-1.08912E-14-7.44548E-14
 -1      1221 2.01080E+01-6.33986E-04-1.14692E-03 1.02667E-03-6.31031E-14-2.07001E-13
 -1      1222 2.00704E+01-6.11437E-04-1.08502E-03 8.16683E-04-7.55753E-14 3.00648E-13
 -1      1223 2.00422E+01-5.45148E-04-9.46179E-04 6.11784E-04-4.74920E-14 4.38601E-13
 -1      1224 2.00222E+01-4.61830E-04-7.83112E-04 4.32334E-04-2.44097E-14 9.80951E-14
 -1      1225 2.00089E+01-3.77741E-04-6.27392E-04 2.84920E-04-6.15368E-15-3.51623E-13
 -1      1226 2.00009E+01-3.00355E-04-4.94709E-04 1.66672E-04 4.60747E-14-9.66497E-13
 -1      1227 1.99971E+01-2.28132E-04-3.83929E-04 6.76902E-05 4.68838E-15-1.40348E-12
 -1      1228 1.99963E+01-1.40307E-04-2.55633E-04-3.55648E-05-4.42393E-14-1.08398E-12
 -1      1229 1.99977E+01 2.42217E-05 1.20854E-05-1.70433E-04 1.16296E-13-1.35836E-12
 -1      1230 1.99995E+01 1.15530E-04 3.73741E-04-1.14335E-04-4.49028E-14-9.96680E-13
 -1      1231 1.99999E+01-3.54718E-04 3.40483E-04-1.31253E-04-1.00324E-12-1.68226E-14
 -1      1232 1.99997E+01-2.07365E-03-4.83592E-05-2.51016E-04-1.56164E-12 8.26523E-14
 -1      1233 1.99996E+01-3.06324E-03-2.57634E-04-1.33423E-04-1.06557E-12 1.46400E-14
 -1      1234 1.99997E+01-2.18553E-03-2.27751E-04-1.75090E-05-5.98195E-13-2.82863E-14
 -1      1235 1.99997E+01 1.90120E-04-1.05181E-04 5.15721E-05-5.98712E-14-3.53456E-14
 -1      1236 1.99998E+01 3.20734E-03 3.58114E-05 7.49672E-05-6.37988E-13-1.03561E-13
 -1      1237 1.99999E+01 5.95240E-03 1.56994E-04 6.03908E-05-6.10876E-13 5.51136E-14
 -1      1238 2.00000E+01 7.64291E-03 2.33728E-04 1.80889E-05-9.06428E-13-1.58475E-13
 -1      1239 2.00000E+01 7.73954E-03 2.49118E-04-3.61051E-05-5.85046E-13-9.91041E-14
 -1      1240 2.00000E+01 6.13788E-03 1.97820E-04-8.49433E-05 1.53748E-13 6.45243E-14
 -1      1241 1.99999E+01 3.17883E-03 8.62652E-05-1.10355E-04 4.35795E-13-1.86050E-13
 -1      1242 1.99998E+01-3.67117E-04-6.29887E-05-9.73296E-05-7.04483E-14-5.33877E-14
 -1      1243 1.99997E+01-3.53986E-03-2.16062E-04-3.65451E-05 6.10581E-15-2.68939E-14
 -1      1244 1.99996E+01-5.34457E-03-3.15067E-04 7.51566E-05 7.63886E-13 1.06199E-13
 -1      1245 1.99996E+01-5.03975E-03-2.67655E-04 2.08454E-04 1.31432E-12 1.53896E-13
 -1      1246 1.99997E+01-2.74585E-03 9.96205E-06 2.70251E-04 1.13417E-12-1.16508E-13
 -1      1247 1.99998E+01-2.95201E-04 4.01899E-04-1.91177E-05-7.39406E-13 1.88013E-13
 -1      1248-1.16020E+00-2.48936E+01-3.69248E+00-2.18323E+00 1.57041E-12 2.55462E-13
 -1      1249-1.57264E+00-1.40610E+01-2.88135E+00-3.54420E+00 1.84697E-12 6.27443E-13
 -1      1250 1.20639E+00-5.17219E-01-1.55242E+00 1.07804E+00 1.00342E-12 4.78950E-13
 -1      1251 1.13078E+01 9.76115E+00 4.15209E-02 1.02733E+01 6.56142E-13 6.16840E-13
 -1      1252 2.89813E+01 1.25151E+01 1.69905E+00 1.82314E+01 3.85136E-13 6.18394E-13
 -1      1253 4.94689E+01 8.87186E+00 3.06453E+00 1.89341E+01 9.00946E-14 1.26565E-13
 -1      1254 6.59230E+01 3.33030E+00 3.92860E+00 1.10499E+01-5.44564E-14-7.77600E-13
 -1      1255 7.04159E+01 1.65493E+00 4.17521E+00-2.59283E+00 1.00475E-14-1.28683E-12
 -1      1256 6.10002E+01 5.19103E+00 3.69404E+00-1.47841E+01 2.63567E-13-1.11722E-12
 -1      1257 4.21445E+01 1.05652E+01 2.60034E+00-1.97829E+01 3.29514E-13-6.85230E-13
 -1      1258 2.16601E+01 1.24986E+01 1.10268E+00-1.58021E+01 3.20188E-13-4.15890E-13
 -1      1259 6.74000E+00 7.22063E+00-4.99800E-01-6.95363E+00 2.10942E-13-2.04059E-13
 -1      1260-3.12549E-01-4.41507E+00-1.99389E+00 9.85285E-01 2.26041E-13-1.46994E-13
 -1      1261-1.55067E+00-1.78720E+01-3.15506E+00 3.75740E+00-1.57430E-13 2.38698E-14
 -1      1262-1.05644E+00-2.69783E+01-3.91042E+00 9.65584E-01-4.87943E-14 7.95648E-14
 -1      1263-1.70995E+00-2.69347E+01-4.06543E+00-4.08568E+00 1.02918E-13-5.75165E-14
 -1      1264-3.05095E+00-1.82777E+01-3.75200E+00-6.29243E+00-2.29150E-13-1.38667E-13
 -1      1265-9.27591E-01-5.07538E+00-2.76310E+00-1.93096E+00-7.86482E-13-5.94302E-13
 -1      1266 9.74204E+00 5.88749E+00-1.14756E+00 7.72152E+00-8.93952E-13-9.74554E-13
 -1      1267 3.09940E+01 1.01194E+01 1.30550E+00 1.70017E+01-7.54063E-13-1.07869E-12
 -1      1268 5.82716E+01 7.87272E+00 4.19461E+00 1.89442E+01-2.75335E-13-6.70353E-13
 -1      1269 8.00335E+01 3.45637E+00 6.47390E+00 1.04649E+01-7.17482E-14-2.84661E-13
 -1      1270 8.36961E+01 2.72618E+00 6.84178E+00-4.63789E+00-5.61703E-14 5.23526E-13
 -1      1271 6.88321E+01 5.95719E+00 5.34602E+00-1.67648E+01-3.76976E-13 1.10378E-12
 -1      1272 4.24821E+01 9.75409E+00 2.52987E+00-1.88932E+01-1.03284E-12 2.10276E-12
 -1      1273 1.80530E+01 8.79169E+00-1.01001E-01-1.23007E+01-1.53033E-12 1.93978E-12
 -1      1274 2.86551E+00 9.57434E-01-2.11147E+00-2.38339E+00-1.35625E-12 1.26188E-12
 -1      1275-2.78729E+00-1.11969E+01-3.30307E+00 4.76940E+00-8.64420E-13 4.93827E-13
 -1      1276-2.62466E+00-2.25508E+01-3.90785E+00 6.19252E+00-4.51195E-13 2.62596E-13
 -1      1277-1.22233E+00-2.81753E+01-4.06510E+00 2.62851E+00 4.99073E-13 2.06793E-13
 -1      1278 2.23052E+01 1.89032E+00-7.16476E-01-2.84538E+00-1.70697E-14-4.95215E-13
 -1      1279 2.03537E+01 4.69354E+00-4.68354E-02-3.29853E+00 1.81938E-14-3.59504E-13
 -1      1280 2.08434E+01 4.84707E+00-9.78737E-02-4.15506E+00 3.66374E-15-4.08548E-13
 -1      1281 1.95364E+01 4.99470E+00-1.91569E-02-2.64095E+00 4.67751E-14-2.72591E-13
 -1      1282 1.98312E+01 5.09129E+00 1.39763E-03-3.03160E+00 3.80945E-14-3.20362E-13
 -1      1283 2.05256E+01 3.95167E+00-2.46582E-02-3.06444E+00 4.74933E-14-3.08698E-13
 -1      1284 1.91953E+01 5.08654E+00-3.27678E-03-2.05591E+00 6.62838E-14-2.03219E-13
 -1      1285 1.93416E+01 5.14129E+00 1.09478E-02-2.34952E+00 6.58813E-14-2.38750E-13
 -1      1286 1.97620E+01 4.36796E+00-2.35663E-02-2.47554E+00 8.58740E-14-2.44263E-13
 -1      1287 1.90208E+01 5.13539E+00 3.41127E-03-1.54984E+00 7.52237E-14-1.37008E-13
 -1      1288 1.90987E+01 5.16505E+00 1.30976E-02-1.79942E+00 7.42843E-14-1.72164E-13
 -1      1289 1.94038E+01 4.55924E+00-1.92939E-02-1.91538E+00 1.09541E-13-1.80054E-13
 -1      1290 1.89261E+01 5.16668E+00 6.39687E-03-1.10430E+00 7.64337E-14-7.36789E-14
 -1      1291 1.89693E+01 5.18328E+00 1.29341E-02-1.32452E+00 7.63339E-14-1.07412E-13
 -1      1292 1.92164E+01 4.66909E+00-1.58427E-02-1.42958E+00 1.18558E-13-1.12139E-13
 -1      1293 1.88728E+01 5.18760E+00 7.96430E-03-6.84743E-01 7.96294E-14-1.78781E-14
 -1      1294 1.88968E+01 5.19677E+00 1.20310E-02-8.92954E-01 7.94668E-14-5.08881E-14
 -1      1295 1.91116E+01 4.73733E+00-1.37881E-02-9.91829E-01 1.27472E-13-5.79814E-14
 -1      1296 1.88471E+01 5.20014E+00 9.05774E-03-2.84979E-01 8.40541E-14 4.00860E-14
 -1      1297 1.88578E+01 5.20422E+00 1.09741E-02-4.84576E-01 8.33691E-14 1.20372E-14
 -1      1298 1.90534E+01 4.77825E+00-1.27162E-02-5.80637E-01 1.32059E-13 3.02883E-15
 -1      1299 1.88424E+01 5.20522E+00 1.00322E-02 1.06929E-01 8.89887E-14 9.28493E-14
 -1      1300 1.88424E+01 5.20519E+00 9.96604E-03-9.00308E-02 8.91448E-14 6.35117E-14
 -1      1301 1.90273E+01 4.79716E+00-1.22701E-02-1.86273E-01 1.41949E-13 5.26870E-14
 -1      1302 1.88578E+01 5.20342E+00 1.10502E-02 5.02006E-01 9.49752E-14 1.38048E-13
 -1      1303 1.88470E+01 5.19925E+00 8.99108E-03 3.02026E-01 9.32880E-14 1.11234E-13
 -1      1304 1.90274E+01 4.79634E+00-1.22966E-02 2.02911E-01 1.47418E-13 9.78662E-14
 -1      1305 1.88971E+01 5.19494E+00 1.20878E-02 9.11721E-01 8.53657E-14 1.99656E-13
 -1      1306 1.88729E+01 5.18575E+00 7.89699E-03 7.02639E-01 8.67206E-14 1.62922E-13
 -1      1307 1.90539E+01 4.77571E+00-1.27955E-02 5.97933E-01 1.45097E-13 1.39222E-13
 -1      1308 1.89699E+01 5.18072E+00 1.29948E-02 1.34174E+00 8.13299E-14 2.74045E-13
 -1      1309 1.89262E+01 5.16383E+00 6.26044E-03 1.12025E+00 8.19371E-14 2.30933E-13
 -1      1310 1.91126E+01 4.73323E+00-1.38297E-02 1.00687E+00 1.36011E-13 1.96163E-13
 -1      1311 1.91026E+01 5.16062E+00 1.31123E-02 1.82464E+00 7.72073E-14 3.65919E-13
 -1      1312 1.90231E+01 5.13026E+00 3.04649E-03 1.57252E+00 7.63781E-14 3.17473E-13
 -1      1313 1.92193E+01 4.66220E+00-1.59917E-02 1.44698E+00 1.25831E-13 2.77840E-13
 -1      1314 1.93500E+01 5.13473E+00 1.07695E-02 2.38154E+00 6.64017E-14 4.59074E-13
 -1      1315 1.92008E+01 5.07830E+00-4.15033E-03 2.08410E+00 6.85146E-14 4.08264E-13
 -1      1316 1.94123E+01 4.54662E+00-1.97500E-02 1.94086E+00 1.09633E-13 3.57780E-13
 -1      1317 1.98543E+01 5.09786E+00 6.44592E-03 3.06942E+00 3.04756E-14 5.76698E-13
 -1      1318 1.95469E+01 4.98413E+00-2.00296E-02 2.68155E+00 3.39173E-14 5.11667E-13
 -1      1319 1.97787E+01 4.34642E+00-2.45789E-02 2.51122E+00 7.19147E-14 4.53602E-13
 -1      1320 2.10902E+01 4.90146E+00 8.25096E-03 4.04076E+00-6.80012E-15 6.67910E-13
 -1      1321 2.03282E+01 4.73093E+00-4.76791E-02 3.40247E+00 2.02616E-15 6.23057E-13
 -1      1322 2.05604E+01 3.91353E+00-2.26298E-02 3.16312E+00 1.73854E-14 5.46216E-13
 -1      1323 2.71632E+01 3.19958E+00 9.25672E-01 4.57138E+00-4.41591E-14 6.43874E-13
 -1      1324 2.20003E+01 3.51849E+00-1.81581E-01 3.87393E+00-2.49523E-14 6.85313E-13
 -1      1325 2.20986E+01 2.55865E+00-3.23747E-02 3.44347E+00-3.39494E-14 6.22141E-13
 -1      1326 2.14014E+01 3.59037E-01-7.62766E-01 1.17839E+00-4.78714E-14 7.00828E-13
 -1      1327 2.20997E+01 1.95267E-01-4.01627E-01-1.36311E+00-2.84495E-15-4.64712E-13
 -1      1328 2.07208E+01 3.28269E-01-1.78225E-01-8.42704E-01 6.33521E-15-4.84411E-13
 -1      1329 2.01266E+01 1.60994E-01-8.01953E-02-4.16279E-01-5.46785E-15-4.64058E-13
 -1      1330 1.96380E+01 9.42354E-02-1.84830E-02-3.41503E-01-8.87138E-15-4.78170E-13
 -1      1331 2.10213E+01 4.15263E-01-1.02752E-01-1.32542E+00 3.76782E-15-3.73614E-13
 -1      1332 1.92732E+01 6.77466E-02 1.43881E-03-1.37828E-01-5.42188E-15-4.71175E-13
 -1      1333 1.91155E+01 4.33879E-02 1.28428E-02-1.19179E-01 9.63292E-15-4.74332E-13
 -1      1334 1.99550E+01 1.41637E-01-3.70097E-02-5.19865E-01-6.11317E-15-3.33532E-13
 -1      1335 1.89558E+01 3.34408E-02 1.32437E-02-2.46600E-02 1.38119E-14-4.76480E-13
 -1      1336 1.89406E+01 2.12631E-02 1.14269E-02-1.45330E-02 8.52617E-15-4.73434E-13
 -1      1337 1.94714E+01 5.88668E-02-9.42652E-03-1.68599E-01 1.12618E-14-3.26494E-13
 -1      1338 1.88914E+01 1.75557E-02 9.00315E-03 3.35299E-02 1.86908E-14-4.58149E-13
 -1      1339 1.89443E+01 1.13682E-02 6.92782E-03 3.89662E-02 2.19789E-15-4.52621E-13
 -1      1340 1.92705E+01 2.75088E-02-3.99430E-03 1.40267E-03 2.38108E-14-3.41189E-13
 -1      1341 1.89558E+01 1.01593E-02 4.97231E-03 6.44150E-02-9.40697E-15-4.36248E-13
 -1      1342 1.90394E+01 6.67781E-03 4.25843E-03 6.72379E-02-1.76248E-15-4.42419E-13
 -1      1343 1.92332E+01 1.31062E-02-2.93556E-03 9.01547E-02 7.29278E-15-2.77237E-13
 -1      1344 1.90890E+01 6.36253E-03 2.84694E-03 8.31444E-02 9.03010E-15-4.32411E-13
 -1      1345 1.91968E+01 4.17665E-03 2.86882E-03 8.51645E-02-9.89020E-15-4.29438E-13
 -1      1346 1.92895E+01 7.77910E-03-2.16335E-03 1.40502E-01 8.28677E-15-2.43575E-13
 -1      1347 1.92713E+01 5.03609E-03 1.79505E-03 9.65545E-02-1.17625E-14-4.31958E-13
 -1      1348 1.93939E+01 3.96741E-03 2.26451E-03 9.82934E-02 1.19050E-14-4.32457E-13
 -1      1349 1.94082E+01 5.39925E-03-1.73730E-03 1.73972E-01-9.94430E-15-2.66740E-13
 -1      1350 1.94882E+01 5.47706E-03 1.27006E-03 1.09707E-01 1.87008E-14-4.38444E-13
 -1      1351 1.96263E+01 5.46642E-03 2.05722E-03 1.12037E-01 1.78828E-15-4.22267E-13
 -1      1352 1.95709E+01 6.25846E-03-1.62617E-03 2.01779E-01 1.08376E-14-2.27159E-13
 -1      1353 1.97410E+01 7.74691E-03 9.93261E-04 1.27572E-01-4.73211E-15-3.86198E-13
 -1      1354 1.99019E+01 8.77328E-03 2.08188E-03 1.31366E-01 3.38889E-15-3.82313E-13
 -1      1355 1.97730E+01 9.97402E-03-1.93005E-03 2.34266E-01 1.41167E-14-1.81001E-13
 -1      1356 2.00427E+01 1.21391E-02 7.76459E-04 1.55494E-01 2.11031E-14-3.94874E-13
 -1      1357 2.02403E+01 1.43560E-02 2.25380E-03 1.61834E-01 2.26429E-14-3.70619E-13
 -1      1358 2.00201E+01 1.70287E-02-2.70282E-03 2.81638E-01 2.42462E-14-1.74660E-13
 -1      1359 2.04185E+01 1.89953E-02 3.05293E-04 2.00168E-01 3.52461E-14-3.54225E-13
 -1      1360 2.06753E+01 2.31445E-02 2.25124E-03 2.10686E-01-1.21062E-14-3.34732E-13
 -1      1361 2.03280E+01 2.86503E-02-4.01606E-03 3.55898E-01 1.74166E-14-2.61858E-13
 -1      1362 2.08956E+01 2.97249E-02-5.61129E-04 2.67886E-01-1.26253E-14-3.43205E-13
 -1      1363 2.12273E+01 3.48435E-02 2.00764E-03 2.82771E-01-4.44176E-15-3.49530E-13
 -1      1364 2.07122E+01 4.58222E-02-5.92460E-03 4.68844E-01-1.67141E-15-2.37610E-13
 -1      1365 2.15358E+01 4.53316E-02-2.54357E-03 3.72444E-01 2.23129E-14-3.08478E-13
 -1      1366 2.20255E+01 5.18502E-02 2.95439E-04 3.97837E-01 4.42398E-14-2.81714E-13
 -1      1367 2.12171E+01 7.15419E-02-9.12493E-03 6.40863E-01 4.28650E-14-1.30578E-13
 -1      1368 2.24456E+01 6.75758E-02-6.85066E-03 5.30392E-01 1.08715E-14-2.58377E-13
 -1      1369 2.31485E+01 7.38195E-02-3.75412E-03 5.68413E-01 7.76809E-15-2.80522E-13
 -1      1370 2.19123E+01 1.07764E-01-1.39759E-02 9.03052E-01 1.72379E-14-4.18206E-14
 -1      1371 2.37181E+01 9.45916E-02-1.47863E-02 7.52840E-01 2.75075E-14-2.56028E-13
 -1      1372 2.47182E+01 9.60265E-02-1.06626E-02 8.06790E-01 4.97779E-14-1.74867E-13
 -1      1373 2.28538E+01 1.53761E-01-2.05026E-02 1.27699E+00 5.04215E-14-6.45105E-14
 -1      1374 2.54728E+01 1.17721E-01-2.51412E-02 1.03634E+00 8.51472E-14-1.78475E-13
 -1      1375 2.68381E+01 1.01911E-01-1.61889E-02 1.10396E+00 8.14956E-14-8.08242E-14
 -1      1376 2.41134E+01 1.95444E-01-2.74832E-02 1.76780E+00 1.19798E-13 2.58925E-14
 -1      1377 2.77894E+01 1.08666E-01-2.78599E-02 1.32204E+00 5.41988E-14-8.99281E-14
 -1      1378 2.94810E+01 5.08969E-02-4.75774E-03 1.38180E+00 2.40511E-14-2.75197E-14
 -1      1379 2.57443E+01 1.85887E-01-2.86596E-02 2.30858E+00 9.02334E-14 2.14724E-14
 -1      1380 3.05793E+01-3.92242E-04 2.05644E-03 1.42341E+00 2.62984E-15-9.57290E-14
 -1      1381 3.22526E+01-1.33873E-01 4.84283E-02 1.40249E+00-7.23900E-15-1.21902E-13
 -1      1382 2.77305E+01 1.91444E-02-9.42036E-03 2.65330E+00 8.48280E-15-3.11799E-14
 -1      1383 3.32866E+01-2.87935E-01 9.41768E-02 9.68056E-01 5.98792E-14-1.15616E-13
 -1      1384 3.40379E+01-4.73607E-01 1.29032E-01 7.65062E-01 3.60684E-14-4.54151E-14
 -1      1385 2.98692E+01-4.75515E-01 3.78085E-02 2.27202E+00 2.15106E-14-6.82926E-14
 -1      1386 3.48494E+01-7.08964E-01 2.07221E-01-4.72647E-01 1.49325E-14-4.40065E-14
 -1      1387 3.35173E+01-8.16556E-01 1.04654E-01-9.86967E-01-6.51285E-14-7.18314E-14
 -1      1388 3.18440E+01-1.25792E+00 9.11547E-02 4.25753E-01 1.82909E-14-5.25352E-14
 -1      1389 3.36198E+01-7.60993E-01 1.26378E-01-2.49065E+00-1.13819E-13-7.68274E-14
 -1      1390 3.01666E+01-4.77666E-01-1.99175E-01-2.85496E+00-9.44453E-14-1.79023E-13
 -1      1391 3.29825E+01-1.63274E+00 2.80530E-02-2.81312E+00-1.27606E-13-9.00963E-14
 -1      1392 2.95914E+01 1.17461E-01-2.99935E-01-3.22914E+00-5.87308E-14-2.02560E-13
 -1      1393 2.59634E+01 7.38730E-01-6.68523E-01-2.88598E+00-8.26283E-14-2.68091E-13
 -1      1394 3.28611E+01-4.30322E-01-1.78675E-01-5.21783E+00-1.34698E-13-5.91055E-14
 -1      1395 2.55073E+01 1.30547E+00-7.52487E-01-1.23643E+00-5.19584E-14-3.28237E-13
 -1      1396 2.47733E+01 1.43467E+00-8.58178E-01-4.47767E-01-1.29452E-13-4.51805E-13
 -1      1397 3.20582E+01 2.02298E+00-3.53162E-01-3.71713E+00-1.08080E-13-1.55445E-13
 -1      1398 2.84339E+01-8.01655E-02-3.30658E-01 2.95429E+00-2.08791E-13-1.21442E-12
 -1      1399 3.22614E+01-4.80471E-01 2.47639E-02 2.71306E+00-1.25434E-13-1.44895E-12
 -1      1400 3.29436E+01-5.78828E-01 1.06038E-01 1.51779E+00-3.29702E-14-1.53766E-12
 -1      1401 3.51527E+01-6.25929E-01 2.67672E-01 1.03935E+00 1.23512E-14-1.60436E-12
 -1      1402 3.28651E+01-1.05838E+00-4.06607E-03 3.74828E+00-1.47313E-13-1.16101E-12
 -1      1403 3.47322E+01-4.63806E-01 1.97238E-01-2.77694E-01 1.19529E-13-1.39205E-12
 -1      1404 3.44752E+01-2.78867E-01 1.75054E-01-5.75607E-01 1.17507E-13-1.18940E-12
 -1      1405 3.28699E+01-1.10727E+00 1.23614E-01 5.48229E-01 1.62197E-13-1.13788E-12
 -1      1406 3.33914E+01-1.78923E-01 8.82001E-02-1.14266E+00 1.23186E-13-1.14229E-12
 -1      1407 3.18270E+01-1.69706E-02 3.41773E-02-1.20997E+00 4.25909E-14-1.02740E-12
 -1      1408 3.12568E+01-4.90738E-01 7.51244E-02-1.68113E+00 2.06772E-13-1.00962E-12
 -1      1409 3.06762E+01-1.96443E-03 1.67946E-03-1.24430E+00-1.25002E-14-9.76247E-13
 -1      1410 2.89905E+01 7.77787E-02-2.82810E-02-1.21155E+00 1.14375E-14-9.29617E-13
 -1      1411 2.90442E+01-4.86422E-02 5.99973E-03-2.34416E+00 5.10824E-14-7.11653E-13
 -1      1412 2.78960E+01 6.41703E-02-2.74813E-02-1.03520E+00 5.77559E-14-7.89868E-13
 -1      1413 2.64040E+01 9.58498E-02-3.79628E-02-9.75963E-01 1.38081E-13-6.41209E-13
 -1      1414 2.68598E+01 1.20693E-01-2.55027E-02-2.15368E+00 1.21448E-13-4.94625E-13
 -1      1415 2.55383E+01 7.24961E-02-2.48640E-02-7.63378E-01 9.98663E-14-5.59025E-13
 -1      1416 2.44330E+01 7.80937E-02-2.77343E-02-7.10125E-01 3.24497E-14-4.78027E-13
 -1      1417 2.49668E+01 1.50510E-01-2.91307E-02-1.67678E+00 2.13532E-13-3.44554E-13
 -1      1418 2.37886E+01 6.04316E-02-1.49351E-02-5.32293E-01-4.46084E-14-4.76261E-13
 -1      1419 2.30189E+01 5.62035E-02-1.65358E-02-4.92238E-01-1.15885E-13-6.34715E-13
 -1      1420 2.35071E+01 1.24151E-01-2.27633E-02-1.20524E+00 1.92069E-14-3.44428E-13
 -1      1421 2.25577E+01 4.46978E-02-7.27331E-03-3.61373E-01 7.64753E-14-6.39867E-13
 -1      1422 2.20374E+01 3.82806E-02-8.98666E-03-3.33395E-01 6.15298E-14-5.48915E-13
 -1      1423 2.24379E+01 8.93280E-02-1.56702E-02-8.32614E-01-2.00031E-14-2.98701E-13
 -1      1424 2.17143E+01 3.13044E-02-2.97304E-03-2.42523E-01 2.92821E-15-6.05861E-13
 -1      1425 2.13672E+01 2.54741E-02-4.66102E-03-2.23622E-01 7.22807E-14-5.40772E-13
 -1      1426 2.16782E+01 6.04998E-02-1.03802E-02-5.64375E-01 6.77809E-14-3.14730E-13
 -1      1427 2.11435E+01 2.12261E-02-9.63998E-04-1.62146E-01 4.77708E-14-4.83038E-13
 -1      1428 2.09137E+01 1.69219E-02-2.18900E-03-1.49590E-01-4.55833E-14-3.02092E-13
 -1      1429 2.11475E+01 4.00215E-02-6.80884E-03-3.79513E-01 9.98385E-14-3.24972E-13
 -1      1430 2.07665E+01 1.48195E-02 1.54808E-05-1.10094E-01-1.04496E-13-3.28703E-13
 -1      1431 2.06189E+01 1.14752E-02-1.18891E-03-1.02119E-01-1.10740E-14-2.44669E-13
 -1      1432 2.07868E+01 2.55246E-02-4.98433E-03-2.56561E-01-6.73602E-14-2.79534E-13
 -1      1433 2.05107E+01 9.86864E-03 1.89270E-04-7.41350E-02 6.74484E-14-3.34475E-13
 -1      1434 2.04068E+01 7.45288E-03-6.15330E-04-6.83700E-02 6.28126E-14-3.08205E-13
 -1      1435 2.05370E+01 1.74913E-02-3.11492E-03-1.74382E-01-6.54021E-14-3.49158E-13
 -1      1436 2.03328E+01 6.76020E-03 3.20110E-04-4.96339E-02-4.03025E-14-2.47311E-13
 -1      1437 2.02637E+01 4.94921E-03-2.87566E-04-4.57898E-02-2.05789E-14-3.37737E-13
 -1      1438 2.03592E+01 1.13721E-02-2.15595E-03-1.17156E-01-1.62535E-14-4.53574E-13
 -1      1439 2.02131E+01 4.60970E-03 3.05005E-04-3.31793E-02 2.87640E-14-3.51608E-13
 -1      1440 2.01672E+01 3.31217E-03-1.22929E-04-3.05788E-02-2.45029E-14-4.45714E-13
 -1      1441 2.02370E+01 7.49933E-03-1.48846E-03-7.86097E-02-6.79010E-14-8.56348E-14
 -1      1442 2.01327E+01 3.16446E-03 2.55673E-04-2.20361E-02 1.05946E-13-2.56912E-13
 -1      1443 2.01025E+01 2.23033E-03-4.04504E-05-2.02628E-02 2.55174E-13-2.73108E-14
 -1      1444 2.01534E+01 4.98549E-03-1.03550E-03-5.25152E-02 1.66628E-13-1.05536E-14
 -1      1445 2.00792E+01 2.18668E-03 2.02722E-04-1.44393E-02 8.77284E-14 1.69443E-13
 -1      1446 2.00596E+01 1.51275E-03 2.08536E-06-1.32229E-02 3.10732E-15 1.40901E-13
 -1      1447 2.00964E+01 3.34013E-03-7.24637E-04-3.47372E-02 2.93260E-13 1.09917E-13
 -1      1448 2.00441E+01 1.50199E-03 1.49716E-04-9.22451E-03 1.96756E-13 3.72630E-13
 -1      1449 2.00317E+01 1.04052E-03 2.87463E-05-8.39380E-03 1.59412E-13 7.15003E-13
 -1      1450 2.00581E+01 2.27037E-03-5.04085E-04-2.25511E-02 2.82804E-13 1.95247E-13
 -1      1451 2.00220E+01 1.07809E-03 1.17120E-04-5.74436E-03-1.01686E-13 7.79018E-13
 -1      1452 2.00148E+01 7.32266E-04 2.87623E-05-5.19709E-03-8.76889E-14 6.65648E-13
 -1      1453 2.00333E+01 1.48575E-03-3.81333E-04-1.42878E-02 1.67100E-13 4.50369E-13
 -1      1454 2.00084E+01 7.53800E-04 8.23265E-05-3.26101E-03-6.08828E-14 6.24300E-13
 -1      1455 2.00042E+01 4.79943E-04 2.02643E-05-2.84223E-03-1.18291E-13 4.56394E-13
 -1      1456 2.00172E+01 1.07702E-03-2.56311E-04-8.59563E-03-1.89243E-13 5.35262E-13
 -1      1457 2.00005E+01 5.44796E-04 5.81620E-05-1.50395E-03-3.56248E-14 3.24858E-13
 -1      1458 1.99988E+01 3.20674E-04 1.19317E-05-1.21069E-03 9.49022E-14 3.15834E-13
 -1      1459 2.00072E+01 7.31099E-04-1.85584E-04-4.49774E-03-1.16647E-13 4.35638E-13
 -1      1460 1.99970E+01 3.89287E-04 3.31345E-05-2.92393E-04-7.92689E-14 2.83140E-13
 -1      1461 1.99968E+01 2.01522E-04 5.74528E-06-8.43772E-05-1.21182E-13 1.26770E-13
 -1      1462 2.00017E+01 5.04830E-04-1.33050E-04-1.65920E-03 1.02894E-14 2.09684E-13
 -1      1463 1.99963E+01 2.61899E-04 2.23467E-05 5.00793E-04-1.44221E-13 8.32982E-14
 -1      1464 1.99972E+01 8.44961E-05 2.61646E-05 6.37383E-04-2.18444E-14-7.02077E-14
 -1      1465 1.99992E+01 3.25154E-04-8.79151E-05 2.49394E-04-1.62047E-13 7.79325E-14
 -1      1466 1.99974E+01 8.91067E-05 5.74528E-05 8.51945E-04 1.01190E-13-8.29452E-14
 -1      1467 1.99986E+01-8.81867E-05 1.09691E-04 8.51500E-04 1.72165E-13 2.50557E-13
 -1      1468 1.99988E+01 9.86183E-05-2.20367E-05 1.31377E-03 1.31978E-13-2.83826E-13
 -1      1469 1.99990E+01-2.25504E-04 1.49674E-04 7.72614E-04 5.87004E-14 2.59251E-13
 -1      1470 1.99996E+01-3.15577E-04 2.41013E-04 4.79461E-04-2.83737E-13 4.59462E-15
 -1      1471 1.99997E+01-1.01088E-03 1.47452E-04 7.54913E-04-1.47377E-13-4.04345E-13
 -1      1472 1.99993E+01-2.21842E-04 8.37811E-05 1.44327E-03 1.47299E-13-4.88452E-13
 -1      1473 2.02445E+01 7.57842E-02-1.51461E-01 4.79197E-01-3.64778E-14 7.50053E-13
 -1      1474 2.15081E+01 2.15982E-01-2.29093E-01 7.16329E-01-2.23571E-14 6.79096E-13
 -1      1475 2.17126E+01 8.80670E-01-8.53513E-02 2.05547E+00-5.44426E-14 6.11275E-13
 -1      1476 1.93264E+01 3.43168E-02-2.07006E-02 1.80761E-01-1.80030E-14 8.09637E-13
 -1      1477 1.97431E+01 1.14283E-01-6.17885E-02 2.34536E-01-2.43902E-14 7.55282E-13
 -1      1478 2.02975E+01 1.86143E-01-5.55180E-02 7.79442E-01-4.68028E-14 6.13935E-13
 -1      1479 1.89598E+01 1.69631E-02 6.03786E-03 4.70094E-02-2.88485E-15 8.28334E-13
 -1      1480 1.90928E+01 5.18121E-02 1.75728E-03 7.46960E-02-9.31980E-15 8.00957E-13
 -1      1481 1.95607E+01 6.72264E-02-1.54568E-02 2.87425E-01-2.39045E-14 6.17947E-13
 -1      1482 1.88675E+01 9.04299E-03 7.07812E-03-1.62832E-02-3.08260E-15 8.40057E-13
 -1      1483 1.88748E+01 2.60799E-02 1.15517E-02-7.84315E-04-1.54867E-14 8.20378E-13
 -1      1484 1.92406E+01 2.19037E-02-7.12521E-03 6.39544E-02-2.82196E-14 6.12437E-13
 -1      1485 1.89173E+01 4.41908E-03 4.66812E-03-4.90630E-02-1.39537E-14 8.63103E-13
 -1      1486 1.88619E+01 1.44474E-02 8.54397E-03-4.01466E-02-1.29291E-14 8.44196E-13
 -1      1487 1.91435E+01 8.04871E-03-4.97410E-03-4.46164E-02-2.38243E-14 6.04784E-13
 -1      1488 1.90421E+01 1.88170E-03 3.08557E-03-6.54654E-02-1.37647E-14 9.45039E-13
 -1      1489 1.89554E+01 8.31824E-03 5.30104E-03-6.02199E-02-3.79499E-14 8.86700E-13
 -1      1490 1.91710E+01 2.25270E-03-3.60526E-03-9.96310E-02-5.28830E-14 6.32725E-13
 -1      1491 1.92052E+01 4.12440E-04 2.22620E-03-7.27486E-02 1.74950E-14 9.42076E-13
 -1      1492 1.91041E+01 4.77346E-03 3.36425E-03-6.97195E-02 1.29642E-14 9.43657E-13
 -1      1493 1.92660E+01-5.34071E-04-2.54616E-03-1.27030E-01-3.07404E-15 6.68532E-13
 -1      1494 1.93851E+01-5.21412E-04 1.71816E-03-7.45290E-02-2.73345E-14 9.65988E-13
 -1      1495 1.92791E+01 2.51721E-03 2.24218E-03-7.29115E-02-1.26169E-14 9.56843E-13
 -1      1496 1.93969E+01-2.05260E-03-1.71139E-03-1.38598E-01-6.60496E-15 6.80881E-13
 -1      1497 1.95677E+01-1.25172E-03 1.38847E-03-7.25307E-02 1.67626E-14 1.00497E-12
 -1      1498 1.94631E+01 8.80418E-04 1.53617E-03-7.19251E-02-3.33929E-15 1.00967E-12
 -1      1499 1.95444E+01-3.07493E-03-1.06669E-03-1.40179E-01-1.89848E-14 7.20930E-13
 -1      1500 1.97428E+01-2.03322E-03 1.20056E-03-6.71806E-02 4.52939E-14 9.84200E-13
 -1      1501 1.96443E+01-6.13705E-04 1.04954E-03-6.74999E-02 2.06218E-14 9.73881E-13
 -1      1502 1.96951E+01-4.11825E-03-5.21274E-04-1.34256E-01 3.53378E-14 7.09734E-13
 -1      1503 1.98996E+01-3.07766E-03 1.17814E-03-5.78664E-02 8.20115E-14 8.07004E-13
 -1      1504 1.98125E+01-2.36287E-03 7.04150E-04-5.93023E-02 8.75470E-14 9.29570E-13
 -1      1505 1.98381E+01-5.60771E-03 4.41218E-05-1.20939E-01 1.17146E-13 6.12122E-13
 -1      1506 2.00252E+01-4.54617E-03 1.36506E-03-4.31208E-02 6.09857E-14 6.54170E-13
 -1      1507 1.99563E+01-4.70696E-03 4.76184E-04-4.61198E-02 5.17991E-14 7.27556E-13
 -1      1508 1.99623E+01-7.89648E-03 7.54032E-04-9.84590E-02 1.26438E-13 5.45404E-13
 -1      1509 2.01025E+01-6.50661E-03 1.79711E-03-2.08990E-02 1.23619E-14 6.30974E-13
 -1      1510 2.00613E+01-7.88548E-03 3.65646E-04-2.61095E-02 1.57835E-14 6.36094E-13
 -1      1511 2.00544E+01-1.12071E-02 1.71975E-03-6.36429E-02 4.63011E-14 4.39262E-13
 -1      1512 2.01095E+01-8.85732E-03 2.46501E-03 1.08932E-02 4.24318E-14 5.88764E-13
 -1      1513 2.01083E+01-1.19341E-02 3.77182E-04 2.74811E-03 8.74821E-15 6.06164E-13
 -1      1514 2.00976E+01-1.55020E-02 3.00970E-03-1.26749E-02-1.93487E-15 3.84601E-13
 -1      1515 2.00202E+01-1.12303E-02 3.26277E-03 5.34914E-02 1.30991E-14 5.87915E-13
 -1      1516 2.00738E+01-1.65296E-02 4.97265E-04 4.18619E-02 3.89959E-14 6.25188E-13
 -1      1517 2.00720E+01-2.02977E-02 4.59918E-03 5.75660E-02 4.04923E-14 4.50737E-13
 -1      1518 1.98095E+01-1.29171E-02 3.93555E-03 1.05960E-01-5.43567E-14 6.28151E-13
 -1      1519 1.99322E+01-2.08291E-02 6.65190E-04 9.08586E-02-4.88455E-14 5.54419E-13
 -1      1520 1.99561E+01-2.44829E-02 6.30380E-03 1.47448E-01-3.05385E-14 4.97118E-13
 -1      1521 1.94595E+01-1.28977E-02 4.06475E-03 1.63709E-01-8.97091E-15 6.08878E-13
 -1      1522 1.96613E+01-2.34086E-02 7.48985E-04 1.46189E-01 1.94129E-14 6.11716E-13
 -1      1523 1.97317E+01-2.62712E-02 7.72422E-03 2.51982E-01-3.23266E-15 4.09975E-13
 -1      1524 1.89709E+01-1.00755E-02 3.14577E-03 2.17486E-01-3.40760E-14 6.49435E-13
 -1      1525 1.92510E+01-2.24580E-02 5.49946E-04 2.00023E-01-1.76857E-14 6.18935E-13
 -1      1526 1.93906E+01-2.34796E-02 8.25493E-03 3.58452E-01-4.23828E-14 4.27605E-13
 -1      1527 1.83730E+01-3.76994E-03 8.01909E-04 2.53840E-01-1.32291E-14 6.53366E-13
 -1      1528 1.87140E+01-1.63691E-02-1.34784E-04 2.40301E-01-8.42252E-15 6.75456E-13
 -1      1529 1.89434E+01-1.42851E-02 7.22266E-03 4.45769E-01 1.55691E-15 5.18271E-13
 -1      1530 1.77302E+01 5.63475E-03-2.89468E-03 2.58050E-01-3.84705E-14 7.38312E-13
 -1      1531 1.80949E+01-4.67917E-03-1.38033E-03 2.52917E-01-6.05783E-14 6.95433E-13
 -1      1532 1.84268E+01 1.60759E-03 4.18805E-03 4.87412E-01-5.60336E-14 5.50551E-13
 -1      1533 1.71377E+01 1.62505E-02-7.16761E-03 2.19568E-01-1.58250E-14 7.42927E-13
 -1      1534 1.74715E+01 1.10216E-02-2.97818E-03 2.26333E-01 1.11020E-14 7.54116E-13
 -1      1535 1.79055E+01 2.18915E-02-6.61806E-04 4.59031E-01-2.87674E-14 5.93561E-13
 -1      1536 1.67027E+01 2.49766E-02-1.06289E-02 1.38101E-01 1.14379E-14 6.63424E-13
 -1      1537 1.69449E+01 2.69462E-02-4.39378E-03 1.57397E-01 3.18912E-14 7.67369E-13
 -1      1538 1.74636E+01 4.15804E-02-6.27527E-03 3.49265E-01 3.50796E-14 6.48009E-13
 -1      1539 1.65144E+01 2.87330E-02-1.18490E-02 2.67437E-02 1.99545E-14 7.04910E-13
 -1      1540 1.66153E+01 3.82984E-02-4.94948E-03 5.53316E-02-1.87177E-15 6.85312E-13
 -1      1541 1.71851E+01 5.45109E-02-1.09848E-02 1.68833E-01 2.45810E-15 6.80674E-13
 -1      1542 1.66144E+01 2.60332E-02-1.01392E-02-9.08704E-02-4.23446E-14 7.17155E-13
 -1      1543 1.65517E+01 4.14209E-02-4.19819E-03-5.93417E-02-2.51266E-14 6.49447E-13
 -1      1544 1.71286E+01 5.60713E-02-1.32353E-02-4.85022E-02 1.27919E-14 6.68486E-13
 -1      1545 1.69821E+01 1.78291E-02-5.99788E-03-1.88895E-01 9.37744E-14 7.10588E-13
 -1      1546 1.67688E+01 3.56122E-02-2.23203E-03-1.61521E-01 3.11157E-14 7.41339E-13
 -1      1547 1.73072E+01 4.55303E-02-1.23972E-02-2.55954E-01 2.49939E-14 6.23866E-13
 -1      1548 1.75421E+01 6.99529E-03-8.62718E-04-2.48762E-01 1.73394E-14 5.24709E-13
 -1      1549 1.72217E+01 2.33727E-02 3.16985E-04-2.30719E-01 7.41575E-14 6.58239E-13
 -1      1550 1.76840E+01 2.64804E-02-9.04687E-03-4.10544E-01 1.21301E-13 6.31393E-13
 -1      1551 1.81906E+01-3.14757E-03 3.64139E-03-2.64749E-01 1.33692E-14 5.09637E-13
 -1      1552 1.78223E+01 8.98909E-03 2.60513E-03-2.57783E-01-3.41547E-14 5.05117E-13
 -1      1553 1.81855E+01 5.03136E-03-4.56832E-03-4.87826E-01 1.69970E-14 5.98059E-13
 -1      1554 1.88268E+01-1.02692E-02 6.43903E-03-2.43370E-01-3.59429E-14 4.41008E-13
 -1      1555 1.84674E+01-3.51585E-03 3.99576E-03-2.46001E-01-8.34532E-15 4.61244E-13
 -1      1556 1.87257E+01-1.30085E-02-4.03309E-04-4.87218E-01 1.90897E-14 4.12129E-13
 -1      1557 1.93762E+01-1.36219E-02 7.30648E-03-1.98219E-01-7.16261E-14 4.95347E-13
 -1      1558 1.90675E+01-1.18067E-02 4.29908E-03-2.07128E-01-5.01053E-14 4.36869E-13
 -1      1559 1.92296E+01-2.42397E-02 2.54783E-03-4.26977E-01-4.01601E-14 5.08784E-13
 -1      1560 1.97998E+01-1.37497E-02 6.66661E-03-1.43892E-01 2.45849E-14 5.57649E-13
 -1      1561 1.95632E+01-1.54800E-02 3.73504E-03-1.55493E-01-2.48842E-14 4.80508E-13
 -1      1562 1.96475E+01-2.82118E-02 4.04805E-03-3.33649E-01-8.20004E-14 5.21650E-13
 -1      1563 2.00903E+01-1.18047E-02 5.20362E-03-9.18055E-02 7.08485E-14 4.00686E-13
 -1      1564 1.99292E+01-1.54605E-02 2.71309E-03-1.03284E-01 9.97967E-14 5.44740E-13
 -1      1565 1.99578E+01-2.65474E-02 4.33696E-03-2.32201E-01 1.09040E-13 5.37113E-13
 -1      1566 2.02625E+01-8.95145E-03 3.53311E-03-4.86646E-02 2.62485E-14 2.59661E-13
 -1      1567 2.01681E+01-1.31775E-02 1.62252E-03-5.83447E-02 2.95369E-14 2.95749E-13
 -1      1568 2.01617E+01-2.16399E-02 3.84835E-03-1.40366E-01 1.01819E-13 4.54457E-13
 -1      1569 2.03420E+01-6.04666E-03 2.05247E-03-1.69268E-02 1.23918E-13 5.34582E-14
 -1      1570 2.02993E+01-9.95108E-03 7.14073E-04-2.41517E-02 5.74647E-14 2.04260E-13
 -1      1571 2.02749E+01-1.56431E-02 2.99864E-03-6.74006E-02 9.83499E-14 2.75329E-13
 -1      1572 2.03564E+01-3.57264E-03 9.35451E-04 3.85224E-03-2.78148E-14-4.93379E-14
 -1      1573 2.03496E+01-6.70970E-03 8.70272E-05-9.53852E-04 1.02196E-13 6.50940E-14
 -1      1574 2.03191E+01-1.00115E-02 2.08747E-03-1.56569E-02 1.58860E-13 1.04318E-13
 -1      1575 2.03305E+01-1.70977E-03 1.99223E-04 1.56211E-02 4.13578E-14-2.49687E-14
 -1      1576 2.03456E+01-3.96132E-03-2.68023E-04 1.28334E-02-3.97628E-14-1.11053E-13
 -1      1577 2.03164E+01-5.47381E-03 1.28510E-03 1.68611E-02 1.42179E-14 5.32471E-14
 -1      1578 2.02835E+01-4.48482E-04-2.19958E-04 2.07866E-02 6.31810E-14-2.48410E-13
 -1      1579 2.03098E+01-1.89015E-03-4.13714E-04 1.94977E-02 5.97855E-14-7.08669E-14
 -1      1580 2.02857E+01-2.22091E-03 6.61230E-04 3.41667E-02 6.64394E-14-4.79998E-15
 -1      1581 2.02291E+01 3.13651E-04-4.11144E-04 2.15943E-02-1.02977E-13-2.80242E-13
 -1      1582 2.02591E+01-4.80650E-04-4.24272E-04 2.13099E-02-1.35299E-14-2.64380E-13
 -1      1583 2.02414E+01-1.32952E-04 2.22249E-04 4.06669E-02 1.10209E-14-1.83534E-13
 -1      1584 2.01760E+01 7.06377E-04-4.57384E-04 1.98498E-02-3.00301E-14-2.92232E-14
 -1      1585 2.02049E+01 3.79440E-04-3.63008E-04 2.01672E-02-8.81366E-14-1.70935E-13
 -1      1586 2.01934E+01 1.04125E-03-5.75188E-05 4.02616E-02-1.54582E-13-1.61681E-13
 -1      1587 2.01287E+01 8.50633E-04-4.23106E-04 1.68584E-02-1.70670E-14-3.29228E-14
 -1      1588 2.01541E+01 8.30619E-04-2.74601E-04 1.74831E-02-2.28598E-14-3.10408E-14
 -1      1589 2.01479E+01 1.57187E-03-2.14898E-04 3.59839E-02-1.70304E-14-1.68185E-13
 -1      1590 2.00895E+01 8.43456E-04-3.52432E-04 1.34797E-02-1.55233E-13 8.50289E-14
 -1      1591 2.01104E+01 1.00406E-03-1.85955E-04 1.42147E-02-4.50593E-14 1.95406E-14
 -1      1592 2.01081E+01 1.69197E-03-2.86114E-04 2.99708E-02-7.28728E-14 2.04361E-13
 -1      1593 2.00588E+01 7.55306E-04-2.72537E-04 1.02246E-02 4.39598E-15 2.69644E-13
 -1      1594 2.00749E+01 1.00587E-03-1.10482E-04 1.09503E-02-1.67577E-13 5.36611E-14
 -1      1595 2.00754E+01 1.57872E-03-3.01550E-04 2.35932E-02-1.64111E-13 2.49380E-13
 -1      1596 2.00358E+01 6.33288E-04-1.98392E-04 7.35536E-03-1.36901E-14 2.47099E-13
 -1      1597 2.00477E+01 9.14065E-04-5.28817E-05 8.00820E-03 5.21617E-14 3.35336E-13
 -1      1598 2.00498E+01 1.35478E-03-2.84355E-04 1.76390E-02-2.17251E-14 1.33218E-13
 -1      1599 2.00195E+01 5.06344E-04-1.37166E-04 4.97061E-03 1.94795E-13-2.13156E-14
 -1      1600 2.00278E+01 7.81741E-04-1.30604E-05 5.52464E-03 1.03584E-13 1.59143E-13
 -1      1601 2.00308E+01 1.09819E-03-2.50989E-04 1.24891E-02 1.88806E-13 2.86836E-13
 -1      1602 2.00088E+01 3.90391E-04-9.16513E-05 3.07036E-03 2.70379E-13-4.95430E-13
 -1      1603 2.00141E+01 6.42405E-04 1.10215E-05 3.52310E-03 2.17840E-13-2.37890E-13
 -1      1604 2.00174E+01 8.54218E-04-2.12508E-04 8.26242E-03 3.51737E-13-1.24190E-13
 -1      1605 2.00024E+01 2.91648E-04-6.18563E-05 1.60290E-03 5.72758E-14-9.02043E-13
 -1      1606 2.00054E+01 5.14490E-04 2.16895E-05 1.96530E-03 1.37196E-13-6.13133E-13
 -1      1607 2.00085E+01 6.44663E-04-1.75971E-04 4.92587E-03 2.59635E-13-3.41231E-13
 -1      1608 1.99993E+01 2.08072E-04-4.10532E-05 5.06102E-04-8.67440E-15-8.89060E-13
 -1      1609 2.00005E+01 4.01930E-04 2.23475E-05 7.91862E-04-1.82306E-14-9.25552E-13
 -1      1610 2.00032E+01 4.70466E-04-1.44312E-04 2.37781E-03-2.23172E-15-2.83106E-13
 -1      1611 1.99986E+01 1.21618E-04-3.31981E-06-2.60838E-04 1.14814E-13-1.05659E-12
 -1      1612 1.99986E+01 2.92104E-04 2.21501E-05-4.07060E-05 2.75574E-14-8.38827E-13
 -1      1613 2.00005E+01 3.24391E-04-1.07076E-04 5.29536E-04 4.02814E-14-6.82379E-13
 -1      1614 1.99992E+01-2.27592E-05 1.09711E-04-5.86158E-04-7.44509E-14-9.90287E-13
 -1      1615 1.99985E+01 1.09847E-04 5.44529E-05-4.71032E-04-2.45941E-14-1.03364E-12
 -1      1616 1.99996E+01 9.10255E-05-4.07256E-05-5.99727E-04 1.02614E-13-7.69637E-13
 -1      1617 1.99995E+01-3.08638E-04 1.88556E-04-3.35339E-04-5.15310E-13-5.17258E-13
 -1      1618 2.00000E+01-1.21486E-03-1.94732E-05-3.78469E-04-9.29308E-13 7.18539E-14
 -1      1619 1.99999E+01-6.14014E-04 6.72815E-05-4.43742E-04-9.12839E-13-6.63157E-15
 -1      1620 2.00001E+01-7.78093E-04-4.26778E-05 2.52030E-04-4.86153E-13 1.71238E-13
 -1      1621 2.00000E+01-8.44795E-04-2.04495E-05 8.69856E-05-8.16634E-13 1.51500E-13
 -1      1622 2.00002E+01 2.92847E-04-4.37055E-05-1.19999E-04-4.76135E-13 2.02923E-13
 -1      1623 2.00000E+01 8.73232E-04-3.66650E-05 8.61380E-04-4.23632E-13-8.36059E-16
 -1      1624 2.00000E+01 6.76071E-05-3.14802E-05 7.40093E-04-4.64465E-13 1.93215E-13
 -1      1625 2.00002E+01 1.60066E-03-7.27976E-05 1.05440E-03-1.70189E-13 2.98092E-13
 -1      1626 1.99999E+01 3.39422E-03-2.18728E-05 1.22801E-03-1.58290E-13 5.38303E-14
 -1      1627 1.99999E+01 2.10189E-03-1.73373E-05 1.17820E-03-3.38447E-13 2.22976E-13
 -1      1628 2.00001E+01 3.77214E-03-3.98023E-05 2.04096E-03-2.74669E-13 1.64219E-13
 -1      1629 1.99997E+01 6.07342E-03-1.07925E-05 1.24012E-03-3.47414E-13-6.09496E-14
 -1      1630 1.99998E+01 4.72118E-03-6.33385E-06 1.26472E-03-2.25722E-13-2.03234E-13
 -1      1631 1.99999E+01 6.41564E-03 1.08662E-06 2.45422E-03-2.01948E-13-1.91775E-13
 -1      1632 1.99996E+01 8.30541E-03-3.11778E-06 9.12139E-04-4.65750E-13-1.47975E-13
 -1      1633 1.99997E+01 7.25108E-03 1.16309E-06 1.00211E-03-4.00893E-13-1.40896E-13
 -1      1634 1.99996E+01 8.99238E-03 4.20591E-05 2.19867E-03-2.09786E-13-2.24890E-13
 -1      1635 1.99995E+01 9.46029E-03 9.10181E-07 3.30962E-04-5.34276E-13-8.06612E-14
 -1      1636 1.99996E+01 9.03894E-03 4.78593E-06 4.61959E-04-5.76130E-13-8.80582E-14
 -1      1637 1.99995E+01 1.09578E-02 7.34593E-05 1.34989E-03-4.22965E-13-2.74056E-13
 -1      1638 1.99996E+01 9.21755E-03 1.71671E-06-3.59362E-04-1.73412E-13 5.72133E-14
 -1      1639 1.99995E+01 9.57392E-03 4.74469E-06-2.19431E-04-5.04707E-13 2.78070E-13
 -1      1640 1.99994E+01 1.18401E-02 8.89644E-05 1.21417E-04-1.21007E-13 1.10831E-13
 -1      1641 1.99996E+01 7.59096E-03-9.61571E-07-9.87723E-04 3.06298E-13 2.86340E-13
 -1      1642 1.99996E+01 8.66892E-03 9.30931E-07-8.74199E-04-2.09063E-14 1.50040E-13
 -1      1643 1.99994E+01 1.14178E-02 8.52269E-05-1.18755E-03 6.30238E-14 2.30660E-13
 -1      1644 1.99997E+01 4.94199E-03-7.64386E-06-1.38705E-03 2.33220E-13-2.58208E-13
 -1      1645 1.99997E+01 6.48671E-03-6.90071E-06-1.33252E-03 3.52435E-13-3.69084E-14
 -1      1646 1.99996E+01 9.75137E-03 6.18238E-05-2.24930E-03 1.33452E-13 1.58196E-13
 -1      1647 1.99999E+01 1.96937E-03-1.75367E-05-1.43377E-03 2.65942E-14-2.28366E-13
 -1      1648 1.99998E+01 3.54604E-03-1.94871E-05-1.45722E-03 2.94522E-13-3.09835E-13
 -1      1649 1.99998E+01 7.20682E-03 2.36538E-05-2.77238E-03 2.53910E-13-4.44705E-13
 -1      1650 2.00000E+01-6.53875E-04-3.06205E-05-1.08099E-03 2.96833E-13 1.01560E-13
 -1      1651 2.00000E+01 5.46460E-04-3.58011E-05-1.18891E-03-1.14857E-13 2.62934E-13
 -1      1652 2.00000E+01 4.31775E-03-2.38604E-05-2.58288E-03 2.84491E-13 1.58647E-14
 -1      1653 2.00001E+01-2.15141E-03-3.34427E-05-3.94487E-04 4.10021E-13 4.09825E-14
 -1      1654 2.00001E+01-1.75879E-03-5.22011E-05-5.62606E-04 2.36935E-13 8.28853E-14
 -1      1655 2.00002E+01 1.69699E-03-6.67478E-05-1.67220E-03 1.09492E-13 1.28730E-13
 -1      1656 2.00001E+01-2.20162E-03-6.95767E-06 4.04786E-04 5.54296E-13 9.57623E-14
 -1      1657 2.00001E+01-2.72754E-03-5.66594E-05 2.44812E-04 2.63293E-13 1.02628E-13
 -1      1658 2.00003E+01-9.23829E-05-8.45543E-05-2.75630E-04-3.80883E-15 1.49589E-13
 -1      1659 1.99998E+01-1.32061E-03 6.88422E-05 7.72394E-04 1.08643E-13-4.03066E-13
 -1      1660 2.00000E+01-2.41034E-03-1.34498E-05 7.68861E-04 6.95582E-13-1.51640E-13
 -1      1661 2.00001E+01-8.95967E-04-4.97326E-05 9.67387E-04-2.26766E-13-7.81505E-14
 -1      1662 1.99998E+01-8.78911E-04 3.64299E-05 1.30644E-03 7.26774E-14-7.09373E-13
 -1      1663-3.49295E-01-1.44112E+01-1.51181E+00-5.15517E-02 1.07592E-12 4.49502E-13
 -1      1664-5.51949E-01-1.78018E+01-1.84366E+00 1.15223E+00 7.71772E-13 3.49776E-13
 -1      1665 2.04693E+00-7.18235E+00-1.03853E+00 1.45982E+00 9.91207E-13 1.37529E-13
 -1      1666 1.07717E+00-1.28134E+01-1.60499E+00 6.47605E-01 1.06792E-12 3.08566E-13
 -1      1667 8.14844E+00 8.08610E-01-3.99627E-01 5.83274E+00 6.39711E-13 3.34288E-13
 -1      1668 4.69694E+00-4.95929E+00-1.18606E+00 2.68242E+00 8.91287E-13 2.23710E-13
 -1      1669 2.02771E+01 5.69422E+00 3.74968E-01 1.10176E+01 4.44311E-13 3.01537E-13
 -1      1670 1.31665E+01 2.33577E+00-4.98295E-01 7.21146E+00 5.80647E-13 3.58935E-13
 -1      1671 3.40764E+01 7.60852E+00 1.07163E+00 1.40032E+01 2.84994E-13 2.28706E-13
 -1      1672 2.48822E+01 7.57064E+00 2.59248E-01 1.21467E+01 3.83804E-13 3.79696E-13
 -1      1673 4.81178E+01 5.67133E+00 1.54770E+00 1.12059E+01 1.31839E-13-2.04392E-13
 -1      1674 3.92591E+01 7.32322E+00 9.17497E-01 1.28547E+01 1.85962E-13 7.10543E-14
 -1      1675 5.76120E+01 3.89585E+00 1.92308E+00 4.49545E+00 1.40776E-13-8.27338E-13
 -1      1676 5.24208E+01 5.35936E+00 1.54768E+00 9.62777E+00 1.55848E-13-4.53637E-13
 -1      1677 5.74087E+01 4.04696E+00 1.80362E+00-4.66489E+00 3.85803E-14-1.01369E-12
 -1      1678 5.85939E+01 3.67535E+00 1.88035E+00 1.35679E+00-1.79301E-14-9.95273E-13
 -1      1679 4.81139E+01 6.21048E+00 1.35217E+00-1.13271E+01 1.42067E-13-7.69163E-13
 -1      1680 5.48674E+01 4.42726E+00 1.79350E+00-7.32712E+00 1.20737E-13-9.22595E-13
 -1      1681 3.41072E+01 7.99519E+00 7.41198E-01-1.35733E+01 1.99396E-13-5.00044E-13
 -1      1682 4.37514E+01 6.60795E+00 1.47188E+00-1.32678E+01 1.60205E-13-8.22453E-13
 -1      1683 2.00761E+01 6.15344E+00-2.49664E-02-1.04542E+01 1.31117E-13-3.17968E-13
 -1      1684 2.87377E+01 7.40009E+00 8.41077E-01-1.33272E+01 2.00950E-13-4.03233E-13
 -1      1685 9.10728E+00 7.95089E-01-7.76158E-01-5.54296E+00 1.42331E-13-1.97176E-13
 -1      1686 1.47852E+01 5.07067E+00 9.67988E-02-9.40366E+00 1.79412E-13-2.03393E-13
 -1      1687 3.08160E+00-7.40536E+00-1.36170E+00-1.56133E+00 6.81677E-14-1.34670E-13
 -1      1688 5.55022E+00-1.38743E+00-6.15904E-01-4.06884E+00 1.66978E-13-1.96287E-13
 -1      1689 4.24187E-01-1.49928E+01-1.72621E+00-5.01774E-01-1.95399E-14-1.61121E-14
 -1      1690 1.00124E+00-9.66595E+00-1.22424E+00-6.39380E-01 7.86038E-14-1.04028E-13
 -1      1691-8.25798E-01-1.85212E+01-1.89020E+00-1.43082E+00 8.55982E-14 4.81282E-14
 -1      1692-6.78406E-01-1.64365E+01-1.68170E+00 1.85511E-01-3.33067E-16 8.53762E-14
 -1      1693-1.04957E+00-1.63469E+01-1.82440E+00-2.32194E+00-4.96270E-14-9.46188E-14
 -1      1694-8.18212E-01-1.83737E+01-1.89396E+00-8.73052E-01 6.96526E-14-5.15699E-14
 -1      1695 5.59482E-01-1.03713E+01-1.64826E+00-1.29146E+00-3.29070E-13-4.32793E-13
 -1      1696 6.18600E-03-1.54880E+01-2.04170E+00-1.81257E+00-1.15241E-13-1.79134E-13
 -1      1697 7.52895E+00-2.45803E+00-1.02930E+00 3.54991E+00-5.71987E-13-5.52891E-13
 -1      1698 3.76892E+00-8.39773E+00-1.79463E+00 2.62787E-01-3.72591E-13-4.10560E-13
 -1      1699 2.07864E+01 2.98827E+00-8.06498E-02 9.06665E+00-5.96856E-13-8.17790E-13
 -1      1700 1.27764E+01-8.47284E-01-1.18678E+00 4.90899E+00-5.89528E-13-5.88196E-13
 -1      1701 3.88423E+01 5.09644E+00 1.19503E+00 1.23024E+01-5.60108E-13-6.19282E-13
 -1      1702 2.69168E+01 4.26764E+00-1.77685E-01 9.78476E+00-6.38600E-13-6.95000E-13
 -1      1703 5.66690E+01 4.26637E+00 2.45477E+00 9.57239E+00-2.49786E-13-3.30624E-13
 -1      1704 4.52287E+01 5.46113E+00 1.25105E+00 1.11151E+01-4.09894E-13-4.90052E-13
 -1      1705 6.71028E+01 3.70734E+00 3.25485E+00 2.78139E+00-1.34892E-13-9.58678E-14
 -1      1706 6.11540E+01 4.84651E+00 2.66625E+00 8.26686E+00-2.05724E-13-3.60600E-13
 -1      1707 6.39239E+01 4.46226E+00 2.85899E+00-5.24311E+00-2.05447E-13 3.44280E-13
 -1      1708 6.66321E+01 3.98896E+00 3.13803E+00 8.01133E-01-1.55431E-13 1.24276E-14
 -1      1709 5.25438E+01 5.44845E+00 1.88398E+00-1.07655E+01-5.64410E-13 8.69971E-13
 -1      1710 6.20885E+01 4.00362E+00 2.87495E+00-7.42989E+00-3.35218E-13 5.51781E-13
 -1      1711 3.48862E+01 4.70771E+00 3.97328E-01-1.03057E+01-1.01752E-12 1.38467E-12
 -1      1712 4.69178E+01 4.46542E+00 1.68232E+00-1.11554E+01-8.16902E-13 1.03806E-12
 -1      1713 1.83573E+01 2.06715E+00-7.94616E-01-7.35395E+00-1.10045E-12 1.40732E-12
 -1      1714 2.78929E+01 4.35752E+00 3.44561E-01-1.09673E+01-9.87654E-13 1.58051E-12
 -1      1715 7.20287E+00-4.18001E+00-1.55882E+00-2.31077E+00-8.43547E-13 9.30034E-13
 -1      1716 1.26825E+01 7.21508E-01-6.86008E-01-6.16879E+00-1.02118E-12 1.33982E-12
 -1      1717 1.70608E+00-1.16953E+01-1.90579E+00 9.56096E-01-5.37570E-13 5.03514E-13
 -1      1718 3.65050E+00-6.12336E+00-1.34581E+00-1.03250E+00-7.65832E-13 6.32938E-13
 -1      1719-5.43373E-01-1.75180E+01-2.07224E+00 1.83224E+00-1.58540E-13 3.87218E-13
 -1      1720-5.24752E-01-1.35141E+01-1.79621E+00 2.21025E+00-5.00711E-13 4.55719E-13
 -1      1721-9.19036E-01-1.89439E+01-1.93943E+00 6.05852E-01 6.60111E-13 4.76452E-13
 -1      1722-1.18397E+00-1.83566E+01-1.98206E+00 2.37255E+00 6.55032E-14 4.79561E-13
 -1      1723 2.49686E+01 1.15195E+00-8.15027E-01 2.21723E+00-2.51243E-13-5.30923E-13
 -1      1724 2.80551E+01 5.51314E-01-4.67339E-01 2.80109E+00-2.45165E-13-8.23563E-13
 -1      1725 1.63811E+01-2.41259E+00-1.73874E-01 7.61576E+00 4.56746E-13 1.22957E-13
 -1      1726-1.64579E+00-1.24099E+01-1.33448E+00 1.69384E+00 2.86410E-13 6.37712E-13
 -1      1727 1.99997E+01-5.12241E-04 8.87245E-05-6.70314E-04-7.45169E-13-2.99546E-13
 -1      1728 1.99999E+01 5.29968E-05 6.64550E-05-8.12567E-04-3.45540E-13-3.75081E-13
 -1      1729 1.16909E+00-1.01665E+01-1.08576E+00 3.74302E+00 4.92717E-13 2.47025E-13
 -1      1730 7.04219E+00-6.62037E+00-7.36831E-01 5.76069E+00 5.12701E-13-8.22259E-14
 -1      1731 2.66698E+01 1.73793E+00 3.13982E-01 8.29309E+00 3.39340E-13 1.44662E-13
 -1      1732 3.70060E+01 5.28292E+00 9.28844E-01 7.76327E+00 2.28179E-13 1.44329E-15
 -1      1733 4.53285E+01 7.05934E+00 1.31003E+00 5.09172E+00 3.85220E-13-2.48024E-13
 -1      1734 5.04198E+01 7.78149E+00 1.63795E+00 1.58299E+00 2.48079E-13-5.43399E-13
 -1      1735 4.90170E+01 7.63355E+00 1.52447E+00-2.91906E+00-2.91434E-14-6.56475E-13
 -1      1736 4.28927E+01 6.67083E+00 1.24376E+00-6.62535E+00 3.83998E-14-5.70988E-13
 -1      1737 3.33785E+01 4.27981E+00 7.37845E-01-8.40417E+00 9.60898E-14-4.31877E-13
 -1      1738 2.25606E+01 8.71869E-01 1.81050E-01-8.37494E+00 7.80487E-14-2.62124E-13
 -1      1739 1.23555E+01-3.42487E+00-4.29852E-01-6.90802E+00 8.54872E-14-1.20348E-13
 -1      1740 4.71104E+00-7.96745E+00-9.19748E-01-4.88184E+00 3.40838E-14-1.64070E-13
 -1      1741-5.27114E-02-1.12484E+01-1.20641E+00-3.00403E+00 1.43885E-13-4.88498E-15
 -1      1742-1.72724E+00-1.23489E+01-1.33183E+00-8.87837E-01 2.50217E-14-5.57887E-14
 -1      1743 1.81558E-01-1.17378E+01-1.37627E+00 1.15146E+00-4.55191E-14-2.27263E-13
 -1      1744 6.24116E+00-9.12390E+00-1.17185E+00 3.38006E+00-2.12830E-13-4.92953E-13
 -1      1745 1.67296E+01-5.45327E+00-6.45215E-01 5.30645E+00-3.18523E-13-4.59077E-13
 -1      1746 2.94909E+01-1.53549E+00 7.73792E-02 5.80846E+00-4.19886E-13-3.71481E-13
 -1      1747 4.25395E+01 2.45080E+00 1.12626E+00 4.64256E+00-4.69708E-13-2.37588E-13
 -1      1748 5.22843E+01 5.93186E+00 2.04426E+00 2.33091E+00-2.97096E-13-1.37890E-13
 -1      1749 5.59411E+01 7.95176E+00 2.46814E+00 5.53559E-01-3.07088E-13-1.57235E-13
 -1      1750 5.41234E+01 7.14599E+00 2.27480E+00-1.46681E+00-4.22884E-13 8.07132E-14
 -1      1751 4.69777E+01 3.78807E+00 1.46580E+00-3.17889E+00-8.03017E-13 3.71370E-13
 -1      1752 3.54512E+01 1.35495E-01 5.35546E-01-5.25339E+00-7.89813E-13 1.00586E-12
 -1      1753 2.20048E+01-3.33266E+00-3.83500E-01-5.85709E+00-6.22169E-13 1.17439E-12
 -1      1754 1.08894E+01-7.19847E+00-9.91228E-01-4.45390E+00-5.36349E-13 8.84848E-13
 -1      1755 3.15495E+00-1.04985E+01-1.28407E+00-2.44013E+00-4.03899E-13 6.23029E-13
 -1      1756-1.05480E+00-1.29009E+01-1.47814E+00-2.36211E-01-5.55112E-14 6.31439E-13
 -1      1757 3.18834E+01 3.67010E-01-3.19822E-01 5.03480E+00-4.84390E-13-7.27866E-13
 -1      1758 2.28968E+01 2.00488E+00-2.70176E-02-2.77056E+00-4.62824E-15-4.37178E-13
 -1      1759 3.17658E+01 2.79346E+00-4.01932E-01 1.56717E+00-3.60378E-13-2.31655E-13
 -1      1760 1.98318E+01 3.71990E+00-3.49289E-02-2.13757E+00 1.05205E-13-2.05905E-13
 -1      1761 2.00589E+01 3.56154E+00-4.22671E-02-2.42524E+00 8.51819E-14-2.31693E-13
 -1      1762 2.03689E+01 3.17877E+00-4.49468E-02-2.57032E+00 6.80081E-14-2.48940E-13
 -1      1763 2.05805E+01 2.81377E+00-1.38730E-01-2.84952E+00 4.59216E-14-2.99746E-13
 -1      1764 2.04368E+01 2.68736E+00-3.56201E-03-2.20329E+00 7.89475E-14-2.29105E-13
 -1      1765 1.93639E+01 4.20023E+00-2.02669E-02-1.25372E+00 1.34016E-13-8.60405E-14
 -1      1766 1.94385E+01 4.15911E+00-1.69992E-02-1.47708E+00 1.32728E-13-1.21765E-13
 -1      1767 1.92640E+01 4.30990E+00-1.68451E-02-8.46542E-01 1.48480E-13-2.81893E-14
 -1      1768 1.93085E+01 4.28487E+00-1.41968E-02-1.05535E+00 1.42168E-13-5.98584E-14
 -1      1769 1.95337E+01 3.79995E+00-9.09746E-03-1.10177E+00 1.40318E-13-7.37257E-14
 -1      1770 1.92095E+01 4.37296E+00-1.47865E-02-4.58967E-01 1.62040E-13 2.23328E-14
 -1      1771 1.92329E+01 4.35949E+00-1.31833E-02-6.56654E-01 1.58150E-13-7.85136E-15
 -1      1772 1.94326E+01 3.92477E+00-8.99047E-03-7.20162E-01 1.67674E-13-1.09860E-14
 -1      1773 1.91882E+01 4.39970E+00-1.35911E-02-8.20358E-02 1.73633E-13 7.14828E-14
 -1      1774 1.91954E+01 4.39562E+00-1.31055E-02-2.74530E-01 1.68617E-13 4.60691E-14
 -1      1775 1.93791E+01 3.99195E+00-8.90550E-03-3.51529E-01 1.79137E-13 4.17531E-14
 -1      1776 1.91959E+01 4.39395E+00-1.30440E-02 2.93309E-01 1.81699E-13 1.00347E-13
 -1      1777 1.91883E+01 4.39870E+00-1.36811E-02 1.00645E-01 1.77329E-13 8.24930E-14
 -1      1778 1.93626E+01 4.01205E+00-8.88965E-03 1.02883E-02 1.90693E-13 8.49182E-14
 -1      1779 1.92345E+01 4.35482E+00-1.31711E-02 6.76205E-01 1.62661E-13 1.33782E-13
 -1      1780 1.92105E+01 4.36922E+00-1.48910E-02 4.78005E-01 1.74296E-13 1.09777E-13
 -1      1781 1.93804E+01 3.98799E+00-8.95453E-03 3.72372E-01 1.84380E-13 1.03171E-13
 -1      1782 1.93103E+01 4.27833E+00-1.42287E-02 1.06931E+00 1.51762E-13 1.96058E-13
 -1      1783 1.92657E+01 4.30380E+00-1.69919E-02 8.63313E-01 1.56471E-13 1.59933E-13
 -1      1784 1.94352E+01 3.91741E+00-8.99643E-03 7.38478E-01 1.68694E-13 1.48954E-13
 -1      1785 1.94440E+01 4.14717E+00-1.72421E-02 1.49642E+00 1.48855E-13 2.72966E-13
 -1      1786 1.93666E+01 4.19098E+00-2.05503E-02 1.26812E+00 1.45851E-13 2.31610E-13
 -1      1787 1.95378E+01 3.78900E+00-9.09954E-03 1.11773E+00 1.54396E-13 2.09074E-13
 -1      1788 1.96732E+01 3.92662E+00-2.51465E-02 1.96031E+00 1.13358E-13 3.46001E-13
 -1      1789 1.95408E+01 4.00476E+00-2.69588E-02 1.70346E+00 1.23270E-13 3.07213E-13
 -1      1790 1.97134E+01 3.57662E+00-8.74378E-03 1.51503E+00 1.35470E-13 2.87348E-13
 -1      1791 2.00835E+01 3.52343E+00-4.40930E-02 2.45721E+00 5.90639E-14 4.26964E-13
 -1      1792 1.98473E+01 3.68629E+00-3.79608E-02 2.16205E+00 9.19629E-14 3.77171E-13
 -1      1793 2.00092E+01 3.22727E+00-6.21209E-03 1.91074E+00 9.12716E-14 3.49906E-13
 -1      1794 2.09157E+01 2.66773E+00-6.18751E-02 2.83905E+00 2.03526E-15 5.15844E-13
 -1      1795 2.04142E+01 3.09938E+00-4.95756E-02 2.59598E+00 3.60666E-14 4.66613E-13
 -1      1796 2.05020E+01 2.61006E+00-6.47924E-04 2.21914E+00 4.20258E-14 4.28178E-13
 -1      1797 2.17177E+01 1.21017E+00-1.23121E-01 2.31632E+00-3.43961E-14 5.61731E-13
 -1      1798 2.12705E+01 2.27015E+00 3.28336E-03 2.72701E+00-1.63689E-14 5.32546E-13
 -1      1799 2.09571E+01 1.68855E+00-1.35731E-02 2.12909E+00 1.67748E-15 4.90996E-13
 -1      1800 2.09524E+01 7.78185E-01-6.03686E-02 1.51157E+00-4.54498E-14 5.66505E-13
 -1      1801 2.18083E+01 2.48712E+00 9.17378E-02-3.07396E+00 1.44138E-14-3.51080E-13
 -1      1802 2.01225E+01 3.00569E-01-4.71515E-03 6.50113E-01-3.26787E-14 5.41749E-13
 -1      1803 2.06473E+01 4.38784E-01-1.41583E-02 1.02091E+00-3.88856E-14 5.33933E-13
 -1      1804 2.07476E+01 8.47145E-01 5.32040E-03 1.39381E+00-3.14436E-14 4.88073E-13
 -1      1805 2.05534E+01 5.25702E-01 3.09985E-02-9.45983E-01 7.25461E-15-2.75807E-13
 -1      1806 2.01201E+01 3.68236E-01 7.16045E-03-6.39443E-01 2.04975E-14-2.71630E-13
 -1      1807 1.99293E+01 2.69665E-01 2.77952E-02-3.91941E-01 9.66154E-15-2.65843E-13
 -1      1808 1.97394E+01 1.89010E-01 1.09587E-02-2.46524E-01 9.83848E-15-2.68563E-13
 -1      1809 2.02310E+01 5.05734E-01-6.42015E-03-7.27883E-01 1.61347E-14-2.15456E-13
 -1      1810 1.96217E+01 1.42767E-01 1.70859E-02-1.04519E-01 2.51678E-14-2.55164E-13
 -1      1811 1.95516E+01 1.04384E-01 8.03232E-03-2.73922E-02 4.43283E-14-2.55518E-13
 -1      1812 1.99123E+01 2.60648E-01-6.16345E-03-2.80934E-01 3.30838E-14-1.89483E-13
 -1      1813 1.94965E+01 8.13295E-02 9.24060E-03 5.19533E-02 4.42133E-14-2.21566E-13
 -1      1814 1.94951E+01 6.20742E-02 5.45369E-03 9.39887E-02 1.61958E-14-1.98246E-13
 -1      1815 1.97453E+01 1.42993E-01-5.43678E-03-2.81195E-02 5.59522E-14-1.59720E-13
 -1      1816 1.94804E+01 4.82648E-02 4.82068E-03 1.45519E-01-9.82537E-15-1.79504E-13
 -1      1817 1.95211E+01 3.87992E-02 4.03881E-03 1.72747E-01 1.72827E-14-1.93223E-13
 -1      1818 1.96799E+01 8.47590E-02-4.07212E-03 1.22522E-01 2.15244E-14-1.23226E-13
 -1      1819 1.95375E+01 3.26662E-02 2.56376E-03 2.06654E-01 2.09655E-14-1.89050E-13
 -1      1820 1.96067E+01 2.97611E-02 3.60805E-03 2.26167E-01 8.15786E-15-1.54374E-13
 -1      1821 1.96859E+01 5.43578E-02-3.16924E-03 2.21041E-01 1.61428E-14-1.01991E-13
 -1      1822 1.96457E+01 2.87316E-02 1.37263E-03 2.53241E-01-2.55612E-15-1.28705E-13
 -1      1823 1.97374E+01 3.13617E-02 3.90525E-03 2.71794E-01 3.83396E-14-1.18246E-13
 -1      1824 1.97447E+01 4.43687E-02-2.48490E-03 2.91557E-01 3.58340E-14-7.50909E-14
 -1      1825 1.97942E+01 3.47434E-02 8.22654E-04 3.00231E-01 1.65010E-14-1.33827E-13
 -1      1826 1.99084E+01 4.27782E-02 4.85715E-03 3.23772E-01 1.22059E-14-1.14464E-13
 -1      1827 1.98434E+01 5.01495E-02-2.08092E-03 3.55100E-01 1.49298E-14-6.71468E-14
 -1      1828 1.99812E+01 5.08226E-02 6.46564E-04 3.61143E-01-2.39886E-14-1.66181E-13
 -1      1829 2.01235E+01 6.51300E-02 6.56573E-03 3.95922E-01-1.73451E-14-1.95771E-13
 -1      1830 1.99761E+01 7.11324E-02-1.90621E-03 4.29237E-01-3.83855E-14-1.49577E-13
 -1      1831 2.02128E+01 7.87626E-02 6.42036E-04 4.50386E-01-1.15511E-14-2.26424E-13
 -1      1832 2.03933E+01 1.01145E-01 8.95175E-03 5.04113E-01-5.89199E-15-2.63380E-13
 -1      1833 2.01422E+01 1.09566E-01-1.85298E-03 5.31368E-01-3.55610E-14-2.06780E-13
 -1      1834 2.04949E+01 1.20739E-01 6.83147E-04 5.81359E-01 1.77432E-14-2.50469E-13
 -1      1835 2.07194E+01 1.51888E-01 1.24436E-02 6.57858E-01 2.85752E-14-1.97724E-13
 -1      1836 2.03398E+01 1.68910E-01-1.46486E-03 6.76527E-01 1.61050E-14-1.89907E-13
 -1      1837 2.08470E+01 1.81960E-01 3.84789E-04 7.76596E-01 7.39443E-14-1.61144E-13
 -1      1838 2.11595E+01 2.28241E-01 1.72905E-02 8.96942E-01 1.06405E-13-9.37702E-14
 -1      1839 2.05772E+01 2.54588E-01-1.65033E-03 8.89452E-01 9.19928E-14-1.35503E-13
 -1      1840 2.13089E+01 2.69287E-01-4.51209E-04 1.06876E+00 6.66186E-14-6.66099E-14
 -1      1841 2.17298E+01 3.29564E-01 2.22483E-02 1.24314E+00 5.64427E-14-2.72449E-15
 -1      1842 2.08683E+01 3.77761E-01-1.30336E-03 1.20489E+00 1.07690E-13-7.87479E-14
 -1      1843 2.19014E+01 3.79972E-01-2.65998E-03 1.48232E+00 1.87610E-15 8.50123E-16
 -1      1844 2.24641E+01 4.47777E-01 2.60983E-02 1.72022E+00 5.32040E-14-4.77708E-14
 -1      1845 2.12110E+01 5.36655E-01-6.81137E-04 1.64823E+00 5.19255E-14-4.27940E-15
 -1      1846 2.26595E+01 4.94029E-01-5.94441E-03 2.03284E+00 1.09703E-13-4.73383E-14
 -1      1847 2.33917E+01 5.40014E-01 2.62209E-02 2.32364E+00 1.09048E-13-2.72490E-14
 -1      1848 2.16067E+01 7.06914E-01-2.58968E-04 2.23972E+00 8.25754E-14-6.26766E-15
 -1      1849 2.36308E+01 5.38876E-01-6.28596E-03 2.68758E+00 9.18380E-14 1.31449E-14
 -1      1850 2.45369E+01 4.84117E-01 2.13135E-02 2.96244E+00 3.61790E-14-3.19224E-14
 -1      1851 2.20658E+01 7.98067E-01-1.03751E-03 2.96279E+00 1.06521E-13-2.16869E-14
 -1      1852 2.49069E+01 3.28676E-01 8.97621E-03 3.28378E+00-3.08607E-14-7.01696E-15
 -1      1853 2.59431E+01 2.38885E-02 1.56204E-02 3.35121E+00 3.25729E-14 9.94170E-15
 -1      1854 2.26575E+01 5.79878E-01-3.17508E-03 3.70609E+00 2.64320E-14-3.27759E-14
 -1      1855 2.66156E+01-4.22177E-01 5.47359E-02 3.40712E+00 7.16510E-14 2.07161E-14
 -1      1856 2.76123E+01-1.12028E+00 4.00723E-03 2.97461E+00 3.19328E-14 5.69401E-14
 -1      1857 2.35893E+01-3.20540E-01-4.85321E-03 4.15481E+00 5.02445E-14 1.14452E-13
 -1      1858 2.90995E+01-2.00216E+00 1.22348E-01 2.33101E+00 9.34669E-15 1.67324E-13
 -1      1859 3.00013E+01-2.92184E+00-8.80576E-03 1.00135E+00 1.29896E-14 1.08550E-13
 -1      1860 2.54286E+01-2.33788E+00-3.17660E-02 3.77857E+00 1.01988E-13 1.64591E-13
 -1      1861 3.22322E+01-3.53851E+00 8.73336E-02-4.62581E-01-8.71386E-14 9.47575E-14
 -1      1862 3.25874E+01-3.39982E+00-5.14252E-02-2.08474E+00-2.19345E-13 5.26384E-14
 -1      1863 2.87680E+01-4.59685E+00-8.59748E-02 1.91935E+00-4.16750E-14 1.59569E-13
 -1      1864 2.09111E+01-2.87482E+00 2.59641E-02 7.87477E+00 3.69149E-13 9.37583E-14
 -1      1865 1.57843E+01-4.71785E+00-2.56513E-01 7.27402E+00 3.40172E-13 1.52767E-13
 -1      1866 2.15266E+01 1.76784E+00 7.83581E-02-2.35581E+00 3.60406E-14-3.18683E-13
 -1      1867 3.13317E+01-2.79563E+00-2.88587E-02 2.80050E-01 1.80203E-13-7.43947E-13
 -1      1868 3.08232E+01-2.13540E+00 1.10616E-01-1.23003E+00 2.74586E-13-6.52724E-13
 -1      1869 2.91864E+01-1.36663E+00-1.12438E-02-2.25329E+00 2.92037E-13-6.93571E-13
 -1      1870 2.82430E+01-6.40566E-01 7.11043E-02-2.89606E+00 2.44950E-13-5.92776E-13
 -1      1871 2.75606E+01-2.60933E+00-8.42715E-03-2.72724E+00 3.39034E-13-2.16185E-13
 -1      1872 2.73156E+01-2.05399E-01-2.96402E-03-3.06624E+00 1.29799E-13-5.70426E-13
 -1      1873 2.62687E+01 1.51965E-01 1.63371E-02-3.09620E+00 1.16168E-13-4.38816E-13
 -1      1874 2.52841E+01-7.26556E-01-1.26071E-02-3.79676E+00 2.39100E-13-3.31056E-13
 -1      1875 2.56914E+01 3.22771E-01 9.22578E-03-2.86399E+00 1.83373E-13-3.67501E-13
 -1      1876 2.46687E+01 4.31286E-01-3.17365E-03-2.63318E+00 2.16166E-13-2.20801E-13
 -1      1877 2.39279E+01 3.19735E-01-8.14617E-03-3.64031E+00 2.07626E-13-2.03083E-13
 -1      1878 2.42782E+01 4.41789E-01 1.87146E-02-2.28456E+00 2.05487E-13-2.72933E-13
 -1      1879 2.34393E+01 4.29494E-01-4.44014E-03-2.00703E+00 2.30002E-13-2.91791E-13
 -1      1880 2.30068E+01 6.49833E-01-3.87188E-03-2.98844E+00 1.46454E-13-1.79281E-13
 -1      1881 2.31384E+01 3.89848E-01 2.20643E-02-1.68423E+00 2.17737E-13-3.17728E-13
 -1      1882 2.24994E+01 3.41990E-01-1.43081E-03-1.44639E+00 1.54113E-14-1.60307E-13
 -1      1883 2.23095E+01 6.24064E-01-1.69989E-03-2.26087E+00 2.49873E-13-7.50238E-14
 -1      1884 2.22594E+01 2.96607E-01 2.03944E-02-1.19096E+00-1.40875E-13-1.30275E-13
 -1      1885 2.17942E+01 2.48212E-01 8.14521E-04-1.01197E+00 1.71191E-14-1.29737E-13
 -1      1886 2.17517E+01 4.91499E-01-1.03233E-03-1.63425E+00 5.91064E-14-7.48519E-14
 -1      1887 2.16044E+01 2.11014E-01 1.64695E-02-8.24308E-01 7.05339E-15-2.53038E-13
 -1      1888 2.12746E+01 1.72451E-01 1.73786E-03-6.97472E-01 3.23691E-14-2.32935E-13
 -1      1889 2.13075E+01 3.55225E-01-1.09529E-03-1.15170E+00-1.11001E-13-1.67322E-13
 -1      1890 2.11278E+01 1.45257E-01 1.22828E-02-5.64763E-01 6.89939E-14-3.04307E-13
 -1      1891 2.08983E+01 1.17651E-01 2.11691E-03-4.77491E-01 4.88125E-14-3.69405E-13
 -1      1892 2.09612E+01 2.46341E-01-1.26617E-03-8.00653E-01 5.61790E-15-3.57975E-13
 -1      1893 2.07927E+01 1.00234E-01 8.96347E-03-3.89613E-01-2.49236E-14-3.64490E-13
 -1      1894 2.06390E+01 8.11099E-02 1.82067E-03-3.32435E-01-7.89212E-14-3.61459E-13
 -1      1895 2.07025E+01 1.68138E-01-1.77981E-03-5.57305E-01-5.89576E-14-4.41441E-13
 -1      1896 2.05541E+01 6.78539E-02 6.19926E-03-2.67701E-01-1.09244E-13-3.41984E-13
 -1      1897 2.04420E+01 5.46320E-02 1.37820E-03-2.26752E-01-1.19104E-13-3.42476E-13
 -1      1898 2.05086E+01 1.15521E-01-1.20298E-03-3.87920E-01-1.03154E-13-2.89837E-13
 -1      1899 2.03800E+01 4.60515E-02 4.33505E-03-1.82424E-01 5.16338E-14-4.12616E-13
 -1      1900 2.03028E+01 3.69760E-02 1.07090E-03-1.54623E-01 2.35554E-14-4.12036E-13
 -1      1901 2.03606E+01 7.78528E-02-1.07619E-03-2.66756E-01-1.04784E-13-3.19996E-13
 -1      1902 2.02576E+01 3.12924E-02 2.98193E-03-1.24147E-01-3.60981E-14-1.86190E-13
 -1      1903 2.02046E+01 2.51719E-02 8.19809E-04-1.05210E-01 5.00641E-15-1.71692E-13
 -1      1904 2.02524E+01 5.26882E-02-8.98303E-04-1.83150E-01 1.37816E-13-2.72476E-13
 -1      1905 2.01720E+01 2.13807E-02 2.04889E-03-8.41747E-02 1.22882E-13-6.09235E-14
 -1      1906 2.01357E+01 1.72384E-02 6.20177E-04-7.12027E-02 3.27514E-13 1.95156E-13
 -1      1907 2.01742E+01 3.58448E-02-7.22103E-04-1.25336E-01 1.49655E-13-5.93726E-14
 -1      1908 2.01125E+01 1.46931E-02 1.40947E-03-5.66207E-02 2.74388E-13 9.52318E-14
 -1      1909 2.00879E+01 1.18749E-02 4.68159E-04-4.76853E-02 1.40781E-13 1.20228E-13
 -1      1910 2.01180E+01 2.45283E-02-5.65783E-04-8.52154E-02 2.24994E-13 2.09364E-13
 -1      1911 2.00715E+01 1.01297E-02 9.64674E-04-3.75321E-02 2.28682E-13 4.61889E-14
 -1      1912 2.00550E+01 8.23742E-03 3.66871E-04-3.13552E-02 3.67632E-13 1.33750E-13
 -1      1913 2.00782E+01 1.68889E-02-4.31848E-04-5.72606E-02 1.82074E-13 4.76693E-14
 -1      1914 2.00441E+01 7.13229E-03 6.74216E-04-2.45771E-02 3.29459E-13 4.99292E-14
 -1      1915 2.00338E+01 5.83180E-03 2.76394E-04-2.04486E-02 5.62980E-14 3.89597E-14
 -1      1916 2.00509E+01 1.16818E-02-3.62733E-04-3.80596E-02 2.08868E-13-1.15710E-13
 -1      1917 2.00258E+01 4.96742E-03 4.61489E-04-1.53859E-02-1.39701E-13 2.29134E-13
 -1      1918 2.00189E+01 4.04295E-03 1.99445E-04-1.23409E-02-1.04212E-13 2.14922E-13
 -1      1919 2.00320E+01 8.25500E-03-2.46748E-04-2.45983E-02 6.56296E-14-1.40327E-13
 -1      1920 2.00137E+01 3.47590E-03 3.19046E-04-8.80996E-03-8.07165E-14 1.94612E-13
 -1      1921 2.00096E+01 2.80548E-03 1.43558E-04-6.68640E-03-7.63489E-14 2.90670E-13
 -1      1922 2.00189E+01 5.72489E-03-1.84311E-04-1.48279E-02-7.29998E-14 1.04128E-13
 -1      1923 2.00062E+01 2.41007E-03 2.11096E-04-4.23669E-03-1.62704E-13 2.73123E-13
 -1      1924 2.00041E+01 1.91809E-03 9.87159E-05-2.77789E-03-1.73244E-13 5.16237E-14
 -1      1925 2.00104E+01 3.96322E-03-1.33801E-04-8.00382E-03-8.87935E-14 2.78677E-13
 -1      1926 2.00021E+01 1.60829E-03 1.30743E-04-1.12162E-03-1.69263E-13 9.80939E-14
 -1      1927 2.00013E+01 1.18557E-03 5.94210E-05-1.91768E-04-1.58725E-13 3.69712E-14
 -1      1928 2.00051E+01 2.68697E-03-8.79839E-05-3.32149E-03-1.36808E-13 1.24931E-13
 -1      1929 2.00002E+01 8.53651E-04 7.98204E-05 7.98308E-04-2.13079E-13-1.92427E-14
 -1      1930 2.00001E+01 3.71269E-04 3.32214E-05 1.18037E-03 7.09227E-14-2.08442E-13
 -1      1931 2.00020E+01 1.52235E-03-5.82842E-05-2.86455E-04-1.81615E-13 2.39524E-13
 -1      1932 1.99996E+01-2.96190E-04 6.10247E-05 1.43152E-03 1.18603E-13-4.69750E-13
 -1      1933 1.95419E+01 1.16122E-01 9.92308E-03 1.06558E-01-1.75849E-14 5.04524E-13
 -1      1934 1.96490E+01 1.61999E-01 1.72358E-02 2.02428E-01-2.09945E-14 5.01506E-13
 -1      1935 1.94308E+01 6.23743E-02 6.46509E-03-4.08695E-02-2.79403E-14 5.08733E-13
 -1      1936 1.94557E+01 8.67300E-02 1.21066E-02 8.65068E-03-1.47616E-14 4.89282E-13
 -1      1937 1.97470E+01 1.60312E-01-4.85058E-03 1.24132E-01-1.81539E-14 4.12675E-13
 -1      1938 1.94229E+01 3.31289E-02 4.05629E-03-1.22937E-01-3.74264E-14 4.64732E-13
 -1      1939 1.93975E+01 4.66810E-02 6.40671E-03-9.63812E-02-3.95595E-14 4.72316E-13
 -1      1940 1.96304E+01 8.48796E-02-4.31969E-03-5.56266E-02-2.00413E-14 3.76644E-13
 -1      1941 1.94783E+01 1.59332E-02 2.60034E-03-1.66569E-01-4.66966E-15 4.94135E-13
 -1      1942 1.94250E+01 2.38353E-02 3.14634E-03-1.53009E-01-3.17244E-14 4.72851E-13
 -1      1943 1.96040E+01 4.33629E-02-3.17632E-03-1.56803E-01-3.86540E-14 3.13574E-13
 -1      1944 1.95704E+01 5.10936E-03 1.62557E-03-1.86818E-01-2.92078E-14 5.19978E-13
 -1      1945 1.95027E+01 1.00625E-02 1.35944E-03-1.81237E-01-1.87174E-14 5.10984E-13
 -1      1946 1.96342E+01 1.90584E-02-2.17051E-03-2.11205E-01-3.58496E-14 3.38028E-13
 -1      1947 1.96812E+01-2.70671E-03 8.36901E-04-1.91580E-01-2.26189E-15 5.32118E-13
 -1      1948 1.96079E+01 9.58123E-04 3.30305E-04-1.91499E-01-2.59503E-14 5.20629E-13
 -1      1949 1.96990E+01 3.55321E-03-1.38352E-03-2.36342E-01-2.78213E-14 3.52989E-13
 -1      1950 1.97980E+01-9.88613E-03 6.32400E-05-1.84206E-01 6.26776E-14 5.09717E-13
 -1      1951 1.97256E+01-6.29992E-03-3.09017E-04-1.88805E-01 4.89032E-14 5.35937E-13
 -1      1952 1.97833E+01-8.14913E-03-7.83906E-04-2.41308E-01 2.51613E-14 3.32159E-13
 -1      1953 1.99101E+01-1.83177E-02-8.06444E-04-1.64719E-01 1.63857E-13 4.64373E-13
 -1      1954 1.98444E+01-1.38374E-02-7.50668E-04-1.74450E-01 1.15722E-13 4.89035E-13
 -1      1955 1.98762E+01-1.95904E-02-2.95983E-04-2.29665E-01 1.15488E-13 3.62320E-13
 -1      1956 2.00069E+01-2.94881E-02-1.83907E-03-1.30536E-01 1.61224E-13 4.07968E-13
 -1      1957 1.99541E+01-2.33666E-02-1.10388E-03-1.46858E-01 1.97133E-13 4.59471E-13
 -1      1958 1.99685E+01-3.35480E-02 1.61716E-04-2.00860E-01 1.90493E-13 3.39071E-13
 -1      1959 2.00760E+01-4.42645E-02-3.04166E-03-7.72409E-02 1.81539E-14 3.80500E-13
 -1      1960 2.00438E+01-3.61235E-02-1.43184E-03-1.02276E-01 6.77810E-14 3.97908E-13
 -1      1961 2.00510E+01-5.20673E-02 6.63268E-04-1.51195E-01 1.24096E-13 3.57681E-13
 -1      1962 2.01028E+01-6.24062E-02-4.32961E-03 1.70478E-04-1.98444E-14 3.37726E-13
 -1      1963 2.01003E+01-5.25220E-02-1.76377E-03-3.57546E-02-2.04886E-14 3.51564E-13
 -1      1964 2.01137E+01-7.60260E-02 1.26854E-03-7.49896E-02 1.61366E-14 3.78362E-13
 -1      1965 2.00706E+01-8.18742E-02-5.49507E-03 1.05216E-01-1.16066E-14 4.03017E-13
 -1      1966 2.01079E+01-7.15550E-02-2.09720E-03 5.71742E-02-2.68388E-14 3.68625E-13
 -1      1967 2.01445E+01-1.04302E-01 2.01001E-03 3.35626E-02-6.80326E-14 3.24963E-13
 -1      1968 1.99626E+01-9.81843E-02-6.20097E-03 2.36871E-01-2.27002E-14 3.57470E-13
 -1      1969 2.00490E+01-9.00789E-02-2.39612E-03 1.77858E-01 4.24300E-14 3.90605E-13
 -1      1970 2.01290E+01-1.32731E-01 2.86453E-03 1.77428E-01 1.33366E-14 2.68493E-13
 -1      1971 1.97652E+01-1.04317E-01-6.03247E-03 3.85906E-01-1.32281E-14 3.33654E-13
 -1      1972 1.99066E+01-1.02351E-01-2.58384E-03 3.21028E-01-4.61766E-14 3.33696E-13
 -1      1973 2.00522E+01-1.53346E-01 3.70913E-03 3.52614E-01-1.32862E-14 2.85262E-13
 -1      1974 1.94743E+01-9.19107E-02-4.63467E-03 5.31863E-01-8.17768E-14 3.95020E-13
 -1      1975 1.96695E+01-1.00459E-01-2.53019E-03 4.71268E-01-6.00193E-14 3.48583E-13
 -1      1976 1.99006E+01-1.54788E-01 4.27987E-03 5.43601E-01-3.05526E-14 3.06747E-13
 -1      1977 1.91020E+01-5.43045E-02-1.92952E-03 6.42928E-01-2.92253E-14 4.64895E-13
 -1      1978 1.93387E+01-7.63633E-02-2.04703E-03 6.01319E-01-3.53502E-14 4.48783E-13
 -1      1979 1.96684E+01-1.24936E-01 4.17151E-03 7.20240E-01-7.90815E-14 3.32055E-13
 -1      1980 1.86825E+01 8.88304E-03 1.67371E-03 6.81278E-01-6.63567E-14 4.57866E-13
 -1      1981 1.89356E+01-2.58173E-02-9.18205E-04 6.74816E-01-5.23130E-14 4.87289E-13
 -1      1982 1.93641E+01-5.62416E-02 2.93780E-03 8.39176E-01-6.65504E-14 3.34928E-13
 -1      1983 1.82724E+01 8.76440E-02 5.25984E-03 6.15075E-01-2.31935E-14 5.13336E-13
 -1      1984 1.85060E+01 4.68808E-02 1.00662E-03 6.55557E-01-4.94175E-14 5.18259E-13
 -1      1985 1.90171E+01 4.74240E-02 3.37049E-04 8.52881E-01-8.04911E-14 4.51678E-13
 -1      1986 1.79428E+01 1.61581E-01 7.73874E-03 4.34269E-01 3.94888E-14 5.64694E-13
 -1      1987 1.81173E+01 1.26249E-01 3.64718E-03 5.22457E-01 1.88200E-14 5.48897E-13
 -1      1988 1.86799E+01 1.66301E-01-3.27303E-03 7.26802E-01 4.24834E-15 5.08542E-13
 -1      1989 1.77618E+01 2.06713E-01 8.38500E-03 1.62120E-01 7.61544E-15 6.52390E-13
 -1      1990 1.78435E+01 1.88839E-01 6.48268E-03 2.84123E-01 2.93108E-14 6.14350E-13
 -1      1991 1.84191E+01 2.67802E-01-6.75739E-03 4.59285E-01 3.51576E-14 6.21456E-13
 -1      1992 1.77714E+01 2.06823E-01 7.23573E-03-1.46835E-01-4.91794E-14 6.63952E-13
 -1      1993 1.77434E+01 2.12985E-01 8.59756E-03-1.66857E-02-2.96378E-14 6.71673E-13
 -1      1994 1.82961E+01 3.18687E-01-8.67379E-03 9.24708E-02-3.87069E-14 5.15408E-13
 -1      1995 1.79718E+01 1.62142E-01 4.98986E-03-4.24670E-01 9.08162E-14 5.82116E-13
 -1      1996 1.78393E+01 1.89887E-01 9.04876E-03-3.14816E-01 2.23081E-14 6.15608E-13
 -1      1997 1.83425E+01 3.00999E-01-8.14290E-03-2.96344E-01 4.41392E-14 5.71224E-13
 -1      1998 1.83207E+01 8.91369E-02 2.55945E-03-6.15262E-01 9.44392E-14 6.93816E-13
 -1      1999 1.81092E+01 1.28393E-01 7.43378E-03-5.46463E-01 1.08814E-13 6.65586E-13
 -1      2000 1.85474E+01 2.21397E-01-5.47179E-03-6.22000E-01 5.09610E-14 6.17121E-13
 -1      2001 1.87492E+01 1.16908E-02 5.97582E-04-6.92914E-01 5.26406E-14 5.63224E-13
 -1      2002 1.84961E+01 5.00325E-02 4.16990E-03-6.72016E-01 7.90512E-14 6.37909E-13
 -1      2003 1.88622E+01 1.07569E-01-1.89584E-03-8.22989E-01 1.22396E-13 6.43769E-13
 -1      2004 1.91849E+01-5.00007E-02-6.73335E-04-6.65610E-01 3.69104E-14 5.52924E-13
 -1      2005 1.89287E+01-2.18587E-02 2.90216E-04-6.86052E-01 7.05869E-14 5.50226E-13
 -1      2006 1.92206E+01-5.71676E-03 1.20629E-03-8.79946E-01 8.03971E-14 6.05358E-13
 -1      2007 1.95713E+01-8.61029E-02-1.31763E-03-5.64328E-01-7.22935E-14 5.90947E-13
 -1      2008 1.93427E+01-7.17255E-02-3.08901E-03-6.11662E-01-2.76905E-15 5.35942E-13
 -1      2009 1.95622E+01-9.14283E-02 3.10261E-03-8.13608E-01 2.61388E-14 6.12182E-13
 -1      2010 1.98763E+01-9.71300E-02-1.52512E-03-4.27174E-01-4.53387E-14 5.78377E-13
 -1      2011 1.96935E+01-9.51093E-02-5.26709E-03-4.85616E-01-9.81272E-14 5.25361E-13
 -1      2012 1.98465E+01-1.38122E-01 3.75545E-03-6.67777E-01-2.66705E-14 5.47691E-13
 -1      2013 2.00907E+01-8.98050E-02-1.46363E-03-2.86827E-01 1.40082E-13 5.09614E-13
 -1      2014 1.99599E+01-9.61461E-02-6.09190E-03-3.43806E-01 6.75892E-14 5.00539E-13
 -1      2015 2.00563E+01-1.48619E-01 3.52485E-03-4.89697E-01 4.35175E-14 4.44804E-13
 -1      2016 2.02220E+01-7.24912E-02-1.25586E-03-1.64637E-01 1.34630E-13 4.02096E-13
 -1      2017 2.01397E+01-8.28636E-02-5.81607E-03-2.12546E-01 1.40875E-13 5.30427E-13
 -1      2018 2.01920E+01-1.33721E-01 2.84593E-03-3.16692E-01 1.73224E-13 3.52726E-13
 -1      2019 2.02859E+01-5.21812E-02-9.81581E-04-7.04540E-02 1.28160E-13 3.61894E-13
 -1      2020 2.02435E+01-6.32295E-02-4.86372E-03-1.06266E-01 1.94678E-13 4.18938E-13
 -1      2021 2.02649E+01-1.05788E-01 2.04924E-03-1.71246E-01 1.39891E-13 5.25693E-13
 -1      2022 2.03010E+01-3.33848E-02-6.95387E-04-5.51618E-03 1.68802E-13 2.60902E-13
 -1      2023 2.02880E+01-4.30985E-02-3.64114E-03-2.94152E-02 1.83186E-13 3.11560E-13
 -1      2024 2.02902E+01-7.47545E-02 1.32101E-03-6.22821E-02 2.24227E-13 4.58874E-13
 -1      2025 2.02844E+01-1.82808E-02-4.33104E-04 3.39611E-02 6.81186E-14 2.46644E-13
 -1      2026 2.02908E+01-2.58035E-02-2.44197E-03 2.00535E-02 7.70049E-14 2.99552E-13
 -1      2027 2.02829E+01-4.68083E-02 7.37069E-04 1.07457E-02 1.59068E-13 3.96492E-13
 -1      2028 2.02501E+01-7.39735E-03-2.15297E-04 5.38245E-02 4.75352E-14 2.94749E-13
 -1      2029 2.02675E+01-1.26407E-02-1.43053E-03 4.73833E-02 9.41097E-14 3.40822E-13
 -1      2030 2.02561E+01-2.47720E-02 3.10133E-04 5.35270E-02 2.20785E-14 4.79588E-13
 -1      2031 2.02083E+01-3.26261E-04-5.00793E-05 6.00536E-02-2.22288E-14 2.02172E-13
 -1      2032 2.02305E+01-3.60784E-03-6.67565E-04 5.86486E-02 5.62420E-14 2.42465E-13
 -1      2033 2.02194E+01-9.15313E-03 2.25457E-05 7.35707E-02 8.26912E-14 5.15628E-13
 -1      2034 2.01658E+01 3.73481E-03 6.38432E-05 5.77591E-02-5.84320E-14 1.02540E-14
 -1      2035 2.01887E+01 1.95055E-03-1.47233E-04 5.93894E-02-1.75675E-14 8.87658E-14
 -1      2036 2.01800E+01 8.13105E-04-1.54017E-04 7.81500E-02 7.78326E-14 3.86054E-13
 -1      2037 2.01267E+01 5.64570E-03 1.33448E-04 5.08316E-02-1.00765E-13-1.08215E-13
 -1      2038 2.01478E+01 4.89972E-03 1.70152E-04 5.40183E-02-1.03395E-13-1.10813E-13
 -1      2039 2.01421E+01 6.39194E-03-2.48508E-04 7.33009E-02-1.94242E-14 5.79131E-14
 -1      2040 2.00930E+01 6.15473E-03 1.68308E-04 4.19700E-02-1.50525E-13 1.67574E-13
 -1      2041 2.01112E+01 6.06413E-03 3.35100E-04 4.57157E-02-8.98682E-14 6.14336E-14
 -1      2042 2.01083E+01 8.88252E-03-2.85989E-04 6.35284E-02-1.89529E-13-2.95630E-14
 -1      2043 2.00656E+01 5.83988E-03 1.78257E-04 3.28816E-02-1.37537E-13 2.67893E-13
 -1      2044 2.00803E+01 6.11757E-03 3.95547E-04 3.65757E-02-2.02291E-13 2.27106E-13
 -1      2045 2.00798E+01 9.39139E-03-2.86345E-04 5.19056E-02-2.94599E-13 9.55173E-14
 -1      2046 2.00442E+01 5.11004E-03 1.71925E-04 2.45307E-02 5.77321E-14 1.34811E-13
 -1      2047 2.00555E+01 5.55811E-03 3.90775E-04 2.78446E-02-3.12463E-14 1.68874E-13
 -1      2048 2.00567E+01 8.76046E-03-2.64498E-04 4.03433E-02-1.19261E-13 2.32038E-13
 -1      2049 2.00283E+01 4.23226E-03 1.55982E-04 1.73682E-02 3.59544E-13 1.47819E-14
 -1      2050 2.00365E+01 4.72501E-03 3.49842E-04 2.01634E-02 2.16542E-13 2.09882E-13
 -1      2051 2.00387E+01 7.57753E-03-2.31070E-04 2.98935E-02 1.53781E-13 7.76258E-14
 -1      2052 2.00169E+01 3.36552E-03 1.34866E-04 1.15191E-02 4.29055E-13-8.09916E-14
 -1      2053 2.00226E+01 3.83096E-03 2.92392E-04 1.37741E-02 4.17239E-13 5.78266E-14
 -1      2054 2.00253E+01 6.22063E-03-1.93181E-04 2.10238E-02 3.60965E-13 5.25535E-14
 -1      2055 2.00092E+01 2.58851E-03 1.10285E-04 6.92336E-03 1.13298E-13 7.31856E-14
 -1      2056 2.00129E+01 2.99510E-03 2.30313E-04 8.67980E-03 3.59347E-13 2.80423E-14
 -1      2057 2.00156E+01 4.90953E-03-1.55040E-04 1.38375E-02 3.81394E-13 1.11351E-13
 -1      2058 2.00044E+01 1.91296E-03 8.31658E-05 3.44718E-03 6.33585E-14-6.06016E-14
 -1      2059 2.00065E+01 2.26490E-03 1.69980E-04 4.76504E-03 6.78176E-14 4.26444E-14
 -1      2060 2.00089E+01 3.74076E-03-1.19773E-04 8.24110E-03 1.74097E-13 3.66992E-13
 -1      2061 2.00017E+01 1.28943E-03 5.88212E-05 9.86185E-04 1.42897E-13-2.79162E-13
 -1      2062 2.00027E+01 1.60413E-03 1.11372E-04 1.89195E-03 1.64542E-14-2.22093E-13
 -1      2063 2.00046E+01 2.69267E-03-9.83852E-05 4.07852E-03 1.95384E-13 7.85511E-14
 -1      2064 2.00004E+01 5.24340E-04 4.46359E-05-3.31556E-04-6.60806E-14-3.73677E-13
 -1      2065 2.00007E+01 9.31227E-04 7.50643E-05 7.56773E-05 2.22217E-13-2.99212E-13
 -1      2066 2.00020E+01 1.75602E-03-3.85406E-05 1.31940E-03 7.80019E-14-3.24427E-14
 -1      2067 2.00006E+01 6.73469E-04 5.59401E-06-1.94793E-04-1.89320E-13 8.81510E-14
 -1      2068 2.00004E+01 6.47765E-03-3.35898E-05 3.48497E-03-1.11752E-13 1.52975E-13
 -1      2069 2.00007E+01 5.34094E-03 5.50567E-05 3.08342E-03-2.00848E-13 1.47230E-13
 -1      2070 2.00009E+01 3.71747E-03-1.07235E-06 2.40478E-03-9.88603E-14 1.57698E-13
 -1      2071 2.00010E+01 2.83613E-03 2.50261E-05 1.74181E-03-1.05941E-13 3.37389E-13
 -1      2072 2.00013E+01 6.29761E-03-3.51946E-06 3.89169E-03-1.18735E-13 1.46784E-13
 -1      2073 2.00009E+01 1.21282E-03 3.60081E-05 4.89229E-04-1.56970E-13 2.81483E-13
 -1      2074 1.99997E+01 9.38240E-03-5.48437E-05 3.73825E-03-1.31547E-13-3.14075E-13
 -1      2075 2.00000E+01 8.18102E-03 3.95711E-05 3.71836E-03-2.58493E-13 2.21072E-14
 -1      2076 2.00004E+01 9.57531E-03 1.06518E-05 4.89659E-03-4.94649E-14-4.60017E-14
 -1      2077 1.99990E+01 1.20209E-02-7.07183E-05 3.09934E-03-1.79821E-13-3.69942E-13
 -1      2078 1.99993E+01 1.09618E-02 1.10976E-05 3.46352E-03-1.76488E-13-1.23196E-13
 -1      2079 1.99994E+01 1.28332E-02 3.59329E-05 4.81470E-03-8.51576E-14-2.08203E-13
 -1      2080 1.99985E+01 1.38679E-02-7.54036E-05 1.70773E-03-2.04130E-13-3.45391E-13
 -1      2081 1.99988E+01 1.32115E-02-1.98415E-05 2.36974E-03-1.94266E-13-3.50783E-13
 -1      2082 1.99985E+01 1.55898E-02 6.25834E-05 3.64830E-03-4.57379E-14-3.70784E-13
 -1      2083 1.99984E+01 1.45708E-02-6.64961E-05-1.23123E-04-2.04364E-13 2.70723E-13
 -1      2084 1.99984E+01 1.44727E-02-4.67878E-05 6.82182E-04-2.14683E-13-9.86425E-14
 -1      2085 1.99979E+01 1.73789E-02 8.12600E-05 1.63289E-03-1.90304E-13-1.27947E-13
 -1      2086 1.99985E+01 1.39855E-02-4.40414E-05-1.97957E-03-2.89762E-14 1.16696E-13
 -1      2087 1.99984E+01 1.44817E-02-6.44364E-05-1.21989E-03-2.20129E-13 3.60569E-13
 -1      2088 1.99978E+01 1.78948E-02 8.87075E-05-8.00770E-04-3.69705E-13 3.25555E-13
 -1      2089 1.99990E+01 1.22090E-02-1.20431E-05-3.42471E-03 5.64733E-15 3.42778E-15
 -1      2090 1.99987E+01 1.32047E-02-6.97094E-05-2.89969E-03-2.38927E-14 1.67237E-13
 -1      2091 1.99981E+01 1.70306E-02 8.25560E-05-3.12162E-03-2.44549E-13 1.43884E-13
 -1      2092 1.99997E+01 9.62687E-03 2.37340E-05-4.08561E-03 2.27326E-13-3.31230E-13
 -1      2093 1.99994E+01 1.08812E-02-6.35545E-05-3.93815E-03 1.05236E-13-1.75253E-13
 -1      2094 1.99990E+01 1.49313E-02 6.52897E-05-4.79020E-03-1.19539E-13-3.48569E-14
 -1      2095 2.00005E+01 6.63863E-03 5.37403E-05-3.77861E-03 4.70634E-13 1.61056E-13
 -1      2096 2.00001E+01 7.92459E-03-4.70605E-05-4.06905E-03 5.22974E-13-2.84664E-13
 -1      2097 2.00000E+01 1.19208E-02 3.48152E-05-5.40990E-03 3.42774E-13-8.90583E-14
 -1      2098 2.00012E+01 3.82964E-03 6.30895E-05-2.53115E-03 1.83483E-13 3.29263E-14
 -1      2099 2.00009E+01 4.85966E-03-2.42933E-05-3.20288E-03 2.26605E-13 8.61181E-14
 -1      2100 2.00011E+01 8.46269E-03 2.08860E-06-4.79974E-03 3.48813E-13 4.80508E-15
 -1      2101 2.00013E+01 1.65680E-03 5.92454E-05-7.30467E-04-2.59059E-13-9.28557E-14
 -1      2102 2.00013E+01 2.26948E-03-1.16382E-07-1.56744E-03-1.20246E-13-8.99050E-14
 -1      2103 2.00019E+01 5.14018E-03-2.97622E-05-3.09583E-03-8.34041E-14-2.03188E-13
 -1      2104 1.97398E+01 1.80893E-01 1.28602E-02 3.11164E-01-6.98053E-15 5.25961E-13
 -1      2105 1.99876E+01 2.57797E-01 1.70702E-02 4.90590E-01-2.42393E-14 5.32329E-13
 -1      2106 2.01862E+01 4.17223E-01-5.38338E-04 7.14422E-01-2.83298E-14 4.60631E-13
 -1      2107 1.99260E+01 2.67818E-01-3.93360E-03 3.80051E-01-1.18221E-14 4.40056E-13
 -1      2108 1.17391E+01-4.71460E+00-7.11970E-02 7.68904E+00 2.93765E-13-3.45349E-14
 -1      2109 7.89698E+00-6.45824E+00-3.28752E-01 6.56193E+00 2.78721E-13-8.33222E-14
 -1      2110 3.02479E+01 6.92316E-01 2.08569E-01 6.53565E+00 2.75779E-13 7.29417E-14
 -1      2111 2.53814E+01-1.57358E+00-1.15310E-01 6.23661E+00 3.85358E-13 3.13638E-14
 -1      2112 3.38259E-01-6.83825E+00-2.65075E-01 2.44965E+00 1.94067E-13 6.61360E-13
 -1      2113-1.38649E-01-7.88744E+00-4.19796E-01 8.89054E-01 3.26007E-14 7.15428E-13
 -1      2114 1.95338E+01 4.02241E+00-2.57492E-02-1.68251E+00 1.22499E-13-1.48239E-13
 -1      2115 1.96621E+01 3.94743E+00-2.40965E-02-1.93759E+00 1.11344E-13-1.76612E-13
 -1      2116 1.99838E+01 3.25764E+00-8.01053E-03-1.88867E+00 1.05198E-13-1.84075E-13
 -1      2117 1.97037E+01 3.59411E+00-9.16704E-03-1.49721E+00 1.32566E-13-1.28795E-13
 -1      2118 3.31915E+01-2.22867E+00-8.83697E-02 3.61057E+00-2.08736E-13-8.06369E-13
 -1      2119 3.35395E+01-3.03708E+00 2.96852E-02 2.11788E+00 1.81920E-14-8.23563E-13
 -1      2120 3.12102E+01-4.23908E+00-6.88356E-02 5.56740E-03 1.45398E-13-3.38493E-13
 -1      2121 3.63940E+01 3.55760E+00 1.79811E-01 4.13753E+00 3.01592E-13-9.23150E-14
 -1      2122 3.24503E+01 2.13317E+00 1.00376E-02 5.15872E+00 2.27221E-13 7.68274E-14
 -1      2123 3.16868E+01-1.61064E-01 1.59774E-01 3.32481E+00 2.74142E-13 4.74065E-14
 -1      2124 4.11320E+01 6.69212E+00 3.18308E-01 1.86341E+00 4.79172E-13-2.42584E-13
 -1      2125 3.78158E+01 5.72638E+00 6.20574E-02 2.62034E+00 4.56024E-13-1.11799E-13
 -1      2126 4.28443E+01 7.87075E+00 3.19322E-01-1.19190E-02 2.49967E-13-2.77823E-13
 -1      2127 4.18898E+01 7.50284E+00 2.06370E-01 1.45809E+00 4.15890E-13-1.87211E-13
 -1      2128 3.70403E+01 8.03410E+00 2.84481E-01-9.20994E-02 4.42868E-13-9.09550E-14
 -1      2129 4.13110E+01 7.20611E+00 2.22559E-01-2.12822E+00-5.84532E-14-3.78364E-13
 -1      2130 4.33568E+01 7.66759E+00 3.97239E-01-7.61945E-01-2.03726E-14-4.17694E-13
 -1      2131 3.66569E+01 4.47804E+00 1.08234E-01-4.03340E+00-2.08028E-14-3.36398E-13
 -1      2132 3.99454E+01 5.69974E+00 3.00316E-01-2.89843E+00-3.73312E-14-3.83193E-13
 -1      2133 2.99969E+01 9.16385E-01-5.68480E-02-5.56646E+00 4.99600E-16-2.37366E-13
 -1      2134 3.47940E+01 2.75412E+00 2.69544E-01-5.39756E+00 1.45439E-14-3.54272E-13
 -1      2135 2.13406E+01-2.53885E+00-1.97610E-01-7.02223E+00 8.40994E-14-1.08413E-13
 -1      2136 2.65297E+01-6.12323E-01 1.24884E-01-7.29679E+00 4.99600E-16-2.41307E-13
 -1      2137 1.31963E+01-5.30882E+00-2.98250E-01-7.14551E+00 2.69784E-14-1.27232E-13
 -1      2138 1.77019E+01-3.27956E+00 1.98987E-02-7.99468E+00 8.97060E-14-4.68514E-14
 -1      2139 6.21563E+00-6.89613E+00-3.48678E-01-6.06997E+00 6.93889E-14-7.21090E-14
 -1      2140 9.67300E+00-5.21310E+00-1.07357E-01-7.21339E+00 2.67564E-14-1.48347E-13
 -1      2141 1.42633E+01-5.46190E+00-5.79567E-02-8.09079E+00 1.87073E-14-1.01807E-13
 -1      2142 7.69079E-01-7.95361E+00-4.15653E-01-3.30194E+00 2.03976E-13 3.59712E-14
 -1      2143 2.50629E+00-6.90730E+00-2.93961E-01-4.75634E+00 2.00118E-13-3.92464E-14
 -1      2144 1.79990E-01-7.17430E+00-3.06403E-01 1.16719E-01 2.42029E-14-1.12577E-13
 -1      2145 6.20608E-03-7.34986E+00-3.45322E-01-1.57671E+00 7.91034E-14-6.09512E-14
 -1      2146 4.08308E+00-7.42857E+00-3.55698E-01 3.53293E+00-1.29841E-13-4.90719E-13
 -1      2147 1.82447E+00-7.59038E+00-3.67169E-01 2.21930E+00-6.53089E-14-2.46858E-13
 -1      2148 1.15300E+01-6.53927E+00-2.90718E-01 5.53289E+00-1.45439E-13-4.10200E-13
 -1      2149 7.00211E+00-8.10249E+00-5.80093E-01 4.18534E+00-1.31450E-13-4.33403E-13
 -1      2150 2.30534E+01-5.23620E+00-1.36226E-01 5.56716E+00-1.70086E-13-3.60711E-13
 -1      2151 1.70061E+01-6.88273E+00-4.90548E-01 5.03160E+00-1.11466E-13-3.74895E-13
 -1      2152 3.42109E+01-2.64424E+00 1.55408E-01 3.18230E+00-2.81941E-13-2.37588E-14
 -1      2153 2.80437E+01-4.76578E+00-3.55441E-01 3.36716E+00-1.66644E-13-1.14686E-13
 -1      2154 4.15566E+01 7.22992E-01 3.52369E-01 4.57835E-01-3.24796E-13 8.69305E-14
 -1      2155 3.65301E+01-1.29974E+00-7.94919E-02 1.23965E+00-3.38507E-13 1.89848E-14
 -1      2156 3.54396E+01-3.25833E+00 1.52296E-01-5.03497E-01-2.07528E-13 1.67810E-13
 -1      2157 4.71633E+01 4.99672E+00 7.79474E-01-5.49780E-01-1.54821E-13-9.92539E-14
 -1      2158 4.36616E+01 3.65843E+00 4.26040E-01-4.56181E-01-2.35978E-13-5.37348E-14
 -1      2159 4.69170E+01 6.78258E+00 7.31088E-01-2.86439E-01-2.32370E-13-1.34198E-13
 -1      2160 4.76551E+01 6.29548E+00 8.45932E-01-2.21740E-01-2.30038E-13-1.12521E-13
 -1      2161 4.20250E+01 5.75130E+00 5.83115E-01-2.17614E+00-1.86740E-13-9.49241E-14
 -1      2162 4.50387E+01 4.66582E+00 5.43904E-01 7.51460E-01-6.37268E-13-1.24123E-13
 -1      2163 4.59116E+01 5.87931E+00 6.10478E-01 1.01250E+00-4.24882E-13-3.04201E-13
 -1      2164 4.00336E+01 1.01260E+00 1.14332E-01 3.32123E-01-8.42076E-13 7.56062E-14
 -1      2165 4.45607E+01 2.88399E+00 5.57551E-01 3.75353E-01-8.04468E-13-7.97140E-14
 -1      2166 4.04131E+01 3.56266E+00 4.28438E-01 3.48641E+00-7.97251E-13-1.93290E-13
 -1      2167 3.18152E+01-3.11915E+00-2.22788E-01-2.93580E+00-5.24913E-13 7.66942E-13
 -1      2168 3.76725E+01-1.30909E+00 2.08326E-01-2.09284E+00-7.27363E-13 3.82139E-13
 -1      2169 2.14034E+01-5.70446E+00-4.92751E-01-4.76242E+00-3.11751E-13 8.68083E-13
 -1      2170 2.75936E+01-3.88748E+00-6.51224E-02-5.07465E+00-3.85025E-13 9.99312E-13
 -1      2171 1.22881E+01-7.40025E+00-4.94626E-01-4.99852E+00-2.72005E-13 7.99201E-13
 -1      2172 1.72837E+01-5.90548E+00-2.04344E-01-5.80122E+00-3.24074E-13 9.21485E-13
 -1      2173 4.40305E+00-8.08561E+00-5.09255E-01-3.45347E+00-2.71616E-13 5.83367E-13
 -1      2174 7.85206E+00-6.83377E+00-2.82100E-01-4.88781E+00-3.39506E-13 6.70602E-13
 -1      2175 2.48749E-01-8.39331E+00-4.67732E-01-7.55356E-01 2.56739E-15 7.52287E-13
 -1      2176 1.61882E+00-7.92963E+00-4.09725E-01-2.09525E+00-2.08111E-13 6.77181E-13
 -1      2177 4.47654E+00-6.19007E+00-2.04565E-01 5.77849E+00 2.27762E-13-2.59237E-14
 -1      2178 2.13240E+00-7.18703E+00-3.29348E-01 4.39632E+00 2.64844E-13 2.25764E-13
 -1      2179 2.00005E+01 4.05807E-05-1.12701E-05 1.15525E-03-2.23295E-13-2.05623E-13
 -1      2180 1.63103E+01-5.29263E+00 5.66808E-03 8.02857E+00 1.68698E-13 9.90961E-14
 -1      2181 2.07464E+01 1.12032E+00-2.39042E-02-1.62209E+00 2.86854E-14-3.00711E-13
 -1      2182 2.06411E+01 1.35118E+00-1.81512E-02-1.68027E+00 3.72636E-14-2.31211E-13
 -1      2183 3.58583E+01 4.61198E+00-6.74154E-02 7.26981E-01-2.98539E-13-2.19075E-13
 -1      2184 3.59399E+01 3.27114E+00-1.72930E-01 3.46825E+00-6.36324E-13-2.37033E-13
 -1      2185 2.50980E+01-3.73027E+00 6.36923E-02 6.20655E+00 3.96627E-13-1.02141E-14
 -1      2186 3.55215E+01-2.16672E+00-5.10464E-02-3.65748E+00-1.97696E-13 3.73590E-14
 -1      2187 3.54073E+01 3.92087E-03-1.22341E-01-4.07634E+00-1.40360E-13 5.57054E-14
 -1      2188 3.66852E+01 2.13662E+00-1.16417E-01-4.16423E+00-1.56708E-13-6.02851E-14
 -1      2189 3.63189E+01 4.03845E+00-6.88428E-02-2.50320E+00-7.82707E-14-6.38933E-14
 -1      2190 2.00016E+01 2.86600E-03-8.42245E-06 1.76059E-03 2.82832E-14 3.66698E-13
 -1      2191 2.59993E+00-4.67211E+00-1.21337E-01 4.01890E+00 3.56937E-14 5.04041E-13
 -1      2192 2.00009E+01 5.86894E-04 3.79996E-05 5.25628E-04-2.78729E-13-4.95125E-14
 -1      2193 2.00012E+01 8.78559E-04 1.19193E-05-2.03788E-05-2.72931E-13 1.35796E-13
 -1      2194 2.00020E+01 2.89791E-03-3.06859E-05-1.25006E-03-2.93731E-13-9.19607E-14
 -1      2195 2.00016E+01 1.63348E-03 4.22308E-05 1.37888E-04-1.99232E-13 1.85494E-13
 -1      2196 8.27618E+00-5.20912E+00-8.06376E-02 7.32842E+00 7.14429E-14-8.27394E-14
 -1      2197 3.53558E+01 4.18526E+00 1.86580E-01 1.03800E+00 3.81334E-13-1.31395E-13
 -1      2198 1.30674E+00-4.94451E+00-2.02757E-01-3.21025E-01-6.55517E-14 8.56482E-13
 -1      2199 4.95623E+00-5.69775E+00-1.98568E-01-4.01775E+00-1.47993E-13 7.12597E-13
 -1      2200 1.29453E+01-6.51362E+00-1.52143E-01-5.84483E+00-1.79801E-13 6.86881E-13
 -1      2201 2.25133E+01-6.68293E+00-1.22935E-01-5.00863E+00-7.90479E-14 7.23921E-13
 -1      2202 3.80397E+01-1.04452E+00 2.40895E-01 1.54210E+00-7.48852E-13-7.83817E-14
 -1      2203 4.14965E+01 6.23471E+00 5.10974E-01 1.13888E+00-3.58158E-13-1.93068E-13
 -1      2204 4.01730E+01 1.39155E+00 3.59749E-01-3.04853E+00-2.46136E-13 1.10911E-13
 -1      2205 2.83991E+01-6.09098E+00 4.05364E-03 3.15482E+00-1.48881E-13-2.03171E-14
 -1      2206 1.73563E+01-6.72328E+00-1.07080E-01 5.79329E+00-4.41314E-14-3.50813E-13
 -1      2207 8.01705E+00-6.04812E+00-1.99161E-01 5.14123E+00-1.09412E-13-4.76591E-13
 -1      2208 2.60154E+00-4.78346E+00-1.34464E-01 1.80863E+00-5.92720E-14-2.32869E-13
 -1      2209 6.27381E+00-5.47957E+00-1.46116E-01-6.60736E+00 1.47327E-13 2.48690E-14
 -1      2210 2.20263E+01-4.51982E+00 3.66614E-02-7.10946E+00 2.44249E-15-3.59157E-14
 -1      2211 2.95310E+01-1.56722E+00 1.35610E-01-4.65151E+00-9.37028E-14-1.35114E-13
 -1      2212 3.45869E+01 2.72092E+00 2.36006E-01-1.83954E+00-7.24143E-14-1.87406E-13
 -1      2213 3.84824E+01 8.97164E+00 3.37031E-01-6.14590E-02 1.57041E-13-3.77302E-14
 -1      2214 3.75515E+01 6.83081E+00 2.97853E-01-4.75771E-01-6.96665E-14-2.43972E-13
 -1      2215 1.59806E+00-4.84911E+00-1.71036E-01-2.78130E+00 1.21125E-13-1.08136E-13
 -1      2216 3.16903E+01-4.89486E+00 7.08228E-02-2.04218E+00-2.12552E-13 5.01099E-13
 -1      2217 3.58221E+01 2.10921E+00-6.59296E-02 4.01171E+00-8.06077E-13-3.19605E-13
 -1      2218 3.56159E+01-4.27823E-01-1.36515E-01 4.63344E+00-6.41487E-13-6.37823E-13
 -1      2219 1.95587E+01 3.54394E+00-1.12156E-02-5.78149E-01 1.70108E-13 1.56593E-14
 -1      2220 1.95966E+01 3.49643E+00-1.04284E-02-7.59506E-01 1.64806E-13-2.07560E-14
 -1      2221 1.96457E+01 3.40510E+00-1.29435E-02-9.21031E-01 1.50768E-13-4.53977E-14
 -1      2222 1.97093E+01 3.32221E+00-1.27184E-02-1.10814E+00 1.42504E-13-8.07679E-14
 -1      2223 1.97870E+01 3.06390E+00 3.60703E-04-7.72147E-01 1.60116E-13-2.14507E-14
 -1      2224 1.95067E+01 3.62951E+00-9.57908E-03 9.70867E-02 1.94904E-13 8.78820E-14
 -1      2225 1.95064E+01 3.63046E+00-9.61730E-03-7.86804E-02 1.87712E-13 7.46278E-14
 -1      2226 1.95340E+01 3.58796E+00-9.63458E-03 4.35392E-01 1.84648E-13 9.60308E-14
 -1      2227 1.95157E+01 3.61153E+00-1.01717E-02 2.58002E-01 1.90040E-13 8.52790E-14
 -1      2228 1.96700E+01 3.25836E+00-6.79200E-04 1.64315E-01 1.83652E-13 7.62996E-14
 -1      2229 1.95990E+01 3.48731E+00-1.04964E-02 7.72946E-01 1.69150E-13 1.48997E-13
 -1      2230 1.95609E+01 3.53603E+00-1.12843E-02 5.94272E-01 1.74636E-13 1.19041E-13
 -1      2231 1.97088E+01 3.19144E+00-3.22833E-04 4.74427E-01 1.72890E-13 1.01946E-13
 -1      2232 1.97139E+01 3.30788E+00-1.28049E-02 1.12164E+00 1.52670E-13 2.14899E-13
 -1      2233 1.96490E+01 3.39350E+00-1.29884E-02 9.34252E-01 1.58025E-13 1.76997E-13
 -1      2234 1.97899E+01 3.05232E+00 3.89388E-04 7.83388E-01 1.57992E-13 1.55658E-13
 -1      2235 1.98969E+01 3.01588E+00-1.79874E-02 1.46630E+00 1.11677E-13 2.92576E-13
 -1      2236 1.97955E+01 3.15936E+00-1.53711E-02 1.27693E+00 1.33649E-13 2.49187E-13
 -1      2237 1.99243E+01 2.82025E+00 2.09698E-03 1.08505E+00 1.24123E-13 2.17001E-13
 -1      2238 2.01747E+01 2.54399E+00-2.85323E-02 1.76306E+00 6.18555E-14 3.39395E-13
 -1      2239 2.00216E+01 2.79247E+00-1.81737E-02 1.59831E+00 8.96754E-14 3.08887E-13
 -1      2240 2.01235E+01 2.46181E+00 5.84461E-03 1.35140E+00 7.46929E-14 2.85250E-13
 -1      2241 2.05894E+01 1.79708E+00-2.64225E-02 1.87048E+00 2.10700E-14 4.19949E-13
 -1      2242 2.03703E+01 2.22880E+00-1.08621E-02 1.83114E+00 5.19224E-14 3.77937E-13
 -1      2243 2.03956E+01 1.91909E+00 1.39607E-02 1.50746E+00 3.39472E-14 3.40991E-13
 -1      2244 2.07930E+01 1.06801E+00-1.77054E-02 1.57364E+00-1.63307E-14 4.64849E-13
 -1      2245 2.06815E+01 1.53680E+00 8.17373E-04 1.77315E+00 5.65693E-15 4.32319E-13
 -1      2246 2.05112E+01 1.28361E+00 5.83695E-04 1.39887E+00 1.26722E-14 4.00990E-13
 -1      2247 2.04549E+01 7.45631E-01-1.64848E-03 1.09343E+00-2.76151E-14 4.48731E-13
 -1      2248 2.04258E+01 8.86558E-01 1.17648E-02-1.00703E+00 3.25573E-14-1.76117E-13
 -1      2249 2.02226E+01 6.57647E-01-3.15238E-03-6.87572E-01 3.63598E-14-1.65680E-13
 -1      2250 2.61998E+01-3.71029E+00 4.93581E-02-3.32925E+00 2.95194E-13-7.13648E-14
 -1      2251 2.47261E+01-2.19721E+00 1.49545E-01-4.14577E+00 3.25170E-13-9.37028E-14
 -1      2252 2.05519E+01 1.97127E+00-1.44760E-02-1.88979E+00 6.35637E-14-2.12570E-13
 -1      2253 2.04319E+01 1.25056E+00-5.65070E-03-1.29222E+00 3.61334E-14-1.97898E-13
 -1      2254 2.03897E+01 1.41020E+00 3.53631E-03-1.22567E+00 5.48311E-14-1.70692E-13
 -1      2255 2.02961E+01 2.38396E+00-7.68839E-03-1.81308E+00 8.59044E-14-1.95427E-13
 -1      2256 2.73496E+01-3.72659E+00-7.89019E-02 4.77158E+00 2.80748E-13-1.54210E-13
 -1      2257 2.34693E+01-4.85131E+00 4.36108E-02 6.12600E+00 2.03171E-13-8.40439E-14
 -1      2258 3.40584E+01-3.89000E+00-4.95244E-02-1.11580E+00-2.15050E-13 1.18239E-13
 -1      2259 2.01562E+01 4.94494E-01 1.49126E-02-4.60781E-01 3.71196E-14-1.38792E-13
 -1      2260 2.00267E+01 3.72721E-01 1.94095E-03-2.79278E-01 5.17321E-14-1.40894E-13
 -1      2261 2.02722E+01 7.85271E-01-7.63310E-04-6.79167E-01 4.83682E-14-1.21360E-13
 -1      2262 1.99662E+01 2.90113E-01 1.00758E-02-1.36873E-01 6.90134E-14-1.35203E-13
 -1      2263 1.99031E+01 2.24764E-01 2.47230E-03-3.24444E-02 7.34903E-14-1.09286E-13
 -1      2264 2.01232E+01 4.59751E-01-2.58574E-03-2.83769E-01 6.95138E-14-9.41588E-14
 -1      2265 1.98601E+01 1.75112E-01 5.92015E-03 6.58105E-02 3.62797E-14-9.21379E-14
 -1      2266 1.98409E+01 1.38267E-01 2.41516E-03 1.34835E-01 1.82628E-14-6.97604E-14
 -1      2267 2.00153E+01 2.79016E-01-2.87633E-03-2.29669E-02 6.51403E-14-8.54889E-14
 -1      2268 1.98204E+01 1.12634E-01 3.35210E-03 1.99084E-01 2.49823E-14-6.99485E-14
 -1      2269 1.98352E+01 9.52022E-02 2.60906E-03 2.45836E-01 5.00876E-14-4.41753E-14
 -1      2270 1.99531E+01 1.75006E-01-3.04781E-03 1.54596E-01 2.07640E-14-6.72715E-14
 -1      2271 1.98323E+01 8.49840E-02 1.65653E-03 2.91695E-01 4.34976E-14-5.18069E-14
 -1      2272 1.98721E+01 8.18936E-02 3.05674E-03 3.29079E-01 2.84485E-14-4.82136E-14
 -1      2273 1.99327E+01 1.24166E-01-3.03644E-03 2.76849E-01 4.07139E-14-2.74687E-14
 -1      2274 1.98816E+01 8.37157E-02 5.15821E-04 3.68031E-01-1.19032E-14-6.37087E-14
 -1      2275 1.99415E+01 9.29540E-02 3.80358E-03 4.06041E-01-3.34830E-14-9.90465E-14
 -1      2276 1.99438E+01 1.11283E-01-3.05924E-03 3.71873E-01-1.98323E-14-5.42719E-14
 -1      2277 1.99585E+01 1.06055E-01-3.57683E-04 4.47590E-01-4.28567E-14-1.06330E-13
 -1      2278 2.00370E+01 1.27933E-01 4.96789E-03 4.95270E-01-5.49129E-14-1.16201E-13
 -1      2279 1.99766E+01 1.30519E-01-3.16564E-03 4.61823E-01-4.87863E-14-7.01927E-14
 -1      2280 2.00563E+01 1.53288E-01-1.20656E-03 5.48310E-01-2.85375E-14-9.55715E-14
 -1      2281 2.01535E+01 1.89747E-01 6.33291E-03 6.15156E-01-1.72128E-15-9.17200E-14
 -1      2282 2.00220E+01 1.82116E-01-3.24328E-03 5.66133E-01-1.99927E-14-2.10295E-14
 -1      2283 2.01674E+01 2.28063E-01-2.03936E-03 6.84855E-01 3.80999E-14-8.55061E-14
 -1      2284 2.02815E+01 2.79672E-01 8.47489E-03 7.75700E-01 6.09966E-14-4.70783E-14
 -1      2285 2.00685E+01 2.68045E-01-3.02815E-03 6.99316E-01 4.35710E-14 2.80831E-14
 -1      2286 2.02836E+01 3.38197E-01-3.50262E-03 8.78459E-01 9.30209E-14-4.89472E-14
 -1      2287 2.04276E+01 4.15485E-01 1.16054E-02 1.01586E+00 1.08328E-13-3.82383E-14
 -1      2288 2.01030E+01 3.96448E-01-3.04009E-03 8.82889E-01 8.14171E-14-1.08528E-14
 -1      2289 2.04005E+01 4.96299E-01-5.47444E-03 1.16050E+00 8.70844E-14-3.65723E-14
 -1      2290 2.05717E+01 5.99770E-01 1.47890E-02 1.35426E+00 1.08362E-13-1.43965E-14
 -1      2291 2.01058E+01 5.83213E-01-2.03413E-03 1.14395E+00 1.11654E-13-4.13514E-14
 -1      2292 2.04947E+01 7.03391E-01-8.33117E-03 1.55326E+00 7.32331E-14-6.86649E-14
 -1      2293 2.06928E+01 8.28904E-01 1.78260E-02 1.81559E+00 2.60989E-14 8.20915E-15
 -1      2294 2.00419E+01 8.31586E-01 1.31547E-04 1.50132E+00 5.13120E-14-5.76562E-14
 -1      2295 2.05399E+01 9.42925E-01-1.16232E-02 2.08101E+00 2.06896E-14-1.14524E-14
 -1      2296 2.07641E+01 1.06351E+00 2.02225E-02 2.41407E+00 7.79455E-14-4.91397E-14
 -1      2297 1.98640E+01 1.12796E+00 3.56281E-03 1.97641E+00 3.57045E-14-1.07610E-13
 -1      2298 2.05169E+01 1.14245E+00-1.25655E-02 2.75526E+00 1.05157E-13-7.11787E-14
 -1      2299 2.07795E+01 1.17772E+00 2.40649E-02 3.13433E+00 6.86300E-14-6.55838E-14
 -1      2300 1.95168E+01 1.40309E+00 7.33088E-03 2.58567E+00 3.18226E-14-1.67321E-13
 -1      2301 2.04637E+01 1.10042E+00-2.11168E-03 3.55520E+00 3.09225E-14-9.35137E-14
 -1      2302 2.08367E+01 8.72940E-01 4.23665E-02 3.89911E+00 1.48978E-14-1.58346E-14
 -1      2303 1.89685E+01 1.46394E+00 8.83873E-03 3.33912E+00 3.86914E-14-2.00012E-13
 -1      2304 2.06113E+01 3.87660E-01 3.14585E-02 4.35512E+00 4.80900E-14-2.30059E-14
 -1      2305 2.12973E+01-3.01456E-01 9.27572E-02 4.45349E+00 1.35725E-13 2.06120E-14
 -1      2306 1.83362E+01 8.84348E-01 4.19434E-04 4.24212E+00 5.61010E-14-1.42723E-13
 -1      2307 2.14472E+01-1.48859E+00 1.06072E-01 4.91667E+00 1.08538E-13 1.65840E-14
 -1      2308 2.28120E+01-3.08202E+00 1.03084E-01 4.56980E+00 8.88734E-14-4.47559E-15
 -1      2309 1.80657E+01-7.76237E-01 8.96967E-02 5.15476E+00 1.18669E-13-1.45502E-13
 -1      2310 3.63651E+01 4.67376E+00-2.06287E-01-1.26111E+00-1.62814E-13-1.63675E-13
 -1      2311 2.00026E+01 3.78714E-03 8.12692E-05 2.91471E-03 2.66631E-14 2.57733E-13
 -1      2312 3.16087E+01-2.95657E-01-1.28418E-01 1.77411E+00 2.95906E-13-4.63796E-14
 -1      2313 2.98358E+01-1.88916E+00-2.05894E-02 2.71660E+00 2.73614E-13 4.13558E-15
 -1      2314 1.92724E+01-5.08969E+00-3.17851E-02 7.75957E+00 6.01463E-14 8.67414E-14
 -1      2315 1.55626E+01-4.90763E+00 9.24668E-02 7.88301E+00 1.19099E-13-5.62744E-15
 -1      2316 2.30896E+01-1.04267E+00 3.60978E-02-4.30655E+00 1.85067E-13-1.84915E-13
 -1      2317 2.23129E+01-7.29599E-02 6.68307E-02-4.34698E+00 1.35334E-13-1.39442E-13
 -1      2318 2.21682E+01 4.83503E-01 2.81089E-02-3.96808E+00 2.43361E-13-1.42717E-13
 -1      2319 2.16238E+01 8.45486E-01 9.27395E-03-3.69999E+00 2.74192E-13-1.55792E-13
 -1      2320 1.98243E+01 3.15647E-01 1.13514E-02-4.46450E+00 2.16591E-13-9.63882E-14
 -1      2321 2.17420E+01 9.77458E-01 2.16545E-02-3.25827E+00 1.76472E-13-1.04756E-13
 -1      2322 2.13407E+01 1.00753E+00-8.44840E-03-2.89580E+00 1.97406E-13-4.76381E-14
 -1      2323 1.99584E+01 1.19370E+00 1.55442E-02-3.59806E+00 1.94651E-13-7.58118E-14
 -1      2324 2.14691E+01 9.60925E-01 1.95573E-02-2.50421E+00 2.40481E-13-4.02971E-14
 -1      2325 2.11480E+01 8.73802E-01-9.40664E-03-2.16272E+00 2.71712E-13-7.71682E-14
 -1      2326 2.02168E+01 1.28688E+00 1.55182E-02-2.77950E+00 2.39645E-13 4.75622E-14
 -1      2327 2.12244E+01 7.76785E-01 1.78175E-02-1.84671E+00 4.88394E-14-1.24194E-13
 -1      2328 2.09633E+01 6.68999E-01-6.89146E-03-1.56956E+00-1.56705E-13-2.13538E-13
 -1      2329 2.03848E+01 1.08309E+00 1.18308E-02-2.08195E+00 1.06129E-13-2.32764E-13
 -1      2330 2.09899E+01 5.75862E-01 1.49769E-02-1.32810E+00-1.10007E-13-2.14602E-13
 -1      2331 2.07820E+01 4.82517E-01-4.43313E-03-1.11943E+00-3.99724E-14-3.04329E-13
 -1      2332 2.04454E+01 8.21485E-01 7.75330E-03-1.52623E+00-1.35823E-13-2.13562E-13
 -1      2333 2.07766E+01 4.08971E-01 1.17801E-02-9.41109E-01-5.87425E-14-3.30423E-13
 -1      2334 2.06162E+01 3.38049E-01-2.38551E-03-7.90352E-01-1.25058E-13-5.06737E-13
 -1      2335 2.04319E+01 5.91371E-01 4.43081E-03-1.10217E+00-4.42636E-14-2.00127E-13
 -1      2336 2.05971E+01 2.87468E-01 8.96947E-03-6.67594E-01-4.16279E-14-5.03099E-13
 -1      2337 2.04794E+01 2.37680E-01-1.36154E-03-5.64836E-01-4.55037E-14-4.95946E-13
 -1      2338 2.03811E+01 4.17296E-01 1.81511E-03-7.94150E-01-1.52544E-13-4.59666E-13
 -1      2339 2.04515E+01 1.99216E-01 6.44683E-03-4.70946E-01-7.65497E-14-4.36255E-13
 -1      2340 2.03595E+01 1.62998E-01-8.42557E-04-3.95093E-01-5.01986E-14-3.49170E-13
 -1      2341 2.03179E+01 2.92295E-01 9.86733E-04-5.69627E-01 1.71602E-14-4.76712E-13
 -1      2342 2.03325E+01 1.36827E-01 4.63637E-03-3.28642E-01-2.01475E-14-3.08069E-13
 -1      2343 2.02649E+01 1.11853E-01-4.33203E-04-2.75763E-01-7.07866E-14-2.94220E-13
 -1      2344 2.02528E+01 2.01265E-01 2.36515E-04-4.02998E-01-2.73357E-14-4.54696E-13
 -1      2345 2.02409E+01 9.40797E-02 3.28337E-03-2.28748E-01 8.11157E-14-2.48644E-13
 -1      2346 2.01917E+01 7.69907E-02-1.93837E-04-1.91916E-01 1.40358E-13-2.30798E-13
 -1      2347 2.01946E+01 1.38569E-01-1.39602E-04-2.84066E-01 9.36632E-14-3.79806E-13
 -1      2348 2.01717E+01 6.49219E-02 2.31264E-03-1.58644E-01 1.07773E-13-2.16171E-13
 -1      2349 2.01362E+01 5.32264E-02-6.26623E-05-1.32930E-01 2.06810E-13-1.27965E-13
 -1      2350 2.01459E+01 9.56637E-02-2.95981E-04-1.99373E-01 1.01935E-13-2.32229E-13
 -1      2351 2.01202E+01 4.50048E-02 1.62676E-03-1.09350E-01 2.41567E-13-5.07445E-14
 -1      2352 2.00949E+01 3.69711E-02 6.53530E-06-9.13409E-02 1.98840E-13-8.06724E-14
 -1      2353 2.01068E+01 6.63095E-02-3.35302E-04-1.39075E-01 1.83974E-13-2.92695E-13
 -1      2354 2.00825E+01 3.13209E-02 1.13964E-03-7.45983E-02 3.11106E-13-2.24221E-14
 -1      2355 2.00648E+01 2.58156E-02 6.17760E-05-6.19590E-02 2.13180E-13 4.04347E-14
 -1      2356 2.00765E+01 4.61626E-02-3.16344E-04-9.61080E-02 2.72259E-13-1.21936E-13
 -1      2357 2.00559E+01 2.21365E-02 8.12815E-04-5.06056E-02 6.97344E-14-5.82276E-14
 -1      2358 2.00439E+01 1.83915E-02 6.78205E-05-4.20362E-02 1.98971E-13-2.11593E-13
 -1      2359 2.00540E+01 3.24050E-02-3.20659E-04-6.60295E-02 8.58303E-14-1.55916E-13
 -1      2360 2.00369E+01 1.55875E-02 5.67179E-04-3.34085E-02 2.03726E-13-3.47292E-13
 -1      2361 2.00282E+01 1.28578E-02 5.21012E-05-2.70249E-02 2.66319E-14-1.67949E-13
 -1      2362 2.00372E+01 2.29987E-02-2.25441E-04-4.45318E-02 1.04064E-13-3.47947E-13
 -1      2363 2.00232E+01 1.09324E-02 4.01716E-04-2.09242E-02 2.80644E-14-9.40885E-14
 -1      2364 2.00174E+01 8.98706E-03 4.39636E-05-1.64328E-02 1.05179E-13-5.73108E-14
 -1      2365 2.00247E+01 1.61028E-02-1.80266E-04-2.86978E-02 1.60259E-13-2.94033E-13
 -1      2366 2.00139E+01 7.62981E-03 2.78337E-04-1.21387E-02 9.32757E-15-3.82536E-14
 -1      2367 2.00102E+01 6.22433E-03 3.33919E-05-9.01105E-03-2.03345E-13-8.83681E-14
 -1      2368 2.00157E+01 1.12449E-02-1.36726E-04-1.74810E-02 1.23492E-14-2.63935E-13
 -1      2369 2.00077E+01 5.19175E-03 1.80369E-04-6.04147E-03 1.95350E-14-1.91400E-13
 -1      2370 2.00054E+01 4.16035E-03 3.34276E-05-3.95964E-03 9.51585E-14 1.05288E-13
 -1      2371 2.00094E+01 7.70837E-03-1.10691E-04-9.63685E-03-5.43661E-14-4.13311E-13
 -1      2372 2.00040E+01 3.38406E-03 1.12744E-04-2.27159E-03-5.54172E-14 2.25463E-13
 -1      2373 2.00027E+01 2.49571E-03 3.99162E-05-1.03098E-03-1.73675E-13 3.08486E-13
 -1      2374 2.00030E+01 3.19730E-03-3.46460E-08-1.71809E-03-1.88267E-13 2.65453E-13
 -1      2375 2.00055E+01 5.25518E-03-4.44732E-05-4.69563E-03 1.43266E-13 2.87834E-14
 -1      2376 1.97669E+01 7.64578E-02 1.35806E-03-1.68380E-01-2.80949E-14 3.08127E-13
 -1      2377 1.97716E+01 1.06200E-01 5.11072E-03-1.25053E-01-1.60174E-14 2.92457E-13
 -1      2378 1.98001E+01 1.40903E-01 1.66244E-03-5.64538E-02 6.44450E-15 3.22391E-13
 -1      2379 1.98443E+01 1.90669E-01 8.89207E-03 1.99832E-02 7.12191E-15 3.65429E-13
 -1      2380 1.99259E+01 1.74061E-01-3.67117E-03-6.82465E-02 1.86263E-14 2.97228E-13
 -1      2381 1.98966E+01 2.51257E-01 2.03787E-03 1.32926E-01-7.74250E-15 3.72603E-13
 -1      2382 1.99924E+01 3.34812E-01 1.09861E-02 2.66905E-01-2.50581E-15 3.80359E-13
 -1      2383 2.00135E+01 3.08608E-01-4.41461E-03 1.30440E-01 7.33701E-15 3.18940E-13
 -1      2384 1.97792E+01 3.65479E-02 1.03356E-03-2.31281E-01-4.15256E-14 2.88617E-13
 -1      2385 1.97590E+01 5.51003E-02 2.81540E-03-2.08331E-01-4.57772E-14 3.04252E-13
 -1      2386 1.98871E+01 9.34156E-02-2.85789E-03-1.88578E-01-2.55581E-14 2.65755E-13
 -1      2387 1.98216E+01 9.73780E-03 6.51514E-04-2.61928E-01-3.51432E-15 2.38093E-13
 -1      2388 1.97867E+01 2.24528E-02 1.45976E-03-2.52380E-01-1.65551E-14 2.56519E-13
 -1      2389 1.98862E+01 4.26652E-02-2.09292E-03-2.57270E-01-1.39084E-14 2.19205E-13
 -1      2390 1.98830E+01-1.14591E-02 1.62020E-04-2.69396E-01 3.26610E-14 2.45340E-13
 -1      2391 1.98405E+01-9.11471E-04 6.81785E-04-2.69811E-01-1.37758E-14 2.43192E-13
 -1      2392 1.99127E+01 7.56711E-03-1.49290E-03-2.90978E-01 1.20625E-14 1.42327E-13
 -1      2393 1.99544E+01-3.26965E-02-4.86414E-04-2.57133E-01 1.29558E-13 2.97991E-13
 -1      2394 1.99100E+01-2.14729E-02 2.77265E-04-2.66603E-01 7.92395E-14 2.82359E-13
 -1      2395 1.99586E+01-2.15019E-02-1.05622E-03-2.98695E-01 3.18337E-14 1.58819E-13
 -1      2396 2.00289E+01-5.84908E-02-1.33788E-03-2.24158E-01 1.50875E-13 3.65087E-13
 -1      2397 1.99873E+01-4.43241E-02 1.20869E-04-2.43732E-01 1.67335E-13 3.57267E-13
 -1      2398 2.00178E+01-5.18659E-02-7.38536E-04-2.83487E-01 1.03215E-13 2.47072E-13
 -1      2399 2.00993E+01-9.20824E-02-2.40583E-03-1.66046E-01 1.14673E-13 3.76997E-13
 -1      2400 2.00658E+01-7.34370E-02 1.18609E-04-1.98210E-01 1.73324E-13 4.08111E-13
 -1      2401 2.00859E+01-8.92338E-02-4.81596E-04-2.43640E-01 1.42546E-13 3.37069E-13
 -1      2402 2.01578E+01-1.34601E-01-3.63752E-03-7.62439E-02-1.95579E-14 3.69661E-13
 -1      2403 2.01380E+01-1.11193E-01 1.78600E-04-1.24177E-01 4.33153E-14 4.03893E-13
 -1      2404 2.01585E+01-1.37312E-01-2.14773E-04-1.73742E-01 7.58364E-14 3.98945E-13
 -1      2405 2.01949E+01-1.83592E-01-4.86835E-03 5.17524E-02-1.40951E-14 3.08318E-13
 -1      2406 2.01952E+01-1.57231E-01 1.89790E-04-1.46030E-02-3.73533E-14 3.28572E-13
 -1      2407 2.02302E+01-1.96490E-01 1.49306E-04-6.62457E-02 2.84870E-14 3.90544E-13
 -1      2408 2.01986E+01-2.31214E-01-5.78419E-03 2.20894E-01 5.59435E-14 2.58499E-13
 -1      2409 2.02259E+01-2.06752E-01 1.41673E-05 1.35851E-01 3.65969E-14 2.70562E-13
 -1      2410 2.02933E+01-2.61761E-01 7.09637E-04 8.58905E-02 4.90511E-14 2.88297E-13
 -1      2411 2.01552E+01-2.63005E-01-5.92782E-03 4.25663E-01-5.91955E-14 2.48961E-13
 -1      2412 2.02154E+01-2.48829E-01-4.96042E-04 3.26464E-01 9.20791E-15 2.72768E-13
 -1      2413 2.03358E+01-3.20463E-01 1.53986E-03 2.84923E-01 2.38974E-14 3.20841E-13
 -1      2414 2.00510E+01-2.58805E-01-4.79291E-03 6.46582E-01-2.01514E-14 2.49124E-13
 -1      2415 2.01473E+01-2.65972E-01-1.42925E-03 5.44896E-01-2.22864E-14 2.44064E-13
 -1      2416 2.03413E+01-3.51305E-01 2.60268E-03 5.22364E-01-3.91634E-14 2.15807E-13
 -1      2417 1.98772E+01-1.97741E-01-2.05588E-03 8.46447E-01-6.05595E-14 2.31877E-13
 -1      2418 2.00077E+01-2.36750E-01-2.68003E-03 7.62046E-01-7.07318E-14 2.36342E-13
 -1      2419 2.02904E+01-3.26918E-01 3.64091E-03 7.72480E-01-3.28902E-14 2.23567E-13
 -1      2420 1.96375E+01-6.81745E-02 2.07316E-03 9.72229E-01-8.79382E-14 3.01751E-13
 -1      2421 1.97917E+01-1.43201E-01-3.82099E-03 9.30714E-01-8.69240E-14 2.94719E-13
 -1      2422 2.01669E+01-2.22238E-01 4.11039E-03 9.88331E-01-9.37760E-14 3.21330E-13
 -1      2423 1.93558E+01 1.19732E-01 6.53381E-03 9.66656E-01-1.27196E-13 4.22465E-13
 -1      2424 1.95141E+01 1.74053E-02-4.10965E-03 9.92536E-01-8.69531E-14 4.03441E-13
 -1      2425 1.99684E+01-2.87863E-02 3.27552E-03 1.10549E+00-1.29565E-13 3.50788E-13
 -1      2426 1.90799E+01 3.26093E-01 9.62207E-03 7.90599E-01-4.17719E-14 4.97885E-13
 -1      2427 1.92157E+01 2.20881E-01-2.73797E-03 8.96276E-01-6.81502E-14 4.16848E-13
 -1      2428 1.97182E+01 2.29567E-01 5.93518E-04 1.05837E+00-8.00813E-14 3.06191E-13
 -1      2429 1.88743E+01 4.88939E-01 9.89754E-03 4.48948E-01-1.84605E-14 6.25289E-13
 -1      2430 1.89604E+01 4.14413E-01 6.12869E-04 6.24413E-01-7.54128E-15 5.95598E-13
 -1      2431 1.94713E+01 4.91607E-01-3.34991E-03 8.09665E-01-8.29956E-14 4.88727E-13
 -1      2432 1.87978E+01 5.50394E-01 7.19588E-03 2.68523E-03-2.03782E-14 5.61012E-13
 -1      2433 1.88148E+01 5.33897E-01 5.08976E-03 2.13704E-01 1.35733E-14 6.22180E-13
 -1      2434 1.93007E+01 6.75750E-01-6.68085E-03 3.80638E-01-2.90525E-14 6.02300E-13
 -1      2435 1.88768E+01 4.87365E-01 2.84868E-03-4.46799E-01 5.46915E-14 5.34355E-13
 -1      2436 1.88202E+01 5.35024E-01 8.86811E-03-2.47971E-01 2.67620E-14 5.42399E-13
 -1      2437 1.92653E+01 7.16517E-01-7.47442E-03-1.41357E-01 3.98880E-14 5.44022E-13
 -1      2438 1.90909E+01 3.24626E-01-1.17120E-03-7.97089E-01 2.02841E-14 6.13855E-13
 -1      2439 1.89732E+01 4.17958E-01 1.01408E-02-6.53169E-01 2.48239E-15 5.75756E-13
 -1      2440 1.93788E+01 5.99373E-01-5.20366E-03-6.31364E-01 1.62036E-14 5.42735E-13
 -1      2441 1.93832E+01 1.20407E-01-3.47701E-03-9.84454E-01 9.88774E-14 5.36253E-13
 -1      2442 1.92284E+01 2.26852E-01 8.32094E-03-9.17741E-01 1.14912E-13 5.40754E-13
 -1      2443 1.96018E+01 3.68208E-01-1.30830E-03-9.78521E-01 9.83285E-14 4.80668E-13
 -1      2444 1.96857E+01-6.37995E-02-3.86792E-03-1.00130E+00 6.95449E-14 5.54180E-13
 -1      2445 1.95214E+01 2.54278E-02 4.30878E-03-1.00940E+00 8.08968E-14 5.22642E-13
 -1      2446 1.98641E+01 1.01554E-01 2.11239E-03-1.12820E+00 8.33252E-14 4.93460E-13
 -1      2447 1.99455E+01-1.88831E-01-2.95129E-03-8.85764E-01-8.73889E-15 5.11314E-13
 -1      2448 1.97949E+01-1.33413E-01-1.53447E-04-9.48542E-01 4.50677E-14 4.86236E-13
 -1      2449 2.00995E+01-1.25900E-01 3.82630E-03-1.09191E+00 1.18981E-13 4.60636E-13
 -1      2450 2.01360E+01-2.45245E-01-1.60834E-03-6.95817E-01 1.86575E-14 4.68912E-13
 -1      2451 2.00136E+01-2.25097E-01-3.64210E-03-7.86956E-01 7.92302E-15 5.40176E-13
 -1      2452 2.02692E+01-2.71316E-01 3.90583E-03-9.25622E-01-4.46222E-14 3.82923E-13
 -1      2453 2.02542E+01-2.45185E-01-4.27249E-04-4.85859E-01 1.38354E-13 3.84633E-13
 -1      2454 2.01655E+01-2.52017E-01-5.55452E-03-5.82084E-01 1.23823E-13 4.51625E-13
 -1      2455 2.03647E+01-3.28876E-01 3.03072E-03-6.97419E-01 7.69748E-14 4.52158E-13
 -1      2456 2.03112E+01-2.09797E-01 3.44396E-04-2.94143E-01 7.30698E-14 5.00611E-13
 -1      2457 2.02549E+01-2.32155E-01-5.98473E-03-3.79772E-01 1.11985E-13 3.80677E-13
 -1      2458 2.03974E+01-3.17631E-01 1.90556E-03-4.64136E-01 1.60135E-13 3.88615E-13
 -1      2459 2.03233E+01-1.59286E-01 7.18995E-04-1.40575E-01 1.71956E-13 3.71742E-13
 -1      2460 2.02942E+01-1.87135E-01-5.39104E-03-2.07897E-01 1.41845E-13 4.07206E-13
 -1      2461 2.03864E+01-2.65511E-01 9.49695E-04-2.61667E-01 1.55852E-13 3.72056E-13
 -1      2462 2.03063E+01-1.08145E-01 8.10158E-04-3.04895E-02 2.30099E-13 3.73730E-13
 -1      2463 2.02977E+01-1.34750E-01-4.28296E-03-7.79224E-02 2.16412E-13 4.33733E-13
 -1      2464 2.03500E+01-1.97712E-01 2.94117E-04-1.05894E-01 1.90568E-13 1.83739E-13
 -1      2465 2.02731E+01-6.44587E-02 7.43164E-04 3.98019E-02 9.44051E-14 4.40645E-13
 -1      2466 2.02783E+01-8.63593E-02-3.05520E-03 1.01439E-02 1.80448E-13 4.46724E-13
 -1      2467 2.03022E+01-1.31581E-01-9.26786E-05 1.57195E-03 1.58057E-13 4.56167E-13
 -1      2468 2.02327E+01-3.12843E-02 6.12117E-04 7.82004E-02-5.50625E-14 5.40377E-13
 -1      2469 2.02462E+01-4.74262E-02-1.94523E-03 6.25527E-02 2.86455E-14 4.80167E-13
 -1      2470 2.02519E+01-7.63466E-02-2.88887E-04 6.71121E-02 5.06408E-14 5.41528E-13
 -1      2471 2.01913E+01-8.52046E-03 4.72564E-04 9.35437E-02 9.31675E-14 5.16359E-13
 -1      2472 2.02087E+01-1.92749E-02-1.06099E-03 8.78696E-02-5.67499E-16 5.11711E-13
 -1      2473 2.02044E+01-3.51167E-02-3.67886E-04 1.00271E-01-2.16264E-14 4.25707E-13
 -1      2474 2.01524E+01 5.50681E-03 3.51084E-04 9.37849E-02 1.27072E-13 3.69978E-13
 -1      2475 2.01708E+01-8.82227E-04-4.23881E-04 9.45282E-02 2.09760E-13 5.06311E-13
 -1      2476 2.01621E+01-7.27904E-03-3.82038E-04 1.10741E-01 1.14380E-13 4.35027E-13
 -1      2477 2.01180E+01 1.29674E-02 2.55756E-04 8.52323E-02 8.21330E-14 2.29736E-13
 -1      2478 2.01355E+01 9.77130E-03-7.47584E-06 8.96153E-02 1.24054E-13 3.97139E-13
 -1      2479 2.01259E+01 9.54363E-03-3.63808E-04 1.06825E-01 1.75215E-13 5.55333E-13
 -1      2480 2.00890E+01 1.59215E-02 1.85439E-04 7.24398E-02-4.19379E-13 3.46745E-13
 -1      2481 2.01044E+01 1.48606E-02 2.34392E-04 7.84857E-02-2.36414E-13 2.10143E-13
 -1      2482 2.00959E+01 1.82079E-02-3.31039E-04 9.49004E-02-1.21247E-13 6.21423E-13
 -1      2483 2.00652E+01 1.60545E-02 1.35462E-04 5.84259E-02-3.03838E-13 3.98799E-13
 -1      2484 2.00782E+01 1.62902E-02 3.50314E-04 6.48458E-02-3.39423E-13 3.31780E-13
 -1      2485 2.00716E+01 2.13472E-02-2.92502E-04 7.94596E-02-4.37321E-13 6.56247E-13
 -1      2486 2.00464E+01 1.46171E-02 1.00577E-04 4.50090E-02-4.96226E-14 2.03118E-13
 -1      2487 2.00569E+01 1.55418E-02 3.82618E-04 5.10444E-02-1.86494E-13 2.20846E-13
 -1      2488 2.00524E+01 2.10799E-02-2.52573E-04 6.34109E-02-1.07947E-13 3.95417E-13
 -1      2489 2.00320E+01 1.24653E-02 7.61368E-05 3.31447E-02 1.40855E-13 3.28750E-14
 -1      2490 2.00401E+01 1.36727E-02 3.64375E-04 3.84126E-02 6.31324E-14 8.08834E-14
 -1      2491 2.00374E+01 1.89586E-02-2.13425E-04 4.84571E-02 6.02720E-14 1.04234E-13
 -1      2492 2.00212E+01 1.01379E-02 5.81824E-05 2.32149E-02 3.77168E-13 8.89787E-14
 -1      2493 2.00272E+01 1.13796E-02 3.19300E-04 2.75780E-02 2.91997E-13 3.23077E-14
 -1      2494 2.00260E+01 1.60335E-02-1.76221E-04 3.54507E-02 2.31352E-13-1.87126E-14
 -1      2495 2.00134E+01 7.93859E-03 4.46568E-05 1.52558E-02 2.92821E-13 2.51816E-13
 -1      2496 2.00177E+01 9.08041E-03 2.63521E-04 1.87207E-02 3.00767E-13 2.53855E-13
 -1      2497 2.00175E+01 1.29545E-02-1.41595E-04 2.46910E-02 2.23128E-13 2.14039E-13
 -1      2498 2.00080E+01 5.98619E-03 3.19524E-05 9.11857E-03 1.82729E-13 3.99662E-13
 -1      2499 2.00109E+01 6.98895E-03 2.07324E-04 1.17612E-02 3.49734E-13 5.18064E-13
 -1      2500 2.00113E+01 1.00741E-02-1.11104E-04 1.61546E-02 1.78419E-13 3.41792E-13
 -1      2501 2.00043E+01 4.29957E-03 3.70079E-05 4.64534E-03 2.22605E-13 2.00922E-13
 -1      2502 2.00062E+01 5.16247E-03 1.67473E-04 6.51342E-03 2.53986E-13 3.35820E-13
 -1      2503 2.00068E+01 7.48956E-03-9.01727E-05 9.64020E-03 3.63108E-13 4.44274E-13
 -1      2504 1.99985E+01 1.62882E-02-9.50484E-05 6.17885E-03 1.03586E-13-9.89988E-14
 -1      2505 1.99993E+01 1.49066E-02 4.65570E-05 6.56271E-03 1.17457E-13-2.65953E-13
 -1      2506 2.00001E+01 1.26295E-02-8.06403E-05 6.73147E-03 4.11440E-14-1.32686E-13
 -1      2507 2.00010E+01 1.11206E-02 6.50499E-05 6.52583E-03-1.83022E-14 5.42089E-14
 -1      2508 1.99997E+01 1.65297E-02 3.39716E-05 8.31872E-03 1.48458E-13-2.39620E-13
 -1      2509 2.00017E+01 8.69147E-03-6.17786E-05 5.96238E-03 8.67646E-14 1.41235E-13
 -1      2510 2.00023E+01 7.20911E-03 4.65351E-05 5.20566E-03 6.68853E-14 1.21821E-13
 -1      2511 2.00019E+01 1.20286E-02 4.47230E-05 7.97583E-03 1.43287E-13-3.18569E-14
 -1      2512 4.99994E+00-2.82626E+00 7.33991E-02 5.33632E+00-9.55347E-14 2.12608E-13
 -1      2513 3.34040E+00-2.39495E+00 1.28941E-01 2.90766E+00-1.51240E-13 7.18037E-13
 -1      2514 1.99971E+01 1.92650E-02-9.70421E-05 4.36056E-03 6.18720E-15-3.92258E-13
 -1      2515 1.99977E+01 1.82363E-02 1.67962E-05 5.29226E-03 6.29768E-14-4.31387E-13
 -1      2516 1.99976E+01 2.06192E-02 6.65079E-05 7.13917E-03 1.44076E-13-4.10956E-13
 -1      2517 1.99963E+01 2.10892E-02-8.37591E-05 1.61394E-03-2.53560E-13-1.93909E-13
 -1      2518 1.99966E+01 2.05724E-02-2.05389E-05 2.90473E-03-1.52855E-13-4.10064E-13
 -1      2519 1.99959E+01 2.37716E-02 9.22145E-05 4.55854E-03-9.05818E-14-5.39732E-13
 -1      2520 1.99962E+01 2.14846E-02-5.65270E-05-1.51927E-03-1.95407E-13 3.78412E-13
 -1      2521 1.99962E+01 2.15698E-02-5.59437E-05-1.34263E-04-2.67709E-13 4.40416E-13
 -1      2522 1.99951E+01 2.55135E-02 1.09873E-04 1.04920E-03-1.85691E-14 1.00921E-13
 -1      2523 1.99970E+01 2.03643E-02-1.97267E-05-4.40190E-03-1.24350E-13 3.28453E-13
 -1      2524 1.99965E+01 2.10489E-02-8.33032E-05-3.21947E-03-2.03332E-13 3.06832E-13
 -1      2525 1.99953E+01 2.55794E-02 1.14889E-04-2.73570E-03 5.65473E-14 4.08852E-13
 -1      2526 1.99985E+01 1.79263E-02 2.15926E-05-6.39276E-03 6.61751E-14 1.71892E-14
 -1      2527 1.99977E+01 1.90739E-02-9.89815E-05-5.68469E-03-1.70773E-13 1.04592E-13
 -1      2528 1.99966E+01 2.39347E-02 1.07491E-04-6.03471E-03 1.11064E-14 2.37573E-13
 -1      2529 2.00004E+01 1.44273E-02 5.85176E-05-7.09911E-03 3.47383E-13 2.02910E-14
 -1      2530 1.99994E+01 1.59033E-02-9.89253E-05-7.02026E-03 1.57070E-13-2.90473E-14
 -1      2531 1.99986E+01 2.07595E-02 8.25107E-05-8.20062E-03 1.81301E-13 1.31927E-13
 -1      2532 2.00021E+01 1.04122E-02 7.53918E-05-6.30414E-03 1.45837E-13-1.27379E-13
 -1      2533 2.00012E+01 1.19760E-02-8.07997E-05-6.88633E-03 3.14724E-13-2.19589E-14
 -1      2534 2.00011E+01 1.64292E-02 4.18414E-05-8.76250E-03 1.84214E-13-9.24041E-14
 -1      2535 2.00032E+01 6.41495E-03 4.69684E-05-4.25051E-03-1.54869E-13-3.20813E-13
 -1      2536 2.00028E+01 7.90133E-03-3.76159E-05-5.32794E-03-1.75790E-15-1.77071E-13
 -1      2537 2.00032E+01 1.16312E-02 2.21116E-05-7.57240E-03 8.24346E-14-2.83443E-13
 -1      2538 3.35787E+01 4.53939E+00-1.69697E-01-4.88341E-01 4.32987E-13-1.34115E-13
 -1      2539 3.27643E+01 2.24031E+00-5.47383E-02 3.79313E-01 3.21604E-13-7.59393E-14
 -1      2540 5.10345E+00-3.50199E+00 5.88181E-02-3.38215E+00-2.22045E-15 8.69638E-13
 -1      2541 7.97415E+00-3.80801E+00 4.42265E-02-5.11929E+00-1.57541E-13 5.82978E-13
 -1      2542 2.10542E+01-5.15903E+00 3.72133E-02-6.98132E+00-6.14508E-14 1.14908E-14
 -1      2543 2.45986E+01-4.54143E+00-4.73922E-02-6.21953E+00-1.59595E-14-4.98213E-14
 -1      2544 1.95146E+01 3.61543E+00-1.01194E-02-2.39497E-01 1.86777E-13 6.47633E-14
 -1      2545 1.95322E+01 3.59396E+00-9.61697E-03-4.16648E-01 1.78671E-13 4.03913E-14
 -1      2546 1.97067E+01 3.19913E+00-3.57299E-04-4.60578E-01 1.69351E-13 3.66191E-14
 -1      2547 1.96691E+01 3.26124E+00-6.79120E-04-1.48104E-01 1.75312E-13 6.58653E-14
 -1      2548 2.79512E+00-2.28828E+00 1.00723E-01 3.51815E-01-1.22750E-13 8.51041E-13
 -1      2549 3.52204E+00-2.92249E+00 8.85957E-02-1.82389E+00-1.47687E-13 8.21843E-13
 -1      2550 6.30620E+00-1.57139E+00 1.69784E-01-2.77933E+00-1.17059E-13 8.28171E-13
 -1      2551 3.35733E+01 5.37635E+00-1.24928E-01 5.07418E-01-1.14964E-13-1.05166E-13
 -1      2552 3.45625E+01 7.06668E+00-1.35074E-01 5.39162E-01-4.49640E-14-1.04028E-13
 -1      2553 3.39052E+01 7.79396E+00-1.47610E-01-5.07971E-01 3.97071E-13-3.32373E-14
 -1      2554 3.32693E+01 6.79025E+00-1.49070E-01-8.63597E-01 4.44311E-13-7.87148E-14
 -1      2555 3.00335E+00-2.22434E+00 1.19484E-01-1.94986E+00 2.44874E-14-1.92180E-13
 -1      2556 3.84891E+00-2.84973E+00 8.11159E-02-4.31030E+00 8.00471E-14-2.80331E-14
 -1      2557 3.46468E+01 8.32634E+00-1.17445E-01 2.70437E-01 7.91034E-14-2.10942E-14
 -1      2558 3.41958E+01 8.50913E+00-1.75941E-01-1.64218E-02 2.75557E-13 2.33841E-15
 -1      2559 3.17975E+01 6.49211E-01-6.69338E-02-8.54140E-01-7.76740E-14-9.40359E-14
 -1      2560 3.30188E+01 2.63422E+00-1.57372E-01-7.88166E-02-1.09801E-13-9.73943E-14
 -1      2561 2.75571E+01-3.40772E+00-1.45758E-02-4.23805E+00-7.72160E-14-6.17006E-14
 -1      2562 3.03779E+01-1.73048E+00-1.18738E-01-2.80576E+00-1.02335E-13-1.61204E-13
 -1      2563 1.37413E+01-4.86373E+00 8.40874E-02-7.91410E+00-2.72005E-14-2.77556E-16
 -1      2564 1.71400E+01-5.01726E+00 9.39259E-03-8.07839E+00-6.51701E-14-1.67227E-15
 -1      2565 3.10279E+01-5.08890E+00-7.05769E-03-9.69738E-01-8.73468E-14 1.39888E-13
 -1      2566 3.44797E+01-4.46625E+00-1.25884E-01 9.12221E-01-3.20410E-13-1.86851E-13
 -1      2567 6.09975E+00-3.70229E+00 8.51186E-02-6.03209E+00 1.77441E-13 1.13465E-13
 -1      2568 9.75796E+00-4.05916E+00 5.88730E-02-7.66870E+00 7.01106E-14 6.67244E-14
 -1      2569 7.11735E+00-1.90750E+00 1.70889E-01-5.29971E+00 1.08524E-14 2.72005E-15
 -1      2570 5.34289E+00-2.79156E+00 1.03735E-01 3.46289E+00-1.31950E-13-4.20941E-13
 -1      2571 3.47210E+00-2.18730E+00 1.30172E-01 8.76932E-01-3.72619E-15-3.13638E-13
 -1      2572 1.21504E+01-4.88903E+00 2.33989E-02 6.17338E+00-6.93334E-14-3.52884E-13
 -1      2573 8.65665E+00-3.83448E+00 9.03328E-02 5.09542E+00-8.92064E-14-4.42257E-13
 -1      2574 2.00032E+01 5.64493E-03-5.55356E-05 4.94454E-03 1.12101E-13 2.85256E-13
 -1      2575 3.62985E+01-1.87305E+00-3.97509E-02 3.08066E+00-5.24691E-13-3.95461E-13
 -1      2576 2.18489E+01-6.29803E+00-2.59954E-02-4.97059E+00 7.17759E-14 4.87978E-13
 -1      2577 2.63930E+01-6.35849E+00-1.08130E-01-4.08231E+00 1.08802E-13 5.19890E-13
 -1      2578 1.26987E+01-4.83661E+00 6.57714E-02-5.86744E+00-1.19127E-13 4.87832E-13
 -1      2579 1.72992E+01-5.63298E+00-6.97555E-03-6.23756E+00 1.29341E-14 5.38736E-13
 -1      2580 1.14410E+01-4.16802E+00 4.38188E-02 7.98872E+00 2.16771E-14-7.85483E-14
 -1      2581 8.13535E+00-3.65517E+00 1.25292E-01 6.84698E+00-2.68952E-14-9.06497E-14
 -1      2582 3.02015E+01-5.35584E+00 1.76912E-02-1.28838E+00 7.26086E-14 1.09052E-13
 -1      2583 1.99182E+01 2.83759E+00 1.60546E-03-1.07393E+00 1.25956E-13-8.76669E-14
 -1      2584 1.97902E+01 3.17812E+00-1.47967E-02-1.26353E+00 1.36839E-13-1.10342E-13
 -1      2585 1.98884E+01 3.03899E+00-1.70580E-02-1.45198E+00 1.30468E-13-1.25071E-13
 -1      2586 2.84406E+01-3.35956E+00 2.03542E-02 2.98729E+00 1.70336E-13-5.01543E-14
 -1      2587 2.03408E+01 5.93371E-01 9.16947E-03 8.51158E-01-3.04479E-14 4.22980E-13
 -1      2588 2.04027E+01 8.39779E-01 6.70034E-03 1.02512E+00-1.33296E-14 4.03644E-13
 -1      2589 2.01755E+01 4.93348E-01 8.12095E-03 6.40102E-01-1.75051E-14 4.33017E-13
 -1      2590 2.78525E+01-4.86901E+00 1.08245E-01-2.68071E+00 2.99080E-13 2.82205E-14
 -1      2591 2.39950E+01-4.86236E+00-2.91998E-02-4.54367E+00 2.72060E-13 2.12233E-13
 -1      2592 2.10990E+01-1.84265E+00 1.04227E-02-4.93681E+00 1.74666E-13-5.63508E-14
 -1      2593 2.03286E+01-5.04776E+00 9.56389E-02-7.10554E+00-1.09468E-13 1.90646E-14
 -1      2594 3.19437E+01 7.47938E+00-6.14271E-02 9.04851E-01 5.50671E-14 3.20577E-14
 -1      2595 2.48634E+01-4.68566E+00 1.54303E-01 4.15958E+00 3.79419E-14-1.79474E-14
 -1      2596 2.69626E+01-5.73455E+00 4.84948E-02 3.19439E+00-1.36890E-13-2.70339E-14
 -1      2597 1.96229E+01-4.23198E+00-4.64012E-03 5.71047E+00 1.26565E-14-1.75110E-13
 -1      2598 2.25806E+01-4.98926E+00 9.59776E-02 6.28206E+00 8.85403E-15-1.13756E-13
 -1      2599 1.49832E+01-3.98356E+00 1.36609E-01 7.73314E+00 2.55629E-14 4.95853E-14
 -1      2600 2.00041E+01 8.25299E-03 8.13073E-05 7.23036E-03 2.68153E-13 2.61849E-13
 -1      2601 4.88242E+00-1.00114E+00 1.85497E-01 1.63081E+00-2.21559E-13 7.88480E-13
 -1      2602 8.28434E+00-2.11262E+00 1.75093E-01 6.01607E+00-7.47458E-14 1.38500E-13
 -1      2603 3.13646E+01 6.40204E-01-2.60711E-02 5.05510E-03 3.58991E-13 2.57572E-14
 -1      2604 3.17232E+01 5.20870E+00-9.22824E-02-1.21818E+00 3.94851E-13-7.81319E-14
 -1      2605 2.00251E+01 3.72734E-01 8.51632E-03 3.64196E-01-7.96238E-16 3.97985E-13
 -1      2606 2.01141E+01 4.39129E-01 1.17564E-02 5.09854E-01-8.23126E-15 4.08143E-13
 -1      2607 2.02016E+01 5.72902E-01-3.12308E-03 6.24818E-01-8.78464E-15 3.85066E-13
 -1      2608 2.01074E+01 4.48983E-01-5.44389E-03 3.71510E-01-7.03864E-16 3.70314E-13
 -1      2609 1.99954E+01 2.85615E+00-1.51905E-02-1.56540E+00 1.14601E-13-1.45217E-13
 -1      2610 2.01414E+01 2.62652E+00-2.21998E-02-1.73199E+00 9.86999E-14-1.84065E-13
 -1      2611 2.02941E+01 2.08068E+00 3.90029E-03-1.47145E+00 7.40007E-14-1.76600E-13
 -1      2612 2.00938E+01 2.51646E+00 3.99129E-03-1.31897E+00 1.11773E-13-1.12722E-13
 -1      2613 1.23315E+01-3.24639E+00 1.55456E-01-5.52691E+00 2.58404E-14 5.02848E-13
 -1      2614 2.66995E+01-4.33501E+00 4.54666E-02-4.38480E+00-6.20198E-14-3.99403E-14
 -1      2615 1.30357E+01-3.79000E+00 1.35875E-01-7.68493E+00 3.33067E-14 9.98368E-14
 -1      2616 3.15378E+01 7.98693E+00-9.48235E-02-5.30885E-01 2.73337E-13-4.29032E-14
 -1      2617 3.04017E+01-1.16617E+00-1.72254E-02-8.97352E-01-1.36726E-13-7.88258E-14
 -1      2618 3.16814E+01 3.66700E+00-5.32946E-02 1.24588E+00-1.49575E-13 8.68194E-14
 -1      2619 5.14585E+00-8.55434E-01 1.82470E-01-4.51035E-01-4.03497E-15-2.95153E-13
 -1      2620 8.97940E+00-2.06607E+00 1.48328E-01 4.36994E+00-8.45712E-14-3.91631E-13
 -1      2621 2.23135E+01-6.44333E+00-8.82275E-02 5.40305E+00-5.72875E-14-2.24432E-13
 -1      2622 1.67322E+01-6.06745E+00-3.55394E-02 5.84599E+00-2.77556E-16-3.42504E-13
 -1      2623 2.12773E+01-5.33122E+00 7.73213E-02-5.23462E+00 1.78857E-13 3.55695E-13
 -1      2624 2.00033E+01 4.03020E-03 1.71984E-05-2.53590E-03-1.80330E-13-2.32067E-14
 -1      2625 1.69099E+01-4.73630E+00 6.71240E-02 5.87909E+00-1.42941E-14-2.60403E-13
 -1      2626 2.00043E+01 6.59657E-03-1.45091E-05-4.77657E-03 7.23161E-14-1.81194E-13
 -1      2627 1.98353E+01 2.80379E+00-6.22072E-03 4.98231E-01 1.61013E-13 1.08605E-13
 -1      2628 1.98083E+01 2.85550E+00-5.85270E-03 3.51350E-01 1.66959E-13 8.49177E-14
 -1      2629 1.97900E+01 2.89564E+00-5.60086E-03 2.21076E-01 1.79960E-13 7.56762E-14
 -1      2630 1.97808E+01 2.91347E+00-5.54213E-03 7.11734E-02 1.83252E-13 7.19509E-14
 -1      2631 1.99334E+01 2.55046E+00 3.84045E-03 2.52052E-01 1.58083E-13 6.95053E-14
 -1      2632 2.00458E+01 2.34752E+00-1.07856E-02 1.01664E+00 9.98120E-14 2.04139E-13
 -1      2633 1.99782E+01 2.50040E+00-6.52219E-03 8.82876E-01 1.22657E-13 1.74900E-13
 -1      2634 2.02138E+01 1.92977E+00-1.62930E-02 1.20421E+00 4.78992E-14 2.74959E-13
 -1      2635 2.01297E+01 2.16542E+00-4.94568E-03 1.10221E+00 7.03510E-14 2.43377E-13
 -1      2636 2.01929E+01 1.91649E+00 7.80495E-03 8.94598E-01 6.84302E-14 2.02301E-13
 -1      2637 2.04531E+01 1.01870E+00 2.25163E-03 1.13008E+00 1.17181E-15 3.80415E-13
 -1      2638 2.04104E+01 1.28151E+00-7.13461E-03 1.24096E+00 1.55596E-14 3.62431E-13
 -1      2639 2.03266E+01 8.53850E-01 6.22958E-03 8.72072E-01 8.69096E-16 3.70448E-13
 -1      2640 2.75951E+01-5.85077E+00 2.17563E-02 2.80341E+00-1.78024E-13-2.54796E-14
 -1      2641 1.92962E+01-2.50633E+00 1.10722E-01-5.30566E+00 9.27036E-14 1.10370E-13
 -1      2642 1.79179E+01-8.00900E-01 1.32470E-01-5.12523E+00 7.00134E-14 4.63518E-15
 -1      2643 2.03338E+01 1.61645E+00-9.20429E-03-1.23016E+00 7.38524E-14-1.63145E-13
 -1      2644 2.03239E+01 1.25702E+00 1.75731E-03-9.59609E-01 7.56417E-14-1.35126E-13
 -1      2645 2.02499E+01 1.87840E+00-1.07291E-03-1.20000E+00 8.90785E-14-1.33153E-13
 -1      2646 1.98699E+01 2.73499E+00-6.34090E-03-6.13579E-01 1.59620E-13-6.00106E-15
 -1      2647 1.99166E+01 2.64276E+00-7.62818E-03-7.59668E-01 1.49065E-13-4.07751E-14
 -1      2648 2.03167E+01 9.60555E-01 6.07983E-04-7.23370E-01 6.45632E-14-1.22927E-13
 -1      2649 2.02333E+01 7.54286E-01-1.01192E-03-4.84597E-01 5.34058E-14-9.70144E-14
 -1      2650 2.02993E+01 1.18865E+00 2.91500E-03-7.51559E-01 7.81093E-14-9.63728E-14
 -1      2651 2.02151E+01 5.87106E-01 2.32206E-03-3.27150E-01 7.22851E-14-8.90813E-14
 -1      2652 2.01455E+01 4.72070E-01-5.65602E-04-1.69586E-01 8.72091E-14-9.19130E-14
 -1      2653 2.02534E+01 7.48673E-01 7.39130E-04-3.69802E-01 7.98542E-14-8.54085E-14
 -1      2654 2.01202E+01 3.67143E-01 2.28580E-03-5.33799E-02 8.37202E-14-1.02873E-13
 -1      2655 2.00729E+01 2.96893E-01 3.92718E-04 5.78216E-02 4.39131E-14-1.02362E-13
 -1      2656 2.01864E+01 4.76797E-01-7.38047E-04-9.08662E-02 8.00234E-14-1.01995E-13
 -1      2657 2.00511E+01 2.37899E-01 1.94811E-03 1.37147E-01 3.04685E-14-5.91633E-14
 -1      2658 2.00285E+01 2.00572E-01 1.33610E-03 2.12980E-01 2.27820E-14-3.76511E-14
 -1      2659 2.01243E+01 3.09963E-01-1.72936E-03 1.11543E-01 5.80691E-14-6.58576E-14
 -1      2660 2.00112E+01 1.72830E-01 1.57450E-03 2.69962E-01 1.81211E-14-4.68880E-14
 -1      2661 2.00086E+01 1.58782E-01 2.25805E-03 3.25690E-01-4.33150E-15-3.58842E-14
 -1      2662 2.00764E+01 2.21925E-01-2.08693E-03 2.55412E-01 8.47891E-15-1.87038E-14
 -1      2663 1.99936E+01 1.54925E-01 1.24576E-03 3.71827E-01-2.65002E-14-4.36717E-14
 -1      2664 2.00060E+01 1.59870E-01 3.21546E-03 4.19476E-01-5.05710E-14-2.96043E-14
 -1      2665 2.00397E+01 1.92368E-01-2.11745E-03 3.65261E-01-4.20362E-14-3.21893E-14
 -1      2666 1.99888E+01 1.77007E-01 9.50171E-04 4.64192E-01-6.25431E-14-3.54172E-14
 -1      2667 2.00115E+01 2.00046E-01 4.31728E-03 5.13827E-01-3.22248E-14-5.36466E-14
 -1      2668 2.00065E+01 2.11785E-01-1.96019E-03 4.61605E-01-5.97306E-14-4.12960E-14
 -1      2669 1.99850E+01 2.38320E-01 6.07264E-04 5.65106E-01 1.27221E-14-6.84096E-14
 -1      2670 2.00125E+01 2.81259E-01 5.53965E-03 6.25858E-01 3.07655E-14-1.68414E-14
 -1      2671 1.99645E+01 2.78148E-01-1.63564E-03 5.61589E-01 6.41024E-15-5.47462E-14
 -1      2672 1.99686E+01 3.39996E-01 3.02948E-04 6.87857E-01 2.25412E-14 1.80000E-14
 -1      2673 1.99955E+01 4.02123E-01 7.04414E-03 7.63719E-01 5.61681E-14 3.06321E-14
 -1      2674 1.98987E+01 3.91993E-01-8.21921E-04 6.76552E-01 5.22607E-14-2.40056E-14
 -1      2675 1.99160E+01 4.90990E-01-4.42379E-04 8.48242E-01 6.00215E-14 1.44976E-14
 -1      2676 1.99345E+01 5.84738E-01 9.12951E-03 9.57452E-01 6.22648E-14-2.11066E-14
 -1      2677 1.97830E+01 5.61698E-01 1.32788E-04 8.21144E-01 5.33188E-14 3.89353E-15
 -1      2678 1.97959E+01 7.06115E-01-1.45228E-03 1.06766E+00 8.01401E-14-5.85211E-14
 -1      2679 1.97910E+01 8.32637E-01 1.10513E-02 1.21580E+00 6.95905E-14-7.99226E-14
 -1      2680 1.95757E+01 8.03138E-01 1.95081E-03 1.00970E+00 3.64454E-14-5.91038E-14
 -1      2681 1.95597E+01 9.87339E-01-3.14060E-03 1.35651E+00 2.27908E-14-1.04199E-13
 -1      2682 1.95102E+01 1.14490E+00 1.26537E-02 1.55268E+00 4.36420E-14-1.26471E-13
 -1      2683 1.92222E+01 1.11856E+00 5.14187E-03 1.24709E+00 2.65936E-14-1.73637E-13
 -1      2684 1.91400E+01 1.32186E+00-5.21792E-03 1.72819E+00 5.10473E-14-1.72731E-13
 -1      2685 1.90189E+01 1.48973E+00 1.39581E-02 1.97955E+00 3.30082E-14-1.50669E-13
 -1      2686 1.86426E+01 1.49455E+00 1.05353E-02 1.53898E+00 3.02727E-14-2.37005E-13
 -1      2687 1.84531E+01 1.64921E+00-5.82434E-03 2.19866E+00-2.25270E-14-1.95259E-13
 -1      2688 1.82392E+01 1.76224E+00 1.75305E-02 2.51108E+00-2.83459E-14-2.46070E-13
 -1      2689 1.77313E+01 1.87140E+00 2.03612E-02 1.89577E+00-4.20770E-14-2.39762E-13
 -1      2690 1.74221E+01 1.80403E+00 2.78491E-03 2.80163E+00 7.89082E-15-3.02087E-13
 -1      2691 1.71186E+01 1.70533E+00 3.15892E-02 3.19760E+00-1.65735E-14-3.06272E-13
 -1      2692 1.63631E+01 2.08742E+00 4.02193E-02 2.35590E+00-5.82173E-14-3.35676E-13
 -1      2693 1.60783E+01 1.47496E+00 4.80008E-02 3.56707E+00 3.16964E-14-2.60646E-13
 -1      2694 1.55276E+01 8.68822E-01 4.39048E-02 4.15673E+00 9.23948E-14-2.95548E-13
 -1      2695 1.44825E+01 1.77767E+00 7.66885E-02 2.98563E+00 5.91419E-14-3.99257E-13
 -1      2696 1.52218E+01-2.77769E-01 9.26574E-02 4.64272E+00 1.25705E-13-2.87936E-13
 -1      2697 1.99927E+01 3.01329E-02-8.35488E-05 5.46426E-04 2.34099E-13 3.33634E-13
 -1      2698 1.99930E+01 2.97291E-02-3.12193E-05 2.60004E-03 1.89511E-13-7.30413E-14
 -1      2699 1.54694E+01-2.47510E+00 2.09890E-01 5.70638E+00 1.07275E-14-2.20657E-13
 -1      2700 1.99986E+01 2.03513E-02-1.12752E-04 1.04669E-02 1.72998E-13-2.57658E-13
 -1      2701 2.00001E+01 1.83351E-02 4.94779E-05 1.06742E-02 2.14048E-13-1.60330E-13
 -1      2702 1.78628E+01 4.03342E-01 7.51414E-02-4.43598E+00 1.98598E-13 6.26582E-14
 -1      2703 1.77896E+01 1.15170E+00 3.20933E-02-4.00474E+00 2.17085E-13-4.21191E-15
 -1      2704 3.19452E+01-5.60768E+00-1.17092E-01 7.69491E-01-1.71585E-13 1.15630E-13
 -1      2705 1.82962E+01 1.48796E+00 3.46159E-02-3.45325E+00 1.99903E-13-1.80689E-14
 -1      2706 1.84052E+01 1.61488E+00-1.45278E-02-3.06259E+00 2.37994E-13 8.18382E-14
 -1      2707 1.90450E+01 1.60039E+00 1.39436E-02-2.68790E+00 1.40713E-13-4.05171E-14
 -1      2708 1.91459E+01 1.50009E+00-1.88527E-02-2.34398E+00 1.02949E-13-1.64483E-13
 -1      2709 1.75314E+01 1.93796E+00 4.04330E-02-2.56668E+00 1.16588E-13 6.89175E-14
 -1      2710 1.95889E+01 1.36814E+00 8.32087E-03-2.05834E+00 1.35537E-13-3.53204E-13
 -1      2711 1.96384E+01 1.20849E+00-1.50122E-02-1.77120E+00-3.56562E-15-4.71461E-13
 -1      2712 1.85571E+01 1.71359E+00 2.90388E-02-1.99518E+00-6.11718E-14-2.41513E-13
 -1      2713 1.99228E+01 1.05847E+00 7.10908E-03-1.54754E+00-4.19239E-15-3.11765E-13
 -1      2714 1.99253E+01 9.06969E-01-1.07948E-02-1.31952E+00 5.32354E-15-1.71804E-13
 -1      2715 1.92217E+01 1.35664E+00 1.91081E-02-1.53851E+00 1.04989E-13-4.27089E-13
 -1      2716 2.00972E+01 7.78093E-01 6.45850E-03-1.14550E+00-1.52760E-14-1.26145E-13
 -1      2717 2.00725E+01 6.55738E-01-7.19431E-03-9.71240E-01-1.61935E-13-2.32472E-13
 -1      2718 1.96274E+01 1.01368E+00 1.20667E-02-1.17141E+00-1.91684E-14-3.22233E-13
 -1      2719 2.01678E+01 5.61238E-01 5.56739E-03-8.44454E-01-2.70001E-13-2.31146E-13
 -1      2720 2.01322E+01 4.72461E-01-4.89528E-03-7.19596E-01-1.64482E-13-2.57266E-13
 -1      2721 1.98551E+01 7.39262E-01 7.15645E-03-8.86315E-01-1.18691E-13-2.23889E-13
 -1      2722 2.01852E+01 3.98608E-01 4.47229E-03-6.17274E-01 2.68225E-14-3.01510E-13
 -1      2723 2.01465E+01 3.31119E-01-3.39501E-03-5.20906E-01-5.73706E-15-3.25059E-13
 -1      2724 1.99781E+01 5.30744E-01 4.41567E-03-6.63637E-01-1.08696E-13-6.42913E-14
 -1      2725 2.01725E+01 2.78912E-01 3.48517E-03-4.44800E-01-5.91772E-14-2.33453E-13
 -1      2726 2.01370E+01 2.31313E-01-2.22453E-03-3.74979E-01-4.33557E-14-2.99361E-13
 -1      2727 2.00388E+01 3.74101E-01 2.46710E-03-4.88466E-01-1.20340E-14-3.05106E-15
 -1      2728 2.01472E+01 1.94892E-01 2.66243E-03-3.18748E-01 5.46162E-14-2.35210E-13
 -1      2729 2.01170E+01 1.61611E-01-1.44722E-03-2.68455E-01 1.81907E-13-1.89222E-13
 -1      2730 2.00620E+01 2.62689E-01 1.27446E-03-3.56657E-01 8.65255E-14 8.75696E-14
 -1      2731 2.01190E+01 1.36361E-01 1.99863E-03-2.27142E-01 2.12662E-13-2.58484E-13
 -1      2732 2.00945E+01 1.13173E-01-9.35058E-04-1.91002E-01 1.39708E-13-1.63039E-13
 -1      2733 2.00654E+01 1.84446E-01 5.85709E-04-2.58436E-01 2.11786E-13-1.68579E-13
 -1      2734 2.00924E+01 9.56759E-02 1.48318E-03-1.60758E-01 1.44421E-13 3.46424E-14
 -1      2735 2.00732E+01 7.95037E-02-6.01210E-04-1.34803E-01 2.05513E-13-7.76725E-14
 -1      2736 2.00594E+01 1.29750E-01 2.06346E-04-1.85734E-01 2.81560E-13-1.31786E-13
 -1      2737 2.00696E+01 6.73373E-02 1.09193E-03-1.12717E-01 1.79333E-13-7.02976E-14
 -1      2738 2.00550E+01 5.60689E-02-3.54696E-04-9.40934E-02 3.44836E-13-1.19165E-13
 -1      2739 2.00497E+01 9.15028E-02 6.03861E-06-1.32169E-01 1.78760E-13 1.74035E-14
 -1      2740 2.00513E+01 4.79958E-02 8.09686E-04-7.87566E-02 3.61634E-14-1.91717E-13
 -1      2741 2.00407E+01 4.02976E-02-2.24946E-04-6.58844E-02-2.99094E-13-4.55938E-13
 -1      2742 2.00397E+01 6.50973E-02-1.32613E-04-9.36036E-02-4.60217E-14-2.98910E-13
 -1      2743 2.00370E+01 3.41578E-02 5.85659E-04-5.39753E-02-3.91787E-14-4.49599E-13
 -1      2744 2.00288E+01 2.84432E-02-1.57385E-04-4.42257E-02 2.26327E-13-4.30019E-13
 -1      2745 2.00306E+01 4.66061E-02-1.10562E-04-6.53154E-02-4.48490E-14-5.23524E-13
 -1      2746 2.00257E+01 2.41453E-02 4.28187E-04-3.56304E-02 2.24266E-13-5.89327E-13
 -1      2747 2.00198E+01 2.00579E-02-1.03556E-04-2.86624E-02 1.12352E-13-4.54218E-13
 -1      2748 2.00225E+01 3.29876E-02-1.13165E-04-4.40353E-02 1.33642E-13-5.34736E-13
 -1      2749 2.00172E+01 1.69923E-02 3.09757E-04-2.25001E-02 1.19101E-13-4.15746E-13
 -1      2750 2.00130E+01 1.40448E-02-6.39559E-05-1.75743E-02-1.91436E-13-4.75809E-13
 -1      2751 2.00160E+01 2.32519E-02-1.07267E-04-2.86322E-02 6.54638E-14-5.87800E-13
 -1      2752 2.00110E+01 1.18454E-02 2.31938E-04-1.32088E-02-1.18516E-13-3.24355E-13
 -1      2753 2.00081E+01 9.66954E-03-2.42327E-05-9.79294E-03 9.69237E-14-1.93814E-13
 -1      2754 2.00108E+01 1.62287E-02-9.46388E-05-1.76342E-02 2.28220E-14-4.34243E-13
 -1      2755 2.00059E+01 8.06642E-03 1.05445E-04-6.70268E-03 6.99227E-14-2.07101E-13
 -1      2756 2.00255E+01 2.17057E-01-6.69744E-04-8.13412E-02 2.81578E-14 2.49524E-13
 -1      2757 2.00656E+01 2.87622E-01 5.87794E-03 1.88748E-03 3.41014E-14 2.62974E-13
 -1      2758 1.99899E+01 1.20187E-01-7.24461E-05-1.99791E-01-1.48828E-14 2.34017E-13
 -1      2759 2.00055E+01 1.64852E-01 3.83522E-03-1.49646E-01 7.70326E-16 2.56639E-13
 -1      2760 2.01047E+01 2.47880E-01-2.43069E-03-9.46174E-02 2.37629E-14 2.02606E-13
 -1      2761 2.00932E+01 3.71546E-01-1.54914E-03 1.08264E-01 1.60169E-14 2.74544E-13
 -1      2762 2.01640E+01 4.82942E-01 7.91526E-03 2.41208E-01 6.74173E-15 2.83573E-13
 -1      2763 2.01637E+01 4.22063E-01-2.40613E-03 9.12953E-02 2.94171E-14 2.16182E-13
 -1      2764 1.99968E+01 1.10419E-02 2.04683E-04-3.05378E-01 3.80712E-15 1.34782E-13
 -1      2765 1.99814E+01 3.30927E-02 1.58406E-03-2.93041E-01 1.63350E-14 1.33960E-13
 -1      2766 2.00299E+01-2.84012E-02-1.19074E-05-3.14961E-01 3.96522E-14 1.04945E-13
 -1      2767 2.00059E+01-8.33125E-03 1.14700E-03-3.15064E-01 8.53573E-15 1.11699E-13
 -1      2768 2.00586E+01 5.82473E-03-1.56221E-03-3.22716E-01 1.72545E-14 6.89879E-14
 -1      2769 2.00787E+01-7.08492E-02-4.52019E-04-3.00774E-01 7.06833E-14 1.62197E-13
 -1      2770 2.00492E+01-4.81755E-02 1.06054E-03-3.12845E-01 5.39391E-14 9.96138E-14
 -1      2771 2.00845E+01-4.45274E-02-1.46208E-03-3.33865E-01 3.95371E-14 4.78807E-14
 -1      2772 2.01414E+01-1.23662E-01-1.12551E-03-2.60432E-01 8.90582E-14 2.38189E-13
 -1      2773 2.01091E+01-9.47955E-02 1.26059E-03-2.86205E-01 9.25114E-14 1.98353E-13
 -1      2774 2.01306E+01-1.00429E-01-1.48608E-03-3.20100E-01 5.03149E-14 8.64872E-14
 -1      2775 2.02166E+01-1.91549E-01-2.02862E-03-1.87678E-01 3.36283E-14 3.19865E-13
 -1      2776 2.01842E+01-1.54429E-01 1.66985E-03-2.30506E-01 7.15930E-14 2.54411E-13
 -1      2777 2.01987E+01-1.70345E-01-1.58670E-03-2.78142E-01 4.48189E-14 1.48981E-13
 -1      2778 2.03015E+01-2.74632E-01-3.10380E-03-7.38670E-02 3.56462E-14 2.80152E-13
 -1      2779 2.02724E+01-2.29876E-01 2.16489E-03-1.37760E-01 4.50953E-14 3.29740E-13
 -1      2780 2.02902E+01-2.58991E-01-1.66787E-03-2.00511E-01 3.85773E-14 1.35208E-13
 -1      2781 2.03904E+01-3.65414E-01-4.18044E-03 8.93352E-02 6.61624E-14 2.73335E-13
 -1      2782 2.03692E+01-3.18000E-01 2.53778E-03 1.34558E-03 4.71975E-14 2.78147E-13
 -1      2783 2.04050E+01-3.64612E-01-1.56075E-03-7.69912E-02 4.48317E-14 1.39383E-13
 -1      2784 2.04720E+01-4.45448E-01-4.91453E-03 3.05272E-01-7.62682E-15 3.22371E-13
 -1      2785 2.04651E+01-4.06390E-01 2.48239E-03 1.93707E-01 4.54518E-14 3.04907E-13
 -1      2786 2.05382E+01-4.75073E-01-1.03195E-03 1.02382E-01 2.79278E-14 2.03796E-13
 -1      2787 2.05279E+01-4.83768E-01-4.77946E-03 5.65368E-01-3.09220E-14 2.96592E-13
 -1      2788 2.05426E+01-4.70553E-01 1.62070E-03 4.37683E-01-2.05600E-14 3.23577E-13
 -1      2789 2.06761E+01-5.63975E-01 1.65109E-04 3.41747E-01-1.29042E-14 3.34437E-13
 -1      2790 2.05339E+01-4.40440E-01-3.15905E-03 8.41005E-01-7.36529E-14 3.35095E-13
 -1      2791 2.05769E+01-4.74330E-01-3.45778E-04 7.14900E-01-4.64538E-14 3.20069E-13
 -1      2792 2.07936E+01-5.89946E-01 2.06867E-03 6.30812E-01-5.37249E-14 3.94051E-13
 -1      2793 2.04660E+01-2.79106E-01 3.16518E-04 1.07772E+00-1.45971E-13 3.63607E-13
 -1      2794 2.05399E+01-3.77315E-01-3.29537E-03 9.82308E-01-9.79292E-14 3.31465E-13
 -1      2795 2.08552E+01-5.03333E-01 4.31221E-03 9.34518E-01-1.06734E-13 3.42949E-13
 -1      2796 2.03139E+01 1.08255E-02 5.19436E-03 1.19878E+00-1.12653E-13 3.19760E-13
 -1      2797 2.04127E+01-1.52472E-01-6.39435E-03 1.17038E+00-1.50164E-13 3.65750E-13
 -1      2798 2.08251E+01-2.65205E-01 5.86962E-03 1.18595E+00-1.23428E-13 2.84253E-13
 -1      2799 2.00969E+01 3.89283E-01 9.53467E-03 1.12477E+00-1.26097E-13 3.31745E-13
 -1      2800 2.02032E+01 1.89248E-01-8.13201E-03 1.19528E+00-1.13660E-13 3.03760E-13
 -1      2801 2.06869E+01 1.24223E-01 5.39935E-03 1.29233E+00-1.42394E-13 2.95486E-13
 -1      2802 1.98737E+01 7.55969E-01 1.07318E-02 8.13423E-01-1.34883E-13 4.48868E-13
 -1      2803 1.99611E+01 5.77295E-01-6.84727E-03 9.91333E-01-1.17119E-13 3.84633E-13
 -1      2804 2.04683E+01 5.94863E-01 1.50858E-03 1.16250E+00-1.78413E-13 3.51727E-13
 -1      2805 1.97263E+01 9.83600E-01 7.58478E-03 2.99965E-01-7.31897E-14 4.77503E-13
 -1      2806 1.97688E+01 8.91566E-01-1.94624E-03 5.56868E-01-1.00294E-13 4.40221E-13
 -1      2807 2.02503E+01 1.01222E+00-3.79235E-03 7.61601E-01-1.57164E-13 3.28717E-13
 -1      2808 1.97194E+01 9.82042E-01 1.30369E-03-2.96533E-01 8.84722E-14 4.38277E-13
 -1      2809 1.97030E+01 1.01375E+00 4.61562E-03-2.19627E-02 1.91917E-14 4.66403E-13
 -1      2810 2.01329E+01 1.22590E+00-7.25560E-03 1.55408E-01-3.22654E-14 2.59040E-13
 -1      2811 1.98602E+01 7.53404E-01-4.71510E-03-8.19203E-01 4.64889E-14 4.30574E-13
 -1      2812 1.97898E+01 8.94975E-01 9.62126E-03-5.95617E-01 9.52686E-14 4.59515E-13
 -1      2813 2.01761E+01 1.15210E+00-6.17949E-03-4.97312E-01 1.20868E-13 3.51989E-13
 -1      2814 2.00925E+01 3.89237E-01-7.80261E-03-1.14522E+00 1.26885E-13 4.16440E-13
 -1      2815 1.99892E+01 5.85112E-01 1.05363E-02-1.01877E+00 7.88820E-14 4.20189E-13
 -1      2816 2.03584E+01 8.23161E-01-1.10217E-03-1.01599E+00 1.09653E-13 3.07752E-13
 -1      2817 2.03310E+01 1.62913E-02-7.40325E-03-1.23340E+00 1.40350E-13 3.55894E-13
 -1      2818 2.02225E+01 2.00991E-01 7.39080E-03-1.21304E+00 1.34650E-13 3.43571E-13
 -1      2819 2.05918E+01 3.64242E-01 3.77412E-03-1.28472E+00 1.26533E-13 2.30257E-13
 -1      2820 2.05072E+01-2.66219E-01-4.61401E-03-1.12364E+00 8.33075E-14 2.91041E-13
 -1      2821 2.04155E+01-1.36898E-01 2.51663E-03-1.18630E+00 1.56411E-13 3.43670E-13
 -1      2822 2.07788E+01-7.33892E-02 5.84585E-03-1.29199E+00 1.36766E-13 1.07517E-13
 -1      2823 2.05938E+01-4.19727E-01-1.37806E-03-8.95998E-01-6.24842E-14 3.25492E-13
 -1      2824 2.05305E+01-3.58223E-01-1.73344E-03-1.00566E+00-1.12794E-14 3.05745E-13
 -1      2825 2.08653E+01-3.83940E-01 5.27562E-03-1.10902E+00 8.31205E-14 2.41005E-13
 -1      2826 2.05990E+01-4.55570E-01 1.14021E-03-6.30014E-01 1.39674E-13 3.21554E-13
 -1      2827 2.05649E+01-4.51030E-01-4.29168E-03-7.52892E-01-1.09342E-15 3.14450E-13
 -1      2828 2.08486E+01-5.35949E-01 3.18790E-03-8.32708E-01 1.01243E-14 2.75141E-13
 -1      2829 2.05486E+01-4.10828E-01 2.52380E-03-3.82262E-01 1.06590E-13 2.58917E-13
 -1      2830 2.05384E+01-4.42443E-01-5.12284E-03-4.94977E-01 1.60459E-13 2.45181E-13
 -1      2831 2.07580E+01-5.52818E-01 1.00003E-03-5.45058E-01 1.46466E-13 1.10536E-13
 -1      2832 2.04701E+01-3.25599E-01 2.94139E-03-1.82170E-01 2.31860E-13 2.88025E-13
 -1      2833 2.04764E+01-3.73235E-01-4.76606E-03-2.72710E-01 2.19745E-13 3.89379E-13
 -1      2834 2.06312E+01-4.82620E-01-5.43603E-04-2.96252E-01 1.22890E-13 1.59807E-13
 -1      2835 2.03844E+01-2.30903E-01 2.72935E-03-3.79919E-02 8.11649E-14 3.27007E-13
 -1      2836 2.04003E+01-2.80058E-01-3.82810E-03-1.03137E-01 9.58448E-14 2.86497E-13
 -1      2837 2.04987E+01-3.72795E-01-1.32351E-03-1.07030E-01 1.88573E-13 3.42622E-13
 -1      2838 2.03042E+01-1.45501E-01 2.21680E-03 5.46835E-02-1.72268E-14 5.50311E-13
 -1      2839 2.03245E+01-1.88015E-01-2.75270E-03 1.28389E-02 8.18854E-14 4.34003E-13
 -1      2840 2.03791E+01-2.57909E-01-1.53634E-03 2.15952E-02-3.45219E-14 4.46897E-13
 -1      2841 2.02352E+01-7.78295E-02 1.63519E-03 1.05950E-01-1.25762E-14 7.57545E-13
 -1      2842 2.02565E+01-1.10488E-01-1.77754E-03 8.28632E-02 6.12996E-14 7.35836E-13
 -1      2843 2.02802E+01-1.57696E-01-1.42590E-03 9.86452E-02-9.27451E-14 7.16863E-13
 -1      2844 2.01788E+01-2.94405E-02 1.11038E-03 1.27131E-01 1.14693E-13 4.87621E-13
 -1      2845 2.01992E+01-5.21448E-02-9.99639E-04 1.17700E-01 3.16474E-14 6.18314E-13
 -1      2846 2.02034E+01-8.01635E-02-1.17859E-03 1.36521E-01 9.26515E-14 7.79512E-13
 -1      2847 2.01343E+01 1.86589E-03 6.94873E-04 1.28418E-01 1.24520E-13 6.17984E-13
 -1      2848 2.01526E+01-1.23683E-02-4.35163E-04 1.28027E-01 8.30180E-14 5.49505E-13
 -1      2849 2.01459E+01-2.58656E-02-9.08064E-04 1.47304E-01 1.31218E-13 6.83942E-13
 -1      2850 2.00998E+01 1.97844E-02 3.94762E-04 1.17917E-01 1.35216E-13 7.04430E-13
 -1      2851 2.01157E+01 1.20005E-02-5.98478E-05 1.22877E-01 2.07395E-13 6.15940E-13
 -1      2852 2.01042E+01 8.48158E-03-6.70212E-04 1.41070E-01 1.00199E-13 6.95459E-13
 -1      2853 2.00735E+01 2.81446E-02 1.94166E-04 1.01516E-01-3.55548E-13 7.81922E-13
 -1      2854 2.00869E+01 2.48532E-02 1.65857E-04 1.09136E-01-2.83259E-14 7.78334E-13
 -1      2855 2.00742E+01 2.75201E-02-4.84267E-04 1.25429E-01-6.60653E-14 7.41668E-13
 -1      2856 2.00536E+01 3.02442E-02 7.01529E-05 8.31746E-02-3.14166E-13 6.51874E-13
 -1      2857 2.00645E+01 2.98193E-02 2.82699E-04 9.16423E-02-3.96817E-13 7.36389E-13
 -1      2858 2.00530E+01 3.58172E-02-3.47967E-04 1.05686E-01-3.13781E-13 8.32036E-13
 -1      2859 2.00386E+01 2.86302E-02 2.22199E-07 6.53311E-02 1.01497E-13 2.47525E-13
 -1      2860 2.00474E+01 2.98474E-02 3.25458E-04 7.35328E-02-4.17108E-14 4.09495E-13
 -1      2861 2.00379E+01 3.72010E-02-2.51518E-04 8.52746E-02-3.49422E-14 3.90989E-13
 -1      2862 2.00274E+01 2.51141E-02-3.42206E-05 4.93226E-02 1.42541E-13 6.12844E-14
 -1      2863 2.00343E+01 2.71214E-02 3.21512E-04 5.66521E-02 8.51630E-14 1.52230E-13
 -1      2864 2.00271E+01 3.45747E-02-1.84601E-04 6.62167E-02 2.25849E-13 1.24075E-13
 -1      2865 2.00191E+01 2.08884E-02-4.71739E-05 3.57380E-02 3.30077E-13 6.55416E-14
 -1      2866 2.00244E+01 2.31381E-02 2.91072E-04 4.19331E-02 1.29911E-13 1.04587E-13
 -1      2867 2.00193E+01 2.99751E-02-1.37153E-04 4.95455E-02 8.82205E-14-1.64251E-14
 -1      2868 2.00130E+01 1.66642E-02-4.81057E-05 2.46981E-02 1.66189E-13 2.01722E-13
 -1      2869 2.00169E+01 1.88409E-02 2.47681E-04 2.97090E-02 3.79134E-13 1.16597E-13
 -1      2870 2.00136E+01 2.47198E-02-1.02781E-04 3.56403E-02 3.30228E-13 1.75940E-13
 -1      2871 2.00085E+01 1.28274E-02-3.00926E-05 1.60657E-02 1.50747E-13 1.10488E-13
 -1      2872 2.00114E+01 1.47636E-02 2.03086E-04 1.99581E-02 5.94877E-14 4.67695E-14
 -1      2873 2.00095E+01 1.95866E-02-7.58454E-05 2.44893E-02 2.35730E-13-7.29075E-14
 -1      2874 2.00052E+01 9.67894E-03-1.44514E-05 9.74951E-03 2.59564E-13 3.40545E-13
 -1      2875 2.00072E+01 1.13698E-02 1.58302E-04 1.26618E-02 2.28545E-13 2.73591E-13
 -1      2876 2.00062E+01 1.50985E-02-9.35042E-05 1.60288E-02 6.66487E-15-5.11361E-14
 -1      2877 2.00037E+01 1.12498E-02-1.01841E-04 9.84547E-03 2.81674E-13 1.87500E-14
 -1      2878 1.99935E+01 2.83755E-02-1.12063E-04 5.00583E-03 8.29938E-14-5.43948E-13
 -1      2879 1.99945E+01 2.72705E-02 1.40218E-05 6.71816E-03 1.51197E-13-6.51757E-13
 -1      2880 1.99917E+01 3.39759E-02 1.30285E-04 4.74039E-03 2.82255E-13-2.19019E-13
 -1      2881 1.92094E+01-4.55010E+00 1.31868E-01-7.02352E+00-1.23013E-13 1.53627E-14
 -1      2882 2.24265E+01-5.14127E+00-5.28011E-02-6.24145E+00-8.32390E-14 6.86014E-14
 -1      2883 2.00013E+01 1.59230E-02-1.02124E-04 1.08861E-02 1.72936E-13-2.90942E-13
 -1      2884 2.00027E+01 1.36808E-02 3.40514E-05 1.03208E-02 3.20913E-13-2.62616E-13
 -1      2885 2.00038E+01 1.57642E-02 1.19577E-04 1.30332E-02 1.97070E-13-3.27383E-13
 -1      2886 2.00005E+01 2.03161E-02-4.10052E-07 1.32482E-02 2.70060E-13-2.46820E-13
 -1      2887 1.99956E+01 2.49709E-02-1.25001E-04 8.50392E-03 1.31286E-13-4.60131E-13
 -1      2888 1.99971E+01 2.33111E-02 5.15541E-05 9.57687E-03 2.10742E-13-3.14311E-13
 -1      2889 1.99972E+01 2.54107E-02 6.44912E-05 1.21573E-02 2.02985E-13-2.11494E-13
 -1      2890 1.99939E+01 3.04579E-02 1.01391E-04 9.24984E-03 2.11933E-13-5.14127E-13
 -1      2891 1.99821E+01 5.67299E-02 1.95630E-04-2.69640E-01 3.13455E-14 1.68291E-13
 -1      2892 1.99794E+01 8.63931E-02 2.44591E-03-2.41676E-01 8.77176E-15 2.24127E-13
 -1      2893 2.00676E+01 1.36344E-01-2.12737E-03-2.13377E-01 2.87259E-14 1.83753E-13
 -1      2894 2.00527E+01 6.15917E-02-1.79545E-03-2.84966E-01 4.31393E-14 1.16283E-13
 -1      2895 1.99933E+01 2.99544E-02-4.30812E-05-4.09659E-03 3.74549E-14 5.21321E-13
 -1      2896 1.99928E+01 3.03230E-02-7.70279E-05-2.07665E-03 6.40997E-14 2.80984E-13
 -1      2897 1.99910E+01 3.54941E-02 1.49929E-04-6.74176E-04 1.18888E-13 1.47586E-13
 -1      2898 1.99953E+01 2.78509E-02 5.04167E-06-8.00528E-03 1.98341E-13 1.00203E-13
 -1      2899 1.99941E+01 2.89270E-02-1.15591E-04-6.43174E-03 9.55351E-14 5.36029E-13
 -1      2900 1.99922E+01 3.47377E-02 1.53000E-04-6.04030E-03 1.78908E-13 5.39384E-13
 -1      2901 1.99984E+01 2.39740E-02 5.20333E-05-1.05518E-02 2.41753E-13 1.75773E-13
 -1      2902 1.99967E+01 2.56728E-02-1.38289E-04-9.69247E-03 1.94302E-13 1.76619E-13
 -1      2903 1.99950E+01 3.17272E-02 1.35082E-04-1.04419E-02 2.57135E-13 1.53194E-13
 -1      2904 2.00019E+01 1.87862E-02 8.18784E-05-1.10869E-02 1.00201E-13-3.86859E-13
 -1      2905 2.00002E+01 2.08902E-02-1.31529E-04-1.12092E-02 2.13782E-13 3.13000E-14
 -1      2906 1.99990E+01 2.67318E-02 1.10680E-04-1.31047E-02 2.01222E-13 4.50008E-14
 -1      2907 2.00048E+01 1.29070E-02 3.18782E-05-9.61159E-03-1.01809E-13-3.10614E-13
 -1      2908 2.00035E+01 1.52730E-02-1.10895E-04-1.06675E-02 1.03010E-13-5.38551E-13
 -1      2909 2.00029E+01 2.03608E-02-3.43044E-05-1.33457E-02 4.86488E-14-4.83563E-13
 -1      2910 1.99882E+01-3.69066E+00 1.49007E-01-5.44007E+00 1.94789E-13 1.58748E-13
 -1      2911 1.04860E+01-1.84413E+00 5.59570E-02 6.56361E+00-1.88627E-13-4.26326E-14
 -1      2912 8.09086E+00-7.11943E-01 2.07335E-01 4.84165E+00-2.54921E-13 3.09752E-13
 -1      2913 7.31040E+00-5.23221E-01 1.73622E-01-4.16550E+00-7.52176E-15-5.53169E-14
 -1      2914 9.31813E+00-1.56366E+00 9.46072E-02-6.09969E+00 4.40481E-14 9.05664E-14
 -1      2915 1.23455E+01-2.42637E+00 1.91682E-01-6.90324E+00 2.55490E-14 1.66436E-13
 -1      2916 1.54035E+01-3.57736E+00 1.70680E-02-7.47994E+00-4.36873E-14 7.01383E-14
 -1      2917 2.87602E+01-2.90154E+00-1.55072E-01 1.53136E+00 1.61369E-13 7.69246E-14
 -1      2918 2.70519E+01-4.03841E+00 5.62683E-02 3.09225E+00 8.90572E-14 7.07767E-16
 -1      2919 1.70320E+01-3.99352E+00-4.89414E-02 7.36236E+00 5.92026E-14 1.33990E-13
 -1      2920 1.39591E+01-2.79301E+00 2.00706E-01 7.15443E+00-7.98528E-14 1.34379E-13
 -1      2921 2.90250E+01-2.45243E+00 2.80715E-02-1.07646E+00-1.20987E-13 5.03209E-14
 -1      2922 2.96100E+01-7.01367E-01-2.12868E-01 3.71763E-01-1.44898E-13 1.31520E-13
 -1      2923 6.80797E+00 2.57352E-01 1.34249E-01 1.08469E+00-2.00395E-14-4.09783E-13
 -1      2924 6.37955E+00 2.41233E-01 1.72445E-01-1.82978E+00 1.42386E-14-2.29317E-13
 -1      2925 2.98462E+01 2.24157E+00-4.97151E-02 1.62485E+00-1.55015E-13 9.48686E-14
 -1      2926 2.98408E+01 4.29858E+00-2.19903E-01 1.72092E+00-1.83881E-13 3.72063E-14
 -1      2927 2.98646E+01 6.42265E+00-1.48958E-01 1.44401E+00-4.24105E-14 7.33441E-14
 -1      2928 2.97507E+01 7.42629E+00-2.06362E-01 7.14356E-01 1.39000E-13 6.89379E-14
 -1      2929 6.41112E+00 5.36158E-02 1.19052E-01 2.69199E+00-2.09360E-13 7.65943E-13
 -1      2930 6.21402E+00 2.31884E-01 1.88727E-01 4.50639E-02-2.25563E-13 7.57117E-13
 -1      2931 1.18184E+01-1.74936E+00 7.92526E-02 5.32625E+00-4.32987E-15-3.76338E-13
 -1      2932 9.00438E+00-5.37611E-01 2.00552E-01 3.53239E+00-3.09891E-14-4.04704E-13
 -1      2933 2.94713E+01 7.63522E+00-1.89338E-01-3.17751E-02 2.74586E-13 4.32345E-14
 -1      2934 2.91369E+01 7.11326E+00-1.82372E-01-8.71516E-01 3.16719E-13 3.27793E-14
 -1      2935 6.96614E+00-1.21398E-01 1.65547E-01-1.99674E+00-1.06422E-13 6.50424E-13
 -1      2936 8.56029E+00-8.26910E-01 1.25232E-01-3.82631E+00 1.42941E-15 7.50178E-13
 -1      2937 2.52560E+01-4.75872E+00 7.85661E-02-4.59762E+00-1.82077E-14 6.49619E-14
 -1      2938 2.72933E+01-4.15292E+00-1.40859E-01-3.05604E+00-9.79772E-14 8.50708E-15
 -1      2939 2.97718E+01 5.60036E+00-1.99891E-01-1.66209E+00 3.72036E-13-1.68934E-13
 -1      2940 3.03760E+01 3.68330E+00-9.77644E-02-1.67733E+00 4.17638E-13-1.63564E-13
 -1      2941 1.99196E+01 2.62792E+00-7.75108E-03 7.69364E-01 1.44279E-13 1.62281E-13
 -1      2942 1.98726E+01 2.72284E+00-6.31245E-03 6.23381E-01 1.53375E-13 1.32509E-13
 -1      2943 1.99869E+01 2.43153E+00 4.43683E-03 4.93762E-01 1.37661E-13 1.06264E-13
 -1      2944 2.00751E+01 2.22534E+00 5.53954E-03 7.16189E-01 1.08122E-13 1.51189E-13
 -1      2945 3.03102E+01 1.21584E+00-2.02228E-01-1.00742E+00 4.18360E-13-2.29261E-14
 -1      2946 2.98989E+01-7.06810E-01-2.26130E-02-9.23460E-02 2.86597E-13 4.65739E-14
 -1      2947 2.43588E+01-5.00626E+00-1.00049E-01 5.10551E+00 6.99857E-14-4.09776E-14
 -1      2948 2.12643E+01-4.59944E+00 1.54559E-01 6.30378E+00 4.85723E-14-3.81774E-14
 -1      2949 1.18877E+01-1.72514E+00 1.66196E-01-5.09119E+00 9.77274E-14 4.77507E-13
 -1      2950 1.61212E+01-2.99321E+00 5.56292E-02-5.95199E+00 5.09037E-14 1.29369E-13
 -1      2951 1.99152E+01 2.59136E+00 3.68180E-03 3.01802E-03 1.78729E-13 7.55370E-14
 -1      2952 1.97803E+01 2.91510E+00-5.54603E-03-6.01239E-02 1.79177E-13 6.31359E-14
 -1      2953 1.97889E+01 2.90010E+00-5.60732E-03-2.09952E-01 1.76450E-13 6.44029E-14
 -1      2954 2.03332E+01 1.61292E+00 1.54581E-03 1.24284E+00 3.40795E-14 3.26853E-13
 -1      2955 2.40406E+01-4.69048E+00 5.50663E-02-4.82427E+00-8.25728E-14 3.32859E-14
 -1      2956 1.55680E+01-2.12241E-02 5.85628E-02-4.79853E+00 9.83796E-14 1.58790E-13
 -1      2957 1.46790E+01-1.35040E+00 6.82967E-02 5.23062E+00 8.19206E-14-2.59598E-13
 -1      2958 1.63437E+01 1.61996E+00 5.05370E-02-3.44226E+00 1.48478E-13 6.64642E-14
 -1      2959 2.00727E+01 2.24295E+00 5.74430E-03-7.08608E-01 1.33651E-13-4.72802E-14
 -1      2960 1.99743E+01 2.51718E+00-6.73328E-03-8.74457E-01 1.36778E-13-7.20613E-14
 -1      2961 2.00426E+01 2.36842E+00-9.72562E-03-1.00631E+00 1.27989E-13-9.00586E-14
 -1      2962 2.00062E+01 1.12566E-02-7.03938E-05-9.68484E-03 1.65409E-14-1.78797E-13
 -1      2963 2.02357E+01 6.99788E-01-1.98246E-03 3.69840E-01 1.48107E-14 2.42923E-13
 -1      2964 2.01989E+01 6.35184E-01 1.67888E-03 4.04252E-01 8.47065E-15 2.96710E-13
 -1      2965 1.81609E+01-3.63135E+00 1.02158E-01-6.66728E+00-6.96249E-14 5.69197E-14
 -1      2966 1.99192E+01-3.84385E+00 1.09832E-01 6.17942E+00 1.08052E-13-2.65066E-15
 -1      2967 2.85191E+01 6.02311E+00-1.43017E-01-1.43612E+00 2.88269E-13-3.09752E-14
 -1      2968 2.75231E+01 4.72070E+00-1.05097E-01-1.76703E+00 3.25975E-13-9.24642E-14
 -1      2969 2.69388E+01 6.05430E+00-1.11410E-01-1.08748E+00 2.65940E-13 4.30593E-14
 -1      2970 2.86584E+01-1.87312E+00-2.34099E-02 2.16057E-01 2.42459E-13 6.22835E-14
 -1      2971 1.22599E+01-1.32347E+00 1.50718E-01-6.01456E+00-1.99701E-14 1.20931E-13
 -1      2972 2.00072E+01 1.54636E-02 1.36772E-04-1.30616E-02 4.34326E-15-2.28413E-13
 -1      2973 8.55617E+00 5.41532E-01 1.75505E-01-2.70464E+00 1.90126E-15-1.12188E-13
 -1      2974 2.02275E+01 7.13005E-01 6.56777E-03 5.20954E-01 4.00255E-15 3.14736E-13
 -1      2975 1.33155E+01-1.67302E+00 1.48872E-01 6.33335E+00-1.97939E-13 2.51771E-13
 -1      2976 8.46974E+00 8.95983E-01 2.10192E-01-9.18742E-01-1.56316E-13 6.76681E-13
 -1      2977 2.79699E+01 6.85152E+00-1.25076E-01 3.84715E-01 1.31811E-13 1.00349E-13
 -1      2978 8.96253E+00 3.85818E-01 1.99628E-01 3.38648E+00-2.57031E-13 3.89577E-13
 -1      2979 2.83632E+01 4.80884E+00-1.19047E-01 1.78328E+00-4.81004E-14 1.62974E-13
 -1      2980 1.98063E+01 2.86333E+00-5.84938E-03-3.39373E-01 1.75775E-13 6.76421E-14
 -1      2981 1.98332E+01 2.81331E+00-6.21283E-03-4.88553E-01 1.60166E-13 3.14039E-14
 -1      2982 1.99845E+01 2.44427E+00 4.54029E-03-4.85785E-01 1.46112E-13 1.61964E-14
 -1      2983 1.99321E+01 2.55700E+00 3.90316E-03-2.45157E-01 1.67294E-13 6.23879E-14
 -1      2984 2.87977E+01 5.47017E-01-5.41909E-02 1.27933E+00-1.66228E-13 1.03473E-13
 -1      2985 2.56525E+01-4.30469E+00 2.01729E-02 3.45154E+00 1.50838E-13 9.43690E-15
 -1      2986 2.76602E+01-3.33367E+00-5.14043E-03-1.62475E+00-1.57058E-13 1.29119E-13
 -1      2987 1.24412E+01-4.83488E-01 1.73567E-01-4.40481E+00 2.06779E-14 4.35360E-13
 -1      2988 2.91925E+01 2.10629E+00-8.66373E-02-1.66617E+00 4.30656E-13-5.48867E-14
 -1      2989 2.03264E+01 1.40467E+00 8.83728E-03 9.92209E-01 1.50908E-14 2.91741E-13
 -1      2990 2.02406E+01 1.50316E+00-9.74287E-03 7.69188E-01 4.04710E-14 2.08331E-13
 -1      2991 2.02005E+01 1.69811E+00-1.58181E-03 7.07274E-01 5.85615E-14 1.65690E-13
 -1      2992 2.02744E+01 7.64353E-01 6.62131E-03 7.25150E-01 1.40339E-15 3.54343E-13
 -1      2993 2.27922E+01-4.29606E+00 1.02938E-01-4.97295E+00-8.48766E-14 2.53964E-14
 -1      2994 2.46675E+01-4.53860E+00-1.05833E-01-3.73413E+00-5.41824E-14 9.65235E-14
 -1      2995 2.01060E+01 2.23106E+00-5.40061E-03-1.07521E+00 1.13696E-13-9.43638E-14
 -1      2996 2.01802E+01 2.04413E+00-1.02933E-02-1.16032E+00 1.02252E-13-1.06877E-13
 -1      2997 2.02572E+01 1.66086E+00 2.74089E-03-9.50479E-01 8.91786E-14-9.98203E-14
 -1      2998 2.01758E+01 1.97612E+00 6.69992E-03-8.70196E-01 1.15781E-13-7.93448E-14
 -1      2999 2.80033E+01-7.50369E-01 2.89320E-02 1.04866E+00-1.45571E-13 6.47329E-14
 -1      3000 2.75581E+01 1.29644E+00-1.43959E-01 1.88750E+00-1.67338E-13 1.62093E-14
 -1      3001 2.02938E+01 9.69592E-01 2.47279E-03-4.62909E-01 7.73049E-14-8.16395E-14
 -1      3002 2.02617E+01 7.87018E-01-2.61186E-03-3.00164E-01 8.07996E-14-7.83530E-14
 -1      3003 2.02569E+01 6.31106E-01 3.14523E-03-1.69534E-01 6.70288E-14-9.42900E-14
 -1      3004 2.02195E+01 5.08981E-01-1.82574E-03-4.59799E-02 7.20929E-14-9.22498E-14
 -1      3005 2.02836E+01 8.33747E-01 9.05419E-04-2.50381E-01 6.50415E-14-8.85953E-14
 -1      3006 2.02000E+01 4.14703E-01 2.38643E-03 4.83004E-02 8.04167E-14-9.50801E-14
 -1      3007 2.01694E+01 3.43232E-01-7.08996E-04 1.35915E-01 5.65462E-14-7.70356E-14
 -1      3008 2.02509E+01 5.50904E-01-1.79208E-04-2.04664E-02 8.06120E-14-9.26841E-14
 -1      3009 2.01417E+01 2.91392E-01 1.38737E-03 2.03484E-01 2.61940E-14-6.43867E-14
 -1      3010 2.01189E+01 2.57268E-01 1.54955E-04 2.67946E-01 4.40639E-15-3.93533E-14
 -1      3011 2.01988E+01 3.81144E-01-4.77267E-04 1.47471E-01 4.90973E-14-1.05058E-13
 -1      3012 2.00844E+01 2.37603E-01 3.04280E-04 3.17888E-01-2.97690E-14-2.89755E-14
 -1      3013 2.00667E+01 2.33465E-01 7.57830E-04 3.70189E-01-4.85605E-14-4.27271E-16
 -1      3014 2.01358E+01 2.96297E-01-2.26762E-04 2.70413E-01-7.64234E-16-7.03300E-14
 -1      3015 2.00228E+01 2.40690E-01-8.31529E-04 4.10369E-01-4.77161E-14-1.66057E-14
 -1      3016 2.00051E+01 2.63328E-01 1.10789E-03 4.59596E-01-8.36231E-14-4.12902E-14
 -1      3017 2.00605E+01 2.79579E-01 4.04392E-04 3.64841E-01-5.74582E-14-3.78516E-14
 -1      3018 1.99459E+01 2.95898E-01-2.04323E-03 4.96107E-01-4.10276E-14-3.19874E-14
 -1      3019 1.99200E+01 3.45157E-01 1.09061E-03 5.49747E-01 3.16135E-14-6.41406E-14
 -1      3020 1.99645E+01 3.22778E-01 1.42355E-03 4.44222E-01-5.13465E-14-3.08573E-14
 -1      3021 1.98397E+01 4.00681E-01-3.46665E-03 5.84786E-01 5.46641E-14-5.85252E-14
 -1      3022 1.97984E+01 4.74301E-01 6.83391E-04 6.45399E-01 7.14225E-14-4.74013E-14
 -1      3023 1.98362E+01 4.21332E-01 3.15924E-03 5.16143E-01 4.04723E-14-7.12431E-14
 -1      3024 1.96756E+01 5.61157E-01-5.34407E-03 6.84856E-01 4.32016E-14-4.78152E-14
 -1      3025 1.95974E+01 6.71130E-01 3.75146E-05 7.63221E-01 3.82231E-14-3.18340E-14
 -1      3026 1.96496E+01 5.78184E-01 5.27985E-03 5.87506E-01 4.45126E-14-1.01522E-13
 -1      3027 1.94108E+01 7.90845E-01-7.81638E-03 8.04118E-01 6.79291E-15-8.40749E-14
 -1      3028 1.92729E+01 9.36894E-01-1.79933E-03 9.00019E-01-5.67233E-15-1.22247E-13
 -1      3029 1.93628E+01 8.05568E-01 8.81962E-03 6.58729E-01-8.91252E-15-1.48951E-13
 -1      3030 1.89902E+01 1.09111E+00-1.11871E-02 9.38622E-01 1.72195E-14-1.63588E-13
 -1      3031 1.87566E+01 1.27153E+00-4.93093E-03 1.05180E+00 7.15487E-15-1.83635E-13
 -1      3032 1.89258E+01 1.10364E+00 1.39681E-02 7.19472E-01-2.52771E-14-1.56298E-13
 -1      3033 1.83308E+01 1.45328E+00-1.58242E-02 1.08148E+00-3.14982E-14-2.06868E-13
 -1      3034 1.79519E+01 1.65280E+00-9.19696E-03 1.20960E+00-3.40223E-14-2.55651E-13
 -1      3035 1.82616E+01 1.46617E+00 2.16865E-02 7.52603E-01-4.68741E-14-1.93348E-13
 -1      3036 1.73159E+01 1.83528E+00-2.13210E-02 1.22373E+00-2.64320E-14-2.78178E-13
 -1      3037 1.67300E+01 2.01044E+00-1.13216E-02 1.36778E+00-6.97688E-14-3.22422E-13
 -1      3038 1.72618E+01 1.86079E+00 3.44450E-02 7.34209E-01-7.91793E-14-3.15392E-13
 -1      3039 1.57786E+01 2.12941E+00-2.46800E-02 1.37258E+00-7.37422E-14-3.10506E-13
 -1      3040 1.49185E+01 2.17973E+00 1.42448E-03 1.55758E+00-7.29798E-14-3.41397E-13
 -1      3041 1.57647E+01 2.21123E+00 5.91992E-02 6.39553E-01-6.25409E-14-3.20607E-13
 -1      3042 1.35723E+01 2.13360E+00 2.24745E-03 1.60442E+00-3.43822E-15-3.34843E-13
 -1      3043 1.24337E+01 1.77042E+00 3.68501E-02 1.87477E+00 6.98356E-14-3.59879E-13
 -1      3044 1.35973E+01 2.33213E+00 1.07162E-01 4.82355E-01-5.25370E-14-2.94199E-13
 -1      3045 1.99898E+01 3.98690E-02-3.05030E-05-8.30713E-03 6.19125E-14 6.16510E-13
 -1      3046 1.99885E+01 4.07237E-02-1.17433E-04-5.58601E-03 5.20249E-14 5.87406E-13
 -1      3047 2.02499E+01 7.39158E-01-2.94276E-03 3.00860E-01 2.98160E-14 1.83970E-13
 -1      3048 2.02888E+01 9.26270E-01 1.06788E-03 4.70393E-01 1.35402E-14 2.04139E-13
 -1      3049 1.75573E+01 1.90521E+00-6.31799E-03-1.61631E+00-1.45551E-13-1.45235E-14
 -1      3050 1.79887E+01 1.72345E+00-2.09061E-02-1.41621E+00-1.01451E-13-6.36583E-14
 -1      3051 1.85288E+01 1.53926E+00-6.25682E-03-1.31507E+00-8.92515E-16-1.71452E-13
 -1      3052 1.88023E+01 1.35016E+00-1.49968E-02-1.14418E+00-3.44666E-14-2.31397E-13
 -1      3053 1.77978E+01 1.80576E+00 3.21744E-02-9.78315E-01-1.61672E-13 2.45333E-15
 -1      3054 1.91553E+01 1.17707E+00-3.18219E-03-1.05060E+00 6.80192E-14-3.54269E-13
 -1      3055 1.93158E+01 1.01312E+00-1.04450E-02-9.07553E-01-6.54479E-16-2.96943E-13
 -1      3056 1.86360E+01 1.40757E+00 2.05398E-02-8.51658E-01-7.87465E-14-2.94051E-13
 -1      3057 1.95338E+01 8.77275E-01-1.05881E-03-8.27262E-01-5.15141E-14-1.50139E-13
 -1      3058 1.96180E+01 7.52658E-01-7.35109E-03-7.15582E-01-5.46924E-14-5.59369E-14
 -1      3059 1.91662E+01 1.06764E+00 1.34412E-02-7.18364E-01 6.91507E-14-2.19181E-13
 -1      3060 1.97633E+01 6.41865E-01 2.19269E-04-6.41167E-01-2.15029E-14 5.11096E-14
 -1      3061 1.98082E+01 5.42527E-01-5.19967E-03-5.48290E-01 6.20589E-15 1.37814E-13
 -1      3062 1.95039E+01 7.91970E-01 8.59556E-03-5.86983E-01 6.39137E-15-2.03434E-14
 -1      3063 1.98980E+01 4.60547E-01 7.67120E-04-4.86288E-01 6.50153E-15 1.68736E-13
 -1      3064 1.99167E+01 3.88114E-01-3.55966E-03-4.14462E-01 4.58726E-14 2.11257E-13
 -1      3065 1.97193E+01 5.75643E-01 5.40943E-03-4.65384E-01 6.51139E-15 2.82996E-13
 -1      3066 1.99709E+01 3.28910E-01 1.00074E-03-3.64238E-01 2.44653E-14 8.64686E-14
 -1      3067 1.99754E+01 2.76765E-01-2.43129E-03-3.09580E-01 1.02884E-13 9.53860E-14
 -1      3068 1.98491E+01 4.15127E-01 3.29123E-03-3.61413E-01-1.44900E-14 1.52238E-13
 -1      3069 2.00072E+01 2.34526E-01 1.00692E-03-2.69819E-01 8.12921E-14 1.79796E-13
 -1      3070 2.00047E+01 1.97289E-01-1.65159E-03-2.28687E-01 1.91514E-13 2.06795E-14
 -1      3071 1.99251E+01 2.98347E-01 1.94665E-03-2.75834E-01 1.16595E-13 1.55216E-13
 -1      3072 2.00229E+01 1.67300E-01 9.05848E-04-1.97741E-01 3.53295E-13-1.20258E-13
 -1      3073 2.00174E+01 1.40781E-01-1.11994E-03-1.67026E-01 3.08889E-13-1.23819E-13
 -1      3074 1.99681E+01 2.14208E-01 1.11489E-03-2.07305E-01 1.86617E-13 2.82031E-13
 -1      3075 2.00274E+01 1.19517E-01 7.72975E-04-1.43255E-01 1.01036E-13-1.75914E-13
 -1      3076 2.00212E+01 1.00663E-01-7.26239E-04-1.20469E-01 3.54957E-14-2.54757E-13
 -1      3077 1.99913E+01 1.53812E-01 6.01598E-04-1.53513E-01 1.64537E-13-3.68084E-15
 -1      3078 2.00262E+01 8.62523E-02 6.35839E-04-1.03270E-01 1.33330E-15-3.78881E-13
 -1      3079 2.00206E+01 7.32216E-02-4.92544E-04-8.70705E-02-1.39083E-13-4.40888E-13
 -1      3080 2.00027E+01 1.11293E-01 2.67623E-04-1.12766E-01-6.11924E-14-2.31154E-13
 -1      3081 2.00229E+01 6.21683E-02 4.97644E-04-7.32284E-02-9.59883E-14-3.59981E-13
 -1      3082 2.00178E+01 5.23178E-02-3.52146E-04-6.06602E-02 8.20483E-14-3.08355E-13
 -1      3083 2.00077E+01 8.07374E-02 1.48167E-04-8.15460E-02-9.38466E-14-2.32562E-13
 -1      3084 2.00185E+01 4.44235E-02 3.87413E-04-5.03690E-02 9.49322E-14-3.86398E-13
 -1      3085 2.00143E+01 3.73238E-02-2.40090E-04-4.11849E-02-5.02851E-14-5.12903E-13
 -1      3086 2.00092E+01 5.79209E-02 5.48278E-05-5.72253E-02-2.69187E-14-3.33907E-13
 -1      3087 2.00142E+01 3.16663E-02 3.03391E-04-3.36005E-02-7.01683E-14-4.09602E-13
 -1      3088 2.00108E+01 2.64612E-02-1.78507E-04-2.69235E-02 1.04267E-13-4.54802E-13
 -1      3089 2.00088E+01 4.13744E-02-8.33830E-06-3.91339E-02 1.84960E-14-5.38583E-13
 -1      3090 2.00106E+01 2.23403E-02 2.39612E-04-2.16936E-02 3.13857E-13-4.34687E-13
 -1      3091 2.00080E+01 1.85790E-02-8.50050E-05-1.69760E-02 3.11520E-13-9.93077E-14
 -1      3092 2.00060E+01 2.07329E-02 3.50230E-05-1.66877E-02 2.17038E-13-3.08824E-13
 -1      3093 2.00075E+01 2.92234E-02-1.11032E-04-2.60616E-02 2.42844E-13-3.52430E-13
 -1      3094 1.99939E+01 3.60321E-02 2.97458E-05-1.35187E-02 1.50193E-13 1.47231E-13
 -1      3095 1.99915E+01 3.78746E-02-1.64574E-04-1.14659E-02 7.57308E-14 3.23406E-13
 -1      3096 1.99886E+01 4.52447E-02 1.85120E-04-1.14105E-02-1.50691E-13 5.03800E-13
 -1      3097 1.72025E+01-2.64329E+00 8.89565E-02-6.22745E+00 2.87270E-15 5.02931E-14
 -1      3098 2.01927E+01-3.95339E+00-2.34723E-02-5.97550E+00-3.56104E-14 2.22045E-15
 -1      3099 2.01628E+01 2.73871E-01-1.36983E-03-1.13503E-01 1.56700E-14 1.81566E-13
 -1      3100 2.01935E+01 3.57329E-01 3.74862E-03-3.54842E-02 2.68945E-14 1.74752E-13
 -1      3101 2.02059E+01 4.56575E-01-2.43648E-03 5.46081E-02 3.81231E-14 1.82635E-13
 -1      3102 2.02471E+01 5.83881E-01 4.47519E-03 1.72808E-01 3.29237E-14 1.79815E-13
 -1      3103 2.02808E+01 7.85066E-01 3.64528E-04 2.56863E-01 2.85307E-14 1.51632E-13
 -1      3104 2.02497E+01 4.90885E-01-1.00748E-03 3.14898E-02 3.70564E-14 1.43549E-13
 -1      3105 2.01336E+01-5.34462E-02 1.88092E-04-3.46131E-01 1.42348E-14 1.16613E-13
 -1      3106 2.01178E+01-2.25134E-02 1.43551E-03-3.44335E-01 1.77155E-14 1.02659E-13
 -1      3107 2.01132E+01 6.60128E-03 1.89623E-04-3.31663E-01 1.58134E-14 9.65029E-14
 -1      3108 2.01078E+01 3.78566E-02 1.55070E-03-3.17348E-01 2.10875E-14 9.93973E-14
 -1      3109 2.01504E+01-1.82248E-03-1.72149E-03-3.44420E-01 2.02343E-15 1.66338E-13
 -1      3110 2.02507E+01-2.09826E-01-5.52777E-04-3.01268E-01 4.49669E-14 1.16305E-13
 -1      3111 2.02139E+01-1.62237E-01 2.22067E-03-3.27457E-01 4.54567E-14 1.23712E-13
 -1      3112 2.03570E+01-3.21922E-01-1.35935E-03-2.29324E-01 8.27818E-14 7.23467E-14
 -1      3113 2.03094E+01-2.61299E-01 3.04751E-03-2.75262E-01 5.75751E-14 9.97639E-14
 -1      3114 2.03039E+01-2.69158E-01-3.09083E-03-3.32065E-01 5.97133E-14 7.40368E-14
 -1      3115 2.04993E+01-4.56339E-01-2.46926E-03-1.09380E-01-2.75030E-14 1.03244E-13
 -1      3116 2.04425E+01-3.84966E-01 3.99940E-03-1.80592E-01 1.39888E-14 4.66703E-14
 -1      3117 2.04376E+01-4.07461E-01-3.64467E-03-2.64960E-01 4.03793E-14 5.40130E-14
 -1      3118 2.06742E+01-5.97600E-01-3.75268E-03 7.14871E-02-5.87074E-14 2.72615E-13
 -1      3119 2.06126E+01-5.25301E-01 4.76149E-03-2.96727E-02-4.60036E-14 1.81338E-13
 -1      3120 2.06238E+01-5.69687E-01-3.85713E-03-1.45022E-01-8.90786E-14 1.59483E-13
 -1      3121 2.08672E+01-7.11394E-01-4.80093E-03 3.21096E-01-9.27155E-14 3.52049E-13
 -1      3122 2.08096E+01-6.58294E-01 4.83868E-03 1.89545E-01-6.35492E-14 2.81184E-13
 -1      3123 2.08599E+01-7.33663E-01-3.31572E-03 4.47870E-02-1.04833E-13 2.62780E-13
 -1      3124 2.10486E+01-7.42452E-01-4.90502E-03 6.31878E-01-3.39401E-14 3.07318E-13
 -1      3125 2.10081E+01-7.39345E-01 3.50869E-03 4.78845E-01-4.61357E-14 3.25505E-13
 -1      3126 2.11273E+01-8.53066E-01-1.41030E-03 3.16177E-01-3.66537E-14 2.14390E-13
 -1      3127 2.11739E+01-6.22563E-01-3.01016E-03 9.67267E-01-8.05013E-14 2.11650E-13
 -1      3128 2.11653E+01-7.05203E-01 1.31703E-04 8.16528E-01-4.79043E-14 2.82413E-13
 -1      3129 2.13851E+01-8.57789E-01 1.82603E-03 6.61806E-01-3.06025E-14 2.10840E-13
 -1      3130 2.11950E+01-2.96306E-01 1.55765E-03 1.24973E+00-1.14135E-13 1.95638E-13
 -1      3131 2.12282E+01-4.89267E-01-5.09575E-03 1.14284E+00-9.74428E-14 2.11418E-13
 -1      3132 2.15710E+01-6.65260E-01 5.99313E-03 1.03700E+00-6.69474E-14 1.93422E-13
 -1      3133 2.10868E+01 2.35771E-01 8.24891E-03 1.36627E+00-2.08058E-13 2.44568E-13
 -1      3134 2.11575E+01-5.80081E-02-1.05533E-02 1.35527E+00-1.99454E-13 2.29063E-13
 -1      3135 2.16184E+01-2.20850E-01 9.07296E-03 1.34358E+00-1.92551E-13 1.75922E-13
 -1      3136 2.08744E+01 8.69839E-01 1.24970E-02 1.20020E+00-1.89403E-13 3.12453E-13
 -1      3137 2.09603E+01 5.45002E-01-1.33338E-02 1.32873E+00-1.76020E-13 2.85894E-13
 -1      3138 2.14963E+01 4.49738E-01 7.84604E-03 1.44203E+00-2.42296E-13 2.35301E-13
 -1      3139 2.06568E+01 1.39680E+00 1.09371E-02 7.14427E-01-1.46240E-13 2.67424E-13
 -1      3140 2.07222E+01 1.15534E+00-1.04948E-02 9.79235E-01-1.33484E-13 3.27114E-13
 -1      3141 2.12589E+01 1.18853E+00 1.89919E-03 1.19394E+00-1.72597E-13 2.60477E-13
 -1      3142 2.05524E+01 1.60155E+00 2.80002E-03 5.19422E-03 6.56016E-14 1.69880E-13
 -1      3143 2.05669E+01 1.54782E+00-1.97012E-03 3.44887E-01-6.65353E-14 1.54650E-13
 -1      3144 2.10422E+01 1.73167E+00-6.44418E-03 5.89178E-01-2.87979E-14 2.22277E-13
 -1      3145 2.06280E+01 1.39328E+00-7.10186E-03-7.12285E-01 1.00396E-13 2.04118E-13
 -1      3146 2.05846E+01 1.55028E+00 7.51017E-03-3.97832E-01 7.22501E-14 1.93038E-13
 -1      3147 2.09912E+01 1.85889E+00-6.85549E-03-2.18737E-01 1.46668E-14 6.05668E-14
 -1      3148 2.08432E+01 8.67610E-01-1.25942E-02-1.21788E+00 9.42432E-14 3.49002E-13
 -1      3149 2.07621E+01 1.16324E+00 1.26842E-02-1.01647E+00 1.56650E-13 3.16868E-13
 -1      3150 2.11401E+01 1.50876E+00-3.99626E-04-9.54531E-01 7.61951E-14 1.61071E-13
 -1      3151 2.10773E+01 2.39354E-01-1.25419E-02-1.40357E+00 1.00858E-13 3.05821E-13
 -1      3152 2.09931E+01 5.57762E-01 1.04459E-02-1.34720E+00 1.29383E-13 3.41149E-13
 -1      3153 2.13872E+01 8.34021E-01 5.79696E-03-1.38819E+00 1.12970E-13 3.23070E-13
 -1      3154 2.12154E+01-2.81101E-01-7.62345E-03-1.30105E+00 1.31610E-13 2.91892E-13
 -1      3155 2.11601E+01-3.79408E-02 4.36212E-03-1.36285E+00 1.50079E-13 3.38305E-13
 -1      3156 2.15780E+01 1.06387E-01 8.79216E-03-1.45337E+00 9.11736E-14 4.01374E-13
 -1      3157 2.12165E+01-5.96261E-01-1.89694E-03-1.02585E+00 7.05081E-14 2.67094E-13
 -1      3158 2.12032E+01-4.64328E-01-1.07880E-03-1.15587E+00 9.20609E-14 2.60398E-13
 -1      3159 2.16123E+01-4.50994E-01 8.04404E-03-1.23922E+00 9.85959E-14 3.92030E-13
 -1      3160 2.11000E+01-7.04921E-01 2.44423E-03-6.96195E-01 6.09386E-14 1.67572E-13
 -1      3161 2.11242E+01-6.74103E-01-4.35582E-03-8.45403E-01 5.42191E-14 2.44696E-13
 -1      3162 2.14857E+01-7.56338E-01 4.17346E-03-8.92599E-01 5.83460E-14 1.82112E-13
 -1      3163 2.09163E+01-6.64287E-01 4.61804E-03-3.93905E-01 7.28688E-14 2.14148E-13
 -1      3164 2.09648E+01-7.01079E-01-5.20861E-03-5.29815E-01 1.01715E-13 1.85494E-13
 -1      3165 2.12521E+01-8.30155E-01 1.34549E-04-5.37217E-01 6.34534E-14 2.25289E-13
 -1      3166 2.07150E+01-5.42853E-01 5.12734E-03-1.57366E-01 5.59141E-14 2.49230E-13
 -1      3167 2.07732E+01-6.12508E-01-4.56434E-03-2.64556E-01 5.49187E-14 2.11627E-13
 -1      3168 2.09797E+01-7.48393E-01-2.45425E-03-2.42690E-01 4.70446E-14 3.22167E-13
 -1      3169 2.05295E+01-3.95872E-01 4.60094E-03 6.20273E-03 1.20625E-13 3.22234E-13
 -1      3170 2.05866E+01-4.72502E-01-3.34597E-03-6.91590E-02 1.24978E-13 2.68290E-13
 -1      3171 2.07204E+01-5.91195E-01-3.54517E-03-3.16774E-02 6.82278E-14 2.45612E-13
 -1      3172 2.03761E+01-2.57835E-01 3.63255E-03 1.06006E-01-8.39517E-14 4.44232E-13
 -1      3173 2.04261E+01-3.26420E-01-2.15316E-03 5.89064E-02 6.18362E-14 3.93706E-13
 -1      3174 2.05024E+01-4.17702E-01-3.56837E-03 1.01081E-01 6.14068E-14 2.46984E-13
 -1      3175 2.02585E+01-1.45264E-01 2.61006E-03 1.56928E-01-1.07770E-13 3.88574E-13
 -1      3176 2.02991E+01-1.99354E-01-1.20817E-03 1.31966E-01-1.25856E-13 3.99112E-13
 -1      3177 2.03344E+01-2.62326E-01-3.06112E-03 1.72171E-01-1.15864E-13 2.59482E-13
 -1      3178 2.01732E+01-6.26133E-02 1.71978E-03 1.73856E-01 1.02645E-13 4.42667E-13
 -1      3179 2.02047E+01-1.01202E-01-5.39420E-04 1.64645E-01 1.72663E-14 3.60940E-13
 -1      3180 2.02133E+01-1.39701E-01-2.37143E-03 1.99704E-01-3.77733E-14 1.02728E-13
 -1      3181 2.01141E+01-7.50802E-03 1.03218E-03 1.69263E-01 5.58295E-14 6.09000E-13
 -1      3182 2.01377E+01-3.24720E-02-1.06724E-04 1.70278E-01 1.30025E-13 5.57257E-13
 -1      3183 2.01308E+01-5.21150E-02-1.70635E-03 1.99281E-01 7.71276E-15 4.19308E-13
 -1      3184 2.00745E+01 2.53974E-02 5.44766E-04 1.52550E-01 8.47958E-14 5.60074E-13
 -1      3185 2.00918E+01 1.10761E-02 1.48936E-04 1.59505E-01 1.39651E-13 5.78463E-13
 -1      3186 2.00774E+01 4.66009E-03-1.15582E-03 1.82757E-01 1.65750E-14 5.54299E-13
 -1      3187 2.00487E+01 4.20446E-02 2.24443E-04 1.30256E-01-1.45765E-13 6.03415E-13
 -1      3188 2.00613E+01 3.53229E-02 2.81647E-04 1.40090E-01-4.21215E-14 6.55987E-13
 -1      3189 2.00444E+01 3.73415E-02-7.45118E-04 1.58407E-01-8.69307E-15 5.73575E-13
 -1      3190 2.00321E+01 4.77280E-02 3.03960E-05 1.06618E-01-2.50798E-13 5.31454E-13
 -1      3191 2.00413E+01 4.60049E-02 3.35428E-04 1.17293E-01-2.09211E-13 6.21808E-13
 -1      3192 2.00250E+01 5.27874E-02-4.60288E-04 1.31591E-01-2.19495E-13 5.19587E-13
 -1      3193 2.00216E+01 4.66484E-02-7.48578E-05 8.41683E-02 1.41152E-13 2.33783E-13
 -1      3194 2.00283E+01 4.79151E-02 3.40662E-04 9.44361E-02-6.38905E-14 4.53515E-13
 -1      3195 2.00141E+01 5.68684E-02-2.72222E-04 1.05545E-01-8.23941E-14 2.57116E-13
 -1      3196 2.00148E+01 4.18748E-02-1.22779E-04 6.42468E-02 2.08136E-13 2.66799E-13
 -1      3197 2.00198E+01 4.46972E-02 3.17450E-04 7.34275E-02 2.64679E-13 2.59918E-13
 -1      3198 2.00083E+01 5.41190E-02-1.55200E-04 8.20373E-02 1.63505E-13 3.37881E-13
 -1      3199 2.00105E+01 3.54833E-02-1.35609E-04 4.74047E-02 1.53482E-13 6.83278E-14
 -1      3200 2.00142E+01 3.89103E-02 2.79803E-04 5.51984E-02 1.79350E-13 9.16947E-14
 -1      3201 2.00054E+01 4.77798E-02-8.85358E-05 6.18563E-02 2.54134E-13 3.59062E-13
 -1      3202 2.00075E+01 2.87837E-02-1.28398E-04 3.37020E-02 3.84516E-13 7.47014E-15
 -1      3203 2.00103E+01 3.22335E-02 2.37157E-04 4.00559E-02 2.19782E-13 4.47315E-14
 -1      3204 2.00039E+01 4.00183E-02-5.05730E-05 4.51930E-02 2.04531E-13 1.63895E-13
 -1      3205 2.00054E+01 2.25198E-02-9.44051E-05 2.29857E-02 1.32776E-13 9.30496E-14
 -1      3206 2.00074E+01 2.56240E-02 1.83014E-04 2.79204E-02 3.07289E-13 8.41068E-14
 -1      3207 2.00031E+01 3.21407E-02-3.12988E-05 3.18790E-02 2.30021E-13 1.34650E-13
 -1      3208 2.00040E+01 1.78970E-02 3.16453E-06 1.58166E-02 1.26206E-13-9.42498E-14
 -1      3209 2.00055E+01 2.02798E-02 1.50383E-04 1.94452E-02 8.35962E-14-1.56329E-14
 -1      3210 2.00027E+01 2.57570E-02 1.89126E-05 2.25752E-02 1.93037E-13 2.52603E-13
 -1      3211 2.00024E+01 2.03545E-02-8.44136E-06 1.61909E-02 2.07531E-13-3.11667E-13
 -1      3212 1.99881E+01 3.96756E-02-1.28447E-04 4.73720E-03 2.62798E-13-5.35844E-14
 -1      3213 1.99892E+01 3.85388E-02 4.52794E-06 7.47463E-03 2.87001E-13-4.52955E-13
 -1      3214 1.99993E+01 3.00980E-02 1.03097E-04-1.66048E-02 1.91257E-13-1.95664E-13
 -1      3215 1.99963E+01 3.25906E-02-2.12547E-04-1.55428E-02 1.85882E-13 7.20951E-14
 -1      3216 1.99940E+01 4.01180E-02 1.72051E-04-1.70931E-02 8.21167E-14 1.57486E-13
 -1      3217 2.00036E+01 2.40633E-02-1.05714E-04-1.72133E-02 1.52179E-13-3.87682E-13
 -1      3218 1.18574E+01-8.95373E-02 1.56259E-01-4.85664E+00 3.72272E-15 1.00225E-13
 -1      3219 1.40760E+01-1.21610E+00 3.58265E-02-5.74492E+00-1.56958E-14 1.82507E-13
 -1      3220 1.49431E+01-1.92280E+00-5.83063E-02 6.22294E+00-8.96921E-14 3.18856E-13
 -1      3221 1.25906E+01-5.36118E-01 1.55261E-01 5.39304E+00-2.19359E-13 2.46581E-13
 -1      3222 1.99878E+01 4.10863E-02-8.60073E-05-1.89298E-03 1.51020E-13 2.47436E-13
 -1      3223 1.99877E+01 4.09262E-02-5.58893E-05 1.11828E-03 2.39413E-13 1.23014E-13
 -1      3224 1.99855E+01 4.65005E-02 1.76473E-04 3.78396E-03 2.60745E-13 3.69017E-14
 -1      3225 1.99857E+01 4.74235E-02 1.97896E-04-4.03973E-03 6.48261E-14 4.34113E-13
 -1      3226 2.14502E+01-3.98074E+00-3.99253E-02 5.27802E+00-1.34025E-14-2.21767E-14
 -1      3227 1.85178E+01-2.89895E+00 1.57980E-01 6.08714E+00-3.67137E-14-1.57790E-14
 -1      3228 9.33324E+00 1.35141E+00 1.07138E-01-1.40484E+00 2.62637E-15-1.72265E-13
 -1      3229 1.00486E+01 5.75881E-01 8.17312E-02-3.70139E+00 4.26742E-15-7.84095E-15
 -1      3230 9.32030E+00 1.57656E+00 8.88427E-02-9.92076E-02-2.35396E-13 5.76983E-13
 -1      3231 1.01710E+01 1.24866E+00 9.12433E-02-2.21168E+00-1.24675E-13 5.47506E-13
 -1      3232 8.80245E+00 2.21387E-01 2.13975E-01 2.76406E+00 3.94129E-15-4.05093E-13
 -1      3233 9.42204E+00 1.12213E+00 1.39502E-01 1.57521E+00 5.39326E-14-4.30850E-13
 -1      3234 2.62739E+01-3.94035E+00-1.03624E-01 2.13280E+00 7.66019E-14-1.19644E-14
 -1      3235 2.43730E+01-4.16232E+00 4.69497E-02 3.68242E+00 1.91201E-14-3.18226E-14
 -1      3236 2.01779E+01-1.22233E-01-4.96980E-05-3.37340E-01 2.14874E-14 1.64000E-13
 -1      3237 2.01517E+01-8.53814E-02 1.66386E-03-3.48258E-01 2.60015E-14 1.14425E-13
 -1      3238 2.01687E+01-7.45258E-02-2.03592E-03-3.63986E-01 2.00754E-14 1.81594E-13
 -1      3239 2.02171E+01-1.59967E-01-2.51033E-03-3.61580E-01 4.52124E-14 1.22105E-13
 -1      3240 1.61378E+01 2.11598E+00 7.36965E-03-1.97175E+00 4.67066E-14 1.86462E-13
 -1      3241 1.67465E+01 2.03310E+00-2.61942E-02-1.74264E+00-3.67176E-14 2.64589E-14
 -1      3242 1.65212E+01 2.18937E+00 5.30809E-02-1.09316E+00-1.23925E-13 5.89615E-14
 -1      3243 2.03038E+01 9.44627E-01-7.08498E-03 7.46374E-01 8.28981E-15 2.96657E-13
 -1      3244 1.06535E+01 4.46716E-01 4.86622E-02 4.13656E+00-2.90382E-13 2.11733E-13
 -1      3245 9.56699E+00 1.33377E+00 1.24454E-01 1.99928E+00-3.17682E-13 4.32973E-13
 -1      3246 2.68526E+01 6.17887E+00-1.04823E-01 9.46251E-01 6.97220E-14 1.98827E-13
 -1      3247 2.64931E+01 6.36322E+00-1.28175E-01 4.41550E-02 1.26482E-13 1.35767E-13
 -1      3248 1.14177E+01 3.80947E-01 1.48376E-01 3.65278E+00 1.04826E-13-3.54661E-13
 -1      3249 2.80187E+01-1.15239E+00-1.46787E-01-7.48911E-01 2.77771E-13-1.89800E-13
 -1      3250 2.75711E+01-2.50996E+00 4.30179E-02 4.45902E-01 2.15390E-13-2.50355E-14
 -1      3251 2.00240E+01 2.21666E+00-4.18195E-03 2.73954E-01 1.41456E-13 6.33085E-14
 -1      3252 2.00084E+01 2.25749E+00-3.53038E-03 1.57890E-01 1.51022E-13 5.54439E-14
 -1      3253 2.71359E+01 3.57270E+00-7.07211E-02 2.02331E+00-6.95138E-14 7.55333E-14
 -1      3254 2.70080E+01 5.14634E+00-1.34734E-01 1.60819E+00 1.78191E-14 2.16160E-13
 -1      3255 2.58397E+01 4.83234E+00-8.75929E-02 1.30671E+00 1.94705E-14 1.37569E-13
 -1      3256 1.27014E+01 9.91661E-01 1.31865E-01-3.54643E+00-2.50147E-14 3.74450E-13
 -1      3257 1.43581E+01 1.72041E+00 4.15844E-02-2.84766E+00 6.64226E-15 2.70825E-13
 -1      3258 1.49618E+01 2.07958E+00-4.97617E-03-2.31196E+00 1.22519E-13 2.34163E-13
 -1      3259 2.65580E+01-3.72921E+00 8.01048E-02-2.05080E+00-1.05572E-13 6.98608E-14
 -1      3260 2.73190E+01-2.86631E+00-1.62322E-01-5.30169E-01-1.46180E-13 8.14765E-14
 -1      3261 2.02843E+01 1.41230E+00-1.24186E-03-8.01587E-01 8.07918E-14-9.26479E-14
 -1      3262 2.02778E+01 1.13493E+00-1.77942E-03-5.82920E-01 7.28270E-14-8.31122E-14
 -1      3263 2.02806E+01 1.18662E+00 2.03720E-04-5.08074E-01 7.51221E-14-7.09184E-14
 -1      3264 2.02392E+01 1.58455E+00-1.94660E-03-7.80222E-01 9.16596E-14-7.26864E-14
 -1      3265 2.78636E+01 2.62480E+00-1.33163E-01-2.01307E+00 4.11879E-13-1.85463E-13
 -1      3266 2.82713E+01 7.47769E-01-2.99778E-02-1.62717E+00 3.92394E-13-2.16022E-13
 -1      3267 2.72879E+01-3.33292E-01-3.71155E-02-1.32530E+00 2.57305E-13-3.37404E-13
 -1      3268 2.02854E+01 1.28055E+00 3.32468E-03 7.61547E-01 1.76365E-14 2.48336E-13
 -1      3269 1.10578E+01 1.79809E+00 1.12091E-01 7.90702E-01-3.56193E-13 4.06480E-13
 -1      3270 2.16632E+01-3.65877E+00 6.29727E-02-4.83688E+00-1.31666E-14 1.11126E-14
 -1      3271 2.69662E+01-1.69421E+00-7.03237E-03 4.53934E-01-1.07289E-13-2.36616E-15
 -1      3272 2.70600E+01 3.34755E+00-9.94184E-02-2.06641E+00 3.55570E-13-3.39902E-14
 -1      3273 2.63942E+01 2.10775E+00-1.56180E-02-2.03474E+00 3.49373E-13-9.22023E-14
 -1      3274 2.58956E+01 3.93062E+00-7.50494E-02-1.86639E+00 3.23810E-13-6.48613E-14
 -1      3275 1.25865E+01 8.07853E-01 2.31374E-01 3.85701E+00 1.30059E-13-3.80224E-13
 -1      3276 1.74161E+01-1.96878E+00 8.72133E-02 5.51023E+00-1.37987E-13 1.38271E-13
 -1      3277 2.02798E+01 1.16338E+00 2.62519E-03 4.94924E-01 3.32359E-14 1.64456E-13
 -1      3278 2.02884E+01 1.12234E+00 5.15941E-03 5.72606E-01 1.38724E-14 2.16561E-13
 -1      3279 2.01130E+01 7.05677E-02-4.38653E-05-2.93003E-01 5.05825E-14 1.17214E-13
 -1      3280 2.01187E+01 1.09527E-01 2.00679E-03-2.63758E-01 5.43961E-14 1.51159E-13
 -1      3281 2.01551E+01 7.24168E-02-1.55237E-03-3.02687E-01 4.08523E-14 1.36764E-13
 -1      3282 2.01108E+01 1.99136E+00-2.83757E-03-5.50811E-01 1.23044E-13-1.34771E-14
 -1      3283 2.01530E+01 1.86400E+00-5.40158E-03-6.44452E-01 1.15609E-13-5.42956E-14
 -1      3284 2.61263E+01 7.70302E-01-2.29378E-02 1.80692E+00-1.53239E-13 3.38878E-14
 -1      3285 2.68119E+01 2.03668E+00-6.87313E-02 2.08958E+00-1.51275E-13 6.17492E-14
 -1      3286 2.56585E+01 2.62251E+00-6.24571E-02 2.04645E+00-6.76265E-14 2.88589E-14
 -1      3287 1.99948E+01 3.03911E-02-1.51894E-04 1.44937E-02 2.23040E-13-2.75005E-13
 -1      3288 1.99973E+01 2.78545E-02 9.03712E-05 1.55602E-02 2.92397E-13-1.78909E-13
 -1      3289 1.54576E+01-6.60369E-01 3.23010E-03-4.81896E+00-9.65200E-15 1.13895E-13
 -1      3290 1.63123E+01-1.72858E+00 8.81127E-02-5.66907E+00-1.43184E-14 6.27658E-14
 -1      3291 1.81847E+01-2.19319E+00-3.84275E-02-5.15900E+00-7.72559E-15-3.11071E-14
 -1      3292 2.01482E+01 2.09041E-01 2.78515E-03-1.74614E-01 2.62004E-14 1.57805E-13
 -1      3293 2.02110E+01 2.96246E-01-1.32810E-03-1.26812E-01 3.65362E-14 1.05770E-13
 -1      3294 2.01303E+01 1.53499E-01-5.45032E-04-2.24066E-01 4.72722E-14 1.54846E-13
 -1      3295 2.30932E+01-3.97363E+00 3.62737E-02 4.19136E+00-1.21639E-14-8.12952E-14
 -1      3296 2.14895E+01-3.26554E+00-1.41237E-03 4.36360E+00-1.61740E-13-8.97546E-14
 -1      3297 2.39499E+01-3.56750E+00 1.05258E-02 2.87691E+00-1.29283E-13-1.05665E-13
 -1      3298 2.00021E+01 3.09415E-02 1.22820E-04-2.04791E-02 2.86200E-13-2.89199E-13
 -1      3299 1.99906E+01 3.59345E-02-1.53585E-04 1.04732E-02 2.22696E-13-6.43185E-13
 -1      3300 1.99926E+01 3.39853E-02 5.11106E-05 1.25212E-02 1.88944E-13-4.81709E-13
 -1      3301 1.99923E+01 3.68287E-02 8.85784E-05 1.60971E-02 1.29052E-13-3.30576E-13
 -1      3302 2.00005E+01 2.26402E-02-7.97734E-05 1.60633E-02 2.80860E-13-3.63981E-14
 -1      3303 1.99879E+01 4.27699E-02 1.36272E-04 1.08246E-02 2.98039E-13-4.74773E-13
 -1      3304 2.01543E+01 1.83977E+00-6.58926E-03 6.51116E-01 8.43012E-14 1.32880E-13
 -1      3305 2.01148E+01 1.97229E+00-2.73614E-03 5.56778E-01 1.01994E-13 1.18857E-13
 -1      3306 2.02429E+01 1.49959E+00 3.98157E-03 5.43309E-01 5.25258E-14 1.40500E-13
 -1      3307 2.60504E+01 5.86365E+00-1.19392E-01-5.23569E-01 1.60705E-13 1.24813E-13
 -1      3308 2.54802E+01 5.14092E+00-7.56876E-02-1.05700E+00 2.17687E-13 1.05305E-13
 -1      3309 2.51556E+01 5.51856E+00-3.18286E-02-4.26149E-02 9.27453E-14 2.27811E-13
 -1      3310 1.21678E+01 6.24263E-01 5.69836E-02-3.69559E+00 2.07230E-14 5.85920E-14
 -1      3311 1.99986E+01 2.80474E-02-4.96310E-05 1.88198E-02 2.55504E-13-6.75872E-14
 -1      3312 1.28891E+01 4.10325E-01 1.17119E-01 4.14730E+00-2.10394E-13 3.40311E-13
 -1      3313 2.63905E+01-2.99084E+00-8.27844E-03 9.29278E-01 3.18938E-14-1.83353E-13
 -1      3314 1.03154E+01 1.84561E+00 1.75652E-01 1.06772E-02 3.25564E-14-3.50206E-13
 -1      3315 1.13798E+01 1.82681E+00 6.12197E-02-8.81144E-01-3.01408E-15-1.37862E-13
 -1      3316 1.13279E+01 1.74097E+00 8.78475E-02 1.70846E+00 9.34834E-14-4.14335E-13
 -1      3317 1.45794E+01 2.31326E+00 6.03385E-02-1.42967E+00-9.91915E-15 1.92352E-13
 -1      3318 2.00472E+01 2.15608E+00-3.48151E-03 3.66783E-01 1.28539E-13 9.18949E-14
 -1      3319 2.01378E+01 1.90860E+00 5.42754E-03 2.65776E-01 1.22735E-13 6.88680E-14
 -1      3320 2.00767E+01 2.07321E+00-5.19770E-03 4.75764E-01 1.22922E-13 1.07917E-13
 -1      3321 2.52501E+01-3.81777E+00 1.81186E-02-2.50431E+00-5.10009E-14 6.20094E-14
 -1      3322 1.34340E+01 1.55989E+00 7.52969E-02-2.80321E+00-8.44082E-14 3.32782E-13
 -1      3323 2.00445E+01 2.16923E+00-3.32279E-03-3.61528E-01 1.45963E-13 3.77700E-14
 -1      3324 2.00737E+01 2.08835E+00-5.27428E-03-4.70282E-01 1.42598E-13 1.31118E-14
 -1      3325 2.01841E+01 1.76633E+00 5.93858E-03-4.20598E-01 1.10896E-13 1.47104E-14
 -1      3326 2.01096E+01 1.99106E+00 5.23744E-03 9.03059E-02 1.32027E-13 5.84304E-14
 -1      3327 2.00001E+01 2.27898E+00-3.71935E-03 6.02782E-02 1.65656E-13 7.48081E-14
 -1      3328 1.99997E+01 2.28053E+00-3.78005E-03-5.74126E-02 1.80359E-13 6.50996E-14
 -1      3329 1.23221E+01 2.13605E+00 1.16059E-01-1.50168E+00-8.46285E-14 4.73177E-13
 -1      3330 2.63269E+01 2.72606E-01-1.15518E-01-1.74349E+00 2.26846E-13-3.12328E-13
 -1      3331 2.65222E+01-8.91088E-01 3.84790E-02-1.14332E+00 1.43874E-13-3.99569E-13
 -1      3332 2.02809E+01 1.10898E+00 1.71109E-05 3.75744E-01 5.44548E-14 1.35313E-13
 -1      3333 2.02649E+01 1.28782E+00-3.15755E-03 4.68945E-01 5.00501E-14 1.37120E-13
 -1      3334 2.02436E+01 1.43220E+00 1.15219E-04 4.28218E-01 8.19857E-14 9.45957E-14
 -1      3335 2.02896E+01 6.85619E-01 1.67859E-03-8.47844E-02 6.92898E-14-5.33110E-14
 -1      3336 2.02642E+01 5.64326E-01-2.20948E-03 1.43826E-02 6.79698E-14-6.26189E-14
 -1      3337 2.02468E+01 4.71326E-01 1.47385E-03 8.57110E-02 5.03396E-14-8.74859E-14
 -1      3338 2.02141E+01 4.00095E-01-1.53500E-03 1.58100E-01 4.74264E-14-9.79587E-14
 -1      3339 2.02785E+01 5.91758E-01 7.42006E-04 2.93786E-02 4.18304E-14-4.42633E-14
 -1      3340 2.01808E+01 3.51245E-01 8.09830E-04 2.09364E-01 2.65801E-14-8.75354E-14
 -1      3341 2.01432E+01 3.19921E-01-1.04105E-03 2.62897E-01-1.21520E-14-9.70514E-14
 -1      3342 2.02218E+01 4.30206E-01 6.70681E-04 1.53835E-01 3.10926E-14-8.06631E-14
 -1      3343 2.00944E+01 3.06754E-01-9.32016E-05 2.99512E-01-3.21096E-14-4.68533E-14
 -1      3344 2.00496E+01 3.08822E-01-8.95706E-04 3.41368E-01-4.80763E-14-3.90432E-14
 -1      3345 2.01369E+01 3.55075E-01 1.08186E-03 2.42263E-01 4.75782E-15-6.08251E-14
 -1      3346 1.99829E+01 3.26578E-01-1.02894E-03 3.67266E-01-6.73050E-14-3.13865E-14
 -1      3347 1.99242E+01 3.58785E-01-1.20543E-03 4.02561E-01-4.88305E-14-2.09437E-14
 -1      3348 2.00224E+01 3.51687E-01 1.83934E-03 3.03265E-01-2.88959E-14-3.35919E-14
 -1      3349 1.98380E+01 4.02656E-01-2.08931E-03 4.18867E-01 6.73655E-15-2.32695E-14
 -1      3350 1.97601E+01 4.60118E-01-2.17074E-03 4.49137E-01 4.95507E-14-2.29127E-14
 -1      3351 1.98738E+01 4.09523E-01 3.13294E-03 3.40855E-01-6.50927E-15 1.18164E-14
 -1      3352 1.96367E+01 5.34709E-01-3.14565E-03 4.56848E-01 3.74042E-14-5.09427E-14
 -1      3353 1.95152E+01 6.24040E-01-3.88325E-03 4.84982E-01 1.13764E-14-1.09594E-13
 -1      3354 1.96720E+01 5.24622E-01 4.93866E-03 3.56167E-01 6.23888E-15-3.51530E-14
 -1      3355 1.93415E+01 7.29279E-01-4.48540E-03 4.77857E-01-3.39274E-14-8.88556E-14
 -1      3356 1.91561E+01 8.48670E-01-6.83717E-03 4.98112E-01-2.60584E-14-1.12584E-13
 -1      3357 1.93851E+01 6.99737E-01 7.72958E-03 3.40696E-01 1.12964E-14-1.00018E-13
 -1      3358 1.89101E+01 9.84318E-01-6.07495E-03 4.66307E-01-2.19282E-14-1.17473E-13
 -1      3359 1.86264E+01 1.13068E+00-1.15180E-02 4.69631E-01-3.82290E-16-1.41183E-13
 -1      3360 1.89792E+01 9.29491E-01 1.15827E-02 2.75389E-01-2.84592E-15-1.12273E-13
 -1      3361 1.82771E+01 1.29142E+00-8.19888E-03 3.96627E-01-1.56699E-14-1.74690E-13
 -1      3362 1.78459E+01 1.45385E+00-1.82564E-02 3.68143E-01-8.83766E-14-2.20124E-13
 -1      3363 1.84018E+01 1.20313E+00 1.69256E-02 1.28642E-01-5.26028E-14-2.20801E-13
 -1      3364 1.73484E+01 1.62226E+00-1.10103E-02 2.31106E-01-1.00477E-13-1.44317E-13
 -1      3365 1.67016E+01 1.77415E+00-2.54500E-02 1.50668E-01-8.16582E-14-1.66072E-13
 -1      3366 1.75801E+01 1.49412E+00 2.50448E-02-1.47733E-01-7.34063E-14-1.80122E-13
 -1      3367 1.59956E+01 1.89885E+00-1.31669E-02-7.65373E-02-7.49409E-14-1.26749E-13
 -1      3368 1.50465E+01 1.99146E+00-2.28690E-02-2.41751E-01-4.18324E-14-1.35850E-13
 -1      3369 1.64143E+01 1.74173E+00 4.07208E-02-6.12749E-01-4.15061E-14 5.75002E-14
 -1      3370 1.40630E+01 2.03552E+00-8.40842E-03-4.52672E-01-1.78624E-14-1.31267E-13
 -1      3371 1.27599E+01 1.96951E+00 3.19800E-03-6.83771E-01-9.88792E-16-8.84501E-14
 -1      3372 1.24586E+01 1.79474E+00 1.54455E-01-1.94818E+00-6.65050E-15 8.52096E-15
 -1      3373 1.48217E+01 1.92546E+00 9.84520E-02-1.21609E+00-3.02995E-14 5.32768E-14
 -1      3374 2.62077E+01-2.33991E+00 6.44121E-02-2.49068E-02-6.62734E-14 2.86923E-14
 -1      3375 2.61539E+01-9.98971E-01-7.53068E-02 1.17024E+00-1.28331E-13-1.05020E-14
 -1      3376 1.42251E+01-1.14939E-02-1.82605E-02 4.46826E+00-2.25781E-13 3.54571E-13
 -1      3377 1.29299E+01 1.10517E+00 6.32465E-02 3.15853E+00-3.42351E-13 4.16979E-13
 -1      3378 1.99859E+01 5.11001E-02-3.02445E-05-1.49891E-02-4.02200E-14 5.65437E-13
 -1      3379 1.99833E+01 5.28411E-02-1.57163E-04-1.13422E-02-1.03718E-13 5.18065E-13
 -1      3380 1.81732E+01 1.45811E+00-1.37860E-02-5.47923E-01-2.09422E-13 1.94004E-13
 -1      3381 1.85278E+01 1.28801E+00-9.44825E-03-5.11872E-01-9.13650E-14-2.54458E-14
 -1      3382 1.88299E+01 1.13551E+00-8.65766E-03-5.28100E-01 4.11514E-14 2.38539E-14
 -1      3383 1.90472E+01 9.96278E-01-6.95353E-03-4.81236E-01 1.23885E-13 7.58014E-14
 -1      3384 1.85391E+01 1.25758E+00 1.71399E-02-2.57939E-01 3.57713E-14 4.24349E-13
 -1      3385 1.92639E+01 8.63863E-01-4.97948E-03-4.73407E-01 9.27981E-14 7.50872E-15
 -1      3386 1.94072E+01 7.44948E-01-5.15882E-03-4.21640E-01 5.12830E-14 1.25389E-13
 -1      3387 1.90382E+01 9.76242E-01 1.13564E-02-3.03823E-01 1.28984E-13 2.14461E-13
 -1      3388 1.95516E+01 6.41219E-01-2.76133E-03-4.01011E-01 2.67580E-14 1.57326E-13
 -1      3389 1.96383E+01 5.49988E-01-3.76007E-03-3.52446E-01 1.58917E-14 1.91642E-13
 -1      3390 1.93825E+01 7.39168E-01 7.70300E-03-3.00032E-01 1.04301E-13 3.04373E-13
 -1      3391 1.97333E+01 4.71634E-01-1.31712E-03-3.27168E-01 1.93856E-14 4.10121E-13
 -1      3392 1.97842E+01 4.03066E-01-2.74619E-03-2.84716E-01-3.50129E-14 3.56329E-13
 -1      3393 1.96092E+01 5.52123E-01 5.08124E-03-2.69588E-01 1.25887E-13 3.74066E-13
 -1      3394 1.98462E+01 3.45028E-01-4.87132E-04-2.59420E-01 3.89193E-14 4.08837E-13
 -1      3395 1.98750E+01 2.94241E-01-1.98970E-03-2.23990E-01 1.76939E-13 4.53498E-13
 -1      3396 1.97566E+01 4.09110E-01 3.29218E-03-2.28499E-01 3.81572E-14 7.21317E-13
 -1      3397 1.99150E+01 2.51696E-01-4.12867E-05-2.01036E-01 1.22676E-13 3.35245E-13
 -1      3398 1.99305E+01 2.14381E-01-1.43380E-03-1.72378E-01 2.05618E-13 3.14217E-13
 -1      3399 1.98513E+01 3.01655E-01 2.10602E-03-1.85963E-01 7.11911E-14 5.12488E-13
 -1      3400 1.99561E+01 1.83405E-01 1.89698E-04-1.52717E-01 1.81477E-13 1.04454E-13
 -1      3401 1.99638E+01 1.56112E-01-1.00359E-03-1.30062E-01 3.84446E-14 8.71866E-14
 -1      3402 1.99114E+01 2.21698E-01 1.31169E-03-1.46718E-01 1.17716E-13 2.29105E-13
 -1      3403 1.99794E+01 1.34592E-01 2.72962E-04-1.14657E-01-1.14863E-13 1.23942E-14
 -1      3404 1.99825E+01 1.15349E-01-7.19647E-04-9.77165E-02-1.85452E-13-3.23462E-14
 -1      3405 1.99483E+01 1.63798E-01 7.98690E-04-1.13504E-01-1.05018E-13 1.31809E-13
 -1      3406 1.99927E+01 9.85817E-02 2.79541E-04-8.45124E-02-1.48189E-13-8.90862E-14
 -1      3407 1.99936E+01 8.36979E-02-5.28409E-04-7.08177E-02-5.59074E-14-4.42795E-14
 -1      3408 1.99713E+01 1.20885E-01 5.09422E-04-8.58318E-02-6.25337E-14 4.27017E-14
 -1      3409 1.99999E+01 7.14654E-02 2.55121E-04-6.04817E-02-6.69756E-14-2.48638E-14
 -1      3410 1.99995E+01 6.05506E-02-3.68157E-04-5.01164E-02-1.80543E-13-1.97687E-13
 -1      3411 1.99856E+01 8.82019E-02 3.09449E-04-6.28906E-02-4.03597E-14-1.02966E-13
 -1      3412 2.00032E+01 5.15936E-02 2.39523E-04-4.21310E-02-8.06610E-14-3.70379E-13
 -1      3413 2.00024E+01 4.36744E-02-1.78360E-04-3.44957E-02 4.00046E-14-4.16344E-13
 -1      3414 1.99938E+01 6.39924E-02 1.41813E-04-4.49053E-02-1.81245E-13 6.63336E-14
 -1      3415 2.00028E+01 4.01461E-02 2.49456E-04-2.96690E-02 1.60754E-13-3.21375E-13
 -1      3416 2.00021E+01 3.42166E-02-4.43887E-05-2.43064E-02 2.26199E-13-3.07172E-13
 -1      3417 1.99964E+01 4.00137E-02-2.35087E-04-2.30985E-02 1.97335E-13 4.86764E-14
 -1      3418 1.99962E+01 4.89631E-02-1.52874E-04-3.19748E-02 7.05763E-14-2.35957E-14
 -1      3419 1.57015E+01 2.13060E+00-1.77838E-02-3.46944E-01-7.45974E-14 3.44399E-14
 -1      3420 1.64806E+01 1.97328E+00-1.72587E-02-3.72814E-01-2.69049E-13-1.03179E-14
 -1      3421 2.01807E+01-1.10695E-03 5.56038E-04-3.51842E-01-6.53051E-15 1.48534E-13
 -1      3422 2.01791E+01 3.78792E-02 1.33225E-03-3.34164E-01 7.75421E-16 1.38376E-13
 -1      3423 2.05051E+01-4.71107E-01-4.18585E-04-3.23037E-01-5.19495E-16 1.98137E-13
 -1      3424 2.04290E+01-3.82518E-01 4.24460E-03-3.61778E-01 2.39474E-14 1.69784E-13
 -1      3425 2.03480E+01-3.06456E-01 3.95085E-04-3.72957E-01 5.46029E-14 1.44344E-13
 -1      3426 2.02955E+01-2.37328E-01 2.92361E-03-3.90885E-01 5.54539E-14 1.31838E-13
 -1      3427 2.03859E+01-3.72136E-01-4.92101E-03-4.30348E-01 1.41081E-14 2.35588E-13
 -1      3428 2.10211E+01-8.70916E-01-3.79103E-03-3.88022E-02-7.02308E-14 1.50527E-13
 -1      3429 2.09028E+01-7.68060E-01 7.23160E-03-1.45433E-01-9.74329E-14 2.03413E-13
 -1      3430 2.13600E+01-1.02418E+00-5.70154E-03 2.37979E-01-8.90353E-14 1.45131E-13
 -1      3431 2.12371E+01-9.55186E-01 7.75613E-03 8.80734E-02-9.15708E-14 1.06788E-13
 -1      3432 2.12295E+01-1.03233E+00-6.51146E-03-1.23380E-01-1.33470E-13 8.05074E-14
 -1      3433 2.16975E+01-1.03595E+00-6.72068E-03 6.10456E-01-3.21472E-14 2.00949E-13
 -1      3434 2.15933E+01-1.05121E+00 5.95785E-03 4.26274E-01-2.82558E-14 2.18039E-13
 -1      3435 2.16675E+01-1.18887E+00-3.01296E-03 1.79135E-01-7.46621E-14 1.71427E-13
 -1      3436 2.19595E+01-7.95366E-01-4.69174E-03 1.03568E+00-1.16126E-13 2.64024E-13
 -1      3437 2.19020E+01-9.54063E-01 4.31603E-04 8.47681E-01-8.75284E-14 2.68494E-13
 -1      3438 2.21075E+01-1.16065E+00 1.83655E-03 6.03491E-01-8.45824E-14 2.26742E-13
 -1      3439 2.20643E+01-2.19018E-01 3.33997E-03 1.39662E+00-2.57552E-13 2.62122E-13
 -1      3440 2.20669E+01-5.54477E-01-8.65247E-03 1.26777E+00-1.39441E-13 2.89029E-13
 -1      3441 2.24431E+01-8.14787E-01 6.06007E-03 1.09846E+00-1.79203E-13 3.06570E-13
 -1      3442 2.19600E+01 6.71638E-01 1.39702E-02 1.51047E+00-2.21108E-13 2.48445E-13
 -1      3443 2.20161E+01 1.85156E-01-1.97319E-02 1.52505E+00-2.58418E-13 2.66236E-13
 -1      3444 2.25531E+01-5.75757E-02 1.17850E-02 1.51593E+00-2.12599E-13 3.04589E-13
 -1      3445 2.17057E+01 1.61756E+00 1.49111E-02 1.20795E+00-1.74479E-13 1.91905E-13
 -1      3446 2.17893E+01 1.14867E+00-2.10640E-02 1.41852E+00-2.45641E-13 1.82429E-13
 -1      3447 2.24330E+01 1.02503E+00 1.57194E-02 1.58507E+00-2.16526E-13 1.75264E-13
 -1      3448 2.14726E+01 2.25389E+00 6.22100E-03 4.74295E-01 2.32015E-14 1.42859E-13
 -1      3449 2.15307E+01 1.99755E+00-1.32214E-02 8.55693E-01-3.18309E-14 1.68446E-13
 -1      3450 2.21303E+01 2.06818E+00-9.99374E-04 1.14682E+00-8.86483E-14 1.38570E-14
 -1      3451 2.14353E+01 2.24422E+00-1.41273E-02-4.42123E-01 2.20287E-14 7.58942E-19
 -1      3452 2.14410E+01 2.33369E+00 1.52335E-03-3.42931E-02 4.12554E-14 3.70593E-14
 -1      3453 2.19468E+01 2.64580E+00-4.14735E-03 2.34247E-01 7.10801E-14 7.62584E-15
 -1      3454 2.16447E+01 1.60359E+00-2.35210E-02-1.20798E+00 7.90622E-14 4.65383E-14
 -1      3455 2.15795E+01 2.00034E+00 1.33144E-02-9.19565E-01-1.22853E-14-5.65303E-14
 -1      3456 2.20088E+01 2.49014E+00 1.20404E-02-7.80975E-01 5.10707E-14-1.62495E-13
 -1      3457 2.19292E+01 6.63392E-01-1.89163E-02-1.55516E+00 7.17070E-15 2.31520E-13
 -1      3458 2.18394E+01 1.16593E+00 1.50052E-02-1.44774E+00 9.33364E-14 1.63393E-13
 -1      3459 2.22840E+01 1.62206E+00 1.42041E-02-1.45982E+00-3.27483E-14-2.26338E-14
 -1      3460 2.20664E+01-2.02931E-01-1.27303E-02-1.45156E+00 5.77279E-14 3.34518E-13
 -1      3461 2.20256E+01 2.04462E-01 4.43496E-03-1.51602E+00 2.02702E-15 3.19121E-13
 -1      3462 2.25242E+01 4.56249E-01 1.20243E-02-1.61043E+00-5.32531E-14 2.20946E-13
 -1      3463 2.19975E+01-7.66393E-01-3.05064E-03-1.09834E+00 7.80448E-14 3.21424E-13
 -1      3464 2.20254E+01-5.25222E-01-1.43343E-03-1.26251E+00 1.38086E-13 3.14028E-13
 -1      3465 2.25214E+01-4.54536E-01 1.18635E-02-1.34416E+00 1.00584E-13 1.50856E-13
 -1      3466 2.17434E+01-9.91384E-01 4.36465E-03-6.72542E-01 8.13428E-14 2.32094E-13
 -1      3467 2.18285E+01-9.17832E-01-5.99904E-03-8.58728E-01 4.31095E-14 2.87140E-13
 -1      3468 2.22754E+01-9.95179E-01 5.61866E-03-8.79788E-01 1.38608E-13 1.80990E-13
 -1      3469 2.13940E+01-9.66269E-01 7.35489E-03-3.01313E-01 5.33254E-15 3.14707E-13
 -1      3470 2.15121E+01-1.00604E+00-6.58560E-03-4.63179E-01 7.74023E-14 2.61808E-13
 -1      3471 2.18630E+01-1.15718E+00-1.31001E-03-4.21035E-01 6.33301E-14 2.96094E-13
 -1      3472 2.10354E+01-8.03202E-01 7.77827E-03-3.25371E-02-1.19820E-14 3.57889E-13
 -1      3473 2.11599E+01-8.99307E-01-5.04421E-03-1.52028E-01 6.66351E-16 3.25132E-13
 -1      3474 2.14052E+01-1.06274E+00-5.25811E-03-7.02122E-02-1.05499E-14 2.75354E-13
 -1      3475 2.07206E+01-5.92729E-01 6.65567E-03 1.34175E-01 2.05639E-13 2.16068E-13
 -1      3476 2.08332E+01-7.02823E-01-2.98766E-03 5.71997E-02 1.51633E-13 3.37542E-13
 -1      3477 2.09856E+01-8.45236E-01-6.60919E-03 1.52924E-01 1.08295E-13 1.33846E-13
 -1      3478 2.04723E+01-3.91238E-01 5.00680E-03 2.20488E-01-8.16115E-14 3.38803E-13
 -1      3479 2.05641E+01-4.91128E-01-1.31940E-03 1.77803E-01 5.56352E-14 2.47068E-13
 -1      3480 2.06456E+01-5.98980E-01-6.24535E-03 2.68885E-01 4.69998E-14 2.30758E-13
 -1      3481 2.02911E+01-2.24952E-01 3.44168E-03 2.51335E-01-6.93786E-14 1.57683E-13
 -1      3482 2.03604E+01-3.04465E-01-2.62513E-04 2.33333E-01-1.09529E-14 2.51294E-13
 -1      3483 2.03935E+01-3.77692E-01-5.15291E-03 3.10516E-01-1.61219E-14 2.36339E-13
 -1      3484 2.01675E+01-1.01611E-01 2.16164E-03 2.47731E-01-2.64299E-15 2.53470E-13
 -1      3485 2.02167E+01-1.58859E-01 3.21176E-04 2.45795E-01-6.23736E-14 1.84552E-13
 -1      3486 2.02195E+01-2.02766E-01-3.85680E-03 3.06408E-01-2.40757E-14 5.24495E-14
 -1      3487 2.00882E+01-1.83197E-02 1.22569E-03 2.25171E-01-4.15019E-14 3.19900E-13
 -1      3488 2.01214E+01-5.58193E-02 5.77180E-04 2.32689E-01-6.65650E-14 2.68317E-13
 -1      3489 2.01074E+01-7.75662E-02-2.67535E-03 2.77811E-01-9.23928E-14 1.67077E-13
 -1      3490 2.00406E+01 3.23525E-02 5.89245E-04 1.94061E-01 1.13881E-14 3.64266E-13
 -1      3491 2.00620E+01 1.04079E-02 6.43208E-04 2.06357E-01 3.22062E-14 2.93012E-13
 -1      3492 2.00404E+01 3.96025E-03-1.73958E-03 2.38685E-01-1.93718E-15 1.32238E-13
 -1      3493 2.00142E+01 5.89176E-02 1.87870E-04 1.60842E-01-6.43096E-14 3.56858E-13
 -1      3494 2.00274E+01 4.81679E-02 6.07658E-04 1.74867E-01 5.84270E-14 3.70700E-13
 -1      3495 2.00039E+01 5.13818E-02-1.05227E-03 1.97443E-01-3.67489E-15 2.47707E-13
 -1      3496 2.00011E+01 6.90159E-02-4.64102E-05 1.29152E-01-2.16163E-13 1.48937E-13
 -1      3497 2.00089E+01 6.57317E-02 5.32102E-04 1.43049E-01-1.60511E-13 2.83308E-13
 -1      3498 1.99868E+01 7.43427E-02-5.94233E-04 1.58599E-01-9.78672E-14 1.06174E-13
 -1      3499 1.99958E+01 6.87416E-02-1.66066E-04 1.00862E-01-5.58496E-14 4.99331E-14
 -1      3500 2.00003E+01 7.00217E-02 4.48023E-04 1.13586E-01-1.04770E-13 2.60239E-14
 -1      3501 1.99812E+01 8.10909E-02-2.96360E-04 1.24248E-01-2.00010E-15-2.69799E-14
 -1      3502 1.99947E+01 6.26179E-02-2.14243E-04 7.67256E-02 1.58562E-13 2.36166E-13
 -1      3503 1.99973E+01 6.63605E-02 3.67153E-04 8.77815E-02-2.10483E-14 1.17186E-13
 -1      3504 1.99816E+01 7.79401E-02-1.19219E-04 9.51387E-02-8.40751E-14 7.79604E-15
 -1      3505 1.99955E+01 5.37485E-02-2.20233E-04 5.68027E-02 2.29132E-13 1.28156E-13
 -1      3506 1.99970E+01 5.85607E-02 2.99176E-04 6.60574E-02 3.18331E-13 1.84014E-13
 -1      3507 1.99848E+01 6.94591E-02-3.24390E-05 7.12164E-02 1.20279E-13 1.31191E-13
 -1      3508 1.99970E+01 4.41394E-02-1.89076E-04 4.08516E-02 2.48554E-13 6.48487E-14
 -1      3509 1.99979E+01 4.91054E-02 2.42245E-04 4.83548E-02 1.24288E-13 1.82302E-14
 -1      3510 1.99887E+01 5.86549E-02-2.03255E-05 5.20308E-02 2.62009E-13-7.45850E-14
 -1      3511 1.99983E+01 3.50158E-02-1.40530E-04 2.83740E-02 1.32508E-13 4.67464E-14
 -1      3512 1.99990E+01 3.95873E-02 2.02993E-04 3.42901E-02 2.53008E-13 2.13472E-14
 -1      3513 1.99924E+01 4.75948E-02-2.01788E-05 3.70222E-02 1.89009E-13-5.12398E-14
 -1      3514 1.99987E+01 3.11857E-02 6.88481E-05 2.22903E-02 1.99797E-13-9.10642E-14
 -1      3515 1.99831E+01 4.95690E-02-1.84317E-04 1.17073E-02 3.10936E-13-3.43912E-13
 -1      3516 1.99855E+01 4.74386E-02 6.93389E-05 1.49972E-02 2.03617E-13-3.59057E-13
 -1      3517 1.99927E+01 4.47137E-02 7.78726E-06-2.09337E-02 5.11084E-14 1.16732E-13
 -1      3518 1.99889E+01 4.77474E-02-2.12496E-04-1.84986E-02 4.27314E-14 1.42940E-13
 -1      3519 1.99846E+01 5.70553E-02 2.09385E-04-1.90021E-02 5.89082E-14 5.00025E-13
 -1      3520 1.99927E+01 4.94660E-02 2.62935E-04-2.50280E-02 9.30206E-16 2.88047E-13
 -1      3521 1.99883E+01 4.30997E-02-1.99255E-04 1.85793E-02 1.53538E-13-2.54991E-13
 -1      3522 1.99916E+01 3.98362E-02-6.07655E-06 2.05855E-02 1.53063E-13-3.53006E-13
 -1      3523 1.99840E+01 5.11338E-02-1.77790E-05 1.97981E-02 1.77160E-13-2.52364E-13
 -1      3524 2.07370E+01-2.89692E+00 1.04063E-01-4.68416E+00-3.86392E-14 3.41220E-15
 -1      3525 2.24238E+01-3.69844E+00-8.13075E-02-3.95132E+00-1.36696E-14-3.15477E-14
 -1      3526 2.00070E+01 2.26339E+00-3.48570E-03-1.54593E-01 1.69916E-13 7.74287E-14
 -1      3527 2.00215E+01 2.22565E+00-4.32602E-03-2.69829E-01 1.58727E-13 6.91713E-14
 -1      3528 2.01348E+01 1.92187E+00 5.69794E-03-2.64670E-01 1.46440E-13 5.87362E-14
 -1      3529 2.07298E+01-6.67907E-01-1.81013E-03-2.19122E-01-1.48525E-13 2.63356E-13
 -1      3530 2.06299E+01-5.64190E-01 5.82323E-03-2.87416E-01-8.29600E-14 2.44209E-13
 -1      3531 2.05779E+01-5.68603E-01-6.11603E-03-3.97917E-01-6.62005E-14 2.83139E-13
 -1      3532 2.08583E+01-8.00189E-01-6.93334E-03-3.05722E-01-6.79047E-14 2.56343E-13
 -1      3533 1.71614E+01 1.80863E+00-2.10304E-02-4.99901E-01-2.64900E-13 1.35326E-13
 -1      3534 1.77095E+01 1.63558E+00-1.25041E-02-4.89423E-01-1.69629E-13 1.03983E-13
 -1      3535 1.67113E+01 1.88884E+00 4.03810E-02 1.52950E-01-2.18865E-13-3.54460E-14
 -1      3536 1.18669E+01 1.68963E+00 4.36561E-02 2.04138E+00-3.70801E-13 3.22749E-13
 -1      3537 1.15824E+01 2.04846E+00 4.02759E-02 6.53303E-02-2.86409E-13 4.93459E-13
 -1      3538 1.27831E+01 2.14612E+00 4.78724E-02-2.29753E-01-1.75974E-13 3.70336E-13
 -1      3539 1.34905E+01 1.44985E+00 7.59315E-02 2.43240E+00-3.28286E-13 4.23505E-13
 -1      3540 2.61356E+01-2.40802E+00-9.46057E-02-7.00144E-02 6.50751E-14-3.85957E-13
 -1      3541 2.53926E+01-3.15738E+00 2.04589E-02 1.28077E+00-8.36536E-14-2.68050E-13
 -1      3542 1.20449E+01 1.22981E+00 8.64484E-02 3.20409E+00 1.27648E-13-3.20632E-13
 -1      3543 1.34586E+01 9.33818E-01 2.65728E-02-3.09667E+00 3.43996E-15 7.43780E-14
 -1      3544 2.02985E+01 1.02053E+00 9.66400E-04-3.14516E-01 6.77925E-14-4.74980E-14
 -1      3545 2.02863E+01 8.36007E-01-3.03866E-03-1.80670E-01 6.79449E-14-4.92239E-14
 -1      3546 2.03011E+01 8.60623E-01 1.36991E-03-1.39506E-01 5.96511E-14 2.89447E-15
 -1      3547 1.88123E+01-2.24148E+00-2.73778E-02 4.96217E+00-2.36312E-13 4.09534E-14
 -1      3548 1.63372E+01-8.98729E-01 1.00720E-01 4.99345E+00-1.55634E-13 1.28765E-13
 -1      3549 2.50397E+01 4.09356E+00-2.14414E-02 1.61000E+00 7.48013E-14 2.74676E-14
 -1      3550 2.47236E+01 4.76319E+00-1.09527E-01 8.71995E-01 6.80428E-14 8.26448E-14
 -1      3551 2.02007E+01 1.71984E+00-1.94498E-03-7.30868E-01 1.06752E-13-7.03215E-14
 -1      3552 2.42060E+01-3.60746E+00 7.91829E-02-2.80244E+00-1.66156E-14 3.35947E-14
 -1      3553 2.52161E+01-3.51954E+00-1.14937E-01-1.49815E+00-1.24414E-14 6.83741E-14
 -1      3554 2.51769E+01 4.19612E+00-8.27967E-02-1.52829E+00 2.25417E-13 8.79123E-14
 -1      3555 2.48187E+01 3.24763E+00-4.71997E-03-1.77396E+00 2.23856E-13-2.25410E-14
 -1      3556 2.43759E+01 4.38435E+00-1.57284E-02-1.09063E+00 1.47073E-13 2.12138E-13
 -1      3557 2.57907E+01-3.43985E-01-2.74794E-02 1.57452E+00-1.27433E-13 1.19037E-14
 -1      3558 2.49954E+01 4.09501E-01-2.34027E-02 1.80191E+00-1.10212E-13 3.60580E-14
 -1      3559 2.51854E+01-1.05005E+00 3.46280E-02 1.12021E+00-1.48465E-13-2.98338E-14
 -1      3560 2.02727E+01 5.01766E-01-1.99115E-03-6.17216E-03 4.80027E-14 1.02663E-13
 -1      3561 2.02946E+01 6.31746E-01 1.73896E-03 9.03136E-02 4.84099E-14 1.03355E-13
 -1      3562 2.01882E+01 7.78177E-02 1.64751E-04-3.07772E-01 2.13969E-14 1.45472E-13
 -1      3563 2.01974E+01 1.22913E-01 1.44344E-03-2.78331E-01 4.74313E-14 1.29688E-13
 -1      3564 2.02053E+01 7.77039E-02-1.44460E-03-3.15007E-01 7.93256E-15 1.26907E-13
 -1      3565 1.61693E+01-2.03579E-01 6.16704E-02 4.12649E+00-3.21191E-13 2.31992E-13
 -1      3566 2.46306E+01-2.72884E+00 1.59681E-02 8.86711E-01-1.18098E-13-4.04533E-13
 -1      3567 2.45428E+01-3.38730E+00-5.17891E-03 1.94301E+00-1.44410E-13-2.31492E-13
 -1      3568 2.33195E+01-3.14433E+00-1.44163E-02 2.45010E+00-5.54756E-14-1.98796E-13
 -1      3569 2.01771E+01 1.65063E-01-1.46057E-03-2.33514E-01 6.33480E-14 1.33035E-13
 -1      3570 2.01086E+01 1.99543E+00 5.31078E-03-9.03718E-02 1.70394E-13 8.88702E-14
 -1      3571 2.47652E+01 2.83459E+00-3.15292E-02 1.73258E+00-3.66027E-14 3.40439E-14
 -1      3572 1.99791E+01 6.14165E-02 2.42524E-04-9.89831E-03 7.76667E-14 2.15441E-13
 -1      3573 1.99815E+01 5.40494E-02-9.26131E-05-6.35656E-03 2.70116E-14 3.43157E-13
 -1      3574 1.99806E+01 5.43824E-02-9.80716E-05-2.17085E-03 1.69228E-13 1.69717E-13
 -1      3575 1.96215E+01-2.16285E+00 4.68975E-02-4.41451E+00-5.63438E-14 2.36464E-14
 -1      3576 1.99912E+01 4.48965E-02 1.79954E-04 2.69027E-02 1.72052E-13-3.53406E-13
 -1      3577 1.99943E+01 3.77338E-02-4.63150E-05 2.40955E-02 1.79959E-13-2.78302E-13
 -1      3578 1.39917E+01 2.23780E+00 1.01097E-02-7.45144E-02-2.18280E-13 1.81306E-13
 -1      3579 2.01827E+01-3.95954E-02 1.48326E-03-3.70915E-01 9.03689E-15 1.90848E-13
 -1      3580 2.01938E+01-1.02364E-02-1.99562E-03-3.65499E-01-8.26795E-15 1.60304E-13
 -1      3581 2.01977E+01-8.13162E-02 7.68290E-04-3.78499E-01 4.16529E-14 1.87010E-13
 -1      3582 2.02432E+01 3.06512E-01-1.15005E-03-1.45278E-01 4.28865E-14 6.98555E-14
 -1      3583 2.02655E+01 3.95483E-01 2.12868E-03-7.81603E-02 3.07209E-14 9.09479E-14
 -1      3584 2.02983E+01 5.19491E-01 1.30827E-04-2.86952E-02 4.81231E-14 8.08626E-14
 -1      3585 2.02880E+01 7.53333E-01-2.20962E-03 1.60263E-01 4.42013E-14 1.04780E-13
 -1      3586 2.03003E+01 9.34225E-01 4.22998E-04 2.89331E-01 3.34292E-14 1.14453E-13
 -1      3587 2.02936E+01 1.06475E+00-1.11955E-05 2.73535E-01 6.77920E-14 8.34928E-14
 -1      3588 2.03087E+01 7.73701E-01 1.29036E-03 1.18150E-01 4.61990E-14 7.09375E-14
 -1      3589 1.78051E+01 1.57125E+00 2.52136E-02-1.24385E-01-1.15999E-13 2.91705E-13
 -1      3590 2.02460E+01 1.52199E+00 4.39620E-03-5.71816E-01 8.57925E-14-4.69835E-14
 -1      3591 1.99815E+01 5.24452E-02 1.36253E-06 7.11210E-03 3.12258E-13-1.77372E-13
 -1      3592 1.99791E+01 5.79731E-02 1.81697E-04 1.14014E-02 3.66131E-13-2.09845E-13
 -1      3593 1.99806E+01 5.34498E-02-1.48710E-04 3.07697E-03 2.58484E-13 1.70518E-13
 -1      3594 2.01858E+01 1.74662E+00 4.99789E-03 4.24175E-01 9.44909E-14 8.83854E-14
 -1      3595 2.43261E+01 4.63804E+00-5.41270E-02 3.49555E-01 1.62745E-13 1.37168E-13
 -1      3596 2.51539E+01-2.63590E+00 5.96910E-03-5.32860E-01 1.06126E-14-6.44450E-15
 -1      3597 2.02495E+01-1.78803E-01 7.40301E-04-3.87483E-01 6.55524E-14 9.92313E-14
 -1      3598 2.02176E+01-1.26436E-01 2.00174E-03-3.90853E-01 7.88133E-14 1.85203E-13
 -1      3599 2.02105E+01-1.03339E-01-2.73834E-03-4.03162E-01 6.46933E-14 2.04967E-13
 -1      3600 2.02691E+01-2.19360E-01-3.74876E-03-4.27177E-01 6.39658E-14 1.80530E-13
 -1      3601 2.15315E+01-2.71261E+00 3.59928E-03 3.56189E+00-1.87349E-13-1.45143E-13
 -1      3602 2.04117E+01-2.53430E+00 6.26375E-02 4.44173E+00-2.07489E-13-2.92396E-14
 -1      3603 1.91083E+01-1.70551E+00-1.18391E-02 4.17478E+00-2.82517E-13 8.32667E-17
 -1      3604 2.31486E+01-3.20755E+00 3.01367E-02-2.85552E+00-7.04992E-15 4.38928E-14
 -1      3605 2.02115E+01 1.56356E+00-1.17248E-03-3.06695E-01 1.12669E-13 5.06675E-14
 -1      3606 2.02339E+01 1.46018E+00-3.59598E-03-3.68242E-01 9.18813E-14 2.05609E-14
 -1      3607 2.02563E+01 1.32503E+00-1.52185E-03-4.48672E-01 8.43841E-14-5.05099E-14
 -1      3608 1.44576E+01 2.07178E+00 4.56025E-02 7.60806E-01-2.05454E-13 2.43923E-13
 -1      3609 2.01669E+01 1.71639E+00-3.19992E-03 1.12605E-01 1.15548E-13 4.98480E-14
 -1      3610 2.01605E+01 1.73838E+00-2.90779E-03 2.99639E-02 1.32242E-13 3.52434E-14
 -1      3611 2.56835E+01 1.19279E+00-2.81641E-02-1.92441E+00 1.73035E-13-1.94542E-13
 -1      3612 2.56643E+01-1.58002E+00-1.64860E-02-6.74944E-01 2.48219E-14-3.88861E-13
 -1      3613 2.01944E+01 1.61894E+00-3.13111E-03 2.50815E-01 1.06985E-13 6.18503E-14
 -1      3614 2.01775E+01 1.67849E+00-2.57847E-03 1.75353E-01 1.24606E-13 5.05499E-14
 -1      3615 2.02460E+01 1.47049E+00 5.69896E-03 1.08892E-01 9.78552E-14 5.97144E-14
 -1      3616 2.02830E+01 1.16311E+00 6.20028E-04-2.47749E-01 8.24336E-14 3.45639E-14
 -1      3617 2.02590E+01 1.32892E+00 5.75514E-04-3.65433E-01 7.55978E-14-5.63118E-15
 -1      3618 1.43956E+01 1.27631E+00-2.11656E-02-2.31722E+00-3.34056E-14 5.08552E-14
 -1      3619 1.47350E+01 4.74930E-01 1.05515E-01-3.82708E+00-1.65805E-14 1.53114E-13
 -1      3620 1.61154E+01-2.35574E-01-4.67367E-02-3.91315E+00-4.76520E-14 9.53265E-14
 -1      3621 1.54132E+01 1.32925E+00-2.09328E-03-1.89785E+00-5.23201E-14 8.48627E-14
 -1      3622 2.02755E+01 1.29403E+00 4.60119E-03 3.30466E-01 7.79620E-14 7.17984E-14
 -1      3623 2.02298E+01 1.47453E+00-3.33602E-03 3.94615E-01 7.68665E-14 6.40587E-14
 -1      3624 2.02083E+01 1.57677E+00-1.93460E-03 3.30334E-01 9.88046E-14 5.28911E-14
 -1      3625 2.02853E+01 1.10392E+00-2.92989E-03 2.46870E-01 6.77958E-14 7.75069E-14
 -1      3626 1.75050E+01 1.44553E+00-2.21085E-02 3.13235E-01-1.31519E-13 3.45528E-13
 -1      3627 1.79882E+01 1.33177E+00-2.50205E-03 1.82173E-01-7.21445E-14 4.05627E-13
 -1      3628 2.02567E+01 4.96864E-01 5.08929E-04 9.65535E-02 1.36895E-14-1.11432E-14
 -1      3629 2.02182E+01 4.31532E-01-1.79739E-03 1.48559E-01 1.64860E-14-3.35249E-14
 -1      3630 2.01760E+01 3.88167E-01 3.52979E-04 1.78649E-01 1.70099E-14-3.17564E-14
 -1      3631 2.01230E+01 3.62399E-01-1.78766E-03 2.14590E-01 8.92538E-15-8.69121E-15
 -1      3632 2.02128E+01 4.48040E-01 1.37074E-03 1.25330E-01 2.35804E-14 5.33773E-14
 -1      3633 2.00616E+01 3.55489E-01-9.54870E-05 2.30409E-01-6.55991E-15-3.16618E-15
 -1      3634 1.99915E+01 3.63166E-01-2.05732E-03 2.52927E-01-1.88672E-14 5.36711E-15
 -1      3635 2.01063E+01 3.84783E-01 1.80679E-03 1.69280E-01-5.27206E-15 5.11570E-14
 -1      3636 1.99134E+01 3.85539E-01-5.91809E-04 2.54494E-01-6.56170E-15 1.95938E-14
 -1      3637 1.98248E+01 4.19389E-01-2.96526E-03 2.64393E-01 2.83866E-14 6.01284E-14
 -1      3638 1.99654E+01 3.88279E-01 2.40158E-03 1.82826E-01-6.79818E-15 8.76400E-14
 -1      3639 1.97178E+01 4.69814E-01-8.91895E-04 2.49746E-01-1.75384E-14 3.26890E-14
 -1      3640 1.95898E+01 5.30601E-01-4.65551E-03 2.44836E-01-3.91394E-14-2.82855E-14
 -1      3641 1.97808E+01 4.47661E-01 3.57585E-03 1.63310E-01-2.71759E-14 7.57183E-14
 -1      3642 1.94494E+01 6.06431E-01-1.10360E-03 2.06294E-01-3.07599E-15-6.86779E-14
 -1      3643 1.92688E+01 6.89458E-01-7.35086E-03 1.78423E-01 6.73599E-15-6.10366E-14
 -1      3644 1.95335E+01 5.55313E-01 5.17070E-03 9.85447E-02-4.43548E-14 5.86927E-14
 -1      3645 1.90848E+01 7.86996E-01-9.70452E-04 1.04067E-01-6.58951E-15-8.44948E-14
 -1      3646 1.88274E+01 8.85791E-01-1.14146E-02 3.96570E-02-2.36692E-14-6.42264E-14
 -1      3647 1.92080E+01 6.99141E-01 7.21386E-03-3.25343E-02-3.57135E-14 3.31327E-14
 -1      3648 1.85869E+01 9.97094E-01-4.53844E-04-8.91037E-02-5.47330E-14-1.06011E-13
 -1      3649 1.82192E+01 1.09814E+00-1.75083E-02-2.11605E-01-9.97497E-14-1.55492E-13
 -1      3650 1.87791E+01 8.61285E-01 9.88026E-03-2.63347E-01-5.70317E-14-3.81789E-14
 -1      3651 1.79092E+01 1.20603E+00 7.09828E-04-4.22827E-01-2.77450E-14-1.46505E-13
 -1      3652 1.73827E+01 1.28302E+00-2.66875E-02-6.34137E-01 7.37778E-15-4.26641E-14
 -1      3653 1.82179E+01 1.00542E+00 1.24814E-02-6.43250E-01-3.28853E-14-2.81446E-14
 -1      3654 1.69868E+01 1.36043E+00 3.64076E-03-9.71677E-01-1.57115E-14-2.44762E-14
 -1      3655 1.62352E+01 1.37565E+00-3.59130E-02-1.30659E+00-5.05889E-15 1.59751E-14
 -1      3656 1.74993E+01 1.06798E+00 1.52866E-02-1.25080E+00 1.59764E-14-5.02150E-14
 -1      3657 1.99847E+01 5.36481E-02 1.06123E-04 2.85148E-02 1.23859E-13-3.51306E-13
 -1      3658 1.99876E+01 5.07082E-02-1.71533E-04 3.25481E-02 7.67314E-14-2.25714E-13
 -1      3659 1.99863E+01 5.70268E-02 2.52411E-04 3.89981E-02 1.72252E-13-3.01191E-13
 -1      3660 2.01596E+01 1.74164E+00-2.77048E-03-3.46597E-02 1.60567E-13 7.28417E-14
 -1      3661 2.01645E+01 1.72346E+00-3.38756E-03-1.16706E-01 1.49068E-13 8.53603E-14
 -1      3662 2.02351E+01 1.51228E+00 5.39710E-03-4.61061E-03 1.18915E-13 3.98639E-14
 -1      3663 1.88390E+01 9.73090E-01-9.85642E-03-1.08558E-01 2.74375E-14 3.65172E-13
 -1      3664 1.90626E+01 8.62909E-01-2.54702E-03-1.32559E-01 6.05810E-14 2.51836E-13
 -1      3665 1.92293E+01 7.57765E-01-6.40730E-03-1.74860E-01 1.67818E-13 2.23188E-13
 -1      3666 1.93771E+01 6.65443E-01-2.25749E-03-1.74910E-01 9.67230E-14 2.23601E-13
 -1      3667 1.91220E+01 8.01624E-01 8.09035E-03-1.96876E-03 6.12168E-14 2.43575E-13
 -1      3668 1.94947E+01 5.80342E-01-3.90681E-03-1.91216E-01 1.65423E-13 1.77073E-13
 -1      3669 1.95908E+01 5.06141E-01-1.92881E-03-1.79123E-01 2.84860E-13 3.01752E-13
 -1      3670 1.94027E+01 6.29576E-01 5.74072E-03-8.00926E-02 1.52758E-13 1.96814E-13
 -1      3671 1.96728E+01 4.39519E-01-2.28786E-03-1.80658E-01 1.41081E-13 2.56539E-13
 -1      3672 1.97344E+01 3.81481E-01-1.58783E-03-1.63627E-01 6.46752E-14 3.56477E-13
 -1      3673 1.95983E+01 4.86678E-01 4.01279E-03-1.10795E-01 2.03315E-13-2.53234E-14
 -1      3674 1.97911E+01 3.30292E-01-1.26943E-03-1.57626E-01-2.87534E-14 3.70939E-13
 -1      3675 1.98301E+01 2.85662E-01-1.26870E-03-1.39788E-01-2.10986E-16 2.02745E-13
 -1      3676 1.97330E+01 3.71931E-01 2.75329E-03-1.14723E-01 3.41351E-14-1.90916E-14
 -1      3677 1.98688E+01 2.46954E-01-6.30771E-04-1.30635E-01 1.93060E-14 1.29598E-13
 -1      3678 1.98931E+01 2.13028E-01-9.84057E-04-1.14066E-01 4.64547E-17-8.44850E-14
 -1      3679 1.98249E+01 2.81816E-01 1.84399E-03-1.05046E-01-8.72712E-14-7.09612E-14
 -1      3680 1.99183E+01 1.85210E-01-2.75856E-04-1.04726E-01-1.34399E-13 1.26561E-13
 -1      3681 1.99326E+01 1.60588E-01-7.59112E-04-9.09197E-02-1.83733E-13 6.96260E-14
 -1      3682 1.98857E+01 2.13808E-01 1.25801E-03-8.99235E-02 3.19038E-14-3.48583E-14
 -1      3683 1.99506E+01 1.38391E-01-7.83105E-05-8.15371E-02 8.49235E-17 1.18200E-13
 -1      3684 1.99597E+01 1.18763E-01-5.82004E-04-6.94535E-02 5.96231E-14 8.66879E-14
 -1      3685 1.99267E+01 1.61324E-01 8.42109E-04-7.33006E-02-6.37493E-14 4.96543E-14
 -1      3686 1.99718E+01 1.02120E-01 1.71547E-05-6.12761E-02 2.77470E-15 5.80862E-14
 -1      3687 1.99770E+01 8.74068E-02-4.29107E-04-5.15469E-02-2.83016E-14 1.10376E-13
 -1      3688 1.99548E+01 1.20167E-01 5.66962E-04-5.71653E-02 5.62092E-15 2.67836E-13
 -1      3689 1.99849E+01 7.49372E-02 8.51399E-05-4.47086E-02-7.46733E-14 3.03145E-13
 -1      3690 1.99878E+01 6.40650E-02-2.32989E-04-3.72621E-02-1.03251E-13 3.50810E-13
 -1      3691 1.99731E+01 8.88350E-02 3.46060E-04-4.30706E-02 3.05996E-14 3.52995E-13
 -1      3692 1.99905E+01 5.91774E-02 1.86268E-04-3.33600E-02-6.70038E-14 2.58578E-13
 -1      3693 1.99905E+01 5.37844E-02-6.73864E-05-2.81819E-02 1.03138E-13 3.72616E-13
 -1      3694 1.99858E+01 5.79936E-02-2.00550E-04-2.57532E-02-8.21093E-14 4.12646E-13
 -1      3695 1.99820E+01 6.95474E-02 9.93580E-05-3.27416E-02-1.84493E-13 4.64062E-13
 -1      3696 2.02118E+01 1.73510E-01-3.79848E-04-2.41838E-01 4.38518E-14 1.15753E-13
 -1      3697 2.02290E+01 2.34735E-01 1.76531E-03-1.96615E-01 3.66995E-14 1.07834E-13
 -1      3698 2.02685E+01 3.19505E-01-4.32749E-04-1.55458E-01 2.10578E-14 9.45992E-14
 -1      3699 2.02337E+01 1.80218E-01-1.00469E-03-2.47515E-01 2.27963E-14 1.22271E-13
 -1      3700 1.72696E+01-5.18464E-01-1.45230E-02 3.87444E+00-2.51395E-13 1.63824E-13
 -1      3701 1.57434E+01 5.02811E-01 2.84261E-02 3.37423E+00-4.41059E-13 3.97725E-13
 -1      3702 2.19280E+01-1.39118E+00-6.93577E-03 2.55420E-02-1.06717E-13 2.33758E-13
 -1      3703 2.17194E+01-1.30211E+00 1.14508E-02-1.49601E-01-1.26011E-13 1.40183E-13
 -1      3704 2.13957E+01-1.18058E+00-4.20006E-03-2.79872E-01-9.87584E-14 1.78779E-13
 -1      3705 2.12034E+01-1.03598E+00 1.05408E-02-3.84265E-01-5.67172E-14 2.35602E-13
 -1      3706 2.16033E+01-1.37668E+00-1.31440E-02-4.44143E-01-8.81581E-14 2.74493E-13
 -1      3707 2.29063E+01-9.89250E-01-7.70747E-03 1.03137E+00-1.67637E-13 2.73294E-13
 -1      3708 2.27988E+01-1.23277E+00 1.32689E-03 8.01442E-01-1.49776E-13 2.58835E-13
 -1      3709 2.35459E+01 6.72269E-02-7.15964E-04 1.60133E+00-1.50241E-13 1.60799E-13
 -1      3710 2.35453E+01-5.50805E-01-7.08323E-03 1.41608E+00-1.57651E-13 1.75098E-13
 -1      3711 2.26482E+01 2.72045E+00 5.55217E-03 1.12186E+00 9.76476E-15 1.00915E-14
 -1      3712 2.27365E+01 2.09811E+00-3.93924E-02 1.44704E+00-9.32455E-14 4.69585E-14
 -1      3713 2.29923E+01 2.74552E+00-4.40623E-02-1.32052E+00 7.33476E-14-5.63950E-14
 -1      3714 2.28869E+01 3.23097E+00-1.58804E-02-8.35416E-01 1.55594E-13-5.61443E-15
 -1      3715 2.30910E+01 1.16735E-02-2.25073E-02-1.60332E+00-4.59723E-14-3.72341E-14
 -1      3716 2.30402E+01 6.09198E-01-1.31765E-02-1.65822E+00-1.29065E-13 1.36514E-14
 -1      3717 2.29655E+01-9.36357E-01-5.45446E-03-1.13148E+00 1.48072E-13-1.14691E-14
 -1      3718 2.30279E+01-5.22282E-01-2.45783E-03-1.35492E+00 8.51658E-14-4.16076E-14
 -1      3719 2.36464E+01-3.70752E-01 1.36473E-02-1.45317E+00 5.81158E-14-3.06831E-13
 -1      3720 2.25351E+01-1.33282E+00 8.80715E-03-5.45176E-01 9.72028E-14 8.73589E-14
 -1      3721 2.26867E+01-1.19954E+00-1.04908E-02-7.90878E-01 1.30131E-13 5.23920E-14
 -1      3722 2.32474E+01-1.27326E+00 7.77154E-03-7.92460E-01 1.11288E-13-1.81134E-13
 -1      3723 2.19602E+01-1.32427E+00 1.19421E-02-7.27284E-02 2.98919E-14 1.90226E-13
 -1      3724 2.21649E+01-1.37155E+00-9.32584E-03-2.68549E-01 6.34471E-14 1.72132E-13
 -1      3725 2.25859E+01-1.55524E+00-3.70882E-03-1.71633E-01 8.08484E-15-6.50235E-14
 -1      3726 2.13977E+01-1.10312E+00 1.16261E-02 2.27817E-01-5.47568E-14 2.17194E-13
 -1      3727 2.16059E+01-1.23623E+00-6.04405E-03 9.88219E-02 3.25197E-14 2.73035E-13
 -1      3728 2.18703E+01-1.43623E+00-1.06352E-02 2.57540E-01 6.26227E-14 3.56005E-14
 -1      3729 2.09212E+01-8.08689E-01 9.30451E-03 3.78158E-01 1.44685E-13 1.77926E-13
 -1      3730 2.11034E+01-9.62634E-01-2.56239E-03 3.09774E-01 3.56198E-14 7.89333E-14
 -1      3731 2.12494E+01-1.12829E+00-1.05887E-02 4.83352E-01 8.70295E-15 1.00780E-13
 -1      3732 2.05605E+01-5.29952E-01 6.41582E-03 4.23030E-01-5.28635E-14 2.58626E-13
 -1      3733 2.07040E+01-6.67209E-01-2.90707E-05 3.97278E-01 4.38159E-14 2.27396E-13
 -1      3734 2.07639E+01-7.85931E-01-9.81892E-03 5.53800E-01-1.66671E-14 1.89700E-13
 -1      3735 2.03079E+01-3.01744E-01 4.06222E-03 4.07162E-01 9.95673E-14 2.33101E-13
 -1      3736 2.04124E+01-4.10009E-01 1.18009E-03 4.08107E-01-1.11944E-16 3.23499E-13
 -1      3737 2.04206E+01-4.85309E-01-7.72022E-03 5.33647E-01-1.16470E-14 3.14311E-13
 -1      3738 2.01438E+01-1.33961E-01 2.28588E-03 3.60772E-01-6.29836E-14 1.70331E-13
 -1      3739 2.02147E+01-2.11100E-01 1.65069E-03 3.75976E-01 9.84887E-14 2.02598E-13
 -1      3740 2.01944E+01-2.52110E-01-5.56693E-03 4.69725E-01 8.78630E-14 3.26307E-13
 -1      3741 2.00451E+01-2.13132E-02 1.13374E-03 3.03589E-01 3.19855E-14 5.38990E-14
 -1      3742 2.00901E+01-7.14947E-02 1.64509E-03 3.24960E-01-1.48934E-14 1.20914E-13
 -1      3743 2.00571E+01-8.81689E-02-3.67872E-03 3.90827E-01 6.25889E-14 1.55289E-13
 -1      3744 1.99914E+01 4.69590E-02 4.03772E-04 2.46523E-01-9.12237E-14 1.23433E-13
 -1      3745 2.00179E+01 1.77864E-02 1.42880E-03 2.69235E-01-4.81088E-14 3.19808E-15
 -1      3746 1.99816E+01 1.67657E-02-2.27645E-03 3.13279E-01 8.43977E-15 3.13953E-14
 -1      3747 1.99666E+01 8.26279E-02-1.60112E-05 1.95058E-01-9.76862E-14 2.16130E-13
 -1      3748 1.99808E+01 6.84143E-02 1.14168E-03 2.16441E-01-1.03319E-13 2.01631E-13
 -1      3749 1.99463E+01 7.66606E-02-1.29309E-03 2.44521E-01-1.33450E-13 1.32019E-13
 -1      3750 1.99591E+01 9.62732E-02-2.36200E-04 1.51076E-01-8.32216E-14 2.40896E-13
 -1      3751 1.99656E+01 9.19649E-02 8.63905E-04 1.70011E-01-6.21473E-14 3.13001E-13
 -1      3752 1.99353E+01 1.04787E-01-6.84952E-04 1.87201E-01-7.15697E-14 3.64768E-13
 -1      3753 1.99610E+01 9.59283E-02-3.27632E-04 1.14805E-01 3.98747E-14 2.03676E-13
 -1      3754 1.99630E+01 9.77150E-02 6.42765E-04 1.30858E-01 8.73113E-14 2.10380E-13
 -1      3755 1.99378E+01 1.12310E-01-2.79379E-04 1.40925E-01 5.87951E-14 4.54305E-13
 -1      3756 1.99671E+01 8.76555E-02-3.47140E-04 8.56777E-02-2.43318E-14-2.30722E-14
 -1      3757 1.99669E+01 9.27505E-02 4.67602E-04 9.88916E-02-5.10123E-14-8.44070E-15
 -1      3758 1.99468E+01 1.07204E-01-4.89931E-05 1.04535E-01 1.53604E-13 1.43153E-13
 -1      3759 1.99745E+01 7.56547E-02-3.44436E-04 6.27363E-02 2.87752E-13-1.19221E-13
 -1      3760 1.99733E+01 8.21972E-02 3.46470E-04 7.33973E-02 6.50572E-14-8.71023E-14
 -1      3761 1.99579E+01 9.53846E-02 5.96779E-05 7.64664E-02 7.54134E-14 6.00472E-15
 -1      3762 1.99815E+01 6.29364E-02-2.91009E-04 4.56190E-02 3.25997E-13-2.91489E-13
 -1      3763 1.99802E+01 6.97718E-02 3.00716E-04 5.40811E-02 3.55709E-13-1.06004E-13
 -1      3764 1.99683E+01 8.10940E-02 3.32521E-05 5.58557E-02 3.87460E-13-1.91699E-13
 -1      3765 1.99772E+01 6.69133E-02-6.27023E-06 4.07908E-02 3.33748E-13-1.25030E-13
 -1      3766 2.43679E+01 2.30707E+00 1.21833E-03 1.82062E+00-1.02911E-13 9.90570E-14
 -1      3767 2.36167E+01 3.32627E+00-7.64230E-02 1.35975E+00 3.88925E-14 8.13496E-14
 -1      3768 2.03059E+01 9.57343E-01-4.71876E-04-1.63729E-01 5.53039E-14 3.43995E-14
 -1      3769 2.03015E+01 7.95846E-01-1.20873E-03-6.82379E-02 3.80855E-14 2.17295E-14
 -1      3770 2.02903E+01 1.08765E+00-7.76523E-04-1.73790E-01 6.54208E-14 5.97100E-14
 -1      3771 2.04112E+01-3.96725E-01 1.85533E-03-4.97980E-01 1.39770E-14 1.63929E-13
 -1      3772 2.03356E+01-3.04611E-01 3.30922E-03-4.96152E-01 3.16741E-14 1.74202E-13
 -1      3773 1.63624E+01 1.62260E+00-3.37683E-02 7.95211E-01-1.20399E-13 2.17847E-13
 -1      3774 1.70738E+01 1.55764E+00-1.44075E-03 5.62034E-01-9.86945E-14 2.45601E-13
 -1      3775 1.74568E+01 1.34363E+00 2.24837E-02 8.80128E-01-2.54200E-14 4.37246E-13
 -1      3776 1.82967E+01 1.20505E+00-1.53222E-02 3.60436E-02 2.43820E-14 3.94444E-13
 -1      3777 1.86118E+01 1.09172E+00-2.85505E-03-2.54320E-02 1.40445E-13 5.16715E-13
 -1      3778 1.87306E+01 9.93108E-01 1.10071E-02 1.52127E-01-1.89611E-15 4.17642E-13
 -1      3779 1.81960E+01 1.18719E+00 1.59534E-02 4.22251E-01 3.21162E-15 4.07559E-13
 -1      3780 2.01739E+01 1.69083E+00-2.57931E-03-1.78394E-01 1.45513E-13 8.91184E-14
 -1      3781 2.01885E+01 1.63106E+00-4.56472E-03-2.52900E-01 1.29568E-13 5.71610E-14
 -1      3782 2.02642E+01 1.37642E+00 5.30593E-03-2.15528E-01 9.96108E-14 6.27951E-14
 -1      3783 1.87195E+01-1.25597E+00 1.17208E-01-4.19296E+00-2.26490E-14 3.92937E-14
 -1      3784 2.03551E+01-2.40188E+00-1.00162E-01-3.80179E+00-9.07911E-14 3.13898E-14
 -1      3785 2.35229E+01 4.09306E+00 1.25011E-02 5.94837E-01 1.97852E-13-1.04734E-14
 -1      3786 2.38039E+01 4.37249E+00-6.38774E-02-2.95257E-01 1.39579E-13 1.23622E-13
 -1      3787 1.99802E+01 5.77648E-02-1.45541E-04 2.48943E-02 1.78576E-13-1.90711E-13
 -1      3788 2.02987E+01 6.79062E-01-1.84792E-05-1.36608E-02 3.08565E-14 1.28545E-14
 -1      3789 2.02761E+01 5.69981E-01-1.57963E-03 5.87189E-02 1.13182E-14-1.79736E-14
 -1      3790 2.02787E+01 5.78947E-01 1.27366E-03 5.76601E-02 1.49352E-14 2.95111E-14
 -1      3791 2.03061E+01 7.78131E-01 1.50216E-03-3.62813E-02 2.71448E-14 4.50970E-14
 -1      3792 2.48027E+01 1.79549E+00-9.56346E-02-1.97609E+00 1.60568E-13-1.11916E-13
 -1      3793 2.50275E+01 5.98725E-01 3.15983E-02-1.83323E+00 5.04527E-14-2.94986E-13
 -1      3794 2.23561E+01-2.69376E+00 9.12588E-02-2.92774E+00-6.33412E-14 8.28291E-14
 -1      3795 2.32981E+01-3.11693E+00-8.73832E-02-2.06539E+00-2.42657E-14 1.46789E-13
 -1      3796 2.44272E+01-2.69440E+00 6.91513E-02-9.24728E-01 1.36210E-14 7.40701E-14
 -1      3797 2.47211E+01-2.22561E+00-8.64989E-02 2.07455E-01-9.18445E-14-9.98268E-15
 -1      3798 2.49755E+01-1.02499E+00-7.97440E-02-1.25267E+00 6.89336E-15-3.88267E-13
 -1      3799 2.49394E+01-1.87867E+00 1.88015E-02-3.95267E-01-5.93310E-14-4.36319E-13
 -1      3800 1.42193E+01 1.64502E+00 1.12310E-03 1.79659E+00-3.21774E-13 3.48839E-13
 -1      3801 1.58659E+01 1.68723E+00 1.05705E-02 1.18503E+00-3.09844E-13 2.22797E-13
 -1      3802 1.64793E+01 1.39015E+00 4.14510E-02 1.62394E+00-1.52471E-13 4.10459E-13
 -1      3803 1.51376E+01 1.03816E+00 4.70052E-03 2.81164E+00-3.56754E-13 3.84867E-13
 -1      3804 2.24814E+01-1.38355E+00-8.09431E-03 4.85213E-01-1.66245E-13 3.02216E-13
 -1      3805 2.22863E+01-1.42165E+00 8.71728E-03 2.48519E-01-1.16633E-13 2.55793E-13
 -1      3806 2.22766E+01-1.57982E+00-1.91429E-03-1.02215E-01-1.53694E-13 3.45200E-13
 -1      3807 2.41912E+01 2.42171E+00-3.91819E-05-1.80311E+00 5.59136E-14-2.00465E-14
 -1      3808 2.02820E+01 1.15745E+00-6.20574E-04-1.41974E-01 7.26071E-14 7.36797E-14
 -1      3809 2.35301E+01 3.76026E+00-2.09445E-02-7.33645E-01 1.82271E-13 1.08817E-13
 -1      3810 1.64289E+01 7.64881E-01 3.00902E-02 2.64459E+00-3.53727E-13 4.08611E-13
 -1      3811 1.63061E+01 9.44812E-01 1.01971E-02-2.29550E+00-1.65111E-14 1.69855E-14
 -1      3812 2.30024E+01-2.64543E+00 1.47341E-02 1.95638E+00-1.11386E-13-3.00230E-13
 -1      3813 2.24630E+01-2.83340E+00 2.21910E-02 2.88847E+00-1.06260E-13-1.63380E-13
 -1      3814 2.12486E+01-2.31492E+00-2.37739E-02 3.07482E+00-1.93809E-13-1.12838E-13
 -1      3815 1.99740E+01 6.93576E-02-6.89427E-05-1.35671E-02 2.94415E-13 3.52262E-13
 -1      3816 1.99719E+01 7.03991E-02-1.00185E-04-7.95484E-03 3.60856E-13 1.50814E-13
 -1      3817 2.02629E+01 1.29692E+00-2.59215E-03 1.70432E-02 8.97591E-14 1.18577E-14
 -1      3818 2.02609E+01 1.29995E+00-2.89095E-03-3.31127E-02 1.09960E-13 2.97675E-14
 -1      3819 2.02425E+01 1.48300E+00 6.01918E-03-1.16571E-01 1.32018E-13 8.86015E-14
 -1      3820 1.84730E+01-9.36254E-01 4.35730E-02 3.79719E+00-2.48350E-13 1.76226E-14
 -1      3821 1.78717E+01-3.25996E-01-1.89944E-02 3.24142E+00-2.77759E-13 1.14412E-13
 -1      3822 1.95636E+01-1.40395E+00-7.07914E-03 3.44415E+00-2.48473E-13 8.28959E-14
 -1      3823 2.03141E+01 7.60457E-01-2.13665E-03 6.84431E-02 5.60700E-14 5.92189E-14
 -1      3824 2.03207E+01 8.97909E-01 2.83581E-03 1.41635E-01 6.37561E-14 6.43511E-14
 -1      3825 2.29643E+01-1.51037E+00 6.65616E-03 4.51196E-01-1.24472E-13 2.78931E-13
 -1      3826 2.10625E+01-1.04286E+00-1.11346E-02-5.95321E-01-4.95917E-14 3.78861E-13
 -1      3827 2.09569E+01-8.95497E-01-9.21930E-04-4.37717E-01-2.40748E-14 2.36676E-13
 -1      3828 2.08003E+01-7.51546E-01 7.86035E-03-4.90441E-01-6.37741E-14 2.77796E-13
 -1      3829 2.39427E+01-1.06591E+00-1.92857E-02 1.10405E+00-1.55638E-13 1.21961E-13
 -1      3830 2.29573E+01 1.39990E+00 1.04438E-02 1.66155E+00-1.47393E-13 8.42520E-14
 -1      3831 2.30234E+01 6.74647E-01-3.76288E-02 1.71029E+00-1.63366E-13 1.56835E-13
 -1      3832 2.24085E+01 3.27298E+00-1.70381E-02-1.19622E-01 1.59406E-13-4.78593E-14
 -1      3833 2.24369E+01 3.17979E+00-1.99398E-02 4.00649E-01 1.16344E-13-1.59435E-14
 -1      3834 2.39559E+01 6.71263E-01-2.20212E-02-1.84176E+00-1.20963E-13-2.63611E-13
 -1      3835 2.32420E+01 1.11737E+00-2.35198E-02-1.79668E+00-1.26196E-13-6.71555E-15
 -1      3836 2.31125E+01 1.82038E+00-9.83670E-05-1.58505E+00-8.21062E-14-1.37484E-13
 -1      3837 1.99724E+01 6.63726E-02-2.31739E-04 1.17877E-02 4.46827E-13-6.37829E-14
 -1      3838 1.99751E+01 6.41150E-02 1.05291E-04 1.68088E-02 4.03925E-13-2.62745E-13
 -1      3839 2.44503E+01-1.29232E-01 1.63130E-03-1.52750E+00-1.44012E-14-3.56343E-13
 -1      3840 1.99814E+01 6.28333E-02-6.04306E-05-2.23082E-02 7.51478E-14 4.18200E-13
 -1      3841 1.99775E+01 6.56907E-02-2.12637E-04-1.84449E-02 1.04948E-13 4.91681E-13
 -1      3842 1.99709E+01 7.65411E-02 1.46773E-04-1.69280E-02 3.81149E-13 2.83935E-13
 -1      3843 1.99792E+01 6.83280E-02 1.57957E-05-2.53969E-02-1.48341E-14 3.62578E-13
 -1      3844 2.35158E+01-2.52159E+00 2.38870E-02-1.16399E+00-7.62211E-14 1.00330E-13
 -1      3845 2.05159E+01-5.00958E-01 5.31102E-03-5.16287E-01-9.21210E-14 2.01392E-13
 -1      3846 2.04150E+01-4.60453E-01-7.30765E-03-5.93480E-01-3.96153E-14 1.95945E-13
 -1      3847 2.06309E+01-6.22509E-01 9.85704E-04-4.97672E-01-1.40035E-13 2.54588E-13
 -1      3848 2.02803E+01-2.26467E-01 1.96210E-03-4.68176E-01 2.98890E-14 1.93123E-13
 -1      3849 2.02371E+01-1.58831E-01 2.00013E-03-4.54974E-01 6.41819E-14 1.76137E-13
 -1      3850 2.02673E+01-2.61450E-01-5.14344E-03-5.31478E-01 2.85967E-14 1.26872E-13
 -1      3851 2.02007E+01-4.43804E-03 1.25996E-03-3.73719E-01 4.33578E-15 1.05911E-13
 -1      3852 2.02001E+01 3.94289E-02 8.87676E-04-3.49041E-01 5.38941E-15 1.04986E-13
 -1      3853 1.99770E+01 6.16342E-02 2.10384E-04 9.73312E-04 2.19513E-13 1.22590E-13
 -1      3854 1.75365E+01-3.85780E-01 3.41428E-02-3.49350E+00-3.96627E-14 3.23933E-14
 -1      3855 2.11880E+01-2.17428E+00 3.62821E-03-2.95761E+00-1.00928E-13 6.99305E-14
 -1      3856 2.03070E+01 4.91116E-01-1.02480E-03-7.15075E-02 4.33766E-14 9.58405E-14
 -1      3857 2.03238E+01 6.12259E-01 1.19756E-03 3.08103E-03 4.44397E-14 7.45397E-14
 -1      3858 2.03268E+01 7.27946E-01-9.10861E-04 2.31915E-02 5.22875E-14 4.65914E-14
 -1      3859 1.99744E+01 6.74066E-02 9.83043E-05 2.62417E-02 3.35697E-13-1.05006E-13
 -1      3860 2.02150E+01 8.35344E-02 6.79673E-04-3.17492E-01 9.36810E-15 1.25996E-13
 -1      3861 2.02264E+01 1.30843E-01 8.08399E-04-2.86401E-01-8.09736E-15 1.24885E-13
 -1      3862 2.02069E+01 8.52786E-02-1.40560E-03-3.23983E-01 3.21152E-14 7.89215E-14
 -1      3863 2.02638E+01 1.38718E+00 4.98376E-03 2.33742E-01 8.70269E-14 5.65931E-14
 -1      3864 2.02752E+01 1.23554E+00-3.75435E-03 9.90379E-02 8.34106E-14 4.98387E-14
 -1      3865 2.02673E+01 1.27709E+00-2.35780E-03 5.07115E-02 9.04286E-14 3.45191E-14
 -1      3866 2.03106E+01 1.10809E+00 5.18173E-03 1.60516E-02 8.37548E-14 2.58954E-14
 -1      3867 2.35309E+01 1.97578E+00 6.26282E-03 1.70959E+00-9.29343E-14 3.67623E-14
 -1      3868 2.42232E+01 3.10745E-01 7.08375E-03 1.69683E+00-1.13702E-13 6.24162E-14
 -1      3869 2.44991E+01-1.56803E+00-1.46749E-02 6.70929E-01-1.31960E-13 9.59597E-14
 -1      3870 2.45061E+01 1.17815E+00-3.34714E-02 1.93646E+00-1.22259E-13 1.05948E-13
 -1      3871 2.46745E+01-2.34721E+00-1.61017E-02 1.13116E-01-7.22838E-14-4.57211E-13
 -1      3872 2.39566E+01-2.50703E+00-1.78851E-02 7.00454E-01-1.14214E-13-3.48437E-13
 -1      3873 2.31475E+01 3.39145E+00-2.24165E-02 7.78650E-01 1.01349E-13 6.00301E-14
 -1      3874 2.01508E+01 3.94236E-01 3.75772E-04 1.08605E-01 1.56165E-14 1.09562E-13
 -1      3875 2.00842E+01 3.73147E-01-2.28214E-03 1.21158E-01-2.17661E-14 1.21624E-13
 -1      3876 2.00205E+01 3.69481E-01 3.19943E-04 1.13543E-01-1.62469E-14 1.24538E-13
 -1      3877 1.99372E+01 3.76132E-01-2.97792E-03 1.10551E-01 9.65281E-15 1.30190E-13
 -1      3878 2.00734E+01 3.75734E-01 1.77522E-03 5.51560E-02-1.03669E-14 1.65045E-13
 -1      3879 1.98528E+01 3.97583E-01 5.46942E-04 8.45673E-02-1.62718E-14 1.06935E-13
 -1      3880 1.97383E+01 4.27203E-01-4.23624E-03 6.07822E-02-2.29035E-14 9.29173E-14
 -1      3881 1.99214E+01 3.75415E-01 2.19792E-03 1.74515E-02-3.04655E-14 1.40436E-13
 -1      3882 1.96344E+01 4.69723E-01 1.01643E-03 9.76171E-03-4.99125E-14 1.01627E-13
 -1      3883 1.94835E+01 5.14585E-01-6.25637E-03-4.27485E-02-5.18388E-14 1.18131E-13
 -1      3884 1.97273E+01 4.16187E-01 2.98728E-03-6.69434E-02-3.30670E-14 1.02187E-13
 -1      3885 1.93594E+01 5.70546E-01 2.09396E-03-1.30359E-01-5.38623E-14 1.08507E-13
 -1      3886 1.91591E+01 6.21377E-01-9.12884E-03-2.25256E-01-6.52812E-14 8.22018E-14
 -1      3887 1.94903E+01 4.79560E-01 3.82367E-03-2.15926E-01-5.43474E-14 1.50611E-13
 -1      3888 1.90166E+01 6.78841E-01 4.13661E-03-3.65130E-01-5.79123E-14 5.93971E-14
 -1      3889 1.87519E+01 7.20193E-01-1.27768E-02-5.24201E-01-6.04377E-14 4.19607E-14
 -1      3890 1.92075E+01 5.40801E-01 4.57875E-03-4.57674E-01-6.21457E-14 1.27027E-13
 -1      3891 1.85934E+01 7.62676E-01 7.37194E-03-7.37301E-01-5.12498E-14 4.66795E-14
 -1      3892 1.82540E+01 7.67686E-01-1.58403E-02-9.89376E-01-1.63794E-14 4.60184E-14
 -1      3893 1.88792E+01 5.61991E-01 4.36503E-03-8.31498E-01-3.98375E-14 1.33544E-13
 -1      3894 1.80946E+01 7.60203E-01 1.31165E-02-1.29552E+00-1.94736E-14 3.95749E-14
 -1      3895 1.76745E+01 6.95773E-01-1.09421E-02-1.68973E+00-5.12413E-15 3.74364E-14
 -1      3896 1.85054E+01 4.83708E-01-1.85584E-03-1.38886E+00-2.65966E-14 9.75812E-14
 -1      3897 1.90313E+01 7.54910E-01-8.68339E-03 1.63650E-01 2.37136E-14 2.85516E-13
 -1      3898 1.92104E+01 6.86280E-01 6.78084E-04 9.82270E-02 6.41605E-14 2.03061E-13
 -1      3899 2.03064E+01 1.11612E+00 4.90756E-03-3.73223E-02 8.91002E-14 5.53437E-14
 -1      3900 2.02631E+01 1.28905E+00-2.11025E-03-6.52038E-02 1.14502E-13 9.97193E-14
 -1      3901 2.02689E+01 1.25390E+00-3.47269E-03-1.13125E-01 9.96556E-14 1.00720E-13
 -1      3902 2.29103E+01-2.31343E+00 6.81121E-02-1.42617E+00-1.19551E-13 1.22452E-13
 -1      3903 2.33654E+01-2.29902E+00-4.12222E-02-5.31190E-01-6.14157E-14 1.20372E-13
 -1      3904 1.93211E+01 6.14495E-01-5.99250E-03 3.24046E-02 2.62245E-14 1.26167E-13
 -1      3905 1.94464E+01 5.51345E-01-1.35472E-04 4.43928E-04 1.50053E-13 1.24446E-13
 -1      3906 1.92938E+01 6.09321E-01 4.88041E-03 1.78554E-01-1.52852E-14 3.30772E-14
 -1      3907 1.95307E+01 4.89021E-01-3.89779E-03-3.56982E-02 1.69560E-13-6.24275E-14
 -1      3908 1.96169E+01 4.34639E-01-5.10774E-04-4.79635E-02 5.88366E-14-2.07785E-13
 -1      3909 1.94943E+01 5.01739E-01 3.63604E-03 6.40770E-02 1.88845E-14-2.34788E-13
 -1      3910 1.96794E+01 3.83121E-01-2.46888E-03-6.54294E-02 8.78655E-14-1.83356E-13
 -1      3911 1.97381E+01 3.37912E-01-6.25993E-04-6.65825E-02-4.15243E-15-9.26514E-14
 -1      3912 1.96432E+01 4.04072E-01 2.82348E-03 1.49736E-03 4.00953E-14-3.49713E-13
 -1      3913 1.97837E+01 2.96440E-01-1.53042E-03-7.33172E-02-1.25753E-13-6.23686E-14
 -1      3914 1.98232E+01 2.60097E-01-6.54646E-04-6.88415E-02-7.91867E-14-5.27475E-14
 -1      3915 1.97515E+01 3.19192E-01 1.99792E-03-2.92850E-02-9.07375E-14-1.40870E-13
 -1      3916 1.98547E+01 2.28819E-01-9.17248E-04-6.94595E-02 2.94101E-14-9.89802E-14
 -1      3917 1.98800E+01 2.01229E-01-5.97039E-04-6.29570E-02 8.08422E-14-3.30572E-15
 -1      3918 1.98279E+01 2.50845E-01 1.50338E-03-4.07986E-02-3.96570E-14-1.05512E-13
 -1      3919 1.99040E+01 1.75321E-01-5.25843E-04-6.05444E-02 1.25816E-13-5.48767E-14
 -1      3920 1.99218E+01 1.52431E-01-4.88318E-04-5.32228E-02 9.89206E-14 1.54596E-13
 -1      3921 1.98826E+01 1.94752E-01 1.03207E-03-4.18867E-02 1.87982E-13-1.13211E-13
 -1      3922 1.99386E+01 1.32249E-01-3.06687E-04-4.94935E-02-3.79005E-15 2.12238E-13
 -1      3923 1.99502E+01 1.14496E-01-3.99763E-04-4.26593E-02-1.03410E-14 2.24794E-13
 -1      3924 1.99224E+01 1.48961E-01 8.07833E-04-3.78289E-02 2.46894E-14 4.84507E-14
 -1      3925 2.17366E+01-1.53278E+00-6.22198E-03-7.13884E-01-5.36455E-14 2.43870E-13
 -1      3926 2.14546E+01-1.31262E+00 1.66648E-02-7.93192E-01-1.13982E-14 3.32725E-13
 -1      3927 1.99619E+01 8.25994E-02 4.65051E-05 2.13557E-02 4.22078E-13-1.68675E-13
 -1      3928 1.99676E+01 7.58713E-02-1.37146E-04 3.11990E-02 2.82237E-13-6.85033E-15
 -1      3929 1.99635E+01 8.38837E-02 2.05800E-04 3.74713E-02 3.31791E-13-2.46392E-15
 -1      3930 2.37181E+01-1.79620E+00 1.40896E-02 3.26691E-01-9.18389E-14 1.55426E-13
 -1      3931 2.33543E+01-1.97985E+00-6.31908E-04-2.74989E-02-8.57871E-14 1.97136E-13
 -1      3932 2.02939E+01 1.09881E+00-1.20190E-03 1.92642E-01 8.05100E-14 6.29642E-14
 -1      3933 1.99709E+01 6.91887E-02-4.07857E-05 6.60322E-03 3.84989E-13 2.08402E-13
 -1      3934 1.99666E+01 7.61945E-02 8.23489E-05 1.21326E-02 5.19349E-13-3.22401E-14
 -1      3935 1.99592E+01 8.52236E-02-1.74481E-04 1.59658E-02 4.54969E-13 4.48873E-14
 -1      3936 1.99705E+01 7.00842E-02-1.65071E-04 7.35742E-04 3.42671E-13 2.35962E-13
 -1      3937 2.17468E+01-1.44508E+00 1.66458E-02 6.76016E-01-7.16265E-14-1.35341E-14
 -1      3938 2.20819E+01-1.62873E+00-1.24445E-03 5.31267E-01-6.72132E-14-9.54411E-14
 -1      3939 2.10715E+01-1.03195E+00 1.16046E-02 7.75880E-01 2.89672E-14-2.53053E-16
 -1      3940 2.13439E+01-1.24448E+00-1.01319E-03 7.24533E-01-1.71879E-15 9.75637E-15
 -1      3941 2.14358E+01-1.42195E+00-1.09301E-02 1.01792E+00-7.49559E-14-1.77519E-13
 -1      3942 2.05891E+01-6.50330E-01 8.31165E-03 7.34443E-01-4.13179E-14 6.90016E-14
 -1      3943 2.07902E+01-8.31841E-01 2.34777E-03 7.43828E-01 4.30918E-14 4.18953E-14
 -1      3944 2.07935E+01-9.33896E-01-7.40427E-03 9.75559E-01 3.71022E-14-1.48790E-13
 -1      3945 2.02681E+01-3.53679E-01 4.35111E-03 6.37698E-01-2.74433E-15 3.87090E-14
 -1      3946 2.04095E+01-4.94059E-01 3.01614E-03 6.73521E-01-7.43365E-14-4.45532E-14
 -1      3947 2.03602E+01-5.61554E-01-1.14206E-02 8.56510E-01-3.71806E-14-1.88802E-13
 -1      3948 2.00727E+01-1.40982E-01 1.79859E-03 5.19680E-01-3.23613E-15 9.18784E-14
 -1      3949 2.01653E+01-2.37020E-01 3.61016E-03 5.64887E-01 9.66589E-14 5.93115E-14
 -1      3950 2.00967E+01-2.63127E-01-7.30108E-03 6.96068E-01-2.61209E-14-2.84140E-13
 -1      3951 1.99657E+01-2.52269E-03 5.26882E-04 4.07473E-01 1.10049E-13 5.32580E-14
 -1      3952 2.00212E+01-6.30448E-02 3.19224E-03 4.51960E-01-2.19045E-14 2.46794E-14
 -1      3953 1.99523E+01-6.31443E-02-4.12687E-03 5.39176E-01 3.71766E-14-2.10528E-13
 -1      3954 1.99154E+01 7.92055E-02-1.20527E-04 3.10864E-01-5.61329E-14 9.52331E-14
 -1      3955 1.99452E+01 4.51295E-02 2.52532E-03 3.50294E-01 2.01870E-14 5.17300E-14
 -1      3956 1.98838E+01 5.84377E-02-2.17098E-03 4.05627E-01 3.08588E-14-7.78487E-14
 -1      3957 1.98998E+01 1.19508E-01-4.85150E-04 2.32441E-01-2.22495E-13 2.34590E-13
 -1      3958 1.99131E+01 1.04208E-01 1.85609E-03 2.65113E-01-1.43526E-13 1.56982E-13
 -1      3959 1.98613E+01 1.23488E-01-1.17498E-03 2.97901E-01-2.04243E-13 7.80613E-14
 -1      3960 1.99031E+01 1.33341E-01-6.27823E-04 1.71395E-01-1.34493E-13 3.14980E-13
 -1      3961 1.99068E+01 1.29680E-01 1.28076E-03 1.97703E-01-1.88813E-13 3.14232E-13
 -1      3962 1.98651E+01 1.50322E-01-6.22552E-04 2.15328E-01-2.46579E-13 2.22232E-13
 -1      3963 1.99161E+01 1.30225E-01-6.25880E-04 1.24647E-01 1.65519E-13 3.26492E-13
 -1      3964 1.99145E+01 1.33874E-01 9.05728E-04 1.45186E-01-5.66117E-15 3.66076E-13
 -1      3965 1.98818E+01 1.54482E-01-7.49573E-05 1.53521E-01-3.95257E-14 1.71043E-13
 -1      3966 1.99324E+01 1.17906E-01-5.42071E-04 8.96818E-02 2.84345E-13 1.22487E-13
 -1      3967 1.99283E+01 1.25257E-01 6.00337E-04 1.05464E-01 2.88571E-13 3.29976E-13
 -1      3968 1.99034E+01 1.43933E-01 1.39470E-04 1.08339E-01 2.21663E-13 1.48836E-13
 -1      3969 1.99481E+01 1.01476E-01-5.18516E-04 6.39723E-02 2.78550E-13-1.85379E-13
 -1      3970 1.99437E+01 1.10163E-01 3.90393E-04 7.56925E-02 2.86848E-13 1.12875E-14
 -1      3971 1.99251E+01 1.26383E-01 2.13171E-04 7.58157E-02 3.56950E-13-6.09055E-14
 -1      3972 2.35308E+01-2.14841E+00 9.47696E-03 4.04328E-01-6.30438E-14-3.03114E-13
 -1      3973 2.34383E+01-2.54585E+00 9.60990E-03 1.19018E+00-9.98060E-14-2.59538E-13
 -1      3974 2.27003E+01-1.88679E+00-9.12160E-03-3.34711E-01-1.24908E-13 2.28366E-13
 -1      3975 1.78200E+01 4.27855E-01 2.84456E-02-2.18175E+00 1.93998E-14 4.37467E-14
 -1      3976 1.71330E+01 2.32013E-01 2.32203E-02-2.92785E+00-1.94610E-14 7.72455E-14
 -1      3977 1.89144E+01-1.01148E+00-6.60843E-02-3.21280E+00-6.48735E-14 6.40078E-14
 -1      3978 1.83445E+01 4.00796E-02-2.75928E-02-2.21908E+00-1.84655E-14 1.19677E-13
 -1      3979 1.74619E+01 1.02593E+00-2.53222E-02 1.33549E+00-6.60064E-14 3.12546E-13
 -1      3980 1.79345E+01 1.03646E+00 8.01370E-03 1.02237E+00-3.89872E-14 2.36299E-13
 -1      3981 2.01985E+01-5.04309E-02 1.23280E-03-4.04568E-01 3.57386E-14 1.07293E-13
 -1      3982 2.01862E+01-8.95626E-03-2.26887E-03-3.91785E-01 3.10096E-14 3.10826E-14
 -1      3983 2.02169E+01-1.01192E-01 1.74669E-03-4.24120E-01 6.62501E-14 1.30002E-13
 -1      3984 2.26308E+01-1.84417E+00 1.34254E-02 4.52806E-01-4.51299E-14-2.02827E-13
 -1      3985 2.29899E+01-1.90957E+00-1.12082E-02 1.99750E-01 1.78448E-14-2.21616E-13
 -1      3986 1.71952E+01 4.10804E-01 2.63196E-02 2.79933E+00-3.38810E-13 4.82742E-13
 -1      3987 1.65667E+01 8.60068E-01-2.40353E-02 2.28228E+00-2.78754E-13 4.10461E-13
 -1      3988 1.71612E+01 1.00198E+00 1.62845E-02 1.77193E+00-1.69171E-13 3.82121E-13
 -1      3989 1.81049E+01-8.94719E-02 1.17450E-02 2.81102E+00-2.74537E-13 1.93687E-13
 -1      3990 2.03097E+01 1.00918E+00 3.29670E-03-8.27564E-02 5.19449E-14 9.44130E-14
 -1      3991 2.02473E+01 4.88998E-01 4.33006E-04 7.35345E-02 3.95459E-14 8.96882E-14
 -1      3992 2.01996E+01 4.31442E-01-1.95993E-03 1.01895E-01 4.62575E-14 1.24420E-13
 -1      3993 2.01908E+01 4.30629E-01 1.73665E-03 5.89734E-02 9.50011E-15 1.56737E-13
 -1      3994 2.23931E+01-1.78282E+00 1.83567E-02-5.27247E-01-1.27576E-13 2.32864E-13
 -1      3995 2.42626E+01-1.65350E+00 1.65644E-02-5.43852E-01-6.45235E-14-4.71000E-13
 -1      3996 2.02892E+01 1.14232E+00-1.67845E-03 1.35124E-01 8.38073E-14 4.22870E-14
 -1      3997 2.04758E+01-1.52805E+00 7.03206E-02-2.93238E+00-7.32756E-14 3.01573E-14
 -1      3998 2.16188E+01-2.29965E+00-8.14871E-02-2.33579E+00-7.95080E-14 9.34027E-14
 -1      3999 2.03226E+01 9.94127E-01 4.06988E-03 7.49293E-02 6.33858E-14 4.13200E-14
 -1      4000 2.03099E+01 9.57733E-01-1.83241E-03-2.05658E-02 7.05857E-14 4.31037E-14
 -1      4001 2.03058E+01 9.44831E-01-3.51180E-03-3.94142E-02 5.96100E-14 1.05723E-13
 -1      4002 2.03140E+01 9.49351E-01-2.25364E-03-1.19924E-02 7.45082E-14 1.29514E-14
 -1      4003 2.03321E+01 8.16498E-01 4.09894E-03-2.22525E-02 4.85993E-14 4.14380E-14
 -1      4004 2.03189E+01 9.26140E-01-2.32307E-03 9.83995E-03 7.32932E-14 1.79248E-14
 -1      4005 1.99661E+01 7.97972E-02 3.05890E-04-2.50662E-03 4.77758E-13 3.02036E-13
 -1      4006 2.21006E+01-1.88028E+00-2.79931E-02-9.58699E-01-7.14354E-14 1.67356E-13
 -1      4007 2.25577E+01-2.36656E+00-1.56195E-02 1.65091E+00-1.01207E-13-2.63871E-13
 -1      4008 1.82972E+01 7.96595E-01 8.44865E-03 1.15503E+00-5.08622E-14 3.09710E-14
 -1      4009 1.81332E+01 9.99615E-01-1.77603E-02 7.55247E-01-1.71024E-14 1.46113E-13
 -1      4010 1.84708E+01 9.59822E-01 4.01688E-03 5.63305E-01-4.80988E-14 8.41538E-14
 -1      4011 1.88923E+01 8.29523E-01 1.83984E-03 2.72140E-01 1.06081E-13 2.72629E-13
 -1      4012 1.90338E+01 7.13762E-01 6.33765E-03 3.71194E-01 1.41406E-13 1.52957E-13
 -1      4013 1.86471E+01 8.92949E-01-1.24455E-02 3.85896E-01 3.33672E-14 2.52458E-13
 -1      4014 2.02960E+01 6.39895E-01-2.89372E-04 2.01217E-02 3.08231E-14 9.15890E-14
 -1      4015 2.02706E+01 5.55763E-01-2.09254E-03 5.80928E-02 1.91638E-14 8.87553E-14
 -1      4016 2.02679E+01 5.48968E-01 1.11460E-03 3.89872E-02 3.44615E-14 1.38965E-13
 -1      4017 2.19939E+01-1.99195E+00 6.04989E-03-1.62455E+00-8.71976E-14 1.04755E-13
 -1      4018 1.98289E+01-9.91713E-01 2.56817E-02-2.60033E+00-7.55108E-14 6.40997E-14
 -1      4019 2.05409E+01-1.72263E+00 3.13990E-02 3.10390E+00-1.95993E-13-1.11586E-14
 -1      4020 1.96611E+01-1.16608E+00-2.82799E-02 2.90751E+00-1.69824E-13 1.09303E-13
 -1      4021 2.13101E+01-1.92582E+00 7.53338E-03 2.49073E+00-1.34762E-13-6.07615E-14
 -1      4022 2.02788E+01 3.03804E-01-4.54169E-04-1.77799E-01 1.84128E-14 1.02380E-13
 -1      4023 2.02981E+01 3.88164E-01 6.96641E-04-1.23393E-01 1.76339E-14 9.07597E-14
 -1      4024 2.03144E+01 4.76633E-01 5.34564E-04-9.53949E-02 1.51073E-14 5.28983E-14
 -1      4025 1.99618E+01 9.90476E-02-1.36204E-04-3.86424E-02-4.23515E-14 8.77643E-14
 -1      4026 1.99694E+01 8.54057E-02-2.22352E-04-3.26766E-02-9.76672E-14 1.73525E-13
 -1      4027 1.99767E+01 7.40417E-02-5.44496E-05-2.91734E-02-5.72015E-14 3.27567E-13
 -1      4028 2.03265E+01 8.19090E-01-6.83999E-04 1.18908E-02 5.19431E-14 4.53068E-14
 -1      4029 2.11257E+01-1.12284E+00 8.14401E-04-8.00660E-01-6.25729E-14 3.39182E-13
 -1      4030 2.08996E+01-9.23978E-01 1.10943E-02-8.21701E-01-8.68314E-14 3.07258E-13
 -1      4031 2.11499E+01-1.28286E+00-2.23722E-02-1.05187E+00-6.74504E-14 2.68661E-13
 -1      4032 1.99680E+01 8.43917E-02 1.89953E-04-2.48611E-02 9.71393E-14 1.11136E-13
 -1      4033 2.39499E+01-1.20659E+00-2.29120E-02-1.05446E+00 6.78312E-14-3.27801E-13
 -1      4034 2.41460E+01-5.28735E-01 1.35890E-02-1.38650E+00-7.12598E-14-4.08714E-13
 -1      4035 2.35162E+01-1.78466E+00 9.01770E-03-2.76144E-01 4.34570E-14-2.54255E-13
 -1      4036 1.99584E+01 8.90553E-02-2.18853E-04 4.52135E-02 3.22154E-13 1.78719E-14
 -1      4037 1.99539E+01 9.77885E-02 3.96236E-04 5.33066E-02 2.50312E-13-5.88079E-14
 -1      4038 1.99392E+01 1.11949E-01 2.38793E-04 5.18648E-02 2.55464E-13-2.98533E-13
 -1      4039 1.99488E+01 9.83039E-02-2.98328E-04 3.39753E-02 2.06926E-13-6.97258E-14
 -1      4040 2.38001E+01-1.53814E+00-9.09835E-03-6.31879E-01 6.09983E-14-2.97581E-13
 -1      4041 2.03097E+01 9.22867E-01 3.53997E-04-4.21013E-02 5.44034E-14 1.50947E-13
 -1      4042 2.03090E+01 8.25106E-01-2.35299E-03-4.81761E-02 2.90378E-14 1.02830E-13
 -1      4043 2.03036E+01 7.11400E-01-5.83435E-04 3.81712E-03 2.69605E-14 9.34285E-14
 -1      4044 2.03219E+01 7.95349E-01 3.47831E-03-2.08117E-02 4.12803E-14 1.19782E-13
 -1      4045 2.01995E+01-1.17005E-01-3.41880E-03-4.61157E-01 4.53723E-14 1.06395E-13
 -1      4046 2.02445E+01 1.78757E-01 1.48517E-04-2.55053E-01 3.37177E-15 1.22209E-13
 -1      4047 2.02622E+01 2.39067E-01 6.80099E-04-2.14411E-01 2.11817E-14 1.16153E-13
 -1      4048 2.02819E+01 3.02050E-01-3.37445E-04-1.84945E-01-5.84212E-15 7.75617E-14
 -1      4049 2.02432E+01 1.82910E-01-8.40529E-04-2.56819E-01 8.28746E-15 8.68695E-14
 -1      4050 2.06719E+01-7.23839E-01-9.06336E-03-6.27171E-01-9.44337E-14 2.17512E-13
 -1      4051 1.99629E+01 8.72088E-02-3.00763E-04-1.96158E-02 1.70616E-13 2.60326E-13
 -1      4052 2.02459E+01-2.45549E-01 3.64708E-03-5.90586E-01 2.58149E-14 1.16889E-13
 -1      4053 2.01900E+01-1.64149E-01 1.51227E-03-5.49177E-01 2.37133E-14 1.10451E-13
 -1      4054 1.99534E+01 1.00950E-01 6.59135E-06-1.82124E-02-9.92668E-14 8.35915E-14
 -1      4055 1.99576E+01 9.21309E-02 3.90032E-05-9.97460E-03 2.25583E-13 4.42997E-13
 -1      4056 2.01671E+01 8.73665E-03 2.21452E-03-4.01061E-01 3.41229E-15 4.56922E-14
 -1      4057 2.01680E+01 5.32482E-02 1.67737E-04-3.64131E-01 2.34966E-14 6.23618E-14
 -1      4058 2.23649E+01-1.95516E+00-1.03440E-02 9.60143E-01-1.41702E-13-2.85248E-13
 -1      4059 1.77653E+01 6.92749E-01 1.95802E-02 1.90266E+00-1.58387E-13 2.44160E-13
 -1      4060 2.01935E+01 9.70140E-02 1.37536E-03-3.22871E-01 4.58005E-14 2.98219E-14
 -1      4061 2.02084E+01 1.41705E-01 9.60938E-05-2.87178E-01 4.36521E-14 3.73430E-14
 -1      4062 2.01573E+01 1.06615E-01-1.38758E-03-3.28424E-01 2.35703E-14 2.55845E-14
 -1      4063 2.04055E+01-4.55589E-01 5.13420E-03-6.96059E-01-1.28985E-13 2.47271E-13
 -1      4064 2.03019E+01-3.40256E-01 3.61888E-03-6.56507E-01-6.47464E-14 2.19562E-13
 -1      4065 2.01775E+01-2.63082E-01-7.59318E-03-6.79705E-01-9.77846E-14 1.45323E-13
 -1      4066 1.99558E+01 9.18236E-02-4.48768E-05 1.80348E-04 3.04429E-13 1.81860E-13
 -1      4067 1.99497E+01 1.12531E-01 4.86827E-04-3.14401E-02-1.49559E-13-2.48801E-14
 -1      4068 2.01276E+01 3.65241E-01 1.09827E-03 2.74838E-03-1.32066E-14 1.07335E-13
 -1      4069 2.00564E+01 3.45680E-01-2.50709E-03-7.08521E-03-2.35966E-14 9.34091E-14
 -1      4070 1.99935E+01 3.38798E-01 1.12833E-03-3.71316E-02-4.79204E-14 1.36856E-13
 -1      4071 1.99008E+01 3.37882E-01-3.60733E-03-6.78145E-02-5.68220E-14 1.00025E-13
 -1      4072 2.00522E+01 3.26300E-01 1.97697E-03-8.68280E-02-4.85654E-14 5.65378E-14
 -1      4073 1.98304E+01 3.49583E-01 2.39479E-03-1.22776E-01-4.75297E-14 1.19695E-13
 -1      4074 1.97143E+01 3.62280E-01-4.29710E-03-1.80891E-01-2.55532E-14 1.63634E-13
 -1      4075 1.99095E+01 2.99281E-01-6.31517E-04-1.74032E-01-6.28962E-14 1.13511E-13
 -1      4076 1.96363E+01 3.78658E-01 2.53557E-03-2.64082E-01-2.34755E-14 1.64295E-13
 -1      4077 1.94936E+01 3.91276E-01-7.49024E-03-3.64275E-01-5.24119E-14 1.74538E-13
 -1      4078 1.97493E+01 3.03028E-01 1.27346E-03-3.13703E-01-2.85424E-14 1.30740E-13
 -1      4079 1.94240E+01 4.05858E-01 5.99103E-03-4.83263E-01-9.29359E-14 1.59298E-13
 -1      4080 1.92568E+01 3.94929E-01-9.16333E-03-6.38218E-01-7.79219E-14 1.46958E-13
 -1      4081 1.95793E+01 3.01580E-01 4.97842E-03-5.29926E-01-7.41066E-14 1.29676E-13
 -1      4082 1.92042E+01 3.90296E-01 1.08002E-02-8.24881E-01-6.87876E-14 1.25849E-13
 -1      4083 1.90148E+01 3.45911E-01-7.42588E-03-1.05206E+00-5.34241E-14 1.00830E-13
 -1      4084 1.94210E+01 2.13166E-01-4.31445E-03-8.39787E-01-7.26981E-14 7.44226E-14
 -1      4085 1.90064E+01 2.73881E-01 1.53281E-02-1.29882E+00-5.01996E-14 7.54236E-14
 -1      4086 1.88291E+01 1.72517E-01 5.09129E-03-1.64868E+00-2.99008E-14 6.66340E-14
 -1      4087 1.92994E+01 6.37724E-02-5.16773E-03-1.27152E+00-8.37710E-14 9.86810E-14
 -1      4088 2.02287E+01 4.47460E-01-8.59634E-04 1.33282E-02 1.48604E-14 1.25395E-13
 -1      4089 2.01755E+01 3.97912E-01-2.46395E-03 2.06463E-02-5.24509E-15 1.08004E-13
 -1      4090 2.01712E+01 3.72784E-01-1.00331E-03-3.69032E-02-3.16858E-17 6.61803E-14
 -1      4091 2.13603E+01-1.56449E+00 2.52031E-02-1.67277E+00-4.46743E-14 1.12429E-13
 -1      4092 1.94606E+01 4.69115E-01-5.89297E-03 1.54905E-01-9.76088E-14-2.62333E-14
 -1      4093 1.95571E+01 4.31733E-01 8.70227E-04 1.07970E-01-1.08966E-13-2.17985E-13
 -1      4094 1.96117E+01 3.90962E-01-3.17818E-03 6.42043E-02-9.42379E-14-3.48436E-13
 -1      4095 1.96796E+01 3.54883E-01 5.50730E-04 3.87068E-02-1.15169E-13-3.49841E-13
 -1      4096 1.96122E+01 3.79706E-01 2.31263E-03 1.45645E-01-1.61047E-13-1.33987E-13
 -1      4097 1.97211E+01 3.17655E-01-2.67380E-03 1.50039E-02-6.11629E-14-4.35660E-13
 -1      4098 1.97711E+01 2.85401E-01-1.95823E-05 2.43662E-03-7.75324E-14-4.09079E-13
 -1      4099 1.97115E+01 3.23730E-01 2.72935E-03 7.20284E-02-1.44317E-13-4.15553E-13
 -1      4100 1.98025E+01 2.54970E-01-1.79027E-03-9.95188E-03-4.53173E-14-3.85151E-13
 -1      4101 1.98366E+01 2.28514E-01-2.39762E-04-1.45855E-02 9.84704E-14-1.91807E-13
 -1      4102 1.97908E+01 2.67572E-01 2.78720E-03 2.93148E-02 7.48300E-14-3.66769E-13
 -1      4103 1.98623E+01 2.02054E-01-1.12944E-03-2.11226E-02 2.00624E-13-1.24429E-14
 -1      4104 1.98875E+01 1.78562E-01-2.66721E-04-2.15699E-02 1.93672E-13-1.16901E-13
 -1      4105 1.98503E+01 2.15834E-01 2.10330E-03 6.04062E-03 1.92608E-13-1.38722E-13
 -1      4106 1.99065E+01 1.56580E-01-8.35688E-04-2.38737E-02 1.41960E-13-6.89466E-14
 -1      4107 1.99243E+01 1.37642E-01-2.11326E-04-2.20876E-02 1.95619E-14-7.20819E-14
 -1      4108 1.98953E+01 1.70429E-01 1.41984E-03-5.90559E-03 1.73160E-13-9.75331E-14
 -1      4109 2.22373E+01-1.97759E+00 1.21033E-02 1.36576E+00-1.33535E-13-3.28974E-13
 -1      4110 2.17878E+01-2.04070E+00 8.05062E-03 2.08091E+00-1.50917E-13-2.21487E-13
 -1      4111 2.09895E+01-1.61926E+00-1.64513E-02 2.17429E+00-7.81004E-14-1.50426E-13
 -1      4112 2.16786E+01-1.68811E+00 4.21733E-03 1.36351E+00-1.30699E-13-3.08254E-13
 -1      4113 1.92880E+01-4.92704E-01 2.40417E-02-2.37398E+00-9.47617E-14 1.70916E-14
 -1      4114 2.03105E+01-1.21972E+00-2.68023E-02-2.20630E+00-5.30114E-14 2.40749E-14
 -1      4115 1.92707E+01 5.43677E-01-8.01656E-03 3.04300E-01-6.90127E-14 9.99784E-14
 -1      4116 1.94009E+01 5.11795E-01 2.75631E-03 2.22653E-01-2.15168E-14-5.48629E-15
 -1      4117 1.94823E+01 4.40225E-01 3.88788E-03 2.65519E-01-1.22791E-13 1.78879E-13
 -1      4118 1.88973E+01-4.22634E-01 1.73626E-02 2.71026E+00-2.21979E-13 2.85156E-13
 -1      4119 1.81056E+01 1.28074E-01-2.91426E-02 2.35542E+00-2.07567E-13 2.62064E-13
 -1      4120 2.06832E+01-7.53979E-01 2.23144E-03-7.74945E-01-9.20436E-14 2.79964E-13
 -1      4121 2.05266E+01-5.96079E-01 5.87721E-03-7.57666E-01-9.49584E-14 2.71463E-13
 -1      4122 2.03481E+01-5.15943E-01-1.27023E-02-8.31041E-01-1.25922E-13 2.20374E-13
 -1      4123 2.01127E+01-3.46934E-01 5.30773E-03 9.45908E-01-5.97169E-14-2.42733E-13
 -1      4124 2.02766E+01-5.24921E-01 3.10677E-03 1.03743E+00-4.95545E-15-1.69565E-13
 -1      4125 2.08923E+01-1.11206E+00 2.32166E-03 1.29818E+00-1.02709E-13-2.51313E-13
 -1      4126 2.12704E+01-1.36815E+00 5.30781E-03 1.30927E+00-9.03817E-14-3.28607E-13
 -1      4127 2.10164E+01-1.38231E+00-1.30516E-02 1.67165E+00-9.58101E-14-3.75447E-13
 -1      4128 1.99106E+01-9.73121E-02-5.06870E-04 7.22747E-01-3.67997E-14-2.75341E-13
 -1      4129 2.00196E+01-2.09663E-01 5.78601E-03 8.13272E-01 3.25100E-14-2.78560E-13
 -1      4130 1.98706E+01-2.07216E-01-9.71063E-03 9.82701E-01 5.45387E-14-1.80255E-13
 -1      4131 1.98208E+01 5.39323E-02-2.48590E-03 5.33637E-01 7.74522E-14-3.24659E-13
 -1      4132 1.98852E+01-8.67833E-03 5.92551E-03 6.08641E-01-2.19030E-14-3.56881E-13
 -1      4133 1.97596E+01 2.42423E-02-1.27450E-03 7.19303E-01 2.95263E-14-3.24137E-13
 -1      4134 1.97969E+01 1.39748E-01-1.69077E-03 3.82832E-01-9.14050E-14-2.43811E-13
 -1      4135 1.98260E+01 1.07636E-01 4.41493E-03 4.42829E-01 4.12601E-15-3.14724E-13
 -1      4136 1.97250E+01 1.51146E-01 1.01707E-03 5.10004E-01-2.05939E-14-4.39280E-13
 -1      4137 1.98063E+01 1.78130E-01-9.43153E-04 2.68274E-01-3.01861E-13-1.48676E-13
 -1      4138 1.98127E+01 1.66530E-01 2.83698E-03 3.15949E-01-1.50890E-13-1.82864E-13
 -1      4139 1.97382E+01 2.06840E-01 9.03436E-04 3.47745E-01-1.86704E-13-3.92322E-13
 -1      4140 1.98282E+01 1.84935E-01-1.65215E-03 1.86919E-01-2.36806E-13-5.90270E-14
 -1      4141 1.98258E+01 1.84726E-01 1.29603E-03 2.22347E-01-3.30059E-13-1.19226E-13
 -1      4142 1.97704E+01 2.16376E-01-8.94602E-04 2.37176E-01-3.03095E-13-2.33409E-13
 -1      4143 1.98595E+01 1.73856E-01-1.39857E-03 1.27704E-01 1.77337E-14-2.60673E-14
 -1      4144 1.98529E+01 1.82360E-01 1.35845E-03 1.53091E-01 2.90162E-15 1.00686E-14
 -1      4145 1.98120E+01 2.14938E-01 1.91049E-03 1.57717E-01-1.62265E-13-1.94752E-13
 -1      4146 1.98903E+01 1.54142E-01-1.05070E-03 8.66427E-02 1.97531E-13-1.01853E-14
 -1      4147 1.98814E+01 1.65777E-01 7.97153E-04 1.04819E-01 7.88434E-14-8.51821E-14
 -1      4148 1.98525E+01 1.92568E-01 1.69420E-03 1.03679E-01 3.61581E-16-1.71310E-13
 -1      4149 1.99172E+01 1.31329E-01-7.64501E-04 5.80689E-02 4.33180E-13-8.21765E-14
 -1      4150 1.99087E+01 1.43561E-01 5.19431E-04 7.09894E-02 4.14847E-13 2.05088E-14
 -1      4151 1.98876E+01 1.65164E-01 1.25456E-03 6.73418E-02 3.49425E-13-1.47471E-13
 -1      4152 1.91180E+01-1.39977E-01 1.99974E-02-1.92452E+00-3.71333E-14 3.45222E-14
 -1      4153 2.03322E+01 5.80334E-01 4.68400E-04-5.04475E-02 3.54157E-14 3.10785E-14
 -1      4154 2.03259E+01 8.12268E-01-3.90610E-05-6.52211E-03 5.24088E-14 1.77223E-14
 -1      4155 2.03318E+01 6.87996E-01 5.44345E-05-3.92815E-02 4.09107E-14 1.08400E-14
 -1      4156 2.03184E+01 4.70205E-01-6.40100E-04-1.06043E-01 9.99601E-15 4.27512E-14
 -1      4157 1.99416E+01 1.15709E-01-3.62948E-04-2.06935E-02-9.57300E-14 1.62618E-13
 -1      4158 1.99497E+01 1.00217E-01 1.97663E-04 9.22009E-03 2.65364E-13 1.35067E-13
 -1      4159 1.99364E+01 1.14581E-01-4.26176E-04 4.71853E-03 8.24561E-14 1.82313E-13
 -1      4160 1.99415E+01 1.08311E-01 1.23156E-04 2.27216E-02 2.13535E-13 5.89834E-14
 -1      4161 1.84690E+01 3.46550E-01 1.77899E-02 1.84290E+00-1.12807E-13 2.15540E-13
 -1      4162 2.01767E+01-9.67938E-02 3.14515E-03-4.89619E-01 1.96470E-14 6.63338E-14
 -1      4163 2.01552E+01-4.09518E-02 6.09401E-04-4.50018E-01 1.09049E-14 1.98478E-14
 -1      4164 2.01187E+01 1.61883E-02-2.51146E-03-4.24258E-01 2.50525E-14 5.72802E-15
 -1      4165 2.01175E+01-9.50750E-02-3.47336E-03-5.41041E-01-9.39277E-15 3.31140E-14
 -1      4166 1.99326E+01 1.26327E-01 7.16313E-04-8.92836E-03 7.30289E-14 1.18553E-14
 -1      4167 2.06114E+01-8.60970E-01 4.15926E-03 1.22613E+00-1.17705E-14-1.98631E-13
 -1      4168 2.03194E+01 6.97146E-01-1.39036E-04-3.32635E-02 4.28222E-14 4.07459E-14
 -1      4169 2.03134E+01 7.02655E-01-1.21500E-03-2.67829E-02 3.42024E-14 6.29527E-14
 -1      4170 2.06541E+01-8.48064E-01-1.52722E-02-9.75023E-01-1.28504E-13 2.55824E-13
 -1      4171 1.84525E+01 5.01038E-01-2.12928E-02 1.42547E+00 3.31603E-16 5.92513E-14
 -1      4172 1.87127E+01 5.72153E-01 8.46596E-03 1.13182E+00-2.66996E-14 2.71076E-14
 -1      4173 1.87011E+01 7.90527E-01 7.10577E-03 6.79611E-01 6.10819E-14-3.40683E-14
 -1      4174 2.02769E+01 5.33738E-01-6.77785E-04 9.16251E-04 2.95518E-14 9.75022E-14
 -1      4175 2.02712E+01 5.02920E-01 1.00106E-03-3.39510E-02 3.01628E-14 6.82454E-14
 -1      4176 2.03038E+01 6.88881E-01 1.10686E-04 4.32304E-03 3.07260E-14 1.61949E-13
 -1      4177 1.95073E+01-3.97689E-01-1.71937E-02-1.78479E+00-8.07975E-14 2.28242E-14
 -1      4178 2.00655E+01 5.43231E-02 2.50711E-03-4.31395E-01 2.31879E-14 2.21475E-14
 -1      4179 2.00750E+01 9.31241E-02-1.01567E-03-3.75428E-01 5.35091E-14 2.49388E-14
 -1      4180 2.07379E+01-1.36794E+00-1.38556E-02-1.99411E+00-4.59402E-14 4.87506E-14
 -1      4181 2.11275E+01-1.27720E+00 1.61678E-02-1.35725E+00-4.74947E-14 6.23724E-14
 -1      4182 2.02565E+01-6.57277E-01-4.66043E-03 1.34758E+00-7.05255E-14-1.84886E-13
 -1      4183 1.92074E+01 5.77118E-01 4.06184E-03 4.06805E-01 9.59829E-14 6.39189E-14
 -1      4184 1.93319E+01 4.76906E-01 4.32999E-03 4.52694E-01 1.28386E-14 6.16101E-14
 -1      4185 1.90459E+01 5.96475E-01-9.22851E-03 5.37187E-01 2.37575E-13 4.93585E-14
 -1      4186 2.02108E+01 1.94290E-01-4.92716E-04-2.51208E-01-4.20504E-16-3.50587E-14
 -1      4187 2.02353E+01 1.86894E-01 6.87432E-04-2.53969E-01 1.53389E-14 2.68722E-15
 -1      4188 2.02545E+01 2.37325E-01 2.32414E-04-2.19520E-01-1.25177E-14-7.57085E-15
 -1      4189 2.08051E+01-1.02510E+00 1.89139E-02-1.34292E+00-9.40810E-14 6.51892E-14
 -1      4190 1.96820E+01-8.05686E-01 6.08061E-03 2.45209E+00-5.75130E-14 1.86820E-13
 -1      4191 2.01203E+01 1.31178E-01 2.71747E-03-3.22263E-01 2.76671E-14 2.73274E-14
 -1      4192 2.01405E+01 1.66846E-01-9.06002E-04-2.76754E-01-5.23750E-15-1.72896E-14
 -1      4193 2.00518E+01 1.51726E-01-2.08928E-03-3.23899E-01 2.19172E-14 4.30196E-14
 -1      4194 1.99307E+01 1.22099E-01 4.19784E-04 4.03766E-02 2.24771E-13-8.49564E-14
 -1      4195 1.99156E+01 1.38269E-01 6.21532E-04 3.48132E-02 2.87575E-13 1.39796E-13
 -1      4196 1.99179E+01 1.35253E-01-7.64894E-04 4.88418E-03 1.66170E-13 4.61655E-14
 -1      4197 1.89095E+01 1.10577E-01 1.25507E-02 1.80322E+00-1.27673E-13 1.43507E-13
 -1      4198 2.01217E+01-2.10234E-01 7.66610E-03-7.48006E-01-1.49403E-13 1.24959E-13
 -1      4199 2.00462E+01-1.21532E-01-8.31300E-04-6.73888E-01-8.12315E-14 1.31306E-13
 -1      4200 2.01883E+01-8.80390E-01-7.12198E-03-1.85279E+00-5.86116E-14-9.29465E-15
 -1      4201 2.00568E+01-4.76584E-02 5.18203E-03-5.71883E-01-6.48184E-14 7.45301E-14
 -1      4202 2.00395E+01 5.99902E-03 1.09232E-04-5.05499E-01-3.79460E-14 3.20397E-14
 -1      4203 1.99435E+01-9.58921E-03 4.19240E-04-6.39618E-01-1.34387E-13 8.42158E-14
 -1      4204 2.03039E+01 6.16619E-01 1.40055E-03-1.09341E-02 3.72157E-14 9.69575E-14
 -1      4205 2.03083E+01 7.15495E-01-8.89193E-04-6.32698E-03 3.82992E-14 1.25309E-13
 -1      4206 1.87754E+01 6.00272E-01-1.04300E-02 8.95730E-01 1.75695E-15 8.86440E-14
 -1      4207 1.89757E+01 6.15391E-01 6.94194E-03 6.93700E-01 2.17152E-13 1.00874E-13
 -1      4208 1.91737E+01 4.77723E-01 8.07546E-03 7.21870E-01 2.12784E-13 1.43256E-13
 -1      4209 1.90062E+01 3.67390E-01-2.08120E-03 1.13123E+00 6.23924E-14 7.73773E-15
 -1      4210 2.00419E+01 2.48527E-01 7.55587E-04-1.97755E-01-4.62351E-14 8.86518E-14
 -1      4211 1.99706E+01 2.36468E-01-6.34868E-04-2.52924E-01-2.02434E-14 1.12025E-13
 -1      4212 1.98690E+01 2.28987E-01 2.46962E-04-3.26746E-01-3.19816E-14 1.37211E-13
 -1      4213 1.97899E+01 2.26085E-01 6.29347E-04-4.13069E-01-2.06634E-14 1.25559E-13
 -1      4214 1.97884E+01 1.23312E-01 1.79645E-03-5.89018E-01-1.10030E-13 1.05960E-13
 -1      4215 1.97250E+01 9.28903E-02 5.74678E-04-7.13668E-01-1.08038E-13 6.82835E-14
 -1      4216 1.96687E+01 3.32891E-02-2.05479E-03-8.78747E-01-9.75649E-14 5.10358E-14
 -1      4217 1.96429E+01-5.06123E-02 1.12395E-02-1.12433E+00-5.21567E-14 1.25552E-14
 -1      4218 1.96024E+01-1.77719E-01 2.79138E-03-1.37450E+00-8.76032E-14 3.47526E-14
 -1      4219 1.96075E+01 3.48145E-01-2.18773E-03 2.09043E-01-2.39528E-13-9.47990E-14
 -1      4220 1.96673E+01 3.22182E-01-5.01368E-04 1.62106E-01-2.49076E-13-1.33860E-13
 -1      4221 2.03547E+01-1.10934E+00 9.92078E-03 2.19640E+00-3.95122E-14 5.85187E-15
 -1      4222 1.94926E+01-5.52415E-01-2.52584E-02 2.09271E+00-5.16707E-14 1.00407E-13
 -1      4223 1.97190E+01 2.80484E-01-1.82566E-03 1.51881E-01-2.65202E-13-1.30524E-13
 -1      4224 1.97612E+01 2.59262E-01-3.39161E-04 1.21520E-01-2.55688E-13-1.23629E-13
 -1      4225 1.97822E+01 2.42815E-01-2.65637E-03 9.01732E-02-4.55324E-14-7.85419E-14
 -1      4226 1.98170E+01 2.22322E-01-8.30281E-04 7.28288E-02 9.20973E-14-6.02067E-14
 -1      4227 1.98371E+01 2.05105E-01-1.96157E-03 5.16123E-02 1.21058E-13-1.72940E-13
 -1      4228 1.98652E+01 1.84599E-01-7.25099E-04 4.13021E-02 1.36157E-13-1.30174E-13
 -1      4229 1.96163E+01 3.64281E-02 2.28566E-03 9.51900E-01 1.11872E-13-8.62387E-14
 -1      4230 1.97091E+01-9.33073E-02 7.51674E-03 1.10074E+00 1.06769E-13-4.55281E-14
 -1      4231 2.01025E+01 2.65224E-01-3.56831E-04-1.60306E-01-2.03075E-14 4.32394E-14
 -1      4232 1.95517E+01 3.11581E-01-5.11684E-03 3.97307E-01-1.29650E-13-1.18675E-13
 -1      4233 1.96201E+01 3.09562E-01 1.01662E-03 3.16249E-01-1.21695E-13-1.28522E-13
 -1      4234 2.02313E+01-4.79754E-01 6.91504E-03-1.07206E+00-8.14397E-14 1.12949E-13
 -1      4235 2.01018E+01-3.34262E-01 1.87148E-03-9.70564E-01-1.24174E-13 8.40015E-14
 -1      4236 1.94766E+01 2.76553E-01-5.50175E-03 6.08711E-01 1.04299E-13-1.63733E-13
 -1      4237 1.95027E+01 2.27787E-01 3.61543E-03 7.31051E-01 6.03605E-14-7.84590E-14
 -1      4238 1.97214E+01-3.46221E-01 1.21007E-03-1.52027E+00-1.09369E-13-6.18651E-15
 -1      4239 2.00330E+01-6.48553E-01 1.31602E-02-1.71892E+00-1.09883E-13-4.51455E-14
 -1      4240 2.03259E+01-8.65292E-01-2.01728E-02-1.57072E+00-7.34751E-14-1.34742E-14
 -1      4241 1.99965E+01-5.00419E-01-1.76519E-02-1.34744E+00-8.98542E-14-5.73459E-14
 -1      4242 1.99358E+01 1.14545E-01-8.62684E-05 3.06403E-02 1.39523E-13 5.66672E-15
 -1      4243 1.95537E+01 2.92105E-01 2.13808E-03 4.92120E-01 3.00269E-14-9.29761E-14
 -1      4244 1.98826E+01 1.67762E-01-1.32888E-03 2.75949E-02 2.62751E-13-1.81728E-14
 -1      4245 1.99040E+01 1.50127E-01-2.28709E-04 2.20013E-02 2.82389E-13 3.28232E-14
 -1      4246 2.02867E+01 4.89097E-01-3.06102E-03-6.58853E-02 3.29486E-14 3.49455E-14
 -1      4247 2.02521E+01 4.18667E-01 3.73812E-03-6.42429E-02 1.32675E-14 5.30079E-14
 -1      4248 2.05709E+01-8.37962E-01 8.20201E-03-1.25752E+00-1.27252E-13 7.99022E-14
 -1      4249 2.01976E+01 3.65723E-01 9.66638E-05-8.18982E-02-2.72844E-14 3.38500E-14
 -1      4250 1.99052E+01-1.93638E-01-7.22839E-03-9.64558E-01-9.45188E-14 5.10365E-14
 -1      4251 1.95028E+01-2.35757E-01 6.51279E-03 1.67257E+00-1.32184E-13 3.64212E-14
 -1      4252 2.02778E+01 2.97434E-01 1.71146E-04-1.87811E-01 8.65221E-15 1.47071E-15
 -1      4253 2.02960E+01 3.64994E-01-1.96147E-04-1.47117E-01-6.35515E-15-1.37399E-15
 -1      4254 2.02637E+01 2.98848E-01-4.92061E-05-1.85044E-01 4.85888E-15-7.26784E-14
 -1      4255 2.03245E+01 5.95842E-01 2.27268E-03-5.29383E-02 3.20073E-14 2.33891E-14
 -1      4256 2.03744E+01-6.27760E-01 1.27230E-02-1.17317E+00-9.99519E-14 1.06259E-13
 -1      4257 1.91898E+01 2.24409E-01 5.33238E-03 1.20778E+00 7.33953E-14 9.84670E-14
 -1      4258 1.92454E+01 2.85580E-01-5.99532E-04 9.82896E-01 1.61418E-13 1.01929E-13
 -1      4259 1.96932E+01 2.49982E-01 4.25542E-04 3.18645E-01-2.85329E-13-3.51777E-13
 -1      4260 1.99792E+01 8.56605E-02-1.47653E-03-4.57703E-01-3.49566E-14 4.18226E-14
 -1      4261 2.06103E+01-1.22116E+00 3.94192E-03 2.01163E+00-6.32133E-14-9.37692E-14
 -1      4262 1.97384E+01 2.58511E-01 1.65934E-03 2.06261E-01-3.65827E-13-1.30873E-13
 -1      4263 1.97156E+01 2.56056E-01-5.14619E-05 2.53741E-01-2.28083E-13-1.55149E-13
 -1      4264 2.03032E+01 4.85308E-01-5.95961E-04-8.75005E-02 3.11728E-14-1.15100E-14
 -1      4265 1.97998E+01 1.68092E-01-3.08366E-03-4.80453E-01-8.13214E-14 9.32218E-14
 -1      4266 1.92894E+01-8.59709E-03-9.98424E-03 1.43666E+00-5.43963E-14 7.28408E-14
 -1      4267 1.95325E+01-9.30272E-02-1.36743E-02 1.25449E+00 5.73030E-14 1.08626E-14
 -1      4268 1.98504E+01-3.05618E-01 1.90921E-03 1.27494E+00-5.33478E-14-4.27698E-14
 -1      4269 2.01663E+01-6.29502E-01 1.05757E-02 1.51520E+00-1.54160E-13-1.45468E-13
 -1      4270 1.99300E+01 9.84630E-02-7.98674E-04-4.81138E-01-6.34242E-14 8.21211E-14
 -1      4271 1.99591E+01 1.43332E-01 3.19339E-04-4.00292E-01-5.56353E-15 7.89095E-14
 -1      4272 2.01561E+01 3.12178E-01 5.88374E-04-1.13381E-01-2.91751E-14 5.22643E-14
 -1      4273 2.01424E+01 2.36933E-01 5.17419E-04-2.15673E-01-1.97774E-14 1.20545E-14
 -1      4274 2.01906E+01 2.18466E-01 1.10471E-03-2.25698E-01-1.50471E-14-6.43266E-15
 -1      4275 2.02155E+01 2.60316E-01-6.45621E-04-1.89686E-01-1.10670E-14-2.25544E-14
 -1      4276 2.04044E+01-9.61008E-01-1.24333E-02 1.71235E+00-7.02533E-14-1.11195E-13
 -1      4277 1.92971E+01 3.17403E-01-4.29363E-03 8.11420E-01 1.48476E-13 7.38002E-14
 -1      4278 1.99295E+01-5.10862E-01 1.34796E-02 1.66928E+00-1.49896E-13-3.49612E-15
 -1      4279 1.99267E+01 2.13798E-01 1.60889E-03-3.12221E-01-1.78050E-14 1.22470E-13
 -1      4280 2.02279E+01 3.37490E-01-1.80153E-03-1.31472E-01-1.72872E-14 1.91101E-14
 -1      4281 2.02549E+01 3.20348E-01-6.39904E-06-1.56916E-01 1.10176E-14-1.50192E-14
 -1      4282 2.03100E+01 4.61492E-01-1.15571E-03-1.08590E-01 2.60626E-14-9.26182E-15
 -1      4283 2.02817E+01 3.86562E-01 1.94300E-03-1.26682E-01 2.91709E-14-1.94381E-14
 -3
    1PSTEP                         3           1           1          
  100CL  101 1.000000000        4283                     0    1           1
 -4  TOSTRAIN    6    1
 -5  EXX         1    4    1    1
 -5  EYY         1    4    2    2
 -5  EZZ         1    4    3    3
 -5  EXY         1    4    1    2
 -5  EYZ         1    4    2    3
 -5  EZX         1    4    3    1
 -1         1 3.17470E-04-8.29787E-05-8.37563E-05 1.00626E-04-8.60585E-19-3.01417E-18
 -1         2 4.00291E-05-1.22708E-04 2.30965E-05-5.59363E-08 7.27347E-18 1.15774E-18
 -1         3 9.52367E-05-2.85716E-05-2.85689E-05 5.41691E-10-3.55028E-18-3.17416E-18
 -1         4 9.52366E-05-2.85712E-05-2.85691E-05-1.49809E-09-3.47265E-18 2.93141E-18
 -1         5 1.43082E-04-2.14329E-05-4.24649E-05 3.84626E-05-9.32795E-20 3.57458E-18
 -1         6 1.45765E-04 2.56680E-10-4.40585E-05-5.41072E-05-2.15146E-19-2.85672E-18
 -1         7 9.00777E-05-3.21745E-07-3.89794E-05-2.90113E-05-3.73753E-20-2.79576E-18
 -1         8 8.51096E-05 9.11399E-08-3.63324E-05-2.01875E-05 1.70995E-20-2.19812E-18
 -1         9 8.28405E-05 7.58627E-08-3.53600E-05-1.55582E-05 6.67435E-20-1.61005E-18
 -1        10 8.18234E-05 3.72575E-08-3.49007E-05-1.19904E-05 7.23750E-20-1.17582E-18
 -1        11 8.13074E-05 1.83700E-08-3.46756E-05-8.92778E-06 6.62373E-20-7.82501E-19
 -1        12 8.10353E-05 8.54068E-09-3.45616E-05-6.21226E-06 5.54211E-20-4.04549E-19
 -1        13 8.08879E-05 4.32506E-09-3.45023E-05-3.63740E-06 7.07612E-20-4.47802E-20
 -1        14 8.08230E-05 2.71384E-09-3.44768E-05-1.16617E-06 7.60789E-20 2.98505E-19
 -1        15 8.08220E-05 2.77092E-09-3.44763E-05 1.27315E-06 7.85708E-20 6.29496E-19
 -1        16 8.08853E-05 4.44982E-09-3.45009E-05 3.74882E-06 8.66190E-20 9.22187E-19
 -1        17 8.10336E-05 8.06554E-09-3.45599E-05 6.33428E-06 5.94561E-20 1.34996E-18
 -1        18 8.13087E-05 1.75016E-08-3.46748E-05 9.06665E-06 6.84839E-20 1.86531E-18
 -1        19 8.18311E-05 3.70489E-08-3.49029E-05 1.21617E-05 8.59209E-20 2.45206E-18
 -1        20 8.28575E-05 7.86358E-08-3.53684E-05 1.57798E-05 6.42951E-20 3.05548E-18
 -1        21 8.50734E-05 1.67222E-07-3.63668E-05 2.04026E-05 4.48927E-20 3.83994E-18
 -1        22 9.15666E-05-1.01821E-07-3.87040E-05 2.79299E-05-1.04820E-20 4.34468E-18
 -1        23 1.13781E-04-3.80821E-05-3.56874E-05-5.14474E-06-1.38966E-19-3.39967E-18
 -1        24 9.30236E-05-2.77666E-05-2.91333E-05 4.01772E-07-1.40356E-20-3.65818E-18
 -1        25 8.91545E-05-2.68609E-05-2.69626E-05 3.83209E-07-5.25690E-20-3.93712E-18
 -1        26 8.80293E-05-2.64947E-05-2.64007E-05 2.06596E-07 9.20669E-20-4.01156E-18
 -1        27 8.80994E-05-2.64873E-05-2.64021E-05 1.39828E-07 2.69289E-21-3.88377E-18
 -1        28 8.87311E-05-2.66525E-05-2.66015E-05 1.01970E-07-1.16100E-19-3.94422E-18
 -1        29 8.96090E-05-2.69041E-05-2.68716E-05 7.38670E-08-5.35930E-21-3.99789E-18
 -1        30 9.06889E-05-2.72214E-05-2.72000E-05 5.59759E-08-1.20376E-19-3.98692E-18
 -1        31 9.18901E-05-2.75793E-05-2.75641E-05 4.25532E-08 9.03376E-20-4.15041E-18
 -1        32 9.32241E-05-2.79796E-05-2.79693E-05 3.36451E-08-8.19442E-20-4.02765E-18
 -1        33 9.47609E-05-2.84430E-05-2.84378E-05 2.95837E-08 3.95643E-20-3.96073E-18
 -1        34 9.66362E-05-2.90102E-05-2.90124E-05 3.19380E-08 1.81977E-19-3.18016E-18
 -1        35 9.90696E-05-2.97424E-05-2.97632E-05 5.17531E-08-1.52128E-19-2.96836E-18
 -1        36 1.02218E-04-3.06961E-05-3.07380E-05 7.51545E-08-1.02500E-19-3.34594E-18
 -1        37 1.06881E-04-3.20957E-05-3.21898E-05 1.43165E-07 2.27480E-19-3.05788E-18
 -1        38 1.13632E-04-3.41143E-05-3.42935E-05 2.70535E-07-2.74177E-20-3.18320E-18
 -1        39 1.23352E-04-3.70081E-05-3.72980E-05 4.97168E-07 1.23520E-19-2.44748E-18
 -1        40 1.36836E-04-4.10207E-05-4.13583E-05 8.52371E-07 1.93463E-19-1.02729E-18
 -1        41 1.53914E-04-4.61405E-05-4.62070E-05 1.26526E-06 5.49248E-21-4.08323E-19
 -1        42 1.71288E-04-5.15092E-05-5.05531E-05 1.22095E-06 2.75693E-19-8.27578E-19
 -1        43 1.79677E-04-5.42395E-05-5.18786E-05-1.05680E-07 1.94189E-19 2.48869E-19
 -1        44 1.65881E-04-5.01672E-05-4.79354E-05-4.30197E-06-4.24522E-19-2.11123E-19
 -1        45 1.28221E-04-3.78365E-05-4.02087E-05-7.46370E-06-1.12652E-19-1.88698E-18
 -1        46 8.85159E-05-2.40354E-05-3.33314E-05-4.36981E-06 6.73126E-20-2.91951E-18
 -1        47 8.11613E-05-2.18119E-05-3.22205E-05 2.33910E-06-2.39604E-19-4.79744E-18
 -1        48 1.15250E-04-3.38479E-05-3.76670E-05 6.88859E-06 5.21587E-20-8.48431E-18
 -1        49 1.56140E-04-4.70895E-05-4.56331E-05 4.38880E-06 7.35992E-20-1.17913E-17
 -1        50 1.79026E-04-5.43272E-05-5.12882E-05 1.05880E-06 7.31095E-20-1.19472E-17
 -1        51 1.75901E-04-5.30622E-05-5.14911E-05-8.01060E-07 2.51605E-19-8.10926E-18
 -1        52 1.59652E-04-4.79081E-05-4.77336E-05-1.05360E-06-3.99547E-19-7.53129E-18
 -1        53 1.42665E-04-4.27496E-05-4.30810E-05-7.87923E-07-2.93499E-19-7.75379E-18
 -1        54 1.27927E-04-3.83320E-05-3.87190E-05-4.85074E-07 3.11768E-19-4.88876E-18
 -1        55 1.17169E-04-3.51336E-05-3.54107E-05-2.71485E-07 2.38319E-20-3.54441E-18
 -1        56 1.09761E-04-3.29304E-05-3.30984E-05-1.44956E-07-7.61593E-20-5.87608E-18
 -1        57 1.04796E-04-3.14488E-05-3.15436E-05-7.49287E-08-8.97838E-20-4.87060E-18
 -1        58 1.01504E-04-3.04628E-05-3.05146E-05-3.74728E-08 1.31654E-19-3.94635E-18
 -1        59 9.93315E-05-2.98092E-05-2.98377E-05-1.53872E-08-7.36838E-19-1.83784E-18
 -1        60 9.79482E-05-2.93933E-05-2.94089E-05-8.90920E-09 3.17279E-19-1.52475E-18
 -1        61 9.69728E-05-2.90982E-05-2.91070E-05-2.80905E-09-2.24447E-19-1.07637E-18
 -1        62 9.63268E-05-2.89028E-05-2.89075E-05-1.52668E-10-8.78907E-20-3.55347E-18
 -1        63 9.58993E-05-2.87733E-05-2.87758E-05 1.07646E-09-7.80096E-19-4.10306E-18
 -1        64 9.56185E-05-2.86881E-05-2.86894E-05 1.58991E-09 5.26390E-19 3.31274E-19
 -1        65 9.54369E-05-2.86329E-05-2.86336E-05 1.74741E-09-1.40075E-19 1.63594E-18
 -1        66 9.53229E-05-2.85981E-05-2.85985E-05 1.91809E-09-3.85865E-19 6.20766E-18
 -1        67 9.52576E-05-2.85783E-05-2.85784E-05 1.57561E-09 1.74765E-20 4.35254E-18
 -1        68 9.52202E-05-2.85667E-05-2.85668E-05 1.55583E-09-3.64623E-19 1.44183E-18
 -1        69 9.52052E-05-2.85620E-05-2.85621E-05 1.50943E-09 2.05645E-19 2.22860E-18
 -1        70 9.52058E-05-2.85620E-05-2.85621E-05 1.55942E-09-6.34574E-19 1.18297E-18
 -1        71 9.52166E-05-2.85651E-05-2.85649E-05 1.75458E-09 9.10332E-20 3.21483E-19
 -1        72 9.52306E-05-2.85697E-05-2.85681E-05 1.62260E-09 9.66854E-19 5.42821E-18
 -1        73 1.02027E-04-3.05413E-05-3.41031E-05-1.92804E-06-6.70480E-20 4.53618E-18
 -1        74 9.24770E-05-2.74923E-05-2.88780E-05-3.33129E-07-9.78323E-20 5.51371E-18
 -1        75 8.90828E-05-2.66991E-05-2.69613E-05-1.29169E-07-4.46769E-20 6.23381E-18
 -1        76 8.80970E-05-2.64581E-05-2.64498E-05-9.80502E-08-2.20444E-21 6.54317E-18
 -1        77 8.82179E-05-2.64902E-05-2.64544E-05-7.73479E-08-5.94329E-22 6.80375E-18
 -1        78 8.88707E-05-2.66760E-05-2.66512E-05-6.22001E-08-5.76260E-20 7.06592E-18
 -1        79 8.97823E-05-2.69430E-05-2.69272E-05-5.16668E-08 1.56186E-20 7.85295E-18
 -1        80 9.08080E-05-2.72469E-05-2.72361E-05-4.41801E-08 4.20064E-20 7.78241E-18
 -1        81 9.18655E-05-2.75616E-05-2.75538E-05-3.90815E-08-1.23199E-19 7.94176E-18
 -1        82 9.29021E-05-2.78707E-05-2.78647E-05-3.61758E-08 4.28829E-20 8.00393E-18
 -1        83 9.38757E-05-2.81610E-05-2.81558E-05-3.53022E-08 9.41159E-20 8.11843E-18
 -1        84 9.47393E-05-2.84186E-05-2.84123E-05-3.60330E-08 4.16997E-20 6.32393E-18
 -1        85 9.54289E-05-2.86242E-05-2.86145E-05-3.73915E-08 1.48760E-19 5.35182E-18
 -1        86 9.58535E-05-2.87508E-05-2.87345E-05-3.75751E-08-7.13809E-20 5.38799E-18
 -1        87 9.58910E-05-2.87623E-05-2.87358E-05-3.37818E-08 2.04058E-19 5.14662E-18
 -1        88 9.53948E-05-2.86151E-05-2.85757E-05-2.23711E-08 1.30087E-20 4.24985E-18
 -1        89 9.42162E-05-2.82650E-05-2.82124E-05 3.23024E-10-1.53799E-19 5.17949E-18
 -1        90 9.22482E-05-2.76796E-05-2.76183E-05 3.62923E-08-6.41718E-20 5.06170E-18
 -1        91 8.94867E-05-2.68566E-05-2.67975E-05 8.34535E-08-2.62829E-19 5.34292E-18
 -1        92 8.60952E-05-2.58434E-05-2.58030E-05 1.33540E-07-2.16041E-19 5.22186E-18
 -1        93 8.24434E-05-2.47487E-05-2.47450E-05 1.72158E-07 7.69347E-20 5.70326E-18
 -1        94 7.90812E-05-2.37364E-05-2.37812E-05 1.82878E-07-5.41845E-21 5.29427E-18
 -1        95 7.66281E-05-2.29931E-05-2.30842E-05 1.55002E-07-1.07792E-19 4.13824E-18
 -1        96 7.55960E-05-2.26752E-05-2.27939E-05 9.08056E-08-8.04408E-20 4.50674E-18
 -1        97 7.62165E-05-2.28551E-05-2.29725E-05 6.67273E-09-2.53360E-19 5.37970E-18
 -1        98 7.83569E-05-2.34950E-05-2.35832E-05-7.37301E-08 3.29206E-19 5.01442E-18
 -1        99 8.15707E-05-2.44608E-05-2.45038E-05-1.30127E-07-3.07006E-19 2.96242E-18
 -1       100 8.52544E-05-2.55696E-05-2.55673E-05-1.53432E-07 1.20599E-20 3.33126E-18
 -1       101 8.88315E-05-2.66465E-05-2.66110E-05-1.46703E-07-5.61387E-21 2.40084E-18
 -1       102 9.18856E-05-2.75653E-05-2.75134E-05-1.20450E-07-9.64906E-20 2.98928E-18
 -1       103 9.42080E-05-2.82632E-05-2.82098E-05-8.65163E-08 1.98832E-19 3.91232E-18
 -1       104 9.57733E-05-2.87330E-05-2.86874E-05-5.39653E-08-6.94114E-20 1.61130E-18
 -1       105 9.66773E-05-2.90038E-05-2.89702E-05-2.77572E-08-1.50037E-19 1.39652E-18
 -1       106 9.70727E-05-2.91220E-05-2.91003E-05-9.36111E-09 5.07761E-19 3.50916E-19
 -1       107 9.71195E-05-2.91358E-05-2.91239E-05 1.91610E-09-5.52358E-19-1.67352E-18
 -1       108 9.69566E-05-2.90868E-05-2.90819E-05 7.70630E-09 1.15125E-19-2.11238E-19
 -1       109 9.66898E-05-2.90068E-05-2.90062E-05 9.77366E-09 3.03549E-19-1.86895E-18
 -1       110 9.63918E-05-2.89174E-05-2.89193E-05 9.61140E-09-4.71488E-19-2.17202E-18
 -1       111 9.61071E-05-2.88321E-05-2.88350E-05 8.31355E-09-2.03091E-19-2.93269E-19
 -1       112 9.58591E-05-2.87578E-05-2.87609E-05 6.59583E-09 8.43246E-20-1.34058E-18
 -1       113 9.56572E-05-2.86973E-05-2.87001E-05 4.87648E-09-1.01541E-18-2.11218E-19
 -1       114 9.55015E-05-2.86507E-05-2.86530E-05 3.36576E-09 2.85815E-19 3.14206E-18
 -1       115 9.53878E-05-2.86166E-05-2.86184E-05 2.14120E-09-6.74123E-19 1.37341E-18
 -1       116 9.53095E-05-2.85931E-05-2.85944E-05 1.20222E-09 2.81669E-19-6.97069E-19
 -1       117 9.52599E-05-2.85781E-05-2.85792E-05 5.03352E-10 5.11000E-19-3.91767E-18
 -1       118 9.52325E-05-2.85698E-05-2.85707E-05-3.26210E-11-6.04567E-20-8.82433E-18
 -1       119 9.52220E-05-2.85666E-05-2.85673E-05-5.07162E-10-2.44508E-19-6.96175E-18
 -1       120 9.52237E-05-2.85671E-05-2.85674E-05-1.12135E-09 2.34387E-19-8.14662E-18
 -1       121 9.52322E-05-2.85697E-05-2.85690E-05-1.78655E-09 1.33216E-18-8.46941E-18
 -1       122 9.52386E-05-2.85763E-05-2.85691E-05-2.11463E-09-8.41989E-18 1.00142E-18
 -1       123 9.52409E-05-2.85838E-05-2.85678E-05-1.27572E-09-8.52958E-18 4.74128E-19
 -1       124 9.52410E-05-2.85840E-05-2.85679E-05-3.69284E-10-4.43960E-18 4.19915E-19
 -1       125 9.52386E-05-2.85761E-05-2.85701E-05 2.01954E-10-2.88202E-18 7.64403E-20
 -1       126 9.52348E-05-2.85631E-05-2.85737E-05 4.87257E-10-1.22287E-18-9.09329E-19
 -1       127 9.52307E-05-2.85494E-05-2.85775E-05 4.96923E-10-3.90762E-18 3.76136E-20
 -1       128 9.52276E-05-2.85387E-05-2.85805E-05 2.91164E-10-4.55341E-18-3.56197E-20
 -1       129 9.52263E-05-2.85344E-05-2.85817E-05-4.27025E-11-5.73576E-18 2.11760E-19
 -1       130 9.52274E-05-2.85380E-05-2.85807E-05-4.00479E-10-1.73003E-18-8.65275E-19
 -1       131 9.52306E-05-2.85489E-05-2.85776E-05-6.68591E-10 3.47553E-18 5.48490E-19
 -1       132 9.52353E-05-2.85646E-05-2.85732E-05-7.35642E-10 1.19634E-18-9.34535E-19
 -1       133 9.52400E-05-2.85805E-05-2.85687E-05-5.23452E-10-2.52685E-18 4.92086E-19
 -1       134 9.52436E-05-2.85926E-05-2.85654E-05 2.12067E-11 3.18221E-18 1.12204E-19
 -1       135 9.52446E-05-2.85963E-05-2.85644E-05 8.55661E-10 5.20553E-18 3.80591E-19
 -1       136 9.52428E-05-2.85902E-05-2.85658E-05 1.81968E-09 9.90106E-18 6.83693E-19
 -1       137 9.52386E-05-2.85778E-05-2.85682E-05 1.49073E-09-7.58278E-19-9.88147E-19
 -1       138 2.54415E-05-8.60213E-05 1.55567E-05-2.24115E-05 1.10961E-17 3.44684E-18
 -1       139 7.51956E-06-2.74808E-05 1.37014E-06-1.29259E-05 9.07553E-18 2.80855E-18
 -1       140 1.46321E-05 2.20477E-05-1.84268E-05 3.32194E-05 4.76837E-18 3.69560E-18
 -1       141 7.12489E-05 3.08937E-05-4.13421E-05 9.34225E-05 2.92819E-18 3.79767E-18
 -1       142 1.64019E-04-5.55368E-06-6.08197E-05 1.23021E-04 1.46621E-18 2.41913E-18
 -1       143 2.64478E-04-6.16192E-05-7.62489E-05 1.01256E-04-1.53578E-19-1.66611E-18
 -1       144 3.23224E-04-9.89552E-05-8.36381E-05 2.81223E-05-3.86618E-19-7.67560E-18
 -1       145 3.09373E-04-8.98452E-05-8.19670E-05-5.85820E-05 1.05793E-18-7.70864E-18
 -1       146 2.31072E-04-4.19404E-05-7.14455E-05-1.15721E-04 1.65394E-18-6.02706E-18
 -1       147 1.26607E-04 1.22885E-05-5.40487E-05-1.17845E-04 2.19742E-18-2.78716E-18
 -1       148 4.38501E-05 3.43806E-05-3.29199E-05-7.26201E-05 1.60979E-18-1.72625E-18
 -1       149 7.06501E-06 1.07326E-05-1.18374E-05-1.53255E-05 1.54541E-18-1.33874E-18
 -1       150 1.14564E-05-4.50278E-05 6.13375E-06 2.00014E-05 4.19705E-19-3.76294E-19
 -1       151 3.16134E-05-1.01752E-04 1.88728E-05 1.88413E-05-1.13735E-18 6.70930E-19
 -1       152 4.00069E-05-1.24346E-04 2.35411E-05-9.63841E-06 1.00381E-18 2.31266E-19
 -1       153 2.65593E-05-9.97070E-05 1.88856E-05-3.61028E-05-4.23305E-19-1.15964E-19
 -1       154 5.94601E-06-4.45932E-05 5.89389E-06-3.13057E-05-3.13317E-18-2.35285E-18
 -1       155 1.33789E-05 7.11328E-06-1.55522E-05 1.69173E-05-5.60736E-18-4.41855E-18
 -1       156 7.44605E-05 1.79502E-05-4.01671E-05 8.11462E-05-5.19485E-18-7.20486E-18
 -1       157 1.91141E-04-2.09131E-05-6.47641E-05 1.21086E-04-3.30258E-18-5.56924E-18
 -1       158 3.85630E-04-1.20351E-04-9.23907E-05 1.94590E-05-4.97632E-21 5.63489E-19
 -1       159 3.54082E-04-1.02982E-04-8.83890E-05-7.28453E-05-8.54365E-19 4.86705E-18
 -1       160 2.47530E-04-4.71809E-05-7.38719E-05-1.20610E-04-4.02383E-18 9.80271E-18
 -1       161 1.19644E-04 6.12943E-06-5.09592E-05-1.03109E-04-7.99811E-18 1.33916E-17
 -1       162 3.40824E-05 1.86639E-05-2.68372E-05-4.67626E-05-9.63204E-18 1.04710E-17
 -1       163 4.10932E-06-1.47274E-05-4.45835E-06 1.07970E-05-6.80464E-18 4.40330E-18
 -1       164 1.36632E-05-6.99614E-05 1.25080E-05 3.87643E-05-4.34528E-18 2.14839E-18
 -1       165 3.38796E-05-1.14105E-04 2.17439E-05 2.99321E-05-4.60468E-19 1.13427E-18
 -1       166 9.48046E-05-1.23232E-05-3.55326E-05-2.23445E-05 1.46219E-19-2.15596E-18
 -1       167 8.92629E-05-8.45847E-06-3.47910E-05-1.72957E-05 4.30055E-19-1.67834E-18
 -1       168 8.65999E-05-6.51452E-06-3.44326E-05-1.34950E-05 6.75214E-19-1.30623E-18
 -1       169 8.52370E-05-5.50350E-06-3.42542E-05-1.02678E-05 7.77606E-19-9.11348E-19
 -1       170 8.44815E-05-4.91592E-06-3.41681E-05-7.45868E-06 8.00695E-19-4.97592E-19
 -1       171 8.40383E-05-4.55494E-06-3.41254E-05-4.83770E-06 8.39791E-19-1.82946E-19
 -1       172 8.38064E-05-4.36005E-06-3.41059E-05-2.36005E-06 8.94382E-19 1.89352E-19
 -1       173 8.37347E-05-4.30046E-06-3.40997E-05 5.11071E-08 9.50918E-19 4.84668E-19
 -1       174 8.38097E-05-4.36790E-06-3.41042E-05 2.46427E-06 1.00494E-18 7.16140E-19
 -1       175 8.40477E-05-4.57265E-06-3.41221E-05 4.94817E-06 9.01978E-19 1.01148E-18
 -1       176 8.44916E-05-4.93949E-06-3.41629E-05 7.53440E-06 8.53512E-19 1.43861E-18
 -1       177 8.52766E-05-5.55719E-06-3.42499E-05 1.04090E-05 8.03561E-19 1.96851E-18
 -1       178 8.66768E-05-6.60815E-06-3.44301E-05 1.36700E-05 6.82570E-19 2.47777E-18
 -1       179 8.94025E-05-8.60829E-06-3.47923E-05 1.75263E-05 3.00121E-19 3.09229E-18
 -1       180 9.57493E-05-1.36217E-05-3.54092E-05 2.17991E-05-7.41021E-20 3.68968E-18
 -1       181 1.05514E-04-2.60828E-05-3.52303E-05 1.85942E-05-3.78485E-19 4.05766E-18
 -1       182 1.03529E-04-2.70610E-05-3.27741E-05-1.25372E-05 8.61856E-20-2.36587E-18
 -1       183 9.72807E-05-2.82590E-05-2.96197E-05-4.90557E-06-5.66586E-20-2.12928E-18
 -1       184 9.36448E-05-2.76565E-05-2.82336E-05-1.79640E-06 3.77790E-20-1.96872E-18
 -1       185 9.21181E-05-2.74345E-05-2.76850E-05-3.75009E-07 5.71598E-20-2.04942E-18
 -1       186 9.16106E-05-2.73791E-05-2.75080E-05 3.55158E-07 2.00804E-19-1.88348E-18
 -1       187 9.16816E-05-2.74455E-05-2.75195E-05 7.41476E-07-6.34228E-20-1.53295E-18
 -1       188 9.21134E-05-2.75968E-05-2.76438E-05 9.86513E-07 9.35636E-20-1.62043E-18
 -1       189 9.27874E-05-2.78038E-05-2.78456E-05 1.16243E-06-7.99880E-20-1.38013E-18
 -1       190 9.36525E-05-2.80533E-05-2.81095E-05 1.33641E-06 1.60011E-19-1.29825E-18
 -1       191 9.47108E-05-2.83452E-05-2.84369E-05 1.56987E-06 4.86788E-20-8.84583E-19
 -1       192 9.60119E-05-2.86908E-05-2.88444E-05 1.92883E-06 1.29202E-19-1.33039E-18
 -1       193 9.76543E-05-2.91120E-05-2.93650E-05 2.49837E-06 7.91298E-20-1.67155E-18
 -1       194 9.96752E-05-2.96181E-05-3.00105E-05 3.33177E-06 2.83144E-20-1.20881E-18
 -1       195 1.02492E-04-3.03086E-05-3.09185E-05 4.64766E-06 3.42906E-19-4.39435E-19
 -1       196 1.06301E-04-3.12400E-05-3.21516E-05 6.58928E-06 5.68273E-20-1.35335E-19
 -1       197 1.11441E-04-3.25327E-05-3.38070E-05 9.28393E-06 5.14788E-19-8.47488E-20
 -1       198 1.18245E-04-3.43993E-05-3.59380E-05 1.26367E-05 7.67468E-19 2.43757E-19
 -1       199 1.26912E-04-3.72383E-05-3.84446E-05 1.58436E-05 9.09551E-20-2.89116E-20
 -1       200 1.37273E-04-4.17440E-05-4.09294E-05 1.65380E-05 1.58465E-19-4.75000E-19
 -1       201 1.47961E-04-4.81300E-05-4.27030E-05 1.06170E-05 1.57389E-19-2.22048E-19
 -1       202 1.57750E-04-5.52039E-05-4.38895E-05-6.76578E-06-1.20689E-19-4.41493E-19
 -1       203 1.60636E-04-5.50595E-05-4.55296E-05-2.78085E-05-1.19342E-18-3.70196E-19
 -1       204 1.54225E-04-4.18626E-05-4.90201E-05-3.29342E-05-7.06955E-19-6.43513E-19
 -1       205 1.46923E-04-2.88374E-05-5.17676E-05-9.85605E-06-5.45066E-19-1.10111E-18
 -1       206 1.54949E-04-4.97069E-05-4.57035E-05 3.14454E-05-2.13251E-18-6.59907E-18
 -1       207 1.60226E-04-5.47239E-05-4.50802E-05 1.34580E-05 1.28134E-19-7.38934E-18
 -1       208 1.54424E-04-5.01949E-05-4.44706E-05-5.69712E-06 1.46342E-18-6.50368E-18
 -1       209 1.43685E-04-4.39639E-05-4.26859E-05-1.39939E-05 8.96392E-19-5.43169E-18
 -1       210 1.32910E-04-3.93980E-05-4.01005E-05-1.45353E-05 4.10498E-19-3.77079E-18
 -1       211 1.22887E-04-3.60332E-05-3.72544E-05-1.19382E-05 1.25328E-18-2.31599E-18
 -1       212 1.14961E-04-3.37479E-05-3.48172E-05-8.79904E-06 1.01688E-18-2.51316E-18
 -1       213 1.09044E-04-3.21632E-05-3.29457E-05-6.15128E-06-9.32282E-19-1.68944E-18
 -1       214 1.04788E-04-3.10573E-05-3.15900E-05-4.19162E-06 7.75728E-19-1.75602E-18
 -1       215 1.01793E-04-3.02848E-05-3.06370E-05-2.82421E-06 5.94807E-19-1.88671E-18
 -1       216 9.97132E-05-2.97473E-05-2.99771E-05-1.89517E-06 2.85442E-19-1.96691E-18
 -1       217 9.83317E-05-2.93874E-05-2.95416E-05-1.29693E-06-6.14046E-19-1.88127E-18
 -1       218 9.73176E-05-2.91210E-05-2.92226E-05-8.71741E-07 2.33028E-19-2.68031E-18
 -1       219 9.66210E-05-2.89369E-05-2.90042E-05-5.85464E-07-6.20931E-19-1.44155E-18
 -1       220 9.61427E-05-2.88097E-05-2.88547E-05-3.92253E-07 1.78245E-19-1.28697E-18
 -1       221 9.58158E-05-2.87224E-05-2.87527E-05-2.60976E-07 2.36827E-18 5.12559E-19
 -1       222 9.55944E-05-2.86631E-05-2.86837E-05-1.71225E-07 7.54129E-19 8.91541E-19
 -1       223 9.54467E-05-2.86236E-05-2.86377E-05-1.09439E-07 2.72426E-18 2.54702E-18
 -1       224 9.53542E-05-2.85990E-05-2.86088E-05-6.85959E-08-1.00194E-18 2.99594E-18
 -1       225 9.52924E-05-2.85827E-05-2.85895E-05-3.85877E-08-8.59345E-19 2.95869E-18
 -1       226 9.52565E-05-2.85734E-05-2.85782E-05-1.76857E-08-2.18043E-20 2.37037E-18
 -1       227 9.52384E-05-2.85691E-05-2.85724E-05-3.29423E-09-9.70298E-19 6.79309E-19
 -1       228 9.52322E-05-2.85682E-05-2.85702E-05 5.96458E-09-7.41956E-19-6.19888E-19
 -1       229 9.52332E-05-2.85700E-05-2.85697E-05 9.47592E-09 1.96245E-18-2.32619E-18
 -1       230 9.52365E-05-2.85739E-05-2.85695E-05 7.99340E-09 1.19953E-19-3.73999E-18
 -1       231 9.94539E-05-2.85386E-05-3.05714E-05 7.15766E-06-3.37701E-19 3.78641E-18
 -1       232 9.44421E-05-2.77840E-05-2.85321E-05 2.71006E-06-2.24245E-19 3.83282E-18
 -1       233 9.22023E-05-2.74379E-05-2.77086E-05 8.52101E-07-9.00138E-20 3.72805E-18
 -1       234 9.13289E-05-2.73088E-05-2.74111E-05-4.84558E-08-1.12187E-19 3.68512E-18
 -1       235 9.12074E-05-2.73189E-05-2.73679E-05-5.02035E-07-2.29916E-19 3.80428E-18
 -1       236 9.15168E-05-2.74359E-05-2.74570E-05-7.33458E-07-2.76595E-19 3.96399E-18
 -1       237 9.20640E-05-2.76141E-05-2.76182E-05-8.42004E-07 1.02986E-19 4.07358E-18
 -1       238 9.27322E-05-2.78235E-05-2.78165E-05-8.76519E-07-2.03165E-19 4.26512E-18
 -1       239 9.34461E-05-2.80447E-05-2.80288E-05-8.60642E-07 1.09427E-19 4.54661E-18
 -1       240 9.41500E-05-2.82637E-05-2.82374E-05-8.01378E-07 3.66613E-19 4.07631E-18
 -1       241 9.47930E-05-2.84674E-05-2.84263E-05-6.92867E-07 9.83697E-19 3.65794E-18
 -1       242 9.53175E-05-2.86406E-05-2.85774E-05-5.18913E-07 6.14503E-19 2.84356E-18
 -1       243 9.56521E-05-2.87630E-05-2.86687E-05-2.56453E-07-3.19705E-21 2.45562E-18
 -1       244 9.57082E-05-2.88073E-05-2.86738E-05 1.18189E-07 1.66195E-19 2.37026E-18
 -1       245 9.53843E-05-2.87395E-05-2.85639E-05 6.18761E-07 2.01898E-19 3.10594E-18
 -1       246 9.45806E-05-2.85220E-05-2.83120E-05 1.23401E-06-4.67470E-19 2.61104E-18
 -1       247 9.32269E-05-2.81222E-05-2.79024E-05 1.91081E-06 1.98201E-20 2.49441E-18
 -1       248 9.13218E-05-2.75267E-05-2.73405E-05 2.54260E-06-1.78458E-19 2.99746E-18
 -1       249 8.89747E-05-2.67586E-05-2.66633E-05 2.97457E-06-4.25405E-20 3.30031E-18
 -1       250 8.64316E-05-2.58937E-05-2.59442E-05 3.03653E-06-4.22756E-19 3.44631E-18
 -1       251 8.40621E-05-2.50619E-05-2.52856E-05 2.60435E-06-5.93850E-20 3.81451E-18
 -1       252 8.22900E-05-2.44245E-05-2.47994E-05 1.66975E-06 2.94789E-19 3.96377E-18
 -1       253 8.14766E-05-2.41263E-05-2.45780E-05 3.78128E-07 1.75493E-19 4.43189E-18
 -1       254 8.18014E-05-2.42411E-05-2.46666E-05-1.00092E-06-3.15841E-19 4.08260E-18
 -1       255 8.31977E-05-2.47419E-05-2.50488E-05-2.16678E-06 7.85899E-19 3.72113E-18
 -1       256 8.53786E-05-2.55127E-05-2.56523E-05-2.89749E-06 4.36425E-19 3.96602E-18
 -1       257 8.79382E-05-2.63944E-05-2.63718E-05-3.11721E-06 1.56682E-19 2.98736E-18
 -1       258 9.04762E-05-2.72392E-05-2.70990E-05-2.89341E-06-3.01334E-20 2.82282E-18
 -1       259 9.26915E-05-2.79463E-05-2.77473E-05-2.37991E-06-7.10672E-19 3.29531E-18
 -1       260 9.44199E-05-2.84710E-05-2.82650E-05-1.74681E-06 1.46386E-20 3.25214E-18
 -1       261 9.56233E-05-2.88140E-05-2.86350E-05-1.13039E-06 8.59425E-19 3.49353E-18
 -1       262 9.63516E-05-2.90032E-05-2.88665E-05-6.13218E-07 6.86087E-19 2.17525E-18
 -1       263 9.67006E-05-2.90771E-05-2.89844E-05-2.27903E-07 8.54066E-19 1.07459E-18
 -1       264 9.67785E-05-2.90738E-05-2.90187E-05 2.80444E-08 3.85429E-19 7.17462E-19
 -1       265 9.66837E-05-2.90250E-05-2.89984E-05 1.75990E-07 4.50063E-19 9.84084E-20
 -1       266 9.64950E-05-2.89545E-05-2.89471E-05 2.43690E-07 3.82793E-19-4.99112E-19
 -1       267 9.62693E-05-2.88782E-05-2.88825E-05 2.57659E-07-6.54046E-19-1.07842E-18
 -1       268 9.60437E-05-2.88061E-05-2.88164E-05 2.39567E-07-5.75137E-19-6.86075E-19
 -1       269 9.58398E-05-2.87432E-05-2.87557E-05 2.05307E-07-1.82227E-19-1.37391E-19
 -1       270 9.56676E-05-2.86915E-05-2.87039E-05 1.65497E-07-8.45735E-19 1.74637E-18
 -1       271 9.55300E-05-2.86511E-05-2.86621E-05 1.26556E-07-7.13575E-19 9.45042E-19
 -1       272 9.54251E-05-2.86208E-05-2.86301E-05 9.18745E-08 4.49878E-19 1.83594E-18
 -1       273 9.53490E-05-2.85993E-05-2.86068E-05 6.28211E-08 2.04727E-18 4.16295E-19
 -1       274 9.52969E-05-2.85849E-05-2.85907E-05 3.95286E-08 2.60232E-18-1.65422E-18
 -1       275 9.52639E-05-2.85760E-05-2.85804E-05 2.14743E-08 4.43321E-19-2.13688E-18
 -1       276 9.52456E-05-2.85713E-05-2.85746E-05 7.96881E-09-3.66895E-19-2.89458E-18
 -1       277 9.52375E-05-2.85698E-05-2.85718E-05-1.45210E-09 1.38674E-18-4.12295E-18
 -1       278 9.52364E-05-2.85712E-05-2.85706E-05-5.72414E-09-1.27022E-18-4.55369E-18
 -1       279 9.52386E-05-2.85715E-05-2.85715E-05-3.97231E-09-2.82112E-18 2.22918E-19
 -1       280 9.52386E-05-2.85677E-05-2.85732E-05 2.93435E-09-1.76414E-18 1.95825E-18
 -1       281 9.52355E-05-2.85592E-05-2.85756E-05 1.01196E-08-1.62266E-18 1.10495E-18
 -1       282 9.52308E-05-2.85472E-05-2.85787E-05 1.47496E-08-1.60557E-18 1.46355E-18
 -1       283 9.52257E-05-2.85343E-05-2.85820E-05 1.52307E-08-6.40261E-19-1.63760E-18
 -1       284 9.52212E-05-2.85230E-05-2.85850E-05 1.16232E-08-1.71706E-18-2.31952E-18
 -1       285 9.52184E-05-2.85159E-05-2.85869E-05 4.85984E-09-1.61132E-18-1.45296E-18
 -1       286 9.52179E-05-2.85147E-05-2.85872E-05-3.40034E-09-7.84167E-19 2.41965E-18
 -1       287 9.52199E-05-2.85199E-05-2.85858E-05-1.11423E-08 1.12320E-18 1.43904E-18
 -1       288 9.52241E-05-2.85304E-05-2.85830E-05-1.63631E-08 1.33287E-18-1.29474E-18
 -1       289 9.52294E-05-2.85438E-05-2.85795E-05-1.75194E-08 2.27925E-18-3.40726E-18
 -1       290 9.52349E-05-2.85576E-05-2.85760E-05-1.39947E-08 1.25141E-18 1.94337E-18
 -1       291 9.52391E-05-2.85685E-05-2.85731E-05-6.41534E-09 6.33503E-19 6.62222E-19
 -1       292 9.52407E-05-2.85744E-05-2.85713E-05 2.93820E-09-1.54572E-18 9.88859E-19
 -1       293 9.52397E-05-2.85762E-05-2.85700E-05 8.49559E-09-8.58634E-19-2.76491E-18
 -1       294 1.34374E-05-4.77965E-05 1.18946E-05 1.74090E-05 2.63586E-18 2.95085E-18
 -1       295 3.04557E-05-4.29509E-05 3.01085E-06 2.99908E-05 2.76239E-18-3.73012E-19
 -1       296 5.89389E-05-3.51689E-05-1.15150E-05 4.25513E-05 3.09315E-18 3.98953E-19
 -1       297 1.04122E-04-3.43670E-05-2.99417E-05 4.97606E-05 2.48562E-18 4.84291E-19
 -1       298 1.43671E-04-2.74217E-05-4.84554E-05 5.40176E-05 1.58130E-18 7.51530E-19
 -1       299 1.83942E-04-3.16234E-05-6.30635E-05 3.83377E-05 1.91321E-18-8.11669E-19
 -1       300 2.17174E-04-3.69019E-05-7.38074E-05 2.30111E-05 2.47725E-18-2.60611E-18
 -1       301 2.25486E-04-3.85224E-05-7.63541E-05-4.86623E-06 2.42357E-19-4.29631E-18
 -1       302 2.05703E-04-3.40262E-05-7.05568E-05-2.96662E-05 1.72583E-20-3.45928E-18
 -1       303 1.72243E-04-2.98193E-05-5.87489E-05-4.97979E-05 3.89820E-19-3.61281E-18
 -1       304 1.28205E-04-2.88829E-05-4.17215E-05-5.27983E-05 3.07049E-19-2.12669E-18
 -1       305 8.22405E-05-2.89633E-05-2.33828E-05-4.88653E-05 8.17599E-19-7.52165E-19
 -1       306 4.74643E-05-3.67726E-05-6.41482E-06-3.70685E-05 1.68983E-19-1.16573E-18
 -1       307 2.39635E-05-4.55533E-05 6.56802E-06-2.54893E-05 7.02190E-19-7.62541E-19
 -1       308 1.18407E-05-5.16119E-05 1.38327E-05-1.25021E-05 7.71965E-19 4.03188E-19
 -1       309 1.21266E-05-5.04635E-05 1.32301E-05 2.24048E-06-1.02173E-20-6.66403E-19
 -1       310 2.83234E-05-5.10266E-05 6.12480E-06 1.37940E-05-1.02533E-18-2.81321E-18
 -1       311 6.30944E-05-4.73670E-05-9.35992E-06 2.94265E-05-1.42725E-18-2.73528E-18
 -1       312 1.14787E-04-4.93531E-05-2.92373E-05 3.66111E-05-1.94902E-18-2.90956E-18
 -1       313 1.69444E-04-5.03637E-05-4.99425E-05 3.49427E-05-3.05038E-18-1.80460E-18
 -1       314 2.17077E-04-5.11813E-05-6.74150E-05 1.90362E-05-2.25883E-18-6.76356E-19
 -1       315 2.48056E-04-4.94938E-05-7.89967E-05 8.93703E-06-1.54202E-18-9.92299E-19
 -1       316 2.41838E-04-4.35227E-05-7.93801E-05-1.81076E-06-1.89587E-18-1.04651E-18
 -1       317 2.33227E-04-5.07435E-05-7.33460E-05-1.60332E-05-3.86205E-18 1.40544E-18
 -1       318 1.92702E-04-5.35963E-05-5.76298E-05-2.28910E-05-5.58036E-18 3.47749E-18
 -1       319 1.37088E-04-4.78884E-05-3.85612E-05-3.83571E-05-4.23114E-18 7.68937E-18
 -1       320 8.37784E-05-4.57056E-05-1.85552E-05-3.35905E-05-3.44382E-18 6.74429E-18
 -1       321 4.54545E-05-4.83419E-05-1.78444E-06-2.35799E-05-2.85620E-18 4.23587E-18
 -1       322 2.04169E-05-5.29698E-05 1.02300E-05-8.20897E-06-1.87152E-18 3.41757E-18
 -1       323 1.15604E-05-5.56211E-05 1.51344E-05 3.70636E-06 1.09574E-18 4.36063E-18
 -1       324 1.50399E-04-3.58452E-05-5.01336E-05 2.66492E-05-3.52027E-18-2.19403E-18
 -1       325 9.16776E-05-1.44520E-05-3.31743E-05-1.28619E-05 6.19366E-19-1.29144E-18
 -1       326 9.57058E-05-1.91161E-05-3.28872E-05-1.45369E-05 3.84493E-19-1.55644E-18
 -1       327 8.80261E-05-1.03215E-05-3.33569E-05-8.03296E-06 8.85999E-19-6.45843E-19
 -1       328 8.71856E-05-9.36960E-06-3.33979E-05-5.62017E-06 9.58861E-19-2.50351E-19
 -1       329 8.67023E-05-8.81682E-06-3.34240E-05-3.30423E-06 1.09764E-18 1.07021E-19
 -1       330 8.64822E-05-8.56495E-06-3.34361E-05-1.05203E-06 1.18340E-18 4.24761E-19
 -1       331 8.64879E-05-8.57503E-06-3.34343E-05 1.17960E-06 1.22306E-18 5.79003E-19
 -1       332 8.67210E-05-8.84855E-06-3.34186E-05 3.43484E-06 1.11171E-18 7.17728E-19
 -1       333 8.72111E-05-9.41457E-06-3.33897E-05 5.71655E-06 1.02740E-18 1.07827E-18
 -1       334 8.80720E-05-1.03947E-05-3.33455E-05 8.13412E-06 9.75609E-19 1.51977E-18
 -1       335 8.95009E-05-1.20039E-05-3.32802E-05 1.06378E-05 7.30558E-19 1.97430E-18
 -1       336 9.19158E-05-1.47307E-05-3.31615E-05 1.30191E-05 4.40404E-19 2.35075E-18
 -1       337 9.58932E-05-1.95885E-05-3.28060E-05 1.41720E-05 1.17718E-19 2.87166E-18
 -1       338 9.87631E-05-2.44475E-05-3.19345E-05 1.17635E-05-1.50917E-19 3.16617E-18
 -1       339 9.63586E-05-2.67771E-05-2.97928E-05 5.63050E-06-2.27256E-19 2.85763E-18
 -1       340 9.65330E-05-2.59285E-05-3.02170E-05-6.44727E-06 1.17675E-19-1.33161E-18
 -1       341 9.50647E-05-2.69948E-05-2.91471E-05-2.80265E-06 1.07194E-19-1.24910E-18
 -1       342 9.41368E-05-2.74119E-05-2.85808E-05-7.69916E-07 3.07871E-19-1.12166E-18
 -1       343 9.37088E-05-2.76268E-05-2.83131E-05 3.72930E-07 3.12232E-19-8.06003E-19
 -1       344 9.36247E-05-2.77917E-05-2.82100E-05 1.11516E-06 3.62642E-20-6.96058E-19
 -1       345 9.38092E-05-2.79320E-05-2.82305E-05 1.60762E-06 2.68242E-19-4.57986E-19
 -1       346 9.41891E-05-2.80555E-05-2.83406E-05 1.99874E-06 1.89788E-19-2.41830E-19
 -1       347 9.47226E-05-2.81593E-05-2.85242E-05 2.40309E-06-6.16458E-20-6.90160E-19
 -1       348 9.53935E-05-2.82347E-05-2.87780E-05 2.92550E-06-3.74608E-19-1.12848E-18
 -1       349 9.62023E-05-2.82659E-05-2.91090E-05 3.67902E-06-9.56514E-20-1.31847E-18
 -1       350 9.71139E-05-2.82385E-05-2.95084E-05 4.72912E-06 3.08227E-19-9.77325E-19
 -1       351 9.82388E-05-2.81224E-05-3.00360E-05 6.33758E-06 6.97540E-19-6.03698E-19
 -1       352 9.95432E-05-2.78943E-05-3.06884E-05 8.65045E-06 6.73659E-19-3.12083E-19
 -1       353 1.01041E-04-2.75852E-05-3.14600E-05 1.18419E-05 8.22730E-20 2.31260E-19
 -1       354 1.02799E-04-2.74048E-05-3.22920E-05 1.59722E-05 8.29194E-19-1.53110E-19
 -1       355 1.05150E-04-2.80546E-05-3.30221E-05 2.07394E-05 3.79562E-19-1.81102E-19
 -1       356 1.09231E-04-3.12937E-05-3.33559E-05 2.49915E-05-3.30508E-20 3.11036E-19
 -1       357 1.17077E-04-3.94068E-05-3.31720E-05 2.61097E-05 6.82510E-19 8.04337E-19
 -1       358 1.33945E-04-5.58402E-05-3.33134E-05 1.92912E-05 4.53666E-19 1.22904E-18
 -1       359 1.56849E-04-7.01963E-05-3.72164E-05 2.76680E-06-1.17335E-18 9.11090E-19
 -1       360 1.04545E-04-5.34597E-05-2.19139E-05 4.73851E-05 1.55642E-18 9.42959E-19
 -1       361 1.44834E-04-5.98169E-05-3.63599E-05-1.00426E-05 1.99728E-18-1.68825E-18
 -1       362 1.26927E-04-4.43755E-05-3.52558E-05-2.22921E-05 2.15832E-18-1.76986E-18
 -1       363 1.16683E-04-3.49023E-05-3.50168E-05-2.39987E-05 9.61075E-19-1.68218E-18
 -1       364 1.10605E-04-3.04989E-05-3.43158E-05-2.07989E-05 1.42686E-18-8.92429E-19
 -1       365 1.06796E-04-2.90571E-05-3.32963E-05-1.61775E-05 1.24084E-18-9.45142E-19
 -1       366 1.04027E-04-2.87315E-05-3.22448E-05-1.18719E-05 1.48739E-18-4.08387E-19
 -1       367 1.01872E-04-2.87258E-05-3.13259E-05-8.43430E-06-7.75766E-19-5.01074E-19
 -1       368 1.00180E-04-2.87634E-05-3.05893E-05-5.88761E-06-2.38246E-19-1.53115E-18
 -1       369 9.88724E-05-2.87776E-05-3.00273E-05-4.07444E-06-1.39333E-19-2.83095E-18
 -1       370 9.79163E-05-2.87629E-05-2.96279E-05-2.85964E-06-6.43615E-19-2.58942E-18
 -1       371 9.71554E-05-2.87329E-05-2.93174E-05-1.96740E-06-6.77529E-19-1.68081E-18
 -1       372 9.65933E-05-2.86976E-05-2.90938E-05-1.35190E-06 1.39010E-19-2.07375E-18
 -1       373 9.61821E-05-2.86637E-05-2.89335E-05-9.26939E-07 5.86874E-19-1.07297E-18
 -1       374 9.58843E-05-2.86345E-05-2.88193E-05-6.32555E-07 1.56073E-18 8.90056E-19
 -1       375 9.56710E-05-2.86113E-05-2.87385E-05-4.27813E-07 1.11610E-18 5.75691E-19
 -1       376 9.55205E-05-2.85939E-05-2.86819E-05-2.84874E-07 1.18543E-18 6.16039E-20
 -1       377 9.54200E-05-2.85819E-05-2.86442E-05-1.88927E-07 1.45231E-18-1.78103E-18
 -1       378 9.53473E-05-2.85735E-05-2.86169E-05-1.17494E-07-5.78552E-19 2.55579E-19
 -1       379 9.52994E-05-2.85685E-05-2.85987E-05-6.74297E-08 1.50954E-19 1.16258E-18
 -1       380 9.52692E-05-2.85661E-05-2.85869E-05-3.26568E-08-1.34559E-18 6.40542E-19
 -1       381 9.52513E-05-2.85658E-05-2.85793E-05-9.17046E-09-6.90345E-19 1.27235E-18
 -1       382 9.52420E-05-2.85684E-05-2.85743E-05 4.87009E-09-1.38228E-18 8.60985E-19
 -1       383 9.42565E-05-2.72903E-05-2.86752E-05 1.54169E-06-7.79998E-20 2.57561E-18
 -1       384 9.35692E-05-2.75570E-05-2.82789E-05 8.37187E-08-9.17120E-20 2.51686E-18
 -1       385 9.33160E-05-2.77198E-05-2.81070E-05-7.33047E-07-1.86296E-19 1.96667E-18
 -1       386 9.33741E-05-2.78757E-05-2.80682E-05-1.18501E-06-2.26562E-19 2.04804E-18
 -1       387 9.36305E-05-2.80378E-05-2.81102E-05-1.41514E-06-2.53882E-19 2.14394E-18
 -1       388 9.40066E-05-2.82092E-05-2.81990E-05-1.50066E-06-1.34370E-19 2.08516E-18
 -1       389 9.44464E-05-2.83910E-05-2.83103E-05-1.47831E-06 4.45980E-19 2.17276E-18
 -1       390 9.49065E-05-2.85841E-05-2.84256E-05-1.35607E-06 1.05519E-18 2.20662E-18
 -1       391 9.53478E-05-2.87881E-05-2.85282E-05-1.11954E-06 1.23333E-18 2.22854E-18
 -1       392 9.57276E-05-2.89975E-05-2.86024E-05-7.37879E-07 3.37982E-19 2.25778E-18
 -1       393 9.59934E-05-2.91973E-05-2.86319E-05-1.72540E-07-3.29562E-19 2.04578E-18
 -1       394 9.60793E-05-2.93575E-05-2.86012E-05 6.08187E-07-2.57980E-19 1.94091E-18
 -1       395 9.59060E-05-2.94278E-05-2.84975E-05 1.60694E-06 2.73147E-19 1.62166E-18
 -1       396 9.53898E-05-2.93388E-05-2.83144E-05 2.76881E-06-2.48526E-19 1.68010E-18
 -1       397 9.44634E-05-2.90128E-05-2.80558E-05 3.95434E-06-4.60732E-19 1.84235E-18
 -1       398 9.31117E-05-2.83929E-05-2.77393E-05 4.92997E-06-3.45833E-19 2.04878E-18
 -1       399 9.14158E-05-2.74856E-05-2.73972E-05 5.39738E-06-3.57386E-19 2.26440E-18
 -1       400 8.95869E-05-2.64033E-05-2.70726E-05 5.07687E-06-3.75940E-19 3.01678E-18
 -1       401 8.79564E-05-2.53722E-05-2.68116E-05 3.83370E-06 1.98584E-19 3.43569E-18
 -1       402 8.68957E-05-2.46732E-05-2.66540E-05 1.79021E-06 6.60487E-20 3.74397E-18
 -1       403 8.66814E-05-2.45253E-05-2.66250E-05-6.59139E-07-2.92673E-19 3.51727E-18
 -1       404 8.73755E-05-2.49773E-05-2.67305E-05-2.96986E-06 4.29679E-19 3.38675E-18
 -1       405 8.87982E-05-2.58836E-05-2.69554E-05-4.65298E-06 5.48031E-19 4.17151E-18
 -1       406 9.06107E-05-2.69794E-05-2.72672E-05-5.44761E-06 6.15664E-19 3.67674E-18
 -1       407 9.24511E-05-2.80011E-05-2.76225E-05-5.37268E-06 4.19108E-19 3.93324E-18
 -1       408 9.40476E-05-2.87788E-05-2.79767E-05-4.65410E-06-1.20247E-19 3.83181E-18
 -1       409 9.52611E-05-2.92590E-05-2.82929E-05-3.59581E-06-1.42935E-19 2.99193E-18
 -1       410 9.60691E-05-2.94751E-05-2.85470E-05-2.47100E-06 8.01257E-19 2.17886E-18
 -1       411 9.65222E-05-2.95007E-05-2.87296E-05-1.46631E-06 7.65638E-19 2.90266E-18
 -1       412 9.67026E-05-2.94132E-05-2.88432E-05-6.74748E-07 1.15711E-18 3.34792E-18
 -1       413 9.66953E-05-2.92740E-05-2.88984E-05-1.16456E-07 1.48445E-18 2.33048E-18
 -1       414 9.65733E-05-2.91241E-05-2.89091E-05 2.32888E-07 4.30621E-19 2.58095E-18
 -1       415 9.63925E-05-2.89860E-05-2.88897E-05 4.17538E-07 1.71747E-19 3.46858E-18
 -1       416 9.61918E-05-2.88699E-05-2.88527E-05 4.85110E-07 6.49817E-19 3.26888E-18
 -1       417 9.59963E-05-2.87780E-05-2.88078E-05 4.77536E-07 4.11197E-19 1.41333E-18
 -1       418 9.58201E-05-2.87085E-05-2.87618E-05 4.27497E-07-6.31140E-19-7.51593E-19
 -1       419 9.56700E-05-2.86579E-05-2.87191E-05 3.58170E-07-1.55534E-18 3.20321E-19
 -1       420 9.55477E-05-2.86223E-05-2.86819E-05 2.84592E-07-1.79178E-18 1.23890E-18
 -1       421 9.54518E-05-2.85982E-05-2.86511E-05 2.15554E-07 8.16441E-20 8.83732E-19
 -1       422 9.53793E-05-2.85825E-05-2.86268E-05 1.55441E-07 1.86912E-18 2.81736E-19
 -1       423 9.53265E-05-2.85728E-05-2.86084E-05 1.05777E-07 2.63899E-18 4.76424E-19
 -1       424 9.52896E-05-2.85674E-05-2.85950E-05 6.64016E-08 2.02032E-18 2.11662E-18
 -1       425 9.52651E-05-2.85650E-05-2.85856E-05 3.63918E-08 8.13279E-19 1.45394E-18
 -1       426 9.52499E-05-2.85649E-05-2.85792E-05 1.49464E-08 5.84226E-19 1.88361E-19
 -1       427 9.52422E-05-2.85671E-05-2.85750E-05 2.18813E-09 5.53797E-19 5.13245E-19
 -1       428 9.52312E-05-2.85351E-05-2.85840E-05 2.84586E-08-4.14182E-19 8.08341E-19
 -1       429 9.52395E-05-2.85512E-05-2.85806E-05 1.93796E-08-2.33375E-19 1.83394E-18
 -1       430 9.52215E-05-2.85179E-05-2.85872E-05 3.14790E-08-4.43893E-19-1.51224E-18
 -1       431 9.52121E-05-2.85018E-05-2.85901E-05 2.74779E-08-4.29806E-19-1.25465E-18
 -1       432 9.52049E-05-2.84897E-05-2.85923E-05 1.71851E-08-3.98903E-19-1.90865E-18
 -1       433 9.52014E-05-2.84836E-05-2.85934E-05 2.78444E-09-2.11216E-18 1.16192E-18
 -1       434 9.52022E-05-2.84846E-05-2.85933E-05-1.26293E-08-2.01733E-18 1.58448E-18
 -1       435 9.52074E-05-2.84927E-05-2.85920E-05-2.56294E-08-1.47788E-18 9.84348E-19
 -1       436 9.52159E-05-2.85064E-05-2.85898E-05-3.30524E-08 6.40058E-19-8.19196E-19
 -1       437 9.52264E-05-2.85238E-05-2.85868E-05-3.31602E-08 3.36598E-18-1.82784E-19
 -1       438 9.52365E-05-2.85417E-05-2.85834E-05-2.55651E-08 9.40111E-19-3.20045E-19
 -1       439 9.52431E-05-2.85569E-05-2.85798E-05-1.25484E-08-2.12700E-18-1.96112E-18
 -1       440 9.50047E-05-2.70821E-05-2.90724E-05 3.20106E-06-7.89395E-20 2.81314E-18
 -1       441 6.49119E-05-4.22597E-05-9.64149E-06 5.12698E-05 7.86152E-19-5.65156E-19
 -1       442 1.42420E-04-5.22286E-05-3.85564E-05 2.83588E-05 2.09815E-18 6.56451E-20
 -1       443 1.05332E-05-2.03182E-05 4.20574E-06 1.04256E-05-1.76474E-19 5.35484E-18
 -1       444 8.94051E-05-1.18756E-05-3.32929E-05-1.05174E-05 7.59126E-19-9.40855E-19
 -1       445 1.67005E-04-6.89094E-05-4.22970E-05 1.19746E-05-6.35579E-19-2.63427E-18
 -1       446 1.57256E-04-4.08517E-05-4.99653E-05 1.29799E-05 1.64238E-18-3.17637E-19
 -1       447 1.61227E-04-2.03416E-05-6.04982E-05-1.01968E-06 3.12852E-18-9.34171E-19
 -1       448 1.64678E-04-1.15696E-05-6.56388E-05-9.50217E-08 2.42527E-18 7.24213E-20
 -1       449 1.69484E-04-1.50705E-05-6.59664E-05-8.95539E-07-3.51730E-19-1.03068E-18
 -1       450 1.63214E-04-2.89384E-05-5.75320E-05-4.77464E-06-6.17911E-19-1.41095E-18
 -1       451 1.54088E-04-4.51501E-05-4.66407E-05-1.80644E-05-4.47366E-19-1.07912E-18
 -1       452 1.27763E-04-5.38350E-05-3.17185E-05-3.81333E-05-1.16149E-19-5.43266E-19
 -1       453 9.36430E-05-5.10844E-05-1.82199E-05-4.98372E-05-3.92812E-20-1.74409E-19
 -1       454 5.73873E-05-4.00330E-05-7.38977E-06-4.99464E-05 2.06888E-19-4.42892E-19
 -1       455 1.98623E-05-2.76587E-05 3.12112E-06-3.08166E-05 1.50962E-18 2.64486E-19
 -1       456 1.04705E-05-1.99445E-05 4.11846E-06-3.84803E-06 3.12562E-19-1.06409E-18
 -1       457 2.96626E-05-3.00698E-05 1.30455E-07 2.63472E-05-9.14584E-19-2.94217E-18
 -1       458 6.47794E-05-4.72421E-05-7.97390E-06 3.80691E-05-4.37810E-19-2.51241E-18
 -1       459 1.19818E-04-6.52144E-05-2.36909E-05 3.24881E-05-5.21137E-19-1.54192E-18
 -1       460 1.65171E-04-7.27372E-05-3.97289E-05 6.99118E-06-8.24798E-19 9.55347E-19
 -1       461 1.81682E-04-6.24043E-05-5.10929E-05-1.56981E-05-1.48710E-18 1.27860E-18
 -1       462 1.90013E-04-3.99403E-05-6.34465E-05-1.97585E-05-8.28398E-19-1.46748E-19
 -1       463 1.88724E-04-2.91955E-05-6.73366E-05-5.82338E-06-1.32730E-18-7.02190E-19
 -1       464 1.83215E-04-3.36198E-05-6.35454E-05 1.86589E-05-3.61831E-18-1.64314E-18
 -1       465 1.86407E-04-5.07647E-05-5.76975E-05 2.31119E-05-5.74754E-18-1.60682E-18
 -1       466 1.74345E-04-6.94952E-05-4.50289E-05-1.67152E-06-2.90188E-18 1.12041E-18
 -1       467 1.38351E-04-6.80498E-05-3.05466E-05-2.48065E-05-4.00435E-19 4.28398E-18
 -1       468 9.50453E-05-5.78286E-05-1.62679E-05-3.75422E-05-5.85194E-19 4.61635E-18
 -1       469 4.74195E-05-3.84589E-05-4.00207E-06-3.45927E-05-1.67003E-18 3.50608E-18
 -1       470 1.75889E-05-2.74018E-05 3.93916E-06-1.48327E-05-4.87573E-19 5.50603E-18
 -1       471 2.91650E-05-2.87388E-05-1.41589E-07 3.87947E-05 1.46748E-19-1.70465E-20
 -1       472 9.52442E-05-2.85637E-05-2.85773E-05-3.09095E-09-1.67111E-18 1.04622E-18
 -1       473 8.94787E-05-1.32391E-05-3.26931E-05-3.81939E-06 1.01936E-18 3.62487E-20
 -1       474 9.02207E-05-1.42377E-05-3.25853E-05-5.74016E-06 8.94881E-19-3.52924E-19
 -1       475 8.89431E-05-1.25282E-05-3.27668E-05 4.99880E-08 1.15045E-18 4.38738E-19
 -1       476 8.90855E-05-1.27231E-05-3.27446E-05 1.98493E-06 1.14026E-18 4.99154E-19
 -1       477 8.95022E-05-1.32865E-05-3.26829E-05 3.88988E-06 1.05373E-18 7.77510E-19
 -1       478 9.02586E-05-1.43102E-05-3.25702E-05 5.80733E-06 9.38400E-19 1.15086E-18
 -1       479 9.14450E-05-1.59358E-05-3.23842E-05 7.61403E-06 6.27698E-19 1.55634E-18
 -1       480 9.31941E-05-1.83963E-05-3.20766E-05 9.06040E-06 3.41785E-19 1.88449E-18
 -1       481 9.53410E-05-2.18773E-05-3.14958E-05 9.40408E-06 1.50691E-19 2.34799E-18
 -1       482 9.63857E-05-2.46176E-05-3.07463E-05 7.90979E-06-5.35815E-20 2.60242E-18
 -1       483 9.55254E-05-2.42822E-05-3.05233E-05-5.77992E-06 3.54316E-19-9.10491E-19
 -1       484 1.13260E-04-4.85066E-05-2.74449E-05-3.01590E-05 1.71450E-18 4.81724E-19
 -1       485 9.45991E-05-2.06213E-05-3.17230E-05-9.37664E-06 3.74311E-19-1.16109E-18
 -1       486 1.31212E-04-6.05460E-05-3.02613E-05 2.96733E-05 6.92820E-19-1.04169E-18
 -1       487 9.53644E-05-2.60890E-05-2.96805E-05-2.74261E-06 2.97574E-19-6.00093E-19
 -1       488 9.50744E-05-2.69901E-05-2.91738E-05-8.19420E-07 5.74545E-19-5.60936E-19
 -1       489 9.48553E-05-2.75177E-05-2.88561E-05 5.11235E-07 1.55334E-19-4.60473E-19
 -1       490 9.47676E-05-2.78066E-05-2.86958E-05 1.39743E-06 2.18002E-19-2.97880E-19
 -1       491 9.47956E-05-2.79437E-05-2.86494E-05 2.03821E-06 1.26163E-19-1.72045E-19
 -1       492 9.49039E-05-2.79588E-05-2.86893E-05 2.58487E-06-3.50781E-19-3.29348E-19
 -1       493 9.50516E-05-2.78504E-05-2.87986E-05 3.16279E-06-2.40627E-19-4.19705E-19
 -1       494 9.51869E-05-2.75903E-05-2.89669E-05 3.88915E-06 2.45118E-20 1.23632E-19
 -1       495 9.52478E-05-2.71628E-05-2.91752E-05 4.82169E-06 4.51085E-19 1.77740E-19
 -1       496 9.51445E-05-2.64503E-05-2.94336E-05 6.18269E-06 7.10648E-19-1.61827E-19
 -1       497 9.47218E-05-2.53815E-05-2.97075E-05 8.06868E-06 4.77970E-19-1.49754E-19
 -1       498 9.37821E-05-2.38922E-05-2.99392E-05 1.06167E-05 3.04077E-19-5.70071E-19
 -1       499 9.21088E-05-2.20455E-05-3.00093E-05 1.39430E-05 1.72142E-19-6.46247E-19
 -1       500 8.96257E-05-2.02877E-05-2.96905E-05 1.81206E-05 3.70844E-19-1.10899E-18
 -1       501 8.68312E-05-2.00338E-05-2.85835E-05 2.32255E-05 6.42657E-20-9.69555E-19
 -1       502 8.57169E-05-2.42330E-05-2.61609E-05 2.91566E-05 6.75257E-19-1.04125E-18
 -1       503 8.90433E-05-3.62635E-05-2.22264E-05 3.53515E-05 4.32463E-19-8.43618E-19
 -1       504 1.47159E-04-5.15750E-05-4.12196E-05 7.37230E-06 1.59942E-18 1.76659E-19
 -1       505 9.55459E-05-4.98179E-05-1.93042E-05 4.74189E-05 2.31558E-19 4.84132E-20
 -1       506 9.53066E-05-3.03033E-05-2.76534E-05-3.01536E-05 7.18714E-19-5.16664E-19
 -1       507 9.28087E-05-2.34377E-05-2.96624E-05-2.49876E-05 1.58889E-18-6.86623E-19
 -1       508 9.36292E-05-2.22985E-05-3.05472E-05-1.96090E-05 1.37850E-18 1.41113E-19
 -1       509 9.49408E-05-2.32666E-05-3.07011E-05-1.48613E-05 1.66145E-18-8.52352E-19
 -1       510 9.58899E-05-2.46840E-05-3.05029E-05-1.09828E-05-8.28994E-19-1.70115E-18
 -1       511 9.63622E-05-2.59182E-05-3.01793E-05-7.97478E-06-1.83004E-19-9.34406E-19
 -1       512 9.64899E-05-2.68307E-05-2.98457E-05-5.72419E-06-1.31235E-18-2.25706E-18
 -1       513 9.64224E-05-2.74266E-05-2.95638E-05-4.14573E-06 3.65641E-20-2.94927E-18
 -1       514 9.62590E-05-2.78420E-05-2.93176E-05-2.93709E-06-2.19498E-19-2.92843E-18
 -1       515 9.60685E-05-2.81064E-05-2.91239E-05-2.07368E-06-1.12244E-19-2.72015E-18
 -1       516 9.58854E-05-2.82723E-05-2.89752E-05-1.45853E-06 1.21356E-18-1.86112E-18
 -1       517 9.57258E-05-2.83757E-05-2.88631E-05-1.02069E-06 5.44572E-19-1.33333E-18
 -1       518 9.55948E-05-2.84403E-05-2.87797E-05-7.08861E-07 1.14263E-18-1.45520E-18
 -1       519 9.54918E-05-2.84811E-05-2.87183E-05-4.86628E-07 2.40864E-18-3.72004E-19
 -1       520 9.54164E-05-2.85062E-05-2.86754E-05-3.34676E-07-5.42212E-19-1.87165E-18
 -1       521 9.53571E-05-2.85238E-05-2.86426E-05-2.19582E-07 1.36449E-18-2.42060E-18
 -1       522 9.53143E-05-2.85359E-05-2.86191E-05-1.37801E-07 1.08532E-18-1.41697E-18
 -1       523 9.52841E-05-2.85446E-05-2.86025E-05-8.01712E-08-1.53373E-18-2.14551E-18
 -1       524 9.52635E-05-2.85516E-05-2.85907E-05-4.05798E-08 1.18868E-18-1.41144E-18
 -1       525 9.52522E-05-2.85574E-05-2.85834E-05-1.81872E-08-2.53288E-19 1.07663E-18
 -1       526 9.46127E-05-2.78281E-05-2.86204E-05-8.75319E-07-3.49737E-21 1.75846E-18
 -1       527 9.47765E-05-2.74370E-05-2.88561E-05 7.15974E-08 1.55894E-19 1.94945E-18
 -1       528 9.51051E-05-2.67914E-05-2.92732E-05 1.63060E-06 4.33029E-21 2.09588E-18
 -1       529 9.46050E-05-2.80971E-05-2.85028E-05-1.43326E-06-2.32170E-19 1.57481E-18
 -1       530 9.47233E-05-2.83106E-05-2.84624E-05-1.73431E-06 8.83591E-20 9.96385E-19
 -1       531 9.49383E-05-2.85082E-05-2.84703E-05-1.85511E-06-1.61182E-20 9.46540E-19
 -1       532 9.52283E-05-2.87191E-05-2.85045E-05-1.83129E-06 4.34446E-19 1.09555E-18
 -1       533 9.55780E-05-2.89671E-05-2.85485E-05-1.66572E-06 7.76759E-19 1.95078E-18
 -1       534 9.59737E-05-2.92698E-05-2.85888E-05-1.33480E-06 8.79265E-19 2.27762E-18
 -1       535 9.63970E-05-2.96329E-05-2.86152E-05-7.95884E-07 1.99265E-19 2.72740E-18
 -1       536 9.68151E-05-3.00393E-05-2.86208E-05 4.93997E-10 7.40950E-20 2.04973E-18
 -1       537 9.71705E-05-3.04362E-05-2.86035E-05 1.08973E-06 4.79346E-19 1.80496E-18
 -1       538 9.73712E-05-3.07225E-05-2.85671E-05 2.46094E-06-1.96862E-19 1.77026E-18
 -1       539 9.72932E-05-3.07497E-05-2.85217E-05 4.01587E-06-1.15380E-19 1.31395E-18
 -1       540 9.68042E-05-3.03499E-05-2.84825E-05 5.53109E-06-3.89461E-19 1.51621E-18
 -1       541 9.58203E-05-2.94038E-05-2.84645E-05 6.65002E-06-8.98198E-19 2.15403E-18
 -1       542 9.43886E-05-2.79393E-05-2.84762E-05 6.94021E-06-6.46915E-19 2.13633E-18
 -1       543 9.27580E-05-2.62181E-05-2.85130E-05 6.04024E-06-4.79766E-19 2.36062E-18
 -1       544 9.13634E-05-2.47195E-05-2.85561E-05 3.87146E-06-4.80636E-19 3.42669E-18
 -1       545 9.06664E-05-2.39596E-05-2.85825E-05 7.82443E-07-5.04154E-20 3.89455E-18
 -1       546 9.09238E-05-2.42257E-05-2.85789E-05-2.51200E-06 4.80346E-19 3.25598E-18
 -1       547 9.20425E-05-2.54117E-05-2.85511E-05-5.21471E-06 2.49864E-20 3.43668E-18
 -1       548 9.36368E-05-2.70839E-05-2.85194E-05-6.77792E-06 7.49305E-19 2.90023E-18
 -1       549 9.52342E-05-2.87159E-05-2.85069E-05-7.07834E-06 7.56706E-19 3.26759E-18
 -1       550 9.64860E-05-2.99278E-05-2.85260E-05-6.36551E-06 3.92249E-21 2.37353E-18
 -1       551 9.72530E-05-3.05837E-05-2.85750E-05-5.06118E-06-2.23299E-19 2.67854E-18
 -1       552 9.75672E-05-3.07439E-05-2.86416E-05-3.57313E-06 1.18686E-18 2.56297E-18
 -1       553 9.75485E-05-3.05651E-05-2.87102E-05-2.19257E-06 7.50415E-19 2.84106E-18
 -1       554 9.73308E-05-3.02126E-05-2.87675E-05-1.07427E-06 1.15558E-18 1.22497E-18
 -1       555 9.70228E-05-2.98135E-05-2.88060E-05-2.63975E-07 1.34709E-18 2.06054E-18
 -1       556 9.66969E-05-2.94451E-05-2.88235E-05 2.60374E-07 7.34020E-19 3.19912E-18
 -1       557 9.63936E-05-2.91433E-05-2.88223E-05 5.53038E-07-3.21769E-19 3.40619E-18
 -1       558 9.61310E-05-2.89164E-05-2.88066E-05 6.76350E-07 2.31626E-19 2.49753E-18
 -1       559 9.59140E-05-2.87574E-05-2.87815E-05 6.87213E-07 1.25470E-18 3.06762E-18
 -1       560 9.57403E-05-2.86530E-05-2.87516E-05 6.31294E-07 1.09296E-18 3.84165E-18
 -1       561 9.56043E-05-2.85893E-05-2.87205E-05 5.41956E-07-2.90059E-18 4.11888E-18
 -1       562 9.54999E-05-2.85539E-05-2.86910E-05 4.41638E-07-1.81453E-18 3.69265E-18
 -1       563 9.54212E-05-2.85370E-05-2.86645E-05 3.44129E-07-2.11261E-19 1.47027E-18
 -1       564 9.53628E-05-2.85315E-05-2.86418E-05 2.56917E-07 7.07561E-19 2.58326E-19
 -1       565 9.53202E-05-2.85324E-05-2.86232E-05 1.83229E-07 2.31313E-18 7.38940E-20
 -1       566 9.52898E-05-2.85367E-05-2.86084E-05 1.23679E-07 6.06010E-19 1.84748E-18
 -1       567 9.52685E-05-2.85422E-05-2.85969E-05 7.74122E-08 1.86802E-18 3.08035E-18
 -1       568 9.52537E-05-2.85482E-05-2.85880E-05 4.29237E-08 2.11362E-18 2.66694E-18
 -1       569 9.52045E-05-2.84808E-05-2.85959E-05 4.98186E-08 1.21725E-18-1.51224E-18
 -1       570 9.52214E-05-2.85047E-05-2.85929E-05 5.23444E-08 3.83868E-19-6.59618E-19
 -1       571 9.52378E-05-2.85296E-05-2.85892E-05 4.54679E-08 1.84304E-18 3.12603E-19
 -1       572 2.72925E-05-1.31151E-05-5.39465E-06 2.63835E-05-1.20374E-18 3.59248E-18
 -1       573 9.51895E-05-2.84603E-05-2.85982E-05 3.77448E-08 5.02497E-19-3.69530E-18
 -1       574 9.51796E-05-2.84466E-05-2.85999E-05 1.81606E-08-8.06712E-19-3.00781E-18
 -1       575 9.51767E-05-2.84417E-05-2.86007E-05-5.32946E-09 1.53359E-19 2.89353E-18
 -1       576 9.51815E-05-2.84467E-05-2.86007E-05-2.82678E-08-1.46193E-19 3.45968E-18
 -1       577 9.51933E-05-2.84607E-05-2.85997E-05-4.57944E-08 4.72413E-19 6.30800E-19
 -1       578 9.52103E-05-2.84824E-05-2.85977E-05-5.47843E-08 1.44477E-18 7.03020E-19
 -1       579 9.52289E-05-2.85081E-05-2.85946E-05-5.26726E-08 9.37747E-19-1.90731E-18
 -1       580 9.52448E-05-2.85338E-05-2.85904E-05-4.03898E-08-3.14211E-19-1.69528E-18
 -1       581 1.47700E-04-3.14333E-05-5.02980E-05-6.73560E-06 2.54645E-18-4.76403E-19
 -1       582 4.03945E-05-2.14813E-05-7.54267E-06-2.81811E-05 1.24302E-19 4.96372E-18
 -1       583 1.21248E-04-5.92871E-05-2.64396E-05-3.78648E-05-3.02497E-19 1.27955E-19
 -1       584 8.90690E-05-1.26929E-05-3.27505E-05-1.88387E-06 1.12284E-18 3.98501E-19
 -1       585 2.30526E-05-1.08688E-05-4.51333E-06-6.53906E-06-1.30577E-18 4.63094E-18
 -1       586 1.42405E-04-1.60424E-05-5.47466E-05 9.14875E-06-8.37186E-19 7.17860E-20
 -1       587 1.37587E-04-9.94207E-06-5.53760E-05-7.88966E-06 2.26544E-18-3.64886E-19
 -1       588 2.44599E-05-1.13828E-05-4.89773E-06-2.09583E-05-4.99749E-20-7.71647E-19
 -1       589 1.38588E-04-4.64520E-06-5.80728E-05 1.78486E-06 1.26282E-18 2.07351E-19
 -1       590 1.46804E-04-3.93847E-05-4.64936E-05 5.04996E-06-8.26995E-19 4.37545E-19
 -1       591 1.43094E-04-5.73588E-05-3.69189E-05-1.58536E-05-7.38044E-19-6.42316E-19
 -1       592 8.54587E-05-4.58999E-05-1.65932E-05-4.95012E-05-5.58195E-19 1.19140E-19
 -1       593 4.83092E-05-2.67247E-05-8.68038E-06-4.41880E-05 5.99911E-19 9.40260E-19
 -1       594 2.91993E-05-1.24656E-05-6.41922E-06 1.54897E-05-4.58271E-19-2.60547E-18
 -1       595 6.32778E-05-3.28261E-05-1.25047E-05 3.71735E-05-2.95509E-19-2.11065E-18
 -1       596 1.31542E-04-6.61624E-05-2.79758E-05-2.52576E-05 1.53916E-18 2.36644E-18
 -1       597 8.63306E-05-4.48087E-05-1.73470E-05-3.87016E-05 5.54542E-19 1.88084E-18
 -1       598 5.72431E-05-3.04775E-05-1.09143E-05 4.69246E-05-3.53054E-19-6.88479E-19
 -1       599 9.13793E-05-1.58268E-05-3.24028E-05-7.53918E-06 7.68726E-19-6.51768E-19
 -1       600 9.56197E-05-2.58368E-05-2.98847E-05 4.77331E-06-9.67570E-20 2.42811E-18
 -1       601 1.12136E-04-5.96571E-05-2.24082E-05 3.42344E-05-1.16255E-19-1.28416E-18
 -1       602 9.52626E-05-2.63724E-05-2.95117E-05 3.00553E-06-2.92350E-20 2.31626E-18
 -1       603 9.27859E-05-1.78398E-05-3.21407E-05-8.76136E-06 5.94251E-19-8.77388E-19
 -1       604 9.14146E-05-1.66058E-05-3.20665E-05 2.32499E-06 9.18074E-19 5.34672E-19
 -1       605 9.11326E-05-1.61756E-05-3.21297E-05 7.92976E-07 1.08896E-18 4.59620E-19
 -1       606 9.28391E-05-1.88499E-05-3.17159E-05 5.06713E-06 5.61348E-19 9.96636E-19
 -1       607 9.39838E-05-2.08093E-05-3.13676E-05 5.99221E-06 2.41456E-19 1.49520E-18
 -1       608 9.55453E-05-2.41864E-05-3.05701E-05 6.07619E-06 4.41582E-20 2.12160E-18
 -1       609 7.65252E-05-2.95898E-05-1.96476E-05-3.45854E-05 2.53580E-19 9.21492E-19
 -1       610 9.45783E-05-2.20036E-05-3.11027E-05-6.04211E-06 5.25505E-19-7.20674E-19
 -1       611 9.19453E-05-1.74006E-05-3.19535E-05-3.72957E-06 9.00982E-19-8.98209E-20
 -1       612 9.52850E-05-2.46231E-05-3.02823E-05-3.27895E-06 4.13716E-19-5.62134E-19
 -1       613 9.54803E-05-2.61139E-05-2.97286E-05-1.30910E-06 5.25500E-19-5.36148E-19
 -1       614 9.54649E-05-2.70279E-05-2.93305E-05 1.73379E-07 4.52754E-19-6.45796E-19
 -1       615 9.53757E-05-2.75207E-05-2.90810E-05 1.20782E-06 2.11768E-19-1.58826E-19
 -1       616 9.52575E-05-2.77229E-05-2.89435E-05 1.96222E-06-1.06098E-19-2.08184E-19
 -1       617 9.51037E-05-2.76915E-05-2.88908E-05 2.57542E-06-2.97964E-19-8.23463E-20
 -1       618 9.48745E-05-2.74366E-05-2.89014E-05 3.16274E-06-4.10981E-19-2.47366E-19
 -1       619 9.44977E-05-2.69311E-05-2.89561E-05 3.82138E-06 3.15562E-19-3.85527E-19
 -1       620 9.39023E-05-2.61622E-05-2.90298E-05 4.59275E-06 2.98348E-19 2.47643E-20
 -1       621 9.28716E-05-2.49682E-05-2.90991E-05 5.62271E-06 3.08509E-19 6.06012E-20
 -1       622 9.11823E-05-2.32621E-05-2.91059E-05 6.93558E-06 2.77680E-19-7.11903E-19
 -1       623 8.85104E-05-2.09504E-05-2.89515E-05 8.56875E-06 6.14657E-20-1.13470E-18
 -1       624 8.44467E-05-1.80384E-05-2.84567E-05 1.05550E-05 8.83652E-20-1.42353E-18
 -1       625 7.85594E-05-1.48176E-05-2.73028E-05 1.29993E-05-5.02122E-19-1.84915E-18
 -1       626 7.05197E-05-1.21930E-05-2.49164E-05 1.63467E-05-1.07583E-19-2.43276E-18
 -1       627 6.05130E-05-1.18649E-05-2.04778E-05 2.10597E-05 6.53335E-19-2.30213E-18
 -1       628 9.51442E-05-2.83919E-05-2.86081E-05 1.32003E-08 1.93453E-18 7.97089E-19
 -1       629 9.52015E-05-2.84631E-05-2.86022E-05 8.04574E-08 1.51615E-18-7.92099E-19
 -1       630 7.31224E-05-1.66027E-05-2.40200E-05-2.49296E-05 5.66629E-19 8.40561E-19
 -1       631 7.72095E-05-1.47397E-05-2.67198E-05-1.79322E-05 1.28559E-18 9.38125E-19
 -1       632 8.33291E-05-1.69850E-05-2.84157E-05-1.39466E-05-2.16996E-19-8.82357E-19
 -1       633 8.78450E-05-1.97762E-05-2.91651E-05-1.08059E-05 2.41424E-19-2.45871E-18
 -1       634 9.09083E-05-2.22565E-05-2.94173E-05-8.27983E-06 4.83066E-19-2.14530E-18
 -1       635 9.28559E-05-2.41828E-05-2.94276E-05-6.26026E-06-5.89858E-19-1.78460E-18
 -1       636 9.39861E-05-2.55198E-05-2.93399E-05-4.74127E-06-1.21761E-18-6.68167E-19
 -1       637 9.46789E-05-2.65103E-05-2.92132E-05-3.50223E-06-1.16704E-20-4.07961E-19
 -1       638 9.50547E-05-2.71838E-05-2.90862E-05-2.56609E-06-1.20405E-19 2.50730E-19
 -1       639 9.52425E-05-2.76359E-05-2.89734E-05-1.86579E-06 9.08758E-19 2.82598E-19
 -1       640 9.53239E-05-2.79378E-05-2.88792E-05-1.34614E-06 1.89193E-18-1.57832E-18
 -1       641 9.53482E-05-2.81392E-05-2.88035E-05-9.62608E-07 1.44192E-18 1.21532E-19
 -1       642 9.53445E-05-2.82742E-05-2.87441E-05-6.80826E-07 9.59610E-19-9.20554E-19
 -1       643 9.53293E-05-2.83614E-05-2.87003E-05-4.82973E-07-1.59591E-18-2.90716E-18
 -1       644 9.53099E-05-2.84247E-05-2.86650E-05-3.29647E-07 8.71672E-19-2.46116E-18
 -1       645 9.52911E-05-2.84682E-05-2.86383E-05-2.18390E-07 8.55485E-20-3.95100E-18
 -1       646 9.52749E-05-2.84987E-05-2.86183E-05-1.38303E-07 4.30886E-19-3.68614E-18
 -1       647 9.52611E-05-2.85202E-05-2.86032E-05-8.14260E-08 4.87675E-19-9.06221E-19
 -1       648 9.54417E-05-2.72494E-05-2.92246E-05-1.11739E-07 2.58355E-19 1.26237E-18
 -1       649 9.53971E-05-2.78247E-05-2.89594E-05-1.02476E-06 3.41108E-20 1.28126E-18
 -1       650 9.54696E-05-2.63302E-05-2.96293E-05 1.29625E-06 1.46941E-19 1.40259E-18
 -1       651 9.54565E-05-2.84952E-05-2.86978E-05-1.91816E-06 1.49037E-19 5.68993E-19
 -1       652 9.56002E-05-2.87564E-05-2.86475E-05-2.06392E-06 1.60570E-19 2.45301E-19
 -1       653 9.58409E-05-2.90487E-05-2.86254E-05-2.05698E-06 2.49397E-19 2.59904E-19
 -1       654 9.61974E-05-2.94205E-05-2.86191E-05-1.89164E-06 3.17122E-19 8.88475E-19
 -1       655 9.66884E-05-2.99083E-05-2.86206E-05-1.53332E-06 1.90424E-19 9.39536E-19
 -1       656 9.73225E-05-3.05254E-05-2.86281E-05-9.24648E-07 3.35984E-19 7.76191E-19
 -1       657 9.80814E-05-3.12417E-05-2.86466E-05 2.11646E-09 2.22997E-19 1.08367E-18
 -1       658 9.88971E-05-3.19581E-05-2.86893E-05 1.29968E-06 4.06097E-20 1.71344E-18
 -1       659 9.96286E-05-3.24850E-05-2.87770E-05 2.96175E-06-2.82267E-19 2.45223E-18
 -1       660 1.00058E-04-3.25472E-05-2.89342E-05 4.86076E-06-4.18726E-19 2.44892E-18
 -1       661 9.99305E-05-3.18459E-05-2.91794E-05 6.68449E-06-7.95481E-19 1.82723E-18
 -1       662 9.90653E-05-3.02024E-05-2.95117E-05 7.91855E-06-8.31713E-19 1.79538E-18
 -1       663 9.75121E-05-2.77466E-05-2.98972E-05 7.94062E-06-9.99551E-19 1.89235E-18
 -1       664 9.56966E-05-2.50786E-05-3.02628E-05 6.28333E-06-1.04506E-18 2.20754E-18
 -1       665 9.43221E-05-2.31240E-05-3.05115E-05 3.01418E-06-9.02524E-19 1.80699E-18
 -1       666 9.40171E-05-2.26889E-05-3.05678E-05-1.11905E-06 5.42620E-19 1.94239E-18
 -1       667 9.49282E-05-2.39554E-05-3.04150E-05-4.95062E-06 8.77148E-19 2.10248E-18
 -1       668 9.66231E-05-2.63716E-05-3.01055E-05-7.47108E-06 6.66439E-19 1.96722E-18
 -1       669 9.83861E-05-2.90140E-05-2.97299E-05-8.27462E-06 8.69583E-19 1.07994E-18
 -1       670 9.96215E-05-3.10776E-05-2.93756E-05-7.61189E-06 7.30441E-19 9.72942E-19
 -1       671 1.00108E-04-3.22125E-05-2.90984E-05-6.06948E-06 9.21060E-20 1.85288E-18
 -1       672 9.99310E-05-3.24669E-05-2.89141E-05-4.23861E-06 5.94930E-19 1.11243E-18
 -1       673 9.93296E-05-3.21063E-05-2.88111E-05-2.53486E-06 5.93347E-19 6.11607E-19
 -1       674 9.85486E-05-3.14320E-05-2.87653E-05-1.16777E-06 1.40723E-18 1.68665E-18
 -1       675 9.77670E-05-3.06807E-05-2.87521E-05-1.91135E-07 4.07663E-19 2.43168E-18
 -1       676 9.70841E-05-2.99964E-05-2.87524E-05 4.30530E-07-6.35663E-19 3.61054E-18
 -1       677 9.65373E-05-2.94449E-05-2.87542E-05 7.69952E-07 3.21140E-21 4.97105E-18
 -1       678 9.61258E-05-2.90393E-05-2.87515E-05 9.06136E-07 1.06125E-18 4.13351E-18
 -1       679 9.58304E-05-2.87645E-05-2.87426E-05 9.08869E-07 6.10217E-19 4.41228E-18
 -1       680 9.56259E-05-2.85935E-05-2.87281E-05 8.32976E-07 5.02529E-19 4.38352E-18
 -1       681 9.54881E-05-2.84982E-05-2.87099E-05 7.17976E-07-1.23733E-18 5.04259E-18
 -1       682 9.53974E-05-2.84540E-05-2.86899E-05 5.90310E-07-1.80357E-18 4.22963E-18
 -1       683 9.53386E-05-2.84420E-05-2.86699E-05 4.66284E-07 1.40003E-18 1.09499E-18
 -1       684 9.53009E-05-2.84484E-05-2.86510E-05 3.54864E-07 8.19320E-19 2.46153E-19
 -1       685 9.52768E-05-2.84638E-05-2.86341E-05 2.60053E-07 9.77745E-19 5.30072E-19
 -1       686 9.52613E-05-2.84823E-05-2.86195E-05 1.82665E-07 2.35893E-18 5.72838E-19
 -1       687 9.52513E-05-2.85009E-05-2.86072E-05 1.21930E-07 2.63506E-19-9.97955E-19
 -1       688 9.52432E-05-2.85155E-05-2.85975E-05 7.77564E-08 9.04797E-19 2.00718E-19
 -1       689 9.51551E-05-2.84063E-05-2.86067E-05 4.49701E-08 1.57434E-18-4.07377E-18
 -1       690 1.09140E-04-5.33051E-05-2.37210E-05-3.85422E-05-7.03011E-19 5.91897E-20
 -1       691 9.52227E-05-2.84890E-05-2.86001E-05 8.30390E-08 1.42241E-18-3.01355E-18
 -1       692 9.51755E-05-2.84312E-05-2.86047E-05 6.86300E-08 1.44370E-18-2.08998E-18
 -1       693 9.53939E-05-2.82079E-05-2.87939E-05-1.59279E-06 3.11971E-19 9.96636E-19
 -1       694 9.51449E-05-2.83904E-05-2.86090E-05-2.15474E-08 4.02858E-19 2.13822E-18
 -1       695 9.51574E-05-2.84024E-05-2.86093E-05-5.26886E-08 1.52675E-18 2.30265E-18
 -1       696 9.51803E-05-2.84269E-05-2.86086E-05-7.55231E-08 1.51776E-18 8.01047E-19
 -1       697 9.52096E-05-2.84606E-05-2.86067E-05-8.50816E-08 5.67628E-19-1.78319E-18
 -1       698 9.52382E-05-2.84979E-05-2.86029E-05-7.95992E-08-1.70502E-19-2.99805E-18
 -1       699 4.97595E-05-1.73543E-05-1.33625E-05 3.41296E-05-1.96199E-18 6.24581E-19
 -1       700 4.56269E-05-1.50512E-05-1.25745E-05-3.10765E-05 9.46295E-21 2.34310E-19
 -1       701 7.39158E-05-3.25680E-05-1.73304E-05-4.22511E-05-1.99503E-19 9.00502E-19
 -1       702 1.37196E-04-5.68311E-05-3.45487E-05 1.02601E-05 1.14362E-18 5.47739E-19
 -1       703 8.10644E-05-3.68928E-05-1.86278E-05 4.30444E-05-2.73962E-20 1.32284E-18
 -1       704 1.39533E-04-5.02404E-05-3.85127E-05 9.48395E-07-1.04873E-18 1.04394E-18
 -1       705 3.58502E-05-5.59783E-06-1.23872E-05-1.84184E-06 7.80387E-20-2.16449E-18
 -1       706 1.31253E-04-2.64731E-05-4.53259E-05 1.34422E-05-1.05959E-18 3.71728E-19
 -1       707 1.24948E-04-8.76875E-06-5.03360E-05 8.00700E-06 3.14196E-19 1.20550E-18
 -1       708 3.46344E-05-5.53516E-06-1.18832E-05 7.19195E-06-1.46134E-18 4.41791E-18
 -1       709 5.59509E-05-1.84355E-05-1.55643E-05 2.76888E-05 4.89638E-19-2.40748E-18
 -1       710 1.21281E-04-6.00032E-06-4.99731E-05-2.84423E-06 1.52228E-18 4.76019E-19
 -1       711 4.31859E-05-1.09157E-05-1.32417E-05-1.87689E-05-3.96650E-19 3.81149E-18
 -1       712 1.31491E-04-5.92610E-05-3.09842E-05-2.07014E-05-5.23824E-19 5.36331E-19
 -1       713 1.31242E-04-2.10550E-05-4.77041E-05-1.28496E-05 2.54454E-18-9.65168E-19
 -1       714 9.19810E-05-1.74780E-05-3.19358E-05 3.78059E-06 8.10537E-19 8.26206E-19
 -1       715 1.39605E-04-4.20315E-05-4.21463E-05-6.99968E-06 2.34820E-18-1.49025E-19
 -1       716 1.17737E-04-5.58167E-05-2.63962E-05 3.19560E-05 6.81756E-19-4.80857E-20
 -1       717 9.11246E-05-1.61593E-05-3.21333E-05-7.55389E-07 1.10545E-18 3.86561E-19
 -1       718 9.28047E-05-1.87549E-05-3.17396E-05-5.01612E-06 8.16566E-19-4.76552E-19
 -1       719 9.53562E-05-2.48094E-05-3.02282E-05 3.35882E-06 2.59578E-20 1.57710E-18
 -1       720 1.18168E-04-1.31176E-05-4.53726E-05-9.80933E-06 1.78753E-18-1.25632E-19
 -1       721 9.13907E-05-1.65564E-05-3.20773E-05-2.27672E-06 9.73810E-19 3.23582E-19
 -1       722 9.45909E-05-2.25588E-05-3.08733E-05 3.63963E-06 1.76350E-19 1.08527E-18
 -1       723 1.18824E-04-5.38536E-05-2.78058E-05-2.44807E-05-1.95006E-19 2.32990E-19
 -1       724 9.36376E-05-2.01949E-05-3.14762E-05-5.72263E-06 6.36978E-19-5.22744E-19
 -1       725 1.28629E-04-3.85605E-05-3.87339E-05 1.04488E-05-8.93434E-19-1.99185E-20
 -1       726 9.52042E-05-2.41956E-05-3.04326E-05-2.39746E-06 4.70321E-19-4.81164E-19
 -1       727 9.56118E-05-2.58197E-05-2.99104E-05-7.47530E-07 4.25279E-19-5.66672E-19
 -1       728 9.57072E-05-2.67901E-05-2.95358E-05 4.63107E-07 4.47959E-19-6.24200E-19
 -1       729 9.56017E-05-2.72881E-05-2.92773E-05 1.34089E-06 2.19266E-19-5.47886E-19
 -1       730 9.53397E-05-2.74192E-05-2.91089E-05 1.99399E-06-2.68042E-19-3.45319E-19
 -1       731 9.49142E-05-2.72331E-05-2.90064E-05 2.51717E-06-4.30938E-19-2.07102E-19
 -1       732 9.42729E-05-2.67332E-05-2.89458E-05 2.98153E-06-3.31290E-20-3.14592E-19
 -1       733 9.33750E-05-2.59368E-05-2.89025E-05 3.41109E-06 4.47796E-19-4.15007E-19
 -1       734 9.19836E-05-2.47007E-05-2.88362E-05 3.86449E-06 4.27483E-20-6.67111E-19
 -1       735 8.99068E-05-2.29601E-05-2.86926E-05 4.28908E-06-2.12864E-19-9.33878E-19
 -1       736 8.68338E-05-2.06206E-05-2.83791E-05 4.60660E-06 5.30612E-20-9.92353E-19
 -1       737 8.23396E-05-1.76216E-05-2.77385E-05 4.68395E-06-6.52747E-19-1.46980E-18
 -1       738 7.58630E-05-1.40176E-05-2.64964E-05 4.35924E-06-4.51666E-19-2.13617E-18
 -1       739 6.66000E-05-1.00801E-05-2.41660E-05 3.52386E-06-3.84733E-19-2.04254E-18
 -1       740 5.39271E-05-6.47838E-06-2.00987E-05 2.43437E-06 8.67200E-20-1.95992E-18
 -1       741 9.51062E-05-2.83298E-05-2.86185E-05-4.91836E-08-6.80137E-19 4.13713E-18
 -1       742 9.52470E-05-2.43871E-05-3.03667E-05 2.43446E-06 1.76759E-19 9.81298E-19
 -1       743 7.89745E-05-1.51420E-05-2.73493E-05-6.40387E-06-1.65089E-18 5.50049E-19
 -1       744 8.45777E-05-1.85555E-05-2.82937E-05-5.68433E-06-1.01748E-18-5.41799E-19
 -1       745 8.83779E-05-2.13084E-05-2.87437E-05-4.85386E-06 3.08926E-19-2.37345E-18
 -1       746 9.08030E-05-2.33153E-05-2.89226E-05-4.03946E-06 3.88597E-19-4.46636E-19
 -1       747 9.24821E-05-2.48761E-05-2.89736E-05-3.23595E-06 1.05001E-19 9.86123E-19
 -1       748 9.35540E-05-2.59900E-05-2.89557E-05-2.53524E-06 1.95341E-21 1.89869E-18
 -1       749 9.42268E-05-2.67725E-05-2.89088E-05-1.94926E-06 2.67977E-20 2.41978E-19
 -1       750 9.46426E-05-2.73175E-05-2.88535E-05-1.47485E-06 7.63547E-19 1.81203E-18
 -1       751 9.48956E-05-2.76956E-05-2.87999E-05-1.09948E-06 1.95682E-18 5.21717E-19
 -1       752 9.50471E-05-2.79580E-05-2.87524E-05-8.07752E-07-5.59522E-20-7.70730E-19
 -1       753 9.51326E-05-2.81330E-05-2.87141E-05-5.93257E-07-7.37841E-19-1.93550E-18
 -1       754 9.51849E-05-2.82631E-05-2.86808E-05-4.20540E-07-5.84282E-20-8.55468E-19
 -1       755 9.52139E-05-2.83545E-05-2.86540E-05-2.91173E-07-1.47968E-19-3.24842E-18
 -1       756 9.52286E-05-2.84189E-05-2.86327E-05-1.95954E-07 3.90841E-19-2.87505E-18
 -1       757 9.52368E-05-2.84650E-05-2.86164E-05-1.29382E-07 2.50208E-18-1.94766E-18
 -1       758 9.51321E-05-2.83537E-05-2.86193E-05-9.12701E-08-1.56035E-19 2.07483E-18
 -1       759 9.63369E-05-4.20699E-05-2.31539E-05-3.46395E-05 7.94887E-20-1.07507E-19
 -1       760 9.58213E-05-2.71156E-05-2.94454E-05-3.70727E-07 1.66961E-19 8.25567E-19
 -1       761 9.56630E-05-2.60470E-05-2.98347E-05 7.98474E-07 2.63367E-19 9.02238E-19
 -1       762 9.60408E-05-2.89625E-05-2.87479E-05-2.21964E-06 1.80421E-20 1.09782E-18
 -1       763 9.59153E-05-2.86238E-05-2.88392E-05-2.03346E-06 6.91911E-20 9.12361E-19
 -1       764 9.67538E-05-2.99130E-05-2.86462E-05-2.18716E-06 3.41147E-19 4.25064E-19
 -1       765 9.74516E-05-3.06537E-05-2.86279E-05-1.90487E-06 4.72231E-19 3.07590E-19
 -1       766 9.84343E-05-3.16094E-05-2.86395E-05-1.34780E-06-1.47983E-19 5.70691E-19
 -1       767 9.96958E-05-3.27283E-05-2.87008E-05-4.09710E-07-7.90724E-19 1.47888E-18
 -1       768 1.01144E-04-3.38435E-05-2.88433E-05 1.01083E-06-4.68738E-19 1.37436E-18
 -1       769 1.02553E-04-3.46333E-05-2.91087E-05 2.94967E-06-1.13440E-19 1.34982E-18
 -1       770 1.03553E-04-3.46334E-05-2.95377E-05 5.26914E-06-2.45701E-19 1.16705E-18
 -1       771 1.03693E-04-3.33495E-05-3.01481E-05 7.53841E-06-5.48184E-19 1.17275E-18
 -1       772 1.02682E-04-3.05639E-05-3.09070E-05 8.98683E-06-1.78808E-18 1.29600E-18
 -1       773 1.00612E-04-2.66075E-05-3.17146E-05 8.63768E-06-1.39389E-18 1.45657E-18
 -1       774 9.83799E-05-2.28224E-05-3.23827E-05 5.91934E-06-5.98028E-19 1.88992E-18
 -1       775 9.70965E-05-2.07654E-05-3.27150E-05 1.23351E-06 1.30254E-19 6.89392E-19
 -1       776 9.75379E-05-2.14643E-05-3.26035E-05-3.89452E-06-1.16306E-20 3.96665E-19
 -1       777 9.94510E-05-2.45791E-05-3.20858E-05-7.70837E-06 9.29380E-19 1.77453E-18
 -1       778 1.01736E-04-2.86280E-05-3.13334E-05-9.23816E-06 4.81785E-19 2.32911E-18
 -1       779 1.03299E-04-3.20402E-05-3.05393E-05-8.59598E-06 8.71265E-19 2.66559E-18
 -1       780 1.03694E-04-3.40326E-05-2.98548E-05-6.67689E-06 3.19042E-19 2.03475E-18
 -1       781 1.03039E-04-3.45647E-05-2.93461E-05-4.37899E-06 5.73447E-19 9.99237E-19
 -1       782 1.01752E-04-3.40530E-05-2.90142E-05-2.31265E-06 1.81804E-19 1.84762E-18
 -1       783 1.00256E-04-3.30029E-05-2.88233E-05-7.41224E-07 1.39895E-19 2.11819E-18
 -1       784 9.88497E-05-3.18148E-05-2.87296E-05 3.05632E-07 8.22292E-19 1.26553E-18
 -1       785 9.76815E-05-3.07304E-05-2.86936E-05 9.12919E-07-2.41120E-19 2.05181E-18
 -1       786 9.67927E-05-2.98578E-05-2.86865E-05 1.19601E-06-8.27569E-19 1.07803E-18
 -1       787 9.61624E-05-2.92191E-05-2.86900E-05 1.26225E-06 1.03659E-19 1.26362E-18
 -1       788 9.57427E-05-2.87900E-05-2.86940E-05 1.19700E-06 6.69359E-20 3.15439E-18
 -1       789 9.54801E-05-2.85272E-05-2.86941E-05 1.06193E-06 5.34033E-19 3.26148E-18
 -1       790 9.53269E-05-2.83854E-05-2.86892E-05 8.98227E-07-8.63914E-19 3.72403E-18
 -1       791 9.52454E-05-2.83252E-05-2.86800E-05 7.31537E-07-1.51618E-18 2.11726E-18
 -1       792 9.52081E-05-2.83159E-05-2.86681E-05 5.76627E-07 1.87385E-19 1.41419E-18
 -1       793 9.51960E-05-2.83351E-05-2.86547E-05 4.40867E-07 1.92378E-18 2.40548E-18
 -1       794 9.51971E-05-2.83680E-05-2.86410E-05 3.26869E-07 1.04745E-18 1.14234E-18
 -1       795 9.52037E-05-2.84050E-05-2.86280E-05 2.34480E-07 1.89457E-18 4.85704E-19
 -1       796 9.52111E-05-2.84403E-05-2.86161E-05 1.62167E-07 9.32270E-19 1.57094E-18
 -1       797 9.52177E-05-2.84662E-05-2.86078E-05 1.18235E-07 1.27757E-18 2.38523E-19
 -1       798 9.51069E-05-2.83375E-05-2.86154E-05 4.68867E-08 1.83124E-18-1.67122E-18
 -1       799 9.51713E-05-2.83934E-05-2.86192E-05-1.19398E-07 1.29652E-18 1.27013E-19
 -1       800 6.49982E-05-1.98241E-05-1.91514E-05-2.94940E-05 8.74959E-20 1.07837E-18
 -1       801 6.95699E-05-2.40971E-05-1.92733E-05 3.36154E-05-6.84111E-19 1.84842E-18
 -1       802 9.50976E-05-2.83244E-05-2.86171E-05-5.31671E-10 1.33075E-18 1.51542E-18
 -1       803 1.00612E-04-4.37878E-05-2.41880E-05 3.29143E-05-9.40385E-19-1.26731E-19
 -1       804 4.92731E-05-8.75238E-06-1.70483E-05-1.47538E-05 1.21430E-20-1.93415E-19
 -1       805 4.95467E-05-6.32421E-06-1.82325E-05-8.22895E-06-1.25336E-18 3.25107E-18
 -1       806 5.04161E-05-1.06884E-05-1.65428E-05 1.92330E-05 7.50729E-19-2.42079E-18
 -1       807 1.25720E-04-5.45144E-05-3.05625E-05 1.47651E-05-7.77599E-19-5.73089E-19
 -1       808 9.63017E-05-2.93678E-05-2.86860E-05-2.27588E-06 2.35388E-19 1.08736E-18
 -1       809 7.09131E-05-1.12609E-05-2.55331E-05-7.12646E-06-2.86805E-19 3.57860E-19
 -1       810 5.17423E-05-9.44612E-06-1.78294E-05 1.74809E-05-2.24859E-18 1.88647E-18
 -1       811 1.13648E-04-9.02212E-06-4.51547E-05 3.47389E-06 2.70653E-19 1.17013E-18
 -1       812 1.32164E-04-4.75932E-05-3.63628E-05-3.46363E-06 1.05945E-18-1.95862E-18
 -1       813 9.29759E-05-1.94237E-05-3.15233E-05 1.11722E-06 8.23882E-19 2.89065E-19
 -1       814 1.18076E-04-1.80469E-05-4.31031E-05 1.20894E-05 6.96155E-21 5.18272E-19
 -1       815 6.02313E-05-8.52478E-06-2.19126E-05-1.04423E-05 2.27287E-19 2.39728E-18
 -1       816 1.31094E-04-5.36771E-05-3.32513E-05-6.03101E-06-5.19568E-19 2.83260E-19
 -1       817 9.46010E-05-2.24995E-05-3.09026E-05-3.94279E-06 4.82114E-19-4.21806E-19
 -1       818 1.27729E-04-3.27885E-05-4.09158E-05-1.22394E-05 2.27710E-18-1.75439E-18
 -1       819 1.17745E-04-2.34088E-05-4.05847E-05-1.29712E-05 1.91857E-18-2.50570E-19
 -1       820 9.58728E-05-2.82689E-05-2.89731E-05-1.70019E-06 4.13607E-19 8.55187E-19
 -1       821 9.38818E-05-2.10230E-05-3.12262E-05-3.05111E-06 5.80319E-19-1.33954E-19
 -1       822 1.18806E-04-2.93765E-05-3.84288E-05 1.29448E-05-8.60728E-19 4.72325E-19
 -1       823 9.51663E-05-2.84059E-05-2.86116E-05 1.12005E-07 1.38578E-18-1.86834E-18
 -1       824 8.44468E-05-3.07098E-05-2.29504E-05-2.93829E-05-1.01303E-19 1.28382E-19
 -1       825 9.58617E-05-2.78039E-05-2.91676E-05-1.17167E-06 3.32340E-19 6.68377E-19
 -1       826 1.13225E-04-4.84568E-05-2.77277E-05 2.10247E-05-6.25385E-19-1.05418E-18
 -1       827 9.51313E-05-2.83662E-05-2.86136E-05 8.61207E-08 1.13540E-18-2.97298E-18
 -1       828 9.38978E-05-2.11082E-05-3.11986E-05 3.06241E-06 4.84388E-19 6.30666E-19
 -1       829 1.10211E-04-1.08554E-05-4.27586E-05-3.63068E-06 8.38563E-19 1.43270E-18
 -1       830 9.33388E-05-2.00562E-05-3.14075E-05 2.16722E-06 7.07974E-19 5.21993E-19
 -1       831 9.33019E-05-1.99808E-05-3.14243E-05-2.15194E-06 8.36415E-19 2.32606E-19
 -1       832 9.28433E-05-1.91963E-05-3.15641E-05-1.50667E-09 1.02883E-18 4.16445E-19
 -1       833 1.22949E-04-3.83349E-05-3.63608E-05-1.00312E-05 5.09490E-19-2.29525E-18
 -1       834 9.47859E-05-2.30620E-05-3.07346E-05 2.21337E-06 4.95424E-19 5.85083E-19
 -1       835 9.56644E-05-2.56769E-05-2.99945E-05-2.75719E-07 3.29819E-19-7.81375E-20
 -1       836 9.57654E-05-2.66137E-05-2.96364E-05 6.20126E-07 2.12070E-19-4.55816E-19
 -1       837 9.55888E-05-2.70594E-05-2.93697E-05 1.26570E-06 1.14773E-19-6.14617E-19
 -1       838 9.51649E-05-2.70937E-05-2.91734E-05 1.71974E-06-7.66671E-20-2.01924E-19
 -1       839 9.44859E-05-2.67648E-05-2.90233E-05 2.02310E-06-2.78121E-19-1.96479E-19
 -1       840 9.35559E-05-2.61250E-05-2.88991E-05 2.18749E-06 2.10919E-19 1.17679E-19
 -1       841 9.21840E-05-2.50904E-05-2.87546E-05 2.20642E-06 6.72368E-20-6.12549E-19
 -1       842 9.02554E-05-2.36446E-05-2.85478E-05 1.98731E-06-5.31497E-20-6.55437E-19
 -1       843 8.75625E-05-2.17496E-05-2.82064E-05 1.38126E-06-1.15841E-19-8.01804E-19
 -1       844 8.38303E-05-1.93960E-05-2.76162E-05 1.43219E-07-4.97393E-19-1.58453E-18
 -1       845 7.86851E-05-1.66395E-05-2.65911E-05-2.08057E-06-3.41315E-19-1.88625E-19
 -1       846 7.16859E-05-1.37020E-05-2.48098E-05-5.69775E-06-2.84625E-19 4.39623E-19
 -1       847 6.21587E-05-1.05457E-05-2.19711E-05-9.67625E-06-4.70612E-20 2.39915E-19
 -1       848 1.24271E-04-4.47528E-05-3.40933E-05 4.38837E-06-6.18116E-19-4.02341E-19
 -1       849 6.74757E-05-1.68518E-05-2.15523E-05 2.18825E-05-2.49223E-18 2.88461E-18
 -1       850 9.50616E-05-2.82599E-05-2.86294E-05-9.38310E-08-5.98451E-20 3.41017E-18
 -1       851 8.46492E-05-1.93983E-05-2.79646E-05-1.33048E-06-6.53284E-19 2.20265E-18
 -1       852 8.79194E-05-2.16333E-05-2.84086E-05-1.81849E-06 8.50310E-19 2.65158E-18
 -1       853 9.03276E-05-2.34785E-05-2.86499E-05-1.91668E-06 9.84095E-19 1.39637E-18
 -1       854 9.19739E-05-2.48732E-05-2.87575E-05-1.78500E-06 3.97545E-19 1.23285E-18
 -1       855 9.30855E-05-2.59031E-05-2.87925E-05-1.54815E-06 7.79377E-19 3.78495E-18
 -1       856 9.38290E-05-2.66533E-05-2.87896E-05-1.28082E-06 3.87685E-19 4.37377E-18
 -1       857 9.43224E-05-2.71952E-05-2.87688E-05-1.02372E-06 7.01287E-19 2.47503E-18
 -1       858 9.46476E-05-2.75846E-05-2.87413E-05-7.96039E-07-1.46797E-20 6.33878E-19
 -1       859 9.48524E-05-2.78526E-05-2.87142E-05-6.12257E-07-8.46482E-19 4.19767E-19
 -1       860 9.49946E-05-2.80574E-05-2.86874E-05-4.53510E-07-1.47520E-19-2.16721E-19
 -1       861 9.50866E-05-2.82047E-05-2.86637E-05-3.27727E-07-9.22654E-19 1.39169E-19
 -1       862 9.51450E-05-2.83106E-05-2.86433E-05-2.30844E-07-5.13646E-19-1.07453E-19
 -1       863 9.51584E-05-2.83545E-05-2.86302E-05-1.68347E-07 9.78498E-19 1.94542E-19
 -1       864 7.31031E-05-1.33009E-05-2.56304E-05 2.10748E-06-1.12577E-18-2.25258E-20
 -1       865 9.61363E-05-2.86912E-05-2.89050E-05-2.12425E-06-2.57930E-20 8.08397E-19
 -1       866 9.81498E-05-3.14092E-05-2.86031E-05-2.62276E-06-6.63057E-20 1.47372E-18
 -1       867 9.71727E-05-3.03682E-05-2.86305E-05-2.68836E-06 2.89900E-19 1.35263E-18
 -1       868 1.01504E-04-3.44104E-05-2.87549E-05-1.46437E-06-3.74007E-19 9.09050E-19
 -1       869 1.03785E-04-3.60475E-05-2.90302E-05 5.87722E-09-8.45051E-19 4.39435E-19
 -1       870 1.06072E-04-3.71644E-05-2.95313E-05 2.28133E-06-2.36291E-19 1.17155E-18
 -1       871 1.07804E-04-3.70508E-05-3.03254E-05 5.25584E-06-9.32215E-19 1.74916E-18
 -1       872 1.08177E-04-3.48902E-05-3.14055E-05 8.29300E-06-1.22071E-18 2.06976E-18
 -1       873 1.06537E-04-3.01019E-05-3.27719E-05 1.01746E-05-1.34699E-18 1.63787E-18
 -1       874 1.03719E-04-2.42067E-05-3.40823E-05 9.12412E-06-1.28263E-18 5.47472E-19
 -1       875 1.00973E-04-1.92622E-05-3.50259E-05 4.74859E-06 1.67340E-19 1.20320E-19
 -1       876 1.00221E-04-1.80708E-05-3.52210E-05-1.72586E-06 6.17706E-19-5.15544E-19
 -1       877 1.02133E-04-2.13745E-05-3.46270E-05-7.49048E-06-1.12284E-19-1.06363E-18
 -1       878 1.05331E-04-2.72711E-05-3.34587E-05-1.02096E-05-3.73118E-19 8.80052E-19
 -1       879 1.07537E-04-3.26734E-05-3.20891E-05-9.52416E-06-3.27696E-20 1.28523E-18
 -1       880 1.08054E-04-3.60553E-05-3.08580E-05-6.98994E-06 1.00877E-18 1.23421E-18
 -1       881 1.06870E-04-3.70697E-05-2.99130E-05-3.92905E-06 6.70331E-19 1.61777E-18
 -1       882 1.04717E-04-3.63911E-05-2.92829E-05-1.35687E-06 1.56253E-19 1.96976E-18
 -1       883 1.02312E-04-3.48616E-05-2.89075E-05 4.11658E-07-3.03090E-19 1.29681E-18
 -1       884 1.00119E-04-3.31219E-05-2.87129E-05 1.42182E-06 1.27617E-18 1.25336E-18
 -1       885 9.83562E-05-3.15510E-05-2.86309E-05 1.86867E-06-5.08996E-19 1.89588E-18
 -1       886 9.70573E-05-3.02992E-05-2.86106E-05 1.95265E-06 4.06368E-19 6.50942E-19
 -1       887 9.61697E-05-2.93926E-05-2.86188E-05 1.82916E-06-6.06063E-19 1.04020E-18
 -1       888 9.56064E-05-2.87902E-05-2.86355E-05 1.60564E-06-3.31465E-19 7.01655E-19
 -1       889 9.52784E-05-2.84270E-05-2.86506E-05 1.34893E-06-1.02451E-19 1.15411E-18
 -1       890 9.51093E-05-2.82360E-05-2.86600E-05 1.09715E-06 2.05306E-20 1.19150E-18
 -1       891 9.50405E-05-2.81603E-05-2.86629E-05 8.68933E-07-6.38290E-19 1.46514E-19
 -1       892 9.50301E-05-2.81562E-05-2.86603E-05 6.72177E-07-3.65987E-19-1.82866E-19
 -1       893 9.50501E-05-2.81918E-05-2.86536E-05 5.08460E-07-2.18636E-19 2.41752E-19
 -1       894 9.50829E-05-2.82461E-05-2.86444E-05 3.75739E-07 1.98380E-18 4.47146E-19
 -1       895 9.51182E-05-2.83056E-05-2.86340E-05 2.70683E-07 1.32993E-18-1.23623E-18
 -1       896 9.51494E-05-2.83618E-05-2.86233E-05 1.89287E-07 9.86671E-19-8.36683E-19
 -1       897 9.50681E-05-2.82822E-05-2.86225E-05 9.94246E-08 1.61876E-18-1.86565E-18
 -1       898 9.51043E-05-2.83001E-05-2.86304E-05-1.40077E-07-1.52611E-19 1.48191E-18
 -1       899 9.51132E-05-2.83307E-05-2.86210E-05 1.43951E-07 1.17144E-18-2.18559E-18
 -1       900 1.07518E-04-4.52640E-05-2.66211E-05-2.39015E-05-3.42125E-19 7.01532E-21
 -1       901 9.29533E-05-1.93802E-05-3.15324E-05-1.11538E-06 9.84211E-19 5.48378E-19
 -1       902 9.95894E-05-3.27826E-05-2.86316E-05-2.27262E-06-7.54689E-19 2.07075E-18
 -1       903 7.98029E-05-1.65438E-05-2.71080E-05-1.35486E-07-1.14070E-18 9.16794E-19
 -1       904 5.64178E-05-8.07555E-06-2.05836E-05 7.81649E-06-2.02496E-18 2.41485E-18
 -1       905 1.24540E-04-4.87112E-05-3.25617E-05 1.71805E-06-3.26185E-19-2.65032E-18
 -1       906 9.52090E-05-2.41253E-05-3.04635E-05-1.47938E-06 4.20220E-19 3.65548E-20
 -1       907 8.67039E-05-3.13244E-05-2.36373E-05 2.81878E-05-1.54526E-18 1.69608E-19
 -1       908 1.08554E-04-1.49339E-05-4.02981E-05 7.56728E-06 8.65661E-19 1.04868E-19
 -1       909 1.21083E-04-5.09033E-05-3.00853E-05-1.13663E-05 3.06141E-19 5.61186E-19
 -1       910 1.09474E-04-1.73445E-05-3.95503E-05-9.27095E-06 1.02292E-18 7.63494E-19
 -1       911 1.18393E-04-3.78710E-05-3.45153E-05 9.46127E-06-8.07635E-19 2.49774E-19
 -1       912 9.58069E-05-2.59714E-05-2.99298E-05 2.91126E-07 3.09263E-19 4.49584E-19
 -1       913 9.61113E-05-2.82938E-05-2.90645E-05-1.76721E-06 8.11360E-20 8.59725E-19
 -1       914 1.17904E-04-4.79762E-05-2.99580E-05 9.25892E-06-8.23068E-19-2.04332E-18
 -1       915 9.50391E-05-2.82431E-05-2.86268E-05-2.82429E-08 1.09975E-18 6.14628E-19
 -1       916 9.62621E-05-2.90986E-05-2.87843E-05-2.39477E-06 1.04467E-19 1.20720E-18
 -1       917 9.60380E-05-2.70690E-05-2.95579E-05-6.24455E-07 2.02810E-19 5.31038E-19
 -1       918 9.54327E-05-2.47473E-05-3.02964E-05 1.18215E-06 3.14196E-19 4.37304E-19
 -1       919 9.50420E-05-2.82516E-05-2.86245E-05 4.00094E-08 1.97017E-18 2.88853E-19
 -1       920 9.65756E-05-2.96241E-05-2.86935E-05-2.59043E-06 5.19881E-19 1.17496E-18
 -1       921 1.00159E-04-3.90976E-05-2.61492E-05 2.29802E-05-1.50926E-18-3.27203E-19
 -1       922 9.46730E-05-2.27948E-05-3.08032E-05-1.58958E-06 5.88131E-19 3.48624E-19
 -1       923 9.42005E-05-2.17848E-05-3.10352E-05 3.26190E-07 6.14361E-19 1.74846E-19
 -1       924 9.44027E-05-2.21828E-05-3.09511E-05 1.01302E-06 6.03264E-19 3.18586E-19
 -1       925 7.23327E-05-1.83159E-05-2.31142E-05-1.88395E-05-3.48872E-19 5.94999E-19
 -1       926 9.46005E-05-2.26160E-05-3.08494E-05 1.86489E-06 4.72018E-19 3.58817E-19
 -1       927 8.31212E-05-1.94749E-05-2.72750E-05 3.73566E-06-2.51994E-19 2.73504E-18
 -1       928 9.57396E-05-2.65619E-05-2.96479E-05 5.84687E-07 9.53689E-20 2.25392E-19
 -1       929 9.54614E-05-2.69184E-05-2.93755E-05 9.50521E-07 1.44890E-19 3.54840E-19
 -1       930 9.48969E-05-2.68654E-05-2.91563E-05 1.12871E-06-1.64168E-19 4.11287E-19
 -1       931 9.40945E-05-2.64863E-05-2.89750E-05 1.11946E-06 4.54716E-20 5.44642E-19
 -1       932 9.29365E-05-2.57726E-05-2.87846E-05 8.79461E-07-3.26560E-19 4.44332E-19
 -1       933 9.13916E-05-2.47592E-05-2.85569E-05 3.07118E-07-1.97770E-19 2.67754E-19
 -1       934 8.93703E-05-2.34765E-05-2.82404E-05-7.60685E-07-2.73823E-19 1.92911E-20
 -1       935 8.67726E-05-2.19980E-05-2.77614E-05-2.57562E-06-4.97221E-19-3.08070E-19
 -1       936 8.35439E-05-2.05153E-05-2.70142E-05-5.50805E-06 1.88050E-19-2.05450E-19
 -1       937 7.96335E-05-1.93011E-05-2.58527E-05-1.01695E-05 7.73579E-20-3.21423E-19
 -1       938 9.50616E-05-2.82575E-05-2.86304E-05 2.13045E-07 8.94739E-19-1.15909E-18
 -1       939 9.41795E-05-2.17502E-05-3.10410E-05-3.81117E-07 8.58103E-19 4.63703E-19
 -1       940 8.88776E-05-2.28303E-05-2.83062E-05 3.48712E-07-1.80399E-19 2.13215E-18
 -1       941 9.07513E-05-2.41858E-05-2.85282E-05-3.31810E-07 7.71285E-19 1.30854E-18
 -1       942 9.21026E-05-2.52656E-05-2.86445E-05-6.36191E-07 1.78650E-18 1.02007E-18
 -1       943 9.30647E-05-2.61024E-05-2.86982E-05-7.22480E-07 6.90092E-19-4.91125E-19
 -1       944 9.37435E-05-2.67408E-05-2.87155E-05-6.91680E-07-4.97097E-19-1.18600E-19
 -1       945 9.42173E-05-2.72203E-05-2.87130E-05-6.06359E-07-2.13987E-19-8.77481E-19
 -1       946 9.45333E-05-2.75635E-05-2.87014E-05-5.06590E-07-5.51268E-19 1.94632E-19
 -1       947 9.47655E-05-2.78346E-05-2.86847E-05-4.01618E-07 1.67180E-19 1.34631E-18
 -1       948 9.49251E-05-2.80357E-05-2.86669E-05-3.07347E-07 1.17958E-19 1.86204E-18
 -1       949 9.50333E-05-2.81842E-05-2.86496E-05-2.27591E-07-8.91813E-19 3.02229E-18
 -1       950 9.50720E-05-2.82463E-05-2.86396E-05-1.79465E-07-4.39306E-19 2.79615E-18
 -1       951 9.61066E-05-2.77943E-05-2.92764E-05-1.28654E-06 1.44385E-19 7.17700E-19
 -1       952 8.03128E-05-2.32007E-05-2.44490E-05 1.98734E-05-2.29642E-18 2.36146E-18
 -1       953 1.06673E-04-3.85911E-05-2.91838E-05-1.96433E-06-8.61314E-19 1.70609E-18
 -1       954 1.03284E-04-3.61876E-05-2.87562E-05-3.40615E-06-2.80793E-19 2.24889E-18
 -1       955 1.12731E-04-3.97881E-05-3.12618E-05 4.65956E-06-7.25646E-19 1.31423E-18
 -1       956 1.06998E-04-1.98833E-05-3.74301E-05 9.26152E-06-2.46566E-19 4.17016E-19
 -1       957 1.12574E-04-3.28325E-05-3.42103E-05-1.05107E-05-7.64828E-19-1.92731E-18
 -1       958 1.13458E-04-3.83991E-05-3.21794E-05-7.14235E-06 9.14678E-19-1.30060E-18
 -1       959 1.11522E-04-4.01336E-05-3.05945E-05-2.78529E-06 5.22526E-19-7.42213E-19
 -1       960 1.08146E-04-3.91649E-05-2.95635E-05 5.36422E-07 8.13867E-20-7.51010E-20
 -1       961 1.04520E-04-3.69498E-05-2.89577E-05 2.53133E-06 1.33163E-20 9.47230E-19
 -1       962 1.01336E-04-3.44734E-05-2.86544E-05 3.36873E-06 4.48780E-19 6.61093E-19
 -1       963 9.88852E-05-3.23110E-05-2.85319E-05 3.44457E-06-4.26574E-19 1.37671E-18
 -1       964 9.71507E-05-3.06346E-05-2.85069E-05 3.14051E-06 5.34406E-19 2.03559E-18
 -1       965 9.60158E-05-2.94520E-05-2.85275E-05 2.66960E-06-2.97636E-20 1.70050E-18
 -1       966 9.53333E-05-2.86870E-05-2.85627E-05 2.17138E-06 7.52117E-19 5.47198E-19
 -1       967 9.49659E-05-2.82397E-05-2.85969E-05 1.71248E-06-4.80335E-19 2.43608E-19
 -1       968 9.48052E-05-2.80178E-05-2.86232E-05 1.32148E-06-9.48008E-19 1.43116E-18
 -1       969 9.47678E-05-2.79412E-05-2.86400E-05 1.00200E-06-4.68389E-19 2.79295E-18
 -1       970 9.47997E-05-2.79543E-05-2.86480E-05 7.48024E-07 1.19383E-18 2.61959E-18
 -1       971 9.48635E-05-2.80158E-05-2.86490E-05 5.50442E-07 6.56186E-19 1.55637E-19
 -1       972 9.49365E-05-2.80980E-05-2.86450E-05 4.00060E-07 1.36962E-18-1.12297E-18
 -1       973 9.50041E-05-2.81806E-05-2.86385E-05 2.94866E-07 2.66189E-18-8.06508E-19
 -1       974 9.54479E-05-2.47617E-05-3.02951E-05-5.85192E-07 2.03725E-19 3.53847E-19
 -1       975 9.73126E-05-3.06642E-05-2.85638E-05-3.49963E-06 2.83033E-19 8.49760E-19
 -1       976 7.87434E-05-1.76261E-05-2.61770E-05 7.30354E-06-1.19660E-19 2.62121E-18
 -1       977 8.63997E-05-2.12467E-05-2.79227E-05 1.59343E-06 5.46236E-20 2.75494E-18
 -1       978 9.43560E-05-2.20990E-05-3.09670E-05-1.05512E-06 7.47705E-19 5.16407E-19
 -1       979 9.56776E-05-3.54649E-05-2.57646E-05-2.26559E-05-4.61453E-19 1.37538E-19
 -1       980 1.03972E-04-1.45140E-05-3.84271E-05 1.31373E-07 1.19748E-18 4.59044E-20
 -1       981 9.57205E-05-2.58632E-05-2.99387E-05 1.11891E-07 1.33538E-19 1.73804E-19
 -1       982 1.13585E-04-2.87009E-05-3.64395E-05-1.22726E-05-2.92213E-19-1.13179E-18
 -1       983 1.11724E-04-4.50844E-05-2.85434E-05-1.34782E-05-6.49678E-19 8.06728E-19
 -1       984 1.18363E-04-4.57488E-05-3.11538E-05-1.10564E-06-3.14596E-19 5.53440E-19
 -1       985 1.18348E-04-4.13930E-05-3.30069E-05-6.16888E-06-2.89584E-19-2.78155E-18
 -1       986 7.35850E-05-1.64481E-05-2.44624E-05 1.31031E-05-2.02240E-18 2.28343E-18
 -1       987 1.10184E-04-4.02181E-05-2.99844E-05 7.37829E-07-9.34315E-19 2.03571E-18
 -1       988 1.08773E-04-4.31230E-05-2.81310E-05 1.48940E-05-9.73203E-19-1.17732E-18
 -1       989 9.49674E-05-2.81458E-05-2.86378E-05-7.25476E-08 3.12163E-18 2.46393E-18
 -1       990 9.50798E-05-2.36964E-05-3.05927E-05-7.26291E-08 5.43525E-19 2.55609E-20
 -1       991 9.09105E-05-3.05630E-05-2.58695E-05 1.97063E-05-1.54732E-18 5.62704E-19
 -1       992 9.55222E-05-2.48197E-05-3.02989E-05 5.76447E-07 4.35390E-19 2.69905E-19
 -1       993 1.00553E-04-3.38953E-05-2.85672E-05-3.89383E-06-2.90676E-19 1.80662E-18
 -1       994 1.11289E-04-2.88750E-05-3.53511E-05 1.13316E-05-7.69622E-19 4.06634E-19
 -1       995 9.49838E-05-2.81770E-05-2.86312E-05 1.07252E-07 3.18032E-18-1.31931E-18
 -1       996 9.50135E-05-2.81890E-05-2.86391E-05-1.34855E-07 1.15925E-18 1.91265E-18
 -1       997 9.85901E-05-3.20323E-05-2.85248E-05-3.83945E-06-8.42060E-19 1.36370E-18
 -1       998 9.65695E-05-2.97217E-05-2.86489E-05-3.07489E-06 2.42047E-19 9.44994E-19
 -1       999 9.61104E-05-2.86565E-05-2.89088E-05-2.21503E-06 2.02855E-19 3.05332E-19
 -1      1000 9.59880E-05-2.62904E-05-2.98719E-05-2.48346E-07 2.43837E-19 3.74790E-19
 -1      1001 9.61297E-05-2.82620E-05-2.90861E-05-1.79463E-06 1.50259E-19 6.14534E-19
 -1      1002 9.51961E-05-2.39213E-05-3.05464E-05 2.86201E-07 4.75802E-19 2.33681E-19
 -1      1003 1.17555E-04-4.42056E-05-3.14258E-05-6.16252E-07-3.05538E-19-2.63876E-18
 -1      1004 9.53360E-05-2.69310E-05-2.93165E-05 3.90699E-07-7.33099E-20 9.42437E-19
 -1      1005 9.47382E-05-2.68517E-05-2.90943E-05 2.76128E-07-8.13254E-20 1.01180E-18
 -1      1006 9.38704E-05-2.64940E-05-2.88756E-05-8.49689E-08-2.26521E-19 6.13706E-19
 -1      1007 9.27553E-05-2.59155E-05-2.86456E-05-7.74928E-07-2.52075E-19 9.47893E-19
 -1      1008 9.14064E-05-2.52114E-05-2.83687E-05-1.94499E-06-4.45723E-19 9.16841E-19
 -1      1009 8.98690E-05-2.45326E-05-2.80005E-05-3.79812E-06-3.45609E-19 8.51809E-19
 -1      1010 8.82204E-05-2.40733E-05-2.74881E-05-6.59975E-06-1.51872E-19 6.74123E-19
 -1      1011 8.66233E-05-2.42082E-05-2.67494E-05-1.07688E-05-1.01896E-19 6.67983E-19
 -1      1012 9.03160E-05-2.42435E-05-2.83163E-05 1.58629E-06-3.18433E-20 8.60375E-19
 -1      1013 9.51071E-05-2.37979E-05-3.05624E-05-3.90869E-07 4.89560E-19 7.96004E-19
 -1      1014 1.11791E-04-4.28212E-05-2.95323E-05-4.94131E-06-7.52122E-19 8.90637E-19
 -1      1015 9.15776E-05-2.50908E-05-2.84944E-05 6.69342E-07 1.75987E-19-2.64537E-19
 -1      1016 9.25583E-05-2.58328E-05-2.85969E-05 1.50316E-07 1.47969E-19-2.36451E-18
 -1      1017 9.33006E-05-2.64502E-05-2.86503E-05-1.16904E-07 1.21490E-19-1.63912E-18
 -1      1018 9.38501E-05-2.69459E-05-2.86735E-05-2.35147E-07-1.00918E-18-8.13754E-19
 -1      1019 9.42384E-05-2.73213E-05-2.86789E-05-2.65085E-07 7.03981E-19-2.76403E-19
 -1      1020 9.45392E-05-2.76327E-05-2.86743E-05-2.51200E-07 1.09997E-18-3.08814E-19
 -1      1021 9.47553E-05-2.78721E-05-2.86642E-05-2.15478E-07-5.48432E-19 5.73622E-19
 -1      1022 1.04662E-04-3.78842E-05-2.86198E-05-6.55696E-06-9.65047E-20 1.37051E-18
 -1      1023 9.48877E-05-2.80657E-05-2.86381E-05 1.62036E-07 1.97450E-18-2.21756E-19
 -1      1024 9.49574E-05-2.81469E-05-2.86332E-05 4.23276E-08 3.09855E-18 1.27953E-18
 -1      1025 1.06503E-04-3.91764E-05-2.88507E-05 6.08601E-06-8.87076E-19-1.26419E-18
 -1      1026 1.02060E-04-3.56539E-05-2.84703E-05 6.35949E-06-1.65387E-19-9.15349E-19
 -1      1027 9.89198E-05-3.27726E-05-2.83466E-05 5.74156E-06 3.25883E-19-5.49193E-19
 -1      1028 9.67994E-05-3.06686E-05-2.83419E-05 4.82292E-06-3.76803E-19-1.87765E-18
 -1      1029 9.54989E-05-2.92355E-05-2.83989E-05 3.80153E-06-1.63082E-20-1.37152E-18
 -1      1030 9.47919E-05-2.83672E-05-2.84675E-05 2.89283E-06 5.73442E-19-7.89425E-19
 -1      1031 9.44605E-05-2.78888E-05-2.85304E-05 2.14520E-06-4.58762E-19-3.20288E-20
 -1      1032 9.43671E-05-2.76829E-05-2.85790E-05 1.55749E-06-1.87396E-18 9.90547E-19
 -1      1033 9.44027E-05-2.76395E-05-2.86128E-05 1.11841E-06-9.58423E-19 1.34112E-18
 -1      1034 9.45067E-05-2.76959E-05-2.86332E-05 7.92015E-07 4.55598E-19 9.73153E-19
 -1      1035 9.46347E-05-2.78015E-05-2.86428E-05 5.56458E-07 1.99536E-18 1.05125E-18
 -1      1036 9.47578E-05-2.79210E-05-2.86444E-05 3.88057E-07 2.23272E-18-1.74517E-18
 -1      1037 1.12633E-04-4.34606E-05-2.96393E-05 5.54416E-06-5.47001E-19-1.83457E-18
 -1      1038 8.87742E-05-2.79708E-05-2.60767E-05-1.69013E-05-2.94297E-19 6.58585E-19
 -1      1039 8.48217E-05-2.20790E-05-2.68828E-05 8.96439E-06-3.28606E-19 8.53510E-19
 -1      1040 9.62178E-05-2.90992E-05-2.87650E-05-2.63680E-06 1.90219E-19 2.47681E-19
 -1      1041 8.19881E-05-2.22199E-05-2.55983E-05 1.49205E-05-1.72030E-18 2.26983E-18
 -1      1042 9.57006E-05-2.66556E-05-2.95911E-05 3.19200E-07 2.23988E-19 9.87215E-19
 -1      1043 1.02323E-04-3.80483E-05-2.75558E-05-1.46765E-05-2.62968E-19 4.12721E-19
 -1      1044 9.56081E-05-2.51515E-05-3.01947E-05-1.48433E-07 2.51943E-19 4.73140E-19
 -1      1045 9.56749E-05-2.52481E-05-3.01846E-05-1.28979E-07 3.43713E-19 1.02578E-19
 -1      1046 8.68989E-05-2.25704E-05-2.75698E-05 5.44416E-06-4.74232E-19-2.53569E-19
 -1      1047 8.87718E-05-2.33601E-05-2.80330E-05 3.06487E-06 1.30650E-18 4.55860E-19
 -1      1048 9.57541E-05-2.60398E-05-2.98782E-05 1.27669E-07 1.90571E-19 9.65429E-19
 -1      1049 9.98794E-05-3.62762E-05-2.72511E-05 1.58726E-05-4.15436E-19 2.53638E-19
 -1      1050 9.61542E-05-2.72460E-05-2.95327E-05-9.07080E-07-7.15801E-20 3.86893E-19
 -1      1051 9.49104E-05-2.80566E-05-2.86516E-05-1.73531E-07-6.49779E-19-2.22001E-19
 -1      1052 1.01011E-04-3.47488E-05-2.83901E-05-6.42325E-06-7.60765E-19 1.54222E-18
 -1      1053 9.48213E-05-2.79897E-05-2.86420E-05 2.59061E-07 1.15396E-18-5.84281E-19
 -1      1054 9.56479E-05-2.54012E-05-3.01036E-05-7.86336E-08 1.85240E-19 9.66739E-19
 -1      1055 9.61676E-05-2.78337E-05-2.92861E-05-1.38216E-06 1.37726E-20 5.40563E-19
 -1      1056 9.61311E-05-2.95193E-05-2.85477E-05-3.76101E-06-9.08944E-20 6.40614E-19
 -1      1057 9.48367E-05-2.79950E-05-2.86464E-05-4.92568E-08 6.99516E-20 1.34697E-18
 -1      1058 9.57930E-05-2.84516E-05-2.88607E-05-2.30671E-06 1.53937E-19 2.78760E-19
 -1      1059 9.59108E-05-2.81241E-05-2.90518E-05-1.76933E-06 9.07562E-20-4.77391E-20
 -1      1060 9.69717E-05-3.06324E-05-2.84326E-05-4.65996E-06-1.09378E-18 1.18562E-18
 -1      1061 9.53209E-05-2.71373E-05-2.92215E-05-3.50030E-07-1.38249E-19 2.86643E-19
 -1      1062 9.47209E-05-2.70885E-05-2.89857E-05-7.43424E-07-4.40476E-19 5.92843E-19
 -1      1063 9.40157E-05-2.69122E-05-2.87593E-05-1.44184E-06-2.36898E-19 9.76988E-19
 -1      1064 9.31709E-05-2.66318E-05-2.85154E-05-2.52502E-06-2.02105E-19 8.59287E-19
 -1      1065 9.24287E-05-2.65570E-05-2.82362E-05-4.07271E-06-5.59303E-19 7.19340E-19
 -1      1066 9.19239E-05-2.68205E-05-2.78971E-05-6.36281E-06-4.11387E-19 4.47536E-19
 -1      1067 9.18640E-05-2.77680E-05-2.74683E-05-9.50879E-06-5.45726E-19 4.95044E-19
 -1      1068 9.56985E-05-2.68907E-05-2.94885E-05-1.44955E-07 1.15271E-19 5.17378E-19
 -1      1069 9.24760E-05-2.59626E-05-2.85054E-05 1.20551E-06-8.23659E-19 4.05502E-19
 -1      1070 9.31319E-05-2.64326E-05-2.85852E-05 6.27545E-07-1.00567E-18-1.72076E-18
 -1      1071 9.36307E-05-2.68296E-05-2.86293E-05 2.86593E-07-4.20456E-19-2.45691E-18
 -1      1072 9.40299E-05-2.71781E-05-2.86508E-05 9.73258E-08 9.85327E-19-1.80293E-18
 -1      1073 9.43570E-05-2.74866E-05-2.86587E-05-8.99601E-09 1.09163E-18-3.98292E-19
 -1      1074 9.46090E-05-2.77419E-05-2.86572E-05-5.66563E-08 1.07586E-18-7.16343E-19
 -1      1075 1.04599E-04-3.87941E-05-2.82147E-05 1.09633E-05-7.75740E-19-2.14834E-18
 -1      1076 9.55348E-05-3.17424E-05-2.73310E-05-1.25288E-05-5.09138E-19-1.96870E-19
 -1      1077 9.17234E-05-2.55246E-05-2.83714E-05 2.15715E-06-6.37176E-19 8.71076E-19
 -1      1078 9.01366E-05-2.77581E-05-2.67385E-05 1.40047E-05-7.48558E-19 1.86419E-18
 -1      1079 9.85164E-05-3.23415E-05-2.83613E-05-5.61750E-06-6.27650E-19 1.63898E-18
 -1      1080 9.55886E-05-3.01009E-05-2.80632E-05 6.97677E-06-1.29266E-19-8.08966E-19
 -1      1081 9.97847E-05-3.44208E-05-2.80107E-05 9.68037E-06-6.31881E-19-1.79797E-18
 -1      1082 9.43541E-05-2.85444E-05-2.82036E-05 5.22316E-06 3.73214E-19-1.49511E-18
 -1      1083 9.37952E-05-2.76904E-05-2.83319E-05 3.76500E-06 5.78698E-19-2.49688E-18
 -1      1084 9.36333E-05-2.72657E-05-2.84422E-05 2.61099E-06-1.10913E-18-2.99559E-18
 -1      1085 9.37504E-05-2.71792E-05-2.85282E-05 1.75974E-06-1.40160E-18-1.61137E-18
 -1      1086 9.39070E-05-2.72166E-05-2.85818E-05 1.19302E-06-2.40202E-18-1.26838E-18
 -1      1087 9.41328E-05-2.73602E-05-2.86169E-05 7.86678E-07 6.88903E-20-6.29197E-19
 -1      1088 9.43549E-05-2.75375E-05-2.86361E-05 5.13379E-07 5.50454E-19-1.32022E-18
 -1      1089 9.45544E-05-2.77183E-05-2.86439E-05 3.29341E-07 2.81912E-18 3.44218E-19
 -1      1090 9.60090E-05-2.63096E-05-2.98699E-05-3.99866E-07 1.89233E-19 5.62112E-20
 -1      1091 9.47145E-05-2.78753E-05-2.86458E-05 1.14424E-07 7.37079E-19 1.05156E-18
 -1      1092 9.58197E-05-2.88659E-05-2.86940E-05-2.95680E-06 3.51903E-20-5.64626E-20
 -1      1093 9.58694E-05-2.61844E-05-2.98656E-05-2.43553E-07 2.24034E-19 3.38445E-19
 -1      1094 8.96034E-05-2.55342E-05-2.74588E-05 8.59106E-06-1.73654E-19 1.74815E-19
 -1      1095 9.51056E-05-2.79799E-05-2.87694E-05-2.36214E-06 1.57614E-19 2.70028E-19
 -1      1096 9.95583E-05-3.44485E-05-2.79093E-05-1.03622E-05-2.48521E-19-1.71752E-19
 -1      1097 9.09093E-05-2.51731E-05-2.81702E-05 3.54738E-06 9.27358E-19 2.72610E-19
 -1      1098 9.60415E-05-2.77792E-05-2.92557E-05-1.34111E-06-7.16126E-20-4.30201E-19
 -1      1099 9.54296E-05-2.78181E-05-2.89761E-05-1.66536E-06-3.14115E-20 1.85922E-19
 -1      1100 9.51062E-05-2.88718E-05-2.83844E-05-4.61348E-06-8.85899E-19 6.33284E-19
 -1      1101 9.49673E-05-2.82967E-05-2.85724E-05-3.32756E-06-6.59651E-19 2.65813E-19
 -1      1102 9.02359E-05-2.51621E-05-2.78871E-05 5.56027E-06 1.04611E-18 9.47121E-19
 -1      1103 9.45825E-05-2.77023E-05-2.86623E-05-2.59880E-06-9.44828E-20 7.57294E-19
 -1      1104 9.52146E-05-2.99086E-05-2.79912E-05-7.52690E-06-4.02922E-19-1.20454E-19
 -1      1105 9.32781E-05-2.67063E-05-2.85342E-05 1.36715E-06-2.05079E-18-9.44963E-19
 -1      1106 9.71637E-05-3.27621E-05-2.76198E-05 1.17123E-05-4.96496E-19-1.93445E-19
 -1      1107 9.22327E-05-2.71002E-05-2.79211E-05 6.55453E-06 9.95410E-19 4.25716E-19
 -1      1108 9.69564E-05-3.18788E-05-2.78986E-05-9.05936E-06-7.02599E-19-3.57984E-19
 -1      1109 9.59537E-05-2.70480E-05-2.95309E-05-6.23218E-07 9.67425E-20 7.06666E-20
 -1      1110 9.60963E-05-2.72657E-05-2.94975E-05-9.35656E-07 1.28185E-19-3.64697E-19
 -1      1111 9.42323E-05-2.94509E-05-2.77486E-05 8.92680E-06-8.97659E-19-1.33040E-19
 -1      1112 9.57456E-05-2.74947E-05-2.92498E-05-1.02131E-06-1.48210E-19 1.00565E-19
 -1      1113 1.16522E-04 2.56680E-10-4.17316E-05-4.14870E-05-9.65618E-20-2.81194E-18
 -1      1114 8.85705E-05 7.15255E-11-3.72224E-05-2.40571E-05-1.37643E-20-2.52768E-18
 -1      1115 8.40829E-05 4.14640E-11-3.57677E-05-1.77973E-05 1.78406E-20-1.88708E-18
 -1      1116 8.23715E-05 3.20638E-11-3.50868E-05-1.37520E-05 2.51992E-20-1.39086E-18
 -1      1117 8.15841E-05 2.72925E-11-3.47592E-05-1.04455E-05 2.76212E-20-9.79501E-19
 -1      1118 8.11821E-05 2.44696E-11-3.45961E-05-7.56101E-06 2.75881E-20-6.10446E-19
 -1      1119 8.09692E-05 2.27332E-11-3.45123E-05-4.91916E-06 2.69330E-20-2.08807E-19
 -1      1120 8.08616E-05 2.17841E-11-3.44714E-05-2.39906E-06 2.72341E-20 1.20901E-19
 -1      1121 8.08283E-05 2.14934E-11-3.44588E-05 5.34001E-08 2.65897E-20 4.56233E-19
 -1      1122 8.08599E-05 2.18242E-11-3.44704E-05 2.50804E-06 4.16039E-20 7.76087E-19
 -1      1123 8.09668E-05 2.28235E-11-3.45107E-05 5.03533E-06 3.14329E-20 1.11895E-18
 -1      1124 8.11832E-05 2.46107E-11-3.45947E-05 7.69122E-06 2.71514E-20 1.61112E-18
 -1      1125 8.15895E-05 2.75649E-11-3.47597E-05 1.06000E-05 2.97388E-20 2.15684E-18
 -1      1126 8.23853E-05 3.25190E-11-3.50918E-05 1.39482E-05 2.71051E-20 2.74580E-18
 -1      1127 8.40759E-05 4.19847E-11-3.57842E-05 1.80442E-05 1.96406E-20 3.44352E-18
 -1      1128 8.83006E-05 6.68097E-11-3.72995E-05 2.39362E-05-2.10699E-20 4.11608E-18
 -1      1129 1.06473E-04 1.63783E-10-4.05846E-05 3.61172E-05-1.71524E-19 4.14601E-18
 -1      1130 1.31098E-04-2.56679E-05-4.03606E-05-2.69874E-05-2.27322E-19-3.17807E-18
 -1      1131 9.80824E-05-2.90058E-05-3.18111E-05-9.17751E-07-5.25955E-20-3.56315E-18
 -1      1132 9.02309E-05-2.70311E-05-2.79698E-05 3.88235E-07-3.47813E-20-3.80950E-18
 -1      1133 8.82504E-05-2.65728E-05-2.66612E-05 2.54500E-07 2.24662E-21-4.10819E-18
 -1      1134 8.79053E-05-2.64533E-05-2.63973E-05 1.66876E-07 6.30593E-20-4.01737E-18
 -1      1135 8.83335E-05-2.65504E-05-2.65015E-05 1.17694E-07-9.57966E-20-3.98015E-18
 -1      1136 8.91271E-05-2.67712E-05-2.67368E-05 8.75972E-08-4.92197E-20-4.08329E-18
 -1      1137 9.01181E-05-2.70561E-05-2.70357E-05 6.61800E-08-4.00508E-20-3.91607E-18
 -1      1138 9.12643E-05-2.73950E-05-2.73819E-05 5.05580E-08-4.42277E-20-4.21114E-18
 -1      1139 9.25265E-05-2.77729E-05-2.77658E-05 4.00079E-08-1.77790E-20-4.14661E-18
 -1      1140 9.39463E-05-2.82014E-05-2.82013E-05 3.42656E-08-2.15898E-20-4.22452E-18
 -1      1141 9.56246E-05-2.87106E-05-2.87207E-05 3.46633E-08 8.61724E-20-3.64855E-18
 -1      1142 9.77358E-05-2.93511E-05-2.93799E-05 4.51279E-08 3.50725E-20-2.87299E-18
 -1      1143 1.00472E-04-3.01860E-05-3.02391E-05 7.23676E-08-7.11557E-20-3.18596E-18
 -1      1144 1.04278E-04-3.13391E-05-3.14425E-05 1.19929E-07 5.41605E-20-3.33334E-18
 -1      1145 1.09869E-04-3.30280E-05-3.32088E-05 2.19592E-07 8.62352E-20-3.11136E-18
 -1      1146 1.17980E-04-3.54676E-05-3.57491E-05 3.98036E-07 6.52083E-20-2.99500E-18
 -1      1147 1.29532E-04-3.89340E-05-3.92731E-05 6.85957E-07 1.24381E-19-1.84314E-18
 -1      1148 1.45041E-04-4.35907E-05-4.37484E-05 1.06086E-06 2.85443E-20-4.60680E-19
 -1      1149 1.63157E-04-4.90511E-05-4.84477E-05 1.25797E-06 7.67293E-20-6.82073E-19
 -1      1150 1.77627E-04-5.33753E-05-5.14422E-05 5.42914E-07 2.24715E-19-6.61744E-20
 -1      1151 1.76467E-04-5.28110E-05-5.02843E-05-2.10443E-06 3.76665E-20 3.27378E-19
 -1      1152 1.48780E-04-4.37214E-05-4.42795E-05-5.95369E-06-3.16777E-19-1.14858E-18
 -1      1153 1.05426E-04-3.02177E-05-3.65409E-05-6.34520E-06 7.09390E-21-2.39668E-18
 -1      1154 7.94810E-05-2.28305E-05-3.23173E-05-8.20748E-07-8.88326E-20-4.04469E-18
 -1      1155 9.40909E-05-2.72345E-05-3.46125E-05 5.24772E-06-9.63500E-21-6.44677E-18
 -1      1156 1.36210E-04-4.01675E-05-4.17955E-05 5.64091E-06 1.70823E-19-1.01729E-17
 -1      1157 1.70471E-04-5.10072E-05-4.87773E-05 2.82510E-06-1.41984E-19-1.31078E-17
 -1      1158 1.79880E-04-5.43031E-05-5.16746E-05 2.56111E-07 2.23723E-19-9.59604E-18
 -1      1159 1.68612E-04-5.08392E-05-4.97138E-05-8.45440E-07 9.54269E-20-7.03027E-18
 -1      1160 1.51072E-04-4.53970E-05-4.54050E-05-9.04814E-07-3.75815E-19-8.70072E-18
 -1      1161 1.34916E-04-4.04970E-05-4.08605E-05-6.77851E-07-4.60574E-21-6.41384E-18
 -1      1162 1.22138E-04-3.66526E-05-3.70231E-05-4.24535E-07 1.29470E-19-3.49443E-18
 -1      1163 1.13135E-04-3.39568E-05-3.42230E-05-2.48681E-07-1.35016E-19-4.58430E-18
 -1      1164 1.07040E-04-3.21314E-05-3.22997E-05-1.40347E-07 3.78319E-19-5.45248E-18
 -1      1165 1.02985E-04-3.09142E-05-3.10153E-05-7.74413E-08-1.02197E-19-4.42448E-18
 -1      1166 1.00304E-04-3.01065E-05-3.01669E-05-4.17866E-08-2.07034E-19-2.56161E-18
 -1      1167 9.85670E-05-2.95849E-05-2.96187E-05-1.89815E-08 3.86972E-20-1.56599E-18
 -1      1168 9.74089E-05-2.92322E-05-2.92541E-05-1.18738E-08-1.72318E-20-1.12466E-18
 -1      1169 9.66154E-05-2.89917E-05-2.90049E-05-5.62390E-09-5.51222E-19-2.64098E-18
 -1      1170 9.60897E-05-2.88321E-05-2.88402E-05-2.26065E-09-4.99700E-19-3.87065E-18
 -1      1171 9.57430E-05-2.87267E-05-2.87316E-05-4.52197E-10 3.04704E-20-2.14624E-18
 -1      1172 9.55167E-05-2.86577E-05-2.86609E-05 4.99319E-10 1.70980E-19 1.29964E-18
 -1      1173 9.53722E-05-2.86136E-05-2.86156E-05 9.74209E-10-2.13412E-19 3.93972E-18
 -1      1174 9.52852E-05-2.85871E-05-2.85882E-05 1.39998E-09-2.51476E-19 5.89992E-18
 -1      1175 9.52351E-05-2.85715E-05-2.85724E-05 1.27951E-09-7.09824E-20 2.73019E-18
 -1      1176 9.52100E-05-2.85637E-05-2.85643E-05 1.32976E-09 3.81535E-19 7.35232E-19
 -1      1177 9.52037E-05-2.85616E-05-2.85620E-05 1.41122E-09-1.15819E-19 2.05934E-18
 -1      1178 9.52101E-05-2.85633E-05-2.85635E-05 1.57072E-09-3.18801E-19 6.22404E-19
 -1      1179 9.52237E-05-2.85673E-05-2.85666E-05 1.68848E-09 7.23050E-20 2.96902E-18
 -1      1180 9.52350E-05-2.85710E-05-2.85687E-05 1.88877E-10-7.45572E-19 4.58462E-18
 -1      1181 1.30826E-04-3.76679E-05-3.86042E-05 1.21532E-05-7.30566E-20 3.77734E-18
 -1      1182 9.64377E-05-2.81559E-05-3.12917E-05 7.99836E-07-7.87211E-20 5.01486E-18
 -1      1183 9.03109E-05-2.69175E-05-2.78520E-05 1.20030E-07-8.42268E-20 5.91135E-18
 -1      1184 8.83388E-05-2.65072E-05-2.66790E-05 8.75309E-09-2.12238E-20 6.45831E-18
 -1      1185 8.80143E-05-2.64394E-05-2.64403E-05-2.50954E-08-5.19833E-20 6.75506E-18
 -1      1186 8.84555E-05-2.65631E-05-2.65462E-05-3.26591E-08-1.77629E-20 6.89924E-18
 -1      1187 8.92689E-05-2.67975E-05-2.67849E-05-3.36960E-08-5.57640E-20 7.57772E-18
 -1      1188 9.02566E-05-2.70874E-05-2.70786E-05-3.26241E-08-2.45708E-20 8.08350E-18
 -1      1189 9.13107E-05-2.73993E-05-2.73927E-05-3.12615E-08-6.17757E-20 7.77535E-18
 -1      1190 9.23669E-05-2.77129E-05-2.77075E-05-3.05565E-08 3.78792E-21 8.13624E-18
 -1      1191 9.33801E-05-2.80138E-05-2.80090E-05-3.11744E-08 4.87151E-20 8.18686E-18
 -1      1192 9.43078E-05-2.82887E-05-2.82834E-05-3.34899E-08 5.11538E-20 7.26848E-18
 -1      1193 9.50965E-05-2.85215E-05-2.85136E-05-3.74220E-08 1.01581E-19 5.80316E-18
 -1      1194 9.56704E-05-2.86893E-05-2.86761E-05-4.21673E-08 8.82395E-21 5.34991E-18
 -1      1195 9.59237E-05-2.87609E-05-2.87388E-05-4.58912E-08-5.72740E-20 5.41928E-18
 -1      1196 9.57212E-05-2.86967E-05-2.86621E-05-4.55288E-08 1.78217E-19 4.81353E-18
 -1      1197 9.49120E-05-2.84527E-05-2.84035E-05-3.69809E-08-1.16197E-19 4.75270E-18
 -1      1198 9.33617E-05-2.79901E-05-2.79277E-05-1.60630E-08-4.61699E-20 5.22896E-18
 -1      1199 9.10052E-05-2.72903E-05-2.72220E-05 1.95703E-08-1.69166E-19 5.09523E-18
 -1      1200 8.79125E-05-2.63740E-05-2.63138E-05 6.78315E-08-1.41840E-19 5.51850E-18
 -1      1201 8.43444E-05-2.53173E-05-2.52839E-05 1.20142E-07-1.43602E-19 5.72480E-18
 -1      1202 8.07643E-05-2.42553E-05-2.42663E-05 1.61921E-07 1.46575E-19 5.46789E-18
 -1      1203 7.77720E-05-2.33638E-05-2.34275E-05 1.77126E-07 2.61521E-20 4.70844E-18
 -1      1204 7.59563E-05-2.28174E-05-2.29260E-05 1.55790E-07-2.09469E-19 4.62757E-18
 -1      1205 7.57103E-05-2.27351E-05-2.28651E-05 1.00198E-07 1.28230E-20 4.43156E-18
 -1      1206 7.70933E-05-2.31386E-05-2.32589E-05 2.51655E-08-1.35707E-19 6.04443E-18
 -1      1207 7.98100E-05-2.39435E-05-2.40275E-05-4.83883E-08 1.94656E-19 3.53737E-18
 -1      1208 8.33184E-05-2.49897E-05-2.50249E-05-1.02564E-07-2.99859E-19 3.43543E-18
 -1      1209 8.70091E-05-2.60944E-05-2.60843E-05-1.28851E-07 2.61120E-21 2.83563E-18
 -1      1210 9.03718E-05-2.71034E-05-2.70621E-05-1.28850E-07 1.66157E-19 2.27934E-18
 -1      1211 9.30883E-05-2.79198E-05-2.78645E-05-1.10602E-07-1.74122E-20 3.96304E-18
 -1      1212 9.50429E-05-2.85078E-05-2.84529E-05-8.37548E-08 6.25051E-20 2.82134E-18
 -1      1213 9.62759E-05-2.88791E-05-2.88332E-05-5.61689E-08-1.23824E-19 1.10517E-18
 -1      1214 9.69170E-05-2.90726E-05-2.90390E-05-3.26050E-08-1.48961E-19 1.09785E-18
 -1      1215 9.71272E-05-2.91365E-05-2.91150E-05-1.49716E-08 4.53052E-19-8.27176E-19
 -1      1216 9.70585E-05-2.91167E-05-2.91048E-05-3.24067E-09-2.73158E-19-9.17795E-19
 -1      1217 9.68350E-05-2.90501E-05-2.90452E-05 3.60586E-09 2.03458E-19-9.20081E-19
 -1      1218 9.65461E-05-2.89639E-05-2.89634E-05 6.88864E-09 1.40624E-19-1.78768E-18
 -1      1219 9.62504E-05-2.88755E-05-2.88774E-05 7.83872E-09-3.16358E-19-1.63617E-18
 -1      1220 9.59814E-05-2.87950E-05-2.87979E-05 7.43101E-09-6.74216E-20-4.60911E-19
 -1      1221 9.57551E-05-2.87272E-05-2.87303E-05 6.35557E-09-3.90639E-19-1.28144E-18
 -1      1222 9.55758E-05-2.86734E-05-2.86763E-05 5.05566E-09-4.67847E-19 1.86115E-18
 -1      1223 9.54411E-05-2.86329E-05-2.86354E-05 3.78723E-09-2.93998E-19 2.71515E-18
 -1      1224 9.53454E-05-2.86042E-05-2.86062E-05 2.67636E-09-1.51108E-19 6.07255E-19
 -1      1225 9.52819E-05-2.85850E-05-2.85866E-05 1.76379E-09-3.80943E-20-2.17671E-18
 -1      1226 9.52437E-05-2.85735E-05-2.85747E-05 1.03178E-09 2.85225E-19-5.98308E-18
 -1      1227 9.52251E-05-2.85678E-05-2.85688E-05 4.19034E-10 2.90234E-20-8.68821E-18
 -1      1228 9.52212E-05-2.85665E-05-2.85672E-05-2.20163E-10-2.73863E-19-6.71036E-18
 -1      1229 9.52271E-05-2.85680E-05-2.85681E-05-1.05506E-09 7.19931E-19-8.40891E-18
 -1      1230 9.52350E-05-2.85707E-05-2.85691E-05-7.07789E-10-2.77970E-19-6.16992E-18
 -1      1231 9.52376E-05-2.85735E-05-2.85691E-05-8.12520E-10-6.21056E-18-1.04140E-19
 -1      1232 9.52398E-05-2.85808E-05-2.85683E-05-1.55391E-09-9.66731E-18 5.11657E-19
 -1      1233 9.52411E-05-2.85851E-05-2.85677E-05-8.25954E-10-6.59641E-18 9.06285E-20
 -1      1234 9.52399E-05-2.85810E-05-2.85689E-05-1.08389E-10-3.70311E-18-1.75106E-19
 -1      1235 9.52368E-05-2.85700E-05-2.85718E-05 3.19256E-10-3.70631E-19-2.18806E-19
 -1      1236 9.52327E-05-2.85560E-05-2.85756E-05 4.64083E-10-3.94945E-18-6.41089E-19
 -1      1237 9.52290E-05-2.85432E-05-2.85791E-05 3.73848E-10-3.78161E-18 3.41180E-19
 -1      1238 9.52268E-05-2.85353E-05-2.85812E-05 1.11979E-10-5.61122E-18-9.81033E-19
 -1      1239 9.52267E-05-2.85349E-05-2.85813E-05-2.23508E-10-3.62171E-18-6.13502E-19
 -1      1240 9.52289E-05-2.85424E-05-2.85792E-05-5.25839E-10 9.51774E-19 3.99436E-19
 -1      1241 9.52329E-05-2.85563E-05-2.85754E-05-6.83148E-10 2.69778E-18-1.15174E-18
 -1      1242 9.52377E-05-2.85728E-05-2.85709E-05-6.02517E-10-4.36108E-19-3.30496E-19
 -1      1243 9.52419E-05-2.85875E-05-2.85669E-05-2.26231E-10 3.77979E-20-1.66486E-19
 -1      1244 9.52443E-05-2.85959E-05-2.85647E-05 4.65255E-10 4.72882E-18 6.57422E-19
 -1      1245 9.52439E-05-2.85945E-05-2.85650E-05 1.29043E-09 8.13629E-18 9.52692E-19
 -1      1246 9.52406E-05-2.85841E-05-2.85670E-05 1.67298E-09 7.02107E-18-7.21241E-19
 -1      1247 9.52370E-05-2.85731E-05-2.85688E-05-1.18348E-10-4.57727E-18 1.16389E-18
 -1      1248 3.53125E-05-1.11609E-04 1.96365E-05-1.35152E-05 9.72224E-18 1.58138E-18
 -1      1249 1.67145E-05-6.05942E-05 8.61305E-06-2.19403E-05 1.14333E-17 3.88449E-18
 -1      1250 8.70132E-06-1.96861E-06-8.37702E-06 6.67358E-06 6.21383E-18 2.96631E-18
 -1      1251 3.98428E-05 3.02684E-05-2.99008E-05 6.35967E-05 4.06068E-18 3.82181E-18
 -1      1252 1.17700E-04 1.57664E-05-5.11898E-05 1.12861E-04 2.38440E-18 3.83028E-18
 -1      1253 2.18514E-04-3.28009E-05-6.87510E-05 1.17211E-04 5.57348E-19 7.82658E-19
 -1      1254 3.03549E-04-8.39294E-05-8.02256E-05 6.84044E-05-3.37119E-19-4.81454E-18
 -1      1255 3.26985E-04-9.86782E-05-8.30765E-05-1.60508E-05 6.19922E-20-7.96656E-18
 -1      1256 2.77784E-04-6.77011E-05-7.69682E-05-9.15209E-05 1.63202E-18-6.91602E-18
 -1      1257 1.81880E-04-1.36105E-05-6.29170E-05-1.22466E-04 2.03966E-18-4.24194E-18
 -1      1258 8.37128E-05 2.69990E-05-4.35473E-05-9.78226E-05 1.98206E-18-2.57329E-18
 -1      1259 2.24940E-05 2.54694E-05-2.23238E-05-4.30463E-05 1.30274E-18-1.26208E-18
 -1      1260 7.66733E-06-1.77292E-05-2.74097E-06 6.09938E-06 1.39760E-18-9.10560E-19
 -1      1261 2.26546E-05-7.83824E-05 1.27226E-05 2.32601E-05-9.76629E-19 1.47595E-19
 -1      1262 3.90960E-05-1.21372E-04 2.14285E-05 5.97742E-06-3.01544E-19 4.92417E-19
 -1      1263 3.61433E-05-1.20010E-04 2.15617E-05-2.52923E-05 6.36545E-19-3.56124E-19
 -1      1264 1.69427E-05-7.73183E-05 1.26029E-05-3.89531E-05-1.41624E-18-8.58891E-19
 -1      1265 6.78072E-06-1.88961E-05-4.58193E-06-1.19536E-05-4.87383E-18-3.67951E-18
 -1      1266 3.96193E-05 1.57578E-05-2.77925E-05 4.77999E-05-5.53451E-18-6.03596E-18
 -1      1267 1.31269E-04 2.04557E-06-5.25169E-05 1.05248E-04-4.67054E-18-6.67631E-18
 -1      1268 2.60245E-04-5.17483E-05-7.45176E-05 1.17273E-04-1.70592E-18-4.15216E-18
 -1      1269 3.66926E-04-1.07123E-04-8.84432E-05 6.47830E-05-4.44110E-19-1.76437E-18
 -1      1270 3.84884E-04-1.16358E-04-9.08805E-05-2.87107E-05-3.47707E-19 3.24117E-18
 -1      1271 3.11624E-04-7.76011E-05-8.13846E-05-1.03782E-04-2.33358E-18 6.83556E-18
 -1      1272 1.84747E-04-1.78548E-05-6.25762E-05-1.16958E-04-6.39425E-18 1.30206E-17
 -1      1273 7.35512E-05 1.62195E-05-3.88304E-05-7.61471E-05-9.47491E-18 1.20092E-17
 -1      1274 1.52939E-05 3.48200E-06-1.55159E-05-1.47543E-05-8.39579E-18 7.80964E-18
 -1      1275 7.44140E-06-4.46179E-05 4.24848E-06 2.95248E-05-5.34986E-18 3.05694E-18
 -1      1276 2.52997E-05-9.80525E-05 1.73561E-05 3.83347E-05-2.79351E-18 1.62630E-18
 -1      1277 4.02372E-05-1.26615E-04 2.26390E-05 1.62717E-05 3.08892E-18 1.28040E-18
 -1      1278 1.04538E-04-2.18395E-05-3.79768E-05-1.76143E-05-1.05456E-19-3.06584E-18
 -1      1279 9.02843E-05-6.65964E-06-3.60048E-05-2.04195E-05 1.12602E-19-2.22563E-18
 -1      1280 9.24696E-05-6.55515E-06-3.71667E-05-2.57218E-05 2.28699E-20-2.52908E-18
 -1      1281 8.59226E-05-4.09750E-06-3.51356E-05-1.63488E-05 2.89579E-19-1.68750E-18
 -1      1282 8.71589E-05-4.08799E-06-3.55969E-05-1.87671E-05 2.35899E-19-1.98320E-18
 -1      1283 9.21310E-05-1.04696E-05-3.50850E-05-1.89703E-05 2.93973E-19-1.91112E-18
 -1      1284 8.41446E-05-3.19563E-06-3.47040E-05-1.27271E-05 4.10295E-19-1.25804E-18
 -1      1285 8.47424E-05-3.16410E-06-3.49234E-05-1.45446E-05 4.07820E-19-1.47799E-18
 -1      1286 8.78984E-05-7.39793E-06-3.45836E-05-1.53247E-05 5.31593E-19-1.51206E-18
 -1      1287 8.32341E-05-2.72324E-06-3.44926E-05-9.59427E-06 4.65663E-19-8.48118E-19
 -1      1288 8.35487E-05-2.70705E-06-3.46001E-05-1.11393E-05 4.59859E-19-1.06578E-18
 -1      1289 8.59133E-05-5.98145E-06-3.43247E-05-1.18571E-05 6.78103E-19-1.11456E-18
 -1      1290 8.27343E-05-2.44323E-06-3.43878E-05-6.83613E-06 4.73167E-19-4.56114E-19
 -1      1291 8.29067E-05-2.43516E-06-3.44420E-05-8.19940E-06 4.72545E-19-6.64947E-19
 -1      1292 8.48593E-05-5.19564E-06-3.41976E-05-8.84977E-06 7.33941E-19-6.94196E-19
 -1      1293 8.24482E-05-2.26965E-06-3.43341E-05-4.23888E-06 4.92943E-19-1.10670E-19
 -1      1294 8.25436E-05-2.26607E-06-3.43621E-05-5.52781E-06 4.91941E-19-3.15017E-19
 -1      1295 8.42598E-05-4.72390E-06-3.41356E-05-6.13989E-06 7.89110E-19-3.58957E-19
 -1      1296 8.23064E-05-2.17479E-06-3.43101E-05-1.76416E-06 5.20335E-19 2.48154E-19
 -1      1297 8.23489E-05-2.17344E-06-3.43221E-05-2.99976E-06 5.16096E-19 7.45124E-20
 -1      1298 8.39226E-05-4.44739E-06-3.41058E-05-3.59442E-06 8.17509E-19 1.87671E-20
 -1      1299 8.22755E-05-2.14529E-06-3.43060E-05 6.61942E-07 5.50883E-19 5.74791E-19
 -1      1300 8.22757E-05-2.14541E-06-3.43063E-05-5.57334E-07 5.51849E-19 3.93182E-19
 -1      1301 8.37707E-05-4.32073E-06-3.40934E-05-1.15312E-06 8.78731E-19 3.26147E-19
 -1      1302 8.23497E-05-2.17728E-06-3.43205E-05 3.10766E-06 5.87943E-19 8.54603E-19
 -1      1303 8.23073E-05-2.17881E-06-3.43090E-05 1.86969E-06 5.77497E-19 6.88572E-19
 -1      1304 8.37723E-05-4.32472E-06-3.40925E-05 1.25612E-06 9.12590E-19 6.05827E-19
 -1      1305 8.25477E-05-2.27537E-06-3.43597E-05 5.64398E-06 5.28453E-19 1.23598E-18
 -1      1306 8.24513E-05-2.27848E-06-3.43319E-05 4.34967E-06 5.36840E-19 1.00858E-18
 -1      1307 8.39285E-05-4.46006E-06-3.41032E-05 3.70149E-06 8.98217E-19 8.61843E-19
 -1      1308 8.29131E-05-2.44828E-06-3.44389E-05 8.30603E-06 5.03468E-19 1.69649E-18
 -1      1309 8.27388E-05-2.45666E-06-3.43845E-05 6.93489E-06 5.07230E-19 1.42961E-18
 -1      1310 8.42704E-05-4.74479E-06-3.41313E-05 6.23300E-06 8.41971E-19 1.21435E-18
 -1      1311 8.35737E-05-2.73378E-06-3.45993E-05 1.12954E-05 4.77952E-19 2.26520E-18
 -1      1312 8.32531E-05-2.75046E-06-3.44903E-05 9.73462E-06 4.72810E-19 1.96531E-18
 -1      1313 8.48832E-05-5.23237E-06-3.41926E-05 8.95749E-06 7.78953E-19 1.71998E-18
 -1      1314 8.47923E-05-3.20718E-06-3.49270E-05 1.47428E-05 4.11102E-19 2.84190E-18
 -1      1315 8.41835E-05-3.24139E-06-3.47042E-05 1.29015E-05 4.24152E-19 2.52736E-18
 -1      1316 8.59724E-05-6.05304E-06-3.43210E-05 1.20149E-05 6.78672E-19 2.21481E-18
 -1      1317 8.72524E-05-4.09695E-06-3.56153E-05 1.90012E-05 1.88624E-19 3.57006E-18
 -1      1318 8.59888E-05-4.16155E-06-3.51397E-05 1.66001E-05 2.10038E-19 3.16745E-18
 -1      1319 8.80102E-05-7.52293E-06-3.45815E-05 1.55457E-05 4.45156E-19 2.80805E-18
 -1      1320 9.34155E-05-6.80030E-06-3.70916E-05 2.50142E-05-4.20340E-20 4.13463E-18
 -1      1321 9.01105E-05-6.44392E-06-3.60258E-05 2.10629E-05 1.24408E-20 3.85707E-18
 -1      1322 9.23483E-05-1.07039E-05-3.50705E-05 1.95812E-05 1.07626E-19 3.38136E-18
 -1      1323 1.23455E-04-2.48908E-05-3.89674E-05 2.82990E-05-2.73380E-19 3.98614E-18
 -1      1324 9.99961E-05-1.44148E-05-3.73200E-05 2.39815E-05-1.54372E-19 4.24268E-18
 -1      1325 1.01623E-04-1.93392E-05-3.53789E-05 2.13167E-05-2.10157E-19 3.85125E-18
 -1      1326 1.02488E-04-2.77740E-05-3.47185E-05 7.29480E-06-2.96409E-19 4.33893E-18
 -1      1327 1.05532E-04-3.00674E-05-3.37625E-05-8.43830E-06-1.76818E-20-2.87674E-18
 -1      1328 9.84559E-05-2.77833E-05-3.09187E-05-5.21674E-06 3.91223E-20-2.99876E-18
 -1      1329 9.57255E-05-2.78711E-05-2.93642E-05-2.57697E-06-3.38548E-20-2.87275E-18
 -1      1330 9.34060E-05-2.75791E-05-2.82769E-05-2.11406E-06-5.48983E-20-2.96012E-18
 -1      1331 9.96549E-05-2.79062E-05-3.11129E-05-8.20498E-06 2.32934E-20-2.31285E-18
 -1      1332 9.16781E-05-2.72125E-05-2.76230E-05-8.53221E-07-3.35637E-20-2.91678E-18
 -1      1333 9.09459E-05-2.71196E-05-2.73087E-05-7.37772E-07 5.96496E-20-2.93635E-18
 -1      1334 9.48744E-05-2.77798E-05-2.88857E-05-3.21821E-06-3.77459E-20-2.06472E-18
 -1      1335 9.01989E-05-2.69394E-05-2.70644E-05-1.52657E-07 8.55040E-20-2.94966E-18
 -1      1336 9.01468E-05-2.69731E-05-2.70340E-05-8.99664E-08 5.27741E-20-2.93075E-18
 -1      1337 9.26504E-05-2.75225E-05-2.79453E-05-1.04371E-06 6.97082E-20-2.02115E-18
 -1      1338 8.99213E-05-2.69170E-05-2.69700E-05 2.07566E-07 1.15701E-19-2.83617E-18
 -1      1339 9.01851E-05-2.70191E-05-2.70466E-05 2.41219E-07 1.36055E-20-2.80193E-18
 -1      1340 9.17307E-05-2.73926E-05-2.75876E-05 8.68318E-09 1.47407E-19-2.11213E-18
 -1      1341 9.02443E-05-2.70385E-05-2.70706E-05 3.98759E-07-5.82319E-20-2.70057E-18
 -1      1342 9.06482E-05-2.71734E-05-2.71884E-05 4.16235E-07-1.09089E-20-2.73879E-18
 -1      1343 9.15720E-05-2.74094E-05-2.75087E-05 5.58101E-07 4.51442E-20-1.71622E-18
 -1      1344 9.08870E-05-2.72438E-05-2.72656E-05 5.14704E-07 5.59000E-20-2.67684E-18
 -1      1345 9.14035E-05-2.74083E-05-2.74164E-05 5.27209E-07-6.12254E-20-2.65843E-18
 -1      1346 9.18469E-05-2.75164E-05-2.75779E-05 8.69775E-07 5.13001E-20-1.50785E-18
 -1      1347 9.17582E-05-2.75090E-05-2.75290E-05 5.97718E-07-7.28167E-20-2.67402E-18
 -1      1348 9.23428E-05-2.76899E-05-2.77004E-05 6.08483E-07 7.36968E-20-2.67711E-18
 -1      1349 9.24147E-05-2.76978E-05-2.77420E-05 1.07697E-06-6.15613E-20-1.65125E-18
 -1      1350 9.27911E-05-2.78160E-05-2.78420E-05 6.79139E-07 1.15766E-19-2.71417E-18
 -1      1351 9.34480E-05-2.80145E-05-2.80356E-05 6.93562E-07 1.10702E-20-2.61403E-18
 -1      1352 9.31883E-05-2.79264E-05-2.79752E-05 1.24911E-06 6.70893E-20-1.40622E-18
 -1      1353 9.39925E-05-2.81660E-05-2.82078E-05 7.89732E-07-2.92921E-20-2.39075E-18
 -1      1354 9.47554E-05-2.83925E-05-2.84339E-05 8.13221E-07 2.09798E-20-2.36670E-18
 -1      1355 9.41459E-05-2.81970E-05-2.82706E-05 1.45022E-06 8.73908E-20-1.12048E-18
 -1      1356 9.54232E-05-2.85758E-05-2.86461E-05 9.62584E-07 1.30638E-19-2.44446E-18
 -1      1357 9.63585E-05-2.88495E-05-2.89244E-05 1.00183E-06 1.40167E-19-2.29431E-18
 -1      1358 9.53135E-05-2.85152E-05-2.86374E-05 1.74347E-06 1.50095E-19-1.08123E-18
 -1      1359 9.72032E-05-2.90792E-05-2.91949E-05 1.23914E-06 2.18192E-19-2.19282E-18
 -1      1360 9.84174E-05-2.94291E-05-2.95584E-05 1.30425E-06-7.49393E-20-2.07215E-18
 -1      1361 9.67647E-05-2.88978E-05-2.91000E-05 2.20318E-06 1.07821E-19-1.62102E-18
 -1      1362 9.94610E-05-2.97085E-05-2.98959E-05 1.65834E-06-7.81520E-20-2.12461E-18
 -1      1363 1.01030E-04-3.01617E-05-3.03650E-05 1.75049E-06-2.74922E-20-2.16375E-18
 -1      1364 9.85723E-05-2.93621E-05-2.96825E-05 2.90237E-06-1.03497E-20-1.47092E-18
 -1      1365 1.02490E-04-3.05459E-05-3.08423E-05 2.30561E-06 1.38139E-19-1.90962E-18
 -1      1366 1.04809E-04-3.12186E-05-3.15377E-05 2.46280E-06 2.73870E-19-1.74393E-18
 -1      1367 1.00945E-04-2.99564E-05-3.04558E-05 3.96725E-06 2.65360E-19-8.08337E-19
 -1      1368 1.06797E-04-3.17335E-05-3.21942E-05 3.28338E-06 6.72928E-20-1.59949E-18
 -1      1369 1.10131E-04-3.27124E-05-3.31926E-05 3.51875E-06 4.80890E-20-1.73655E-18
 -1      1370 1.04210E-04-3.07702E-05-3.15238E-05 5.59032E-06 1.06713E-19-2.58887E-19
 -1      1371 1.12829E-04-3.34115E-05-3.40886E-05 4.66044E-06 1.70280E-19-1.58496E-18
 -1      1372 1.17584E-04-3.48392E-05-3.54997E-05 4.99441E-06 3.08155E-19-1.08251E-18
 -1      1373 1.08637E-04-3.18868E-05-3.29656E-05 7.90516E-06 3.12132E-19-3.99351E-19
 -1      1374 1.21167E-04-3.57932E-05-3.66776E-05 6.41542E-06 5.27119E-19-1.10490E-18
 -1      1375 1.27678E-04-3.78317E-05-3.85628E-05 6.83401E-06 5.04501E-19-5.00332E-19
 -1      1376 1.14586E-04-3.34778E-05-3.48578E-05 1.09435E-05 7.41630E-19 1.60288E-19
 -1      1377 1.32215E-04-3.91419E-05-3.99870E-05 8.18408E-06 3.35514E-19-5.56818E-19
 -1      1378 1.40320E-04-4.18666E-05-4.22111E-05 8.55399E-06 1.48883E-19-1.70465E-19
 -1      1379 1.22367E-04-3.58515E-05-3.71796E-05 1.42912E-05 5.58585E-19 1.32918E-19
 -1      1380 1.45613E-04-4.36895E-05-4.36744E-05 8.81159E-06 1.62789E-20-5.92605E-19
 -1      1381 1.53706E-04-4.67819E-05-4.56533E-05 8.68208E-06-4.48133E-20-7.54759E-19
 -1      1382 1.32036E-04-3.95103E-05-3.96871E-05 1.64252E-05 5.25160E-20-1.93044E-19
 -1      1383 1.58785E-04-4.90580E-05-4.66925E-05 5.99273E-06 3.70709E-19-7.15796E-19
 -1      1384 1.62578E-04-5.10652E-05-4.73346E-05 4.73610E-06 2.23299E-19-2.81109E-19
 -1      1385 1.42860E-04-4.49887E-05-4.18110E-05 1.40649E-05 1.33169E-19-4.22775E-19
 -1      1386 1.66666E-04-5.34569E-05-4.77852E-05-2.92591E-06 9.24854E-20-2.72480E-19
 -1      1387 1.60623E-04-5.19197E-05-4.62170E-05-6.10979E-06-4.03135E-19-4.44481E-19
 -1      1388 1.53305E-04-5.16118E-05-4.32604E-05 2.63561E-06 1.13344E-19-3.25234E-19
 -1      1389 1.61001E-04-5.18325E-05-4.63393E-05-1.54183E-05-7.04533E-19-4.75609E-19
 -1      1390 1.44618E-04-4.50853E-05-4.33613E-05-1.76736E-05-5.84612E-19-1.10834E-18
 -1      1391 1.59352E-04-5.49328E-05-4.46518E-05-1.74146E-05-7.89964E-19-5.57679E-19
 -1      1392 1.41172E-04-4.12856E-05-4.38695E-05-1.99899E-05-3.63165E-19-1.25403E-18
 -1      1393 1.23535E-04-3.26178E-05-4.13294E-05-1.78656E-05-5.11184E-19-1.66018E-18
 -1      1394 1.57351E-04-4.87383E-05-4.71805E-05-3.23008E-05-8.33692E-19-3.65918E-19
 -1      1395 1.20673E-04-2.91475E-05-4.18873E-05-7.65410E-06-3.21025E-19-2.03224E-18
 -1      1396 1.17145E-04-2.73327E-05-4.15265E-05-2.77189E-06-8.00870E-19-2.79711E-18
 -1      1397 1.50273E-04-3.56597E-05-5.03691E-05-2.30108E-05-6.68733E-19-9.62176E-19
 -1      1398 1.35987E-04-4.05293E-05-4.20800E-05 1.82884E-05-1.29268E-18-7.51826E-18
 -1      1399 1.54277E-04-4.84110E-05-4.52834E-05 1.67951E-05-7.76465E-19-8.96923E-18
 -1      1400 1.57550E-04-4.99700E-05-4.57304E-05 9.39583E-06-2.04108E-19-9.51853E-18
 -1      1401 1.67905E-04-5.35811E-05-4.80493E-05 6.43407E-06 7.64712E-20-9.93188E-18
 -1      1402 1.58018E-04-5.19842E-05-4.54575E-05 2.32036E-05-9.11884E-19-7.18718E-18
 -1      1403 1.65772E-04-5.21077E-05-4.80156E-05-1.71906E-06 7.39883E-19-8.61761E-18
 -1      1404 1.64316E-04-5.08283E-05-4.80183E-05-3.56328E-06 7.27390E-19-7.36299E-18
 -1      1405 1.57928E-04-5.24063E-05-4.47865E-05 3.39380E-06 1.00410E-18-7.04408E-18
 -1      1406 1.59136E-04-4.86800E-05-4.70264E-05-7.07358E-06 7.62568E-19-7.07119E-18
 -1      1407 1.51532E-04-4.55967E-05-4.52801E-05-7.49030E-06 2.63679E-19-6.36005E-18
 -1      1408 1.49435E-04-4.70967E-05-4.35937E-05-1.04070E-05 1.28008E-18-6.25004E-18
 -1      1409 1.46078E-04-4.38350E-05-4.38124E-05-7.70279E-06-7.73811E-20-6.04337E-18
 -1      1410 1.37979E-04-4.10042E-05-4.16608E-05-7.50007E-06 7.08025E-20-5.75474E-18
 -1      1411 1.38367E-04-4.17319E-05-4.13937E-05-1.45115E-05 3.16221E-19-4.40552E-18
 -1      1412 1.32786E-04-3.95067E-05-4.00740E-05-6.40841E-06 3.57547E-19-4.88971E-18
 -1      1413 1.25651E-04-3.72093E-05-3.80377E-05-6.04167E-06 8.54789E-19-3.96951E-18
 -1      1414 1.27768E-04-3.77600E-05-3.86650E-05-1.33323E-05 7.51828E-19-3.06202E-18
 -1      1415 1.21543E-04-3.61026E-05-3.67053E-05-4.72567E-06 6.18228E-19-3.46066E-18
 -1      1416 1.16276E-04-3.44928E-05-3.51479E-05-4.39601E-06 2.00879E-19-2.95919E-18
 -1      1417 1.18716E-04-3.49086E-05-3.60207E-05-1.03801E-05 1.32187E-18-2.13300E-18
 -1      1418 1.13214E-04-3.36747E-05-3.41412E-05-3.29515E-06-2.76146E-19-2.94826E-18
 -1      1419 1.09557E-04-3.25929E-05-3.30432E-05-3.04718E-06-7.17377E-19-3.92916E-18
 -1      1420 1.11794E-04-3.29579E-05-3.38674E-05-7.46102E-06 1.18889E-19-2.13218E-18
 -1      1421 1.07364E-04-3.20020E-05-3.23237E-05-2.23707E-06 4.73412E-19-3.96107E-18
 -1      1422 1.04898E-04-3.12869E-05-3.15795E-05-2.06387E-06 3.80894E-19-3.39806E-18
 -1      1423 1.06742E-04-3.16064E-05-3.22564E-05-5.15428E-06-1.23839E-19-1.84911E-18
 -1      1424 1.03361E-04-3.08671E-05-3.10793E-05-1.50134E-06 1.81252E-20-3.75058E-18
 -1      1425 1.01719E-04-3.03967E-05-3.05832E-05-1.38433E-06 4.47452E-19-3.34764E-18
 -1      1426 1.03158E-04-3.06660E-05-3.11048E-05-3.49375E-06 4.19586E-19-1.94833E-18
 -1      1427 1.00654E-04-3.01025E-05-3.02399E-05-1.00376E-06 2.95722E-19-2.99024E-18
 -1      1428 9.95678E-05-2.97930E-05-2.99113E-05-9.26034E-07-2.82184E-19-1.87009E-18
 -1      1429 1.00655E-04-3.00104E-05-3.03003E-05-2.34937E-06 6.18053E-19-2.01173E-18
 -1      1430 9.88668E-05-2.95959E-05-2.96875E-05-6.81537E-07-6.46883E-19-2.03483E-18
 -1      1431 9.81707E-05-2.93993E-05-2.94777E-05-6.32166E-07-6.85534E-20-1.51462E-18
 -1      1432 9.89555E-05-2.95668E-05-2.97557E-05-1.58824E-06-4.16995E-19-1.73045E-18
 -1      1433 9.76554E-05-2.92542E-05-2.93141E-05-4.58931E-07 4.17539E-19-2.07056E-18
 -1      1434 9.71655E-05-2.91162E-05-2.91661E-05-4.23243E-07 3.88839E-19-1.90793E-18
 -1      1435 9.77745E-05-2.92508E-05-2.93783E-05-1.07950E-06-4.04870E-19-2.16145E-18
 -1      1436 9.68128E-05-2.90152E-05-2.90550E-05-3.07258E-07-2.49493E-19-1.53097E-18
 -1      1437 9.64873E-05-2.89242E-05-2.89566E-05-2.83461E-07-1.27391E-19-2.09075E-18
 -1      1438 9.69352E-05-2.90273E-05-2.91110E-05-7.25254E-07-1.00617E-19-2.80784E-18
 -1      1439 9.62458E-05-2.88543E-05-2.88810E-05-2.05396E-07 1.78063E-19-2.17662E-18
 -1      1440 9.60299E-05-2.87944E-05-2.88157E-05-1.89297E-07-1.51684E-19-2.75918E-18
 -1      1441 9.63581E-05-2.88722E-05-2.89278E-05-4.86631E-07-4.20338E-19-5.30120E-19
 -1      1442 9.58653E-05-2.87463E-05-2.87644E-05-1.36414E-07 6.55855E-19-1.59041E-18
 -1      1443 9.57231E-05-2.87072E-05-2.87213E-05-1.25436E-07 1.57965E-18-1.69067E-19
 -1      1444 9.59627E-05-2.87653E-05-2.88026E-05-3.25094E-07 1.03151E-18-6.53324E-20
 -1      1445 9.56119E-05-2.86745E-05-2.86867E-05-8.93860E-08 5.43081E-19 1.04893E-18
 -1      1446 9.55197E-05-2.86493E-05-2.86587E-05-8.18560E-08 1.92359E-20 8.72243E-19
 -1      1447 9.56935E-05-2.86922E-05-2.87174E-05-2.15040E-07 1.81542E-18 6.80436E-19
 -1      1448 9.54456E-05-2.86274E-05-2.86358E-05-5.71041E-08 1.21801E-18 2.30676E-18
 -1      1449 9.53875E-05-2.86118E-05-2.86181E-05-5.19616E-08 9.86836E-19 4.42621E-18
 -1      1450 9.55122E-05-2.86429E-05-2.86601E-05-1.39602E-07 1.75069E-18 1.20867E-18
 -1      1451 9.53414E-05-2.85980E-05-2.86039E-05-3.55603E-08-6.29485E-19 4.82249E-18
 -1      1452 9.53077E-05-2.85892E-05-2.85935E-05-3.21725E-08-5.42836E-19 4.12068E-18
 -1      1453 9.53949E-05-2.86113E-05-2.86229E-05-8.84481E-08 1.03443E-18 2.78800E-18
 -1      1454 9.52770E-05-2.85800E-05-2.85842E-05-2.01872E-08-3.76894E-19 3.86471E-18
 -1      1455 9.52576E-05-2.85752E-05-2.85781E-05-1.75947E-08-7.32276E-19 2.82530E-18
 -1      1456 9.53191E-05-2.85906E-05-2.85988E-05-5.32111E-08-1.17150E-18 3.31352E-18
 -1      1457 9.52398E-05-2.85697E-05-2.85727E-05-9.31017E-09-2.20534E-19 2.01103E-18
 -1      1458 9.52317E-05-2.85681E-05-2.85701E-05-7.49476E-09 5.87490E-19 1.95516E-18
 -1      1459 9.52715E-05-2.85779E-05-2.85836E-05-2.78432E-08-7.22098E-19 2.69680E-18
 -1      1460 9.52230E-05-2.85653E-05-2.85675E-05-1.81005E-09-4.90713E-19 1.75277E-18
 -1      1461 9.52226E-05-2.85659E-05-2.85671E-05-5.22335E-10-7.50173E-19 7.84766E-19
 -1      1462 9.52454E-05-2.85712E-05-2.85751E-05-1.02712E-08 6.36965E-20 1.29805E-18
 -1      1463 9.52199E-05-2.85649E-05-2.85664E-05 3.10015E-09-8.92798E-19 5.15656E-19
 -1      1464 9.52245E-05-2.85670E-05-2.85674E-05 3.94570E-09-1.35227E-19-4.34619E-19
 -1      1465 9.52340E-05-2.85686E-05-2.85712E-05 1.54387E-09-1.00315E-18 4.82440E-19
 -1      1466 9.52253E-05-2.85673E-05-2.85675E-05 5.27395E-09 6.26415E-19-5.13471E-19
 -1      1467 9.52315E-05-2.85700E-05-2.85688E-05 5.27119E-09 1.06579E-18 1.55107E-18
 -1      1468 9.52321E-05-2.85692E-05-2.85699E-05 8.13289E-09 8.17009E-19-1.75702E-18
 -1      1469 9.52332E-05-2.85712E-05-2.85689E-05 4.78285E-09 3.63383E-19 1.60489E-18
 -1      1470 9.52363E-05-2.85727E-05-2.85693E-05 2.96809E-09-1.75647E-18 2.84428E-20
 -1      1471 9.52380E-05-2.85760E-05-2.85689E-05 4.67327E-09-9.12334E-19-2.50309E-18
 -1      1472 9.52348E-05-2.85716E-05-2.85697E-05 8.93453E-09 9.11854E-19-3.02375E-18
 -1      1473 9.65103E-05-2.83434E-05-2.97502E-05 2.96646E-06-2.25840E-19 4.64317E-18
 -1      1474 1.02438E-04-2.93701E-05-3.21253E-05 4.43442E-06-1.38331E-19 4.20404E-18
 -1      1475 1.02257E-04-2.67023E-05-3.26825E-05 1.27243E-05-3.37066E-19 3.78412E-18
 -1      1476 9.20111E-05-2.74162E-05-2.77568E-05 1.11899E-06-1.11438E-19 5.01200E-18
 -1      1477 9.39399E-05-2.75720E-05-2.86619E-05 1.45189E-06-1.51010E-19 4.67556E-18
 -1      1478 9.64679E-05-2.80307E-05-2.95267E-05 4.82512E-06-2.89791E-19 3.80057E-18
 -1      1479 9.02517E-05-2.70132E-05-2.70808E-05 2.91010E-07-1.78539E-20 5.12778E-18
 -1      1480 9.08416E-05-2.70312E-05-2.73411E-05 4.62404E-07-5.76909E-20 4.95827E-18
 -1      1481 9.30724E-05-2.76017E-05-2.81136E-05 1.77930E-06-1.47966E-19 3.82540E-18
 -1      1482 8.98224E-05-2.69207E-05-2.69329E-05-1.00801E-07-1.90847E-20 5.20036E-18
 -1      1483 8.98265E-05-2.68564E-05-2.69463E-05-4.85529E-09-9.58735E-20 5.07852E-18
 -1      1484 9.16007E-05-2.73721E-05-2.75518E-05 3.95908E-07-1.74687E-19 3.79129E-18
 -1      1485 9.00694E-05-2.70103E-05-2.70088E-05-3.03724E-07-8.63825E-20 5.34299E-18
 -1      1486 8.97855E-05-2.68889E-05-2.69255E-05-2.48527E-07-8.00380E-20 5.22599E-18
 -1      1487 9.11550E-05-2.73024E-05-2.73830E-05-2.76197E-07-1.47490E-19 3.74390E-18
 -1      1488 9.06698E-05-2.71985E-05-2.71911E-05-4.05262E-07-8.52095E-20 5.85025E-18
 -1      1489 9.02445E-05-2.70472E-05-2.70658E-05-3.72790E-07-2.34929E-19 5.48908E-18
 -1      1490 9.12925E-05-2.73713E-05-2.74076E-05-6.16763E-07-3.27373E-19 3.91686E-18
 -1      1491 9.14498E-05-2.74373E-05-2.74261E-05-4.50349E-07 1.08302E-19 5.83191E-18
 -1      1492 9.09604E-05-2.72737E-05-2.72824E-05-4.31597E-07 8.02545E-20 5.84170E-18
 -1      1493 9.17473E-05-2.75218E-05-2.75342E-05-7.86374E-07-1.90301E-20 4.13854E-18
 -1      1494 9.23081E-05-2.76979E-05-2.76840E-05-4.61370E-07-1.69214E-19 5.97991E-18
 -1      1495 9.17986E-05-2.75328E-05-2.75345E-05-4.51357E-07-7.81049E-20 5.92332E-18
 -1      1496 9.23718E-05-2.77173E-05-2.77151E-05-8.57985E-07-4.08875E-20 4.21498E-18
 -1      1497 9.31796E-05-2.79619E-05-2.79455E-05-4.49000E-07 1.03768E-19 6.22123E-18
 -1      1498 9.26781E-05-2.78025E-05-2.77984E-05-4.45251E-07-2.06716E-20 6.25036E-18
 -1      1499 9.30745E-05-2.79337E-05-2.79213E-05-8.67776E-07-1.17525E-19 4.46291E-18
 -1      1500 9.40143E-05-2.82153E-05-2.81953E-05-4.15880E-07 2.80391E-19 6.09267E-18
 -1      1501 9.35436E-05-2.80677E-05-2.80574E-05-4.17856E-07 1.27659E-19 6.02878E-18
 -1      1502 9.37927E-05-2.81547E-05-2.81324E-05-8.31111E-07 2.18757E-19 4.39359E-18
 -1      1503 9.47625E-05-2.84443E-05-2.84179E-05-3.58221E-07 5.07690E-19 4.99573E-18
 -1      1504 9.43474E-05-2.83158E-05-2.82968E-05-3.67110E-07 5.41958E-19 5.75449E-18
 -1      1505 9.44751E-05-2.83669E-05-2.83319E-05-7.48668E-07 7.25190E-19 3.78933E-18
 -1      1506 9.53626E-05-2.86310E-05-2.85944E-05-2.66938E-07 3.77530E-19 4.04962E-18
 -1      1507 9.50361E-05-2.85321E-05-2.85000E-05-2.85503E-07 3.20662E-19 4.50392E-18
 -1      1508 9.50689E-05-2.85563E-05-2.85027E-05-6.09508E-07 7.82713E-19 3.37631E-18
 -1      1509 9.57330E-05-2.87514E-05-2.87000E-05-1.29375E-07 7.65258E-20 3.90603E-18
 -1      1510 9.55408E-05-2.86971E-05-2.86460E-05-1.61630E-07 9.77082E-20 3.93772E-18
 -1      1511 9.55106E-05-2.87049E-05-2.86249E-05-3.93980E-07 2.86628E-19 2.71924E-18
 -1      1512 9.57684E-05-2.87735E-05-2.87034E-05 6.74339E-08 2.62673E-19 3.64473E-18
 -1      1513 9.57705E-05-2.87836E-05-2.87073E-05 1.70121E-08 5.41572E-20 3.75244E-18
 -1      1514 9.57207E-05-2.87890E-05-2.86744E-05-7.84638E-08-1.19776E-20 2.38086E-18
 -1      1515 9.53459E-05-2.86585E-05-2.85688E-05 3.31137E-07 8.10918E-20 3.63948E-18
 -1      1516 9.56126E-05-2.87563E-05-2.86509E-05 2.59145E-07 2.41404E-19 3.87021E-18
 -1      1517 9.56032E-05-2.87775E-05-2.86233E-05 3.56361E-07 2.50666E-19 2.79028E-18
 -1      1518 9.43437E-05-2.83664E-05-2.82621E-05 6.55940E-07-3.36494E-19 3.88856E-18
 -1      1519 9.49441E-05-2.85747E-05-2.84417E-05 5.62458E-07-3.02374E-19 3.43211E-18
 -1      1520 9.50551E-05-2.86343E-05-2.84437E-05 9.12773E-07-1.89044E-19 3.07740E-18
 -1      1521 9.26771E-05-2.78666E-05-2.77616E-05 1.01344E-06-5.55369E-20 3.76924E-18
 -1      1522 9.36575E-05-2.82001E-05-2.80505E-05 9.04982E-07 1.20174E-19 3.78682E-18
 -1      1523 9.39871E-05-2.83243E-05-2.81139E-05 1.55989E-06-2.00145E-20 2.53794E-18
 -1      1524 9.03475E-05-2.71538E-05-2.70719E-05 1.34634E-06-2.10949E-19 4.02030E-18
 -1      1525 9.17026E-05-2.76091E-05-2.74667E-05 1.23824E-06-1.09484E-19 3.83151E-18
 -1      1526 9.23580E-05-2.78245E-05-2.76280E-05 2.21899E-06-2.62368E-19 2.64708E-18
 -1      1527 8.74945E-05-2.62662E-05-2.62379E-05 1.57139E-06-8.18950E-20 4.04464E-18
 -1      1528 8.91380E-05-2.68121E-05-2.67116E-05 1.48758E-06-5.21405E-20 4.18138E-18
 -1      1529 9.02168E-05-2.71403E-05-2.70072E-05 2.75952E-06 9.63665E-21 3.20834E-18
 -1      1530 8.44255E-05-2.52978E-05-2.53507E-05 1.59746E-06-2.38150E-19 4.57047E-18
 -1      1531 8.61747E-05-2.58701E-05-2.58497E-05 1.56568E-06-3.75008E-19 4.30507E-18
 -1      1532 8.77385E-05-2.63223E-05-2.63064E-05 3.01731E-06-3.46874E-19 3.40818E-18
 -1      1533 8.15952E-05-2.43948E-05-2.45398E-05 1.35923E-06-9.79680E-20 4.59908E-18
 -1      1534 8.31862E-05-2.49026E-05-2.49892E-05 1.40111E-06 6.87255E-20 4.66834E-18
 -1      1535 8.52340E-05-2.54741E-05-2.56137E-05 2.84162E-06-1.78085E-19 3.67442E-18
 -1      1536 7.95161E-05-2.37269E-05-2.39473E-05 8.54909E-07 7.08067E-20 4.10690E-18
 -1      1537 8.06580E-05-2.40725E-05-2.42665E-05 9.74365E-07 1.97418E-19 4.75037E-18
 -1      1538 8.31096E-05-2.47410E-05-2.50373E-05 2.16211E-06 2.17161E-19 4.01149E-18
 -1      1539 7.86157E-05-2.34382E-05-2.36894E-05 1.65556E-07 1.23531E-19 4.36373E-18
 -1      1540 7.90729E-05-2.35467E-05-2.38144E-05 3.42529E-07-1.15871E-20 4.24240E-18
 -1      1541 8.17717E-05-2.42749E-05-2.46803E-05 1.04515E-06 1.52201E-20 4.21370E-18
 -1      1542 7.90934E-05-2.35964E-05-2.38203E-05-5.62531E-07-2.62127E-19 4.43954E-18
 -1      1543 7.87645E-05-2.34421E-05-2.37245E-05-3.67354E-07-1.55540E-19 4.02039E-18
 -1      1544 8.15036E-05-2.41835E-05-2.46126E-05-3.00252E-07 7.91910E-20 4.13825E-18
 -1      1545 8.08502E-05-2.41667E-05-2.43142E-05-1.16935E-06 5.80502E-19 4.39885E-18
 -1      1546 7.98037E-05-2.37826E-05-2.40169E-05-9.99890E-07 1.92624E-19 4.58926E-18
 -1      1547 8.23679E-05-2.44900E-05-2.48486E-05-1.58448E-06 1.54729E-19 3.86202E-18
 -1      1548 8.35251E-05-2.50256E-05-2.50743E-05-1.53996E-06 1.07338E-19 3.24819E-18
 -1      1549 8.19743E-05-2.44916E-05-2.46343E-05-1.42826E-06 4.59072E-19 4.07484E-18
 -1      1550 8.41845E-05-2.51238E-05-2.53437E-05-2.54146E-06 7.50915E-19 3.90862E-18
 -1      1551 8.66213E-05-2.60068E-05-2.59648E-05-1.63892E-06 8.27619E-20 3.15491E-18
 -1      1552 8.48513E-05-2.54213E-05-2.54608E-05-1.59580E-06-2.11434E-19 3.12686E-18
 -1      1553 8.65968E-05-2.59488E-05-2.60082E-05-3.01987E-06 1.05222E-19 3.70227E-18
 -1      1554 8.96569E-05-2.69535E-05-2.68501E-05-1.50658E-06-2.22504E-19 2.73007E-18
 -1      1555 8.79394E-05-2.64045E-05-2.63580E-05-1.52286E-06-5.16632E-20 2.85535E-18
 -1      1556 8.91890E-05-2.68123E-05-2.67343E-05-3.01611E-06 1.18172E-19 2.55128E-18
 -1      1557 9.22767E-05-2.77556E-05-2.76261E-05-1.22707E-06-4.43399E-19 3.06644E-18
 -1      1558 9.08083E-05-2.73016E-05-2.72019E-05-1.28222E-06-3.10173E-19 2.70442E-18
 -1      1559 9.16005E-05-2.75899E-05-2.74241E-05-2.64319E-06-2.48606E-19 3.14962E-18
 -1      1560 9.42947E-05-2.83604E-05-2.82340E-05-8.90763E-07 1.52191E-19 3.45210E-18
 -1      1561 9.31748E-05-2.80265E-05-2.79075E-05-9.62575E-07-1.54047E-19 2.97459E-18
 -1      1562 9.35942E-05-2.82080E-05-2.80083E-05-2.06544E-06-5.07624E-19 3.22926E-18
 -1      1563 9.56775E-05-2.87641E-05-2.86588E-05-5.68320E-07 4.38588E-19 2.48044E-18
 -1      1564 9.49194E-05-2.85478E-05-2.84353E-05-6.39375E-07 6.17790E-19 3.37220E-18
 -1      1565 9.50689E-05-2.86438E-05-2.84526E-05-1.43744E-06 6.75006E-19 3.32498E-18
 -1      1566 9.64959E-05-2.89941E-05-2.89168E-05-3.01257E-07 1.62491E-19 1.60742E-18
 -1      1567 9.60550E-05-2.88766E-05-2.87850E-05-3.61181E-07 1.82847E-19 1.83083E-18
 -1      1568 9.60336E-05-2.89110E-05-2.87532E-05-8.68934E-07 6.30312E-19 2.81330E-18
 -1      1569 9.68722E-05-2.90917E-05-2.90415E-05-1.04785E-07 7.67112E-19 3.30931E-19
 -1      1570 9.66764E-05-2.90474E-05-2.89814E-05-1.49510E-07 3.55734E-19 1.26447E-18
 -1      1571 9.65651E-05-2.90429E-05-2.89275E-05-4.17242E-07 6.08833E-19 1.70442E-18
 -1      1572 9.69389E-05-2.90989E-05-2.90710E-05 2.38472E-08-1.72188E-19-3.05425E-19
 -1      1573 9.69122E-05-2.91029E-05-2.90608E-05-5.90480E-09 6.32642E-19 4.02964E-19
 -1      1574 9.67690E-05-2.90780E-05-2.90031E-05-9.69235E-08 9.83418E-19 6.45781E-19
 -1      1575 9.68138E-05-2.90519E-05-2.90401E-05 9.67019E-08 2.56025E-19-1.54570E-19
 -1      1576 9.68897E-05-2.90836E-05-2.90607E-05 7.94450E-08-2.46150E-19-6.87471E-19
 -1      1577 9.67510E-05-2.90514E-05-2.90096E-05 1.04378E-07 8.80153E-20 3.29625E-19
 -1      1578 9.65891E-05-2.89783E-05-2.89769E-05 1.28679E-07 3.91121E-19-1.53778E-18
 -1      1579 9.67165E-05-2.90224E-05-2.90132E-05 1.20700E-07 3.70100E-19-4.38704E-19
 -1      1580 9.66010E-05-2.89912E-05-2.89733E-05 2.11508E-07 4.11292E-19-2.97148E-20
 -1      1581 9.63294E-05-2.88967E-05-2.89012E-05 1.33679E-07-6.37475E-19-1.73483E-18
 -1      1582 9.64730E-05-2.89432E-05-2.89428E-05 1.31918E-07-8.37568E-20-1.63664E-18
 -1      1583 9.63876E-05-2.89173E-05-2.89151E-05 2.51748E-07 6.82243E-20-1.13617E-18
 -1      1584 9.60756E-05-2.88188E-05-2.88260E-05 1.22880E-07-1.85901E-19-1.80904E-19
 -1      1585 9.62136E-05-2.88618E-05-2.88664E-05 1.24845E-07-5.45607E-19-1.05817E-18
 -1      1586 9.61577E-05-2.88427E-05-2.88495E-05 2.49238E-07-9.56934E-19-1.00088E-18
 -1      1587 9.58505E-05-2.87507E-05-2.87585E-05 1.04362E-07-1.05653E-19-2.03807E-19
 -1      1588 9.59712E-05-2.87872E-05-2.87941E-05 1.08228E-07-1.41513E-19-1.92157E-19
 -1      1589 9.59402E-05-2.87749E-05-2.87859E-05 2.22758E-07-1.05426E-19-1.04115E-18
 -1      1590 9.56637E-05-2.86948E-05-2.87022E-05 8.34461E-08-9.60966E-19 5.26370E-19
 -1      1591 9.57625E-05-2.87240E-05-2.87314E-05 8.79955E-08-2.78938E-19 1.20965E-19
 -1      1592 9.57507E-05-2.87174E-05-2.87296E-05 1.85534E-07-4.51117E-19 1.26509E-18
 -1      1593 9.55172E-05-2.86514E-05-2.86577E-05 6.32954E-08 2.72132E-20 1.66923E-18
 -1      1594 9.55936E-05-2.86735E-05-2.86804E-05 6.77876E-08-1.03738E-18 3.32188E-19
 -1      1595 9.55952E-05-2.86712E-05-2.86828E-05 1.46053E-07-1.01593E-18 1.54378E-18
 -1      1596 9.54078E-05-2.86192E-05-2.86244E-05 4.55332E-08-8.47481E-20 1.52966E-18
 -1      1597 9.54639E-05-2.86351E-05-2.86411E-05 4.95746E-08 3.22905E-19 2.07589E-18
 -1      1598 9.54739E-05-2.86358E-05-2.86459E-05 1.09194E-07-1.34489E-19 8.24681E-19
 -1      1599 9.53305E-05-2.85967E-05-2.86007E-05 3.07705E-08 1.20588E-18-1.31954E-19
 -1      1600 9.53693E-05-2.86074E-05-2.86123E-05 3.42001E-08 6.41235E-19 9.85168E-19
 -1      1601 9.53838E-05-2.86099E-05-2.86183E-05 7.73132E-08 1.16880E-18 1.77565E-18
 -1      1602 9.52795E-05-2.85820E-05-2.85850E-05 1.90070E-08 1.67377E-18-3.06695E-18
 -1      1603 9.53043E-05-2.85885E-05-2.85924E-05 2.18097E-08 1.34854E-18-1.47266E-18
 -1      1604 9.53201E-05-2.85919E-05-2.85985E-05 5.11483E-08 2.17742E-18-7.68795E-19
 -1      1605 9.52491E-05-2.85734E-05-2.85756E-05 9.92272E-09 3.54564E-19-5.58407E-18
 -1      1606 9.52630E-05-2.85767E-05-2.85798E-05 1.21662E-08 8.49308E-19-3.79559E-18
 -1      1607 9.52781E-05-2.85803E-05-2.85854E-05 3.04935E-08 1.60726E-18-2.11238E-18
 -1      1608 9.52345E-05-2.85694E-05-2.85709E-05 3.13301E-09-5.36987E-20-5.50371E-18
 -1      1609 9.52401E-05-2.85703E-05-2.85727E-05 4.90200E-09-1.12856E-19-5.72961E-18
 -1      1610 9.52529E-05-2.85736E-05-2.85774E-05 1.47198E-08-1.38154E-20-1.75256E-18
 -1      1611 9.52312E-05-2.85688E-05-2.85696E-05-1.61471E-09 7.10753E-19-6.54079E-18
 -1      1612 9.52308E-05-2.85680E-05-2.85697E-05-2.51990E-10 1.70593E-19-5.19274E-18
 -1      1613 9.52402E-05-2.85704E-05-2.85731E-05 3.27808E-09 2.49361E-19-4.22425E-18
 -1      1614 9.52343E-05-2.85706E-05-2.85698E-05-3.62860E-09-4.60886E-19-6.13035E-18
 -1      1615 9.52308E-05-2.85689E-05-2.85692E-05-2.91591E-09-1.52249E-19-6.39872E-18
 -1      1616 9.52361E-05-2.85703E-05-2.85712E-05-3.71260E-09 6.35230E-19-4.76442E-18
 -1      1617 9.52358E-05-2.85724E-05-2.85693E-05-2.07591E-09-3.19002E-18-3.20207E-18
 -1      1618 9.52398E-05-2.85772E-05-2.85698E-05-2.34290E-09-5.75286E-18 4.44810E-19
 -1      1619 9.52384E-05-2.85743E-05-2.85701E-05-2.74698E-09-5.65091E-18-4.10526E-20
 -1      1620 9.52396E-05-2.85752E-05-2.85706E-05 1.56018E-09-3.00952E-18 1.06004E-18
 -1      1621 9.52396E-05-2.85755E-05-2.85704E-05 5.38482E-10-5.05535E-18 9.37859E-19
 -1      1622 9.52389E-05-2.85703E-05-2.85724E-05-7.42852E-10-2.94750E-18 1.25619E-18
 -1      1623 9.52368E-05-2.85672E-05-2.85728E-05 5.33235E-09-2.62248E-18-5.17562E-21
 -1      1624 9.52381E-05-2.85711E-05-2.85717E-05 4.58153E-09-2.87526E-18 1.19609E-18
 -1      1625 9.52369E-05-2.85640E-05-2.85743E-05 6.52727E-09-1.05355E-18 1.84533E-18
 -1      1626 9.52326E-05-2.85550E-05-2.85762E-05 7.60197E-09-9.79889E-19 3.33235E-19
 -1      1627 9.52347E-05-2.85613E-05-2.85744E-05 7.29363E-09-2.09515E-18 1.38033E-18
 -1      1628 9.52331E-05-2.85535E-05-2.85771E-05 1.26345E-08-1.70033E-18 1.01660E-18
 -1      1629 9.52281E-05-2.85421E-05-2.85798E-05 7.67694E-09-2.15066E-18-3.77307E-19
 -1      1630 9.52303E-05-2.85486E-05-2.85779E-05 7.82922E-09-1.39732E-18-1.25811E-18
 -1      1631 9.52282E-05-2.85407E-05-2.85804E-05 1.51928E-08-1.25016E-18-1.18718E-18
 -1      1632 9.52244E-05-2.85313E-05-2.85828E-05 5.64658E-09-2.88321E-18-9.16039E-19
 -1      1633 9.52261E-05-2.85364E-05-2.85813E-05 6.20356E-09-2.48172E-18-8.72215E-19
 -1      1634 9.52235E-05-2.85282E-05-2.85836E-05 1.36108E-08-1.29867E-18-1.39218E-18
 -1      1635 9.52224E-05-2.85257E-05-2.85843E-05 2.04881E-09-3.30742E-18-4.99331E-19
 -1      1636 9.52231E-05-2.85278E-05-2.85837E-05 2.85975E-09-3.56652E-18-5.45122E-19
 -1      1637 9.52199E-05-2.85186E-05-2.85860E-05 8.35647E-09-2.61835E-18-1.69653E-18
 -1      1638 9.52228E-05-2.85269E-05-2.85839E-05-2.22462E-09-1.07350E-18 3.54178E-19
 -1      1639 9.52222E-05-2.85252E-05-2.85844E-05-1.35838E-09-3.12438E-18 1.72138E-18
 -1      1640 9.52182E-05-2.85143E-05-2.85871E-05 7.51629E-10-7.49088E-19 6.86099E-19
 -1      1641 9.52254E-05-2.85347E-05-2.85817E-05-6.11448E-09 1.89613E-18 1.77258E-18
 -1      1642 9.52237E-05-2.85295E-05-2.85832E-05-5.41171E-09-1.29420E-19 9.28819E-19
 -1      1643 9.52190E-05-2.85164E-05-2.85865E-05-7.35148E-09 3.90147E-19 1.42789E-18
 -1      1644 9.52298E-05-2.85475E-05-2.85781E-05-8.58647E-09 1.44374E-18-1.59843E-18
 -1      1645 9.52272E-05-2.85401E-05-2.85803E-05-8.24895E-09 2.18174E-18-2.28481E-19
 -1      1646 9.52220E-05-2.85245E-05-2.85845E-05-1.39243E-08 8.26129E-19 9.79306E-19
 -1      1647 9.52347E-05-2.85619E-05-2.85742E-05-8.87571E-09 1.64630E-19-1.41370E-18
 -1      1648 9.52321E-05-2.85542E-05-2.85763E-05-9.02087E-09 1.82323E-18-1.91803E-18
 -1      1649 9.52268E-05-2.85368E-05-2.85813E-05-1.71623E-08 1.57182E-18-2.75294E-18
 -1      1650 9.52392E-05-2.85745E-05-2.85707E-05-6.69183E-09 1.83754E-18 6.28703E-19
 -1      1651 9.52371E-05-2.85687E-05-2.85723E-05-7.35993E-09-7.11022E-19 1.62769E-18
 -1      1652 9.52321E-05-2.85509E-05-2.85778E-05-1.59893E-08 1.76113E-18 9.82101E-20
 -1      1653 9.52417E-05-2.85818E-05-2.85687E-05-2.44206E-09 2.53822E-18 2.53701E-19
 -1      1654 9.52410E-05-2.85798E-05-2.85693E-05-3.48280E-09 1.46674E-18 5.13099E-19
 -1      1655 9.52369E-05-2.85636E-05-2.85745E-05-1.03517E-08 6.77811E-19 7.96898E-19
 -1      1656 9.52415E-05-2.85820E-05-2.85684E-05 2.50582E-09 3.43136E-18 5.92814E-19
 -1      1657 9.52425E-05-2.85845E-05-2.85679E-05 1.51550E-09 1.62991E-18 6.35316E-19
 -1      1658 9.52399E-05-2.85722E-05-2.85722E-05-1.70628E-09-2.35785E-20 9.26026E-19
 -1      1659 9.52390E-05-2.85776E-05-2.85690E-05 4.78149E-09 6.72554E-19-2.49517E-18
 -1      1660 9.52414E-05-2.85828E-05-2.85680E-05 4.75961E-09 4.30599E-18-9.38727E-19
 -1      1661 9.52401E-05-2.85758E-05-2.85706E-05 5.98859E-09-1.40379E-18-4.83789E-19
 -1      1662 9.52385E-05-2.85754E-05-2.85698E-05 8.08746E-09 4.49907E-19-4.39136E-18
 -1      1663 2.10839E-05-6.59663E-05 1.38874E-05-3.19130E-07 6.66022E-18 2.78271E-18
 -1      1664 2.54366E-05-8.13482E-05 1.74403E-05 7.13283E-06 4.77727E-18 2.16544E-18
 -1      1665 2.14914E-05-3.56423E-05 2.39092E-06 9.03698E-06 6.13421E-18 8.51480E-19
 -1      1666 2.57270E-05-6.02621E-05 9.12322E-06 4.00898E-06 6.61025E-18 1.91032E-18
 -1      1667 3.82179E-05-7.21922E-06-1.46988E-05 3.61074E-05 3.95988E-18 2.06930E-18
 -1      1668 3.11455E-05-2.86312E-05-5.27310E-06 1.66055E-05 5.51588E-18 1.38575E-18
 -1      1669 8.78872E-05-2.38757E-06-3.53163E-05 6.82042E-05 2.74947E-18 1.86855E-18
 -1      1670 6.00728E-05-6.97475E-06-2.45190E-05 4.46424E-05 3.59565E-18 2.22431E-18
 -1      1671 1.49868E-04-1.39804E-05-5.44468E-05 8.66862E-05 1.76437E-18 1.41793E-18
 -1      1672 1.07301E-04 1.34227E-07-4.51267E-05 7.51940E-05 2.37508E-18 2.35221E-18
 -1      1673 2.18819E-04-4.39443E-05-6.94716E-05 6.93698E-05 8.16010E-19-1.26547E-18
 -1      1674 1.75176E-04-2.25226E-05-6.21771E-05 7.95766E-05 1.15154E-18 4.39610E-19
 -1      1675 2.66030E-04-6.64985E-05-7.87109E-05 2.78290E-05 8.71597E-19-5.12201E-18
 -1      1676 2.39756E-04-5.15770E-05-7.51732E-05 5.96005E-05 9.64665E-19-2.80791E-18
 -1      1677 2.65017E-04-6.53178E-05-7.92052E-05-2.88779E-05 2.38652E-19-6.27546E-18
 -1      1678 2.71082E-04-6.88901E-05-8.00019E-05 8.39916E-06-1.10750E-19-6.16126E-18
 -1      1679 2.18310E-04-4.10921E-05-7.11674E-05-7.01204E-05 8.79326E-19-4.76202E-18
 -1      1680 2.52386E-04-5.98619E-05-7.61662E-05-4.53583E-05 7.47083E-19-5.71197E-18
 -1      1681 1.49935E-04-1.17111E-05-5.66168E-05-8.40254E-05 1.23413E-18-3.09506E-18
 -1      1682 1.96797E-04-3.31382E-05-6.49329E-05-8.21339E-05 9.90817E-19-5.09067E-18
 -1      1683 8.68453E-05 6.57656E-07-3.75896E-05-6.47164E-05 8.11458E-19-1.96850E-18
 -1      1684 1.25073E-04-7.01684E-06-4.76202E-05-8.25017E-05 1.24344E-18-2.49536E-18
 -1      1685 4.33409E-05-8.11546E-06-1.78422E-05-3.43136E-05 8.79220E-19-1.22057E-18
 -1      1686 6.30238E-05 2.88600E-06-2.79046E-05-5.82132E-05 1.10877E-18-1.25869E-18
 -1      1687 2.71987E-05-3.77206E-05-3.07506E-07-9.66540E-06 4.21822E-19-8.33480E-19
 -1      1688 2.92916E-05-1.36558E-05-8.87973E-06-2.51881E-05 1.02999E-18-1.21422E-18
 -1      1689 2.59042E-05-6.95342E-05 1.25922E-05-3.10622E-06-1.21973E-19-9.98440E-20
 -1      1690 2.03252E-05-4.57098E-05 6.54844E-06-3.95807E-06 4.87044E-19-6.43851E-19
 -1      1691 2.52267E-05-8.43160E-05 1.86375E-05-8.85746E-06 5.29819E-19 2.97520E-19
 -1      1692 2.26526E-05-7.48974E-05 1.64418E-05 1.14840E-06-2.11758E-21 5.28337E-19
 -1      1693 2.09610E-05-7.37366E-05 1.61644E-05-1.43739E-05-3.07473E-19-5.85935E-19
 -1      1694 2.50575E-05-8.36192E-05 1.83981E-05-5.40461E-06 4.31193E-19-3.19120E-19
 -1      1695 1.98350E-05-4.78319E-05 6.16809E-06-7.99473E-06-2.03796E-18-2.67938E-18
 -1      1696 2.50719E-05-7.08446E-05 1.23945E-05-1.12207E-05-7.11508E-19-1.10892E-18
 -1      1697 4.08341E-05-2.09901E-05-1.21456E-05 2.19757E-05-3.54399E-18-3.42201E-18
 -1      1698 3.25077E-05-4.28096E-05-1.93327E-06 1.62678E-06-2.30732E-18-2.54195E-18
 -1      1699 9.48291E-05-1.53498E-05-3.43479E-05 5.61269E-05-3.69730E-18-5.06187E-18
 -1      1700 6.37458E-05-2.05913E-05-2.26929E-05 3.03890E-05-3.64817E-18-3.64055E-18
 -1      1701 1.75975E-04-3.29274E-05-5.70789E-05 7.61575E-05-3.46775E-18-3.83367E-18
 -1      1702 1.22332E-04-1.78766E-05-4.53953E-05 6.05723E-05-3.95480E-18-4.30123E-18
 -1      1703 2.60251E-04-6.41465E-05-7.53611E-05 5.92577E-05-1.54636E-18-2.04643E-18
 -1      1704 2.05786E-04-4.03942E-05-6.64566E-05 6.88077E-05-2.53771E-18-3.03577E-18
 -1      1705 3.09591E-04-8.28569E-05-8.56580E-05 1.72182E-05-8.35174E-19-5.93347E-19
 -1      1706 2.80477E-04-6.80932E-05-8.15900E-05 5.11758E-05-1.27373E-18-2.23108E-18
 -1      1707 2.93940E-04-7.41552E-05-8.40802E-05-3.24574E-05-1.27224E-18 2.13198E-18
 -1      1708 3.07114E-04-8.06765E-05-8.59442E-05 4.95939E-06-9.62229E-19 7.70271E-20
 -1      1709 2.39734E-04-5.18090E-05-7.38748E-05-6.66435E-05-3.49401E-18 5.38544E-18
 -1      1710 2.85833E-04-7.37401E-05-8.07271E-05-4.59946E-05-2.07523E-18 3.41608E-18
 -1      1711 1.58832E-04-2.79874E-05-5.46707E-05-6.37973E-05-6.29854E-18 8.57197E-18
 -1      1712 2.14636E-04-4.81649E-05-6.53936E-05-6.90570E-05-5.05679E-18 6.42729E-18
 -1      1713 8.55978E-05-1.52460E-05-3.29617E-05-4.55245E-05-6.81269E-18 8.70919E-18
 -1      1714 1.26106E-04-1.95892E-05-4.44313E-05-6.78927E-05-6.11558E-18 9.78492E-18
 -1      1715 4.24977E-05-2.79677E-05-1.17413E-05-1.43048E-05-5.22281E-18 5.75813E-18
 -1      1716 6.03423E-05-1.37021E-05-2.24153E-05-3.81878E-05-6.32225E-18 8.29499E-18
 -1      1717 2.75542E-05-5.54064E-05 5.19509E-06 5.91869E-06-3.32884E-18 3.11708E-18
 -1      1718 2.80536E-05-3.24513E-05-2.87595E-06-6.39164E-06-4.74000E-18 3.91837E-18
 -1      1719 2.53986E-05-7.96826E-05 1.59342E-05 1.13424E-05-9.82135E-19 2.39700E-18
 -1      1720 1.93731E-05-6.10372E-05 1.15021E-05 1.36825E-05-3.10014E-18 2.82168E-18
 -1      1721 2.54569E-05-8.61254E-05 1.91402E-05 3.75051E-06 4.08609E-18 2.94979E-18
 -1      1722 2.34173E-05-8.28895E-05 1.84767E-05 1.46872E-05 4.05305E-19 2.96843E-18
 -1      1723 1.18417E-04-2.90196E-05-4.11961E-05 1.37257E-05-1.55494E-18-3.28670E-18
 -1      1724 1.33476E-04-3.67858E-05-4.30917E-05 1.73401E-05-1.51767E-18-5.09871E-18
 -1      1725 8.17004E-05-3.46418E-05-2.07830E-05 4.71452E-05 2.82824E-18 7.61906E-19
 -1      1726 1.17977E-05-5.48372E-05 1.37249E-05 1.04857E-05 1.77284E-18 3.94802E-18
 -1      1727 9.52375E-05-2.85736E-05-2.85699E-05-4.14956E-09-4.61295E-18-1.85433E-18
 -1      1728 9.52374E-05-2.85711E-05-2.85710E-05-5.03018E-09-2.13906E-18-2.32193E-18
 -1      1729 2.16417E-05-4.85307E-05 7.68308E-06 2.31711E-05 3.04974E-18 1.52974E-18
 -1      1730 4.40445E-05-4.05332E-05-4.11132E-06 3.56614E-05 3.17468E-18-5.08749E-19
 -1      1731 1.24068E-04-3.02724E-05-3.90874E-05 5.13382E-05 2.10022E-18 8.95314E-19
 -1      1732 1.67345E-04-2.90359E-05-5.59897E-05 4.80584E-05 1.41243E-18 6.77626E-21
 -1      1733 2.03894E-04-3.30105E-05-6.86015E-05 3.15201E-05 2.38482E-18-1.53525E-18
 -1      1734 2.26638E-04-3.73135E-05-7.53449E-05 9.79948E-06 1.53567E-18-3.36389E-18
 -1      1735 2.20332E-04-3.58519E-05-7.36700E-05-1.80704E-05-1.80418E-19-4.06385E-18
 -1      1736 1.92944E-04-3.12862E-05-6.48824E-05-4.10141E-05 2.37804E-19-3.53636E-18
 -1      1737 1.51777E-04-2.83577E-05-5.02841E-05-5.20258E-05 5.95252E-19-2.67493E-18
 -1      1738 1.05927E-04-2.83363E-05-3.26128E-05-5.18449E-05 4.82809E-19-1.62207E-18
 -1      1739 6.43424E-05-3.33455E-05-1.48049E-05-4.27639E-05 5.28549E-19-7.45389E-19
 -1      1740 3.51295E-05-4.33563E-05 2.72260E-07-3.02209E-05 2.11758E-19-1.01570E-18
 -1      1741 1.75415E-05-5.17650E-05 1.03996E-05-1.85964E-05 8.91079E-19-3.04932E-20
 -1      1742 1.13190E-05-5.44343E-05 1.37668E-05-5.49614E-06 1.54795E-19-3.46013E-19
 -1      1743 1.95989E-05-5.41874E-05 9.95521E-06 7.12807E-06-2.82062E-19-1.40650E-18
 -1      1744 4.44280E-05-5.06890E-05-1.46205E-06 2.09242E-05-1.31798E-18-3.05154E-18
 -1      1745 8.83771E-05-4.89457E-05-1.91816E-05 3.28494E-05-1.97189E-18-2.84137E-18
 -1      1746 1.42516E-04-4.95522E-05-3.95678E-05 3.59571E-05-2.60039E-18-2.29885E-18
 -1      1747 1.97459E-04-5.07092E-05-5.89087E-05 2.87397E-05-2.90808E-18-1.46960E-18
 -1      1748 2.37578E-04-4.93653E-05-7.34313E-05 1.44295E-05-1.83933E-18-8.53809E-19
 -1      1749 2.51501E-04-4.55762E-05-7.95225E-05 3.42679E-06-1.90117E-18-9.73453E-19
 -1      1750 2.44272E-04-4.65403E-05-7.66953E-05-9.08027E-06-2.61776E-18 4.99749E-19
 -1      1751 2.16198E-04-5.11666E-05-6.55425E-05-1.96788E-05-4.97097E-18 2.29885E-18
 -1      1752 1.67857E-04-5.07645E-05-4.82880E-05-3.25210E-05-4.88950E-18 6.22739E-18
 -1      1753 1.10093E-04-4.67573E-05-2.85006E-05-3.62582E-05-3.85146E-18 7.27093E-18
 -1      1754 6.35541E-05-4.84187E-05-9.99296E-06-2.75718E-05-3.32037E-18 5.47776E-18
 -1      1755 3.18558E-05-5.26655E-05 4.37615E-06-1.51055E-05-2.50044E-18 3.85696E-18
 -1      1756 1.55186E-05-5.78143E-05 1.28979E-05-1.46226E-06-3.43472E-19 3.90863E-18
 -1      1757 1.51759E-04-4.33432E-05-4.75950E-05 3.11678E-05-2.99892E-18-4.50584E-18
 -1      1758 1.06207E-04-2.31240E-05-3.57024E-05-1.71511E-05-2.85874E-20-2.70691E-18
 -1      1759 1.47849E-04-3.15033E-05-5.12843E-05 9.70155E-06-2.23066E-18-1.43411E-18
 -1      1760 8.91731E-05-1.05675E-05-3.38117E-05-1.32326E-05 6.51269E-19-1.27468E-18
 -1      1761 9.04909E-05-1.16354E-05-3.39447E-05-1.50134E-05 5.27338E-19-1.43424E-18
 -1      1762 9.25179E-05-1.38972E-05-3.38536E-05-1.59115E-05 4.21008E-19-1.54107E-18
 -1      1763 9.41808E-05-1.58036E-05-3.40810E-05-1.76399E-05 2.84259E-19-1.85553E-18
 -1      1764 9.34843E-05-1.63935E-05-3.30515E-05-1.36394E-05 4.88726E-19-1.41828E-18
 -1      1765 8.62377E-05-7.63267E-06-3.37595E-05-7.76112E-06 8.29624E-19-5.32651E-19
 -1      1766 8.66468E-05-7.93966E-06-3.37918E-05-9.14381E-06 8.21645E-19-7.53806E-19
 -1      1767 8.56006E-05-6.97269E-06-3.37573E-05-5.24050E-06 9.19165E-19-1.74515E-19
 -1      1768 8.58442E-05-7.15909E-06-3.37724E-05-6.53311E-06 8.80085E-19-3.70564E-19
 -1      1769 8.76020E-05-9.79725E-06-3.33771E-05-6.82045E-06 8.68637E-19-4.56399E-19
 -1      1770 8.52477E-05-6.59736E-06-3.37596E-05-2.84123E-06 1.00311E-18 1.38252E-19
 -1      1771 8.53762E-05-6.69725E-06-3.37662E-05-4.06500E-06 9.79022E-19-4.85853E-20
 -1      1772 8.69424E-05-9.05869E-06-3.34105E-05-4.45815E-06 1.03798E-18-6.80075E-20
 -1      1773 8.51063E-05-6.44127E-06-3.37617E-05-5.07841E-07 1.07487E-18 4.42509E-19
 -1      1774 8.51458E-05-6.47171E-06-3.37638E-05-1.69947E-06 1.04382E-18 2.85185E-19
 -1      1775 8.65914E-05-8.66240E-06-3.34296E-05-2.17613E-06 1.10894E-18 2.58471E-19
 -1      1776 8.51508E-05-6.48059E-06-3.37620E-05 1.81572E-06 1.12480E-18 6.21193E-19
 -1      1777 8.51084E-05-6.44607E-06-3.37608E-05 6.23040E-07 1.09775E-18 5.10655E-19
 -1      1778 8.64843E-05-8.54325E-06-3.34348E-05 6.36892E-08 1.18048E-18 5.25677E-19
 -1      1779 8.53906E-05-6.72184E-06-3.37618E-05 4.18603E-06 1.00695E-18 8.28173E-19
 -1      1780 8.52579E-05-6.61641E-06-3.37562E-05 2.95908E-06 1.07897E-18 6.79585E-19
 -1      1781 8.66031E-05-8.68300E-06-3.34260E-05 2.30516E-06 1.14140E-18 6.38689E-19
 -1      1782 8.58622E-05-7.19282E-06-3.37658E-05 6.61956E-06 9.39482E-19 1.21369E-18
 -1      1783 8.56173E-05-7.00383E-06-3.37516E-05 5.34432E-06 9.68629E-19 9.90049E-19
 -1      1784 8.69649E-05-9.09734E-06-3.34037E-05 4.57153E-06 1.04430E-18 9.22101E-19
 -1      1785 8.66907E-05-8.00410E-06-3.37838E-05 9.26355E-06 9.21486E-19 1.68980E-18
 -1      1786 8.62640E-05-7.68011E-06-3.37515E-05 7.85026E-06 9.02892E-19 1.43376E-18
 -1      1787 8.76372E-05-9.85524E-06-3.33673E-05 6.91926E-06 9.55786E-19 1.29425E-18
 -1      1788 8.81082E-05-9.37040E-06-3.38337E-05 1.21352E-05 7.01747E-19 2.14188E-18
 -1      1789 8.73689E-05-8.80664E-06-3.37649E-05 1.05452E-05 7.63097E-19 1.90177E-18
 -1      1790 8.87766E-05-1.11180E-05-3.33132E-05 9.37879E-06 8.38621E-19 1.77882E-18
 -1      1791 9.06653E-05-1.18495E-05-3.39342E-05 1.52113E-05 3.65614E-19 2.64309E-18
 -1      1792 8.92990E-05-1.07452E-05-3.38002E-05 1.33841E-05 5.69286E-19 2.33487E-18
 -1      1793 9.06806E-05-1.32078E-05-3.32246E-05 1.18284E-05 5.65014E-19 2.16611E-18
 -1      1794 9.58761E-05-1.70878E-05-3.39853E-05 1.75751E-05 1.26029E-20 3.19326E-18
 -1      1795 9.28537E-05-1.43334E-05-3.38269E-05 1.60704E-05 2.23266E-19 2.88854E-18
 -1      1796 9.39006E-05-1.68587E-05-3.30202E-05 1.37375E-05 2.60160E-19 2.65068E-18
 -1      1797 1.01864E-04-2.50866E-05-3.33403E-05 1.43391E-05-2.12976E-19 3.47749E-18
 -1      1798 9.80404E-05-1.95809E-05-3.36139E-05 1.68815E-05-1.01346E-19 3.29665E-18
 -1      1799 9.74030E-05-2.18786E-05-3.24156E-05 1.31801E-05 1.04291E-20 3.03955E-18
 -1      1800 9.87477E-05-2.61401E-05-3.13311E-05 9.35737E-06-2.81347E-19 3.50693E-18
 -1      1801 1.00165E-04-1.94424E-05-3.42709E-05-1.90293E-05 8.92032E-20-2.17338E-18
 -1      1802 9.53987E-05-2.73084E-05-2.91982E-05 4.02451E-06-2.02309E-19 3.35369E-18
 -1      1803 9.77140E-05-2.73865E-05-3.01904E-05 6.31992E-06-2.40690E-19 3.30530E-18
 -1      1804 9.75802E-05-2.56130E-05-3.08243E-05 8.62835E-06-1.94685E-19 3.02139E-18
 -1      1805 9.70783E-05-2.69030E-05-2.99655E-05-5.85608E-06 4.49457E-20-1.70739E-18
 -1      1806 9.52736E-05-2.69997E-05-2.92349E-05-3.95845E-06 1.26909E-19-1.68152E-18
 -1      1807 9.44765E-05-2.72260E-05-2.87233E-05-2.42630E-06 5.98018E-20-1.64569E-18
 -1      1808 9.37113E-05-2.73147E-05-2.84169E-05-1.52610E-06 6.09070E-20-1.66252E-18
 -1      1809 9.56249E-05-2.64840E-05-2.96545E-05-4.50594E-06 9.98837E-20-1.33378E-18
 -1      1810 9.32084E-05-2.73756E-05-2.81536E-05-6.47020E-07 1.55801E-19-1.57959E-18
 -1      1811 9.29421E-05-2.74452E-05-2.80417E-05-1.69571E-07 2.74419E-19-1.58178E-18
 -1      1812 9.44569E-05-2.71961E-05-2.88478E-05-1.73912E-06 2.04797E-19-1.17299E-18
 -1      1813 9.27112E-05-2.74781E-05-2.79244E-05 3.21616E-07 2.73701E-19-1.37160E-18
 -1      1814 9.27372E-05-2.75623E-05-2.79128E-05 5.81835E-07 1.00259E-19-1.22724E-18
 -1      1815 9.38287E-05-2.75189E-05-2.84377E-05-1.74073E-07 3.46370E-19-9.88742E-19
 -1      1816 9.26882E-05-2.76063E-05-2.78752E-05 9.00832E-07-6.08226E-20-1.11122E-18
 -1      1817 9.28962E-05-2.77082E-05-2.79234E-05 1.06938E-06 1.06987E-19-1.19614E-18
 -1      1818 9.35984E-05-2.77047E-05-2.82546E-05 7.58472E-07 1.33247E-19-7.62829E-19
 -1      1819 9.29855E-05-2.77589E-05-2.79452E-05 1.27929E-06 1.29785E-19-1.17031E-18
 -1      1820 9.33177E-05-2.78731E-05-2.80350E-05 1.40008E-06 5.05010E-20-9.55650E-19
 -1      1821 9.36693E-05-2.78594E-05-2.82155E-05 1.36835E-06 9.99300E-20-6.31374E-19
 -1      1822 9.35080E-05-2.79304E-05-2.80998E-05 1.56768E-06-1.58231E-20-7.96746E-19
 -1      1823 9.39374E-05-2.80526E-05-2.82225E-05 1.68253E-06 2.37340E-19-7.32000E-19
 -1      1824 9.39625E-05-2.79919E-05-2.82819E-05 1.80488E-06 2.21829E-19-4.64849E-19
 -1      1825 9.42071E-05-2.81131E-05-2.83231E-05 1.85857E-06 1.02149E-19-8.28452E-19
 -1      1826 9.47340E-05-2.82438E-05-2.84786E-05 2.00430E-06 7.55613E-20-7.08584E-19
 -1      1827 9.44237E-05-2.81059E-05-2.84292E-05 2.19824E-06 9.24225E-20-4.15670E-19
 -1      1828 9.50752E-05-2.83035E-05-2.86141E-05 2.23565E-06-1.48501E-19-1.02874E-18
 -1      1829 9.57237E-05-2.84471E-05-2.88096E-05 2.45094E-06-1.07376E-19-1.21192E-18
 -1      1830 9.50253E-05-2.81958E-05-2.86479E-05 2.65718E-06-2.37625E-19-9.25951E-19
 -1      1831 9.61381E-05-2.85013E-05-2.89849E-05 2.78811E-06-7.15065E-20-1.40167E-18
 -1      1832 9.69537E-05-2.86644E-05-2.92352E-05 3.12070E-06-3.64754E-20-1.63044E-18
 -1      1833 9.57615E-05-2.82502E-05-2.89400E-05 3.28942E-06-2.20141E-19-1.28007E-18
 -1      1834 9.74212E-05-2.87044E-05-2.94476E-05 3.59889E-06 1.09840E-19-1.55052E-18
 -1      1835 9.84288E-05-2.88936E-05-2.97568E-05 4.07245E-06 1.76888E-19-1.22400E-18
 -1      1836 9.66169E-05-2.82504E-05-2.93051E-05 4.18802E-06 9.97001E-20-1.17561E-18
 -1      1837 9.90107E-05-2.89154E-05-3.00395E-05 4.80750E-06 4.57749E-19-9.97561E-19
 -1      1838 1.00409E-04-2.91657E-05-3.04716E-05 5.55250E-06 6.58700E-19-5.80481E-19
 -1      1839 9.76254E-05-2.81813E-05-2.97676E-05 5.50613E-06 5.69481E-19-8.38829E-19
 -1      1840 1.01087E-04-2.91584E-05-3.08282E-05 6.61615E-06 4.12406E-19-4.12346E-19
 -1      1841 1.02973E-04-2.95050E-05-3.14075E-05 7.69566E-06 3.49401E-19-1.68658E-20
 -1      1842 9.88349E-05-2.80111E-05-3.03577E-05 7.45884E-06 6.66655E-19-4.87487E-19
 -1      1843 1.03753E-04-2.94745E-05-3.18432E-05 9.17625E-06 1.16070E-20 5.26335E-21
 -1      1844 1.06295E-04-2.99966E-05-3.26070E-05 1.06490E-05 3.29357E-19-2.95725E-19
 -1      1845 1.00239E-04-2.77450E-05-3.10714E-05 1.02033E-05 3.21446E-19-2.64911E-20
 -1      1846 1.07205E-04-3.00097E-05-3.31047E-05 1.25842E-05 6.79109E-19-2.93047E-19
 -1      1847 1.10580E-04-3.08826E-05-3.40632E-05 1.43844E-05 6.75065E-19-1.68685E-19
 -1      1848 1.01880E-04-2.75001E-05-3.18778E-05 1.38649E-05 5.11178E-19-3.87997E-20
 -1      1849 1.11767E-04-3.11832E-05-3.45581E-05 1.66374E-05 5.68525E-19 8.13648E-20
 -1      1850 1.16120E-04-3.27779E-05-3.56428E-05 1.83389E-05 2.23971E-19-1.97650E-19
 -1      1851 1.03937E-04-2.77207E-05-3.26676E-05 1.83411E-05 6.59409E-19-1.34253E-19
 -1      1852 1.18122E-04-3.40290E-05-3.60081E-05 2.03282E-05-1.91032E-19-4.34303E-20
 -1      1853 1.23482E-04-3.69701E-05-3.70213E-05 2.07456E-05 2.01647E-19 6.15819E-20
 -1      1854 1.07069E-04-2.96020E-05-3.32113E-05 2.29425E-05 1.63636E-19-2.02896E-19
 -1      1855 1.27266E-04-4.01109E-05-3.71586E-05 2.10917E-05 4.43554E-19 1.28233E-19
 -1      1856 1.33082E-04-4.47865E-05-3.78267E-05 1.84143E-05 1.97729E-19 3.52518E-19
 -1      1857 1.12795E-04-3.52185E-05-3.32642E-05 2.57202E-05 3.11073E-19 7.08490E-19
 -1      1858 1.41254E-04-5.12796E-05-3.81278E-05 1.44301E-05 5.79159E-20 1.03583E-18
 -1      1859 1.47050E-04-5.67599E-05-3.87269E-05 6.19885E-06 8.04681E-20 6.71988E-19
 -1      1860 1.24474E-04-4.74140E-05-3.31380E-05 2.33912E-05 6.31357E-19 1.01898E-18
 -1      1861 1.58417E-04-6.30208E-05-4.05751E-05-2.86360E-06-5.39454E-19 5.86623E-19
 -1      1862 1.60108E-04-6.26695E-05-4.19414E-05-1.29055E-05-1.35785E-18 3.25684E-19
 -1      1863 1.43680E-04-6.28641E-05-3.49397E-05 1.18817E-05-2.58027E-19 9.87746E-19
 -1      1864 1.03647E-04-4.35997E-05-2.56425E-05 4.87485E-05 2.28614E-18 5.80641E-19
 -1      1865 8.22694E-05-4.46485E-05-1.70306E-05 4.50296E-05 2.10699E-18 9.45924E-19
 -1      1866 9.98700E-05-2.24459E-05-3.29046E-05-1.45836E-05 2.23140E-19-1.97274E-18
 -1      1867 1.53234E-04-5.80309E-05-4.09032E-05 1.73364E-06 1.11554E-18-4.60541E-18
 -1      1868 1.49670E-04-5.43597E-05-4.04558E-05-7.61450E-06 1.69973E-18-4.04069E-18
 -1      1869 1.40951E-04-4.81865E-05-3.97960E-05-1.39489E-05 1.80794E-18-4.29355E-18
 -1      1870 1.35304E-04-4.34990E-05-3.90934E-05-1.79280E-05 1.51637E-18-3.66961E-18
 -1      1871 1.34981E-04-5.17857E-05-3.56849E-05-1.68829E-05 2.09868E-18-1.33826E-18
 -1      1872 1.30372E-04-3.99961E-05-3.87429E-05-1.89815E-05 8.03530E-19-3.53128E-18
 -1      1873 1.24849E-04-3.68265E-05-3.76661E-05-1.91670E-05 7.19151E-19-2.71651E-18
 -1      1874 1.21456E-04-3.95619E-05-3.51422E-05-2.35038E-05 1.48016E-18-2.04941E-18
 -1      1875 1.21866E-04-3.51782E-05-3.71192E-05-1.77295E-05 1.13517E-18-2.27508E-18
 -1      1876 1.16858E-04-3.31827E-05-3.58722E-05-1.63006E-05 1.33816E-18-1.36686E-18
 -1      1877 1.13497E-04-3.26485E-05-3.46782E-05-2.25353E-05 1.28531E-18-1.25718E-18
 -1      1878 1.14953E-04-3.26062E-05-3.52252E-05-1.41425E-05 1.27207E-18-1.68959E-18
 -1      1879 1.11008E-04-3.14331E-05-3.41194E-05-1.24245E-05 1.42382E-18-1.80632E-18
 -1      1880 1.08634E-04-2.97669E-05-3.38137E-05-1.84999E-05 9.06616E-19-1.10983E-18
 -1      1881 1.09594E-04-3.12300E-05-3.35067E-05-1.04262E-05 1.34789E-18-1.96690E-18
 -1      1882 1.06654E-04-3.05115E-05-3.26374E-05-8.95382E-06 9.54103E-20-9.92377E-19
 -1      1883 1.05347E-04-2.88965E-05-3.27703E-05-1.39959E-05 1.54683E-18-4.64430E-19
 -1      1884 1.05544E-04-3.04158E-05-3.21257E-05-7.37263E-06-8.72087E-19-8.06468E-19
 -1      1885 1.03426E-04-2.99538E-05-3.14853E-05-6.26460E-06 1.05959E-19-8.03132E-19
 -1      1886 1.02879E-04-2.87319E-05-3.17810E-05-1.01168E-05 3.65898E-19-4.63370E-19
 -1      1887 1.02553E-04-2.98821E-05-3.10864E-05-5.10286E-06 4.36619E-20-1.56643E-18
 -1      1888 1.01059E-04-2.95736E-05-3.06304E-05-4.31769E-06 2.00380E-19-1.44198E-18
 -1      1889 1.00958E-04-2.87461E-05-3.09519E-05-7.12955E-06-6.87152E-19-1.03580E-18
 -1      1890 1.00384E-04-2.95085E-05-3.03316E-05-3.49615E-06 4.27103E-19-1.88380E-18
 -1      1891 9.93448E-05-2.92976E-05-3.00128E-05-2.95590E-06 3.02169E-19-2.28679E-18
 -1      1892 9.94653E-05-2.87698E-05-3.03026E-05-4.95642E-06 3.47780E-20-2.21603E-18
 -1      1893 9.88570E-05-2.92394E-05-2.98044E-05-2.41189E-06-1.54292E-19-2.25636E-18
 -1      1894 9.81625E-05-2.91007E-05-2.95915E-05-2.05793E-06-4.88559E-19-2.23760E-18
 -1      1895 9.83457E-05-2.87718E-05-2.98237E-05-3.44998E-06-3.64975E-19-2.73273E-18
 -1      1896 9.77709E-05-2.90487E-05-2.94304E-05-1.65720E-06-6.76271E-19-2.11705E-18
 -1      1897 9.72627E-05-2.89446E-05-2.92743E-05-1.40371E-06-7.37312E-19-2.12009E-18
 -1      1898 9.74965E-05-2.87461E-05-2.94687E-05-2.40141E-06-6.38570E-19-1.79423E-18
 -1      1899 9.69756E-05-2.89012E-05-2.91594E-05-1.12929E-06 3.19639E-19-2.55429E-18
 -1      1900 9.66254E-05-2.88294E-05-2.90517E-05-9.57192E-07 1.45820E-19-2.55070E-18
 -1      1901 9.68453E-05-2.87142E-05-2.92028E-05-1.65135E-06-6.48662E-19-1.98093E-18
 -1      1902 9.64159E-05-2.87947E-05-2.89700E-05-7.68527E-07-2.23464E-19-1.15261E-18
 -1      1903 9.61751E-05-2.87450E-05-2.88957E-05-6.51297E-07 3.09920E-20-1.06285E-18
 -1      1904 9.63661E-05-2.86798E-05-2.90116E-05-1.13378E-06 8.53149E-19-1.68676E-18
 -1      1905 9.60237E-05-2.87183E-05-2.88379E-05-5.21082E-07 7.60695E-19-3.77145E-19
 -1      1906 9.58589E-05-2.86841E-05-2.87870E-05-4.40779E-07 2.02747E-18 1.20811E-18
 -1      1907 9.60172E-05-2.86485E-05-2.88749E-05-7.75891E-07 9.26438E-19-3.67544E-19
 -1      1908 9.57507E-05-2.86641E-05-2.87464E-05-3.50509E-07 1.69859E-18 5.89530E-19
 -1      1909 9.56389E-05-2.86411E-05-2.87117E-05-2.95195E-07 8.71498E-19 7.44267E-19
 -1      1910 9.57660E-05-2.86225E-05-2.87778E-05-5.27524E-07 1.39282E-18 1.29606E-18
 -1      1911 9.55625E-05-2.86266E-05-2.86834E-05-2.32342E-07 1.41565E-18 2.85931E-19
 -1      1912 9.54879E-05-2.86114E-05-2.86601E-05-1.94104E-07 2.27582E-18 8.27978E-19
 -1      1913 9.55871E-05-2.86021E-05-2.87094E-05-3.54471E-07 1.12712E-18 2.95096E-19
 -1      1914 9.54371E-05-2.86015E-05-2.86415E-05-1.52144E-07 2.03951E-18 3.09086E-19
 -1      1915 9.53902E-05-2.85923E-05-2.86267E-05-1.26587E-07 3.48511E-19 2.41179E-19
 -1      1916 9.54643E-05-2.85880E-05-2.86625E-05-2.35607E-07 1.29299E-18-7.16302E-19
 -1      1917 9.53533E-05-2.85853E-05-2.86132E-05-9.52458E-08-8.64815E-19 1.41845E-18
 -1      1918 9.53220E-05-2.85795E-05-2.86032E-05-7.63963E-08-6.45121E-19 1.33047E-18
 -1      1919 9.53790E-05-2.85775E-05-2.86301E-05-1.52275E-07 4.06279E-19-8.68689E-19
 -1      1920 9.52978E-05-2.85749E-05-2.85944E-05-5.45378E-08-4.99673E-19 1.20474E-18
 -1      1921 9.52794E-05-2.85719E-05-2.85884E-05-4.13920E-08-4.72636E-19 1.79939E-18
 -1      1922 9.53201E-05-2.85709E-05-2.86075E-05-9.17918E-08-4.51904E-19 6.44599E-19
 -1      1923 9.52641E-05-2.85692E-05-2.85828E-05-2.62271E-08-1.00721E-18 1.69076E-18
 -1      1924 9.52547E-05-2.85683E-05-2.85796E-05-1.71965E-08-1.07246E-18 3.19575E-19
 -1      1925 9.52820E-05-2.85672E-05-2.85925E-05-4.95475E-08-5.49674E-19 1.72515E-18
 -1      1926 9.52456E-05-2.85670E-05-2.85761E-05-6.94338E-09-1.04782E-18 6.07248E-19
 -1      1927 9.52423E-05-2.85677E-05-2.85746E-05-1.18713E-09-9.82584E-19 2.28869E-19
 -1      1928 9.52587E-05-2.85658E-05-2.85830E-05-2.05616E-08-8.46904E-19 7.73381E-19
 -1      1929 9.52375E-05-2.85677E-05-2.85725E-05 4.94190E-09-1.31906E-18-1.19122E-19
 -1      1930 9.52379E-05-2.85698E-05-2.85719E-05 7.30705E-09 4.39045E-19-1.29035E-18
 -1      1931 9.52456E-05-2.85670E-05-2.85768E-05-1.77329E-09-1.12429E-18 1.48277E-18
 -1      1932 9.52368E-05-2.85724E-05-2.85702E-05 8.86179E-09 7.34207E-19-2.90798E-18
 -1      1933 9.28768E-05-2.73783E-05-2.80357E-05 6.59646E-07-1.08860E-19 3.12326E-18
 -1      1934 9.33108E-05-2.73233E-05-2.82194E-05 1.25312E-06-1.29967E-19 3.10457E-18
 -1      1935 9.24293E-05-2.74705E-05-2.78166E-05-2.53002E-07-1.72963E-19 3.14930E-18
 -1      1936 9.25048E-05-2.73981E-05-2.78601E-05 5.35519E-08-9.13836E-20 3.02889E-18
 -1      1937 9.38113E-05-2.74397E-05-2.84621E-05 7.68437E-07-1.12377E-19 2.55465E-18
 -1      1938 9.24369E-05-2.75950E-05-2.77750E-05-7.61040E-07-2.31687E-19 2.87691E-18
 -1      1939 9.22933E-05-2.74976E-05-2.77469E-05-5.96646E-07-2.44893E-19 2.92386E-18
 -1      1940 9.33632E-05-2.76331E-05-2.81853E-05-3.44355E-07-1.24066E-19 2.33160E-18
 -1      1941 9.27275E-05-2.77540E-05-2.78366E-05-1.03114E-06-2.89075E-20 3.05893E-18
 -1      1942 9.24614E-05-2.76410E-05-2.77691E-05-9.47201E-07-1.96389E-19 2.92717E-18
 -1      1943 9.32952E-05-2.77948E-05-2.80829E-05-9.70685E-07-2.39288E-19 1.94118E-18
 -1      1944 9.31825E-05-2.79356E-05-2.79572E-05-1.15649E-06-1.80810E-19 3.21891E-18
 -1      1945 9.28536E-05-2.78150E-05-2.78689E-05-1.12195E-06-1.15870E-19 3.16323E-18
 -1      1946 9.34719E-05-2.79549E-05-2.80864E-05-1.30746E-06-2.21927E-19 2.09256E-18
 -1      1947 9.37225E-05-2.81300E-05-2.81081E-05-1.18597E-06-1.40021E-20 3.29407E-18
 -1      1948 9.33692E-05-2.80072E-05-2.80111E-05-1.18547E-06-1.60644E-19 3.22294E-18
 -1      1949 9.38015E-05-2.81225E-05-2.81530E-05-1.46307E-06-1.72227E-19 2.18517E-18
 -1      1950 9.42902E-05-2.83300E-05-2.82684E-05-1.14032E-06 3.88004E-19 3.15539E-18
 -1      1951 9.39410E-05-2.82090E-05-2.81719E-05-1.16879E-06 3.02734E-19 3.31770E-18
 -1      1952 9.42192E-05-2.82996E-05-2.82540E-05-1.49381E-06 1.55760E-19 2.05622E-18
 -1      1953 9.48375E-05-2.85291E-05-2.84207E-05-1.01969E-06 1.01435E-18 2.87469E-18
 -1      1954 9.45181E-05-2.84140E-05-2.83330E-05-1.07993E-06 7.16374E-19 3.02736E-18
 -1      1955 9.46772E-05-2.84875E-05-2.83681E-05-1.42174E-06 7.14928E-19 2.24293E-18
 -1      1956 9.53156E-05-2.87191E-05-2.85479E-05-8.08080E-07 9.98050E-19 2.52551E-18
 -1      1957 9.50547E-05-2.86156E-05-2.84778E-05-9.09124E-07 1.22035E-18 2.84434E-18
 -1      1958 9.51356E-05-2.86864E-05-2.84777E-05-1.24342E-06 1.17924E-18 2.09901E-18
 -1      1959 9.56674E-05-2.88864E-05-2.86312E-05-4.78158E-07 1.12382E-19 2.35548E-18
 -1      1960 9.55003E-05-2.88040E-05-2.85892E-05-6.33140E-07 4.19597E-19 2.46324E-18
 -1      1961 9.55544E-05-2.88932E-05-2.85668E-05-9.35971E-07 7.68213E-19 2.21422E-18
 -1      1962 9.58229E-05-2.90093E-05-2.86497E-05 1.05534E-09-1.22846E-19 2.09069E-18
 -1      1963 9.57932E-05-2.89623E-05-2.86481E-05-2.21338E-07-1.26837E-19 2.17635E-18
 -1      1964 9.58864E-05-2.90977E-05-2.86192E-05-4.64221E-07 9.98903E-20 2.34224E-18
 -1      1965 9.56993E-05-2.90544E-05-2.85815E-05 6.51336E-07-7.18506E-20 2.49487E-18
 -1      1966 9.58571E-05-2.90633E-05-2.86333E-05 3.53936E-07-1.66144E-19 2.28197E-18
 -1      1967 9.60722E-05-2.92774E-05-2.86193E-05 2.07768E-07-4.21158E-19 2.01167E-18
 -1      1968 9.52090E-05-2.89766E-05-2.84072E-05 1.46634E-06-1.40521E-19 2.21291E-18
 -1      1969 9.56035E-05-2.90669E-05-2.85241E-05 1.10103E-06 2.62661E-19 2.41803E-18
 -1      1970 9.60381E-05-2.93919E-05-2.85525E-05 1.09837E-06 8.25592E-20 1.66210E-18
 -1      1971 9.42774E-05-2.87241E-05-2.81156E-05 2.38894E-06-8.18859E-20 2.06548E-18
 -1      1972 9.49434E-05-2.89218E-05-2.83041E-05 1.98731E-06-2.85852E-19 2.06574E-18
 -1      1973 9.57002E-05-2.93815E-05-2.84092E-05 2.18285E-06-8.22466E-20 1.76591E-18
 -1      1974 9.28725E-05-2.82514E-05-2.77111E-05 3.29248E-06-5.06236E-19 2.44536E-18
 -1      1975 9.38113E-05-2.85740E-05-2.79678E-05 2.91737E-06-3.71548E-19 2.15790E-18
 -1      1976 9.49798E-05-2.91726E-05-2.81879E-05 3.36515E-06-1.89137E-19 1.89891E-18
 -1      1977 9.10424E-05-2.75445E-05-2.72202E-05 3.98003E-06-1.80919E-19 2.87793E-18
 -1      1978 9.22010E-05-2.79874E-05-2.75274E-05 3.72245E-06-2.18834E-19 2.77818E-18
 -1      1979 9.38317E-05-2.86986E-05-2.78994E-05 4.45863E-06-4.89552E-19 2.05558E-18
 -1      1980 8.89493E-05-2.66494E-05-2.66940E-05 4.21744E-06-4.10779E-19 2.83441E-18
 -1      1981 9.02077E-05-2.71725E-05-2.70183E-05 4.17743E-06-3.23842E-19 3.01655E-18
 -1      1982 9.22861E-05-2.79350E-05-2.75686E-05 5.19490E-06-4.11977E-19 2.07337E-18
 -1      1983 8.68786E-05-2.56936E-05-2.62036E-05 3.80761E-06-1.43580E-19 3.17780E-18
 -1      1984 8.80556E-05-2.62154E-05-2.64994E-05 4.05821E-06-3.05918E-19 3.20827E-18
 -1      1985 9.04894E-05-2.69419E-05-2.72334E-05 5.27974E-06-4.98279E-19 2.79610E-18
 -1      1986 8.52002E-05-2.48742E-05-2.58266E-05 2.68833E-06 2.44455E-19 3.49572E-18
 -1      1987 8.60871E-05-2.52858E-05-2.60448E-05 3.23426E-06 1.16503E-19 3.39794E-18
 -1      1988 8.87189E-05-2.58889E-05-2.69387E-05 4.49925E-06 2.63010E-20 3.14812E-18
 -1      1989 8.42728E-05-2.44016E-05-2.56294E-05 1.00360E-06 4.71460E-20 4.03861E-18
 -1      1990 8.46899E-05-2.46007E-05-2.57296E-05 1.75885E-06 1.81447E-19 3.80311E-18
 -1      1991 8.73373E-05-2.50282E-05-2.67278E-05 2.84319E-06 2.17641E-19 3.84711E-18
 -1      1992 8.43200E-05-2.44132E-05-2.56487E-05-9.08980E-07-3.04449E-19 4.11018E-18
 -1      1993 8.41759E-05-2.43458E-05-2.56111E-05-1.03292E-07-1.83465E-19 4.15798E-18
 -1      1994 8.66812E-05-2.46073E-05-2.66338E-05 5.72438E-07-2.39611E-19 3.19062E-18
 -1      1995 8.53413E-05-2.49090E-05-2.58819E-05-2.62891E-06 5.62195E-19 3.60357E-18
 -1      1996 8.46650E-05-2.45935E-05-2.57129E-05-1.94886E-06 1.38096E-19 3.81091E-18
 -1      1997 8.69267E-05-2.47586E-05-2.66723E-05-1.83451E-06 2.73244E-19 3.53615E-18
 -1      1998 8.71105E-05-2.57516E-05-2.62876E-05-3.80876E-06 5.84628E-19 4.29505E-18
 -1      1999 8.60403E-05-2.52695E-05-2.60183E-05-3.38287E-06 6.73610E-19 4.12029E-18
 -1      2000 8.80126E-05-2.54342E-05-2.68387E-05-3.85047E-06 3.15470E-19 3.82028E-18
 -1      2001 8.92644E-05-2.67298E-05-2.67984E-05-4.28946E-06 3.25871E-19 3.48663E-18
 -1      2002 8.79991E-05-2.61907E-05-2.64746E-05-4.16010E-06 4.89365E-19 3.94896E-18
 -1      2003 8.96691E-05-2.64311E-05-2.71087E-05-5.09469E-06 7.57692E-19 3.98523E-18
 -1      2004 9.14291E-05-2.76442E-05-2.73388E-05-4.12044E-06 2.28492E-19 3.42286E-18
 -1      2005 9.01675E-05-2.71455E-05-2.70084E-05-4.24699E-06 4.36966E-19 3.40616E-18
 -1      2006 9.15333E-05-2.74870E-05-2.74441E-05-5.44729E-06 4.97696E-19 3.74745E-18
 -1      2007 9.33217E-05-2.83672E-05-2.78423E-05-3.49346E-06-4.47533E-19 3.65824E-18
 -1      2008 9.22150E-05-2.79696E-05-2.75447E-05-3.78648E-06-1.71392E-20 3.31774E-18
 -1      2009 9.32795E-05-2.83858E-05-2.78006E-05-5.03662E-06 1.61812E-19 3.78970E-18
 -1      2010 9.47900E-05-2.88550E-05-2.82632E-05-2.64441E-06-2.80669E-19 3.58043E-18
 -1      2011 9.39222E-05-2.85790E-05-2.80228E-05-3.00619E-06-6.07462E-19 3.25223E-18
 -1      2012 9.46993E-05-2.90153E-05-2.81370E-05-4.13386E-06-1.65105E-19 3.39047E-18
 -1      2013 9.58006E-05-2.91266E-05-2.85797E-05-1.77559E-06 8.67170E-19 3.15475E-18
 -1      2014 9.51931E-05-2.89632E-05-2.84058E-05-2.12832E-06 4.18408E-19 3.09858E-18
 -1      2015 9.57134E-05-2.93646E-05-2.84228E-05-3.03145E-06 2.69396E-19 2.75355E-18
 -1      2016 9.64004E-05-2.92319E-05-2.87909E-05-1.01918E-06 8.33427E-19 2.48916E-18
 -1      2017 9.60299E-05-2.91572E-05-2.86803E-05-1.31576E-06 8.72083E-19 3.28359E-18
 -1      2018 9.63396E-05-2.94866E-05-2.86412E-05-1.96047E-06 1.07234E-18 2.18354E-18
 -1      2019 9.66754E-05-2.92269E-05-2.89100E-05-4.36144E-07 7.93372E-19 2.24030E-18
 -1      2020 9.64951E-05-2.92135E-05-2.88522E-05-6.57838E-07 1.20515E-18 2.59343E-18
 -1      2021 9.66479E-05-2.94566E-05-2.87890E-05-1.06009E-06 8.65993E-19 3.25429E-18
 -1      2022 9.67201E-05-2.91594E-05-2.89570E-05-3.41478E-08 1.04497E-18 1.61511E-18
 -1      2023 9.66765E-05-2.91830E-05-2.89387E-05-1.82094E-07 1.13401E-18 1.92871E-18
 -1      2024 9.67248E-05-2.93438E-05-2.88729E-05-3.85556E-07 1.38807E-18 2.84065E-18
 -1      2025 9.66193E-05-2.90642E-05-2.89537E-05 2.10235E-07 4.21686E-19 1.52685E-18
 -1      2026 9.66633E-05-2.91063E-05-2.89617E-05 1.24140E-07 4.76698E-19 1.85437E-18
 -1      2027 9.66512E-05-2.91996E-05-2.89052E-05 6.65210E-08 9.84708E-19 2.45447E-18
 -1      2028 9.64400E-05-2.89637E-05-2.89192E-05 3.33199E-07 2.94266E-19 1.82463E-18
 -1      2029 9.65321E-05-2.90118E-05-2.89424E-05 2.93325E-07 5.82584E-19 2.10985E-18
 -1      2030 9.64924E-05-2.90556E-05-2.89004E-05 3.31358E-07 1.36677E-19 2.96888E-18
 -1      2031 9.62305E-05-2.88705E-05-2.88688E-05 3.71761E-07-1.37607E-19 1.25154E-18
 -1      2032 9.63420E-05-2.89170E-05-2.88988E-05 3.63063E-07 3.48165E-19 1.50097E-18
 -1      2033 9.62961E-05-2.89285E-05-2.88717E-05 4.55438E-07 5.11898E-19 3.19198E-18
 -1      2034 9.60220E-05-2.87905E-05-2.88133E-05 3.57556E-07-3.61722E-19 6.34772E-20
 -1      2035 9.61342E-05-2.88315E-05-2.88445E-05 3.67649E-07-1.08751E-19 5.49503E-19
 -1      2036 9.60942E-05-2.88244E-05-2.88304E-05 4.83786E-07 4.81821E-19 2.38986E-18
 -1      2037 9.58330E-05-2.87257E-05-2.87598E-05 3.14672E-07-6.23784E-19-6.69905E-19
 -1      2038 9.59348E-05-2.87595E-05-2.87888E-05 3.34399E-07-6.40066E-19-6.85983E-19
 -1      2039 9.59060E-05-2.87436E-05-2.87848E-05 4.53768E-07-1.20245E-19 3.58509E-19
 -1      2040 9.56721E-05-2.86753E-05-2.87123E-05 2.59814E-07-9.31821E-19 1.03736E-18
 -1      2041 9.57583E-05-2.87018E-05-2.87373E-05 2.83002E-07-5.56327E-19 3.80303E-19
 -1      2042 9.57417E-05-2.86835E-05-2.87402E-05 3.93271E-07-1.17328E-18-1.83009E-19
 -1      2043 9.55420E-05-2.86376E-05-2.86727E-05 2.03553E-07-8.51419E-19 1.65838E-18
 -1      2044 9.56111E-05-2.86576E-05-2.86930E-05 2.26421E-07-1.25228E-18 1.40589E-18
 -1      2045 9.56051E-05-2.86403E-05-2.87002E-05 3.21321E-07-1.82371E-18 5.91298E-19
 -1      2046 9.54412E-05-2.86105E-05-2.86411E-05 1.51857E-07 3.57389E-19 8.34543E-19
 -1      2047 9.54940E-05-2.86248E-05-2.86568E-05 1.72371E-07-1.93429E-19 1.04541E-18
 -1      2048 9.54960E-05-2.86103E-05-2.86662E-05 2.49744E-07-7.38281E-19 1.43643E-18
 -1      2049 9.53664E-05-2.85919E-05-2.86171E-05 1.07518E-07 2.22575E-18 9.15067E-20
 -1      2050 9.54048E-05-2.86016E-05-2.86287E-05 1.24821E-07 1.34050E-18 1.29927E-18
 -1      2051 9.54121E-05-2.85904E-05-2.86387E-05 1.85055E-07 9.51980E-19 4.80541E-19
 -1      2052 9.53135E-05-2.85797E-05-2.85997E-05 7.13085E-08 2.65606E-18-5.01377E-19
 -1      2053 9.53399E-05-2.85859E-05-2.86078E-05 8.52682E-08 2.58291E-18 3.57974E-19
 -1      2054 9.53499E-05-2.85777E-05-2.86174E-05 1.30148E-07 2.23455E-18 3.25331E-19
 -1      2055 9.52781E-05-2.85724E-05-2.85878E-05 4.28589E-08 7.01370E-19 4.53054E-19
 -1      2056 9.52949E-05-2.85759E-05-2.85930E-05 5.37321E-08 2.22453E-18 1.73595E-19
 -1      2057 9.53057E-05-2.85701E-05-2.86015E-05 8.56607E-08 2.36101E-18 6.89315E-19
 -1      2058 9.52562E-05-2.85687E-05-2.85801E-05 2.13397E-08 3.92219E-19-3.75153E-19
 -1      2059 9.52657E-05-2.85702E-05-2.85832E-05 2.94978E-08 4.19823E-19 2.63989E-19
 -1      2060 9.52755E-05-2.85662E-05-2.85901E-05 5.10163E-08 1.07774E-18 2.27186E-18
 -1      2061 9.52441E-05-2.85678E-05-2.85754E-05 6.10495E-09 8.84600E-19-1.72815E-18
 -1      2062 9.52484E-05-2.85678E-05-2.85770E-05 1.17121E-08 1.01860E-19-1.37486E-18
 -1      2063 9.52561E-05-2.85650E-05-2.85823E-05 2.52480E-08 1.20952E-18 4.86268E-19
 -1      2064 9.52391E-05-2.85695E-05-2.85725E-05-2.05249E-09-4.09070E-19-2.31324E-18
 -1      2065 9.52401E-05-2.85681E-05-2.85734E-05 4.68478E-10 1.37563E-18-1.85226E-18
 -1      2066 9.52454E-05-2.85659E-05-2.85770E-05 8.16769E-09 4.82869E-19-2.00836E-19
 -1      2067 9.52399E-05-2.85691E-05-2.85732E-05-1.20586E-09-1.17198E-18 5.45697E-19
 -1      2068 9.52306E-05-2.85410E-05-2.85814E-05 2.15736E-08-6.91799E-19 9.46985E-19
 -1      2069 9.52337E-05-2.85471E-05-2.85798E-05 1.90879E-08-1.24334E-18 9.11424E-19
 -1      2070 9.52373E-05-2.85551E-05-2.85781E-05 1.48868E-08-6.11992E-19 9.76226E-19
 -1      2071 9.52390E-05-2.85595E-05-2.85769E-05 1.07827E-08-6.55825E-19 2.08860E-18
 -1      2072 9.52352E-05-2.85433E-05-2.85823E-05 2.40914E-08-7.35025E-19 9.08666E-19
 -1      2073 9.52408E-05-2.85671E-05-2.85743E-05 3.02856E-09-9.71722E-19 1.74252E-18
 -1      2074 9.52232E-05-2.85262E-05-2.85846E-05 2.31415E-08-8.14338E-19-1.94428E-18
 -1      2075 9.52265E-05-2.85326E-05-2.85830E-05 2.30184E-08-1.60019E-18 1.36854E-19
 -1      2076 9.52263E-05-2.85264E-05-2.85856E-05 3.03122E-08-3.06212E-19-2.84772E-19
 -1      2077 9.52163E-05-2.85127E-05-2.85875E-05 1.91864E-08-1.11318E-18-2.29012E-18
 -1      2078 9.52193E-05-2.85183E-05-2.85861E-05 2.14408E-08-1.09255E-18-7.62643E-19
 -1      2079 9.52168E-05-2.85095E-05-2.85887E-05 2.98053E-08-5.27166E-19-1.28887E-18
 -1      2080 9.52115E-05-2.85032E-05-2.85895E-05 1.05717E-08-1.26366E-18-2.13813E-18
 -1      2081 9.52133E-05-2.85067E-05-2.85886E-05 1.46698E-08-1.20260E-18-2.17152E-18
 -1      2082 9.52085E-05-2.84951E-05-2.85912E-05 2.25847E-08-2.83139E-19-2.29533E-18
 -1      2083 9.52096E-05-2.84996E-05-2.85902E-05-7.62187E-10-1.26511E-18 1.67591E-18
 -1      2084 9.52100E-05-2.85002E-05-2.85901E-05 4.22303E-09-1.32899E-18-6.10644E-19
 -1      2085 9.52032E-05-2.84858E-05-2.85929E-05 1.01083E-08-1.17807E-18-7.92054E-19
 -1      2086 9.52113E-05-2.85027E-05-2.85895E-05-1.22545E-08-1.79376E-19 7.22406E-19
 -1      2087 9.52100E-05-2.85001E-05-2.85902E-05-7.55168E-09-1.36270E-18 2.23209E-18
 -1      2088 9.52018E-05-2.84832E-05-2.85934E-05-4.95715E-09-2.28865E-18 2.01534E-18
 -1      2089 9.52161E-05-2.85119E-05-2.85876E-05-2.12006E-08 3.49597E-20 2.12196E-20
 -1      2090 9.52134E-05-2.85067E-05-2.85888E-05-1.79505E-08-1.47907E-19 1.03528E-18
 -1      2091 9.52048E-05-2.84878E-05-2.85927E-05-1.93243E-08-1.51388E-18 8.90708E-19
 -1      2092 9.52231E-05-2.85253E-05-2.85847E-05-2.52918E-08 1.40725E-18-2.05047E-18
 -1      2093 9.52196E-05-2.85186E-05-2.85864E-05-2.43790E-08 6.51463E-19-1.08490E-18
 -1      2094 9.52117E-05-2.84989E-05-2.85910E-05-2.96536E-08-7.40006E-19-2.15781E-19
 -1      2095 9.52311E-05-2.85407E-05-2.85814E-05-2.33914E-08 2.91345E-18 9.97011E-19
 -1      2096 9.52274E-05-2.85338E-05-2.85831E-05-2.51894E-08 3.23746E-18-1.76221E-18
 -1      2097 9.52212E-05-2.85148E-05-2.85883E-05-3.34898E-08 2.12193E-18-5.51313E-19
 -1      2098 9.52380E-05-2.85549E-05-2.85782E-05-1.56690E-08 1.13585E-18 2.03829E-19
 -1      2099 9.52353E-05-2.85495E-05-2.85797E-05-1.98273E-08 1.40279E-18 5.33112E-19
 -1      2100 9.52314E-05-2.85328E-05-2.85851E-05-2.97126E-08 2.15932E-18 2.97457E-20
 -1      2101 9.52420E-05-2.85655E-05-2.85754E-05-4.52194E-09-1.60370E-18-5.74821E-19
 -1      2102 9.52410E-05-2.85625E-05-2.85765E-05-9.70322E-09-7.44378E-19-5.56555E-19
 -1      2103 9.52397E-05-2.85496E-05-2.85816E-05-1.91647E-08-5.16311E-19-1.25783E-18
 -1      2104 9.37222E-05-2.73567E-05-2.83969E-05 1.92625E-06-4.32053E-20 3.25597E-18
 -1      2105 9.47864E-05-2.73505E-05-2.88407E-05 3.03699E-06-1.50057E-19 3.29538E-18
 -1      2106 9.55294E-05-2.68498E-05-2.94360E-05 4.42261E-06-1.75389E-19 2.85151E-18
 -1      2107 9.45088E-05-2.71848E-05-2.88670E-05 2.35269E-06-7.31823E-20 2.72415E-18
 -1      2108 6.27373E-05-3.91189E-05-1.03740E-05 4.75988E-05 1.81858E-18-2.13532E-19
 -1      2109 4.73004E-05-4.15653E-05-3.62083E-06 4.06215E-05 1.72625E-18-5.15843E-19
 -1      2110 1.42751E-04-4.02126E-05-4.32072E-05 4.04588E-05 1.70741E-18 4.51892E-19
 -1      2111 1.23277E-04-4.35877E-05-3.45603E-05 3.86076E-05 2.38609E-18 1.93971E-19
 -1      2112 1.17584E-05-3.26676E-05 8.02344E-06 1.51645E-05 1.20152E-18 4.09371E-18
 -1      2113 1.12072E-05-3.67615E-05 9.46681E-06 5.50367E-06 2.01806E-19 4.42871E-18
 -1      2114 8.73084E-05-8.71428E-06-3.37743E-05-1.04155E-05 7.58326E-19-9.17668E-19
 -1      2115 8.80241E-05-9.25694E-06-3.38426E-05-1.19946E-05 6.89280E-19-1.09331E-18
 -1      2116 9.05187E-05-1.30243E-05-3.32402E-05-1.16918E-05 6.51229E-19-1.13952E-18
 -1      2117 8.87059E-05-1.10203E-05-3.33263E-05-9.26844E-06 8.20643E-19-7.97296E-19
 -1      2118 1.61365E-04-5.79028E-05-4.46534E-05 2.23512E-05-1.29215E-18-4.99178E-18
 -1      2119 1.64008E-04-6.24183E-05-4.34335E-05 1.31107E-05 1.12642E-19-5.09840E-18
 -1      2120 1.54774E-04-6.46737E-05-3.88579E-05 3.44649E-08 8.99973E-19-2.09551E-18
 -1      2121 1.67966E-04-3.53074E-05-5.62175E-05 2.56133E-05 1.86707E-18-5.71324E-19
 -1      2122 1.51463E-04-3.62139E-05-4.93571E-05 3.19349E-05 1.40639E-18 4.76033E-19
 -1      2123 1.50891E-04-4.62620E-05-4.42759E-05 2.05821E-05 1.69714E-18 2.93497E-19
 -1      2124 1.85852E-04-2.73474E-05-6.68044E-05 1.15354E-05 2.96631E-18-1.50115E-18
 -1      2125 1.71806E-04-2.68427E-05-6.19075E-05 1.62211E-05 2.82316E-18-6.92026E-19
 -1      2126 1.92320E-04-2.41825E-05-7.09295E-05-7.37846E-08 1.54584E-18-1.71972E-18
 -1      2127 1.88462E-04-2.44096E-05-6.95782E-05 9.02629E-06 2.57498E-18-1.15895E-18
 -1      2128 1.64499E-04-1.50635E-05-6.30373E-05-5.70139E-07 2.74185E-18-5.62642E-19
 -1      2129 1.86107E-04-2.50188E-05-6.82503E-05-1.31747E-05-3.62530E-19-2.34247E-18
 -1      2130 1.94940E-04-2.59935E-05-7.10004E-05-4.71680E-06-1.26208E-19-2.58578E-18
 -1      2131 1.68005E-04-3.11975E-05-5.82487E-05-2.49686E-05-1.28749E-19-2.08328E-18
 -1      2132 1.81645E-04-3.03523E-05-6.37773E-05-1.79427E-05-2.31028E-19-2.37212E-18
 -1      2133 1.41614E-04-3.84077E-05-4.44325E-05-3.44590E-05 2.96462E-21-1.47045E-18
 -1      2134 1.61366E-04-3.69759E-05-5.23566E-05-3.34135E-05 8.98914E-20-2.19254E-18
 -1      2135 1.05531E-04-4.22941E-05-2.78007E-05-4.34710E-05 5.20502E-19-6.70427E-19
 -1      2136 1.27028E-04-4.09938E-05-3.64302E-05-4.51706E-05 3.38813E-21-1.49417E-18
 -1      2137 7.08495E-05-4.37058E-05-1.26880E-05-4.42341E-05 1.66442E-19-7.87741E-19
 -1      2138 8.89513E-05-4.09338E-05-2.05086E-05-4.94909E-05 5.55230E-19-2.89897E-19
 -1      2139 3.99479E-05-4.12201E-05-6.88220E-07-3.75760E-05 4.29869E-19-4.46492E-19
 -1      2140 5.36626E-05-3.84895E-05-6.88250E-06-4.46543E-05 1.66018E-19-9.18422E-19
 -1      2141 7.58059E-05-4.63024E-05-1.28494E-05-5.00858E-05 1.15196E-19-6.30219E-19
 -1      2142 1.56184E-05-3.83792E-05 8.28432E-06-2.04406E-05 1.26293E-18 2.21923E-19
 -1      2143 2.22222E-05-3.60524E-05 4.88733E-06-2.94440E-05 1.23836E-18-2.43522E-19
 -1      2144 1.15438E-05-3.39827E-05 8.53281E-06 7.22549E-07 1.49607E-19-6.96685E-19
 -1      2145 1.10227E-05-3.45149E-05 8.84654E-06-9.76059E-06 4.89585E-19-3.76930E-19
 -1      2146 3.05636E-05-4.06990E-05 3.08547E-06 2.18705E-05-8.03411E-19-3.03767E-18
 -1      2147 2.00559E-05-3.82265E-05 6.48859E-06 1.37385E-05-4.04035E-19-1.52720E-18
 -1      2148 6.46617E-05-4.71954E-05-8.51392E-06 3.42512E-05-8.98702E-19-2.53951E-18
 -1      2149 4.57471E-05-4.77576E-05-1.19037E-06 2.59093E-05-8.12728E-19-2.68287E-18
 -1      2150 1.17453E-04-5.76731E-05-2.61018E-05 3.44634E-05-1.05371E-18-2.23320E-18
 -1      2151 9.15149E-05-5.63686E-05-1.67980E-05 3.11480E-05-6.89485E-19-2.32087E-18
 -1      2152 1.66465E-04-6.16863E-05-4.43552E-05 1.97000E-05-1.74531E-18-1.47384E-19
 -1      2153 1.40857E-04-6.22488E-05-3.49467E-05 2.08443E-05-1.03126E-18-7.10661E-19
 -1      2154 1.96352E-04-5.64272E-05-5.87215E-05 2.83422E-06-2.01064E-18 5.37019E-19
 -1      2155 1.75923E-04-5.82615E-05-5.07076E-05 7.67403E-06-2.09567E-18 1.18585E-19
 -1      2156 1.73197E-04-6.63614E-05-4.52480E-05-3.11688E-06-1.28463E-18 1.04016E-18
 -1      2157 2.16335E-04-4.46957E-05-7.08025E-05-3.40340E-06-9.58841E-19-6.14099E-19
 -1      2158 2.02078E-04-4.55613E-05-6.55713E-05-2.82398E-06-1.46113E-18-3.32037E-19
 -1      2159 2.12680E-04-3.57707E-05-7.32323E-05-1.77319E-06-1.43826E-18-8.30728E-19
 -1      2160 2.16727E-04-3.93088E-05-7.30441E-05-1.37267E-06-1.42429E-18-6.96261E-19
 -1      2161 1.91070E-04-3.34816E-05-6.54752E-05-1.34714E-05-1.15747E-18-5.88053E-19
 -1      2162 2.07027E-04-4.28997E-05-6.84164E-05 4.65190E-06-3.94548E-18-7.68259E-19
 -1      2163 2.09355E-04-3.84634E-05-7.10800E-05 6.26787E-06-2.63088E-18-1.88317E-18
 -1      2164 1.89026E-04-5.25323E-05-5.80930E-05 2.05600E-06-5.21306E-18 4.69256E-19
 -1      2165 2.07277E-04-5.07213E-05-6.51231E-05 2.32361E-06-4.97992E-18-4.94667E-19
 -1      2166 1.86742E-04-4.13801E-05-6.07824E-05 2.15825E-05-4.93524E-18-1.19686E-18
 -1      2167 1.56275E-04-5.99852E-05-4.20553E-05-1.81740E-05-3.24879E-18 4.74762E-18
 -1      2168 1.80966E-04-6.03493E-05-5.09557E-05-1.29557E-05-4.50283E-18 2.36576E-18
 -1      2169 1.10774E-04-5.70364E-05-2.47735E-05-2.94817E-05-1.92954E-18 5.37400E-18
 -1      2170 1.37045E-04-5.78382E-05-3.41759E-05-3.14145E-05-2.38313E-18 6.18588E-18
 -1      2171 6.97931E-05-5.20871E-05-9.33799E-06-3.09432E-05-1.68475E-18 4.94749E-18
 -1      2172 9.10317E-05-5.25204E-05-1.72277E-05-3.59123E-05-2.00493E-18 5.70434E-18
 -1      2173 3.32453E-05-4.40655E-05 2.83577E-06-2.13786E-05-1.68178E-18 3.61069E-18
 -1      2174 4.75563E-05-4.33560E-05-2.79803E-06-3.02579E-05-2.10234E-18 4.15110E-18
 -1      2175 1.38431E-05-3.96553E-05 9.40779E-06-4.67601E-06 1.56701E-20 4.65699E-18
 -1      2176 1.96220E-05-3.94874E-05 7.06436E-06-1.29706E-05-1.28876E-18 4.19197E-18
 -1      2177 3.04520E-05-3.55793E-05 1.47378E-06 3.57716E-05 1.41031E-18-1.60089E-19
 -1      2178 2.08919E-05-3.67997E-05 5.65258E-06 2.72153E-05 1.64007E-18 1.39760E-18
 -1      2179 9.52405E-05-2.85719E-05-2.85723E-05 7.15153E-09-1.38230E-18-1.27290E-18
 -1      2180 8.52211E-05-4.85116E-05-1.57126E-05 4.97007E-05 1.04524E-18 6.13662E-19
 -1      2181 9.72262E-05-2.42688E-05-3.13520E-05-1.00415E-05 1.77612E-19-1.86154E-18
 -1      2182 9.63867E-05-2.30272E-05-3.15040E-05-1.04017E-05 2.30697E-19-1.43131E-18
 -1      2183 1.64262E-04-2.91680E-05-5.81357E-05 4.50036E-06-1.84907E-18-1.35642E-18
 -1      2184 1.66716E-04-3.55188E-05-5.68392E-05 2.14701E-05-3.93870E-18-1.46738E-18
 -1      2185 1.24752E-04-5.37085E-05-3.02221E-05 3.84215E-05 2.45555E-18-6.31040E-20
 -1      2186 1.72318E-04-6.09898E-05-4.78927E-05-2.26416E-05-1.22386E-18 2.31240E-19
 -1      2187 1.68775E-04-5.03884E-05-5.11700E-05-2.52345E-05-8.68632E-19 3.44742E-19
 -1      2188 1.71805E-04-4.20668E-05-5.60141E-05-2.57786E-05-9.70276E-19-3.73330E-19
 -1      2189 1.67276E-04-3.25550E-05-5.79811E-05-1.54960E-05-4.84503E-19-3.95353E-19
 -1      2190 9.52417E-05-2.85601E-05-2.85779E-05 1.08989E-08 1.75087E-19 2.27004E-18
 -1      2191 1.92284E-05-2.57890E-05 2.38246E-06 2.48789E-05 2.21076E-19 3.12047E-18
 -1      2192 9.52417E-05-2.85700E-05-2.85734E-05 3.25389E-09-1.72546E-18-3.06506E-19
 -1      2193 9.52426E-05-2.85690E-05-2.85744E-05-1.26155E-10-1.68957E-18 8.40644E-19
 -1      2194 9.52437E-05-2.85605E-05-2.85786E-05-7.73850E-09-1.81833E-18-5.69280E-19
 -1      2195 9.52433E-05-2.85660E-05-2.85758E-05 8.53591E-10-1.23334E-18 1.14830E-18
 -1      2196 4.69672E-05-3.65133E-05-4.76549E-06 4.53664E-05 4.42575E-19-5.12243E-19
 -1      2197 1.62115E-04-3.08450E-05-5.55987E-05 6.42570E-06 2.36047E-18-8.13575E-19
 -1      2198 1.35758E-05-2.51224E-05 4.23130E-06-1.98730E-06-4.05941E-19 5.30158E-18
 -1      2199 3.20244E-05-3.39288E-05 1.13754E-07-2.48718E-05-9.16066E-19 4.41135E-18
 -1      2200 7.11668E-05-4.92932E-05-9.91260E-06-3.61823E-05-1.11300E-18 4.25189E-18
 -1      2201 1.16929E-04-6.38098E-05-2.32003E-05-3.10058E-05-4.89585E-19 4.48080E-18
 -1      2202 1.82289E-04-5.96604E-05-5.17031E-05 9.54633E-06-4.63592E-18-4.84926E-19
 -1      2203 1.87965E-04-3.03215E-05-6.57542E-05 7.05023E-06-2.21753E-18-1.19516E-18
 -1      2204 1.88798E-04-5.12775E-05-5.76648E-05-1.88719E-05-1.52339E-18 6.86520E-19
 -1      2205 1.43930E-04-6.95807E-05-3.18495E-05 1.95298E-05-9.22419E-19-1.25784E-19
 -1      2206 9.24067E-05-5.66574E-05-1.56999E-05 3.58632E-05-2.73592E-19-2.17177E-18
 -1      2207 4.71011E-05-3.99690E-05-3.76115E-06 3.18267E-05-6.77203E-19-2.95022E-18
 -1      2208 1.94139E-05-2.63028E-05 2.47671E-06 1.11963E-05-3.66871E-19-1.44207E-18
 -1      2209 3.79120E-05-3.48471E-05-1.83042E-06-4.09027E-05 9.11831E-19 1.53525E-19
 -1      2210 1.11292E-04-5.30415E-05-2.48347E-05-4.40110E-05 1.52466E-20-2.22134E-19
 -1      2211 1.42669E-04-4.98438E-05-3.93024E-05-2.87951E-05-5.79794E-19-8.36869E-19
 -1      2212 1.60476E-04-3.67903E-05-5.21731E-05-1.13876E-05-4.48186E-19-1.16086E-18
 -1      2213 1.69952E-04-1.27343E-05-6.61866E-05-3.80460E-07 9.71970E-19-2.33490E-19
 -1      2214 1.68633E-04-2.15428E-05-6.19850E-05-2.94525E-06-4.31775E-19-1.50962E-18
 -1      2215 1.47814E-05-2.51296E-05 3.82991E-06-1.72176E-05 7.49730E-19-6.69580E-19
 -1      2216 1.57798E-04-6.86819E-05-3.79420E-05-1.26421E-05-1.31544E-18 3.10183E-18
 -1      2217 1.67662E-04-4.10363E-05-5.45015E-05 2.48344E-05-4.98987E-18-1.97846E-18
 -1      2218 1.70406E-04-5.27221E-05-5.09188E-05 2.86832E-05-3.97110E-18-3.94844E-18
 -1      2219 8.80901E-05-1.10491E-05-3.30572E-05-3.57902E-06 1.05305E-18 9.69390E-20
 -1      2220 8.83373E-05-1.13306E-05-3.30397E-05-4.70171E-06 1.02023E-18-1.28484E-19
 -1      2221 8.87050E-05-1.18320E-05-3.29913E-05-5.70162E-06 9.33328E-19-2.81030E-19
 -1      2222 8.91257E-05-1.23178E-05-3.29627E-05-6.85993E-06 8.82168E-19-4.99988E-19
 -1      2223 8.98465E-05-1.36777E-05-3.26425E-05-4.77996E-06 9.91197E-19-1.32786E-19
 -1      2224 8.77180E-05-1.05697E-05-3.30974E-05 6.01013E-07 1.20655E-18 5.44033E-19
 -1      2225 8.77148E-05-1.05646E-05-3.30984E-05-4.87069E-07 1.16203E-18 4.61990E-19
 -1      2226 8.79073E-05-1.08065E-05-3.30773E-05 2.69528E-06 1.14306E-18 5.94478E-19
 -1      2227 8.77871E-05-1.06673E-05-3.30873E-05 1.59716E-06 1.17644E-18 5.27927E-19
 -1      2228 8.90126E-05-1.25830E-05-3.27580E-05 1.01719E-06 1.13690E-18 4.72333E-19
 -1      2229 8.83617E-05-1.13773E-05-3.30304E-05 4.78490E-06 1.04712E-18 9.22373E-19
 -1      2230 8.81118E-05-1.10898E-05-3.30493E-05 3.67883E-06 1.08108E-18 7.36932E-19
 -1      2231 8.92928E-05-1.29577E-05-3.27162E-05 2.93693E-06 1.07027E-18 6.31096E-19
 -1      2232 8.91684E-05-1.23926E-05-3.29492E-05 6.94348E-06 9.45097E-19 1.33034E-18
 -1      2233 8.87372E-05-1.18919E-05-3.29797E-05 5.78346E-06 9.78251E-19 1.09570E-18
 -1      2234 8.98766E-05-1.37370E-05-3.26299E-05 4.84955E-06 9.78046E-19 9.63599E-19
 -1      2235 9.04644E-05-1.40371E-05-3.28182E-05 9.07708E-06 6.91334E-19 1.81118E-18
 -1      2236 8.97727E-05-1.32127E-05-3.28658E-05 7.90482E-06 8.27350E-19 1.54259E-18
 -1      2237 9.08459E-05-1.50366E-05-3.24823E-05 6.71700E-06 7.68379E-19 1.34333E-18
 -1      2238 9.24766E-05-1.66661E-05-3.25912E-05 1.09142E-05 3.82916E-19 2.10104E-18
 -1      2239 9.13777E-05-1.52788E-05-3.26781E-05 9.89428E-06 5.55133E-19 1.91216E-18
 -1      2240 9.23009E-05-1.70333E-05-3.22369E-05 8.36579E-06 4.62384E-19 1.76584E-18
 -1      2241 9.55152E-05-2.08181E-05-3.21065E-05 1.15792E-05 1.30436E-19 2.59968E-18
 -1      2242 9.38331E-05-1.84716E-05-3.23362E-05 1.13357E-05 3.21426E-19 2.33962E-18
 -1      2243 9.43605E-05-2.00180E-05-3.18117E-05 9.33189E-06 2.10149E-19 2.11089E-18
 -1      2244 9.75138E-05-2.45932E-05-3.13143E-05 9.74161E-06-1.01115E-19 2.87762E-18
 -1      2245 9.62868E-05-2.22281E-05-3.17365E-05 1.09767E-05 3.49930E-20 2.67623E-18
 -1      2246 9.58379E-05-2.31901E-05-3.11327E-05 8.65965E-06 7.84498E-20 2.48232E-18
 -1      2247 9.63415E-05-2.56683E-05-3.02943E-05 6.76888E-06-1.70942E-19 2.77785E-18
 -1      2248 9.59825E-05-2.49748E-05-3.03902E-05-6.23402E-06 2.01541E-19-1.09025E-18
 -1      2249 9.53631E-05-2.57533E-05-2.98439E-05-4.25640E-06 2.25073E-19-1.02563E-18
 -1      2250 1.29991E-04-5.51668E-05-3.18928E-05-2.06097E-05 1.82726E-18-4.41741E-19
 -1      2251 1.20668E-04-4.59995E-05-3.14720E-05-2.56643E-05 2.01297E-18-5.80085E-19
 -1      2252 9.50709E-05-1.99522E-05-3.22449E-05-1.16987E-05 3.93487E-19-1.31592E-18
 -1      2253 9.55164E-05-2.32253E-05-3.10019E-05-7.99944E-06 2.23683E-19-1.22508E-18
 -1      2254 9.50741E-05-2.24179E-05-3.11259E-05-7.58749E-06 3.39435E-19-1.05667E-18
 -1      2255 9.32535E-05-1.76313E-05-3.24367E-05-1.12238E-05 5.31794E-19-1.20977E-18
 -1      2256 1.35673E-04-5.67039E-05-3.41229E-05 2.95383E-05 1.73769E-18-9.54818E-19
 -1      2257 1.18627E-04-5.66914E-05-2.63895E-05 3.79229E-05 1.25784E-18-5.20290E-19
 -1      2258 1.67811E-04-6.71079E-05-4.33335E-05-6.90734E-06-1.33132E-18 7.32472E-19
 -1      2259 9.52542E-05-2.64612E-05-2.94300E-05-2.85245E-06 2.29787E-19-8.59189E-19
 -1      2260 9.48300E-05-2.68375E-05-2.91328E-05-1.72886E-06 3.20243E-19-8.72204E-19
 -1      2261 9.54134E-05-2.52198E-05-3.00857E-05-4.20437E-06 2.99426E-19-7.51276E-19
 -1      2262 9.46484E-05-2.71561E-05-2.88896E-05-8.47306E-07 4.27225E-19-8.36972E-19
 -1      2263 9.44519E-05-2.73662E-05-2.87423E-05-2.00846E-07 4.54939E-19-6.76532E-19
 -1      2264 9.51718E-05-2.65545E-05-2.94166E-05-1.75667E-06 4.30323E-19-5.82889E-19
 -1      2265 9.43134E-05-2.75462E-05-2.85936E-05 4.07398E-07 2.24588E-19-5.70377E-19
 -1      2266 9.42794E-05-2.76891E-05-2.85301E-05 8.34693E-07 1.13057E-19-4.31850E-19
 -1      2267 9.49166E-05-2.72606E-05-2.90056E-05-1.42176E-07 4.03250E-19-5.29218E-19
 -1      2268 9.42171E-05-2.77833E-05-2.84598E-05 1.23242E-06 1.54653E-19-4.33015E-19
 -1      2269 9.43136E-05-2.78864E-05-2.84596E-05 1.52184E-06 3.10065E-19-2.73466E-19
 -1      2270 9.47691E-05-2.76667E-05-2.87689E-05 9.57021E-07 1.28539E-19-4.16443E-19
 -1      2271 9.43156E-05-2.79295E-05-2.84453E-05 1.80573E-06 2.69271E-19-3.20709E-19
 -1      2272 9.45076E-05-2.80031E-05-2.84911E-05 2.03716E-06 1.76110E-19-2.98465E-19
 -1      2273 9.47443E-05-2.78796E-05-2.86671E-05 1.71383E-06 2.52038E-19-1.70044E-19
 -1      2274 9.45539E-05-2.80044E-05-2.85194E-05 2.27829E-06-7.36865E-20-3.94387E-19
 -1      2275 9.48213E-05-2.80507E-05-2.86025E-05 2.51359E-06-2.07275E-19-6.13145E-19
 -1      2276 9.48157E-05-2.79568E-05-2.86646E-05 2.30207E-06-1.22771E-19-3.35969E-19
 -1      2277 9.48897E-05-2.80067E-05-2.86654E-05 2.77079E-06-2.65303E-19-6.58231E-19
 -1      2278 9.52246E-05-2.80222E-05-2.87834E-05 3.06596E-06-3.39938E-19-7.19336E-19
 -1      2279 9.49450E-05-2.79120E-05-2.87396E-05 2.85890E-06-3.02010E-19-4.34526E-19
 -1      2280 9.52889E-05-2.79202E-05-2.88766E-05 3.39430E-06-1.76660E-19-5.91633E-19
 -1      2281 9.56889E-05-2.78962E-05-2.90316E-05 3.80811E-06-1.06549E-20-5.67791E-19
 -1      2282 9.50875E-05-2.77311E-05-2.88785E-05 3.50463E-06-1.23764E-19-1.30183E-19
 -1      2283 9.57125E-05-2.77217E-05-2.91461E-05 4.23958E-06 2.35857E-19-5.29324E-19
 -1      2284 9.61672E-05-2.76540E-05-2.93328E-05 4.80195E-06 3.77598E-19-2.91437E-19
 -1      2285 9.51859E-05-2.73886E-05-2.90667E-05 4.32910E-06 2.69725E-19 1.73848E-19
 -1      2286 9.61107E-05-2.73612E-05-2.94765E-05 5.43808E-06 5.75843E-19-3.03007E-19
 -1      2287 9.66642E-05-2.72204E-05-2.97206E-05 6.28865E-06 6.70600E-19-2.36716E-19
 -1      2288 9.51667E-05-2.68264E-05-2.92994E-05 5.46550E-06 5.04011E-19-6.71832E-20
 -1      2289 9.64441E-05-2.67724E-05-2.98787E-05 7.18407E-06 5.39095E-19-2.26402E-19
 -1      2290 9.70823E-05-2.65532E-05-3.01745E-05 8.38353E-06 6.70817E-19-8.91213E-20
 -1      2291 9.49114E-05-2.59424E-05-2.95654E-05 7.08162E-06 6.91190E-19-2.55986E-19
 -1      2292 9.66006E-05-2.59167E-05-3.03226E-05 9.61541E-06 4.53348E-19-4.25068E-19
 -1      2293 9.73277E-05-2.56395E-05-3.06604E-05 1.12394E-05 1.61565E-19 5.08187E-20
 -1      2294 9.42496E-05-2.46716E-05-2.98187E-05 9.29390E-06 3.17647E-19-3.56920E-19
 -1      2295 9.64788E-05-2.48360E-05-3.07451E-05 1.28825E-05 1.28084E-19-7.08977E-20
 -1      2296 9.73284E-05-2.46275E-05-3.10860E-05 1.49442E-05 4.82524E-19-3.04204E-19
 -1      2297 9.29741E-05-2.30110E-05-2.99716E-05 1.22349E-05 2.21033E-19-6.66157E-19
 -1      2298 9.60856E-05-2.38517E-05-3.10018E-05 1.70563E-05 6.50973E-19-4.40636E-19
 -1      2299 9.72330E-05-2.41112E-05-3.12528E-05 1.94030E-05 4.24853E-19-4.05995E-19
 -1      2300 9.09222E-05-2.12102E-05-2.98506E-05 1.60065E-05 1.96998E-19-1.03580E-18
 -1      2301 9.58772E-05-2.39908E-05-3.08159E-05 2.20084E-05 1.91420E-19-5.78891E-19
 -1      2302 9.79149E-05-2.56704E-05-3.08120E-05 2.41373E-05 9.22207E-20-9.80242E-20
 -1      2303 8.82222E-05-2.01393E-05-2.91471E-05 2.06707E-05 2.39520E-19-1.23817E-18
 -1      2304 9.75501E-05-2.76436E-05-2.98487E-05 2.69603E-05 2.97679E-19-1.42407E-19
 -1      2305 1.01714E-04-3.19928E-05-2.95524E-05 2.75692E-05 8.40204E-19 1.27558E-19
 -1      2306 8.60512E-05-2.19840E-05-2.74559E-05 2.62608E-05 3.47310E-19-8.83482E-19
 -1      2307 1.04104E-04-3.78789E-05-2.80072E-05 3.04365E-05 6.71909E-19 1.02703E-19
 -1      2308 1.12884E-04-4.74121E-05-2.76948E-05 2.82893E-05 5.50042E-19-2.77668E-20
 -1      2309 8.70079E-05-2.96327E-05-2.42721E-05 3.19104E-05 7.34589E-19-9.00872E-19
 -1      2310 1.66785E-04-2.93994E-05-5.96092E-05-7.80686E-06-1.00797E-18-1.01342E-18
 -1      2311 9.52451E-05-2.85573E-05-2.85802E-05 1.80435E-08 1.65057E-19 1.59549E-18
 -1      2312 1.51124E-04-4.63798E-05-4.53445E-05 1.09826E-05 1.83188E-18-2.86932E-19
 -1      2313 1.44803E-04-5.15891E-05-4.00217E-05 1.68171E-05 1.69391E-18 2.56227E-20
 -1      2314 9.90895E-05-5.17231E-05-2.04123E-05 4.80354E-05 3.72271E-19 5.36953E-19
 -1      2315 8.09863E-05-4.57340E-05-1.47810E-05 4.87996E-05 7.37130E-19-3.48342E-20
 -1      2316 1.11389E-04-3.80018E-05-3.13238E-05-2.66596E-05 1.14567E-18-1.14471E-18
 -1      2317 1.06261E-04-3.23185E-05-3.14532E-05-2.69099E-05 8.37742E-19-8.63232E-19
 -1      2318 1.04832E-04-2.94066E-05-3.22257E-05-2.45643E-05 1.50651E-18-8.83488E-19
 -1      2319 1.01749E-04-2.68782E-05-3.20548E-05-2.29047E-05 1.69738E-18-9.64426E-19
 -1      2320 9.39341E-05-2.68335E-05-2.87173E-05-2.76374E-05 1.34080E-18-5.96735E-19
 -1      2321 1.02106E-04-2.64363E-05-3.23532E-05-2.01703E-05 1.09244E-18-6.48488E-19
 -1      2322 1.00195E-04-2.56769E-05-3.19663E-05-1.79264E-05 1.22204E-18-2.94902E-19
 -1      2323 9.33124E-05-2.28499E-05-3.01432E-05-2.22737E-05 1.20498E-18-4.69314E-19
 -1      2324 1.00833E-04-2.61223E-05-3.19498E-05-1.55023E-05 1.48868E-18-2.49454E-19
 -1      2325 9.94697E-05-2.60370E-05-3.15044E-05-1.33882E-05 1.68203E-18-4.77706E-19
 -1      2326 9.44099E-05-2.27753E-05-3.06456E-05-1.72064E-05 1.48351E-18 2.94430E-19
 -1      2327 9.99336E-05-2.66471E-05-3.13455E-05-1.14320E-05 3.02344E-19-7.68822E-19
 -1      2328 9.88795E-05-2.67521E-05-3.09361E-05-9.71630E-06-9.70068E-19-1.32190E-18
 -1      2329 9.55065E-05-2.39805E-05-3.06121E-05-1.28883E-05 6.56990E-19-1.44092E-18
 -1      2330 9.91079E-05-2.72648E-05-3.07369E-05-8.22157E-06-6.80995E-19-1.32849E-18
 -1      2331 9.82789E-05-2.73845E-05-3.03990E-05-6.92981E-06-2.47449E-19-1.88394E-18
 -1      2332 9.61743E-05-2.53069E-05-3.03443E-05-9.44808E-06-8.40808E-19-1.32205E-18
 -1      2333 9.83351E-05-2.77502E-05-3.02090E-05-5.82591E-06-3.63642E-19-2.04548E-18
 -1      2334 9.76931E-05-2.78386E-05-2.99461E-05-4.89266E-06-7.74173E-19-3.13695E-18
 -1      2335 9.64434E-05-2.63787E-05-3.00121E-05-6.82294E-06-2.74015E-19-1.23888E-18
 -1      2336 9.76578E-05-2.80683E-05-2.97923E-05-4.13272E-06-2.57700E-19-3.11442E-18
 -1      2337 9.71836E-05-2.81226E-05-2.96024E-05-3.49660E-06-2.81690E-19-3.07014E-18
 -1      2338 9.64544E-05-2.71314E-05-2.97034E-05-4.91617E-06-9.44318E-19-2.84555E-18
 -1      2339 9.70945E-05-2.82770E-05-2.94704E-05-2.91538E-06-4.73877E-19-2.70063E-18
 -1      2340 9.67183E-05-2.83076E-05-2.93219E-05-2.44581E-06-3.10753E-19-2.16153E-18
 -1      2341 9.63332E-05-2.76352E-05-2.94385E-05-3.52627E-06 1.06230E-19-2.95107E-18
 -1      2342 9.66195E-05-2.84016E-05-2.92199E-05-2.03445E-06-1.24725E-19-1.90709E-18
 -1      2343 9.63402E-05-2.84166E-05-2.91117E-05-1.70710E-06-4.38202E-19-1.82136E-18
 -1      2344 9.61538E-05-2.79744E-05-2.92189E-05-2.49475E-06-1.69220E-19-2.81479E-18
 -1      2345 9.62461E-05-2.84723E-05-2.90343E-05-1.41606E-06 5.02144E-19-1.53922E-18
 -1      2346 9.60412E-05-2.84784E-05-2.89562E-05-1.18805E-06 8.68882E-19-1.42875E-18
 -1      2347 9.59668E-05-2.81893E-05-2.90480E-05-1.75851E-06 5.79820E-19-2.35118E-18
 -1      2348 9.59596E-05-2.85108E-05-2.88984E-05-9.82084E-07 6.67166E-19-1.33820E-18
 -1      2349 9.58109E-05-2.85125E-05-2.88424E-05-8.22901E-07 1.28025E-18-7.92161E-19
 -1      2350 9.57965E-05-2.83238E-05-2.89179E-05-1.23422E-06 6.31023E-19-1.43761E-18
 -1      2351 9.57440E-05-2.85312E-05-2.87997E-05-6.76930E-07 1.49541E-18-3.14132E-19
 -1      2352 9.56374E-05-2.85310E-05-2.87598E-05-5.65443E-07 1.23092E-18-4.99400E-19
 -1      2353 9.56526E-05-2.84078E-05-2.88204E-05-8.60943E-07 1.13889E-18-1.81192E-18
 -1      2354 9.55848E-05-2.85418E-05-2.87287E-05-4.61799E-07 1.92590E-18-1.38804E-19
 -1      2355 9.55095E-05-2.85411E-05-2.87005E-05-3.83556E-07 1.31968E-18 2.50310E-19
 -1      2356 9.55369E-05-2.84605E-05-2.87482E-05-5.94954E-07 1.68541E-18-7.54839E-19
 -1      2357 9.54714E-05-2.85470E-05-2.86790E-05-3.13273E-07 4.31690E-19-3.60457E-19
 -1      2358 9.54209E-05-2.85467E-05-2.86601E-05-2.60224E-07 1.23173E-18-1.30986E-18
 -1      2359 9.54493E-05-2.84938E-05-2.86963E-05-4.08754E-07 5.31330E-19-9.65192E-19
 -1      2360 9.53906E-05-2.85507E-05-2.86437E-05-2.06815E-07 1.26116E-18-2.14990E-18
 -1      2361 9.53541E-05-2.85506E-05-2.86299E-05-1.67297E-07 1.64864E-19-1.03968E-18
 -1      2362 9.53828E-05-2.85148E-05-2.86585E-05-2.75673E-07 6.44204E-19-2.15396E-18
 -1      2363 9.53323E-05-2.85531E-05-2.86183E-05-1.29531E-07 1.73732E-19-5.82453E-19
 -1      2364 9.53082E-05-2.85536E-05-2.86090E-05-1.01727E-07 6.51106E-19-3.54781E-19
 -1      2365 9.53328E-05-2.85297E-05-2.86305E-05-1.77653E-07 9.92081E-19-1.82021E-18
 -1      2366 9.52929E-05-2.85553E-05-2.86008E-05-7.51445E-08 5.77421E-20-2.36808E-19
 -1      2367 9.52776E-05-2.85564E-05-2.85947E-05-5.57827E-08-1.25880E-18-5.47041E-19
 -1      2368 9.52971E-05-2.85401E-05-2.86106E-05-1.08216E-07 7.64472E-20-1.63388E-18
 -1      2369 9.52671E-05-2.85580E-05-2.85890E-05-3.73996E-08 1.20931E-19-1.18485E-18
 -1      2370 9.52580E-05-2.85594E-05-2.85850E-05-2.45121E-08 5.89076E-19 6.51785E-19
 -1      2371 9.52722E-05-2.85480E-05-2.85964E-05-5.96567E-08-3.36552E-19-2.55859E-18
 -1      2372 9.52522E-05-2.85612E-05-2.85815E-05-1.40622E-08-3.43059E-19 1.39573E-18
 -1      2373 9.52473E-05-2.85634E-05-2.85786E-05-6.38227E-09-1.07513E-18 1.90967E-18
 -1      2374 9.52480E-05-2.85605E-05-2.85803E-05-1.06358E-08-1.16546E-18 1.64328E-18
 -1      2375 9.52570E-05-2.85542E-05-2.85870E-05-2.90682E-08 8.86885E-19 1.78183E-19
 -1      2376 9.40171E-05-2.78763E-05-2.83412E-05-1.04235E-06-1.73921E-19 1.90746E-18
 -1      2377 9.39917E-05-2.77468E-05-2.83726E-05-7.74137E-07-9.91556E-20 1.81045E-18
 -1      2378 9.40825E-05-2.76173E-05-2.84792E-05-3.49476E-07 3.98957E-20 1.99575E-18
 -1      2379 9.42114E-05-2.74537E-05-2.85790E-05 1.23706E-07 4.40887E-20 2.26218E-18
 -1      2380 9.46417E-05-2.76314E-05-2.87317E-05-4.22478E-07 1.15306E-19 1.83998E-18
 -1      2381 9.43840E-05-2.72302E-05-2.87730E-05 8.22878E-07-4.79302E-20 2.30659E-18
 -1      2382 9.47080E-05-2.69820E-05-2.89866E-05 1.65227E-06-1.55080E-20 2.35460E-18
 -1      2383 9.48681E-05-2.71149E-05-2.90527E-05 8.07487E-07 4.54205E-20 1.97439E-18
 -1      2384 9.41328E-05-2.80834E-05-2.83032E-05-1.43174E-06-2.57064E-19 1.78668E-18
 -1      2385 9.40078E-05-2.79688E-05-2.82925E-05-1.28967E-06-2.83382E-19 1.88346E-18
 -1      2386 9.45711E-05-2.79612E-05-2.85572E-05-1.16739E-06-1.58217E-19 1.64515E-18
 -1      2387 9.43739E-05-2.82712E-05-2.83274E-05-1.62146E-06-2.17555E-20 1.47391E-18
 -1      2388 9.41883E-05-2.81619E-05-2.82919E-05-1.56235E-06-1.02483E-19 1.58798E-18
 -1      2389 9.46383E-05-2.82027E-05-2.84798E-05-1.59262E-06-8.60997E-20 1.35698E-18
 -1      2390 9.46969E-05-2.84590E-05-2.83871E-05-1.66769E-06 2.02187E-19 1.51877E-18
 -1      2391 9.44788E-05-2.83489E-05-2.83390E-05-1.67026E-06-8.52787E-20 1.50548E-18
 -1      2392 9.48139E-05-2.84086E-05-2.84647E-05-1.80129E-06 7.46724E-20 8.81070E-19
 -1      2393 9.50685E-05-2.86613E-05-2.84619E-05-1.59177E-06 8.02025E-19 1.84470E-18
 -1      2394 9.48396E-05-2.85454E-05-2.84108E-05-1.65040E-06 4.90530E-19 1.74794E-18
 -1      2395 9.50731E-05-2.86131E-05-2.84866E-05-1.84906E-06 1.97066E-19 9.83168E-19
 -1      2396 9.54610E-05-2.88893E-05-2.85355E-05-1.38764E-06 9.33985E-19 2.26007E-18
 -1      2397 9.52409E-05-2.87646E-05-2.84894E-05-1.50882E-06 1.03588E-18 2.21165E-18
 -1      2398 9.53981E-05-2.88428E-05-2.85263E-05-1.75492E-06 6.38949E-19 1.52949E-18
 -1      2399 9.58457E-05-2.91483E-05-2.85931E-05-1.02790E-06 7.09883E-19 2.33379E-18
 -1      2400 9.56559E-05-2.90152E-05-2.85599E-05-1.22701E-06 1.07296E-18 2.52640E-18
 -1      2401 9.57753E-05-2.91184E-05-2.85690E-05-1.50825E-06 8.82429E-19 2.08662E-18
 -1      2402 9.61870E-05-2.94326E-05-2.86219E-05-4.71986E-07-1.21073E-19 2.28838E-18
 -1      2403 9.60538E-05-2.92983E-05-2.86089E-05-7.68712E-07 2.68142E-19 2.50029E-18
 -1      2404 9.61893E-05-2.94514E-05-2.86027E-05-1.07555E-06 4.69463E-19 2.46966E-18
 -1      2405 9.64354E-05-2.97171E-05-2.86108E-05 3.20372E-07-8.72560E-20 1.90864E-18
 -1      2406 9.63921E-05-2.95993E-05-2.86248E-05-9.03992E-08-2.31236E-19 2.03401E-18
 -1      2407 9.66150E-05-2.98362E-05-2.86189E-05-4.10092E-07 1.76349E-19 2.41766E-18
 -1      2408 9.65225E-05-2.99479E-05-2.85524E-05 1.36744E-06 3.46319E-19 1.60023E-18
 -1      2409 9.66090E-05-2.98786E-05-2.85987E-05 8.40983E-07 2.26552E-19 1.67491E-18
 -1      2410 9.70077E-05-3.02379E-05-2.86131E-05 5.31703E-07 3.03650E-19 1.78469E-18
 -1      2411 9.63613E-05-3.00371E-05-2.84456E-05 2.63506E-06-3.66446E-19 1.54119E-18
 -1      2412 9.66198E-05-3.00633E-05-2.85260E-05 2.02097E-06 5.70002E-20 1.68856E-18
 -1      2413 9.72928E-05-3.05794E-05-2.85860E-05 1.76381E-06 1.47936E-19 1.98616E-18
 -1      2414 9.58573E-05-2.98698E-05-2.82973E-05 4.00265E-06-1.24749E-19 1.54220E-18
 -1      2415 9.63218E-05-3.00464E-05-2.84088E-05 3.37316E-06-1.37963E-19 1.51087E-18
 -1      2416 9.73613E-05-3.07356E-05-2.85447E-05 3.23368E-06-2.42440E-19 1.33595E-18
 -1      2417 9.49389E-05-2.93347E-05-2.81233E-05 5.23991E-06-3.74893E-19 1.43543E-18
 -1      2418 9.56166E-05-2.97059E-05-2.82569E-05 4.71743E-06-4.37865E-19 1.46307E-18
 -1      2419 9.70827E-05-3.05482E-05-2.85019E-05 4.78202E-06-2.03607E-19 1.38399E-18
 -1      2420 9.36066E-05-2.83812E-05-2.79464E-05 6.01856E-06-5.44380E-19 1.86798E-18
 -1      2421 9.44562E-05-2.89503E-05-2.80875E-05 5.76157E-06-5.38101E-19 1.82445E-18
 -1      2422 9.63445E-05-2.98740E-05-2.84728E-05 6.11824E-06-5.80518E-19 1.98919E-18
 -1      2423 9.19899E-05-2.70903E-05-2.77910E-05 5.98406E-06-7.87404E-19 2.61526E-18
 -1      2424 9.29053E-05-2.77885E-05-2.79217E-05 6.14427E-06-5.38281E-19 2.49749E-18
 -1      2425 9.51239E-05-2.86680E-05-2.84695E-05 6.84353E-06-8.02071E-19 2.17154E-18
 -1      2426 9.03769E-05-2.57179E-05-2.76770E-05 4.89419E-06-2.58588E-19 3.08214E-18
 -1      2427 9.11919E-05-2.63953E-05-2.77796E-05 5.54838E-06-4.21882E-19 2.58049E-18
 -1      2428 9.35674E-05-2.70765E-05-2.84940E-05 6.55180E-06-4.95742E-19 1.89547E-18
 -1      2429 8.91649E-05-2.46491E-05-2.76146E-05 2.77920E-06-1.14277E-19 3.87084E-18
 -1      2430 8.96947E-05-2.51138E-05-2.76754E-05 3.86541E-06-4.66844E-20 3.68704E-18
 -1      2431 9.20232E-05-2.54704E-05-2.85345E-05 5.01221E-06-5.13783E-19 3.02546E-18
 -1      2432 8.87169E-05-2.42434E-05-2.76060E-05 1.66229E-08-1.26145E-19 3.47293E-18
 -1      2433 8.88241E-05-2.43431E-05-2.76167E-05 1.32293E-06 8.40283E-20 3.85159E-18
 -1      2434 9.09521E-05-2.43450E-05-2.85696E-05 2.35633E-06-1.79850E-19 3.72852E-18
 -1      2435 8.91891E-05-2.46501E-05-2.76495E-05-2.76590E-06 3.38568E-19 3.30791E-18
 -1      2436 8.88432E-05-2.43510E-05-2.76081E-05-1.53506E-06 1.65669E-19 3.35771E-18
 -1      2437 9.07266E-05-2.40992E-05-2.85810E-05-8.75069E-07 2.46926E-19 3.36775E-18
 -1      2438 9.04471E-05-2.57253E-05-2.77421E-05-4.93436E-06 1.25568E-19 3.80005E-18
 -1      2439 8.97370E-05-2.51288E-05-2.76534E-05-4.04343E-06 1.53690E-20 3.56420E-18
 -1      2440 9.14312E-05-2.48224E-05-2.85650E-05-3.90845E-06 1.00308E-19 3.35979E-18
 -1      2441 9.21341E-05-2.71120E-05-2.78789E-05-6.09424E-06 6.12098E-19 3.31966E-18
 -1      2442 9.12278E-05-2.64008E-05-2.77536E-05-5.68125E-06 7.11364E-19 3.34752E-18
 -1      2443 9.28177E-05-2.62473E-05-2.85348E-05-6.05751E-06 6.08702E-19 2.97556E-18
 -1      2444 9.38382E-05-2.84207E-05-2.80497E-05-6.19850E-06 4.30516E-19 3.43064E-18
 -1      2445 9.29167E-05-2.77728E-05-2.79035E-05-6.24864E-06 5.00790E-19 3.23540E-18
 -1      2446 9.44430E-05-2.78968E-05-2.85124E-05-6.98407E-06 5.15823E-19 3.05475E-18
 -1      2447 9.52526E-05-2.93886E-05-2.82379E-05-5.48330E-06-5.40968E-20 3.16528E-18
 -1      2448 9.44522E-05-2.89135E-05-2.80886E-05-5.87193E-06 2.78991E-19 3.01003E-18
 -1      2449 9.58864E-05-2.93186E-05-2.85155E-05-6.75947E-06 7.36547E-19 2.85156E-18
 -1      2450 9.62385E-05-2.99313E-05-2.84231E-05-4.30744E-06 1.15498E-19 2.90279E-18
 -1      2451 9.56298E-05-2.96576E-05-2.82867E-05-4.87163E-06 4.90452E-20 3.34394E-18
 -1      2452 9.69021E-05-3.02536E-05-2.85498E-05-5.73004E-06-2.76234E-19 2.37048E-18
 -1      2453 9.67995E-05-3.01015E-05-2.85863E-05-3.00770E-06 8.56474E-19 2.38106E-18
 -1      2454 9.63943E-05-3.00000E-05-2.84743E-05-3.60338E-06 7.66523E-19 2.79577E-18
 -1      2455 9.74402E-05-3.06628E-05-2.86082E-05-4.31735E-06 4.76511E-19 2.79907E-18
 -1      2456 9.70191E-05-3.00155E-05-2.87146E-05-1.82089E-06 4.52336E-19 3.09902E-18
 -1      2457 9.67922E-05-3.00325E-05-2.86324E-05-2.35097E-06 6.93238E-19 2.35657E-18
 -1      2458 9.75814E-05-3.06543E-05-2.86763E-05-2.87323E-06 9.91315E-19 2.40571E-18
 -1      2459 9.70040E-05-2.97928E-05-2.88023E-05-8.70223E-07 1.06449E-18 2.30126E-18
 -1      2460 9.69140E-05-2.98751E-05-2.87500E-05-1.28698E-06 8.78089E-19 2.52080E-18
 -1      2461 9.74559E-05-3.03891E-05-2.87396E-05-1.61984E-06 9.64797E-19 2.30321E-18
 -1      2462 9.68501E-05-2.95252E-05-2.88507E-05-1.88744E-07 1.42442E-18 2.31357E-18
 -1      2463 9.68542E-05-2.96322E-05-2.88246E-05-4.82376E-07 1.33970E-18 2.68502E-18
 -1      2464 9.71868E-05-3.00133E-05-2.87876E-05-6.55536E-07 1.17971E-18 1.13743E-18
 -1      2465 9.66294E-05-2.92695E-05-2.88659E-05 2.46393E-07 5.84412E-19 2.72780E-18
 -1      2466 9.66909E-05-2.93758E-05-2.88601E-05 6.27954E-08 1.11706E-18 2.76543E-18
 -1      2467 9.68652E-05-2.96296E-05-2.88156E-05 9.73112E-09 9.78447E-19 2.82389E-18
 -1      2468 9.63900E-05-2.90537E-05-2.88562E-05 4.84098E-07-3.40863E-19 3.34519E-18
 -1      2469 9.64808E-05-2.91461E-05-2.88646E-05 3.87231E-07 1.77329E-19 2.97246E-18
 -1      2470 9.65471E-05-2.92944E-05-2.88236E-05 4.15456E-07 3.13491E-19 3.35232E-18
 -1      2471 9.61604E-05-2.88859E-05-2.88302E-05 5.79080E-07 5.76751E-19 3.19651E-18
 -1      2472 9.62609E-05-2.89598E-05-2.88471E-05 5.43955E-07-3.51304E-21 3.16773E-18
 -1      2473 9.62619E-05-2.90301E-05-2.88150E-05 6.20726E-07-1.33878E-19 2.63533E-18
 -1      2474 9.59554E-05-2.87634E-05-2.87953E-05 5.80573E-07 7.86637E-19 2.29034E-18
 -1      2475 9.60533E-05-2.88190E-05-2.88162E-05 5.85175E-07 1.29852E-18 3.13430E-18
 -1      2476 9.60207E-05-2.88371E-05-2.87944E-05 6.85539E-07 7.08067E-19 2.69302E-18
 -1      2477 9.57813E-05-2.86787E-05-2.87574E-05 5.27628E-07 5.08443E-19 1.42218E-18
 -1      2478 9.58694E-05-2.87185E-05-2.87790E-05 5.54761E-07 7.67956E-19 2.45848E-18
 -1      2479 9.58246E-05-2.87053E-05-2.87667E-05 6.61296E-07 1.08466E-18 3.43778E-18
 -1      2480 9.56387E-05-2.86230E-05-2.87204E-05 4.48437E-07-2.59616E-18 2.14651E-18
 -1      2481 9.57138E-05-2.86502E-05-2.87407E-05 4.85864E-07-1.46352E-18 1.30088E-18
 -1      2482 9.56693E-05-2.86213E-05-2.87360E-05 5.87479E-07-7.50578E-19 3.84690E-18
 -1      2483 9.55255E-05-2.85883E-05-2.86869E-05 3.61684E-07-1.88090E-18 2.46876E-18
 -1      2484 9.55867E-05-2.86061E-05-2.87047E-05 4.01427E-07-2.10119E-18 2.05388E-18
 -1      2485 9.55491E-05-2.85717E-05-2.87056E-05 4.91893E-07-2.70723E-18 4.06248E-18
 -1      2486 9.54381E-05-2.85683E-05-2.86581E-05 2.78627E-07-3.07188E-19 1.25740E-18
 -1      2487 9.54861E-05-2.85792E-05-2.86730E-05 3.15989E-07-1.15449E-18 1.36714E-18
 -1      2488 9.54577E-05-2.85455E-05-2.86775E-05 3.92544E-07-6.68243E-19 2.44782E-18
 -1      2489 9.53725E-05-2.85579E-05-2.86346E-05 2.05182E-07 8.71958E-19 2.03512E-19
 -1      2490 9.54088E-05-2.85641E-05-2.86464E-05 2.37792E-07 3.90819E-19 5.00707E-19
 -1      2491 9.53894E-05-2.85343E-05-2.86530E-05 2.99973E-07 3.73112E-19 6.45260E-19
 -1      2492 9.53246E-05-2.85536E-05-2.86160E-05 1.43712E-07 2.33485E-18 5.50821E-19
 -1      2493 9.53510E-05-2.85566E-05-2.86251E-05 1.70721E-07 1.80760E-18 2.00000E-19
 -1      2494 9.53393E-05-2.85320E-05-2.86323E-05 2.19457E-07 1.43218E-18-1.15840E-19
 -1      2495 9.52907E-05-2.85529E-05-2.86018E-05 9.44405E-08 1.81270E-18 1.55886E-18
 -1      2496 9.53092E-05-2.85539E-05-2.86085E-05 1.15890E-07 1.86189E-18 1.57148E-18
 -1      2497 9.53032E-05-2.85346E-05-2.86156E-05 1.52849E-07 1.38127E-18 1.32500E-18
 -1      2498 9.52675E-05-2.85544E-05-2.85912E-05 5.64483E-08 1.13118E-18 2.47410E-18
 -1      2499 9.52798E-05-2.85540E-05-2.85960E-05 7.28075E-08 2.16502E-18 3.20706E-18
 -1      2500 9.52776E-05-2.85394E-05-2.86025E-05 1.00005E-07 1.10450E-18 2.11586E-18
 -1      2501 9.52525E-05-2.85572E-05-2.85836E-05 2.87569E-08 1.37803E-18 1.24380E-18
 -1      2502 9.52601E-05-2.85560E-05-2.85869E-05 4.03211E-08 1.57229E-18 2.07889E-18
 -1      2503 9.52600E-05-2.85454E-05-2.85923E-05 5.96774E-08 2.24781E-18 2.75027E-18
 -1      2504 9.52077E-05-2.84915E-05-2.85930E-05 3.82501E-08 6.41246E-19-6.12850E-19
 -1      2505 9.52136E-05-2.84996E-05-2.85916E-05 4.06263E-08 7.27116E-19-1.64638E-18
 -1      2506 9.52208E-05-2.85114E-05-2.85900E-05 4.16710E-08 2.54701E-19-8.21391E-19
 -1      2507 9.52269E-05-2.85200E-05-2.85885E-05 4.03980E-08-1.13299E-19 3.35579E-19
 -1      2508 9.52129E-05-2.84923E-05-2.85944E-05 5.14968E-08 9.19024E-19-1.48336E-18
 -1      2509 9.52340E-05-2.85324E-05-2.85866E-05 3.69099E-08 5.37114E-19 8.74311E-19
 -1      2510 9.52388E-05-2.85405E-05-2.85848E-05 3.22255E-08 4.14052E-19 7.54128E-19
 -1      2511 9.52298E-05-2.85169E-05-2.85911E-05 4.93742E-08 8.87018E-19-1.97209E-19
 -1      2512 2.77419E-05-2.07060E-05-2.75573E-06 3.30344E-05-5.91653E-19 1.31671E-18
 -1      2513 1.91438E-05-1.63607E-05-7.36646E-07 1.79998E-05-9.36236E-19 4.44481E-18
 -1      2514 9.51968E-05-2.84754E-05-2.85952E-05 2.69939E-08 3.83017E-20-2.42827E-18
 -1      2515 9.52013E-05-2.84814E-05-2.85942E-05 3.27616E-08 3.89857E-19-2.67049E-18
 -1      2516 9.51970E-05-2.84699E-05-2.85971E-05 4.41948E-08 8.91901E-19-2.54401E-18
 -1      2517 9.51903E-05-2.84655E-05-2.85966E-05 9.99103E-09-1.56966E-18-1.20039E-18
 -1      2518 9.51925E-05-2.84686E-05-2.85961E-05 1.79816E-08-9.46243E-19-2.53849E-18
 -1      2519 9.51845E-05-2.84525E-05-2.85991E-05 2.82195E-08-5.60744E-19-3.34120E-18
 -1      2520 9.51896E-05-2.84637E-05-2.85970E-05-9.40501E-09-1.20966E-18 2.34255E-18
 -1      2521 9.51890E-05-2.84631E-05-2.85970E-05-8.31154E-10-1.65725E-18 2.72639E-18
 -1      2522 9.51782E-05-2.84431E-05-2.86004E-05 6.49508E-09-1.14952E-19 6.24750E-19
 -1      2523 9.51949E-05-2.84702E-05-2.85964E-05-2.72499E-08-7.69785E-19 2.03328E-18
 -1      2524 9.51916E-05-2.84661E-05-2.85969E-05-1.99301E-08-1.25872E-18 1.89944E-18
 -1      2525 9.51791E-05-2.84431E-05-2.86007E-05-1.69353E-08 3.50055E-19 2.53099E-18
 -1      2526 9.52052E-05-2.84839E-05-2.85948E-05-3.95742E-08 4.09655E-19 1.06410E-19
 -1      2527 9.51998E-05-2.84771E-05-2.85958E-05-3.51910E-08-1.05717E-18 6.47472E-19
 -1      2528 9.51874E-05-2.84527E-05-2.86002E-05-3.73577E-08 6.87538E-20 1.47069E-18
 -1      2529 9.52191E-05-2.85033E-05-2.85923E-05-4.39468E-08 2.15047E-18 1.25611E-19
 -1      2530 9.52124E-05-2.84946E-05-2.85937E-05-4.34588E-08 9.72337E-19-1.79817E-19
 -1      2531 9.52018E-05-2.84707E-05-2.85987E-05-5.07658E-08 1.12234E-18 8.16689E-19
 -1      2532 9.52333E-05-2.85250E-05-2.85890E-05-3.90257E-08 9.02798E-19-7.88537E-19
 -1      2533 9.52270E-05-2.85161E-05-2.85907E-05-4.26297E-08 1.94829E-18-1.35936E-19
 -1      2534 9.52196E-05-2.84948E-05-2.85962E-05-5.42441E-08 1.14037E-18-5.72026E-19
 -1      2535 9.52443E-05-2.85456E-05-2.85850E-05-2.63127E-08-9.58713E-19-1.98599E-18
 -1      2536 9.52402E-05-2.85378E-05-2.85869E-05-3.29825E-08-1.08822E-20-1.09615E-18
 -1      2537 9.52368E-05-2.85207E-05-2.85925E-05-4.68768E-08 5.10309E-19-1.75465E-18
 -1      2538 1.53656E-04-2.61110E-05-5.52625E-05-3.02306E-06 2.68022E-18-8.30516E-19
 -1      2539 1.52898E-04-3.60598E-05-5.02672E-05 2.34813E-06 1.99063E-18-4.70315E-19
 -1      2540 2.92210E-05-2.40508E-05-2.00770E-06-2.09371E-05-1.36584E-20 5.38416E-18
 -1      2541 4.33490E-05-2.95882E-05-5.74103E-06-3.16908E-05-9.74935E-19 3.60900E-18
 -1      2542 1.07575E-04-5.46974E-05-2.25302E-05-4.32177E-05-3.80106E-19 7.13096E-20
 -1      2543 1.23691E-04-5.66990E-05-2.88787E-05-3.85019E-05-9.86793E-20-3.08320E-19
 -1      2544 8.77762E-05-1.06472E-05-3.30911E-05-1.48260E-06 1.15624E-18 4.00918E-19
 -1      2545 8.78898E-05-1.07752E-05-3.30831E-05-2.57925E-06 1.10606E-18 2.50053E-19
 -1      2546 8.92718E-05-1.29180E-05-3.27243E-05-2.85120E-06 1.04836E-18 2.26691E-19
 -1      2547 8.90046E-05-1.25681E-05-3.27609E-05-9.16834E-07 1.08526E-18 4.07740E-19
 -1      2548 1.64352E-05-1.50335E-05-2.44424E-07 2.17790E-06-7.59888E-19 5.26812E-18
 -1      2549 2.08200E-05-1.90747E-05-4.34615E-07-1.12907E-05-9.14372E-19 5.08728E-18
 -1      2550 3.20318E-05-1.67342E-05-5.95552E-06-1.72054E-05-7.24637E-19 5.12667E-18
 -1      2551 1.52371E-04-2.21817E-05-5.62372E-05 3.14116E-06-7.11931E-19-6.50945E-19
 -1      2552 1.54681E-04-1.55312E-05-6.01135E-05 3.33767E-06-2.78462E-19-6.44169E-19
 -1      2553 1.50530E-04-1.11110E-05-6.02732E-05-3.14458E-06 2.45872E-18-2.05829E-19
 -1      2554 1.48938E-04-1.49800E-05-5.79377E-05-5.34608E-06 2.75074E-18-4.87467E-19
 -1      2555 1.73086E-05-1.50533E-05-5.43893E-07-1.20706E-05 1.51566E-19-1.18966E-18
 -1      2556 2.22833E-05-1.91845E-05-1.04113E-06-2.66828E-05 4.95091E-19-1.73642E-19
 -1      2557 1.53258E-04-9.67842E-06-6.19495E-05 1.67414E-06 4.90432E-19-1.30655E-19
 -1      2558 1.50933E-04-8.08012E-06-6.18448E-05-1.01659E-07 1.70592E-18 1.44525E-20
 -1      2559 1.50585E-04-4.22379E-05-4.66712E-05-5.28753E-06-4.80850E-19-5.81912E-19
 -1      2560 1.53694E-04-3.44010E-05-5.16823E-05-4.87912E-07-6.79426E-19-6.03087E-19
 -1      2561 1.36113E-04-5.55738E-05-3.45685E-05-2.62356E-05-4.78150E-19-3.82224E-19
 -1      2562 1.47298E-04-5.14678E-05-4.14903E-05-1.73690E-05-6.33422E-19-9.98017E-19
 -1      2563 7.22627E-05-4.29111E-05-1.22818E-05-4.89921E-05-1.68560E-19-1.69407E-21
 -1      2564 8.87733E-05-4.83909E-05-1.72735E-05-5.00091E-05-4.02976E-19-1.03232E-20
 -1      2565 1.55032E-04-6.85484E-05-3.70894E-05-6.00314E-06-5.40831E-19 8.65668E-19
 -1      2566 1.70749E-04-7.03448E-05-4.34758E-05 5.64708E-06-1.98354E-18-1.15662E-18
 -1      2567 3.42138E-05-2.64655E-05-3.01962E-06-3.73415E-05 1.09818E-18 7.03037E-19
 -1      2568 5.21812E-05-3.33534E-05-7.86080E-06-4.74729E-05 4.34528E-19 4.13140E-19
 -1      2569 3.63730E-05-1.94951E-05-6.62889E-06-3.28077E-05 6.70215E-20 1.71524E-20
 -1      2570 2.92821E-05-2.10740E-05-3.15079E-06 2.14369E-05-8.16540E-19-2.60632E-18
 -1      2571 1.94726E-05-1.55618E-05-1.21555E-06 5.42863E-06-2.31081E-20-1.94182E-18
 -1      2572 6.48098E-05-4.06722E-05-1.02619E-05 3.82161E-05-4.29022E-19-2.18450E-18
 -1      2573 4.65709E-05-3.07551E-05-6.45866E-06 3.15430E-05-5.52054E-19-2.73782E-18
 -1      2574 9.52454E-05-2.85490E-05-2.85843E-05 3.06091E-08 6.93960E-19 1.76587E-18
 -1      2575 1.75583E-04-6.07175E-05-4.93685E-05 1.90708E-05-3.24816E-18-2.44835E-18
 -1      2576 1.13077E-04-6.11662E-05-2.23393E-05-3.07703E-05 4.44269E-19 3.02078E-18
 -1      2577 1.34919E-04-6.78283E-05-2.91356E-05-2.52715E-05 6.73391E-19 3.21820E-18
 -1      2578 6.72856E-05-4.12665E-05-1.09184E-05-3.63222E-05-7.37342E-19 3.01988E-18
 -1      2579 9.04344E-05-5.15270E-05-1.66993E-05-3.86135E-05 8.04681E-20 3.33487E-18
 -1      2580 6.03725E-05-3.62545E-05-1.01813E-05 4.94540E-05 1.33831E-19-4.86409E-19
 -1      2581 4.37825E-05-2.92065E-05-5.80363E-06 4.23861E-05-1.66442E-19-5.61371E-19
 -1      2582 1.51442E-04-6.86743E-05-3.54095E-05-7.97570E-06 4.49139E-19 6.75085E-19
 -1      2583 9.07924E-05-1.49445E-05-3.25006E-05-6.64811E-06 7.79729E-19-5.42697E-19
 -1      2584 8.97202E-05-1.31167E-05-3.28824E-05-7.82183E-06 8.47101E-19-6.83066E-19
 -1      2585 9.03898E-05-1.39163E-05-3.28347E-05-8.98844E-06 8.07660E-19-7.74248E-19
 -1      2586 1.40202E-04-5.66564E-05-3.57331E-05 1.84928E-05 1.05424E-18-3.10438E-19
 -1      2587 9.60001E-05-2.62458E-05-2.98623E-05 5.26907E-06-1.88491E-19 2.61845E-18
 -1      2588 9.59462E-05-2.51573E-05-3.03144E-05 6.34595E-06-8.25195E-20 2.49874E-18
 -1      2589 9.53575E-05-2.64845E-05-2.94883E-05 3.96254E-06-1.08374E-19 2.68058E-18
 -1      2590 1.39432E-04-6.31297E-05-3.23181E-05-1.65949E-05 1.85130E-18 1.74806E-19
 -1      2591 1.21250E-04-5.73910E-05-2.74714E-05-2.81275E-05 1.68390E-18 1.31391E-18
 -1      2592 1.03089E-04-3.89309E-05-2.74595E-05-3.05612E-05 1.08118E-18-3.48819E-19
 -1      2593 1.03877E-04-5.32144E-05-2.13743E-05-4.39867E-05-6.77626E-19 1.18042E-19
 -1      2594 1.41516E-04-9.93005E-06-5.66112E-05 5.60146E-06 3.40931E-19 1.98417E-19
 -1      2595 1.24870E-04-5.80522E-05-2.80906E-05 2.57498E-05 2.34522E-19-1.11173E-19
 -1      2596 1.36516E-04-6.58946E-05-3.00949E-05 1.97748E-05-8.47033E-19-1.67501E-19
 -1      2597 9.94949E-05-4.81784E-05-2.20092E-05 3.53505E-05 7.79270E-20-1.08420E-18
 -1      2598 1.14517E-04-5.61536E-05-2.46735E-05 3.88889E-05 5.48454E-20-7.04255E-19
 -1      2599 7.68444E-05-4.05691E-05-1.50633E-05 4.78718E-05 1.57972E-19 3.07049E-19
 -1      2600 9.52457E-05-2.85381E-05-2.85887E-05 4.47594E-08 1.65999E-18 1.62097E-18
 -1      2601 2.44148E-05-1.20072E-05-4.66136E-06 1.00955E-05-1.37161E-18 4.88124E-18
 -1      2602 4.22171E-05-2.21450E-05-7.98296E-06 3.72423E-05-4.62798E-19 8.57409E-19
 -1      2603 1.48478E-04-4.17207E-05-4.58453E-05 3.12935E-08 2.22230E-18 1.59666E-19
 -1      2604 1.43754E-04-2.03837E-05-5.31993E-05-7.54114E-06 2.44454E-18-4.83868E-19
 -1      2605 9.48130E-05-2.68445E-05-2.90992E-05 2.25455E-06-4.92669E-21 2.46372E-18
 -1      2606 9.51375E-05-2.66602E-05-2.93058E-05 3.15624E-06-5.09609E-20 2.52659E-18
 -1      2607 9.53843E-05-2.61269E-05-2.96928E-05 3.86792E-06-5.43921E-20 2.38374E-18
 -1      2608 9.51158E-05-2.65791E-05-2.93922E-05 2.29982E-06-4.35759E-21 2.29242E-18
 -1      2609 9.11575E-05-1.49424E-05-3.27174E-05-9.69056E-06 7.09431E-19-8.98960E-19
 -1      2610 9.21908E-05-1.62344E-05-3.26313E-05-1.07218E-05 6.10998E-19-1.13944E-18
 -1      2611 9.36605E-05-1.90891E-05-3.19454E-05-9.10900E-06 4.58098E-19-1.09323E-18
 -1      2612 9.20843E-05-1.67280E-05-3.22814E-05-8.16508E-06 6.91930E-19-6.97806E-19
 -1      2613 6.31370E-05-3.32975E-05-1.22385E-05-3.42142E-05 1.60301E-19 3.11263E-18
 -1      2614 1.33269E-04-5.88501E-05-3.17328E-05-2.71440E-05-3.83812E-19-2.47228E-19
 -1      2615 6.72948E-05-3.68641E-05-1.25611E-05-4.75734E-05 2.06253E-19 6.18122E-19
 -1      2616 1.38905E-04-6.88546E-06-5.69154E-05-3.28643E-06 1.69195E-18-2.65651E-19
 -1      2617 1.46461E-04-4.89596E-05-4.18471E-05-5.55504E-06-8.46451E-19-4.87891E-19
 -1      2618 1.45702E-04-2.77212E-05-5.07516E-05 7.71256E-06-9.26019E-19 5.37442E-19
 -1      2619 2.54654E-05-1.16854E-05-5.26026E-06-2.79212E-06-2.49875E-20-1.82747E-18
 -1      2620 4.54987E-05-2.28780E-05-9.16987E-06 2.70520E-05-5.23784E-19-2.42442E-18
 -1      2621 1.15585E-04-6.24329E-05-2.30918E-05 3.34475E-05-3.54483E-19-1.38924E-18
 -1      2622 8.83957E-05-5.27450E-05-1.54046E-05 3.61895E-05-1.69407E-21-2.12023E-18
 -1      2623 1.08826E-04-5.58934E-05-2.24119E-05-3.24048E-05 1.10728E-18 2.20186E-18
 -1      2624 9.52478E-05-2.85569E-05-2.85818E-05-1.56984E-08-1.11633E-18-1.43660E-19
 -1      2625 8.71937E-05-4.68067E-05-1.70713E-05 3.63944E-05-8.85149E-20-1.61212E-18
 -1      2626 9.52492E-05-2.85462E-05-2.85871E-05-2.95692E-08 4.47671E-19-1.12167E-18
 -1      2627 9.04571E-05-1.49758E-05-3.23711E-05 3.08429E-06 9.96749E-19 6.72322E-19
 -1      2628 9.02543E-05-1.46916E-05-3.24047E-05 2.17502E-06 1.03356E-18 5.25680E-19
 -1      2629 9.01095E-05-1.44747E-05-3.24347E-05 1.36856E-06 1.11404E-18 4.68474E-19
 -1      2630 9.00400E-05-1.43767E-05-3.24467E-05 4.40597E-07 1.13442E-18 4.45405E-19
 -1      2631 9.12719E-05-1.63367E-05-3.21015E-05 1.56032E-06 9.78607E-19 4.30271E-19
 -1      2632 9.21180E-05-1.74428E-05-3.20418E-05 6.29347E-06 6.17883E-19 1.26373E-18
 -1      2633 9.15717E-05-1.66243E-05-3.21434E-05 5.46542E-06 7.59305E-19 1.08271E-18
 -1      2634 9.35227E-05-1.96642E-05-3.17113E-05 7.45463E-06 2.96519E-19 1.70213E-18
 -1      2635 9.27693E-05-1.84381E-05-3.18737E-05 6.82321E-06 4.35506E-19 1.50662E-18
 -1      2636 9.34075E-05-1.97320E-05-3.15476E-05 5.53799E-06 4.23615E-19 1.25234E-18
 -1      2637 9.59372E-05-2.43709E-05-3.06633E-05 6.99572E-06 7.25272E-21 2.35495E-18
 -1      2638 9.53717E-05-2.30451E-05-3.10224E-05 7.68215E-06 9.63301E-20 2.24362E-18
 -1      2639 9.55644E-05-2.49809E-05-3.02281E-05 5.39854E-06 5.36675E-21 2.29325E-18
 -1      2640 1.39733E-04-6.73135E-05-3.09598E-05 1.73544E-05-1.10241E-18-1.57548E-19
 -1      2641 9.53089E-05-3.96591E-05-2.34583E-05-3.28446E-05 5.73547E-19 6.83238E-19
 -1      2642 8.62781E-05-2.96000E-05-2.38220E-05-3.17276E-05 4.33416E-19 2.85874E-20
 -1      2643 9.45314E-05-2.13377E-05-3.14013E-05-7.61526E-06 4.57179E-19-1.00995E-18
 -1      2644 9.49823E-05-2.30509E-05-3.08215E-05-5.94044E-06 4.68260E-19-8.36497E-19
 -1      2645 9.37463E-05-1.99822E-05-3.16170E-05-7.42857E-06 5.51435E-19-8.24272E-19
 -1      2646 9.07207E-05-1.53528E-05-3.23230E-05-3.79835E-06 9.88124E-19-3.71503E-20
 -1      2647 9.10766E-05-1.58568E-05-3.22640E-05-4.70271E-06 9.22783E-19-2.52416E-19
 -1      2648 9.53729E-05-2.44506E-05-3.03931E-05-4.47801E-06 3.99675E-19-7.60975E-19
 -1      2649 9.52731E-05-2.53115E-05-2.99871E-05-2.99989E-06 3.30608E-19-6.00566E-19
 -1      2650 9.49609E-05-2.33428E-05-3.06831E-05-4.65251E-06 4.83533E-19-5.96593E-19
 -1      2651 9.54202E-05-2.60863E-05-2.97063E-05-2.02521E-06 4.47479E-19-5.51456E-19
 -1      2652 9.52576E-05-2.65306E-05-2.94564E-05-1.04982E-06 5.39866E-19-5.68985E-19
 -1      2653 9.53740E-05-2.53693E-05-2.99994E-05-2.28925E-06 4.94336E-19-5.28719E-19
 -1      2654 9.52825E-05-2.69980E-05-2.92567E-05-3.30447E-07 5.18268E-19-6.36831E-19
 -1      2655 9.51606E-05-2.72624E-05-2.90978E-05 3.57943E-07 2.71843E-19-6.33669E-19
 -1      2656 9.54458E-05-2.65662E-05-2.95224E-05-5.62505E-07 4.95383E-19-6.31399E-19
 -1      2657 9.51388E-05-2.75144E-05-2.89750E-05 8.49006E-07 1.88615E-19-3.66249E-19
 -1      2658 9.50854E-05-2.76589E-05-2.88923E-05 1.31845E-06 1.41032E-19-2.33078E-19
 -1      2659 9.53897E-05-2.72705E-05-2.92001E-05 6.90503E-07 3.59475E-19-4.07690E-19
 -1      2660 9.50423E-05-2.77667E-05-2.88268E-05 1.67119E-06 1.12178E-19-2.90259E-19
 -1      2661 9.50492E-05-2.78309E-05-2.87999E-05 2.01618E-06-2.68138E-20-2.22140E-19
 -1      2662 9.52876E-05-2.76207E-05-2.90075E-05 1.58112E-06 5.24887E-20-1.15786E-19
 -1      2663 9.49848E-05-2.78264E-05-2.87777E-05 2.30179E-06-1.64049E-19-2.70349E-19
 -1      2664 9.50339E-05-2.78234E-05-2.87931E-05 2.59676E-06-3.13059E-19-1.83265E-19
 -1      2665 9.51555E-05-2.77091E-05-2.89131E-05 2.26114E-06-2.60224E-19-1.99267E-19
 -1      2666 9.49306E-05-2.77139E-05-2.88038E-05 2.87357E-06-3.87172E-19-2.19249E-19
 -1      2667 9.50007E-05-2.76414E-05-2.88530E-05 3.18083E-06-1.99487E-19-3.32098E-19
 -1      2668 9.49693E-05-2.75694E-05-2.88926E-05 2.85755E-06-3.69761E-19-2.55642E-19
 -1      2669 9.48251E-05-2.74159E-05-2.88875E-05 3.49827E-06 7.87552E-20-4.23488E-19
 -1      2670 9.48879E-05-2.72579E-05-2.89647E-05 3.87436E-06 1.90453E-19-1.04256E-19
 -1      2671 9.46741E-05-2.71939E-05-2.89259E-05 3.47650E-06 3.96823E-20-3.38905E-19
 -1      2672 9.46023E-05-2.69080E-05-2.90108E-05 4.25816E-06 1.39539E-19 1.11428E-19
 -1      2673 9.46319E-05-2.66601E-05-2.91059E-05 4.72778E-06 3.47706E-19 1.89627E-19
 -1      2674 9.41971E-05-2.65590E-05-2.89907E-05 4.18818E-06 3.23518E-19-1.48606E-19
 -1      2675 9.41371E-05-2.61127E-05-2.91549E-05 5.25102E-06 3.71563E-19 8.97479E-20
 -1      2676 9.40780E-05-2.57065E-05-2.92698E-05 5.92708E-06 3.85449E-19-1.30659E-19
 -1      2677 9.34021E-05-2.55868E-05-2.90632E-05 5.08327E-06 3.30069E-19 2.41028E-20
 -1      2678 9.32596E-05-2.49154E-05-2.92955E-05 6.60931E-06 4.96106E-19-3.62273E-19
 -1      2679 9.30377E-05-2.43237E-05-2.94097E-05 7.52640E-06 4.30798E-19-4.94759E-19
 -1      2680 9.20675E-05-2.41436E-05-2.91033E-05 6.25052E-06 2.25614E-19-3.65880E-19
 -1      2681 9.17355E-05-2.32364E-05-2.93679E-05 8.39742E-06 1.41086E-19-6.45045E-19
 -1      2682 9.12522E-05-2.24379E-05-2.94471E-05 9.61186E-06 2.70164E-19-7.82917E-19
 -1      2683 8.99290E-05-2.21412E-05-2.90337E-05 7.72008E-06 1.64628E-19-1.07489E-18
 -1      2684 8.92621E-05-2.10409E-05-2.92561E-05 1.06983E-05 3.16006E-19-1.06928E-18
 -1      2685 8.84182E-05-2.00959E-05-2.92316E-05 1.22544E-05 2.04337E-19-9.32709E-19
 -1      2686 8.66239E-05-1.95304E-05-2.87171E-05 9.52700E-06 1.87404E-19-1.46717E-18
 -1      2687 8.55241E-05-1.84998E-05-2.87453E-05 1.36108E-05-1.39454E-19-1.20875E-18
 -1      2688 8.43107E-05-1.76894E-05-2.84900E-05 1.55448E-05-1.75478E-19-1.52329E-18
 -1      2689 8.17321E-05-1.64480E-05-2.79068E-05 1.17357E-05-2.60482E-19-1.48424E-18
 -1      2690 8.03813E-05-1.63021E-05-2.74527E-05 1.73434E-05 4.88417E-20-1.87007E-18
 -1      2691 7.90358E-05-1.63796E-05-2.67409E-05 1.97947E-05-1.02597E-19-1.89597E-18
 -1      2692 7.48802E-05-1.34933E-05-2.61664E-05 1.45841E-05-3.60399E-19-2.07800E-18
 -1      2693 7.43879E-05-1.60140E-05-2.48476E-05 2.20819E-05 1.96206E-19-1.61349E-18
 -1      2694 7.26371E-05-1.81078E-05-2.32144E-05 2.57322E-05 5.72012E-19-1.82949E-18
 -1      2695 6.63151E-05-1.23337E-05-2.28636E-05 1.84825E-05 3.66130E-19-2.47159E-18
 -1      2696 7.27492E-05-2.32005E-05-2.09074E-05 2.87406E-05 7.78185E-19-1.78258E-18
 -1      2697 9.51603E-05-2.84174E-05-2.86044E-05 3.38264E-09 1.44919E-18 2.06535E-18
 -1      2698 9.51621E-05-2.84198E-05-2.86040E-05 1.60955E-08 1.17317E-18-4.52161E-19
 -1      2699 7.68998E-05-3.41852E-05-1.75638E-05 3.53252E-05 6.62803E-20-1.36605E-18
 -1      2700 9.52024E-05-2.84723E-05-2.85990E-05 6.47948E-08 1.07094E-18-1.59502E-18
 -1      2701 9.52123E-05-2.84843E-05-2.85975E-05 6.60786E-08 1.32506E-18-9.92518E-19
 -1      2702 8.43772E-05-2.37049E-05-2.57366E-05-2.74608E-05 1.22942E-18 3.87941E-19
 -1      2703 8.30212E-05-1.99753E-05-2.69062E-05-2.47912E-05 1.34386E-18-2.60463E-20
 -1      2704 1.60298E-04-7.21720E-05-3.81826E-05 4.76351E-06-1.06260E-18 7.15955E-19
 -1      2705 8.49496E-05-1.91013E-05-2.80982E-05-2.13773E-05 1.23750E-18-1.11875E-19
 -1      2706 8.53576E-05-1.85825E-05-2.86693E-05-1.89589E-05 1.47329E-18 5.06605E-19
 -1      2707 8.83841E-05-1.96061E-05-2.94270E-05-1.66394E-05 8.71074E-19-2.50824E-19
 -1      2708 8.90551E-05-2.01811E-05-2.95841E-05-1.45103E-05 6.37303E-19-1.01822E-18
 -1      2709 8.06565E-05-1.58742E-05-2.76208E-05-1.58889E-05 7.21739E-19 4.26625E-19
 -1      2710 9.13139E-05-2.14810E-05-2.98990E-05-1.27421E-05 8.39036E-19-2.18650E-18
 -1      2711 9.18114E-05-2.22787E-05-2.98528E-05-1.09646E-05-2.20741E-20-2.91857E-18
 -1      2712 8.58779E-05-1.83917E-05-2.88199E-05-1.23511E-05-3.78684E-19-1.49508E-18
 -1      2713 9.33481E-05-2.34309E-05-2.99393E-05-9.58002E-06-2.59536E-20-1.92997E-18
 -1      2714 9.36023E-05-2.41304E-05-2.98118E-05-8.16847E-06 3.29549E-20-1.06355E-18
 -1      2715 8.95666E-05-2.10267E-05-2.93067E-05-9.52414E-06 6.49935E-19-2.64389E-18
 -1      2716 9.45803E-05-2.50143E-05-2.97911E-05-7.09121E-06-9.45666E-20-7.80897E-19
 -1      2717 9.46569E-05-2.55422E-05-2.96461E-05-6.01244E-06-1.00245E-18-1.43911E-18
 -1      2718 9.19984E-05-2.32293E-05-2.94298E-05-7.25158E-06-1.18661E-19-1.99478E-18
 -1      2719 9.52276E-05-2.61466E-05-2.95865E-05-5.22757E-06-1.67144E-18-1.43091E-18
 -1      2720 9.51996E-05-2.65035E-05-2.94585E-05-4.45464E-06-1.01822E-18-1.59260E-18
 -1      2721 9.34819E-05-2.48544E-05-2.93865E-05-5.48671E-06-7.34754E-19-1.38598E-18
 -1      2722 9.55442E-05-2.69443E-05-2.93841E-05-3.82122E-06 1.66043E-19-1.86649E-18
 -1      2723 9.54677E-05-2.71992E-05-2.92700E-05-3.22466E-06-3.55158E-20-2.01227E-18
 -1      2724 9.43691E-05-2.60191E-05-2.92773E-05-4.10823E-06-6.72882E-19-3.97994E-19
 -1      2725 9.56560E-05-2.74946E-05-2.91997E-05-2.75352E-06-3.66335E-19-1.44519E-18
 -1      2726 9.55630E-05-2.76624E-05-2.91081E-05-2.32130E-06-2.68392E-19-1.85318E-18
 -1      2727 9.48847E-05-2.68489E-05-2.91495E-05-3.02384E-06-7.44965E-20-1.88877E-20
 -1      2728 9.56569E-05-2.78575E-05-2.90475E-05-1.97320E-06 3.38100E-19-1.45606E-18
 -1      2729 9.55664E-05-2.79669E-05-2.89763E-05-1.66186E-06 1.12609E-18-1.17137E-18
 -1      2730 9.51560E-05-2.74109E-05-2.90291E-05-2.20788E-06 5.35634E-19 5.42097E-19
 -1      2731 9.56069E-05-2.80949E-05-2.89267E-05-1.40612E-06 1.31648E-18-1.60014E-18
 -1      2732 9.55275E-05-2.81661E-05-2.88725E-05-1.18239E-06 8.64857E-19-1.00929E-18
 -1      2733 9.52850E-05-2.77873E-05-2.89255E-05-1.59984E-06 1.31105E-18-1.04358E-18
 -1      2734 9.55395E-05-2.82500E-05-2.88331E-05-9.95167E-07 8.94034E-19 2.14453E-19
 -1      2735 9.54740E-05-2.82966E-05-2.87924E-05-8.34496E-07 1.27222E-18-4.80830E-19
 -1      2736 9.53351E-05-2.80387E-05-2.88406E-05-1.14978E-06 1.74299E-18-8.15818E-19
 -1      2737 9.54718E-05-2.83518E-05-2.87619E-05-6.97769E-07 1.11016E-18-4.35176E-19
 -1      2738 9.54203E-05-2.83825E-05-2.87317E-05-5.82483E-07 2.13470E-18-7.37685E-19
 -1      2739 9.53441E-05-2.82067E-05-2.87732E-05-8.18188E-07 1.10661E-18 1.07736E-19
 -1      2740 9.54128E-05-2.84174E-05-2.87095E-05-4.87541E-07 2.23869E-19-1.18682E-18
 -1      2741 9.53748E-05-2.84374E-05-2.86882E-05-4.07856E-07-1.85153E-18-2.82247E-18
 -1      2742 9.53344E-05-2.83180E-05-2.87218E-05-5.79451E-07-2.84896E-19-1.85040E-18
 -1      2743 9.53647E-05-2.84625E-05-2.86703E-05-3.34133E-07-2.42535E-19-2.78323E-18
 -1      2744 9.53349E-05-2.84769E-05-2.86540E-05-2.73778E-07 1.40107E-18-2.66202E-18
 -1      2745 9.53173E-05-2.83930E-05-2.86822E-05-4.04333E-07-2.77637E-19-3.24086E-18
 -1      2746 9.53253E-05-2.84938E-05-2.86406E-05-2.20569E-07 1.38831E-18-3.64821E-18
 -1      2747 9.53037E-05-2.85040E-05-2.86288E-05-1.77434E-07 6.95514E-19-2.81182E-18
 -1      2748 9.52985E-05-2.84464E-05-2.86513E-05-2.72599E-07 8.27308E-19-3.31027E-18
 -1      2749 9.52955E-05-2.85156E-05-2.86189E-05-1.39286E-07 7.37294E-19-2.57367E-18
 -1      2750 9.52803E-05-2.85231E-05-2.86104E-05-1.08793E-07-1.18508E-18-2.94548E-18
 -1      2751 9.52813E-05-2.84834E-05-2.86280E-05-1.77247E-07 4.05252E-19-3.63876E-18
 -1      2752 9.52733E-05-2.85311E-05-2.86030E-05-8.17687E-08-7.33673E-19-2.00791E-18
 -1      2753 9.52629E-05-2.85369E-05-2.85969E-05-6.06230E-08 6.00004E-19-1.19980E-18
 -1      2754 9.52667E-05-2.85095E-05-2.86105E-05-1.09164E-07 1.41279E-19-2.68817E-18
 -1      2755 9.52544E-05-2.85416E-05-2.85908E-05-4.14928E-08 4.32855E-19-1.28205E-18
 -1      2756 9.50505E-05-2.75733E-05-2.89212E-05-5.03541E-07 1.74311E-19 1.54467E-18
 -1      2757 9.51314E-05-2.73040E-05-2.90481E-05 1.16844E-08 2.11104E-19 1.62794E-18
 -1      2758 9.50186E-05-2.79846E-05-2.87291E-05-1.23680E-06-9.21318E-20 1.44868E-18
 -1      2759 9.50231E-05-2.77997E-05-2.87965E-05-9.26383E-07 4.76870E-21 1.58872E-18
 -1      2760 9.53862E-05-2.75372E-05-2.90867E-05-5.85727E-07 1.47104E-19 1.25423E-18
 -1      2761 9.51534E-05-2.69331E-05-2.92427E-05 6.70207E-07 9.91525E-20 1.69956E-18
 -1      2762 9.53176E-05-2.65172E-05-2.94579E-05 1.49320E-06 4.17325E-20 1.75545E-18
 -1      2763 9.54183E-05-2.67921E-05-2.94198E-05 5.65161E-07 1.82106E-19 1.33827E-18
 -1      2764 9.52067E-05-2.85145E-05-2.85816E-05-1.89044E-06 2.35679E-20 8.34367E-19
 -1      2765 9.51000E-05-2.83896E-05-2.85846E-05-1.81406E-06 1.01121E-19 8.29278E-19
 -1      2766 9.54211E-05-2.87494E-05-2.85736E-05-1.94976E-06 2.45466E-19 6.49660E-19
 -1      2767 9.52765E-05-2.86212E-05-2.85625E-05-1.95039E-06 5.28404E-20 6.91468E-19
 -1      2768 9.55112E-05-2.86252E-05-2.86710E-05-1.99777E-06 1.06814E-19 4.27068E-19
 -1      2769 9.57147E-05-2.90206E-05-2.85848E-05-1.86194E-06 4.37563E-19 1.00408E-18
 -1      2770 9.55397E-05-2.88726E-05-2.85679E-05-1.93666E-06 3.33909E-19 6.16657E-19
 -1      2771 9.57060E-05-2.89020E-05-2.86354E-05-2.06678E-06 2.44753E-19 2.96404E-19
 -1      2772 9.60898E-05-2.93607E-05-2.86021E-05-1.61220E-06 5.51312E-19 1.47450E-18
 -1      2773 9.58912E-05-2.91805E-05-2.85859E-05-1.77175E-06 5.72690E-19 1.22790E-18
 -1      2774 9.60058E-05-2.92342E-05-2.86217E-05-1.98157E-06 3.11473E-19 5.35397E-19
 -1      2775 9.65459E-05-2.97901E-05-2.86168E-05-1.16181E-06 2.08174E-19 1.98012E-18
 -1      2776 9.63332E-05-2.95723E-05-2.86059E-05-1.42694E-06 4.43195E-19 1.57493E-18
 -1      2777 9.64298E-05-2.96641E-05-2.86195E-05-1.72183E-06 2.77450E-19 9.22263E-19
 -1      2778 9.70707E-05-3.03055E-05-2.86246E-05-4.57272E-07 2.20667E-19 1.73427E-18
 -1      2779 9.68605E-05-3.00583E-05-2.86218E-05-8.52798E-07 2.79161E-19 2.04125E-18
 -1      2780 9.69922E-05-3.02169E-05-2.86239E-05-1.24126E-06 2.38812E-19 8.36999E-19
 -1      2781 9.76253E-05-3.08633E-05-2.86271E-05 5.53027E-07 4.09576E-19 1.69207E-18
 -1      2782 9.74471E-05-3.06168E-05-2.86326E-05 8.32978E-09 2.92175E-19 1.72186E-18
 -1      2783 9.76897E-05-3.08840E-05-2.86366E-05-4.76612E-07 2.77529E-19 8.62845E-19
 -1      2784 9.81292E-05-3.13599E-05-2.86328E-05 1.88978E-06-4.72130E-20 1.99563E-18
 -1      2785 9.80297E-05-3.11745E-05-2.86434E-05 1.19914E-06 2.81368E-19 1.88752E-18
 -1      2786 9.84810E-05-3.16010E-05-2.86665E-05 6.33796E-07 1.72887E-19 1.26160E-18
 -1      2787 9.84501E-05-3.16225E-05-2.86573E-05 3.49989E-06-1.91421E-19 1.83605E-18
 -1      2788 9.84919E-05-3.15896E-05-2.86667E-05 2.70947E-06-1.27276E-19 2.00310E-18
 -1      2789 9.92631E-05-3.22231E-05-2.87308E-05 2.11557E-06-7.98832E-20 2.07033E-18
 -1      2790 9.84141E-05-3.14269E-05-2.87200E-05 5.20622E-06-4.55947E-19 2.07439E-18
 -1      2791 9.86635E-05-3.16538E-05-2.87197E-05 4.42557E-06-2.87571E-19 1.98138E-18
 -1      2792 9.98570E-05-3.25174E-05-2.88525E-05 3.90503E-06-3.32583E-19 2.43937E-18
 -1      2793 9.78552E-05-3.05666E-05-2.88368E-05 6.67160E-06-9.03632E-19 2.25090E-18
 -1      2794 9.83529E-05-3.11348E-05-2.88194E-05 6.08095E-06-6.06228E-19 2.05193E-18
 -1      2795 1.00024E-04-3.21962E-05-2.90536E-05 5.78511E-06-6.60735E-19 2.12302E-18
 -1      2796 9.67099E-05-2.89757E-05-2.90106E-05 7.42103E-06-6.97373E-19 1.97947E-18
 -1      2797 9.74304E-05-2.98780E-05-2.89737E-05 7.24521E-06-9.29589E-19 2.26417E-18
 -1      2798 9.95375E-05-3.10214E-05-2.93433E-05 7.34162E-06-7.64076E-19 1.75966E-18
 -1      2799 9.51297E-05-2.68697E-05-2.92206E-05 6.96287E-06-7.80598E-19 2.05366E-18
 -1      2800 9.59469E-05-2.79489E-05-2.91708E-05 7.39936E-06-7.03612E-19 1.88042E-18
 -1      2801 9.83237E-05-2.89688E-05-2.97044E-05 8.00014E-06-8.81486E-19 1.82920E-18
 -1      2802 9.35414E-05-2.48065E-05-2.94199E-05 5.03547E-06-8.34988E-19 2.77870E-18
 -1      2803 9.42380E-05-2.57571E-05-2.93732E-05 6.13682E-06-7.25023E-19 2.38106E-18
 -1      2804 9.66160E-05-2.64099E-05-3.00830E-05 7.19644E-06-1.10446E-18 2.17736E-18
 -1      2805 9.25186E-05-2.35074E-05-2.95494E-05 1.85693E-06-4.53079E-19 2.95597E-18
 -1      2806 9.28662E-05-2.39928E-05-2.95241E-05 3.44728E-06-6.20864E-19 2.72518E-18
 -1      2807 9.49895E-05-2.41035E-05-3.03931E-05 4.71468E-06-9.72919E-19 2.03492E-18
 -1      2808 9.24971E-05-2.34960E-05-2.95673E-05-1.83568E-06 5.47685E-19 2.71314E-18
 -1      2809 9.23689E-05-2.33263E-05-2.95733E-05-1.35960E-07 1.18805E-19 2.88726E-18
 -1      2810 9.41298E-05-2.29132E-05-3.05471E-05 9.62049E-07-1.99737E-19 1.60358E-18
 -1      2811 9.35027E-05-2.47773E-05-2.94704E-05-5.07126E-06 2.87787E-19 2.66546E-18
 -1      2812 9.29448E-05-2.40231E-05-2.95038E-05-3.68715E-06 5.89758E-19 2.84462E-18
 -1      2813 9.44395E-05-2.33279E-05-3.04982E-05-3.07860E-06 7.48227E-19 2.17898E-18
 -1      2814 9.51336E-05-2.68389E-05-2.92968E-05-7.08948E-06 7.85479E-19 2.57796E-18
 -1      2815 9.43357E-05-2.57848E-05-2.93417E-05-6.30667E-06 4.88317E-19 2.60117E-18
 -1      2816 9.57706E-05-2.51621E-05-3.02647E-05-6.28945E-06 6.78805E-19 1.90513E-18
 -1      2817 9.68018E-05-2.89562E-05-2.91029E-05-7.63533E-06 8.68833E-19 2.20315E-18
 -1      2818 9.59997E-05-2.79427E-05-2.91412E-05-7.50927E-06 8.33547E-19 2.12687E-18
 -1      2819 9.75303E-05-2.76877E-05-2.99192E-05-7.95301E-06 7.83295E-19 1.42540E-18
 -1      2820 9.80401E-05-3.05571E-05-2.89376E-05-6.95585E-06 5.15714E-19 1.80168E-18
 -1      2821 9.74086E-05-2.98205E-05-2.89574E-05-7.34376E-06 9.68258E-19 2.12748E-18
 -1      2822 9.90431E-05-3.00418E-05-2.95513E-05-7.99805E-06 8.46646E-19 6.65582E-19
 -1      2823 9.86673E-05-3.14164E-05-2.88267E-05-5.54665E-06-3.86807E-19 2.01495E-18
 -1      2824 9.82783E-05-3.10326E-05-2.88257E-05-6.22552E-06-6.98252E-20 1.89271E-18
 -1      2825 9.98997E-05-3.16434E-05-2.92340E-05-6.86534E-06 5.14556E-19 1.49194E-18
 -1      2826 9.87396E-05-3.15981E-05-2.87709E-05-3.90009E-06 8.64645E-19 1.99057E-18
 -1      2827 9.85787E-05-3.15201E-05-2.87546E-05-4.66076E-06-6.76841E-21 1.94659E-18
 -1      2828 1.00040E-04-3.23404E-05-2.90029E-05-5.15486E-06 6.26740E-20 1.70325E-18
 -1      2829 9.84336E-05-3.13150E-05-2.87562E-05-2.36639E-06 6.59846E-19 1.60282E-18
 -1      2830 9.84414E-05-3.14402E-05-2.87329E-05-3.06414E-06 9.93317E-19 1.51779E-18
 -1      2831 9.96361E-05-3.22882E-05-2.88598E-05-3.37417E-06 9.06696E-19 6.84273E-19
 -1      2832 9.79375E-05-3.07976E-05-2.87638E-05-1.12772E-06 1.43532E-18 1.78301E-18
 -1      2833 9.80465E-05-3.10225E-05-2.87415E-05-1.68820E-06 1.36033E-18 2.41044E-18
 -1      2834 9.89342E-05-3.17706E-05-2.87863E-05-1.83394E-06 7.60748E-19 9.89283E-19
 -1      2835 9.73947E-05-3.02241E-05-2.87778E-05-2.35188E-07 5.02449E-19 2.02433E-18
 -1      2836 9.75499E-05-3.04715E-05-2.87615E-05-6.38468E-07 5.93324E-19 1.77355E-18
 -1      2837 9.81474E-05-3.10572E-05-2.87576E-05-6.62567E-07 1.16736E-18 2.12100E-18
 -1      2838 9.68914E-05-2.97020E-05-2.87876E-05 3.38517E-07-1.06642E-19 3.40669E-18
 -1      2839 9.70560E-05-2.99264E-05-2.87795E-05 7.94788E-08 5.06910E-19 2.68669E-18
 -1      2840 9.74138E-05-3.03389E-05-2.87518E-05 1.33685E-07-2.13707E-19 2.76650E-18
 -1      2841 9.64668E-05-2.92803E-05-2.87884E-05 6.55881E-07-7.78523E-20 4.68957E-18
 -1      2842 9.66200E-05-2.94615E-05-2.87885E-05 5.12963E-07 3.79474E-19 4.55517E-18
 -1      2843 9.67999E-05-2.97207E-05-2.87533E-05 6.10661E-07-5.74137E-19 4.43773E-18
 -1      2844 9.61300E-05-2.89686E-05-2.87795E-05 7.87002E-07 7.10005E-19 3.01860E-18
 -1      2845 9.62625E-05-2.91028E-05-2.87862E-05 7.28620E-07 1.95912E-19 3.82766E-18
 -1      2846 9.63227E-05-2.92420E-05-2.87530E-05 8.45133E-07 5.73557E-19 4.82555E-18
 -1      2847 9.58738E-05-2.87553E-05-2.87626E-05 7.94970E-07 7.70836E-19 3.82561E-18
 -1      2848 9.59832E-05-2.88477E-05-2.87739E-05 7.92551E-07 5.13921E-19 3.40170E-18
 -1      2849 9.59712E-05-2.89018E-05-2.87473E-05 9.11880E-07 8.12300E-19 4.23393E-18
 -1      2850 9.56846E-05-2.86204E-05-2.87404E-05 7.29959E-07 8.37051E-19 4.36075E-18
 -1      2851 9.57720E-05-2.86795E-05-2.87542E-05 7.60664E-07 1.28387E-18 3.81296E-18
 -1      2852 9.57229E-05-2.86789E-05-2.87355E-05 8.73291E-07 6.20278E-19 4.30522E-18
 -1      2853 9.55476E-05-2.85427E-05-2.87157E-05 6.28434E-07-2.20101E-18 4.84047E-18
 -1      2854 9.56159E-05-2.85774E-05-2.87302E-05 6.75602E-07-1.75351E-19 4.81826E-18
 -1      2855 9.55530E-05-2.85457E-05-2.87191E-05 7.76464E-07-4.08976E-19 4.59128E-18
 -1      2856 9.54499E-05-2.85041E-05-2.86908E-05 5.14890E-07-1.94484E-18 4.03541E-18
 -1      2857 9.55023E-05-2.85220E-05-2.87048E-05 5.67309E-07-2.45648E-18 4.55860E-18
 -1      2858 9.54397E-05-2.84761E-05-2.86999E-05 6.54249E-07-1.94246E-18 5.15070E-18
 -1      2859 9.53810E-05-2.84902E-05-2.86675E-05 4.04431E-07 6.28316E-19 1.53230E-18
 -1      2860 9.54205E-05-2.84974E-05-2.86802E-05 4.55203E-07-2.58209E-19 2.53497E-18
 -1      2861 9.53656E-05-2.84480E-05-2.86799E-05 5.27890E-07-2.16309E-19 2.42041E-18
 -1      2862 9.53329E-05-2.84910E-05-2.86466E-05 3.05330E-07 8.82399E-19 3.79380E-19
 -1      2863 9.53621E-05-2.84917E-05-2.86576E-05 3.50703E-07 5.27199E-19 9.42376E-19
 -1      2864 9.53179E-05-2.84452E-05-2.86604E-05 4.09913E-07 1.39811E-18 7.68086E-19
 -1      2865 9.52994E-05-2.84992E-05-2.86288E-05 2.21235E-07 2.04334E-18 4.05734E-19
 -1      2866 9.53207E-05-2.84965E-05-2.86379E-05 2.59586E-07 8.04209E-19 6.47442E-19
 -1      2867 9.52874E-05-2.84561E-05-2.86425E-05 3.06710E-07 5.46127E-19-1.01679E-19
 -1      2868 9.52763E-05-2.85106E-05-2.86140E-05 1.52893E-07 1.02879E-18 1.24876E-18
 -1      2869 9.52915E-05-2.85063E-05-2.86214E-05 1.83913E-07 2.34702E-18 7.21789E-19
 -1      2870 9.52679E-05-2.84731E-05-2.86267E-05 2.20631E-07 2.04427E-18 1.08915E-18
 -1      2871 9.52605E-05-2.85225E-05-2.86021E-05 9.94541E-08 9.33193E-19 6.83972E-19
 -1      2872 9.52710E-05-2.85177E-05-2.86079E-05 1.23550E-07 3.68257E-19 2.89526E-19
 -1      2873 9.52552E-05-2.84916E-05-2.86133E-05 1.51601E-07 1.45928E-18-4.51332E-19
 -1      2874 9.52490E-05-2.85327E-05-2.85927E-05 6.03541E-08 1.60682E-18 2.10814E-18
 -1      2875 9.52561E-05-2.85279E-05-2.85973E-05 7.83824E-08 1.41481E-18 1.69366E-18
 -1      2876 9.52461E-05-2.85082E-05-2.86023E-05 9.92262E-08 4.12587E-20-3.16557E-19
 -1      2877 9.52399E-05-2.85230E-05-2.85933E-05 6.09482E-08 1.74370E-18 1.16072E-19
 -1      2878 9.51669E-05-2.84269E-05-2.86033E-05 3.09885E-08 5.13771E-19-3.36730E-18
 -1      2879 9.51729E-05-2.84337E-05-2.86024E-05 4.15886E-08 9.35981E-19-4.03469E-18
 -1      2880 9.51497E-05-2.83979E-05-2.86074E-05 2.93452E-08 1.74729E-18-1.35583E-18
 -1      2881 9.77849E-05-4.92975E-05-2.03139E-05-4.34789E-05-7.61694E-19 9.51324E-20
 -1      2882 1.14213E-04-5.64446E-05-2.49446E-05-3.86375E-05-5.15420E-19 4.24668E-19
 -1      2883 9.52215E-05-2.84973E-05-2.85965E-05 6.73901E-08 1.07055E-18-1.80107E-18
 -1      2884 9.52312E-05-2.85101E-05-2.85946E-05 6.38904E-08 1.98661E-18-1.62572E-18
 -1      2885 9.52337E-05-2.85020E-05-2.85989E-05 8.06814E-08 1.21996E-18-2.02665E-18
 -1      2886 9.52114E-05-2.84754E-05-2.86012E-05 8.20127E-08 1.67180E-18-1.52794E-18
 -1      2887 9.51818E-05-2.84461E-05-2.86014E-05 5.26433E-08 8.12725E-19-2.84843E-18
 -1      2888 9.51907E-05-2.84563E-05-2.86003E-05 5.92854E-08 1.30459E-18-1.94574E-18
 -1      2889 9.51886E-05-2.84466E-05-2.86035E-05 7.52597E-08 1.25657E-18-1.30925E-18
 -1      2890 9.51653E-05-2.84178E-05-2.86057E-05 5.72609E-08 1.31196E-18-3.18269E-18
 -1      2891 9.50714E-05-2.82759E-05-2.86259E-05-1.66920E-06 1.94043E-19 1.04180E-18
 -1      2892 9.50133E-05-2.81342E-05-2.86538E-05-1.49609E-06 5.43013E-20 1.38745E-18
 -1      2893 9.53684E-05-2.80158E-05-2.88730E-05-1.32090E-06 1.77827E-19 1.13752E-18
 -1      2894 9.54038E-05-2.83509E-05-2.87433E-05-1.76407E-06 2.67053E-19 7.19846E-19
 -1      2895 9.51635E-05-2.84192E-05-2.86049E-05-2.53598E-08 2.31864E-19 3.22722E-18
 -1      2896 9.51606E-05-2.84166E-05-2.86048E-05-1.28555E-08 3.96808E-19 1.73943E-18
 -1      2897 9.51445E-05-2.83898E-05-2.86086E-05-4.17347E-09 7.35972E-19 9.13629E-19
 -1      2898 9.51760E-05-2.84321E-05-2.86045E-05-4.95565E-08 1.22783E-18 6.20301E-19
 -1      2899 9.51690E-05-2.84251E-05-2.86049E-05-3.98155E-08 5.91407E-19 3.31828E-18
 -1      2900 9.51512E-05-2.83951E-05-2.86092E-05-3.73923E-08 1.10753E-18 3.33904E-18
 -1      2901 9.51962E-05-2.84551E-05-2.86032E-05-6.53209E-08 1.49657E-18 1.08812E-18
 -1      2902 9.51860E-05-2.84443E-05-2.86041E-05-6.00010E-08 1.20282E-18 1.09335E-18
 -1      2903 9.51689E-05-2.84134E-05-2.86090E-05-6.46406E-08 1.59179E-18 9.48343E-19
 -1      2904 9.52203E-05-2.84848E-05-2.86006E-05-6.86329E-08 6.20292E-19-2.39484E-18
 -1      2905 9.52092E-05-2.84720E-05-2.86021E-05-6.93905E-08 1.32341E-18 1.93762E-19
 -1      2906 9.51951E-05-2.84429E-05-2.86077E-05-8.11244E-08 1.24566E-18 2.78576E-19
 -1      2907 9.52423E-05-2.85168E-05-2.85965E-05-5.95003E-08-6.30244E-19-1.92285E-18
 -1      2908 9.52330E-05-2.85035E-05-2.85987E-05-6.60369E-08 6.37682E-19-3.33389E-18
 -1      2909 9.52230E-05-2.84786E-05-2.86049E-05-8.26161E-08 3.01160E-19-2.99348E-18
 -1      2910 1.00241E-04-4.63420E-05-2.25726E-05-3.36766E-05 1.20575E-18 9.82770E-19
 -1      2911 5.24881E-05-2.38416E-05-1.20791E-05 4.06319E-05-1.16774E-18-2.64063E-19
 -1      2912 3.92488E-05-1.52448E-05-9.55400E-06 2.99721E-05-1.57802E-18 1.91726E-18
 -1      2913 3.53108E-05-1.31830E-05-8.86919E-06-2.57864E-05-4.64809E-20-3.42625E-19
 -1      2914 4.64707E-05-2.08928E-05-1.06273E-05-3.77600E-05 2.72639E-19 5.60524E-19
 -1      2915 6.19805E-05-2.94644E-05-1.32574E-05-4.27344E-05 1.58289E-19 1.03042E-18
 -1      2916 7.84364E-05-3.90645E-05-1.68133E-05-4.63044E-05-2.70415E-19 4.34316E-19
 -1      2917 1.41320E-04-5.46813E-05-3.76793E-05 9.47987E-06 9.98877E-19 4.76138E-19
 -1      2918 1.34507E-04-5.79565E-05-3.26084E-05 1.91425E-05 5.51286E-19 4.44692E-21
 -1      2919 8.68797E-05-4.32783E-05-1.88595E-05 4.55765E-05 3.66448E-19 8.29457E-19
 -1      2920 7.01753E-05-3.35284E-05-1.49958E-05 4.42893E-05-4.94244E-19 8.31786E-19
 -1      2921 1.41678E-04-5.31826E-05-3.78272E-05-6.66379E-06-7.49015E-19 3.11602E-19
 -1      2922 1.42306E-04-4.53358E-05-4.23117E-05 2.30139E-06-8.97008E-19 8.14316E-19
 -1      2923 3.18595E-05-8.69198E-06-9.45404E-06 6.71478E-06-1.24037E-19-2.53644E-18
 -1      2924 2.97878E-05-8.21126E-06-8.63710E-06-1.13272E-05 8.81708E-20-1.41963E-18
 -1      2925 1.38993E-04-3.18922E-05-4.60764E-05 1.00586E-05-9.59688E-19 5.87417E-19
 -1      2926 1.36273E-04-2.18462E-05-4.98178E-05 1.06533E-05-1.13831E-18 2.30393E-19
 -1      2927 1.33250E-04-1.18669E-05-5.25483E-05 8.93913E-06-2.62157E-19 4.54010E-19
 -1      2928 1.31356E-04-6.84284E-06-5.40926E-05 4.42220E-06 8.60374E-19 4.26693E-19
 -1      2929 3.02825E-05-9.07350E-06-8.66842E-06 1.66647E-05-1.29612E-18 4.74148E-18
 -1      2930 2.89897E-05-8.04257E-06-8.30973E-06 2.78967E-07-1.39633E-18 4.68706E-18
 -1      2931 5.86638E-05-2.53269E-05-1.40069E-05 3.29720E-05-2.66815E-20-2.32976E-18
 -1      2932 4.33595E-05-1.57100E-05-1.11404E-05 2.18672E-05-1.91959E-19-2.50552E-18
 -1      2933 1.29702E-04-5.47314E-06-5.39109E-05-1.96703E-07 1.69978E-18 2.67636E-19
 -1      2934 1.28846E-04-7.49097E-06-5.26544E-05-5.39510E-06 1.96088E-18 2.02891E-19
 -1      2935 3.31090E-05-1.07662E-05-8.98989E-06-1.23608E-05-6.58859E-19 4.02637E-18
 -1      2936 4.17657E-05-1.63456E-05-1.04513E-05-2.36867E-05 8.99973E-21 4.64386E-18
 -1      2937 1.26953E-04-5.88529E-05-2.89078E-05-2.84615E-05-1.12602E-19 4.02182E-19
 -1      2938 1.36102E-04-5.85650E-05-3.37284E-05-1.89184E-05-6.06581E-19 5.25690E-20
 -1      2939 1.34056E-04-1.55772E-05-5.14836E-05-1.02891E-05 2.30308E-18-1.04572E-18
 -1      2940 1.39526E-04-2.57151E-05-4.91217E-05-1.03835E-05 2.58557E-18-1.01284E-18
 -1      2941 9.11120E-05-1.59315E-05-3.22476E-05 4.76273E-06 8.93155E-19 1.00460E-18
 -1      2942 9.07505E-05-1.54145E-05-3.23092E-05 3.85902E-06 9.49467E-19 8.20295E-19
 -1      2943 9.16958E-05-1.69804E-05-3.20052E-05 3.05662E-06 8.52185E-19 6.57829E-19
 -1      2944 9.24087E-05-1.80897E-05-3.18314E-05 4.43355E-06 6.69329E-19 9.35937E-19
 -1      2945 1.42886E-04-3.72217E-05-4.60002E-05-6.23638E-06 2.58980E-18-1.42090E-19
 -1      2946 1.43418E-04-4.60461E-05-4.18106E-05-5.71666E-07 1.77416E-18 2.88415E-19
 -1      2947 1.23289E-04-5.84947E-05-2.81229E-05 3.16055E-05 4.33257E-19-2.53633E-19
 -1      2948 1.07608E-04-5.25004E-05-2.30709E-05 3.90234E-05 3.00803E-19-2.36339E-19
 -1      2949 5.88349E-05-2.54347E-05-1.37265E-05-3.15169E-05 6.04993E-19 2.95593E-18
 -1      2950 8.09643E-05-3.73632E-05-1.84894E-05-3.68457E-05 3.14884E-19 8.00870E-19
 -1      2951 9.11270E-05-1.61157E-05-3.21347E-05 1.86830E-08 1.10642E-18 4.67610E-19
 -1      2952 9.00356E-05-1.43683E-05-3.24485E-05-3.72195E-07 1.10919E-18 3.90838E-19
 -1      2953 9.00977E-05-1.44518E-05-3.24395E-05-1.29970E-06 1.09231E-18 3.98683E-19
 -1      2954 9.45183E-05-2.13690E-05-3.13442E-05 7.69375E-06 2.10971E-19 2.02338E-18
 -1      2955 1.21101E-04-5.67580E-05-2.73808E-05-2.98646E-05-5.11184E-19 2.06041E-19
 -1      2956 7.40799E-05-2.24247E-05-2.19308E-05-2.97052E-05 6.09017E-19 9.83193E-19
 -1      2957 7.17315E-05-2.74980E-05-1.87156E-05 3.23800E-05 5.06949E-19-1.60714E-18
 -1      2958 7.54409E-05-1.57063E-05-2.54218E-05-2.13092E-05 9.19163E-19 4.11446E-19
 -1      2959 9.23720E-05-1.80028E-05-3.18522E-05-4.38662E-06 8.27362E-19-2.92688E-19
 -1      2960 9.15292E-05-1.65385E-05-3.21627E-05-5.41330E-06 8.46721E-19-4.46095E-19
 -1      2961 9.20715E-05-1.73402E-05-3.20621E-05-6.22953E-06 7.92315E-19-5.57505E-19
 -1      2962 9.52515E-05-2.85265E-05-2.85967E-05-5.99537E-08 1.02396E-19-1.10684E-18
 -1      2963 9.53635E-05-2.55730E-05-2.99172E-05 2.28949E-06 9.16845E-20 1.50381E-18
 -1      2964 9.52754E-05-2.58333E-05-2.97550E-05 2.50252E-06 5.24350E-20 1.83677E-18
 -1      2965 9.15222E-05-4.33822E-05-2.02700E-05-4.12736E-05-4.30928E-19 3.52392E-19
 -1      2966 1.00188E-04-4.69169E-05-2.24418E-05 3.82536E-05 6.68838E-19-1.64642E-20
 -1      2967 1.27405E-04-1.18558E-05-5.00270E-05-8.89026E-06 1.78459E-18-1.91826E-19
 -1      2968 1.24469E-04-1.66891E-05-4.65630E-05-1.09388E-05 2.01795E-18-5.72356E-19
 -1      2969 1.19790E-04-9.49487E-06-4.76635E-05-6.73205E-06 1.64631E-18 2.66524E-19
 -1      2970 1.39178E-04-4.98267E-05-3.83761E-05 1.33749E-06 1.50094E-18 3.85506E-19
 -1      2971 6.00560E-05-2.40317E-05-1.49058E-05-3.72330E-05-1.23614E-19 7.48671E-19
 -1      2972 9.52500E-05-2.85082E-05-2.86031E-05-8.08573E-08 2.68869E-20-1.41399E-18
 -1      2973 3.97193E-05-9.89510E-06-1.21610E-05-1.67430E-05 1.18055E-20-6.94567E-19
 -1      2974 9.52935E-05-2.55106E-05-2.98838E-05 3.22496E-06 2.47774E-20 1.94837E-18
 -1      2975 6.55847E-05-2.72016E-05-1.59232E-05 3.92065E-05-1.22534E-18 1.55843E-18
 -1      2976 3.87518E-05-8.13332E-06-1.23787E-05-5.68745E-06-9.67629E-19 4.18890E-18
 -1      2977 1.23581E-04-7.15198E-06-5.03404E-05 2.38157E-06 8.16116E-19 6.21206E-19
 -1      2978 4.18424E-05-1.12516E-05-1.24042E-05 2.09639E-05-1.59115E-18 2.41193E-18
 -1      2979 1.28363E-04-1.74496E-05-4.79556E-05 1.10393E-05-2.97838E-19 1.00892E-18
 -1      2980 9.02336E-05-1.46515E-05-3.24131E-05-2.10088E-06 1.08813E-18 4.18739E-19
 -1      2981 9.04335E-05-1.49275E-05-3.23817E-05-3.02437E-06 9.91503E-19 1.94407E-19
 -1      2982 9.16659E-05-1.69164E-05-3.20194E-05-3.00724E-06 9.04504E-19 1.00265E-19
 -1      2983 9.12561E-05-1.63038E-05-3.21086E-05-1.51764E-06 1.03563E-18 3.86211E-19
 -1      2984 1.36428E-04-3.84573E-05-4.21791E-05 7.91967E-06-1.02904E-18 6.40357E-19
 -1      2985 1.28275E-04-5.71737E-05-3.04008E-05 2.13667E-05 9.33854E-19 5.83394E-20
 -1      2986 1.36485E-04-5.53818E-05-3.47767E-05-1.00580E-05-9.72301E-19 7.99281E-19
 -1      2987 5.96864E-05-2.03234E-05-1.62559E-05-2.72679E-05 1.28114E-19 2.69526E-18
 -1      2988 1.36127E-04-3.15498E-05-4.51251E-05-1.03144E-05 2.66604E-18-3.39872E-19
 -1      2989 9.47733E-05-2.23615E-05-3.10024E-05 6.14225E-06 9.34168E-20 1.80602E-18
 -1      2990 9.42503E-05-2.17433E-05-3.11089E-05 4.76164E-06 2.50534E-19 1.28967E-18
 -1      2991 9.37694E-05-2.07694E-05-3.12913E-05 4.37836E-06 3.62522E-19 1.02570E-18
 -1      2992 9.54433E-05-2.53331E-05-3.00238E-05 4.48902E-06 8.68209E-21 2.19355E-18
 -1      2993 1.14524E-04-5.31647E-05-2.59328E-05-3.07849E-05-5.25425E-19 1.57230E-19
 -1      2994 1.24099E-04-5.67004E-05-2.92595E-05-2.31161E-05-3.35425E-19 5.97535E-19
 -1      2995 9.25635E-05-1.80911E-05-3.19359E-05-6.65608E-06 7.03835E-19-5.84158E-19
 -1      2996 9.31908E-05-1.90802E-05-3.17981E-05-7.18292E-06 6.32991E-19-6.61620E-19
 -1      2997 9.40861E-05-2.10339E-05-3.12984E-05-5.88392E-06 5.52058E-19-6.17936E-19
 -1      2998 9.32424E-05-1.94220E-05-3.16136E-05-5.38693E-06 7.16738E-19-4.91182E-19
 -1      2999 1.34380E-04-4.36193E-05-3.87951E-05 6.49172E-06-9.01190E-19 4.00700E-19
 -1      3000 1.29583E-04-3.29896E-05-4.19063E-05 1.16845E-05-1.03592E-18 1.00347E-19
 -1      3001 9.52486E-05-2.43776E-05-3.03645E-05-2.86563E-06 4.78554E-19-5.05387E-19
 -1      3002 9.53637E-05-2.51939E-05-3.00820E-05-1.85816E-06 5.00188E-19-4.85043E-19
 -1      3003 9.55552E-05-2.59376E-05-2.98250E-05-1.04950E-06 4.14940E-19-5.83700E-19
 -1      3004 9.55586E-05-2.64586E-05-2.96208E-05-2.84638E-07 4.46290E-19-5.71070E-19
 -1      3005 9.53963E-05-2.50077E-05-3.01633E-05-1.54998E-06 4.02638E-19-5.48448E-19
 -1      3006 9.55946E-05-2.68858E-05-2.94382E-05 2.99003E-07 4.97817E-19-5.88592E-19
 -1      3007 9.55554E-05-2.71780E-05-2.93071E-05 8.41381E-07 3.50048E-19-4.76887E-19
 -1      3008 9.56459E-05-2.63062E-05-2.97176E-05-1.26697E-07 4.99027E-19-5.73759E-19
 -1      3009 9.54944E-05-2.73882E-05-2.91835E-05 1.25966E-06 1.62153E-19-3.98585E-19
 -1      3010 9.54366E-05-2.75165E-05-2.91081E-05 1.65872E-06 2.72777E-20-2.43616E-19
 -1      3011 9.56408E-05-2.70397E-05-2.94022E-05 9.12917E-07 3.03936E-19-6.50357E-19
 -1      3012 9.52999E-05-2.75609E-05-2.90299E-05 1.96788E-06-1.84284E-19-1.79372E-19
 -1      3013 9.52211E-05-2.75560E-05-2.89966E-05 2.29164E-06-3.00613E-19-2.64496E-21
 -1      3014 9.54617E-05-2.73541E-05-2.91898E-05 1.67398E-06-4.73085E-21-4.35376E-19
 -1      3015 9.50042E-05-2.74567E-05-2.89518E-05 2.54038E-06-2.95385E-19-1.02797E-19
 -1      3016 9.48845E-05-2.73263E-05-2.89496E-05 2.84512E-06-5.17667E-19-2.55606E-19
 -1      3017 9.51263E-05-2.73271E-05-2.90553E-05 2.25854E-06-3.55694E-19-2.34319E-19
 -1      3018 9.45607E-05-2.70822E-05-2.89266E-05 3.07114E-06-2.53981E-19-1.98017E-19
 -1      3019 9.43623E-05-2.68150E-05-2.89450E-05 3.40319E-06 1.95703E-19-3.97061E-19
 -1      3020 9.46058E-05-2.69857E-05-2.89750E-05 2.74995E-06-3.17860E-19-1.91021E-19
 -1      3021 9.39073E-05-2.64295E-05-2.89313E-05 3.62010E-06 3.38396E-19-3.62299E-19
 -1      3022 9.35993E-05-2.60258E-05-2.89577E-05 3.99533E-06 4.42140E-19-2.93437E-19
 -1      3023 9.38518E-05-2.63356E-05-2.89243E-05 3.19517E-06 2.50543E-19-4.41029E-19
 -1      3024 9.28991E-05-2.54281E-05-2.89350E-05 4.23958E-06 2.67438E-19-2.95999E-19
 -1      3025 9.23622E-05-2.48005E-05-2.89549E-05 4.72470E-06 2.36619E-19-1.97067E-19
 -1      3026 9.27361E-05-2.53252E-05-2.88717E-05 3.63694E-06 2.75554E-19-6.28469E-19
 -1      3027 9.13137E-05-2.39526E-05-2.88967E-05 4.97787E-06 4.20518E-20-5.20464E-19
 -1      3028 9.04397E-05-2.30687E-05-2.88796E-05 5.57155E-06-3.51138E-20-7.56765E-19
 -1      3029 9.10405E-05-2.38377E-05-2.87700E-05 4.07785E-06-5.51717E-20-9.22076E-19
 -1      3030 8.88870E-05-2.19172E-05-2.87409E-05 5.81052E-06 1.06598E-19-1.01269E-18
 -1      3031 8.75076E-05-2.07332E-05-2.86350E-05 6.51113E-06 4.42939E-20-1.13679E-18
 -1      3032 8.85263E-05-2.18014E-05-2.85470E-05 4.45387E-06-1.56477E-19-9.67558E-19
 -1      3033 8.52362E-05-1.92439E-05-2.83384E-05 6.69489E-06-1.94987E-19-1.28061E-18
 -1      3034 8.31373E-05-1.77620E-05-2.80505E-05 7.48803E-06-2.10612E-19-1.58260E-18
 -1      3035 8.48344E-05-1.91372E-05-2.80792E-05 4.65897E-06-2.90172E-19-1.19692E-18
 -1      3036 7.98654E-05-1.59671E-05-2.74604E-05 7.57550E-06-1.63630E-19-1.72205E-18
 -1      3037 7.68109E-05-1.43103E-05-2.68260E-05 8.46721E-06-4.31906E-19-1.99596E-18
 -1      3038 7.94916E-05-1.58480E-05-2.71540E-05 4.54511E-06-4.90161E-19-1.95242E-18
 -1      3039 7.21295E-05-1.23656E-05-2.57004E-05 8.49694E-06-4.56504E-19-1.92219E-18
 -1      3040 6.79243E-05-1.09345E-05-2.44192E-05 9.64214E-06-4.51776E-19-2.11341E-18
 -1      3041 7.18267E-05-1.20760E-05-2.53981E-05 3.95914E-06-3.87157E-19-1.98471E-18
 -1      3042 6.15789E-05-9.23226E-06-2.24263E-05 9.93213E-06-2.12949E-20-2.07282E-18
 -1      3043 5.66264E-05-9.38452E-06-2.01162E-05 1.16057E-05 4.32321E-19-2.22791E-18
 -1      3044 6.12645E-05-8.47247E-06-2.22461E-05 2.98601E-06-3.25237E-19-1.82124E-18
 -1      3045 9.51324E-05-2.83669E-05-2.86139E-05-5.14251E-08 3.83268E-19 3.81649E-18
 -1      3046 9.51252E-05-2.83609E-05-2.86137E-05-3.45801E-08 3.22059E-19 3.63633E-18
 -1      3047 9.53765E-05-2.54045E-05-2.99984E-05 1.86246E-06 1.84575E-19 1.13886E-18
 -1      3048 9.52884E-05-2.45747E-05-3.03021E-05 2.91196E-06 8.38195E-20 1.26372E-18
 -1      3049 8.08933E-05-1.60003E-05-2.78336E-05-1.00057E-05-9.01028E-19-8.99112E-20
 -1      3050 8.32283E-05-1.74614E-05-2.82598E-05-8.76704E-06-6.28027E-19-3.94074E-19
 -1      3051 8.60426E-05-1.91311E-05-2.86985E-05-8.14093E-06-5.52226E-21-1.06137E-18
 -1      3052 8.76274E-05-2.04097E-05-2.88606E-05-7.08303E-06-2.13365E-19-1.43246E-18
 -1      3053 8.21256E-05-1.68725E-05-2.78518E-05-6.05623E-06-1.00083E-18 1.51854E-20
 -1      3054 8.95386E-05-2.17550E-05-2.90613E-05-6.50369E-06 4.21071E-19-2.19309E-18
 -1      3055 9.05475E-05-2.27547E-05-2.90910E-05-5.61818E-06-4.05132E-21-1.83822E-18
 -1      3056 8.67026E-05-1.99494E-05-2.85358E-05-5.27217E-06-4.87478E-19-1.82032E-18
 -1      3057 9.17662E-05-2.37264E-05-2.91637E-05-5.12115E-06-3.18896E-19-9.29435E-19
 -1      3058 9.23545E-05-2.44312E-05-2.91360E-05-4.42979E-06-3.38572E-19-3.46275E-19
 -1      3059 8.97233E-05-2.23155E-05-2.88415E-05-4.44702E-06 4.28077E-19-1.35683E-18
 -1      3060 9.31939E-05-2.51771E-05-2.91492E-05-3.96913E-06-1.33114E-19 3.16392E-19
 -1      3061 9.35571E-05-2.57065E-05-2.90972E-05-3.39418E-06 3.84175E-20 8.53135E-19
 -1      3062 9.17319E-05-2.41037E-05-2.89531E-05-3.63370E-06 3.95661E-20-1.25937E-19
 -1      3063 9.40936E-05-2.62338E-05-2.90801E-05-3.01035E-06 4.02473E-20 1.04455E-18
 -1      3064 9.42921E-05-2.65992E-05-2.90238E-05-2.56572E-06 2.83973E-19 1.30778E-18
 -1      3065 9.30714E-05-2.54370E-05-2.89670E-05-2.88095E-06 4.03085E-20 1.75188E-18
 -1      3066 9.46281E-05-2.69650E-05-2.89949E-05-2.25481E-06 1.51452E-19 5.35282E-19
 -1      3067 9.47289E-05-2.72148E-05-2.89432E-05-1.91645E-06 6.36901E-19 5.90485E-19
 -1      3068 9.39217E-05-2.63837E-05-2.89332E-05-2.23732E-06-8.97002E-20 9.42423E-19
 -1      3069 9.49360E-05-2.74664E-05-2.89120E-05-1.67031E-06 5.03237E-19 1.11302E-18
 -1      3070 9.49811E-05-2.76363E-05-2.88679E-05-1.41568E-06 1.18556E-18 1.28016E-19
 -1      3071 9.44524E-05-2.70465E-05-2.88814E-05-1.70754E-06 7.21781E-19 9.60861E-19
 -1      3072 9.51067E-05-2.78087E-05-2.88388E-05-1.22411E-06 2.18706E-18-7.44452E-19
 -1      3073 9.51216E-05-2.79243E-05-2.88028E-05-1.03397E-06 1.91217E-18-7.66499E-19
 -1      3074 9.47787E-05-2.75074E-05-2.88266E-05-1.28332E-06 1.15525E-18 1.74590E-18
 -1      3075 9.51966E-05-2.80425E-05-2.87776E-05-8.86816E-07 6.25458E-19-1.08899E-18
 -1      3076 9.51964E-05-2.81214E-05-2.87490E-05-7.45760E-07 2.19735E-19-1.57707E-18
 -1      3077 9.49762E-05-2.78275E-05-2.87759E-05-9.50321E-07 1.01856E-18-2.27862E-20
 -1      3078 9.52388E-05-2.81991E-05-2.87291E-05-6.39290E-07 8.25370E-21-2.34545E-18
 -1      3079 9.52321E-05-2.82514E-05-2.87077E-05-5.39008E-07-8.60988E-19-2.72931E-18
 -1      3080 9.50916E-05-2.80457E-05-2.87330E-05-6.98078E-07-3.78810E-19-1.43095E-18
 -1      3081 9.52575E-05-2.83088E-05-2.86905E-05-4.53318E-07-5.94213E-19-2.22845E-18
 -1      3082 9.52484E-05-2.83472E-05-2.86732E-05-3.75515E-07 5.07918E-19-1.90886E-18
 -1      3083 9.51594E-05-2.81982E-05-2.86971E-05-5.04809E-07-5.80955E-19-1.43967E-18
 -1      3084 9.52624E-05-2.83869E-05-2.86595E-05-3.11808E-07 5.87676E-19-2.39199E-18
 -1      3085 9.52533E-05-2.84138E-05-2.86463E-05-2.54954E-07-3.11289E-19-3.17511E-18
 -1      3086 9.51993E-05-2.83089E-05-2.86671E-05-3.54252E-07-1.66640E-19-2.06704E-18
 -1      3087 9.52602E-05-2.84414E-05-2.86356E-05-2.08003E-07-4.34375E-19-2.53563E-18
 -1      3088 9.52522E-05-2.84607E-05-2.86256E-05-1.66669E-07 6.45461E-19-2.81544E-18
 -1      3089 9.52207E-05-2.83869E-05-2.86431E-05-2.42257E-07 1.14499E-19-3.33409E-18
 -1      3090 9.52565E-05-2.84806E-05-2.86174E-05-1.34294E-07 1.94293E-18-2.69092E-18
 -1      3091 9.52496E-05-2.84942E-05-2.86098E-05-1.05090E-07 1.92846E-18-6.14762E-19
 -1      3092 9.52371E-05-2.84814E-05-2.86095E-05-1.03305E-07 1.34357E-18-1.91177E-18
 -1      3093 9.52321E-05-2.84428E-05-2.86244E-05-1.61334E-07 1.50332E-18-2.18171E-18
 -1      3094 9.51573E-05-2.83911E-05-2.86140E-05-8.36873E-08 9.29764E-19 9.11428E-19
 -1      3095 9.51439E-05-2.83787E-05-2.86142E-05-7.09797E-08 4.68809E-19 2.00204E-18
 -1      3096 9.51191E-05-2.83400E-05-2.86189E-05-7.06365E-08-9.32850E-19 3.11876E-18
 -1      3097 8.55657E-05-3.72892E-05-2.03753E-05-3.85509E-05 1.78406E-20 3.11390E-19
 -1      3098 1.01837E-04-4.76388E-05-2.33107E-05-3.69912E-05-2.20440E-19 1.37113E-20
 -1      3099 9.56238E-05-2.74978E-05-2.92017E-05-7.02636E-07 9.70047E-20 1.12398E-18
 -1      3100 9.56439E-05-2.71517E-05-2.93405E-05-2.19664E-07 1.66490E-19 1.08180E-18
 -1      3101 9.55698E-05-2.66879E-05-2.95294E-05 3.38050E-07 2.36000E-19 1.13060E-18
 -1      3102 9.55744E-05-2.61505E-05-2.97373E-05 1.06977E-06 2.03813E-19 1.11314E-18
 -1      3103 9.54532E-05-2.52347E-05-3.00924E-05 1.59010E-06 1.76618E-19 9.38675E-19
 -1      3104 9.57271E-05-2.65891E-05-2.96341E-05 1.94937E-07 2.29397E-19 8.88637E-19
 -1      3105 9.59503E-05-2.90170E-05-2.86850E-05-2.14271E-06 8.81202E-20 7.21889E-19
 -1      3106 9.58292E-05-2.88490E-05-2.87007E-05-2.13160E-06 1.09668E-19 6.35506E-19
 -1      3107 9.57674E-05-2.87020E-05-2.87417E-05-2.05315E-06 9.78924E-20 5.97399E-19
 -1      3108 9.56952E-05-2.85474E-05-2.87721E-05-1.96453E-06 1.30542E-19 6.15316E-19
 -1      3109 9.59595E-05-2.87926E-05-2.87919E-05-2.13212E-06 1.25259E-20 1.02971E-18
 -1      3110 9.67326E-05-2.99280E-05-2.86325E-05-1.86499E-06 2.78367E-19 7.19981E-19
 -1      3111 9.64851E-05-2.96527E-05-2.86346E-05-2.02712E-06 2.81399E-19 7.65834E-19
 -1      3112 9.74000E-05-3.06125E-05-2.86280E-05-1.41963E-06 5.12459E-19 4.47861E-19
 -1      3113 9.70806E-05-3.02621E-05-2.86257E-05-1.70400E-06 3.56417E-19 6.17586E-19
 -1      3114 9.70740E-05-3.02828E-05-2.86357E-05-2.05564E-06 3.69654E-19 4.58323E-19
 -1      3115 9.82712E-05-3.14542E-05-2.86446E-05-6.77114E-07-1.70257E-19 6.39128E-19
 -1      3116 9.78895E-05-3.10425E-05-2.86346E-05-1.11795E-06 8.65971E-20 2.88911E-19
 -1      3117 9.79090E-05-3.11316E-05-2.86318E-05-1.64023E-06 2.49966E-19 3.34366E-19
 -1      3118 9.93076E-05-3.23749E-05-2.86987E-05 4.42539E-07-3.63427E-19 1.68761E-18
 -1      3119 9.88989E-05-3.19548E-05-2.86735E-05-1.83688E-07-2.84784E-19 1.12257E-18
 -1      3120 9.90280E-05-3.21699E-05-2.86671E-05-8.97754E-07-5.51439E-19 9.87278E-19
 -1      3121 1.00391E-04-3.31911E-05-2.88169E-05 1.98774E-06-5.73954E-19 2.17935E-18
 -1      3122 1.00027E-04-3.28697E-05-2.87646E-05 1.17337E-06-3.93400E-19 1.74066E-18
 -1      3123 1.00386E-04-3.32887E-05-2.87675E-05 2.77253E-07-6.48969E-19 1.62673E-18
 -1      3124 1.01299E-04-3.35979E-05-2.90321E-05 3.91163E-06-2.10106E-19 1.90244E-18
 -1      3125 1.01090E-04-3.35373E-05-2.89387E-05 2.96428E-06-2.85602E-19 2.01503E-18
 -1      3126 1.01827E-04-3.42421E-05-2.89699E-05 1.95729E-06-2.26903E-19 1.32718E-18
 -1      3127 1.01722E-04-3.32087E-05-2.93734E-05 5.98784E-06-4.98341E-19 1.31021E-18
 -1      3128 1.01794E-04-3.35945E-05-2.92281E-05 5.05470E-06-2.96551E-19 1.74827E-18
 -1      3129 1.03057E-04-3.46375E-05-2.93161E-05 4.09690E-06-1.89444E-19 1.30520E-18
 -1      3130 1.01350E-04-3.16918E-05-2.98479E-05 7.73644E-06-7.06550E-19 1.21109E-18
 -1      3131 1.01793E-04-3.26485E-05-2.96513E-05 7.07473E-06-6.03217E-19 1.30878E-18
 -1      3132 1.03661E-04-3.39922E-05-2.98368E-05 6.41951E-06-4.14436E-19 1.19737E-18
 -1      3133 1.00065E-04-2.90131E-05-3.04216E-05 8.45788E-06-1.28798E-18 1.51399E-18
 -1      3134 1.00848E-04-3.04861E-05-3.01923E-05 8.38976E-06-1.23471E-18 1.41801E-18
 -1      3135 1.03247E-04-3.19480E-05-3.05247E-05 8.31741E-06-1.19198E-18 1.08904E-18
 -1      3136 9.81416E-05-2.56964E-05-3.10037E-05 7.42981E-06-1.17250E-18 1.93423E-18
 -1      3137 9.90512E-05-2.73289E-05-3.07853E-05 8.22550E-06-1.08965E-18 1.76982E-18
 -1      3138 1.01710E-04-2.85786E-05-3.13141E-05 8.92685E-06-1.49993E-18 1.45663E-18
 -1      3139 9.63545E-05-2.28739E-05-3.14530E-05 4.42264E-06-9.05293E-19 1.65548E-18
 -1      3140 9.70417E-05-2.40865E-05-3.13036E-05 6.06193E-06-8.26332E-19 2.02499E-18
 -1      3141 9.95321E-05-2.47129E-05-3.20587E-05 7.39108E-06-1.06845E-18 1.61248E-18
 -1      3142 9.55768E-05-2.17382E-05-3.16352E-05 3.21547E-08 4.06105E-19 1.05164E-18
 -1      3143 9.57294E-05-2.20079E-05-3.16019E-05 2.13502E-06-4.11885E-19 9.57359E-19
 -1      3144 9.77366E-05-2.18051E-05-3.25649E-05 3.64729E-06-1.78273E-19 1.37600E-18
 -1      3145 9.62481E-05-2.28237E-05-3.14927E-05-4.40938E-06 6.21501E-19 1.26359E-18
 -1      3146 9.57965E-05-2.20350E-05-3.15855E-05-2.46277E-06 4.47260E-19 1.19500E-18
 -1      3147 9.73122E-05-2.11257E-05-3.26756E-05-1.35409E-06 9.07947E-20 3.74935E-19
 -1      3148 9.80317E-05-2.56265E-05-3.10754E-05-7.53927E-06 5.83409E-19 2.16049E-18
 -1      3149 9.71871E-05-2.41390E-05-3.12615E-05-6.29245E-06 9.69741E-19 1.96156E-18
 -1      3150 9.85122E-05-2.30150E-05-3.23574E-05-5.90900E-06 4.71681E-19 9.97107E-19
 -1      3151 1.00044E-04-2.89527E-05-3.05120E-05-8.68876E-06 6.24358E-19 1.89318E-18
 -1      3152 9.91554E-05-2.73491E-05-3.07372E-05-8.33984E-06 8.00942E-19 2.11188E-18
 -1      3153 1.00644E-04-2.65899E-05-3.17170E-05-8.59358E-06 6.99334E-19 1.99995E-18
 -1      3154 1.01438E-04-3.16353E-05-2.99424E-05-8.05410E-06 8.14729E-19 1.80695E-18
 -1      3155 1.00810E-04-3.04156E-05-3.01537E-05-8.43671E-06 9.29058E-19 2.09427E-18
 -1      3156 1.02588E-04-3.03317E-05-3.09359E-05-8.99703E-06 5.64407E-19 2.48470E-18
 -1      3157 1.01885E-04-3.31459E-05-2.94665E-05-6.35053E-06 4.36479E-19 1.65344E-18
 -1      3158 1.01632E-04-3.24998E-05-2.96321E-05-7.15539E-06 5.69900E-19 1.61199E-18
 -1      3159 1.03548E-04-3.30338E-05-3.01921E-05-7.67139E-06 6.10355E-19 2.42685E-18
 -1      3160 1.01480E-04-3.35031E-05-2.91242E-05-4.30978E-06 3.77239E-19 1.03735E-18
 -1      3161 1.01561E-04-3.33812E-05-2.92352E-05-5.23345E-06 3.35642E-19 1.51478E-18
 -1      3162 1.03387E-04-3.43014E-05-2.95935E-05-5.52561E-06 3.61190E-19 1.12736E-18
 -1      3163 1.00544E-04-3.30503E-05-2.89095E-05-2.43846E-06 4.51093E-19 1.32568E-18
 -1      3164 1.00841E-04-3.32807E-05-2.89730E-05-3.27981E-06 6.29662E-19 1.14829E-18
 -1      3165 1.02386E-04-3.43134E-05-2.91735E-05-3.32563E-06 3.92806E-19 1.39465E-18
 -1      3166 9.94109E-05-3.21852E-05-2.87929E-05-9.74170E-07 3.46135E-19 1.54285E-18
 -1      3167 9.98014E-05-3.25861E-05-2.88227E-05-1.63773E-06 3.39973E-19 1.31007E-18
 -1      3168 1.00976E-04-3.35313E-05-2.89135E-05-1.50236E-06 2.91229E-19 1.99437E-18
 -1      3169 9.83184E-05-3.12195E-05-2.87404E-05 3.83979E-08 7.46723E-19 1.99478E-18
 -1      3170 9.87112E-05-3.16547E-05-2.87504E-05-4.28127E-07 7.73674E-19 1.66085E-18
 -1      3171 9.95183E-05-3.24107E-05-2.87729E-05-1.96098E-07 4.22362E-19 1.52046E-18
 -1      3172 9.73923E-05-3.03417E-05-2.87231E-05 6.56230E-07-5.19701E-19 2.75001E-18
 -1      3173 9.77365E-05-3.07314E-05-2.87241E-05 3.64659E-07 3.82796E-19 2.43723E-18
 -1      3174 9.82325E-05-3.12732E-05-2.87095E-05 6.25743E-07 3.80137E-19 1.52895E-18
 -1      3175 9.66728E-05-2.96362E-05-2.87208E-05 9.71459E-07-6.67148E-19 2.40546E-18
 -1      3176 9.69489E-05-2.99463E-05-2.87197E-05 8.16933E-07-7.79107E-19 2.47069E-18
 -1      3177 9.72097E-05-3.02940E-05-2.86890E-05 1.06582E-06-7.17251E-19 1.60631E-18
 -1      3178 9.61500E-05-2.91195E-05-2.87213E-05 1.07625E-06 6.35423E-19 2.74032E-18
 -1      3179 9.63580E-05-2.93450E-05-2.87218E-05 1.01923E-06 1.06887E-19 2.23439E-18
 -1      3180 9.64568E-05-2.95380E-05-2.86879E-05 1.23626E-06-2.33835E-19 6.35932E-19
 -1      3181 9.57908E-05-2.87717E-05-2.87188E-05 1.04782E-06 3.45611E-19 3.77000E-18
 -1      3182 9.59402E-05-2.89226E-05-2.87222E-05 1.05410E-06 8.04918E-19 3.44969E-18
 -1      3183 9.59379E-05-2.90040E-05-2.86920E-05 1.23364E-06 4.77457E-20 2.59572E-18
 -1      3184 9.55559E-05-2.85577E-05-2.87116E-05 9.44355E-07 5.24926E-19 3.46713E-18
 -1      3185 9.56594E-05-2.86501E-05-2.87177E-05 9.87410E-07 8.64503E-19 3.58096E-18
 -1      3186 9.56017E-05-2.86582E-05-2.86942E-05 1.13135E-06 1.02607E-19 3.43137E-18
 -1      3187 9.54095E-05-2.84411E-05-2.86999E-05 8.06347E-07-9.02355E-19 3.73543E-18
 -1      3188 9.54791E-05-2.84912E-05-2.87081E-05 8.67221E-07-2.60752E-19 4.06087E-18
 -1      3189 9.53973E-05-2.84560E-05-2.86918E-05 9.80614E-07-5.38143E-20 3.55070E-18
 -1      3190 9.53227E-05-2.83901E-05-2.86853E-05 6.60013E-07-1.55256E-18 3.28996E-18
 -1      3191 9.53686E-05-2.84118E-05-2.86945E-05 7.26098E-07-1.29512E-18 3.84929E-18
 -1      3192 9.52823E-05-2.83551E-05-2.86847E-05 8.14609E-07-1.35878E-18 3.21649E-18
 -1      3193 9.52743E-05-2.83800E-05-2.86692E-05 5.21042E-07 8.73801E-19 1.44723E-18
 -1      3194 9.53039E-05-2.83842E-05-2.86787E-05 5.84604E-07-3.95513E-19 2.80748E-18
 -1      3195 9.52245E-05-2.83204E-05-2.86741E-05 6.53372E-07-5.10059E-19 1.59167E-18
 -1      3196 9.52491E-05-2.83931E-05-2.86530E-05 3.97718E-07 1.28846E-18 1.65161E-18
 -1      3197 9.52681E-05-2.83873E-05-2.86621E-05 4.54551E-07 1.63849E-18 1.60902E-18
 -1      3198 9.52007E-05-2.83254E-05-2.86614E-05 5.07850E-07 1.01218E-18 2.09164E-18
 -1      3199 9.52374E-05-2.84172E-05-2.86377E-05 2.93458E-07 9.50129E-19 4.22982E-19
 -1      3200 9.52495E-05-2.84068E-05-2.86459E-05 3.41705E-07 1.11026E-18 5.67634E-19
 -1      3201 9.51957E-05-2.83515E-05-2.86478E-05 3.82920E-07 1.57321E-18 2.22277E-18
 -1      3202 9.52328E-05-2.84449E-05-2.86239E-05 2.08631E-07 2.38034E-18 4.62437E-20
 -1      3203 9.52406E-05-2.84329E-05-2.86310E-05 2.47965E-07 1.36055E-18 2.76909E-19
 -1      3204 9.51998E-05-2.83864E-05-2.86345E-05 2.79766E-07 1.26615E-18 1.01459E-18
 -1      3205 9.52317E-05-2.84717E-05-2.86117E-05 1.42293E-07 8.21944E-19 5.76021E-19
 -1      3206 9.52367E-05-2.84603E-05-2.86178E-05 1.72840E-07 1.90226E-18 5.20661E-19
 -1      3207 9.52072E-05-2.84228E-05-2.86220E-05 1.97346E-07 1.42394E-18 8.33550E-19
 -1      3208 9.52314E-05-2.84919E-05-2.86026E-05 9.79126E-08 7.81276E-19-5.83451E-19
 -1      3209 9.52351E-05-2.84829E-05-2.86076E-05 1.20375E-07 5.17500E-19-9.67748E-20
 -1      3210 9.52139E-05-2.84526E-05-2.86119E-05 1.39751E-07 1.19499E-18 1.56373E-18
 -1      3211 9.52203E-05-2.84779E-05-2.86039E-05 1.00229E-07 1.28471E-18-1.92937E-18
 -1      3212 9.51251E-05-2.83654E-05-2.86118E-05 2.93255E-08 1.62684E-18-3.31713E-19
 -1      3213 9.51316E-05-2.83725E-05-2.86110E-05 4.62715E-08 1.77667E-18-2.80401E-18
 -1      3214 9.51916E-05-2.84272E-05-2.86129E-05-1.02792E-07 1.18397E-18-1.21125E-18
 -1      3215 9.51743E-05-2.84107E-05-2.86137E-05-9.62174E-08 1.15070E-18 4.46303E-19
 -1      3216 9.51518E-05-2.83720E-05-2.86193E-05-1.05814E-07 5.08341E-19 9.74914E-19
 -1      3217 9.52211E-05-2.84618E-05-2.86115E-05-1.06558E-07 9.42059E-19-2.39994E-18
 -1      3218 5.63683E-05-1.75887E-05-1.60671E-05-3.00649E-05 2.30816E-20 6.20558E-19
 -1      3219 6.87145E-05-2.59507E-05-1.82006E-05-3.55638E-05-9.71176E-20 1.12973E-18
 -1      3220 7.39877E-05-3.04201E-05-1.88781E-05 3.85230E-05-5.55177E-19 1.97380E-18
 -1      3221 6.04993E-05-2.07613E-05-1.64814E-05 3.33855E-05-1.35790E-18 1.52651E-18
 -1      3222 9.51213E-05-2.83582E-05-2.86131E-05-1.17185E-08 9.34886E-19 1.53175E-18
 -1      3223 9.51210E-05-2.83589E-05-2.86126E-05 6.92269E-09 1.48208E-18 7.61512E-19
 -1      3224 9.51022E-05-2.83295E-05-2.86163E-05 2.34245E-08 1.61414E-18 2.28439E-19
 -1      3225 9.51019E-05-2.83254E-05-2.86178E-05-2.50079E-08 4.01305E-19 2.68736E-18
 -1      3226 1.07888E-04-4.95420E-05-2.51465E-05 3.26734E-05-8.29563E-20-1.37299E-19
 -1      3227 9.20956E-05-4.04842E-05-2.15603E-05 3.76823E-05-2.27322E-19-9.76735E-20
 -1      3228 4.23604E-05-7.05097E-06-1.47536E-05-8.69660E-06 1.62524E-20-1.06631E-18
 -1      3229 4.69112E-05-1.17297E-05-1.47887E-05-2.29134E-05 2.64433E-20-4.84926E-20
 -1      3230 4.20032E-05-5.93420E-06-1.51439E-05-6.14142E-07-1.45721E-18 3.57183E-18
 -1      3231 4.65190E-05-8.71429E-06-1.58793E-05-1.36914E-05-7.71779E-19 3.38919E-18
 -1      3232 4.12945E-05-1.18264E-05-1.18723E-05 1.71108E-05 2.44581E-20-2.50764E-18
 -1      3233 4.30646E-05-8.31590E-06-1.43988E-05 9.75127E-06 3.33837E-19-2.66709E-18
 -1      3234 1.30891E-04-5.61497E-05-3.23986E-05 1.32030E-05 4.74233E-19-7.40889E-20
 -1      3235 1.21941E-04-5.47063E-05-2.86489E-05 2.27959E-05 1.18399E-19-1.96988E-19
 -1      3236 9.62597E-05-2.94075E-05-2.86511E-05-2.08830E-06 1.33017E-19 1.01524E-18
 -1      3237 9.60800E-05-2.91971E-05-2.86582E-05-2.15588E-06 1.60962E-19 7.08343E-19
 -1      3238 9.61510E-05-2.91645E-05-2.87157E-05-2.25324E-06 1.24276E-19 1.12416E-18
 -1      3239 9.65040E-05-2.96397E-05-2.86650E-05-2.23835E-06 2.79886E-19 7.55886E-19
 -1      3240 7.38134E-05-1.29885E-05-2.60417E-05-1.22061E-05 2.89149E-19 1.15429E-18
 -1      3241 7.68783E-05-1.42047E-05-2.69528E-05-1.07878E-05-2.27306E-19 1.63775E-19
 -1      3242 7.54687E-05-1.32519E-05-2.64765E-05-6.76719E-06-7.67155E-19 3.64997E-19
 -1      3243 9.53456E-05-2.44971E-05-3.03887E-05 4.62041E-06 5.13150E-20 1.83645E-18
 -1      3244 5.00234E-05-1.31616E-05-1.56258E-05 2.56073E-05-1.79754E-18 1.31068E-18
 -1      3245 4.34739E-05-7.49366E-06-1.49799E-05 1.23765E-05-1.96662E-18 2.68044E-18
 -1      3246 1.19192E-04-8.78789E-06-4.76869E-05 5.85774E-06 4.31669E-19 1.23084E-18
 -1      3247 1.17250E-04-7.36310E-06-4.75479E-05 2.73340E-07 7.82976E-19 8.40463E-19
 -1      3248 5.36138E-05-1.47089E-05-1.61486E-05 2.26124E-05 6.48933E-19-2.19540E-18
 -1      3249 1.35278E-04-4.53046E-05-3.90794E-05-4.63612E-06 1.71956E-18-1.17494E-18
 -1      3250 1.34815E-04-5.14009E-05-3.55967E-05 2.76035E-06 1.33336E-18-1.55007E-19
 -1      3251 9.21917E-05-1.80442E-05-3.17923E-05 1.69591E-06 8.75681E-19 3.91909E-19
 -1      3252 9.20583E-05-1.78285E-05-3.18253E-05 9.77417E-07 9.34900E-19 3.43223E-19
 -1      3253 1.24216E-04-2.16516E-05-4.42061E-05 1.25252E-05-4.30399E-19 4.67589E-19
 -1      3254 1.21450E-04-1.38840E-05-4.65764E-05 9.95549E-06 1.10326E-19 1.33818E-18
 -1      3255 1.16268E-04-1.37776E-05-4.42344E-05 8.08916E-06 1.20543E-19 8.51625E-19
 -1      3256 5.88777E-05-1.36110E-05-1.89335E-05-2.19541E-05-1.54822E-19 2.31796E-18
 -1      3257 6.58548E-05-1.23786E-05-2.27713E-05-1.76284E-05 4.11076E-20 1.67652E-18
 -1      3258 6.82828E-05-1.14641E-05-2.43685E-05-1.43121E-05 7.58455E-19 1.44959E-18
 -1      3259 1.31680E-04-5.58126E-05-3.22311E-05-1.26954E-05-6.53559E-19 4.32410E-19
 -1      3260 1.34417E-04-5.24444E-05-3.57054E-05-3.28200E-06-9.04922E-19 5.04355E-19
 -1      3261 9.45763E-05-2.22506E-05-3.10011E-05-4.96220E-06 5.00140E-19-5.73534E-19
 -1      3262 9.49421E-05-2.35613E-05-3.05981E-05-3.60855E-06 4.50833E-19-5.14504E-19
 -1      3263 9.48789E-05-2.33220E-05-3.06665E-05-3.14522E-06 4.65041E-19-4.39019E-19
 -1      3264 9.41165E-05-2.13649E-05-3.11861E-05-4.82994E-06 5.67417E-19-4.49963E-19
 -1      3265 1.29124E-04-2.71159E-05-4.41890E-05-1.24618E-05 2.54957E-18-1.14815E-18
 -1      3266 1.33600E-04-3.67839E-05-4.15985E-05-1.00730E-05 2.42913E-18-1.33725E-18
 -1      3267 1.30471E-04-4.05168E-05-3.86833E-05-8.20424E-06 1.59285E-18-2.08873E-18
 -1      3268 9.47631E-05-2.28861E-05-3.07927E-05 4.71434E-06 1.09178E-19 1.53732E-18
 -1      3269 4.99276E-05-7.39474E-06-1.78318E-05 4.89482E-06-2.20501E-18 2.51627E-18
 -1      3270 1.08295E-04-4.84601E-05-2.54208E-05-2.99426E-05-8.15005E-20 6.87685E-20
 -1      3271 1.30841E-04-4.65808E-05-3.61364E-05 2.81007E-06-6.64180E-19-1.46643E-20
 -1      3272 1.24217E-04-2.25744E-05-4.39128E-05-1.27920E-05 2.20117E-18-2.10382E-19
 -1      3273 1.22698E-04-2.76468E-05-4.07915E-05-1.25960E-05 2.16285E-18-5.70794E-19
 -1      3274 1.17804E-04-1.81693E-05-4.29662E-05-1.15538E-05 2.00461E-18-4.01547E-19
 -1      3275 5.84510E-05-1.44643E-05-1.80330E-05 2.38768E-05 8.05158E-19-2.35369E-18
 -1      3276 8.56217E-05-3.43799E-05-2.16523E-05 3.41110E-05-8.54153E-19 8.55980E-19
 -1      3277 9.49046E-05-2.34349E-05-3.06206E-05 3.06382E-06 2.05746E-19 1.01806E-18
 -1      3278 9.50006E-05-2.36463E-05-3.05622E-05 3.54470E-06 8.58764E-20 1.34062E-18
 -1      3279 9.56754E-05-2.83968E-05-2.88339E-05-1.81383E-06 3.13130E-19 7.25613E-19
 -1      3280 9.56438E-05-2.82222E-05-2.88879E-05-1.63279E-06 3.36738E-19 9.35747E-19
 -1      3281 9.58757E-05-2.84460E-05-2.89039E-05-1.87378E-06 2.52895E-19 8.46637E-19
 -1      3282 9.29249E-05-1.92430E-05-3.15880E-05-3.40978E-06 7.61703E-19-8.34290E-20
 -1      3283 9.33116E-05-1.99061E-05-3.14786E-05-3.98947E-06 7.15675E-19-3.36116E-19
 -1      3284 1.23343E-04-3.36224E-05-3.85330E-05 1.11857E-05-9.48650E-19 2.09786E-19
 -1      3285 1.24864E-04-2.85060E-05-4.15395E-05 1.29355E-05-9.36421E-19 3.82224E-19
 -1      3286 1.18526E-04-2.40776E-05-4.06988E-05 1.26685E-05-4.18699E-19 1.78645E-19
 -1      3287 9.51702E-05-2.84191E-05-2.86081E-05 8.97227E-08 1.38073E-18-1.70241E-18
 -1      3288 9.51853E-05-2.84351E-05-2.86069E-05 9.63253E-08 1.81008E-18-1.10753E-18
 -1      3289 7.45466E-05-2.52316E-05-2.11236E-05-2.98316E-05-5.97820E-20 7.05076E-19
 -1      3290 8.00213E-05-3.16605E-05-2.04144E-05-3.50942E-05-8.86208E-20 3.88550E-19
 -1      3291 8.97819E-05-3.63670E-05-2.30280E-05-3.19367E-05-4.78177E-20-1.92594E-19
 -1      3292 9.56411E-05-2.77917E-05-2.90685E-05-1.08095E-06 1.62193E-19 9.76891E-19
 -1      3293 9.58214E-05-2.74602E-05-2.93024E-05-7.85024E-07 2.26177E-19 6.54767E-19
 -1      3294 9.56403E-05-2.80259E-05-2.89795E-05-1.38707E-06 2.92637E-19 9.58570E-19
 -1      3295 1.15592E-04-5.19641E-05-2.71409E-05 2.59465E-05-7.52801E-20-5.03267E-19
 -1      3296 1.06998E-04-4.62475E-05-2.60410E-05 2.70128E-05-1.00125E-18-5.55640E-19
 -1      3297 1.19128E-04-5.12173E-05-2.90676E-05 1.78094E-05-8.00327E-19-6.54116E-19
 -1      3298 9.52038E-05-2.84273E-05-2.86181E-05-1.26776E-07 1.77171E-18-1.79028E-18
 -1      3299 9.51425E-05-2.83867E-05-2.86101E-05 6.48339E-08 1.37859E-18-3.98162E-18
 -1      3300 9.51543E-05-2.83991E-05-2.86092E-05 7.75120E-08 1.16965E-18-2.98201E-18
 -1      3301 9.51488E-05-2.83852E-05-2.86127E-05 9.96486E-08 7.98892E-19-2.04642E-18
 -1      3302 9.52084E-05-2.84643E-05-2.86049E-05 9.94395E-08 1.73866E-18-2.25322E-19
 -1      3303 9.51191E-05-2.83506E-05-2.86146E-05 6.70096E-08 1.84500E-18-2.93907E-18
 -1      3304 9.33539E-05-2.00216E-05-3.14514E-05 4.03072E-06 5.21865E-19 8.22593E-19
 -1      3305 9.29709E-05-1.93396E-05-3.15659E-05 3.44672E-06 6.31388E-19 7.35780E-19
 -1      3306 9.42469E-05-2.17832E-05-3.10418E-05 3.36334E-06 3.25160E-19 8.69764E-19
 -1      3307 1.15843E-04-9.12208E-06-4.61600E-05-3.24114E-06 9.94840E-19 7.72640E-19
 -1      3308 1.14098E-04-1.18116E-05-4.41049E-05-6.54333E-06 1.34747E-18 6.51863E-19
 -1      3309 1.11950E-04-9.61220E-06-4.39718E-05-2.63807E-07 5.74288E-19 1.41027E-18
 -1      3310 5.69687E-05-1.44913E-05-1.80030E-05-2.28774E-05 1.28325E-19 3.62689E-19
 -1      3311 9.51916E-05-2.84358E-05-2.86098E-05 1.16503E-07 1.58169E-18-4.18397E-19
 -1      3312 6.06230E-05-1.66263E-05-1.84414E-05 2.56738E-05-1.30243E-18 2.10673E-18
 -1      3313 1.29954E-04-5.19310E-05-3.34675E-05 5.75268E-06 1.97465E-19-1.13505E-18
 -1      3314 4.62333E-05-6.19855E-06-1.65364E-05 6.60972E-08 2.01534E-19-2.16782E-18
 -1      3315 5.14921E-05-7.64514E-06-1.85750E-05-5.45470E-06-1.86678E-20-8.53386E-19
 -1      3316 5.13297E-05-8.01784E-06-1.82515E-05 1.05762E-05 5.78702E-19-2.56487E-18
 -1      3317 6.60350E-05-9.89845E-06-2.38451E-05-8.85037E-06-6.14165E-20 1.19076E-18
 -1      3318 9.23877E-05-1.83668E-05-3.17355E-05 2.27056E-06 7.95716E-19 5.68874E-19
 -1      3319 9.31601E-05-1.96875E-05-3.14691E-05 1.64528E-06 7.59785E-19 4.26326E-19
 -1      3320 9.26488E-05-1.88011E-05-3.16674E-05 2.94520E-06 7.60945E-19 6.68060E-19
 -1      3321 1.25666E-04-5.42772E-05-3.05313E-05-1.55028E-05-3.15705E-19 3.83852E-19
 -1      3322 6.16353E-05-1.18709E-05-2.10612E-05-1.73532E-05-5.22540E-19 2.05998E-18
 -1      3323 9.23560E-05-1.83006E-05-3.17498E-05-2.23803E-06 9.03581E-19 2.33815E-19
 -1      3324 9.26134E-05-1.87247E-05-3.16852E-05-2.91127E-06 8.82747E-19 8.11685E-20
 -1      3325 9.35829E-05-2.04318E-05-3.13295E-05-2.60370E-06 6.86500E-19 9.10645E-20
 -1      3326 9.29081E-05-1.92542E-05-3.15474E-05 5.59036E-07 8.17308E-19 3.61711E-19
 -1      3327 9.19884E-05-1.77140E-05-3.18450E-05 3.73151E-07 1.02549E-18 4.63097E-19
 -1      3328 9.19840E-05-1.77059E-05-3.18469E-05-3.55411E-07 1.11651E-18 4.02997E-19
 -1      3329 5.54595E-05-7.59719E-06-2.01019E-05-9.29614E-06-5.23916E-19 2.92915E-18
 -1      3330 1.25142E-04-3.61467E-05-3.85493E-05-1.07930E-05 1.40427E-18-1.93346E-18
 -1      3331 1.27514E-04-4.21872E-05-3.64327E-05-7.07767E-06 8.90629E-19-2.47351E-18
 -1      3332 9.49913E-05-2.36918E-05-3.05568E-05 2.32603E-06 3.37101E-19 8.37654E-19
 -1      3333 9.46641E-05-2.28128E-05-3.08046E-05 2.90299E-06 3.09834E-19 8.48839E-19
 -1      3334 9.43518E-05-2.20995E-05-3.09648E-05 2.65087E-06 5.07530E-19 5.85592E-19
 -1      3335 9.56355E-05-2.57228E-05-2.99567E-05-5.24856E-07 4.28937E-19-3.30020E-19
 -1      3336 9.56931E-05-2.62584E-05-2.97656E-05 8.90354E-08 4.20766E-19-3.87641E-19
 -1      3337 9.57377E-05-2.66816E-05-2.95903E-05 5.30592E-07 3.11626E-19-5.41579E-19
 -1      3338 9.56882E-05-2.69699E-05-2.94562E-05 9.78713E-07 2.93592E-19-6.06411E-19
 -1      3339 9.57177E-05-2.61524E-05-2.98111E-05 1.81868E-07 2.58950E-19-2.74011E-19
 -1      3340 9.55959E-05-2.71582E-05-2.93276E-05 1.29606E-06 1.64543E-19-5.41886E-19
 -1      3341 9.54643E-05-2.72510E-05-2.92379E-05 1.62746E-06-7.52269E-20-6.00794E-19
 -1      3342 9.56785E-05-2.68406E-05-2.94996E-05 9.52310E-07 1.92478E-19-4.99343E-19
 -1      3343 9.52494E-05-2.72454E-05-2.91449E-05 1.85412E-06-1.98774E-19-2.90044E-19
 -1      3344 9.50344E-05-2.71704E-05-2.90877E-05 2.11323E-06-2.97615E-19-2.41696E-19
 -1      3345 9.53814E-05-2.70778E-05-2.92692E-05 1.49972E-06 2.94532E-20-3.76536E-19
 -1      3346 9.46914E-05-2.69903E-05-2.90184E-05 2.27355E-06-4.16650E-19-1.94298E-19
 -1      3347 9.43662E-05-2.67529E-05-2.89814E-05 2.49204E-06-3.02284E-19-1.29651E-19
 -1      3348 9.48399E-05-2.69314E-05-2.90971E-05 1.87735E-06-1.78880E-19-2.07950E-19
 -1      3349 9.38945E-05-2.64196E-05-2.89252E-05 2.59298E-06 4.17025E-20-1.44049E-19
 -1      3350 9.34417E-05-2.60346E-05-2.88964E-05 2.78037E-06 3.06742E-19-1.41840E-19
 -1      3351 9.40476E-05-2.64455E-05-2.89613E-05 2.11006E-06-4.02953E-20 7.31492E-20
 -1      3352 9.27489E-05-2.55018E-05-2.88313E-05 2.82811E-06 2.31549E-19-3.15359E-19
 -1      3353 9.20437E-05-2.49017E-05-2.87889E-05 3.00227E-06 7.04253E-20-6.78441E-19
 -1      3354 9.29198E-05-2.56118E-05-2.88288E-05 2.20484E-06 3.86217E-20-2.17614E-19
 -1      3355 9.10668E-05-2.41515E-05-2.86938E-05 2.95816E-06-2.10026E-19-5.50058E-19
 -1      3356 9.00169E-05-2.33148E-05-2.86108E-05 3.08355E-06-1.61314E-19-6.96951E-19
 -1      3357 9.12994E-05-2.43720E-05-2.86558E-05 2.10907E-06 6.99303E-20-6.19160E-19
 -1      3358 8.86507E-05-2.23186E-05-2.84496E-05 2.88666E-06-1.35747E-19-7.27213E-19
 -1      3359 8.70981E-05-2.12084E-05-2.82792E-05 2.90724E-06-2.36739E-21-8.73988E-19
 -1      3360 8.90329E-05-2.27036E-05-2.83859E-05 1.70479E-06-1.76173E-20-6.95024E-19
 -1      3361 8.52006E-05-1.99488E-05-2.79941E-05 2.45531E-06-9.70026E-20-1.08142E-18
 -1      3362 8.29295E-05-1.85449E-05-2.76580E-05 2.27898E-06-5.47091E-19-1.36267E-18
 -1      3363 8.58849E-05-2.05834E-05-2.79265E-05 7.96355E-07-3.25637E-19-1.36686E-18
 -1      3364 8.03097E-05-1.70427E-05-2.71534E-05 1.43065E-06-6.22002E-19-8.93387E-19
 -1      3365 7.70334E-05-1.53748E-05-2.65151E-05 9.32709E-07-5.05500E-19-1.02807E-18
 -1      3366 8.15446E-05-1.80354E-05-2.71296E-05-9.14537E-07-4.54418E-19-1.11504E-18
 -1      3367 7.34755E-05-1.37898E-05-2.56262E-05-4.73802E-07-4.63923E-19-7.84644E-19
 -1      3368 6.88378E-05-1.19792E-05-2.44489E-05-1.49655E-06-2.58967E-19-8.40978E-19
 -1      3369 7.56167E-05-1.52131E-05-2.57432E-05-3.79321E-06-2.56944E-19 3.55946E-19
 -1      3370 6.40707E-05-1.03850E-05-2.30379E-05-2.80225E-06-1.10584E-19-8.12622E-19
 -1      3371 5.79435E-05-8.85443E-06-2.10269E-05-4.23287E-06-6.12114E-21-5.47580E-19
 -1      3372 5.65423E-05-9.47230E-06-1.96265E-05-1.20602E-05-4.11572E-20 5.27013E-20
 -1      3373 6.76883E-05-1.21457E-05-2.34557E-05-7.52817E-06-1.87570E-19 3.29787E-19
 -1      3374 1.28049E-04-4.86739E-05-3.37901E-05-1.54185E-07-4.10295E-19 1.77559E-19
 -1      3375 1.26077E-04-4.20121E-05-3.62942E-05 7.24431E-06-7.94437E-19-6.50296E-20
 -1      3376 6.77811E-05-2.03502E-05-2.03921E-05 2.76606E-05-1.39762E-18 2.19498E-18
 -1      3377 5.99019E-05-1.32990E-05-1.97490E-05 1.95528E-05-2.11931E-18 2.58125E-18
 -1      3378 9.50978E-05-2.83079E-05-2.86244E-05-9.27896E-08-2.48981E-19 3.50032E-18
 -1      3379 9.50834E-05-2.82957E-05-2.86238E-05-7.02136E-08-6.42064E-19 3.20707E-18
 -1      3380 8.44755E-05-1.89986E-05-2.81103E-05-3.39190E-06-1.29642E-18 1.20098E-18
 -1      3381 8.64011E-05-2.03214E-05-2.83533E-05-3.16873E-06-5.65592E-19-1.57522E-19
 -1      3382 8.80566E-05-2.14804E-05-2.85633E-05-3.26919E-06 2.54748E-19 1.47667E-19
 -1      3383 8.92878E-05-2.24562E-05-2.86667E-05-2.97908E-06 7.66905E-19 4.69249E-19
 -1      3384 8.64602E-05-2.05204E-05-2.81993E-05-1.59676E-06 2.21441E-19 2.62692E-18
 -1      3385 9.05061E-05-2.33992E-05-2.87777E-05-2.93061E-06 5.74465E-19 4.64828E-20
 -1      3386 9.13585E-05-2.41699E-05-2.88134E-05-2.61015E-06 3.17467E-19 7.76219E-19
 -1      3387 8.92475E-05-2.25650E-05-2.85381E-05-1.88081E-06 7.98475E-19 1.32761E-18
 -1      3388 9.21906E-05-2.48734E-05-2.88600E-05-2.48245E-06 1.65645E-19 9.73924E-19
 -1      3389 9.27353E-05-2.54303E-05-2.88583E-05-2.18181E-06 9.83776E-20 1.18636E-18
 -1      3390 9.12305E-05-2.41804E-05-2.87085E-05-1.85734E-06 6.45671E-19 1.88421E-18
 -1      3391 9.32964E-05-2.59427E-05-2.88705E-05-2.02533E-06 1.20007E-19 2.53884E-18
 -1      3392 9.36388E-05-2.63399E-05-2.88521E-05-1.76253E-06-2.16747E-19 2.20585E-18
 -1      3393 9.25810E-05-2.53912E-05-2.87776E-05-1.66888E-06 7.79302E-19 2.31565E-18
 -1      3394 9.40136E-05-2.67080E-05-2.88469E-05-1.60593E-06 2.40929E-19 2.53090E-18
 -1      3395 9.42255E-05-2.69889E-05-2.88227E-05-1.38660E-06 1.09534E-18 2.80737E-18
 -1      3396 9.34897E-05-2.62802E-05-2.87924E-05-1.41452E-06 2.36211E-19 4.46529E-18
 -1      3397 9.44739E-05-2.72514E-05-2.88098E-05-1.24451E-06 7.59421E-19 2.07533E-18
 -1      3398 9.46031E-05-2.74493E-05-2.87853E-05-1.06710E-06 1.27287E-18 1.94516E-18
 -1      3399 9.40960E-05-2.69255E-05-2.87799E-05-1.15120E-06 4.40707E-19 3.17255E-18
 -1      3400 9.47667E-05-2.76356E-05-2.87698E-05-9.45390E-07 1.12343E-18 6.46618E-19
 -1      3401 9.48441E-05-2.77749E-05-2.87475E-05-8.05147E-07 2.37991E-19 5.39726E-19
 -1      3402 9.44975E-05-2.73910E-05-2.87553E-05-9.08252E-07 7.28720E-19 1.41827E-18
 -1      3403 9.49471E-05-2.79014E-05-2.87329E-05-7.09782E-07-7.11057E-19 7.67260E-20
 -1      3404 9.49909E-05-2.79961E-05-2.87146E-05-6.04911E-07-1.14804E-18-2.00238E-19
 -1      3405 9.47568E-05-2.77187E-05-2.87278E-05-7.02645E-07-6.50109E-19 8.15957E-19
 -1      3406 9.50620E-05-2.80919E-05-2.87005E-05-5.23172E-07-9.17363E-19-5.51486E-19
 -1      3407 9.50889E-05-2.81630E-05-2.86844E-05-4.38395E-07-3.46093E-19-2.74111E-19
 -1      3408 9.49280E-05-2.79555E-05-2.87007E-05-5.31339E-07-3.87114E-19 2.64344E-19
 -1      3409 9.51350E-05-2.82313E-05-2.86721E-05-3.74410E-07-4.14611E-19-1.53919E-19
 -1      3410 9.51500E-05-2.82819E-05-2.86590E-05-3.10245E-07-1.11765E-18-1.22378E-18
 -1      3411 9.50431E-05-2.81313E-05-2.86754E-05-3.89323E-07-2.49846E-19-6.37406E-19
 -1      3412 9.51794E-05-2.83307E-05-2.86486E-05-2.60811E-07-4.99330E-19-2.29282E-18
 -1      3413 9.51875E-05-2.83667E-05-2.86381E-05-2.13545E-07 2.47648E-19-2.57737E-18
 -1      3414 9.51170E-05-2.82581E-05-2.86533E-05-2.77985E-07-1.12199E-18 4.10637E-19
 -1      3415 9.51938E-05-2.83846E-05-2.86316E-05-1.83665E-07 9.95141E-19-1.98947E-18
 -1      3416 9.51994E-05-2.84115E-05-2.86236E-05-1.50468E-07 1.40028E-18-1.90154E-18
 -1      3417 9.51643E-05-2.83754E-05-2.86246E-05-1.42991E-07 1.22160E-18 3.01330E-19
 -1      3418 9.51502E-05-2.83326E-05-2.86366E-05-1.97939E-07 4.36901E-19-1.46069E-19
 -1      3419 7.17509E-05-1.22596E-05-2.55592E-05-2.14775E-06-4.61792E-19 2.13201E-19
 -1      3420 7.56846E-05-1.41225E-05-2.64448E-05-2.30790E-06-1.66554E-18-6.38716E-20
 -1      3421 9.60992E-05-2.88356E-05-2.88253E-05-2.17807E-06-4.04270E-20 9.19498E-19
 -1      3422 9.60351E-05-2.86489E-05-2.88751E-05-2.06864E-06 4.80018E-21 8.56611E-19
 -1      3423 9.83168E-05-3.15357E-05-2.86220E-05-1.99975E-06-3.21597E-21 1.22656E-18
 -1      3424 9.78213E-05-3.10119E-05-2.86176E-05-2.23958E-06 1.48246E-19 1.05105E-18
 -1      3425 9.73324E-05-3.05284E-05-2.86289E-05-2.30878E-06 3.38018E-19 8.93556E-19
 -1      3426 9.69799E-05-3.01278E-05-2.86405E-05-2.41976E-06 3.43286E-19 8.16137E-19
 -1      3427 9.76145E-05-3.08878E-05-2.86146E-05-2.66406E-06 8.73357E-20 1.45840E-18
 -1      3428 1.01350E-04-3.41719E-05-2.88040E-05-2.40204E-07-4.34762E-19 9.31835E-19
 -1      3429 1.00624E-04-3.35289E-05-2.87294E-05-9.00301E-07-6.03156E-19 1.25923E-18
 -1      3430 1.03185E-04-3.53831E-05-2.90783E-05 1.47320E-06-5.51171E-19 8.98434E-19
 -1      3431 1.02483E-04-3.48983E-05-2.89372E-05 5.45216E-07-5.66867E-19 6.61073E-19
 -1      3432 1.02577E-04-3.52344E-05-2.88841E-05-7.63779E-07-8.26241E-19 4.98379E-19
 -1      3433 1.04811E-04-3.59199E-05-2.95484E-05 3.77902E-06-1.99007E-19 1.24397E-18
 -1      3434 1.04319E-04-3.58619E-05-2.93175E-05 2.63884E-06-1.74917E-19 1.34977E-18
 -1      3435 1.04881E-04-3.66106E-05-2.92696E-05 1.10893E-06-4.62194E-19 1.06121E-18
 -1      3436 1.05712E-04-3.51515E-05-3.02568E-05 6.41133E-06-7.18874E-19 1.63444E-18
 -1      3437 1.05658E-04-3.58323E-05-2.99236E-05 5.24755E-06-5.41843E-19 1.66211E-18
 -1      3438 1.06929E-04-3.71117E-05-2.99154E-05 3.73589E-06-5.23605E-19 1.40364E-18
 -1      3439 1.05376E-04-3.25681E-05-3.11916E-05 8.64577E-06-1.59437E-18 1.62266E-18
 -1      3440 1.05885E-04-3.41522E-05-3.07732E-05 7.84810E-06-8.63206E-19 1.78923E-18
 -1      3441 1.08027E-04-3.59501E-05-3.08687E-05 6.79997E-06-1.10935E-18 1.89782E-18
 -1      3442 1.03592E-04-2.81931E-05-3.22644E-05 9.35053E-06-1.36876E-18 1.53800E-18
 -1      3443 1.04602E-04-3.05416E-05-3.18100E-05 9.44082E-06-1.59973E-18 1.64813E-18
 -1      3444 1.07461E-04-3.25097E-05-3.20804E-05 9.38431E-06-1.31609E-18 1.88555E-18
 -1      3445 1.01028E-04-2.33268E-05-3.32479E-05 7.47780E-06-1.08011E-18 1.18798E-18
 -1      3446 1.02148E-04-2.56276E-05-3.28688E-05 8.78132E-06-1.52064E-18 1.12933E-18
 -1      3447 1.05337E-04-2.71885E-05-3.34366E-05 9.81233E-06-1.34040E-18 1.08497E-18
 -1      3448 9.90216E-05-1.99512E-05-3.38653E-05 2.93611E-06 1.43628E-19 8.84360E-19
 -1      3449 9.96925E-05-2.12271E-05-3.36748E-05 5.29715E-06-1.97048E-19 1.04276E-18
 -1      3450 1.02429E-04-2.17649E-05-3.45741E-05 7.09939E-06-5.48781E-19 8.57819E-20
 -1      3451 9.88870E-05-1.99149E-05-3.38951E-05-2.73695E-06 1.36370E-19 3.30872E-24
 -1      3452 9.87637E-05-1.95193E-05-3.39565E-05-2.12290E-07 2.55390E-19 2.29414E-19
 -1      3453 1.00735E-04-1.87476E-05-3.51520E-05 1.45010E-06 4.40017E-19 4.72055E-20
 -1      3454 1.00813E-04-2.32512E-05-3.33238E-05-7.47797E-06 4.89428E-19 2.88094E-19
 -1      3455 9.98829E-05-2.13214E-05-3.36221E-05-5.69254E-06-7.60493E-20-3.49954E-19
 -1      3456 1.01229E-04-1.96005E-05-3.49411E-05-4.83460E-06 3.16155E-19-1.00592E-18
 -1      3457 1.03504E-04-2.81414E-05-3.23652E-05-9.62718E-06 4.43890E-20 1.43322E-18
 -1      3458 1.02310E-04-2.56685E-05-3.27933E-05-8.96217E-06 5.77796E-19 1.01148E-18
 -1      3459 1.03777E-04-2.41306E-05-3.40839E-05-9.03695E-06-2.02724E-19-1.40114E-19
 -1      3460 1.05386E-04-3.24715E-05-3.12941E-05-8.98585E-06 3.57362E-19 2.07083E-18
 -1      3461 1.04585E-04-3.04978E-05-3.17361E-05-9.38486E-06 1.25483E-20 1.97551E-18
 -1      3462 1.06589E-04-3.00219E-05-3.27719E-05-9.96930E-06-3.29664E-19 1.36775E-18
 -1      3463 1.05849E-04-3.50702E-05-3.03447E-05-6.79925E-06 4.83134E-19 1.98977E-18
 -1      3464 1.05635E-04-3.39639E-05-3.07214E-05-7.81552E-06 8.54817E-19 1.94398E-18
 -1      3465 1.07877E-04-3.43548E-05-3.14676E-05-8.32101E-06 6.22668E-19 9.33867E-19
 -1      3466 1.04950E-04-3.57891E-05-2.96250E-05-4.16335E-06 5.03550E-19 1.43677E-18
 -1      3467 1.05265E-04-3.55456E-05-2.99009E-05-5.31593E-06 2.66869E-19 1.77754E-18
 -1      3468 1.07487E-04-3.65689E-05-3.03735E-05-5.44631E-06 8.58049E-19 1.12042E-18
 -1      3469 1.03246E-04-3.51747E-05-2.91475E-05-1.86527E-06 3.30111E-20 1.94819E-18
 -1      3470 1.03885E-04-3.55128E-05-2.93257E-05-2.86730E-06 4.79156E-19 1.62071E-18
 -1      3471 1.05765E-04-3.67414E-05-2.95860E-05-2.60641E-06 3.92042E-19 1.83296E-18
 -1      3472 1.01305E-04-3.38865E-05-2.88661E-05-2.01420E-07-7.41733E-20 2.21551E-18
 -1      3473 1.02053E-04-3.45036E-05-2.89677E-05-9.41127E-07 4.12515E-21 2.01272E-18
 -1      3474 1.03455E-04-3.56320E-05-2.90856E-05-4.34647E-07-6.53079E-20 1.70457E-18
 -1      3475 9.95070E-05-3.24330E-05-2.87225E-05 8.30606E-07 1.27300E-18 1.33756E-18
 -1      3476 1.00214E-04-3.31042E-05-2.87719E-05 3.54093E-07 9.38677E-19 2.08955E-18
 -1      3477 1.01148E-04-3.39950E-05-2.88035E-05 9.46673E-07 6.70398E-19 8.28571E-19
 -1      3478 9.80391E-05-3.11164E-05-2.86634E-05 1.36493E-06-5.05214E-19 2.09735E-18
 -1      3479 9.86277E-05-3.17141E-05-2.86819E-05 1.10068E-06 3.44408E-19 1.52947E-18
 -1      3480 9.91771E-05-3.23371E-05-2.86678E-05 1.66453E-06 2.90951E-19 1.42850E-18
 -1      3481 9.69410E-05-3.00635E-05-2.86496E-05 1.55589E-06-4.29486E-19 9.76131E-19
 -1      3482 9.73897E-05-3.05358E-05-2.86526E-05 1.44444E-06-6.78035E-20 1.55563E-18
 -1      3483 9.76586E-05-3.09247E-05-2.86185E-05 1.92224E-06-9.98022E-20 1.46305E-18
 -1      3484 9.61776E-05-2.92976E-05-2.86552E-05 1.53357E-06-1.63611E-20 1.56910E-18
 -1      3485 9.64963E-05-2.96379E-05-2.86525E-05 1.52159E-06-3.86122E-19 1.14246E-18
 -1      3486 9.65784E-05-2.98450E-05-2.86137E-05 1.89681E-06-1.49040E-19 3.24687E-19
 -1      3487 9.56824E-05-2.87864E-05-2.86654E-05 1.39392E-06-2.56917E-19 1.98033E-18
 -1      3488 9.58949E-05-2.90114E-05-2.86623E-05 1.44045E-06-4.12069E-19 1.66101E-18
 -1      3489 9.58643E-05-2.90904E-05-2.86268E-05 1.71978E-06-5.71955E-19 1.03429E-18
 -1      3490 9.53842E-05-2.84762E-05-2.86728E-05 1.20133E-06 7.04978E-20 2.25498E-18
 -1      3491 9.55173E-05-2.86113E-05-2.86717E-05 1.27745E-06 1.99372E-19 1.81388E-18
 -1      3492 9.54273E-05-2.86078E-05-2.86431E-05 1.47757E-06-1.19921E-20 8.18619E-19
 -1      3493 9.52211E-05-2.83114E-05-2.86749E-05 9.95691E-07-3.98107E-19 2.20912E-18
 -1      3494 9.52989E-05-2.83821E-05-2.86765E-05 1.08251E-06 3.61691E-19 2.29481E-18
 -1      3495 9.51850E-05-2.83309E-05-2.86555E-05 1.22227E-06-2.27493E-20 1.53342E-18
 -1      3496 9.51446E-05-2.82442E-05-2.86717E-05 7.99511E-07-1.33815E-18 9.21991E-19
 -1      3497 9.51860E-05-2.82720E-05-2.86756E-05 8.85543E-07-9.93642E-19 1.75381E-18
 -1      3498 9.50700E-05-2.81978E-05-2.86617E-05 9.81806E-07-6.05845E-19 6.57268E-19
 -1      3499 9.51200E-05-2.82378E-05-2.86644E-05 6.24381E-07-3.45736E-19 3.09109E-19
 -1      3500 9.51390E-05-2.82391E-05-2.86698E-05 7.03148E-07-6.48577E-19 1.61100E-19
 -1      3501 9.50330E-05-2.81579E-05-2.86618E-05 7.69153E-07-1.23815E-20-1.67019E-19
 -1      3502 9.51235E-05-2.82653E-05-2.86543E-05 4.74968E-07 9.81573E-19 1.46198E-18
 -1      3503 9.51297E-05-2.82520E-05-2.86606E-05 5.43409E-07-1.30299E-19 7.25436E-19
 -1      3504 9.50393E-05-2.81738E-05-2.86570E-05 5.88954E-07-5.20465E-19 4.82612E-20
 -1      3505 9.51401E-05-2.83087E-05-2.86428E-05 3.51636E-07 1.41844E-18 7.93347E-19
 -1      3506 9.51396E-05-2.82887E-05-2.86494E-05 4.08927E-07 1.97062E-18 1.13913E-18
 -1      3507 9.50664E-05-2.82189E-05-2.86490E-05 4.40863E-07 7.44586E-19 8.12132E-19
 -1      3508 9.51609E-05-2.83566E-05-2.86311E-05 2.52891E-07 1.53867E-18 4.01444E-19
 -1      3509 9.51575E-05-2.83349E-05-2.86374E-05 2.99339E-07 7.69399E-19 1.12854E-19
 -1      3510 9.51006E-05-2.82760E-05-2.86392E-05 3.22095E-07 1.62196E-18-4.61717E-19
 -1      3511 9.51802E-05-2.84021E-05-2.86197E-05 1.75649E-07 8.20290E-19 2.89382E-19
 -1      3512 9.51765E-05-2.83818E-05-2.86256E-05 2.12272E-07 1.56624E-18 1.32149E-19
 -1      3513 9.51338E-05-2.83339E-05-2.86286E-05 2.29185E-07 1.17006E-18-3.17199E-19
 -1      3514 9.51874E-05-2.84212E-05-2.86138E-05 1.37988E-07 1.23684E-18-5.63731E-19
 -1      3515 9.50871E-05-2.83110E-05-2.86190E-05 7.24735E-08 1.92484E-18-2.12898E-18
 -1      3516 9.51010E-05-2.83249E-05-2.86181E-05 9.28398E-08 1.26049E-18-2.22274E-18
 -1      3517 9.51393E-05-2.83480E-05-2.86248E-05-1.29590E-07 3.16385E-19 7.22628E-19
 -1      3518 9.51172E-05-2.83279E-05-2.86248E-05-1.14515E-07 2.64528E-19 8.84865E-19
 -1      3519 9.50829E-05-2.82780E-05-2.86299E-05-1.17632E-07 3.64670E-19 3.09539E-18
 -1      3520 9.51321E-05-2.83258E-05-2.86304E-05-1.54935E-07 5.75839E-21 1.78315E-18
 -1      3521 9.51212E-05-2.83492E-05-2.86173E-05 1.15015E-07 9.50474E-19-1.57852E-18
 -1      3522 9.51410E-05-2.83697E-05-2.86163E-05 1.27434E-07 9.47531E-19-2.18528E-18
 -1      3523 9.50889E-05-2.83050E-05-2.86217E-05 1.22559E-07 1.09671E-18-1.56226E-18
 -1      3524 1.02737E-04-4.35678E-05-2.49903E-05-2.89972E-05-2.39194E-19 2.11096E-20
 -1      3525 1.12179E-04-4.95294E-05-2.71376E-05-2.44605E-05-8.46239E-20-1.95281E-19
 -1      3526 9.20431E-05-1.77984E-05-3.18315E-05-9.57006E-07 1.05186E-18 4.79321E-19
 -1      3527 9.21672E-05-1.79976E-05-3.18023E-05-1.67037E-06 9.82595E-19 4.28203E-19
 -1      3528 9.31263E-05-1.96204E-05-3.14824E-05-1.63843E-06 9.06531E-19 3.63606E-19
 -1      3529 9.96702E-05-3.27920E-05-2.86685E-05-1.35647E-06-9.19440E-19 1.63030E-18
 -1      3530 9.90355E-05-3.21663E-05-2.86376E-05-1.77924E-06-5.13561E-19 1.51177E-18
 -1      3531 9.88108E-05-3.20958E-05-2.86138E-05-2.46330E-06-4.09813E-19 1.75276E-18
 -1      3532 1.00478E-04-3.35981E-05-2.86875E-05-1.89256E-06-4.20362E-19 1.58688E-18
 -1      3533 7.91673E-05-1.58737E-05-2.72002E-05-3.09463E-06-1.63986E-18 8.37725E-19
 -1      3534 8.20122E-05-1.74930E-05-2.76953E-05-3.02976E-06-1.05009E-18 6.43701E-19
 -1      3535 7.68216E-05-1.49365E-05-2.63794E-05 9.46835E-07-1.35488E-18-2.19426E-19
 -1      3536 5.40329E-05-8.96920E-06-1.91586E-05 1.26371E-05-2.29544E-18 1.99794E-18
 -1      3537 5.21706E-05-6.84933E-06-1.92809E-05 4.04426E-07-1.77301E-18 3.05472E-18
 -1      3538 5.77377E-05-8.11037E-06-2.10995E-05-1.42228E-06-1.08936E-18 2.29255E-18
 -1      3539 6.20608E-05-1.24766E-05-2.09818E-05 1.50577E-05-2.03227E-18 2.62173E-18
 -1      3540 1.28031E-04-4.86682E-05-3.43471E-05-4.33422E-07 4.02827E-19-2.38926E-18
 -1      3541 1.25399E-04-5.13395E-05-3.16672E-05 7.92857E-06-5.17855E-19-1.65935E-18
 -1      3542 5.54765E-05-1.14743E-05-1.85523E-05 1.98349E-05 7.90196E-19-1.98470E-18
 -1      3543 6.27164E-05-1.48177E-05-2.04340E-05-1.91699E-05 2.13115E-20 4.60468E-19
 -1      3544 9.52000E-05-2.41395E-05-3.04511E-05-1.94701E-06 4.19668E-19-2.94035E-19
 -1      3545 9.54116E-05-2.49951E-05-3.01892E-05-1.11844E-06 4.20611E-19-3.04719E-19
 -1      3546 9.54403E-05-2.49053E-05-3.02245E-05-8.63607E-07 3.69268E-19 1.79181E-20
 -1      3547 9.28238E-05-3.75094E-05-2.38030E-05 3.07182E-05-1.46288E-18 2.53501E-19
 -1      3548 7.89362E-05-2.77624E-05-2.15753E-05 3.09119E-05-9.63434E-19 7.97124E-19
 -1      3549 1.13419E-04-1.62472E-05-4.17210E-05 9.96665E-06 4.62904E-19 1.70055E-19
 -1      3550 1.11083E-04-1.24811E-05-4.26455E-05 5.39806E-06 4.21187E-19 5.11618E-19
 -1      3551 9.37395E-05-2.06656E-05-3.13243E-05-4.52442E-06 6.60846E-19-4.35324E-19
 -1      3552 1.20307E-04-5.18715E-05-2.90494E-05-1.73484E-05-1.02862E-19 2.07980E-19
 -1      3553 1.25269E-04-5.26185E-05-3.15424E-05-9.27424E-06-7.70006E-20 4.23291E-19
 -1      3554 1.14014E-04-1.58673E-05-4.23558E-05-9.46086E-06 1.39549E-18 5.44219E-19
 -1      3555 1.13552E-04-1.99837E-05-4.01173E-05-1.09817E-05 1.38580E-18-1.39542E-19
 -1      3556 1.09835E-04-1.39224E-05-4.11610E-05-6.75153E-06 9.10428E-19 1.31323E-18
 -1      3557 1.23344E-04-3.84426E-05-3.64833E-05 9.74705E-06-7.88879E-19 7.36786E-20
 -1      3558 1.18474E-04-3.37243E-05-3.64042E-05 1.11547E-05-6.82278E-19 2.23206E-19
 -1      3559 1.21381E-04-4.10288E-05-3.43141E-05 6.93462E-06-9.19070E-19-1.84696E-19
 -1      3560 9.58229E-05-2.65688E-05-2.96873E-05-3.82086E-08 2.97160E-19 6.35531E-19
 -1      3561 9.57360E-05-2.59865E-05-2.98865E-05 5.59084E-07 2.99680E-19 6.39818E-19
 -1      3562 9.60230E-05-2.84700E-05-2.89507E-05-1.90526E-06 1.32457E-19 9.00542E-19
 -1      3563 9.60002E-05-2.82701E-05-2.90221E-05-1.72300E-06 2.93622E-19 8.02827E-19
 -1      3564 9.61069E-05-2.84927E-05-2.89826E-05-1.95004E-06 4.91063E-20 7.85616E-19
 -1      3565 7.71995E-05-2.41565E-05-2.25145E-05 2.55449E-05-1.98828E-18 1.43612E-18
 -1      3566 1.21164E-04-4.82039E-05-3.12123E-05 5.48916E-06-7.31082E-19-2.50426E-18
 -1      3567 1.21717E-04-5.11838E-05-3.02468E-05 1.20282E-05-8.93967E-19-1.43304E-18
 -1      3568 1.15558E-04-4.82659E-05-2.88903E-05 1.51673E-05-3.43419E-19-1.23064E-18
 -1      3569 9.58479E-05-2.80364E-05-2.90673E-05-1.44556E-06 3.92154E-19 8.23549E-19
 -1      3570 9.28972E-05-1.92321E-05-3.15519E-05-5.59445E-07 1.05482E-18 5.50149E-19
 -1      3571 1.13925E-04-2.18358E-05-3.95784E-05 1.07255E-05-2.26634E-19 2.10779E-19
 -1      3572 9.50504E-05-2.82494E-05-2.86281E-05-6.12753E-08 4.80794E-19 1.33368E-18
 -1      3573 9.50730E-05-2.82875E-05-2.86227E-05-3.93502E-08 1.67214E-19 2.12431E-18
 -1      3574 9.50682E-05-2.82846E-05-2.86219E-05-1.34386E-08 1.04760E-18 1.05063E-18
 -1      3575 9.64584E-05-3.83970E-05-2.47176E-05-2.73279E-05-3.48792E-19 1.46365E-19
 -1      3576 9.51318E-05-2.83453E-05-2.86221E-05 1.66540E-07 1.06508E-18-2.18775E-18
 -1      3577 9.51570E-05-2.83835E-05-2.86174E-05 1.49163E-07 1.11403E-18-1.72282E-18
 -1      3578 6.34157E-05-9.34637E-06-2.31368E-05-4.61280E-07-1.35126E-18 1.12237E-18
 -1      3579 9.61623E-05-2.90230E-05-2.87687E-05-2.29614E-06 5.59427E-20 1.18144E-18
 -1      3580 9.61783E-05-2.88941E-05-2.88431E-05-2.26261E-06-5.11824E-20 9.92358E-19
 -1      3581 9.62946E-05-2.92422E-05-2.87340E-05-2.34309E-06 2.57851E-19 1.15768E-18
 -1      3582 9.59599E-05-2.74576E-05-2.93622E-05-8.99337E-07 2.65488E-19 4.32439E-19
 -1      3583 9.59344E-05-2.70705E-05-2.95056E-05-4.83850E-07 1.90177E-19 5.63011E-19
 -1      3584 9.59161E-05-2.65240E-05-2.97390E-05-1.77637E-07 2.97906E-19 5.00578E-19
 -1      3585 9.55366E-05-2.53924E-05-3.00696E-05 9.92106E-07 2.73627E-19 6.48639E-19
 -1      3586 9.53331E-05-2.45524E-05-3.03331E-05 1.79109E-06 2.06942E-19 7.08517E-19
 -1      3587 9.51150E-05-2.39205E-05-3.05119E-05 1.69331E-06 4.19665E-19 5.16861E-19
 -1      3588 9.56012E-05-2.53300E-05-3.01116E-05 7.31407E-07 2.85994E-19 4.39137E-19
 -1      3589 8.25057E-05-1.79898E-05-2.75605E-05-7.70004E-07-7.18090E-19 1.80580E-18
 -1      3590 9.42292E-05-2.16816E-05-3.10763E-05-3.53982E-06 5.31096E-19-2.90850E-19
 -1      3591 9.50752E-05-2.82953E-05-2.86200E-05 4.40273E-08 1.93302E-18-1.09802E-18
 -1      3592 9.50555E-05-2.82658E-05-2.86235E-05 7.05800E-08 2.26652E-18-1.29904E-18
 -1      3593 9.50696E-05-2.82890E-05-2.86208E-05 1.90479E-08 1.60014E-18 1.05559E-18
 -1      3594 9.36204E-05-2.05267E-05-3.13082E-05 2.62584E-06 5.84943E-19 5.47148E-19
 -1      3595 1.09290E-04-1.25884E-05-4.16351E-05 2.16391E-06 1.00749E-18 8.49111E-19
 -1      3596 1.23538E-04-4.84946E-05-3.21402E-05-3.29865E-06 6.56980E-20-3.98966E-20
 -1      3597 9.66807E-05-2.97804E-05-2.86689E-05-2.39871E-06 4.05801E-19 6.14289E-19
 -1      3598 9.64519E-05-2.94872E-05-2.86921E-05-2.41957E-06 4.87892E-19 1.14650E-18
 -1      3599 9.63919E-05-2.93603E-05-2.87375E-05-2.49576E-06 4.00482E-19 1.26884E-18
 -1      3600 9.68384E-05-2.99951E-05-2.86604E-05-2.64443E-06 3.95979E-19 1.11757E-18
 -1      3601 1.06401E-04-4.36816E-05-2.68670E-05 2.20498E-05-1.15979E-18-8.98507E-19
 -1      3602 1.00729E-04-4.13171E-05-2.52408E-05 2.74964E-05-1.28447E-18-1.81014E-19
 -1      3603 9.34453E-05-3.54021E-05-2.49175E-05 2.58439E-05-1.74892E-18 5.09543E-22
 -1      3604 1.14771E-04-4.83865E-05-2.83437E-05-1.76770E-05-4.36354E-20 2.71712E-19
 -1      3605 9.40133E-05-2.14264E-05-3.11128E-05-1.89859E-06 6.97474E-19 3.13656E-19
 -1      3606 9.42713E-05-2.19473E-05-3.10087E-05-2.27959E-06 5.68788E-19 1.27282E-19
 -1      3607 9.45680E-05-2.26258E-05-3.08378E-05-2.77749E-06 5.22378E-19-3.12680E-19
 -1      3608 6.58208E-05-1.08532E-05-2.33962E-05 4.70975E-06-1.27185E-18 1.51000E-18
 -1      3609 9.35856E-05-2.06320E-05-3.12771E-05 6.97076E-07 7.15296E-19 3.08583E-19
 -1      3610 9.35231E-05-2.05185E-05-3.12980E-05 1.85491E-07 8.18640E-19 2.18173E-19
 -1      3611 1.20639E-04-3.09706E-05-3.85289E-05-1.19130E-05 1.07117E-18-1.20430E-18
 -1      3612 1.24491E-04-4.41636E-05-3.44846E-05-4.17823E-06 1.53644E-19-2.40725E-18
 -1      3613 9.38553E-05-2.11354E-05-3.11768E-05 1.55267E-06 6.62289E-19 3.82883E-19
 -1      3614 9.36891E-05-2.08285E-05-3.12351E-05 1.08552E-06 7.71370E-19 3.12928E-19
 -1      3615 9.43008E-05-2.19287E-05-3.09964E-05 6.74093E-07 6.05770E-19 3.69661E-19
 -1      3616 9.49235E-05-2.34381E-05-3.06344E-05-1.53368E-06 5.10303E-19 2.13967E-19
 -1      3617 9.45720E-05-2.26140E-05-3.08371E-05-2.26220E-06 4.67986E-19-3.48597E-20
 -1      3618 6.67576E-05-1.44573E-05-2.24893E-05-1.43447E-05-2.06789E-19 3.14792E-19
 -1      3619 6.93375E-05-1.89392E-05-2.12260E-05-2.36914E-05-1.02637E-19 9.47830E-19
 -1      3620 7.71435E-05-2.40771E-05-2.29081E-05-2.42243E-05-2.94992E-19 5.90117E-19
 -1      3621 7.15004E-05-1.56861E-05-2.39278E-05-1.17486E-05-3.23888E-19 5.25339E-19
 -1      3622 9.46948E-05-2.28095E-05-3.07917E-05 2.04574E-06 4.82622E-19 4.44466E-19
 -1      3623 9.42308E-05-2.18734E-05-3.10221E-05 2.44286E-06 4.75840E-19 3.96554E-19
 -1      3624 9.39800E-05-2.13578E-05-3.11307E-05 2.04492E-06 6.11648E-19 3.27421E-19
 -1      3625 9.50241E-05-2.37181E-05-3.05700E-05 1.52824E-06 4.19688E-19 4.79804E-19
 -1      3626 8.13236E-05-1.80921E-05-2.71775E-05 1.93907E-06-8.14165E-19 2.13898E-18
 -1      3627 8.37589E-05-1.93520E-05-2.76118E-05 1.12774E-06-4.46611E-19 2.51102E-18
 -1      3628 9.57500E-05-2.65729E-05-2.96455E-05 5.97712E-07 8.47443E-20-6.89817E-20
 -1      3629 9.56630E-05-2.68256E-05-2.95081E-05 9.19649E-07 1.02056E-19-2.07535E-19
 -1      3630 9.55214E-05-2.69750E-05-2.93758E-05 1.10592E-06 1.05300E-19-1.96588E-19
 -1      3631 9.53084E-05-2.70188E-05-2.92733E-05 1.32841E-06 5.52524E-20-5.38027E-20
 -1      3632 9.56092E-05-2.67438E-05-2.95089E-05 7.75852E-07 1.45973E-19 3.30431E-19
 -1      3633 9.50236E-05-2.69664E-05-2.91677E-05 1.42634E-06-4.06092E-20-1.96000E-20
 -1      3634 9.46818E-05-2.68270E-05-2.90879E-05 1.56574E-06-1.16797E-19 3.32248E-20
 -1      3635 9.51919E-05-2.68935E-05-2.92644E-05 1.04792E-06-3.26366E-20 3.16687E-19
 -1      3636 9.42758E-05-2.66110E-05-2.90013E-05 1.57544E-06-4.06202E-20 1.21295E-19
 -1      3637 9.38087E-05-2.63198E-05-2.89343E-05 1.63672E-06 1.75726E-19 3.72223E-19
 -1      3638 9.45152E-05-2.66765E-05-2.90652E-05 1.13178E-06-4.20838E-20 5.42533E-19
 -1      3639 9.32244E-05-2.59298E-05-2.88437E-05 1.54605E-06-1.08571E-19 2.02360E-19
 -1      3640 9.25333E-05-2.54521E-05-2.87656E-05 1.51565E-06-2.42292E-19-1.75101E-19
 -1      3641 9.35499E-05-2.61317E-05-2.88808E-05 1.01097E-06-1.68232E-19 4.68732E-19
 -1      3642 9.17514E-05-2.48955E-05-2.86564E-05 1.27706E-06-1.90413E-20-4.25150E-19
 -1      3643 9.07820E-05-2.42333E-05-2.85469E-05 1.10452E-06 4.17002E-20-3.77846E-19
 -1      3644 9.22161E-05-2.52681E-05-2.86737E-05 6.10039E-07-2.74578E-19 3.63336E-19
 -1      3645 8.97572E-05-2.35151E-05-2.83929E-05 6.44222E-07-4.07916E-20-5.23062E-19
 -1      3646 8.84054E-05-2.26620E-05-2.82161E-05 2.45496E-07-1.46523E-19-3.97592E-19
 -1      3647 9.04575E-05-2.41210E-05-2.84044E-05-2.01403E-07-2.21083E-19 2.05107E-19
 -1      3648 8.70853E-05-2.18040E-05-2.79793E-05-5.51595E-07-3.38825E-19-6.56255E-19
 -1      3649 8.52145E-05-2.07732E-05-2.76796E-05-1.30994E-06-6.17498E-19-9.62565E-19
 -1      3650 8.81797E-05-2.27400E-05-2.80106E-05-1.63025E-06-3.53053E-19-2.36344E-19
 -1      3651 8.35581E-05-1.98426E-05-2.73041E-05-2.61750E-06-1.71755E-19-9.06938E-19
 -1      3652 8.09800E-05-1.86847E-05-2.67924E-05-3.92561E-06 4.56753E-20-2.64113E-19
 -1      3653 8.52980E-05-2.12557E-05-2.74025E-05-3.98202E-06-2.03574E-19-1.74227E-19
 -1      3654 7.89409E-05-1.77938E-05-2.61930E-05-6.01514E-06-9.72616E-20-1.51524E-19
 -1      3655 7.53964E-05-1.65911E-05-2.53293E-05-8.08844E-06-3.13204E-20 9.88878E-20
 -1      3656 8.17825E-05-1.99352E-05-2.64519E-05-7.74303E-06 9.89060E-20-3.10854E-19
 -1      3657 9.50886E-05-2.82943E-05-2.86257E-05 1.76520E-07 7.66749E-19-2.17475E-18
 -1      3658 9.51068E-05-2.83120E-05-2.86269E-05 2.01488E-07 4.75004E-19-1.39728E-18
 -1      3659 9.50912E-05-2.82807E-05-2.86322E-05 2.41417E-07 1.06632E-18-1.86451E-18
 -1      3660 9.35142E-05-2.05020E-05-3.13007E-05-2.14560E-07 9.93985E-19 4.50925E-19
 -1      3661 9.35642E-05-2.05947E-05-3.12846E-05-7.22466E-07 9.22803E-19 5.28421E-19
 -1      3662 9.41893E-05-2.17136E-05-3.10419E-05-2.85419E-08 7.36138E-19 2.46777E-19
 -1      3663 8.83333E-05-2.22650E-05-2.83499E-05-6.72023E-07 1.69851E-19 2.26059E-18
 -1      3664 8.95451E-05-2.31195E-05-2.84771E-05-8.20605E-07 3.75025E-19 1.55899E-18
 -1      3665 9.04948E-05-2.38529E-05-2.85835E-05-1.08246E-06 1.03888E-18 1.38164E-18
 -1      3666 9.13244E-05-2.45095E-05-2.86429E-05-1.08278E-06 5.98762E-19 1.38420E-18
 -1      3667 8.99003E-05-2.35114E-05-2.84238E-05-1.21876E-08 3.78961E-19 1.50784E-18
 -1      3668 9.20082E-05-2.50804E-05-2.86972E-05-1.18372E-06 1.02405E-18 1.09617E-18
 -1      3669 9.25690E-05-2.55738E-05-2.87190E-05-1.10886E-06 1.76342E-18 1.86799E-18
 -1      3670 9.14864E-05-2.47284E-05-2.85903E-05-4.95811E-07 9.45647E-19 1.21837E-18
 -1      3671 9.30552E-05-2.60077E-05-2.87427E-05-1.11836E-06 8.73357E-19 1.58810E-18
 -1      3672 9.34307E-05-2.63732E-05-2.87445E-05-1.01293E-06 4.00370E-19 2.20676E-18
 -1      3673 9.26243E-05-2.56858E-05-2.86737E-05-6.85876E-07 1.25862E-18-1.56764E-19
 -1      3674 9.37732E-05-2.66983E-05-2.87508E-05-9.75777E-07-1.77997E-19 2.29629E-18
 -1      3675 9.40226E-05-2.69665E-05-2.87428E-05-8.65351E-07-1.30601E-21 1.25509E-18
 -1      3676 9.34315E-05-2.64228E-05-2.87082E-05-7.10189E-07 2.11313E-19-1.18186E-19
 -1      3677 9.42616E-05-2.72072E-05-2.87398E-05-8.08692E-07 1.19513E-19 8.02273E-19
 -1      3678 9.44260E-05-2.74028E-05-2.87277E-05-7.06125E-07 2.87600E-22-5.23003E-19
 -1      3679 9.39988E-05-2.69819E-05-2.87150E-05-6.50283E-07-5.40250E-19-4.39284E-19
 -1      3680 9.45851E-05-2.75724E-05-2.87207E-05-6.48304E-07-8.31996E-19 7.83473E-19
 -1      3681 9.46888E-05-2.77094E-05-2.87082E-05-5.62836E-07-1.13740E-18 4.31018E-19
 -1      3682 9.43865E-05-2.73918E-05-2.87076E-05-5.56669E-07 1.97500E-19-2.15790E-19
 -1      3683 9.48055E-05-2.78418E-05-2.86990E-05-5.04753E-07 5.25725E-22 7.31713E-19
 -1      3684 9.48775E-05-2.79475E-05-2.86863E-05-4.29950E-07 3.69095E-19 5.36640E-19
 -1      3685 9.46575E-05-2.76997E-05-2.86932E-05-4.53766E-07-3.94639E-19 3.07384E-19
 -1      3686 9.49577E-05-2.80448E-05-2.86769E-05-3.79329E-07 1.71767E-20 3.59581E-19
 -1      3687 9.50043E-05-2.81217E-05-2.86655E-05-3.19100E-07-1.75200E-19 6.83280E-19
 -1      3688 9.48504E-05-2.79355E-05-2.86758E-05-3.53880E-07 3.47961E-20 1.65803E-18
 -1      3689 9.50590E-05-2.81931E-05-2.86565E-05-2.76767E-07-4.62263E-19 1.87661E-18
 -1      3690 9.50888E-05-2.82486E-05-2.86466E-05-2.30670E-07-6.39170E-19 2.17168E-18
 -1      3691 9.49825E-05-2.81104E-05-2.86582E-05-2.66628E-07 1.89426E-19 2.18521E-18
 -1      3692 9.51081E-05-2.82764E-05-2.86415E-05-2.06514E-07-4.14785E-19 1.60072E-18
 -1      3693 9.51160E-05-2.83016E-05-2.86350E-05-1.74459E-07 6.38476E-19 2.30667E-18
 -1      3694 9.50879E-05-2.82747E-05-2.86349E-05-1.59424E-07-5.08296E-19 2.55448E-18
 -1      3695 9.50527E-05-2.82146E-05-2.86445E-05-2.02686E-07-1.14210E-18 2.87276E-18
 -1      3696 9.59995E-05-2.80473E-05-2.91237E-05-1.49709E-06 2.71463E-19 7.16569E-19
 -1      3697 9.59909E-05-2.77834E-05-2.92256E-05-1.21714E-06 2.27187E-19 6.67541E-19
 -1      3698 9.60610E-05-2.74330E-05-2.94135E-05-9.62362E-07 1.30358E-19 5.85614E-19
 -1      3699 9.60952E-05-2.80457E-05-2.91676E-05-1.53224E-06 1.41120E-19 7.56917E-19
 -1      3700 8.29976E-05-2.71190E-05-2.39993E-05 2.39846E-05-1.55626E-18 1.01412E-18
 -1      3701 7.42098E-05-2.01369E-05-2.30735E-05 2.08881E-05-2.73036E-18 2.46210E-18
 -1      3702 1.06416E-04-3.79404E-05-2.93713E-05 1.58117E-07-6.60626E-19 1.44708E-18
 -1      3703 1.05270E-04-3.72446E-05-2.91130E-05-9.26102E-07-7.80069E-19 8.67802E-19
 -1      3704 1.03577E-04-3.61811E-05-2.88988E-05-1.73254E-06-6.11362E-19 1.10673E-18
 -1      3705 1.02433E-04-3.52388E-05-2.87604E-05-2.37878E-06-3.51107E-19 1.45849E-18
 -1      3706 1.04858E-04-3.73987E-05-2.89577E-05-2.74946E-06-5.45738E-19 1.69924E-18
 -1      3707 1.10502E-04-3.74230E-05-3.13467E-05 6.38466E-06-1.03775E-18 1.69182E-18
 -1      3708 1.10325E-04-3.84419E-05-3.08023E-05 4.96131E-06-9.27185E-19 1.60231E-18
 -1      3709 1.12028E-04-3.33159E-05-3.37365E-05 9.91298E-06-9.30069E-19 9.95427E-19
 -1      3710 1.12917E-04-3.62489E-05-3.28830E-05 8.76623E-06-9.75936E-19 1.08394E-18
 -1      3711 1.03954E-04-1.94080E-05-3.62145E-05 6.94486E-06 6.04437E-20 6.24687E-20
 -1      3712 1.05328E-04-2.24334E-05-3.56656E-05 8.95789E-06-5.77236E-19 2.90693E-19
 -1      3713 1.05628E-04-1.97093E-05-3.69781E-05-8.17463E-06 4.54063E-19-3.49097E-19
 -1      3714 1.04392E-04-1.72873E-05-3.73869E-05-5.17162E-06 9.63209E-19-3.47548E-20
 -1      3715 1.09973E-04-3.28994E-05-3.31110E-05-9.92533E-06-2.84596E-19-2.30505E-19
 -1      3716 1.08864E-04-2.99948E-05-3.38476E-05-1.02652E-05-7.98977E-19 8.45015E-20
 -1      3717 1.10705E-04-3.72589E-05-3.14962E-05-7.00438E-06 9.16642E-19-7.10007E-20
 -1      3718 1.10406E-04-3.53805E-05-3.21625E-05-8.38761E-06 5.27215E-19-2.57577E-19
 -1      3719 1.13112E-04-3.55655E-05-3.31859E-05-8.99578E-06 3.59764E-19-1.89943E-18
 -1      3720 1.09201E-04-3.85523E-05-3.02470E-05-3.37490E-06 6.01732E-19 5.40792E-19
 -1      3721 1.09760E-04-3.81067E-05-3.07459E-05-4.89591E-06 8.05574E-19 3.24331E-19
 -1      3722 1.12510E-04-3.92849E-05-3.13547E-05-4.90570E-06 6.88925E-19-1.12130E-18
 -1      3723 1.06447E-04-3.76948E-05-2.94230E-05-4.50223E-07 1.85044E-19 1.17759E-18
 -1      3724 1.07520E-04-3.81821E-05-2.97492E-05-1.66245E-06 3.92766E-19 1.06558E-18
 -1      3725 1.09779E-04-3.96662E-05-3.00615E-05-1.06249E-06 5.00486E-20-4.02528E-19
 -1      3726 1.03453E-04-3.58377E-05-2.89369E-05 1.41029E-06-3.38970E-19 1.34454E-18
 -1      3727 1.04660E-04-3.67438E-05-2.91284E-05 6.11755E-07 2.01312E-19 1.69022E-18
 -1      3728 1.06211E-04-3.80673E-05-2.92422E-05 1.59430E-06 3.87664E-19 2.20384E-19
 -1      3729 1.00767E-04-3.37516E-05-2.86878E-05 2.34098E-06 8.95666E-19 1.10145E-18
 -1      3730 1.01871E-04-3.47281E-05-2.87848E-05 1.91765E-06 2.20503E-19 4.88636E-19
 -1      3731 1.02815E-04-3.57140E-05-2.87949E-05 2.99218E-06 5.38737E-20 6.23877E-19
 -1      3732 9.86551E-05-3.19049E-05-2.85845E-05 2.61876E-06-3.27250E-19 1.60102E-18
 -1      3733 9.95435E-05-3.27542E-05-2.86241E-05 2.45934E-06 2.71241E-19 1.40769E-18
 -1      3734 1.00013E-04-3.33912E-05-2.85867E-05 3.42829E-06-1.03177E-19 1.17434E-18
 -1      3735 9.71297E-05-3.04540E-05-2.85609E-05 2.52053E-06 6.16369E-19 1.44301E-18
 -1      3736 9.77858E-05-3.11146E-05-2.85692E-05 2.52638E-06-6.92971E-22 2.00261E-18
 -1      3737 9.79454E-05-3.14723E-05-2.85158E-05 3.30353E-06-7.21008E-20 1.94574E-18
 -1      3738 9.61108E-05-2.94180E-05-2.85746E-05 2.23335E-06-3.89899E-19 1.05443E-18
 -1      3739 9.65598E-05-2.98858E-05-2.85687E-05 2.32747E-06 6.09692E-19 1.25418E-18
 -1      3740 9.65321E-05-3.00418E-05-2.85156E-05 2.90782E-06 5.43914E-19 2.02000E-18
 -1      3741 9.54816E-05-2.87390E-05-2.86000E-05 1.87936E-06 1.98005E-19 3.33661E-19
 -1      3742 9.57670E-05-2.90430E-05-2.85902E-05 2.01166E-06-9.21974E-20 7.48516E-19
 -1      3743 9.56413E-05-2.90676E-05-2.85446E-05 2.41941E-06 3.87455E-19 9.61310E-19
 -1      3744 9.51294E-05-2.83361E-05-2.86243E-05 1.52610E-06-5.64718E-19 7.64110E-19
 -1      3745 9.52958E-05-2.85143E-05-2.86156E-05 1.66669E-06-2.97816E-19 1.97976E-20
 -1      3746 9.51296E-05-2.84620E-05-2.85799E-05 1.93935E-06 5.22462E-20 1.94352E-19
 -1      3747 9.49612E-05-2.81303E-05-2.86419E-05 1.20750E-06-6.04724E-19 1.33795E-18
 -1      3748 9.50473E-05-2.82198E-05-2.86363E-05 1.33987E-06-6.39593E-19 1.24819E-18
 -1      3749 9.48745E-05-2.81278E-05-2.86103E-05 1.51370E-06-8.26118E-19 8.17259E-19
 -1      3750 9.49061E-05-2.80542E-05-2.86516E-05 9.35235E-07-5.15181E-19 1.49126E-18
 -1      3751 9.49414E-05-2.80855E-05-2.86495E-05 1.05245E-06-3.84721E-19 1.93762E-18
 -1      3752 9.47811E-05-2.79790E-05-2.86319E-05 1.15887E-06-4.43051E-19 2.25809E-18
 -1      3753 9.49156E-05-2.80584E-05-2.86543E-05 7.10699E-07 2.46843E-19 1.26085E-18
 -1      3754 9.49213E-05-2.80541E-05-2.86551E-05 8.10072E-07 5.40499E-19 1.30235E-18
 -1      3755 9.47818E-05-2.79473E-05-2.86443E-05 8.72392E-07 3.63970E-19 2.81236E-18
 -1      3756 9.49569E-05-2.81066E-05-2.86514E-05 5.30386E-07-1.50625E-19-1.42828E-19
 -1      3757 9.49471E-05-2.80831E-05-2.86544E-05 6.12186E-07-3.15790E-19-5.22519E-20
 -1      3758 9.48315E-05-2.79848E-05-2.86488E-05 6.47121E-07 9.50884E-19 8.86188E-19
 -1      3759 9.50093E-05-2.81743E-05-2.86448E-05 3.88367E-07 1.78132E-18-7.38036E-19
 -1      3760 9.49932E-05-2.81424E-05-2.86491E-05 4.54365E-07 4.02735E-19-5.39205E-19
 -1      3761 9.49011E-05-2.80571E-05-2.86472E-05 4.73364E-07 4.66845E-19 3.71720E-20
 -1      3762 9.50607E-05-2.82449E-05-2.86363E-05 2.82403E-07 2.01808E-18-1.80446E-18
 -1      3763 9.50437E-05-2.82113E-05-2.86414E-05 3.34788E-07 2.20201E-18-6.56215E-19
 -1      3764 9.49715E-05-2.81401E-05-2.86419E-05 3.45773E-07 2.39856E-18-1.18671E-18
 -1      3765 9.50341E-05-2.82203E-05-2.86345E-05 2.52514E-07 2.06606E-18-7.73994E-19
 -1      3766 1.12740E-04-2.38270E-05-3.81013E-05 1.12705E-05-6.37048E-19 6.13219E-19
 -1      3767 1.07818E-04-1.77896E-05-3.88539E-05 8.41750E-06 2.40756E-19 5.03597E-19
 -1      3768 9.53279E-05-2.44490E-05-3.03783E-05-1.01356E-06 3.42358E-19 2.12949E-19
 -1      3769 9.55388E-05-2.52107E-05-3.01449E-05-4.22425E-07 2.35767E-19 1.34516E-19
 -1      3770 9.50679E-05-2.38058E-05-3.05437E-05-1.07585E-06 4.04986E-19 3.69633E-19
 -1      3771 9.77603E-05-3.10507E-05-2.85833E-05-3.08273E-06 8.65245E-20 1.01480E-18
 -1      3772 9.72666E-05-3.05061E-05-2.85999E-05-3.07141E-06 1.96078E-19 1.07839E-18
 -1      3773 7.56462E-05-1.55999E-05-2.58536E-05 4.92273E-06-7.45329E-19 1.34858E-18
 -1      3774 7.90807E-05-1.69718E-05-2.66232E-05 3.47926E-06-6.10964E-19 1.52039E-18
 -1      3775 8.11759E-05-1.85721E-05-2.67506E-05 5.44841E-06-1.57362E-19 2.70676E-18
 -1      3776 8.54276E-05-2.03780E-05-2.79326E-05 2.23127E-07 1.50935E-19 2.44180E-18
 -1      3777 8.70721E-05-2.13855E-05-2.81615E-05-1.57436E-07 8.69422E-19 3.19872E-18
 -1      3778 8.77589E-05-2.20446E-05-2.81243E-05 9.41741E-07-1.17385E-20 2.58540E-18
 -1      3779 8.49290E-05-2.03639E-05-2.76144E-05 2.61393E-06 1.98805E-20 2.52299E-18
 -1      3780 9.36546E-05-2.07647E-05-3.12477E-05-1.10434E-06 9.00792E-19 5.51686E-19
 -1      3781 9.38122E-05-2.10673E-05-3.11926E-05-1.56557E-06 8.02087E-19 3.53854E-19
 -1      3782 9.45222E-05-2.24020E-05-3.08899E-05-1.33422E-06 6.16638E-19 3.88732E-19
 -1      3783 9.07675E-05-3.28905E-05-2.43898E-05-2.59564E-05-1.40209E-19 2.43264E-19
 -1      3784 1.00503E-04-4.03732E-05-2.61244E-05-2.35349E-05-5.62066E-19 1.94315E-19
 -1      3785 1.06149E-04-1.41313E-05-3.93919E-05 3.68233E-06 1.22481E-18-6.48344E-20
 -1      3786 1.07197E-04-1.30929E-05-4.05561E-05-1.82778E-06 8.64053E-19 7.65274E-19
 -1      3787 9.50615E-05-2.82679E-05-2.86263E-05 1.54107E-07 1.10547E-18-1.18059E-18
 -1      3788 9.56906E-05-2.57645E-05-2.99684E-05-8.45668E-08 1.91016E-19 7.95756E-20
 -1      3789 9.57407E-05-2.62494E-05-2.97876E-05 3.63498E-07 7.00649E-20-1.11265E-19
 -1      3790 9.57364E-05-2.62145E-05-2.97906E-05 3.56944E-07 9.24559E-20 1.82688E-19
 -1      3791 9.55820E-05-2.53055E-05-3.01132E-05-2.24598E-07 1.68039E-19 2.79172E-19
 -1      3792 1.15680E-04-2.67459E-05-3.84528E-05-1.22329E-05 9.93980E-19-6.92800E-19
 -1      3793 1.18278E-04-3.29477E-05-3.64585E-05-1.13486E-05 3.12317E-19-1.82610E-18
 -1      3794 1.10176E-04-4.48951E-05-2.76546E-05-1.81241E-05-3.92107E-19 5.12746E-19
 -1      3795 1.15521E-04-4.80006E-05-2.92463E-05-1.27858E-05-1.50206E-19 9.08688E-19
 -1      3796 1.20070E-04-4.78252E-05-3.07175E-05-5.72451E-06 8.43327E-20 4.58529E-19
 -1      3797 1.21023E-04-4.57904E-05-3.25483E-05 1.28425E-06-5.68544E-19-6.17995E-20
 -1      3798 1.20509E-04-4.04462E-05-3.45947E-05-7.75461E-06 4.26759E-20-2.40356E-18
 -1      3799 1.21416E-04-4.46006E-05-3.28544E-05-2.44689E-06-3.67295E-19-2.70102E-18
 -1      3800 6.53594E-05-1.24815E-05-2.26580E-05 1.11217E-05-1.99194E-18 2.15948E-18
 -1      3801 7.31265E-05-1.46463E-05-2.50256E-05 7.33591E-06-1.91809E-18 1.37921E-18
 -1      3802 7.64279E-05-1.69814E-05-2.53304E-05 1.00530E-05-9.43861E-19 2.54095E-18
 -1      3803 7.05939E-05-1.66882E-05-2.30858E-05 1.74054E-05-2.20847E-18 2.38253E-18
 -1      3804 1.09043E-04-3.86931E-05-3.01784E-05 3.00370E-06-1.02914E-18 1.87086E-18
 -1      3805 1.08144E-04-3.86197E-05-2.97651E-05 1.53845E-06-7.22016E-19 1.58348E-18
 -1      3806 1.08339E-04-3.93439E-05-2.95759E-05-6.32758E-07-9.51441E-19 2.13695E-18
 -1      3807 1.11737E-04-2.30268E-05-3.80186E-05-1.11621E-05 3.46119E-19-1.24090E-19
 -1      3808 9.49283E-05-2.34617E-05-3.06307E-05-8.78889E-07 4.49472E-19 4.56112E-19
 -1      3809 1.06706E-04-1.56784E-05-3.90859E-05-4.54161E-06 1.12835E-18 6.73634E-19
 -1      3810 7.70973E-05-1.98706E-05-2.44193E-05 1.63713E-05-2.18974E-18 2.52949E-18
 -1      3811 7.62837E-05-1.88099E-05-2.45956E-05-1.42102E-05-1.02213E-19 1.05153E-19
 -1      3812 1.13293E-04-4.54789E-05-2.90112E-05 1.21109E-05-6.89531E-19-1.85857E-18
 -1      3813 1.10983E-04-4.56141E-05-2.79366E-05 1.78810E-05-6.57797E-19-1.01140E-18
 -1      3814 1.04525E-04-4.13446E-05-2.71613E-05 1.90346E-05-1.19977E-18-6.98515E-19
 -1      3815 9.50153E-05-2.82039E-05-2.86337E-05-8.39870E-08 1.82257E-18 2.18067E-18
 -1      3816 9.50037E-05-2.81959E-05-2.86323E-05-4.92442E-08 2.23387E-18 9.33610E-19
 -1      3817 9.46410E-05-2.27675E-05-3.08121E-05 1.05505E-07 5.55652E-19 7.34046E-20
 -1      3818 9.46276E-05-2.27498E-05-3.08150E-05-2.04983E-07 6.80702E-19 1.84275E-19
 -1      3819 9.42656E-05-2.18645E-05-3.10078E-05-7.21627E-07 8.17252E-19 5.48485E-19
 -1      3820 8.92419E-05-3.09106E-05-2.48450E-05 2.35064E-05-1.53741E-18 1.09097E-19
 -1      3821 8.55964E-05-2.70563E-05-2.51558E-05 2.00659E-05-1.71946E-18 7.08259E-19
 -1      3822 9.51759E-05-3.46234E-05-2.59761E-05 2.13209E-05-1.53817E-18 5.13170E-19
 -1      3823 9.56504E-05-2.53958E-05-3.01167E-05 4.23695E-07 3.47100E-19 3.66593E-19
 -1      3824 9.54785E-05-2.47579E-05-3.02988E-05 8.76789E-07 3.94681E-19 3.98364E-19
 -1      3825 1.11502E-04-4.00079E-05-3.06168E-05 2.79312E-06-7.70535E-19 1.72672E-18
 -1      3826 1.01803E-04-3.50394E-05-2.86525E-05-3.68532E-06-3.06995E-19 2.34533E-18
 -1      3827 1.01075E-04-3.42014E-05-2.86636E-05-2.70968E-06-1.49034E-19 1.46513E-18
 -1      3828 1.00112E-04-3.33048E-05-2.86037E-05-3.03606E-06-3.94792E-19 1.71969E-18
 -1      3829 1.15563E-04-3.92521E-05-3.27730E-05 6.83461E-06-9.63462E-19 7.54999E-19
 -1      3830 1.07306E-04-2.61449E-05-3.47463E-05 1.02858E-05-9.12432E-19 5.21553E-19
 -1      3831 1.08725E-04-2.96243E-05-3.40336E-05 1.05875E-05-1.01131E-18 9.70888E-19
 -1      3832 1.02056E-04-1.64022E-05-3.67690E-05-7.40514E-07 9.86803E-19-2.96280E-19
 -1      3833 1.02328E-04-1.68823E-05-3.66902E-05 2.48021E-06 7.20223E-19-9.86984E-20
 -1      3834 1.13148E-04-3.09948E-05-3.52866E-05-1.14014E-05-7.48823E-19-1.63187E-18
 -1      3835 1.09114E-04-2.78485E-05-3.49111E-05-1.11223E-05-7.81209E-19-4.15625E-20
 -1      3836 1.07459E-04-2.43493E-05-3.56189E-05-9.81220E-06-5.08273E-19-8.51083E-19
 -1      3837 9.50121E-05-2.82156E-05-2.86279E-05 7.29715E-08 2.76607E-18-3.94846E-19
 -1      3838 9.50276E-05-2.82306E-05-2.86269E-05 1.04054E-07 2.50049E-18-1.62652E-18
 -1      3839 1.16612E-04-3.55467E-05-3.47366E-05-9.45597E-06-8.91502E-20-2.20595E-18
 -1      3840 9.50597E-05-2.82455E-05-2.86349E-05-1.38098E-07 4.65200E-19 2.58886E-18
 -1      3841 9.50376E-05-2.82262E-05-2.86342E-05-1.14183E-07 6.49678E-19 3.04374E-18
 -1      3842 9.49898E-05-2.81655E-05-2.86384E-05-1.04792E-07 2.35950E-18 1.75769E-18
 -1      3843 9.50416E-05-2.82164E-05-2.86393E-05-1.57219E-07-9.18302E-20 2.24453E-18
 -1      3844 1.15548E-04-4.56357E-05-2.98780E-05-7.20562E-06-4.71837E-19 6.21094E-19
 -1      3845 9.84026E-05-3.17015E-05-2.85674E-05-3.19606E-06-5.70273E-19 1.24671E-18
 -1      3846 9.78824E-05-3.13465E-05-2.85413E-05-3.67393E-06-2.45237E-19 1.21299E-18
 -1      3847 9.91304E-05-3.24385E-05-2.85788E-05-3.08083E-06-8.66882E-19 1.57602E-18
 -1      3848 9.68937E-05-3.00531E-05-2.86390E-05-2.89823E-06 1.85027E-19 1.19552E-18
 -1      3849 9.65910E-05-2.96693E-05-2.86737E-05-2.81651E-06 3.97317E-19 1.09037E-18
 -1      3850 9.68918E-05-3.01909E-05-2.86043E-05-3.29010E-06 1.77027E-19 7.85399E-19
 -1      3851 9.61981E-05-2.88810E-05-2.88457E-05-2.31350E-06 2.68404E-20 6.55637E-19
 -1      3852 9.61333E-05-2.86708E-05-2.89094E-05-2.16073E-06 3.33629E-20 6.49911E-19
 -1      3853 9.50404E-05-2.82454E-05-2.86257E-05 6.02527E-09 1.35889E-18 7.58891E-19
 -1      3854 8.40093E-05-2.69379E-05-2.43384E-05-2.16264E-05-2.45534E-19 2.00523E-19
 -1      3855 1.03996E-04-4.06275E-05-2.71452E-05-1.83090E-05-6.24793E-19 4.32895E-19
 -1      3856 9.60000E-05-2.66699E-05-2.97165E-05-4.42665E-07 2.68522E-19 5.93298E-19
 -1      3857 9.59036E-05-2.61202E-05-2.99029E-05 1.90731E-08 2.75103E-19 4.61436E-19
 -1      3858 9.57555E-05-2.55705E-05-3.00825E-05 1.43567E-07 3.23684E-19 2.88423E-19
 -1      3859 9.50197E-05-2.82140E-05-2.86307E-05 1.62449E-07 2.07812E-18-6.50038E-19
 -1      3860 9.61417E-05-2.84818E-05-2.89947E-05-1.96542E-06 5.79930E-20 7.79977E-19
 -1      3861 9.61282E-05-2.82730E-05-2.90780E-05-1.77296E-06-5.01265E-20 7.73100E-19
 -1      3862 9.61036E-05-2.84589E-05-2.89955E-05-2.00561E-06 1.98808E-19 4.88562E-19
 -1      3863 9.45055E-05-2.23498E-05-3.09062E-05 1.44698E-06 5.38738E-19 3.50338E-19
 -1      3864 9.47889E-05-2.30757E-05-3.07475E-05 6.13092E-07 5.16351E-19 3.08526E-19
 -1      3865 9.46900E-05-2.28686E-05-3.07890E-05 3.13928E-07 5.59796E-19 2.13690E-19
 -1      3866 9.51265E-05-2.37459E-05-3.05734E-05 9.93669E-08 5.18482E-19 1.60305E-19
 -1      3867 1.09220E-04-2.42160E-05-3.64082E-05 1.05832E-05-5.75307E-19 2.27574E-19
 -1      3868 1.14895E-04-3.31350E-05-3.50148E-05 1.05042E-05-7.03869E-19 3.86379E-19
 -1      3869 1.18924E-04-4.24446E-05-3.28286E-05 4.15337E-06-8.16884E-19 5.94035E-19
 -1      3870 1.15061E-04-2.93507E-05-3.68512E-05 1.19876E-05-7.56836E-19 6.55855E-19
 -1      3871 1.20874E-04-4.64034E-05-3.19728E-05 7.00245E-07-4.47468E-19-2.83035E-18
 -1      3872 1.17686E-04-4.61364E-05-3.07274E-05 4.33615E-06-7.07038E-19-2.15699E-18
 -1      3873 1.05413E-04-1.68861E-05-3.80195E-05 4.82022E-06 6.27400E-19 3.71622E-19
 -1      3874 9.53927E-05-2.69101E-05-2.93483E-05 6.72316E-07 9.66735E-20 6.78243E-19
 -1      3875 9.51092E-05-2.69116E-05-2.92356E-05 7.50027E-07-1.34742E-19 7.52911E-19
 -1      3876 9.48073E-05-2.68417E-05-2.91270E-05 7.02887E-07-1.00576E-19 7.70947E-19
 -1      3877 9.44059E-05-2.66863E-05-2.90332E-05 6.84362E-07 5.97557E-20 8.05941E-19
 -1      3878 9.50482E-05-2.68896E-05-2.92045E-05 3.41442E-07-6.41760E-20 1.02171E-18
 -1      3879 9.39686E-05-2.64687E-05-2.89266E-05 5.23512E-07-1.00730E-19 6.61978E-19
 -1      3880 9.33876E-05-2.61572E-05-2.88280E-05 3.76271E-07-1.41784E-19 5.75202E-19
 -1      3881 9.43243E-05-2.66746E-05-2.89850E-05 1.08033E-07-1.88596E-19 8.69364E-19
 -1      3882 9.28247E-05-2.58138E-05-2.87153E-05 6.04296E-08-3.08982E-19 6.29119E-19
 -1      3883 9.20523E-05-2.53742E-05-2.85985E-05-2.64634E-07-3.20907E-19 7.31284E-19
 -1      3884 9.33406E-05-2.62043E-05-2.87622E-05-4.14412E-07-2.04700E-19 6.32587E-19
 -1      3885 9.13697E-05-2.49424E-05-2.84614E-05-8.06987E-07-3.33433E-19 6.71708E-19
 -1      3886 9.03592E-05-2.43982E-05-2.83013E-05-1.39444E-06-4.04122E-19 5.08867E-19
 -1      3887 9.21202E-05-2.55651E-05-2.85101E-05-1.33669E-06-3.36436E-19 9.32355E-19
 -1      3888 8.95795E-05-2.39399E-05-2.81166E-05-2.26033E-06-3.58504E-19 3.67698E-19
 -1      3889 8.82839E-05-2.33406E-05-2.78780E-05-3.24505E-06-3.74139E-19 2.59758E-19
 -1      3890 9.06850E-05-2.48705E-05-2.81900E-05-2.83322E-06-3.84712E-19 7.86359E-19
 -1      3891 8.74401E-05-2.29408E-05-2.76165E-05-4.56425E-06-3.17261E-19 2.88968E-19
 -1      3892 8.58499E-05-2.23989E-05-2.72493E-05-6.12471E-06-1.01397E-19 2.84877E-19
 -1      3893 8.90919E-05-2.43004E-05-2.77524E-05-5.14737E-06-2.46614E-19 8.26699E-19
 -1      3894 8.50598E-05-2.22481E-05-2.68729E-05-8.01989E-06-1.20550E-19 2.44988E-19
 -1      3895 8.31857E-05-2.19204E-05-2.62953E-05-1.04602E-05-3.17180E-20 2.31759E-19
 -1      3896 8.74325E-05-2.41302E-05-2.71361E-05-8.59768E-06-1.64647E-19 6.04073E-19
 -1      3897 8.95593E-05-2.35804E-05-2.83074E-05 1.01307E-06 1.46799E-19 1.76748E-18
 -1      3898 9.04970E-05-2.41765E-05-2.84207E-05 6.08072E-07 3.97184E-19 1.25705E-18
 -1      3899 9.50958E-05-2.37013E-05-3.05803E-05-2.31043E-07 5.51573E-19 3.42604E-19
 -1      3900 9.46524E-05-2.28059E-05-3.07988E-05-4.03643E-07 7.08824E-19 6.17310E-19
 -1      3901 9.47320E-05-2.29796E-05-3.07633E-05-7.00296E-07 6.16916E-19 6.23507E-19
 -1      3902 1.12304E-04-4.38427E-05-2.90998E-05-8.82869E-06-7.40069E-19 7.58028E-19
 -1      3903 1.14607E-04-4.42679E-05-3.02911E-05-3.28832E-06-3.80189E-19 7.45159E-19
 -1      3904 9.11362E-05-2.46669E-05-2.85080E-05 2.00600E-07 1.62343E-19 7.81033E-19
 -1      3905 9.18145E-05-2.51549E-05-2.85689E-05 2.74813E-09 9.28901E-19 7.70377E-19
 -1      3906 9.09977E-05-2.46680E-05-2.84098E-05 1.10534E-06-9.46224E-20 2.04764E-19
 -1      3907 9.23105E-05-2.55668E-05-2.86182E-05-2.20989E-07 1.04966E-18-3.86456E-19
 -1      3908 9.27935E-05-2.59537E-05-2.86475E-05-2.96917E-07 3.64226E-19-1.28629E-18
 -1      3909 9.21080E-05-2.54649E-05-2.85484E-05 3.96667E-07 1.16904E-19-1.45345E-18
 -1      3910 9.31676E-05-2.62855E-05-2.86725E-05-4.05039E-07 5.43929E-19-1.13506E-18
 -1      3911 9.35092E-05-2.65873E-05-2.86830E-05-4.12177E-07-2.57056E-20-5.73556E-19
 -1      3912 9.29578E-05-2.61416E-05-2.86255E-05 9.26936E-09 2.48209E-19-2.16489E-18
 -1      3913 9.37870E-05-2.68487E-05-2.86933E-05-4.53869E-07-7.78469E-19-3.86091E-19
 -1      3914 9.40254E-05-2.70793E-05-2.86935E-05-4.26162E-07-4.90204E-19-3.26532E-19
 -1      3915 9.35961E-05-2.66994E-05-2.86630E-05-1.81288E-07-5.61709E-19-8.72051E-19
 -1      3916 9.42207E-05-2.72730E-05-2.86951E-05-4.29988E-07 1.82063E-19-6.12734E-19
 -1      3917 9.43802E-05-2.74410E-05-2.86904E-05-3.89734E-07 5.00452E-19-2.04640E-20
 -1      3918 9.40583E-05-2.71333E-05-2.86768E-05-2.52563E-07-2.45496E-19-6.53172E-19
 -1      3919 9.45314E-05-2.75987E-05-2.86873E-05-3.74798E-07 7.78862E-19-3.39713E-19
 -1      3920 9.46484E-05-2.77331E-05-2.86797E-05-3.29475E-07 6.12366E-19 9.57024E-19
 -1      3921 9.43994E-05-2.74778E-05-2.86770E-05-2.59299E-07 1.16370E-18-7.00830E-19
 -1      3922 9.47573E-05-2.78535E-05-2.86741E-05-3.06388E-07-2.34622E-20 1.31385E-18
 -1      3923 9.48379E-05-2.79545E-05-2.86657E-05-2.64081E-07-6.40159E-20 1.39158E-18
 -1      3924 9.46545E-05-2.77524E-05-2.86695E-05-2.34179E-07 1.52839E-19 2.99933E-19
 -1      3925 1.05706E-04-3.83423E-05-2.88922E-05-4.41928E-06-3.32092E-19 1.50967E-18
 -1      3926 1.04016E-04-3.69238E-05-2.86949E-05-4.91023E-06-7.05602E-20 2.05973E-18
 -1      3927 9.49388E-05-2.81238E-05-2.86348E-05 1.32202E-07 2.61287E-18-1.04418E-18
 -1      3928 9.49758E-05-2.81637E-05-2.86343E-05 1.93137E-07 1.74718E-18-4.24068E-20
 -1      3929 9.49440E-05-2.81201E-05-2.86381E-05 2.31965E-07 2.05395E-18-1.52528E-20
 -1      3930 1.15489E-04-4.24564E-05-3.12499E-05 2.02237E-06-5.68518E-19 9.62172E-19
 -1      3931 1.14040E-04-4.27903E-05-3.05380E-05-1.70232E-07-5.31064E-19 1.22036E-18
 -1      3932 9.50697E-05-2.37572E-05-3.05668E-05 1.19254E-06 4.98396E-19 3.89778E-19
 -1      3933 9.50008E-05-2.82003E-05-2.86289E-05 4.08771E-08 2.38326E-18 1.29011E-18
 -1      3934 9.49703E-05-2.81611E-05-2.86322E-05 7.51065E-08 3.21502E-18-1.99581E-19
 -1      3935 9.49221E-05-2.81070E-05-2.86357E-05 9.88362E-08 2.81648E-18 2.77874E-19
 -1      3936 9.49976E-05-2.81953E-05-2.86301E-05 4.55459E-09 2.12129E-18 1.46071E-18
 -1      3937 1.05597E-04-3.79720E-05-2.89232E-05 4.18486E-06-4.43401E-19-8.37806E-20
 -1      3938 1.07481E-04-3.92997E-05-2.92248E-05 3.28880E-06-4.16080E-19-5.90828E-19
 -1      3939 1.01798E-04-3.50328E-05-2.85727E-05 4.80307E-06 1.79320E-19-1.56668E-21
 -1      3940 1.03417E-04-3.64159E-05-2.87182E-05 4.48520E-06-1.06409E-20 6.03995E-20
 -1      3941 1.04122E-04-3.73782E-05-2.86433E-05 6.30142E-06-4.64014E-19-1.09893E-18
 -1      3942 9.89605E-05-3.25217E-05-2.84444E-05 4.54655E-06-2.55778E-19 4.27152E-19
 -1      3943 1.00186E-04-3.36648E-05-2.85008E-05 4.60465E-06 2.66759E-19 2.59352E-19
 -1      3944 1.00361E-04-3.41415E-05-2.84061E-05 6.03917E-06 2.29681E-19-9.21081E-19
 -1      3945 9.70139E-05-3.06449E-05-2.84285E-05 3.94765E-06-1.69883E-20 2.39627E-19
 -1      3946 9.78896E-05-3.15134E-05-2.84363E-05 4.16942E-06-4.60178E-19-2.75806E-19
 -1      3947 9.77720E-05-3.17438E-05-2.83382E-05 5.30220E-06-2.30165E-19-1.16877E-18
 -1      3948 9.57833E-05-2.93492E-05-2.84654E-05 3.21707E-06-2.00333E-20 5.68771E-19
 -1      3949 9.63586E-05-2.99414E-05-2.84518E-05 3.49692E-06 5.98365E-19 3.67166E-19
 -1      3950 9.60851E-05-2.99522E-05-2.83685E-05 4.30899E-06-1.61701E-19-1.75896E-18
 -1      3951 9.50778E-05-2.85352E-05-2.85164E-05 2.52245E-06 6.81253E-19 3.29692E-19
 -1      3952 9.54247E-05-2.89065E-05-2.84965E-05 2.79784E-06-1.35599E-19 1.52777E-19
 -1      3953 9.51072E-05-2.87981E-05-2.84328E-05 3.33776E-06 2.30141E-19-1.30327E-18
 -1      3954 9.47222E-05-2.80732E-05-2.85643E-05 1.92439E-06-3.47489E-19 5.89538E-19
 -1      3955 9.49091E-05-2.82819E-05-2.85456E-05 2.16848E-06 1.24967E-19 3.20234E-19
 -1      3956 9.46042E-05-2.81240E-05-2.84992E-05 2.51102E-06 1.91031E-19-4.81920E-19
 -1      3957 9.45910E-05-2.78585E-05-2.86013E-05 1.43892E-06-1.37735E-18 1.45222E-18
 -1      3958 9.46726E-05-2.79537E-05-2.85873E-05 1.64118E-06-8.88497E-19 9.71795E-19
 -1      3959 9.44028E-05-2.77835E-05-2.85553E-05 1.84415E-06-1.26436E-18 4.83237E-19
 -1      3960 9.45872E-05-2.77972E-05-2.86265E-05 1.06102E-06-8.32574E-19 1.94988E-18
 -1      3961 9.46070E-05-2.78225E-05-2.86174E-05 1.22388E-06-1.16884E-18 1.94524E-18
 -1      3962 9.43817E-05-2.76620E-05-2.85964E-05 1.33298E-06-1.52644E-18 1.37572E-18
 -1      3963 9.46536E-05-2.78306E-05-2.86406E-05 7.71622E-07 1.02464E-18 2.02114E-18
 -1      3964 9.46383E-05-2.78131E-05-2.86362E-05 8.98772E-07-3.50453E-20 2.26618E-18
 -1      3965 9.44545E-05-2.76668E-05-2.86236E-05 9.50368E-07-2.44683E-19 1.05884E-18
 -1      3966 9.47486E-05-2.79126E-05-2.86459E-05 5.55173E-07 1.76023E-18 7.58251E-19
 -1      3967 9.47169E-05-2.78734E-05-2.86451E-05 6.52870E-07 1.78639E-18 2.04271E-18
 -1      3968 9.45724E-05-2.77483E-05-2.86384E-05 6.70669E-07 1.37220E-18 9.21363E-19
 -1      3969 9.48467E-05-2.80133E-05-2.86447E-05 3.96019E-07 1.72436E-18-1.14758E-18
 -1      3970 9.48122E-05-2.79670E-05-2.86465E-05 4.68573E-07 1.77573E-18 6.98747E-20
 -1      3971 9.47005E-05-2.78629E-05-2.86439E-05 4.69335E-07 2.20969E-18-3.77034E-19
 -1      3972 1.15107E-04-4.38595E-05-3.05011E-05 2.50299E-06-3.90270E-19-1.87642E-18
 -1      3973 1.15234E-04-4.56201E-05-2.98006E-05 7.36781E-06-6.17846E-19-1.60666E-18
 -1      3974 1.10805E-04-4.14007E-05-2.97771E-05-2.07202E-06-7.73238E-19 1.41370E-18
 -1      3975 8.42053E-05-2.34604E-05-2.59329E-05-1.35061E-05 1.20090E-19 2.70819E-19
 -1      3976 8.12213E-05-2.34041E-05-2.46966E-05-1.81248E-05-1.20477E-19 4.78190E-19
 -1      3977 9.16078E-05-3.17427E-05-2.58903E-05-1.98888E-05-4.01596E-19 3.96246E-19
 -1      3978 8.73369E-05-2.59761E-05-2.63951E-05-1.37371E-05-1.14310E-19 7.40856E-19
 -1      3979 8.17223E-05-2.00240E-05-2.65317E-05 8.26730E-06-4.08612E-19 1.93481E-18
 -1      3980 8.39103E-05-2.06967E-05-2.70632E-05 6.32895E-06-2.41346E-19 1.46280E-18
 -1      3981 9.62534E-05-2.90968E-05-2.87770E-05-2.50447E-06 2.21239E-19 6.64193E-19
 -1      3982 9.61409E-05-2.88769E-05-2.88355E-05-2.42534E-06 1.91964E-19 1.92416E-19
 -1      3983 9.64130E-05-2.93656E-05-2.87284E-05-2.62550E-06 4.10120E-19 8.04776E-19
 -1      3984 1.10381E-04-4.11306E-05-2.96312E-05 2.80309E-06-2.79377E-19-1.25559E-18
 -1      3985 1.12220E-04-4.19198E-05-3.01681E-05 1.23655E-06 1.10467E-19-1.37191E-18
 -1      3986 8.12574E-05-2.26459E-05-2.50261E-05 1.73292E-05-2.09739E-18 2.98840E-18
 -1      3987 7.76949E-05-1.95369E-05-2.50099E-05 1.41284E-05-1.72562E-18 2.54096E-18
 -1      3988 8.02652E-05-1.97679E-05-2.58698E-05 1.09691E-05-1.04725E-18 2.36551E-18
 -1      3989 8.63249E-05-2.63070E-05-2.56804E-05 1.74016E-05-1.69952E-18 1.19902E-18
 -1      3990 9.52665E-05-2.42129E-05-3.04399E-05-5.12302E-07 3.21563E-19 5.84462E-19
 -1      3991 9.57164E-05-2.65967E-05-2.96212E-05 4.55214E-07 2.44808E-19 5.55212E-19
 -1      3992 9.55748E-05-2.67992E-05-2.94822E-05 6.30781E-07 2.86356E-19 7.70222E-19
 -1      3993 9.55291E-05-2.67959E-05-2.94509E-05 3.65073E-07 5.88101E-20 9.70279E-19
 -1      3994 1.09155E-04-4.05060E-05-2.93559E-05-3.26391E-06-7.89756E-19 1.44154E-18
 -1      3995 1.17874E-04-4.25583E-05-3.22198E-05-3.36670E-06-3.99432E-19-2.91571E-18
 -1      3996 9.49859E-05-2.35426E-05-3.06245E-05 8.36482E-07 5.18807E-19 2.61777E-19
 -1      3997 9.95862E-05-3.66280E-05-2.67333E-05-1.81528E-05-4.53613E-19 1.86688E-19
 -1      3998 1.06348E-04-4.17184E-05-2.79869E-05-1.44596E-05-4.92192E-19 5.78199E-19
 -1      3999 9.53483E-05-2.43042E-05-3.04331E-05 4.63848E-07 3.92388E-19 2.55791E-19
 -1      4000 9.53481E-05-2.44509E-05-3.03910E-05-1.27312E-07 4.36959E-19 2.66832E-19
 -1      4001 9.53497E-05-2.45041E-05-3.03748E-05-2.43993E-07 3.69015E-19 6.54478E-19
 -1      4002 9.53801E-05-2.44960E-05-3.03869E-05-7.42384E-08 4.61241E-19 8.01751E-20
 -1      4003 9.56471E-05-2.51636E-05-3.01927E-05-1.37754E-07 3.00853E-19 2.56521E-19
 -1      4004 9.54371E-05-2.46135E-05-3.03612E-05 6.09140E-08 4.53720E-19 1.10963E-19
 -1      4005 9.49621E-05-2.81434E-05-2.86355E-05-1.55171E-08 2.95755E-18 1.86975E-18
 -1      4006 1.07967E-04-4.04860E-05-2.90195E-05-5.93480E-06-4.42213E-19 1.03602E-18
 -1      4007 1.10821E-04-4.34723E-05-2.89188E-05 1.02199E-05-6.26521E-19-1.63349E-18
 -1      4008 8.59794E-05-2.23576E-05-2.72366E-05 7.15017E-06-3.14861E-19 1.91726E-19
 -1      4009 8.49459E-05-2.11191E-05-2.74172E-05 4.67534E-06-1.05871E-19 9.04507E-19
 -1      4010 8.65791E-05-2.18220E-05-2.77388E-05 3.48712E-06-2.97754E-19 5.20951E-19
 -1      4011 8.87757E-05-2.30415E-05-2.81653E-05 1.68468E-06 6.56691E-19 1.68770E-18
 -1      4012 8.96086E-05-2.38014E-05-2.81807E-05 2.29787E-06 8.75370E-19 9.46876E-19
 -1      4013 8.75377E-05-2.23688E-05-2.79736E-05 2.38888E-06 2.06559E-19 1.56283E-18
 -1      4014 9.57339E-05-2.59467E-05-2.99098E-05 1.24563E-07 1.90810E-19 5.66979E-19
 -1      4015 9.57358E-05-2.63085E-05-2.97619E-05 3.59622E-07 1.18633E-19 5.49438E-19
 -1      4016 9.57279E-05-2.63416E-05-2.97331E-05 2.41349E-07 2.13333E-19 8.60260E-19
 -1      4017 1.07570E-04-4.09140E-05-2.85454E-05-1.00567E-05-5.39792E-19 6.48472E-19
 -1      4018 9.58033E-05-3.30861E-05-2.67880E-05-1.60973E-05-4.67443E-19 3.96813E-19
 -1      4019 1.00230E-04-3.75920E-05-2.67337E-05 1.92146E-05-1.21329E-18-6.90795E-20
 -1      4020 9.53307E-05-3.35997E-05-2.65562E-05 1.79989E-05-1.05130E-18 6.76637E-19
 -1      4021 1.04217E-04-3.96243E-05-2.76559E-05 1.54188E-05-8.34237E-19-3.76140E-19
 -1      4022 9.61325E-05-2.75224E-05-2.94059E-05-1.10066E-06 1.13984E-19 6.33782E-19
 -1      4023 9.61023E-05-2.71499E-05-2.95485E-05-7.63859E-07 1.09162E-19 5.61846E-19
 -1      4024 9.60535E-05-2.67516E-05-2.96989E-05-5.90540E-07 9.35216E-20 3.27466E-19
 -1      4025 9.49151E-05-2.80451E-05-2.86591E-05-2.39215E-07-2.62176E-19 5.43303E-19
 -1      4026 9.49707E-05-2.81207E-05-2.86508E-05-2.02283E-07-6.04607E-19 1.07420E-18
 -1      4027 9.50216E-05-2.81855E-05-2.86442E-05-1.80597E-07-3.54104E-19 2.02780E-18
 -1      4028 9.56235E-05-2.51364E-05-3.02112E-05 7.36100E-08 3.21552E-19 2.80470E-19
 -1      4029 1.02202E-04-3.55276E-05-2.85717E-05-4.95647E-06-3.87356E-19 2.09970E-18
 -1      4030 1.00826E-04-3.42724E-05-2.84838E-05-5.08672E-06-5.37528E-19 1.90208E-18
 -1      4031 1.02578E-04-3.62910E-05-2.84880E-05-6.51155E-06-4.17549E-19 1.66314E-18
 -1      4032 9.49648E-05-2.81241E-05-2.86453E-05-1.53902E-07 6.01338E-19 6.87984E-19
 -1      4033 1.15804E-04-3.99271E-05-3.25996E-05-6.52760E-06 4.19907E-19-2.02924E-18
 -1      4034 1.15717E-04-3.70314E-05-3.36742E-05-8.58310E-06-4.41132E-19-2.53013E-18
 -1      4035 1.14519E-04-4.21058E-05-3.10021E-05-1.70946E-06 2.69021E-19-1.57396E-18
 -1      4036 9.49131E-05-2.80876E-05-2.86403E-05 2.79893E-07 1.99429E-18 1.10635E-19
 -1      4037 9.48782E-05-2.80405E-05-2.86434E-05 3.29993E-07 1.54955E-18-3.64049E-19
 -1      4038 9.47882E-05-2.79518E-05-2.86433E-05 3.21068E-07 1.58145E-18-1.84806E-18
 -1      4039 9.48543E-05-2.80297E-05-2.86401E-05 2.10323E-07 1.28097E-18-4.31636E-19
 -1      4040 1.15544E-04-4.13117E-05-3.18462E-05-3.91163E-06 3.77610E-19-1.84217E-18
 -1      4041 9.53939E-05-2.46197E-05-3.03305E-05-2.60627E-07 3.36783E-19 9.34432E-19
 -1      4042 9.55343E-05-2.50805E-05-3.02028E-05-2.98233E-07 1.79758E-19 6.36564E-19
 -1      4043 9.56684E-05-2.56167E-05-3.00242E-05 2.36298E-08 1.66899E-19 5.78367E-19
 -1      4044 9.56295E-05-2.52488E-05-3.01509E-05-1.28835E-07 2.55545E-19 7.41508E-19
 -1      4045 9.63601E-05-2.94087E-05-2.87055E-05-2.85478E-06 2.80876E-19 6.58637E-19
 -1      4046 9.61466E-05-2.80696E-05-2.91753E-05-1.57890E-06 2.08728E-20 7.56532E-19
 -1      4047 9.61441E-05-2.78085E-05-2.92843E-05-1.32731E-06 1.31124E-19 7.19043E-19
 -1      4048 9.61492E-05-2.75353E-05-2.94072E-05-1.14490E-06-3.61654E-20 4.80144E-19
 -1      4049 9.61362E-05-2.80467E-05-2.91842E-05-1.58983E-06 5.13033E-20 5.37764E-19
 -1      4050 9.94847E-05-3.29652E-05-2.85404E-05-3.88249E-06-5.84590E-19 1.34650E-18
 -1      4051 9.49373E-05-2.81027E-05-2.86445E-05-1.21431E-07 1.05620E-18 1.61154E-18
 -1      4052 9.67544E-05-3.00971E-05-2.85545E-05-3.65601E-06 1.59806E-19 7.23598E-19
 -1      4053 9.63750E-05-2.96266E-05-2.86011E-05-3.39966E-06 1.46796E-19 6.83741E-19
 -1      4054 9.48719E-05-2.80241E-05-2.86490E-05-1.12743E-07-6.14509E-19 5.17471E-19
 -1      4055 9.49044E-05-2.80722E-05-2.86423E-05-6.17475E-08 1.39647E-18 2.74236E-18
 -1      4056 9.60182E-05-2.87717E-05-2.88121E-05-2.48276E-06 2.11238E-20 2.82857E-19
 -1      4057 9.59620E-05-2.85582E-05-2.88868E-05-2.25414E-06 1.45455E-19 3.86049E-19
 -1      4058 1.09307E-04-4.12453E-05-2.92060E-05 5.94374E-06-8.77204E-19-1.76582E-18
 -1      4059 8.35788E-05-2.21081E-05-2.62753E-05 1.17784E-05-9.80497E-19 1.51147E-18
 -1      4060 9.60189E-05-2.83878E-05-2.89799E-05-1.99873E-06 2.83527E-19 1.84612E-19
 -1      4061 9.60278E-05-2.81945E-05-2.90711E-05-1.77777E-06 2.70227E-19 2.31171E-19
 -1      4062 9.58367E-05-2.82864E-05-2.89550E-05-2.03310E-06 1.45911E-19 1.58381E-19
 -1      4063 9.78124E-05-3.13275E-05-2.84754E-05-4.30894E-06-7.98477E-19 1.53072E-18
 -1      4064 9.71568E-05-3.06282E-05-2.84995E-05-4.06409E-06-4.00812E-19 1.35919E-18
 -1      4065 9.64701E-05-3.00670E-05-2.84854E-05-4.20770E-06-6.05333E-19 8.99622E-19
 -1      4066 9.48963E-05-2.80709E-05-2.86396E-05 1.11644E-09 1.88456E-18 1.12580E-18
 -1      4067 9.48371E-05-2.79644E-05-2.86580E-05-1.94629E-07-9.25844E-19-1.54020E-19
 -1      4068 9.53225E-05-2.70161E-05-2.92703E-05 1.70138E-08-8.17554E-20 6.64456E-19
 -1      4069 9.50163E-05-2.70023E-05-2.91577E-05-4.38608E-08-1.46074E-19 5.78247E-19
 -1      4070 9.47215E-05-2.69504E-05-2.90407E-05-2.29862E-07-2.96650E-19 8.47202E-19
 -1      4071 9.42884E-05-2.68157E-05-2.89296E-05-4.19804E-07-3.51755E-19 6.19200E-19
 -1      4072 9.50179E-05-2.70951E-05-2.91028E-05-5.37506E-07-3.00643E-19 3.49996E-19
 -1      4073 9.39275E-05-2.66679E-05-2.88171E-05-7.60044E-07-2.94232E-19 7.40968E-19
 -1      4074 9.33661E-05-2.64320E-05-2.87013E-05-1.11980E-06-1.58186E-19 1.01297E-18
 -1      4075 9.43803E-05-2.70160E-05-2.88726E-05-1.07734E-06-3.89358E-19 7.02688E-19
 -1      4076 9.29614E-05-2.62523E-05-2.85807E-05-1.63479E-06-1.45325E-19 1.01706E-18
 -1      4077 9.22782E-05-2.59740E-05-2.84426E-05-2.25504E-06-3.24454E-19 1.08047E-18
 -1      4078 9.36094E-05-2.67721E-05-2.86401E-05-1.94197E-06-1.76691E-19 8.09346E-19
 -1      4079 9.19069E-05-2.58245E-05-2.82999E-05-2.99163E-06-5.75318E-19 9.86130E-19
 -1      4080 9.11482E-05-2.56161E-05-2.81176E-05-3.95087E-06-4.82374E-19 9.09742E-19
 -1      4081 9.27967E-05-2.65414E-05-2.83775E-05-3.28050E-06-4.58754E-19 8.02757E-19
 -1      4082 9.08758E-05-2.55915E-05-2.79408E-05-5.10641E-06-4.25829E-19 7.79068E-19
 -1      4083 9.00630E-05-2.55061E-05-2.76935E-05-6.51274E-06-3.30720E-19 6.24185E-19
 -1      4084 9.21827E-05-2.67231E-05-2.80694E-05-5.19868E-06-4.50037E-19 4.60711E-19
 -1      4085 9.00936E-05-2.58697E-05-2.74703E-05-8.04032E-06-3.10759E-19 4.66907E-19
 -1      4086 8.94086E-05-2.60845E-05-2.71209E-05-1.02061E-05-1.85102E-19 4.12495E-19
 -1      4087 9.18184E-05-2.72596E-05-2.76863E-05-7.87130E-06-5.18581E-19 6.10884E-19
 -1      4088 9.56891E-05-2.67661E-05-2.95414E-05 8.25081E-08 9.19929E-20 7.76254E-19
 -1      4089 9.55087E-05-2.69238E-05-2.94023E-05 1.27811E-07-3.24697E-20 6.68593E-19
 -1      4090 9.55220E-05-2.70393E-05-2.93533E-05-2.28448E-07-1.96042E-22 4.09688E-19
 -1      4091 1.03915E-04-3.80007E-05-2.81597E-05-1.03552E-05-2.76553E-19 6.95993E-19
 -1      4092 9.20079E-05-2.55586E-05-2.84991E-05 9.58938E-07-6.04245E-19-1.62396E-19
 -1      4093 9.25108E-05-2.58840E-05-2.85513E-05 6.68387E-07-6.74554E-19-1.34943E-18
 -1      4094 9.28349E-05-2.61504E-05-2.85903E-05 3.97455E-07-5.83377E-19-2.15699E-18
 -1      4095 9.32047E-05-2.64246E-05-2.86181E-05 2.39613E-07-7.12949E-19-2.16568E-18
 -1      4096 9.28455E-05-2.62125E-05-2.85488E-05 9.01609E-07-9.96961E-19-8.29442E-19
 -1      4097 9.34602E-05-2.66566E-05-2.86396E-05 9.28814E-08-3.78627E-19-2.69694E-18
 -1      4098 9.37405E-05-2.68854E-05-2.86523E-05 1.50838E-08-4.79962E-19-2.53239E-18
 -1      4099 9.33981E-05-2.66217E-05-2.86088E-05 4.45890E-07-8.93392E-19-2.57247E-18
 -1      4100 9.39358E-05-2.70725E-05-2.86620E-05-6.16069E-08-2.80536E-19-2.38427E-18
 -1      4101 9.41339E-05-2.72495E-05-2.86656E-05-9.02911E-08 6.09578E-19-1.18738E-18
 -1      4102 9.38557E-05-2.70024E-05-2.86416E-05 1.81472E-07 4.63233E-19-2.27047E-18
 -1      4103 9.42951E-05-2.74109E-05-2.86687E-05-1.30759E-07 1.24196E-18-7.70275E-20
 -1      4104 9.44475E-05-2.75600E-05-2.86670E-05-1.33528E-07 1.19892E-18-7.23673E-19
 -1      4105 9.42137E-05-2.73327E-05-2.86558E-05 3.73943E-08 1.19233E-18-8.58754E-19
 -1      4106 9.45704E-05-2.76911E-05-2.86655E-05-1.47790E-07 8.78803E-19-4.26812E-19
 -1      4107 9.46814E-05-2.78076E-05-2.86609E-05-1.36733E-07 1.21098E-19-4.46221E-19
 -1      4108 9.44939E-05-2.76123E-05-2.86585E-05-3.65584E-08 1.07194E-18-6.03776E-19
 -1      4109 1.08700E-04-4.12019E-05-2.88847E-05 8.45469E-06-8.26643E-19-2.03651E-18
 -1      4110 1.06655E-04-4.08545E-05-2.81718E-05 1.28818E-05-9.34251E-19-1.37111E-18
 -1      4111 1.02287E-04-3.76722E-05-2.77501E-05 1.34599E-05-4.83478E-19-9.31207E-19
 -1      4112 1.05637E-04-3.90142E-05-2.85378E-05 8.44078E-06-8.09091E-19-1.90824E-18
 -1      4113 9.25173E-05-2.99349E-05-2.67360E-05-1.46961E-05-5.86615E-19 1.05803E-19
 -1      4114 9.84974E-05-3.47849E-05-2.74002E-05-1.36580E-05-3.28156E-19 1.49035E-19
 -1      4115 9.09999E-05-2.49291E-05-2.83444E-05 1.88376E-06-4.27222E-19 6.18915E-19
 -1      4116 9.16504E-05-2.52825E-05-2.84336E-05 1.37833E-06-1.33199E-19-3.39623E-20
 -1      4117 9.21386E-05-2.57411E-05-2.84423E-05 1.64369E-06-7.60137E-19 1.10735E-18
 -1      4118 9.05663E-05-2.90336E-05-2.63098E-05 1.67778E-05-1.37416E-18 1.76525E-18
 -1      4119 8.60756E-05-2.52136E-05-2.61868E-05 1.45811E-05-1.28494E-18 1.62230E-18
 -1      4120 9.95653E-05-3.31410E-05-2.84597E-05-4.79728E-06-5.69793E-19 1.73311E-18
 -1      4121 9.85888E-05-3.21706E-05-2.84442E-05-4.69032E-06-5.87838E-19 1.68048E-18
 -1      4122 9.76509E-05-3.15074E-05-2.83921E-05-5.14454E-06-7.79522E-19 1.36422E-18
 -1      4123 9.62626E-05-3.03920E-05-2.82115E-05 5.85562E-06-3.69676E-19-1.50263E-18
 -1      4124 9.73008E-05-3.14707E-05-2.82019E-05 6.42219E-06-3.06768E-20-1.04969E-18
 -1      4125 1.01072E-04-3.51449E-05-2.82464E-05 8.03634E-06-6.35816E-19-1.55575E-18
 -1      4126 1.03235E-04-3.69089E-05-2.84066E-05 8.10504E-06-5.59505E-19-2.03423E-18
 -1      4127 1.02071E-04-3.65872E-05-2.81108E-05 1.03483E-05-5.93110E-19-2.32420E-18
 -1      4128 9.49521E-05-2.89064E-05-2.83071E-05 4.47415E-06-2.27808E-19-1.70449E-18
 -1      4129 9.56226E-05-2.96061E-05-2.82723E-05 5.03454E-06 2.01253E-19-1.72442E-18
 -1      4130 9.49316E-05-2.93594E-05-2.81367E-05 6.08339E-06 3.37620E-19-1.11586E-18
 -1      4131 9.43113E-05-2.80551E-05-2.84043E-05 3.30347E-06 4.79466E-19-2.00979E-18
 -1      4132 9.46952E-05-2.84572E-05-2.83668E-05 3.76778E-06-1.35590E-19-2.20926E-18
 -1      4133 9.40603E-05-2.81107E-05-2.82686E-05 4.45283E-06 1.82782E-19-2.00656E-18
 -1      4134 9.40737E-05-2.76134E-05-2.84890E-05 2.36991E-06-5.65840E-19-1.50931E-18
 -1      4135 9.42495E-05-2.78166E-05-2.84556E-05 2.74132E-06 2.55418E-20-1.94829E-18
 -1      4136 9.37110E-05-2.74602E-05-2.83896E-05 3.15717E-06-1.27486E-19-2.71935E-18
 -1      4137 9.40624E-05-2.74451E-05-2.85536E-05 1.66074E-06-1.86866E-18-9.20375E-19
 -1      4138 9.41044E-05-2.75149E-05-2.85283E-05 1.95588E-06-9.34081E-19-1.13201E-18
 -1      4139 9.36949E-05-2.72138E-05-2.84887E-05 2.15271E-06-1.15579E-18-2.42866E-18
 -1      4140 9.41584E-05-2.74431E-05-2.85981E-05 1.15712E-06-1.46594E-18-3.65405E-19
 -1      4141 9.41429E-05-2.74448E-05-2.85803E-05 1.37643E-06-2.04322E-18-7.38068E-19
 -1      4142 9.38369E-05-2.72118E-05-2.85568E-05 1.46823E-06-1.87630E-18-1.44491E-18
 -1      4143 9.43227E-05-2.75408E-05-2.86258E-05 7.90545E-07 1.09780E-19-1.61369E-19
 -1      4144 9.42751E-05-2.74948E-05-2.86153E-05 9.47703E-07 1.79623E-20 6.23294E-20
 -1      4145 9.40331E-05-2.72821E-05-2.86008E-05 9.76344E-07-1.00450E-18-1.20561E-18
 -1      4146 9.44968E-05-2.76792E-05-2.86399E-05 5.36359E-07 1.22281E-18-6.30519E-20
 -1      4147 9.44353E-05-2.76137E-05-2.86350E-05 6.48877E-07 4.88078E-19-5.27318E-19
 -1      4148 9.42581E-05-2.74461E-05-2.86277E-05 6.41825E-07 2.23804E-21-1.06049E-18
 -1      4149 9.46573E-05-2.78267E-05-2.86444E-05 3.59474E-07 2.68159E-18-5.08712E-19
 -1      4150 9.45973E-05-2.77581E-05-2.86436E-05 4.39458E-07 2.56810E-18 1.26959E-19
 -1      4151 9.44652E-05-2.76262E-05-2.86409E-05 4.16878E-07 2.16311E-18-9.12916E-19
 -1      4152 9.12095E-05-2.80065E-05-2.70162E-05-1.19137E-05-2.29872E-19 2.13711E-19
 -1      4153 9.59905E-05-2.62832E-05-2.98729E-05-3.12294E-07 2.19240E-19 1.92390E-19
 -1      4154 9.56298E-05-2.51690E-05-3.01976E-05-4.03750E-08 3.24436E-19 1.09709E-19
 -1      4155 9.58352E-05-2.57693E-05-3.00280E-05-2.43171E-07 2.53257E-19 6.71046E-20
 -1      4156 9.60836E-05-2.67863E-05-2.97011E-05-6.56459E-07 6.18800E-20 2.64650E-19
 -1      4157 9.47951E-05-2.79364E-05-2.86550E-05-1.28103E-07-5.92614E-19 1.00668E-18
 -1      4158 9.48553E-05-2.80227E-05-2.86419E-05 5.70767E-08 1.64273E-18 8.36128E-19
 -1      4159 9.47720E-05-2.79343E-05-2.86462E-05 2.92100E-08 5.10442E-19 1.12860E-18
 -1      4160 9.48046E-05-2.79723E-05-2.86420E-05 1.40658E-07 1.32188E-18 3.65136E-19
 -1      4161 8.74270E-05-2.47594E-05-2.67946E-05 1.14084E-05-6.98329E-19 1.33430E-18
 -1      4162 9.62134E-05-2.92893E-05-2.86706E-05-3.03097E-06 1.21624E-19 4.10637E-19
 -1      4163 9.60346E-05-2.89890E-05-2.87317E-05-2.78582E-06 6.75063E-20 1.22868E-19
 -1      4164 9.57839E-05-2.86604E-05-2.87761E-05-2.62636E-06 1.55087E-19 3.54590E-20
 -1      4165 9.59383E-05-2.91870E-05-2.86200E-05-3.34930E-06-5.81460E-20 2.04991E-19
 -1      4166 9.47357E-05-2.78746E-05-2.86522E-05-5.52708E-08 4.52083E-19 7.33898E-20
 -1      4167 9.93734E-05-3.35506E-05-2.81951E-05 7.59030E-06-7.28647E-20-1.22962E-18
 -1      4168 9.57631E-05-2.57077E-05-3.00242E-05-2.05917E-07 2.65090E-19 2.52236E-19
 -1      4169 9.57283E-05-2.56714E-05-3.00287E-05-1.65799E-07 2.11729E-19 3.89708E-19
 -1      4170 9.95860E-05-3.35224E-05-2.83670E-05-6.03586E-06-7.95504E-19 1.58367E-18
 -1      4171 8.71835E-05-2.39444E-05-2.71778E-05 8.82431E-06 2.05265E-21 3.66795E-19
 -1      4172 8.82789E-05-2.40200E-05-2.75095E-05 7.00654E-06-1.65284E-19 1.67809E-19
 -1      4173 8.79134E-05-2.29616E-05-2.78114E-05 4.20711E-06 3.78126E-19-2.10899E-19
 -1      4174 9.57953E-05-2.64245E-05-2.97328E-05 5.67203E-09 1.82939E-19 6.03585E-19
 -1      4175 9.58098E-05-2.65655E-05-2.96726E-05-2.10173E-07 1.86722E-19 4.22471E-19
 -1      4176 9.57004E-05-2.57252E-05-2.99890E-05 2.67616E-08 1.90209E-19 1.00254E-18
 -1      4177 9.34845E-05-2.97367E-05-2.73813E-05-1.10487E-05-5.00175E-19 1.41292E-19
 -1      4178 9.54688E-05-2.84099E-05-2.87307E-05-2.67054E-06 1.43544E-19 1.37104E-19
 -1      4179 9.54637E-05-2.82337E-05-2.88165E-05-2.32408E-06 3.31247E-19 1.54383E-19
 -1      4180 1.00726E-04-3.61198E-05-2.77374E-05-1.23445E-05-2.84391E-19 3.01791E-19
 -1      4181 1.02409E-04-3.62872E-05-2.82806E-05-8.40204E-06-2.94015E-19 3.86118E-19
 -1      4182 9.74054E-05-3.20612E-05-2.80212E-05 8.34214E-06-4.36587E-19-1.14453E-18
 -1      4183 9.06333E-05-2.46967E-05-2.82442E-05 2.51832E-06 5.94180E-19 3.95688E-19
 -1      4184 9.13694E-05-2.53523E-05-2.82777E-05 2.80239E-06 7.94780E-20 3.81396E-19
 -1      4185 8.98556E-05-2.43548E-05-2.81044E-05 3.32544E-06 1.47070E-18 3.05552E-19
 -1      4186 9.59649E-05-2.79466E-05-2.91524E-05-1.55510E-06-2.60311E-21-2.17030E-19
 -1      4187 9.60904E-05-2.80185E-05-2.91712E-05-1.57219E-06 9.49553E-20 1.66352E-20
 -1      4188 9.61106E-05-2.78052E-05-2.92729E-05-1.35893E-06-7.74905E-20-4.68671E-20
 -1      4189 1.00509E-04-3.46300E-05-2.81670E-05-8.31330E-06-5.82406E-19 4.03553E-19
 -1      4190 9.48661E-05-3.19624E-05-2.69372E-05 1.51796E-05-3.56033E-19 1.15651E-18
 -1      4191 9.56198E-05-2.81225E-05-2.89178E-05-1.99496E-06 1.71273E-19 1.69169E-19
 -1      4192 9.56701E-05-2.79764E-05-2.90148E-05-1.71324E-06-3.24228E-20-1.07030E-19
 -1      4193 9.52708E-05-2.79199E-05-2.88721E-05-2.00509E-06 1.35678E-19 2.66312E-19
 -1      4194 9.47332E-05-2.78917E-05-2.86449E-05 2.49951E-07 1.39144E-18-5.25920E-19
 -1      4195 9.46378E-05-2.77933E-05-2.86454E-05 2.15510E-07 1.78023E-18 8.65401E-19
 -1      4196 9.46550E-05-2.78090E-05-2.86510E-05 3.02354E-08 1.02867E-18 2.85787E-19
 -1      4197 8.98694E-05-2.65050E-05-2.71118E-05 1.11628E-05-7.90356E-19 8.88379E-19
 -1      4198 9.61071E-05-2.97574E-05-2.84085E-05-4.63051E-06-9.24876E-19 7.73556E-19
 -1      4199 9.56327E-05-2.92149E-05-2.84677E-05-4.17168E-06-5.02862E-19 8.12845E-19
 -1      4200 9.74026E-05-3.30226E-05-2.76166E-05-1.14697E-05-3.62833E-19-5.75354E-20
 -1      4201 9.55692E-05-2.88869E-05-2.85598E-05-3.54023E-06-4.01258E-19 4.61377E-19
 -1      4202 9.54174E-05-2.85994E-05-2.86359E-05-3.12928E-06-2.34904E-19 1.98341E-19
 -1      4203 9.49820E-05-2.85369E-05-2.84750E-05-3.95954E-06-8.31917E-19 5.21336E-19
 -1      4204 9.58025E-05-2.60713E-05-2.98798E-05-6.76871E-08 2.30383E-19 6.00213E-19
 -1      4205 9.56855E-05-2.56035E-05-3.00383E-05-3.91670E-08 2.37090E-19 7.75724E-19
 -1      4206 8.85641E-05-2.39487E-05-2.77292E-05 5.54499E-06 1.08758E-20 5.48749E-19
 -1      4207 8.94714E-05-2.41876E-05-2.79542E-05 4.29433E-06 1.34427E-18 6.24460E-19
 -1      4208 9.06092E-05-2.51276E-05-2.80350E-05 4.46872E-06 1.31723E-18 8.86824E-19
 -1      4209 8.99837E-05-2.53992E-05-2.76864E-05 7.00286E-06 3.86238E-19 4.78987E-20
 -1      4210 9.50813E-05-2.74489E-05-2.89827E-05-1.22420E-06-2.86218E-19 5.48796E-19
 -1      4211 9.47611E-05-2.74024E-05-2.88702E-05-1.56572E-06-1.25317E-19 6.93489E-19
 -1      4212 9.42870E-05-2.72943E-05-2.87103E-05-2.02272E-06-1.97981E-19 8.49401E-19
 -1      4213 9.39140E-05-2.71957E-05-2.85913E-05-2.55710E-06-1.27916E-19 7.77269E-19
 -1      4214 9.40516E-05-2.76845E-05-2.84367E-05-3.64630E-06-6.81136E-19 6.55945E-19
 -1      4215 9.37953E-05-2.77371E-05-2.83086E-05-4.41794E-06-6.68804E-19 4.22707E-19
 -1      4216 9.36157E-05-2.79366E-05-2.81554E-05-5.43986E-06-6.03973E-19 3.15936E-19
 -1      4217 9.35938E-05-2.83183E-05-2.79354E-05-6.96011E-06-3.22875E-19 7.77235E-20
 -1      4218 9.35948E-05-2.88537E-05-2.77363E-05-8.50883E-06-5.42305E-19 2.15135E-19
 -1      4219 9.28747E-05-2.63497E-05-2.85185E-05 1.29408E-06-1.48279E-18-5.86851E-19
 -1      4220 9.31944E-05-2.65613E-05-2.85588E-05 1.00351E-06-1.54190E-18-8.28659E-19
 -1      4221 9.84976E-05-3.43748E-05-2.74461E-05 1.35968E-05-2.44599E-19 3.62289E-20
 -1      4222 9.36471E-05-3.04410E-05-2.71777E-05 1.29549E-05-3.19864E-19 6.21568E-19
 -1      4223 9.35022E-05-2.68318E-05-2.85795E-05 9.40213E-07-1.64173E-18-8.08003E-19
 -1      4224 9.37311E-05-2.69952E-05-2.86023E-05 7.52265E-07-1.58283E-18-7.65324E-19
 -1      4225 9.38581E-05-2.71003E-05-2.86199E-05 5.58215E-07-2.81867E-19-4.86212E-19
 -1      4226 9.40502E-05-2.72501E-05-2.86315E-05 4.50845E-07 5.70126E-19-3.72708E-19
 -1      4227 9.41722E-05-2.73592E-05-2.86411E-05 3.19505E-07 7.49408E-19-1.07058E-18
 -1      4228 9.43333E-05-2.74987E-05-2.86460E-05 2.55679E-07 8.42876E-19-8.05842E-19
 -1      4229 9.33555E-05-2.78530E-05-2.80644E-05 5.89271E-06 6.92542E-19-5.33859E-19
 -1      4230 9.39754E-05-2.86109E-05-2.79868E-05 6.81410E-06 6.60952E-19-2.81840E-19
 -1      4231 9.53478E-05-2.74544E-05-2.90984E-05-9.92373E-07-1.25713E-19 2.67673E-19
 -1      4232 9.26657E-05-2.64400E-05-2.84005E-05 2.45952E-06-8.02595E-19-7.34655E-19
 -1      4233 9.29852E-05-2.65560E-05-2.84661E-05 1.95773E-06-7.53347E-19-7.95610E-19
 -1      4234 9.70151E-05-3.11963E-05-2.81836E-05-6.63655E-06-5.04152E-19 6.99202E-19
 -1      4235 9.61979E-05-3.03113E-05-2.82305E-05-6.00825E-06-7.68699E-19 5.20008E-19
 -1      4236 9.23587E-05-2.64990E-05-2.82451E-05 3.76821E-06 6.45660E-19-1.01358E-18
 -1      4237 9.25395E-05-2.67815E-05-2.81692E-05 4.52555E-06 3.73660E-19-4.85699E-19
 -1      4238 9.44042E-05-2.98238E-05-2.76730E-05-9.41119E-06-6.77044E-19-3.82995E-20
 -1      4239 9.63031E-05-3.17258E-05-2.76295E-05-1.06409E-05-6.80229E-19-2.79472E-19
 -1      4240 9.80547E-05-3.31286E-05-2.78969E-05-9.72353E-06-4.54847E-19-8.34112E-20
 -1      4241 9.59616E-05-3.09242E-05-2.79356E-05-8.34129E-06-5.56241E-19-3.55000E-19
 -1      4242 9.47688E-05-2.79341E-05-2.86437E-05 1.89678E-07 8.63714E-19 3.50797E-20
 -1      4243 9.26925E-05-2.65459E-05-2.83410E-05 3.04645E-06 1.85881E-19-5.75567E-19
 -1      4244 9.44413E-05-2.76029E-05-2.86497E-05 1.70826E-07 1.62655E-18-1.12499E-19
 -1      4245 9.45667E-05-2.77190E-05-2.86498E-05 1.36199E-07 1.74812E-18 2.03191E-19
 -1      4246 9.59092E-05-2.66476E-05-2.96943E-05-4.07862E-07 2.03968E-19 2.16329E-19
 -1      4247 9.58350E-05-2.69432E-05-2.95118E-05-3.97694E-07 8.21320E-20 3.28144E-19
 -1      4248 9.91419E-05-3.33890E-05-2.81508E-05-7.78468E-06-7.87753E-19 4.94629E-19
 -1      4249 9.56564E-05-2.71123E-05-2.93757E-05-5.06989E-07-1.68903E-19 2.09548E-19
 -1      4250 9.50734E-05-2.93477E-05-2.81937E-05-5.97107E-06-5.85116E-19 3.15940E-19
 -1      4251 9.31982E-05-2.89932E-05-2.74934E-05 1.03540E-05-8.18279E-19 2.25466E-19
 -1      4252 9.61360E-05-2.75522E-05-2.93924E-05-1.16264E-06 5.35613E-20 9.10442E-21
 -1      4253 9.61266E-05-2.72560E-05-2.95167E-05-9.10726E-07-3.93412E-20-8.50585E-21
 -1      4254 9.60668E-05-2.75249E-05-2.93752E-05-1.14551E-06 3.00788E-20-4.49914E-19
 -1      4255 9.59287E-05-2.62009E-05-2.98753E-05-3.27713E-07 1.98141E-19 1.44790E-19
 -1      4256 9.78996E-05-3.21138E-05-2.81489E-05-7.26245E-06-6.18751E-19 6.57796E-19
 -1      4257 9.10519E-05-2.63530E-05-2.77092E-05 7.47674E-06 4.54350E-19 6.09557E-19
 -1      4258 9.12378E-05-2.61327E-05-2.79043E-05 6.08459E-06 9.99252E-19 6.30990E-19
 -1      4259 9.34192E-05-2.69433E-05-2.84882E-05 1.97256E-06-1.76632E-18-2.17767E-18
 -1      4260 9.50186E-05-2.81316E-05-2.86710E-05-2.83340E-06-2.16398E-19 2.58902E-19
 -1      4261 9.98833E-05-3.52640E-05-2.76801E-05 1.24529E-05-3.91313E-19-5.80469E-19
 -1      4262 9.36206E-05-2.69691E-05-2.85591E-05 1.27685E-06-2.26465E-18-8.10166E-19
 -1      4263 9.35179E-05-2.69457E-05-2.85311E-05 1.57078E-06-1.41194E-18-9.60447E-19
 -1      4264 9.59893E-05-2.66927E-05-2.97007E-05-5.41670E-07 1.92975E-19-7.12525E-20
 -1      4265 9.40490E-05-2.74806E-05-2.85402E-05-2.97423E-06-5.03419E-19 5.77088E-19
 -1      4266 9.18809E-05-2.75830E-05-2.75916E-05 8.89364E-06-3.36737E-19 4.50920E-19
 -1      4267 9.31645E-05-2.83271E-05-2.78359E-05 7.76591E-06 3.54734E-19 6.72448E-20
 -1      4268 9.49597E-05-2.98158E-05-2.79121E-05 7.89246E-06-3.30249E-19-2.64765E-19
 -1      4269 9.69144E-05-3.18218E-05-2.78594E-05 9.37978E-06-9.54324E-19-9.00515E-19
 -1      4270 9.47653E-05-2.80014E-05-2.86159E-05-2.97847E-06-3.92626E-19 5.08369E-19
 -1      4271 9.48382E-05-2.78309E-05-2.87163E-05-2.47800E-06-3.44411E-20 4.88487E-19
 -1      4272 9.55346E-05-2.73087E-05-2.92376E-05-7.01882E-07-1.80608E-19 3.23541E-19
 -1      4273 9.55772E-05-2.76474E-05-2.91109E-05-1.33512E-06-1.22432E-19 7.46230E-20
 -1      4274 9.58319E-05-2.78049E-05-2.91505E-05-1.39718E-06-9.31487E-20-3.98212E-20
 -1      4275 9.58934E-05-2.76388E-05-2.92542E-05-1.17425E-06-6.85102E-20-1.39622E-19
 -1      4276 9.85543E-05-3.37076E-05-2.78354E-05 1.06003E-05-4.34902E-19-6.88347E-19
 -1      4277 9.14439E-05-2.60498E-05-2.80412E-05 5.02308E-06 9.19138E-19 4.56859E-19
 -1      4278 9.56129E-05-3.09226E-05-2.76767E-05 1.03336E-05-9.27925E-19-2.16415E-20
 -1      4279 9.45813E-05-2.74509E-05-2.87645E-05-1.93280E-06-1.10221E-19 7.58146E-19
 -1      4280 9.58439E-05-2.72874E-05-2.93878E-05-8.13875E-07-1.07016E-19 1.18301E-19
 -1      4281 9.59941E-05-2.74100E-05-2.93932E-05-9.71383E-07 6.82041E-20-9.29759E-20
 -1      4282 9.60566E-05-2.68150E-05-2.96791E-05-6.72222E-07 1.61340E-19-5.73355E-20
 -1      4283 9.60247E-05-2.71359E-05-2.95169E-05-7.84224E-07 1.80582E-19-1.20331E-19
 -3
    1PSTEP                         4           1           1          
  100CL  101 1.000000000        4283                     0    1           1
 -4  ERROR       1    1
 -5  STR(%)      1    1    0    0
 -1         1 1.33708E+01
 -1         2 2.50879E+01
 -1         3 1.01650E-03
 -1         4 1.41812E-03
 -1         5 1.40307E+01
 -1         6 1.33594E+01
 -1         7 1.33594E+01
 -1         8 3.63807E+00
 -1         9 1.81224E+00
 -1        10 1.28536E+00
 -1        11 1.03869E+00
 -1        12 8.93896E-01
 -1        13 8.01328E-01
 -1        14 7.44987E-01
 -1        15 7.46049E-01
 -1        16 8.05126E-01
 -1        17 8.94471E-01
 -1        18 1.04790E+00
 -1        19 1.30184E+00
 -1        20 1.82005E+00
 -1        21 3.49163E+00
 -1        22 8.62263E+00
 -1        23 1.33594E+01
 -1        24 4.27355E+00
 -1        25 3.41437E+00
 -1        26 2.17118E+00
 -1        27 1.40870E+00
 -1        28 1.07561E+00
 -1        29 8.43735E-01
 -1        30 6.92263E-01
 -1        31 5.73098E-01
 -1        32 4.91752E-01
 -1        33 4.82465E-01
 -1        34 6.21501E-01
 -1        35 7.88124E-01
 -1        36 1.11087E+00
 -1        37 1.49665E+00
 -1        38 1.95794E+00
 -1        39 2.82617E+00
 -1        40 3.83525E+00
 -1        41 5.12569E+00
 -1        42 5.66360E+00
 -1        43 5.66360E+00
 -1        44 4.87823E+00
 -1        45 1.28286E+01
 -1        46 1.59631E+01
 -1        47 1.59631E+01
 -1        48 1.47920E+01
 -1        49 6.06441E+00
 -1        50 4.72679E+00
 -1        51 4.93899E+00
 -1        52 4.93899E+00
 -1        53 3.86483E+00
 -1        54 3.03870E+00
 -1        55 2.19036E+00
 -1        56 1.60633E+00
 -1        57 1.17351E+00
 -1        58 8.27542E-01
 -1        59 5.71332E-01
 -1        60 3.77195E-01
 -1        61 2.70006E-01
 -1        62 1.82429E-01
 -1        63 1.22753E-01
 -1        64 8.20211E-02
 -1        65 5.95405E-02
 -1        66 4.49714E-02
 -1        67 3.40332E-02
 -1        68 2.51317E-02
 -1        69 1.78072E-02
 -1        70 1.15851E-02
 -1        71 8.21046E-03
 -1        72 4.18947E-03
 -1        73 1.40307E+01
 -1        74 3.40692E+00
 -1        75 2.42751E+00
 -1        76 1.67737E+00
 -1        77 1.15728E+00
 -1        78 9.43928E-01
 -1        79 7.74158E-01
 -1        80 6.33531E-01
 -1        81 5.12690E-01
 -1        82 4.04906E-01
 -1        83 3.14282E-01
 -1        84 2.30099E-01
 -1        85 1.82041E-01
 -1        86 1.43592E-01
 -1        87 2.53468E-01
 -1        88 3.58987E-01
 -1        89 5.22096E-01
 -1        90 7.12801E-01
 -1        91 8.65175E-01
 -1        92 1.00639E+00
 -1        93 1.45104E+00
 -1        94 1.82730E+00
 -1        95 2.03105E+00
 -1        96 2.16238E+00
 -1        97 2.30783E+00
 -1        98 2.30783E+00
 -1        99 2.16434E+00
 -1       100 1.80629E+00
 -1       101 1.37644E+00
 -1       102 9.81704E-01
 -1       103 6.26357E-01
 -1       104 4.19759E-01
 -1       105 2.58855E-01
 -1       106 1.67675E-01
 -1       107 1.40207E-01
 -1       108 1.40207E-01
 -1       109 1.29190E-01
 -1       110 1.07300E-01
 -1       111 8.32009E-02
 -1       112 6.41617E-02
 -1       113 5.11630E-02
 -1       114 4.07885E-02
 -1       115 3.08518E-02
 -1       116 2.21108E-02
 -1       117 1.48415E-02
 -1       118 1.23430E-02
 -1       119 9.50827E-03
 -1       120 6.21261E-03
 -1       121 4.00817E-03
 -1       122 1.48314E-03
 -1       123 1.22756E-03
 -1       124 1.22756E-03
 -1       125 1.00339E-03
 -1       126 4.57715E-04
 -1       127 7.73832E-04
 -1       128 1.06721E-03
 -1       129 1.13661E-03
 -1       130 1.13661E-03
 -1       131 9.67083E-04
 -1       132 5.57455E-04
 -1       133 9.41884E-04
 -1       134 1.36794E-03
 -1       135 1.36794E-03
 -1       136 1.24761E-03
 -1       137 6.54777E-04
 -1       138 2.50879E+01
 -1       139 4.53529E+01
 -1       140 4.53529E+01
 -1       141 1.77873E+01
 -1       142 1.23071E+01
 -1       143 1.23071E+01
 -1       144 1.16977E+01
 -1       145 1.21525E+01
 -1       146 1.21525E+01
 -1       147 1.17933E+01
 -1       148 2.39394E+01
 -1       149 3.31465E+01
 -1       150 3.31465E+01
 -1       151 2.45336E+01
 -1       152 2.51425E+01
 -1       153 2.52699E+01
 -1       154 3.25274E+01
 -1       155 3.25274E+01
 -1       156 2.33812E+01
 -1       157 1.32165E+01
 -1       158 1.38457E+01
 -1       159 1.38457E+01
 -1       160 1.33353E+01
 -1       161 1.56769E+01
 -1       162 4.11426E+01
 -1       163 4.11426E+01
 -1       164 2.45849E+01
 -1       165 2.45849E+01
 -1       166 6.16926E+00
 -1       167 2.28569E+00
 -1       168 1.50122E+00
 -1       169 1.15446E+00
 -1       170 9.67455E-01
 -1       171 8.58266E-01
 -1       172 7.88269E-01
 -1       173 7.46049E-01
 -1       174 7.90847E-01
 -1       175 8.60367E-01
 -1       176 9.76033E-01
 -1       177 1.16794E+00
 -1       178 1.52361E+00
 -1       179 2.25406E+00
 -1       180 3.91937E+00
 -1       181 1.40307E+01
 -1       182 4.27355E+00
 -1       183 3.41437E+00
 -1       184 2.17118E+00
 -1       185 1.47911E+00
 -1       186 1.07561E+00
 -1       187 8.43735E-01
 -1       188 6.92263E-01
 -1       189 5.73098E-01
 -1       190 4.91752E-01
 -1       191 4.43422E-01
 -1       192 4.82465E-01
 -1       193 6.21501E-01
 -1       194 9.08939E-01
 -1       195 1.40811E+00
 -1       196 2.07878E+00
 -1       197 2.90122E+00
 -1       198 3.74994E+00
 -1       199 4.33891E+00
 -1       200 5.12569E+00
 -1       201 5.66360E+00
 -1       202 6.13822E+00
 -1       203 5.63315E+00
 -1       204 1.28286E+01
 -1       205 1.59631E+01
 -1       206 6.52414E+00
 -1       207 4.70144E+00
 -1       208 5.04102E+00
 -1       209 4.93899E+00
 -1       210 4.14699E+00
 -1       211 3.66153E+00
 -1       212 2.91597E+00
 -1       213 2.13713E+00
 -1       214 1.47852E+00
 -1       215 9.83878E-01
 -1       216 6.37580E-01
 -1       217 4.05445E-01
 -1       218 2.95845E-01
 -1       219 2.04524E-01
 -1       220 1.40689E-01
 -1       221 9.63759E-02
 -1       222 6.55643E-02
 -1       223 4.49714E-02
 -1       224 3.40332E-02
 -1       225 2.51317E-02
 -1       226 1.81027E-02
 -1       227 1.27290E-02
 -1       228 8.21046E-03
 -1       229 4.18947E-03
 -1       230 1.88686E-03
 -1       231 3.40692E+00
 -1       232 2.42751E+00
 -1       233 1.67737E+00
 -1       234 1.15728E+00
 -1       235 9.43928E-01
 -1       236 7.74158E-01
 -1       237 6.33531E-01
 -1       238 5.12690E-01
 -1       239 4.04906E-01
 -1       240 3.14282E-01
 -1       241 2.33551E-01
 -1       242 1.82041E-01
 -1       243 1.31548E-01
 -1       244 1.43592E-01
 -1       245 2.73216E-01
 -1       246 4.71991E-01
 -1       247 7.20884E-01
 -1       248 9.98888E-01
 -1       249 1.29318E+00
 -1       250 1.60110E+00
 -1       251 1.80089E+00
 -1       252 1.84481E+00
 -1       253 2.03105E+00
 -1       254 2.16238E+00
 -1       255 2.30783E+00
 -1       256 2.16434E+00
 -1       257 1.80629E+00
 -1       258 1.37644E+00
 -1       259 1.00632E+00
 -1       260 6.88196E-01
 -1       261 4.19759E-01
 -1       262 2.58855E-01
 -1       263 1.67675E-01
 -1       264 1.39336E-01
 -1       265 1.40207E-01
 -1       266 1.29190E-01
 -1       267 1.07300E-01
 -1       268 8.32009E-02
 -1       269 6.66888E-02
 -1       270 5.11630E-02
 -1       271 4.07885E-02
 -1       272 3.08518E-02
 -1       273 2.21108E-02
 -1       274 1.55108E-02
 -1       275 1.23430E-02
 -1       276 9.50827E-03
 -1       277 6.21261E-03
 -1       278 4.00817E-03
 -1       279 1.60863E-03
 -1       280 2.27860E-03
 -1       281 2.27860E-03
 -1       282 1.56088E-03
 -1       283 1.61025E-03
 -1       284 2.30071E-03
 -1       285 2.54127E-03
 -1       286 2.54181E-03
 -1       287 2.54181E-03
 -1       288 2.11435E-03
 -1       289 1.32331E-03
 -1       290 2.35460E-03
 -1       291 2.56493E-03
 -1       292 2.78254E-03
 -1       293 2.78254E-03
 -1       294 3.04981E+01
 -1       295 3.81587E+01
 -1       296 4.53529E+01
 -1       297 1.94330E+01
 -1       298 1.06079E+01
 -1       299 1.23071E+01
 -1       300 1.16977E+01
 -1       301 1.13249E+01
 -1       302 1.21525E+01
 -1       303 1.15472E+01
 -1       304 1.17933E+01
 -1       305 2.57868E+01
 -1       306 3.31465E+01
 -1       307 3.20681E+01
 -1       308 3.20044E+01
 -1       309 3.20044E+01
 -1       310 3.22141E+01
 -1       311 3.25274E+01
 -1       312 2.53785E+01
 -1       313 1.32165E+01
 -1       314 1.30565E+01
 -1       315 1.33708E+01
 -1       316 1.38457E+01
 -1       317 1.33353E+01
 -1       318 1.18805E+01
 -1       319 1.56769E+01
 -1       320 4.11426E+01
 -1       321 3.54701E+01
 -1       322 2.71471E+01
 -1       323 3.04981E+01
 -1       324 1.47920E+01
 -1       325 1.06175E+00
 -1       326 2.52096E+00
 -1       327 7.85476E-01
 -1       328 6.90750E-01
 -1       329 6.26344E-01
 -1       330 5.80898E-01
 -1       331 5.83435E-01
 -1       332 6.28538E-01
 -1       333 6.96728E-01
 -1       334 7.93201E-01
 -1       335 9.28100E-01
 -1       336 1.13702E+00
 -1       337 1.31919E+00
 -1       338 2.18886E+00
 -1       339 1.90119E+00
 -1       340 1.74448E+00
 -1       341 1.28949E+00
 -1       342 9.22343E-01
 -1       343 6.88325E-01
 -1       344 5.88851E-01
 -1       345 4.96969E-01
 -1       346 4.16814E-01
 -1       347 3.46437E-01
 -1       348 3.63018E-01
 -1       349 4.65005E-01
 -1       350 7.38146E-01
 -1       351 1.14988E+00
 -1       352 1.71918E+00
 -1       353 2.48151E+00
 -1       354 3.44361E+00
 -1       355 4.54641E+00
 -1       356 5.64956E+00
 -1       357 6.71803E+00
 -1       358 9.70069E+00
 -1       359 9.76963E+00
 -1       360 1.51543E+01
 -1       361 6.88297E+00
 -1       362 6.46467E+00
 -1       363 5.00523E+00
 -1       364 4.35007E+00
 -1       365 3.46811E+00
 -1       366 2.59152E+00
 -1       367 1.84440E+00
 -1       368 1.27092E+00
 -1       369 8.57350E-01
 -1       370 5.62506E-01
 -1       371 3.83116E-01
 -1       372 2.50002E-01
 -1       373 1.61315E-01
 -1       374 1.02666E-01
 -1       375 6.78006E-02
 -1       376 4.77167E-02
 -1       377 3.20708E-02
 -1       378 2.32013E-02
 -1       379 1.73006E-02
 -1       380 1.21342E-02
 -1       381 7.92844E-03
 -1       382 4.97158E-03
 -1       383 1.12961E+00
 -1       384 8.04665E-01
 -1       385 6.45840E-01
 -1       386 5.28426E-01
 -1       387 4.22211E-01
 -1       388 3.26007E-01
 -1       389 2.51139E-01
 -1       390 1.89515E-01
 -1       391 1.54060E-01
 -1       392 1.44478E-01
 -1       393 1.75334E-01
 -1       394 2.54963E-01
 -1       395 4.06042E-01
 -1       396 5.93637E-01
 -1       397 8.02276E-01
 -1       398 1.06733E+00
 -1       399 1.31289E+00
 -1       400 1.60110E+00
 -1       401 1.80089E+00
 -1       402 1.84481E+00
 -1       403 1.80147E+00
 -1       404 1.84450E+00
 -1       405 1.72358E+00
 -1       406 1.46616E+00
 -1       407 1.19464E+00
 -1       408 9.25218E-01
 -1       409 6.85343E-01
 -1       410 4.79240E-01
 -1       411 3.01029E-01
 -1       412 1.60602E-01
 -1       413 9.53824E-02
 -1       414 9.30809E-02
 -1       415 9.18295E-02
 -1       416 7.94739E-02
 -1       417 6.70062E-02
 -1       418 5.56655E-02
 -1       419 4.63506E-02
 -1       420 3.77753E-02
 -1       421 2.95228E-02
 -1       422 2.19726E-02
 -1       423 1.57257E-02
 -1       424 1.19710E-02
 -1       425 9.01068E-03
 -1       426 5.78755E-03
 -1       427 3.10473E-03
 -1       428 2.73284E-03
 -1       429 4.44486E-03
 -1       430 2.31242E-03
 -1       431 3.47240E-03
 -1       432 4.02102E-03
 -1       433 4.05297E-03
 -1       434 4.08616E-03
 -1       435 4.08616E-03
 -1       436 3.40719E-03
 -1       437 2.65694E-03
 -1       438 3.74802E-03
 -1       439 3.74802E-03
 -1       440 1.35964E+00
 -1       441 2.63332E+01
 -1       442 8.77145E+00
 -1       443 3.96135E+01
 -1       444 9.10123E-01
 -1       445 8.11188E+00
 -1       446 7.70299E+00
 -1       447 1.07683E+01
 -1       448 1.12469E+01
 -1       449 1.06258E+01
 -1       450 9.41999E+00
 -1       451 7.29199E+00
 -1       452 1.06104E+01
 -1       453 1.85761E+01
 -1       454 3.20681E+01
 -1       455 3.12926E+01
 -1       456 3.51705E+01
 -1       457 3.51705E+01
 -1       458 3.22141E+01
 -1       459 1.83049E+01
 -1       460 1.05155E+01
 -1       461 7.35395E+00
 -1       462 1.02962E+01
 -1       463 1.12679E+01
 -1       464 1.09341E+01
 -1       465 8.67286E+00
 -1       466 7.45702E+00
 -1       467 1.44112E+01
 -1       468 2.42152E+01
 -1       469 2.62479E+01
 -1       470 3.96135E+01
 -1       471 2.65084E+01
 -1       472 3.46907E-03
 -1       473 4.82368E-01
 -1       474 5.08379E-01
 -1       475 4.23756E-01
 -1       476 4.51373E-01
 -1       477 4.82972E-01
 -1       478 5.08756E-01
 -1       479 5.08756E-01
 -1       480 5.03219E-01
 -1       481 6.31568E-01
 -1       482 1.30628E+00
 -1       483 8.03150E-01
 -1       484 9.03742E+00
 -1       485 8.52215E-01
 -1       486 8.31603E+00
 -1       487 6.98534E-01
 -1       488 5.82451E-01
 -1       489 4.59345E-01
 -1       490 3.81307E-01
 -1       491 3.23557E-01
 -1       492 2.54220E-01
 -1       493 2.13628E-01
 -1       494 2.67872E-01
 -1       495 5.06571E-01
 -1       496 8.67578E-01
 -1       497 1.40076E+00
 -1       498 2.18939E+00
 -1       499 3.35624E+00
 -1       500 5.04992E+00
 -1       501 7.17761E+00
 -1       502 8.47564E+00
 -1       503 1.13212E+01
 -1       504 4.84494E+00
 -1       505 1.16758E+01
 -1       506 6.86324E+00
 -1       507 5.13999E+00
 -1       508 3.95873E+00
 -1       509 2.74325E+00
 -1       510 1.89709E+00
 -1       511 1.31364E+00
 -1       512 9.06752E-01
 -1       513 6.25164E-01
 -1       514 4.33892E-01
 -1       515 2.94836E-01
 -1       516 1.98938E-01
 -1       517 1.33112E-01
 -1       518 8.80971E-02
 -1       519 5.74386E-02
 -1       520 3.58864E-02
 -1       521 2.34151E-02
 -1       522 1.60220E-02
 -1       523 1.13016E-02
 -1       524 7.85779E-03
 -1       525 4.97158E-03
 -1       526 4.17325E-01
 -1       527 5.41283E-01
 -1       528 6.78130E-01
 -1       529 3.61337E-01
 -1       530 2.99522E-01
 -1       531 2.38342E-01
 -1       532 1.89515E-01
 -1       533 1.54117E-01
 -1       534 1.47114E-01
 -1       535 1.80123E-01
 -1       536 2.49080E-01
 -1       537 3.55386E-01
 -1       538 4.91230E-01
 -1       539 6.62233E-01
 -1       540 8.93740E-01
 -1       541 1.10067E+00
 -1       542 1.23229E+00
 -1       543 1.37166E+00
 -1       544 1.40690E+00
 -1       545 1.34651E+00
 -1       546 1.39008E+00
 -1       547 1.40482E+00
 -1       548 1.31461E+00
 -1       549 1.17497E+00
 -1       550 9.95606E-01
 -1       551 7.66077E-01
 -1       552 5.32855E-01
 -1       553 3.74946E-01
 -1       554 2.38738E-01
 -1       555 1.42169E-01
 -1       556 1.09617E-01
 -1       557 8.25772E-02
 -1       558 7.44296E-02
 -1       559 6.89938E-02
 -1       560 6.12594E-02
 -1       561 5.14409E-02
 -1       562 4.24634E-02
 -1       563 3.31455E-02
 -1       564 2.46229E-02
 -1       565 1.74485E-02
 -1       566 1.17918E-02
 -1       567 7.84514E-03
 -1       568 5.53357E-03
 -1       569 4.69556E-03
 -1       570 3.77549E-03
 -1       571 4.06202E-03
 -1       572 2.65084E+01
 -1       573 5.70290E-03
 -1       574 5.84938E-03
 -1       575 6.16454E-03
 -1       576 6.16454E-03
 -1       577 6.09173E-03
 -1       578 4.95305E-03
 -1       579 4.55822E-03
 -1       580 6.21819E-03
 -1       581 4.85554E+00
 -1       582 2.62479E+01
 -1       583 8.80148E+00
 -1       584 4.51603E-01
 -1       585 3.96135E+01
 -1       586 7.36617E+00
 -1       587 7.64764E+00
 -1       588 3.12926E+01
 -1       589 8.39625E+00
 -1       590 4.76072E+00
 -1       591 5.87591E+00
 -1       592 1.28015E+01
 -1       593 2.28102E+01
 -1       594 3.51705E+01
 -1       595 2.18197E+01
 -1       596 1.12778E+01
 -1       597 1.70124E+01
 -1       598 1.79586E+01
 -1       599 5.08379E-01
 -1       600 7.36713E-01
 -1       601 1.54608E+01
 -1       602 6.27282E-01
 -1       603 4.59541E-01
 -1       604 3.53878E-01
 -1       605 3.35379E-01
 -1       606 3.60150E-01
 -1       607 3.48138E-01
 -1       608 5.85196E-01
 -1       609 1.47160E+01
 -1       610 3.45865E-01
 -1       611 3.58976E-01
 -1       612 3.76912E-01
 -1       613 2.98752E-01
 -1       614 3.00218E-01
 -1       615 2.67264E-01
 -1       616 2.13142E-01
 -1       617 1.74388E-01
 -1       618 1.30789E-01
 -1       619 2.64502E-01
 -1       620 5.06571E-01
 -1       621 8.67578E-01
 -1       622 1.40076E+00
 -1       623 2.18939E+00
 -1       624 3.35624E+00
 -1       625 5.04992E+00
 -1       626 7.47944E+00
 -1       627 8.47564E+00
 -1       628 8.28552E-03
 -1       629 7.37286E-03
 -1       630 1.14412E+01
 -1       631 5.75020E+00
 -1       632 4.18622E+00
 -1       633 2.73078E+00
 -1       634 1.76677E+00
 -1       635 1.14494E+00
 -1       636 7.52139E-01
 -1       637 5.04563E-01
 -1       638 3.34416E-01
 -1       639 2.19761E-01
 -1       640 1.54042E-01
 -1       641 1.07037E-01
 -1       642 7.34436E-02
 -1       643 4.95862E-02
 -1       644 3.37266E-02
 -1       645 2.20189E-02
 -1       646 1.40758E-02
 -1       647 8.21798E-03
 -1       648 3.58735E-01
 -1       649 2.95113E-01
 -1       650 4.09357E-01
 -1       651 2.07211E-01
 -1       652 1.71993E-01
 -1       653 1.44712E-01
 -1       654 1.39842E-01
 -1       655 1.77927E-01
 -1       656 2.49080E-01
 -1       657 3.55386E-01
 -1       658 4.91230E-01
 -1       659 6.40037E-01
 -1       660 8.04249E-01
 -1       661 9.52313E-01
 -1       662 1.12081E+00
 -1       663 1.20667E+00
 -1       664 1.29996E+00
 -1       665 1.24730E+00
 -1       666 1.17380E+00
 -1       667 1.29839E+00
 -1       668 1.24215E+00
 -1       669 1.16005E+00
 -1       670 1.03651E+00
 -1       671 8.60742E-01
 -1       672 6.93130E-01
 -1       673 5.31581E-01
 -1       674 3.74946E-01
 -1       675 2.46751E-01
 -1       676 1.79002E-01
 -1       677 1.22347E-01
 -1       678 9.33175E-02
 -1       679 8.30867E-02
 -1       680 6.93222E-02
 -1       681 5.88765E-02
 -1       682 4.76989E-02
 -1       683 3.79582E-02
 -1       684 2.90253E-02
 -1       685 2.13921E-02
 -1       686 1.52192E-02
 -1       687 1.04591E-02
 -1       688 6.01352E-03
 -1       689 8.28552E-03
 -1       690 8.44764E+00
 -1       691 5.47463E-03
 -1       692 7.59957E-03
 -1       693 2.41894E-01
 -1       694 9.03538E-03
 -1       695 9.03538E-03
 -1       696 8.57684E-03
 -1       697 9.79211E-03
 -1       698 8.95714E-03
 -1       699 1.44228E+01
 -1       700 1.55872E+01
 -1       701 1.06965E+01
 -1       702 5.05711E+00
 -1       703 1.05864E+01
 -1       704 3.65192E+00
 -1       705 1.28697E+01
 -1       706 3.79222E+00
 -1       707 5.45695E+00
 -1       708 1.51468E+01
 -1       709 1.61577E+01
 -1       710 5.86742E+00
 -1       711 1.66807E+01
 -1       712 5.59743E+00
 -1       713 4.30880E+00
 -1       714 3.60150E-01
 -1       715 2.67792E+00
 -1       716 8.53125E+00
 -1       717 3.35182E-01
 -1       718 3.58976E-01
 -1       719 4.02250E-01
 -1       720 4.76923E+00
 -1       721 3.53473E-01
 -1       722 2.44127E-01
 -1       723 5.04253E+00
 -1       724 2.97550E-01
 -1       725 2.67956E+00
 -1       726 1.75122E-01
 -1       727 2.12909E-01
 -1       728 2.06713E-01
 -1       729 1.71319E-01
 -1       730 1.31962E-01
 -1       731 1.53765E-01
 -1       732 1.94503E-01
 -1       733 3.66369E-01
 -1       734 5.98792E-01
 -1       735 9.29294E-01
 -1       736 1.41409E+00
 -1       737 2.15234E+00
 -1       738 3.40304E+00
 -1       739 5.42943E+00
 -1       740 9.71881E+00
 -1       741 1.26117E-02
 -1       742 2.10752E-01
 -1       743 3.28545E+00
 -1       744 2.11371E+00
 -1       745 1.39964E+00
 -1       746 9.45033E-01
 -1       747 6.44176E-01
 -1       748 4.32792E-01
 -1       749 2.89626E-01
 -1       750 1.92579E-01
 -1       751 1.26868E-01
 -1       752 8.45248E-02
 -1       753 5.70233E-02
 -1       754 3.75955E-02
 -1       755 2.54235E-02
 -1       756 1.70720E-02
 -1       757 1.46609E-02
 -1       758 1.26117E-02
 -1       759 7.23158E+00
 -1       760 2.35167E-01
 -1       761 2.43662E-01
 -1       762 1.20348E-01
 -1       763 1.37157E-01
 -1       764 1.39804E-01
 -1       765 2.04117E-01
 -1       766 3.08164E-01
 -1       767 4.54403E-01
 -1       768 6.28959E-01
 -1       769 8.04249E-01
 -1       770 9.70035E-01
 -1       771 1.11809E+00
 -1       772 1.18306E+00
 -1       773 1.38025E+00
 -1       774 1.50037E+00
 -1       775 1.36718E+00
 -1       776 1.55832E+00
 -1       777 1.45609E+00
 -1       778 1.24215E+00
 -1       779 1.13081E+00
 -1       780 1.05096E+00
 -1       781 8.60742E-01
 -1       782 6.93130E-01
 -1       783 5.03827E-01
 -1       784 3.71313E-01
 -1       785 2.60452E-01
 -1       786 1.79002E-01
 -1       787 1.32579E-01
 -1       788 1.07580E-01
 -1       789 8.45984E-02
 -1       790 6.94088E-02
 -1       791 5.53333E-02
 -1       792 4.24924E-02
 -1       793 3.17050E-02
 -1       794 2.33955E-02
 -1       795 1.68246E-02
 -1       796 1.17055E-02
 -1       797 1.05562E-02
 -1       798 1.15749E-02
 -1       799 1.46609E-02
 -1       800 7.98801E+00
 -1       801 8.05273E+00
 -1       802 1.20372E-02
 -1       803 8.05273E+00
 -1       804 9.71881E+00
 -1       805 1.14412E+01
 -1       806 1.28697E+01
 -1       807 3.64439E+00
 -1       808 1.12893E-01
 -1       809 6.10796E+00
 -1       810 1.05920E+01
 -1       811 4.16816E+00
 -1       812 2.79642E+00
 -1       813 2.81277E-01
 -1       814 3.19430E+00
 -1       815 7.25906E+00
 -1       816 3.73799E+00
 -1       817 2.40629E-01
 -1       818 2.61617E+00
 -1       819 3.53355E+00
 -1       820 1.64935E-01
 -1       821 2.77800E-01
 -1       822 2.81660E+00
 -1       823 1.05562E-02
 -1       824 6.44835E+00
 -1       825 2.05094E-01
 -1       826 4.04195E+00
 -1       827 1.11309E-02
 -1       828 2.77665E-01
 -1       829 3.64489E+00
 -1       830 2.81277E-01
 -1       831 2.80830E-01
 -1       832 2.70930E-01
 -1       833 1.97424E+00
 -1       834 1.37256E-01
 -1       835 1.31837E-01
 -1       836 1.38196E-01
 -1       837 1.35048E-01
 -1       838 1.64777E-01
 -1       839 1.97946E-01
 -1       840 2.95843E-01
 -1       841 4.40067E-01
 -1       842 6.60167E-01
 -1       843 9.92742E-01
 -1       844 1.48933E+00
 -1       845 2.19684E+00
 -1       846 3.22027E+00
 -1       847 5.18178E+00
 -1       848 2.39083E+00
 -1       849 6.43503E+00
 -1       850 1.71239E-02
 -1       851 1.36201E+00
 -1       852 8.65944E-01
 -1       853 6.04158E-01
 -1       854 4.33634E-01
 -1       855 3.08573E-01
 -1       856 2.17772E-01
 -1       857 1.52190E-01
 -1       858 1.05213E-01
 -1       859 7.23138E-02
 -1       860 4.95067E-02
 -1       861 3.35213E-02
 -1       862 2.23772E-02
 -1       863 1.61685E-02
 -1       864 5.52337E+00
 -1       865 7.98016E-02
 -1       866 2.96640E-01
 -1       867 1.91734E-01
 -1       868 5.82958E-01
 -1       869 7.78362E-01
 -1       870 9.70035E-01
 -1       871 1.14946E+00
 -1       872 2.22334E+00
 -1       873 2.35076E+00
 -1       874 1.74245E+00
 -1       875 1.95087E+00
 -1       876 2.86536E+00
 -1       877 2.60666E+00
 -1       878 1.95855E+00
 -1       879 1.38217E+00
 -1       880 1.31473E+00
 -1       881 1.05096E+00
 -1       882 8.61824E-01
 -1       883 7.01063E-01
 -1       884 5.10546E-01
 -1       885 3.71313E-01
 -1       886 2.60452E-01
 -1       887 1.91728E-01
 -1       888 1.44314E-01
 -1       889 1.10408E-01
 -1       890 8.61528E-02
 -1       891 6.50864E-02
 -1       892 4.91231E-02
 -1       893 3.76625E-02
 -1       894 2.92133E-02
 -1       895 2.19875E-02
 -1       896 1.54830E-02
 -1       897 1.63432E-02
 -1       898 1.61685E-02
 -1       899 1.53264E-02
 -1       900 5.67303E+00
 -1       901 2.80830E-01
 -1       902 4.16316E-01
 -1       903 2.11074E+00
 -1       904 6.43503E+00
 -1       905 2.04012E+00
 -1       906 1.50714E-01
 -1       907 5.48963E+00
 -1       908 2.98240E+00
 -1       909 3.41392E+00
 -1       910 2.86536E+00
 -1       911 2.35076E+00
 -1       912 1.44914E-01
 -1       913 1.10020E-01
 -1       914 2.88787E+00
 -1       915 1.71239E-02
 -1       916 7.43625E-02
 -1       917 1.52493E-01
 -1       918 1.24308E-01
 -1       919 1.63432E-02
 -1       920 1.10757E-01
 -1       921 3.66697E+00
 -1       922 2.00698E-01
 -1       923 2.05477E-01
 -1       924 2.05477E-01
 -1       925 6.44835E+00
 -1       926 1.79674E-01
 -1       927 1.48383E+00
 -1       928 1.26080E-01
 -1       929 1.62181E-01
 -1       930 1.91906E-01
 -1       931 2.65172E-01
 -1       932 3.67385E-01
 -1       933 5.07794E-01
 -1       934 6.95401E-01
 -1       935 1.10175E+00
 -1       936 1.78782E+00
 -1       937 4.00785E+00
 -1       938 3.20459E-02
 -1       939 2.03501E-01
 -1       940 6.52264E-01
 -1       941 4.61322E-01
 -1       942 3.12296E-01
 -1       943 2.09334E-01
 -1       944 1.42878E-01
 -1       945 1.06150E-01
 -1       946 7.78562E-02
 -1       947 5.62690E-02
 -1       948 3.93996E-02
 -1       949 2.70697E-02
 -1       950 1.99759E-02
 -1       951 1.37752E-01
 -1       952 4.16630E+00
 -1       953 1.53874E+00
 -1       954 7.78362E-01
 -1       955 2.22334E+00
 -1       956 2.63082E+00
 -1       957 1.95855E+00
 -1       958 1.38217E+00
 -1       959 1.37379E+00
 -1       960 1.22716E+00
 -1       961 9.25669E-01
 -1       962 7.01063E-01
 -1       963 5.10546E-01
 -1       964 3.79361E-01
 -1       965 2.73055E-01
 -1       966 2.06805E-01
 -1       967 1.50453E-01
 -1       968 1.08955E-01
 -1       969 8.17511E-02
 -1       970 6.19964E-02
 -1       971 4.91231E-02
 -1       972 3.75840E-02
 -1       973 3.46008E-02
 -1       974 1.28007E-01
 -1       975 2.80248E-01
 -1       976 2.17471E+00
 -1       977 9.20522E-01
 -1       978 2.03501E-01
 -1       979 6.44835E+00
 -1       980 2.86536E+00
 -1       981 8.87483E-02
 -1       982 2.60666E+00
 -1       983 3.96139E+00
 -1       984 2.26662E+00
 -1       985 1.44865E+00
 -1       986 5.33710E+00
 -1       987 1.64162E+00
 -1       988 2.93096E+00
 -1       989 2.48352E-02
 -1       990 1.37705E-01
 -1       991 2.73717E+00
 -1       992 1.37702E-01
 -1       993 5.82958E-01
 -1       994 2.35076E+00
 -1       995 2.99958E-02
 -1       996 1.99438E-02
 -1       997 3.99080E-01
 -1       998 1.80175E-01
 -1       999 9.40724E-02
 -1      1000 8.50629E-02
 -1      1001 7.32495E-02
 -1      1002 1.37705E-01
 -1      1003 1.80996E+00
 -1      1004 1.66605E-01
 -1      1005 2.10930E-01
 -1      1006 2.74230E-01
 -1      1007 3.77606E-01
 -1      1008 5.70529E-01
 -1      1009 8.51102E-01
 -1      1010 1.29163E+00
 -1      1011 2.22560E+00
 -1      1012 4.75868E-01
 -1      1013 1.33323E-01
 -1      1014 2.64071E+00
 -1      1015 3.22088E-01
 -1      1016 2.35774E-01
 -1      1017 1.67527E-01
 -1      1018 1.18228E-01
 -1      1019 7.90916E-02
 -1      1020 5.76739E-02
 -1      1021 4.00255E-02
 -1      1022 1.53874E+00
 -1      1023 3.46008E-02
 -1      1024 2.48352E-02
 -1      1025 1.58152E+00
 -1      1026 1.19078E+00
 -1      1027 8.10988E-01
 -1      1028 5.58380E-01
 -1      1029 4.19216E-01
 -1      1030 2.97742E-01
 -1      1031 2.02451E-01
 -1      1032 1.35901E-01
 -1      1033 1.08753E-01
 -1      1034 8.17511E-02
 -1      1035 6.19964E-02
 -1      1036 4.59346E-02
 -1      1037 2.06339E+00
 -1      1038 4.32052E+00
 -1      1039 1.79284E+00
 -1      1040 1.18065E-01
 -1      1041 2.25948E+00
 -1      1042 1.39402E-01
 -1      1043 3.12348E+00
 -1      1044 7.86870E-02
 -1      1045 7.86870E-02
 -1      1046 1.14223E+00
 -1      1047 7.62600E-01
 -1      1048 1.00340E-01
 -1      1049 2.25894E+00
 -1      1050 9.02792E-02
 -1      1051 2.82489E-02
 -1      1052 1.04526E+00
 -1      1053 3.67530E-02
 -1      1054 7.52871E-02
 -1      1055 8.24547E-02
 -1      1056 3.03371E-01
 -1      1057 4.00255E-02
 -1      1058 1.62488E-01
 -1      1059 1.26567E-01
 -1      1060 5.00622E-01
 -1      1061 2.00357E-01
 -1      1062 3.31150E-01
 -1      1063 3.31150E-01
 -1      1064 5.12423E-01
 -1      1065 7.74645E-01
 -1      1066 8.51102E-01
 -1      1067 1.56740E+00
 -1      1068 2.00357E-01
 -1      1069 3.56337E-01
 -1      1070 1.89558E-01
 -1      1071 1.30425E-01
 -1      1072 8.94265E-02
 -1      1073 6.51191E-02
 -1      1074 4.68253E-02
 -1      1075 1.99820E+00
 -1      1076 2.22560E+00
 -1      1077 5.60980E-01
 -1      1078 2.18381E+00
 -1      1079 8.20943E-01
 -1      1080 1.03205E+00
 -1      1081 1.44529E+00
 -1      1082 8.21214E-01
 -1      1083 6.86212E-01
 -1      1084 4.34942E-01
 -1      1085 1.87486E-01
 -1      1086 1.89558E-01
 -1      1087 1.30425E-01
 -1      1088 8.94265E-02
 -1      1089 5.64194E-02
 -1      1090 1.06195E-01
 -1      1091 3.92282E-02
 -1      1092 1.98398E-01
 -1      1093 1.32696E-01
 -1      1094 1.69359E+00
 -1      1095 2.82783E-01
 -1      1096 1.48490E+00
 -1      1097 8.21214E-01
 -1      1098 1.02536E-01
 -1      1099 3.31150E-01
 -1      1100 7.74645E-01
 -1      1101 3.92878E-01
 -1      1102 7.62837E-01
 -1      1103 3.07675E-01
 -1      1104 8.77806E-01
 -1      1105 2.08840E-01
 -1      1106 2.14112E+00
 -1      1107 8.21214E-01
 -1      1108 1.18485E+00
 -1      1109 2.00357E-01
 -1      1110 7.75668E-02
 -1      1111 1.69359E+00
 -1      1112 1.64379E-01
 -1      1113 1.33594E+01
 -1      1114 8.49873E+00
 -1      1115 2.72515E+00
 -1      1116 1.54880E+00
 -1      1117 1.16202E+00
 -1      1118 9.66292E-01
 -1      1119 8.47612E-01
 -1      1120 7.73157E-01
 -1      1121 7.45518E-01
 -1      1122 7.75588E-01
 -1      1123 8.49799E-01
 -1      1124 9.71184E-01
 -1      1125 1.17487E+00
 -1      1126 1.56094E+00
 -1      1127 2.65584E+00
 -1      1128 6.05713E+00
 -1      1129 1.13267E+01
 -1      1130 1.33594E+01
 -1      1131 8.81647E+00
 -1      1132 3.84396E+00
 -1      1133 2.79278E+00
 -1      1134 1.78994E+00
 -1      1135 1.24215E+00
 -1      1136 9.59673E-01
 -1      1137 7.67999E-01
 -1      1138 6.32680E-01
 -1      1139 5.32425E-01
 -1      1140 4.87109E-01
 -1      1141 5.51983E-01
 -1      1142 7.04813E-01
 -1      1143 9.49496E-01
 -1      1144 1.30376E+00
 -1      1145 1.72730E+00
 -1      1146 2.39206E+00
 -1      1147 3.33071E+00
 -1      1148 4.48047E+00
 -1      1149 5.39465E+00
 -1      1150 5.66360E+00
 -1      1151 5.27092E+00
 -1      1152 8.85343E+00
 -1      1153 1.43959E+01
 -1      1154 1.59631E+01
 -1      1155 1.53776E+01
 -1      1156 1.04282E+01
 -1      1157 5.39560E+00
 -1      1158 4.83289E+00
 -1      1159 4.93899E+00
 -1      1160 4.40191E+00
 -1      1161 3.45177E+00
 -1      1162 2.61453E+00
 -1      1163 1.89835E+00
 -1      1164 1.38992E+00
 -1      1165 1.00053E+00
 -1      1166 6.99437E-01
 -1      1167 4.74264E-01
 -1      1168 3.23601E-01
 -1      1169 2.26218E-01
 -1      1170 1.52591E-01
 -1      1171 1.02387E-01
 -1      1172 7.07808E-02
 -1      1173 5.22560E-02
 -1      1174 3.95023E-02
 -1      1175 2.95824E-02
 -1      1176 2.14694E-02
 -1      1177 1.46962E-02
 -1      1178 9.89779E-03
 -1      1179 6.19997E-03
 -1      1180 2.80380E-03
 -1      1181 1.40307E+01
 -1      1182 8.71880E+00
 -1      1183 2.91721E+00
 -1      1184 2.05244E+00
 -1      1185 1.41733E+00
 -1      1186 1.05060E+00
 -1      1187 8.59043E-01
 -1      1188 7.03845E-01
 -1      1189 5.73111E-01
 -1      1190 4.58798E-01
 -1      1191 3.59594E-01
 -1      1192 2.72191E-01
 -1      1193 2.06070E-01
 -1      1194 1.62816E-01
 -1      1195 1.98530E-01
 -1      1196 3.06227E-01
 -1      1197 4.40541E-01
 -1      1198 6.17448E-01
 -1      1199 7.88988E-01
 -1      1200 9.35783E-01
 -1      1201 1.22871E+00
 -1      1202 1.63917E+00
 -1      1203 1.92918E+00
 -1      1204 2.09671E+00
 -1      1205 2.23510E+00
 -1      1206 2.30783E+00
 -1      1207 2.23609E+00
 -1      1208 1.98532E+00
 -1      1209 1.59136E+00
 -1      1210 1.17907E+00
 -1      1211 8.04031E-01
 -1      1212 5.23058E-01
 -1      1213 3.39307E-01
 -1      1214 2.13265E-01
 -1      1215 1.53941E-01
 -1      1216 1.40207E-01
 -1      1217 1.34699E-01
 -1      1218 1.18245E-01
 -1      1219 9.52504E-02
 -1      1220 7.36813E-02
 -1      1221 5.76623E-02
 -1      1222 4.59757E-02
 -1      1223 3.58201E-02
 -1      1224 2.64813E-02
 -1      1225 1.84761E-02
 -1      1226 1.35922E-02
 -1      1227 1.09256E-02
 -1      1228 7.86044E-03
 -1      1229 5.11039E-03
 -1      1230 2.51234E-03
 -1      1231 1.24982E-03
 -1      1232 1.35535E-03
 -1      1233 1.22756E-03
 -1      1234 1.11548E-03
 -1      1235 7.30555E-04
 -1      1236 6.15773E-04
 -1      1237 9.20520E-04
 -1      1238 1.10191E-03
 -1      1239 1.13661E-03
 -1      1240 1.05185E-03
 -1      1241 7.62269E-04
 -1      1242 7.49670E-04
 -1      1243 1.15491E-03
 -1      1244 1.36794E-03
 -1      1245 1.30777E-03
 -1      1246 9.51191E-04
 -1      1247 1.03645E-03
 -1      1248 2.50879E+01
 -1      1249 3.52204E+01
 -1      1250 4.53529E+01
 -1      1251 3.15701E+01
 -1      1252 1.50472E+01
 -1      1253 1.23071E+01
 -1      1254 1.20024E+01
 -1      1255 1.19251E+01
 -1      1256 1.21525E+01
 -1      1257 1.19729E+01
 -1      1258 1.78663E+01
 -1      1259 2.85429E+01
 -1      1260 3.31465E+01
 -1      1261 2.88400E+01
 -1      1262 2.48380E+01
 -1      1263 2.52062E+01
 -1      1264 2.88986E+01
 -1      1265 3.25274E+01
 -1      1266 2.79543E+01
 -1      1267 1.82988E+01
 -1      1268 1.32936E+01
 -1      1269 1.36082E+01
 -1      1270 1.38457E+01
 -1      1271 1.35905E+01
 -1      1272 1.45061E+01
 -1      1273 2.84098E+01
 -1      1274 4.11426E+01
 -1      1275 3.28637E+01
 -1      1276 2.45849E+01
 -1      1277 2.48364E+01
 -1      1278 1.33594E+01
 -1      1279 4.90366E+00
 -1      1280 9.76433E+00
 -1      1281 2.04896E+00
 -1      1282 2.96188E+00
 -1      1283 4.22747E+00
 -1      1284 1.39329E+00
 -1      1285 1.65673E+00
 -1      1286 1.89346E+00
 -1      1287 1.09657E+00
 -1      1288 1.21991E+00
 -1      1289 1.32784E+00
 -1      1290 9.30676E-01
 -1      1291 1.00307E+00
 -1      1292 1.06096E+00
 -1      1293 8.29797E-01
 -1      1294 8.76081E-01
 -1      1295 9.12860E-01
 -1      1296 7.66628E-01
 -1      1297 7.94798E-01
 -1      1298 8.23267E-01
 -1      1299 7.46049E-01
 -1      1300 7.45518E-01
 -1      1301 7.67159E-01
 -1      1302 7.97987E-01
 -1      1303 7.68448E-01
 -1      1304 7.68448E-01
 -1      1305 8.77419E-01
 -1      1306 8.32747E-01
 -1      1307 8.25607E-01
 -1      1308 1.01196E+00
 -1      1309 9.35252E-01
 -1      1310 9.18200E-01
 -1      1311 1.23489E+00
 -1      1312 1.10792E+00
 -1      1313 1.07199E+00
 -1      1314 1.67183E+00
 -1      1315 1.41272E+00
 -1      1316 1.34577E+00
 -1      1317 2.87285E+00
 -1      1318 2.03706E+00
 -1      1319 1.88883E+00
 -1      1320 6.27100E+00
 -1      1321 3.70550E+00
 -1      1322 3.08672E+00
 -1      1323 1.40307E+01
 -1      1324 1.13267E+01
 -1      1325 8.97502E+00
 -1      1326 1.40307E+01
 -1      1327 8.81647E+00
 -1      1328 4.27355E+00
 -1      1329 3.84396E+00
 -1      1330 3.41437E+00
 -1      1331 3.84396E+00
 -1      1332 2.79278E+00
 -1      1333 2.17118E+00
 -1      1334 2.79278E+00
 -1      1335 1.82515E+00
 -1      1336 1.44391E+00
 -1      1337 1.82515E+00
 -1      1338 1.24215E+00
 -1      1339 1.07561E+00
 -1      1340 1.27736E+00
 -1      1341 9.59673E-01
 -1      1342 8.43735E-01
 -1      1343 9.59673E-01
 -1      1344 7.67999E-01
 -1      1345 6.92263E-01
 -1      1346 7.67999E-01
 -1      1347 6.32680E-01
 -1      1348 5.73098E-01
 -1      1349 6.32680E-01
 -1      1350 5.32425E-01
 -1      1351 4.91752E-01
 -1      1352 5.32425E-01
 -1      1353 4.67587E-01
 -1      1354 4.62944E-01
 -1      1355 4.67587E-01
 -1      1356 4.82465E-01
 -1      1357 5.51983E-01
 -1      1358 4.62944E-01
 -1      1359 6.21501E-01
 -1      1360 7.04813E-01
 -1      1361 5.51983E-01
 -1      1362 8.48532E-01
 -1      1363 1.00990E+00
 -1      1364 7.65220E-01
 -1      1365 1.25949E+00
 -1      1366 1.45238E+00
 -1      1367 1.15852E+00
 -1      1368 1.78772E+00
 -1      1369 2.01836E+00
 -1      1370 1.74345E+00
 -1      1371 2.42958E+00
 -1      1372 2.86369E+00
 -1      1373 2.49000E+00
 -1      1374 3.28805E+00
 -1      1375 3.79259E+00
 -1      1376 3.32558E+00
 -1      1377 4.08708E+00
 -1      1378 4.73230E+00
 -1      1379 4.04442E+00
 -1      1380 5.12569E+00
 -1      1381 5.39465E+00
 -1      1382 4.73230E+00
 -1      1383 5.66360E+00
 -1      1384 5.66360E+00
 -1      1385 5.39465E+00
 -1      1386 5.90091E+00
 -1      1387 5.50823E+00
 -1      1388 5.90091E+00
 -1      1389 5.25569E+00
 -1      1390 9.23089E+00
 -1      1391 5.88569E+00
 -1      1392 1.28286E+01
 -1      1393 1.43959E+01
 -1      1394 9.23089E+00
 -1      1395 1.59631E+01
 -1      1396 1.59631E+01
 -1      1397 1.43959E+01
 -1      1398 1.06581E+01
 -1      1399 6.29427E+00
 -1      1400 5.38292E+00
 -1      1401 4.71412E+00
 -1      1402 5.61279E+00
 -1      1403 4.88391E+00
 -1      1404 4.99001E+00
 -1      1405 4.87123E+00
 -1      1406 4.93899E+00
 -1      1407 4.93899E+00
 -1      1408 4.99001E+00
 -1      1409 4.54299E+00
 -1      1410 4.00591E+00
 -1      1411 4.54299E+00
 -1      1412 3.76318E+00
 -1      1413 3.35012E+00
 -1      1414 3.90426E+00
 -1      1415 2.97733E+00
 -1      1416 2.55316E+00
 -1      1417 3.28875E+00
 -1      1418 2.16375E+00
 -1      1419 1.87173E+00
 -1      1420 2.52655E+00
 -1      1421 1.54243E+00
 -1      1422 1.32602E+00
 -1      1423 1.80783E+00
 -1      1424 1.07869E+00
 -1      1425 9.05710E-01
 -1      1426 1.23120E+00
 -1      1427 7.32561E-01
 -1      1428 6.04456E-01
 -1      1429 8.10729E-01
 -1      1430 4.88389E-01
 -1      1431 3.91320E-01
 -1      1432 5.21513E-01
 -1      1433 3.36520E-01
 -1      1434 2.82925E-01
 -1      1435 3.50645E-01
 -1      1436 2.37265E-01
 -1      1437 1.93477E-01
 -1      1438 2.50184E-01
 -1      1439 1.61559E-01
 -1      1440 1.31721E-01
 -1      1441 1.72606E-01
 -1      1442 1.09565E-01
 -1      1443 8.91985E-02
 -1      1444 1.18532E-01
 -1      1445 7.37927E-02
 -1      1446 6.25524E-02
 -1      1447 8.09701E-02
 -1      1448 5.22560E-02
 -1      1449 4.49714E-02
 -1      1450 5.52679E-02
 -1      1451 3.95023E-02
 -1      1452 3.40332E-02
 -1      1453 3.95023E-02
 -1      1454 2.95824E-02
 -1      1455 2.51317E-02
 -1      1456 2.95824E-02
 -1      1457 2.16172E-02
 -1      1458 1.79549E-02
 -1      1459 2.16172E-02
 -1      1460 1.52681E-02
 -1      1461 1.21571E-02
 -1      1462 1.54159E-02
 -1      1463 9.89779E-03
 -1      1464 8.21046E-03
 -1      1465 1.04698E-02
 -1      1466 6.19997E-03
 -1      1467 4.18947E-03
 -1      1468 6.19997E-03
 -1      1469 3.03816E-03
 -1      1470 1.65249E-03
 -1      1471 1.27082E-03
 -1      1472 3.03816E-03
 -1      1473 3.40692E+00
 -1      1474 8.71880E+00
 -1      1475 8.71880E+00
 -1      1476 2.42751E+00
 -1      1477 2.91721E+00
 -1      1478 2.91721E+00
 -1      1479 1.67737E+00
 -1      1480 2.05244E+00
 -1      1481 2.05244E+00
 -1      1482 1.15728E+00
 -1      1483 1.41733E+00
 -1      1484 1.41733E+00
 -1      1485 9.43928E-01
 -1      1486 1.05060E+00
 -1      1487 1.05060E+00
 -1      1488 7.74158E-01
 -1      1489 8.59043E-01
 -1      1490 8.59043E-01
 -1      1491 6.33531E-01
 -1      1492 7.03845E-01
 -1      1493 7.03845E-01
 -1      1494 5.12690E-01
 -1      1495 5.73111E-01
 -1      1496 5.73111E-01
 -1      1497 4.04906E-01
 -1      1498 4.58798E-01
 -1      1499 4.58798E-01
 -1      1500 3.14282E-01
 -1      1501 3.59594E-01
 -1      1502 3.59594E-01
 -1      1503 2.31825E-01
 -1      1504 2.73917E-01
 -1      1505 2.73917E-01
 -1      1506 1.82041E-01
 -1      1507 2.06070E-01
 -1      1508 2.07796E-01
 -1      1509 1.37570E-01
 -1      1510 1.56794E-01
 -1      1511 1.56794E-01
 -1      1512 1.98530E-01
 -1      1513 1.43592E-01
 -1      1514 1.37570E-01
 -1      1515 3.16102E-01
 -1      1516 2.63342E-01
 -1      1517 2.08404E-01
 -1      1518 4.97043E-01
 -1      1519 4.15489E-01
 -1      1520 3.72604E-01
 -1      1521 7.16842E-01
 -1      1522 6.21490E-01
 -1      1523 5.96437E-01
 -1      1524 9.32032E-01
 -1      1525 8.55844E-01
 -1      1526 8.59886E-01
 -1      1527 1.14979E+00
 -1      1528 1.07918E+00
 -1      1529 1.14604E+00
 -1      1530 1.52607E+00
 -1      1531 1.30375E+00
 -1      1532 1.44714E+00
 -1      1533 1.81410E+00
 -1      1534 1.62596E+00
 -1      1535 1.70100E+00
 -1      1536 1.93793E+00
 -1      1537 1.83606E+00
 -1      1538 1.82285E+00
 -1      1539 2.09671E+00
 -1      1540 2.03105E+00
 -1      1541 1.93793E+00
 -1      1542 2.23510E+00
 -1      1543 2.16238E+00
 -1      1544 2.09671E+00
 -1      1545 2.30783E+00
 -1      1546 2.30783E+00
 -1      1547 2.23510E+00
 -1      1548 2.16434E+00
 -1      1549 2.23609E+00
 -1      1550 2.23609E+00
 -1      1551 1.80629E+00
 -1      1552 1.98532E+00
 -1      1553 1.98532E+00
 -1      1554 1.37644E+00
 -1      1555 1.59136E+00
 -1      1556 1.59136E+00
 -1      1557 9.94013E-01
 -1      1558 1.19138E+00
 -1      1559 1.19138E+00
 -1      1560 6.57276E-01
 -1      1561 8.34950E-01
 -1      1562 8.47259E-01
 -1      1563 4.19759E-01
 -1      1564 5.23058E-01
 -1      1565 5.53978E-01
 -1      1566 2.58855E-01
 -1      1567 3.39307E-01
 -1      1568 3.39307E-01
 -1      1569 1.67675E-01
 -1      1570 2.13265E-01
 -1      1571 2.13265E-01
 -1      1572 1.39771E-01
 -1      1573 1.53505E-01
 -1      1574 1.53505E-01
 -1      1575 1.40207E-01
 -1      1576 1.40207E-01
 -1      1577 1.39771E-01
 -1      1578 1.29190E-01
 -1      1579 1.34699E-01
 -1      1580 1.34699E-01
 -1      1581 1.07300E-01
 -1      1582 1.18245E-01
 -1      1583 1.18245E-01
 -1      1584 8.32009E-02
 -1      1585 9.52504E-02
 -1      1586 9.52504E-02
 -1      1587 6.54252E-02
 -1      1588 7.49448E-02
 -1      1589 7.49448E-02
 -1      1590 5.11630E-02
 -1      1591 5.76623E-02
 -1      1592 5.89259E-02
 -1      1593 4.07885E-02
 -1      1594 4.59757E-02
 -1      1595 4.59757E-02
 -1      1596 3.08518E-02
 -1      1597 3.58201E-02
 -1      1598 3.58201E-02
 -1      1599 2.21108E-02
 -1      1600 2.64813E-02
 -1      1601 2.64813E-02
 -1      1602 1.51761E-02
 -1      1603 1.88108E-02
 -1      1604 1.88108E-02
 -1      1605 1.23430E-02
 -1      1606 1.35922E-02
 -1      1607 1.39269E-02
 -1      1608 9.50827E-03
 -1      1609 1.09256E-02
 -1      1610 1.09256E-02
 -1      1611 6.21261E-03
 -1      1612 7.86044E-03
 -1      1613 7.86044E-03
 -1      1614 4.00817E-03
 -1      1615 5.11039E-03
 -1      1616 5.11039E-03
 -1      1617 2.74566E-03
 -1      1618 1.41810E-03
 -1      1619 1.54589E-03
 -1      1620 1.75308E-03
 -1      1621 1.75308E-03
 -1      1622 1.94361E-03
 -1      1623 1.64100E-03
 -1      1624 1.75308E-03
 -1      1625 2.27860E-03
 -1      1626 1.00930E-03
 -1      1627 1.28214E-03
 -1      1628 1.91974E-03
 -1      1629 1.19204E-03
 -1      1630 1.03398E-03
 -1      1631 1.58557E-03
 -1      1632 1.68396E-03
 -1      1633 1.53727E-03
 -1      1634 1.95548E-03
 -1      1635 1.83894E-03
 -1      1636 1.80424E-03
 -1      1637 2.42099E-03
 -1      1638 1.83921E-03
 -1      1639 1.83921E-03
 -1      1640 2.54154E-03
 -1      1641 1.75445E-03
 -1      1642 1.83921E-03
 -1      1643 2.54181E-03
 -1      1644 1.33590E-03
 -1      1645 1.54072E-03
 -1      1646 2.32808E-03
 -1      1647 1.13260E-03
 -1      1648 9.40382E-04
 -1      1649 1.71883E-03
 -1      1650 1.86127E-03
 -1      1651 1.64824E-03
 -1      1652 1.83895E-03
 -1      1653 1.96643E-03
 -1      1654 1.96643E-03
 -1      1655 2.45977E-03
 -1      1656 2.01507E-03
 -1      1657 2.07524E-03
 -1      1658 2.67373E-03
 -1      1659 1.71866E-03
 -1      1660 2.01507E-03
 -1      1661 2.78254E-03
 -1      1662 2.33470E-03
 -1      1663 2.77930E+01
 -1      1664 2.77930E+01
 -1      1665 4.17558E+01
 -1      1666 3.16233E+01
 -1      1667 4.53529E+01
 -1      1668 4.53529E+01
 -1      1669 1.86101E+01
 -1      1670 3.23929E+01
 -1      1671 1.14575E+01
 -1      1672 1.41976E+01
 -1      1673 1.23071E+01
 -1      1674 1.23071E+01
 -1      1675 1.16977E+01
 -1      1676 1.20024E+01
 -1      1677 1.17387E+01
 -1      1678 1.15113E+01
 -1      1679 1.21525E+01
 -1      1680 1.21525E+01
 -1      1681 1.16702E+01
 -1      1682 1.18499E+01
 -1      1683 1.78663E+01
 -1      1684 1.17933E+01
 -1      1685 2.94666E+01
 -1      1686 2.48631E+01
 -1      1687 3.31465E+01
 -1      1688 3.31465E+01
 -1      1689 2.83008E+01
 -1      1690 3.26073E+01
 -1      1691 2.85734E+01
 -1      1692 2.82690E+01
 -1      1693 2.86371E+01
 -1      1694 2.85734E+01
 -1      1695 3.23708E+01
 -1      1696 2.87420E+01
 -1      1697 3.25274E+01
 -1      1698 3.25274E+01
 -1      1699 2.43798E+01
 -1      1700 2.89530E+01
 -1      1701 1.32165E+01
 -1      1702 1.82988E+01
 -1      1703 1.32136E+01
 -1      1704 1.31365E+01
 -1      1705 1.36082E+01
 -1      1706 1.33708E+01
 -1      1707 1.38457E+01
 -1      1708 1.38457E+01
 -1      1709 1.33353E+01
 -1      1710 1.35905E+01
 -1      1711 1.37787E+01
 -1      1712 1.26079E+01
 -1      1713 2.84098E+01
 -1      1714 1.56769E+01
 -1      1715 4.11426E+01
 -1      1716 4.11426E+01
 -1      1717 3.00275E+01
 -1      1718 3.83064E+01
 -1      1719 2.58660E+01
 -1      1720 2.58660E+01
 -1      1721 2.77930E+01
 -1      1722 2.75415E+01
 -1      1723 1.53776E+01
 -1      1724 1.47920E+01
 -1      1725 3.23929E+01
 -1      1726 3.04981E+01
 -1      1727 2.74566E-03
 -1      1728 2.80840E-03
 -1      1729 3.43284E+01
 -1      1730 4.17558E+01
 -1      1731 1.50204E+01
 -1      1732 1.14575E+01
 -1      1733 1.20024E+01
 -1      1734 1.15113E+01
 -1      1735 1.17387E+01
 -1      1736 1.18499E+01
 -1      1737 1.16702E+01
 -1      1738 1.87901E+01
 -1      1739 2.94666E+01
 -1      1740 3.26073E+01
 -1      1741 3.20362E+01
 -1      1742 3.20044E+01
 -1      1743 3.21092E+01
 -1      1744 3.23708E+01
 -1      1745 2.89530E+01
 -1      1746 1.92975E+01
 -1      1747 1.31365E+01
 -1      1748 1.32136E+01
 -1      1749 1.36082E+01
 -1      1750 1.35905E+01
 -1      1751 1.26079E+01
 -1      1752 1.37787E+01
 -1      1753 2.84098E+01
 -1      1754 3.83064E+01
 -1      1755 3.13086E+01
 -1      1756 2.88226E+01
 -1      1757 1.06581E+01
 -1      1758 9.76433E+00
 -1      1759 1.53776E+01
 -1      1760 1.28149E+00
 -1      1761 1.67372E+00
 -1      1762 2.40332E+00
 -1      1763 4.34511E+00
 -1      1764 1.79136E+00
 -1      1765 8.76466E-01
 -1      1766 9.69966E-01
 -1      1767 7.74508E-01
 -1      1768 8.29103E-01
 -1      1769 7.38113E-01
 -1      1770 7.07307E-01
 -1      1771 7.42305E-01
 -1      1772 6.58547E-01
 -1      1773 6.63474E-01
 -1      1774 6.84583E-01
 -1      1775 6.03621E-01
 -1      1776 6.87141E-01
 -1      1777 6.64742E-01
 -1      1778 5.82166E-01
 -1      1779 7.44453E-01
 -1      1780 7.09692E-01
 -1      1781 6.05986E-01
 -1      1782 8.36381E-01
 -1      1783 7.78548E-01
 -1      1784 6.62633E-01
 -1      1785 9.80570E-01
 -1      1786 8.84617E-01
 -1      1787 7.44965E-01
 -1      1788 1.22585E+00
 -1      1789 1.04802E+00
 -1      1790 8.60650E-01
 -1      1791 1.69554E+00
 -1      1792 1.33032E+00
 -1      1793 1.03256E+00
 -1      1794 2.61928E+00
 -1      1795 1.78663E+00
 -1      1796 1.22811E+00
 -1      1797 8.10977E+00
 -1      1798 3.05411E+00
 -1      1799 1.75403E+00
 -1      1800 2.79789E+00
 -1      1801 5.22141E+00
 -1      1802 2.16435E+00
 -1      1803 2.65405E+00
 -1      1804 2.04502E+00
 -1      1805 2.57943E+00
 -1      1806 1.95783E+00
 -1      1807 1.73034E+00
 -1      1808 1.38430E+00
 -1      1809 1.51699E+00
 -1      1810 1.20073E+00
 -1      1811 9.98977E-01
 -1      1812 1.10592E+00
 -1      1813 8.81967E-01
 -1      1814 7.66030E-01
 -1      1815 8.05334E-01
 -1      1816 7.16293E-01
 -1      1817 6.40557E-01
 -1      1818 6.38588E-01
 -1      1819 5.94616E-01
 -1      1820 5.35033E-01
 -1      1821 5.42910E-01
 -1      1822 4.94956E-01
 -1      1823 4.54283E-01
 -1      1824 4.56891E-01
 -1      1825 4.19094E-01
 -1      1826 3.94929E-01
 -1      1827 3.81625E-01
 -1      1828 4.03220E-01
 -1      1829 4.22742E-01
 -1      1830 3.54727E-01
 -1      1831 4.73735E-01
 -1      1832 5.43253E-01
 -1      1833 4.14012E-01
 -1      1834 6.79823E-01
 -1      1835 8.23542E-01
 -1      1836 6.01576E-01
 -1      1837 1.02941E+00
 -1      1838 1.27900E+00
 -1      1839 9.44015E-01
 -1      1840 1.56365E+00
 -1      1841 1.89898E+00
 -1      1842 1.43453E+00
 -1      1843 2.28015E+00
 -1      1844 2.69136E+00
 -1      1845 2.10035E+00
 -1      1846 3.17241E+00
 -1      1847 3.59677E+00
 -1      1848 2.96256E+00
 -1      1849 4.14818E+00
 -1      1850 4.44266E+00
 -1      1851 3.99501E+00
 -1      1852 4.99424E+00
 -1      1853 5.38763E+00
 -1      1854 5.09799E+00
 -1      1855 5.92186E+00
 -1      1856 6.19081E+00
 -1      1857 6.18379E+00
 -1      1858 7.68215E+00
 -1      1859 7.91946E+00
 -1      1860 8.20936E+00
 -1      1861 7.95393E+00
 -1      1862 7.70139E+00
 -1      1863 9.73516E+00
 -1      1864 1.72936E+01
 -1      1865 3.02536E+01
 -1      1866 3.39726E+00
 -1      1867 5.79221E+00
 -1      1868 5.96200E+00
 -1      1869 5.75285E+00
 -1      1870 5.70183E+00
 -1      1871 6.67382E+00
 -1      1872 4.97211E+00
 -1      1873 4.57611E+00
 -1      1874 5.73495E+00
 -1      1875 4.24853E+00
 -1      1876 4.00580E+00
 -1      1877 4.67765E+00
 -1      1878 3.56482E+00
 -1      1879 3.19204E+00
 -1      1880 3.90909E+00
 -1      1881 2.75374E+00
 -1      1882 2.36433E+00
 -1      1883 3.02981E+00
 -1      1884 1.99077E+00
 -1      1885 1.66146E+00
 -1      1886 2.21796E+00
 -1      1887 1.37472E+00
 -1      1888 1.12740E+00
 -1      1889 1.55766E+00
 -1      1890 9.20614E-01
 -1      1891 7.47465E-01
 -1      1892 1.06414E+00
 -1      1893 6.00043E-01
 -1      1894 4.83976E-01
 -1      1895 7.09928E-01
 -1      1896 3.94281E-01
 -1      1897 3.39480E-01
 -1      1898 4.72811E-01
 -1      1899 2.72923E-01
 -1      1900 2.27263E-01
 -1      1901 3.16559E-01
 -1      1902 1.82919E-01
 -1      1903 1.51002E-01
 -1      1904 2.05658E-01
 -1      1905 1.21677E-01
 -1      1906 9.95209E-02
 -1      1907 1.31991E-01
 -1      1908 8.20882E-02
 -1      1909 6.66824E-02
 -1      1910 8.52333E-02
 -1      1911 5.66405E-02
 -1      1912 4.63441E-02
 -1      1913 5.77587E-02
 -1      1914 3.85211E-02
 -1      1915 3.30520E-02
 -1      1916 3.98937E-02
 -1      1917 2.86172E-02
 -1      1918 2.41665E-02
 -1      1919 2.76360E-02
 -1      1920 2.12162E-02
 -1      1921 1.77017E-02
 -1      1922 2.02510E-02
 -1      1923 1.51184E-02
 -1      1924 1.24316E-02
 -1      1925 1.47174E-02
 -1      1926 1.03287E-02
 -1      1927 8.06945E-03
 -1      1928 1.00313E-02
 -1      1929 6.59102E-03
 -1      1930 4.58052E-03
 -1      1931 6.45001E-03
 -1      1932 3.48600E-03
 -1      1933 1.14344E+00
 -1      1934 1.40349E+00
 -1      1935 8.74297E-01
 -1      1936 9.80972E-01
 -1      1937 9.67136E-01
 -1      1938 7.09999E-01
 -1      1939 7.94884E-01
 -1      1940 7.25252E-01
 -1      1941 5.80979E-01
 -1      1942 6.51292E-01
 -1      1943 5.87133E-01
 -1      1944 4.67450E-01
 -1      1945 5.27871E-01
 -1      1946 4.75319E-01
 -1      1947 3.65457E-01
 -1      1948 4.19348E-01
 -1      1949 3.74109E-01
 -1      1950 2.82710E-01
 -1      1951 3.28023E-01
 -1      1952 2.88573E-01
 -1      1953 2.11533E-01
 -1      1954 2.51899E-01
 -1      1955 2.20327E-01
 -1      1956 1.68050E-01
 -1      1957 1.93806E-01
 -1      1958 1.71788E-01
 -1      1959 1.38013E-01
 -1      1960 1.63259E-01
 -1      1961 1.49269E-01
 -1      1962 1.59463E-01
 -1      1963 1.53441E-01
 -1      1964 1.59906E-01
 -1      1965 2.64089E-01
 -1      1966 1.99277E-01
 -1      1967 2.15148E-01
 -1      1968 4.39017E-01
 -1      1969 3.39629E-01
 -1      1970 3.30502E-01
 -1      1971 6.57260E-01
 -1      1972 5.32814E-01
 -1      1973 4.99840E-01
 -1      1974 9.00582E-01
 -1      1975 7.61580E-01
 -1      1976 6.97957E-01
 -1      1977 1.18026E+00
 -1      1978 1.03311E+00
 -1      1979 9.34805E-01
 -1      1980 1.45699E+00
 -1      1981 1.30304E+00
 -1      1982 1.19011E+00
 -1      1983 1.70100E+00
 -1      1984 1.60110E+00
 -1      1985 1.45699E+00
 -1      1986 1.82285E+00
 -1      1987 1.80089E+00
 -1      1988 1.70100E+00
 -1      1989 1.93793E+00
 -1      1990 1.84481E+00
 -1      1991 1.82285E+00
 -1      1992 1.98192E+00
 -1      1993 1.91626E+00
 -1      1994 1.82314E+00
 -1      1995 2.07616E+00
 -1      1996 2.00344E+00
 -1      1997 1.82298E+00
 -1      1998 1.94396E+00
 -1      1999 2.01570E+00
 -1      2000 1.78404E+00
 -1      2001 1.63623E+00
 -1      2002 1.81525E+00
 -1      2003 1.59487E+00
 -1      2004 1.28554E+00
 -1      2005 1.50047E+00
 -1      2006 1.33040E+00
 -1      2007 9.65770E-01
 -1      2008 1.15083E+00
 -1      2009 1.05993E+00
 -1      2010 6.86770E-01
 -1      2011 8.45833E-01
 -1      2012 8.05281E-01
 -1      2013 4.49500E-01
 -1      2014 5.83718E-01
 -1      2015 5.82292E-01
 -1      2016 2.79942E-01
 -1      2017 3.60394E-01
 -1      2018 3.90134E-01
 -1      2019 1.64138E-01
 -1      2020 2.09728E-01
 -1      2021 2.30815E-01
 -1      2022 1.17359E-01
 -1      2023 1.31528E-01
 -1      2024 1.27992E-01
 -1      2025 1.16644E-01
 -1      2026 1.16208E-01
 -1      2027 9.42317E-02
 -1      2028 1.10510E-01
 -1      2029 1.16018E-01
 -1      2030 9.24552E-02
 -1      2031 9.33869E-02
 -1      2032 1.04332E-01
 -1      2033 8.56517E-02
 -1      2034 7.51035E-02
 -1      2035 8.71530E-02
 -1      2036 7.32400E-02
 -1      2037 6.11771E-02
 -1      2038 6.94332E-02
 -1      2039 6.13358E-02
 -1      2040 4.87568E-02
 -1      2041 5.65197E-02
 -1      2042 5.10081E-02
 -1      2043 3.92819E-02
 -1      2044 4.44691E-02
 -1      2045 4.20630E-02
 -1      2046 3.01873E-02
 -1      2047 3.51556E-02
 -1      2048 3.36491E-02
 -1      2049 2.20417E-02
 -1      2050 2.64122E-02
 -1      2051 2.57477E-02
 -1      2052 1.56182E-02
 -1      2053 1.89182E-02
 -1      2054 1.88491E-02
 -1      2055 1.21570E-02
 -1      2056 1.37409E-02
 -1      2057 1.38483E-02
 -1      2058 9.25947E-03
 -1      2059 1.06768E-02
 -1      2060 1.04908E-02
 -1      2061 6.00008E-03
 -1      2062 7.64791E-03
 -1      2063 7.39911E-03
 -1      2064 3.55645E-03
 -1      2065 4.65867E-03
 -1      2066 4.44614E-03
 -1      2067 2.35668E-03
 -1      2068 2.14686E-03
 -1      2069 2.50572E-03
 -1      2070 3.36173E-03
 -1      2071 3.36173E-03
 -1      2072 3.58885E-03
 -1      2073 2.69166E-03
 -1      2074 1.96134E-03
 -1      2075 1.93665E-03
 -1      2076 2.52263E-03
 -1      2077 2.88655E-03
 -1      2078 2.54132E-03
 -1      2079 2.89241E-03
 -1      2080 3.28114E-03
 -1      2081 3.16086E-03
 -1      2082 3.74671E-03
 -1      2083 3.29739E-03
 -1      2084 3.29712E-03
 -1      2085 4.03700E-03
 -1      2086 3.31399E-03
 -1      2087 3.31399E-03
 -1      2088 4.06957E-03
 -1      2089 3.10026E-03
 -1      2090 3.31399E-03
 -1      2091 4.08616E-03
 -1      2092 2.36525E-03
 -1      2093 2.76077E-03
 -1      2094 3.74667E-03
 -1      2095 2.50577E-03
 -1      2096 1.99013E-03
 -1      2097 3.03207E-03
 -1      2098 3.15647E-03
 -1      2099 3.05131E-03
 -1      2100 3.20248E-03
 -1      2101 3.26528E-03
 -1      2102 3.15647E-03
 -1      2103 3.74802E-03
 -1      2104 1.51850E+00
 -1      2105 1.89357E+00
 -1      2106 1.63041E+00
 -1      2107 1.24462E+00
 -1      2108 3.58431E+01
 -1      2109 3.22460E+01
 -1      2110 9.68966E+00
 -1      2111 1.41022E+01
 -1      2112 3.50558E+01
 -1      2113 3.50558E+01
 -1      2114 1.03229E+00
 -1      2115 1.20567E+00
 -1      2116 9.85938E-01
 -1      2117 8.47800E-01
 -1      2118 7.31801E+00
 -1      2119 6.40666E+00
 -1      2120 7.49743E+00
 -1      2121 1.00050E+01
 -1      2122 9.15543E+00
 -1      2123 8.23722E+00
 -1      2124 1.12330E+01
 -1      2125 1.15377E+01
 -1      2126 1.12859E+01
 -1      2127 1.14723E+01
 -1      2128 1.10076E+01
 -1      2129 1.13892E+01
 -1      2130 1.09753E+01
 -1      2131 1.04836E+01
 -1      2132 1.07863E+01
 -1      2133 9.54264E+00
 -1      2134 9.41959E+00
 -1      2135 1.81986E+01
 -1      2136 1.12019E+01
 -1      2137 2.58613E+01
 -1      2138 2.21815E+01
 -1      2139 3.20681E+01
 -1      2140 3.26073E+01
 -1      2141 2.53221E+01
 -1      2142 3.16485E+01
 -1      2143 3.16803E+01
 -1      2144 3.35874E+01
 -1      2145 3.35874E+01
 -1      2146 3.36923E+01
 -1      2147 3.35874E+01
 -1      2148 3.23708E+01
 -1      2149 3.22141E+01
 -1      2150 2.18417E+01
 -1      2151 2.54161E+01
 -1      2152 1.18660E+01
 -1      2153 1.79470E+01
 -1      2154 1.02052E+01
 -1      2155 1.02852E+01
 -1      2156 8.93471E+00
 -1      2157 1.18335E+01
 -1      2158 1.16764E+01
 -1      2159 1.25568E+01
 -1      2160 1.23193E+01
 -1      2161 1.07821E+01
 -1      2162 1.21347E+01
 -1      2163 1.23899E+01
 -1      2164 1.02767E+01
 -1      2165 1.10041E+01
 -1      2166 9.80350E+00
 -1      2167 1.15670E+01
 -1      2168 9.66877E+00
 -1      2169 2.77769E+01
 -1      2170 1.50441E+01
 -1      2171 2.98426E+01
 -1      2172 3.26789E+01
 -1      2173 2.66975E+01
 -1      2174 3.08590E+01
 -1      2175 3.50558E+01
 -1      2176 3.33803E+01
 -1      2177 3.23336E+01
 -1      2178 2.85033E+01
 -1      2179 3.87706E-03
 -1      2180 2.07438E+01
 -1      2181 2.96767E+00
 -1      2182 2.13272E+00
 -1      2183 1.34486E+01
 -1      2184 1.28631E+01
 -1      2185 1.19629E+01
 -1      2186 6.49355E+00
 -1      2187 1.00913E+01
 -1      2188 1.15624E+01
 -1      2189 1.31297E+01
 -1      2190 3.77479E-03
 -1      2191 3.30610E+01
 -1      2192 3.12580E-03
 -1      2193 3.12580E-03
 -1      2194 3.60854E-03
 -1      2195 4.22032E-03
 -1      2196 2.64208E+01
 -1      2197 9.23564E+00
 -1      2198 3.96135E+01
 -1      2199 3.29307E+01
 -1      2200 2.52316E+01
 -1      2201 1.93132E+01
 -1      2202 8.06494E+00
 -1      2203 1.11010E+01
 -1      2204 8.82510E+00
 -1      2205 1.44102E+01
 -1      2206 2.52595E+01
 -1      2207 3.36923E+01
 -1      2208 3.51705E+01
 -1      2209 3.16803E+01
 -1      2210 1.45933E+01
 -1      2211 8.95122E+00
 -1      2212 8.35599E+00
 -1      2213 1.09363E+01
 -1      2214 1.00229E+01
 -1      2215 3.32316E+01
 -1      2216 1.09341E+01
 -1      2217 1.17325E+01
 -1      2218 7.59850E+00
 -1      2219 5.54356E-01
 -1      2220 5.86559E-01
 -1      2221 5.99565E-01
 -1      2222 6.46928E-01
 -1      2223 4.95373E-01
 -1      2224 5.03595E-01
 -1      2225 5.02327E-01
 -1      2226 5.39955E-01
 -1      2227 5.17404E-01
 -1      2228 4.37564E-01
 -1      2229 5.89850E-01
 -1      2230 5.55755E-01
 -1      2231 4.67172E-01
 -1      2232 6.50979E-01
 -1      2233 6.02742E-01
 -1      2234 4.95864E-01
 -1      2235 7.18428E-01
 -1      2236 6.50979E-01
 -1      2237 5.08756E-01
 -1      2238 8.20121E-01
 -1      2239 7.15659E-01
 -1      2240 5.05988E-01
 -1      2241 9.75381E-01
 -1      2242 8.84296E-01
 -1      2243 5.67393E-01
 -1      2244 1.74757E+00
 -1      2245 1.31274E+00
 -1      2246 9.68925E-01
 -1      2247 1.60374E+00
 -1      2248 1.27381E+00
 -1      2249 1.04632E+00
 -1      2250 7.96019E+00
 -1      2251 7.75104E+00
 -1      2252 1.68659E+00
 -1      2253 1.29835E+00
 -1      2254 8.27682E-01
 -1      2255 9.56985E-01
 -1      2256 8.54374E+00
 -1      2257 1.17352E+01
 -1      2258 8.56179E+00
 -1      2259 9.94014E-01
 -1      2260 8.10439E-01
 -1      2261 7.50842E-01
 -1      2262 7.52397E-01
 -1      2263 6.35388E-01
 -1      2264 6.40493E-01
 -1      2265 5.73835E-01
 -1      2266 5.24098E-01
 -1      2267 5.20898E-01
 -1      2268 4.85079E-01
 -1      2269 4.39138E-01
 -1      2270 4.20326E-01
 -1      2271 4.10263E-01
 -1      2272 3.70185E-01
 -1      2273 3.52432E-01
 -1      2274 3.35517E-01
 -1      2275 3.00328E-01
 -1      2276 2.88889E-01
 -1      2277 2.80032E-01
 -1      2278 2.88323E-01
 -1      2279 2.33924E-01
 -1      2280 3.15445E-01
 -1      2281 3.66439E-01
 -1      2282 2.40750E-01
 -1      2283 4.85788E-01
 -1      2284 6.22358E-01
 -1      2285 3.87221E-01
 -1      2286 8.02862E-01
 -1      2287 1.00873E+00
 -1      2288 6.87074E-01
 -1      2289 1.27532E+00
 -1      2290 1.55997E+00
 -1      2291 1.13417E+00
 -1      2292 1.95429E+00
 -1      2293 2.33545E+00
 -1      2294 1.79508E+00
 -1      2295 2.91887E+00
 -1      2296 3.39992E+00
 -1      2297 2.77281E+00
 -1      2298 4.24677E+00
 -1      2299 4.79817E+00
 -1      2300 4.20308E+00
 -1      2301 5.86201E+00
 -1      2302 6.41359E+00
 -1      2303 6.11377E+00
 -1      2304 7.06260E+00
 -1      2305 7.59683E+00
 -1      2306 7.82662E+00
 -1      2307 9.01960E+00
 -1      2308 1.05109E+01
 -1      2309 9.89841E+00
 -1      2310 1.36155E+01
 -1      2311 5.11620E-03
 -1      2312 6.27396E+00
 -1      2313 6.80819E+00
 -1      2314 1.34150E+01
 -1      2315 1.90045E+01
 -1      2316 6.66395E+00
 -1      2317 5.93424E+00
 -1      2318 5.07261E+00
 -1      2319 4.74503E+00
 -1      2320 6.00162E+00
 -1      2321 4.15440E+00
 -1      2322 3.71342E+00
 -1      2323 4.54936E+00
 -1      2324 3.10568E+00
 -1      2325 2.66739E+00
 -1      2326 3.35099E+00
 -1      2327 2.24431E+00
 -1      2328 1.87075E+00
 -1      2329 2.32017E+00
 -1      2330 1.57902E+00
 -1      2331 1.29228E+00
 -1      2332 1.60536E+00
 -1      2333 1.08884E+00
 -1      2334 8.82051E-01
 -1      2335 1.11020E+00
 -1      2336 7.41257E-01
 -1      2337 5.93835E-01
 -1      2338 7.65958E-01
 -1      2339 4.98199E-01
 -1      2340 4.08504E-01
 -1      2341 5.29528E-01
 -1      2342 3.38976E-01
 -1      2343 2.72419E-01
 -1      2344 3.64364E-01
 -1      2345 2.24470E-01
 -1      2346 1.80126E-01
 -1      2347 2.46887E-01
 -1      2348 1.47214E-01
 -1      2349 1.17889E-01
 -1      2350 1.66025E-01
 -1      2351 9.53815E-02
 -1      2352 7.79488E-02
 -1      2353 1.10605E-01
 -1      2354 6.26196E-02
 -1      2355 5.25777E-02
 -1      2356 7.27679E-02
 -1      2357 4.18016E-02
 -1      2358 3.39786E-02
 -1      2359 4.66625E-02
 -1      2360 2.77429E-02
 -1      2361 2.33082E-02
 -1      2362 2.96507E-02
 -1      2363 1.96117E-02
 -1      2364 1.66613E-02
 -1      2365 1.97186E-02
 -1      2366 1.43011E-02
 -1      2367 1.17179E-02
 -1      2368 1.36618E-02
 -1      2369 9.99598E-03
 -1      2370 7.89311E-03
 -1      2371 9.57970E-03
 -1      2372 6.45001E-03
 -1      2373 4.97158E-03
 -1      2374 4.22032E-03
 -1      2375 6.41468E-03
 -1      2376 4.72876E-01
 -1      2377 5.31582E-01
 -1      2378 5.93561E-01
 -1      2379 6.72974E-01
 -1      2380 4.79304E-01
 -1      2381 7.41397E-01
 -1      2382 9.03869E-01
 -1      2383 6.09706E-01
 -1      2384 3.91774E-01
 -1      2385 4.44882E-01
 -1      2386 3.89331E-01
 -1      2387 3.12765E-01
 -1      2388 3.60866E-01
 -1      2389 3.30430E-01
 -1      2390 2.44741E-01
 -1      2391 2.82174E-01
 -1      2392 2.68932E-01
 -1      2393 1.89515E-01
 -1      2394 2.20327E-01
 -1      2395 2.13929E-01
 -1      2396 1.54089E-01
 -1      2397 1.71816E-01
 -1      2398 1.71816E-01
 -1      2399 1.45796E-01
 -1      2400 1.50587E-01
 -1      2401 1.50615E-01
 -1      2402 1.77729E-01
 -1      2403 1.62301E-01
 -1      2404 1.63618E-01
 -1      2405 2.52021E-01
 -1      2406 2.12207E-01
 -1      2407 2.14602E-01
 -1      2408 3.80714E-01
 -1      2409 3.05174E-01
 -1      2410 3.02233E-01
 -1      2411 5.42433E-01
 -1      2412 4.48636E-01
 -1      2413 4.23308E-01
 -1      2414 7.32255E-01
 -1      2415 6.27935E-01
 -1      2416 5.76731E-01
 -1      2417 9.80537E-01
 -1      2418 8.48008E-01
 -1      2419 7.77986E-01
 -1      2420 1.20678E+00
 -1      2421 1.08400E+00
 -1      2422 9.97205E-01
 -1      2423 1.41669E+00
 -1      2424 1.27259E+00
 -1      2425 1.16648E+00
 -1      2426 1.58627E+00
 -1      2427 1.48638E+00
 -1      2428 1.30197E+00
 -1      2429 1.62586E+00
 -1      2430 1.60389E+00
 -1      2431 1.38928E+00
 -1      2432 1.57399E+00
 -1      2433 1.59566E+00
 -1      2434 1.37670E+00
 -1      2435 1.61729E+00
 -1      2436 1.59578E+00
 -1      2437 1.36829E+00
 -1      2438 1.56420E+00
 -1      2439 1.62466E+00
 -1      2440 1.39745E+00
 -1      2441 1.39039E+00
 -1      2442 1.51909E+00
 -1      2443 1.35972E+00
 -1      2444 1.18481E+00
 -1      2445 1.32057E+00
 -1      2446 1.24479E+00
 -1      2447 9.60412E-01
 -1      2448 1.09512E+00
 -1      2449 1.08529E+00
 -1      2450 7.25710E-01
 -1      2451 8.45648E-01
 -1      2452 8.80841E-01
 -1      2453 5.06048E-01
 -1      2454 6.09099E-01
 -1      2455 6.49466E-01
 -1      2456 3.37987E-01
 -1      2457 4.27093E-01
 -1      2458 4.53901E-01
 -1      2459 1.99670E-01
 -1      2460 2.69883E-01
 -1      2461 3.06842E-01
 -1      2462 1.18776E-01
 -1      2463 1.51385E-01
 -1      2464 1.90453E-01
 -1      2465 1.01349E-01
 -1      2466 1.02500E-01
 -1      2467 1.25893E-01
 -1      2468 8.72034E-02
 -1      2469 8.78290E-02
 -1      2470 9.60973E-02
 -1      2471 7.69517E-02
 -1      2472 8.31295E-02
 -1      2473 7.85034E-02
 -1      2474 6.80000E-02
 -1      2475 7.42339E-02
 -1      2476 7.17117E-02
 -1      2477 5.84625E-02
 -1      2478 6.41328E-02
 -1      2479 6.51266E-02
 -1      2480 4.88958E-02
 -1      2481 5.35532E-02
 -1      2482 5.63501E-02
 -1      2483 4.01194E-02
 -1      2484 4.44070E-02
 -1      2485 4.69521E-02
 -1      2486 3.13341E-02
 -1      2487 3.54604E-02
 -1      2488 3.78044E-02
 -1      2489 2.32978E-02
 -1      2490 2.70729E-02
 -1      2491 2.88842E-02
 -1      2492 1.65871E-02
 -1      2493 1.97106E-02
 -1      2494 2.10357E-02
 -1      2495 1.18814E-02
 -1      2496 1.37587E-02
 -1      2497 1.46201E-02
 -1      2498 8.42791E-03
 -1      2499 9.90806E-03
 -1      2500 9.81846E-03
 -1      2501 5.66056E-03
 -1      2502 7.27212E-03
 -1      2503 6.68936E-03
 -1      2504 4.08398E-03
 -1      2505 3.50399E-03
 -1      2506 3.04396E-03
 -1      2507 3.25417E-03
 -1      2508 4.23552E-03
 -1      2509 3.39743E-03
 -1      2510 4.25344E-03
 -1      2511 3.91876E-03
 -1      2512 2.65084E+01
 -1      2513 3.30610E+01
 -1      2514 4.86196E-03
 -1      2515 4.58765E-03
 -1      2516 5.19923E-03
 -1      2517 4.95117E-03
 -1      2518 4.93520E-03
 -1      2519 5.77614E-03
 -1      2520 5.12535E-03
 -1      2521 5.10876E-03
 -1      2522 6.00696E-03
 -1      2523 5.12535E-03
 -1      2524 5.12535E-03
 -1      2525 6.16454E-03
 -1      2526 4.74946E-03
 -1      2527 5.08895E-03
 -1      2528 6.12814E-03
 -1      2529 3.80499E-03
 -1      2530 4.18012E-03
 -1      2531 5.52239E-03
 -1      2532 4.15312E-03
 -1      2533 3.60758E-03
 -1      2534 4.75563E-03
 -1      2535 4.98310E-03
 -1      2536 4.98310E-03
 -1      2537 5.38820E-03
 -1      2538 7.81192E+00
 -1      2539 6.27926E+00
 -1      2540 3.29307E+01
 -1      2541 2.62479E+01
 -1      2542 1.36888E+01
 -1      2543 9.70596E+00
 -1      2544 5.16250E-01
 -1      2545 5.38973E-01
 -1      2546 4.66985E-01
 -1      2547 4.37679E-01
 -1      2548 3.96135E+01
 -1      2549 3.96135E+01
 -1      2550 3.29307E+01
 -1      2551 8.39308E+00
 -1      2552 8.99597E+00
 -1      2553 9.44727E+00
 -1      2554 9.20796E+00
 -1      2555 3.32316E+01
 -1      2556 3.12926E+01
 -1      2557 9.51101E+00
 -1      2558 9.82158E+00
 -1      2559 6.02635E+00
 -1      2560 7.09035E+00
 -1      2561 8.24318E+00
 -1      2562 6.58395E+00
 -1      2563 2.24348E+01
 -1      2564 1.56888E+01
 -1      2565 1.12615E+01
 -1      2566 7.78445E+00
 -1      2567 2.70514E+01
 -1      2568 2.74391E+01
 -1      2569 2.70514E+01
 -1      2570 3.51705E+01
 -1      2571 3.51705E+01
 -1      2572 2.70169E+01
 -1      2573 2.84951E+01
 -1      2574 4.98921E-03
 -1      2575 8.39237E+00
 -1      2576 1.77465E+01
 -1      2577 1.28445E+01
 -1      2578 2.16302E+01
 -1      2579 2.06138E+01
 -1      2580 2.21459E+01
 -1      2581 2.22335E+01
 -1      2582 9.69486E+00
 -1      2583 5.08379E-01
 -1      2584 6.46928E-01
 -1      2585 7.09251E-01
 -1      2586 6.58048E+00
 -1      2587 1.31895E+00
 -1      2588 1.02150E+00
 -1      2589 1.04817E+00
 -1      2590 9.08040E+00
 -1      2591 1.01576E+01
 -1      2592 7.95033E+00
 -1      2593 1.08015E+01
 -1      2594 7.88121E+00
 -1      2595 1.25808E+01
 -1      2596 1.26152E+01
 -1      2597 1.33910E+01
 -1      2598 9.99591E+00
 -1      2599 1.48172E+01
 -1      2600 4.79780E-03
 -1      2601 3.30610E+01
 -1      2602 2.22335E+01
 -1      2603 4.85024E+00
 -1      2604 6.25159E+00
 -1      2605 8.78445E-01
 -1      2606 9.93459E-01
 -1      2607 6.81998E-01
 -1      2608 6.52706E-01
 -1      2609 6.84832E-01
 -1      2610 7.60648E-01
 -1      2611 6.55878E-01
 -1      2612 4.83960E-01
 -1      2613 2.16302E+01
 -1      2614 7.33870E+00
 -1      2615 1.78058E+01
 -1      2616 8.02195E+00
 -1      2617 5.31832E+00
 -1      2618 6.06344E+00
 -1      2619 3.32316E+01
 -1      2620 2.84951E+01
 -1      2621 1.68828E+01
 -1      2622 2.38375E+01
 -1      2623 1.41451E+01
 -1      2624 4.35980E-03
 -1      2625 1.86402E+01
 -1      2626 5.59488E-03
 -1      2627 4.18425E-01
 -1      2628 4.02625E-01
 -1      2629 3.93376E-01
 -1      2630 3.79568E-01
 -1      2631 3.44629E-01
 -1      2632 4.34453E-01
 -1      2633 4.34453E-01
 -1      2634 4.25679E-01
 -1      2635 4.28447E-01
 -1      2636 3.54144E-01
 -1      2637 9.45739E-01
 -1      2638 6.08382E-01
 -1      2639 6.60955E-01
 -1      2640 1.40372E+01
 -1      2641 1.18767E+01
 -1      2642 1.07896E+01
 -1      2643 5.99040E-01
 -1      2644 5.74507E-01
 -1      2645 4.02703E-01
 -1      2646 4.20672E-01
 -1      2647 4.33678E-01
 -1      2648 5.90031E-01
 -1      2649 5.37723E-01
 -1      2650 3.61388E-01
 -1      2651 4.98643E-01
 -1      2652 4.40602E-01
 -1      2653 3.37832E-01
 -1      2654 4.41335E-01
 -1      2655 3.79782E-01
 -1      2656 2.99485E-01
 -1      2657 3.63305E-01
 -1      2658 3.24286E-01
 -1      2659 2.83741E-01
 -1      2660 2.97225E-01
 -1      2661 2.68349E-01
 -1      2662 2.40203E-01
 -1      2663 2.48972E-01
 -1      2664 2.14304E-01
 -1      2665 1.93765E-01
 -1      2666 1.92505E-01
 -1      2667 1.72209E-01
 -1      2668 1.52588E-01
 -1      2669 2.39065E-01
 -1      2670 2.66187E-01
 -1      2671 1.97646E-01
 -1      2672 3.87221E-01
 -1      2673 5.06571E-01
 -1      2674 3.85536E-01
 -1      2675 6.87074E-01
 -1      2676 8.67578E-01
 -1      2677 6.87074E-01
 -1      2678 1.13417E+00
 -1      2679 1.40076E+00
 -1      2680 1.13417E+00
 -1      2681 1.79508E+00
 -1      2682 2.18939E+00
 -1      2683 1.79508E+00
 -1      2684 2.77281E+00
 -1      2685 3.35624E+00
 -1      2686 2.77281E+00
 -1      2687 4.20308E+00
 -1      2688 5.04992E+00
 -1      2689 4.20308E+00
 -1      2690 6.26468E+00
 -1      2691 7.32852E+00
 -1      2692 6.26468E+00
 -1      2693 7.82662E+00
 -1      2694 8.47564E+00
 -1      2695 7.97754E+00
 -1      2696 9.89841E+00
 -1      2697 7.22503E-03
 -1      2698 7.06745E-03
 -1      2699 1.65704E+01
 -1      2700 6.03421E-03
 -1      2701 5.57418E-03
 -1      2702 9.15222E+00
 -1      2703 8.29059E+00
 -1      2704 1.01426E+01
 -1      2705 5.44510E+00
 -1      2706 4.85447E+00
 -1      2707 4.07248E+00
 -1      2708 3.46474E+00
 -1      2709 4.96821E+00
 -1      2710 2.73701E+00
 -1      2711 2.31393E+00
 -1      2712 3.45850E+00
 -1      2713 1.83193E+00
 -1      2714 1.54020E+00
 -1      2715 2.24877E+00
 -1      2716 1.22929E+00
 -1      2717 1.02584E+00
 -1      2718 1.45585E+00
 -1      2719 8.29446E-01
 -1      2720 6.88652E-01
 -1      2721 9.48538E-01
 -1      2722 5.64863E-01
 -1      2723 4.69227E-01
 -1      2724 6.28351E-01
 -1      2725 3.84154E-01
 -1      2726 3.14626E-01
 -1      2727 4.19489E-01
 -1      2728 2.57299E-01
 -1      2729 2.09349E-01
 -1      2730 2.77088E-01
 -1      2731 1.76490E-01
 -1      2732 1.43577E-01
 -1      2733 1.86902E-01
 -1      2734 1.20075E-01
 -1      2735 9.75670E-02
 -1      2736 1.30540E-01
 -1      2737 8.07703E-02
 -1      2738 6.54411E-02
 -1      2739 9.02403E-02
 -1      2740 5.35124E-02
 -1      2741 4.27363E-02
 -1      2742 6.15149E-02
 -1      2743 3.48065E-02
 -1      2744 2.85709E-02
 -1      2745 4.16564E-02
 -1      2746 2.27170E-02
 -1      2747 1.90205E-02
 -1      2748 2.78728E-02
 -1      2749 1.50489E-02
 -1      2750 1.26887E-02
 -1      2751 1.80474E-02
 -1      2752 9.75980E-03
 -1      2753 8.03788E-03
 -1      2754 1.11469E-02
 -1      2755 7.03799E-03
 -1      2756 3.88030E-01
 -1      2757 4.50009E-01
 -1      2758 3.28225E-01
 -1      2759 3.56219E-01
 -1      2760 3.26924E-01
 -1      2761 4.75320E-01
 -1      2762 5.43744E-01
 -1      2763 3.84046E-01
 -1      2764 2.22777E-01
 -1      2765 2.53367E-01
 -1      2766 1.80754E-01
 -1      2767 2.05168E-01
 -1      2768 1.89602E-01
 -1      2769 1.49414E-01
 -1      2770 1.67113E-01
 -1      2771 1.58352E-01
 -1      2772 1.43478E-01
 -1      2773 1.46979E-01
 -1      2774 1.42277E-01
 -1      2775 1.79025E-01
 -1      2776 1.62520E-01
 -1      2777 1.58884E-01
 -1      2778 2.49080E-01
 -1      2779 2.14602E-01
 -1      2780 2.13503E-01
 -1      2781 3.55386E-01
 -1      2782 3.02233E-01
 -1      2783 3.02233E-01
 -1      2784 4.91230E-01
 -1      2785 4.23308E-01
 -1      2786 4.23308E-01
 -1      2787 6.51135E-01
 -1      2788 5.65633E-01
 -1      2789 5.65633E-01
 -1      2790 8.48994E-01
 -1      2791 7.33241E-01
 -1      2792 7.22143E-01
 -1      2793 1.02649E+00
 -1      2794 9.23026E-01
 -1      2795 8.78281E-01
 -1      2796 1.17655E+00
 -1      2797 1.11074E+00
 -1      2798 1.03656E+00
 -1      2799 1.28916E+00
 -1      2800 1.21948E+00
 -1      2801 1.16374E+00
 -1      2802 1.35343E+00
 -1      2803 1.33581E+00
 -1      2804 1.25332E+00
 -1      2805 1.29690E+00
 -1      2806 1.32710E+00
 -1      2807 1.27363E+00
 -1      2808 1.28194E+00
 -1      2809 1.26015E+00
 -1      2810 1.21055E+00
 -1      2811 1.35161E+00
 -1      2812 1.34424E+00
 -1      2813 1.23610E+00
 -1      2814 1.27838E+00
 -1      2815 1.32349E+00
 -1      2816 1.27027E+00
 -1      2817 1.16751E+00
 -1      2818 1.23733E+00
 -1      2819 1.20110E+00
 -1      2820 1.01606E+00
 -1      2821 1.10574E+00
 -1      2822 1.09828E+00
 -1      2823 8.13409E-01
 -1      2824 9.28174E-01
 -1      2825 9.48623E-01
 -1      2826 6.12992E-01
 -1      2827 7.29603E-01
 -1      2828 7.76936E-01
 -1      2829 4.53264E-01
 -1      2830 5.32218E-01
 -1      2831 6.12355E-01
 -1      2832 3.06842E-01
 -1      2833 3.74946E-01
 -1      2834 4.53264E-01
 -1      2835 1.94460E-01
 -1      2836 2.42745E-01
 -1      2837 3.10849E-01
 -1      2838 1.44310E-01
 -1      2839 1.60586E-01
 -1      2840 2.12877E-01
 -1      2841 1.02462E-01
 -1      2842 1.15982E-01
 -1      2843 1.50675E-01
 -1      2844 8.38735E-02
 -1      2845 8.79473E-02
 -1      2846 1.07832E-01
 -1      2847 7.60402E-02
 -1      2848 7.87581E-02
 -1      2849 8.82021E-02
 -1      2850 6.52908E-02
 -1      2851 6.91580E-02
 -1      2852 7.62044E-02
 -1      2853 5.51587E-02
 -1      2854 6.00680E-02
 -1      2855 6.40993E-02
 -1      2856 4.50812E-02
 -1      2857 4.95699E-02
 -1      2858 5.32877E-02
 -1      2859 3.55518E-02
 -1      2860 4.02108E-02
 -1      2861 4.28286E-02
 -1      2862 2.68241E-02
 -1      2863 3.10854E-02
 -1      2864 3.34918E-02
 -1      2865 1.94203E-02
 -1      2866 2.30075E-02
 -1      2867 2.52087E-02
 -1      2868 1.35055E-02
 -1      2869 1.63339E-02
 -1      2870 1.83057E-02
 -1      2871 9.15211E-03
 -1      2872 1.11254E-02
 -1      2873 1.28391E-02
 -1      2874 5.77355E-03
 -1      2875 6.92933E-03
 -1      2876 8.23630E-03
 -1      2877 5.03777E-03
 -1      2878 7.06745E-03
 -1      2879 6.99421E-03
 -1      2880 8.28552E-03
 -1      2881 1.06246E+01
 -1      2882 8.62456E+00
 -1      2883 4.62506E-03
 -1      2884 4.76833E-03
 -1      2885 5.74408E-03
 -1      2886 6.42375E-03
 -1      2887 6.65123E-03
 -1      2888 6.14756E-03
 -1      2889 7.48621E-03
 -1      2890 7.94254E-03
 -1      2891 2.70708E-01
 -1      2892 3.01616E-01
 -1      2893 2.68504E-01
 -1      2894 2.24553E-01
 -1      2895 7.59996E-03
 -1      2896 7.59996E-03
 -1      2897 8.66045E-03
 -1      2898 7.56356E-03
 -1      2899 7.59996E-03
 -1      2900 9.03538E-03
 -1      2901 6.76494E-03
 -1      2902 7.33428E-03
 -1      2903 8.80611E-03
 -1      2904 7.17517E-03
 -1      2905 7.37258E-03
 -1      2906 9.18447E-03
 -1      2907 7.58767E-03
 -1      2908 6.75768E-03
 -1      2909 9.37463E-03
 -1      2910 1.30249E+01
 -1      2911 1.61907E+01
 -1      2912 2.04656E+01
 -1      2913 2.34399E+01
 -1      2914 1.91987E+01
 -1      2915 1.67534E+01
 -1      2916 1.17490E+01
 -1      2917 4.95102E+00
 -1      2918 6.68657E+00
 -1      2919 1.11311E+01
 -1      2920 1.42725E+01
 -1      2921 4.76391E+00
 -1      2922 4.20632E+00
 -1      2923 2.40201E+01
 -1      2924 2.20812E+01
 -1      2925 4.27647E+00
 -1      2926 5.57919E+00
 -1      2927 6.41156E+00
 -1      2928 6.92660E+00
 -1      2929 2.08276E+01
 -1      2930 2.73801E+01
 -1      2931 1.89887E+01
 -1      2932 2.56641E+01
 -1      2933 7.13183E+00
 -1      2934 6.75753E+00
 -1      2935 2.81471E+01
 -1      2936 2.14643E+01
 -1      2937 7.19945E+00
 -1      2938 5.73667E+00
 -1      2939 5.97822E+00
 -1      2940 4.58217E+00
 -1      2941 4.34453E-01
 -1      2942 4.21561E-01
 -1      2943 3.57014E-01
 -1      2944 3.60150E-01
 -1      2945 3.76673E+00
 -1      2946 3.76143E+00
 -1      2947 8.42364E+00
 -1      2948 1.01035E+01
 -1      2949 2.04820E+01
 -1      2950 1.58642E+01
 -1      2951 3.35281E-01
 -1      2952 3.79469E-01
 -1      2953 3.93393E-01
 -1      2954 5.44207E-01
 -1      2955 7.02253E+00
 -1      2956 1.30786E+01
 -1      2957 1.37395E+01
 -1      2958 8.59570E+00
 -1      2959 3.58976E-01
 -1      2960 4.33678E-01
 -1      2961 4.33678E-01
 -1      2962 7.21808E-03
 -1      2963 4.05804E-01
 -1      2964 5.40190E-01
 -1      2965 9.57208E+00
 -1      2966 9.55883E+00
 -1      2967 6.20843E+00
 -1      2968 4.53901E+00
 -1      2969 5.31832E+00
 -1      2970 3.86751E+00
 -1      2971 1.31418E+01
 -1      2972 8.58756E-03
 -1      2973 1.42285E+01
 -1      2974 5.14766E-01
 -1      2975 1.25046E+01
 -1      2976 1.59137E+01
 -1      2977 5.66218E+00
 -1      2978 1.47848E+01
 -1      2979 4.62459E+00
 -1      2980 4.02538E-01
 -1      2981 4.17920E-01
 -1      2982 3.56225E-01
 -1      2983 3.44328E-01
 -1      2984 3.72207E+00
 -1      2985 6.79418E+00
 -1      2986 4.62467E+00
 -1      2987 1.56984E+01
 -1      2988 3.49336E+00
 -1      2989 4.66667E-01
 -1      2990 2.96133E-01
 -1      2991 3.02139E-01
 -1      2992 6.06239E-01
 -1      2993 6.74509E+00
 -1      2994 5.31998E+00
 -1      2995 4.02964E-01
 -1      2996 3.78546E-01
 -1      2997 3.21707E-01
 -1      2998 3.28263E-01
 -1      2999 3.16574E+00
 -1      3000 3.23589E+00
 -1      3001 2.76017E-01
 -1      3002 2.36937E-01
 -1      3003 2.55831E-01
 -1      3004 2.56564E-01
 -1      3005 1.94015E-01
 -1      3006 2.53465E-01
 -1      3007 2.36988E-01
 -1      3008 2.09811E-01
 -1      3009 2.19292E-01
 -1      3010 1.92231E-01
 -1      3011 1.89016E-01
 -1      3012 1.72552E-01
 -1      3013 1.53175E-01
 -1      3014 1.51641E-01
 -1      3015 1.64076E-01
 -1      3016 1.42277E-01
 -1      3017 1.42864E-01
 -1      3018 1.62646E-01
 -1      3019 2.29503E-01
 -1      3020 1.74134E-01
 -1      3021 3.15436E-01
 -1      3022 4.36470E-01
 -1      3023 2.80436E-01
 -1      3024 5.52681E-01
 -1      3025 7.33185E-01
 -1      3026 4.82580E-01
 -1      3027 8.98436E-01
 -1      3028 1.16503E+00
 -1      3029 7.64043E-01
 -1      3030 1.40743E+00
 -1      3031 1.80174E+00
 -1      3032 1.17169E+00
 -1      3033 2.17086E+00
 -1      3034 2.75429E+00
 -1      3035 1.78322E+00
 -1      3036 3.37964E+00
 -1      3037 4.22648E+00
 -1      3038 2.77769E+00
 -1      3039 5.23968E+00
 -1      3040 6.45443E+00
 -1      3041 4.41624E+00
 -1      3042 8.59912E+00
 -1      3043 9.09722E+00
 -1      3044 7.57412E+00
 -1      3045 1.08235E-02
 -1      3046 1.08235E-02
 -1      3047 3.10055E-01
 -1      3048 3.06501E-01
 -1      3049 3.73584E+00
 -1      3050 3.00811E+00
 -1      3051 2.42224E+00
 -1      3052 1.94024E+00
 -1      3053 2.69958E+00
 -1      3054 1.58320E+00
 -1      3055 1.27229E+00
 -1      3056 1.75667E+00
 -1      3057 1.04499E+00
 -1      3058 8.48586E-01
 -1      3059 1.17234E+00
 -1      3060 6.98158E-01
 -1      3061 5.74369E-01
 -1      3062 7.94604E-01
 -1      3063 4.68677E-01
 -1      3064 3.83604E-01
 -1      3065 5.38484E-01
 -1      3066 3.12021E-01
 -1      3067 2.54694E-01
 -1      3068 3.61209E-01
 -1      3069 2.06170E-01
 -1      3070 1.73310E-01
 -1      3071 2.41102E-01
 -1      3072 1.40455E-01
 -1      3073 1.16952E-01
 -1      3074 1.59723E-01
 -1      3075 9.57809E-02
 -1      3076 7.89842E-02
 -1      3077 1.05696E-01
 -1      3078 6.52334E-02
 -1      3079 5.33047E-02
 -1      3080 7.07740E-02
 -1      3081 4.35908E-02
 -1      3082 3.56611E-02
 -1      3083 4.73094E-02
 -1      3084 2.95751E-02
 -1      3085 2.37212E-02
 -1      3086 3.15095E-02
 -1      3087 1.95455E-02
 -1      3088 1.55739E-02
 -1      3089 2.12478E-02
 -1      3090 1.43684E-02
 -1      3091 1.14394E-02
 -1      3092 1.18090E-02
 -1      3093 1.58665E-02
 -1      3094 1.05942E-02
 -1      3095 1.08235E-02
 -1      3096 1.26117E-02
 -1      3097 8.96404E+00
 -1      3098 7.83961E+00
 -1      3099 2.65140E-01
 -1      3100 2.96951E-01
 -1      3101 3.01198E-01
 -1      3102 3.26509E-01
 -1      3103 2.27207E-01
 -1      3104 2.39414E-01
 -1      3105 1.32530E-01
 -1      3106 1.46171E-01
 -1      3107 1.54575E-01
 -1      3108 1.72184E-01
 -1      3109 1.28752E-01
 -1      3110 1.58865E-01
 -1      3111 1.39823E-01
 -1      3112 2.26598E-01
 -1      3113 1.91022E-01
 -1      3114 1.71960E-01
 -1      3115 3.31775E-01
 -1      3116 2.78622E-01
 -1      3117 2.56141E-01
 -1      3118 4.72816E-01
 -1      3119 4.04895E-01
 -1      3120 3.81284E-01
 -1      3121 6.34498E-01
 -1      3122 5.60095E-01
 -1      3123 5.41681E-01
 -1      3124 8.04249E-01
 -1      3125 7.22143E-01
 -1      3126 7.16604E-01
 -1      3127 9.61174E-01
 -1      3128 8.87142E-01
 -1      3129 8.87142E-01
 -1      3130 1.11945E+00
 -1      3131 1.03520E+00
 -1      3132 1.04406E+00
 -1      3133 1.19487E+00
 -1      3134 1.15193E+00
 -1      3135 1.15058E+00
 -1      3136 1.34010E+00
 -1      3137 1.29346E+00
 -1      3138 1.28165E+00
 -1      3139 1.37384E+00
 -1      3140 1.40017E+00
 -1      3141 1.44031E+00
 -1      3142 1.27049E+00
 -1      3143 1.30724E+00
 -1      3144 1.43377E+00
 -1      3145 1.42835E+00
 -1      3146 1.36606E+00
 -1      3147 1.46275E+00
 -1      3148 1.34912E+00
 -1      3149 1.37724E+00
 -1      3150 1.50720E+00
 -1      3151 1.20110E+00
 -1      3152 1.24215E+00
 -1      3153 1.34912E+00
 -1      3154 1.08366E+00
 -1      3155 1.14543E+00
 -1      3156 1.18648E+00
 -1      3157 9.55849E-01
 -1      3158 1.04373E+00
 -1      3159 1.09088E+00
 -1      3160 7.76936E-01
 -1      3161 8.60742E-01
 -1      3162 9.55849E-01
 -1      3163 6.12355E-01
 -1      3164 6.93130E-01
 -1      3165 7.76936E-01
 -1      3166 4.39387E-01
 -1      3167 5.17704E-01
 -1      3168 5.98478E-01
 -1      3169 3.09032E-01
 -1      3170 3.73129E-01
 -1      3171 4.37570E-01
 -1      3172 2.19727E-01
 -1      3173 2.53602E-01
 -1      3174 3.15882E-01
 -1      3175 1.50675E-01
 -1      3176 1.79002E-01
 -1      3177 2.19727E-01
 -1      3178 1.12948E-01
 -1      3179 1.27463E-01
 -1      3180 1.55791E-01
 -1      3181 9.53333E-02
 -1      3182 1.00449E-01
 -1      3183 1.20080E-01
 -1      3184 7.69603E-02
 -1      3185 8.38425E-02
 -1      3186 9.60892E-02
 -1      3187 6.41426E-02
 -1      3188 6.93655E-02
 -1      3189 7.70036E-02
 -1      3190 5.15161E-02
 -1      3191 5.71049E-02
 -1      3192 6.23710E-02
 -1      3193 4.02253E-02
 -1      3194 4.50957E-02
 -1      3195 4.89129E-02
 -1      3196 3.03652E-02
 -1      3197 3.48316E-02
 -1      3198 3.70987E-02
 -1      3199 2.23938E-02
 -1      3200 2.62104E-02
 -1      3201 2.75503E-02
 -1      3202 1.60219E-02
 -1      3203 1.91084E-02
 -1      3204 2.01100E-02
 -1      3205 1.10823E-02
 -1      3206 1.34624E-02
 -1      3207 1.42651E-02
 -1      3208 8.28487E-03
 -1      3209 1.05076E-02
 -1      3210 1.11309E-02
 -1      3211 8.01543E-03
 -1      3212 9.93021E-03
 -1      3213 9.93021E-03
 -1      3214 1.22265E-02
 -1      3215 1.16189E-02
 -1      3216 1.36363E-02
 -1      3217 1.22265E-02
 -1      3218 1.17876E+01
 -1      3219 9.34226E+00
 -1      3220 9.31957E+00
 -1      3221 1.12378E+01
 -1      3222 1.05363E-02
 -1      3223 1.01613E-02
 -1      3224 1.18060E-02
 -1      3225 1.23244E-02
 -1      3226 8.29199E+00
 -1      3227 9.31957E+00
 -1      3228 1.12943E+01
 -1      3229 1.26530E+01
 -1      3230 1.32940E+01
 -1      3231 1.40609E+01
 -1      3232 2.40201E+01
 -1      3233 1.28697E+01
 -1      3234 4.35075E+00
 -1      3235 6.08782E+00
 -1      3236 1.26367E-01
 -1      3237 1.28802E-01
 -1      3238 1.16620E-01
 -1      3239 1.26348E-01
 -1      3240 5.92908E+00
 -1      3241 5.14709E+00
 -1      3242 4.69670E+00
 -1      3243 4.93723E-01
 -1      3244 1.25074E+01
 -1      3245 1.28694E+01
 -1      3246 4.81256E+00
 -1      3247 5.01779E+00
 -1      3248 1.45137E+01
 -1      3249 2.73717E+00
 -1      3250 3.92676E+00
 -1      3251 3.17577E-01
 -1      3252 3.08328E-01
 -1      3253 3.49326E+00
 -1      3254 4.32562E+00
 -1      3255 3.68123E+00
 -1      3256 1.40609E+01
 -1      3257 9.35013E+00
 -1      3258 6.50463E+00
 -1      3259 4.66771E+00
 -1      3260 3.69495E+00
 -1      3261 2.93247E-01
 -1      3262 3.08770E-01
 -1      3263 2.07875E-01
 -1      3264 2.69089E-01
 -1      3265 3.46249E+00
 -1      3266 2.64704E+00
 -1      3267 2.70629E+00
 -1      3268 3.75194E-01
 -1      3269 1.10166E+01
 -1      3270 6.13705E+00
 -1      3271 3.20878E+00
 -1      3272 3.92118E+00
 -1      3273 3.07486E+00
 -1      3274 4.15139E+00
 -1      3275 1.23167E+01
 -1      3276 8.05273E+00
 -1      3277 2.27440E-01
 -1      3278 3.23189E-01
 -1      3279 1.86073E-01
 -1      3280 2.03415E-01
 -1      3281 1.51046E-01
 -1      3282 3.18388E-01
 -1      3283 3.18388E-01
 -1      3284 2.74808E+00
 -1      3285 3.30441E+00
 -1      3286 3.00545E+00
 -1      3287 9.07789E-03
 -1      3288 8.96454E-03
 -1      3289 7.21818E+00
 -1      3290 8.57243E+00
 -1      3291 6.83997E+00
 -1      3292 2.50103E-01
 -1      3293 2.20130E-01
 -1      3294 2.23494E-01
 -1      3295 6.28660E+00
 -1      3296 6.04734E+00
 -1      3297 3.84317E+00
 -1      3298 1.46609E-02
 -1      3299 9.70823E-03
 -1      3300 9.36525E-03
 -1      3301 1.08436E-02
 -1      3302 8.96454E-03
 -1      3303 1.13529E-02
 -1      3304 3.18908E-01
 -1      3305 3.18908E-01
 -1      3306 2.60896E-01
 -1      3307 4.75615E+00
 -1      3308 4.20706E+00
 -1      3309 3.90652E+00
 -1      3310 8.85341E+00
 -1      3311 1.05562E-02
 -1      3312 9.32238E+00
 -1      3313 3.22040E+00
 -1      3314 1.12943E+01
 -1      3315 9.71881E+00
 -1      3316 1.12943E+01
 -1      3317 6.68351E+00
 -1      3318 3.17577E-01
 -1      3319 2.81277E-01
 -1      3320 3.20713E-01
 -1      3321 4.39026E+00
 -1      3322 1.14412E+01
 -1      3323 3.17151E-01
 -1      3324 3.19903E-01
 -1      3325 2.79315E-01
 -1      3326 2.76103E-01
 -1      3327 3.03155E-01
 -1      3328 3.03056E-01
 -1      3329 9.35013E+00
 -1      3330 2.29521E+00
 -1      3331 2.38533E+00
 -1      3332 1.74004E-01
 -1      3333 1.90691E-01
 -1      3334 2.07460E-01
 -1      3335 1.72373E-01
 -1      3336 1.69275E-01
 -1      3337 1.72454E-01
 -1      3338 1.54758E-01
 -1      3339 1.35017E-01
 -1      3340 1.53184E-01
 -1      3341 1.33505E-01
 -1      3342 1.36622E-01
 -1      3343 1.48369E-01
 -1      3344 1.59271E-01
 -1      3345 1.49912E-01
 -1      3346 1.75856E-01
 -1      3347 1.96225E-01
 -1      3348 1.81362E-01
 -1      3349 2.45173E-01
 -1      3350 3.31106E-01
 -1      3351 2.46894E-01
 -1      3352 4.03218E-01
 -1      3353 5.19429E-01
 -1      3354 3.67955E-01
 -1      3355 6.29479E-01
 -1      3356 7.94730E-01
 -1      3357 5.50117E-01
 -1      3358 9.61018E-01
 -1      3359 1.20342E+00
 -1      3360 8.26454E-01
 -1      3361 1.45171E+00
 -1      3362 1.82083E+00
 -1      3363 1.24104E+00
 -1      3364 2.17459E+00
 -1      3365 2.79994E+00
 -1      3366 1.84308E+00
 -1      3367 3.31166E+00
 -1      3368 4.32485E+00
 -1      3369 2.70856E+00
 -1      3370 5.30560E+00
 -1      3371 7.45029E+00
 -1      3372 7.45029E+00
 -1      3373 4.20103E+00
 -1      3374 3.06441E+00
 -1      3375 2.53520E+00
 -1      3376 7.24388E+00
 -1      3377 8.51353E+00
 -1      3378 1.48678E-02
 -1      3379 1.48678E-02
 -1      3380 1.73786E+00
 -1      3381 1.38083E+00
 -1      3382 1.13279E+00
 -1      3383 9.05488E-01
 -1      3384 1.11398E+00
 -1      3385 7.74595E-01
 -1      3386 6.24167E-01
 -1      3387 7.35051E-01
 -1      3388 5.38905E-01
 -1      3389 4.33213E-01
 -1      3390 5.18896E-01
 -1      3391 3.70683E-01
 -1      3392 2.99100E-01
 -1      3393 3.71104E-01
 -1      3394 2.53699E-01
 -1      3395 2.05175E-01
 -1      3396 2.63172E-01
 -1      3397 1.72384E-01
 -1      3398 1.39529E-01
 -1      3399 1.84981E-01
 -1      3400 1.16040E-01
 -1      3401 9.48688E-02
 -1      3402 1.28701E-01
 -1      3403 7.84193E-02
 -1      3404 6.46686E-02
 -1      3405 8.87633E-02
 -1      3406 5.32650E-02
 -1      3407 4.35511E-02
 -1      3408 6.09103E-02
 -1      3409 3.55584E-02
 -1      3410 2.94724E-02
 -1      3411 4.15140E-02
 -1      3412 2.39003E-02
 -1      3413 1.97246E-02
 -1      3414 2.79492E-02
 -1      3415 1.66202E-02
 -1      3416 1.54147E-02
 -1      3417 1.54147E-02
 -1      3418 1.92728E-02
 -1      3419 5.81566E+00
 -1      3420 4.40441E+00
 -1      3421 1.00075E-01
 -1      3422 1.08479E-01
 -1      3423 3.02402E-01
 -1      3424 2.50378E-01
 -1      3425 1.97925E-01
 -1      3426 1.65769E-01
 -1      3427 2.44187E-01
 -1      3428 6.05959E-01
 -1      3429 5.18681E-01
 -1      3430 7.91305E-01
 -1      3431 7.03661E-01
 -1      3432 6.80660E-01
 -1      3433 9.70035E-01
 -1      3434 8.87142E-01
 -1      3435 8.74199E-01
 -1      3436 1.13378E+00
 -1      3437 1.05975E+00
 -1      3438 1.05975E+00
 -1      3439 1.70320E+00
 -1      3440 1.67072E+00
 -1      3441 1.68640E+00
 -1      3442 1.86550E+00
 -1      3443 1.76691E+00
 -1      3444 2.28705E+00
 -1      3445 1.62141E+00
 -1      3446 1.56135E+00
 -1      3447 2.04660E+00
 -1      3448 1.65903E+00
 -1      3449 1.72562E+00
 -1      3450 1.84666E+00
 -1      3451 2.21184E+00
 -1      3452 2.11627E+00
 -1      3453 2.40812E+00
 -1      3454 2.03138E+00
 -1      3455 2.08249E+00
 -1      3456 2.73601E+00
 -1      3457 1.60035E+00
 -1      3458 1.70732E+00
 -1      3459 2.28261E+00
 -1      3460 1.25649E+00
 -1      3461 1.31216E+00
 -1      3462 1.67036E+00
 -1      3463 1.18284E+00
 -1      3464 1.22277E+00
 -1      3465 1.34845E+00
 -1      3466 9.55849E-01
 -1      3467 1.05096E+00
 -1      3468 1.18284E+00
 -1      3469 7.77477E-01
 -1      3470 8.61283E-01
 -1      3471 9.56390E-01
 -1      3472 6.02445E-01
 -1      3473 6.97096E-01
 -1      3474 7.81443E-01
 -1      3475 4.40930E-01
 -1      3476 5.07187E-01
 -1      3477 6.05805E-01
 -1      3478 3.15882E-01
 -1      3479 3.71313E-01
 -1      3480 4.40930E-01
 -1      3481 2.19727E-01
 -1      3482 2.60452E-01
 -1      3483 3.15882E-01
 -1      3484 1.62154E-01
 -1      3485 1.85365E-01
 -1      3486 2.26090E-01
 -1      3487 1.25947E-01
 -1      3488 1.38447E-01
 -1      3489 1.68021E-01
 -1      3490 9.75030E-02
 -1      3491 1.08994E-01
 -1      3492 1.27361E-01
 -1      3493 7.77808E-02
 -1      3494 8.53756E-02
 -1      3495 9.82802E-02
 -1      3496 6.02098E-02
 -1      3497 6.72476E-02
 -1      3498 7.56196E-02
 -1      3499 4.58078E-02
 -1      3500 5.22282E-02
 -1      3501 5.71047E-02
 -1      3502 3.46838E-02
 -1      3503 4.00775E-02
 -1      3504 4.33928E-02
 -1      3505 2.63044E-02
 -1      3506 3.04592E-02
 -1      3507 3.34379E-02
 -1      3508 1.94061E-02
 -1      3509 2.26915E-02
 -1      3510 2.56004E-02
 -1      3511 1.35943E-02
 -1      3512 1.61538E-02
 -1      3513 1.87353E-02
 -1      3514 1.11309E-02
 -1      3515 1.39591E-02
 -1      3516 1.37371E-02
 -1      3517 1.54147E-02
 -1      3518 1.43901E-02
 -1      3519 1.66462E-02
 -1      3520 1.61685E-02
 -1      3521 1.32287E-02
 -1      3522 1.29413E-02
 -1      3523 1.58348E-02
 -1      3524 6.45230E+00
 -1      3525 5.35778E+00
 -1      3526 3.08006E-01
 -1      3527 3.17151E-01
 -1      3528 2.80830E-01
 -1      3529 4.35360E-01
 -1      3530 3.62240E-01
 -1      3531 3.56478E-01
 -1      3532 4.99637E-01
 -1      3533 2.69809E+00
 -1      3534 2.11223E+00
 -1      3535 3.81705E+00
 -1      3536 8.51353E+00
 -1      3537 8.93811E+00
 -1      3538 6.84704E+00
 -1      3539 6.43503E+00
 -1      3540 2.41827E+00
 -1      3541 2.84225E+00
 -1      3542 1.06727E+01
 -1      3543 6.58489E+00
 -1      3544 1.62918E-01
 -1      3545 1.81812E-01
 -1      3546 1.41276E-01
 -1      3547 6.77118E+00
 -1      3548 6.77118E+00
 -1      3549 3.08835E+00
 -1      3550 3.57528E+00
 -1      3551 2.99802E-01
 -1      3552 4.22822E+00
 -1      3553 3.57595E+00
 -1      3554 3.81730E+00
 -1      3555 3.19946E+00
 -1      3556 3.25513E+00
 -1      3557 2.51516E+00
 -1      3558 2.58368E+00
 -1      3559 2.37079E+00
 -1      3560 1.90040E-01
 -1      3561 1.94288E-01
 -1      3562 1.23588E-01
 -1      3563 1.37478E-01
 -1      3564 9.49107E-02
 -1      3565 5.96233E+00
 -1      3566 2.46399E+00
 -1      3567 3.26613E+00
 -1      3568 3.46491E+00
 -1      3569 1.85015E-01
 -1      3570 2.75880E-01
 -1      3571 2.89950E+00
 -1      3572 1.71239E-02
 -1      3573 1.48678E-02
 -1      3574 1.45805E-02
 -1      3575 6.06069E+00
 -1      3576 1.54047E-02
 -1      3577 1.30196E-02
 -1      3578 6.27149E+00
 -1      3579 9.73551E-02
 -1      3580 7.70820E-02
 -1      3581 9.36276E-02
 -1      3582 1.78794E-01
 -1      3583 1.93830E-01
 -1      3584 1.48704E-01
 -1      3585 1.83985E-01
 -1      3586 1.67530E-01
 -1      3587 1.30782E-01
 -1      3588 1.34611E-01
 -1      3589 1.73638E+00
 -1      3590 2.59214E-01
 -1      3591 1.39591E-02
 -1      3592 1.63432E-02
 -1      3593 1.41902E-02
 -1      3594 2.79471E-01
 -1      3595 3.31364E+00
 -1      3596 2.90237E+00
 -1      3597 1.25280E-01
 -1      3598 1.11825E-01
 -1      3599 9.25598E-02
 -1      3600 1.51245E-01
 -1      3601 3.85446E+00
 -1      3602 5.85985E+00
 -1      3603 4.57830E+00
 -1      3604 4.54347E+00
 -1      3605 2.40764E-01
 -1      3606 2.39249E-01
 -1      3607 2.26461E-01
 -1      3608 5.97920E+00
 -1      3609 2.43377E-01
 -1      3610 2.38204E-01
 -1      3611 2.75390E+00
 -1      3612 2.00718E+00
 -1      3613 2.43377E-01
 -1      3614 2.43377E-01
 -1      3615 2.05477E-01
 -1      3616 1.75706E-01
 -1      3617 2.14257E-01
 -1      3618 5.81506E+00
 -1      3619 7.21818E+00
 -1      3620 6.44835E+00
 -1      3621 4.83431E+00
 -1      3622 1.58465E-01
 -1      3623 2.28670E-01
 -1      3624 2.30476E-01
 -1      3625 1.51991E-01
 -1      3626 1.79729E+00
 -1      3627 1.42292E+00
 -1      3628 1.32138E-01
 -1      3629 1.30564E-01
 -1      3630 1.48615E-01
 -1      3631 1.63479E-01
 -1      3632 1.44131E-01
 -1      3633 1.78341E-01
 -1      3634 1.94926E-01
 -1      3635 1.77043E-01
 -1      3636 2.31559E-01
 -1      3637 2.80507E-01
 -1      3638 2.28539E-01
 -1      3639 3.31614E-01
 -1      3640 4.03726E-01
 -1      3641 3.16279E-01
 -1      3642 4.73930E-01
 -1      3643 5.83980E-01
 -1      3644 4.37589E-01
 -1      3645 6.77784E-01
 -1      3646 8.44072E-01
 -1      3647 6.01598E-01
 -1      3648 1.04725E+00
 -1      3649 1.29554E+00
 -1      3650 8.98578E-01
 -1      3651 1.63857E+00
 -1      3652 1.99233E+00
 -1      3653 1.44479E+00
 -1      3654 3.10235E+00
 -1      3655 3.61406E+00
 -1      3656 2.89784E+00
 -1      3657 2.36861E-02
 -1      3658 2.37644E-02
 -1      3659 2.70167E-02
 -1      3660 2.37215E-01
 -1      3661 2.42165E-01
 -1      3662 2.04489E-01
 -1      3663 7.59104E-01
 -1      3664 6.28211E-01
 -1      3665 5.32740E-01
 -1      3666 4.47478E-01
 -1      3667 5.56793E-01
 -1      3668 3.72965E-01
 -1      3669 3.10435E-01
 -1      3670 3.86809E-01
 -1      3671 2.58954E-01
 -1      3672 2.13553E-01
 -1      3673 2.60815E-01
 -1      3674 1.80325E-01
 -1      3675 1.47534E-01
 -1      3676 1.76106E-01
 -1      3677 1.29170E-01
 -1      3678 1.05682E-01
 -1      3679 1.24514E-01
 -1      3680 9.15345E-02
 -1      3681 7.50850E-02
 -1      3682 9.20033E-02
 -1      3683 6.42914E-02
 -1      3684 5.28879E-02
 -1      3685 6.70626E-02
 -1      3686 4.44531E-02
 -1      3687 3.64604E-02
 -1      3688 4.78343E-02
 -1      3689 3.02955E-02
 -1      3690 2.47235E-02
 -1      3691 3.32346E-02
 -1      3692 2.11765E-02
 -1      3693 1.80722E-02
 -1      3694 1.80722E-02
 -1      3695 2.35228E-02
 -1      3696 1.51344E-01
 -1      3697 1.71423E-01
 -1      3698 1.45123E-01
 -1      3699 1.23886E-01
 -1      3700 4.82796E+00
 -1      3701 5.30066E+00
 -1      3702 1.25439E+00
 -1      3703 1.15855E+00
 -1      3704 7.78362E-01
 -1      3705 6.80660E-01
 -1      3706 1.15855E+00
 -1      3707 2.22334E+00
 -1      3708 1.68640E+00
 -1      3709 2.35076E+00
 -1      3710 2.28705E+00
 -1      3711 2.29085E+00
 -1      3712 2.18663E+00
 -1      3713 2.73601E+00
 -1      3714 2.86536E+00
 -1      3715 1.67036E+00
 -1      3716 1.95855E+00
 -1      3717 1.34845E+00
 -1      3718 1.38217E+00
 -1      3719 1.67036E+00
 -1      3720 1.21237E+00
 -1      3721 1.34426E+00
 -1      3722 1.37798E+00
 -1      3723 1.04449E+00
 -1      3724 1.13906E+00
 -1      3725 1.30048E+00
 -1      3726 8.13366E-01
 -1      3727 8.93747E-01
 -1      3728 1.07642E+00
 -1      3729 6.05805E-01
 -1      3730 7.01063E-01
 -1      3731 8.13366E-01
 -1      3732 4.40930E-01
 -1      3733 5.10546E-01
 -1      3734 6.05805E-01
 -1      3735 3.19906E-01
 -1      3736 3.75337E-01
 -1      3737 4.44954E-01
 -1      3738 2.32391E-01
 -1      3739 2.66753E-01
 -1      3740 3.26208E-01
 -1      3741 1.75560E-01
 -1      3742 1.99266E-01
 -1      3743 2.39930E-01
 -1      3744 1.30430E-01
 -1      3745 1.47384E-01
 -1      3746 1.78629E-01
 -1      3747 9.75537E-02
 -1      3748 1.09681E-01
 -1      3749 1.29704E-01
 -1      3750 7.34187E-02
 -1      3751 8.39519E-02
 -1      3752 9.53528E-02
 -1      3753 5.55598E-02
 -1      3754 6.35414E-02
 -1      3755 7.18737E-02
 -1      3756 4.33928E-02
 -1      3757 4.91231E-02
 -1      3758 5.55598E-02
 -1      3759 3.33987E-02
 -1      3760 3.76233E-02
 -1      3761 4.33536E-02
 -1      3762 2.82941E-02
 -1      3763 3.19070E-02
 -1      3764 3.60924E-02
 -1      3765 3.33233E-02
 -1      3766 2.72371E+00
 -1      3767 2.80661E+00
 -1      3768 1.39360E-01
 -1      3769 1.29922E-01
 -1      3770 1.64352E-01
 -1      3771 2.88444E-01
 -1      3772 2.35991E-01
 -1      3773 3.84904E+00
 -1      3774 2.14273E+00
 -1      3775 1.82927E+00
 -1      3776 1.14127E+00
 -1      3777 8.93233E-01
 -1      3778 7.86393E-01
 -1      3779 1.20218E+00
 -1      3780 2.42165E-01
 -1      3781 2.42165E-01
 -1      3782 2.02099E-01
 -1      3783 6.44835E+00
 -1      3784 6.06069E+00
 -1      3785 2.92388E+00
 -1      3786 3.25513E+00
 -1      3787 2.41946E-02
 -1      3788 1.10293E-01
 -1      3789 1.13472E-01
 -1      3790 1.07414E-01
 -1      3791 1.08377E-01
 -1      3792 3.07011E+00
 -1      3793 2.29045E+00
 -1      3794 4.81721E+00
 -1      3795 3.68765E+00
 -1      3796 2.84027E+00
 -1      3797 2.32872E+00
 -1      3798 1.71145E+00
 -1      3799 1.74438E+00
 -1      3800 5.88606E+00
 -1      3801 5.43023E+00
 -1      3802 3.75590E+00
 -1      3803 5.88606E+00
 -1      3804 1.39554E+00
 -1      3805 1.30583E+00
 -1      3806 1.59018E+00
 -1      3807 2.73601E+00
 -1      3808 1.65754E-01
 -1      3809 2.86536E+00
 -1      3810 4.75170E+00
 -1      3811 5.22810E+00
 -1      3812 2.90941E+00
 -1      3813 3.48646E+00
 -1      3814 3.29897E+00
 -1      3815 2.09795E-02
 -1      3816 2.09795E-02
 -1      3817 1.71591E-01
 -1      3818 1.70603E-01
 -1      3819 2.03501E-01
 -1      3820 4.11340E+00
 -1      3821 3.45173E+00
 -1      3822 3.20207E+00
 -1      3823 1.41308E-01
 -1      3824 1.31005E-01
 -1      3825 1.93248E+00
 -1      3826 6.80660E-01
 -1      3827 5.82958E-01
 -1      3828 4.99637E-01
 -1      3829 2.28705E+00
 -1      3830 2.04660E+00
 -1      3831 2.35076E+00
 -1      3832 2.86536E+00
 -1      3833 2.40812E+00
 -1      3834 2.28261E+00
 -1      3835 2.28261E+00
 -1      3836 2.60666E+00
 -1      3837 2.31695E-02
 -1      3838 2.31695E-02
 -1      3839 2.02766E+00
 -1      3840 1.80561E-02
 -1      3841 1.85339E-02
 -1      3842 2.23895E-02
 -1      3843 1.99599E-02
 -1      3844 3.11400E+00
 -1      3845 3.47860E-01
 -1      3846 3.39664E-01
 -1      3847 4.07698E-01
 -1      3848 1.85955E-01
 -1      3849 1.45466E-01
 -1      3850 2.30212E-01
 -1      3851 8.42174E-02
 -1      3852 8.69370E-02
 -1      3853 1.67336E-02
 -1      3854 6.44835E+00
 -1      3855 5.20487E+00
 -1      3856 1.18778E-01
 -1      3857 1.14988E-01
 -1      3858 1.11383E-01
 -1      3859 3.10209E-02
 -1      3860 7.65255E-02
 -1      3861 9.16347E-02
 -1      3862 8.36610E-02
 -1      3863 1.92576E-01
 -1      3864 1.71591E-01
 -1      3865 1.71591E-01
 -1      3866 1.37705E-01
 -1      3867 2.49079E+00
 -1      3868 2.35076E+00
 -1      3869 2.30869E+00
 -1      3870 2.58368E+00
 -1      3871 1.92504E+00
 -1      3872 2.34891E+00
 -1      3873 2.74809E+00
 -1      3874 1.64393E-01
 -1      3875 1.79255E-01
 -1      3876 2.01418E-01
 -1      3877 2.38051E-01
 -1      3878 1.88768E-01
 -1      3879 2.69701E-01
 -1      3880 3.20808E-01
 -1      3881 2.42580E-01
 -1      3882 3.72496E-01
 -1      3883 4.42700E-01
 -1      3884 3.25918E-01
 -1      3885 5.39161E-01
 -1      3886 6.32965E-01
 -1      3887 4.74067E-01
 -1      3888 7.73251E-01
 -1      3889 9.76428E-01
 -1      3890 7.10815E-01
 -1      3891 1.19669E+00
 -1      3892 1.53972E+00
 -1      3893 1.07137E+00
 -1      3894 2.00671E+00
 -1      3895 3.11672E+00
 -1      3896 1.75861E+00
 -1      3897 5.64066E-01
 -1      3898 4.68595E-01
 -1      3899 1.35514E-01
 -1      3900 1.68412E-01
 -1      3901 1.68412E-01
 -1      3902 3.30105E+00
 -1      3903 2.45366E+00
 -1      3904 3.91705E-01
 -1      3905 3.17192E-01
 -1      3906 3.98978E-01
 -1      3907 2.74035E-01
 -1      3908 2.22554E-01
 -1      3909 2.78931E-01
 -1      3910 1.88431E-01
 -1      3911 1.55202E-01
 -1      3912 2.01651E-01
 -1      3913 1.30553E-01
 -1      3914 1.12189E-01
 -1      3915 1.42877E-01
 -1      3916 9.26210E-02
 -1      3917 7.84739E-02
 -1      3918 9.86597E-02
 -1      3919 6.77651E-02
 -1      3920 5.69715E-02
 -1      3921 6.83827E-02
 -1      3922 4.81472E-02
 -1      3923 3.97125E-02
 -1      3924 4.88497E-02
 -1      3925 1.53874E+00
 -1      3926 1.15855E+00
 -1      3927 3.22983E-02
 -1      3928 3.33233E-02
 -1      3929 3.46008E-02
 -1      3930 2.24498E+00
 -1      3931 1.95412E+00
 -1      3932 1.58688E-01
 -1      3933 2.05892E-02
 -1      3934 2.74155E-02
 -1      3935 2.97180E-02
 -1      3936 2.09795E-02
 -1      3937 1.25359E+00
 -1      3938 1.40434E+00
 -1      3939 9.45921E-01
 -1      3940 1.05822E+00
 -1      3941 1.38615E+00
 -1      3942 6.60767E-01
 -1      3943 7.56025E-01
 -1      3944 1.00088E+00
 -1      3945 4.68870E-01
 -1      3946 5.34463E-01
 -1      3947 6.84684E-01
 -1      3948 3.46135E-01
 -1      3949 3.99288E-01
 -1      3950 4.88798E-01
 -1      3951 2.52273E-01
 -1      3952 2.85398E-01
 -1      3953 3.58479E-01
 -1      3954 1.76452E-01
 -1      3955 2.04628E-01
 -1      3956 2.50096E-01
 -1      3957 1.22428E-01
 -1      3958 1.43177E-01
 -1      3959 1.69176E-01
 -1      3960 9.52519E-02
 -1      3961 1.08854E-01
 -1      3962 1.22327E-01
 -1      3963 7.18737E-02
 -1      3964 8.17511E-02
 -1      3965 9.52519E-02
 -1      3966 5.55598E-02
 -1      3967 6.19964E-02
 -1      3968 7.18737E-02
 -1      3969 4.17593E-02
 -1      3970 4.75288E-02
 -1      3971 5.39655E-02
 -1      3972 1.93667E+00
 -1      3973 2.47563E+00
 -1      3974 2.14116E+00
 -1      3975 4.16419E+00
 -1      3976 5.38444E+00
 -1      3977 5.38444E+00
 -1      3978 3.27306E+00
 -1      3979 1.98377E+00
 -1      3980 1.63833E+00
 -1      3981 9.62139E-02
 -1      3982 1.06069E-01
 -1      3983 1.14411E-01
 -1      3984 1.64528E+00
 -1      3985 1.71859E+00
 -1      3986 3.21289E+00
 -1      3987 3.79829E+00
 -1      3988 2.21710E+00
 -1      3989 2.49833E+00
 -1      3990 1.30665E-01
 -1      3991 1.32741E-01
 -1      3992 1.50791E-01
 -1      3993 1.53004E-01
 -1      3994 2.08972E+00
 -1      3995 1.62930E+00
 -1      3996 1.71590E-01
 -1      3997 4.78592E+00
 -1      3998 3.54244E+00
 -1      3999 1.37704E-01
 -1      4000 1.08196E-01
 -1      4001 1.06005E-01
 -1      4002 1.08196E-01
 -1      4003 7.86870E-02
 -1      4004 1.08196E-01
 -1      4005 2.48352E-02
 -1      4006 2.08972E+00
 -1      4007 2.49718E+00
 -1      4008 1.46754E+00
 -1      4009 1.31303E+00
 -1      4010 1.03138E+00
 -1      4011 7.07432E-01
 -1      4012 6.19234E-01
 -1      4013 8.41561E-01
 -1      4014 9.45443E-02
 -1      4015 1.13210E-01
 -1      4016 1.19871E-01
 -1      4017 2.88209E+00
 -1      4018 3.72200E+00
 -1      4019 2.96295E+00
 -1      4020 2.49805E+00
 -1      4021 2.59495E+00
 -1      4022 1.14016E-01
 -1      4023 1.21386E-01
 -1      4024 8.76710E-02
 -1      4025 3.38242E-02
 -1      4026 2.76593E-02
 -1      4027 2.35068E-02
 -1      4028 1.11384E-01
 -1      4029 9.11813E-01
 -1      4030 8.14111E-01
 -1      4031 1.29200E+00
 -1      4032 2.40964E-02
 -1      4033 1.41541E+00
 -1      4034 1.70360E+00
 -1      4035 1.59187E+00
 -1      4036 3.56769E-02
 -1      4037 3.71685E-02
 -1      4038 4.13438E-02
 -1      4039 3.56769E-02
 -1      4040 1.59607E+00
 -1      4041 1.04305E-01
 -1      4042 1.01647E-01
 -1      4043 8.20177E-02
 -1      4044 7.69871E-02
 -1      4045 1.49120E-01
 -1      4046 9.62373E-02
 -1      4047 1.10104E-01
 -1      4048 8.63669E-02
 -1      4049 7.78521E-02
 -1      4050 4.91019E-01
 -1      4051 2.65421E-02
 -1      4052 2.91809E-01
 -1      4053 2.41773E-01
 -1      4054 3.41372E-02
 -1      4055 3.24303E-02
 -1      4056 1.40277E-01
 -1      4057 1.28280E-01
 -1      4058 1.82246E+00
 -1      4059 2.02616E+00
 -1      4060 1.10320E-01
 -1      4061 9.99081E-02
 -1      4062 1.44527E-01
 -1      4063 4.49851E-01
 -1      4064 3.90435E-01
 -1      4065 4.01996E-01
 -1      4066 3.24303E-02
 -1      4067 3.41372E-02
 -1      4068 1.83481E-01
 -1      4069 2.05644E-01
 -1      4070 2.71040E-01
 -1      4071 3.02690E-01
 -1      4072 2.65753E-01
 -1      4073 3.02690E-01
 -1      4074 3.54378E-01
 -1      4075 3.31150E-01
 -1      4076 4.45015E-01
 -1      4077 5.41476E-01
 -1      4078 4.21786E-01
 -1      4079 6.72587E-01
 -1      4080 8.12873E-01
 -1      4081 6.43534E-01
 -1      4082 8.51102E-01
 -1      4083 1.07137E+00
 -1      4084 8.12873E-01
 -1      4085 1.42951E+00
 -1      4086 1.89650E+00
 -1      4087 1.20925E+00
 -1      4088 1.69879E-01
 -1      4089 1.83481E-01
 -1      4090 2.00357E-01
 -1      4091 2.33111E+00
 -1      4092 3.39212E-01
 -1      4093 2.96056E-01
 -1      4094 2.12666E-01
 -1      4095 1.78542E-01
 -1      4096 2.72947E-01
 -1      4097 1.48976E-01
 -1      4098 1.24326E-01
 -1      4099 1.59991E-01
 -1      4100 1.03827E-01
 -1      4101 8.42591E-02
 -1      4102 1.09926E-01
 -1      4103 7.21053E-02
 -1      4104 6.13965E-02
 -1      4105 7.72728E-02
 -1      4106 5.22496E-02
 -1      4107 4.34254E-02
 -1      4108 5.59722E-02
 -1      4109 2.03080E+00
 -1      4110 2.46458E+00
 -1      4111 2.12857E+00
 -1      4112 1.78986E+00
 -1      4113 3.27306E+00
 -1      4114 2.67454E+00
 -1      4115 5.18424E-01
 -1      4116 4.41534E-01
 -1      4117 4.58658E-01
 -1      4118 2.46049E+00
 -1      4119 2.22164E+00
 -1      4120 7.01950E-01
 -1      4121 6.10011E-01
 -1      4122 6.60782E-01
 -1      4123 7.95217E-01
 -1      4124 9.21521E-01
 -1      4125 1.31804E+00
 -1      4126 1.51341E+00
 -1      4127 1.72175E+00
 -1      4128 6.20215E-01
 -1      4129 6.89797E-01
 -1      4130 9.26634E-01
 -1      4131 4.91977E-01
 -1      4132 5.52714E-01
 -1      4133 7.53713E-01
 -1      4134 3.18696E-01
 -1      4135 3.66342E-01
 -1      4136 5.60577E-01
 -1      4137 1.61693E-01
 -1      4138 1.94968E-01
 -1      4139 3.11214E-01
 -1      4140 1.49155E-01
 -1      4141 1.62729E-01
 -1      4142 1.88522E-01
 -1      4143 1.06088E-01
 -1      4144 1.19589E-01
 -1      4145 1.59991E-01
 -1      4146 7.57115E-02
 -1      4147 8.55888E-02
 -1      4148 1.09926E-01
 -1      4149 5.11770E-02
 -1      4150 5.92079E-02
 -1      4151 7.29230E-02
 -1      4152 2.22560E+00
 -1      4153 9.56291E-02
 -1      4154 1.21950E-01
 -1      4155 9.24411E-02
 -1      4156 9.82372E-02
 -1      4157 4.00255E-02
 -1      4158 3.73131E-02
 -1      4159 3.96268E-02
 -1      4160 3.69145E-02
 -1      4161 1.98832E+00
 -1      4162 1.89287E-01
 -1      4163 1.58232E-01
 -1      4164 1.80443E-01
 -1      4165 2.50884E-01
 -1      4166 4.34254E-02
 -1      4167 1.12814E+00
 -1      4168 1.05691E-01
 -1      4169 1.05691E-01
 -1      4170 9.33104E-01
 -1      4171 1.74321E+00
 -1      4172 1.41791E+00
 -1      4173 9.52417E-01
 -1      4174 1.36049E-01
 -1      4175 1.66526E-01
 -1      4176 8.78137E-02
 -1      4177 1.89650E+00
 -1      4178 2.40591E-01
 -1      4179 2.22636E-01
 -1      4180 2.30419E+00
 -1      4181 1.51182E+00
 -1      4182 1.23867E+00
 -1      4183 6.48541E-01
 -1      4184 6.91097E-01
 -1      4185 7.91907E-01
 -1      4186 1.14551E-01
 -1      4187 8.78928E-02
 -1      4188 9.24953E-02
 -1      4189 1.26508E+00
 -1      4190 2.22137E+00
 -1      4191 2.46819E-01
 -1      4192 2.28858E-01
 -1      4193 3.06967E-01
 -1      4194 4.25814E-02
 -1      4195 4.78238E-02
 -1      4196 4.30267E-02
 -1      4197 1.93870E+00
 -1      4198 6.37633E-01
 -1      4199 5.39008E-01
 -1      4200 1.85525E+00
 -1      4201 3.48124E-01
 -1      4202 2.95638E-01
 -1      4203 5.83761E-01
 -1      4204 1.16518E-01
 -1      4205 8.95136E-02
 -1      4206 9.52535E-01
 -1      4207 7.62718E-01
 -1      4208 7.92026E-01
 -1      4209 1.22821E+00
 -1      4210 3.31150E-01
 -1      4211 3.31150E-01
 -1      4212 3.19412E-01
 -1      4213 4.10049E-01
 -1      4214 6.43534E-01
 -1      4215 7.74645E-01
 -1      4216 8.12873E-01
 -1      4217 8.64454E-01
 -1      4218 1.22260E+00
 -1      4219 2.82589E-01
 -1      4220 1.99199E-01
 -1      4221 2.20003E+00
 -1      4222 2.16246E+00
 -1      4223 1.89558E-01
 -1      4224 1.59991E-01
 -1      4225 1.30425E-01
 -1      4226 1.09926E-01
 -1      4227 8.94265E-02
 -1      4228 7.72728E-02
 -1      4229 8.21214E-01
 -1      4230 9.26634E-01
 -1      4231 2.65753E-01
 -1      4232 4.97961E-01
 -1      4233 3.95640E-01
 -1      4234 8.49374E-01
 -1      4235 6.89214E-01
 -1      4236 7.53713E-01
 -1      4237 8.21214E-01
 -1      4238 1.37612E+00
 -1      4239 1.70522E+00
 -1      4240 1.33488E+00
 -1      4241 1.03133E+00
 -1      4242 3.79906E-02
 -1      4243 6.23596E-01
 -1      4244 6.07692E-02
 -1      4245 5.16223E-02
 -1      4246 1.66526E-01
 -1      4247 2.00357E-01
 -1      4248 1.11506E+00
 -1      4249 2.00357E-01
 -1      4250 8.26225E-01
 -1      4251 1.91735E+00
 -1      4252 8.00107E-02
 -1      4253 8.39230E-02
 -1      4254 9.00514E-02
 -1      4255 1.19446E-01
 -1      4256 1.00290E+00
 -1      4257 1.25740E+00
 -1      4258 7.92026E-01
 -1      4259 3.21891E-01
 -1      4260 3.37831E-01
 -1      4261 1.85212E+00
 -1      4262 1.99199E-01
 -1      4263 1.98163E-01
 -1      4264 1.53276E-01
 -1      4265 4.52650E-01
 -1      4266 1.69359E+00
 -1      4267 1.25740E+00
 -1      4268 1.36282E+00
 -1      4269 1.56944E+00
 -1      4270 3.50276E-01
 -1      4271 2.95229E-01
 -1      4272 1.82368E-01
 -1      4273 2.47765E-01
 -1      4274 1.45473E-01
 -1      4275 1.33458E-01
 -1      4276 1.79321E+00
 -1      4277 8.21214E-01
 -1      4278 1.91735E+00
 -1      4279 3.06967E-01
 -1      4280 1.82368E-01
 -1      4281 1.51446E-01
 -1      4282 9.18810E-02
 -1      4283 1.38962E-01
 -3
 9999
