    1C
    1UUSER                                                              
    1UDATE              26.october.2022                                 
    1UTIME              23:47:08                                        
    1UHOST                                                              
    1UPGM               CalculiX                                        
    1UVERSION           Version 2.17                             
    1UCOMPILETIME       Thu Jul 23 21:43:50 CEST 2020                    
    1UDIR                                                               
    1UDBN                                                               
    1UMAT    1SOLIDMATERIAL                                             
    2C                          4326                                     1
 -1         1 8.45374E+01 2.87263E+01 0.00000E+00
 -1         2 8.74516E+01 2.30425E+01 0.00000E+00
 -1         3 1.50000E+02 0.00000E+00 0.00000E+00
 -1         4 1.50000E+02 5.00000E+01 0.00000E+00
 -1         5 0.00000E+00 0.00000E+00 0.00000E+00
 -1         6 0.00000E+00 5.00000E+01 0.00000E+00
 -1         7 0.00000E+00 4.70500E+01 0.00000E+00
 -1         8 0.00000E+00 4.41000E+01 0.00000E+00
 -1         9 0.00000E+00 4.11500E+01 0.00000E+00
 -1        10 0.00000E+00 3.82000E+01 0.00000E+00
 -1        11 0.00000E+00 3.52500E+01 0.00000E+00
 -1        12 0.00000E+00 3.23500E+01 0.00000E+00
 -1        13 0.00000E+00 2.94000E+01 0.00000E+00
 -1        14 0.00000E+00 2.64500E+01 0.00000E+00
 -1        15 0.00000E+00 2.35000E+01 0.00000E+00
 -1        16 0.00000E+00 2.05500E+01 0.00000E+00
 -1        17 0.00000E+00 1.76000E+01 0.00000E+00
 -1        18 0.00000E+00 1.47000E+01 0.00000E+00
 -1        19 0.00000E+00 1.17500E+01 0.00000E+00
 -1        20 0.00000E+00 8.80000E+00 0.00000E+00
 -1        21 0.00000E+00 5.85000E+00 0.00000E+00
 -1        22 0.00000E+00 2.90000E+00 0.00000E+00
 -1        23 3.15000E+00 5.00000E+01 0.00000E+00
 -1        24 6.15000E+00 5.00000E+01 0.00000E+00
 -1        25 9.15000E+00 5.00000E+01 0.00000E+00
 -1        26 1.21500E+01 5.00000E+01 0.00000E+00
 -1        27 1.51500E+01 5.00000E+01 0.00000E+00
 -1        28 1.81500E+01 5.00000E+01 0.00000E+00
 -1        29 2.11500E+01 5.00000E+01 0.00000E+00
 -1        30 2.41500E+01 5.00000E+01 0.00000E+00
 -1        31 2.71500E+01 5.00000E+01 0.00000E+00
 -1        32 3.01500E+01 5.00000E+01 0.00000E+00
 -1        33 3.31500E+01 5.00000E+01 0.00000E+00
 -1        34 3.61500E+01 5.00000E+01 0.00000E+00
 -1        35 3.91500E+01 5.00000E+01 0.00000E+00
 -1        36 4.21500E+01 5.00000E+01 0.00000E+00
 -1        37 4.51500E+01 5.00000E+01 0.00000E+00
 -1        38 4.81500E+01 5.00000E+01 0.00000E+00
 -1        39 5.11500E+01 5.00000E+01 0.00000E+00
 -1        40 5.41500E+01 5.00000E+01 0.00000E+00
 -1        41 5.71500E+01 5.00000E+01 0.00000E+00
 -1        42 6.01500E+01 5.00000E+01 0.00000E+00
 -1        43 6.31500E+01 5.00000E+01 0.00000E+00
 -1        44 6.61500E+01 5.00000E+01 0.00000E+00
 -1        45 6.91500E+01 5.00000E+01 0.00000E+00
 -1        46 7.21500E+01 5.00000E+01 0.00000E+00
 -1        47 7.51500E+01 5.00000E+01 0.00000E+00
 -1        48 7.81500E+01 5.00000E+01 0.00000E+00
 -1        49 8.11500E+01 5.00000E+01 0.00000E+00
 -1        50 8.41500E+01 5.00000E+01 0.00000E+00
 -1        51 8.71500E+01 5.00000E+01 0.00000E+00
 -1        52 9.01500E+01 5.00000E+01 0.00000E+00
 -1        53 9.31500E+01 5.00000E+01 0.00000E+00
 -1        54 9.61500E+01 5.00000E+01 0.00000E+00
 -1        55 9.91500E+01 5.00000E+01 0.00000E+00
 -1        56 1.02150E+02 5.00000E+01 0.00000E+00
 -1        57 1.05150E+02 5.00000E+01 0.00000E+00
 -1        58 1.08150E+02 5.00000E+01 0.00000E+00
 -1        59 1.11150E+02 5.00000E+01 0.00000E+00
 -1        60 1.14150E+02 5.00000E+01 0.00000E+00
 -1        61 1.17150E+02 5.00000E+01 0.00000E+00
 -1        62 1.20150E+02 5.00000E+01 0.00000E+00
 -1        63 1.23150E+02 5.00000E+01 0.00000E+00
 -1        64 1.26150E+02 5.00000E+01 0.00000E+00
 -1        65 1.29150E+02 5.00000E+01 0.00000E+00
 -1        66 1.32150E+02 5.00000E+01 0.00000E+00
 -1        67 1.35150E+02 5.00000E+01 0.00000E+00
 -1        68 1.38150E+02 5.00000E+01 0.00000E+00
 -1        69 1.41150E+02 5.00000E+01 0.00000E+00
 -1        70 1.44150E+02 5.00000E+01 0.00000E+00
 -1        71 1.47150E+02 5.00000E+01 0.00000E+00
 -1        72 3.15000E+00 0.00000E+00 0.00000E+00
 -1        73 6.15000E+00 0.00000E+00 0.00000E+00
 -1        74 9.15000E+00 0.00000E+00 0.00000E+00
 -1        75 1.21500E+01 0.00000E+00 0.00000E+00
 -1        76 1.51500E+01 0.00000E+00 0.00000E+00
 -1        77 1.81500E+01 0.00000E+00 0.00000E+00
 -1        78 2.11500E+01 0.00000E+00 0.00000E+00
 -1        79 2.41500E+01 0.00000E+00 0.00000E+00
 -1        80 2.71500E+01 0.00000E+00 0.00000E+00
 -1        81 3.01500E+01 0.00000E+00 0.00000E+00
 -1        82 3.31500E+01 0.00000E+00 0.00000E+00
 -1        83 3.61500E+01 0.00000E+00 0.00000E+00
 -1        84 3.91500E+01 0.00000E+00 0.00000E+00
 -1        85 4.21500E+01 0.00000E+00 0.00000E+00
 -1        86 4.51500E+01 0.00000E+00 0.00000E+00
 -1        87 4.81500E+01 0.00000E+00 0.00000E+00
 -1        88 5.11500E+01 0.00000E+00 0.00000E+00
 -1        89 5.41500E+01 0.00000E+00 0.00000E+00
 -1        90 5.71500E+01 0.00000E+00 0.00000E+00
 -1        91 6.01500E+01 0.00000E+00 0.00000E+00
 -1        92 6.31500E+01 0.00000E+00 0.00000E+00
 -1        93 6.61500E+01 0.00000E+00 0.00000E+00
 -1        94 6.91500E+01 0.00000E+00 0.00000E+00
 -1        95 7.21500E+01 0.00000E+00 0.00000E+00
 -1        96 7.51500E+01 0.00000E+00 0.00000E+00
 -1        97 7.81500E+01 0.00000E+00 0.00000E+00
 -1        98 8.11500E+01 0.00000E+00 0.00000E+00
 -1        99 8.41500E+01 0.00000E+00 0.00000E+00
 -1       100 8.71500E+01 0.00000E+00 0.00000E+00
 -1       101 9.01500E+01 0.00000E+00 0.00000E+00
 -1       102 9.31500E+01 0.00000E+00 0.00000E+00
 -1       103 9.61500E+01 0.00000E+00 0.00000E+00
 -1       104 9.91500E+01 0.00000E+00 0.00000E+00
 -1       105 1.02150E+02 0.00000E+00 0.00000E+00
 -1       106 1.05150E+02 0.00000E+00 0.00000E+00
 -1       107 1.08150E+02 0.00000E+00 0.00000E+00
 -1       108 1.11150E+02 0.00000E+00 0.00000E+00
 -1       109 1.14150E+02 0.00000E+00 0.00000E+00
 -1       110 1.17150E+02 0.00000E+00 0.00000E+00
 -1       111 1.20150E+02 0.00000E+00 0.00000E+00
 -1       112 1.23150E+02 0.00000E+00 0.00000E+00
 -1       113 1.26150E+02 0.00000E+00 0.00000E+00
 -1       114 1.29150E+02 0.00000E+00 0.00000E+00
 -1       115 1.32150E+02 0.00000E+00 0.00000E+00
 -1       116 1.35150E+02 0.00000E+00 0.00000E+00
 -1       117 1.38150E+02 0.00000E+00 0.00000E+00
 -1       118 1.41150E+02 0.00000E+00 0.00000E+00
 -1       119 1.44150E+02 0.00000E+00 0.00000E+00
 -1       120 1.47150E+02 0.00000E+00 0.00000E+00
 -1       121 1.50000E+02 2.95000E+00 0.00000E+00
 -1       122 1.50000E+02 5.90000E+00 0.00000E+00
 -1       123 1.50000E+02 8.85000E+00 0.00000E+00
 -1       124 1.50000E+02 1.18000E+01 0.00000E+00
 -1       125 1.50000E+02 1.47500E+01 0.00000E+00
 -1       126 1.50000E+02 1.76500E+01 0.00000E+00
 -1       127 1.50000E+02 2.06000E+01 0.00000E+00
 -1       128 1.50000E+02 2.35500E+01 0.00000E+00
 -1       129 1.50000E+02 2.65000E+01 0.00000E+00
 -1       130 1.50000E+02 2.94500E+01 0.00000E+00
 -1       131 1.50000E+02 3.24000E+01 0.00000E+00
 -1       132 1.50000E+02 3.53000E+01 0.00000E+00
 -1       133 1.50000E+02 3.82500E+01 0.00000E+00
 -1       134 1.50000E+02 4.12000E+01 0.00000E+00
 -1       135 1.50000E+02 4.41500E+01 0.00000E+00
 -1       136 1.50000E+02 4.71000E+01 0.00000E+00
 -1       137 8.72857E+01 2.15278E+01 0.00000E+00
 -1       138 8.68086E+01 2.01120E+01 0.00000E+00
 -1       139 8.60427E+01 1.88307E+01 0.00000E+00
 -1       140 8.48602E+01 1.76052E+01 0.00000E+00
 -1       141 8.35378E+01 1.67595E+01 0.00000E+00
 -1       142 8.20279E+01 1.62223E+01 0.00000E+00
 -1       143 8.04483E+01 1.60425E+01 0.00000E+00
 -1       144 7.89966E+01 1.61954E+01 0.00000E+00
 -1       145 7.73598E+01 1.67623E+01 0.00000E+00
 -1       146 7.59800E+01 1.76569E+01 0.00000E+00
 -1       147 7.49425E+01 1.87239E+01 0.00000E+00
 -1       148 7.41488E+01 1.99970E+01 0.00000E+00
 -1       149 7.36525E+01 2.13771E+01 0.00000E+00
 -1       150 7.34549E+01 2.28266E+01 0.00000E+00
 -1       151 7.35796E+01 2.43751E+01 0.00000E+00
 -1       152 7.40834E+01 2.59488E+01 0.00000E+00
 -1       153 7.48231E+01 2.72042E+01 0.00000E+00
 -1       154 7.58197E+01 2.82909E+01 0.00000E+00
 -1       155 7.71920E+01 2.92373E+01 0.00000E+00
 -1       156 7.85905E+01 2.97906E+01 0.00000E+00
 -1       157 8.01974E+01 3.00379E+01 0.00000E+00
 -1       158 8.17012E+01 2.99300E+01 0.00000E+00
 -1       159 8.31380E+01 2.95065E+01 0.00000E+00
 -1       160 8.57453E+01 2.76225E+01 0.00000E+00
 -1       161 8.66821E+01 2.62333E+01 0.00000E+00
 -1       162 8.72595E+01 2.46708E+01 0.00000E+00
 -1       163 2.59800E+00 4.55750E+01 0.00000E+00
 -1       164 2.59800E+00 4.26250E+01 0.00000E+00
 -1       165 2.59800E+00 3.96750E+01 0.00000E+00
 -1       166 2.59800E+00 3.67250E+01 0.00000E+00
 -1       167 2.59800E+00 3.38250E+01 0.00000E+00
 -1       168 2.59800E+00 3.08750E+01 0.00000E+00
 -1       169 2.59800E+00 2.79250E+01 0.00000E+00
 -1       170 2.59800E+00 2.49750E+01 0.00000E+00
 -1       171 2.59800E+00 2.20250E+01 0.00000E+00
 -1       172 2.59800E+00 1.90750E+01 0.00000E+00
 -1       173 2.59800E+00 1.61750E+01 0.00000E+00
 -1       174 2.59800E+00 1.32250E+01 0.00000E+00
 -1       175 2.59800E+00 1.02750E+01 0.00000E+00
 -1       176 2.59800E+00 7.32500E+00 0.00000E+00
 -1       177 2.59800E+00 4.37500E+00 0.00000E+00
 -1       178 2.87400E+00 2.18750E+00 0.00000E+00
 -1       179 4.65000E+00 4.74020E+01 0.00000E+00
 -1       180 7.65000E+00 4.74020E+01 0.00000E+00
 -1       181 1.06500E+01 4.74020E+01 0.00000E+00
 -1       182 1.36500E+01 4.74020E+01 0.00000E+00
 -1       183 1.66500E+01 4.74020E+01 0.00000E+00
 -1       184 1.96500E+01 4.74020E+01 0.00000E+00
 -1       185 2.26500E+01 4.74020E+01 0.00000E+00
 -1       186 2.56500E+01 4.74020E+01 0.00000E+00
 -1       187 2.86500E+01 4.74020E+01 0.00000E+00
 -1       188 3.16500E+01 4.74020E+01 0.00000E+00
 -1       189 3.46500E+01 4.74020E+01 0.00000E+00
 -1       190 3.76500E+01 4.74020E+01 0.00000E+00
 -1       191 4.06500E+01 4.74020E+01 0.00000E+00
 -1       192 4.36500E+01 4.74020E+01 0.00000E+00
 -1       193 4.66500E+01 4.74020E+01 0.00000E+00
 -1       194 4.96500E+01 4.74020E+01 0.00000E+00
 -1       195 5.26500E+01 4.74020E+01 0.00000E+00
 -1       196 5.56500E+01 4.74020E+01 0.00000E+00
 -1       197 5.86500E+01 4.74020E+01 0.00000E+00
 -1       198 6.16500E+01 4.74020E+01 0.00000E+00
 -1       199 6.46500E+01 4.74020E+01 0.00000E+00
 -1       200 6.76500E+01 4.74020E+01 0.00000E+00
 -1       201 7.06500E+01 4.74020E+01 0.00000E+00
 -1       202 7.36500E+01 4.74020E+01 0.00000E+00
 -1       203 7.66500E+01 4.74020E+01 0.00000E+00
 -1       204 7.96500E+01 4.74020E+01 0.00000E+00
 -1       205 8.26500E+01 4.74020E+01 0.00000E+00
 -1       206 8.56500E+01 4.74020E+01 0.00000E+00
 -1       207 8.86500E+01 4.74020E+01 0.00000E+00
 -1       208 9.16500E+01 4.74020E+01 0.00000E+00
 -1       209 9.46500E+01 4.74020E+01 0.00000E+00
 -1       210 9.76500E+01 4.74020E+01 0.00000E+00
 -1       211 1.00650E+02 4.74020E+01 0.00000E+00
 -1       212 1.03650E+02 4.74020E+01 0.00000E+00
 -1       213 1.06650E+02 4.74020E+01 0.00000E+00
 -1       214 1.09650E+02 4.74020E+01 0.00000E+00
 -1       215 1.12650E+02 4.74020E+01 0.00000E+00
 -1       216 1.15650E+02 4.74020E+01 0.00000E+00
 -1       217 1.18650E+02 4.74020E+01 0.00000E+00
 -1       218 1.21650E+02 4.74020E+01 0.00000E+00
 -1       219 1.24650E+02 4.74020E+01 0.00000E+00
 -1       220 1.27650E+02 4.74020E+01 0.00000E+00
 -1       221 1.30650E+02 4.74020E+01 0.00000E+00
 -1       222 1.33650E+02 4.74020E+01 0.00000E+00
 -1       223 1.36650E+02 4.74020E+01 0.00000E+00
 -1       224 1.39650E+02 4.74020E+01 0.00000E+00
 -1       225 1.42650E+02 4.74020E+01 0.00000E+00
 -1       226 1.45650E+02 4.74020E+01 0.00000E+00
 -1       227 5.87400E+00 2.18750E+00 0.00000E+00
 -1       228 8.87400E+00 2.18750E+00 0.00000E+00
 -1       229 1.18740E+01 2.18750E+00 0.00000E+00
 -1       230 1.48740E+01 2.18750E+00 0.00000E+00
 -1       231 1.78740E+01 2.18750E+00 0.00000E+00
 -1       232 2.08740E+01 2.18750E+00 0.00000E+00
 -1       233 2.38740E+01 2.18750E+00 0.00000E+00
 -1       234 2.68740E+01 2.18750E+00 0.00000E+00
 -1       235 2.98740E+01 2.18750E+00 0.00000E+00
 -1       236 3.28740E+01 2.18750E+00 0.00000E+00
 -1       237 3.58740E+01 2.18750E+00 0.00000E+00
 -1       238 3.88740E+01 2.18750E+00 0.00000E+00
 -1       239 4.18740E+01 2.18750E+00 0.00000E+00
 -1       240 4.48740E+01 2.18750E+00 0.00000E+00
 -1       241 4.78740E+01 2.18750E+00 0.00000E+00
 -1       242 5.08740E+01 2.18750E+00 0.00000E+00
 -1       243 5.38740E+01 2.18750E+00 0.00000E+00
 -1       244 5.68740E+01 2.18750E+00 0.00000E+00
 -1       245 5.98740E+01 2.18750E+00 0.00000E+00
 -1       246 6.28740E+01 2.18750E+00 0.00000E+00
 -1       247 6.58740E+01 2.18750E+00 0.00000E+00
 -1       248 6.88740E+01 2.18750E+00 0.00000E+00
 -1       249 7.18740E+01 2.18750E+00 0.00000E+00
 -1       250 7.48740E+01 2.18750E+00 0.00000E+00
 -1       251 7.78740E+01 2.18750E+00 0.00000E+00
 -1       252 8.08740E+01 2.18750E+00 0.00000E+00
 -1       253 8.38740E+01 2.18750E+00 0.00000E+00
 -1       254 8.68740E+01 2.18750E+00 0.00000E+00
 -1       255 8.98740E+01 2.18750E+00 0.00000E+00
 -1       256 9.28740E+01 2.18750E+00 0.00000E+00
 -1       257 9.58740E+01 2.18750E+00 0.00000E+00
 -1       258 9.88740E+01 2.18750E+00 0.00000E+00
 -1       259 1.01874E+02 2.18750E+00 0.00000E+00
 -1       260 1.04874E+02 2.18750E+00 0.00000E+00
 -1       261 1.07874E+02 2.18750E+00 0.00000E+00
 -1       262 1.10874E+02 2.18750E+00 0.00000E+00
 -1       263 1.13874E+02 2.18750E+00 0.00000E+00
 -1       264 1.16874E+02 2.18750E+00 0.00000E+00
 -1       265 1.19874E+02 2.18750E+00 0.00000E+00
 -1       266 1.22874E+02 2.18750E+00 0.00000E+00
 -1       267 1.25874E+02 2.18750E+00 0.00000E+00
 -1       268 1.28874E+02 2.18750E+00 0.00000E+00
 -1       269 1.31874E+02 2.18750E+00 0.00000E+00
 -1       270 1.34874E+02 2.18750E+00 0.00000E+00
 -1       271 1.37874E+02 2.18750E+00 0.00000E+00
 -1       272 1.40874E+02 2.18750E+00 0.00000E+00
 -1       273 1.43874E+02 2.18750E+00 0.00000E+00
 -1       274 1.46874E+02 2.18750E+00 0.00000E+00
 -1       275 1.47402E+02 4.42500E+00 0.00000E+00
 -1       276 1.47402E+02 7.37500E+00 0.00000E+00
 -1       277 1.47402E+02 1.03250E+01 0.00000E+00
 -1       278 1.47402E+02 1.32750E+01 0.00000E+00
 -1       279 1.47402E+02 1.61750E+01 0.00000E+00
 -1       280 1.47402E+02 1.91250E+01 0.00000E+00
 -1       281 1.47402E+02 2.20750E+01 0.00000E+00
 -1       282 1.47402E+02 2.50250E+01 0.00000E+00
 -1       283 1.47402E+02 2.79750E+01 0.00000E+00
 -1       284 1.47402E+02 3.09250E+01 0.00000E+00
 -1       285 1.47402E+02 3.38250E+01 0.00000E+00
 -1       286 1.47402E+02 3.67750E+01 0.00000E+00
 -1       287 1.47402E+02 3.97250E+01 0.00000E+00
 -1       288 1.47402E+02 4.26750E+01 0.00000E+00
 -1       289 1.46526E+02 4.50385E+01 0.00000E+00
 -1       290 8.87404E+01 2.21350E+01 0.00000E+00
 -1       291 8.82755E+01 2.04060E+01 0.00000E+00
 -1       292 8.74663E+01 1.88493E+01 0.00000E+00
 -1       293 8.65048E+01 1.72015E+01 0.00000E+00
 -1       294 8.48973E+01 1.60904E+01 0.00000E+00
 -1       295 8.32454E+01 1.51908E+01 0.00000E+00
 -1       296 8.13847E+01 1.48445E+01 0.00000E+00
 -1       297 7.95955E+01 1.49132E+01 0.00000E+00
 -1       298 7.76443E+01 1.49374E+01 0.00000E+00
 -1       299 7.58280E+01 1.59111E+01 0.00000E+00
 -1       300 7.44718E+01 1.72284E+01 0.00000E+00
 -1       301 7.35168E+01 1.87191E+01 0.00000E+00
 -1       302 7.26809E+01 2.02485E+01 0.00000E+00
 -1       303 7.23524E+01 2.19380E+01 0.00000E+00
 -1       304 7.21417E+01 2.37116E+01 0.00000E+00
 -1       305 7.24375E+01 2.56083E+01 0.00000E+00
 -1       306 7.34087E+01 2.71919E+01 0.00000E+00
 -1       307 7.44279E+01 2.85670E+01 0.00000E+00
 -1       308 7.57225E+01 2.99001E+01 0.00000E+00
 -1       309 7.74452E+01 3.06413E+01 0.00000E+00
 -1       310 7.91968E+01 3.11953E+01 0.00000E+00
 -1       311 8.10360E+01 3.11932E+01 0.00000E+00
 -1       312 8.27625E+01 3.08812E+01 0.00000E+00
 -1       313 8.45913E+01 3.04681E+01 0.00000E+00
 -1       314 8.59592E+01 2.90694E+01 0.00000E+00
 -1       315 8.74273E+01 2.77462E+01 0.00000E+00
 -1       316 8.81866E+01 2.59014E+01 0.00000E+00
 -1       317 8.86428E+01 2.40085E+01 0.00000E+00
 -1       318 5.19600E+00 4.11500E+01 0.00000E+00
 -1       319 5.19600E+00 4.41000E+01 0.00000E+00
 -1       320 5.19600E+00 3.52750E+01 0.00000E+00
 -1       321 5.19600E+00 3.23250E+01 0.00000E+00
 -1       322 5.19600E+00 2.93750E+01 0.00000E+00
 -1       323 5.19600E+00 2.64250E+01 0.00000E+00
 -1       324 5.19600E+00 2.34750E+01 0.00000E+00
 -1       325 5.19600E+00 2.05250E+01 0.00000E+00
 -1       326 5.19600E+00 1.76250E+01 0.00000E+00
 -1       327 5.19600E+00 1.46750E+01 0.00000E+00
 -1       328 5.19600E+00 1.17250E+01 0.00000E+00
 -1       329 5.19600E+00 8.77500E+00 0.00000E+00
 -1       330 5.19600E+00 5.82500E+00 0.00000E+00
 -1       331 5.53500E+00 4.00625E+00 0.00000E+00
 -1       332 8.53500E+00 4.00625E+00 0.00000E+00
 -1       333 9.15000E+00 4.48040E+01 0.00000E+00
 -1       334 1.21500E+01 4.48040E+01 0.00000E+00
 -1       335 1.51500E+01 4.48040E+01 0.00000E+00
 -1       336 1.81500E+01 4.48040E+01 0.00000E+00
 -1       337 2.11500E+01 4.48040E+01 0.00000E+00
 -1       338 2.41500E+01 4.48040E+01 0.00000E+00
 -1       339 2.71500E+01 4.48040E+01 0.00000E+00
 -1       340 3.01500E+01 4.48040E+01 0.00000E+00
 -1       341 3.31500E+01 4.48040E+01 0.00000E+00
 -1       342 3.61500E+01 4.48040E+01 0.00000E+00
 -1       343 3.91500E+01 4.48040E+01 0.00000E+00
 -1       344 4.21500E+01 4.48040E+01 0.00000E+00
 -1       345 4.51500E+01 4.48040E+01 0.00000E+00
 -1       346 4.81500E+01 4.48040E+01 0.00000E+00
 -1       347 5.11500E+01 4.48040E+01 0.00000E+00
 -1       348 5.41500E+01 4.48040E+01 0.00000E+00
 -1       349 5.71500E+01 4.48040E+01 0.00000E+00
 -1       350 6.01500E+01 4.48040E+01 0.00000E+00
 -1       351 6.31500E+01 4.48040E+01 0.00000E+00
 -1       352 6.61500E+01 4.48040E+01 0.00000E+00
 -1       353 6.91500E+01 4.48040E+01 0.00000E+00
 -1       354 7.21500E+01 4.48040E+01 0.00000E+00
 -1       355 7.51500E+01 4.48040E+01 0.00000E+00
 -1       356 7.81500E+01 4.48040E+01 0.00000E+00
 -1       357 8.11500E+01 4.48040E+01 0.00000E+00
 -1       358 8.41500E+01 4.48040E+01 0.00000E+00
 -1       359 8.71500E+01 4.48040E+01 0.00000E+00
 -1       360 9.01500E+01 4.48040E+01 0.00000E+00
 -1       361 9.31500E+01 4.48040E+01 0.00000E+00
 -1       362 9.61500E+01 4.48040E+01 0.00000E+00
 -1       363 9.91500E+01 4.48040E+01 0.00000E+00
 -1       364 1.02150E+02 4.48040E+01 0.00000E+00
 -1       365 1.05150E+02 4.48040E+01 0.00000E+00
 -1       366 1.08150E+02 4.48040E+01 0.00000E+00
 -1       367 1.11150E+02 4.48040E+01 0.00000E+00
 -1       368 1.14150E+02 4.48040E+01 0.00000E+00
 -1       369 1.17150E+02 4.48040E+01 0.00000E+00
 -1       370 1.20150E+02 4.48040E+01 0.00000E+00
 -1       371 1.23150E+02 4.48040E+01 0.00000E+00
 -1       372 1.26150E+02 4.48040E+01 0.00000E+00
 -1       373 1.29150E+02 4.48040E+01 0.00000E+00
 -1       374 1.32150E+02 4.48040E+01 0.00000E+00
 -1       375 1.35150E+02 4.48040E+01 0.00000E+00
 -1       376 1.38150E+02 4.48040E+01 0.00000E+00
 -1       377 1.41150E+02 4.48040E+01 0.00000E+00
 -1       378 1.43838E+02 4.49212E+01 0.00000E+00
 -1       379 1.15350E+01 4.00625E+00 0.00000E+00
 -1       380 1.45350E+01 4.00625E+00 0.00000E+00
 -1       381 1.75350E+01 4.00625E+00 0.00000E+00
 -1       382 2.05350E+01 4.00625E+00 0.00000E+00
 -1       383 2.35350E+01 4.00625E+00 0.00000E+00
 -1       384 2.65350E+01 4.00625E+00 0.00000E+00
 -1       385 2.95350E+01 4.00625E+00 0.00000E+00
 -1       386 3.25350E+01 4.00625E+00 0.00000E+00
 -1       387 3.55350E+01 4.00625E+00 0.00000E+00
 -1       388 3.85350E+01 4.00625E+00 0.00000E+00
 -1       389 4.15350E+01 4.00625E+00 0.00000E+00
 -1       390 4.45350E+01 4.00625E+00 0.00000E+00
 -1       391 4.75350E+01 4.00625E+00 0.00000E+00
 -1       392 5.05350E+01 4.00625E+00 0.00000E+00
 -1       393 5.35350E+01 4.00625E+00 0.00000E+00
 -1       394 5.65350E+01 4.00625E+00 0.00000E+00
 -1       395 5.95350E+01 4.00625E+00 0.00000E+00
 -1       396 6.25350E+01 4.00625E+00 0.00000E+00
 -1       397 6.55350E+01 4.00625E+00 0.00000E+00
 -1       398 6.85350E+01 4.00625E+00 0.00000E+00
 -1       399 7.15350E+01 4.00625E+00 0.00000E+00
 -1       400 7.45350E+01 4.00625E+00 0.00000E+00
 -1       401 7.75350E+01 4.00625E+00 0.00000E+00
 -1       402 8.05350E+01 4.00625E+00 0.00000E+00
 -1       403 8.35350E+01 4.00625E+00 0.00000E+00
 -1       404 8.65350E+01 4.00625E+00 0.00000E+00
 -1       405 8.95350E+01 4.00625E+00 0.00000E+00
 -1       406 9.25350E+01 4.00625E+00 0.00000E+00
 -1       407 9.55350E+01 4.00625E+00 0.00000E+00
 -1       408 9.85350E+01 4.00625E+00 0.00000E+00
 -1       409 1.01535E+02 4.00625E+00 0.00000E+00
 -1       410 1.04535E+02 4.00625E+00 0.00000E+00
 -1       411 1.07535E+02 4.00625E+00 0.00000E+00
 -1       412 1.10535E+02 4.00625E+00 0.00000E+00
 -1       413 1.13535E+02 4.00625E+00 0.00000E+00
 -1       414 1.16535E+02 4.00625E+00 0.00000E+00
 -1       415 1.19535E+02 4.00625E+00 0.00000E+00
 -1       416 1.22535E+02 4.00625E+00 0.00000E+00
 -1       417 1.25535E+02 4.00625E+00 0.00000E+00
 -1       418 1.28535E+02 4.00625E+00 0.00000E+00
 -1       419 1.31535E+02 4.00625E+00 0.00000E+00
 -1       420 1.34535E+02 4.00625E+00 0.00000E+00
 -1       421 1.37535E+02 4.00625E+00 0.00000E+00
 -1       422 1.40535E+02 4.00625E+00 0.00000E+00
 -1       423 1.43535E+02 4.00625E+00 0.00000E+00
 -1       424 1.45469E+02 4.21562E+00 0.00000E+00
 -1       425 1.44804E+02 1.18000E+01 0.00000E+00
 -1       426 1.44804E+02 8.85000E+00 0.00000E+00
 -1       427 1.45136E+02 6.53281E+00 0.00000E+00
 -1       428 1.44804E+02 1.47000E+01 0.00000E+00
 -1       429 1.44804E+02 1.76500E+01 0.00000E+00
 -1       430 1.44804E+02 2.06000E+01 0.00000E+00
 -1       431 1.44804E+02 2.35500E+01 0.00000E+00
 -1       432 1.44804E+02 2.65000E+01 0.00000E+00
 -1       433 1.44804E+02 2.94500E+01 0.00000E+00
 -1       434 1.44804E+02 3.23500E+01 0.00000E+00
 -1       435 1.44804E+02 3.53000E+01 0.00000E+00
 -1       436 1.44804E+02 3.82500E+01 0.00000E+00
 -1       437 1.44804E+02 4.12000E+01 0.00000E+00
 -1       438 8.90953E+01 1.89912E+01 0.00000E+00
 -1       439 9.04044E+01 2.31609E+01 0.00000E+00
 -1       440 9.00024E+01 2.08686E+01 0.00000E+00
 -1       441 8.83222E+01 1.72454E+01 0.00000E+00
 -1       442 8.65810E+01 1.53730E+01 0.00000E+00
 -1       443 5.19600E+00 3.82125E+01 0.00000E+00
 -1       444 8.26135E+01 1.34139E+01 0.00000E+00
 -1       445 8.04275E+01 1.32487E+01 0.00000E+00
 -1       446 7.84763E+01 1.32729E+01 0.00000E+00
 -1       447 7.60049E+01 1.40603E+01 0.00000E+00
 -1       448 7.42468E+01 1.56400E+01 0.00000E+00
 -1       449 7.25502E+01 1.70485E+01 0.00000E+00
 -1       450 7.19614E+01 1.88622E+01 0.00000E+00
 -1       451 7.10798E+01 2.08139E+01 0.00000E+00
 -1       452 7.08691E+01 2.25875E+01 0.00000E+00
 -1       453 7.10089E+01 2.48596E+01 0.00000E+00
 -1       454 7.18181E+01 2.70777E+01 0.00000E+00
 -1       455 7.28769E+01 2.86513E+01 0.00000E+00
 -1       456 7.40852E+01 3.01950E+01 0.00000E+00
 -1       457 7.60385E+01 3.15383E+01 0.00000E+00
 -1       458 7.79301E+01 3.21541E+01 0.00000E+00
 -1       459 8.01181E+01 3.27418E+01 0.00000E+00
 -1       460 8.21447E+01 3.23952E+01 0.00000E+00
 -1       461 8.39735E+01 3.19821E+01 0.00000E+00
 -1       462 8.63217E+01 3.07922E+01 0.00000E+00
 -1       463 8.77898E+01 2.94690E+01 0.00000E+00
 -1       464 8.90056E+01 2.73172E+01 0.00000E+00
 -1       465 8.99482E+01 2.50539E+01 0.00000E+00
 -1       466 8.47314E+01 1.44287E+01 0.00000E+00
 -1       467 8.93680E+01 2.90400E+01 0.00000E+00
 -1       468 8.57039E+01 3.23062E+01 0.00000E+00
 -1       469 7.44012E+01 3.18332E+01 0.00000E+00
 -1       470 7.03895E+01 2.63291E+01 0.00000E+00
 -1       471 1.00350E+01 6.60425E+00 0.00000E+00
 -1       472 7.79400E+00 3.08500E+01 0.00000E+00
 -1       473 7.79400E+00 3.38000E+01 0.00000E+00
 -1       474 7.79400E+00 2.49500E+01 0.00000E+00
 -1       475 7.79400E+00 2.20000E+01 0.00000E+00
 -1       476 7.79400E+00 1.91000E+01 0.00000E+00
 -1       477 7.79400E+00 1.61500E+01 0.00000E+00
 -1       478 7.79400E+00 1.32000E+01 0.00000E+00
 -1       479 7.79400E+00 1.02500E+01 0.00000E+00
 -1       480 1.30350E+01 6.60425E+00 0.00000E+00
 -1       481 1.06500E+01 4.22060E+01 0.00000E+00
 -1       482 8.64360E+01 1.33733E+01 0.00000E+00
 -1       483 1.36500E+01 4.22060E+01 0.00000E+00
 -1       484 1.66500E+01 4.22060E+01 0.00000E+00
 -1       485 1.96500E+01 4.22060E+01 0.00000E+00
 -1       486 2.26500E+01 4.22060E+01 0.00000E+00
 -1       487 2.56500E+01 4.22060E+01 0.00000E+00
 -1       488 2.86500E+01 4.22060E+01 0.00000E+00
 -1       489 3.16500E+01 4.22060E+01 0.00000E+00
 -1       490 3.46500E+01 4.22060E+01 0.00000E+00
 -1       491 3.76500E+01 4.22060E+01 0.00000E+00
 -1       492 4.06500E+01 4.22060E+01 0.00000E+00
 -1       493 4.36500E+01 4.22060E+01 0.00000E+00
 -1       494 4.66500E+01 4.22060E+01 0.00000E+00
 -1       495 4.96500E+01 4.22060E+01 0.00000E+00
 -1       496 5.26500E+01 4.22060E+01 0.00000E+00
 -1       497 5.56500E+01 4.22060E+01 0.00000E+00
 -1       498 5.86500E+01 4.22060E+01 0.00000E+00
 -1       499 6.16500E+01 4.22060E+01 0.00000E+00
 -1       500 6.46500E+01 4.22060E+01 0.00000E+00
 -1       501 6.76500E+01 4.22060E+01 0.00000E+00
 -1       502 7.06500E+01 4.22060E+01 0.00000E+00
 -1       503 7.36500E+01 4.22060E+01 0.00000E+00
 -1       504 7.66500E+01 4.22060E+01 0.00000E+00
 -1       505 7.96500E+01 4.22060E+01 0.00000E+00
 -1       506 8.26500E+01 4.22060E+01 0.00000E+00
 -1       507 8.56500E+01 4.22060E+01 0.00000E+00
 -1       508 8.86500E+01 4.22060E+01 0.00000E+00
 -1       509 9.16500E+01 4.22060E+01 0.00000E+00
 -1       510 9.46500E+01 4.22060E+01 0.00000E+00
 -1       511 9.76500E+01 4.22060E+01 0.00000E+00
 -1       512 1.00650E+02 4.22060E+01 0.00000E+00
 -1       513 1.03650E+02 4.22060E+01 0.00000E+00
 -1       514 1.06650E+02 4.22060E+01 0.00000E+00
 -1       515 1.09650E+02 4.22060E+01 0.00000E+00
 -1       516 1.12650E+02 4.22060E+01 0.00000E+00
 -1       517 1.15650E+02 4.22060E+01 0.00000E+00
 -1       518 1.18650E+02 4.22060E+01 0.00000E+00
 -1       519 1.21650E+02 4.22060E+01 0.00000E+00
 -1       520 1.24650E+02 4.22060E+01 0.00000E+00
 -1       521 1.27650E+02 4.22060E+01 0.00000E+00
 -1       522 1.30650E+02 4.22060E+01 0.00000E+00
 -1       523 1.33650E+02 4.22060E+01 0.00000E+00
 -1       524 1.36650E+02 4.22060E+01 0.00000E+00
 -1       525 1.39650E+02 4.22060E+01 0.00000E+00
 -1       526 1.90350E+01 6.60425E+00 0.00000E+00
 -1       527 2.20350E+01 6.60425E+00 0.00000E+00
 -1       528 2.50350E+01 6.60425E+00 0.00000E+00
 -1       529 2.80350E+01 6.60425E+00 0.00000E+00
 -1       530 3.10350E+01 6.60425E+00 0.00000E+00
 -1       531 3.40350E+01 6.60425E+00 0.00000E+00
 -1       532 3.70350E+01 6.60425E+00 0.00000E+00
 -1       533 4.00350E+01 6.60425E+00 0.00000E+00
 -1       534 4.30350E+01 6.60425E+00 0.00000E+00
 -1       535 4.60350E+01 6.60425E+00 0.00000E+00
 -1       536 4.90350E+01 6.60425E+00 0.00000E+00
 -1       537 5.20350E+01 6.60425E+00 0.00000E+00
 -1       538 5.50350E+01 6.60425E+00 0.00000E+00
 -1       539 5.80350E+01 6.60425E+00 0.00000E+00
 -1       540 6.10350E+01 6.60425E+00 0.00000E+00
 -1       541 6.40350E+01 6.60425E+00 0.00000E+00
 -1       542 6.70350E+01 6.60425E+00 0.00000E+00
 -1       543 7.00350E+01 6.60425E+00 0.00000E+00
 -1       544 7.30350E+01 6.60425E+00 0.00000E+00
 -1       545 7.60350E+01 6.60425E+00 0.00000E+00
 -1       546 7.90350E+01 6.60425E+00 0.00000E+00
 -1       547 8.20350E+01 6.60425E+00 0.00000E+00
 -1       548 8.50350E+01 6.60425E+00 0.00000E+00
 -1       549 8.80350E+01 6.60425E+00 0.00000E+00
 -1       550 9.10350E+01 6.60425E+00 0.00000E+00
 -1       551 9.40350E+01 6.60425E+00 0.00000E+00
 -1       552 9.70350E+01 6.60425E+00 0.00000E+00
 -1       553 1.00035E+02 6.60425E+00 0.00000E+00
 -1       554 1.03035E+02 6.60425E+00 0.00000E+00
 -1       555 1.06035E+02 6.60425E+00 0.00000E+00
 -1       556 1.09035E+02 6.60425E+00 0.00000E+00
 -1       557 1.12035E+02 6.60425E+00 0.00000E+00
 -1       558 1.15035E+02 6.60425E+00 0.00000E+00
 -1       559 1.18035E+02 6.60425E+00 0.00000E+00
 -1       560 1.21035E+02 6.60425E+00 0.00000E+00
 -1       561 1.24035E+02 6.60425E+00 0.00000E+00
 -1       562 1.27035E+02 6.60425E+00 0.00000E+00
 -1       563 1.30035E+02 6.60425E+00 0.00000E+00
 -1       564 1.33035E+02 6.60425E+00 0.00000E+00
 -1       565 1.36035E+02 6.60425E+00 0.00000E+00
 -1       566 1.39035E+02 6.60425E+00 0.00000E+00
 -1       567 1.42035E+02 6.60425E+00 0.00000E+00
 -1       568 1.42206E+02 1.61750E+01 0.00000E+00
 -1       569 1.42206E+02 1.91250E+01 0.00000E+00
 -1       570 1.42206E+02 1.03250E+01 0.00000E+00
 -1       571 1.42206E+02 1.32500E+01 0.00000E+00
 -1       572 1.42206E+02 2.20750E+01 0.00000E+00
 -1       573 1.42206E+02 2.50250E+01 0.00000E+00
 -1       574 1.42206E+02 2.79750E+01 0.00000E+00
 -1       575 1.42206E+02 3.08750E+01 0.00000E+00
 -1       576 1.42206E+02 3.38250E+01 0.00000E+00
 -1       577 1.42206E+02 3.67750E+01 0.00000E+00
 -1       578 1.42206E+02 3.97250E+01 0.00000E+00
 -1       579 9.18102E+01 2.17330E+01 0.00000E+00
 -1       580 9.02769E+01 1.74238E+01 0.00000E+00
 -1       581 1.60350E+01 6.60425E+00 0.00000E+00
 -1       582 8.43182E+01 1.23584E+01 0.00000E+00
 -1       583 9.11840E+01 1.93012E+01 0.00000E+00
 -1       584 9.18437E+01 2.45093E+01 0.00000E+00
 -1       585 8.13923E+01 3.40939E+01 0.00000E+00
 -1       586 6.99576E+01 1.91320E+01 0.00000E+00
 -1       587 7.79400E+00 2.79000E+01 0.00000E+00
 -1       588 8.16497E+01 1.16211E+01 0.00000E+00
 -1       589 7.40356E+01 1.36367E+01 0.00000E+00
 -1       590 7.94327E+01 1.17134E+01 0.00000E+00
 -1       591 7.66691E+01 1.18728E+01 0.00000E+00
 -1       592 7.23029E+01 1.50246E+01 0.00000E+00
 -1       593 7.05463E+01 1.73183E+01 0.00000E+00
 -1       594 6.91049E+01 2.14786E+01 0.00000E+00
 -1       595 9.10602E+01 2.68449E+01 0.00000E+00
 -1       596 6.92447E+01 2.37507E+01 0.00000E+00
 -1       597 7.10636E+01 2.87285E+01 0.00000E+00
 -1       598 7.22718E+01 3.02721E+01 0.00000E+00
 -1       599 7.64534E+01 3.34771E+01 0.00000E+00
 -1       600 7.86414E+01 3.40648E+01 0.00000E+00
 -1       601 8.32211E+01 3.36808E+01 0.00000E+00
 -1       602 8.84284E+01 3.16536E+01 0.00000E+00
 -1       603 7.92300E+00 4.16780E+01 0.00000E+00
 -1       604 7.61550E+00 6.21462E+00 0.00000E+00
 -1       605 8.86462E+01 1.51983E+01 0.00000E+00
 -1       606 7.79400E+00 3.67375E+01 0.00000E+00
 -1       607 7.99156E+01 3.54169E+01 0.00000E+00
 -1       608 7.25879E+01 3.19103E+01 0.00000E+00
 -1       609 6.86254E+01 2.52202E+01 0.00000E+00
 -1       610 9.14226E+01 2.85677E+01 0.00000E+00
 -1       611 7.02991E+01 1.52945E+01 0.00000E+00
 -1       612 7.46997E+01 1.14491E+01 0.00000E+00
 -1       613 7.48161E+01 3.37720E+01 0.00000E+00
 -1       614 1.41678E+02 4.22645E+01 0.00000E+00
 -1       615 6.96350E+01 2.79798E+01 0.00000E+00
 -1       616 8.49516E+01 3.40049E+01 0.00000E+00
 -1       617 1.03920E+01 2.05500E+01 0.00000E+00
 -1       618 1.03920E+01 2.35000E+01 0.00000E+00
 -1       619 1.03920E+01 1.46750E+01 0.00000E+00
 -1       620 1.03920E+01 1.17250E+01 0.00000E+00
 -1       621 1.15350E+01 9.20225E+00 0.00000E+00
 -1       622 8.75828E+01 3.41367E+01 0.00000E+00
 -1       623 1.51500E+01 3.96080E+01 0.00000E+00
 -1       624 1.81500E+01 3.96080E+01 0.00000E+00
 -1       625 2.11500E+01 3.96080E+01 0.00000E+00
 -1       626 2.41500E+01 3.96080E+01 0.00000E+00
 -1       627 2.71500E+01 3.96080E+01 0.00000E+00
 -1       628 3.01500E+01 3.96080E+01 0.00000E+00
 -1       629 3.31500E+01 3.96080E+01 0.00000E+00
 -1       630 3.61500E+01 3.96080E+01 0.00000E+00
 -1       631 3.91500E+01 3.96080E+01 0.00000E+00
 -1       632 4.21500E+01 3.96080E+01 0.00000E+00
 -1       633 4.51500E+01 3.96080E+01 0.00000E+00
 -1       634 4.81500E+01 3.96080E+01 0.00000E+00
 -1       635 5.11500E+01 3.96080E+01 0.00000E+00
 -1       636 5.41500E+01 3.96080E+01 0.00000E+00
 -1       637 5.71500E+01 3.96080E+01 0.00000E+00
 -1       638 6.01500E+01 3.96080E+01 0.00000E+00
 -1       639 6.31500E+01 3.96080E+01 0.00000E+00
 -1       640 6.61500E+01 3.96080E+01 0.00000E+00
 -1       641 6.91500E+01 3.96080E+01 0.00000E+00
 -1       642 7.21500E+01 3.96080E+01 0.00000E+00
 -1       643 7.51500E+01 3.96080E+01 0.00000E+00
 -1       644 7.81500E+01 3.96080E+01 0.00000E+00
 -1       645 8.11500E+01 3.96080E+01 0.00000E+00
 -1       646 8.41500E+01 3.96080E+01 0.00000E+00
 -1       647 8.71500E+01 3.96080E+01 0.00000E+00
 -1       648 9.01500E+01 3.96080E+01 0.00000E+00
 -1       649 9.31500E+01 3.96080E+01 0.00000E+00
 -1       650 9.61500E+01 3.96080E+01 0.00000E+00
 -1       651 9.91500E+01 3.96080E+01 0.00000E+00
 -1       652 1.02150E+02 3.96080E+01 0.00000E+00
 -1       653 1.05150E+02 3.96080E+01 0.00000E+00
 -1       654 1.08150E+02 3.96080E+01 0.00000E+00
 -1       655 1.11150E+02 3.96080E+01 0.00000E+00
 -1       656 1.14150E+02 3.96080E+01 0.00000E+00
 -1       657 1.17150E+02 3.96080E+01 0.00000E+00
 -1       658 1.20150E+02 3.96080E+01 0.00000E+00
 -1       659 1.23150E+02 3.96080E+01 0.00000E+00
 -1       660 1.26150E+02 3.96080E+01 0.00000E+00
 -1       661 1.29150E+02 3.96080E+01 0.00000E+00
 -1       662 1.32150E+02 3.96080E+01 0.00000E+00
 -1       663 1.35150E+02 3.96080E+01 0.00000E+00
 -1       664 1.38150E+02 3.96080E+01 0.00000E+00
 -1       665 2.35350E+01 9.20225E+00 0.00000E+00
 -1       666 7.17827E+01 1.25997E+01 0.00000E+00
 -1       667 2.05350E+01 9.20225E+00 0.00000E+00
 -1       668 2.95350E+01 9.20225E+00 0.00000E+00
 -1       669 3.25350E+01 9.20225E+00 0.00000E+00
 -1       670 3.55350E+01 9.20225E+00 0.00000E+00
 -1       671 3.85350E+01 9.20225E+00 0.00000E+00
 -1       672 4.15350E+01 9.20225E+00 0.00000E+00
 -1       673 4.45350E+01 9.20225E+00 0.00000E+00
 -1       674 4.75350E+01 9.20225E+00 0.00000E+00
 -1       675 5.05350E+01 9.20225E+00 0.00000E+00
 -1       676 5.35350E+01 9.20225E+00 0.00000E+00
 -1       677 5.65350E+01 9.20225E+00 0.00000E+00
 -1       678 5.95350E+01 9.20225E+00 0.00000E+00
 -1       679 6.25350E+01 9.20225E+00 0.00000E+00
 -1       680 6.55350E+01 9.20225E+00 0.00000E+00
 -1       681 6.85350E+01 9.20225E+00 0.00000E+00
 -1       682 7.15350E+01 9.20225E+00 0.00000E+00
 -1       683 8.05350E+01 8.98964E+00 0.00000E+00
 -1       684 8.35350E+01 8.98964E+00 0.00000E+00
 -1       685 8.65350E+01 8.98964E+00 0.00000E+00
 -1       686 8.95350E+01 8.98964E+00 0.00000E+00
 -1       687 9.25350E+01 8.98964E+00 0.00000E+00
 -1       688 9.55350E+01 8.98964E+00 0.00000E+00
 -1       689 9.85350E+01 8.98964E+00 0.00000E+00
 -1       690 1.01535E+02 8.98964E+00 0.00000E+00
 -1       691 1.04535E+02 8.98964E+00 0.00000E+00
 -1       692 1.07535E+02 8.98964E+00 0.00000E+00
 -1       693 1.10535E+02 8.98964E+00 0.00000E+00
 -1       694 1.13535E+02 8.98964E+00 0.00000E+00
 -1       695 1.16535E+02 8.98964E+00 0.00000E+00
 -1       696 1.19535E+02 8.98964E+00 0.00000E+00
 -1       697 1.22535E+02 8.98964E+00 0.00000E+00
 -1       698 1.25535E+02 8.98964E+00 0.00000E+00
 -1       699 1.28535E+02 8.98964E+00 0.00000E+00
 -1       700 1.31535E+02 8.98964E+00 0.00000E+00
 -1       701 1.34535E+02 8.98964E+00 0.00000E+00
 -1       702 1.37535E+02 8.98964E+00 0.00000E+00
 -1       703 1.39870E+02 9.65732E+00 0.00000E+00
 -1       704 9.08450E+01 1.52973E+01 0.00000E+00
 -1       705 1.39608E+02 2.35500E+01 0.00000E+00
 -1       706 1.40178E+02 3.96665E+01 0.00000E+00
 -1       707 1.39608E+02 1.76500E+01 0.00000E+00
 -1       708 1.39608E+02 2.65000E+01 0.00000E+00
 -1       709 1.39608E+02 2.06000E+01 0.00000E+00
 -1       710 1.39608E+02 2.94000E+01 0.00000E+00
 -1       711 1.39608E+02 3.23500E+01 0.00000E+00
 -1       712 1.39608E+02 3.53000E+01 0.00000E+00
 -1       713 9.35419E+01 2.31005E+01 0.00000E+00
 -1       714 6.86206E+01 1.76956E+01 0.00000E+00
 -1       715 9.25766E+01 1.74706E+01 0.00000E+00
 -1       716 9.06698E+01 3.09837E+01 0.00000E+00
 -1       717 1.75350E+01 9.20225E+00 0.00000E+00
 -1       718 2.65350E+01 9.20225E+00 0.00000E+00
 -1       719 1.21500E+01 3.96080E+01 0.00000E+00
 -1       720 1.03920E+01 1.76125E+01 0.00000E+00
 -1       721 1.45350E+01 9.20225E+00 0.00000E+00
 -1       722 8.88466E+01 1.27049E+01 0.00000E+00
 -1       723 1.03920E+01 3.23250E+01 0.00000E+00
 -1       724 7.79329E+01 9.74623E+00 0.00000E+00
 -1       725 9.30780E+01 2.62226E+01 0.00000E+00
 -1       726 6.77680E+01 2.00422E+01 0.00000E+00
 -1       727 6.74629E+01 2.27200E+01 0.00000E+00
 -1       728 7.00532E+01 3.07640E+01 0.00000E+00
 -1       729 8.26846E+01 3.55603E+01 0.00000E+00
 -1       730 9.32028E+01 1.99024E+01 0.00000E+00
 -1       731 7.70590E+01 3.55892E+01 0.00000E+00
 -1       732 8.61907E+01 1.11680E+01 0.00000E+00
 -1       733 8.34408E+01 1.03366E+01 0.00000E+00
 -1       734 1.03920E+01 3.52625E+01 0.00000E+00
 -1       735 1.03920E+01 2.64500E+01 0.00000E+00
 -1       736 7.30028E+01 3.38491E+01 0.00000E+00
 -1       737 8.44151E+01 3.58844E+01 0.00000E+00
 -1       738 6.78708E+01 2.68709E+01 0.00000E+00
 -1       739 1.39608E+02 1.47250E+01 0.00000E+00
 -1       740 6.86246E+01 3.00153E+01 0.00000E+00
 -1       741 1.39739E+02 1.21912E+01 0.00000E+00
 -1       742 9.47762E+01 2.48138E+01 0.00000E+00
 -1       743 9.49345E+01 2.12698E+01 0.00000E+00
 -1       744 9.34404E+01 2.79454E+01 0.00000E+00
 -1       745 6.68436E+01 2.41894E+01 0.00000E+00
 -1       746 6.83734E+01 1.56718E+01 0.00000E+00
 -1       747 7.54218E+01 3.58840E+01 0.00000E+00
 -1       748 9.00882E+01 3.31225E+01 0.00000E+00
 -1       749 1.03920E+01 2.93875E+01 0.00000E+00
 -1       750 1.05210E+01 3.87342E+01 0.00000E+00
 -1       751 1.38879E+02 3.74540E+01 0.00000E+00
 -1       752 1.29900E+01 1.32000E+01 0.00000E+00
 -1       753 9.47129E+01 1.82170E+01 0.00000E+00
 -1       754 1.66500E+01 3.70100E+01 0.00000E+00
 -1       755 1.96500E+01 3.70100E+01 0.00000E+00
 -1       756 2.26500E+01 3.70100E+01 0.00000E+00
 -1       757 2.56500E+01 3.70100E+01 0.00000E+00
 -1       758 2.86500E+01 3.70100E+01 0.00000E+00
 -1       759 3.16500E+01 3.70100E+01 0.00000E+00
 -1       760 3.46500E+01 3.70100E+01 0.00000E+00
 -1       761 3.76500E+01 3.70100E+01 0.00000E+00
 -1       762 4.06500E+01 3.70100E+01 0.00000E+00
 -1       763 4.36500E+01 3.70100E+01 0.00000E+00
 -1       764 4.66500E+01 3.70100E+01 0.00000E+00
 -1       765 4.96500E+01 3.70100E+01 0.00000E+00
 -1       766 5.26500E+01 3.70100E+01 0.00000E+00
 -1       767 5.56500E+01 3.70100E+01 0.00000E+00
 -1       768 5.86500E+01 3.70100E+01 0.00000E+00
 -1       769 6.16500E+01 3.70100E+01 0.00000E+00
 -1       770 6.46500E+01 3.70100E+01 0.00000E+00
 -1       771 6.76500E+01 3.70100E+01 0.00000E+00
 -1       772 7.06500E+01 3.70100E+01 0.00000E+00
 -1       773 7.96500E+01 3.72226E+01 0.00000E+00
 -1       774 8.86500E+01 3.70100E+01 0.00000E+00
 -1       775 9.16500E+01 3.70100E+01 0.00000E+00
 -1       776 9.46500E+01 3.70100E+01 0.00000E+00
 -1       777 9.76500E+01 3.70100E+01 0.00000E+00
 -1       778 1.00650E+02 3.70100E+01 0.00000E+00
 -1       779 1.03650E+02 3.70100E+01 0.00000E+00
 -1       780 1.06650E+02 3.70100E+01 0.00000E+00
 -1       781 1.09650E+02 3.70100E+01 0.00000E+00
 -1       782 1.12650E+02 3.70100E+01 0.00000E+00
 -1       783 1.15650E+02 3.70100E+01 0.00000E+00
 -1       784 1.18650E+02 3.70100E+01 0.00000E+00
 -1       785 1.21650E+02 3.70100E+01 0.00000E+00
 -1       786 1.24650E+02 3.70100E+01 0.00000E+00
 -1       787 1.27650E+02 3.70100E+01 0.00000E+00
 -1       788 1.30650E+02 3.70100E+01 0.00000E+00
 -1       789 1.33650E+02 3.70100E+01 0.00000E+00
 -1       790 1.36264E+02 3.72320E+01 0.00000E+00
 -1       791 3.40350E+01 1.18003E+01 0.00000E+00
 -1       792 3.10350E+01 1.18003E+01 0.00000E+00
 -1       793 4.00350E+01 1.18003E+01 0.00000E+00
 -1       794 4.30350E+01 1.18003E+01 0.00000E+00
 -1       795 4.60350E+01 1.18003E+01 0.00000E+00
 -1       796 4.90350E+01 1.18003E+01 0.00000E+00
 -1       797 5.20350E+01 1.18003E+01 0.00000E+00
 -1       798 5.50350E+01 1.18003E+01 0.00000E+00
 -1       799 5.80350E+01 1.18003E+01 0.00000E+00
 -1       800 6.10350E+01 1.18003E+01 0.00000E+00
 -1       801 6.40350E+01 1.18003E+01 0.00000E+00
 -1       802 6.70350E+01 1.18003E+01 0.00000E+00
 -1       803 9.10350E+01 1.15426E+01 0.00000E+00
 -1       804 9.40350E+01 1.15426E+01 0.00000E+00
 -1       805 9.70350E+01 1.15426E+01 0.00000E+00
 -1       806 1.00035E+02 1.15426E+01 0.00000E+00
 -1       807 1.03035E+02 1.15426E+01 0.00000E+00
 -1       808 1.06035E+02 1.15426E+01 0.00000E+00
 -1       809 1.09035E+02 1.15426E+01 0.00000E+00
 -1       810 1.12035E+02 1.15426E+01 0.00000E+00
 -1       811 1.15035E+02 1.15426E+01 0.00000E+00
 -1       812 1.18035E+02 1.15426E+01 0.00000E+00
 -1       813 1.21035E+02 1.15426E+01 0.00000E+00
 -1       814 1.24035E+02 1.15426E+01 0.00000E+00
 -1       815 1.27035E+02 1.15426E+01 0.00000E+00
 -1       816 1.30035E+02 1.15426E+01 0.00000E+00
 -1       817 1.33035E+02 1.15426E+01 0.00000E+00
 -1       818 1.36035E+02 1.15426E+01 0.00000E+00
 -1       819 1.37887E+02 1.18669E+01 0.00000E+00
 -1       820 1.37010E+02 2.79500E+01 0.00000E+00
 -1       821 1.37010E+02 3.38250E+01 0.00000E+00
 -1       822 1.37010E+02 2.50000E+01 0.00000E+00
 -1       823 9.13369E+01 1.28517E+01 0.00000E+00
 -1       824 1.90350E+01 1.18003E+01 0.00000E+00
 -1       825 9.25191E+01 3.26352E+01 0.00000E+00
 -1       826 1.37010E+02 3.08875E+01 0.00000E+00
 -1       827 1.27710E+01 3.74352E+01 0.00000E+00
 -1       828 7.04066E+01 3.33579E+01 0.00000E+00
 -1       829 9.33143E+01 1.51063E+01 0.00000E+00
 -1       830 6.54119E+01 2.11301E+01 0.00000E+00
 -1       831 3.70350E+01 1.18003E+01 0.00000E+00
 -1       832 2.20350E+01 1.18003E+01 0.00000E+00
 -1       833 6.94170E+01 1.22484E+01 0.00000E+00
 -1       834 6.62673E+01 1.81687E+01 0.00000E+00
 -1       835 9.29798E+01 3.02903E+01 0.00000E+00
 -1       836 8.96048E+01 3.55300E+01 0.00000E+00
 -1       837 1.37625E+01 1.12011E+01 0.00000E+00
 -1       838 8.70099E+01 3.57072E+01 0.00000E+00
 -1       839 1.29900E+01 2.20250E+01 0.00000E+00
 -1       840 1.29900E+01 2.49750E+01 0.00000E+00
 -1       841 1.29900E+01 3.37938E+01 0.00000E+00
 -1       842 9.54506E+01 1.58528E+01 0.00000E+00
 -1       843 1.29900E+01 1.90875E+01 0.00000E+00
 -1       844 6.68604E+01 2.89064E+01 0.00000E+00
 -1       845 1.37010E+02 1.61875E+01 0.00000E+00
 -1       846 8.56500E+01 3.70550E+01 0.00000E+00
 -1       847 1.29900E+01 1.61375E+01 0.00000E+00
 -1       848 2.50350E+01 1.18003E+01 0.00000E+00
 -1       849 2.80350E+01 1.18003E+01 0.00000E+00
 -1       850 1.37010E+02 1.91375E+01 0.00000E+00
 -1       851 1.37010E+02 2.20688E+01 0.00000E+00
 -1       852 9.61688E+01 2.29831E+01 0.00000E+00
 -1       853 9.51387E+01 2.65366E+01 0.00000E+00
 -1       854 6.60891E+01 2.58401E+01 0.00000E+00
 -1       855 6.60201E+01 1.61448E+01 0.00000E+00
 -1       856 6.47925E+01 2.25995E+01 0.00000E+00
 -1       857 1.63988E+01 1.15007E+01 0.00000E+00
 -1       858 1.29900E+01 3.08563E+01 0.00000E+00
 -1       859 6.89780E+01 3.26093E+01 0.00000E+00
 -1       860 1.36637E+02 3.55285E+01 0.00000E+00
 -1       861 1.44274E+01 3.46401E+01 0.00000E+00
 -1       862 2.11500E+01 3.44120E+01 0.00000E+00
 -1       863 2.41500E+01 3.44120E+01 0.00000E+00
 -1       864 2.71500E+01 3.44120E+01 0.00000E+00
 -1       865 3.01500E+01 3.44120E+01 0.00000E+00
 -1       866 3.31500E+01 3.44120E+01 0.00000E+00
 -1       867 3.61500E+01 3.44120E+01 0.00000E+00
 -1       868 3.91500E+01 3.44120E+01 0.00000E+00
 -1       869 4.21500E+01 3.44120E+01 0.00000E+00
 -1       870 4.51500E+01 3.44120E+01 0.00000E+00
 -1       871 4.81500E+01 3.44120E+01 0.00000E+00
 -1       872 5.11500E+01 3.44120E+01 0.00000E+00
 -1       873 5.41500E+01 3.44120E+01 0.00000E+00
 -1       874 5.71500E+01 3.44120E+01 0.00000E+00
 -1       875 6.01500E+01 3.44120E+01 0.00000E+00
 -1       876 6.31500E+01 3.44120E+01 0.00000E+00
 -1       877 6.61500E+01 3.44120E+01 0.00000E+00
 -1       878 9.55191E+01 3.26352E+01 0.00000E+00
 -1       879 9.85191E+01 3.26352E+01 0.00000E+00
 -1       880 1.01519E+02 3.26352E+01 0.00000E+00
 -1       881 1.04519E+02 3.26352E+01 0.00000E+00
 -1       882 1.07519E+02 3.26352E+01 0.00000E+00
 -1       883 1.10519E+02 3.26352E+01 0.00000E+00
 -1       884 1.13519E+02 3.26352E+01 0.00000E+00
 -1       885 1.16519E+02 3.26352E+01 0.00000E+00
 -1       886 1.19519E+02 3.26352E+01 0.00000E+00
 -1       887 1.22519E+02 3.26352E+01 0.00000E+00
 -1       888 1.25519E+02 3.26352E+01 0.00000E+00
 -1       889 1.28519E+02 3.26352E+01 0.00000E+00
 -1       890 1.31519E+02 3.26352E+01 0.00000E+00
 -1       891 3.25350E+01 1.43982E+01 0.00000E+00
 -1       892 4.45350E+01 1.43982E+01 0.00000E+00
 -1       893 4.15350E+01 1.43982E+01 0.00000E+00
 -1       894 5.05350E+01 1.43982E+01 0.00000E+00
 -1       895 5.35350E+01 1.43982E+01 0.00000E+00
 -1       896 5.65350E+01 1.43982E+01 0.00000E+00
 -1       897 5.95350E+01 1.43982E+01 0.00000E+00
 -1       898 6.25350E+01 1.43982E+01 0.00000E+00
 -1       899 2.05350E+01 1.43982E+01 0.00000E+00
 -1       900 1.34412E+02 2.64750E+01 0.00000E+00
 -1       901 9.85350E+01 1.41406E+01 0.00000E+00
 -1       902 1.01535E+02 1.41406E+01 0.00000E+00
 -1       903 1.04535E+02 1.41406E+01 0.00000E+00
 -1       904 1.07535E+02 1.41406E+01 0.00000E+00
 -1       905 1.10535E+02 1.41406E+01 0.00000E+00
 -1       906 1.13535E+02 1.41406E+01 0.00000E+00
 -1       907 1.16535E+02 1.41406E+01 0.00000E+00
 -1       908 1.19535E+02 1.41406E+01 0.00000E+00
 -1       909 1.22535E+02 1.41406E+01 0.00000E+00
 -1       910 1.25535E+02 1.41406E+01 0.00000E+00
 -1       911 1.28535E+02 1.41406E+01 0.00000E+00
 -1       912 1.31535E+02 1.41406E+01 0.00000E+00
 -1       913 1.34535E+02 1.41406E+01 0.00000E+00
 -1       914 1.37449E+02 1.40272E+01 0.00000E+00
 -1       915 6.37089E+01 1.90339E+01 0.00000E+00
 -1       916 1.29900E+01 2.79188E+01 0.00000E+00
 -1       917 4.75350E+01 1.43982E+01 0.00000E+00
 -1       918 9.68685E+01 1.95950E+01 0.00000E+00
 -1       919 1.81500E+01 3.44120E+01 0.00000E+00
 -1       920 2.35350E+01 1.43982E+01 0.00000E+00
 -1       921 9.76063E+01 1.72308E+01 0.00000E+00
 -1       922 6.72138E+01 3.15004E+01 0.00000E+00
 -1       923 6.50787E+01 2.78757E+01 0.00000E+00
 -1       924 1.55880E+01 2.05562E+01 0.00000E+00
 -1       925 1.55880E+01 1.46687E+01 0.00000E+00
 -1       926 3.55350E+01 1.43982E+01 0.00000E+00
 -1       927 1.34134E+02 3.28572E+01 0.00000E+00
 -1       928 9.81028E+01 2.13083E+01 0.00000E+00
 -1       929 2.95350E+01 1.43982E+01 0.00000E+00
 -1       930 3.85350E+01 1.43982E+01 0.00000E+00
 -1       931 1.75351E+01 1.43983E+01 0.00000E+00
 -1       932 1.34412E+02 2.35438E+01 0.00000E+00
 -1       933 9.53289E+01 2.95859E+01 0.00000E+00
 -1       934 6.30896E+01 2.05034E+01 0.00000E+00
 -1       935 9.72377E+01 2.52412E+01 0.00000E+00
 -1       936 6.34617E+01 1.70100E+01 0.00000E+00
 -1       937 6.40380E+01 2.42502E+01 0.00000E+00
 -1       938 1.34412E+02 2.94125E+01 0.00000E+00
 -1       939 1.34412E+02 1.76625E+01 0.00000E+00
 -1       940 1.55880E+01 2.35063E+01 0.00000E+00
 -1       941 1.44274E+01 3.17026E+01 0.00000E+00
 -1       942 5.80350E+01 1.69963E+01 0.00000E+00
 -1       943 2.56500E+01 3.18140E+01 0.00000E+00
 -1       944 2.86500E+01 3.18140E+01 0.00000E+00
 -1       945 3.16500E+01 3.18140E+01 0.00000E+00
 -1       946 3.46500E+01 3.18140E+01 0.00000E+00
 -1       947 3.76500E+01 3.18140E+01 0.00000E+00
 -1       948 4.06500E+01 3.18140E+01 0.00000E+00
 -1       949 4.36500E+01 3.18140E+01 0.00000E+00
 -1       950 4.66500E+01 3.18140E+01 0.00000E+00
 -1       951 4.96500E+01 3.18140E+01 0.00000E+00
 -1       952 5.26500E+01 3.18140E+01 0.00000E+00
 -1       953 5.56500E+01 3.18140E+01 0.00000E+00
 -1       954 5.86500E+01 3.18140E+01 0.00000E+00
 -1       955 6.16500E+01 3.18140E+01 0.00000E+00
 -1       956 4.30350E+01 1.69963E+01 0.00000E+00
 -1       957 9.83289E+01 2.95859E+01 0.00000E+00
 -1       958 1.01329E+02 2.95859E+01 0.00000E+00
 -1       959 1.04329E+02 2.95859E+01 0.00000E+00
 -1       960 1.07329E+02 2.95859E+01 0.00000E+00
 -1       961 1.10329E+02 2.95859E+01 0.00000E+00
 -1       962 1.13329E+02 2.95859E+01 0.00000E+00
 -1       963 1.16329E+02 2.95859E+01 0.00000E+00
 -1       964 1.19329E+02 2.95859E+01 0.00000E+00
 -1       965 1.22329E+02 2.95859E+01 0.00000E+00
 -1       966 1.25329E+02 2.95859E+01 0.00000E+00
 -1       967 1.28329E+02 2.95859E+01 0.00000E+00
 -1       968 1.31329E+02 2.95859E+01 0.00000E+00
 -1       969 5.50350E+01 1.69963E+01 0.00000E+00
 -1       970 5.20350E+01 1.69963E+01 0.00000E+00
 -1       971 1.90351E+01 1.69963E+01 0.00000E+00
 -1       972 1.96500E+01 3.18140E+01 0.00000E+00
 -1       973 1.00035E+02 1.67386E+01 0.00000E+00
 -1       974 1.06035E+02 1.67386E+01 0.00000E+00
 -1       975 1.55880E+01 2.64500E+01 0.00000E+00
 -1       976 1.09035E+02 1.67386E+01 0.00000E+00
 -1       977 1.12035E+02 1.67386E+01 0.00000E+00
 -1       978 1.15035E+02 1.67386E+01 0.00000E+00
 -1       979 1.18035E+02 1.67386E+01 0.00000E+00
 -1       980 1.21035E+02 1.67386E+01 0.00000E+00
 -1       981 1.24035E+02 1.67386E+01 0.00000E+00
 -1       982 1.27035E+02 1.67386E+01 0.00000E+00
 -1       983 1.30035E+02 1.67386E+01 0.00000E+00
 -1       984 1.34412E+02 2.06031E+01 0.00000E+00
 -1       985 2.65350E+01 1.43982E+01 0.00000E+00
 -1       986 9.91717E+01 2.35663E+01 0.00000E+00
 -1       987 1.55880E+01 2.93875E+01 0.00000E+00
 -1       988 1.55880E+01 1.76125E+01 0.00000E+00
 -1       989 2.26500E+01 3.18140E+01 0.00000E+00
 -1       990 1.73115E+01 1.73044E+01 0.00000E+00
 -1       991 1.03035E+02 1.67386E+01 0.00000E+00
 -1       992 1.70387E+01 3.17583E+01 0.00000E+00
 -1       993 2.20351E+01 1.69963E+01 0.00000E+00
 -1       994 4.00350E+01 1.69963E+01 0.00000E+00
 -1       995 4.60350E+01 1.69963E+01 0.00000E+00
 -1       996 6.46500E+01 3.18140E+01 0.00000E+00
 -1       997 6.30276E+01 2.62858E+01 0.00000E+00
 -1       998 9.88406E+01 1.89441E+01 0.00000E+00
 -1       999 3.10350E+01 1.69963E+01 0.00000E+00
 -1      1000 1.31814E+02 2.50094E+01 0.00000E+00
 -1      1001 6.10350E+01 1.69963E+01 0.00000E+00
 -1      1002 9.77833E+01 2.74135E+01 0.00000E+00
 -1      1003 1.30035E+02 1.96792E+01 0.00000E+00
 -1      1004 6.23350E+01 2.21541E+01 0.00000E+00
 -1      1005 6.20623E+01 1.87498E+01 0.00000E+00
 -1      1006 3.40350E+01 1.69963E+01 0.00000E+00
 -1      1007 9.97173E+01 2.57387E+01 0.00000E+00
 -1      1008 1.73115E+01 2.02481E+01 0.00000E+00
 -1      1009 4.90350E+01 1.69963E+01 0.00000E+00
 -1      1010 1.73115E+01 2.31981E+01 0.00000E+00
 -1      1011 6.23388E+01 2.90499E+01 0.00000E+00
 -1      1012 1.31571E+02 2.72976E+01 0.00000E+00
 -1      1013 5.05350E+01 1.95942E+01 0.00000E+00
 -1      1014 3.01500E+01 2.92160E+01 0.00000E+00
 -1      1015 3.31500E+01 2.92160E+01 0.00000E+00
 -1      1016 3.61500E+01 2.92160E+01 0.00000E+00
 -1      1017 3.91500E+01 2.92160E+01 0.00000E+00
 -1      1018 4.21500E+01 2.92160E+01 0.00000E+00
 -1      1019 4.51500E+01 2.92160E+01 0.00000E+00
 -1      1020 4.81500E+01 2.92160E+01 0.00000E+00
 -1      1021 5.11500E+01 2.92160E+01 0.00000E+00
 -1      1022 5.41500E+01 2.92160E+01 0.00000E+00
 -1      1023 5.71500E+01 2.92160E+01 0.00000E+00
 -1      1024 5.97444E+01 2.91329E+01 0.00000E+00
 -1      1025 1.07535E+02 1.93366E+01 0.00000E+00
 -1      1026 1.02829E+02 2.69879E+01 0.00000E+00
 -1      1027 1.05829E+02 2.69879E+01 0.00000E+00
 -1      1028 1.08829E+02 2.69879E+01 0.00000E+00
 -1      1029 1.11829E+02 2.69879E+01 0.00000E+00
 -1      1030 1.14829E+02 2.69879E+01 0.00000E+00
 -1      1031 1.17829E+02 2.69879E+01 0.00000E+00
 -1      1032 1.20829E+02 2.69879E+01 0.00000E+00
 -1      1033 1.23829E+02 2.69879E+01 0.00000E+00
 -1      1034 1.26829E+02 2.69879E+01 0.00000E+00
 -1      1035 1.29200E+02 2.71428E+01 0.00000E+00
 -1      1036 5.65350E+01 1.95942E+01 0.00000E+00
 -1      1037 1.04535E+02 1.93366E+01 0.00000E+00
 -1      1038 5.35350E+01 1.95942E+01 0.00000E+00
 -1      1039 1.73115E+01 2.61419E+01 0.00000E+00
 -1      1040 5.95350E+01 1.95942E+01 0.00000E+00
 -1      1041 1.13535E+02 1.93366E+01 0.00000E+00
 -1      1042 1.16535E+02 1.93366E+01 0.00000E+00
 -1      1043 1.19535E+02 1.93366E+01 0.00000E+00
 -1      1044 1.22535E+02 1.93366E+01 0.00000E+00
 -1      1045 1.25535E+02 1.93366E+01 0.00000E+00
 -1      1046 1.27785E+02 1.95079E+01 0.00000E+00
 -1      1047 1.30924E+02 2.23443E+01 0.00000E+00
 -1      1048 1.10535E+02 1.93366E+01 0.00000E+00
 -1      1049 1.00945E+02 2.13450E+01 0.00000E+00
 -1      1050 1.71751E+01 2.89501E+01 0.00000E+00
 -1      1051 3.70350E+01 1.69963E+01 0.00000E+00
 -1      1052 2.80350E+01 1.69963E+01 0.00000E+00
 -1      1053 2.50350E+01 1.69963E+01 0.00000E+00
 -1      1054 2.11500E+01 2.92160E+01 0.00000E+00
 -1      1055 2.41500E+01 2.92160E+01 0.00000E+00
 -1      1056 2.71500E+01 2.92160E+01 0.00000E+00
 -1      1057 4.75350E+01 1.95942E+01 0.00000E+00
 -1      1058 3.25350E+01 1.95942E+01 0.00000E+00
 -1      1059 4.15350E+01 1.95942E+01 0.00000E+00
 -1      1060 2.95350E+01 1.95942E+01 0.00000E+00
 -1      1061 6.13246E+01 2.41896E+01 0.00000E+00
 -1      1062 1.01535E+02 1.93366E+01 0.00000E+00
 -1      1063 1.01490E+02 2.35173E+01 0.00000E+00
 -1      1064 4.45350E+01 1.95942E+01 0.00000E+00
 -1      1065 1.90351E+01 1.99400E+01 0.00000E+00
 -1      1066 1.28905E+02 2.44993E+01 0.00000E+00
 -1      1067 6.09350E+01 2.08742E+01 0.00000E+00
 -1      1068 1.90351E+01 2.28900E+01 0.00000E+00
 -1      1069 3.55350E+01 1.95942E+01 0.00000E+00
 -1      1070 3.85350E+01 1.95942E+01 0.00000E+00
 -1      1071 2.23547E+01 2.03225E+01 0.00000E+00
 -1      1072 3.46500E+01 2.66180E+01 0.00000E+00
 -1      1073 3.76500E+01 2.66180E+01 0.00000E+00
 -1      1074 4.06500E+01 2.66180E+01 0.00000E+00
 -1      1075 4.36500E+01 2.66180E+01 0.00000E+00
 -1      1076 4.66500E+01 2.66180E+01 0.00000E+00
 -1      1077 4.96500E+01 2.66180E+01 0.00000E+00
 -1      1078 5.26500E+01 2.66180E+01 0.00000E+00
 -1      1079 5.56500E+01 2.66180E+01 0.00000E+00
 -1      1080 2.86500E+01 2.66180E+01 0.00000E+00
 -1      1081 1.07329E+02 2.43899E+01 0.00000E+00
 -1      1082 1.10329E+02 2.43899E+01 0.00000E+00
 -1      1083 1.13329E+02 2.43899E+01 0.00000E+00
 -1      1084 1.16329E+02 2.43899E+01 0.00000E+00
 -1      1085 1.19329E+02 2.43899E+01 0.00000E+00
 -1      1086 1.22329E+02 2.43899E+01 0.00000E+00
 -1      1087 1.25329E+02 2.43899E+01 0.00000E+00
 -1      1088 1.06035E+02 2.19346E+01 0.00000E+00
 -1      1089 5.50350E+01 2.21922E+01 0.00000E+00
 -1      1090 1.21035E+02 2.19346E+01 0.00000E+00
 -1      1091 1.90351E+01 2.58338E+01 0.00000E+00
 -1      1092 1.15035E+02 2.19346E+01 0.00000E+00
 -1      1093 5.20350E+01 2.21922E+01 0.00000E+00
 -1      1094 5.80350E+01 2.21922E+01 0.00000E+00
 -1      1095 1.04410E+02 2.39536E+01 0.00000E+00
 -1      1096 4.30350E+01 2.21922E+01 0.00000E+00
 -1      1097 6.05345E+01 2.66613E+01 0.00000E+00
 -1      1098 1.28345E+02 2.20036E+01 0.00000E+00
 -1      1099 2.26500E+01 2.66180E+01 0.00000E+00
 -1      1100 3.16500E+01 2.66180E+01 0.00000E+00
 -1      1101 2.56500E+01 2.66180E+01 0.00000E+00
 -1      1102 1.03013E+02 2.14270E+01 0.00000E+00
 -1      1103 4.00350E+01 2.21922E+01 0.00000E+00
 -1      1104 3.10350E+01 2.21922E+01 0.00000E+00
 -1      1105 5.80923E+01 2.66396E+01 0.00000E+00
 -1      1106 2.65350E+01 1.95943E+01 0.00000E+00
 -1      1107 4.60350E+01 2.21922E+01 0.00000E+00
 -1      1108 5.99246E+01 2.29097E+01 0.00000E+00
 -1      1109 3.40350E+01 2.21922E+01 0.00000E+00
 -1      1110 1.18035E+02 2.19346E+01 0.00000E+00
 -1      1111 1.24035E+02 2.19346E+01 0.00000E+00
 -1      1112 4.90350E+01 2.21922E+01 0.00000E+00
 -1      1113 3.91500E+01 2.40200E+01 0.00000E+00
 -1      1114 1.08829E+02 2.17919E+01 0.00000E+00
 -1      1115 2.80350E+01 2.21923E+01 0.00000E+00
 -1      1116 1.12035E+02 2.19346E+01 0.00000E+00
 -1      1117 2.22843E+01 2.36613E+01 0.00000E+00
 -1      1118 3.65925E+01 2.31061E+01 0.00000E+00
 -1      1119 3.70350E+01 2.21922E+01 0.00000E+00
 -1      1120 5.92848E+01 2.44268E+01 0.00000E+00
 -1      1121 2.45555E+01 2.31726E+01 0.00000E+00
 -1      1122 2.09785E+01 2.53238E+01 0.00000E+00
 -1      1123 0.00000E+00 4.85250E+01 0.00000E+00
 -1      1124 0.00000E+00 4.55750E+01 0.00000E+00
 -1      1125 0.00000E+00 4.26250E+01 0.00000E+00
 -1      1126 0.00000E+00 3.96750E+01 0.00000E+00
 -1      1127 0.00000E+00 3.67250E+01 0.00000E+00
 -1      1128 0.00000E+00 3.38000E+01 0.00000E+00
 -1      1129 0.00000E+00 3.08750E+01 0.00000E+00
 -1      1130 0.00000E+00 2.79250E+01 0.00000E+00
 -1      1131 0.00000E+00 2.49750E+01 0.00000E+00
 -1      1132 0.00000E+00 2.20250E+01 0.00000E+00
 -1      1133 0.00000E+00 1.90750E+01 0.00000E+00
 -1      1134 0.00000E+00 1.61500E+01 0.00000E+00
 -1      1135 0.00000E+00 1.32250E+01 0.00000E+00
 -1      1136 0.00000E+00 1.02750E+01 0.00000E+00
 -1      1137 0.00000E+00 7.32500E+00 0.00000E+00
 -1      1138 0.00000E+00 4.37500E+00 0.00000E+00
 -1      1139 0.00000E+00 1.45000E+00 0.00000E+00
 -1      1140 1.57500E+00 5.00000E+01 0.00000E+00
 -1      1141 4.65000E+00 5.00000E+01 0.00000E+00
 -1      1142 7.65000E+00 5.00000E+01 0.00000E+00
 -1      1143 1.06500E+01 5.00000E+01 0.00000E+00
 -1      1144 1.36500E+01 5.00000E+01 0.00000E+00
 -1      1145 1.66500E+01 5.00000E+01 0.00000E+00
 -1      1146 1.96500E+01 5.00000E+01 0.00000E+00
 -1      1147 2.26500E+01 5.00000E+01 0.00000E+00
 -1      1148 2.56500E+01 5.00000E+01 0.00000E+00
 -1      1149 2.86500E+01 5.00000E+01 0.00000E+00
 -1      1150 3.16500E+01 5.00000E+01 0.00000E+00
 -1      1151 3.46500E+01 5.00000E+01 0.00000E+00
 -1      1152 3.76500E+01 5.00000E+01 0.00000E+00
 -1      1153 4.06500E+01 5.00000E+01 0.00000E+00
 -1      1154 4.36500E+01 5.00000E+01 0.00000E+00
 -1      1155 4.66500E+01 5.00000E+01 0.00000E+00
 -1      1156 4.96500E+01 5.00000E+01 0.00000E+00
 -1      1157 5.26500E+01 5.00000E+01 0.00000E+00
 -1      1158 5.56500E+01 5.00000E+01 0.00000E+00
 -1      1159 5.86500E+01 5.00000E+01 0.00000E+00
 -1      1160 6.16500E+01 5.00000E+01 0.00000E+00
 -1      1161 6.46500E+01 5.00000E+01 0.00000E+00
 -1      1162 6.76500E+01 5.00000E+01 0.00000E+00
 -1      1163 7.06500E+01 5.00000E+01 0.00000E+00
 -1      1164 7.36500E+01 5.00000E+01 0.00000E+00
 -1      1165 7.66500E+01 5.00000E+01 0.00000E+00
 -1      1166 7.96500E+01 5.00000E+01 0.00000E+00
 -1      1167 8.26500E+01 5.00000E+01 0.00000E+00
 -1      1168 8.56500E+01 5.00000E+01 0.00000E+00
 -1      1169 8.86500E+01 5.00000E+01 0.00000E+00
 -1      1170 9.16500E+01 5.00000E+01 0.00000E+00
 -1      1171 9.46500E+01 5.00000E+01 0.00000E+00
 -1      1172 9.76500E+01 5.00000E+01 0.00000E+00
 -1      1173 1.00650E+02 5.00000E+01 0.00000E+00
 -1      1174 1.03650E+02 5.00000E+01 0.00000E+00
 -1      1175 1.06650E+02 5.00000E+01 0.00000E+00
 -1      1176 1.09650E+02 5.00000E+01 0.00000E+00
 -1      1177 1.12650E+02 5.00000E+01 0.00000E+00
 -1      1178 1.15650E+02 5.00000E+01 0.00000E+00
 -1      1179 1.18650E+02 5.00000E+01 0.00000E+00
 -1      1180 1.21650E+02 5.00000E+01 0.00000E+00
 -1      1181 1.24650E+02 5.00000E+01 0.00000E+00
 -1      1182 1.27650E+02 5.00000E+01 0.00000E+00
 -1      1183 1.30650E+02 5.00000E+01 0.00000E+00
 -1      1184 1.33650E+02 5.00000E+01 0.00000E+00
 -1      1185 1.36650E+02 5.00000E+01 0.00000E+00
 -1      1186 1.39650E+02 5.00000E+01 0.00000E+00
 -1      1187 1.42650E+02 5.00000E+01 0.00000E+00
 -1      1188 1.45650E+02 5.00000E+01 0.00000E+00
 -1      1189 1.48575E+02 5.00000E+01 0.00000E+00
 -1      1190 1.57500E+00 0.00000E+00 0.00000E+00
 -1      1191 4.65000E+00 0.00000E+00 0.00000E+00
 -1      1192 7.65000E+00 0.00000E+00 0.00000E+00
 -1      1193 1.06500E+01 0.00000E+00 0.00000E+00
 -1      1194 1.36500E+01 0.00000E+00 0.00000E+00
 -1      1195 1.66500E+01 0.00000E+00 0.00000E+00
 -1      1196 1.96500E+01 0.00000E+00 0.00000E+00
 -1      1197 2.26500E+01 0.00000E+00 0.00000E+00
 -1      1198 2.56500E+01 0.00000E+00 0.00000E+00
 -1      1199 2.86500E+01 0.00000E+00 0.00000E+00
 -1      1200 3.16500E+01 0.00000E+00 0.00000E+00
 -1      1201 3.46500E+01 0.00000E+00 0.00000E+00
 -1      1202 3.76500E+01 0.00000E+00 0.00000E+00
 -1      1203 4.06500E+01 0.00000E+00 0.00000E+00
 -1      1204 4.36500E+01 0.00000E+00 0.00000E+00
 -1      1205 4.66500E+01 0.00000E+00 0.00000E+00
 -1      1206 4.96500E+01 0.00000E+00 0.00000E+00
 -1      1207 5.26500E+01 0.00000E+00 0.00000E+00
 -1      1208 5.56500E+01 0.00000E+00 0.00000E+00
 -1      1209 5.86500E+01 0.00000E+00 0.00000E+00
 -1      1210 6.16500E+01 0.00000E+00 0.00000E+00
 -1      1211 6.46500E+01 0.00000E+00 0.00000E+00
 -1      1212 6.76500E+01 0.00000E+00 0.00000E+00
 -1      1213 7.06500E+01 0.00000E+00 0.00000E+00
 -1      1214 7.36500E+01 0.00000E+00 0.00000E+00
 -1      1215 7.66500E+01 0.00000E+00 0.00000E+00
 -1      1216 7.96500E+01 0.00000E+00 0.00000E+00
 -1      1217 8.26500E+01 0.00000E+00 0.00000E+00
 -1      1218 8.56500E+01 0.00000E+00 0.00000E+00
 -1      1219 8.86500E+01 0.00000E+00 0.00000E+00
 -1      1220 9.16500E+01 0.00000E+00 0.00000E+00
 -1      1221 9.46500E+01 0.00000E+00 0.00000E+00
 -1      1222 9.76500E+01 0.00000E+00 0.00000E+00
 -1      1223 1.00650E+02 0.00000E+00 0.00000E+00
 -1      1224 1.03650E+02 0.00000E+00 0.00000E+00
 -1      1225 1.06650E+02 0.00000E+00 0.00000E+00
 -1      1226 1.09650E+02 0.00000E+00 0.00000E+00
 -1      1227 1.12650E+02 0.00000E+00 0.00000E+00
 -1      1228 1.15650E+02 0.00000E+00 0.00000E+00
 -1      1229 1.18650E+02 0.00000E+00 0.00000E+00
 -1      1230 1.21650E+02 0.00000E+00 0.00000E+00
 -1      1231 1.24650E+02 0.00000E+00 0.00000E+00
 -1      1232 1.27650E+02 0.00000E+00 0.00000E+00
 -1      1233 1.30650E+02 0.00000E+00 0.00000E+00
 -1      1234 1.33650E+02 0.00000E+00 0.00000E+00
 -1      1235 1.36650E+02 0.00000E+00 0.00000E+00
 -1      1236 1.39650E+02 0.00000E+00 0.00000E+00
 -1      1237 1.42650E+02 0.00000E+00 0.00000E+00
 -1      1238 1.45650E+02 0.00000E+00 0.00000E+00
 -1      1239 1.48575E+02 0.00000E+00 0.00000E+00
 -1      1240 1.50000E+02 1.47500E+00 0.00000E+00
 -1      1241 1.50000E+02 4.42500E+00 0.00000E+00
 -1      1242 1.50000E+02 7.37500E+00 0.00000E+00
 -1      1243 1.50000E+02 1.03250E+01 0.00000E+00
 -1      1244 1.50000E+02 1.32750E+01 0.00000E+00
 -1      1245 1.50000E+02 1.62000E+01 0.00000E+00
 -1      1246 1.50000E+02 1.91250E+01 0.00000E+00
 -1      1247 1.50000E+02 2.20750E+01 0.00000E+00
 -1      1248 1.50000E+02 2.50250E+01 0.00000E+00
 -1      1249 1.50000E+02 2.79750E+01 0.00000E+00
 -1      1250 1.50000E+02 3.09250E+01 0.00000E+00
 -1      1251 1.50000E+02 3.38500E+01 0.00000E+00
 -1      1252 1.50000E+02 3.67750E+01 0.00000E+00
 -1      1253 1.50000E+02 3.97250E+01 0.00000E+00
 -1      1254 1.50000E+02 4.26750E+01 0.00000E+00
 -1      1255 1.50000E+02 4.56250E+01 0.00000E+00
 -1      1256 1.50000E+02 4.85500E+01 0.00000E+00
 -1      1257 8.74100E+01 2.22806E+01 0.00000E+00
 -1      1258 8.70851E+01 2.08072E+01 0.00000E+00
 -1      1259 8.64599E+01 1.94509E+01 0.00000E+00
 -1      1260 8.54889E+01 1.81819E+01 0.00000E+00
 -1      1261 8.42228E+01 1.71452E+01 0.00000E+00
 -1      1262 8.27982E+01 1.64476E+01 0.00000E+00
 -1      1263 8.12432E+01 1.60874E+01 0.00000E+00
 -1      1264 7.97184E+01 1.60810E+01 0.00000E+00
 -1      1265 7.81606E+01 1.64280E+01 0.00000E+00
 -1      1266 7.66435E+01 1.71689E+01 0.00000E+00
 -1      1267 7.54328E+01 1.81627E+01 0.00000E+00
 -1      1268 7.45114E+01 1.93392E+01 0.00000E+00
 -1      1269 7.38644E+01 2.06741E+01 0.00000E+00
 -1      1270 7.35158E+01 2.20967E+01 0.00000E+00
 -1      1271 7.34742E+01 2.36043E+01 0.00000E+00
 -1      1272 7.37849E+01 2.51769E+01 0.00000E+00
 -1      1273 7.44205E+01 2.65958E+01 0.00000E+00
 -1      1274 7.52927E+01 2.77739E+01 0.00000E+00
 -1      1275 7.64776E+01 2.88051E+01 0.00000E+00
 -1      1276 7.78764E+01 2.95516E+01 0.00000E+00
 -1      1277 7.93867E+01 2.99610E+01 0.00000E+00
 -1      1278 8.09522E+01 3.00246E+01 0.00000E+00
 -1      1279 8.24310E+01 2.97568E+01 0.00000E+00
 -1      1280 8.38601E+01 2.91566E+01 0.00000E+00
 -1      1281 8.51737E+01 2.82098E+01 0.00000E+00
 -1      1282 8.62554E+01 2.69560E+01 0.00000E+00
 -1      1283 8.70174E+01 2.54693E+01 0.00000E+00
 -1      1284 8.74034E+01 2.38623E+01 0.00000E+00
 -1      1285 1.57500E+00 4.85250E+01 0.00000E+00
 -1      1286 1.29900E+00 4.48375E+01 0.00000E+00
 -1      1287 1.29900E+00 4.63125E+01 0.00000E+00
 -1      1288 1.29900E+00 4.18875E+01 0.00000E+00
 -1      1289 1.29900E+00 4.33625E+01 0.00000E+00
 -1      1290 2.59800E+00 4.41000E+01 0.00000E+00
 -1      1291 1.29900E+00 3.89375E+01 0.00000E+00
 -1      1292 1.29900E+00 4.04125E+01 0.00000E+00
 -1      1293 2.59800E+00 4.11500E+01 0.00000E+00
 -1      1294 1.29900E+00 3.59875E+01 0.00000E+00
 -1      1295 1.29900E+00 3.74625E+01 0.00000E+00
 -1      1296 2.59800E+00 3.82000E+01 0.00000E+00
 -1      1297 1.29900E+00 3.30875E+01 0.00000E+00
 -1      1298 1.29900E+00 3.45375E+01 0.00000E+00
 -1      1299 2.59800E+00 3.52750E+01 0.00000E+00
 -1      1300 1.29900E+00 3.01375E+01 0.00000E+00
 -1      1301 1.29900E+00 3.16125E+01 0.00000E+00
 -1      1302 2.59800E+00 3.23500E+01 0.00000E+00
 -1      1303 1.29900E+00 2.71875E+01 0.00000E+00
 -1      1304 1.29900E+00 2.86625E+01 0.00000E+00
 -1      1305 2.59800E+00 2.94000E+01 0.00000E+00
 -1      1306 1.29900E+00 2.42375E+01 0.00000E+00
 -1      1307 1.29900E+00 2.57125E+01 0.00000E+00
 -1      1308 2.59800E+00 2.64500E+01 0.00000E+00
 -1      1309 1.29900E+00 2.12875E+01 0.00000E+00
 -1      1310 1.29900E+00 2.27625E+01 0.00000E+00
 -1      1311 2.59800E+00 2.35000E+01 0.00000E+00
 -1      1312 1.29900E+00 1.83375E+01 0.00000E+00
 -1      1313 1.29900E+00 1.98125E+01 0.00000E+00
 -1      1314 2.59800E+00 2.05500E+01 0.00000E+00
 -1      1315 1.29900E+00 1.54375E+01 0.00000E+00
 -1      1316 1.29900E+00 1.68875E+01 0.00000E+00
 -1      1317 2.59800E+00 1.76250E+01 0.00000E+00
 -1      1318 1.29900E+00 1.24875E+01 0.00000E+00
 -1      1319 1.29900E+00 1.39625E+01 0.00000E+00
 -1      1320 2.59800E+00 1.47000E+01 0.00000E+00
 -1      1321 1.29900E+00 9.53750E+00 0.00000E+00
 -1      1322 1.29900E+00 1.10125E+01 0.00000E+00
 -1      1323 2.59800E+00 1.17500E+01 0.00000E+00
 -1      1324 1.29900E+00 6.58750E+00 0.00000E+00
 -1      1325 1.29900E+00 8.06250E+00 0.00000E+00
 -1      1326 2.59800E+00 8.80000E+00 0.00000E+00
 -1      1327 1.29900E+00 3.63750E+00 0.00000E+00
 -1      1328 1.29900E+00 5.11250E+00 0.00000E+00
 -1      1329 2.59800E+00 5.85000E+00 0.00000E+00
 -1      1330 1.43700E+00 1.09375E+00 0.00000E+00
 -1      1331 1.43700E+00 2.54375E+00 0.00000E+00
 -1      1332 2.73600E+00 3.28125E+00 0.00000E+00
 -1      1333 3.01200E+00 1.09375E+00 0.00000E+00
 -1      1334 3.90000E+00 4.87010E+01 0.00000E+00
 -1      1335 5.40000E+00 4.87010E+01 0.00000E+00
 -1      1336 6.90000E+00 4.87010E+01 0.00000E+00
 -1      1337 8.40000E+00 4.87010E+01 0.00000E+00
 -1      1338 6.15000E+00 4.74020E+01 0.00000E+00
 -1      1339 9.90000E+00 4.87010E+01 0.00000E+00
 -1      1340 1.14000E+01 4.87010E+01 0.00000E+00
 -1      1341 9.15000E+00 4.74020E+01 0.00000E+00
 -1      1342 1.29000E+01 4.87010E+01 0.00000E+00
 -1      1343 1.44000E+01 4.87010E+01 0.00000E+00
 -1      1344 1.21500E+01 4.74020E+01 0.00000E+00
 -1      1345 1.59000E+01 4.87010E+01 0.00000E+00
 -1      1346 1.74000E+01 4.87010E+01 0.00000E+00
 -1      1347 1.51500E+01 4.74020E+01 0.00000E+00
 -1      1348 1.89000E+01 4.87010E+01 0.00000E+00
 -1      1349 2.04000E+01 4.87010E+01 0.00000E+00
 -1      1350 1.81500E+01 4.74020E+01 0.00000E+00
 -1      1351 2.19000E+01 4.87010E+01 0.00000E+00
 -1      1352 2.34000E+01 4.87010E+01 0.00000E+00
 -1      1353 2.11500E+01 4.74020E+01 0.00000E+00
 -1      1354 2.49000E+01 4.87010E+01 0.00000E+00
 -1      1355 2.64000E+01 4.87010E+01 0.00000E+00
 -1      1356 2.41500E+01 4.74020E+01 0.00000E+00
 -1      1357 2.79000E+01 4.87010E+01 0.00000E+00
 -1      1358 2.94000E+01 4.87010E+01 0.00000E+00
 -1      1359 2.71500E+01 4.74020E+01 0.00000E+00
 -1      1360 3.09000E+01 4.87010E+01 0.00000E+00
 -1      1361 3.24000E+01 4.87010E+01 0.00000E+00
 -1      1362 3.01500E+01 4.74020E+01 0.00000E+00
 -1      1363 3.39000E+01 4.87010E+01 0.00000E+00
 -1      1364 3.54000E+01 4.87010E+01 0.00000E+00
 -1      1365 3.31500E+01 4.74020E+01 0.00000E+00
 -1      1366 3.69000E+01 4.87010E+01 0.00000E+00
 -1      1367 3.84000E+01 4.87010E+01 0.00000E+00
 -1      1368 3.61500E+01 4.74020E+01 0.00000E+00
 -1      1369 3.99000E+01 4.87010E+01 0.00000E+00
 -1      1370 4.14000E+01 4.87010E+01 0.00000E+00
 -1      1371 3.91500E+01 4.74020E+01 0.00000E+00
 -1      1372 4.29000E+01 4.87010E+01 0.00000E+00
 -1      1373 4.44000E+01 4.87010E+01 0.00000E+00
 -1      1374 4.21500E+01 4.74020E+01 0.00000E+00
 -1      1375 4.59000E+01 4.87010E+01 0.00000E+00
 -1      1376 4.74000E+01 4.87010E+01 0.00000E+00
 -1      1377 4.51500E+01 4.74020E+01 0.00000E+00
 -1      1378 4.89000E+01 4.87010E+01 0.00000E+00
 -1      1379 5.04000E+01 4.87010E+01 0.00000E+00
 -1      1380 4.81500E+01 4.74020E+01 0.00000E+00
 -1      1381 5.19000E+01 4.87010E+01 0.00000E+00
 -1      1382 5.34000E+01 4.87010E+01 0.00000E+00
 -1      1383 5.11500E+01 4.74020E+01 0.00000E+00
 -1      1384 5.49000E+01 4.87010E+01 0.00000E+00
 -1      1385 5.64000E+01 4.87010E+01 0.00000E+00
 -1      1386 5.41500E+01 4.74020E+01 0.00000E+00
 -1      1387 5.79000E+01 4.87010E+01 0.00000E+00
 -1      1388 5.94000E+01 4.87010E+01 0.00000E+00
 -1      1389 5.71500E+01 4.74020E+01 0.00000E+00
 -1      1390 6.09000E+01 4.87010E+01 0.00000E+00
 -1      1391 6.24000E+01 4.87010E+01 0.00000E+00
 -1      1392 6.01500E+01 4.74020E+01 0.00000E+00
 -1      1393 6.39000E+01 4.87010E+01 0.00000E+00
 -1      1394 6.54000E+01 4.87010E+01 0.00000E+00
 -1      1395 6.31500E+01 4.74020E+01 0.00000E+00
 -1      1396 6.69000E+01 4.87010E+01 0.00000E+00
 -1      1397 6.84000E+01 4.87010E+01 0.00000E+00
 -1      1398 6.61500E+01 4.74020E+01 0.00000E+00
 -1      1399 6.99000E+01 4.87010E+01 0.00000E+00
 -1      1400 7.14000E+01 4.87010E+01 0.00000E+00
 -1      1401 6.91500E+01 4.74020E+01 0.00000E+00
 -1      1402 7.29000E+01 4.87010E+01 0.00000E+00
 -1      1403 7.44000E+01 4.87010E+01 0.00000E+00
 -1      1404 7.21500E+01 4.74020E+01 0.00000E+00
 -1      1405 7.59000E+01 4.87010E+01 0.00000E+00
 -1      1406 7.74000E+01 4.87010E+01 0.00000E+00
 -1      1407 7.51500E+01 4.74020E+01 0.00000E+00
 -1      1408 7.89000E+01 4.87010E+01 0.00000E+00
 -1      1409 8.04000E+01 4.87010E+01 0.00000E+00
 -1      1410 7.81500E+01 4.74020E+01 0.00000E+00
 -1      1411 8.19000E+01 4.87010E+01 0.00000E+00
 -1      1412 8.34000E+01 4.87010E+01 0.00000E+00
 -1      1413 8.11500E+01 4.74020E+01 0.00000E+00
 -1      1414 8.49000E+01 4.87010E+01 0.00000E+00
 -1      1415 8.64000E+01 4.87010E+01 0.00000E+00
 -1      1416 8.41500E+01 4.74020E+01 0.00000E+00
 -1      1417 8.79000E+01 4.87010E+01 0.00000E+00
 -1      1418 8.94000E+01 4.87010E+01 0.00000E+00
 -1      1419 8.71500E+01 4.74020E+01 0.00000E+00
 -1      1420 9.09000E+01 4.87010E+01 0.00000E+00
 -1      1421 9.24000E+01 4.87010E+01 0.00000E+00
 -1      1422 9.01500E+01 4.74020E+01 0.00000E+00
 -1      1423 9.39000E+01 4.87010E+01 0.00000E+00
 -1      1424 9.54000E+01 4.87010E+01 0.00000E+00
 -1      1425 9.31500E+01 4.74020E+01 0.00000E+00
 -1      1426 9.69000E+01 4.87010E+01 0.00000E+00
 -1      1427 9.84000E+01 4.87010E+01 0.00000E+00
 -1      1428 9.61500E+01 4.74020E+01 0.00000E+00
 -1      1429 9.99000E+01 4.87010E+01 0.00000E+00
 -1      1430 1.01400E+02 4.87010E+01 0.00000E+00
 -1      1431 9.91500E+01 4.74020E+01 0.00000E+00
 -1      1432 1.02900E+02 4.87010E+01 0.00000E+00
 -1      1433 1.04400E+02 4.87010E+01 0.00000E+00
 -1      1434 1.02150E+02 4.74020E+01 0.00000E+00
 -1      1435 1.05900E+02 4.87010E+01 0.00000E+00
 -1      1436 1.07400E+02 4.87010E+01 0.00000E+00
 -1      1437 1.05150E+02 4.74020E+01 0.00000E+00
 -1      1438 1.08900E+02 4.87010E+01 0.00000E+00
 -1      1439 1.10400E+02 4.87010E+01 0.00000E+00
 -1      1440 1.08150E+02 4.74020E+01 0.00000E+00
 -1      1441 1.11900E+02 4.87010E+01 0.00000E+00
 -1      1442 1.13400E+02 4.87010E+01 0.00000E+00
 -1      1443 1.11150E+02 4.74020E+01 0.00000E+00
 -1      1444 1.14900E+02 4.87010E+01 0.00000E+00
 -1      1445 1.16400E+02 4.87010E+01 0.00000E+00
 -1      1446 1.14150E+02 4.74020E+01 0.00000E+00
 -1      1447 1.17900E+02 4.87010E+01 0.00000E+00
 -1      1448 1.19400E+02 4.87010E+01 0.00000E+00
 -1      1449 1.17150E+02 4.74020E+01 0.00000E+00
 -1      1450 1.20900E+02 4.87010E+01 0.00000E+00
 -1      1451 1.22400E+02 4.87010E+01 0.00000E+00
 -1      1452 1.20150E+02 4.74020E+01 0.00000E+00
 -1      1453 1.23900E+02 4.87010E+01 0.00000E+00
 -1      1454 1.25400E+02 4.87010E+01 0.00000E+00
 -1      1455 1.23150E+02 4.74020E+01 0.00000E+00
 -1      1456 1.26900E+02 4.87010E+01 0.00000E+00
 -1      1457 1.28400E+02 4.87010E+01 0.00000E+00
 -1      1458 1.26150E+02 4.74020E+01 0.00000E+00
 -1      1459 1.29900E+02 4.87010E+01 0.00000E+00
 -1      1460 1.31400E+02 4.87010E+01 0.00000E+00
 -1      1461 1.29150E+02 4.74020E+01 0.00000E+00
 -1      1462 1.32900E+02 4.87010E+01 0.00000E+00
 -1      1463 1.34400E+02 4.87010E+01 0.00000E+00
 -1      1464 1.32150E+02 4.74020E+01 0.00000E+00
 -1      1465 1.35900E+02 4.87010E+01 0.00000E+00
 -1      1466 1.37400E+02 4.87010E+01 0.00000E+00
 -1      1467 1.35150E+02 4.74020E+01 0.00000E+00
 -1      1468 1.38900E+02 4.87010E+01 0.00000E+00
 -1      1469 1.40400E+02 4.87010E+01 0.00000E+00
 -1      1470 1.38150E+02 4.74020E+01 0.00000E+00
 -1      1471 1.41900E+02 4.87010E+01 0.00000E+00
 -1      1472 1.43400E+02 4.87010E+01 0.00000E+00
 -1      1473 1.41150E+02 4.74020E+01 0.00000E+00
 -1      1474 1.44900E+02 4.87010E+01 0.00000E+00
 -1      1475 1.46400E+02 4.87010E+01 0.00000E+00
 -1      1476 1.44150E+02 4.74020E+01 0.00000E+00
 -1      1477 1.48575E+02 4.85500E+01 0.00000E+00
 -1      1478 1.47825E+02 4.72510E+01 0.00000E+00
 -1      1479 6.01200E+00 1.09375E+00 0.00000E+00
 -1      1480 4.51200E+00 1.09375E+00 0.00000E+00
 -1      1481 4.37400E+00 2.18750E+00 0.00000E+00
 -1      1482 9.01200E+00 1.09375E+00 0.00000E+00
 -1      1483 7.51200E+00 1.09375E+00 0.00000E+00
 -1      1484 7.37400E+00 2.18750E+00 0.00000E+00
 -1      1485 1.20120E+01 1.09375E+00 0.00000E+00
 -1      1486 1.05120E+01 1.09375E+00 0.00000E+00
 -1      1487 1.03740E+01 2.18750E+00 0.00000E+00
 -1      1488 1.50120E+01 1.09375E+00 0.00000E+00
 -1      1489 1.35120E+01 1.09375E+00 0.00000E+00
 -1      1490 1.33740E+01 2.18750E+00 0.00000E+00
 -1      1491 1.80120E+01 1.09375E+00 0.00000E+00
 -1      1492 1.65120E+01 1.09375E+00 0.00000E+00
 -1      1493 1.63740E+01 2.18750E+00 0.00000E+00
 -1      1494 2.10120E+01 1.09375E+00 0.00000E+00
 -1      1495 1.95120E+01 1.09375E+00 0.00000E+00
 -1      1496 1.93740E+01 2.18750E+00 0.00000E+00
 -1      1497 2.40120E+01 1.09375E+00 0.00000E+00
 -1      1498 2.25120E+01 1.09375E+00 0.00000E+00
 -1      1499 2.23740E+01 2.18750E+00 0.00000E+00
 -1      1500 2.70120E+01 1.09375E+00 0.00000E+00
 -1      1501 2.55120E+01 1.09375E+00 0.00000E+00
 -1      1502 2.53740E+01 2.18750E+00 0.00000E+00
 -1      1503 3.00120E+01 1.09375E+00 0.00000E+00
 -1      1504 2.85120E+01 1.09375E+00 0.00000E+00
 -1      1505 2.83740E+01 2.18750E+00 0.00000E+00
 -1      1506 3.30120E+01 1.09375E+00 0.00000E+00
 -1      1507 3.15120E+01 1.09375E+00 0.00000E+00
 -1      1508 3.13740E+01 2.18750E+00 0.00000E+00
 -1      1509 3.60120E+01 1.09375E+00 0.00000E+00
 -1      1510 3.45120E+01 1.09375E+00 0.00000E+00
 -1      1511 3.43740E+01 2.18750E+00 0.00000E+00
 -1      1512 3.90120E+01 1.09375E+00 0.00000E+00
 -1      1513 3.75120E+01 1.09375E+00 0.00000E+00
 -1      1514 3.73740E+01 2.18750E+00 0.00000E+00
 -1      1515 4.20120E+01 1.09375E+00 0.00000E+00
 -1      1516 4.05120E+01 1.09375E+00 0.00000E+00
 -1      1517 4.03740E+01 2.18750E+00 0.00000E+00
 -1      1518 4.50120E+01 1.09375E+00 0.00000E+00
 -1      1519 4.35120E+01 1.09375E+00 0.00000E+00
 -1      1520 4.33740E+01 2.18750E+00 0.00000E+00
 -1      1521 4.80120E+01 1.09375E+00 0.00000E+00
 -1      1522 4.65120E+01 1.09375E+00 0.00000E+00
 -1      1523 4.63740E+01 2.18750E+00 0.00000E+00
 -1      1524 5.10120E+01 1.09375E+00 0.00000E+00
 -1      1525 4.95120E+01 1.09375E+00 0.00000E+00
 -1      1526 4.93740E+01 2.18750E+00 0.00000E+00
 -1      1527 5.40120E+01 1.09375E+00 0.00000E+00
 -1      1528 5.25120E+01 1.09375E+00 0.00000E+00
 -1      1529 5.23740E+01 2.18750E+00 0.00000E+00
 -1      1530 5.70120E+01 1.09375E+00 0.00000E+00
 -1      1531 5.55120E+01 1.09375E+00 0.00000E+00
 -1      1532 5.53740E+01 2.18750E+00 0.00000E+00
 -1      1533 6.00120E+01 1.09375E+00 0.00000E+00
 -1      1534 5.85120E+01 1.09375E+00 0.00000E+00
 -1      1535 5.83740E+01 2.18750E+00 0.00000E+00
 -1      1536 6.30120E+01 1.09375E+00 0.00000E+00
 -1      1537 6.15120E+01 1.09375E+00 0.00000E+00
 -1      1538 6.13740E+01 2.18750E+00 0.00000E+00
 -1      1539 6.60120E+01 1.09375E+00 0.00000E+00
 -1      1540 6.45120E+01 1.09375E+00 0.00000E+00
 -1      1541 6.43740E+01 2.18750E+00 0.00000E+00
 -1      1542 6.90120E+01 1.09375E+00 0.00000E+00
 -1      1543 6.75120E+01 1.09375E+00 0.00000E+00
 -1      1544 6.73740E+01 2.18750E+00 0.00000E+00
 -1      1545 7.20120E+01 1.09375E+00 0.00000E+00
 -1      1546 7.05120E+01 1.09375E+00 0.00000E+00
 -1      1547 7.03740E+01 2.18750E+00 0.00000E+00
 -1      1548 7.50120E+01 1.09375E+00 0.00000E+00
 -1      1549 7.35120E+01 1.09375E+00 0.00000E+00
 -1      1550 7.33740E+01 2.18750E+00 0.00000E+00
 -1      1551 7.80120E+01 1.09375E+00 0.00000E+00
 -1      1552 7.65120E+01 1.09375E+00 0.00000E+00
 -1      1553 7.63740E+01 2.18750E+00 0.00000E+00
 -1      1554 8.10120E+01 1.09375E+00 0.00000E+00
 -1      1555 7.95120E+01 1.09375E+00 0.00000E+00
 -1      1556 7.93740E+01 2.18750E+00 0.00000E+00
 -1      1557 8.40120E+01 1.09375E+00 0.00000E+00
 -1      1558 8.25120E+01 1.09375E+00 0.00000E+00
 -1      1559 8.23740E+01 2.18750E+00 0.00000E+00
 -1      1560 8.70120E+01 1.09375E+00 0.00000E+00
 -1      1561 8.55120E+01 1.09375E+00 0.00000E+00
 -1      1562 8.53740E+01 2.18750E+00 0.00000E+00
 -1      1563 9.00120E+01 1.09375E+00 0.00000E+00
 -1      1564 8.85120E+01 1.09375E+00 0.00000E+00
 -1      1565 8.83740E+01 2.18750E+00 0.00000E+00
 -1      1566 9.30120E+01 1.09375E+00 0.00000E+00
 -1      1567 9.15120E+01 1.09375E+00 0.00000E+00
 -1      1568 9.13740E+01 2.18750E+00 0.00000E+00
 -1      1569 9.60120E+01 1.09375E+00 0.00000E+00
 -1      1570 9.45120E+01 1.09375E+00 0.00000E+00
 -1      1571 9.43740E+01 2.18750E+00 0.00000E+00
 -1      1572 9.90120E+01 1.09375E+00 0.00000E+00
 -1      1573 9.75120E+01 1.09375E+00 0.00000E+00
 -1      1574 9.73740E+01 2.18750E+00 0.00000E+00
 -1      1575 1.02012E+02 1.09375E+00 0.00000E+00
 -1      1576 1.00512E+02 1.09375E+00 0.00000E+00
 -1      1577 1.00374E+02 2.18750E+00 0.00000E+00
 -1      1578 1.05012E+02 1.09375E+00 0.00000E+00
 -1      1579 1.03512E+02 1.09375E+00 0.00000E+00
 -1      1580 1.03374E+02 2.18750E+00 0.00000E+00
 -1      1581 1.08012E+02 1.09375E+00 0.00000E+00
 -1      1582 1.06512E+02 1.09375E+00 0.00000E+00
 -1      1583 1.06374E+02 2.18750E+00 0.00000E+00
 -1      1584 1.11012E+02 1.09375E+00 0.00000E+00
 -1      1585 1.09512E+02 1.09375E+00 0.00000E+00
 -1      1586 1.09374E+02 2.18750E+00 0.00000E+00
 -1      1587 1.14012E+02 1.09375E+00 0.00000E+00
 -1      1588 1.12512E+02 1.09375E+00 0.00000E+00
 -1      1589 1.12374E+02 2.18750E+00 0.00000E+00
 -1      1590 1.17012E+02 1.09375E+00 0.00000E+00
 -1      1591 1.15512E+02 1.09375E+00 0.00000E+00
 -1      1592 1.15374E+02 2.18750E+00 0.00000E+00
 -1      1593 1.20012E+02 1.09375E+00 0.00000E+00
 -1      1594 1.18512E+02 1.09375E+00 0.00000E+00
 -1      1595 1.18374E+02 2.18750E+00 0.00000E+00
 -1      1596 1.23012E+02 1.09375E+00 0.00000E+00
 -1      1597 1.21512E+02 1.09375E+00 0.00000E+00
 -1      1598 1.21374E+02 2.18750E+00 0.00000E+00
 -1      1599 1.26012E+02 1.09375E+00 0.00000E+00
 -1      1600 1.24512E+02 1.09375E+00 0.00000E+00
 -1      1601 1.24374E+02 2.18750E+00 0.00000E+00
 -1      1602 1.29012E+02 1.09375E+00 0.00000E+00
 -1      1603 1.27512E+02 1.09375E+00 0.00000E+00
 -1      1604 1.27374E+02 2.18750E+00 0.00000E+00
 -1      1605 1.32012E+02 1.09375E+00 0.00000E+00
 -1      1606 1.30512E+02 1.09375E+00 0.00000E+00
 -1      1607 1.30374E+02 2.18750E+00 0.00000E+00
 -1      1608 1.35012E+02 1.09375E+00 0.00000E+00
 -1      1609 1.33512E+02 1.09375E+00 0.00000E+00
 -1      1610 1.33374E+02 2.18750E+00 0.00000E+00
 -1      1611 1.38012E+02 1.09375E+00 0.00000E+00
 -1      1612 1.36512E+02 1.09375E+00 0.00000E+00
 -1      1613 1.36374E+02 2.18750E+00 0.00000E+00
 -1      1614 1.41012E+02 1.09375E+00 0.00000E+00
 -1      1615 1.39512E+02 1.09375E+00 0.00000E+00
 -1      1616 1.39374E+02 2.18750E+00 0.00000E+00
 -1      1617 1.44012E+02 1.09375E+00 0.00000E+00
 -1      1618 1.42512E+02 1.09375E+00 0.00000E+00
 -1      1619 1.42374E+02 2.18750E+00 0.00000E+00
 -1      1620 1.47012E+02 1.09375E+00 0.00000E+00
 -1      1621 1.45512E+02 1.09375E+00 0.00000E+00
 -1      1622 1.45374E+02 2.18750E+00 0.00000E+00
 -1      1623 1.48575E+02 1.47500E+00 0.00000E+00
 -1      1624 1.48701E+02 5.16250E+00 0.00000E+00
 -1      1625 1.48701E+02 3.68750E+00 0.00000E+00
 -1      1626 1.48701E+02 8.11250E+00 0.00000E+00
 -1      1627 1.48701E+02 6.63750E+00 0.00000E+00
 -1      1628 1.47402E+02 5.90000E+00 0.00000E+00
 -1      1629 1.48701E+02 1.10625E+01 0.00000E+00
 -1      1630 1.48701E+02 9.58750E+00 0.00000E+00
 -1      1631 1.47402E+02 8.85000E+00 0.00000E+00
 -1      1632 1.48701E+02 1.40125E+01 0.00000E+00
 -1      1633 1.48701E+02 1.25375E+01 0.00000E+00
 -1      1634 1.47402E+02 1.18000E+01 0.00000E+00
 -1      1635 1.48701E+02 1.69125E+01 0.00000E+00
 -1      1636 1.48701E+02 1.54625E+01 0.00000E+00
 -1      1637 1.47402E+02 1.47250E+01 0.00000E+00
 -1      1638 1.48701E+02 1.98625E+01 0.00000E+00
 -1      1639 1.48701E+02 1.83875E+01 0.00000E+00
 -1      1640 1.47402E+02 1.76500E+01 0.00000E+00
 -1      1641 1.48701E+02 2.28125E+01 0.00000E+00
 -1      1642 1.48701E+02 2.13375E+01 0.00000E+00
 -1      1643 1.47402E+02 2.06000E+01 0.00000E+00
 -1      1644 1.48701E+02 2.57625E+01 0.00000E+00
 -1      1645 1.48701E+02 2.42875E+01 0.00000E+00
 -1      1646 1.47402E+02 2.35500E+01 0.00000E+00
 -1      1647 1.48701E+02 2.87125E+01 0.00000E+00
 -1      1648 1.48701E+02 2.72375E+01 0.00000E+00
 -1      1649 1.47402E+02 2.65000E+01 0.00000E+00
 -1      1650 1.48701E+02 3.16625E+01 0.00000E+00
 -1      1651 1.48701E+02 3.01875E+01 0.00000E+00
 -1      1652 1.47402E+02 2.94500E+01 0.00000E+00
 -1      1653 1.48701E+02 3.45625E+01 0.00000E+00
 -1      1654 1.48701E+02 3.31125E+01 0.00000E+00
 -1      1655 1.47402E+02 3.23750E+01 0.00000E+00
 -1      1656 1.48701E+02 3.75125E+01 0.00000E+00
 -1      1657 1.48701E+02 3.60375E+01 0.00000E+00
 -1      1658 1.47402E+02 3.53000E+01 0.00000E+00
 -1      1659 1.48701E+02 4.04625E+01 0.00000E+00
 -1      1660 1.48701E+02 3.89875E+01 0.00000E+00
 -1      1661 1.47402E+02 3.82500E+01 0.00000E+00
 -1      1662 1.48701E+02 4.34125E+01 0.00000E+00
 -1      1663 1.48701E+02 4.19375E+01 0.00000E+00
 -1      1664 1.47402E+02 4.12000E+01 0.00000E+00
 -1      1665 1.48263E+02 4.60692E+01 0.00000E+00
 -1      1666 1.48263E+02 4.45942E+01 0.00000E+00
 -1      1667 1.46964E+02 4.38568E+01 0.00000E+00
 -1      1668 1.46088E+02 4.62202E+01 0.00000E+00
 -1      1669 8.80131E+01 2.18314E+01 0.00000E+00
 -1      1670 8.80960E+01 2.25887E+01 0.00000E+00
 -1      1671 8.75421E+01 2.02590E+01 0.00000E+00
 -1      1672 8.77806E+01 2.09669E+01 0.00000E+00
 -1      1673 8.67545E+01 1.88400E+01 0.00000E+00
 -1      1674 8.71375E+01 1.94806E+01 0.00000E+00
 -1      1675 8.56825E+01 1.74034E+01 0.00000E+00
 -1      1676 8.62737E+01 1.80161E+01 0.00000E+00
 -1      1677 8.42175E+01 1.64250E+01 0.00000E+00
 -1      1678 8.48788E+01 1.68478E+01 0.00000E+00
 -1      1679 8.26367E+01 1.57065E+01 0.00000E+00
 -1      1680 8.33916E+01 1.59752E+01 0.00000E+00
 -1      1681 8.09165E+01 1.54435E+01 0.00000E+00
 -1      1682 8.17063E+01 1.55334E+01 0.00000E+00
 -1      1683 7.92960E+01 1.55543E+01 0.00000E+00
 -1      1684 8.00219E+01 1.54778E+01 0.00000E+00
 -1      1685 7.75020E+01 1.58498E+01 0.00000E+00
 -1      1686 7.83204E+01 1.55664E+01 0.00000E+00
 -1      1687 7.59040E+01 1.67840E+01 0.00000E+00
 -1      1688 7.65939E+01 1.63367E+01 0.00000E+00
 -1      1689 7.47072E+01 1.79762E+01 0.00000E+00
 -1      1690 7.52259E+01 1.74426E+01 0.00000E+00
 -1      1691 7.38328E+01 1.93581E+01 0.00000E+00
 -1      1692 7.42296E+01 1.87215E+01 0.00000E+00
 -1      1693 7.31667E+01 2.08128E+01 0.00000E+00
 -1      1694 7.34148E+01 2.01228E+01 0.00000E+00
 -1      1695 7.29037E+01 2.23823E+01 0.00000E+00
 -1      1696 7.30025E+01 2.16576E+01 0.00000E+00
 -1      1697 7.28606E+01 2.40433E+01 0.00000E+00
 -1      1698 7.27983E+01 2.32691E+01 0.00000E+00
 -1      1699 7.32604E+01 2.57786E+01 0.00000E+00
 -1      1700 7.30085E+01 2.49917E+01 0.00000E+00
 -1      1701 7.41159E+01 2.71981E+01 0.00000E+00
 -1      1702 7.37460E+01 2.65704E+01 0.00000E+00
 -1      1703 7.51238E+01 2.84290E+01 0.00000E+00
 -1      1704 7.46255E+01 2.78856E+01 0.00000E+00
 -1      1705 7.64572E+01 2.95687E+01 0.00000E+00
 -1      1706 7.57711E+01 2.90955E+01 0.00000E+00
 -1      1707 7.80179E+01 3.02159E+01 0.00000E+00
 -1      1708 7.73186E+01 2.99393E+01 0.00000E+00
 -1      1709 7.96971E+01 3.06166E+01 0.00000E+00
 -1      1710 7.88936E+01 3.04929E+01 0.00000E+00
 -1      1711 8.13686E+01 3.05616E+01 0.00000E+00
 -1      1712 8.06167E+01 3.06156E+01 0.00000E+00
 -1      1713 8.29502E+01 3.01938E+01 0.00000E+00
 -1      1714 8.22318E+01 3.04056E+01 0.00000E+00
 -1      1715 8.45643E+01 2.95972E+01 0.00000E+00
 -1      1716 8.38646E+01 2.99873E+01 0.00000E+00
 -1      1717 8.58523E+01 2.83459E+01 0.00000E+00
 -1      1718 8.52483E+01 2.88978E+01 0.00000E+00
 -1      1719 8.70547E+01 2.69897E+01 0.00000E+00
 -1      1720 8.65863E+01 2.76844E+01 0.00000E+00
 -1      1721 8.77231E+01 2.52861E+01 0.00000E+00
 -1      1722 8.74343E+01 2.60673E+01 0.00000E+00
 -1      1723 8.80472E+01 2.35255E+01 0.00000E+00
 -1      1724 8.79512E+01 2.43397E+01 0.00000E+00
 -1      1725 8.57010E+01 1.66460E+01 0.00000E+00
 -1      1726 8.69855E+01 1.80254E+01 0.00000E+00
 -1      1727 1.48437E+02 2.56875E+00 0.00000E+00
 -1      1728 1.47138E+02 3.30625E+00 0.00000E+00
 -1      1729 8.85080E+01 2.12705E+01 0.00000E+00
 -1      1730 8.78709E+01 1.96276E+01 0.00000E+00
 -1      1731 8.86916E+01 2.30717E+01 0.00000E+00
 -1      1732 8.40714E+01 1.56406E+01 0.00000E+00
 -1      1733 8.23151E+01 1.50177E+01 0.00000E+00
 -1      1734 8.04901E+01 1.48789E+01 0.00000E+00
 -1      1735 7.86199E+01 1.49253E+01 0.00000E+00
 -1      1736 7.67361E+01 1.54242E+01 0.00000E+00
 -1      1737 7.51499E+01 1.65697E+01 0.00000E+00
 -1      1738 7.39943E+01 1.79737E+01 0.00000E+00
 -1      1739 7.30988E+01 1.94838E+01 0.00000E+00
 -1      1740 7.25167E+01 2.10933E+01 0.00000E+00
 -1      1741 7.22471E+01 2.28248E+01 0.00000E+00
 -1      1742 7.22896E+01 2.46599E+01 0.00000E+00
 -1      1743 7.29231E+01 2.64001E+01 0.00000E+00
 -1      1744 7.39183E+01 2.78795E+01 0.00000E+00
 -1      1745 7.50752E+01 2.92336E+01 0.00000E+00
 -1      1746 7.65838E+01 3.02707E+01 0.00000E+00
 -1      1747 7.83210E+01 3.09183E+01 0.00000E+00
 -1      1748 8.01164E+01 3.11943E+01 0.00000E+00
 -1      1749 8.18992E+01 3.10372E+01 0.00000E+00
 -1      1750 8.36769E+01 3.06746E+01 0.00000E+00
 -1      1751 8.52752E+01 2.97687E+01 0.00000E+00
 -1      1752 8.66933E+01 2.84078E+01 0.00000E+00
 -1      1753 8.78069E+01 2.68238E+01 0.00000E+00
 -1      1754 8.84147E+01 2.49549E+01 0.00000E+00
 -1      1755 2.87400E+00 4.77875E+01 0.00000E+00
 -1      1756 3.89700E+00 4.04125E+01 0.00000E+00
 -1      1757 3.89700E+00 4.18875E+01 0.00000E+00
 -1      1758 3.89700E+00 4.33625E+01 0.00000E+00
 -1      1759 3.89700E+00 4.48375E+01 0.00000E+00
 -1      1760 5.19600E+00 4.26250E+01 0.00000E+00
 -1      1761 3.89700E+00 3.45500E+01 0.00000E+00
 -1      1762 3.89700E+00 3.60000E+01 0.00000E+00
 -1      1763 3.89700E+00 3.16000E+01 0.00000E+00
 -1      1764 3.89700E+00 3.30750E+01 0.00000E+00
 -1      1765 5.19600E+00 3.38000E+01 0.00000E+00
 -1      1766 3.89700E+00 2.86500E+01 0.00000E+00
 -1      1767 3.89700E+00 3.01250E+01 0.00000E+00
 -1      1768 5.19600E+00 3.08500E+01 0.00000E+00
 -1      1769 3.89700E+00 2.57000E+01 0.00000E+00
 -1      1770 3.89700E+00 2.71750E+01 0.00000E+00
 -1      1771 5.19600E+00 2.79000E+01 0.00000E+00
 -1      1772 3.89700E+00 2.27500E+01 0.00000E+00
 -1      1773 3.89700E+00 2.42250E+01 0.00000E+00
 -1      1774 5.19600E+00 2.49500E+01 0.00000E+00
 -1      1775 3.89700E+00 1.98000E+01 0.00000E+00
 -1      1776 3.89700E+00 2.12750E+01 0.00000E+00
 -1      1777 5.19600E+00 2.20000E+01 0.00000E+00
 -1      1778 3.89700E+00 1.69000E+01 0.00000E+00
 -1      1779 3.89700E+00 1.83500E+01 0.00000E+00
 -1      1780 5.19600E+00 1.90750E+01 0.00000E+00
 -1      1781 3.89700E+00 1.39500E+01 0.00000E+00
 -1      1782 3.89700E+00 1.54250E+01 0.00000E+00
 -1      1783 5.19600E+00 1.61500E+01 0.00000E+00
 -1      1784 3.89700E+00 1.10000E+01 0.00000E+00
 -1      1785 3.89700E+00 1.24750E+01 0.00000E+00
 -1      1786 5.19600E+00 1.32000E+01 0.00000E+00
 -1      1787 3.89700E+00 8.05000E+00 0.00000E+00
 -1      1788 3.89700E+00 9.52500E+00 0.00000E+00
 -1      1789 5.19600E+00 1.02500E+01 0.00000E+00
 -1      1790 3.89700E+00 5.10000E+00 0.00000E+00
 -1      1791 3.89700E+00 6.57500E+00 0.00000E+00
 -1      1792 5.19600E+00 7.30000E+00 0.00000E+00
 -1      1793 4.20450E+00 3.09687E+00 0.00000E+00
 -1      1794 4.06650E+00 4.19063E+00 0.00000E+00
 -1      1795 5.36550E+00 4.91563E+00 0.00000E+00
 -1      1796 5.70450E+00 3.09687E+00 0.00000E+00
 -1      1797 3.62400E+00 4.64885E+01 0.00000E+00
 -1      1798 8.70450E+00 3.09687E+00 0.00000E+00
 -1      1799 7.20450E+00 3.09687E+00 0.00000E+00
 -1      1800 7.03500E+00 4.00625E+00 0.00000E+00
 -1      1801 4.92300E+00 4.57510E+01 0.00000E+00
 -1      1802 8.40000E+00 4.61030E+01 0.00000E+00
 -1      1803 9.90000E+00 4.61030E+01 0.00000E+00
 -1      1804 1.14000E+01 4.61030E+01 0.00000E+00
 -1      1805 1.29000E+01 4.61030E+01 0.00000E+00
 -1      1806 1.06500E+01 4.48040E+01 0.00000E+00
 -1      1807 1.44000E+01 4.61030E+01 0.00000E+00
 -1      1808 1.59000E+01 4.61030E+01 0.00000E+00
 -1      1809 1.36500E+01 4.48040E+01 0.00000E+00
 -1      1810 1.74000E+01 4.61030E+01 0.00000E+00
 -1      1811 1.89000E+01 4.61030E+01 0.00000E+00
 -1      1812 1.66500E+01 4.48040E+01 0.00000E+00
 -1      1813 2.04000E+01 4.61030E+01 0.00000E+00
 -1      1814 2.19000E+01 4.61030E+01 0.00000E+00
 -1      1815 1.96500E+01 4.48040E+01 0.00000E+00
 -1      1816 2.34000E+01 4.61030E+01 0.00000E+00
 -1      1817 2.49000E+01 4.61030E+01 0.00000E+00
 -1      1818 2.26500E+01 4.48040E+01 0.00000E+00
 -1      1819 2.64000E+01 4.61030E+01 0.00000E+00
 -1      1820 2.79000E+01 4.61030E+01 0.00000E+00
 -1      1821 2.56500E+01 4.48040E+01 0.00000E+00
 -1      1822 2.94000E+01 4.61030E+01 0.00000E+00
 -1      1823 3.09000E+01 4.61030E+01 0.00000E+00
 -1      1824 2.86500E+01 4.48040E+01 0.00000E+00
 -1      1825 3.24000E+01 4.61030E+01 0.00000E+00
 -1      1826 3.39000E+01 4.61030E+01 0.00000E+00
 -1      1827 3.16500E+01 4.48040E+01 0.00000E+00
 -1      1828 3.54000E+01 4.61030E+01 0.00000E+00
 -1      1829 3.69000E+01 4.61030E+01 0.00000E+00
 -1      1830 3.46500E+01 4.48040E+01 0.00000E+00
 -1      1831 3.84000E+01 4.61030E+01 0.00000E+00
 -1      1832 3.99000E+01 4.61030E+01 0.00000E+00
 -1      1833 3.76500E+01 4.48040E+01 0.00000E+00
 -1      1834 4.14000E+01 4.61030E+01 0.00000E+00
 -1      1835 4.29000E+01 4.61030E+01 0.00000E+00
 -1      1836 4.06500E+01 4.48040E+01 0.00000E+00
 -1      1837 4.44000E+01 4.61030E+01 0.00000E+00
 -1      1838 4.59000E+01 4.61030E+01 0.00000E+00
 -1      1839 4.36500E+01 4.48040E+01 0.00000E+00
 -1      1840 4.74000E+01 4.61030E+01 0.00000E+00
 -1      1841 4.89000E+01 4.61030E+01 0.00000E+00
 -1      1842 4.66500E+01 4.48040E+01 0.00000E+00
 -1      1843 5.04000E+01 4.61030E+01 0.00000E+00
 -1      1844 5.19000E+01 4.61030E+01 0.00000E+00
 -1      1845 4.96500E+01 4.48040E+01 0.00000E+00
 -1      1846 5.34000E+01 4.61030E+01 0.00000E+00
 -1      1847 5.49000E+01 4.61030E+01 0.00000E+00
 -1      1848 5.26500E+01 4.48040E+01 0.00000E+00
 -1      1849 5.64000E+01 4.61030E+01 0.00000E+00
 -1      1850 5.79000E+01 4.61030E+01 0.00000E+00
 -1      1851 5.56500E+01 4.48040E+01 0.00000E+00
 -1      1852 5.94000E+01 4.61030E+01 0.00000E+00
 -1      1853 6.09000E+01 4.61030E+01 0.00000E+00
 -1      1854 5.86500E+01 4.48040E+01 0.00000E+00
 -1      1855 6.24000E+01 4.61030E+01 0.00000E+00
 -1      1856 6.39000E+01 4.61030E+01 0.00000E+00
 -1      1857 6.16500E+01 4.48040E+01 0.00000E+00
 -1      1858 6.54000E+01 4.61030E+01 0.00000E+00
 -1      1859 6.69000E+01 4.61030E+01 0.00000E+00
 -1      1860 6.46500E+01 4.48040E+01 0.00000E+00
 -1      1861 6.84000E+01 4.61030E+01 0.00000E+00
 -1      1862 6.99000E+01 4.61030E+01 0.00000E+00
 -1      1863 6.76500E+01 4.48040E+01 0.00000E+00
 -1      1864 7.14000E+01 4.61030E+01 0.00000E+00
 -1      1865 7.29000E+01 4.61030E+01 0.00000E+00
 -1      1866 7.06500E+01 4.48040E+01 0.00000E+00
 -1      1867 7.44000E+01 4.61030E+01 0.00000E+00
 -1      1868 7.59000E+01 4.61030E+01 0.00000E+00
 -1      1869 7.36500E+01 4.48040E+01 0.00000E+00
 -1      1870 7.74000E+01 4.61030E+01 0.00000E+00
 -1      1871 7.89000E+01 4.61030E+01 0.00000E+00
 -1      1872 7.66500E+01 4.48040E+01 0.00000E+00
 -1      1873 8.04000E+01 4.61030E+01 0.00000E+00
 -1      1874 8.19000E+01 4.61030E+01 0.00000E+00
 -1      1875 7.96500E+01 4.48040E+01 0.00000E+00
 -1      1876 8.34000E+01 4.61030E+01 0.00000E+00
 -1      1877 8.49000E+01 4.61030E+01 0.00000E+00
 -1      1878 8.26500E+01 4.48040E+01 0.00000E+00
 -1      1879 8.64000E+01 4.61030E+01 0.00000E+00
 -1      1880 8.79000E+01 4.61030E+01 0.00000E+00
 -1      1881 8.56500E+01 4.48040E+01 0.00000E+00
 -1      1882 8.94000E+01 4.61030E+01 0.00000E+00
 -1      1883 9.09000E+01 4.61030E+01 0.00000E+00
 -1      1884 8.86500E+01 4.48040E+01 0.00000E+00
 -1      1885 9.24000E+01 4.61030E+01 0.00000E+00
 -1      1886 9.39000E+01 4.61030E+01 0.00000E+00
 -1      1887 9.16500E+01 4.48040E+01 0.00000E+00
 -1      1888 9.54000E+01 4.61030E+01 0.00000E+00
 -1      1889 9.69000E+01 4.61030E+01 0.00000E+00
 -1      1890 9.46500E+01 4.48040E+01 0.00000E+00
 -1      1891 9.84000E+01 4.61030E+01 0.00000E+00
 -1      1892 9.99000E+01 4.61030E+01 0.00000E+00
 -1      1893 9.76500E+01 4.48040E+01 0.00000E+00
 -1      1894 1.01400E+02 4.61030E+01 0.00000E+00
 -1      1895 1.02900E+02 4.61030E+01 0.00000E+00
 -1      1896 1.00650E+02 4.48040E+01 0.00000E+00
 -1      1897 1.04400E+02 4.61030E+01 0.00000E+00
 -1      1898 1.05900E+02 4.61030E+01 0.00000E+00
 -1      1899 1.03650E+02 4.48040E+01 0.00000E+00
 -1      1900 1.07400E+02 4.61030E+01 0.00000E+00
 -1      1901 1.08900E+02 4.61030E+01 0.00000E+00
 -1      1902 1.06650E+02 4.48040E+01 0.00000E+00
 -1      1903 1.10400E+02 4.61030E+01 0.00000E+00
 -1      1904 1.11900E+02 4.61030E+01 0.00000E+00
 -1      1905 1.09650E+02 4.48040E+01 0.00000E+00
 -1      1906 1.13400E+02 4.61030E+01 0.00000E+00
 -1      1907 1.14900E+02 4.61030E+01 0.00000E+00
 -1      1908 1.12650E+02 4.48040E+01 0.00000E+00
 -1      1909 1.16400E+02 4.61030E+01 0.00000E+00
 -1      1910 1.17900E+02 4.61030E+01 0.00000E+00
 -1      1911 1.15650E+02 4.48040E+01 0.00000E+00
 -1      1912 1.19400E+02 4.61030E+01 0.00000E+00
 -1      1913 1.20900E+02 4.61030E+01 0.00000E+00
 -1      1914 1.18650E+02 4.48040E+01 0.00000E+00
 -1      1915 1.22400E+02 4.61030E+01 0.00000E+00
 -1      1916 1.23900E+02 4.61030E+01 0.00000E+00
 -1      1917 1.21650E+02 4.48040E+01 0.00000E+00
 -1      1918 1.25400E+02 4.61030E+01 0.00000E+00
 -1      1919 1.26900E+02 4.61030E+01 0.00000E+00
 -1      1920 1.24650E+02 4.48040E+01 0.00000E+00
 -1      1921 1.28400E+02 4.61030E+01 0.00000E+00
 -1      1922 1.29900E+02 4.61030E+01 0.00000E+00
 -1      1923 1.27650E+02 4.48040E+01 0.00000E+00
 -1      1924 1.31400E+02 4.61030E+01 0.00000E+00
 -1      1925 1.32900E+02 4.61030E+01 0.00000E+00
 -1      1926 1.30650E+02 4.48040E+01 0.00000E+00
 -1      1927 1.34400E+02 4.61030E+01 0.00000E+00
 -1      1928 1.35900E+02 4.61030E+01 0.00000E+00
 -1      1929 1.33650E+02 4.48040E+01 0.00000E+00
 -1      1930 1.37400E+02 4.61030E+01 0.00000E+00
 -1      1931 1.38900E+02 4.61030E+01 0.00000E+00
 -1      1932 1.36650E+02 4.48040E+01 0.00000E+00
 -1      1933 1.40400E+02 4.61030E+01 0.00000E+00
 -1      1934 1.41900E+02 4.61030E+01 0.00000E+00
 -1      1935 1.39650E+02 4.48040E+01 0.00000E+00
 -1      1936 1.43244E+02 4.61616E+01 0.00000E+00
 -1      1937 1.44744E+02 4.61616E+01 0.00000E+00
 -1      1938 1.45182E+02 4.49799E+01 0.00000E+00
 -1      1939 1.42494E+02 4.48626E+01 0.00000E+00
 -1      1940 1.17045E+01 3.09687E+00 0.00000E+00
 -1      1941 1.02045E+01 3.09687E+00 0.00000E+00
 -1      1942 1.00350E+01 4.00625E+00 0.00000E+00
 -1      1943 1.47045E+01 3.09687E+00 0.00000E+00
 -1      1944 1.32045E+01 3.09687E+00 0.00000E+00
 -1      1945 1.30350E+01 4.00625E+00 0.00000E+00
 -1      1946 1.77045E+01 3.09687E+00 0.00000E+00
 -1      1947 1.62045E+01 3.09687E+00 0.00000E+00
 -1      1948 1.60350E+01 4.00625E+00 0.00000E+00
 -1      1949 2.07045E+01 3.09687E+00 0.00000E+00
 -1      1950 1.92045E+01 3.09687E+00 0.00000E+00
 -1      1951 1.90350E+01 4.00625E+00 0.00000E+00
 -1      1952 2.37045E+01 3.09687E+00 0.00000E+00
 -1      1953 2.22045E+01 3.09687E+00 0.00000E+00
 -1      1954 2.20350E+01 4.00625E+00 0.00000E+00
 -1      1955 2.67045E+01 3.09687E+00 0.00000E+00
 -1      1956 2.52045E+01 3.09687E+00 0.00000E+00
 -1      1957 2.50350E+01 4.00625E+00 0.00000E+00
 -1      1958 2.97045E+01 3.09687E+00 0.00000E+00
 -1      1959 2.82045E+01 3.09687E+00 0.00000E+00
 -1      1960 2.80350E+01 4.00625E+00 0.00000E+00
 -1      1961 3.27045E+01 3.09687E+00 0.00000E+00
 -1      1962 3.12045E+01 3.09687E+00 0.00000E+00
 -1      1963 3.10350E+01 4.00625E+00 0.00000E+00
 -1      1964 3.57045E+01 3.09687E+00 0.00000E+00
 -1      1965 3.42045E+01 3.09687E+00 0.00000E+00
 -1      1966 3.40350E+01 4.00625E+00 0.00000E+00
 -1      1967 3.87045E+01 3.09687E+00 0.00000E+00
 -1      1968 3.72045E+01 3.09687E+00 0.00000E+00
 -1      1969 3.70350E+01 4.00625E+00 0.00000E+00
 -1      1970 4.17045E+01 3.09687E+00 0.00000E+00
 -1      1971 4.02045E+01 3.09687E+00 0.00000E+00
 -1      1972 4.00350E+01 4.00625E+00 0.00000E+00
 -1      1973 4.47045E+01 3.09687E+00 0.00000E+00
 -1      1974 4.32045E+01 3.09687E+00 0.00000E+00
 -1      1975 4.30350E+01 4.00625E+00 0.00000E+00
 -1      1976 4.77045E+01 3.09687E+00 0.00000E+00
 -1      1977 4.62045E+01 3.09687E+00 0.00000E+00
 -1      1978 4.60350E+01 4.00625E+00 0.00000E+00
 -1      1979 5.07045E+01 3.09687E+00 0.00000E+00
 -1      1980 4.92045E+01 3.09687E+00 0.00000E+00
 -1      1981 4.90350E+01 4.00625E+00 0.00000E+00
 -1      1982 5.37045E+01 3.09687E+00 0.00000E+00
 -1      1983 5.22045E+01 3.09687E+00 0.00000E+00
 -1      1984 5.20350E+01 4.00625E+00 0.00000E+00
 -1      1985 5.67045E+01 3.09687E+00 0.00000E+00
 -1      1986 5.52045E+01 3.09687E+00 0.00000E+00
 -1      1987 5.50350E+01 4.00625E+00 0.00000E+00
 -1      1988 5.97045E+01 3.09687E+00 0.00000E+00
 -1      1989 5.82045E+01 3.09687E+00 0.00000E+00
 -1      1990 5.80350E+01 4.00625E+00 0.00000E+00
 -1      1991 6.27045E+01 3.09687E+00 0.00000E+00
 -1      1992 6.12045E+01 3.09687E+00 0.00000E+00
 -1      1993 6.10350E+01 4.00625E+00 0.00000E+00
 -1      1994 6.57045E+01 3.09687E+00 0.00000E+00
 -1      1995 6.42045E+01 3.09687E+00 0.00000E+00
 -1      1996 6.40350E+01 4.00625E+00 0.00000E+00
 -1      1997 6.87045E+01 3.09687E+00 0.00000E+00
 -1      1998 6.72045E+01 3.09687E+00 0.00000E+00
 -1      1999 6.70350E+01 4.00625E+00 0.00000E+00
 -1      2000 7.17045E+01 3.09687E+00 0.00000E+00
 -1      2001 7.02045E+01 3.09687E+00 0.00000E+00
 -1      2002 7.00350E+01 4.00625E+00 0.00000E+00
 -1      2003 7.47045E+01 3.09687E+00 0.00000E+00
 -1      2004 7.32045E+01 3.09687E+00 0.00000E+00
 -1      2005 7.30350E+01 4.00625E+00 0.00000E+00
 -1      2006 7.77045E+01 3.09687E+00 0.00000E+00
 -1      2007 7.62045E+01 3.09687E+00 0.00000E+00
 -1      2008 7.60350E+01 4.00625E+00 0.00000E+00
 -1      2009 8.07045E+01 3.09687E+00 0.00000E+00
 -1      2010 7.92045E+01 3.09687E+00 0.00000E+00
 -1      2011 7.90350E+01 4.00625E+00 0.00000E+00
 -1      2012 8.37045E+01 3.09687E+00 0.00000E+00
 -1      2013 8.22045E+01 3.09687E+00 0.00000E+00
 -1      2014 8.20350E+01 4.00625E+00 0.00000E+00
 -1      2015 8.67045E+01 3.09687E+00 0.00000E+00
 -1      2016 8.52045E+01 3.09687E+00 0.00000E+00
 -1      2017 8.50350E+01 4.00625E+00 0.00000E+00
 -1      2018 8.97045E+01 3.09687E+00 0.00000E+00
 -1      2019 8.82045E+01 3.09687E+00 0.00000E+00
 -1      2020 8.80350E+01 4.00625E+00 0.00000E+00
 -1      2021 9.27045E+01 3.09687E+00 0.00000E+00
 -1      2022 9.12045E+01 3.09687E+00 0.00000E+00
 -1      2023 9.10350E+01 4.00625E+00 0.00000E+00
 -1      2024 9.57045E+01 3.09687E+00 0.00000E+00
 -1      2025 9.42045E+01 3.09687E+00 0.00000E+00
 -1      2026 9.40350E+01 4.00625E+00 0.00000E+00
 -1      2027 9.87045E+01 3.09687E+00 0.00000E+00
 -1      2028 9.72045E+01 3.09687E+00 0.00000E+00
 -1      2029 9.70350E+01 4.00625E+00 0.00000E+00
 -1      2030 1.01704E+02 3.09687E+00 0.00000E+00
 -1      2031 1.00204E+02 3.09687E+00 0.00000E+00
 -1      2032 1.00035E+02 4.00625E+00 0.00000E+00
 -1      2033 1.04704E+02 3.09687E+00 0.00000E+00
 -1      2034 1.03204E+02 3.09687E+00 0.00000E+00
 -1      2035 1.03035E+02 4.00625E+00 0.00000E+00
 -1      2036 1.07704E+02 3.09687E+00 0.00000E+00
 -1      2037 1.06204E+02 3.09687E+00 0.00000E+00
 -1      2038 1.06035E+02 4.00625E+00 0.00000E+00
 -1      2039 1.10704E+02 3.09687E+00 0.00000E+00
 -1      2040 1.09204E+02 3.09687E+00 0.00000E+00
 -1      2041 1.09035E+02 4.00625E+00 0.00000E+00
 -1      2042 1.13704E+02 3.09687E+00 0.00000E+00
 -1      2043 1.12204E+02 3.09687E+00 0.00000E+00
 -1      2044 1.12035E+02 4.00625E+00 0.00000E+00
 -1      2045 1.16704E+02 3.09687E+00 0.00000E+00
 -1      2046 1.15204E+02 3.09687E+00 0.00000E+00
 -1      2047 1.15035E+02 4.00625E+00 0.00000E+00
 -1      2048 1.19704E+02 3.09687E+00 0.00000E+00
 -1      2049 1.18204E+02 3.09687E+00 0.00000E+00
 -1      2050 1.18035E+02 4.00625E+00 0.00000E+00
 -1      2051 1.22704E+02 3.09687E+00 0.00000E+00
 -1      2052 1.21204E+02 3.09687E+00 0.00000E+00
 -1      2053 1.21035E+02 4.00625E+00 0.00000E+00
 -1      2054 1.25704E+02 3.09687E+00 0.00000E+00
 -1      2055 1.24204E+02 3.09687E+00 0.00000E+00
 -1      2056 1.24035E+02 4.00625E+00 0.00000E+00
 -1      2057 1.28704E+02 3.09687E+00 0.00000E+00
 -1      2058 1.27204E+02 3.09687E+00 0.00000E+00
 -1      2059 1.27035E+02 4.00625E+00 0.00000E+00
 -1      2060 1.31704E+02 3.09687E+00 0.00000E+00
 -1      2061 1.30204E+02 3.09687E+00 0.00000E+00
 -1      2062 1.30035E+02 4.00625E+00 0.00000E+00
 -1      2063 1.34704E+02 3.09687E+00 0.00000E+00
 -1      2064 1.33204E+02 3.09687E+00 0.00000E+00
 -1      2065 1.33035E+02 4.00625E+00 0.00000E+00
 -1      2066 1.37704E+02 3.09687E+00 0.00000E+00
 -1      2067 1.36204E+02 3.09687E+00 0.00000E+00
 -1      2068 1.36035E+02 4.00625E+00 0.00000E+00
 -1      2069 1.40704E+02 3.09687E+00 0.00000E+00
 -1      2070 1.39204E+02 3.09687E+00 0.00000E+00
 -1      2071 1.39035E+02 4.00625E+00 0.00000E+00
 -1      2072 1.43704E+02 3.09687E+00 0.00000E+00
 -1      2073 1.42204E+02 3.09687E+00 0.00000E+00
 -1      2074 1.42035E+02 4.00625E+00 0.00000E+00
 -1      2075 1.46171E+02 3.20156E+00 0.00000E+00
 -1      2076 1.44671E+02 3.20156E+00 0.00000E+00
 -1      2077 1.44502E+02 4.11094E+00 0.00000E+00
 -1      2078 1.46435E+02 4.32031E+00 0.00000E+00
 -1      2079 1.46103E+02 1.25375E+01 0.00000E+00
 -1      2080 1.46103E+02 1.10625E+01 0.00000E+00
 -1      2081 1.46103E+02 9.58750E+00 0.00000E+00
 -1      2082 1.46103E+02 8.11250E+00 0.00000E+00
 -1      2083 1.44804E+02 1.03250E+01 0.00000E+00
 -1      2084 1.46269E+02 6.95391E+00 0.00000E+00
 -1      2085 1.46269E+02 5.47891E+00 0.00000E+00
 -1      2086 1.45302E+02 5.37422E+00 0.00000E+00
 -1      2087 1.44970E+02 7.69141E+00 0.00000E+00
 -1      2088 1.46103E+02 1.54375E+01 0.00000E+00
 -1      2089 1.46103E+02 1.39875E+01 0.00000E+00
 -1      2090 1.44804E+02 1.32500E+01 0.00000E+00
 -1      2091 1.46103E+02 1.83875E+01 0.00000E+00
 -1      2092 1.46103E+02 1.69125E+01 0.00000E+00
 -1      2093 1.44804E+02 1.61750E+01 0.00000E+00
 -1      2094 1.46103E+02 2.13375E+01 0.00000E+00
 -1      2095 1.46103E+02 1.98625E+01 0.00000E+00
 -1      2096 1.44804E+02 1.91250E+01 0.00000E+00
 -1      2097 1.46103E+02 2.42875E+01 0.00000E+00
 -1      2098 1.46103E+02 2.28125E+01 0.00000E+00
 -1      2099 1.44804E+02 2.20750E+01 0.00000E+00
 -1      2100 1.46103E+02 2.72375E+01 0.00000E+00
 -1      2101 1.46103E+02 2.57625E+01 0.00000E+00
 -1      2102 1.44804E+02 2.50250E+01 0.00000E+00
 -1      2103 1.46103E+02 3.01875E+01 0.00000E+00
 -1      2104 1.46103E+02 2.87125E+01 0.00000E+00
 -1      2105 1.44804E+02 2.79750E+01 0.00000E+00
 -1      2106 1.46103E+02 3.30875E+01 0.00000E+00
 -1      2107 1.46103E+02 3.16375E+01 0.00000E+00
 -1      2108 1.44804E+02 3.09000E+01 0.00000E+00
 -1      2109 1.46103E+02 3.60375E+01 0.00000E+00
 -1      2110 1.46103E+02 3.45625E+01 0.00000E+00
 -1      2111 1.44804E+02 3.38250E+01 0.00000E+00
 -1      2112 1.46103E+02 3.89875E+01 0.00000E+00
 -1      2113 1.46103E+02 3.75125E+01 0.00000E+00
 -1      2114 1.44804E+02 3.67750E+01 0.00000E+00
 -1      2115 1.46103E+02 4.19375E+01 0.00000E+00
 -1      2116 1.46103E+02 4.04625E+01 0.00000E+00
 -1      2117 1.44804E+02 3.97250E+01 0.00000E+00
 -1      2118 8.82808E+01 1.89202E+01 0.00000E+00
 -1      2119 8.86854E+01 1.96986E+01 0.00000E+00
 -1      2120 8.95724E+01 2.26479E+01 0.00000E+00
 -1      2121 8.95236E+01 2.35847E+01 0.00000E+00
 -1      2122 8.91390E+01 2.06373E+01 0.00000E+00
 -1      2123 8.93714E+01 2.15018E+01 0.00000E+00
 -1      2124 8.74135E+01 1.72235E+01 0.00000E+00
 -1      2125 8.78942E+01 1.80474E+01 0.00000E+00
 -1      2126 8.57392E+01 1.57317E+01 0.00000E+00
 -1      2127 8.65429E+01 1.62873E+01 0.00000E+00
 -1      2128 3.89700E+00 3.74688E+01 0.00000E+00
 -1      2129 3.89700E+00 3.89437E+01 0.00000E+00
 -1      2130 5.19600E+00 3.96813E+01 0.00000E+00
 -1      2131 5.19600E+00 3.67438E+01 0.00000E+00
 -1      2132 8.19991E+01 1.41292E+01 0.00000E+00
 -1      2133 8.29295E+01 1.43023E+01 0.00000E+00
 -1      2134 8.00115E+01 1.40810E+01 0.00000E+00
 -1      2135 8.09061E+01 1.40466E+01 0.00000E+00
 -1      2136 7.80603E+01 1.41051E+01 0.00000E+00
 -1      2137 7.90359E+01 1.40930E+01 0.00000E+00
 -1      2138 7.94519E+01 1.32608E+01 0.00000E+00
 -1      2139 7.59165E+01 1.49857E+01 0.00000E+00
 -1      2140 7.68246E+01 1.44988E+01 0.00000E+00
 -1      2141 7.43593E+01 1.64342E+01 0.00000E+00
 -1      2142 7.50374E+01 1.57755E+01 0.00000E+00
 -1      2143 7.30335E+01 1.78838E+01 0.00000E+00
 -1      2144 7.35110E+01 1.71385E+01 0.00000E+00
 -1      2145 7.23212E+01 1.95554E+01 0.00000E+00
 -1      2146 7.27391E+01 1.87906E+01 0.00000E+00
 -1      2147 7.17161E+01 2.13760E+01 0.00000E+00
 -1      2148 7.18804E+01 2.05312E+01 0.00000E+00
 -1      2149 7.15054E+01 2.31495E+01 0.00000E+00
 -1      2150 7.16108E+01 2.22628E+01 0.00000E+00
 -1      2151 7.09745E+01 2.17007E+01 0.00000E+00
 -1      2152 7.17232E+01 2.52340E+01 0.00000E+00
 -1      2153 7.15753E+01 2.42856E+01 0.00000E+00
 -1      2154 7.26134E+01 2.71348E+01 0.00000E+00
 -1      2155 7.21278E+01 2.63430E+01 0.00000E+00
 -1      2156 7.36524E+01 2.86092E+01 0.00000E+00
 -1      2157 7.31428E+01 2.79216E+01 0.00000E+00
 -1      2158 7.49038E+01 3.00475E+01 0.00000E+00
 -1      2159 7.42565E+01 2.93810E+01 0.00000E+00
 -1      2160 7.67419E+01 3.10898E+01 0.00000E+00
 -1      2161 7.58805E+01 3.07192E+01 0.00000E+00
 -1      2162 7.85634E+01 3.16747E+01 0.00000E+00
 -1      2163 7.76877E+01 3.13977E+01 0.00000E+00
 -1      2164 8.05771E+01 3.19675E+01 0.00000E+00
 -1      2165 7.96575E+01 3.19686E+01 0.00000E+00
 -1      2166 8.24536E+01 3.16382E+01 0.00000E+00
 -1      2167 8.15904E+01 3.17942E+01 0.00000E+00
 -1      2168 8.42824E+01 3.12251E+01 0.00000E+00
 -1      2169 8.33680E+01 3.14316E+01 0.00000E+00
 -1      2170 8.30591E+01 3.21886E+01 0.00000E+00
 -1      2171 8.61405E+01 2.99308E+01 0.00000E+00
 -1      2172 8.54565E+01 3.06301E+01 0.00000E+00
 -1      2173 8.76085E+01 2.86076E+01 0.00000E+00
 -1      2174 8.68745E+01 2.92692E+01 0.00000E+00
 -1      2175 8.70557E+01 3.01306E+01 0.00000E+00
 -1      2176 8.85961E+01 2.66093E+01 0.00000E+00
 -1      2177 8.82164E+01 2.75317E+01 0.00000E+00
 -1      2178 8.92955E+01 2.45312E+01 0.00000E+00
 -1      2179 8.90674E+01 2.54777E+01 0.00000E+00
 -1      2180 9.01763E+01 2.41074E+01 0.00000E+00
 -1      2181 8.39884E+01 1.48097E+01 0.00000E+00
 -1      2182 8.48143E+01 1.52595E+01 0.00000E+00
 -1      2183 8.74516E+01 1.63092E+01 0.00000E+00
 -1      2184 6.42300E+00 4.57510E+01 0.00000E+00
 -1      2185 8.56562E+01 1.49008E+01 0.00000E+00
 -1      2186 8.36724E+01 1.39213E+01 0.00000E+00
 -1      2187 7.17300E+00 4.44520E+01 0.00000E+00
 -1      2188 8.95489E+01 1.99299E+01 0.00000E+00
 -1      2189 9.02034E+01 2.20148E+01 0.00000E+00
 -1      2190 1.45665E+02 4.31193E+01 0.00000E+00
 -1      2191 8.87087E+01 1.81183E+01 0.00000E+00
 -1      2192 8.83977E+01 2.83931E+01 0.00000E+00
 -1      2193 8.85789E+01 2.92545E+01 0.00000E+00
 -1      2194 8.91868E+01 2.81786E+01 0.00000E+00
 -1      2195 8.51476E+01 3.13871E+01 0.00000E+00
 -1      2196 8.48387E+01 3.21441E+01 0.00000E+00
 -1      2197 8.60128E+01 3.15492E+01 0.00000E+00
 -1      2198 8.11314E+01 3.25685E+01 0.00000E+00
 -1      2199 7.90241E+01 3.24480E+01 0.00000E+00
 -1      2200 7.69843E+01 3.18462E+01 0.00000E+00
 -1      2201 7.50618E+01 3.08667E+01 0.00000E+00
 -1      2202 7.42432E+01 3.10141E+01 0.00000E+00
 -1      2203 7.52199E+01 3.16858E+01 0.00000E+00
 -1      2204 7.34811E+01 2.94231E+01 0.00000E+00
 -1      2205 7.23475E+01 2.78645E+01 0.00000E+00
 -1      2206 7.09390E+01 2.37236E+01 0.00000E+00
 -1      2207 7.15206E+01 1.98381E+01 0.00000E+00
 -1      2208 7.22558E+01 1.79553E+01 0.00000E+00
 -1      2209 7.33985E+01 1.63442E+01 0.00000E+00
 -1      2210 7.72406E+01 1.36666E+01 0.00000E+00
 -1      2211 8.15205E+01 1.33313E+01 0.00000E+00
 -1      2212 7.51259E+01 1.48501E+01 0.00000E+00
 -1      2213 7.14135E+01 2.59687E+01 0.00000E+00
 -1      2214 7.06992E+01 2.55944E+01 0.00000E+00
 -1      2215 7.11038E+01 2.67034E+01 0.00000E+00
 -1      2216 8.94769E+01 2.61855E+01 0.00000E+00
 -1      2217 1.07850E+01 5.30525E+00 0.00000E+00
 -1      2218 9.28500E+00 5.30525E+00 0.00000E+00
 -1      2219 6.49500E+00 3.01125E+01 0.00000E+00
 -1      2220 6.49500E+00 3.15875E+01 0.00000E+00
 -1      2221 6.49500E+00 3.30625E+01 0.00000E+00
 -1      2222 6.49500E+00 3.45375E+01 0.00000E+00
 -1      2223 7.79400E+00 3.23250E+01 0.00000E+00
 -1      2224 6.49500E+00 2.42125E+01 0.00000E+00
 -1      2225 6.49500E+00 2.56875E+01 0.00000E+00
 -1      2226 6.49500E+00 2.12625E+01 0.00000E+00
 -1      2227 6.49500E+00 2.27375E+01 0.00000E+00
 -1      2228 7.79400E+00 2.34750E+01 0.00000E+00
 -1      2229 6.49500E+00 1.83625E+01 0.00000E+00
 -1      2230 6.49500E+00 1.98125E+01 0.00000E+00
 -1      2231 7.79400E+00 2.05500E+01 0.00000E+00
 -1      2232 6.49500E+00 1.54125E+01 0.00000E+00
 -1      2233 6.49500E+00 1.68875E+01 0.00000E+00
 -1      2234 7.79400E+00 1.76250E+01 0.00000E+00
 -1      2235 6.49500E+00 1.24625E+01 0.00000E+00
 -1      2236 6.49500E+00 1.39375E+01 0.00000E+00
 -1      2237 7.79400E+00 1.46750E+01 0.00000E+00
 -1      2238 6.49500E+00 9.51250E+00 0.00000E+00
 -1      2239 6.49500E+00 1.09875E+01 0.00000E+00
 -1      2240 7.79400E+00 1.17250E+01 0.00000E+00
 -1      2241 1.37850E+01 5.30525E+00 0.00000E+00
 -1      2242 1.22850E+01 5.30525E+00 0.00000E+00
 -1      2243 1.15350E+01 6.60425E+00 0.00000E+00
 -1      2244 9.90000E+00 4.35050E+01 0.00000E+00
 -1      2245 1.14000E+01 4.35050E+01 0.00000E+00
 -1      2246 8.55837E+01 1.39010E+01 0.00000E+00
 -1      2247 8.65085E+01 1.43731E+01 0.00000E+00
 -1      2248 1.29000E+01 4.35050E+01 0.00000E+00
 -1      2249 1.44000E+01 4.35050E+01 0.00000E+00
 -1      2250 1.21500E+01 4.22060E+01 0.00000E+00
 -1      2251 1.59000E+01 4.35050E+01 0.00000E+00
 -1      2252 1.74000E+01 4.35050E+01 0.00000E+00
 -1      2253 1.51500E+01 4.22060E+01 0.00000E+00
 -1      2254 1.89000E+01 4.35050E+01 0.00000E+00
 -1      2255 2.04000E+01 4.35050E+01 0.00000E+00
 -1      2256 1.81500E+01 4.22060E+01 0.00000E+00
 -1      2257 2.19000E+01 4.35050E+01 0.00000E+00
 -1      2258 2.34000E+01 4.35050E+01 0.00000E+00
 -1      2259 2.11500E+01 4.22060E+01 0.00000E+00
 -1      2260 2.49000E+01 4.35050E+01 0.00000E+00
 -1      2261 2.64000E+01 4.35050E+01 0.00000E+00
 -1      2262 2.41500E+01 4.22060E+01 0.00000E+00
 -1      2263 2.79000E+01 4.35050E+01 0.00000E+00
 -1      2264 2.94000E+01 4.35050E+01 0.00000E+00
 -1      2265 2.71500E+01 4.22060E+01 0.00000E+00
 -1      2266 3.09000E+01 4.35050E+01 0.00000E+00
 -1      2267 3.24000E+01 4.35050E+01 0.00000E+00
 -1      2268 3.01500E+01 4.22060E+01 0.00000E+00
 -1      2269 3.39000E+01 4.35050E+01 0.00000E+00
 -1      2270 3.54000E+01 4.35050E+01 0.00000E+00
 -1      2271 3.31500E+01 4.22060E+01 0.00000E+00
 -1      2272 3.69000E+01 4.35050E+01 0.00000E+00
 -1      2273 3.84000E+01 4.35050E+01 0.00000E+00
 -1      2274 3.61500E+01 4.22060E+01 0.00000E+00
 -1      2275 3.99000E+01 4.35050E+01 0.00000E+00
 -1      2276 4.14000E+01 4.35050E+01 0.00000E+00
 -1      2277 3.91500E+01 4.22060E+01 0.00000E+00
 -1      2278 4.29000E+01 4.35050E+01 0.00000E+00
 -1      2279 4.44000E+01 4.35050E+01 0.00000E+00
 -1      2280 4.21500E+01 4.22060E+01 0.00000E+00
 -1      2281 4.59000E+01 4.35050E+01 0.00000E+00
 -1      2282 4.74000E+01 4.35050E+01 0.00000E+00
 -1      2283 4.51500E+01 4.22060E+01 0.00000E+00
 -1      2284 4.89000E+01 4.35050E+01 0.00000E+00
 -1      2285 5.04000E+01 4.35050E+01 0.00000E+00
 -1      2286 4.81500E+01 4.22060E+01 0.00000E+00
 -1      2287 5.19000E+01 4.35050E+01 0.00000E+00
 -1      2288 5.34000E+01 4.35050E+01 0.00000E+00
 -1      2289 5.11500E+01 4.22060E+01 0.00000E+00
 -1      2290 5.49000E+01 4.35050E+01 0.00000E+00
 -1      2291 5.64000E+01 4.35050E+01 0.00000E+00
 -1      2292 5.41500E+01 4.22060E+01 0.00000E+00
 -1      2293 5.79000E+01 4.35050E+01 0.00000E+00
 -1      2294 5.94000E+01 4.35050E+01 0.00000E+00
 -1      2295 5.71500E+01 4.22060E+01 0.00000E+00
 -1      2296 6.09000E+01 4.35050E+01 0.00000E+00
 -1      2297 6.24000E+01 4.35050E+01 0.00000E+00
 -1      2298 6.01500E+01 4.22060E+01 0.00000E+00
 -1      2299 6.39000E+01 4.35050E+01 0.00000E+00
 -1      2300 6.54000E+01 4.35050E+01 0.00000E+00
 -1      2301 6.31500E+01 4.22060E+01 0.00000E+00
 -1      2302 6.69000E+01 4.35050E+01 0.00000E+00
 -1      2303 6.84000E+01 4.35050E+01 0.00000E+00
 -1      2304 6.61500E+01 4.22060E+01 0.00000E+00
 -1      2305 6.99000E+01 4.35050E+01 0.00000E+00
 -1      2306 7.14000E+01 4.35050E+01 0.00000E+00
 -1      2307 6.91500E+01 4.22060E+01 0.00000E+00
 -1      2308 7.29000E+01 4.35050E+01 0.00000E+00
 -1      2309 7.44000E+01 4.35050E+01 0.00000E+00
 -1      2310 7.21500E+01 4.22060E+01 0.00000E+00
 -1      2311 7.59000E+01 4.35050E+01 0.00000E+00
 -1      2312 7.74000E+01 4.35050E+01 0.00000E+00
 -1      2313 7.51500E+01 4.22060E+01 0.00000E+00
 -1      2314 7.89000E+01 4.35050E+01 0.00000E+00
 -1      2315 8.04000E+01 4.35050E+01 0.00000E+00
 -1      2316 7.81500E+01 4.22060E+01 0.00000E+00
 -1      2317 8.19000E+01 4.35050E+01 0.00000E+00
 -1      2318 8.34000E+01 4.35050E+01 0.00000E+00
 -1      2319 8.11500E+01 4.22060E+01 0.00000E+00
 -1      2320 8.49000E+01 4.35050E+01 0.00000E+00
 -1      2321 8.64000E+01 4.35050E+01 0.00000E+00
 -1      2322 8.41500E+01 4.22060E+01 0.00000E+00
 -1      2323 8.79000E+01 4.35050E+01 0.00000E+00
 -1      2324 8.94000E+01 4.35050E+01 0.00000E+00
 -1      2325 8.71500E+01 4.22060E+01 0.00000E+00
 -1      2326 9.09000E+01 4.35050E+01 0.00000E+00
 -1      2327 9.24000E+01 4.35050E+01 0.00000E+00
 -1      2328 9.01500E+01 4.22060E+01 0.00000E+00
 -1      2329 9.39000E+01 4.35050E+01 0.00000E+00
 -1      2330 9.54000E+01 4.35050E+01 0.00000E+00
 -1      2331 9.31500E+01 4.22060E+01 0.00000E+00
 -1      2332 9.69000E+01 4.35050E+01 0.00000E+00
 -1      2333 9.84000E+01 4.35050E+01 0.00000E+00
 -1      2334 9.61500E+01 4.22060E+01 0.00000E+00
 -1      2335 9.99000E+01 4.35050E+01 0.00000E+00
 -1      2336 1.01400E+02 4.35050E+01 0.00000E+00
 -1      2337 9.91500E+01 4.22060E+01 0.00000E+00
 -1      2338 1.02900E+02 4.35050E+01 0.00000E+00
 -1      2339 1.04400E+02 4.35050E+01 0.00000E+00
 -1      2340 1.02150E+02 4.22060E+01 0.00000E+00
 -1      2341 1.05900E+02 4.35050E+01 0.00000E+00
 -1      2342 1.07400E+02 4.35050E+01 0.00000E+00
 -1      2343 1.05150E+02 4.22060E+01 0.00000E+00
 -1      2344 1.08900E+02 4.35050E+01 0.00000E+00
 -1      2345 1.10400E+02 4.35050E+01 0.00000E+00
 -1      2346 1.08150E+02 4.22060E+01 0.00000E+00
 -1      2347 1.11900E+02 4.35050E+01 0.00000E+00
 -1      2348 1.13400E+02 4.35050E+01 0.00000E+00
 -1      2349 1.11150E+02 4.22060E+01 0.00000E+00
 -1      2350 1.14900E+02 4.35050E+01 0.00000E+00
 -1      2351 1.16400E+02 4.35050E+01 0.00000E+00
 -1      2352 1.14150E+02 4.22060E+01 0.00000E+00
 -1      2353 1.17900E+02 4.35050E+01 0.00000E+00
 -1      2354 1.19400E+02 4.35050E+01 0.00000E+00
 -1      2355 1.17150E+02 4.22060E+01 0.00000E+00
 -1      2356 1.20900E+02 4.35050E+01 0.00000E+00
 -1      2357 1.22400E+02 4.35050E+01 0.00000E+00
 -1      2358 1.20150E+02 4.22060E+01 0.00000E+00
 -1      2359 1.23900E+02 4.35050E+01 0.00000E+00
 -1      2360 1.25400E+02 4.35050E+01 0.00000E+00
 -1      2361 1.23150E+02 4.22060E+01 0.00000E+00
 -1      2362 1.26900E+02 4.35050E+01 0.00000E+00
 -1      2363 1.28400E+02 4.35050E+01 0.00000E+00
 -1      2364 1.26150E+02 4.22060E+01 0.00000E+00
 -1      2365 1.29900E+02 4.35050E+01 0.00000E+00
 -1      2366 1.31400E+02 4.35050E+01 0.00000E+00
 -1      2367 1.29150E+02 4.22060E+01 0.00000E+00
 -1      2368 1.32900E+02 4.35050E+01 0.00000E+00
 -1      2369 1.34400E+02 4.35050E+01 0.00000E+00
 -1      2370 1.32150E+02 4.22060E+01 0.00000E+00
 -1      2371 1.35900E+02 4.35050E+01 0.00000E+00
 -1      2372 1.37400E+02 4.35050E+01 0.00000E+00
 -1      2373 1.35150E+02 4.22060E+01 0.00000E+00
 -1      2374 1.38900E+02 4.35050E+01 0.00000E+00
 -1      2375 1.40400E+02 4.35050E+01 0.00000E+00
 -1      2376 1.38150E+02 4.22060E+01 0.00000E+00
 -1      2377 1.97850E+01 5.30525E+00 0.00000E+00
 -1      2378 1.82850E+01 5.30525E+00 0.00000E+00
 -1      2379 2.27850E+01 5.30525E+00 0.00000E+00
 -1      2380 2.12850E+01 5.30525E+00 0.00000E+00
 -1      2381 2.05350E+01 6.60425E+00 0.00000E+00
 -1      2382 2.57850E+01 5.30525E+00 0.00000E+00
 -1      2383 2.42850E+01 5.30525E+00 0.00000E+00
 -1      2384 2.35350E+01 6.60425E+00 0.00000E+00
 -1      2385 2.87850E+01 5.30525E+00 0.00000E+00
 -1      2386 2.72850E+01 5.30525E+00 0.00000E+00
 -1      2387 2.65350E+01 6.60425E+00 0.00000E+00
 -1      2388 3.17850E+01 5.30525E+00 0.00000E+00
 -1      2389 3.02850E+01 5.30525E+00 0.00000E+00
 -1      2390 2.95350E+01 6.60425E+00 0.00000E+00
 -1      2391 3.47850E+01 5.30525E+00 0.00000E+00
 -1      2392 3.32850E+01 5.30525E+00 0.00000E+00
 -1      2393 3.25350E+01 6.60425E+00 0.00000E+00
 -1      2394 3.77850E+01 5.30525E+00 0.00000E+00
 -1      2395 3.62850E+01 5.30525E+00 0.00000E+00
 -1      2396 3.55350E+01 6.60425E+00 0.00000E+00
 -1      2397 4.07850E+01 5.30525E+00 0.00000E+00
 -1      2398 3.92850E+01 5.30525E+00 0.00000E+00
 -1      2399 3.85350E+01 6.60425E+00 0.00000E+00
 -1      2400 4.37850E+01 5.30525E+00 0.00000E+00
 -1      2401 4.22850E+01 5.30525E+00 0.00000E+00
 -1      2402 4.15350E+01 6.60425E+00 0.00000E+00
 -1      2403 4.67850E+01 5.30525E+00 0.00000E+00
 -1      2404 4.52850E+01 5.30525E+00 0.00000E+00
 -1      2405 4.45350E+01 6.60425E+00 0.00000E+00
 -1      2406 4.97850E+01 5.30525E+00 0.00000E+00
 -1      2407 4.82850E+01 5.30525E+00 0.00000E+00
 -1      2408 4.75350E+01 6.60425E+00 0.00000E+00
 -1      2409 5.27850E+01 5.30525E+00 0.00000E+00
 -1      2410 5.12850E+01 5.30525E+00 0.00000E+00
 -1      2411 5.05350E+01 6.60425E+00 0.00000E+00
 -1      2412 5.57850E+01 5.30525E+00 0.00000E+00
 -1      2413 5.42850E+01 5.30525E+00 0.00000E+00
 -1      2414 5.35350E+01 6.60425E+00 0.00000E+00
 -1      2415 5.87850E+01 5.30525E+00 0.00000E+00
 -1      2416 5.72850E+01 5.30525E+00 0.00000E+00
 -1      2417 5.65350E+01 6.60425E+00 0.00000E+00
 -1      2418 6.17850E+01 5.30525E+00 0.00000E+00
 -1      2419 6.02850E+01 5.30525E+00 0.00000E+00
 -1      2420 5.95350E+01 6.60425E+00 0.00000E+00
 -1      2421 6.47850E+01 5.30525E+00 0.00000E+00
 -1      2422 6.32850E+01 5.30525E+00 0.00000E+00
 -1      2423 6.25350E+01 6.60425E+00 0.00000E+00
 -1      2424 6.77850E+01 5.30525E+00 0.00000E+00
 -1      2425 6.62850E+01 5.30525E+00 0.00000E+00
 -1      2426 6.55350E+01 6.60425E+00 0.00000E+00
 -1      2427 7.07850E+01 5.30525E+00 0.00000E+00
 -1      2428 6.92850E+01 5.30525E+00 0.00000E+00
 -1      2429 6.85350E+01 6.60425E+00 0.00000E+00
 -1      2430 7.37850E+01 5.30525E+00 0.00000E+00
 -1      2431 7.22850E+01 5.30525E+00 0.00000E+00
 -1      2432 7.15350E+01 6.60425E+00 0.00000E+00
 -1      2433 7.67850E+01 5.30525E+00 0.00000E+00
 -1      2434 7.52850E+01 5.30525E+00 0.00000E+00
 -1      2435 7.45350E+01 6.60425E+00 0.00000E+00
 -1      2436 7.97850E+01 5.30525E+00 0.00000E+00
 -1      2437 7.82850E+01 5.30525E+00 0.00000E+00
 -1      2438 7.75350E+01 6.60425E+00 0.00000E+00
 -1      2439 8.27850E+01 5.30525E+00 0.00000E+00
 -1      2440 8.12850E+01 5.30525E+00 0.00000E+00
 -1      2441 8.05350E+01 6.60425E+00 0.00000E+00
 -1      2442 8.57850E+01 5.30525E+00 0.00000E+00
 -1      2443 8.42850E+01 5.30525E+00 0.00000E+00
 -1      2444 8.35350E+01 6.60425E+00 0.00000E+00
 -1      2445 8.87850E+01 5.30525E+00 0.00000E+00
 -1      2446 8.72850E+01 5.30525E+00 0.00000E+00
 -1      2447 8.65350E+01 6.60425E+00 0.00000E+00
 -1      2448 9.17850E+01 5.30525E+00 0.00000E+00
 -1      2449 9.02850E+01 5.30525E+00 0.00000E+00
 -1      2450 8.95350E+01 6.60425E+00 0.00000E+00
 -1      2451 9.47850E+01 5.30525E+00 0.00000E+00
 -1      2452 9.32850E+01 5.30525E+00 0.00000E+00
 -1      2453 9.25350E+01 6.60425E+00 0.00000E+00
 -1      2454 9.77850E+01 5.30525E+00 0.00000E+00
 -1      2455 9.62850E+01 5.30525E+00 0.00000E+00
 -1      2456 9.55350E+01 6.60425E+00 0.00000E+00
 -1      2457 1.00785E+02 5.30525E+00 0.00000E+00
 -1      2458 9.92850E+01 5.30525E+00 0.00000E+00
 -1      2459 9.85350E+01 6.60425E+00 0.00000E+00
 -1      2460 1.03785E+02 5.30525E+00 0.00000E+00
 -1      2461 1.02285E+02 5.30525E+00 0.00000E+00
 -1      2462 1.01535E+02 6.60425E+00 0.00000E+00
 -1      2463 1.06785E+02 5.30525E+00 0.00000E+00
 -1      2464 1.05285E+02 5.30525E+00 0.00000E+00
 -1      2465 1.04535E+02 6.60425E+00 0.00000E+00
 -1      2466 1.09785E+02 5.30525E+00 0.00000E+00
 -1      2467 1.08285E+02 5.30525E+00 0.00000E+00
 -1      2468 1.07535E+02 6.60425E+00 0.00000E+00
 -1      2469 1.12785E+02 5.30525E+00 0.00000E+00
 -1      2470 1.11285E+02 5.30525E+00 0.00000E+00
 -1      2471 1.10535E+02 6.60425E+00 0.00000E+00
 -1      2472 1.15785E+02 5.30525E+00 0.00000E+00
 -1      2473 1.14285E+02 5.30525E+00 0.00000E+00
 -1      2474 1.13535E+02 6.60425E+00 0.00000E+00
 -1      2475 1.18785E+02 5.30525E+00 0.00000E+00
 -1      2476 1.17285E+02 5.30525E+00 0.00000E+00
 -1      2477 1.16535E+02 6.60425E+00 0.00000E+00
 -1      2478 1.21785E+02 5.30525E+00 0.00000E+00
 -1      2479 1.20285E+02 5.30525E+00 0.00000E+00
 -1      2480 1.19535E+02 6.60425E+00 0.00000E+00
 -1      2481 1.24785E+02 5.30525E+00 0.00000E+00
 -1      2482 1.23285E+02 5.30525E+00 0.00000E+00
 -1      2483 1.22535E+02 6.60425E+00 0.00000E+00
 -1      2484 1.27785E+02 5.30525E+00 0.00000E+00
 -1      2485 1.26285E+02 5.30525E+00 0.00000E+00
 -1      2486 1.25535E+02 6.60425E+00 0.00000E+00
 -1      2487 1.30785E+02 5.30525E+00 0.00000E+00
 -1      2488 1.29285E+02 5.30525E+00 0.00000E+00
 -1      2489 1.28535E+02 6.60425E+00 0.00000E+00
 -1      2490 1.33785E+02 5.30525E+00 0.00000E+00
 -1      2491 1.32285E+02 5.30525E+00 0.00000E+00
 -1      2492 1.31535E+02 6.60425E+00 0.00000E+00
 -1      2493 1.36785E+02 5.30525E+00 0.00000E+00
 -1      2494 1.35285E+02 5.30525E+00 0.00000E+00
 -1      2495 1.34535E+02 6.60425E+00 0.00000E+00
 -1      2496 1.39785E+02 5.30525E+00 0.00000E+00
 -1      2497 1.38285E+02 5.30525E+00 0.00000E+00
 -1      2498 1.37535E+02 6.60425E+00 0.00000E+00
 -1      2499 1.42785E+02 5.30525E+00 0.00000E+00
 -1      2500 1.41285E+02 5.30525E+00 0.00000E+00
 -1      2501 1.40535E+02 6.60425E+00 0.00000E+00
 -1      2502 1.44336E+02 5.26953E+00 0.00000E+00
 -1      2503 1.43505E+02 1.69125E+01 0.00000E+00
 -1      2504 1.43505E+02 1.54375E+01 0.00000E+00
 -1      2505 1.43505E+02 1.98625E+01 0.00000E+00
 -1      2506 1.43505E+02 1.83875E+01 0.00000E+00
 -1      2507 1.42206E+02 1.76500E+01 0.00000E+00
 -1      2508 1.43505E+02 1.10625E+01 0.00000E+00
 -1      2509 1.43505E+02 9.58750E+00 0.00000E+00
 -1      2510 1.43505E+02 1.39750E+01 0.00000E+00
 -1      2511 1.43505E+02 1.25250E+01 0.00000E+00
 -1      2512 1.42206E+02 1.17875E+01 0.00000E+00
 -1      2513 1.42206E+02 1.47125E+01 0.00000E+00
 -1      2514 1.43505E+02 2.28125E+01 0.00000E+00
 -1      2515 1.43505E+02 2.13375E+01 0.00000E+00
 -1      2516 1.42206E+02 2.06000E+01 0.00000E+00
 -1      2517 1.43505E+02 2.57625E+01 0.00000E+00
 -1      2518 1.43505E+02 2.42875E+01 0.00000E+00
 -1      2519 1.42206E+02 2.35500E+01 0.00000E+00
 -1      2520 1.43505E+02 2.87125E+01 0.00000E+00
 -1      2521 1.43505E+02 2.72375E+01 0.00000E+00
 -1      2522 1.42206E+02 2.65000E+01 0.00000E+00
 -1      2523 1.43505E+02 3.16125E+01 0.00000E+00
 -1      2524 1.43505E+02 3.01625E+01 0.00000E+00
 -1      2525 1.42206E+02 2.94250E+01 0.00000E+00
 -1      2526 1.43505E+02 3.45625E+01 0.00000E+00
 -1      2527 1.43505E+02 3.30875E+01 0.00000E+00
 -1      2528 1.42206E+02 3.23500E+01 0.00000E+00
 -1      2529 1.43505E+02 3.75125E+01 0.00000E+00
 -1      2530 1.43505E+02 3.60375E+01 0.00000E+00
 -1      2531 1.42206E+02 3.53000E+01 0.00000E+00
 -1      2532 1.43505E+02 4.04625E+01 0.00000E+00
 -1      2533 1.43505E+02 3.89875E+01 0.00000E+00
 -1      2534 1.42206E+02 3.82500E+01 0.00000E+00
 -1      2535 9.09063E+01 2.13008E+01 0.00000E+00
 -1      2536 9.11073E+01 2.24470E+01 0.00000E+00
 -1      2537 8.92996E+01 1.73346E+01 0.00000E+00
 -1      2538 8.96861E+01 1.82075E+01 0.00000E+00
 -1      2539 1.67850E+01 5.30525E+00 0.00000E+00
 -1      2540 1.52850E+01 5.30525E+00 0.00000E+00
 -1      2541 1.75350E+01 6.60425E+00 0.00000E+00
 -1      2542 8.34658E+01 1.28861E+01 0.00000E+00
 -1      2543 8.45248E+01 1.33936E+01 0.00000E+00
 -1      2544 8.53771E+01 1.28658E+01 0.00000E+00
 -1      2545 1.44321E+02 4.30606E+01 0.00000E+00
 -1      2546 9.01397E+01 1.91462E+01 0.00000E+00
 -1      2547 9.05932E+01 2.00849E+01 0.00000E+00
 -1      2548 9.07305E+01 1.83625E+01 0.00000E+00
 -1      2549 9.11240E+01 2.38351E+01 0.00000E+00
 -1      2550 9.08959E+01 2.47816E+01 0.00000E+00
 -1      2551 8.17685E+01 3.32445E+01 0.00000E+00
 -1      2552 8.07552E+01 3.34178E+01 0.00000E+00
 -1      2553 7.05187E+01 1.99730E+01 0.00000E+00
 -1      2554 7.09595E+01 1.89971E+01 0.00000E+00
 -1      2555 6.49500E+00 2.71625E+01 0.00000E+00
 -1      2556 6.49500E+00 2.86375E+01 0.00000E+00
 -1      2557 7.79400E+00 2.93750E+01 0.00000E+00
 -1      2558 7.79400E+00 2.64250E+01 0.00000E+00
 -1      2559 8.10386E+01 1.24349E+01 0.00000E+00
 -1      2560 8.21316E+01 1.25175E+01 0.00000E+00
 -1      2561 7.41412E+01 1.46383E+01 0.00000E+00
 -1      2562 7.50202E+01 1.38485E+01 0.00000E+00
 -1      2563 7.89545E+01 1.24931E+01 0.00000E+00
 -1      2564 7.99301E+01 1.24811E+01 0.00000E+00
 -1      2565 7.63370E+01 1.29665E+01 0.00000E+00
 -1      2566 7.75727E+01 1.25728E+01 0.00000E+00
 -1      2567 7.24266E+01 1.60366E+01 0.00000E+00
 -1      2568 7.32749E+01 1.53323E+01 0.00000E+00
 -1      2569 7.12539E+01 1.80903E+01 0.00000E+00
 -1      2570 7.15482E+01 1.71834E+01 0.00000E+00
 -1      2571 7.02519E+01 1.82252E+01 0.00000E+00
 -1      2572 6.99870E+01 2.20330E+01 0.00000E+00
 -1      2573 7.00924E+01 2.11463E+01 0.00000E+00
 -1      2574 9.05042E+01 2.59494E+01 0.00000E+00
 -1      2575 9.00329E+01 2.70810E+01 0.00000E+00
 -1      2576 7.01268E+01 2.43052E+01 0.00000E+00
 -1      2577 7.00569E+01 2.31691E+01 0.00000E+00
 -1      2578 6.91748E+01 2.26147E+01 0.00000E+00
 -1      2579 7.19703E+01 2.86899E+01 0.00000E+00
 -1      2580 7.14408E+01 2.79031E+01 0.00000E+00
 -1      2581 7.31785E+01 3.02335E+01 0.00000E+00
 -1      2582 7.25744E+01 2.94617E+01 0.00000E+00
 -1      2583 7.16677E+01 2.95003E+01 0.00000E+00
 -1      2584 7.71917E+01 3.28156E+01 0.00000E+00
 -1      2585 7.62459E+01 3.25077E+01 0.00000E+00
 -1      2586 7.93798E+01 3.34033E+01 0.00000E+00
 -1      2587 7.82858E+01 3.31095E+01 0.00000E+00
 -1      2588 7.75474E+01 3.37710E+01 0.00000E+00
 -1      2589 8.35973E+01 3.28314E+01 0.00000E+00
 -1      2590 8.26829E+01 3.30380E+01 0.00000E+00
 -1      2591 8.23067E+01 3.38873E+01 0.00000E+00
 -1      2592 8.81091E+01 3.05613E+01 0.00000E+00
 -1      2593 8.73750E+01 3.12229E+01 0.00000E+00
 -1      2594 6.55950E+00 4.28890E+01 0.00000E+00
 -1      2595 8.53650E+00 4.32410E+01 0.00000E+00
 -1      2596 9.28650E+00 4.19420E+01 0.00000E+00
 -1      2597 6.55950E+00 4.14140E+01 0.00000E+00
 -1      2598 8.07525E+00 5.11044E+00 0.00000E+00
 -1      2599 6.57525E+00 5.11044E+00 0.00000E+00
 -1      2600 6.40575E+00 6.01981E+00 0.00000E+00
 -1      2601 8.82525E+00 6.40944E+00 0.00000E+00
 -1      2602 8.76136E+01 1.52856E+01 0.00000E+00
 -1      2603 8.84842E+01 1.62219E+01 0.00000E+00
 -1      2604 8.29839E+01 1.19897E+01 0.00000E+00
 -1      2605 7.79400E+00 3.52687E+01 0.00000E+00
 -1      2606 6.49500E+00 3.60062E+01 0.00000E+00
 -1      2607 6.49500E+00 3.74750E+01 0.00000E+00
 -1      2608 1.45350E+01 6.60425E+00 0.00000E+00
 -1      2609 6.40575E+00 7.49481E+00 0.00000E+00
 -1      2610 8.75411E+01 1.42858E+01 0.00000E+00
 -1      2611 6.55950E+00 3.99453E+01 0.00000E+00
 -1      2612 8.00169E+01 3.40793E+01 0.00000E+00
 -1      2613 7.92785E+01 3.47408E+01 0.00000E+00
 -1      2614 8.06540E+01 3.47554E+01 0.00000E+00
 -1      2615 7.33365E+01 3.10526E+01 0.00000E+00
 -1      2616 7.24298E+01 3.10912E+01 0.00000E+00
 -1      2617 7.34945E+01 3.18718E+01 0.00000E+00
 -1      2618 9.14971E+01 2.05171E+01 0.00000E+00
 -1      2619 6.98171E+01 2.50399E+01 0.00000E+00
 -1      2620 6.89350E+01 2.44855E+01 0.00000E+00
 -1      2621 6.95074E+01 2.57746E+01 0.00000E+00
 -1      2622 1.43586E+02 6.56853E+00 0.00000E+00
 -1      2623 8.94616E+01 1.63110E+01 0.00000E+00
 -1      2624 1.43419E+02 7.72713E+00 0.00000E+00
 -1      2625 9.14519E+01 2.56771E+01 0.00000E+00
 -1      2626 9.18269E+01 2.31211E+01 0.00000E+00
 -1      2627 9.02141E+01 2.79424E+01 0.00000E+00
 -1      2628 9.03953E+01 2.88039E+01 0.00000E+00
 -1      2629 9.12414E+01 2.77063E+01 0.00000E+00
 -1      2630 7.70475E+00 8.23231E+00 0.00000E+00
 -1      2631 8.70661E+01 3.19799E+01 0.00000E+00
 -1      2632 8.88982E+01 3.03468E+01 0.00000E+00
 -1      2633 7.14246E+01 1.61715E+01 0.00000E+00
 -1      2634 7.13010E+01 1.51595E+01 0.00000E+00
 -1      2635 7.04227E+01 1.63064E+01 0.00000E+00
 -1      2636 6.95313E+01 2.03053E+01 0.00000E+00
 -1      2637 7.53523E+01 1.27547E+01 0.00000E+00
 -1      2638 7.56844E+01 1.16610E+01 0.00000E+00
 -1      2639 7.43676E+01 1.25429E+01 0.00000E+00
 -1      2640 7.80509E+01 1.17931E+01 0.00000E+00
 -1      2641 7.54273E+01 3.26552E+01 0.00000E+00
 -1      2642 7.46087E+01 3.28026E+01 0.00000E+00
 -1      2643 7.56347E+01 3.36245E+01 0.00000E+00
 -1      2644 1.42758E+02 4.35929E+01 0.00000E+00
 -1      2645 1.43241E+02 4.17323E+01 0.00000E+00
 -1      2646 1.41942E+02 4.09948E+01 0.00000E+00
 -1      2647 1.41414E+02 4.35342E+01 0.00000E+00
 -1      2648 7.31693E+01 1.43306E+01 0.00000E+00
 -1      2649 8.05412E+01 1.16672E+01 0.00000E+00
 -1      2650 7.07266E+01 2.75288E+01 0.00000E+00
 -1      2651 7.00123E+01 2.71544E+01 0.00000E+00
 -1      2652 7.03493E+01 2.83541E+01 0.00000E+00
 -1      2653 8.44625E+01 3.29935E+01 0.00000E+00
 -1      2654 8.40864E+01 3.38428E+01 0.00000E+00
 -1      2655 8.53278E+01 3.31555E+01 0.00000E+00
 -1      2656 1.42120E+02 8.46463E+00 0.00000E+00
 -1      2657 1.40664E+02 4.22352E+01 0.00000E+00
 -1      2658 9.09300E+00 1.98250E+01 0.00000E+00
 -1      2659 9.09300E+00 2.12750E+01 0.00000E+00
 -1      2660 9.09300E+00 2.27500E+01 0.00000E+00
 -1      2661 9.09300E+00 2.42250E+01 0.00000E+00
 -1      2662 1.03920E+01 2.20250E+01 0.00000E+00
 -1      2663 9.09300E+00 1.39375E+01 0.00000E+00
 -1      2664 9.09300E+00 1.54125E+01 0.00000E+00
 -1      2665 9.09300E+00 1.09875E+01 0.00000E+00
 -1      2666 9.09300E+00 1.24625E+01 0.00000E+00
 -1      2667 1.03920E+01 1.32000E+01 0.00000E+00
 -1      2668 1.22850E+01 7.90325E+00 0.00000E+00
 -1      2669 1.07850E+01 7.90325E+00 0.00000E+00
 -1      2670 8.80056E+01 3.28951E+01 0.00000E+00
 -1      2671 8.66434E+01 3.32214E+01 0.00000E+00
 -1      2672 8.91450E+00 8.42712E+00 0.00000E+00
 -1      2673 7.85850E+00 3.92077E+01 0.00000E+00
 -1      2674 1.44000E+01 4.09070E+01 0.00000E+00
 -1      2675 1.59000E+01 4.09070E+01 0.00000E+00
 -1      2676 1.74000E+01 4.09070E+01 0.00000E+00
 -1      2677 1.89000E+01 4.09070E+01 0.00000E+00
 -1      2678 1.66500E+01 3.96080E+01 0.00000E+00
 -1      2679 2.04000E+01 4.09070E+01 0.00000E+00
 -1      2680 2.19000E+01 4.09070E+01 0.00000E+00
 -1      2681 1.96500E+01 3.96080E+01 0.00000E+00
 -1      2682 2.34000E+01 4.09070E+01 0.00000E+00
 -1      2683 2.49000E+01 4.09070E+01 0.00000E+00
 -1      2684 2.26500E+01 3.96080E+01 0.00000E+00
 -1      2685 2.64000E+01 4.09070E+01 0.00000E+00
 -1      2686 2.79000E+01 4.09070E+01 0.00000E+00
 -1      2687 2.56500E+01 3.96080E+01 0.00000E+00
 -1      2688 2.94000E+01 4.09070E+01 0.00000E+00
 -1      2689 3.09000E+01 4.09070E+01 0.00000E+00
 -1      2690 2.86500E+01 3.96080E+01 0.00000E+00
 -1      2691 3.24000E+01 4.09070E+01 0.00000E+00
 -1      2692 3.39000E+01 4.09070E+01 0.00000E+00
 -1      2693 3.16500E+01 3.96080E+01 0.00000E+00
 -1      2694 3.54000E+01 4.09070E+01 0.00000E+00
 -1      2695 3.69000E+01 4.09070E+01 0.00000E+00
 -1      2696 3.46500E+01 3.96080E+01 0.00000E+00
 -1      2697 3.84000E+01 4.09070E+01 0.00000E+00
 -1      2698 3.99000E+01 4.09070E+01 0.00000E+00
 -1      2699 3.76500E+01 3.96080E+01 0.00000E+00
 -1      2700 4.14000E+01 4.09070E+01 0.00000E+00
 -1      2701 4.29000E+01 4.09070E+01 0.00000E+00
 -1      2702 4.06500E+01 3.96080E+01 0.00000E+00
 -1      2703 4.44000E+01 4.09070E+01 0.00000E+00
 -1      2704 4.59000E+01 4.09070E+01 0.00000E+00
 -1      2705 4.36500E+01 3.96080E+01 0.00000E+00
 -1      2706 4.74000E+01 4.09070E+01 0.00000E+00
 -1      2707 4.89000E+01 4.09070E+01 0.00000E+00
 -1      2708 4.66500E+01 3.96080E+01 0.00000E+00
 -1      2709 5.04000E+01 4.09070E+01 0.00000E+00
 -1      2710 5.19000E+01 4.09070E+01 0.00000E+00
 -1      2711 4.96500E+01 3.96080E+01 0.00000E+00
 -1      2712 5.34000E+01 4.09070E+01 0.00000E+00
 -1      2713 5.49000E+01 4.09070E+01 0.00000E+00
 -1      2714 5.26500E+01 3.96080E+01 0.00000E+00
 -1      2715 5.64000E+01 4.09070E+01 0.00000E+00
 -1      2716 5.79000E+01 4.09070E+01 0.00000E+00
 -1      2717 5.56500E+01 3.96080E+01 0.00000E+00
 -1      2718 5.94000E+01 4.09070E+01 0.00000E+00
 -1      2719 6.09000E+01 4.09070E+01 0.00000E+00
 -1      2720 5.86500E+01 3.96080E+01 0.00000E+00
 -1      2721 6.24000E+01 4.09070E+01 0.00000E+00
 -1      2722 6.39000E+01 4.09070E+01 0.00000E+00
 -1      2723 6.16500E+01 3.96080E+01 0.00000E+00
 -1      2724 6.54000E+01 4.09070E+01 0.00000E+00
 -1      2725 6.69000E+01 4.09070E+01 0.00000E+00
 -1      2726 6.46500E+01 3.96080E+01 0.00000E+00
 -1      2727 6.84000E+01 4.09070E+01 0.00000E+00
 -1      2728 6.99000E+01 4.09070E+01 0.00000E+00
 -1      2729 6.76500E+01 3.96080E+01 0.00000E+00
 -1      2730 7.14000E+01 4.09070E+01 0.00000E+00
 -1      2731 7.29000E+01 4.09070E+01 0.00000E+00
 -1      2732 7.06500E+01 3.96080E+01 0.00000E+00
 -1      2733 7.44000E+01 4.09070E+01 0.00000E+00
 -1      2734 7.59000E+01 4.09070E+01 0.00000E+00
 -1      2735 7.36500E+01 3.96080E+01 0.00000E+00
 -1      2736 7.74000E+01 4.09070E+01 0.00000E+00
 -1      2737 7.89000E+01 4.09070E+01 0.00000E+00
 -1      2738 7.66500E+01 3.96080E+01 0.00000E+00
 -1      2739 8.04000E+01 4.09070E+01 0.00000E+00
 -1      2740 8.19000E+01 4.09070E+01 0.00000E+00
 -1      2741 7.96500E+01 3.96080E+01 0.00000E+00
 -1      2742 8.34000E+01 4.09070E+01 0.00000E+00
 -1      2743 8.49000E+01 4.09070E+01 0.00000E+00
 -1      2744 8.26500E+01 3.96080E+01 0.00000E+00
 -1      2745 8.64000E+01 4.09070E+01 0.00000E+00
 -1      2746 8.79000E+01 4.09070E+01 0.00000E+00
 -1      2747 8.56500E+01 3.96080E+01 0.00000E+00
 -1      2748 8.94000E+01 4.09070E+01 0.00000E+00
 -1      2749 9.09000E+01 4.09070E+01 0.00000E+00
 -1      2750 8.86500E+01 3.96080E+01 0.00000E+00
 -1      2751 9.24000E+01 4.09070E+01 0.00000E+00
 -1      2752 9.39000E+01 4.09070E+01 0.00000E+00
 -1      2753 9.16500E+01 3.96080E+01 0.00000E+00
 -1      2754 9.54000E+01 4.09070E+01 0.00000E+00
 -1      2755 9.69000E+01 4.09070E+01 0.00000E+00
 -1      2756 9.46500E+01 3.96080E+01 0.00000E+00
 -1      2757 9.84000E+01 4.09070E+01 0.00000E+00
 -1      2758 9.99000E+01 4.09070E+01 0.00000E+00
 -1      2759 9.76500E+01 3.96080E+01 0.00000E+00
 -1      2760 1.01400E+02 4.09070E+01 0.00000E+00
 -1      2761 1.02900E+02 4.09070E+01 0.00000E+00
 -1      2762 1.00650E+02 3.96080E+01 0.00000E+00
 -1      2763 1.04400E+02 4.09070E+01 0.00000E+00
 -1      2764 1.05900E+02 4.09070E+01 0.00000E+00
 -1      2765 1.03650E+02 3.96080E+01 0.00000E+00
 -1      2766 1.07400E+02 4.09070E+01 0.00000E+00
 -1      2767 1.08900E+02 4.09070E+01 0.00000E+00
 -1      2768 1.06650E+02 3.96080E+01 0.00000E+00
 -1      2769 1.10400E+02 4.09070E+01 0.00000E+00
 -1      2770 1.11900E+02 4.09070E+01 0.00000E+00
 -1      2771 1.09650E+02 3.96080E+01 0.00000E+00
 -1      2772 1.13400E+02 4.09070E+01 0.00000E+00
 -1      2773 1.14900E+02 4.09070E+01 0.00000E+00
 -1      2774 1.12650E+02 3.96080E+01 0.00000E+00
 -1      2775 1.16400E+02 4.09070E+01 0.00000E+00
 -1      2776 1.17900E+02 4.09070E+01 0.00000E+00
 -1      2777 1.15650E+02 3.96080E+01 0.00000E+00
 -1      2778 1.19400E+02 4.09070E+01 0.00000E+00
 -1      2779 1.20900E+02 4.09070E+01 0.00000E+00
 -1      2780 1.18650E+02 3.96080E+01 0.00000E+00
 -1      2781 1.22400E+02 4.09070E+01 0.00000E+00
 -1      2782 1.23900E+02 4.09070E+01 0.00000E+00
 -1      2783 1.21650E+02 3.96080E+01 0.00000E+00
 -1      2784 1.25400E+02 4.09070E+01 0.00000E+00
 -1      2785 1.26900E+02 4.09070E+01 0.00000E+00
 -1      2786 1.24650E+02 3.96080E+01 0.00000E+00
 -1      2787 1.28400E+02 4.09070E+01 0.00000E+00
 -1      2788 1.29900E+02 4.09070E+01 0.00000E+00
 -1      2789 1.27650E+02 3.96080E+01 0.00000E+00
 -1      2790 1.31400E+02 4.09070E+01 0.00000E+00
 -1      2791 1.32900E+02 4.09070E+01 0.00000E+00
 -1      2792 1.30650E+02 3.96080E+01 0.00000E+00
 -1      2793 1.34400E+02 4.09070E+01 0.00000E+00
 -1      2794 1.35900E+02 4.09070E+01 0.00000E+00
 -1      2795 1.33650E+02 3.96080E+01 0.00000E+00
 -1      2796 1.37400E+02 4.09070E+01 0.00000E+00
 -1      2797 1.38900E+02 4.09070E+01 0.00000E+00
 -1      2798 1.36650E+02 3.96080E+01 0.00000E+00
 -1      2799 2.42850E+01 7.90325E+00 0.00000E+00
 -1      2800 2.27850E+01 7.90325E+00 0.00000E+00
 -1      2801 7.20428E+01 1.38122E+01 0.00000E+00
 -1      2802 7.29091E+01 1.31182E+01 0.00000E+00
 -1      2803 2.12850E+01 7.90325E+00 0.00000E+00
 -1      2804 1.97850E+01 7.90325E+00 0.00000E+00
 -1      2805 2.20350E+01 9.20225E+00 0.00000E+00
 -1      2806 3.02850E+01 7.90325E+00 0.00000E+00
 -1      2807 2.87850E+01 7.90325E+00 0.00000E+00
 -1      2808 3.32850E+01 7.90325E+00 0.00000E+00
 -1      2809 3.17850E+01 7.90325E+00 0.00000E+00
 -1      2810 3.10350E+01 9.20225E+00 0.00000E+00
 -1      2811 3.62850E+01 7.90325E+00 0.00000E+00
 -1      2812 3.47850E+01 7.90325E+00 0.00000E+00
 -1      2813 3.40350E+01 9.20225E+00 0.00000E+00
 -1      2814 3.92850E+01 7.90325E+00 0.00000E+00
 -1      2815 3.77850E+01 7.90325E+00 0.00000E+00
 -1      2816 3.70350E+01 9.20225E+00 0.00000E+00
 -1      2817 4.22850E+01 7.90325E+00 0.00000E+00
 -1      2818 4.07850E+01 7.90325E+00 0.00000E+00
 -1      2819 4.00350E+01 9.20225E+00 0.00000E+00
 -1      2820 4.52850E+01 7.90325E+00 0.00000E+00
 -1      2821 4.37850E+01 7.90325E+00 0.00000E+00
 -1      2822 4.30350E+01 9.20225E+00 0.00000E+00
 -1      2823 4.82850E+01 7.90325E+00 0.00000E+00
 -1      2824 4.67850E+01 7.90325E+00 0.00000E+00
 -1      2825 4.60350E+01 9.20225E+00 0.00000E+00
 -1      2826 5.12850E+01 7.90325E+00 0.00000E+00
 -1      2827 4.97850E+01 7.90325E+00 0.00000E+00
 -1      2828 4.90350E+01 9.20225E+00 0.00000E+00
 -1      2829 5.42850E+01 7.90325E+00 0.00000E+00
 -1      2830 5.27850E+01 7.90325E+00 0.00000E+00
 -1      2831 5.20350E+01 9.20225E+00 0.00000E+00
 -1      2832 5.72850E+01 7.90325E+00 0.00000E+00
 -1      2833 5.57850E+01 7.90325E+00 0.00000E+00
 -1      2834 5.50350E+01 9.20225E+00 0.00000E+00
 -1      2835 6.02850E+01 7.90325E+00 0.00000E+00
 -1      2836 5.87850E+01 7.90325E+00 0.00000E+00
 -1      2837 5.80350E+01 9.20225E+00 0.00000E+00
 -1      2838 6.32850E+01 7.90325E+00 0.00000E+00
 -1      2839 6.17850E+01 7.90325E+00 0.00000E+00
 -1      2840 6.10350E+01 9.20225E+00 0.00000E+00
 -1      2841 6.62850E+01 7.90325E+00 0.00000E+00
 -1      2842 6.47850E+01 7.90325E+00 0.00000E+00
 -1      2843 6.40350E+01 9.20225E+00 0.00000E+00
 -1      2844 6.92850E+01 7.90325E+00 0.00000E+00
 -1      2845 6.77850E+01 7.90325E+00 0.00000E+00
 -1      2846 6.70350E+01 9.20225E+00 0.00000E+00
 -1      2847 7.22850E+01 7.90325E+00 0.00000E+00
 -1      2848 7.07850E+01 7.90325E+00 0.00000E+00
 -1      2849 7.00350E+01 9.20225E+00 0.00000E+00
 -1      2850 7.53674E+01 9.02670E+00 0.00000E+00
 -1      2851 7.38674E+01 9.02670E+00 0.00000E+00
 -1      2852 8.12850E+01 7.79695E+00 0.00000E+00
 -1      2853 7.97850E+01 7.79695E+00 0.00000E+00
 -1      2854 8.42850E+01 7.79695E+00 0.00000E+00
 -1      2855 8.27850E+01 7.79695E+00 0.00000E+00
 -1      2856 8.20350E+01 8.98964E+00 0.00000E+00
 -1      2857 8.72850E+01 7.79695E+00 0.00000E+00
 -1      2858 8.57850E+01 7.79695E+00 0.00000E+00
 -1      2859 8.50350E+01 8.98964E+00 0.00000E+00
 -1      2860 9.02850E+01 7.79695E+00 0.00000E+00
 -1      2861 8.87850E+01 7.79695E+00 0.00000E+00
 -1      2862 8.80350E+01 8.98964E+00 0.00000E+00
 -1      2863 9.32850E+01 7.79695E+00 0.00000E+00
 -1      2864 9.17850E+01 7.79695E+00 0.00000E+00
 -1      2865 9.10350E+01 8.98964E+00 0.00000E+00
 -1      2866 9.62850E+01 7.79695E+00 0.00000E+00
 -1      2867 9.47850E+01 7.79695E+00 0.00000E+00
 -1      2868 9.40350E+01 8.98964E+00 0.00000E+00
 -1      2869 9.92850E+01 7.79695E+00 0.00000E+00
 -1      2870 9.77850E+01 7.79695E+00 0.00000E+00
 -1      2871 9.70350E+01 8.98964E+00 0.00000E+00
 -1      2872 1.02285E+02 7.79695E+00 0.00000E+00
 -1      2873 1.00785E+02 7.79695E+00 0.00000E+00
 -1      2874 1.00035E+02 8.98964E+00 0.00000E+00
 -1      2875 1.05285E+02 7.79695E+00 0.00000E+00
 -1      2876 1.03785E+02 7.79695E+00 0.00000E+00
 -1      2877 1.03035E+02 8.98964E+00 0.00000E+00
 -1      2878 1.08285E+02 7.79695E+00 0.00000E+00
 -1      2879 1.06785E+02 7.79695E+00 0.00000E+00
 -1      2880 1.06035E+02 8.98964E+00 0.00000E+00
 -1      2881 1.11285E+02 7.79695E+00 0.00000E+00
 -1      2882 1.09785E+02 7.79695E+00 0.00000E+00
 -1      2883 1.09035E+02 8.98964E+00 0.00000E+00
 -1      2884 1.14285E+02 7.79695E+00 0.00000E+00
 -1      2885 1.12785E+02 7.79695E+00 0.00000E+00
 -1      2886 1.12035E+02 8.98964E+00 0.00000E+00
 -1      2887 1.17285E+02 7.79695E+00 0.00000E+00
 -1      2888 1.15785E+02 7.79695E+00 0.00000E+00
 -1      2889 1.15035E+02 8.98964E+00 0.00000E+00
 -1      2890 1.20285E+02 7.79695E+00 0.00000E+00
 -1      2891 1.18785E+02 7.79695E+00 0.00000E+00
 -1      2892 1.18035E+02 8.98964E+00 0.00000E+00
 -1      2893 1.23285E+02 7.79695E+00 0.00000E+00
 -1      2894 1.21785E+02 7.79695E+00 0.00000E+00
 -1      2895 1.21035E+02 8.98964E+00 0.00000E+00
 -1      2896 1.26285E+02 7.79695E+00 0.00000E+00
 -1      2897 1.24785E+02 7.79695E+00 0.00000E+00
 -1      2898 1.24035E+02 8.98964E+00 0.00000E+00
 -1      2899 1.29285E+02 7.79695E+00 0.00000E+00
 -1      2900 1.27785E+02 7.79695E+00 0.00000E+00
 -1      2901 1.27035E+02 8.98964E+00 0.00000E+00
 -1      2902 1.32285E+02 7.79695E+00 0.00000E+00
 -1      2903 1.30785E+02 7.79695E+00 0.00000E+00
 -1      2904 1.30035E+02 8.98964E+00 0.00000E+00
 -1      2905 1.35285E+02 7.79695E+00 0.00000E+00
 -1      2906 1.33785E+02 7.79695E+00 0.00000E+00
 -1      2907 1.33035E+02 8.98964E+00 0.00000E+00
 -1      2908 1.38285E+02 7.79695E+00 0.00000E+00
 -1      2909 1.36785E+02 7.79695E+00 0.00000E+00
 -1      2910 1.36035E+02 8.98964E+00 0.00000E+00
 -1      2911 1.40953E+02 8.13079E+00 0.00000E+00
 -1      2912 1.39453E+02 8.13079E+00 0.00000E+00
 -1      2913 1.38703E+02 9.32348E+00 0.00000E+00
 -1      2914 1.41038E+02 9.99116E+00 0.00000E+00
 -1      2915 8.97456E+01 1.52478E+01 0.00000E+00
 -1      2916 9.05610E+01 1.63605E+01 0.00000E+00
 -1      2917 1.40907E+02 2.42875E+01 0.00000E+00
 -1      2918 1.40907E+02 2.28125E+01 0.00000E+00
 -1      2919 1.39914E+02 4.09362E+01 0.00000E+00
 -1      2920 1.40928E+02 4.09655E+01 0.00000E+00
 -1      2921 1.39164E+02 3.96372E+01 0.00000E+00
 -1      2922 1.40907E+02 1.83875E+01 0.00000E+00
 -1      2923 1.40907E+02 1.69125E+01 0.00000E+00
 -1      2924 1.40907E+02 2.72375E+01 0.00000E+00
 -1      2925 1.40907E+02 2.57625E+01 0.00000E+00
 -1      2926 1.39608E+02 2.50250E+01 0.00000E+00
 -1      2927 1.40907E+02 2.13375E+01 0.00000E+00
 -1      2928 1.40907E+02 1.98625E+01 0.00000E+00
 -1      2929 1.39608E+02 1.91250E+01 0.00000E+00
 -1      2930 1.39608E+02 2.20750E+01 0.00000E+00
 -1      2931 1.40907E+02 3.01375E+01 0.00000E+00
 -1      2932 1.40907E+02 2.86875E+01 0.00000E+00
 -1      2933 1.39608E+02 2.79500E+01 0.00000E+00
 -1      2934 1.40907E+02 3.30875E+01 0.00000E+00
 -1      2935 1.40907E+02 3.16125E+01 0.00000E+00
 -1      2936 1.39608E+02 3.08750E+01 0.00000E+00
 -1      2937 1.40907E+02 3.60375E+01 0.00000E+00
 -1      2938 1.40907E+02 3.45625E+01 0.00000E+00
 -1      2939 1.39608E+02 3.38250E+01 0.00000E+00
 -1      2940 9.26761E+01 2.24167E+01 0.00000E+00
 -1      2941 9.26928E+01 2.38049E+01 0.00000E+00
 -1      2942 6.92891E+01 1.84138E+01 0.00000E+00
 -1      2943 6.95835E+01 1.75070E+01 0.00000E+00
 -1      2944 9.14268E+01 1.74472E+01 0.00000E+00
 -1      2945 9.18803E+01 1.83859E+01 0.00000E+00
 -1      2946 9.00189E+01 3.00119E+01 0.00000E+00
 -1      2947 8.95491E+01 3.13187E+01 0.00000E+00
 -1      2948 1.82850E+01 7.90325E+00 0.00000E+00
 -1      2949 1.67850E+01 7.90325E+00 0.00000E+00
 -1      2950 1.90350E+01 9.20225E+00 0.00000E+00
 -1      2951 2.72850E+01 7.90325E+00 0.00000E+00
 -1      2952 2.57850E+01 7.90325E+00 0.00000E+00
 -1      2953 2.50350E+01 9.20225E+00 0.00000E+00
 -1      2954 2.80350E+01 9.20225E+00 0.00000E+00
 -1      2955 1.14000E+01 4.09070E+01 0.00000E+00
 -1      2956 1.29000E+01 4.09070E+01 0.00000E+00
 -1      2957 1.36500E+01 3.96080E+01 0.00000E+00
 -1      2958 9.09300E+00 1.68813E+01 0.00000E+00
 -1      2959 9.09300E+00 1.83563E+01 0.00000E+00
 -1      2960 1.03920E+01 1.90812E+01 0.00000E+00
 -1      2961 1.03920E+01 1.61437E+01 0.00000E+00
 -1      2962 1.52850E+01 7.90325E+00 0.00000E+00
 -1      2963 1.37850E+01 7.90325E+00 0.00000E+00
 -1      2964 1.30350E+01 9.20225E+00 0.00000E+00
 -1      2965 1.60350E+01 9.20225E+00 0.00000E+00
 -1      2966 8.76413E+01 1.30391E+01 0.00000E+00
 -1      2967 8.87464E+01 1.39516E+01 0.00000E+00
 -1      2968 9.09300E+00 3.15875E+01 0.00000E+00
 -1      2969 9.09300E+00 3.30625E+01 0.00000E+00
 -1      2970 7.73010E+01 1.08095E+01 0.00000E+00
 -1      2971 7.86828E+01 1.07298E+01 0.00000E+00
 -1      2972 9.24608E+01 2.53659E+01 0.00000E+00
 -1      2973 9.20691E+01 2.65338E+01 0.00000E+00
 -1      2974 7.99839E+01 1.03515E+01 0.00000E+00
 -1      2975 8.10923E+01 1.03053E+01 0.00000E+00
 -1      2976 6.84365E+01 2.07604E+01 0.00000E+00
 -1      2977 6.88628E+01 1.95871E+01 0.00000E+00
 -1      2978 6.81943E+01 1.88689E+01 0.00000E+00
 -1      2979 6.83538E+01 2.32354E+01 0.00000E+00
 -1      2980 6.82839E+01 2.20993E+01 0.00000E+00
 -1      2981 1.41192E+02 3.96958E+01 0.00000E+00
 -1      2982 7.11625E+01 3.05180E+01 0.00000E+00
 -1      2983 7.05584E+01 2.97462E+01 0.00000E+00
 -1      2984 8.29529E+01 3.46205E+01 0.00000E+00
 -1      2985 8.20385E+01 3.48271E+01 0.00000E+00
 -1      2986 9.21934E+01 1.96018E+01 0.00000E+00
 -1      2987 9.25065E+01 2.08177E+01 0.00000E+00
 -1      2988 9.28897E+01 1.86865E+01 0.00000E+00
 -1      2989 7.78502E+01 3.48270E+01 0.00000E+00
 -1      2990 7.67562E+01 3.45332E+01 0.00000E+00
 -1      2991 8.52544E+01 1.17632E+01 0.00000E+00
 -1      2992 8.63134E+01 1.22706E+01 0.00000E+00
 -1      2993 8.25452E+01 1.09788E+01 0.00000E+00
 -1      2994 8.38795E+01 1.13475E+01 0.00000E+00
 -1      2995 9.09300E+00 3.45313E+01 0.00000E+00
 -1      2996 9.09300E+00 3.60000E+01 0.00000E+00
 -1      2997 1.03920E+01 3.37938E+01 0.00000E+00
 -1      2998 1.03920E+01 2.49750E+01 0.00000E+00
 -1      2999 9.09300E+00 2.57000E+01 0.00000E+00
 -1      3000 9.09300E+00 2.71750E+01 0.00000E+00
 -1      3001 8.75186E+01 1.19364E+01 0.00000E+00
 -1      3002 8.62672E+01 3.40708E+01 0.00000E+00
 -1      3003 9.66450E+00 9.72612E+00 0.00000E+00
 -1      3004 8.48157E+01 1.07523E+01 0.00000E+00
 -1      3005 8.13001E+01 3.54886E+01 0.00000E+00
 -1      3006 7.37020E+01 3.28411E+01 0.00000E+00
 -1      3007 7.27953E+01 3.28797E+01 0.00000E+00
 -1      3008 7.39094E+01 3.38105E+01 0.00000E+00
 -1      3009 8.38181E+01 3.47826E+01 0.00000E+00
 -1      3010 8.35499E+01 3.57223E+01 0.00000E+00
 -1      3011 8.46833E+01 3.49447E+01 0.00000E+00
 -1      3012 6.91302E+01 2.66000E+01 0.00000E+00
 -1      3013 6.82481E+01 2.60456E+01 0.00000E+00
 -1      3014 6.87529E+01 2.74254E+01 0.00000E+00
 -1      3015 1.39608E+02 1.61875E+01 0.00000E+00
 -1      3016 1.40907E+02 1.54500E+01 0.00000E+00
 -1      3017 1.40907E+02 1.39875E+01 0.00000E+00
 -1      3018 7.32412E+01 1.20244E+01 0.00000E+00
 -1      3019 6.76155E+01 2.13811E+01 0.00000E+00
 -1      3020 7.92339E+01 9.36794E+00 0.00000E+00
 -1      3021 7.84839E+01 8.17524E+00 0.00000E+00
 -1      3022 7.69839E+01 8.17524E+00 0.00000E+00
 -1      3023 8.98458E+01 1.40011E+01 0.00000E+00
 -1      3024 6.93389E+01 3.03897E+01 0.00000E+00
 -1      3025 6.98441E+01 2.93719E+01 0.00000E+00
 -1      3026 6.91298E+01 2.89976E+01 0.00000E+00
 -1      3027 1.40973E+02 1.27206E+01 0.00000E+00
 -1      3028 1.40973E+02 1.12581E+01 0.00000E+00
 -1      3029 1.39805E+02 1.09242E+01 0.00000E+00
 -1      3030 1.39674E+02 1.34581E+01 0.00000E+00
 -1      3031 9.10462E+01 2.97757E+01 0.00000E+00
 -1      3032 9.17108E+01 1.63839E+01 0.00000E+00
 -1      3033 9.41591E+01 2.39571E+01 0.00000E+00
 -1      3034 9.33099E+01 2.46615E+01 0.00000E+00
 -1      3035 9.39271E+01 2.55182E+01 0.00000E+00
 -1      3036 9.33723E+01 2.15014E+01 0.00000E+00
 -1      3037 9.42382E+01 2.21852E+01 0.00000E+00
 -1      3038 9.40686E+01 2.05861E+01 0.00000E+00
 -1      3039 1.41192E+02 3.82207E+01 0.00000E+00
 -1      3040 9.22503E+01 2.73952E+01 0.00000E+00
 -1      3041 9.24315E+01 2.82566E+01 0.00000E+00
 -1      3042 9.32592E+01 2.70840E+01 0.00000E+00
 -1      3043 7.10409E+01 1.39471E+01 0.00000E+00
 -1      3044 6.77345E+01 2.47048E+01 0.00000E+00
 -1      3045 6.80442E+01 2.39701E+01 0.00000E+00
 -1      3046 6.71533E+01 2.34547E+01 0.00000E+00
 -1      3047 6.84970E+01 1.66837E+01 0.00000E+00
 -1      3048 6.94599E+01 1.64950E+01 0.00000E+00
 -1      3049 6.93362E+01 1.54831E+01 0.00000E+00
 -1      3050 7.62404E+01 3.57366E+01 0.00000E+00
 -1      3051 7.59376E+01 3.46806E+01 0.00000E+00
 -1      3052 7.51189E+01 3.48280E+01 0.00000E+00
 -1      3053 9.03790E+01 3.20531E+01 0.00000E+00
 -1      3054 8.92583E+01 3.23880E+01 0.00000E+00
 -1      3055 7.13205E+01 3.13372E+01 0.00000E+00
 -1      3056 8.88355E+01 3.36296E+01 0.00000E+00
 -1      3057 9.09300E+00 2.86437E+01 0.00000E+00
 -1      3058 9.09300E+00 3.01187E+01 0.00000E+00
 -1      3059 1.03920E+01 3.08563E+01 0.00000E+00
 -1      3060 1.03920E+01 2.79188E+01 0.00000E+00
 -1      3061 7.84873E+01 3.55030E+01 0.00000E+00
 -1      3062 1.09635E+01 1.04636E+01 0.00000E+00
 -1      3063 9.15750E+00 3.77359E+01 0.00000E+00
 -1      3064 9.22200E+00 4.02061E+01 0.00000E+00
 -1      3065 1.05855E+01 4.04701E+01 0.00000E+00
 -1      3066 1.04565E+01 3.69984E+01 0.00000E+00
 -1      3067 1.39529E+02 3.85602E+01 0.00000E+00
 -1      3068 1.40542E+02 3.71145E+01 0.00000E+00
 -1      3069 1.39243E+02 3.63770E+01 0.00000E+00
 -1      3070 1.38514E+02 3.85310E+01 0.00000E+00
 -1      3071 1.13355E+01 3.91711E+01 0.00000E+00
 -1      3072 1.16910E+01 1.24625E+01 0.00000E+00
 -1      3073 1.16910E+01 1.39375E+01 0.00000E+00
 -1      3074 8.19879E+01 9.66312E+00 0.00000E+00
 -1      3075 9.36447E+01 1.78438E+01 0.00000E+00
 -1      3076 9.39578E+01 1.90597E+01 0.00000E+00
 -1      3077 1.59000E+01 3.83090E+01 0.00000E+00
 -1      3078 1.74000E+01 3.83090E+01 0.00000E+00
 -1      3079 1.89000E+01 3.83090E+01 0.00000E+00
 -1      3080 2.04000E+01 3.83090E+01 0.00000E+00
 -1      3081 1.81500E+01 3.70100E+01 0.00000E+00
 -1      3082 2.19000E+01 3.83090E+01 0.00000E+00
 -1      3083 2.34000E+01 3.83090E+01 0.00000E+00
 -1      3084 2.11500E+01 3.70100E+01 0.00000E+00
 -1      3085 2.49000E+01 3.83090E+01 0.00000E+00
 -1      3086 2.64000E+01 3.83090E+01 0.00000E+00
 -1      3087 2.41500E+01 3.70100E+01 0.00000E+00
 -1      3088 2.79000E+01 3.83090E+01 0.00000E+00
 -1      3089 2.94000E+01 3.83090E+01 0.00000E+00
 -1      3090 2.71500E+01 3.70100E+01 0.00000E+00
 -1      3091 3.09000E+01 3.83090E+01 0.00000E+00
 -1      3092 3.24000E+01 3.83090E+01 0.00000E+00
 -1      3093 3.01500E+01 3.70100E+01 0.00000E+00
 -1      3094 3.39000E+01 3.83090E+01 0.00000E+00
 -1      3095 3.54000E+01 3.83090E+01 0.00000E+00
 -1      3096 3.31500E+01 3.70100E+01 0.00000E+00
 -1      3097 3.69000E+01 3.83090E+01 0.00000E+00
 -1      3098 3.84000E+01 3.83090E+01 0.00000E+00
 -1      3099 3.61500E+01 3.70100E+01 0.00000E+00
 -1      3100 3.99000E+01 3.83090E+01 0.00000E+00
 -1      3101 4.14000E+01 3.83090E+01 0.00000E+00
 -1      3102 3.91500E+01 3.70100E+01 0.00000E+00
 -1      3103 4.29000E+01 3.83090E+01 0.00000E+00
 -1      3104 4.44000E+01 3.83090E+01 0.00000E+00
 -1      3105 4.21500E+01 3.70100E+01 0.00000E+00
 -1      3106 4.59000E+01 3.83090E+01 0.00000E+00
 -1      3107 4.74000E+01 3.83090E+01 0.00000E+00
 -1      3108 4.51500E+01 3.70100E+01 0.00000E+00
 -1      3109 4.89000E+01 3.83090E+01 0.00000E+00
 -1      3110 5.04000E+01 3.83090E+01 0.00000E+00
 -1      3111 4.81500E+01 3.70100E+01 0.00000E+00
 -1      3112 5.19000E+01 3.83090E+01 0.00000E+00
 -1      3113 5.34000E+01 3.83090E+01 0.00000E+00
 -1      3114 5.11500E+01 3.70100E+01 0.00000E+00
 -1      3115 5.49000E+01 3.83090E+01 0.00000E+00
 -1      3116 5.64000E+01 3.83090E+01 0.00000E+00
 -1      3117 5.41500E+01 3.70100E+01 0.00000E+00
 -1      3118 5.79000E+01 3.83090E+01 0.00000E+00
 -1      3119 5.94000E+01 3.83090E+01 0.00000E+00
 -1      3120 5.71500E+01 3.70100E+01 0.00000E+00
 -1      3121 6.09000E+01 3.83090E+01 0.00000E+00
 -1      3122 6.24000E+01 3.83090E+01 0.00000E+00
 -1      3123 6.01500E+01 3.70100E+01 0.00000E+00
 -1      3124 6.39000E+01 3.83090E+01 0.00000E+00
 -1      3125 6.54000E+01 3.83090E+01 0.00000E+00
 -1      3126 6.31500E+01 3.70100E+01 0.00000E+00
 -1      3127 6.69000E+01 3.83090E+01 0.00000E+00
 -1      3128 6.84000E+01 3.83090E+01 0.00000E+00
 -1      3129 6.61500E+01 3.70100E+01 0.00000E+00
 -1      3130 6.99000E+01 3.83090E+01 0.00000E+00
 -1      3131 7.14000E+01 3.83090E+01 0.00000E+00
 -1      3132 6.91500E+01 3.70100E+01 0.00000E+00
 -1      3133 7.37859E+01 3.77460E+01 0.00000E+00
 -1      3134 7.52859E+01 3.77460E+01 0.00000E+00
 -1      3135 7.67859E+01 3.77460E+01 0.00000E+00
 -1      3136 7.89000E+01 3.84153E+01 0.00000E+00
 -1      3137 8.04000E+01 3.84153E+01 0.00000E+00
 -1      3138 8.19173E+01 3.75841E+01 0.00000E+00
 -1      3139 8.34173E+01 3.75841E+01 0.00000E+00
 -1      3140 8.79000E+01 3.83090E+01 0.00000E+00
 -1      3141 8.94000E+01 3.83090E+01 0.00000E+00
 -1      3142 9.09000E+01 3.83090E+01 0.00000E+00
 -1      3143 9.24000E+01 3.83090E+01 0.00000E+00
 -1      3144 9.01500E+01 3.70100E+01 0.00000E+00
 -1      3145 9.39000E+01 3.83090E+01 0.00000E+00
 -1      3146 9.54000E+01 3.83090E+01 0.00000E+00
 -1      3147 9.31500E+01 3.70100E+01 0.00000E+00
 -1      3148 9.69000E+01 3.83090E+01 0.00000E+00
 -1      3149 9.84000E+01 3.83090E+01 0.00000E+00
 -1      3150 9.61500E+01 3.70100E+01 0.00000E+00
 -1      3151 9.99000E+01 3.83090E+01 0.00000E+00
 -1      3152 1.01400E+02 3.83090E+01 0.00000E+00
 -1      3153 9.91500E+01 3.70100E+01 0.00000E+00
 -1      3154 1.02900E+02 3.83090E+01 0.00000E+00
 -1      3155 1.04400E+02 3.83090E+01 0.00000E+00
 -1      3156 1.02150E+02 3.70100E+01 0.00000E+00
 -1      3157 1.05900E+02 3.83090E+01 0.00000E+00
 -1      3158 1.07400E+02 3.83090E+01 0.00000E+00
 -1      3159 1.05150E+02 3.70100E+01 0.00000E+00
 -1      3160 1.08900E+02 3.83090E+01 0.00000E+00
 -1      3161 1.10400E+02 3.83090E+01 0.00000E+00
 -1      3162 1.08150E+02 3.70100E+01 0.00000E+00
 -1      3163 1.11900E+02 3.83090E+01 0.00000E+00
 -1      3164 1.13400E+02 3.83090E+01 0.00000E+00
 -1      3165 1.11150E+02 3.70100E+01 0.00000E+00
 -1      3166 1.14900E+02 3.83090E+01 0.00000E+00
 -1      3167 1.16400E+02 3.83090E+01 0.00000E+00
 -1      3168 1.14150E+02 3.70100E+01 0.00000E+00
 -1      3169 1.17900E+02 3.83090E+01 0.00000E+00
 -1      3170 1.19400E+02 3.83090E+01 0.00000E+00
 -1      3171 1.17150E+02 3.70100E+01 0.00000E+00
 -1      3172 1.20900E+02 3.83090E+01 0.00000E+00
 -1      3173 1.22400E+02 3.83090E+01 0.00000E+00
 -1      3174 1.20150E+02 3.70100E+01 0.00000E+00
 -1      3175 1.23900E+02 3.83090E+01 0.00000E+00
 -1      3176 1.25400E+02 3.83090E+01 0.00000E+00
 -1      3177 1.23150E+02 3.70100E+01 0.00000E+00
 -1      3178 1.26900E+02 3.83090E+01 0.00000E+00
 -1      3179 1.28400E+02 3.83090E+01 0.00000E+00
 -1      3180 1.26150E+02 3.70100E+01 0.00000E+00
 -1      3181 1.29900E+02 3.83090E+01 0.00000E+00
 -1      3182 1.31400E+02 3.83090E+01 0.00000E+00
 -1      3183 1.29150E+02 3.70100E+01 0.00000E+00
 -1      3184 1.32900E+02 3.83090E+01 0.00000E+00
 -1      3185 1.34400E+02 3.83090E+01 0.00000E+00
 -1      3186 1.32150E+02 3.70100E+01 0.00000E+00
 -1      3187 1.35707E+02 3.84200E+01 0.00000E+00
 -1      3188 1.37207E+02 3.84200E+01 0.00000E+00
 -1      3189 1.37572E+02 3.73430E+01 0.00000E+00
 -1      3190 1.34957E+02 3.71210E+01 0.00000E+00
 -1      3191 3.47850E+01 1.05013E+01 0.00000E+00
 -1      3192 3.32850E+01 1.05013E+01 0.00000E+00
 -1      3193 3.17850E+01 1.05013E+01 0.00000E+00
 -1      3194 3.02850E+01 1.05013E+01 0.00000E+00
 -1      3195 3.25350E+01 1.18003E+01 0.00000E+00
 -1      3196 4.07850E+01 1.05013E+01 0.00000E+00
 -1      3197 3.92850E+01 1.05013E+01 0.00000E+00
 -1      3198 4.37850E+01 1.05013E+01 0.00000E+00
 -1      3199 4.22850E+01 1.05013E+01 0.00000E+00
 -1      3200 4.15350E+01 1.18003E+01 0.00000E+00
 -1      3201 4.67850E+01 1.05013E+01 0.00000E+00
 -1      3202 4.52850E+01 1.05013E+01 0.00000E+00
 -1      3203 4.45350E+01 1.18003E+01 0.00000E+00
 -1      3204 4.97850E+01 1.05013E+01 0.00000E+00
 -1      3205 4.82850E+01 1.05013E+01 0.00000E+00
 -1      3206 4.75350E+01 1.18003E+01 0.00000E+00
 -1      3207 5.27850E+01 1.05013E+01 0.00000E+00
 -1      3208 5.12850E+01 1.05013E+01 0.00000E+00
 -1      3209 5.05350E+01 1.18003E+01 0.00000E+00
 -1      3210 5.57850E+01 1.05013E+01 0.00000E+00
 -1      3211 5.42850E+01 1.05013E+01 0.00000E+00
 -1      3212 5.35350E+01 1.18003E+01 0.00000E+00
 -1      3213 5.87850E+01 1.05013E+01 0.00000E+00
 -1      3214 5.72850E+01 1.05013E+01 0.00000E+00
 -1      3215 5.65350E+01 1.18003E+01 0.00000E+00
 -1      3216 6.17850E+01 1.05013E+01 0.00000E+00
 -1      3217 6.02850E+01 1.05013E+01 0.00000E+00
 -1      3218 5.95350E+01 1.18003E+01 0.00000E+00
 -1      3219 6.47850E+01 1.05013E+01 0.00000E+00
 -1      3220 6.32850E+01 1.05013E+01 0.00000E+00
 -1      3221 6.25350E+01 1.18003E+01 0.00000E+00
 -1      3222 6.77850E+01 1.05013E+01 0.00000E+00
 -1      3223 6.62850E+01 1.05013E+01 0.00000E+00
 -1      3224 6.55350E+01 1.18003E+01 0.00000E+00
 -1      3225 7.31174E+01 1.03257E+01 0.00000E+00
 -1      3226 7.63163E+01 1.05977E+01 0.00000E+00
 -1      3227 9.17850E+01 1.02661E+01 0.00000E+00
 -1      3228 9.02850E+01 1.02661E+01 0.00000E+00
 -1      3229 9.47850E+01 1.02661E+01 0.00000E+00
 -1      3230 9.32850E+01 1.02661E+01 0.00000E+00
 -1      3231 9.25350E+01 1.15426E+01 0.00000E+00
 -1      3232 9.77850E+01 1.02661E+01 0.00000E+00
 -1      3233 9.62850E+01 1.02661E+01 0.00000E+00
 -1      3234 9.55350E+01 1.15426E+01 0.00000E+00
 -1      3235 1.00785E+02 1.02661E+01 0.00000E+00
 -1      3236 9.92850E+01 1.02661E+01 0.00000E+00
 -1      3237 9.85350E+01 1.15426E+01 0.00000E+00
 -1      3238 1.03785E+02 1.02661E+01 0.00000E+00
 -1      3239 1.02285E+02 1.02661E+01 0.00000E+00
 -1      3240 1.01535E+02 1.15426E+01 0.00000E+00
 -1      3241 1.06785E+02 1.02661E+01 0.00000E+00
 -1      3242 1.05285E+02 1.02661E+01 0.00000E+00
 -1      3243 1.04535E+02 1.15426E+01 0.00000E+00
 -1      3244 1.09785E+02 1.02661E+01 0.00000E+00
 -1      3245 1.08285E+02 1.02661E+01 0.00000E+00
 -1      3246 1.07535E+02 1.15426E+01 0.00000E+00
 -1      3247 1.12785E+02 1.02661E+01 0.00000E+00
 -1      3248 1.11285E+02 1.02661E+01 0.00000E+00
 -1      3249 1.10535E+02 1.15426E+01 0.00000E+00
 -1      3250 1.15785E+02 1.02661E+01 0.00000E+00
 -1      3251 1.14285E+02 1.02661E+01 0.00000E+00
 -1      3252 1.13535E+02 1.15426E+01 0.00000E+00
 -1      3253 1.18785E+02 1.02661E+01 0.00000E+00
 -1      3254 1.17285E+02 1.02661E+01 0.00000E+00
 -1      3255 1.16535E+02 1.15426E+01 0.00000E+00
 -1      3256 1.21785E+02 1.02661E+01 0.00000E+00
 -1      3257 1.20285E+02 1.02661E+01 0.00000E+00
 -1      3258 1.19535E+02 1.15426E+01 0.00000E+00
 -1      3259 1.24785E+02 1.02661E+01 0.00000E+00
 -1      3260 1.23285E+02 1.02661E+01 0.00000E+00
 -1      3261 1.22535E+02 1.15426E+01 0.00000E+00
 -1      3262 1.27785E+02 1.02661E+01 0.00000E+00
 -1      3263 1.26285E+02 1.02661E+01 0.00000E+00
 -1      3264 1.25535E+02 1.15426E+01 0.00000E+00
 -1      3265 1.30785E+02 1.02661E+01 0.00000E+00
 -1      3266 1.29285E+02 1.02661E+01 0.00000E+00
 -1      3267 1.28535E+02 1.15426E+01 0.00000E+00
 -1      3268 1.33785E+02 1.02661E+01 0.00000E+00
 -1      3269 1.32285E+02 1.02661E+01 0.00000E+00
 -1      3270 1.31535E+02 1.15426E+01 0.00000E+00
 -1      3271 1.36785E+02 1.02661E+01 0.00000E+00
 -1      3272 1.35285E+02 1.02661E+01 0.00000E+00
 -1      3273 1.34535E+02 1.15426E+01 0.00000E+00
 -1      3274 1.38879E+02 1.07621E+01 0.00000E+00
 -1      3275 1.37711E+02 1.04283E+01 0.00000E+00
 -1      3276 1.36961E+02 1.17047E+01 0.00000E+00
 -1      3277 1.38813E+02 1.20290E+01 0.00000E+00
 -1      3278 1.38309E+02 2.86750E+01 0.00000E+00
 -1      3279 1.38309E+02 2.72250E+01 0.00000E+00
 -1      3280 1.38309E+02 3.45625E+01 0.00000E+00
 -1      3281 1.38309E+02 3.30875E+01 0.00000E+00
 -1      3282 1.38309E+02 2.57500E+01 0.00000E+00
 -1      3283 1.38309E+02 2.42750E+01 0.00000E+00
 -1      3284 1.37010E+02 2.64750E+01 0.00000E+00
 -1      3285 9.00917E+01 1.27783E+01 0.00000E+00
 -1      3286 9.10910E+01 1.40745E+01 0.00000E+00
 -1      3287 1.97850E+01 1.05013E+01 0.00000E+00
 -1      3288 1.82850E+01 1.05013E+01 0.00000E+00
 -1      3289 9.15945E+01 3.18095E+01 0.00000E+00
 -1      3290 9.13036E+01 3.28788E+01 0.00000E+00
 -1      3291 1.38309E+02 3.16187E+01 0.00000E+00
 -1      3292 1.38309E+02 3.01437E+01 0.00000E+00
 -1      3293 1.37010E+02 2.94188E+01 0.00000E+00
 -1      3294 1.37010E+02 3.23563E+01 0.00000E+00
 -1      3295 1.16460E+01 3.80848E+01 0.00000E+00
 -1      3296 1.24605E+01 3.85216E+01 0.00000E+00
 -1      3297 1.39605E+01 3.85216E+01 0.00000E+00
 -1      3298 1.15815E+01 3.63489E+01 0.00000E+00
 -1      3299 7.14972E+01 3.26341E+01 0.00000E+00
 -1      3300 7.02299E+01 3.20609E+01 0.00000E+00
 -1      3301 9.20797E+01 1.52018E+01 0.00000E+00
 -1      3302 9.29454E+01 1.62885E+01 0.00000E+00
 -1      3303 6.64374E+01 2.19250E+01 0.00000E+00
 -1      3304 6.65899E+01 2.05861E+01 0.00000E+00
 -1      3305 3.77850E+01 1.05013E+01 0.00000E+00
 -1      3306 3.62850E+01 1.05013E+01 0.00000E+00
 -1      3307 3.55350E+01 1.18003E+01 0.00000E+00
 -1      3308 3.85350E+01 1.18003E+01 0.00000E+00
 -1      3309 7.16588E+01 1.09010E+01 0.00000E+00
 -1      3310 2.27850E+01 1.05013E+01 0.00000E+00
 -1      3311 2.12850E+01 1.05013E+01 0.00000E+00
 -1      3312 2.05350E+01 1.18003E+01 0.00000E+00
 -1      3313 7.05999E+01 1.24240E+01 0.00000E+00
 -1      3314 7.04760E+01 1.07253E+01 0.00000E+00
 -1      3315 6.89760E+01 1.07253E+01 0.00000E+00
 -1      3316 6.98581E+01 1.37714E+01 0.00000E+00
 -1      3317 7.97828E+01 3.63197E+01 0.00000E+00
 -1      3318 7.83545E+01 3.64059E+01 0.00000E+00
 -1      3319 6.70177E+01 1.91055E+01 0.00000E+00
 -1      3320 6.74440E+01 1.79322E+01 0.00000E+00
 -1      3321 9.22012E+01 2.94290E+01 0.00000E+00
 -1      3322 9.18248E+01 3.06370E+01 0.00000E+00
 -1      3323 9.27494E+01 3.14627E+01 0.00000E+00
 -1      3324 9.32101E+01 2.91178E+01 0.00000E+00
 -1      3325 8.98465E+01 3.43263E+01 0.00000E+00
 -1      3326 8.85938E+01 3.48334E+01 0.00000E+00
 -1      3327 1.26488E+01 1.02017E+01 0.00000E+00
 -1      3328 1.20772E+01 1.14631E+01 0.00000E+00
 -1      3329 1.33763E+01 1.22006E+01 0.00000E+00
 -1      3330 1.41488E+01 1.02017E+01 0.00000E+00
 -1      3331 8.72964E+01 3.49219E+01 0.00000E+00
 -1      3332 8.59808E+01 3.48561E+01 0.00000E+00
 -1      3333 8.57125E+01 3.57958E+01 0.00000E+00
 -1      3334 8.83074E+01 3.56186E+01 0.00000E+00
 -1      3335 1.16910E+01 2.12875E+01 0.00000E+00
 -1      3336 1.16910E+01 2.27625E+01 0.00000E+00
 -1      3337 1.16910E+01 2.42375E+01 0.00000E+00
 -1      3338 1.16910E+01 2.57125E+01 0.00000E+00
 -1      3339 1.29900E+01 2.35000E+01 0.00000E+00
 -1      3340 1.16910E+01 3.30594E+01 0.00000E+00
 -1      3341 1.16910E+01 3.45281E+01 0.00000E+00
 -1      3342 8.49879E+01 9.66312E+00 0.00000E+00
 -1      3343 8.63628E+01 1.00788E+01 0.00000E+00
 -1      3344 9.40136E+01 1.66617E+01 0.00000E+00
 -1      3345 9.50817E+01 1.70349E+01 0.00000E+00
 -1      3346 9.43825E+01 1.54796E+01 0.00000E+00
 -1      3347 7.30359E+01 3.64470E+01 0.00000E+00
 -1      3348 1.16910E+01 1.83500E+01 0.00000E+00
 -1      3349 1.16910E+01 1.98188E+01 0.00000E+00
 -1      3350 1.29900E+01 2.05562E+01 0.00000E+00
 -1      3351 6.82477E+01 2.84431E+01 0.00000E+00
 -1      3352 6.73656E+01 2.78887E+01 0.00000E+00
 -1      3353 6.77425E+01 2.94609E+01 0.00000E+00
 -1      3354 1.38309E+02 1.69188E+01 0.00000E+00
 -1      3355 1.38309E+02 1.54563E+01 0.00000E+00
 -1      3356 8.49000E+01 3.83315E+01 0.00000E+00
 -1      3357 8.64000E+01 3.83315E+01 0.00000E+00
 -1      3358 1.29900E+01 1.46687E+01 0.00000E+00
 -1      3359 1.16910E+01 1.54063E+01 0.00000E+00
 -1      3360 1.16910E+01 1.68750E+01 0.00000E+00
 -1      3361 2.57850E+01 1.05013E+01 0.00000E+00
 -1      3362 2.42850E+01 1.05013E+01 0.00000E+00
 -1      3363 2.35350E+01 1.18003E+01 0.00000E+00
 -1      3364 2.95350E+01 1.18003E+01 0.00000E+00
 -1      3365 2.87850E+01 1.05013E+01 0.00000E+00
 -1      3366 2.72850E+01 1.05013E+01 0.00000E+00
 -1      3367 6.82260E+01 1.20243E+01 0.00000E+00
 -1      3368 1.38309E+02 1.98687E+01 0.00000E+00
 -1      3369 1.38309E+02 1.83937E+01 0.00000E+00
 -1      3370 1.37010E+02 1.76625E+01 0.00000E+00
 -1      3371 1.47105E+01 3.72226E+01 0.00000E+00
 -1      3372 8.99408E+01 1.21237E+01 0.00000E+00
 -1      3373 9.11859E+01 1.21971E+01 0.00000E+00
 -1      3374 1.38309E+02 2.28094E+01 0.00000E+00
 -1      3375 1.38309E+02 2.13344E+01 0.00000E+00
 -1      3376 1.37010E+02 2.06031E+01 0.00000E+00
 -1      3377 1.37010E+02 2.35344E+01 0.00000E+00
 -1      3378 9.20845E+01 3.48226E+01 0.00000E+00
 -1      3379 9.08691E+01 3.50663E+01 0.00000E+00
 -1      3380 9.48553E+01 2.30418E+01 0.00000E+00
 -1      3381 9.54725E+01 2.38985E+01 0.00000E+00
 -1      3382 9.55516E+01 2.21265E+01 0.00000E+00
 -1      3383 9.48237E+01 1.97434E+01 0.00000E+00
 -1      3384 9.41083E+01 2.63796E+01 0.00000E+00
 -1      3385 9.42896E+01 2.72410E+01 0.00000E+00
 -1      3386 9.49575E+01 2.56752E+01 0.00000E+00
 -1      3387 6.73572E+01 2.55302E+01 0.00000E+00
 -1      3388 6.64663E+01 2.50148E+01 0.00000E+00
 -1      3389 6.69799E+01 2.63555E+01 0.00000E+00
 -1      3390 6.73204E+01 1.69202E+01 0.00000E+00
 -1      3391 6.71967E+01 1.59083E+01 0.00000E+00
 -1      3392 6.61437E+01 1.71568E+01 0.00000E+00
 -1      3393 6.61277E+01 2.26597E+01 0.00000E+00
 -1      3394 6.51022E+01 2.18648E+01 0.00000E+00
 -1      3395 6.58181E+01 2.33945E+01 0.00000E+00
 -1      3396 9.23256E+01 1.39790E+01 0.00000E+00
 -1      3397 7.17047E+01 3.36035E+01 0.00000E+00
 -1      3398 8.91908E+01 1.08473E+01 0.00000E+00
 -1      3399 8.76908E+01 1.08473E+01 0.00000E+00
 -1      3400 6.58396E+01 1.96494E+01 0.00000E+00
 -1      3401 1.69669E+01 1.03515E+01 0.00000E+00
 -1      3402 1.54669E+01 1.03515E+01 0.00000E+00
 -1      3403 1.50806E+01 1.13509E+01 0.00000E+00
 -1      3404 1.77169E+01 1.16505E+01 0.00000E+00
 -1      3405 6.88952E+01 1.39601E+01 0.00000E+00
 -1      3406 1.16910E+01 3.01219E+01 0.00000E+00
 -1      3407 1.16910E+01 3.15906E+01 0.00000E+00
 -1      3408 1.29900E+01 3.23250E+01 0.00000E+00
 -1      3409 8.71500E+01 3.70325E+01 0.00000E+00
 -1      3410 6.95156E+01 3.16866E+01 0.00000E+00
 -1      3411 6.88013E+01 3.13123E+01 0.00000E+00
 -1      3412 6.96923E+01 3.29836E+01 0.00000E+00
 -1      3413 8.11673E+01 3.63914E+01 0.00000E+00
 -1      3414 1.37758E+02 3.64912E+01 0.00000E+00
 -1      3415 1.38123E+02 3.54142E+01 0.00000E+00
 -1      3416 1.36824E+02 3.46768E+01 0.00000E+00
 -1      3417 1.36451E+02 3.63802E+01 0.00000E+00
 -1      3418 8.63300E+01 3.63811E+01 0.00000E+00
 -1      3419 8.78300E+01 3.63586E+01 0.00000E+00
 -1      3420 8.34879E+01 9.66312E+00 0.00000E+00
 -1      3421 7.42123E+01 3.48666E+01 0.00000E+00
 -1      3422 1.35992E+01 3.60377E+01 0.00000E+00
 -1      3423 1.55387E+01 3.58251E+01 0.00000E+00
 -1      3424 2.04000E+01 3.57110E+01 0.00000E+00
 -1      3425 2.19000E+01 3.57110E+01 0.00000E+00
 -1      3426 2.34000E+01 3.57110E+01 0.00000E+00
 -1      3427 2.49000E+01 3.57110E+01 0.00000E+00
 -1      3428 2.26500E+01 3.44120E+01 0.00000E+00
 -1      3429 2.64000E+01 3.57110E+01 0.00000E+00
 -1      3430 2.79000E+01 3.57110E+01 0.00000E+00
 -1      3431 2.56500E+01 3.44120E+01 0.00000E+00
 -1      3432 2.94000E+01 3.57110E+01 0.00000E+00
 -1      3433 3.09000E+01 3.57110E+01 0.00000E+00
 -1      3434 2.86500E+01 3.44120E+01 0.00000E+00
 -1      3435 3.24000E+01 3.57110E+01 0.00000E+00
 -1      3436 3.39000E+01 3.57110E+01 0.00000E+00
 -1      3437 3.16500E+01 3.44120E+01 0.00000E+00
 -1      3438 3.54000E+01 3.57110E+01 0.00000E+00
 -1      3439 3.69000E+01 3.57110E+01 0.00000E+00
 -1      3440 3.46500E+01 3.44120E+01 0.00000E+00
 -1      3441 3.84000E+01 3.57110E+01 0.00000E+00
 -1      3442 3.99000E+01 3.57110E+01 0.00000E+00
 -1      3443 3.76500E+01 3.44120E+01 0.00000E+00
 -1      3444 4.14000E+01 3.57110E+01 0.00000E+00
 -1      3445 4.29000E+01 3.57110E+01 0.00000E+00
 -1      3446 4.06500E+01 3.44120E+01 0.00000E+00
 -1      3447 4.44000E+01 3.57110E+01 0.00000E+00
 -1      3448 4.59000E+01 3.57110E+01 0.00000E+00
 -1      3449 4.36500E+01 3.44120E+01 0.00000E+00
 -1      3450 4.74000E+01 3.57110E+01 0.00000E+00
 -1      3451 4.89000E+01 3.57110E+01 0.00000E+00
 -1      3452 4.66500E+01 3.44120E+01 0.00000E+00
 -1      3453 5.04000E+01 3.57110E+01 0.00000E+00
 -1      3454 5.19000E+01 3.57110E+01 0.00000E+00
 -1      3455 4.96500E+01 3.44120E+01 0.00000E+00
 -1      3456 5.34000E+01 3.57110E+01 0.00000E+00
 -1      3457 5.49000E+01 3.57110E+01 0.00000E+00
 -1      3458 5.26500E+01 3.44120E+01 0.00000E+00
 -1      3459 5.64000E+01 3.57110E+01 0.00000E+00
 -1      3460 5.79000E+01 3.57110E+01 0.00000E+00
 -1      3461 5.56500E+01 3.44120E+01 0.00000E+00
 -1      3462 5.94000E+01 3.57110E+01 0.00000E+00
 -1      3463 6.09000E+01 3.57110E+01 0.00000E+00
 -1      3464 5.86500E+01 3.44120E+01 0.00000E+00
 -1      3465 6.24000E+01 3.57110E+01 0.00000E+00
 -1      3466 6.39000E+01 3.57110E+01 0.00000E+00
 -1      3467 6.16500E+01 3.44120E+01 0.00000E+00
 -1      3468 6.54000E+01 3.57110E+01 0.00000E+00
 -1      3469 6.69000E+01 3.57110E+01 0.00000E+00
 -1      3470 6.46500E+01 3.44120E+01 0.00000E+00
 -1      3471 6.90283E+01 3.51840E+01 0.00000E+00
 -1      3472 7.05283E+01 3.51840E+01 0.00000E+00
 -1      3473 7.76045E+01 3.75986E+01 0.00000E+00
 -1      3474 8.42825E+01 3.77462E+01 0.00000E+00
 -1      3475 9.35845E+01 3.48226E+01 0.00000E+00
 -1      3476 9.50845E+01 3.48226E+01 0.00000E+00
 -1      3477 9.65845E+01 3.48226E+01 0.00000E+00
 -1      3478 9.40191E+01 3.26352E+01 0.00000E+00
 -1      3479 9.80845E+01 3.48226E+01 0.00000E+00
 -1      3480 9.95845E+01 3.48226E+01 0.00000E+00
 -1      3481 9.70191E+01 3.26352E+01 0.00000E+00
 -1      3482 1.01085E+02 3.48226E+01 0.00000E+00
 -1      3483 1.02585E+02 3.48226E+01 0.00000E+00
 -1      3484 1.00019E+02 3.26352E+01 0.00000E+00
 -1      3485 1.04085E+02 3.48226E+01 0.00000E+00
 -1      3486 1.05585E+02 3.48226E+01 0.00000E+00
 -1      3487 1.03019E+02 3.26352E+01 0.00000E+00
 -1      3488 1.07085E+02 3.48226E+01 0.00000E+00
 -1      3489 1.08585E+02 3.48226E+01 0.00000E+00
 -1      3490 1.06019E+02 3.26352E+01 0.00000E+00
 -1      3491 1.10085E+02 3.48226E+01 0.00000E+00
 -1      3492 1.11585E+02 3.48226E+01 0.00000E+00
 -1      3493 1.09019E+02 3.26352E+01 0.00000E+00
 -1      3494 1.13085E+02 3.48226E+01 0.00000E+00
 -1      3495 1.14585E+02 3.48226E+01 0.00000E+00
 -1      3496 1.12019E+02 3.26352E+01 0.00000E+00
 -1      3497 1.16085E+02 3.48226E+01 0.00000E+00
 -1      3498 1.17585E+02 3.48226E+01 0.00000E+00
 -1      3499 1.15019E+02 3.26352E+01 0.00000E+00
 -1      3500 1.19085E+02 3.48226E+01 0.00000E+00
 -1      3501 1.20585E+02 3.48226E+01 0.00000E+00
 -1      3502 1.18019E+02 3.26352E+01 0.00000E+00
 -1      3503 1.22085E+02 3.48226E+01 0.00000E+00
 -1      3504 1.23585E+02 3.48226E+01 0.00000E+00
 -1      3505 1.21019E+02 3.26352E+01 0.00000E+00
 -1      3506 1.25085E+02 3.48226E+01 0.00000E+00
 -1      3507 1.26585E+02 3.48226E+01 0.00000E+00
 -1      3508 1.24019E+02 3.26352E+01 0.00000E+00
 -1      3509 1.28085E+02 3.48226E+01 0.00000E+00
 -1      3510 1.29585E+02 3.48226E+01 0.00000E+00
 -1      3511 1.27019E+02 3.26352E+01 0.00000E+00
 -1      3512 1.31085E+02 3.48226E+01 0.00000E+00
 -1      3513 1.32585E+02 3.48226E+01 0.00000E+00
 -1      3514 1.30019E+02 3.26352E+01 0.00000E+00
 -1      3515 3.32850E+01 1.30992E+01 0.00000E+00
 -1      3516 3.17850E+01 1.30992E+01 0.00000E+00
 -1      3517 4.52850E+01 1.30992E+01 0.00000E+00
 -1      3518 4.37850E+01 1.30992E+01 0.00000E+00
 -1      3519 4.22850E+01 1.30992E+01 0.00000E+00
 -1      3520 4.07850E+01 1.30992E+01 0.00000E+00
 -1      3521 4.30350E+01 1.43982E+01 0.00000E+00
 -1      3522 5.12850E+01 1.30992E+01 0.00000E+00
 -1      3523 4.97850E+01 1.30992E+01 0.00000E+00
 -1      3524 5.42850E+01 1.30992E+01 0.00000E+00
 -1      3525 5.27850E+01 1.30992E+01 0.00000E+00
 -1      3526 5.20350E+01 1.43982E+01 0.00000E+00
 -1      3527 5.72850E+01 1.30992E+01 0.00000E+00
 -1      3528 5.57850E+01 1.30992E+01 0.00000E+00
 -1      3529 5.50350E+01 1.43982E+01 0.00000E+00
 -1      3530 6.02850E+01 1.30992E+01 0.00000E+00
 -1      3531 5.87850E+01 1.30992E+01 0.00000E+00
 -1      3532 5.80350E+01 1.43982E+01 0.00000E+00
 -1      3533 6.32850E+01 1.30992E+01 0.00000E+00
 -1      3534 6.17850E+01 1.30992E+01 0.00000E+00
 -1      3535 6.10350E+01 1.43982E+01 0.00000E+00
 -1      3536 6.65275E+01 1.39725E+01 0.00000E+00
 -1      3537 6.50275E+01 1.39725E+01 0.00000E+00
 -1      3538 2.12850E+01 1.30992E+01 0.00000E+00
 -1      3539 1.97850E+01 1.30992E+01 0.00000E+00
 -1      3540 1.35711E+02 2.72125E+01 0.00000E+00
 -1      3541 1.35711E+02 2.57375E+01 0.00000E+00
 -1      3542 9.92850E+01 1.28416E+01 0.00000E+00
 -1      3543 9.77850E+01 1.28416E+01 0.00000E+00
 -1      3544 9.62428E+01 1.36977E+01 0.00000E+00
 -1      3545 9.47428E+01 1.36977E+01 0.00000E+00
 -1      3546 1.02285E+02 1.28416E+01 0.00000E+00
 -1      3547 1.00785E+02 1.28416E+01 0.00000E+00
 -1      3548 1.00035E+02 1.41406E+01 0.00000E+00
 -1      3549 1.05285E+02 1.28416E+01 0.00000E+00
 -1      3550 1.03785E+02 1.28416E+01 0.00000E+00
 -1      3551 1.03035E+02 1.41406E+01 0.00000E+00
 -1      3552 1.08285E+02 1.28416E+01 0.00000E+00
 -1      3553 1.06785E+02 1.28416E+01 0.00000E+00
 -1      3554 1.06035E+02 1.41406E+01 0.00000E+00
 -1      3555 1.11285E+02 1.28416E+01 0.00000E+00
 -1      3556 1.09785E+02 1.28416E+01 0.00000E+00
 -1      3557 1.09035E+02 1.41406E+01 0.00000E+00
 -1      3558 1.14285E+02 1.28416E+01 0.00000E+00
 -1      3559 1.12785E+02 1.28416E+01 0.00000E+00
 -1      3560 1.12035E+02 1.41406E+01 0.00000E+00
 -1      3561 1.17285E+02 1.28416E+01 0.00000E+00
 -1      3562 1.15785E+02 1.28416E+01 0.00000E+00
 -1      3563 1.15035E+02 1.41406E+01 0.00000E+00
 -1      3564 1.20285E+02 1.28416E+01 0.00000E+00
 -1      3565 1.18785E+02 1.28416E+01 0.00000E+00
 -1      3566 1.18035E+02 1.41406E+01 0.00000E+00
 -1      3567 1.23285E+02 1.28416E+01 0.00000E+00
 -1      3568 1.21785E+02 1.28416E+01 0.00000E+00
 -1      3569 1.21035E+02 1.41406E+01 0.00000E+00
 -1      3570 1.26285E+02 1.28416E+01 0.00000E+00
 -1      3571 1.24785E+02 1.28416E+01 0.00000E+00
 -1      3572 1.24035E+02 1.41406E+01 0.00000E+00
 -1      3573 1.29285E+02 1.28416E+01 0.00000E+00
 -1      3574 1.27785E+02 1.28416E+01 0.00000E+00
 -1      3575 1.27035E+02 1.41406E+01 0.00000E+00
 -1      3576 1.32285E+02 1.28416E+01 0.00000E+00
 -1      3577 1.30785E+02 1.28416E+01 0.00000E+00
 -1      3578 1.30035E+02 1.41406E+01 0.00000E+00
 -1      3579 1.35285E+02 1.28416E+01 0.00000E+00
 -1      3580 1.33785E+02 1.28416E+01 0.00000E+00
 -1      3581 1.33035E+02 1.41406E+01 0.00000E+00
 -1      3582 1.38528E+02 1.43761E+01 0.00000E+00
 -1      3583 1.38594E+02 1.31092E+01 0.00000E+00
 -1      3584 1.37668E+02 1.29470E+01 0.00000E+00
 -1      3585 1.37229E+02 1.51073E+01 0.00000E+00
 -1      3586 6.77042E+01 1.37360E+01 0.00000E+00
 -1      3587 6.45604E+01 2.00820E+01 0.00000E+00
 -1      3588 6.49881E+01 1.86013E+01 0.00000E+00
 -1      3589 1.16910E+01 2.71844E+01 0.00000E+00
 -1      3590 1.16910E+01 2.86531E+01 0.00000E+00
 -1      3591 1.29900E+01 2.93875E+01 0.00000E+00
 -1      3592 4.82850E+01 1.30992E+01 0.00000E+00
 -1      3593 4.67850E+01 1.30992E+01 0.00000E+00
 -1      3594 4.60350E+01 1.43982E+01 0.00000E+00
 -1      3595 4.90350E+01 1.43982E+01 0.00000E+00
 -1      3596 9.57907E+01 1.89060E+01 0.00000E+00
 -1      3597 9.59015E+01 2.04324E+01 0.00000E+00
 -1      3598 7.18264E+01 3.54296E+01 0.00000E+00
 -1      3599 1.74000E+01 3.57110E+01 0.00000E+00
 -1      3600 1.89000E+01 3.57110E+01 0.00000E+00
 -1      3601 1.96500E+01 3.44120E+01 0.00000E+00
 -1      3602 2.27850E+01 1.30992E+01 0.00000E+00
 -1      3603 2.20350E+01 1.43982E+01 0.00000E+00
 -1      3604 2.42850E+01 1.30992E+01 0.00000E+00
 -1      3605 9.65285E+01 1.65418E+01 0.00000E+00
 -1      3606 9.61596E+01 1.77239E+01 0.00000E+00
 -1      3607 9.72374E+01 1.84129E+01 0.00000E+00
 -1      3608 8.50325E+01 3.64697E+01 0.00000E+00
 -1      3609 1.29900E+01 1.76125E+01 0.00000E+00
 -1      3610 6.79192E+01 3.07578E+01 0.00000E+00
 -1      3611 6.70371E+01 3.02034E+01 0.00000E+00
 -1      3612 6.80959E+01 3.20548E+01 0.00000E+00
 -1      3613 6.59696E+01 2.83910E+01 0.00000E+00
 -1      3614 6.64747E+01 2.73733E+01 0.00000E+00
 -1      3615 6.55839E+01 2.68579E+01 0.00000E+00
 -1      3616 6.82783E+01 3.38850E+01 0.00000E+00
 -1      3617 1.42890E+01 1.98219E+01 0.00000E+00
 -1      3618 1.42890E+01 2.12906E+01 0.00000E+00
 -1      3619 8.91274E+01 3.62700E+01 0.00000E+00
 -1      3620 1.42890E+01 1.39344E+01 0.00000E+00
 -1      3621 1.42890E+01 1.54031E+01 0.00000E+00
 -1      3622 9.42494E+01 3.14627E+01 0.00000E+00
 -1      3623 3.47850E+01 1.30992E+01 0.00000E+00
 -1      3624 3.40350E+01 1.43982E+01 0.00000E+00
 -1      3625 3.62850E+01 1.30992E+01 0.00000E+00
 -1      3626 1.33892E+02 3.49336E+01 0.00000E+00
 -1      3627 1.35199E+02 3.50446E+01 0.00000E+00
 -1      3628 1.32826E+02 3.27462E+01 0.00000E+00
 -1      3629 9.74857E+01 2.04516E+01 0.00000E+00
 -1      3630 9.65187E+01 2.12891E+01 0.00000E+00
 -1      3631 9.71358E+01 2.21457E+01 0.00000E+00
 -1      3632 2.65350E+01 1.18003E+01 0.00000E+00
 -1      3633 3.02850E+01 1.30992E+01 0.00000E+00
 -1      3634 2.87850E+01 1.30992E+01 0.00000E+00
 -1      3635 3.10350E+01 1.43982E+01 0.00000E+00
 -1      3636 4.00350E+01 1.43982E+01 0.00000E+00
 -1      3637 3.92850E+01 1.30992E+01 0.00000E+00
 -1      3638 3.77850E+01 1.30992E+01 0.00000E+00
 -1      3639 6.42775E+01 1.52715E+01 0.00000E+00
 -1      3640 1.90350E+01 1.43983E+01 0.00000E+00
 -1      3641 1.82850E+01 1.30993E+01 0.00000E+00
 -1      3642 1.34412E+02 2.50094E+01 0.00000E+00
 -1      3643 1.35711E+02 2.42719E+01 0.00000E+00
 -1      3644 1.35711E+02 2.28062E+01 0.00000E+00
 -1      3645 9.69928E+01 1.49967E+01 0.00000E+00
 -1      3646 9.43847E+01 2.87656E+01 0.00000E+00
 -1      3647 9.41543E+01 2.99381E+01 0.00000E+00
 -1      3648 9.54240E+01 3.11105E+01 0.00000E+00
 -1      3649 9.52338E+01 2.80612E+01 0.00000E+00
 -1      3650 9.26859E+01 1.21971E+01 0.00000E+00
 -1      3651 1.35773E+02 1.51641E+01 0.00000E+00
 -1      3652 1.35992E+02 1.40839E+01 0.00000E+00
 -1      3653 1.36742E+02 1.27849E+01 0.00000E+00
 -1      3654 1.28805E+01 3.56145E+01 0.00000E+00
 -1      3655 9.06274E+01 3.62700E+01 0.00000E+00
 -1      3656 6.42507E+01 2.08167E+01 0.00000E+00
 -1      3657 6.33992E+01 1.97686E+01 0.00000E+00
 -1      3658 6.39410E+01 2.15514E+01 0.00000E+00
 -1      3659 9.67032E+01 2.41122E+01 0.00000E+00
 -1      3660 9.60069E+01 2.50275E+01 0.00000E+00
 -1      3661 9.61882E+01 2.58889E+01 0.00000E+00
 -1      3662 6.48645E+01 1.75894E+01 0.00000E+00
 -1      3663 6.47409E+01 1.65774E+01 0.00000E+00
 -1      3664 6.35853E+01 1.80220E+01 0.00000E+00
 -1      3665 6.54408E+01 2.42198E+01 0.00000E+00
 -1      3666 6.44153E+01 2.34249E+01 0.00000E+00
 -1      3667 6.50635E+01 2.50452E+01 0.00000E+00
 -1      3668 1.35711E+02 3.01500E+01 0.00000E+00
 -1      3669 1.35711E+02 2.86812E+01 0.00000E+00
 -1      3670 1.34412E+02 2.79438E+01 0.00000E+00
 -1      3671 1.62887E+01 3.45261E+01 0.00000E+00
 -1      3672 1.69669E+01 1.29495E+01 0.00000E+00
 -1      3673 1.35711E+02 1.84000E+01 0.00000E+00
 -1      3674 1.35711E+02 1.69250E+01 0.00000E+00
 -1      3675 1.55880E+01 2.20313E+01 0.00000E+00
 -1      3676 1.42890E+01 2.27656E+01 0.00000E+00
 -1      3677 1.42890E+01 2.42406E+01 0.00000E+00
 -1      3678 1.34473E+02 1.59016E+01 0.00000E+00
 -1      3679 1.37087E+01 3.42169E+01 0.00000E+00
 -1      3680 9.36747E+01 1.33245E+01 0.00000E+00
 -1      3681 1.37087E+01 3.12794E+01 0.00000E+00
 -1      3682 1.37087E+01 3.27482E+01 0.00000E+00
 -1      3683 1.44274E+01 3.31713E+01 0.00000E+00
 -1      3684 1.29900E+01 2.64469E+01 0.00000E+00
 -1      3685 5.87850E+01 1.56973E+01 0.00000E+00
 -1      3686 5.72850E+01 1.56973E+01 0.00000E+00
 -1      3687 2.49000E+01 3.31130E+01 0.00000E+00
 -1      3688 2.64000E+01 3.31130E+01 0.00000E+00
 -1      3689 2.79000E+01 3.31130E+01 0.00000E+00
 -1      3690 2.94000E+01 3.31130E+01 0.00000E+00
 -1      3691 2.71500E+01 3.18140E+01 0.00000E+00
 -1      3692 3.09000E+01 3.31130E+01 0.00000E+00
 -1      3693 3.24000E+01 3.31130E+01 0.00000E+00
 -1      3694 3.01500E+01 3.18140E+01 0.00000E+00
 -1      3695 3.39000E+01 3.31130E+01 0.00000E+00
 -1      3696 3.54000E+01 3.31130E+01 0.00000E+00
 -1      3697 3.31500E+01 3.18140E+01 0.00000E+00
 -1      3698 3.69000E+01 3.31130E+01 0.00000E+00
 -1      3699 3.84000E+01 3.31130E+01 0.00000E+00
 -1      3700 3.61500E+01 3.18140E+01 0.00000E+00
 -1      3701 3.99000E+01 3.31130E+01 0.00000E+00
 -1      3702 4.14000E+01 3.31130E+01 0.00000E+00
 -1      3703 3.91500E+01 3.18140E+01 0.00000E+00
 -1      3704 4.29000E+01 3.31130E+01 0.00000E+00
 -1      3705 4.44000E+01 3.31130E+01 0.00000E+00
 -1      3706 4.21500E+01 3.18140E+01 0.00000E+00
 -1      3707 4.59000E+01 3.31130E+01 0.00000E+00
 -1      3708 4.74000E+01 3.31130E+01 0.00000E+00
 -1      3709 4.51500E+01 3.18140E+01 0.00000E+00
 -1      3710 4.89000E+01 3.31130E+01 0.00000E+00
 -1      3711 5.04000E+01 3.31130E+01 0.00000E+00
 -1      3712 4.81500E+01 3.18140E+01 0.00000E+00
 -1      3713 5.19000E+01 3.31130E+01 0.00000E+00
 -1      3714 5.34000E+01 3.31130E+01 0.00000E+00
 -1      3715 5.11500E+01 3.18140E+01 0.00000E+00
 -1      3716 5.49000E+01 3.31130E+01 0.00000E+00
 -1      3717 5.64000E+01 3.31130E+01 0.00000E+00
 -1      3718 5.41500E+01 3.18140E+01 0.00000E+00
 -1      3719 5.79000E+01 3.31130E+01 0.00000E+00
 -1      3720 5.94000E+01 3.31130E+01 0.00000E+00
 -1      3721 5.71500E+01 3.18140E+01 0.00000E+00
 -1      3722 6.09000E+01 3.31130E+01 0.00000E+00
 -1      3723 6.24000E+01 3.31130E+01 0.00000E+00
 -1      3724 6.01500E+01 3.18140E+01 0.00000E+00
 -1      3725 4.37850E+01 1.56973E+01 0.00000E+00
 -1      3726 4.22850E+01 1.56973E+01 0.00000E+00
 -1      3727 1.46944E+01 1.23503E+01 0.00000E+00
 -1      3728 1.59934E+01 1.30847E+01 0.00000E+00
 -1      3729 9.69240E+01 3.11105E+01 0.00000E+00
 -1      3730 9.84240E+01 3.11105E+01 0.00000E+00
 -1      3731 9.68289E+01 2.95859E+01 0.00000E+00
 -1      3732 9.99240E+01 3.11105E+01 0.00000E+00
 -1      3733 1.01424E+02 3.11105E+01 0.00000E+00
 -1      3734 9.98289E+01 2.95859E+01 0.00000E+00
 -1      3735 1.02924E+02 3.11105E+01 0.00000E+00
 -1      3736 1.04424E+02 3.11105E+01 0.00000E+00
 -1      3737 1.02829E+02 2.95859E+01 0.00000E+00
 -1      3738 1.05924E+02 3.11105E+01 0.00000E+00
 -1      3739 1.07424E+02 3.11105E+01 0.00000E+00
 -1      3740 1.05829E+02 2.95859E+01 0.00000E+00
 -1      3741 1.08924E+02 3.11105E+01 0.00000E+00
 -1      3742 1.10424E+02 3.11105E+01 0.00000E+00
 -1      3743 1.08829E+02 2.95859E+01 0.00000E+00
 -1      3744 1.11924E+02 3.11105E+01 0.00000E+00
 -1      3745 1.13424E+02 3.11105E+01 0.00000E+00
 -1      3746 1.11829E+02 2.95859E+01 0.00000E+00
 -1      3747 1.14924E+02 3.11105E+01 0.00000E+00
 -1      3748 1.16424E+02 3.11105E+01 0.00000E+00
 -1      3749 1.14829E+02 2.95859E+01 0.00000E+00
 -1      3750 1.17924E+02 3.11105E+01 0.00000E+00
 -1      3751 1.19424E+02 3.11105E+01 0.00000E+00
 -1      3752 1.17829E+02 2.95859E+01 0.00000E+00
 -1      3753 1.20924E+02 3.11105E+01 0.00000E+00
 -1      3754 1.22424E+02 3.11105E+01 0.00000E+00
 -1      3755 1.20829E+02 2.95859E+01 0.00000E+00
 -1      3756 1.23924E+02 3.11105E+01 0.00000E+00
 -1      3757 1.25424E+02 3.11105E+01 0.00000E+00
 -1      3758 1.23829E+02 2.95859E+01 0.00000E+00
 -1      3759 1.26924E+02 3.11105E+01 0.00000E+00
 -1      3760 1.28424E+02 3.11105E+01 0.00000E+00
 -1      3761 1.26829E+02 2.95859E+01 0.00000E+00
 -1      3762 1.29924E+02 3.11105E+01 0.00000E+00
 -1      3763 1.31424E+02 3.11105E+01 0.00000E+00
 -1      3764 1.29829E+02 2.95859E+01 0.00000E+00
 -1      3765 5.57850E+01 1.56973E+01 0.00000E+00
 -1      3766 5.42850E+01 1.56973E+01 0.00000E+00
 -1      3767 5.65350E+01 1.69963E+01 0.00000E+00
 -1      3768 5.27850E+01 1.56973E+01 0.00000E+00
 -1      3769 5.12850E+01 1.56973E+01 0.00000E+00
 -1      3770 5.35350E+01 1.69963E+01 0.00000E+00
 -1      3771 1.97850E+01 1.56973E+01 0.00000E+00
 -1      3772 1.82851E+01 1.56973E+01 0.00000E+00
 -1      3773 1.89000E+01 3.31130E+01 0.00000E+00
 -1      3774 2.04000E+01 3.31130E+01 0.00000E+00
 -1      3775 1.35385E+02 3.41928E+01 0.00000E+00
 -1      3776 1.35572E+02 3.33411E+01 0.00000E+00
 -1      3777 1.00785E+02 1.54396E+01 0.00000E+00
 -1      3778 9.92850E+01 1.54396E+01 0.00000E+00
 -1      3779 1.06785E+02 1.54396E+01 0.00000E+00
 -1      3780 1.05285E+02 1.54396E+01 0.00000E+00
 -1      3781 1.42890E+01 2.57125E+01 0.00000E+00
 -1      3782 1.42890E+01 2.71844E+01 0.00000E+00
 -1      3783 1.55880E+01 2.49781E+01 0.00000E+00
 -1      3784 1.09785E+02 1.54396E+01 0.00000E+00
 -1      3785 1.08285E+02 1.54396E+01 0.00000E+00
 -1      3786 1.07535E+02 1.67386E+01 0.00000E+00
 -1      3787 1.12785E+02 1.54396E+01 0.00000E+00
 -1      3788 1.11285E+02 1.54396E+01 0.00000E+00
 -1      3789 1.10535E+02 1.67386E+01 0.00000E+00
 -1      3790 1.15785E+02 1.54396E+01 0.00000E+00
 -1      3791 1.14285E+02 1.54396E+01 0.00000E+00
 -1      3792 1.13535E+02 1.67386E+01 0.00000E+00
 -1      3793 1.18785E+02 1.54396E+01 0.00000E+00
 -1      3794 1.17285E+02 1.54396E+01 0.00000E+00
 -1      3795 1.16535E+02 1.67386E+01 0.00000E+00
 -1      3796 1.21785E+02 1.54396E+01 0.00000E+00
 -1      3797 1.20285E+02 1.54396E+01 0.00000E+00
 -1      3798 1.19535E+02 1.67386E+01 0.00000E+00
 -1      3799 1.24785E+02 1.54396E+01 0.00000E+00
 -1      3800 1.23285E+02 1.54396E+01 0.00000E+00
 -1      3801 1.22535E+02 1.67386E+01 0.00000E+00
 -1      3802 1.27785E+02 1.54396E+01 0.00000E+00
 -1      3803 1.26285E+02 1.54396E+01 0.00000E+00
 -1      3804 1.25535E+02 1.67386E+01 0.00000E+00
 -1      3805 1.30785E+02 1.54396E+01 0.00000E+00
 -1      3806 1.29285E+02 1.54396E+01 0.00000E+00
 -1      3807 1.28535E+02 1.67386E+01 0.00000E+00
 -1      3808 1.32973E+02 1.59016E+01 0.00000E+00
 -1      3809 1.35711E+02 2.13359E+01 0.00000E+00
 -1      3810 1.35711E+02 1.98703E+01 0.00000E+00
 -1      3811 1.34412E+02 1.91328E+01 0.00000E+00
 -1      3812 1.34412E+02 2.20734E+01 0.00000E+00
 -1      3813 2.72850E+01 1.30992E+01 0.00000E+00
 -1      3814 2.57850E+01 1.30992E+01 0.00000E+00
 -1      3815 2.80350E+01 1.43982E+01 0.00000E+00
 -1      3816 9.76702E+01 2.32747E+01 0.00000E+00
 -1      3817 9.82047E+01 2.44038E+01 0.00000E+00
 -1      3818 9.86373E+01 2.24373E+01 0.00000E+00
 -1      3819 6.29983E+01 1.57041E+01 0.00000E+00
 -1      3820 1.35572E+02 3.18723E+01 0.00000E+00
 -1      3821 1.42890E+01 2.86531E+01 0.00000E+00
 -1      3822 1.42890E+01 3.01219E+01 0.00000E+00
 -1      3823 1.55880E+01 2.79188E+01 0.00000E+00
 -1      3824 1.34273E+02 3.11348E+01 0.00000E+00
 -1      3825 1.42890E+01 1.68750E+01 0.00000E+00
 -1      3826 1.42890E+01 1.83500E+01 0.00000E+00
 -1      3827 1.55880E+01 1.90844E+01 0.00000E+00
 -1      3828 1.55880E+01 1.61406E+01 0.00000E+00
 -1      3829 1.65615E+01 1.45335E+01 0.00000E+00
 -1      3830 2.19000E+01 3.31130E+01 0.00000E+00
 -1      3831 2.34000E+01 3.31130E+01 0.00000E+00
 -1      3832 2.11500E+01 3.18140E+01 0.00000E+00
 -1      3833 1.74233E+01 1.58513E+01 0.00000E+00
 -1      3834 1.64498E+01 1.59866E+01 0.00000E+00
 -1      3835 1.64498E+01 1.74584E+01 0.00000E+00
 -1      3836 1.81733E+01 1.71503E+01 0.00000E+00
 -1      3837 1.03785E+02 1.54396E+01 0.00000E+00
 -1      3838 1.02285E+02 1.54396E+01 0.00000E+00
 -1      3839 1.01535E+02 1.67386E+01 0.00000E+00
 -1      3840 1.57330E+01 3.31992E+01 0.00000E+00
 -1      3841 1.75943E+01 3.30851E+01 0.00000E+00
 -1      3842 1.83443E+01 3.17861E+01 0.00000E+00
 -1      3843 1.57330E+01 3.17304E+01 0.00000E+00
 -1      3844 1.32966E+02 3.10238E+01 0.00000E+00
 -1      3845 1.32223E+02 1.72006E+01 0.00000E+00
 -1      3846 2.27850E+01 1.56973E+01 0.00000E+00
 -1      3847 2.12850E+01 1.56973E+01 0.00000E+00
 -1      3848 2.05351E+01 1.69963E+01 0.00000E+00
 -1      3849 4.15350E+01 1.69963E+01 0.00000E+00
 -1      3850 4.07850E+01 1.56973E+01 0.00000E+00
 -1      3851 3.92850E+01 1.56973E+01 0.00000E+00
 -1      3852 4.52850E+01 1.56973E+01 0.00000E+00
 -1      3853 4.45350E+01 1.69963E+01 0.00000E+00
 -1      3854 4.67850E+01 1.56973E+01 0.00000E+00
 -1      3855 6.39000E+01 3.31130E+01 0.00000E+00
 -1      3856 6.54000E+01 3.31130E+01 0.00000E+00
 -1      3857 6.40531E+01 2.70807E+01 0.00000E+00
 -1      3858 6.45583E+01 2.60630E+01 0.00000E+00
 -1      3859 6.35328E+01 2.52680E+01 0.00000E+00
 -1      3860 3.70350E+01 1.43982E+01 0.00000E+00
 -1      3861 9.78546E+01 1.92695E+01 0.00000E+00
 -1      3862 9.84717E+01 2.01262E+01 0.00000E+00
 -1      3863 9.82235E+01 1.80874E+01 0.00000E+00
 -1      3864 3.17850E+01 1.56973E+01 0.00000E+00
 -1      3865 3.02850E+01 1.56973E+01 0.00000E+00
 -1      3866 1.33113E+02 2.57422E+01 0.00000E+00
 -1      3867 1.33113E+02 2.42766E+01 0.00000E+00
 -1      3868 6.17850E+01 1.56973E+01 0.00000E+00
 -1      3869 6.02850E+01 1.56973E+01 0.00000E+00
 -1      3870 1.50077E+01 3.05450E+01 0.00000E+00
 -1      3871 2.50350E+01 1.43982E+01 0.00000E+00
 -1      3872 6.22483E+01 1.70031E+01 0.00000E+00
 -1      3873 9.64610E+01 2.69751E+01 0.00000E+00
 -1      3874 9.65561E+01 2.84997E+01 0.00000E+00
 -1      3875 9.80561E+01 2.84997E+01 0.00000E+00
 -1      3876 9.75105E+01 2.63274E+01 0.00000E+00
 -1      3877 9.88207E+01 1.69847E+01 0.00000E+00
 -1      3878 9.80707E+01 1.56857E+01 0.00000E+00
 -1      3879 5.95350E+01 1.69963E+01 0.00000E+00
 -1      3880 1.04535E+02 1.67386E+01 0.00000E+00
 -1      3881 1.32223E+02 1.86709E+01 0.00000E+00
 -1      3882 1.30035E+02 1.82089E+01 0.00000E+00
 -1      3883 1.32223E+02 2.01412E+01 0.00000E+00
 -1      3884 2.41500E+01 3.18140E+01 0.00000E+00
 -1      3885 6.57552E+01 3.03602E+01 0.00000E+00
 -1      3886 6.48643E+01 2.98448E+01 0.00000E+00
 -1      3887 1.32870E+02 2.94992E+01 0.00000E+00
 -1      3888 6.35638E+01 2.23768E+01 0.00000E+00
 -1      3889 6.27123E+01 2.13287E+01 0.00000E+00
 -1      3890 6.31865E+01 2.32022E+01 0.00000E+00
 -1      3891 6.28856E+01 1.88919E+01 0.00000E+00
 -1      3892 6.27620E+01 1.78799E+01 0.00000E+00
 -1      3893 6.15486E+01 1.78730E+01 0.00000E+00
 -1      3894 6.25759E+01 1.96266E+01 0.00000E+00
 -1      3895 6.75283E+01 3.25860E+01 0.00000E+00
 -1      3896 6.31500E+01 3.18140E+01 0.00000E+00
 -1      3897 3.32850E+01 1.56973E+01 0.00000E+00
 -1      3898 3.25350E+01 1.69963E+01 0.00000E+00
 -1      3899 3.47850E+01 1.56973E+01 0.00000E+00
 -1      3900 9.84775E+01 2.54899E+01 0.00000E+00
 -1      3901 9.87503E+01 2.65761E+01 0.00000E+00
 -1      3902 9.94445E+01 2.46525E+01 0.00000E+00
 -1      3903 1.64498E+01 1.89303E+01 0.00000E+00
 -1      3904 1.64498E+01 2.04022E+01 0.00000E+00
 -1      3905 1.73115E+01 1.87763E+01 0.00000E+00
 -1      3906 4.97850E+01 1.56973E+01 0.00000E+00
 -1      3907 4.82850E+01 1.56973E+01 0.00000E+00
 -1      3908 4.75350E+01 1.69963E+01 0.00000E+00
 -1      3909 5.05350E+01 1.69963E+01 0.00000E+00
 -1      3910 1.73115E+01 2.17231E+01 0.00000E+00
 -1      3911 1.64498E+01 2.18772E+01 0.00000E+00
 -1      3912 1.64498E+01 2.33522E+01 0.00000E+00
 -1      3913 6.34944E+01 3.04319E+01 0.00000E+00
 -1      3914 6.37087E+01 2.84628E+01 0.00000E+00
 -1      3915 6.26832E+01 2.76678E+01 0.00000E+00
 -1      3916 6.19944E+01 3.04319E+01 0.00000E+00
 -1      3917 1.32992E+02 2.83551E+01 0.00000E+00
 -1      3918 1.32992E+02 2.68863E+01 0.00000E+00
 -1      3919 1.31693E+02 2.61535E+01 0.00000E+00
 -1      3920 1.31450E+02 2.84418E+01 0.00000E+00
 -1      3921 5.12850E+01 1.82952E+01 0.00000E+00
 -1      3922 4.97850E+01 1.82952E+01 0.00000E+00
 -1      3923 2.94000E+01 3.05150E+01 0.00000E+00
 -1      3924 3.09000E+01 3.05150E+01 0.00000E+00
 -1      3925 3.24000E+01 3.05150E+01 0.00000E+00
 -1      3926 3.39000E+01 3.05150E+01 0.00000E+00
 -1      3927 3.16500E+01 2.92160E+01 0.00000E+00
 -1      3928 3.54000E+01 3.05150E+01 0.00000E+00
 -1      3929 3.69000E+01 3.05150E+01 0.00000E+00
 -1      3930 3.46500E+01 2.92160E+01 0.00000E+00
 -1      3931 3.84000E+01 3.05150E+01 0.00000E+00
 -1      3932 3.99000E+01 3.05150E+01 0.00000E+00
 -1      3933 3.76500E+01 2.92160E+01 0.00000E+00
 -1      3934 4.14000E+01 3.05150E+01 0.00000E+00
 -1      3935 4.29000E+01 3.05150E+01 0.00000E+00
 -1      3936 4.06500E+01 2.92160E+01 0.00000E+00
 -1      3937 4.44000E+01 3.05150E+01 0.00000E+00
 -1      3938 4.59000E+01 3.05150E+01 0.00000E+00
 -1      3939 4.36500E+01 2.92160E+01 0.00000E+00
 -1      3940 4.74000E+01 3.05150E+01 0.00000E+00
 -1      3941 4.89000E+01 3.05150E+01 0.00000E+00
 -1      3942 4.66500E+01 2.92160E+01 0.00000E+00
 -1      3943 5.04000E+01 3.05150E+01 0.00000E+00
 -1      3944 5.19000E+01 3.05150E+01 0.00000E+00
 -1      3945 4.96500E+01 2.92160E+01 0.00000E+00
 -1      3946 5.34000E+01 3.05150E+01 0.00000E+00
 -1      3947 5.49000E+01 3.05150E+01 0.00000E+00
 -1      3948 5.26500E+01 2.92160E+01 0.00000E+00
 -1      3949 5.64000E+01 3.05150E+01 0.00000E+00
 -1      3950 5.79000E+01 3.05150E+01 0.00000E+00
 -1      3951 5.56500E+01 2.92160E+01 0.00000E+00
 -1      3952 5.91972E+01 3.04735E+01 0.00000E+00
 -1      3953 6.06972E+01 3.04735E+01 0.00000E+00
 -1      3954 6.10416E+01 2.90914E+01 0.00000E+00
 -1      3955 5.84472E+01 2.91745E+01 0.00000E+00
 -1      3956 1.08285E+02 1.80376E+01 0.00000E+00
 -1      3957 1.06785E+02 1.80376E+01 0.00000E+00
 -1      3958 1.02079E+02 2.82869E+01 0.00000E+00
 -1      3959 1.03579E+02 2.82869E+01 0.00000E+00
 -1      3960 1.05079E+02 2.82869E+01 0.00000E+00
 -1      3961 1.06579E+02 2.82869E+01 0.00000E+00
 -1      3962 1.04329E+02 2.69879E+01 0.00000E+00
 -1      3963 1.08079E+02 2.82869E+01 0.00000E+00
 -1      3964 1.09579E+02 2.82869E+01 0.00000E+00
 -1      3965 1.07329E+02 2.69879E+01 0.00000E+00
 -1      3966 1.11079E+02 2.82869E+01 0.00000E+00
 -1      3967 1.12579E+02 2.82869E+01 0.00000E+00
 -1      3968 1.10329E+02 2.69879E+01 0.00000E+00
 -1      3969 1.14079E+02 2.82869E+01 0.00000E+00
 -1      3970 1.15579E+02 2.82869E+01 0.00000E+00
 -1      3971 1.13329E+02 2.69879E+01 0.00000E+00
 -1      3972 1.17079E+02 2.82869E+01 0.00000E+00
 -1      3973 1.18579E+02 2.82869E+01 0.00000E+00
 -1      3974 1.16329E+02 2.69879E+01 0.00000E+00
 -1      3975 1.20079E+02 2.82869E+01 0.00000E+00
 -1      3976 1.21579E+02 2.82869E+01 0.00000E+00
 -1      3977 1.19329E+02 2.69879E+01 0.00000E+00
 -1      3978 1.23079E+02 2.82869E+01 0.00000E+00
 -1      3979 1.24579E+02 2.82869E+01 0.00000E+00
 -1      3980 1.22329E+02 2.69879E+01 0.00000E+00
 -1      3981 1.26079E+02 2.82869E+01 0.00000E+00
 -1      3982 1.27579E+02 2.82869E+01 0.00000E+00
 -1      3983 1.25329E+02 2.69879E+01 0.00000E+00
 -1      3984 1.28765E+02 2.83643E+01 0.00000E+00
 -1      3985 1.30265E+02 2.83643E+01 0.00000E+00
 -1      3986 1.30386E+02 2.72202E+01 0.00000E+00
 -1      3987 1.28015E+02 2.70653E+01 0.00000E+00
 -1      3988 5.72850E+01 1.82952E+01 0.00000E+00
 -1      3989 5.57850E+01 1.82952E+01 0.00000E+00
 -1      3990 1.05285E+02 1.80376E+01 0.00000E+00
 -1      3991 1.03785E+02 1.80376E+01 0.00000E+00
 -1      3992 1.06035E+02 1.93366E+01 0.00000E+00
 -1      3993 5.42850E+01 1.82952E+01 0.00000E+00
 -1      3994 5.27850E+01 1.82952E+01 0.00000E+00
 -1      3995 5.50350E+01 1.95942E+01 0.00000E+00
 -1      3996 1.63133E+01 3.05729E+01 0.00000E+00
 -1      3997 1.64498E+01 2.48241E+01 0.00000E+00
 -1      3998 1.64498E+01 2.62959E+01 0.00000E+00
 -1      3999 1.73115E+01 2.46700E+01 0.00000E+00
 -1      4000 6.02850E+01 1.82952E+01 0.00000E+00
 -1      4001 5.87850E+01 1.82952E+01 0.00000E+00
 -1      4002 5.80350E+01 1.95942E+01 0.00000E+00
 -1      4003 1.14285E+02 1.80376E+01 0.00000E+00
 -1      4004 1.12785E+02 1.80376E+01 0.00000E+00
 -1      4005 1.17285E+02 1.80376E+01 0.00000E+00
 -1      4006 1.15785E+02 1.80376E+01 0.00000E+00
 -1      4007 1.15035E+02 1.93366E+01 0.00000E+00
 -1      4008 1.20285E+02 1.80376E+01 0.00000E+00
 -1      4009 1.18785E+02 1.80376E+01 0.00000E+00
 -1      4010 1.18035E+02 1.93366E+01 0.00000E+00
 -1      4011 1.23285E+02 1.80376E+01 0.00000E+00
 -1      4012 1.21785E+02 1.80376E+01 0.00000E+00
 -1      4013 1.21035E+02 1.93366E+01 0.00000E+00
 -1      4014 1.26285E+02 1.80376E+01 0.00000E+00
 -1      4015 1.24785E+02 1.80376E+01 0.00000E+00
 -1      4016 1.24035E+02 1.93366E+01 0.00000E+00
 -1      4017 1.28910E+02 1.81233E+01 0.00000E+00
 -1      4018 1.27410E+02 1.81233E+01 0.00000E+00
 -1      4019 1.26660E+02 1.94223E+01 0.00000E+00
 -1      4020 1.28910E+02 1.95936E+01 0.00000E+00
 -1      4021 1.32668E+02 2.29440E+01 0.00000E+00
 -1      4022 1.32668E+02 2.14737E+01 0.00000E+00
 -1      4023 1.30480E+02 2.10118E+01 0.00000E+00
 -1      4024 1.31369E+02 2.36768E+01 0.00000E+00
 -1      4025 1.11285E+02 1.80376E+01 0.00000E+00
 -1      4026 1.09785E+02 1.80376E+01 0.00000E+00
 -1      4027 1.09035E+02 1.93366E+01 0.00000E+00
 -1      4028 1.12035E+02 1.93366E+01 0.00000E+00
 -1      4029 6.59319E+01 3.16572E+01 0.00000E+00
 -1      4030 9.95238E+01 2.13266E+01 0.00000E+00
 -1      4031 1.00058E+02 2.24557E+01 0.00000E+00
 -1      4032 1.63816E+01 2.77000E+01 0.00000E+00
 -1      4033 1.63816E+01 2.91688E+01 0.00000E+00
 -1      4034 1.71069E+01 3.03542E+01 0.00000E+00
 -1      4035 1.72433E+01 2.75460E+01 0.00000E+00
 -1      4036 3.77850E+01 1.56973E+01 0.00000E+00
 -1      4037 3.62850E+01 1.56973E+01 0.00000E+00
 -1      4038 3.55350E+01 1.69963E+01 0.00000E+00
 -1      4039 3.85350E+01 1.69963E+01 0.00000E+00
 -1      4040 2.87850E+01 1.56973E+01 0.00000E+00
 -1      4041 2.72850E+01 1.56973E+01 0.00000E+00
 -1      4042 2.95350E+01 1.69963E+01 0.00000E+00
 -1      4043 2.57850E+01 1.56973E+01 0.00000E+00
 -1      4044 2.42850E+01 1.56973E+01 0.00000E+00
 -1      4045 2.35350E+01 1.69963E+01 0.00000E+00
 -1      4046 2.65350E+01 1.69963E+01 0.00000E+00
 -1      4047 2.04000E+01 3.05150E+01 0.00000E+00
 -1      4048 2.19000E+01 3.05150E+01 0.00000E+00
 -1      4049 9.94378E+01 1.78413E+01 0.00000E+00
 -1      4050 2.34000E+01 3.05150E+01 0.00000E+00
 -1      4051 2.49000E+01 3.05150E+01 0.00000E+00
 -1      4052 2.26500E+01 2.92160E+01 0.00000E+00
 -1      4053 2.64000E+01 3.05150E+01 0.00000E+00
 -1      4054 2.79000E+01 3.05150E+01 0.00000E+00
 -1      4055 2.56500E+01 2.92160E+01 0.00000E+00
 -1      4056 4.90350E+01 1.95942E+01 0.00000E+00
 -1      4057 4.82850E+01 1.82952E+01 0.00000E+00
 -1      4058 4.67850E+01 1.82952E+01 0.00000E+00
 -1      4059 3.32850E+01 1.82952E+01 0.00000E+00
 -1      4060 3.17850E+01 1.82952E+01 0.00000E+00
 -1      4061 4.22850E+01 1.82952E+01 0.00000E+00
 -1      4062 4.07850E+01 1.82952E+01 0.00000E+00
 -1      4063 1.84126E+01 3.03820E+01 0.00000E+00
 -1      4064 5.20350E+01 1.95942E+01 0.00000E+00
 -1      4065 1.00523E+02 2.76623E+01 0.00000E+00
 -1      4066 1.01273E+02 2.63633E+01 0.00000E+00
 -1      4067 3.02850E+01 1.82952E+01 0.00000E+00
 -1      4068 2.87850E+01 1.82952E+01 0.00000E+00
 -1      4069 3.10350E+01 1.95942E+01 0.00000E+00
 -1      4070 6.21761E+01 2.52377E+01 0.00000E+00
 -1      4071 6.26813E+01 2.42199E+01 0.00000E+00
 -1      4072 6.18298E+01 2.31718E+01 0.00000E+00
 -1      4073 1.02285E+02 1.80376E+01 0.00000E+00
 -1      4074 1.00785E+02 1.80376E+01 0.00000E+00
 -1      4075 1.01218E+02 2.24312E+01 0.00000E+00
 -1      4076 1.00331E+02 2.35418E+01 0.00000E+00
 -1      4077 1.00604E+02 2.46280E+01 0.00000E+00
 -1      4078 9.90231E+01 2.76623E+01 0.00000E+00
 -1      4079 1.03035E+02 1.93366E+01 0.00000E+00
 -1      4080 4.52850E+01 1.82952E+01 0.00000E+00
 -1      4081 4.37850E+01 1.82952E+01 0.00000E+00
 -1      4082 4.60350E+01 1.95942E+01 0.00000E+00
 -1      4083 2.86500E+01 2.92160E+01 0.00000E+00
 -1      4084 6.07986E+01 1.91720E+01 0.00000E+00
 -1      4085 1.81733E+01 1.86222E+01 0.00000E+00
 -1      4086 1.81733E+01 2.00941E+01 0.00000E+00
 -1      4087 1.90351E+01 1.84681E+01 0.00000E+00
 -1      4088 1.30359E+02 2.47544E+01 0.00000E+00
 -1      4089 1.29915E+02 2.34218E+01 0.00000E+00
 -1      4090 1.91626E+01 2.90830E+01 0.00000E+00
 -1      4091 2.05351E+01 1.84681E+01 0.00000E+00
 -1      4092 9.98927E+01 2.01445E+01 0.00000E+00
 -1      4093 1.00188E+02 1.91403E+01 0.00000E+00
 -1      4094 6.20123E+01 2.06888E+01 0.00000E+00
 -1      4095 6.14986E+01 1.98120E+01 0.00000E+00
 -1      4096 6.02350E+01 2.02342E+01 0.00000E+00
 -1      4097 6.16350E+01 2.15141E+01 0.00000E+00
 -1      4098 1.81733E+01 2.15691E+01 0.00000E+00
 -1      4099 1.81733E+01 2.30441E+01 0.00000E+00
 -1      4100 1.90351E+01 2.14150E+01 0.00000E+00
 -1      4101 4.30350E+01 1.95942E+01 0.00000E+00
 -1      4102 1.30507E+02 2.60761E+01 0.00000E+00
 -1      4103 1.29053E+02 2.58211E+01 0.00000E+00
 -1      4104 3.47850E+01 1.82952E+01 0.00000E+00
 -1      4105 3.40350E+01 1.95942E+01 0.00000E+00
 -1      4106 3.62850E+01 1.82952E+01 0.00000E+00
 -1      4107 4.00350E+01 1.95942E+01 0.00000E+00
 -1      4108 3.92850E+01 1.82952E+01 0.00000E+00
 -1      4109 3.77850E+01 1.82952E+01 0.00000E+00
 -1      4110 2.21949E+01 1.86594E+01 0.00000E+00
 -1      4111 2.06949E+01 2.01313E+01 0.00000E+00
 -1      4112 3.39000E+01 2.79170E+01 0.00000E+00
 -1      4113 3.54000E+01 2.79170E+01 0.00000E+00
 -1      4114 3.69000E+01 2.79170E+01 0.00000E+00
 -1      4115 3.84000E+01 2.79170E+01 0.00000E+00
 -1      4116 3.61500E+01 2.66180E+01 0.00000E+00
 -1      4117 3.99000E+01 2.79170E+01 0.00000E+00
 -1      4118 4.14000E+01 2.79170E+01 0.00000E+00
 -1      4119 3.91500E+01 2.66180E+01 0.00000E+00
 -1      4120 4.29000E+01 2.79170E+01 0.00000E+00
 -1      4121 4.44000E+01 2.79170E+01 0.00000E+00
 -1      4122 4.21500E+01 2.66180E+01 0.00000E+00
 -1      4123 4.59000E+01 2.79170E+01 0.00000E+00
 -1      4124 4.74000E+01 2.79170E+01 0.00000E+00
 -1      4125 4.51500E+01 2.66180E+01 0.00000E+00
 -1      4126 4.89000E+01 2.79170E+01 0.00000E+00
 -1      4127 5.04000E+01 2.79170E+01 0.00000E+00
 -1      4128 4.81500E+01 2.66180E+01 0.00000E+00
 -1      4129 5.19000E+01 2.79170E+01 0.00000E+00
 -1      4130 5.34000E+01 2.79170E+01 0.00000E+00
 -1      4131 5.11500E+01 2.66180E+01 0.00000E+00
 -1      4132 5.49000E+01 2.79170E+01 0.00000E+00
 -1      4133 5.64000E+01 2.79170E+01 0.00000E+00
 -1      4134 5.41500E+01 2.66180E+01 0.00000E+00
 -1      4135 1.02160E+02 2.52526E+01 0.00000E+00
 -1      4136 2.79000E+01 2.79170E+01 0.00000E+00
 -1      4137 2.94000E+01 2.79170E+01 0.00000E+00
 -1      4138 1.27867E+02 2.57436E+01 0.00000E+00
 -1      4139 1.06579E+02 2.56889E+01 0.00000E+00
 -1      4140 1.08079E+02 2.56889E+01 0.00000E+00
 -1      4141 1.09579E+02 2.56889E+01 0.00000E+00
 -1      4142 1.11079E+02 2.56889E+01 0.00000E+00
 -1      4143 1.08829E+02 2.43899E+01 0.00000E+00
 -1      4144 1.12579E+02 2.56889E+01 0.00000E+00
 -1      4145 1.14079E+02 2.56889E+01 0.00000E+00
 -1      4146 1.11829E+02 2.43899E+01 0.00000E+00
 -1      4147 1.15579E+02 2.56889E+01 0.00000E+00
 -1      4148 1.17079E+02 2.56889E+01 0.00000E+00
 -1      4149 1.14829E+02 2.43899E+01 0.00000E+00
 -1      4150 1.18579E+02 2.56889E+01 0.00000E+00
 -1      4151 1.20079E+02 2.56889E+01 0.00000E+00
 -1      4152 1.17829E+02 2.43899E+01 0.00000E+00
 -1      4153 1.21579E+02 2.56889E+01 0.00000E+00
 -1      4154 1.23079E+02 2.56889E+01 0.00000E+00
 -1      4155 1.20829E+02 2.43899E+01 0.00000E+00
 -1      4156 1.24579E+02 2.56889E+01 0.00000E+00
 -1      4157 1.26079E+02 2.56889E+01 0.00000E+00
 -1      4158 1.23829E+02 2.43899E+01 0.00000E+00
 -1      4159 1.06785E+02 2.06356E+01 0.00000E+00
 -1      4160 1.05285E+02 2.06356E+01 0.00000E+00
 -1      4161 5.57850E+01 2.08932E+01 0.00000E+00
 -1      4162 5.42850E+01 2.08932E+01 0.00000E+00
 -1      4163 1.21785E+02 2.06356E+01 0.00000E+00
 -1      4164 1.20285E+02 2.06356E+01 0.00000E+00
 -1      4165 1.81733E+01 2.45159E+01 0.00000E+00
 -1      4166 1.81733E+01 2.59878E+01 0.00000E+00
 -1      4167 1.90351E+01 2.43619E+01 0.00000E+00
 -1      4168 1.01240E+02 2.03408E+01 0.00000E+00
 -1      4169 1.15785E+02 2.06356E+01 0.00000E+00
 -1      4170 1.14285E+02 2.06356E+01 0.00000E+00
 -1      4171 1.92308E+01 2.76789E+01 0.00000E+00
 -1      4172 5.27850E+01 2.08932E+01 0.00000E+00
 -1      4173 5.12850E+01 2.08932E+01 0.00000E+00
 -1      4174 5.35350E+01 2.21922E+01 0.00000E+00
 -1      4175 5.87850E+01 2.08932E+01 0.00000E+00
 -1      4176 5.72850E+01 2.08932E+01 0.00000E+00
 -1      4177 5.65350E+01 2.21922E+01 0.00000E+00
 -1      4178 1.03619E+02 2.54708E+01 0.00000E+00
 -1      4179 1.05119E+02 2.54708E+01 0.00000E+00
 -1      4180 1.05869E+02 2.41718E+01 0.00000E+00
 -1      4181 1.02950E+02 2.37355E+01 0.00000E+00
 -1      4182 4.37850E+01 2.08932E+01 0.00000E+00
 -1      4183 4.22850E+01 2.08932E+01 0.00000E+00
 -1      4184 6.14367E+01 2.78556E+01 0.00000E+00
 -1      4185 6.17811E+01 2.64735E+01 0.00000E+00
 -1      4186 6.09296E+01 2.54254E+01 0.00000E+00
 -1      4187 6.01395E+01 2.78971E+01 0.00000E+00
 -1      4188 1.29635E+02 2.21740E+01 0.00000E+00
 -1      4189 1.29190E+02 2.08414E+01 0.00000E+00
 -1      4190 1.28065E+02 2.07558E+01 0.00000E+00
 -1      4191 1.28625E+02 2.32515E+01 0.00000E+00
 -1      4192 2.19000E+01 2.79170E+01 0.00000E+00
 -1      4193 2.34000E+01 2.79170E+01 0.00000E+00
 -1      4194 3.09000E+01 2.79170E+01 0.00000E+00
 -1      4195 3.24000E+01 2.79170E+01 0.00000E+00
 -1      4196 3.01500E+01 2.66180E+01 0.00000E+00
 -1      4197 2.49000E+01 2.79170E+01 0.00000E+00
 -1      4198 2.64000E+01 2.79170E+01 0.00000E+00
 -1      4199 2.41500E+01 2.66180E+01 0.00000E+00
 -1      4200 1.02274E+02 2.03818E+01 0.00000E+00
 -1      4201 1.01979E+02 2.13860E+01 0.00000E+00
 -1      4202 1.02252E+02 2.24722E+01 0.00000E+00
 -1      4203 1.03774E+02 2.03818E+01 0.00000E+00
 -1      4204 1.27117E+02 2.44446E+01 0.00000E+00
 -1      4205 4.07850E+01 2.08932E+01 0.00000E+00
 -1      4206 3.92850E+01 2.08932E+01 0.00000E+00
 -1      4207 4.15350E+01 2.21922E+01 0.00000E+00
 -1      4208 2.36948E+01 1.86594E+01 0.00000E+00
 -1      4209 6.68140E+01 3.22116E+01 0.00000E+00
 -1      4210 3.17850E+01 2.08932E+01 0.00000E+00
 -1      4211 3.02850E+01 2.08932E+01 0.00000E+00
 -1      4212 1.26837E+02 2.31968E+01 0.00000E+00
 -1      4213 5.76211E+01 2.79278E+01 0.00000E+00
 -1      4214 5.89183E+01 2.78863E+01 0.00000E+00
 -1      4215 5.93134E+01 2.66504E+01 0.00000E+00
 -1      4216 5.68711E+01 2.66288E+01 0.00000E+00
 -1      4217 2.80350E+01 1.95943E+01 0.00000E+00
 -1      4218 2.72850E+01 1.82953E+01 0.00000E+00
 -1      4219 2.57850E+01 1.82953E+01 0.00000E+00
 -1      4220 2.06949E+01 2.16063E+01 0.00000E+00
 -1      4221 2.71500E+01 2.66180E+01 0.00000E+00
 -1      4222 4.52850E+01 2.08932E+01 0.00000E+00
 -1      4223 4.45350E+01 2.21922E+01 0.00000E+00
 -1      4224 4.67850E+01 2.08932E+01 0.00000E+00
 -1      4225 1.04524E+02 2.16808E+01 0.00000E+00
 -1      4226 6.06246E+01 2.35496E+01 0.00000E+00
 -1      4227 6.11298E+01 2.25319E+01 0.00000E+00
 -1      4228 6.04298E+01 2.18919E+01 0.00000E+00
 -1      4229 3.47850E+01 2.08932E+01 0.00000E+00
 -1      4230 3.32850E+01 2.08932E+01 0.00000E+00
 -1      4231 3.25350E+01 2.21922E+01 0.00000E+00
 -1      4232 1.18785E+02 2.06356E+01 0.00000E+00
 -1      4233 1.17285E+02 2.06356E+01 0.00000E+00
 -1      4234 1.24785E+02 2.06356E+01 0.00000E+00
 -1      4235 1.23285E+02 2.06356E+01 0.00000E+00
 -1      4236 1.22535E+02 2.19346E+01 0.00000E+00
 -1      4237 5.05350E+01 2.21922E+01 0.00000E+00
 -1      4238 4.97850E+01 2.08932E+01 0.00000E+00
 -1      4239 4.82850E+01 2.08932E+01 0.00000E+00
 -1      4240 1.16535E+02 2.19346E+01 0.00000E+00
 -1      4241 1.19535E+02 2.19346E+01 0.00000E+00
 -1      4242 3.31500E+01 2.66180E+01 0.00000E+00
 -1      4243 5.94850E+01 2.15332E+01 0.00000E+00
 -1      4244 2.44448E+01 1.99584E+01 0.00000E+00
 -1      4245 1.24682E+02 2.31622E+01 0.00000E+00
 -1      4246 1.26190E+02 2.19691E+01 0.00000E+00
 -1      4247 3.84000E+01 2.53190E+01 0.00000E+00
 -1      4248 3.99000E+01 2.53190E+01 0.00000E+00
 -1      4249 4.18425E+01 2.44051E+01 0.00000E+00
 -1      4250 4.33425E+01 2.44051E+01 0.00000E+00
 -1      4251 4.48425E+01 2.44051E+01 0.00000E+00
 -1      4252 4.63425E+01 2.44051E+01 0.00000E+00
 -1      4253 4.78425E+01 2.44051E+01 0.00000E+00
 -1      4254 4.93425E+01 2.44051E+01 0.00000E+00
 -1      4255 5.08425E+01 2.44051E+01 0.00000E+00
 -1      4256 5.23425E+01 2.44051E+01 0.00000E+00
 -1      4257 5.38425E+01 2.44051E+01 0.00000E+00
 -1      4258 5.53425E+01 2.44051E+01 0.00000E+00
 -1      4259 1.08079E+02 2.30909E+01 0.00000E+00
 -1      4260 1.09579E+02 2.30909E+01 0.00000E+00
 -1      4261 3.70350E+01 1.95942E+01 0.00000E+00
 -1      4262 1.26940E+02 2.06701E+01 0.00000E+00
 -1      4263 1.14182E+02 2.31622E+01 0.00000E+00
 -1      4264 1.15682E+02 2.31622E+01 0.00000E+00
 -1      4265 1.17182E+02 2.31622E+01 0.00000E+00
 -1      4266 1.18682E+02 2.31622E+01 0.00000E+00
 -1      4267 1.20182E+02 2.31622E+01 0.00000E+00
 -1      4268 1.21682E+02 2.31622E+01 0.00000E+00
 -1      4269 1.23182E+02 2.31622E+01 0.00000E+00
 -1      4270 1.08182E+02 2.05642E+01 0.00000E+00
 -1      4271 1.07432E+02 2.18632E+01 0.00000E+00
 -1      4272 1.05222E+02 2.29441E+01 0.00000E+00
 -1      4273 1.03711E+02 2.26903E+01 0.00000E+00
 -1      4274 2.95350E+01 2.21923E+01 0.00000E+00
 -1      4275 2.87850E+01 2.08933E+01 0.00000E+00
 -1      4276 2.72850E+01 2.08933E+01 0.00000E+00
 -1      4277 5.68425E+01 2.44051E+01 0.00000E+00
 -1      4278 1.09682E+02 2.05642E+01 0.00000E+00
 -1      4279 3.28425E+01 2.44051E+01 0.00000E+00
 -1      4280 3.43425E+01 2.44051E+01 0.00000E+00
 -1      4281 1.12785E+02 2.06356E+01 0.00000E+00
 -1      4282 1.11285E+02 2.06356E+01 0.00000E+00
 -1      4283 1.99808E+01 2.63799E+01 0.00000E+00
 -1      4284 2.23195E+01 2.19919E+01 0.00000E+00
 -1      4285 2.06597E+01 2.32757E+01 0.00000E+00
 -1      4286 1.13535E+02 2.19346E+01 0.00000E+00
 -1      4287 3.56213E+01 2.48621E+01 0.00000E+00
 -1      4288 3.71213E+01 2.48621E+01 0.00000E+00
 -1      4289 3.78713E+01 2.35631E+01 0.00000E+00
 -1      4290 3.53138E+01 2.26492E+01 0.00000E+00
 -1      4291 2.98425E+01 2.44051E+01 0.00000E+00
 -1      4292 3.13425E+01 2.44051E+01 0.00000E+00
 -1      4293 2.06597E+01 2.47475E+01 0.00000E+00
 -1      4294 5.89798E+01 2.25510E+01 0.00000E+00
 -1      4295 2.68425E+01 2.44051E+01 0.00000E+00
 -1      4296 2.83425E+01 2.44051E+01 0.00000E+00
 -1      4297 1.06682E+02 2.31622E+01 0.00000E+00
 -1      4298 1.10432E+02 2.18632E+01 0.00000E+00
 -1      4299 1.11182E+02 2.31622E+01 0.00000E+00
 -1      4300 1.12682E+02 2.31622E+01 0.00000E+00
 -1      4301 3.77850E+01 2.08932E+01 0.00000E+00
 -1      4302 3.62850E+01 2.08932E+01 0.00000E+00
 -1      4303 4.75350E+01 2.21922E+01 0.00000E+00
 -1      4304 6.03047E+01 2.43082E+01 0.00000E+00
 -1      4305 5.96047E+01 2.36682E+01 0.00000E+00
 -1      4306 5.86599E+01 2.33095E+01 0.00000E+00
 -1      4307 5.99096E+01 2.55440E+01 0.00000E+00
 -1      4308 2.51027E+01 2.48953E+01 0.00000E+00
 -1      4309 2.62953E+01 2.26824E+01 0.00000E+00
 -1      4310 3.85350E+01 2.21922E+01 0.00000E+00
 -1      4311 2.36027E+01 2.48953E+01 0.00000E+00
 -1      4312 2.24672E+01 2.51397E+01 0.00000E+00
 -1      4313 2.34199E+01 2.34170E+01 0.00000E+00
 -1      4314 5.74674E+01 2.55224E+01 0.00000E+00
 -1      4315 4.10925E+01 2.31061E+01 0.00000E+00
 -1      4316 2.34551E+01 2.17476E+01 0.00000E+00
 -1      4317 2.55453E+01 2.13834E+01 0.00000E+00
 -1      4318 5.86885E+01 2.55332E+01 0.00000E+00
 -1      4319 3.55350E+01 2.21922E+01 0.00000E+00
 -1      4320 3.95925E+01 2.31061E+01 0.00000E+00
 -1      4321 3.80925E+01 2.31061E+01 0.00000E+00
 -1      4322 3.68138E+01 2.26492E+01 0.00000E+00
 -1      4323 2.18143E+01 2.59709E+01 0.00000E+00
 -1      4324 2.16314E+01 2.44925E+01 0.00000E+00
 -1      4325 2.08425E+01 2.62259E+01 0.00000E+00
 -1      4326 2.00068E+01 2.55788E+01 0.00000E+00
 -3
    3C                          2082                                     1
 -1       163    8    0    1
 -2         6         7        23      1123      1285      1140
 -1       164    8    0    1
 -2         7         8       163      1124      1286      1287
 -1       165    8    0    1
 -2         8         9       164      1125      1288      1289
 -1       166    8    0    1
 -2         8       164       163      1289      1290      1286
 -1       167    8    0    1
 -2         9        10       165      1126      1291      1292
 -1       168    8    0    1
 -2         9       165       164      1292      1293      1288
 -1       169    8    0    1
 -2        10        11       166      1127      1294      1295
 -1       170    8    0    1
 -2        10       166       165      1295      1296      1291
 -1       171    8    0    1
 -2        11        12       167      1128      1297      1298
 -1       172    8    0    1
 -2        11       167       166      1298      1299      1294
 -1       173    8    0    1
 -2        12        13       168      1129      1300      1301
 -1       174    8    0    1
 -2        12       168       167      1301      1302      1297
 -1       175    8    0    1
 -2        13        14       169      1130      1303      1304
 -1       176    8    0    1
 -2        13       169       168      1304      1305      1300
 -1       177    8    0    1
 -2        14        15       170      1131      1306      1307
 -1       178    8    0    1
 -2        14       170       169      1307      1308      1303
 -1       179    8    0    1
 -2        15        16       171      1132      1309      1310
 -1       180    8    0    1
 -2        15       171       170      1310      1311      1306
 -1       181    8    0    1
 -2        16        17       172      1133      1312      1313
 -1       182    8    0    1
 -2        16       172       171      1313      1314      1309
 -1       183    8    0    1
 -2        17        18       173      1134      1315      1316
 -1       184    8    0    1
 -2        17       173       172      1316      1317      1312
 -1       185    8    0    1
 -2        18        19       174      1135      1318      1319
 -1       186    8    0    1
 -2        18       174       173      1319      1320      1315
 -1       187    8    0    1
 -2        19        20       175      1136      1321      1322
 -1       188    8    0    1
 -2        19       175       174      1322      1323      1318
 -1       189    8    0    1
 -2        20        21       176      1137      1324      1325
 -1       190    8    0    1
 -2        20       176       175      1325      1326      1321
 -1       191    8    0    1
 -2        21        22       177      1138      1327      1328
 -1       192    8    0    1
 -2        21       177       176      1328      1329      1324
 -1       193    8    0    1
 -2        22         5       178      1139      1330      1331
 -1       194    8    0    1
 -2       177        22       178      1327      1331      1332
 -1       195    8    0    1
 -2         5        72       178      1190      1333      1330
 -1       196    8    0    1
 -2        24        23       179      1141      1334      1335
 -1       197    8    0    1
 -2        25        24       180      1142      1336      1337
 -1       198    8    0    1
 -2        24       179       180      1335      1338      1336
 -1       199    8    0    1
 -2        26        25       181      1143      1339      1340
 -1       200    8    0    1
 -2        25       180       181      1337      1341      1339
 -1       201    8    0    1
 -2        27        26       182      1144      1342      1343
 -1       202    8    0    1
 -2        26       181       182      1340      1344      1342
 -1       203    8    0    1
 -2        28        27       183      1145      1345      1346
 -1       204    8    0    1
 -2        27       182       183      1343      1347      1345
 -1       205    8    0    1
 -2        29        28       184      1146      1348      1349
 -1       206    8    0    1
 -2        28       183       184      1346      1350      1348
 -1       207    8    0    1
 -2        30        29       185      1147      1351      1352
 -1       208    8    0    1
 -2        29       184       185      1349      1353      1351
 -1       209    8    0    1
 -2        31        30       186      1148      1354      1355
 -1       210    8    0    1
 -2        30       185       186      1352      1356      1354
 -1       211    8    0    1
 -2        32        31       187      1149      1357      1358
 -1       212    8    0    1
 -2        31       186       187      1355      1359      1357
 -1       213    8    0    1
 -2        33        32       188      1150      1360      1361
 -1       214    8    0    1
 -2        32       187       188      1358      1362      1360
 -1       215    8    0    1
 -2        34        33       189      1151      1363      1364
 -1       216    8    0    1
 -2        33       188       189      1361      1365      1363
 -1       217    8    0    1
 -2        35        34       190      1152      1366      1367
 -1       218    8    0    1
 -2        34       189       190      1364      1368      1366
 -1       219    8    0    1
 -2        36        35       191      1153      1369      1370
 -1       220    8    0    1
 -2        35       190       191      1367      1371      1369
 -1       221    8    0    1
 -2        37        36       192      1154      1372      1373
 -1       222    8    0    1
 -2        36       191       192      1370      1374      1372
 -1       223    8    0    1
 -2        38        37       193      1155      1375      1376
 -1       224    8    0    1
 -2        37       192       193      1373      1377      1375
 -1       225    8    0    1
 -2        39        38       194      1156      1378      1379
 -1       226    8    0    1
 -2        38       193       194      1376      1380      1378
 -1       227    8    0    1
 -2        40        39       195      1157      1381      1382
 -1       228    8    0    1
 -2        39       194       195      1379      1383      1381
 -1       229    8    0    1
 -2        41        40       196      1158      1384      1385
 -1       230    8    0    1
 -2        40       195       196      1382      1386      1384
 -1       231    8    0    1
 -2        42        41       197      1159      1387      1388
 -1       232    8    0    1
 -2        41       196       197      1385      1389      1387
 -1       233    8    0    1
 -2        43        42       198      1160      1390      1391
 -1       234    8    0    1
 -2        42       197       198      1388      1392      1390
 -1       235    8    0    1
 -2        44        43       199      1161      1393      1394
 -1       236    8    0    1
 -2        43       198       199      1391      1395      1393
 -1       237    8    0    1
 -2        45        44       200      1162      1396      1397
 -1       238    8    0    1
 -2        44       199       200      1394      1398      1396
 -1       239    8    0    1
 -2        46        45       201      1163      1399      1400
 -1       240    8    0    1
 -2        45       200       201      1397      1401      1399
 -1       241    8    0    1
 -2        47        46       202      1164      1402      1403
 -1       242    8    0    1
 -2        46       201       202      1400      1404      1402
 -1       243    8    0    1
 -2        48        47       203      1165      1405      1406
 -1       244    8    0    1
 -2        47       202       203      1403      1407      1405
 -1       245    8    0    1
 -2        49        48       204      1166      1408      1409
 -1       246    8    0    1
 -2        48       203       204      1406      1410      1408
 -1       247    8    0    1
 -2        50        49       205      1167      1411      1412
 -1       248    8    0    1
 -2        49       204       205      1409      1413      1411
 -1       249    8    0    1
 -2        51        50       206      1168      1414      1415
 -1       250    8    0    1
 -2        50       205       206      1412      1416      1414
 -1       251    8    0    1
 -2        52        51       207      1169      1417      1418
 -1       252    8    0    1
 -2        51       206       207      1415      1419      1417
 -1       253    8    0    1
 -2        53        52       208      1170      1420      1421
 -1       254    8    0    1
 -2        52       207       208      1418      1422      1420
 -1       255    8    0    1
 -2        54        53       209      1171      1423      1424
 -1       256    8    0    1
 -2        53       208       209      1421      1425      1423
 -1       257    8    0    1
 -2        55        54       210      1172      1426      1427
 -1       258    8    0    1
 -2        54       209       210      1424      1428      1426
 -1       259    8    0    1
 -2        56        55       211      1173      1429      1430
 -1       260    8    0    1
 -2        55       210       211      1427      1431      1429
 -1       261    8    0    1
 -2        57        56       212      1174      1432      1433
 -1       262    8    0    1
 -2        56       211       212      1430      1434      1432
 -1       263    8    0    1
 -2        58        57       213      1175      1435      1436
 -1       264    8    0    1
 -2        57       212       213      1433      1437      1435
 -1       265    8    0    1
 -2        59        58       214      1176      1438      1439
 -1       266    8    0    1
 -2        58       213       214      1436      1440      1438
 -1       267    8    0    1
 -2        60        59       215      1177      1441      1442
 -1       268    8    0    1
 -2        59       214       215      1439      1443      1441
 -1       269    8    0    1
 -2        61        60       216      1178      1444      1445
 -1       270    8    0    1
 -2        60       215       216      1442      1446      1444
 -1       271    8    0    1
 -2        62        61       217      1179      1447      1448
 -1       272    8    0    1
 -2        61       216       217      1445      1449      1447
 -1       273    8    0    1
 -2        63        62       218      1180      1450      1451
 -1       274    8    0    1
 -2        62       217       218      1448      1452      1450
 -1       275    8    0    1
 -2        64        63       219      1181      1453      1454
 -1       276    8    0    1
 -2        63       218       219      1451      1455      1453
 -1       277    8    0    1
 -2        65        64       220      1182      1456      1457
 -1       278    8    0    1
 -2        64       219       220      1454      1458      1456
 -1       279    8    0    1
 -2        66        65       221      1183      1459      1460
 -1       280    8    0    1
 -2        65       220       221      1457      1461      1459
 -1       281    8    0    1
 -2        67        66       222      1184      1462      1463
 -1       282    8    0    1
 -2        66       221       222      1460      1464      1462
 -1       283    8    0    1
 -2        68        67       223      1185      1465      1466
 -1       284    8    0    1
 -2        67       222       223      1463      1467      1465
 -1       285    8    0    1
 -2        69        68       224      1186      1468      1469
 -1       286    8    0    1
 -2        68       223       224      1466      1470      1468
 -1       287    8    0    1
 -2        70        69       225      1187      1471      1472
 -1       288    8    0    1
 -2        69       224       225      1469      1473      1471
 -1       289    8    0    1
 -2        71        70       226      1188      1474      1475
 -1       290    8    0    1
 -2        70       225       226      1472      1476      1474
 -1       291    8    0    1
 -2         4        71       136      1189      1477      1256
 -1       292    8    0    1
 -2       136        71       226      1477      1475      1478
 -1       293    8    0    1
 -2        72        73       227      1191      1479      1480
 -1       294    8    0    1
 -2        72       227       178      1480      1481      1333
 -1       295    8    0    1
 -2        73        74       228      1192      1482      1483
 -1       296    8    0    1
 -2        73       228       227      1483      1484      1479
 -1       297    8    0    1
 -2        74        75       229      1193      1485      1486
 -1       298    8    0    1
 -2        74       229       228      1486      1487      1482
 -1       299    8    0    1
 -2        75        76       230      1194      1488      1489
 -1       300    8    0    1
 -2        75       230       229      1489      1490      1485
 -1       301    8    0    1
 -2        76        77       231      1195      1491      1492
 -1       302    8    0    1
 -2        76       231       230      1492      1493      1488
 -1       303    8    0    1
 -2        77        78       232      1196      1494      1495
 -1       304    8    0    1
 -2        77       232       231      1495      1496      1491
 -1       305    8    0    1
 -2        78        79       233      1197      1497      1498
 -1       306    8    0    1
 -2        78       233       232      1498      1499      1494
 -1       307    8    0    1
 -2        79        80       234      1198      1500      1501
 -1       308    8    0    1
 -2        79       234       233      1501      1502      1497
 -1       309    8    0    1
 -2        80        81       235      1199      1503      1504
 -1       310    8    0    1
 -2        80       235       234      1504      1505      1500
 -1       311    8    0    1
 -2        81        82       236      1200      1506      1507
 -1       312    8    0    1
 -2        81       236       235      1507      1508      1503
 -1       313    8    0    1
 -2        82        83       237      1201      1509      1510
 -1       314    8    0    1
 -2        82       237       236      1510      1511      1506
 -1       315    8    0    1
 -2        83        84       238      1202      1512      1513
 -1       316    8    0    1
 -2        83       238       237      1513      1514      1509
 -1       317    8    0    1
 -2        84        85       239      1203      1515      1516
 -1       318    8    0    1
 -2        84       239       238      1516      1517      1512
 -1       319    8    0    1
 -2        85        86       240      1204      1518      1519
 -1       320    8    0    1
 -2        85       240       239      1519      1520      1515
 -1       321    8    0    1
 -2        86        87       241      1205      1521      1522
 -1       322    8    0    1
 -2        86       241       240      1522      1523      1518
 -1       323    8    0    1
 -2        87        88       242      1206      1524      1525
 -1       324    8    0    1
 -2        87       242       241      1525      1526      1521
 -1       325    8    0    1
 -2        88        89       243      1207      1527      1528
 -1       326    8    0    1
 -2        88       243       242      1528      1529      1524
 -1       327    8    0    1
 -2        89        90       244      1208      1530      1531
 -1       328    8    0    1
 -2        89       244       243      1531      1532      1527
 -1       329    8    0    1
 -2        90        91       245      1209      1533      1534
 -1       330    8    0    1
 -2        90       245       244      1534      1535      1530
 -1       331    8    0    1
 -2        91        92       246      1210      1536      1537
 -1       332    8    0    1
 -2        91       246       245      1537      1538      1533
 -1       333    8    0    1
 -2        92        93       247      1211      1539      1540
 -1       334    8    0    1
 -2        92       247       246      1540      1541      1536
 -1       335    8    0    1
 -2        93        94       248      1212      1542      1543
 -1       336    8    0    1
 -2        93       248       247      1543      1544      1539
 -1       337    8    0    1
 -2        94        95       249      1213      1545      1546
 -1       338    8    0    1
 -2        94       249       248      1546      1547      1542
 -1       339    8    0    1
 -2        95        96       250      1214      1548      1549
 -1       340    8    0    1
 -2        95       250       249      1549      1550      1545
 -1       341    8    0    1
 -2        96        97       251      1215      1551      1552
 -1       342    8    0    1
 -2        96       251       250      1552      1553      1548
 -1       343    8    0    1
 -2        97        98       252      1216      1554      1555
 -1       344    8    0    1
 -2        97       252       251      1555      1556      1551
 -1       345    8    0    1
 -2        98        99       253      1217      1557      1558
 -1       346    8    0    1
 -2        98       253       252      1558      1559      1554
 -1       347    8    0    1
 -2        99       100       254      1218      1560      1561
 -1       348    8    0    1
 -2        99       254       253      1561      1562      1557
 -1       349    8    0    1
 -2       100       101       255      1219      1563      1564
 -1       350    8    0    1
 -2       100       255       254      1564      1565      1560
 -1       351    8    0    1
 -2       101       102       256      1220      1566      1567
 -1       352    8    0    1
 -2       101       256       255      1567      1568      1563
 -1       353    8    0    1
 -2       102       103       257      1221      1569      1570
 -1       354    8    0    1
 -2       102       257       256      1570      1571      1566
 -1       355    8    0    1
 -2       103       104       258      1222      1572      1573
 -1       356    8    0    1
 -2       103       258       257      1573      1574      1569
 -1       357    8    0    1
 -2       104       105       259      1223      1575      1576
 -1       358    8    0    1
 -2       104       259       258      1576      1577      1572
 -1       359    8    0    1
 -2       105       106       260      1224      1578      1579
 -1       360    8    0    1
 -2       105       260       259      1579      1580      1575
 -1       361    8    0    1
 -2       106       107       261      1225      1581      1582
 -1       362    8    0    1
 -2       106       261       260      1582      1583      1578
 -1       363    8    0    1
 -2       107       108       262      1226      1584      1585
 -1       364    8    0    1
 -2       107       262       261      1585      1586      1581
 -1       365    8    0    1
 -2       108       109       263      1227      1587      1588
 -1       366    8    0    1
 -2       108       263       262      1588      1589      1584
 -1       367    8    0    1
 -2       109       110       264      1228      1590      1591
 -1       368    8    0    1
 -2       109       264       263      1591      1592      1587
 -1       369    8    0    1
 -2       110       111       265      1229      1593      1594
 -1       370    8    0    1
 -2       110       265       264      1594      1595      1590
 -1       371    8    0    1
 -2       111       112       266      1230      1596      1597
 -1       372    8    0    1
 -2       111       266       265      1597      1598      1593
 -1       373    8    0    1
 -2       112       113       267      1231      1599      1600
 -1       374    8    0    1
 -2       112       267       266      1600      1601      1596
 -1       375    8    0    1
 -2       113       114       268      1232      1602      1603
 -1       376    8    0    1
 -2       113       268       267      1603      1604      1599
 -1       377    8    0    1
 -2       114       115       269      1233      1605      1606
 -1       378    8    0    1
 -2       114       269       268      1606      1607      1602
 -1       379    8    0    1
 -2       115       116       270      1234      1608      1609
 -1       380    8    0    1
 -2       115       270       269      1609      1610      1605
 -1       381    8    0    1
 -2       116       117       271      1235      1611      1612
 -1       382    8    0    1
 -2       116       271       270      1612      1613      1608
 -1       383    8    0    1
 -2       117       118       272      1236      1614      1615
 -1       384    8    0    1
 -2       117       272       271      1615      1616      1611
 -1       385    8    0    1
 -2       118       119       273      1237      1617      1618
 -1       386    8    0    1
 -2       118       273       272      1618      1619      1614
 -1       387    8    0    1
 -2       119       120       274      1238      1620      1621
 -1       388    8    0    1
 -2       119       274       273      1621      1622      1617
 -1       389    8    0    1
 -2       120         3       121      1239      1240      1623
 -1       390    8    0    1
 -2       121       122       275      1241      1624      1625
 -1       391    8    0    1
 -2       122       123       276      1242      1626      1627
 -1       392    8    0    1
 -2       122       276       275      1627      1628      1624
 -1       393    8    0    1
 -2       123       124       277      1243      1629      1630
 -1       394    8    0    1
 -2       123       277       276      1630      1631      1626
 -1       395    8    0    1
 -2       124       125       278      1244      1632      1633
 -1       396    8    0    1
 -2       124       278       277      1633      1634      1629
 -1       397    8    0    1
 -2       125       126       279      1245      1635      1636
 -1       398    8    0    1
 -2       125       279       278      1636      1637      1632
 -1       399    8    0    1
 -2       126       127       280      1246      1638      1639
 -1       400    8    0    1
 -2       126       280       279      1639      1640      1635
 -1       401    8    0    1
 -2       127       128       281      1247      1641      1642
 -1       402    8    0    1
 -2       127       281       280      1642      1643      1638
 -1       403    8    0    1
 -2       128       129       282      1248      1644      1645
 -1       404    8    0    1
 -2       128       282       281      1645      1646      1641
 -1       405    8    0    1
 -2       129       130       283      1249      1647      1648
 -1       406    8    0    1
 -2       129       283       282      1648      1649      1644
 -1       407    8    0    1
 -2       130       131       284      1250      1650      1651
 -1       408    8    0    1
 -2       130       284       283      1651      1652      1647
 -1       409    8    0    1
 -2       131       132       285      1251      1653      1654
 -1       410    8    0    1
 -2       131       285       284      1654      1655      1650
 -1       411    8    0    1
 -2       132       133       286      1252      1656      1657
 -1       412    8    0    1
 -2       132       286       285      1657      1658      1653
 -1       413    8    0    1
 -2       133       134       287      1253      1659      1660
 -1       414    8    0    1
 -2       133       287       286      1660      1661      1656
 -1       415    8    0    1
 -2       134       135       288      1254      1662      1663
 -1       416    8    0    1
 -2       134       288       287      1663      1664      1659
 -1       417    8    0    1
 -2       135       136       289      1255      1665      1666
 -1       418    8    0    1
 -2       288       135       289      1662      1666      1667
 -1       419    8    0    1
 -2       136       226       289      1478      1668      1665
 -1       420    8    0    1
 -2         2       137       290      1257      1669      1670
 -1       421    8    0    1
 -2       137       138       291      1258      1671      1672
 -1       422    8    0    1
 -2       138       139       292      1259      1673      1674
 -1       423    8    0    1
 -2       139       140       293      1260      1675      1676
 -1       424    8    0    1
 -2       140       141       294      1261      1677      1678
 -1       425    8    0    1
 -2       141       142       295      1262      1679      1680
 -1       426    8    0    1
 -2       142       143       296      1263      1681      1682
 -1       427    8    0    1
 -2       143       144       297      1264      1683      1684
 -1       428    8    0    1
 -2       144       145       298      1265      1685      1686
 -1       429    8    0    1
 -2       145       146       299      1266      1687      1688
 -1       430    8    0    1
 -2       146       147       300      1267      1689      1690
 -1       431    8    0    1
 -2       147       148       301      1268      1691      1692
 -1       432    8    0    1
 -2       148       149       302      1269      1693      1694
 -1       433    8    0    1
 -2       149       150       303      1270      1695      1696
 -1       434    8    0    1
 -2       150       151       304      1271      1697      1698
 -1       435    8    0    1
 -2       151       152       305      1272      1699      1700
 -1       436    8    0    1
 -2       152       153       306      1273      1701      1702
 -1       437    8    0    1
 -2       153       154       307      1274      1703      1704
 -1       438    8    0    1
 -2       154       155       308      1275      1705      1706
 -1       439    8    0    1
 -2       155       156       309      1276      1707      1708
 -1       440    8    0    1
 -2       156       157       310      1277      1709      1710
 -1       441    8    0    1
 -2       157       158       311      1278      1711      1712
 -1       442    8    0    1
 -2       158       159       312      1279      1713      1714
 -1       443    8    0    1
 -2       159         1       313      1280      1715      1716
 -1       444    8    0    1
 -2         1       160       314      1281      1717      1718
 -1       445    8    0    1
 -2       160       161       315      1282      1719      1720
 -1       446    8    0    1
 -2       161       162       316      1283      1721      1722
 -1       447    8    0    1
 -2       162         2       317      1284      1723      1724
 -1       448    8    0    1
 -2       293       140       294      1675      1678      1725
 -1       449    8    0    1
 -2       292       139       293      1673      1676      1726
 -1       450    8    0    1
 -2       120       121       274      1623      1727      1620
 -1       451    8    0    1
 -2       121       275       274      1625      1728      1727
 -1       452    8    0    1
 -2       290       137       291      1669      1672      1729
 -1       453    8    0    1
 -2       291       138       292      1671      1674      1730
 -1       454    8    0    1
 -2         2       290       317      1670      1731      1723
 -1       455    8    0    1
 -2       141       295       294      1680      1732      1677
 -1       456    8    0    1
 -2       142       296       295      1682      1733      1679
 -1       457    8    0    1
 -2       143       297       296      1684      1734      1681
 -1       458    8    0    1
 -2       144       298       297      1686      1735      1683
 -1       459    8    0    1
 -2       145       299       298      1688      1736      1685
 -1       460    8    0    1
 -2       146       300       299      1690      1737      1687
 -1       461    8    0    1
 -2       147       301       300      1692      1738      1689
 -1       462    8    0    1
 -2       148       302       301      1694      1739      1691
 -1       463    8    0    1
 -2       149       303       302      1696      1740      1693
 -1       464    8    0    1
 -2       150       304       303      1698      1741      1695
 -1       465    8    0    1
 -2       151       305       304      1700      1742      1697
 -1       466    8    0    1
 -2       152       306       305      1702      1743      1699
 -1       467    8    0    1
 -2       153       307       306      1704      1744      1701
 -1       468    8    0    1
 -2       154       308       307      1706      1745      1703
 -1       469    8    0    1
 -2       155       309       308      1708      1746      1705
 -1       470    8    0    1
 -2       156       310       309      1710      1747      1707
 -1       471    8    0    1
 -2       157       311       310      1712      1748      1709
 -1       472    8    0    1
 -2       158       312       311      1714      1749      1711
 -1       473    8    0    1
 -2       159       313       312      1716      1750      1713
 -1       474    8    0    1
 -2         1       314       313      1718      1751      1715
 -1       475    8    0    1
 -2       160       315       314      1720      1752      1717
 -1       476    8    0    1
 -2       161       316       315      1722      1753      1719
 -1       477    8    0    1
 -2       162       317       316      1724      1754      1721
 -1       478    8    0    1
 -2        23         7       163      1285      1287      1755
 -1       479    8    0    1
 -2       164       165       318      1293      1756      1757
 -1       480    8    0    1
 -2       163       164       319      1290      1758      1759
 -1       481    8    0    1
 -2       164       318       319      1757      1760      1758
 -1       482    8    0    1
 -2       166       167       320      1299      1761      1762
 -1       483    8    0    1
 -2       167       168       321      1302      1763      1764
 -1       484    8    0    1
 -2       167       321       320      1764      1765      1761
 -1       485    8    0    1
 -2       168       169       322      1305      1766      1767
 -1       486    8    0    1
 -2       168       322       321      1767      1768      1763
 -1       487    8    0    1
 -2       169       170       323      1308      1769      1770
 -1       488    8    0    1
 -2       169       323       322      1770      1771      1766
 -1       489    8    0    1
 -2       170       171       324      1311      1772      1773
 -1       490    8    0    1
 -2       170       324       323      1773      1774      1769
 -1       491    8    0    1
 -2       171       172       325      1314      1775      1776
 -1       492    8    0    1
 -2       171       325       324      1776      1777      1772
 -1       493    8    0    1
 -2       172       173       326      1317      1778      1779
 -1       494    8    0    1
 -2       172       326       325      1779      1780      1775
 -1       495    8    0    1
 -2       173       174       327      1320      1781      1782
 -1       496    8    0    1
 -2       173       327       326      1782      1783      1778
 -1       497    8    0    1
 -2       174       175       328      1323      1784      1785
 -1       498    8    0    1
 -2       174       328       327      1785      1786      1781
 -1       499    8    0    1
 -2       175       176       329      1326      1787      1788
 -1       500    8    0    1
 -2       175       329       328      1788      1789      1784
 -1       501    8    0    1
 -2       176       177       330      1329      1790      1791
 -1       502    8    0    1
 -2       176       330       329      1791      1792      1787
 -1       503    8    0    1
 -2       177       178       331      1332      1793      1794
 -1       504    8    0    1
 -2       330       177       331      1790      1794      1795
 -1       505    8    0    1
 -2       178       227       331      1481      1796      1793
 -1       506    8    0    1
 -2       179        23       163      1334      1755      1797
 -1       507    8    0    1
 -2       227       228       332      1484      1798      1799
 -1       508    8    0    1
 -2       227       332       331      1799      1800      1796
 -1       509    8    0    1
 -2       179       163       319      1797      1759      1801
 -1       510    8    0    1
 -2       181       180       333      1341      1802      1803
 -1       511    8    0    1
 -2       182       181       334      1344      1804      1805
 -1       512    8    0    1
 -2       181       333       334      1803      1806      1804
 -1       513    8    0    1
 -2       183       182       335      1347      1807      1808
 -1       514    8    0    1
 -2       182       334       335      1805      1809      1807
 -1       515    8    0    1
 -2       184       183       336      1350      1810      1811
 -1       516    8    0    1
 -2       183       335       336      1808      1812      1810
 -1       517    8    0    1
 -2       185       184       337      1353      1813      1814
 -1       518    8    0    1
 -2       184       336       337      1811      1815      1813
 -1       519    8    0    1
 -2       186       185       338      1356      1816      1817
 -1       520    8    0    1
 -2       185       337       338      1814      1818      1816
 -1       521    8    0    1
 -2       187       186       339      1359      1819      1820
 -1       522    8    0    1
 -2       186       338       339      1817      1821      1819
 -1       523    8    0    1
 -2       188       187       340      1362      1822      1823
 -1       524    8    0    1
 -2       187       339       340      1820      1824      1822
 -1       525    8    0    1
 -2       189       188       341      1365      1825      1826
 -1       526    8    0    1
 -2       188       340       341      1823      1827      1825
 -1       527    8    0    1
 -2       190       189       342      1368      1828      1829
 -1       528    8    0    1
 -2       189       341       342      1826      1830      1828
 -1       529    8    0    1
 -2       191       190       343      1371      1831      1832
 -1       530    8    0    1
 -2       190       342       343      1829      1833      1831
 -1       531    8    0    1
 -2       192       191       344      1374      1834      1835
 -1       532    8    0    1
 -2       191       343       344      1832      1836      1834
 -1       533    8    0    1
 -2       193       192       345      1377      1837      1838
 -1       534    8    0    1
 -2       192       344       345      1835      1839      1837
 -1       535    8    0    1
 -2       194       193       346      1380      1840      1841
 -1       536    8    0    1
 -2       193       345       346      1838      1842      1840
 -1       537    8    0    1
 -2       195       194       347      1383      1843      1844
 -1       538    8    0    1
 -2       194       346       347      1841      1845      1843
 -1       539    8    0    1
 -2       196       195       348      1386      1846      1847
 -1       540    8    0    1
 -2       195       347       348      1844      1848      1846
 -1       541    8    0    1
 -2       197       196       349      1389      1849      1850
 -1       542    8    0    1
 -2       196       348       349      1847      1851      1849
 -1       543    8    0    1
 -2       198       197       350      1392      1852      1853
 -1       544    8    0    1
 -2       197       349       350      1850      1854      1852
 -1       545    8    0    1
 -2       199       198       351      1395      1855      1856
 -1       546    8    0    1
 -2       198       350       351      1853      1857      1855
 -1       547    8    0    1
 -2       200       199       352      1398      1858      1859
 -1       548    8    0    1
 -2       199       351       352      1856      1860      1858
 -1       549    8    0    1
 -2       201       200       353      1401      1861      1862
 -1       550    8    0    1
 -2       200       352       353      1859      1863      1861
 -1       551    8    0    1
 -2       202       201       354      1404      1864      1865
 -1       552    8    0    1
 -2       201       353       354      1862      1866      1864
 -1       553    8    0    1
 -2       203       202       355      1407      1867      1868
 -1       554    8    0    1
 -2       202       354       355      1865      1869      1867
 -1       555    8    0    1
 -2       204       203       356      1410      1870      1871
 -1       556    8    0    1
 -2       203       355       356      1868      1872      1870
 -1       557    8    0    1
 -2       205       204       357      1413      1873      1874
 -1       558    8    0    1
 -2       204       356       357      1871      1875      1873
 -1       559    8    0    1
 -2       206       205       358      1416      1876      1877
 -1       560    8    0    1
 -2       205       357       358      1874      1878      1876
 -1       561    8    0    1
 -2       207       206       359      1419      1879      1880
 -1       562    8    0    1
 -2       206       358       359      1877      1881      1879
 -1       563    8    0    1
 -2       208       207       360      1422      1882      1883
 -1       564    8    0    1
 -2       207       359       360      1880      1884      1882
 -1       565    8    0    1
 -2       209       208       361      1425      1885      1886
 -1       566    8    0    1
 -2       208       360       361      1883      1887      1885
 -1       567    8    0    1
 -2       210       209       362      1428      1888      1889
 -1       568    8    0    1
 -2       209       361       362      1886      1890      1888
 -1       569    8    0    1
 -2       211       210       363      1431      1891      1892
 -1       570    8    0    1
 -2       210       362       363      1889      1893      1891
 -1       571    8    0    1
 -2       212       211       364      1434      1894      1895
 -1       572    8    0    1
 -2       211       363       364      1892      1896      1894
 -1       573    8    0    1
 -2       213       212       365      1437      1897      1898
 -1       574    8    0    1
 -2       212       364       365      1895      1899      1897
 -1       575    8    0    1
 -2       214       213       366      1440      1900      1901
 -1       576    8    0    1
 -2       213       365       366      1898      1902      1900
 -1       577    8    0    1
 -2       215       214       367      1443      1903      1904
 -1       578    8    0    1
 -2       214       366       367      1901      1905      1903
 -1       579    8    0    1
 -2       216       215       368      1446      1906      1907
 -1       580    8    0    1
 -2       215       367       368      1904      1908      1906
 -1       581    8    0    1
 -2       217       216       369      1449      1909      1910
 -1       582    8    0    1
 -2       216       368       369      1907      1911      1909
 -1       583    8    0    1
 -2       218       217       370      1452      1912      1913
 -1       584    8    0    1
 -2       217       369       370      1910      1914      1912
 -1       585    8    0    1
 -2       219       218       371      1455      1915      1916
 -1       586    8    0    1
 -2       218       370       371      1913      1917      1915
 -1       587    8    0    1
 -2       220       219       372      1458      1918      1919
 -1       588    8    0    1
 -2       219       371       372      1916      1920      1918
 -1       589    8    0    1
 -2       221       220       373      1461      1921      1922
 -1       590    8    0    1
 -2       220       372       373      1919      1923      1921
 -1       591    8    0    1
 -2       222       221       374      1464      1924      1925
 -1       592    8    0    1
 -2       221       373       374      1922      1926      1924
 -1       593    8    0    1
 -2       223       222       375      1467      1927      1928
 -1       594    8    0    1
 -2       222       374       375      1925      1929      1927
 -1       595    8    0    1
 -2       224       223       376      1470      1930      1931
 -1       596    8    0    1
 -2       223       375       376      1928      1932      1930
 -1       597    8    0    1
 -2       225       224       377      1473      1933      1934
 -1       598    8    0    1
 -2       224       376       377      1931      1935      1933
 -1       599    8    0    1
 -2       226       225       378      1476      1936      1937
 -1       600    8    0    1
 -2       289       226       378      1668      1937      1938
 -1       601    8    0    1
 -2       225       377       378      1934      1939      1936
 -1       602    8    0    1
 -2       228       229       379      1487      1940      1941
 -1       603    8    0    1
 -2       228       379       332      1941      1942      1798
 -1       604    8    0    1
 -2       229       230       380      1490      1943      1944
 -1       605    8    0    1
 -2       229       380       379      1944      1945      1940
 -1       606    8    0    1
 -2       230       231       381      1493      1946      1947
 -1       607    8    0    1
 -2       230       381       380      1947      1948      1943
 -1       608    8    0    1
 -2       231       232       382      1496      1949      1950
 -1       609    8    0    1
 -2       231       382       381      1950      1951      1946
 -1       610    8    0    1
 -2       232       233       383      1499      1952      1953
 -1       611    8    0    1
 -2       232       383       382      1953      1954      1949
 -1       612    8    0    1
 -2       233       234       384      1502      1955      1956
 -1       613    8    0    1
 -2       233       384       383      1956      1957      1952
 -1       614    8    0    1
 -2       234       235       385      1505      1958      1959
 -1       615    8    0    1
 -2       234       385       384      1959      1960      1955
 -1       616    8    0    1
 -2       235       236       386      1508      1961      1962
 -1       617    8    0    1
 -2       235       386       385      1962      1963      1958
 -1       618    8    0    1
 -2       236       237       387      1511      1964      1965
 -1       619    8    0    1
 -2       236       387       386      1965      1966      1961
 -1       620    8    0    1
 -2       237       238       388      1514      1967      1968
 -1       621    8    0    1
 -2       237       388       387      1968      1969      1964
 -1       622    8    0    1
 -2       238       239       389      1517      1970      1971
 -1       623    8    0    1
 -2       238       389       388      1971      1972      1967
 -1       624    8    0    1
 -2       239       240       390      1520      1973      1974
 -1       625    8    0    1
 -2       239       390       389      1974      1975      1970
 -1       626    8    0    1
 -2       240       241       391      1523      1976      1977
 -1       627    8    0    1
 -2       240       391       390      1977      1978      1973
 -1       628    8    0    1
 -2       241       242       392      1526      1979      1980
 -1       629    8    0    1
 -2       241       392       391      1980      1981      1976
 -1       630    8    0    1
 -2       242       243       393      1529      1982      1983
 -1       631    8    0    1
 -2       242       393       392      1983      1984      1979
 -1       632    8    0    1
 -2       243       244       394      1532      1985      1986
 -1       633    8    0    1
 -2       243       394       393      1986      1987      1982
 -1       634    8    0    1
 -2       244       245       395      1535      1988      1989
 -1       635    8    0    1
 -2       244       395       394      1989      1990      1985
 -1       636    8    0    1
 -2       245       246       396      1538      1991      1992
 -1       637    8    0    1
 -2       245       396       395      1992      1993      1988
 -1       638    8    0    1
 -2       246       247       397      1541      1994      1995
 -1       639    8    0    1
 -2       246       397       396      1995      1996      1991
 -1       640    8    0    1
 -2       247       248       398      1544      1997      1998
 -1       641    8    0    1
 -2       247       398       397      1998      1999      1994
 -1       642    8    0    1
 -2       248       249       399      1547      2000      2001
 -1       643    8    0    1
 -2       248       399       398      2001      2002      1997
 -1       644    8    0    1
 -2       249       250       400      1550      2003      2004
 -1       645    8    0    1
 -2       249       400       399      2004      2005      2000
 -1       646    8    0    1
 -2       250       251       401      1553      2006      2007
 -1       647    8    0    1
 -2       250       401       400      2007      2008      2003
 -1       648    8    0    1
 -2       251       252       402      1556      2009      2010
 -1       649    8    0    1
 -2       251       402       401      2010      2011      2006
 -1       650    8    0    1
 -2       252       253       403      1559      2012      2013
 -1       651    8    0    1
 -2       252       403       402      2013      2014      2009
 -1       652    8    0    1
 -2       253       254       404      1562      2015      2016
 -1       653    8    0    1
 -2       253       404       403      2016      2017      2012
 -1       654    8    0    1
 -2       254       255       405      1565      2018      2019
 -1       655    8    0    1
 -2       254       405       404      2019      2020      2015
 -1       656    8    0    1
 -2       255       256       406      1568      2021      2022
 -1       657    8    0    1
 -2       255       406       405      2022      2023      2018
 -1       658    8    0    1
 -2       256       257       407      1571      2024      2025
 -1       659    8    0    1
 -2       256       407       406      2025      2026      2021
 -1       660    8    0    1
 -2       257       258       408      1574      2027      2028
 -1       661    8    0    1
 -2       257       408       407      2028      2029      2024
 -1       662    8    0    1
 -2       258       259       409      1577      2030      2031
 -1       663    8    0    1
 -2       258       409       408      2031      2032      2027
 -1       664    8    0    1
 -2       259       260       410      1580      2033      2034
 -1       665    8    0    1
 -2       259       410       409      2034      2035      2030
 -1       666    8    0    1
 -2       260       261       411      1583      2036      2037
 -1       667    8    0    1
 -2       260       411       410      2037      2038      2033
 -1       668    8    0    1
 -2       261       262       412      1586      2039      2040
 -1       669    8    0    1
 -2       261       412       411      2040      2041      2036
 -1       670    8    0    1
 -2       262       263       413      1589      2042      2043
 -1       671    8    0    1
 -2       262       413       412      2043      2044      2039
 -1       672    8    0    1
 -2       263       264       414      1592      2045      2046
 -1       673    8    0    1
 -2       263       414       413      2046      2047      2042
 -1       674    8    0    1
 -2       264       265       415      1595      2048      2049
 -1       675    8    0    1
 -2       264       415       414      2049      2050      2045
 -1       676    8    0    1
 -2       265       266       416      1598      2051      2052
 -1       677    8    0    1
 -2       265       416       415      2052      2053      2048
 -1       678    8    0    1
 -2       266       267       417      1601      2054      2055
 -1       679    8    0    1
 -2       266       417       416      2055      2056      2051
 -1       680    8    0    1
 -2       267       268       418      1604      2057      2058
 -1       681    8    0    1
 -2       267       418       417      2058      2059      2054
 -1       682    8    0    1
 -2       268       269       419      1607      2060      2061
 -1       683    8    0    1
 -2       268       419       418      2061      2062      2057
 -1       684    8    0    1
 -2       269       270       420      1610      2063      2064
 -1       685    8    0    1
 -2       269       420       419      2064      2065      2060
 -1       686    8    0    1
 -2       270       271       421      1613      2066      2067
 -1       687    8    0    1
 -2       270       421       420      2067      2068      2063
 -1       688    8    0    1
 -2       271       272       422      1616      2069      2070
 -1       689    8    0    1
 -2       271       422       421      2070      2071      2066
 -1       690    8    0    1
 -2       272       273       423      1619      2072      2073
 -1       691    8    0    1
 -2       272       423       422      2073      2074      2069
 -1       692    8    0    1
 -2       273       274       424      1622      2075      2076
 -1       693    8    0    1
 -2       423       273       424      2072      2076      2077
 -1       694    8    0    1
 -2       274       275       424      1728      2078      2075
 -1       695    8    0    1
 -2       277       278       425      1634      2079      2080
 -1       696    8    0    1
 -2       276       277       426      1631      2081      2082
 -1       697    8    0    1
 -2       277       425       426      2080      2083      2081
 -1       698    8    0    1
 -2       275       276       427      1628      2084      2085
 -1       699    8    0    1
 -2       424       275       427      2078      2085      2086
 -1       700    8    0    1
 -2       276       426       427      2082      2087      2084
 -1       701    8    0    1
 -2       278       279       428      1637      2088      2089
 -1       702    8    0    1
 -2       278       428       425      2089      2090      2079
 -1       703    8    0    1
 -2       279       280       429      1640      2091      2092
 -1       704    8    0    1
 -2       279       429       428      2092      2093      2088
 -1       705    8    0    1
 -2       280       281       430      1643      2094      2095
 -1       706    8    0    1
 -2       280       430       429      2095      2096      2091
 -1       707    8    0    1
 -2       281       282       431      1646      2097      2098
 -1       708    8    0    1
 -2       281       431       430      2098      2099      2094
 -1       709    8    0    1
 -2       282       283       432      1649      2100      2101
 -1       710    8    0    1
 -2       282       432       431      2101      2102      2097
 -1       711    8    0    1
 -2       283       284       433      1652      2103      2104
 -1       712    8    0    1
 -2       283       433       432      2104      2105      2100
 -1       713    8    0    1
 -2       284       285       434      1655      2106      2107
 -1       714    8    0    1
 -2       284       434       433      2107      2108      2103
 -1       715    8    0    1
 -2       285       286       435      1658      2109      2110
 -1       716    8    0    1
 -2       285       435       434      2110      2111      2106
 -1       717    8    0    1
 -2       286       287       436      1661      2112      2113
 -1       718    8    0    1
 -2       286       436       435      2113      2114      2109
 -1       719    8    0    1
 -2       287       288       437      1664      2115      2116
 -1       720    8    0    1
 -2       287       437       436      2116      2117      2112
 -1       721    8    0    1
 -2       291       292       438      1730      2118      2119
 -1       722    8    0    1
 -2       317       290       439      1731      2120      2121
 -1       723    8    0    1
 -2       290       291       440      1729      2122      2123
 -1       724    8    0    1
 -2       292       293       441      1726      2124      2125
 -1       725    8    0    1
 -2       293       294       442      1725      2126      2127
 -1       726    8    0    1
 -2       165       166       443      1296      2128      2129
 -1       727    8    0    1
 -2       318       165       443      1756      2129      2130
 -1       728    8    0    1
 -2       166       320       443      1762      2131      2128
 -1       729    8    0    1
 -2       295       296       444      1733      2132      2133
 -1       730    8    0    1
 -2       296       297       445      1734      2134      2135
 -1       731    8    0    1
 -2       297       298       446      1735      2136      2137
 -1       732    8    0    1
 -2       297       446       445      2137      2138      2134
 -1       733    8    0    1
 -2       298       299       447      1736      2139      2140
 -1       734    8    0    1
 -2       299       300       448      1737      2141      2142
 -1       735    8    0    1
 -2       300       301       449      1738      2143      2144
 -1       736    8    0    1
 -2       301       302       450      1739      2145      2146
 -1       737    8    0    1
 -2       302       303       451      1740      2147      2148
 -1       738    8    0    1
 -2       303       304       452      1741      2149      2150
 -1       739    8    0    1
 -2       303       452       451      2150      2151      2147
 -1       740    8    0    1
 -2       304       305       453      1742      2152      2153
 -1       741    8    0    1
 -2       305       306       454      1743      2154      2155
 -1       742    8    0    1
 -2       306       307       455      1744      2156      2157
 -1       743    8    0    1
 -2       307       308       456      1745      2158      2159
 -1       744    8    0    1
 -2       308       309       457      1746      2160      2161
 -1       745    8    0    1
 -2       309       310       458      1747      2162      2163
 -1       746    8    0    1
 -2       310       311       459      1748      2164      2165
 -1       747    8    0    1
 -2       311       312       460      1749      2166      2167
 -1       748    8    0    1
 -2       312       313       461      1750      2168      2169
 -1       749    8    0    1
 -2       312       461       460      2169      2170      2166
 -1       750    8    0    1
 -2       313       314       462      1751      2171      2172
 -1       751    8    0    1
 -2       314       315       463      1752      2173      2174
 -1       752    8    0    1
 -2       314       463       462      2174      2175      2171
 -1       753    8    0    1
 -2       315       316       464      1753      2176      2177
 -1       754    8    0    1
 -2       316       317       465      1754      2178      2179
 -1       755    8    0    1
 -2       317       439       465      2121      2180      2178
 -1       756    8    0    1
 -2       294       295       466      1732      2181      2182
 -1       757    8    0    1
 -2       441       293       442      2124      2127      2183
 -1       758    8    0    1
 -2       179       319       180      1801      2184      1338
 -1       759    8    0    1
 -2       442       294       466      2126      2182      2185
 -1       760    8    0    1
 -2       295       444       466      2133      2186      2181
 -1       761    8    0    1
 -2       333       180       319      1802      2184      2187
 -1       762    8    0    1
 -2       440       291       438      2122      2119      2188
 -1       763    8    0    1
 -2       439       290       440      2120      2123      2189
 -1       764    8    0    1
 -2       437       288       289      2115      1667      2190
 -1       765    8    0    1
 -2       438       292       441      2118      2125      2191
 -1       766    8    0    1
 -2       463       315       467      2173      2192      2193
 -1       767    8    0    1
 -2       315       464       467      2177      2194      2192
 -1       768    8    0    1
 -2       461       313       468      2168      2195      2196
 -1       769    8    0    1
 -2       313       462       468      2172      2197      2195
 -1       770    8    0    1
 -2       459       311       460      2164      2167      2198
 -1       771    8    0    1
 -2       458       310       459      2162      2165      2199
 -1       772    8    0    1
 -2       457       309       458      2160      2163      2200
 -1       773    8    0    1
 -2       456       308       469      2158      2201      2202
 -1       774    8    0    1
 -2       308       457       469      2161      2203      2201
 -1       775    8    0    1
 -2       455       307       456      2156      2159      2204
 -1       776    8    0    1
 -2       454       306       455      2154      2157      2205
 -1       777    8    0    1
 -2       452       304       453      2149      2153      2206
 -1       778    8    0    1
 -2       450       302       451      2145      2148      2207
 -1       779    8    0    1
 -2       449       301       450      2143      2146      2208
 -1       780    8    0    1
 -2       448       300       449      2141      2144      2209
 -1       781    8    0    1
 -2       446       298       447      2136      2140      2210
 -1       782    8    0    1
 -2       444       296       445      2132      2135      2211
 -1       783    8    0    1
 -2       447       299       448      2139      2142      2212
 -1       784    8    0    1
 -2       453       305       470      2152      2213      2214
 -1       785    8    0    1
 -2       305       454       470      2155      2215      2213
 -1       786    8    0    1
 -2       464       316       465      2176      2179      2216
 -1       787    8    0    1
 -2       332       379       471      1942      2217      2218
 -1       788    8    0    1
 -2       321       322       472      1768      2219      2220
 -1       789    8    0    1
 -2       320       321       473      1765      2221      2222
 -1       790    8    0    1
 -2       321       472       473      2220      2223      2221
 -1       791    8    0    1
 -2       323       324       474      1774      2224      2225
 -1       792    8    0    1
 -2       324       325       475      1777      2226      2227
 -1       793    8    0    1
 -2       324       475       474      2227      2228      2224
 -1       794    8    0    1
 -2       325       326       476      1780      2229      2230
 -1       795    8    0    1
 -2       325       476       475      2230      2231      2226
 -1       796    8    0    1
 -2       326       327       477      1783      2232      2233
 -1       797    8    0    1
 -2       326       477       476      2233      2234      2229
 -1       798    8    0    1
 -2       327       328       478      1786      2235      2236
 -1       799    8    0    1
 -2       327       478       477      2236      2237      2232
 -1       800    8    0    1
 -2       328       329       479      1789      2238      2239
 -1       801    8    0    1
 -2       328       479       478      2239      2240      2235
 -1       802    8    0    1
 -2       379       380       480      1945      2241      2242
 -1       803    8    0    1
 -2       379       480       471      2242      2243      2217
 -1       804    8    0    1
 -2       334       333       481      1806      2244      2245
 -1       805    8    0    1
 -2       442       466       482      2185      2246      2247
 -1       806    8    0    1
 -2       335       334       483      1809      2248      2249
 -1       807    8    0    1
 -2       334       481       483      2245      2250      2248
 -1       808    8    0    1
 -2       336       335       484      1812      2251      2252
 -1       809    8    0    1
 -2       335       483       484      2249      2253      2251
 -1       810    8    0    1
 -2       337       336       485      1815      2254      2255
 -1       811    8    0    1
 -2       336       484       485      2252      2256      2254
 -1       812    8    0    1
 -2       338       337       486      1818      2257      2258
 -1       813    8    0    1
 -2       337       485       486      2255      2259      2257
 -1       814    8    0    1
 -2       339       338       487      1821      2260      2261
 -1       815    8    0    1
 -2       338       486       487      2258      2262      2260
 -1       816    8    0    1
 -2       340       339       488      1824      2263      2264
 -1       817    8    0    1
 -2       339       487       488      2261      2265      2263
 -1       818    8    0    1
 -2       341       340       489      1827      2266      2267
 -1       819    8    0    1
 -2       340       488       489      2264      2268      2266
 -1       820    8    0    1
 -2       342       341       490      1830      2269      2270
 -1       821    8    0    1
 -2       341       489       490      2267      2271      2269
 -1       822    8    0    1
 -2       343       342       491      1833      2272      2273
 -1       823    8    0    1
 -2       342       490       491      2270      2274      2272
 -1       824    8    0    1
 -2       344       343       492      1836      2275      2276
 -1       825    8    0    1
 -2       343       491       492      2273      2277      2275
 -1       826    8    0    1
 -2       345       344       493      1839      2278      2279
 -1       827    8    0    1
 -2       344       492       493      2276      2280      2278
 -1       828    8    0    1
 -2       346       345       494      1842      2281      2282
 -1       829    8    0    1
 -2       345       493       494      2279      2283      2281
 -1       830    8    0    1
 -2       347       346       495      1845      2284      2285
 -1       831    8    0    1
 -2       346       494       495      2282      2286      2284
 -1       832    8    0    1
 -2       348       347       496      1848      2287      2288
 -1       833    8    0    1
 -2       347       495       496      2285      2289      2287
 -1       834    8    0    1
 -2       349       348       497      1851      2290      2291
 -1       835    8    0    1
 -2       348       496       497      2288      2292      2290
 -1       836    8    0    1
 -2       350       349       498      1854      2293      2294
 -1       837    8    0    1
 -2       349       497       498      2291      2295      2293
 -1       838    8    0    1
 -2       351       350       499      1857      2296      2297
 -1       839    8    0    1
 -2       350       498       499      2294      2298      2296
 -1       840    8    0    1
 -2       352       351       500      1860      2299      2300
 -1       841    8    0    1
 -2       351       499       500      2297      2301      2299
 -1       842    8    0    1
 -2       353       352       501      1863      2302      2303
 -1       843    8    0    1
 -2       352       500       501      2300      2304      2302
 -1       844    8    0    1
 -2       354       353       502      1866      2305      2306
 -1       845    8    0    1
 -2       353       501       502      2303      2307      2305
 -1       846    8    0    1
 -2       355       354       503      1869      2308      2309
 -1       847    8    0    1
 -2       354       502       503      2306      2310      2308
 -1       848    8    0    1
 -2       356       355       504      1872      2311      2312
 -1       849    8    0    1
 -2       355       503       504      2309      2313      2311
 -1       850    8    0    1
 -2       357       356       505      1875      2314      2315
 -1       851    8    0    1
 -2       356       504       505      2312      2316      2314
 -1       852    8    0    1
 -2       358       357       506      1878      2317      2318
 -1       853    8    0    1
 -2       357       505       506      2315      2319      2317
 -1       854    8    0    1
 -2       359       358       507      1881      2320      2321
 -1       855    8    0    1
 -2       358       506       507      2318      2322      2320
 -1       856    8    0    1
 -2       360       359       508      1884      2323      2324
 -1       857    8    0    1
 -2       359       507       508      2321      2325      2323
 -1       858    8    0    1
 -2       361       360       509      1887      2326      2327
 -1       859    8    0    1
 -2       360       508       509      2324      2328      2326
 -1       860    8    0    1
 -2       362       361       510      1890      2329      2330
 -1       861    8    0    1
 -2       361       509       510      2327      2331      2329
 -1       862    8    0    1
 -2       363       362       511      1893      2332      2333
 -1       863    8    0    1
 -2       362       510       511      2330      2334      2332
 -1       864    8    0    1
 -2       364       363       512      1896      2335      2336
 -1       865    8    0    1
 -2       363       511       512      2333      2337      2335
 -1       866    8    0    1
 -2       365       364       513      1899      2338      2339
 -1       867    8    0    1
 -2       364       512       513      2336      2340      2338
 -1       868    8    0    1
 -2       366       365       514      1902      2341      2342
 -1       869    8    0    1
 -2       365       513       514      2339      2343      2341
 -1       870    8    0    1
 -2       367       366       515      1905      2344      2345
 -1       871    8    0    1
 -2       366       514       515      2342      2346      2344
 -1       872    8    0    1
 -2       368       367       516      1908      2347      2348
 -1       873    8    0    1
 -2       367       515       516      2345      2349      2347
 -1       874    8    0    1
 -2       369       368       517      1911      2350      2351
 -1       875    8    0    1
 -2       368       516       517      2348      2352      2350
 -1       876    8    0    1
 -2       370       369       518      1914      2353      2354
 -1       877    8    0    1
 -2       369       517       518      2351      2355      2353
 -1       878    8    0    1
 -2       371       370       519      1917      2356      2357
 -1       879    8    0    1
 -2       370       518       519      2354      2358      2356
 -1       880    8    0    1
 -2       372       371       520      1920      2359      2360
 -1       881    8    0    1
 -2       371       519       520      2357      2361      2359
 -1       882    8    0    1
 -2       373       372       521      1923      2362      2363
 -1       883    8    0    1
 -2       372       520       521      2360      2364      2362
 -1       884    8    0    1
 -2       374       373       522      1926      2365      2366
 -1       885    8    0    1
 -2       373       521       522      2363      2367      2365
 -1       886    8    0    1
 -2       375       374       523      1929      2368      2369
 -1       887    8    0    1
 -2       374       522       523      2366      2370      2368
 -1       888    8    0    1
 -2       376       375       524      1932      2371      2372
 -1       889    8    0    1
 -2       375       523       524      2369      2373      2371
 -1       890    8    0    1
 -2       377       376       525      1935      2374      2375
 -1       891    8    0    1
 -2       376       524       525      2372      2376      2374
 -1       892    8    0    1
 -2       381       382       526      1951      2377      2378
 -1       893    8    0    1
 -2       382       383       527      1954      2379      2380
 -1       894    8    0    1
 -2       382       527       526      2380      2381      2377
 -1       895    8    0    1
 -2       383       384       528      1957      2382      2383
 -1       896    8    0    1
 -2       383       528       527      2383      2384      2379
 -1       897    8    0    1
 -2       384       385       529      1960      2385      2386
 -1       898    8    0    1
 -2       384       529       528      2386      2387      2382
 -1       899    8    0    1
 -2       385       386       530      1963      2388      2389
 -1       900    8    0    1
 -2       385       530       529      2389      2390      2385
 -1       901    8    0    1
 -2       386       387       531      1966      2391      2392
 -1       902    8    0    1
 -2       386       531       530      2392      2393      2388
 -1       903    8    0    1
 -2       387       388       532      1969      2394      2395
 -1       904    8    0    1
 -2       387       532       531      2395      2396      2391
 -1       905    8    0    1
 -2       388       389       533      1972      2397      2398
 -1       906    8    0    1
 -2       388       533       532      2398      2399      2394
 -1       907    8    0    1
 -2       389       390       534      1975      2400      2401
 -1       908    8    0    1
 -2       389       534       533      2401      2402      2397
 -1       909    8    0    1
 -2       390       391       535      1978      2403      2404
 -1       910    8    0    1
 -2       390       535       534      2404      2405      2400
 -1       911    8    0    1
 -2       391       392       536      1981      2406      2407
 -1       912    8    0    1
 -2       391       536       535      2407      2408      2403
 -1       913    8    0    1
 -2       392       393       537      1984      2409      2410
 -1       914    8    0    1
 -2       392       537       536      2410      2411      2406
 -1       915    8    0    1
 -2       393       394       538      1987      2412      2413
 -1       916    8    0    1
 -2       393       538       537      2413      2414      2409
 -1       917    8    0    1
 -2       394       395       539      1990      2415      2416
 -1       918    8    0    1
 -2       394       539       538      2416      2417      2412
 -1       919    8    0    1
 -2       395       396       540      1993      2418      2419
 -1       920    8    0    1
 -2       395       540       539      2419      2420      2415
 -1       921    8    0    1
 -2       396       397       541      1996      2421      2422
 -1       922    8    0    1
 -2       396       541       540      2422      2423      2418
 -1       923    8    0    1
 -2       397       398       542      1999      2424      2425
 -1       924    8    0    1
 -2       397       542       541      2425      2426      2421
 -1       925    8    0    1
 -2       398       399       543      2002      2427      2428
 -1       926    8    0    1
 -2       398       543       542      2428      2429      2424
 -1       927    8    0    1
 -2       399       400       544      2005      2430      2431
 -1       928    8    0    1
 -2       399       544       543      2431      2432      2427
 -1       929    8    0    1
 -2       400       401       545      2008      2433      2434
 -1       930    8    0    1
 -2       400       545       544      2434      2435      2430
 -1       931    8    0    1
 -2       401       402       546      2011      2436      2437
 -1       932    8    0    1
 -2       401       546       545      2437      2438      2433
 -1       933    8    0    1
 -2       402       403       547      2014      2439      2440
 -1       934    8    0    1
 -2       402       547       546      2440      2441      2436
 -1       935    8    0    1
 -2       403       404       548      2017      2442      2443
 -1       936    8    0    1
 -2       403       548       547      2443      2444      2439
 -1       937    8    0    1
 -2       404       405       549      2020      2445      2446
 -1       938    8    0    1
 -2       404       549       548      2446      2447      2442
 -1       939    8    0    1
 -2       405       406       550      2023      2448      2449
 -1       940    8    0    1
 -2       405       550       549      2449      2450      2445
 -1       941    8    0    1
 -2       406       407       551      2026      2451      2452
 -1       942    8    0    1
 -2       406       551       550      2452      2453      2448
 -1       943    8    0    1
 -2       407       408       552      2029      2454      2455
 -1       944    8    0    1
 -2       407       552       551      2455      2456      2451
 -1       945    8    0    1
 -2       408       409       553      2032      2457      2458
 -1       946    8    0    1
 -2       408       553       552      2458      2459      2454
 -1       947    8    0    1
 -2       409       410       554      2035      2460      2461
 -1       948    8    0    1
 -2       409       554       553      2461      2462      2457
 -1       949    8    0    1
 -2       410       411       555      2038      2463      2464
 -1       950    8    0    1
 -2       410       555       554      2464      2465      2460
 -1       951    8    0    1
 -2       411       412       556      2041      2466      2467
 -1       952    8    0    1
 -2       411       556       555      2467      2468      2463
 -1       953    8    0    1
 -2       412       413       557      2044      2469      2470
 -1       954    8    0    1
 -2       412       557       556      2470      2471      2466
 -1       955    8    0    1
 -2       413       414       558      2047      2472      2473
 -1       956    8    0    1
 -2       413       558       557      2473      2474      2469
 -1       957    8    0    1
 -2       414       415       559      2050      2475      2476
 -1       958    8    0    1
 -2       414       559       558      2476      2477      2472
 -1       959    8    0    1
 -2       415       416       560      2053      2478      2479
 -1       960    8    0    1
 -2       415       560       559      2479      2480      2475
 -1       961    8    0    1
 -2       416       417       561      2056      2481      2482
 -1       962    8    0    1
 -2       416       561       560      2482      2483      2478
 -1       963    8    0    1
 -2       417       418       562      2059      2484      2485
 -1       964    8    0    1
 -2       417       562       561      2485      2486      2481
 -1       965    8    0    1
 -2       418       419       563      2062      2487      2488
 -1       966    8    0    1
 -2       418       563       562      2488      2489      2484
 -1       967    8    0    1
 -2       419       420       564      2065      2490      2491
 -1       968    8    0    1
 -2       419       564       563      2491      2492      2487
 -1       969    8    0    1
 -2       420       421       565      2068      2493      2494
 -1       970    8    0    1
 -2       420       565       564      2494      2495      2490
 -1       971    8    0    1
 -2       421       422       566      2071      2496      2497
 -1       972    8    0    1
 -2       421       566       565      2497      2498      2493
 -1       973    8    0    1
 -2       422       423       567      2074      2499      2500
 -1       974    8    0    1
 -2       422       567       566      2500      2501      2496
 -1       975    8    0    1
 -2       423       424       427      2077      2086      2502
 -1       976    8    0    1
 -2       428       429       568      2093      2503      2504
 -1       977    8    0    1
 -2       429       430       569      2096      2505      2506
 -1       978    8    0    1
 -2       429       569       568      2506      2507      2503
 -1       979    8    0    1
 -2       426       425       570      2083      2508      2509
 -1       980    8    0    1
 -2       425       428       571      2090      2510      2511
 -1       981    8    0    1
 -2       570       425       571      2508      2511      2512
 -1       982    8    0    1
 -2       428       568       571      2504      2513      2510
 -1       983    8    0    1
 -2       430       431       572      2099      2514      2515
 -1       984    8    0    1
 -2       430       572       569      2515      2516      2505
 -1       985    8    0    1
 -2       431       432       573      2102      2517      2518
 -1       986    8    0    1
 -2       431       573       572      2518      2519      2514
 -1       987    8    0    1
 -2       432       433       574      2105      2520      2521
 -1       988    8    0    1
 -2       432       574       573      2521      2522      2517
 -1       989    8    0    1
 -2       433       434       575      2108      2523      2524
 -1       990    8    0    1
 -2       433       575       574      2524      2525      2520
 -1       991    8    0    1
 -2       434       435       576      2111      2526      2527
 -1       992    8    0    1
 -2       434       576       575      2527      2528      2523
 -1       993    8    0    1
 -2       435       436       577      2114      2529      2530
 -1       994    8    0    1
 -2       435       577       576      2530      2531      2526
 -1       995    8    0    1
 -2       436       437       578      2117      2532      2533
 -1       996    8    0    1
 -2       436       578       577      2533      2534      2529
 -1       997    8    0    1
 -2       439       440       579      2189      2535      2536
 -1       998    8    0    1
 -2       438       441       580      2191      2537      2538
 -1       999    8    0    1
 -2       380       381       581      1948      2539      2540
 -1      1000    8    0    1
 -2       381       526       581      2378      2541      2539
 -1      1001    8    0    1
 -2       466       444       582      2186      2542      2543
 -1      1002    8    0    1
 -2       466       582       482      2543      2544      2246
 -1      1003    8    0    1
 -2       437       289       378      2190      1938      2545
 -1      1004    8    0    1
 -2       440       438       583      2188      2546      2547
 -1      1005    8    0    1
 -2       438       580       583      2538      2548      2546
 -1      1006    8    0    1
 -2       465       439       584      2180      2549      2550
 -1      1007    8    0    1
 -2       459       460       585      2198      2551      2552
 -1      1008    8    0    1
 -2       450       451       586      2207      2553      2554
 -1      1009    8    0    1
 -2       322       323       587      1771      2555      2556
 -1      1010    8    0    1
 -2       472       322       587      2219      2556      2557
 -1      1011    8    0    1
 -2       323       474       587      2225      2558      2555
 -1      1012    8    0    1
 -2       444       445       588      2211      2559      2560
 -1      1013    8    0    1
 -2       447       448       589      2212      2561      2562
 -1      1014    8    0    1
 -2       445       446       590      2138      2563      2564
 -1      1015    8    0    1
 -2       446       447       591      2210      2565      2566
 -1      1016    8    0    1
 -2       448       449       592      2209      2567      2568
 -1      1017    8    0    1
 -2       449       450       593      2208      2569      2570
 -1      1018    8    0    1
 -2       450       586       593      2554      2571      2569
 -1      1019    8    0    1
 -2       451       452       594      2151      2572      2573
 -1      1020    8    0    1
 -2       464       465       595      2216      2574      2575
 -1      1021    8    0    1
 -2       452       453       596      2206      2576      2577
 -1      1022    8    0    1
 -2       452       596       594      2577      2578      2572
 -1      1023    8    0    1
 -2       454       455       597      2205      2579      2580
 -1      1024    8    0    1
 -2       455       456       598      2204      2581      2582
 -1      1025    8    0    1
 -2       455       598       597      2582      2583      2579
 -1      1026    8    0    1
 -2       457       458       599      2200      2584      2585
 -1      1027    8    0    1
 -2       458       459       600      2199      2586      2587
 -1      1028    8    0    1
 -2       458       600       599      2587      2588      2584
 -1      1029    8    0    1
 -2       460       461       601      2170      2589      2590
 -1      1030    8    0    1
 -2       460       601       585      2590      2591      2551
 -1      1031    8    0    1
 -2       462       463       602      2175      2592      2593
 -1      1032    8    0    1
 -2       333       319       603      2187      2594      2595
 -1      1033    8    0    1
 -2       481       333       603      2244      2595      2596
 -1      1034    8    0    1
 -2       319       318       603      1760      2597      2594
 -1      1035    8    0    1
 -2       331       332       604      1800      2598      2599
 -1      1036    8    0    1
 -2       330       331       604      1795      2599      2600
 -1      1037    8    0    1
 -2       332       471       604      2218      2601      2598
 -1      1038    8    0    1
 -2       441       442       605      2183      2602      2603
 -1      1039    8    0    1
 -2       444       588       582      2560      2604      2542
 -1      1040    8    0    1
 -2       320       473       606      2222      2605      2606
 -1      1041    8    0    1
 -2       320       606       443      2606      2607      2131
 -1      1042    8    0    1
 -2       480       380       581      2241      2540      2608
 -1      1043    8    0    1
 -2       329       330       604      1792      2600      2609
 -1      1044    8    0    1
 -2       605       442       482      2602      2247      2610
 -1      1045    8    0    1
 -2       603       318       443      2597      2130      2611
 -1      1046    8    0    1
 -2       600       459       607      2586      2612      2613
 -1      1047    8    0    1
 -2       459       585       607      2552      2614      2612
 -1      1048    8    0    1
 -2       598       456       608      2581      2615      2616
 -1      1049    8    0    1
 -2       456       469       608      2202      2617      2615
 -1      1050    8    0    1
 -2       440       583       579      2547      2618      2535
 -1      1051    8    0    1
 -2       596       453       609      2576      2619      2620
 -1      1052    8    0    1
 -2       453       470       609      2214      2621      2619
 -1      1053    8    0    1
 -2       423       427       567      2502      2622      2499
 -1      1054    8    0    1
 -2       580       441       605      2537      2603      2623
 -1      1055    8    0    1
 -2       427       426       567      2087      2624      2622
 -1      1056    8    0    1
 -2       595       465       584      2574      2550      2625
 -1      1057    8    0    1
 -2       439       579       584      2536      2626      2549
 -1      1058    8    0    1
 -2       467       464       610      2194      2627      2628
 -1      1059    8    0    1
 -2       464       595       610      2575      2629      2627
 -1      1060    8    0    1
 -2       329       604       479      2609      2630      2238
 -1      1061    8    0    1
 -2       462       602       468      2593      2631      2197
 -1      1062    8    0    1
 -2       463       467       602      2193      2632      2592
 -1      1063    8    0    1
 -2       592       449       611      2567      2633      2634
 -1      1064    8    0    1
 -2       449       593       611      2570      2635      2633
 -1      1065    8    0    1
 -2       451       594       586      2573      2636      2553
 -1      1066    8    0    1
 -2       591       447       612      2565      2637      2638
 -1      1067    8    0    1
 -2       447       589       612      2562      2639      2637
 -1      1068    8    0    1
 -2       590       446       591      2563      2566      2640
 -1      1069    8    0    1
 -2       469       457       613      2203      2641      2642
 -1      1070    8    0    1
 -2       457       599       613      2585      2643      2641
 -1      1071    8    0    1
 -2       437       378       614      2545      2644      2645
 -1      1072    8    0    1
 -2       578       437       614      2532      2645      2646
 -1      1073    8    0    1
 -2       378       377       614      1939      2647      2644
 -1      1074    8    0    1
 -2       589       448       592      2561      2568      2648
 -1      1075    8    0    1
 -2       445       590       588      2564      2649      2559
 -1      1076    8    0    1
 -2       470       454       615      2215      2650      2651
 -1      1077    8    0    1
 -2       454       597       615      2580      2652      2650
 -1      1078    8    0    1
 -2       601       461       616      2589      2653      2654
 -1      1079    8    0    1
 -2       461       468       616      2196      2655      2653
 -1      1080    8    0    1
 -2       567       426       570      2624      2509      2656
 -1      1081    8    0    1
 -2       614       377       525      2647      2375      2657
 -1      1082    8    0    1
 -2       475       476       617      2231      2658      2659
 -1      1083    8    0    1
 -2       474       475       618      2228      2660      2661
 -1      1084    8    0    1
 -2       475       617       618      2659      2662      2660
 -1      1085    8    0    1
 -2       477       478       619      2237      2663      2664
 -1      1086    8    0    1
 -2       478       479       620      2240      2665      2666
 -1      1087    8    0    1
 -2       478       620       619      2666      2667      2663
 -1      1088    8    0    1
 -2       471       480       621      2243      2668      2669
 -1      1089    8    0    1
 -2       468       602       622      2631      2670      2671
 -1      1090    8    0    1
 -2       604       471       479      2601      2672      2630
 -1      1091    8    0    1
 -2       603       443       606      2611      2607      2673
 -1      1092    8    0    1
 -2       484       483       623      2253      2674      2675
 -1      1093    8    0    1
 -2       485       484       624      2256      2676      2677
 -1      1094    8    0    1
 -2       484       623       624      2675      2678      2676
 -1      1095    8    0    1
 -2       486       485       625      2259      2679      2680
 -1      1096    8    0    1
 -2       485       624       625      2677      2681      2679
 -1      1097    8    0    1
 -2       487       486       626      2262      2682      2683
 -1      1098    8    0    1
 -2       486       625       626      2680      2684      2682
 -1      1099    8    0    1
 -2       488       487       627      2265      2685      2686
 -1      1100    8    0    1
 -2       487       626       627      2683      2687      2685
 -1      1101    8    0    1
 -2       489       488       628      2268      2688      2689
 -1      1102    8    0    1
 -2       488       627       628      2686      2690      2688
 -1      1103    8    0    1
 -2       490       489       629      2271      2691      2692
 -1      1104    8    0    1
 -2       489       628       629      2689      2693      2691
 -1      1105    8    0    1
 -2       491       490       630      2274      2694      2695
 -1      1106    8    0    1
 -2       490       629       630      2692      2696      2694
 -1      1107    8    0    1
 -2       492       491       631      2277      2697      2698
 -1      1108    8    0    1
 -2       491       630       631      2695      2699      2697
 -1      1109    8    0    1
 -2       493       492       632      2280      2700      2701
 -1      1110    8    0    1
 -2       492       631       632      2698      2702      2700
 -1      1111    8    0    1
 -2       494       493       633      2283      2703      2704
 -1      1112    8    0    1
 -2       493       632       633      2701      2705      2703
 -1      1113    8    0    1
 -2       495       494       634      2286      2706      2707
 -1      1114    8    0    1
 -2       494       633       634      2704      2708      2706
 -1      1115    8    0    1
 -2       496       495       635      2289      2709      2710
 -1      1116    8    0    1
 -2       495       634       635      2707      2711      2709
 -1      1117    8    0    1
 -2       497       496       636      2292      2712      2713
 -1      1118    8    0    1
 -2       496       635       636      2710      2714      2712
 -1      1119    8    0    1
 -2       498       497       637      2295      2715      2716
 -1      1120    8    0    1
 -2       497       636       637      2713      2717      2715
 -1      1121    8    0    1
 -2       499       498       638      2298      2718      2719
 -1      1122    8    0    1
 -2       498       637       638      2716      2720      2718
 -1      1123    8    0    1
 -2       500       499       639      2301      2721      2722
 -1      1124    8    0    1
 -2       499       638       639      2719      2723      2721
 -1      1125    8    0    1
 -2       501       500       640      2304      2724      2725
 -1      1126    8    0    1
 -2       500       639       640      2722      2726      2724
 -1      1127    8    0    1
 -2       502       501       641      2307      2727      2728
 -1      1128    8    0    1
 -2       501       640       641      2725      2729      2727
 -1      1129    8    0    1
 -2       503       502       642      2310      2730      2731
 -1      1130    8    0    1
 -2       502       641       642      2728      2732      2730
 -1      1131    8    0    1
 -2       504       503       643      2313      2733      2734
 -1      1132    8    0    1
 -2       503       642       643      2731      2735      2733
 -1      1133    8    0    1
 -2       505       504       644      2316      2736      2737
 -1      1134    8    0    1
 -2       504       643       644      2734      2738      2736
 -1      1135    8    0    1
 -2       506       505       645      2319      2739      2740
 -1      1136    8    0    1
 -2       505       644       645      2737      2741      2739
 -1      1137    8    0    1
 -2       507       506       646      2322      2742      2743
 -1      1138    8    0    1
 -2       506       645       646      2740      2744      2742
 -1      1139    8    0    1
 -2       508       507       647      2325      2745      2746
 -1      1140    8    0    1
 -2       507       646       647      2743      2747      2745
 -1      1141    8    0    1
 -2       509       508       648      2328      2748      2749
 -1      1142    8    0    1
 -2       508       647       648      2746      2750      2748
 -1      1143    8    0    1
 -2       510       509       649      2331      2751      2752
 -1      1144    8    0    1
 -2       509       648       649      2749      2753      2751
 -1      1145    8    0    1
 -2       511       510       650      2334      2754      2755
 -1      1146    8    0    1
 -2       510       649       650      2752      2756      2754
 -1      1147    8    0    1
 -2       512       511       651      2337      2757      2758
 -1      1148    8    0    1
 -2       511       650       651      2755      2759      2757
 -1      1149    8    0    1
 -2       513       512       652      2340      2760      2761
 -1      1150    8    0    1
 -2       512       651       652      2758      2762      2760
 -1      1151    8    0    1
 -2       514       513       653      2343      2763      2764
 -1      1152    8    0    1
 -2       513       652       653      2761      2765      2763
 -1      1153    8    0    1
 -2       515       514       654      2346      2766      2767
 -1      1154    8    0    1
 -2       514       653       654      2764      2768      2766
 -1      1155    8    0    1
 -2       516       515       655      2349      2769      2770
 -1      1156    8    0    1
 -2       515       654       655      2767      2771      2769
 -1      1157    8    0    1
 -2       517       516       656      2352      2772      2773
 -1      1158    8    0    1
 -2       516       655       656      2770      2774      2772
 -1      1159    8    0    1
 -2       518       517       657      2355      2775      2776
 -1      1160    8    0    1
 -2       517       656       657      2773      2777      2775
 -1      1161    8    0    1
 -2       519       518       658      2358      2778      2779
 -1      1162    8    0    1
 -2       518       657       658      2776      2780      2778
 -1      1163    8    0    1
 -2       520       519       659      2361      2781      2782
 -1      1164    8    0    1
 -2       519       658       659      2779      2783      2781
 -1      1165    8    0    1
 -2       521       520       660      2364      2784      2785
 -1      1166    8    0    1
 -2       520       659       660      2782      2786      2784
 -1      1167    8    0    1
 -2       522       521       661      2367      2787      2788
 -1      1168    8    0    1
 -2       521       660       661      2785      2789      2787
 -1      1169    8    0    1
 -2       523       522       662      2370      2790      2791
 -1      1170    8    0    1
 -2       522       661       662      2788      2792      2790
 -1      1171    8    0    1
 -2       524       523       663      2373      2793      2794
 -1      1172    8    0    1
 -2       523       662       663      2791      2795      2793
 -1      1173    8    0    1
 -2       525       524       664      2376      2796      2797
 -1      1174    8    0    1
 -2       524       663       664      2794      2798      2796
 -1      1175    8    0    1
 -2       527       528       665      2384      2799      2800
 -1      1176    8    0    1
 -2       589       592       666      2648      2801      2802
 -1      1177    8    0    1
 -2       526       527       667      2381      2803      2804
 -1      1178    8    0    1
 -2       527       665       667      2800      2805      2803
 -1      1179    8    0    1
 -2       529       530       668      2390      2806      2807
 -1      1180    8    0    1
 -2       530       531       669      2393      2808      2809
 -1      1181    8    0    1
 -2       530       669       668      2809      2810      2806
 -1      1182    8    0    1
 -2       531       532       670      2396      2811      2812
 -1      1183    8    0    1
 -2       531       670       669      2812      2813      2808
 -1      1184    8    0    1
 -2       532       533       671      2399      2814      2815
 -1      1185    8    0    1
 -2       532       671       670      2815      2816      2811
 -1      1186    8    0    1
 -2       533       534       672      2402      2817      2818
 -1      1187    8    0    1
 -2       533       672       671      2818      2819      2814
 -1      1188    8    0    1
 -2       534       535       673      2405      2820      2821
 -1      1189    8    0    1
 -2       534       673       672      2821      2822      2817
 -1      1190    8    0    1
 -2       535       536       674      2408      2823      2824
 -1      1191    8    0    1
 -2       535       674       673      2824      2825      2820
 -1      1192    8    0    1
 -2       536       537       675      2411      2826      2827
 -1      1193    8    0    1
 -2       536       675       674      2827      2828      2823
 -1      1194    8    0    1
 -2       537       538       676      2414      2829      2830
 -1      1195    8    0    1
 -2       537       676       675      2830      2831      2826
 -1      1196    8    0    1
 -2       538       539       677      2417      2832      2833
 -1      1197    8    0    1
 -2       538       677       676      2833      2834      2829
 -1      1198    8    0    1
 -2       539       540       678      2420      2835      2836
 -1      1199    8    0    1
 -2       539       678       677      2836      2837      2832
 -1      1200    8    0    1
 -2       540       541       679      2423      2838      2839
 -1      1201    8    0    1
 -2       540       679       678      2839      2840      2835
 -1      1202    8    0    1
 -2       541       542       680      2426      2841      2842
 -1      1203    8    0    1
 -2       541       680       679      2842      2843      2838
 -1      1204    8    0    1
 -2       542       543       681      2429      2844      2845
 -1      1205    8    0    1
 -2       542       681       680      2845      2846      2841
 -1      1206    8    0    1
 -2       543       544       682      2432      2847      2848
 -1      1207    8    0    1
 -2       543       682       681      2848      2849      2844
 -1      1208    8    0    1
 -2       544       545       612      2435      2850      2851
 -1      1209    8    0    1
 -2       546       547       683      2441      2852      2853
 -1      1210    8    0    1
 -2       547       548       684      2444      2854      2855
 -1      1211    8    0    1
 -2       547       684       683      2855      2856      2852
 -1      1212    8    0    1
 -2       548       549       685      2447      2857      2858
 -1      1213    8    0    1
 -2       548       685       684      2858      2859      2854
 -1      1214    8    0    1
 -2       549       550       686      2450      2860      2861
 -1      1215    8    0    1
 -2       549       686       685      2861      2862      2857
 -1      1216    8    0    1
 -2       550       551       687      2453      2863      2864
 -1      1217    8    0    1
 -2       550       687       686      2864      2865      2860
 -1      1218    8    0    1
 -2       551       552       688      2456      2866      2867
 -1      1219    8    0    1
 -2       551       688       687      2867      2868      2863
 -1      1220    8    0    1
 -2       552       553       689      2459      2869      2870
 -1      1221    8    0    1
 -2       552       689       688      2870      2871      2866
 -1      1222    8    0    1
 -2       553       554       690      2462      2872      2873
 -1      1223    8    0    1
 -2       553       690       689      2873      2874      2869
 -1      1224    8    0    1
 -2       554       555       691      2465      2875      2876
 -1      1225    8    0    1
 -2       554       691       690      2876      2877      2872
 -1      1226    8    0    1
 -2       555       556       692      2468      2878      2879
 -1      1227    8    0    1
 -2       555       692       691      2879      2880      2875
 -1      1228    8    0    1
 -2       556       557       693      2471      2881      2882
 -1      1229    8    0    1
 -2       556       693       692      2882      2883      2878
 -1      1230    8    0    1
 -2       557       558       694      2474      2884      2885
 -1      1231    8    0    1
 -2       557       694       693      2885      2886      2881
 -1      1232    8    0    1
 -2       558       559       695      2477      2887      2888
 -1      1233    8    0    1
 -2       558       695       694      2888      2889      2884
 -1      1234    8    0    1
 -2       559       560       696      2480      2890      2891
 -1      1235    8    0    1
 -2       559       696       695      2891      2892      2887
 -1      1236    8    0    1
 -2       560       561       697      2483      2893      2894
 -1      1237    8    0    1
 -2       560       697       696      2894      2895      2890
 -1      1238    8    0    1
 -2       561       562       698      2486      2896      2897
 -1      1239    8    0    1
 -2       561       698       697      2897      2898      2893
 -1      1240    8    0    1
 -2       562       563       699      2489      2899      2900
 -1      1241    8    0    1
 -2       562       699       698      2900      2901      2896
 -1      1242    8    0    1
 -2       563       564       700      2492      2902      2903
 -1      1243    8    0    1
 -2       563       700       699      2903      2904      2899
 -1      1244    8    0    1
 -2       564       565       701      2495      2905      2906
 -1      1245    8    0    1
 -2       564       701       700      2906      2907      2902
 -1      1246    8    0    1
 -2       565       566       702      2498      2908      2909
 -1      1247    8    0    1
 -2       565       702       701      2909      2910      2905
 -1      1248    8    0    1
 -2       566       567       703      2501      2911      2912
 -1      1249    8    0    1
 -2       702       566       703      2908      2912      2913
 -1      1250    8    0    1
 -2       567       570       703      2656      2914      2911
 -1      1251    8    0    1
 -2       580       605       704      2623      2915      2916
 -1      1252    8    0    1
 -2       572       573       705      2519      2917      2918
 -1      1253    8    0    1
 -2       614       525       706      2657      2919      2920
 -1      1254    8    0    1
 -2       525       664       706      2797      2921      2919
 -1      1255    8    0    1
 -2       568       569       707      2507      2922      2923
 -1      1256    8    0    1
 -2       573       574       708      2522      2924      2925
 -1      1257    8    0    1
 -2       573       708       705      2925      2926      2917
 -1      1258    8    0    1
 -2       569       572       709      2516      2927      2928
 -1      1259    8    0    1
 -2       707       569       709      2922      2928      2929
 -1      1260    8    0    1
 -2       572       705       709      2918      2930      2927
 -1      1261    8    0    1
 -2       574       575       710      2525      2931      2932
 -1      1262    8    0    1
 -2       574       710       708      2932      2933      2924
 -1      1263    8    0    1
 -2       575       576       711      2528      2934      2935
 -1      1264    8    0    1
 -2       575       711       710      2935      2936      2931
 -1      1265    8    0    1
 -2       576       577       712      2531      2937      2938
 -1      1266    8    0    1
 -2       576       712       711      2938      2939      2934
 -1      1267    8    0    1
 -2       584       579       713      2626      2940      2941
 -1      1268    8    0    1
 -2       593       586       714      2571      2942      2943
 -1      1269    8    0    1
 -2       583       580       715      2548      2944      2945
 -1      1270    8    0    1
 -2       602       467       716      2632      2946      2947
 -1      1271    8    0    1
 -2       581       526       717      2541      2948      2949
 -1      1272    8    0    1
 -2       526       667       717      2804      2950      2948
 -1      1273    8    0    1
 -2       528       529       718      2387      2951      2952
 -1      1274    8    0    1
 -2       665       528       718      2799      2952      2953
 -1      1275    8    0    1
 -2       529       668       718      2807      2954      2951
 -1      1276    8    0    1
 -2       483       481       719      2250      2955      2956
 -1      1277    8    0    1
 -2       483       719       623      2956      2957      2674
 -1      1278    8    0    1
 -2       476       477       720      2234      2958      2959
 -1      1279    8    0    1
 -2       617       476       720      2658      2959      2960
 -1      1280    8    0    1
 -2       477       619       720      2664      2961      2958
 -1      1281    8    0    1
 -2       480       581       721      2608      2962      2963
 -1      1282    8    0    1
 -2       621       480       721      2668      2963      2964
 -1      1283    8    0    1
 -2       581       717       721      2949      2965      2962
 -1      1284    8    0    1
 -2       605       482       722      2610      2966      2967
 -1      1285    8    0    1
 -2       473       472       723      2223      2968      2969
 -1      1286    8    0    1
 -2       590       591       724      2640      2970      2971
 -1      1287    8    0    1
 -2       595       584       725      2625      2972      2973
 -1      1288    8    0    1
 -2       588       590       683      2649      2974      2975
 -1      1289    8    0    1
 -2       586       594       726      2636      2976      2977
 -1      1290    8    0    1
 -2       586       726       714      2977      2978      2942
 -1      1291    8    0    1
 -2       594       596       727      2578      2979      2980
 -1      1292    8    0    1
 -2       578       614       706      2646      2920      2981
 -1      1293    8    0    1
 -2       597       598       728      2583      2982      2983
 -1      1294    8    0    1
 -2       585       601       729      2591      2984      2985
 -1      1295    8    0    1
 -2       579       583       730      2618      2986      2987
 -1      1296    8    0    1
 -2       583       715       730      2945      2988      2986
 -1      1297    8    0    1
 -2       599       600       731      2588      2989      2990
 -1      1298    8    0    1
 -2       482       582       732      2544      2991      2992
 -1      1299    8    0    1
 -2       582       588       733      2604      2993      2994
 -1      1300    8    0    1
 -2       606       473       734      2605      2995      2996
 -1      1301    8    0    1
 -2       473       723       734      2969      2997      2995
 -1      1302    8    0    1
 -2       474       618       735      2661      2998      2999
 -1      1303    8    0    1
 -2       474       735       587      2999      3000      2558
 -1      1304    8    0    1
 -2       722       482       732      2966      2992      3001
 -1      1305    8    0    1
 -2       468       622       616      2671      3002      2655
 -1      1306    8    0    1
 -2       479       471       621      2672      2669      3003
 -1      1307    8    0    1
 -2       732       582       733      2991      2994      3004
 -1      1308    8    0    1
 -2       607       585       729      2614      2985      3005
 -1      1309    8    0    1
 -2       608       469       736      2617      3006      3007
 -1      1310    8    0    1
 -2       469       613       736      2642      3008      3006
 -1      1311    8    0    1
 -2       729       601       737      2984      3009      3010
 -1      1312    8    0    1
 -2       601       616       737      2654      3011      3009
 -1      1313    8    0    1
 -2       609       470       738      2621      3012      3013
 -1      1314    8    0    1
 -2       470       615       738      2651      3014      3012
 -1      1315    8    0    1
 -2       568       707       739      2923      3015      3016
 -1      1316    8    0    1
 -2       568       739       571      3016      3017      2513
 -1      1317    8    0    1
 -2       589       666       612      2802      3018      2639
 -1      1318    8    0    1
 -2       726       594       727      2976      2980      3019
 -1      1319    8    0    1
 -2       546       683       724      2853      3020      3021
 -1      1320    8    0    1
 -2       545       546       724      2438      3021      3022
 -1      1321    8    0    1
 -2       704       605       722      2915      2967      3023
 -1      1322    8    0    1
 -2       683       590       724      2974      2971      3020
 -1      1323    8    0    1
 -2       597       728       740      2983      3024      3025
 -1      1324    8    0    1
 -2       597       740       615      3025      3026      2652
 -1      1325    8    0    1
 -2       570       571       741      2512      3027      3028
 -1      1326    8    0    1
 -2       703       570       741      2914      3028      3029
 -1      1327    8    0    1
 -2       571       739       741      3017      3030      3027
 -1      1328    8    0    1
 -2       716       467       610      2946      2628      3031
 -1      1329    8    0    1
 -2       715       580       704      2944      2916      3032
 -1      1330    8    0    1
 -2       584       713       742      2941      3033      3034
 -1      1331    8    0    1
 -2       584       742       725      3034      3035      2972
 -1      1332    8    0    1
 -2       713       579       743      2940      3036      3037
 -1      1333    8    0    1
 -2       579       730       743      2987      3038      3036
 -1      1334    8    0    1
 -2       577       578       706      2534      2981      3039
 -1      1335    8    0    1
 -2       610       595       744      2629      3040      3041
 -1      1336    8    0    1
 -2       595       725       744      2973      3042      3040
 -1      1337    8    0    1
 -2       666       592       611      2801      2634      3043
 -1      1338    8    0    1
 -2       596       609       745      2620      3044      3045
 -1      1339    8    0    1
 -2       596       745       727      3045      3046      2979
 -1      1340    8    0    1
 -2       593       714       746      2943      3047      3048
 -1      1341    8    0    1
 -2       593       746       611      3048      3049      2635
 -1      1342    8    0    1
 -2       599       731       747      2990      3050      3051
 -1      1343    8    0    1
 -2       599       747       613      3051      3052      2643
 -1      1344    8    0    1
 -2       602       716       748      2947      3053      3054
 -1      1345    8    0    1
 -2       598       608       728      2616      3055      2982
 -1      1346    8    0    1
 -2       602       748       622      3054      3056      2670
 -1      1347    8    0    1
 -2       472       587       749      2557      3057      3058
 -1      1348    8    0    1
 -2       723       472       749      2968      3058      3059
 -1      1349    8    0    1
 -2       587       735       749      3000      3060      3057
 -1      1350    8    0    1
 -2       600       607       731      2613      3061      2989
 -1      1351    8    0    1
 -2       479       621       620      3003      3062      2665
 -1      1352    8    0    1
 -2       603       606       750      2673      3063      3064
 -1      1353    8    0    1
 -2       481       603       750      2596      3064      3065
 -1      1354    8    0    1
 -2       606       734       750      2996      3066      3063
 -1      1355    8    0    1
 -2       577       706       751      3039      3067      3068
 -1      1356    8    0    1
 -2       712       577       751      2937      3068      3069
 -1      1357    8    0    1
 -2       706       664       751      2921      3070      3067
 -1      1358    8    0    1
 -2       481       750       719      3065      3071      2955
 -1      1359    8    0    1
 -2       619       620       752      2667      3072      3073
 -1      1360    8    0    1
 -2       733       588       683      2993      2975      3074
 -1      1361    8    0    1
 -2       730       715       753      2988      3075      3076
 -1      1362    8    0    1
 -2       624       623       754      2678      3077      3078
 -1      1363    8    0    1
 -2       625       624       755      2681      3079      3080
 -1      1364    8    0    1
 -2       624       754       755      3078      3081      3079
 -1      1365    8    0    1
 -2       626       625       756      2684      3082      3083
 -1      1366    8    0    1
 -2       625       755       756      3080      3084      3082
 -1      1367    8    0    1
 -2       627       626       757      2687      3085      3086
 -1      1368    8    0    1
 -2       626       756       757      3083      3087      3085
 -1      1369    8    0    1
 -2       628       627       758      2690      3088      3089
 -1      1370    8    0    1
 -2       627       757       758      3086      3090      3088
 -1      1371    8    0    1
 -2       629       628       759      2693      3091      3092
 -1      1372    8    0    1
 -2       628       758       759      3089      3093      3091
 -1      1373    8    0    1
 -2       630       629       760      2696      3094      3095
 -1      1374    8    0    1
 -2       629       759       760      3092      3096      3094
 -1      1375    8    0    1
 -2       631       630       761      2699      3097      3098
 -1      1376    8    0    1
 -2       630       760       761      3095      3099      3097
 -1      1377    8    0    1
 -2       632       631       762      2702      3100      3101
 -1      1378    8    0    1
 -2       631       761       762      3098      3102      3100
 -1      1379    8    0    1
 -2       633       632       763      2705      3103      3104
 -1      1380    8    0    1
 -2       632       762       763      3101      3105      3103
 -1      1381    8    0    1
 -2       634       633       764      2708      3106      3107
 -1      1382    8    0    1
 -2       633       763       764      3104      3108      3106
 -1      1383    8    0    1
 -2       635       634       765      2711      3109      3110
 -1      1384    8    0    1
 -2       634       764       765      3107      3111      3109
 -1      1385    8    0    1
 -2       636       635       766      2714      3112      3113
 -1      1386    8    0    1
 -2       635       765       766      3110      3114      3112
 -1      1387    8    0    1
 -2       637       636       767      2717      3115      3116
 -1      1388    8    0    1
 -2       636       766       767      3113      3117      3115
 -1      1389    8    0    1
 -2       638       637       768      2720      3118      3119
 -1      1390    8    0    1
 -2       637       767       768      3116      3120      3118
 -1      1391    8    0    1
 -2       639       638       769      2723      3121      3122
 -1      1392    8    0    1
 -2       638       768       769      3119      3123      3121
 -1      1393    8    0    1
 -2       640       639       770      2726      3124      3125
 -1      1394    8    0    1
 -2       639       769       770      3122      3126      3124
 -1      1395    8    0    1
 -2       641       640       771      2729      3127      3128
 -1      1396    8    0    1
 -2       640       770       771      3125      3129      3127
 -1      1397    8    0    1
 -2       642       641       772      2732      3130      3131
 -1      1398    8    0    1
 -2       641       771       772      3128      3132      3130
 -1      1399    8    0    1
 -2       643       642       747      2735      3133      3134
 -1      1400    8    0    1
 -2       644       643       747      2738      3134      3135
 -1      1401    8    0    1
 -2       645       644       773      2741      3136      3137
 -1      1402    8    0    1
 -2       646       645       729      2744      3138      3139
 -1      1403    8    0    1
 -2       648       647       774      2750      3140      3141
 -1      1404    8    0    1
 -2       649       648       775      2753      3142      3143
 -1      1405    8    0    1
 -2       648       774       775      3141      3144      3142
 -1      1406    8    0    1
 -2       650       649       776      2756      3145      3146
 -1      1407    8    0    1
 -2       649       775       776      3143      3147      3145
 -1      1408    8    0    1
 -2       651       650       777      2759      3148      3149
 -1      1409    8    0    1
 -2       650       776       777      3146      3150      3148
 -1      1410    8    0    1
 -2       652       651       778      2762      3151      3152
 -1      1411    8    0    1
 -2       651       777       778      3149      3153      3151
 -1      1412    8    0    1
 -2       653       652       779      2765      3154      3155
 -1      1413    8    0    1
 -2       652       778       779      3152      3156      3154
 -1      1414    8    0    1
 -2       654       653       780      2768      3157      3158
 -1      1415    8    0    1
 -2       653       779       780      3155      3159      3157
 -1      1416    8    0    1
 -2       655       654       781      2771      3160      3161
 -1      1417    8    0    1
 -2       654       780       781      3158      3162      3160
 -1      1418    8    0    1
 -2       656       655       782      2774      3163      3164
 -1      1419    8    0    1
 -2       655       781       782      3161      3165      3163
 -1      1420    8    0    1
 -2       657       656       783      2777      3166      3167
 -1      1421    8    0    1
 -2       656       782       783      3164      3168      3166
 -1      1422    8    0    1
 -2       658       657       784      2780      3169      3170
 -1      1423    8    0    1
 -2       657       783       784      3167      3171      3169
 -1      1424    8    0    1
 -2       659       658       785      2783      3172      3173
 -1      1425    8    0    1
 -2       658       784       785      3170      3174      3172
 -1      1426    8    0    1
 -2       660       659       786      2786      3175      3176
 -1      1427    8    0    1
 -2       659       785       786      3173      3177      3175
 -1      1428    8    0    1
 -2       661       660       787      2789      3178      3179
 -1      1429    8    0    1
 -2       660       786       787      3176      3180      3178
 -1      1430    8    0    1
 -2       662       661       788      2792      3181      3182
 -1      1431    8    0    1
 -2       661       787       788      3179      3183      3181
 -1      1432    8    0    1
 -2       663       662       789      2795      3184      3185
 -1      1433    8    0    1
 -2       662       788       789      3182      3186      3184
 -1      1434    8    0    1
 -2       664       663       790      2798      3187      3188
 -1      1435    8    0    1
 -2       751       664       790      3070      3188      3189
 -1      1436    8    0    1
 -2       663       789       790      3185      3190      3187
 -1      1437    8    0    1
 -2       669       670       791      2813      3191      3192
 -1      1438    8    0    1
 -2       668       669       792      2810      3193      3194
 -1      1439    8    0    1
 -2       669       791       792      3192      3195      3193
 -1      1440    8    0    1
 -2       671       672       793      2819      3196      3197
 -1      1441    8    0    1
 -2       672       673       794      2822      3198      3199
 -1      1442    8    0    1
 -2       672       794       793      3199      3200      3196
 -1      1443    8    0    1
 -2       673       674       795      2825      3201      3202
 -1      1444    8    0    1
 -2       673       795       794      3202      3203      3198
 -1      1445    8    0    1
 -2       674       675       796      2828      3204      3205
 -1      1446    8    0    1
 -2       674       796       795      3205      3206      3201
 -1      1447    8    0    1
 -2       675       676       797      2831      3207      3208
 -1      1448    8    0    1
 -2       675       797       796      3208      3209      3204
 -1      1449    8    0    1
 -2       676       677       798      2834      3210      3211
 -1      1450    8    0    1
 -2       676       798       797      3211      3212      3207
 -1      1451    8    0    1
 -2       677       678       799      2837      3213      3214
 -1      1452    8    0    1
 -2       677       799       798      3214      3215      3210
 -1      1453    8    0    1
 -2       678       679       800      2840      3216      3217
 -1      1454    8    0    1
 -2       678       800       799      3217      3218      3213
 -1      1455    8    0    1
 -2       679       680       801      2843      3219      3220
 -1      1456    8    0    1
 -2       679       801       800      3220      3221      3216
 -1      1457    8    0    1
 -2       680       681       802      2846      3222      3223
 -1      1458    8    0    1
 -2       680       802       801      3223      3224      3219
 -1      1459    8    0    1
 -2       544       612       682      2851      3225      2847
 -1      1460    8    0    1
 -2       612       545       724      2850      3022      3226
 -1      1461    8    0    1
 -2       686       687       803      2865      3227      3228
 -1      1462    8    0    1
 -2       687       688       804      2868      3229      3230
 -1      1463    8    0    1
 -2       687       804       803      3230      3231      3227
 -1      1464    8    0    1
 -2       688       689       805      2871      3232      3233
 -1      1465    8    0    1
 -2       688       805       804      3233      3234      3229
 -1      1466    8    0    1
 -2       689       690       806      2874      3235      3236
 -1      1467    8    0    1
 -2       689       806       805      3236      3237      3232
 -1      1468    8    0    1
 -2       690       691       807      2877      3238      3239
 -1      1469    8    0    1
 -2       690       807       806      3239      3240      3235
 -1      1470    8    0    1
 -2       691       692       808      2880      3241      3242
 -1      1471    8    0    1
 -2       691       808       807      3242      3243      3238
 -1      1472    8    0    1
 -2       692       693       809      2883      3244      3245
 -1      1473    8    0    1
 -2       692       809       808      3245      3246      3241
 -1      1474    8    0    1
 -2       693       694       810      2886      3247      3248
 -1      1475    8    0    1
 -2       693       810       809      3248      3249      3244
 -1      1476    8    0    1
 -2       694       695       811      2889      3250      3251
 -1      1477    8    0    1
 -2       694       811       810      3251      3252      3247
 -1      1478    8    0    1
 -2       695       696       812      2892      3253      3254
 -1      1479    8    0    1
 -2       695       812       811      3254      3255      3250
 -1      1480    8    0    1
 -2       696       697       813      2895      3256      3257
 -1      1481    8    0    1
 -2       696       813       812      3257      3258      3253
 -1      1482    8    0    1
 -2       697       698       814      2898      3259      3260
 -1      1483    8    0    1
 -2       697       814       813      3260      3261      3256
 -1      1484    8    0    1
 -2       698       699       815      2901      3262      3263
 -1      1485    8    0    1
 -2       698       815       814      3263      3264      3259
 -1      1486    8    0    1
 -2       699       700       816      2904      3265      3266
 -1      1487    8    0    1
 -2       699       816       815      3266      3267      3262
 -1      1488    8    0    1
 -2       700       701       817      2907      3268      3269
 -1      1489    8    0    1
 -2       700       817       816      3269      3270      3265
 -1      1490    8    0    1
 -2       701       702       818      2910      3271      3272
 -1      1491    8    0    1
 -2       701       818       817      3272      3273      3268
 -1      1492    8    0    1
 -2       702       703       819      2913      3274      3275
 -1      1493    8    0    1
 -2       818       702       819      3271      3275      3276
 -1      1494    8    0    1
 -2       703       741       819      3029      3277      3274
 -1      1495    8    0    1
 -2       708       710       820      2933      3278      3279
 -1      1496    8    0    1
 -2       711       712       821      2939      3280      3281
 -1      1497    8    0    1
 -2       705       708       822      2926      3282      3283
 -1      1498    8    0    1
 -2       708       820       822      3279      3284      3282
 -1      1499    8    0    1
 -2       704       722       823      3023      3285      3286
 -1      1500    8    0    1
 -2       717       667       824      2950      3287      3288
 -1      1501    8    0    1
 -2       748       716       825      3053      3289      3290
 -1      1502    8    0    1
 -2       710       711       826      2936      3291      3292
 -1      1503    8    0    1
 -2       820       710       826      3278      3292      3293
 -1      1504    8    0    1
 -2       711       821       826      3281      3294      3291
 -1      1505    8    0    1
 -2       719       750       827      3071      3295      3296
 -1      1506    8    0    1
 -2       623       719       827      2957      3296      3297
 -1      1507    8    0    1
 -2       750       734       827      3066      3298      3295
 -1      1508    8    0    1
 -2       728       608       828      3055      3299      3300
 -1      1509    8    0    1
 -2       715       704       829      3032      3301      3302
 -1      1510    8    0    1
 -2       726       727       830      3019      3303      3304
 -1      1511    8    0    1
 -2       670       671       831      2816      3305      3306
 -1      1512    8    0    1
 -2       791       670       831      3191      3306      3307
 -1      1513    8    0    1
 -2       671       793       831      3197      3308      3305
 -1      1514    8    0    1
 -2       591       612       724      2638      3226      2970
 -1      1515    8    0    1
 -2       612       666       682      3018      3309      3225
 -1      1516    8    0    1
 -2       667       665       832      2805      3310      3311
 -1      1517    8    0    1
 -2       667       832       824      3311      3312      3287
 -1      1518    8    0    1
 -2       682       666       833      3309      3313      3314
 -1      1519    8    0    1
 -2       681       682       833      2849      3314      3315
 -1      1520    8    0    1
 -2       666       611       833      3043      3316      3313
 -1      1521    8    0    1
 -2       731       607       773      3061      3317      3318
 -1      1522    8    0    1
 -2       714       726       834      2978      3319      3320
 -1      1523    8    0    1
 -2       716       610       835      3031      3321      3322
 -1      1524    8    0    1
 -2       825       716       835      3289      3322      3323
 -1      1525    8    0    1
 -2       610       744       835      3041      3324      3321
 -1      1526    8    0    1
 -2       622       748       836      3056      3325      3326
 -1      1527    8    0    1
 -2       620       621       837      3062      3327      3328
 -1      1528    8    0    1
 -2       752       620       837      3072      3328      3329
 -1      1529    8    0    1
 -2       621       721       837      2964      3330      3327
 -1      1530    8    0    1
 -2       616       622       838      3002      3331      3332
 -1      1531    8    0    1
 -2       737       616       838      3011      3332      3333
 -1      1532    8    0    1
 -2       622       836       838      3326      3334      3331
 -1      1533    8    0    1
 -2       618       617       839      2662      3335      3336
 -1      1534    8    0    1
 -2       735       618       840      2998      3337      3338
 -1      1535    8    0    1
 -2       618       839       840      3336      3339      3337
 -1      1536    8    0    1
 -2       734       723       841      2997      3340      3341
 -1      1537    8    0    1
 -2       732       733       685      3004      3342      3343
 -1      1538    8    0    1
 -2       753       715       842      3075      3344      3345
 -1      1539    8    0    1
 -2       715       829       842      3302      3346      3344
 -1      1540    8    0    1
 -2       642       772       747      3131      3347      3133
 -1      1541    8    0    1
 -2       617       720       843      2960      3348      3349
 -1      1542    8    0    1
 -2       617       843       839      3349      3350      3335
 -1      1543    8    0    1
 -2       738       615       844      3014      3351      3352
 -1      1544    8    0    1
 -2       615       740       844      3026      3353      3351
 -1      1545    8    0    1
 -2       739       707       845      3015      3354      3355
 -1      1546    8    0    1
 -2       647       646       846      2747      3356      3357
 -1      1547    8    0    1
 -2       619       752       847      3073      3358      3359
 -1      1548    8    0    1
 -2       619       847       720      3359      3360      2961
 -1      1549    8    0    1
 -2       665       718       848      2953      3361      3362
 -1      1550    8    0    1
 -2       665       848       832      3362      3363      3310
 -1      1551    8    0    1
 -2       668       792       849      3194      3364      3365
 -1      1552    8    0    1
 -2       668       849       718      3365      3366      2954
 -1      1553    8    0    1
 -2       802       681       833      3222      3315      3367
 -1      1554    8    0    1
 -2       707       709       850      2929      3368      3369
 -1      1555    8    0    1
 -2       707       850       845      3369      3370      3354
 -1      1556    8    0    1
 -2       623       827       754      3297      3371      3077
 -1      1557    8    0    1
 -2       823       722       803      3285      3372      3373
 -1      1558    8    0    1
 -2       709       705       851      2930      3374      3375
 -1      1559    8    0    1
 -2       850       709       851      3368      3375      3376
 -1      1560    8    0    1
 -2       705       822       851      3283      3377      3374
 -1      1561    8    0    1
 -2       748       825       775      3290      3378      3379
 -1      1562    8    0    1
 -2       742       713       852      3033      3380      3381
 -1      1563    8    0    1
 -2       713       743       852      3037      3382      3380
 -1      1564    8    0    1
 -2       743       730       753      3038      3076      3383
 -1      1565    8    0    1
 -2       744       725       853      3042      3384      3385
 -1      1566    8    0    1
 -2       725       742       853      3035      3386      3384
 -1      1567    8    0    1
 -2       745       609       854      3044      3387      3388
 -1      1568    8    0    1
 -2       609       738       854      3013      3389      3387
 -1      1569    8    0    1
 -2       746       714       855      3047      3390      3391
 -1      1570    8    0    1
 -2       714       834       855      3320      3392      3390
 -1      1571    8    0    1
 -2       830       727       856      3303      3393      3394
 -1      1572    8    0    1
 -2       727       745       856      3046      3395      3393
 -1      1573    8    0    1
 -2       829       704       823      3301      3286      3396
 -1      1574    8    0    1
 -2       828       608       736      3299      3007      3397
 -1      1575    8    0    1
 -2       685       686       722      2862      3398      3399
 -1      1576    8    0    1
 -2       726       830       834      3304      3400      3319
 -1      1577    8    0    1
 -2       721       717       857      2965      3401      3402
 -1      1578    8    0    1
 -2       837       721       857      3330      3402      3403
 -1      1579    8    0    1
 -2       717       824       857      3288      3404      3401
 -1      1580    8    0    1
 -2       833       611       746      3316      3049      3405
 -1      1581    8    0    1
 -2       723       749       858      3059      3406      3407
 -1      1582    8    0    1
 -2       723       858       841      3407      3408      3340
 -1      1583    8    0    1
 -2       774       647       846      3140      3357      3409
 -1      1584    8    0    1
 -2       740       728       859      3024      3410      3411
 -1      1585    8    0    1
 -2       728       828       859      3300      3412      3410
 -1      1586    8    0    1
 -2       729       645       773      3138      3137      3413
 -1      1587    8    0    1
 -2       722       686       803      3398      3228      3372
 -1      1588    8    0    1
 -2       607       729       773      3005      3413      3317
 -1      1589    8    0    1
 -2       712       751       860      3069      3414      3415
 -1      1590    8    0    1
 -2       821       712       860      3280      3415      3416
 -1      1591    8    0    1
 -2       751       790       860      3189      3417      3414
 -1      1592    8    0    1
 -2       774       846       838      3409      3418      3419
 -1      1593    8    0    1
 -2       732       685       722      3343      3399      3001
 -1      1594    8    0    1
 -2       733       683       684      3074      2856      3420
 -1      1595    8    0    1
 -2       736       613       747      3008      3052      3421
 -1      1596    8    0    1
 -2       754       827       861      3371      3422      3423
 -1      1597    8    0    1
 -2       756       755       862      3084      3424      3425
 -1      1598    8    0    1
 -2       757       756       863      3087      3426      3427
 -1      1599    8    0    1
 -2       756       862       863      3425      3428      3426
 -1      1600    8    0    1
 -2       758       757       864      3090      3429      3430
 -1      1601    8    0    1
 -2       757       863       864      3427      3431      3429
 -1      1602    8    0    1
 -2       759       758       865      3093      3432      3433
 -1      1603    8    0    1
 -2       758       864       865      3430      3434      3432
 -1      1604    8    0    1
 -2       760       759       866      3096      3435      3436
 -1      1605    8    0    1
 -2       759       865       866      3433      3437      3435
 -1      1606    8    0    1
 -2       761       760       867      3099      3438      3439
 -1      1607    8    0    1
 -2       760       866       867      3436      3440      3438
 -1      1608    8    0    1
 -2       762       761       868      3102      3441      3442
 -1      1609    8    0    1
 -2       761       867       868      3439      3443      3441
 -1      1610    8    0    1
 -2       763       762       869      3105      3444      3445
 -1      1611    8    0    1
 -2       762       868       869      3442      3446      3444
 -1      1612    8    0    1
 -2       764       763       870      3108      3447      3448
 -1      1613    8    0    1
 -2       763       869       870      3445      3449      3447
 -1      1614    8    0    1
 -2       765       764       871      3111      3450      3451
 -1      1615    8    0    1
 -2       764       870       871      3448      3452      3450
 -1      1616    8    0    1
 -2       766       765       872      3114      3453      3454
 -1      1617    8    0    1
 -2       765       871       872      3451      3455      3453
 -1      1618    8    0    1
 -2       767       766       873      3117      3456      3457
 -1      1619    8    0    1
 -2       766       872       873      3454      3458      3456
 -1      1620    8    0    1
 -2       768       767       874      3120      3459      3460
 -1      1621    8    0    1
 -2       767       873       874      3457      3461      3459
 -1      1622    8    0    1
 -2       769       768       875      3123      3462      3463
 -1      1623    8    0    1
 -2       768       874       875      3460      3464      3462
 -1      1624    8    0    1
 -2       770       769       876      3126      3465      3466
 -1      1625    8    0    1
 -2       769       875       876      3463      3467      3465
 -1      1626    8    0    1
 -2       771       770       877      3129      3468      3469
 -1      1627    8    0    1
 -2       770       876       877      3466      3470      3468
 -1      1628    8    0    1
 -2       772       771       828      3132      3471      3472
 -1      1629    8    0    1
 -2       773       644       731      3136      3473      3318
 -1      1630    8    0    1
 -2       646       729       737      3139      3010      3474
 -1      1631    8    0    1
 -2       776       775       825      3147      3378      3475
 -1      1632    8    0    1
 -2       777       776       878      3150      3476      3477
 -1      1633    8    0    1
 -2       776       825       878      3475      3478      3476
 -1      1634    8    0    1
 -2       778       777       879      3153      3479      3480
 -1      1635    8    0    1
 -2       777       878       879      3477      3481      3479
 -1      1636    8    0    1
 -2       779       778       880      3156      3482      3483
 -1      1637    8    0    1
 -2       778       879       880      3480      3484      3482
 -1      1638    8    0    1
 -2       780       779       881      3159      3485      3486
 -1      1639    8    0    1
 -2       779       880       881      3483      3487      3485
 -1      1640    8    0    1
 -2       781       780       882      3162      3488      3489
 -1      1641    8    0    1
 -2       780       881       882      3486      3490      3488
 -1      1642    8    0    1
 -2       782       781       883      3165      3491      3492
 -1      1643    8    0    1
 -2       781       882       883      3489      3493      3491
 -1      1644    8    0    1
 -2       783       782       884      3168      3494      3495
 -1      1645    8    0    1
 -2       782       883       884      3492      3496      3494
 -1      1646    8    0    1
 -2       784       783       885      3171      3497      3498
 -1      1647    8    0    1
 -2       783       884       885      3495      3499      3497
 -1      1648    8    0    1
 -2       785       784       886      3174      3500      3501
 -1      1649    8    0    1
 -2       784       885       886      3498      3502      3500
 -1      1650    8    0    1
 -2       786       785       887      3177      3503      3504
 -1      1651    8    0    1
 -2       785       886       887      3501      3505      3503
 -1      1652    8    0    1
 -2       787       786       888      3180      3506      3507
 -1      1653    8    0    1
 -2       786       887       888      3504      3508      3506
 -1      1654    8    0    1
 -2       788       787       889      3183      3509      3510
 -1      1655    8    0    1
 -2       787       888       889      3507      3511      3509
 -1      1656    8    0    1
 -2       789       788       890      3186      3512      3513
 -1      1657    8    0    1
 -2       788       889       890      3510      3514      3512
 -1      1658    8    0    1
 -2       792       791       891      3195      3515      3516
 -1      1659    8    0    1
 -2       794       795       892      3203      3517      3518
 -1      1660    8    0    1
 -2       793       794       893      3200      3519      3520
 -1      1661    8    0    1
 -2       794       892       893      3518      3521      3519
 -1      1662    8    0    1
 -2       796       797       894      3209      3522      3523
 -1      1663    8    0    1
 -2       797       798       895      3212      3524      3525
 -1      1664    8    0    1
 -2       797       895       894      3525      3526      3522
 -1      1665    8    0    1
 -2       798       799       896      3215      3527      3528
 -1      1666    8    0    1
 -2       798       896       895      3528      3529      3524
 -1      1667    8    0    1
 -2       799       800       897      3218      3530      3531
 -1      1668    8    0    1
 -2       799       897       896      3531      3532      3527
 -1      1669    8    0    1
 -2       800       801       898      3221      3533      3534
 -1      1670    8    0    1
 -2       800       898       897      3534      3535      3530
 -1      1671    8    0    1
 -2       801       802       855      3224      3536      3537
 -1      1672    8    0    1
 -2       824       832       899      3312      3538      3539
 -1      1673    8    0    1
 -2       822       820       900      3284      3540      3541
 -1      1674    8    0    1
 -2       805       806       901      3237      3542      3543
 -1      1675    8    0    1
 -2       804       805       842      3234      3544      3545
 -1      1676    8    0    1
 -2       806       807       902      3240      3546      3547
 -1      1677    8    0    1
 -2       806       902       901      3547      3548      3542
 -1      1678    8    0    1
 -2       807       808       903      3243      3549      3550
 -1      1679    8    0    1
 -2       807       903       902      3550      3551      3546
 -1      1680    8    0    1
 -2       808       809       904      3246      3552      3553
 -1      1681    8    0    1
 -2       808       904       903      3553      3554      3549
 -1      1682    8    0    1
 -2       809       810       905      3249      3555      3556
 -1      1683    8    0    1
 -2       809       905       904      3556      3557      3552
 -1      1684    8    0    1
 -2       810       811       906      3252      3558      3559
 -1      1685    8    0    1
 -2       810       906       905      3559      3560      3555
 -1      1686    8    0    1
 -2       811       812       907      3255      3561      3562
 -1      1687    8    0    1
 -2       811       907       906      3562      3563      3558
 -1      1688    8    0    1
 -2       812       813       908      3258      3564      3565
 -1      1689    8    0    1
 -2       812       908       907      3565      3566      3561
 -1      1690    8    0    1
 -2       813       814       909      3261      3567      3568
 -1      1691    8    0    1
 -2       813       909       908      3568      3569      3564
 -1      1692    8    0    1
 -2       814       815       910      3264      3570      3571
 -1      1693    8    0    1
 -2       814       910       909      3571      3572      3567
 -1      1694    8    0    1
 -2       815       816       911      3267      3573      3574
 -1      1695    8    0    1
 -2       815       911       910      3574      3575      3570
 -1      1696    8    0    1
 -2       816       817       912      3270      3576      3577
 -1      1697    8    0    1
 -2       816       912       911      3577      3578      3573
 -1      1698    8    0    1
 -2       817       818       913      3273      3579      3580
 -1      1699    8    0    1
 -2       817       913       912      3580      3581      3576
 -1      1700    8    0    1
 -2       741       739       914      3030      3582      3583
 -1      1701    8    0    1
 -2       819       741       914      3277      3583      3584
 -1      1702    8    0    1
 -2       739       845       914      3355      3585      3582
 -1      1703    8    0    1
 -2       833       746       802      3405      3586      3367
 -1      1704    8    0    1
 -2       834       830       915      3400      3587      3588
 -1      1705    8    0    1
 -2       684       685       733      2859      3342      3420
 -1      1706    8    0    1
 -2       749       735       916      3060      3589      3590
 -1      1707    8    0    1
 -2       749       916       858      3590      3591      3406
 -1      1708    8    0    1
 -2       795       796       917      3206      3592      3593
 -1      1709    8    0    1
 -2       892       795       917      3517      3593      3594
 -1      1710    8    0    1
 -2       796       894       917      3523      3595      3592
 -1      1711    8    0    1
 -2       743       753       918      3383      3596      3597
 -1      1712    8    0    1
 -2       772       828       736      3472      3397      3598
 -1      1713    8    0    1
 -2       731       644       747      3473      3135      3050
 -1      1714    8    0    1
 -2       802       746       855      3586      3391      3536
 -1      1715    8    0    1
 -2       755       754       919      3081      3599      3600
 -1      1716    8    0    1
 -2       755       919       862      3600      3601      3424
 -1      1717    8    0    1
 -2       899       832       920      3538      3602      3603
 -1      1718    8    0    1
 -2       832       848       920      3363      3604      3602
 -1      1719    8    0    1
 -2       753       842       921      3345      3605      3606
 -1      1720    8    0    1
 -2       753       921       918      3606      3607      3596
 -1      1721    8    0    1
 -2       846       646       737      3356      3474      3608
 -1      1722    8    0    1
 -2       843       720       847      3348      3360      3609
 -1      1723    8    0    1
 -2       844       740       922      3353      3610      3611
 -1      1724    8    0    1
 -2       740       859       922      3411      3612      3610
 -1      1725    8    0    1
 -2       737       838       846      3333      3418      3608
 -1      1726    8    0    1
 -2       738       844       923      3352      3613      3614
 -1      1727    8    0    1
 -2       738       923       854      3614      3615      3389
 -1      1728    8    0    1
 -2       828       771       877      3471      3469      3616
 -1      1729    8    0    1
 -2       839       843       924      3350      3617      3618
 -1      1730    8    0    1
 -2       774       838       836      3419      3334      3619
 -1      1731    8    0    1
 -2       847       752       925      3358      3620      3621
 -1      1732    8    0    1
 -2       878       825       835      3478      3323      3622
 -1      1733    8    0    1
 -2       891       791       926      3515      3623      3624
 -1      1734    8    0    1
 -2       791       831       926      3307      3625      3623
 -1      1735    8    0    1
 -2       790       789       927      3190      3626      3627
 -1      1736    8    0    1
 -2       789       890       927      3513      3628      3626
 -1      1737    8    0    1
 -2       743       918       928      3597      3629      3630
 -1      1738    8    0    1
 -2       743       928       852      3630      3631      3382
 -1      1739    8    0    1
 -2       848       718       849      3361      3366      3632
 -1      1740    8    0    1
 -2       849       792       929      3364      3633      3634
 -1      1741    8    0    1
 -2       792       891       929      3516      3635      3633
 -1      1742    8    0    1
 -2       793       893       930      3520      3636      3637
 -1      1743    8    0    1
 -2       793       930       831      3637      3638      3308
 -1      1744    8    0    1
 -2       801       855       898      3537      3639      3533
 -1      1745    8    0    1
 -2       824       899       931      3539      3640      3641
 -1      1746    8    0    1
 -2       822       900       932      3541      3642      3643
 -1      1747    8    0    1
 -2       822       932       851      3643      3644      3377
 -1      1748    8    0    1
 -2       805       901       842      3543      3645      3544
 -1      1749    8    0    1
 -2       835       744       933      3324      3646      3647
 -1      1750    8    0    1
 -2       878       835       933      3622      3647      3648
 -1      1751    8    0    1
 -2       744       853       933      3385      3649      3646
 -1      1752    8    0    1
 -2       736       747       772      3421      3347      3598
 -1      1753    8    0    1
 -2       803       804       823      3231      3650      3373
 -1      1754    8    0    1
 -2       914       845       913      3585      3651      3652
 -1      1755    8    0    1
 -2       818       819       914      3276      3584      3653
 -1      1756    8    0    1
 -2       827       734       841      3298      3341      3654
 -1      1757    8    0    1
 -2       748       775       836      3379      3655      3325
 -1      1758    8    0    1
 -2       915       830       934      3587      3656      3657
 -1      1759    8    0    1
 -2       830       856       934      3394      3658      3656
 -1      1760    8    0    1
 -2       742       852       935      3381      3659      3660
 -1      1761    8    0    1
 -2       853       742       935      3386      3660      3661
 -1      1762    8    0    1
 -2       855       834       936      3392      3662      3663
 -1      1763    8    0    1
 -2       834       915       936      3588      3664      3662
 -1      1764    8    0    1
 -2       856       745       937      3395      3665      3666
 -1      1765    8    0    1
 -2       745       854       937      3388      3667      3665
 -1      1766    8    0    1
 -2       820       826       938      3293      3668      3669
 -1      1767    8    0    1
 -2       820       938       900      3669      3670      3540
 -1      1768    8    0    1
 -2       754       861       919      3423      3671      3599
 -1      1769    8    0    1
 -2       857       824       931      3404      3641      3672
 -1      1770    8    0    1
 -2       845       850       939      3370      3673      3674
 -1      1771    8    0    1
 -2       836       775       774      3655      3144      3619
 -1      1772    8    0    1
 -2       839       924       940      3618      3675      3676
 -1      1773    8    0    1
 -2       839       940       840      3676      3677      3339
 -1      1774    8    0    1
 -2       845       939       913      3674      3678      3651
 -1      1775    8    0    1
 -2       827       841       861      3654      3679      3422
 -1      1776    8    0    1
 -2       818       914       913      3653      3652      3579
 -1      1777    8    0    1
 -2       823       804       829      3650      3680      3396
 -1      1778    8    0    1
 -2       841       858       941      3408      3681      3682
 -1      1779    8    0    1
 -2       841       941       861      3682      3683      3679
 -1      1780    8    0    1
 -2       916       735       840      3589      3338      3684
 -1      1781    8    0    1
 -2       829       804       842      3680      3545      3346
 -1      1782    8    0    1
 -2       896       897       942      3532      3685      3686
 -1      1783    8    0    1
 -2       864       863       943      3431      3687      3688
 -1      1784    8    0    1
 -2       865       864       944      3434      3689      3690
 -1      1785    8    0    1
 -2       864       943       944      3688      3691      3689
 -1      1786    8    0    1
 -2       866       865       945      3437      3692      3693
 -1      1787    8    0    1
 -2       865       944       945      3690      3694      3692
 -1      1788    8    0    1
 -2       867       866       946      3440      3695      3696
 -1      1789    8    0    1
 -2       866       945       946      3693      3697      3695
 -1      1790    8    0    1
 -2       868       867       947      3443      3698      3699
 -1      1791    8    0    1
 -2       867       946       947      3696      3700      3698
 -1      1792    8    0    1
 -2       869       868       948      3446      3701      3702
 -1      1793    8    0    1
 -2       868       947       948      3699      3703      3701
 -1      1794    8    0    1
 -2       870       869       949      3449      3704      3705
 -1      1795    8    0    1
 -2       869       948       949      3702      3706      3704
 -1      1796    8    0    1
 -2       871       870       950      3452      3707      3708
 -1      1797    8    0    1
 -2       870       949       950      3705      3709      3707
 -1      1798    8    0    1
 -2       872       871       951      3455      3710      3711
 -1      1799    8    0    1
 -2       871       950       951      3708      3712      3710
 -1      1800    8    0    1
 -2       873       872       952      3458      3713      3714
 -1      1801    8    0    1
 -2       872       951       952      3711      3715      3713
 -1      1802    8    0    1
 -2       874       873       953      3461      3716      3717
 -1      1803    8    0    1
 -2       873       952       953      3714      3718      3716
 -1      1804    8    0    1
 -2       875       874       954      3464      3719      3720
 -1      1805    8    0    1
 -2       874       953       954      3717      3721      3719
 -1      1806    8    0    1
 -2       876       875       955      3467      3722      3723
 -1      1807    8    0    1
 -2       875       954       955      3720      3724      3722
 -1      1808    8    0    1
 -2       893       892       956      3521      3725      3726
 -1      1809    8    0    1
 -2       925       752       857      3620      3727      3728
 -1      1810    8    0    1
 -2       879       878       957      3481      3729      3730
 -1      1811    8    0    1
 -2       878       933       957      3648      3731      3729
 -1      1812    8    0    1
 -2       880       879       958      3484      3732      3733
 -1      1813    8    0    1
 -2       879       957       958      3730      3734      3732
 -1      1814    8    0    1
 -2       881       880       959      3487      3735      3736
 -1      1815    8    0    1
 -2       880       958       959      3733      3737      3735
 -1      1816    8    0    1
 -2       882       881       960      3490      3738      3739
 -1      1817    8    0    1
 -2       881       959       960      3736      3740      3738
 -1      1818    8    0    1
 -2       883       882       961      3493      3741      3742
 -1      1819    8    0    1
 -2       882       960       961      3739      3743      3741
 -1      1820    8    0    1
 -2       884       883       962      3496      3744      3745
 -1      1821    8    0    1
 -2       883       961       962      3742      3746      3744
 -1      1822    8    0    1
 -2       885       884       963      3499      3747      3748
 -1      1823    8    0    1
 -2       884       962       963      3745      3749      3747
 -1      1824    8    0    1
 -2       886       885       964      3502      3750      3751
 -1      1825    8    0    1
 -2       885       963       964      3748      3752      3750
 -1      1826    8    0    1
 -2       887       886       965      3505      3753      3754
 -1      1827    8    0    1
 -2       886       964       965      3751      3755      3753
 -1      1828    8    0    1
 -2       888       887       966      3508      3756      3757
 -1      1829    8    0    1
 -2       887       965       966      3754      3758      3756
 -1      1830    8    0    1
 -2       889       888       967      3511      3759      3760
 -1      1831    8    0    1
 -2       888       966       967      3757      3761      3759
 -1      1832    8    0    1
 -2       890       889       968      3514      3762      3763
 -1      1833    8    0    1
 -2       889       967       968      3760      3764      3762
 -1      1834    8    0    1
 -2       895       896       969      3529      3765      3766
 -1      1835    8    0    1
 -2       896       942       969      3686      3767      3765
 -1      1836    8    0    1
 -2       894       895       970      3526      3768      3769
 -1      1837    8    0    1
 -2       895       969       970      3766      3770      3768
 -1      1838    8    0    1
 -2       931       899       971      3640      3771      3772
 -1      1839    8    0    1
 -2       862       919       972      3601      3773      3774
 -1      1840    8    0    1
 -2       821       860       927      3416      3775      3776
 -1      1841    8    0    1
 -2       901       902       973      3548      3777      3778
 -1      1842    8    0    1
 -2       903       904       974      3554      3779      3780
 -1      1843    8    0    1
 -2       916       840       975      3684      3781      3782
 -1      1844    8    0    1
 -2       840       940       975      3677      3783      3781
 -1      1845    8    0    1
 -2       904       905       976      3557      3784      3785
 -1      1846    8    0    1
 -2       904       976       974      3785      3786      3779
 -1      1847    8    0    1
 -2       905       906       977      3560      3787      3788
 -1      1848    8    0    1
 -2       905       977       976      3788      3789      3784
 -1      1849    8    0    1
 -2       906       907       978      3563      3790      3791
 -1      1850    8    0    1
 -2       906       978       977      3791      3792      3787
 -1      1851    8    0    1
 -2       907       908       979      3566      3793      3794
 -1      1852    8    0    1
 -2       907       979       978      3794      3795      3790
 -1      1853    8    0    1
 -2       908       909       980      3569      3796      3797
 -1      1854    8    0    1
 -2       908       980       979      3797      3798      3793
 -1      1855    8    0    1
 -2       909       910       981      3572      3799      3800
 -1      1856    8    0    1
 -2       909       981       980      3800      3801      3796
 -1      1857    8    0    1
 -2       910       911       982      3575      3802      3803
 -1      1858    8    0    1
 -2       910       982       981      3803      3804      3799
 -1      1859    8    0    1
 -2       911       912       983      3578      3805      3806
 -1      1860    8    0    1
 -2       911       983       982      3806      3807      3802
 -1      1861    8    0    1
 -2       912       913       939      3581      3678      3808
 -1      1862    8    0    1
 -2       850       851       984      3376      3809      3810
 -1      1863    8    0    1
 -2       939       850       984      3673      3810      3811
 -1      1864    8    0    1
 -2       851       932       984      3644      3812      3809
 -1      1865    8    0    1
 -2       848       849       985      3632      3813      3814
 -1      1866    8    0    1
 -2       849       929       985      3634      3815      3813
 -1      1867    8    0    1
 -2       935       852       986      3659      3816      3817
 -1      1868    8    0    1
 -2       852       928       986      3631      3818      3816
 -1      1869    8    0    1
 -2       898       855       936      3639      3663      3819
 -1      1870    8    0    1
 -2       826       821       927      3294      3776      3820
 -1      1871    8    0    1
 -2       858       916       987      3591      3821      3822
 -1      1872    8    0    1
 -2       916       975       987      3782      3823      3821
 -1      1873    8    0    1
 -2       826       927       938      3820      3824      3668
 -1      1874    8    0    1
 -2       843       847       988      3609      3825      3826
 -1      1875    8    0    1
 -2       924       843       988      3617      3826      3827
 -1      1876    8    0    1
 -2       847       925       988      3621      3828      3825
 -1      1877    8    0    1
 -2       857       931       925      3672      3829      3728
 -1      1878    8    0    1
 -2       752       837       857      3329      3403      3727
 -1      1879    8    0    1
 -2       863       862       989      3428      3830      3831
 -1      1880    8    0    1
 -2       862       972       989      3774      3832      3830
 -1      1881    8    0    1
 -2       925       931       990      3829      3833      3834
 -1      1882    8    0    1
 -2       988       925       990      3828      3834      3835
 -1      1883    8    0    1
 -2       931       971       990      3772      3836      3833
 -1      1884    8    0    1
 -2       902       903       991      3551      3837      3838
 -1      1885    8    0    1
 -2       902       991       973      3838      3839      3777
 -1      1886    8    0    1
 -2       919       861       992      3671      3840      3841
 -1      1887    8    0    1
 -2       972       919       992      3773      3841      3842
 -1      1888    8    0    1
 -2       861       941       992      3683      3843      3840
 -1      1889    8    0    1
 -2       927       890       938      3628      3844      3824
 -1      1890    8    0    1
 -2       912       939       983      3808      3845      3805
 -1      1891    8    0    1
 -2       899       920       993      3603      3846      3847
 -1      1892    8    0    1
 -2       899       993       971      3847      3848      3771
 -1      1893    8    0    1
 -2       893       956       994      3726      3849      3850
 -1      1894    8    0    1
 -2       893       994       930      3850      3851      3636
 -1      1895    8    0    1
 -2       956       892       995      3725      3852      3853
 -1      1896    8    0    1
 -2       892       917       995      3594      3854      3852
 -1      1897    8    0    1
 -2       877       876       996      3470      3855      3856
 -1      1898    8    0    1
 -2       854       923       997      3615      3857      3858
 -1      1899    8    0    1
 -2       854       997       937      3858      3859      3667
 -1      1900    8    0    1
 -2       926       831       930      3625      3638      3860
 -1      1901    8    0    1
 -2       928       918       998      3629      3861      3862
 -1      1902    8    0    1
 -2       918       921       998      3607      3863      3861
 -1      1903    8    0    1
 -2       929       891       999      3635      3864      3865
 -1      1904    8    0    1
 -2       932       900      1000      3642      3866      3867
 -1      1905    8    0    1
 -2       897       898      1001      3535      3868      3869
 -1      1906    8    0    1
 -2       858       987       941      3822      3870      3681
 -1      1907    8    0    1
 -2       848       985       920      3814      3871      3604
 -1      1908    8    0    1
 -2       898       936      1001      3819      3872      3868
 -1      1909    8    0    1
 -2       933       853      1002      3649      3873      3874
 -1      1910    8    0    1
 -2       957       933      1002      3731      3874      3875
 -1      1911    8    0    1
 -2       853       935      1002      3661      3876      3873
 -1      1912    8    0    1
 -2       901       973       921      3778      3877      3878
 -1      1913    8    0    1
 -2       942       897      1001      3685      3869      3879
 -1      1914    8    0    1
 -2       903       974       991      3780      3880      3837
 -1      1915    8    0    1
 -2       983       939      1003      3845      3881      3882
 -1      1916    8    0    1
 -2       939       984      1003      3811      3883      3881
 -1      1917    8    0    1
 -2       943       863       989      3687      3831      3884
 -1      1918    8    0    1
 -2       923       844       996      3613      3885      3886
 -1      1919    8    0    1
 -2       842       901       921      3645      3878      3605
 -1      1920    8    0    1
 -2       890       968       938      3763      3887      3844
 -1      1921    8    0    1
 -2       934       856      1004      3658      3888      3889
 -1      1922    8    0    1
 -2       856       937      1004      3666      3890      3888
 -1      1923    8    0    1
 -2       936       915      1005      3664      3891      3892
 -1      1924    8    0    1
 -2      1001       936      1005      3872      3892      3893
 -1      1925    8    0    1
 -2       915       934      1005      3657      3894      3891
 -1      1926    8    0    1
 -2       828       877       996      3616      3856      3895
 -1      1927    8    0    1
 -2       996       876       955      3855      3723      3896
 -1      1928    8    0    1
 -2       999       891      1006      3864      3897      3898
 -1      1929    8    0    1
 -2       891       926      1006      3624      3899      3897
 -1      1930    8    0    1
 -2      1002       935      1007      3876      3900      3901
 -1      1931    8    0    1
 -2       935       986      1007      3817      3902      3900
 -1      1932    8    0    1
 -2       924       988      1008      3827      3903      3904
 -1      1933    8    0    1
 -2       988       990      1008      3835      3905      3903
 -1      1934    8    0    1
 -2       917       894      1009      3595      3906      3907
 -1      1935    8    0    1
 -2       917      1009       995      3907      3908      3854
 -1      1936    8    0    1
 -2       894       970      1009      3769      3909      3906
 -1      1937    8    0    1
 -2       924      1008      1010      3904      3910      3911
 -1      1938    8    0    1
 -2       924      1010       940      3911      3912      3675
 -1      1939    8    0    1
 -2       923       996      1011      3886      3913      3914
 -1      1940    8    0    1
 -2       997       923      1011      3857      3914      3915
 -1      1941    8    0    1
 -2       996       955      1011      3896      3916      3913
 -1      1942    8    0    1
 -2       900       938      1012      3670      3917      3918
 -1      1943    8    0    1
 -2      1000       900      1012      3866      3918      3919
 -1      1944    8    0    1
 -2       938       968      1012      3887      3920      3917
 -1      1945    8    0    1
 -2      1009       970      1013      3909      3921      3922
 -1      1946    8    0    1
 -2       945       944      1014      3694      3923      3924
 -1      1947    8    0    1
 -2       946       945      1015      3697      3925      3926
 -1      1948    8    0    1
 -2       945      1014      1015      3924      3927      3925
 -1      1949    8    0    1
 -2       947       946      1016      3700      3928      3929
 -1      1950    8    0    1
 -2       946      1015      1016      3926      3930      3928
 -1      1951    8    0    1
 -2       948       947      1017      3703      3931      3932
 -1      1952    8    0    1
 -2       947      1016      1017      3929      3933      3931
 -1      1953    8    0    1
 -2       949       948      1018      3706      3934      3935
 -1      1954    8    0    1
 -2       948      1017      1018      3932      3936      3934
 -1      1955    8    0    1
 -2       950       949      1019      3709      3937      3938
 -1      1956    8    0    1
 -2       949      1018      1019      3935      3939      3937
 -1      1957    8    0    1
 -2       951       950      1020      3712      3940      3941
 -1      1958    8    0    1
 -2       950      1019      1020      3938      3942      3940
 -1      1959    8    0    1
 -2       952       951      1021      3715      3943      3944
 -1      1960    8    0    1
 -2       951      1020      1021      3941      3945      3943
 -1      1961    8    0    1
 -2       953       952      1022      3718      3946      3947
 -1      1962    8    0    1
 -2       952      1021      1022      3944      3948      3946
 -1      1963    8    0    1
 -2       954       953      1023      3721      3949      3950
 -1      1964    8    0    1
 -2       953      1022      1023      3947      3951      3949
 -1      1965    8    0    1
 -2       955       954      1024      3724      3952      3953
 -1      1966    8    0    1
 -2      1011       955      1024      3916      3953      3954
 -1      1967    8    0    1
 -2       954      1023      1024      3950      3955      3952
 -1      1968    8    0    1
 -2       974       976      1025      3786      3956      3957
 -1      1969    8    0    1
 -2       959       958      1026      3737      3958      3959
 -1      1970    8    0    1
 -2       960       959      1027      3740      3960      3961
 -1      1971    8    0    1
 -2       959      1026      1027      3959      3962      3960
 -1      1972    8    0    1
 -2       961       960      1028      3743      3963      3964
 -1      1973    8    0    1
 -2       960      1027      1028      3961      3965      3963
 -1      1974    8    0    1
 -2       962       961      1029      3746      3966      3967
 -1      1975    8    0    1
 -2       961      1028      1029      3964      3968      3966
 -1      1976    8    0    1
 -2       963       962      1030      3749      3969      3970
 -1      1977    8    0    1
 -2       962      1029      1030      3967      3971      3969
 -1      1978    8    0    1
 -2       964       963      1031      3752      3972      3973
 -1      1979    8    0    1
 -2       963      1030      1031      3970      3974      3972
 -1      1980    8    0    1
 -2       965       964      1032      3755      3975      3976
 -1      1981    8    0    1
 -2       964      1031      1032      3973      3977      3975
 -1      1982    8    0    1
 -2       966       965      1033      3758      3978      3979
 -1      1983    8    0    1
 -2       965      1032      1033      3976      3980      3978
 -1      1984    8    0    1
 -2       967       966      1034      3761      3981      3982
 -1      1985    8    0    1
 -2       966      1033      1034      3979      3983      3981
 -1      1986    8    0    1
 -2       968       967      1035      3764      3984      3985
 -1      1987    8    0    1
 -2      1012       968      1035      3920      3985      3986
 -1      1988    8    0    1
 -2       967      1034      1035      3982      3987      3984
 -1      1989    8    0    1
 -2       969       942      1036      3767      3988      3989
 -1      1990    8    0    1
 -2       991       974      1037      3880      3990      3991
 -1      1991    8    0    1
 -2       974      1025      1037      3957      3992      3990
 -1      1992    8    0    1
 -2       970       969      1038      3770      3993      3994
 -1      1993    8    0    1
 -2       969      1036      1038      3989      3995      3993
 -1      1994    8    0    1
 -2       941       987       992      3870      3996      3843
 -1      1995    8    0    1
 -2       975       940      1039      3783      3997      3998
 -1      1996    8    0    1
 -2       940      1010      1039      3912      3999      3997
 -1      1997    8    0    1
 -2       942      1001      1040      3879      4000      4001
 -1      1998    8    0    1
 -2       942      1040      1036      4001      4002      3988
 -1      1999    8    0    1
 -2       977       978      1041      3792      4003      4004
 -1      2000    8    0    1
 -2       978       979      1042      3795      4005      4006
 -1      2001    8    0    1
 -2       978      1042      1041      4006      4007      4003
 -1      2002    8    0    1
 -2       979       980      1043      3798      4008      4009
 -1      2003    8    0    1
 -2       979      1043      1042      4009      4010      4005
 -1      2004    8    0    1
 -2       980       981      1044      3801      4011      4012
 -1      2005    8    0    1
 -2       980      1044      1043      4012      4013      4008
 -1      2006    8    0    1
 -2       981       982      1045      3804      4014      4015
 -1      2007    8    0    1
 -2       981      1045      1044      4015      4016      4011
 -1      2008    8    0    1
 -2       982       983      1046      3807      4017      4018
 -1      2009    8    0    1
 -2      1045       982      1046      4014      4018      4019
 -1      2010    8    0    1
 -2       983      1003      1046      3882      4020      4017
 -1      2011    8    0    1
 -2       984       932      1047      3812      4021      4022
 -1      2012    8    0    1
 -2      1003       984      1047      3883      4022      4023
 -1      2013    8    0    1
 -2       932      1000      1047      3867      4024      4021
 -1      2014    8    0    1
 -2       976       977      1048      3789      4025      4026
 -1      2015    8    0    1
 -2      1025       976      1048      3956      4026      4027
 -1      2016    8    0    1
 -2       977      1041      1048      4004      4028      4025
 -1      2017    8    0    1
 -2       996       844       922      3885      3611      4029
 -1      2018    8    0    1
 -2       986       928      1049      3818      4030      4031
 -1      2019    8    0    1
 -2       987       975      1050      3823      4032      4033
 -1      2020    8    0    1
 -2       992       987      1050      3996      4033      4034
 -1      2021    8    0    1
 -2       975      1039      1050      3998      4035      4032
 -1      2022    8    0    1
 -2       926       930      1051      3860      4036      4037
 -1      2023    8    0    1
 -2      1006       926      1051      3899      4037      4038
 -1      2024    8    0    1
 -2       930       994      1051      3851      4039      4036
 -1      2025    8    0    1
 -2       985       929      1052      3815      4040      4041
 -1      2026    8    0    1
 -2       929       999      1052      3865      4042      4040
 -1      2027    8    0    1
 -2       920       985      1053      3871      4043      4044
 -1      2028    8    0    1
 -2       993       920      1053      3846      4044      4045
 -1      2029    8    0    1
 -2       985      1052      1053      4041      4046      4043
 -1      2030    8    0    1
 -2       989       972      1054      3832      4047      4048
 -1      2031    8    0    1
 -2       921       973       998      3877      4049      3863
 -1      2032    8    0    1
 -2       943       989      1055      3884      4050      4051
 -1      2033    8    0    1
 -2       989      1054      1055      4048      4052      4050
 -1      2034    8    0    1
 -2       944       943      1056      3691      4053      4054
 -1      2035    8    0    1
 -2       943      1055      1056      4051      4055      4053
 -1      2036    8    0    1
 -2      1009      1013      1057      3922      4056      4057
 -1      2037    8    0    1
 -2      1009      1057       995      4057      4058      3908
 -1      2038    8    0    1
 -2       999      1006      1058      3898      4059      4060
 -1      2039    8    0    1
 -2       994       956      1059      3849      4061      4062
 -1      2040    8    0    1
 -2       972       992      1050      3842      4034      4063
 -1      2041    8    0    1
 -2       970      1038      1013      3994      4064      3921
 -1      2042    8    0    1
 -2      1026       958      1007      3958      4065      4066
 -1      2043    8    0    1
 -2      1052       999      1060      4042      4067      4068
 -1      2044    8    0    1
 -2       999      1058      1060      4060      4069      4067
 -1      2045    8    0    1
 -2       937       997      1061      3859      4070      4071
 -1      2046    8    0    1
 -2       937      1061      1004      4071      4072      3890
 -1      2047    8    0    1
 -2       973       991      1062      3839      4073      4074
 -1      2048    8    0    1
 -2       986      1049      1063      4031      4075      4076
 -1      2049    8    0    1
 -2       986      1063      1007      4076      4077      3902
 -1      2050    8    0    1
 -2       958       957      1007      3734      4078      4065
 -1      2051    8    0    1
 -2       991      1037      1062      3991      4079      4073
 -1      2052    8    0    1
 -2       956       995      1064      3853      4080      4081
 -1      2053    8    0    1
 -2       995      1057      1064      4058      4082      4080
 -1      2054    8    0    1
 -2       944      1056      1014      4054      4083      3923
 -1      2055    8    0    1
 -2      1040      1001      1005      4000      3893      4084
 -1      2056    8    0    1
 -2      1008       990      1065      3905      4085      4086
 -1      2057    8    0    1
 -2       990       971      1065      3836      4087      4085
 -1      2058    8    0    1
 -2      1047      1000      1066      4024      4088      4089
 -1      2059    8    0    1
 -2      1054       972      1050      4047      4063      4090
 -1      2060    8    0    1
 -2       971       993      1065      3848      4091      4087
 -1      2061    8    0    1
 -2      1049       928       998      4030      3862      4092
 -1      2062    8    0    1
 -2       927       860       790      3775      3417      3627
 -1      2063    8    0    1
 -2       973      1062       998      4074      4093      4049
 -1      2064    8    0    1
 -2      1005       934      1067      3894      4094      4095
 -1      2065    8    0    1
 -2      1040      1005      1067      4084      4095      4096
 -1      2066    8    0    1
 -2       934      1004      1067      3889      4097      4094
 -1      2067    8    0    1
 -2      1010      1008      1068      3910      4098      4099
 -1      2068    8    0    1
 -2      1008      1065      1068      4086      4100      4098
 -1      2069    8    0    1
 -2      1059       956      1064      4061      4081      4101
 -1      2070    8    0    1
 -2      1000      1012      1035      3919      3986      4102
 -1      2071    8    0    1
 -2      1000      1035      1066      4102      4103      4088
 -1      2072    8    0    1
 -2      1058      1006      1069      4059      4104      4105
 -1      2073    8    0    1
 -2      1006      1051      1069      4038      4106      4104
 -1      2074    8    0    1
 -2       994      1059      1070      4062      4107      4108
 -1      2075    8    0    1
 -2       994      1070      1051      4108      4109      4039
 -1      2076    8    0    1
 -2      1065       993      1071      4091      4110      4111
 -1      2077    8    0    1
 -2      1016      1015      1072      3930      4112      4113
 -1      2078    8    0    1
 -2      1017      1016      1073      3933      4114      4115
 -1      2079    8    0    1
 -2      1016      1072      1073      4113      4116      4114
 -1      2080    8    0    1
 -2      1018      1017      1074      3936      4117      4118
 -1      2081    8    0    1
 -2      1017      1073      1074      4115      4119      4117
 -1      2082    8    0    1
 -2      1019      1018      1075      3939      4120      4121
 -1      2083    8    0    1
 -2      1018      1074      1075      4118      4122      4120
 -1      2084    8    0    1
 -2      1020      1019      1076      3942      4123      4124
 -1      2085    8    0    1
 -2      1019      1075      1076      4121      4125      4123
 -1      2086    8    0    1
 -2      1021      1020      1077      3945      4126      4127
 -1      2087    8    0    1
 -2      1020      1076      1077      4124      4128      4126
 -1      2088    8    0    1
 -2      1022      1021      1078      3948      4129      4130
 -1      2089    8    0    1
 -2      1021      1077      1078      4127      4131      4129
 -1      2090    8    0    1
 -2      1023      1022      1079      3951      4132      4133
 -1      2091    8    0    1
 -2      1022      1078      1079      4130      4134      4132
 -1      2092    8    0    1
 -2      1026      1007      1063      4066      4077      4135
 -1      2093    8    0    1
 -2      1014      1056      1080      4083      4136      4137
 -1      2094    8    0    1
 -2      1066      1035      1034      4103      3987      4138
 -1      2095    8    0    1
 -2      1028      1027      1081      3965      4139      4140
 -1      2096    8    0    1
 -2      1029      1028      1082      3968      4141      4142
 -1      2097    8    0    1
 -2      1028      1081      1082      4140      4143      4141
 -1      2098    8    0    1
 -2      1030      1029      1083      3971      4144      4145
 -1      2099    8    0    1
 -2      1029      1082      1083      4142      4146      4144
 -1      2100    8    0    1
 -2      1031      1030      1084      3974      4147      4148
 -1      2101    8    0    1
 -2      1030      1083      1084      4145      4149      4147
 -1      2102    8    0    1
 -2      1032      1031      1085      3977      4150      4151
 -1      2103    8    0    1
 -2      1031      1084      1085      4148      4152      4150
 -1      2104    8    0    1
 -2      1033      1032      1086      3980      4153      4154
 -1      2105    8    0    1
 -2      1032      1085      1086      4151      4155      4153
 -1      2106    8    0    1
 -2      1034      1033      1087      3983      4156      4157
 -1      2107    8    0    1
 -2      1033      1086      1087      4154      4158      4156
 -1      2108    8    0    1
 -2      1037      1025      1088      3992      4159      4160
 -1      2109    8    0    1
 -2      1038      1036      1089      3995      4161      4162
 -1      2110    8    0    1
 -2      1043      1044      1090      4013      4163      4164
 -1      2111    8    0    1
 -2      1039      1010      1091      3999      4165      4166
 -1      2112    8    0    1
 -2      1010      1068      1091      4099      4167      4165
 -1      2113    8    0    1
 -2      1049       998      1062      4092      4093      4168
 -1      2114    8    0    1
 -2      1041      1042      1092      4007      4169      4170
 -1      2115    8    0    1
 -2      1054      1050      1039      4090      4035      4171
 -1      2116    8    0    1
 -2      1013      1038      1093      4064      4172      4173
 -1      2117    8    0    1
 -2      1038      1089      1093      4162      4174      4172
 -1      2118    8    0    1
 -2       957      1002      1007      3875      3901      4078
 -1      2119    8    0    1
 -2      1036      1040      1094      4002      4175      4176
 -1      2120    8    0    1
 -2      1036      1094      1089      4176      4177      4161
 -1      2121    8    0    1
 -2      1027      1026      1095      3962      4178      4179
 -1      2122    8    0    1
 -2      1081      1027      1095      4139      4179      4180
 -1      2123    8    0    1
 -2      1026      1063      1095      4135      4181      4178
 -1      2124    8    0    1
 -2      1059      1064      1096      4101      4182      4183
 -1      2125    8    0    1
 -2       997      1011      1097      3915      4184      4185
 -1      2126    8    0    1
 -2      1061       997      1097      4070      4185      4186
 -1      2127    8    0    1
 -2      1011      1024      1097      3954      4187      4184
 -1      2128    8    0    1
 -2      1003      1047      1098      4023      4188      4189
 -1      2129    8    0    1
 -2      1046      1003      1098      4020      4189      4190
 -1      2130    8    0    1
 -2      1047      1066      1098      4089      4191      4188
 -1      2131    8    0    1
 -2      1055      1054      1099      4052      4192      4193
 -1      2132    8    0    1
 -2      1015      1014      1100      3927      4194      4195
 -1      2133    8    0    1
 -2      1014      1080      1100      4137      4196      4194
 -1      2134    8    0    1
 -2      1056      1055      1101      4055      4197      4198
 -1      2135    8    0    1
 -2      1055      1099      1101      4193      4199      4197
 -1      2136    8    0    1
 -2      1049      1062      1102      4168      4200      4201
 -1      2137    8    0    1
 -2      1063      1049      1102      4075      4201      4202
 -1      2138    8    0    1
 -2      1062      1037      1102      4079      4203      4200
 -1      2139    8    0    1
 -2      1066      1034      1087      4138      4157      4204
 -1      2140    8    0    1
 -2      1070      1059      1103      4107      4205      4206
 -1      2141    8    0    1
 -2      1059      1096      1103      4183      4207      4205
 -1      2142    8    0    1
 -2      1071       993      1053      4110      4045      4208
 -1      2143    8    0    1
 -2       922       859       996      3612      4209      4029
 -1      2144    8    0    1
 -2      1060      1058      1104      4069      4210      4211
 -1      2145    8    0    1
 -2      1066      1087      1098      4204      4212      4191
 -1      2146    8    0    1
 -2      1024      1023      1105      3955      4213      4214
 -1      2147    8    0    1
 -2      1097      1024      1105      4187      4214      4215
 -1      2148    8    0    1
 -2      1023      1079      1105      4133      4216      4213
 -1      2149    8    0    1
 -2      1052      1060      1106      4068      4217      4218
 -1      2150    8    0    1
 -2      1052      1106      1053      4218      4219      4046
 -1      2151    8    0    1
 -2      1065      1071      1068      4111      4220      4100
 -1      2152    8    0    1
 -2      1080      1056      1101      4136      4198      4221
 -1      2153    8    0    1
 -2      1096      1064      1107      4182      4222      4223
 -1      2154    8    0    1
 -2      1064      1057      1107      4082      4224      4222
 -1      2155    8    0    1
 -2      1037      1088      1102      4160      4225      4203
 -1      2156    8    0    1
 -2      1004      1061      1108      4072      4226      4227
 -1      2157    8    0    1
 -2      1004      1108      1067      4227      4228      4097
 -1      2158    8    0    1
 -2      1058      1069      1109      4105      4229      4230
 -1      2159    8    0    1
 -2      1058      1109      1104      4230      4231      4210
 -1      2160    8    0    1
 -2      1042      1043      1110      4010      4232      4233
 -1      2161    8    0    1
 -2      1044      1045      1111      4016      4234      4235
 -1      2162    8    0    1
 -2      1090      1044      1111      4163      4235      4236
 -1      2163    8    0    1
 -2      1013      1093      1112      4173      4237      4238
 -1      2164    8    0    1
 -2      1013      1112      1057      4238      4239      4056
 -1      2165    8    0    1
 -2      1042      1110      1092      4233      4240      4169
 -1      2166    8    0    1
 -2      1110      1043      1090      4232      4164      4241
 -1      2167    8    0    1
 -2      1072      1015      1100      4112      4195      4242
 -1      2168    8    0    1
 -2      1040      1067      1094      4096      4243      4175
 -1      2169    8    0    1
 -2      1071      1053      1106      4208      4219      4244
 -1      2170    8    0    1
 -2      1098      1087      1111      4212      4245      4246
 -1      2171    8    0    1
 -2      1074      1073      1113      4119      4247      4248
 -1      2172    8    0    1
 -2      1075      1074      1096      4122      4249      4250
 -1      2173    8    0    1
 -2      1076      1075      1107      4125      4251      4252
 -1      2174    8    0    1
 -2      1077      1076      1112      4128      4253      4254
 -1      2175    8    0    1
 -2      1078      1077      1093      4131      4255      4256
 -1      2176    8    0    1
 -2      1079      1078      1089      4134      4257      4258
 -1      2177    8    0    1
 -2      1082      1081      1114      4143      4259      4260
 -1      2178    8    0    1
 -2      1069      1051      1070      4106      4109      4261
 -1      2179    8    0    1
 -2      1089      1078      1093      4257      4256      4174
 -1      2180    8    0    1
 -2      1111      1045      1098      4234      4262      4246
 -1      2181    8    0    1
 -2      1084      1083      1092      4149      4263      4264
 -1      2182    8    0    1
 -2      1085      1084      1110      4152      4265      4266
 -1      2183    8    0    1
 -2      1086      1085      1090      4155      4267      4268
 -1      2184    8    0    1
 -2      1087      1086      1111      4158      4269      4245
 -1      2185    8    0    1
 -2      1088      1025      1114      4159      4270      4271
 -1      2186    8    0    1
 -2      1102      1088      1095      4225      4272      4273
 -1      2187    8    0    1
 -2      1060      1104      1115      4211      4274      4275
 -1      2188    8    0    1
 -2      1060      1115      1106      4275      4276      4217
 -1      2189    8    0    1
 -2      1089      1094      1079      4177      4277      4258
 -1      2190    8    0    1
 -2      1025      1048      1114      4027      4278      4270
 -1      2191    8    0    1
 -2      1072      1100      1109      4242      4279      4280
 -1      2192    8    0    1
 -2      1110      1090      1085      4241      4267      4266
 -1      2193    8    0    1
 -2      1048      1041      1116      4028      4281      4282
 -1      2194    8    0    1
 -2      1054      1039      1099      4171      4283      4192
 -1      2195    8    0    1
 -2      1090      1111      1086      4236      4269      4268
 -1      2196    8    0    1
 -2      1045      1046      1098      4019      4190      4262
 -1      2197    8    0    1
 -2      1068      1071      1117      4220      4284      4285
 -1      2198    8    0    1
 -2      1041      1092      1116      4170      4286      4281
 -1      2199    8    0    1
 -2      1093      1077      1112      4255      4254      4237
 -1      2200    8    0    1
 -2      1073      1072      1118      4116      4287      4288
 -1      2201    8    0    1
 -2      1113      1073      1118      4247      4288      4289
 -1      2202    8    0    1
 -2      1072      1109      1118      4280      4290      4287
 -1      2203    8    0    1
 -2      1100      1080      1104      4196      4291      4292
 -1      2204    8    0    1
 -2      1091      1068      1117      4167      4285      4293
 -1      2205    8    0    1
 -2      1094      1067      1108      4243      4228      4294
 -1      2206    8    0    1
 -2      1063      1102      1095      4202      4273      4181
 -1      2207    8    0    1
 -2      1080      1101      1115      4221      4295      4296
 -1      2208    8    0    1
 -2      1092      1110      1084      4240      4265      4264
 -1      2209    8    0    1
 -2      1088      1114      1081      4271      4259      4297
 -1      2210    8    0    1
 -2      1088      1081      1095      4297      4180      4272
 -1      2211    8    0    1
 -2      1075      1096      1107      4250      4223      4251
 -1      2212    8    0    1
 -2      1114      1048      1116      4278      4282      4298
 -1      2213    8    0    1
 -2      1082      1114      1116      4260      4298      4299
 -1      2214    8    0    1
 -2      1092      1083      1116      4263      4300      4286
 -1      2215    8    0    1
 -2      1082      1116      1083      4299      4300      4146
 -1      2216    8    0    1
 -2      1100      1104      1109      4292      4231      4279
 -1      2217    8    0    1
 -2      1104      1080      1115      4291      4296      4274
 -1      2218    8    0    1
 -2      1069      1070      1119      4261      4301      4302
 -1      2219    8    0    1
 -2      1107      1057      1112      4224      4239      4303
 -1      2220    8    0    1
 -2      1108      1061      1120      4226      4304      4305
 -1      2221    8    0    1
 -2      1094      1108      1120      4294      4305      4306
 -1      2222    8    0    1
 -2      1061      1097      1120      4186      4307      4304
 -1      2223    8    0    1
 -2      1115      1101      1121      4295      4308      4309
 -1      2224    8    0    1
 -2      1070      1103      1119      4206      4310      4301
 -1      2225    8    0    1
 -2      1121      1101      1099      4308      4199      4311
 -1      2226    8    0    1
 -2      1121      1099      1117      4311      4312      4313
 -1      2227    8    0    1
 -2      1079      1094      1120      4277      4306      4314
 -1      2228    8    0    1
 -2      1096      1074      1113      4249      4248      4315
 -1      2229    8    0    1
 -2      1112      1076      1107      4253      4252      4303
 -1      2230    8    0    1
 -2      1117      1071      1121      4284      4316      4313
 -1      2231    8    0    1
 -2      1121      1071      1106      4316      4244      4317
 -1      2232    8    0    1
 -2      1106      1115      1121      4276      4309      4317
 -1      2233    8    0    1
 -2      1105      1079      1120      4216      4314      4318
 -1      2234    8    0    1
 -2      1097      1105      1120      4215      4318      4307
 -1      2235    8    0    1
 -2      1069      1119      1109      4302      4319      4229
 -1      2236    8    0    1
 -2      1103      1096      1113      4207      4315      4320
 -1      2237    8    0    1
 -2      1119      1103      1113      4310      4320      4321
 -1      2238    8    0    1
 -2       828       996       859      3895      4209      3412
 -1      2239    8    0    1
 -2      1119      1113      1118      4321      4289      4322
 -1      2240    8    0    1
 -2      1109      1119      1118      4319      4322      4290
 -1      2241    8    0    1
 -2      1117      1099      1122      4312      4323      4324
 -1      2242    8    0    1
 -2      1122      1099      1091      4323      4325      4326
 -1      2243    8    0    1
 -2      1122      1091      1117      4326      4293      4324
 -1      2244    8    0    1
 -2      1039      1091      1099      4166      4325      4283
 -3
    1PSTEP                         1           1           1          
  100CL  101 1.000000000        4326                     0    1           1
 -4  DISP        4    1
 -5  D1          1    2    1    0
 -5  D2          1    2    2    0
 -5  D3          1    2    3    0
 -5  ALL         1    2    0    0    1ALL
 -1         1 9.34332E-03-4.93258E-04-2.75744E-14
 -1         2 1.02845E-02 1.86030E-04-2.92765E-14
 -1         3 1.54224E-02 1.34564E-03-7.40267E-14
 -1         4 1.49643E-02-6.72736E-05-7.10713E-14
 -1         5 0.00000E+00 0.00000E+00 0.00000E+00
 -1         6 0.00000E+00 0.00000E+00 0.00000E+00
 -1         7 0.00000E+00 0.00000E+00 0.00000E+00
 -1         8 0.00000E+00 0.00000E+00 0.00000E+00
 -1         9 0.00000E+00 0.00000E+00 0.00000E+00
 -1        10 0.00000E+00 0.00000E+00 0.00000E+00
 -1        11 0.00000E+00 0.00000E+00 0.00000E+00
 -1        12 0.00000E+00 0.00000E+00 0.00000E+00
 -1        13 0.00000E+00 0.00000E+00 0.00000E+00
 -1        14 0.00000E+00 0.00000E+00 0.00000E+00
 -1        15 0.00000E+00 0.00000E+00 0.00000E+00
 -1        16 0.00000E+00 0.00000E+00 0.00000E+00
 -1        17 0.00000E+00 0.00000E+00 0.00000E+00
 -1        18 0.00000E+00 0.00000E+00 0.00000E+00
 -1        19 0.00000E+00 0.00000E+00 0.00000E+00
 -1        20 0.00000E+00 0.00000E+00 0.00000E+00
 -1        21 0.00000E+00 0.00000E+00 0.00000E+00
 -1        22 0.00000E+00 0.00000E+00 0.00000E+00
 -1        23 4.04225E-04-2.60280E-04 2.01594E-17
 -1        24 6.87739E-04-4.02439E-04-4.94871E-17
 -1        25 9.44200E-04-5.02377E-04-2.06107E-16
 -1        26 1.17395E-03-5.63623E-04-4.50432E-16
 -1        27 1.37904E-03-5.57681E-04-7.89367E-16
 -1        28 1.71117E-03-6.17074E-04-1.17687E-15
 -1        29 1.99907E-03-6.48708E-04-1.65821E-15
 -1        30 2.28130E-03-6.69441E-04-2.21857E-15
 -1        31 2.56179E-03-6.82721E-04-2.85456E-15
 -1        32 2.84298E-03-6.88821E-04-3.56560E-15
 -1        33 3.12717E-03-6.88076E-04-4.34820E-15
 -1        34 3.41787E-03-6.80268E-04-5.19546E-15
 -1        35 3.70826E-03-6.74891E-04-6.11226E-15
 -1        36 4.00406E-03-6.69302E-04-7.09743E-15
 -1        37 4.30600E-03-6.64899E-04-8.14573E-15
 -1        38 4.61486E-03-6.63436E-04-9.25576E-15
 -1        39 4.93126E-03-6.67125E-04-1.04291E-14
 -1        40 5.25546E-03-6.78663E-04-1.16658E-14
 -1        41 5.58689E-03-7.01097E-04-1.29595E-14
 -1        42 5.92368E-03-7.37401E-04-1.43104E-14
 -1        43 6.26215E-03-7.89598E-04-1.57216E-14
 -1        44 6.59661E-03-8.57369E-04-1.71916E-14
 -1        45 6.91993E-03-9.36357E-04-1.87195E-14
 -1        46 7.22534E-03-1.01692E-03-2.03048E-14
 -1        47 7.50932E-03-1.08459E-03-2.19364E-14
 -1        48 7.77434E-03-1.12338E-03-2.36146E-14
 -1        49 8.02951E-03-1.12130E-03-2.53395E-14
 -1        50 8.28779E-03-1.07546E-03-2.71089E-14
 -1        51 8.56092E-03-9.93439E-04-2.89174E-14
 -1        52 8.85505E-03-8.89821E-04-3.07771E-14
 -1        53 9.16962E-03-7.80467E-04-3.26853E-14
 -1        54 9.49922E-03-6.77793E-04-3.46298E-14
 -1        55 9.83665E-03-5.88884E-04-3.66002E-14
 -1        56 1.01754E-02-5.16003E-04-3.85869E-14
 -1        57 1.05107E-02-4.58183E-04-4.05980E-14
 -1        58 1.08399E-02-4.12841E-04-4.26168E-14
 -1        59 1.11619E-02-3.76942E-04-4.46470E-14
 -1        60 1.14767E-02-3.47652E-04-4.66804E-14
 -1        61 1.17850E-02-3.22625E-04-4.87133E-14
 -1        62 1.20877E-02-3.00067E-04-5.07523E-14
 -1        63 1.23858E-02-2.78682E-04-5.28065E-14
 -1        64 1.26801E-02-2.57590E-04-5.48581E-14
 -1        65 1.29717E-02-2.36222E-04-5.69216E-14
 -1        66 1.32611E-02-2.14238E-04-5.89898E-14
 -1        67 1.35489E-02-1.91458E-04-6.10595E-14
 -1        68 1.38357E-02-1.67811E-04-6.31133E-14
 -1        69 1.41217E-02-1.43301E-04-6.51408E-14
 -1        70 1.44074E-02-1.18007E-04-6.71424E-14
 -1        71 1.46930E-02-9.21109E-05-6.91432E-14
 -1        72 4.10019E-04 2.56345E-04 3.45352E-17
 -1        73 6.98744E-04 3.94401E-04-1.55854E-17
 -1        74 9.70088E-04 4.87828E-04-1.47035E-16
 -1        75 1.23593E-03 5.54664E-04-3.60375E-16
 -1        76 1.50065E-03 6.02971E-04-6.56471E-16
 -1        77 1.76616E-03 6.37476E-04-1.03423E-15
 -1        78 2.03349E-03 6.61178E-04-1.49321E-15
 -1        79 2.30335E-03 6.76196E-04-2.03078E-15
 -1        80 2.57637E-03 6.84247E-04-2.64843E-15
 -1        81 2.85302E-03 6.86829E-04-3.34807E-15
 -1        82 3.13376E-03 6.85270E-04-4.12559E-15
 -1        83 3.41909E-03 6.80871E-04-4.97349E-15
 -1        84 3.71004E-03 6.74636E-04-5.88456E-15
 -1        85 4.00697E-03 6.67845E-04-6.86041E-15
 -1        86 4.31101E-03 6.61887E-04-7.90317E-15
 -1        87 4.62354E-03 6.58629E-04-9.01109E-15
 -1        88 4.94610E-03 6.60639E-04-1.01867E-14
 -1        89 5.28012E-03 6.71409E-04-1.14221E-14
 -1        90 5.62647E-03 6.95485E-04-1.27143E-14
 -1        91 5.98465E-03 7.38301E-04-1.40656E-14
 -1        92 6.35164E-03 8.05347E-04-1.54728E-14
 -1        93 6.72072E-03 9.00195E-04-1.69339E-14
 -1        94 7.08109E-03 1.02111E-03-1.84562E-14
 -1        95 7.41971E-03 1.15702E-03-2.00318E-14
 -1        96 7.72658E-03 1.28561E-03-2.16687E-14
 -1        97 8.00185E-03 1.37783E-03-2.33632E-14
 -1        98 8.25953E-03 1.40961E-03-2.51254E-14
 -1        99 8.52271E-03 1.37490E-03-2.69516E-14
 -1       100 8.81164E-03 1.28932E-03-2.88244E-14
 -1       101 9.13405E-03 1.18102E-03-3.07441E-14
 -1       102 9.48452E-03 1.07700E-03-3.26990E-14
 -1       103 9.85076E-03 9.94418E-04-3.46962E-14
 -1       104 1.02203E-02 9.39570E-04-3.67215E-14
 -1       105 1.05843E-02 9.11226E-04-3.87777E-14
 -1       106 1.09378E-02 9.04593E-04-4.08733E-14
 -1       107 1.12794E-02 9.14054E-04-4.29929E-14
 -1       108 1.16094E-02 9.34577E-04-4.51233E-14
 -1       109 1.19291E-02 9.62185E-04-4.72790E-14
 -1       110 1.22402E-02 9.93965E-04-4.94626E-14
 -1       111 1.25445E-02 1.02790E-03-5.16622E-14
 -1       112 1.28434E-02 1.06265E-03-5.38773E-14
 -1       113 1.31381E-02 1.09736E-03-5.61026E-14
 -1       114 1.34298E-02 1.13154E-03-5.83343E-14
 -1       115 1.37193E-02 1.16491E-03-6.05817E-14
 -1       116 1.40071E-02 1.19735E-03-6.28416E-14
 -1       117 1.42938E-02 1.22882E-03-6.51079E-14
 -1       118 1.45798E-02 1.25937E-03-6.73627E-14
 -1       119 1.48655E-02 1.28911E-03-6.96212E-14
 -1       120 1.51510E-02 1.31822E-03-7.18802E-14
 -1       121 1.53940E-02 1.26130E-03-7.38876E-14
 -1       122 1.53659E-02 1.17687E-03-7.37366E-14
 -1       123 1.53383E-02 1.09256E-03-7.35693E-14
 -1       124 1.53113E-02 1.00861E-03-7.34049E-14
 -1       125 1.52847E-02 9.25182E-04-7.32428E-14
 -1       126 1.52588E-02 8.43735E-04-7.30777E-14
 -1       127 1.52324E-02 7.61389E-04-7.28883E-14
 -1       128 1.52057E-02 6.79390E-04-7.26911E-14
 -1       129 1.51787E-02 5.97513E-04-7.25023E-14
 -1       130 1.51513E-02 5.15512E-04-7.22907E-14
 -1       131 1.51237E-02 4.33163E-04-7.20870E-14
 -1       132 1.50966E-02 3.51715E-04-7.19064E-14
 -1       133 1.50691E-02 2.68297E-04-7.17137E-14
 -1       134 1.50421E-02 1.84356E-04-7.15258E-14
 -1       135 1.50156E-02 1.00049E-04-7.13686E-14
 -1       136 1.49896E-02 1.56456E-05-7.12147E-14
 -1       137 1.02443E-02 3.60794E-04-2.91517E-14
 -1       138 1.01069E-02 5.26599E-04-2.88504E-14
 -1       139 9.87748E-03 6.79660E-04-2.83812E-14
 -1       140 9.51590E-03 8.29037E-04-2.76712E-14
 -1       141 9.10358E-03 9.34594E-04-2.68771E-14
 -1       142 8.62820E-03 1.00123E-03-2.59721E-14
 -1       143 8.12610E-03 1.01910E-03-2.50399E-14
 -1       144 7.66088E-03 9.91639E-04-2.42011E-14
 -1       145 7.14217E-03 9.06426E-04-2.32786E-14
 -1       146 6.70429E-03 7.82475E-04-2.25156E-14
 -1       147 6.37610E-03 6.42779E-04-2.19486E-14
 -1       148 6.12603E-03 4.83053E-04-2.15217E-14
 -1       149 5.96946E-03 3.17140E-04-2.12683E-14
 -1       150 5.90556E-03 1.46297E-04-2.11856E-14
 -1       151 5.94079E-03-3.19192E-05-2.12827E-14
 -1       152 6.09294E-03-2.11354E-04-2.15823E-14
 -1       153 6.31847E-03-3.56051E-04-2.19990E-14
 -1       154 6.62469E-03-4.81114E-04-2.25525E-14
 -1       155 7.04761E-03-5.90405E-04-2.33236E-14
 -1       156 7.48238E-03-6.52505E-04-2.41160E-14
 -1       157 7.98268E-03-6.76185E-04-2.50375E-14
 -1       158 8.45362E-03-6.55602E-04-2.59081E-14
 -1       159 8.90548E-03-5.96180E-04-2.67501E-14
 -1       160 9.72593E-03-3.55024E-04-2.82869E-14
 -1       161 1.00246E-02-1.87415E-04-2.88437E-14
 -1       162 1.02137E-02-3.23695E-06-2.91807E-14
 -1       163 2.35575E-04-1.27278E-04-1.90684E-17
 -1       164 2.21822E-04-9.65419E-05-3.12725E-17
 -1       165 2.17085E-04-7.42326E-05-3.78759E-17
 -1       166 2.14937E-04-5.59346E-05-4.11116E-17
 -1       167 2.13696E-04-4.01080E-05-4.26566E-17
 -1       168 2.12437E-04-2.55003E-05-4.29005E-17
 -1       169 2.10889E-04-1.23430E-05-4.25312E-17
 -1       170 2.09536E-04-5.83222E-07-4.19722E-17
 -1       171 2.09180E-04 1.04898E-05-4.11489E-17
 -1       172 2.10117E-04 2.20993E-05-4.00443E-17
 -1       173 2.12005E-04 3.50510E-05-3.85807E-17
 -1       174 2.14648E-04 5.04144E-05-3.56703E-17
 -1       175 2.18327E-04 6.86578E-05-3.11268E-17
 -1       176 2.24557E-04 9.13859E-05-2.33408E-17
 -1       177 2.38462E-04 1.23446E-04-9.43934E-18
 -1       178 2.96160E-04 1.81013E-04 5.34647E-18
 -1       179 4.58000E-04-2.66011E-04-4.97242E-17
 -1       180 7.48194E-04-3.87195E-04-1.79703E-16
 -1       181 1.02565E-03-4.70852E-04-3.90574E-16
 -1       182 1.32627E-03-5.18157E-04-6.73371E-16
 -1       183 1.55485E-03-5.28837E-04-1.05232E-15
 -1       184 1.83874E-03-5.60567E-04-1.50020E-15
 -1       185 2.12552E-03-5.86410E-04-2.02675E-15
 -1       186 2.41048E-03-6.03714E-04-2.62905E-15
 -1       187 2.69535E-03-6.13172E-04-3.30455E-15
 -1       188 2.98184E-03-6.15097E-04-4.05246E-15
 -1       189 3.27112E-03-6.10418E-04-4.86811E-15
 -1       190 3.56307E-03-6.02244E-04-5.74981E-15
 -1       191 3.85574E-03-5.95359E-04-6.70028E-15
 -1       192 4.15291E-03-5.88754E-04-7.71533E-15
 -1       193 4.45514E-03-5.83983E-04-8.79356E-15
 -1       194 4.76291E-03-5.83045E-04-9.93339E-15
 -1       195 5.07654E-03-5.88477E-04-1.11357E-14
 -1       196 5.39595E-03-6.03346E-04-1.23979E-14
 -1       197 5.72040E-03-6.31009E-04-1.37177E-14
 -1       198 6.04824E-03-6.74489E-04-1.50932E-14
 -1       199 6.37667E-03-7.35297E-04-1.65317E-14
 -1       200 6.70183E-03-8.11679E-04-1.80280E-14
 -1       201 7.01940E-03-8.96739E-04-1.95817E-14
 -1       202 7.32591E-03-9.77578E-04-2.11874E-14
 -1       203 7.62060E-03-1.03702E-03-2.28387E-14
 -1       204 7.90663E-03-1.05868E-03-2.45371E-14
 -1       205 8.19061E-03-1.03367E-03-2.62806E-14
 -1       206 8.48005E-03-9.64805E-04-2.80705E-14
 -1       207 8.78017E-03-8.65232E-04-2.99050E-14
 -1       208 9.09224E-03-7.52504E-04-3.17875E-14
 -1       209 9.41404E-03-6.42215E-04-3.37116E-14
 -1       210 9.74151E-03-5.44465E-04-3.56681E-14
 -1       211 1.00705E-02-4.63533E-04-3.76444E-14
 -1       212 1.03976E-02-3.99406E-04-3.96404E-14
 -1       213 1.07206E-02-3.49696E-04-4.16549E-14
 -1       214 1.10385E-02-3.11145E-04-4.36842E-14
 -1       215 1.13509E-02-2.80542E-04-4.57200E-14
 -1       216 1.16581E-02-2.55151E-04-4.77567E-14
 -1       217 1.19606E-02-2.32846E-04-4.97986E-14
 -1       218 1.22591E-02-2.12079E-04-5.18488E-14
 -1       219 1.25542E-02-1.91787E-04-5.39042E-14
 -1       220 1.28467E-02-1.71279E-04-5.59622E-14
 -1       221 1.31372E-02-1.50142E-04-5.80298E-14
 -1       222 1.34260E-02-1.28150E-04-6.01021E-14
 -1       223 1.37137E-02-1.05207E-04-6.21663E-14
 -1       224 1.40005E-02-8.13033E-05-6.42159E-14
 -1       225 1.42867E-02-5.64926E-05-6.62470E-14
 -1       226 1.45727E-02-3.09085E-05-6.82626E-14
 -1       227 6.02135E-04 3.22091E-04-5.66936E-17
 -1       228 8.91184E-04 4.20421E-04-1.95441E-16
 -1       229 1.17058E-03 4.90156E-04-4.12932E-16
 -1       230 1.44569E-03 5.40201E-04-7.10322E-16
 -1       231 1.71931E-03 5.75759E-04-1.08801E-15
 -1       232 1.99308E-03 6.00052E-04-1.54612E-15
 -1       233 2.26806E-03 6.15309E-04-2.08284E-15
 -1       234 2.54504E-03 6.23313E-04-2.69913E-15
 -1       235 2.82463E-03 6.25609E-04-3.39373E-15
 -1       236 3.10733E-03 6.23556E-04-4.16226E-15
 -1       237 3.39364E-03 6.18335E-04-5.00160E-15
 -1       238 3.68451E-03 6.11136E-04-5.90652E-15
 -1       239 3.98025E-03 6.03074E-04-6.87804E-15
 -1       240 4.28173E-03 5.95460E-04-7.91463E-15
 -1       241 4.58996E-03 5.90065E-04-9.01542E-15
 -1       242 4.90599E-03 5.89369E-04-1.01817E-14
 -1       243 5.23080E-03 5.96812E-04-1.14089E-14
 -1       244 5.56498E-03 6.16988E-04-1.26939E-14
 -1       245 5.90826E-03 6.55582E-04-1.40357E-14
 -1       246 6.25889E-03 7.18680E-04-1.54369E-14
 -1       247 6.61303E-03 8.10911E-04-1.68917E-14
 -1       248 6.96447E-03 9.31988E-04-1.84047E-14
 -1       249 7.30552E-03 1.07210E-03-1.99699E-14
 -1       250 7.62970E-03 1.20888E-03-2.15934E-14
 -1       251 7.93595E-03 1.31099E-03-2.32803E-14
 -1       252 8.23124E-03 1.35048E-03-2.50328E-14
 -1       253 8.52849E-03 1.31836E-03-2.68459E-14
 -1       254 8.83950E-03 1.23028E-03-2.87076E-14
 -1       255 9.16899E-03 1.11679E-03-3.06182E-14
 -1       256 9.51391E-03 1.00752E-03-3.25662E-14
 -1       257 9.86707E-03 9.21165E-04-3.45522E-14
 -1       258 1.02210E-02 8.64352E-04-3.65695E-14
 -1       259 1.05703E-02 8.35556E-04-3.86215E-14
 -1       260 1.09118E-02 8.29481E-04-4.07060E-14
 -1       261 1.12443E-02 8.40056E-04-4.28142E-14
 -1       262 1.15678E-02 8.61914E-04-4.49389E-14
 -1       263 1.18833E-02 8.90870E-04-4.70834E-14
 -1       264 1.21919E-02 9.23898E-04-4.92532E-14
 -1       265 1.24948E-02 9.58924E-04-5.14406E-14
 -1       266 1.27931E-02 9.94595E-04-5.36457E-14
 -1       267 1.30878E-02 1.03007E-03-5.58600E-14
 -1       268 1.33798E-02 1.06486E-03-5.80817E-14
 -1       269 1.36696E-02 1.09872E-03-6.03164E-14
 -1       270 1.39580E-02 1.13153E-03-6.25665E-14
 -1       271 1.42453E-02 1.16328E-03-6.48164E-14
 -1       272 1.45318E-02 1.19404E-03-6.70689E-14
 -1       273 1.48178E-02 1.22391E-03-6.93233E-14
 -1       274 1.51036E-02 1.25307E-03-7.15758E-14
 -1       275 1.51325E-02 1.19426E-03-7.18694E-14
 -1       276 1.51046E-02 1.11016E-03-7.17198E-14
 -1       277 1.50774E-02 1.02635E-03-7.15636E-14
 -1       278 1.50508E-02 9.42954E-04-7.14071E-14
 -1       279 1.50249E-02 8.61410E-04-7.12456E-14
 -1       280 1.49987E-02 7.78884E-04-7.10774E-14
 -1       281 1.49722E-02 6.96688E-04-7.09067E-14
 -1       282 1.49454E-02 6.14668E-04-7.07359E-14
 -1       283 1.49182E-02 5.32646E-04-7.05487E-14
 -1       284 1.48906E-02 4.50442E-04-7.03596E-14
 -1       285 1.48634E-02 3.69307E-04-7.01781E-14
 -1       286 1.48356E-02 2.86352E-04-7.00021E-14
 -1       287 1.48082E-02 2.02947E-04-6.98350E-14
 -1       288 1.47814E-02 1.19145E-04-6.96787E-14
 -1       289 1.46768E-02 4.41406E-05-6.89663E-14
 -1       290 1.03013E-02 2.37955E-04-3.01110E-14
 -1       291 1.01714E-02 3.40583E-04-2.98034E-14
 -1       292 9.92746E-03 4.75169E-04-2.92845E-14
 -1       293 9.55764E-03 6.33631E-04-2.86839E-14
 -1       294 9.15321E-03 8.34674E-04-2.76931E-14
 -1       295 8.73546E-03 9.97644E-04-2.66876E-14
 -1       296 8.33273E-03 1.08878E-03-2.55756E-14
 -1       297 7.94478E-03 1.07943E-03-2.45313E-14
 -1       298 7.55558E-03 9.79700E-04-2.34203E-14
 -1       299 7.10871E-03 7.81968E-04-2.24228E-14
 -1       300 6.68699E-03 5.86368E-04-2.16983E-14
 -1       301 6.32716E-03 4.25248E-04-2.11995E-14
 -1       302 6.06177E-03 2.80622E-04-2.07748E-14
 -1       303 5.90779E-03 1.78645E-04-2.06214E-14
 -1       304 5.88442E-03 8.56309E-05-2.05366E-14
 -1       305 6.01792E-03-1.28083E-05-2.07150E-14
 -1       306 6.27068E-03-1.56553E-04-2.12452E-14
 -1       307 6.59208E-03-3.07964E-04-2.18039E-14
 -1       308 6.99551E-03-4.77717E-04-2.25166E-14
 -1       309 7.39048E-03-6.38673E-04-2.34746E-14
 -1       310 7.79119E-03-7.36252E-04-2.44656E-14
 -1       311 8.18275E-03-7.42142E-04-2.55215E-14
 -1       312 8.56560E-03-6.64240E-04-2.65294E-14
 -1       313 8.94374E-03-5.09767E-04-2.76154E-14
 -1       314 9.39266E-03-3.25591E-04-2.84355E-14
 -1       315 9.77687E-03-1.17954E-04-2.93315E-14
 -1       316 1.01036E-02 2.69373E-05-2.97904E-14
 -1       317 1.02836E-02 1.43832E-04-3.00629E-14
 -1       318 4.49998E-04-1.66987E-04-1.25764E-16
 -1       319 4.66220E-04-2.16100E-04-1.05740E-16
 -1       320 4.37668E-04-9.45905E-05-1.43850E-16
 -1       321 4.34664E-04-6.46211E-05-1.46482E-16
 -1       322 4.31016E-04-3.72752E-05-1.47052E-16
 -1       323 4.26883E-04-1.27324E-05-1.45998E-16
 -1       324 4.24466E-04 9.63715E-06-1.44145E-16
 -1       325 4.25531E-04 3.20648E-05-1.41444E-16
 -1       326 4.29501E-04 5.65082E-05-1.37524E-16
 -1       327 4.35340E-04 8.51234E-05-1.31687E-16
 -1       328 4.42930E-04 1.18421E-04-1.22254E-16
 -1       329 4.54099E-04 1.58178E-04-1.07472E-16
 -1       330 4.74549E-04 2.08642E-04-8.40934E-17
 -1       331 5.30414E-04 2.61372E-04-7.46270E-17
 -1       332 8.22715E-04 3.61401E-04-2.16763E-16
 -1       333 8.50509E-04-3.60460E-04-3.25152E-16
 -1       334 1.13681E-03-4.25317E-04-5.85706E-16
 -1       335 1.43191E-03-4.68566E-04-9.20372E-16
 -1       336 1.69429E-03-4.82023E-04-1.33921E-15
 -1       337 1.97290E-03-5.04257E-04-1.83283E-15
 -1       338 2.25695E-03-5.23784E-04-2.40202E-15
 -1       339 2.54250E-03-5.36615E-04-3.04336E-15
 -1       340 2.82943E-03-5.41743E-04-3.75695E-15
 -1       341 3.11822E-03-5.39723E-04-4.54059E-15
 -1       342 3.40906E-03-5.32521E-04-5.39073E-15
 -1       343 3.70213E-03-5.23378E-04-6.30620E-15
 -1       344 3.99511E-03-5.15493E-04-7.28844E-15
 -1       345 4.29154E-03-5.08422E-04-8.33419E-15
 -1       346 4.59192E-03-5.03879E-04-9.44250E-15
 -1       347 4.89672E-03-5.04091E-04-1.06122E-14
 -1       348 5.20640E-03-5.11869E-04-1.18408E-14
 -1       349 5.52122E-03-5.30555E-04-1.31287E-14
 -1       350 5.84116E-03-5.63696E-04-1.44727E-14
 -1       351 6.16553E-03-6.14252E-04-1.58780E-14
 -1       352 6.49267E-03-6.83159E-04-1.73426E-14
 -1       353 6.81958E-03-7.67203E-04-1.88658E-14
 -1       354 7.14225E-03-8.56826E-04-2.04432E-14
 -1       355 7.45708E-03-9.35529E-04-2.20683E-14
 -1       356 7.76326E-03-9.83047E-04-2.37394E-14
 -1       357 8.06443E-03-9.83109E-04-2.54577E-14
 -1       358 8.36723E-03-9.31658E-04-2.72224E-14
 -1       359 8.67731E-03-8.39204E-04-2.90348E-14
 -1       360 8.99620E-03-7.25039E-04-3.08929E-14
 -1       361 9.32150E-03-6.08364E-04-3.27935E-14
 -1       362 9.64916E-03-5.02532E-04-3.47312E-14
 -1       363 9.97556E-03-4.13892E-04-3.67012E-14
 -1       364 1.02984E-02-3.43423E-04-3.86871E-14
 -1       365 1.06165E-02-2.89023E-04-4.06933E-14
 -1       366 1.09297E-02-2.47341E-04-4.27177E-14
 -1       367 1.12380E-02-2.14901E-04-4.47545E-14
 -1       368 1.15420E-02-1.88661E-04-4.67996E-14
 -1       369 1.18422E-02-1.66203E-04-4.88420E-14
 -1       370 1.21392E-02-1.45740E-04-5.08914E-14
 -1       371 1.24334E-02-1.26020E-04-5.29490E-14
 -1       372 1.27255E-02-1.06221E-04-5.50098E-14
 -1       373 1.30159E-02-8.58360E-05-5.70750E-14
 -1       374 1.33048E-02-6.45852E-05-5.91442E-14
 -1       375 1.35927E-02-4.23387E-05-6.12191E-14
 -1       376 1.38798E-02-1.90665E-05-6.32796E-14
 -1       377 1.41664E-02 5.19644E-06-6.53302E-14
 -1       378 1.44217E-02 2.43602E-05-6.71532E-14
 -1       379 1.10852E-03 4.33531E-04-4.35121E-16
 -1       380 1.38992E-03 4.85491E-04-7.31687E-16
 -1       381 1.66904E-03 5.22481E-04-1.10702E-15
 -1       382 1.94736E-03 5.47797E-04-1.56156E-15
 -1       383 2.22600E-03 5.63716E-04-2.09450E-15
 -1       384 2.50580E-03 5.72077E-04-2.70595E-15
 -1       385 2.78740E-03 5.74486E-04-3.39378E-15
 -1       386 3.07132E-03 5.72335E-04-4.15485E-15
 -1       387 3.35804E-03 5.66827E-04-4.98591E-15
 -1       388 3.64810E-03 5.59094E-04-5.88325E-15
 -1       389 3.94206E-03 5.50287E-04-6.84783E-15
 -1       390 4.24049E-03 5.41602E-04-7.87730E-15
 -1       391 4.54418E-03 5.34704E-04-8.96929E-15
 -1       392 4.85396E-03 5.31935E-04-1.01271E-14
 -1       393 5.17069E-03 5.36578E-04-1.13470E-14
 -1       394 5.49514E-03 5.53081E-04-1.26232E-14
 -1       395 5.82772E-03 5.87092E-04-1.39577E-14
 -1       396 6.16821E-03 6.44969E-04-1.53501E-14
 -1       397 6.51514E-03 7.32233E-04-1.67979E-14
 -1       398 6.86513E-03 8.50380E-04-1.83003E-14
 -1       399 7.21250E-03 9.92047E-04-1.98544E-14
 -1       400 7.55049E-03 1.13629E-03-2.14664E-14
 -1       401 7.87533E-03 1.25014E-03-2.31409E-14
 -1       402 8.19031E-03 1.30037E-03-2.48824E-14
 -1       403 8.50564E-03 1.27317E-03-2.66851E-14
 -1       404 8.83128E-03 1.18375E-03-2.85381E-14
 -1       405 9.17011E-03 1.06580E-03-3.04392E-14
 -1       406 9.51794E-03 9.52083E-04-3.23804E-14
 -1       407 9.86806E-03 8.62589E-04-3.43572E-14
 -1       408 1.02150E-02 8.04023E-04-3.63672E-14
 -1       409 1.05554E-02 7.74506E-04-3.84097E-14
 -1       410 1.08881E-02 7.68378E-04-4.04851E-14
 -1       411 1.12129E-02 7.79305E-04-4.25859E-14
 -1       412 1.15303E-02 8.01738E-04-4.47058E-14
 -1       413 1.18412E-02 8.31369E-04-4.68424E-14
 -1       414 1.21465E-02 8.65091E-04-4.90012E-14
 -1       415 1.24472E-02 9.00779E-04-5.11783E-14
 -1       416 1.27441E-02 9.37051E-04-5.33720E-14
 -1       417 1.30379E-02 9.73053E-04-5.55768E-14
 -1       418 1.33295E-02 1.00829E-03-5.77927E-14
 -1       419 1.36193E-02 1.04253E-03-6.00151E-14
 -1       420 1.39077E-02 1.07565E-03-6.22538E-14
 -1       421 1.41951E-02 1.10766E-03-6.44973E-14
 -1       422 1.44818E-02 1.13862E-03-6.67440E-14
 -1       423 1.47680E-02 1.16863E-03-6.89909E-14
 -1       424 1.49503E-02 1.18157E-03-7.04316E-14
 -1       425 1.48168E-02 9.59835E-04-6.95655E-14
 -1       426 1.48436E-02 1.04325E-03-6.97146E-14
 -1       427 1.48967E-02 1.11231E-03-7.00748E-14
 -1       428 1.47910E-02 8.78291E-04-6.94178E-14
 -1       429 1.47650E-02 7.95792E-04-6.92595E-14
 -1       430 1.47388E-02 7.13668E-04-6.91001E-14
 -1       431 1.47122E-02 6.31789E-04-6.89397E-14
 -1       432 1.46852E-02 5.49990E-04-6.87788E-14
 -1       433 1.46577E-02 4.68098E-04-6.86099E-14
 -1       434 1.46304E-02 3.87347E-04-6.84414E-14
 -1       435 1.46024E-02 3.04830E-04-6.82739E-14
 -1       436 1.45747E-02 2.21862E-04-6.81168E-14
 -1       437 1.45473E-02 1.38431E-04-6.79757E-14
 -1       438 1.00388E-02 3.52165E-04-3.03315E-14
 -1       439 1.03334E-02 1.99631E-04-3.11986E-14
 -1       440 1.02594E-02 2.57891E-04-3.09270E-14
 -1       441 9.74265E-03 4.76769E-04-2.98299E-14
 -1       442 9.27672E-03 7.09941E-04-2.87269E-14
 -1       443 4.41806E-04-1.27833E-04-1.37460E-16
 -1       444 8.48814E-03 1.08401E-03-2.62907E-14
 -1       445 8.13552E-03 1.13441E-03-2.49947E-14
 -1       446 7.82561E-03 1.07741E-03-2.38700E-14
 -1       447 7.38347E-03 8.72943E-04-2.24991E-14
 -1       448 6.93474E-03 6.33329E-04-2.15659E-14
 -1       449 6.52619E-03 4.13465E-04-2.06852E-14
 -1       450 6.21381E-03 2.87680E-04-2.03978E-14
 -1       451 5.95839E-03 1.77164E-04-1.99680E-14
 -1       452 5.86410E-03 1.24335E-04-1.98798E-14
 -1       453 5.91806E-03 6.38907E-05-1.99746E-14
 -1       454 6.16592E-03-3.89532E-05-2.04115E-14
 -1       455 6.46675E-03-1.71957E-04-2.09796E-14
 -1       456 6.82945E-03-3.41643E-04-2.16330E-14
 -1       457 7.27356E-03-5.64663E-04-2.26999E-14
 -1       458 7.62298E-03-7.12098E-04-2.37510E-14
 -1       459 7.99704E-03-7.86755E-04-2.49931E-14
 -1       460 8.33317E-03-7.38385E-04-2.61660E-14
 -1       461 8.65524E-03-6.13550E-04-2.72467E-14
 -1       462 9.14321E-03-3.57779E-04-2.86638E-14
 -1       463 9.51802E-03-1.61934E-04-2.95665E-14
 -1       464 9.94833E-03 2.65059E-05-3.03203E-14
 -1       465 1.02406E-02 1.45890E-04-3.09119E-14
 -1       466 8.89692E-03 9.11710E-04-2.75804E-14
 -1       467 9.74205E-03-3.56696E-05-3.05527E-14
 -1       468 8.88552E-03-4.83374E-04-2.82870E-14
 -1       469 7.06341E-03-4.50309E-04-2.18088E-14
 -1       470 6.01049E-03 3.03502E-05-1.96731E-14
 -1       471 9.29776E-04 3.32138E-04-3.68253E-16
 -1       472 6.61371E-04-7.42089E-05-3.10597E-16
 -1       473 6.66658E-04-1.15802E-04-3.07114E-16
 -1       474 6.46173E-04-2.46906E-06-3.08164E-16
 -1       475 6.45045E-04 2.92681E-05-3.03888E-16
 -1       476 6.50786E-04 6.32379E-05-2.98013E-16
 -1       477 6.60162E-04 1.02948E-04-2.89153E-16
 -1       478 6.71479E-04 1.48140E-04-2.75638E-16
 -1       479 6.86079E-04 1.99635E-04-2.55231E-16
 -1       480 1.21620E-03 3.91083E-04-6.38104E-16
 -1       481 9.67552E-04-3.26427E-04-4.86925E-16
 -1       482 9.06030E-03 8.25743E-04-2.86209E-14
 -1       483 1.25562E-03-3.74841E-04-7.94442E-16
 -1       484 1.54757E-03-4.15344E-04-1.17795E-15
 -1       485 1.82258E-03-4.27932E-04-1.63838E-15
 -1       486 2.10325E-03-4.45423E-04-2.17352E-15
 -1       487 2.38743E-03-4.60481E-04-2.78166E-15
 -1       488 2.67359E-03-4.68760E-04-3.46199E-15
 -1       489 2.96158E-03-4.69388E-04-4.21229E-15
 -1       490 3.25145E-03-4.63825E-04-5.03041E-15
 -1       491 3.54284E-03-4.54541E-04-5.91446E-15
 -1       492 3.83504E-03-4.44717E-04-6.86367E-15
 -1       493 4.12652E-03-4.36332E-04-7.87790E-15
 -1       494 4.42041E-03-4.29227E-04-8.95358E-15
 -1       495 4.71732E-03-4.25206E-04-1.00908E-14
 -1       496 5.01801E-03-4.26615E-04-1.12885E-14
 -1       497 5.32349E-03-4.36418E-04-1.25436E-14
 -1       498 5.63492E-03-4.58157E-04-1.38575E-14
 -1       499 5.95344E-03-4.95647E-04-1.52310E-14
 -1       500 6.27964E-03-5.52172E-04-1.66643E-14
 -1       501 6.61254E-03-6.28788E-04-1.81560E-14
 -1       502 6.94859E-03-7.21399E-04-1.97042E-14
 -1       503 7.28190E-03-8.17297E-04-2.13030E-14
 -1       504 7.60678E-03-8.94294E-04-2.29486E-14
 -1       505 7.92279E-03-9.26416E-04-2.46409E-14
 -1       506 8.23641E-03-8.98051E-04-2.63782E-14
 -1       507 8.55615E-03-8.14159E-04-2.81647E-14
 -1       508 8.88549E-03-6.97174E-04-3.00007E-14
 -1       509 9.22096E-03-5.72608E-04-3.18808E-14
 -1       510 9.55627E-03-4.58445E-04-3.38006E-14
 -1       511 9.88646E-03-3.62949E-04-3.57530E-14
 -1       512 1.02093E-02-2.87362E-04-3.77333E-14
 -1       513 1.05247E-02-2.29305E-04-3.97316E-14
 -1       514 1.08336E-02-1.85112E-04-4.17514E-14
 -1       515 1.11372E-02-1.51059E-04-4.37857E-14
 -1       516 1.14366E-02-1.23905E-04-4.58303E-14
 -1       517 1.17329E-02-1.01069E-04-4.78784E-14
 -1       518 1.20267E-02-8.06169E-05-4.99294E-14
 -1       519 1.23185E-02-6.11739E-05-5.19881E-14
 -1       520 1.26088E-02-4.18168E-05-5.40542E-14
 -1       521 1.28979E-02-2.19640E-05-5.61191E-14
 -1       522 1.31860E-02-1.28098E-06-5.81876E-14
 -1       523 1.34735E-02 2.03962E-05-6.02640E-14
 -1       524 1.37603E-02 4.31198E-05-6.23353E-14
 -1       525 1.40468E-02 6.68718E-05-6.43950E-14
 -1       526 1.78467E-03 4.64725E-04-1.40804E-15
 -1       527 2.06755E-03 4.84805E-04-1.90917E-15
 -1       528 2.35050E-03 4.96318E-04-2.48691E-15
 -1       529 2.63414E-03 5.01041E-04-3.13990E-15
 -1       530 2.91888E-03 5.00522E-04-3.86686E-15
 -1       531 3.20508E-03 4.96051E-04-4.66528E-15
 -1       532 3.49304E-03 4.88790E-04-5.53090E-15
 -1       533 3.78316E-03 4.79835E-04-6.46286E-15
 -1       534 4.07579E-03 4.70192E-04-7.45930E-15
 -1       535 4.37141E-03 4.61189E-04-8.52061E-15
 -1       536 4.67060E-03 4.54659E-04-9.64510E-15
 -1       537 4.97412E-03 4.53177E-04-1.08336E-14
 -1       538 5.28299E-03 4.60315E-04-1.20802E-14
 -1       539 5.59859E-03 4.80854E-04-1.33847E-14
 -1       540 5.92272E-03 5.20820E-04-1.47459E-14
 -1       541 6.25731E-03 5.87011E-04-1.61639E-14
 -1       542 6.60349E-03 6.85343E-04-1.76352E-14
 -1       543 6.95968E-03 8.17094E-04-1.91583E-14
 -1       544 7.31923E-03 9.72432E-04-2.07332E-14
 -1       545 7.67143E-03 1.12095E-03-2.23684E-14
 -1       546 8.01224E-03 1.21951E-03-2.40702E-14
 -1       547 8.34616E-03 1.23057E-03-2.58358E-14
 -1       548 8.68706E-03 1.15525E-03-2.76592E-14
 -1       549 9.04057E-03 1.03172E-03-2.95336E-14
 -1       550 9.40025E-03 9.04608E-04-3.14519E-14
 -1       551 9.75603E-03 8.01640E-04-3.34068E-14
 -1       552 1.01017E-02 7.32155E-04-3.53949E-14
 -1       553 1.04359E-02 6.94463E-04-3.74155E-14
 -1       554 1.07599E-02 6.82500E-04-3.94676E-14
 -1       555 1.10755E-02 6.89481E-04-4.15442E-14
 -1       556 1.13847E-02 7.09472E-04-4.36517E-14
 -1       557 1.16888E-02 7.37809E-04-4.57742E-14
 -1       558 1.19889E-02 7.71063E-04-4.79163E-14
 -1       559 1.22857E-02 8.06844E-04-5.00750E-14
 -1       560 1.25800E-02 8.43556E-04-5.22484E-14
 -1       561 1.28721E-02 8.80191E-04-5.44348E-14
 -1       562 1.31626E-02 9.16150E-04-5.66333E-14
 -1       563 1.34518E-02 9.51113E-04-5.88416E-14
 -1       564 1.37399E-02 9.84942E-04-6.10592E-14
 -1       565 1.40273E-02 1.01761E-03-6.32849E-14
 -1       566 1.43141E-02 1.04916E-03-6.55201E-14
 -1       567 1.46004E-02 1.07968E-03-6.77588E-14
 -1       568 1.45312E-02 8.11971E-04-6.74331E-14
 -1       569 1.45054E-02 7.30052E-04-6.72847E-14
 -1       570 1.45828E-02 9.75954E-04-6.77165E-14
 -1       571 1.45568E-02 8.93684E-04-6.75771E-14
 -1       572 1.44792E-02 6.48494E-04-6.71354E-14
 -1       573 1.44525E-02 5.67122E-04-6.69836E-14
 -1       574 1.44251E-02 4.85737E-04-6.68342E-14
 -1       575 1.43978E-02 4.05532E-04-6.66839E-14
 -1       576 1.43696E-02 3.23574E-04-6.65288E-14
 -1       577 1.43414E-02 2.41122E-04-6.63833E-14
 -1       578 1.43135E-02 1.58113E-04-6.62512E-14
 -1       579 1.03514E-02 2.28535E-04-3.21071E-14
 -1       580 9.94379E-03 3.79790E-04-3.10844E-14
 -1       581 1.50110E-03 4.34222E-04-9.84469E-16
 -1       582 8.69821E-03 1.01558E-03-2.73073E-14
 -1       583 1.01885E-02 2.87621E-04-3.16855E-14
 -1       584 1.03276E-02 1.86637E-04-3.21345E-14
 -1       585 8.17239E-03-7.88394E-04-2.57237E-14
 -1       586 6.06397E-03 2.00432E-04-1.93830E-14
 -1       587 6.53666E-04-3.61399E-05-3.10705E-16
 -1       588 8.30857E-03 1.14622E-03-2.56923E-14
 -1       589 7.13331E-03 7.22844E-04-2.14247E-14
 -1       590 8.00801E-03 1.13917E-03-2.43952E-14
 -1       591 7.62323E-03 1.00076E-03-2.28328E-14
 -1       592 6.75997E-03 5.12078E-04-2.05307E-14
 -1       593 6.30198E-03 2.92558E-04-1.96581E-14
 -1       594 5.85995E-03 1.29238E-04-1.89826E-14
 -1       595 1.01258E-02 1.19421E-04-3.16303E-14
 -1       596 5.83279E-03 9.47999E-05-1.90744E-14
 -1       597 6.31171E-03-8.36219E-05-2.00341E-14
 -1       598 6.61818E-03-2.21387E-04-2.06700E-14
 -1       599 7.47285E-03-6.61088E-04-2.29288E-14
 -1       600 7.79612E-03-7.77424E-04-2.41498E-14
 -1       601 8.43727E-03-7.08078E-04-2.67946E-14
 -1       602 9.32304E-03-2.38513E-04-2.99614E-14
 -1       603 7.04903E-04-2.53020E-04-2.77417E-16
 -1       604 7.02250E-04 2.79330E-04-2.00415E-16
 -1       605 9.52652E-03 5.72912E-04-3.00238E-14
 -1       606 6.71858E-04-1.60331E-04-2.99369E-16
 -1       607 7.97127E-03-8.14952E-04-2.48666E-14
 -1       608 6.82416E-03-3.33797E-04-2.08385E-14
 -1       609 5.86072E-03 6.90132E-05-1.87750E-14
 -1       610 9.97829E-03 6.29784E-05-3.18591E-14
 -1       611 6.49309E-03 3.88100E-04-1.95007E-14
 -1       612 7.37208E-03 8.78822E-04-2.17431E-14
 -1       613 7.25865E-03-5.68414E-04-2.20314E-14
 -1       614 1.42397E-02 8.18186E-05-6.57861E-14
 -1       615 6.11742E-03-1.65524E-05-1.92993E-14
 -1       616 8.66273E-03-6.06183E-04-2.78263E-14
 -1       617 8.73913E-04 5.59655E-05-5.16809E-16
 -1       618 8.67024E-04 1.47693E-05-5.24679E-16
 -1       619 9.02963E-04 1.59979E-04-4.90446E-16
 -1       620 9.19903E-04 2.20433E-04-4.66048E-16
 -1       621 1.04683E-03 2.98175E-04-5.38523E-16
 -1       622 9.01305E-03-4.28892E-04-2.94275E-14
 -1       623 1.36852E-03-3.21219E-04-1.01700E-15
 -1       624 1.67004E-03-3.59081E-04-1.44702E-15
 -1       625 1.94500E-03-3.68913E-04-1.94423E-15
 -1       626 2.23009E-03-3.84931E-04-2.51915E-15
 -1       627 2.51562E-03-3.96756E-04-3.16689E-15
 -1       628 2.80257E-03-4.00090E-04-3.88592E-15
 -1       629 3.09188E-03-3.95968E-04-4.67144E-15
 -1       630 3.38292E-03-3.87219E-04-5.52351E-15
 -1       631 3.67469E-03-3.75917E-04-6.44122E-15
 -1       632 3.96212E-03-3.67215E-04-7.42305E-15
 -1       633 4.25047E-03-3.58707E-04-8.46797E-15
 -1       634 4.54028E-03-3.51735E-04-9.57417E-15
 -1       635 4.83237E-03-3.48056E-04-1.07402E-14
 -1       636 5.12800E-03-3.49980E-04-1.19652E-14
 -1       637 5.42901E-03-3.60505E-04-1.32483E-14
 -1       638 5.73781E-03-3.83419E-04-1.45916E-14
 -1       639 6.05713E-03-4.23245E-04-1.59930E-14
 -1       640 6.38902E-03-4.84656E-04-1.74536E-14
 -1       641 6.73299E-03-5.70352E-04-1.89703E-14
 -1       642 7.08338E-03-6.76064E-04-2.05417E-14
 -1       643 7.43160E-03-7.83885E-04-2.21613E-14
 -1       644 7.76693E-03-8.59032E-04-2.38271E-14
 -1       645 8.09460E-03-8.66570E-04-2.55379E-14
 -1       646 8.42436E-03-7.96244E-04-2.72974E-14
 -1       647 8.76644E-03-6.72960E-04-2.91104E-14
 -1       648 9.11679E-03-5.34860E-04-3.09700E-14
 -1       649 9.46537E-03-4.09254E-04-3.28716E-14
 -1       650 9.80409E-03-3.06914E-04-3.48083E-14
 -1       651 1.01300E-02-2.27933E-04-3.67751E-14
 -1       652 1.04442E-02-1.68300E-04-3.87691E-14
 -1       653 1.07491E-02-1.23286E-04-4.07814E-14
 -1       654 1.10474E-02-8.86964E-05-4.28130E-14
 -1       655 1.13413E-02-6.11517E-05-4.48578E-14
 -1       656 1.16323E-02-3.80555E-05-4.69080E-14
 -1       657 1.19215E-02-1.74821E-05-4.89591E-14
 -1       658 1.22095E-02 1.94527E-06-5.10206E-14
 -1       659 1.24968E-02 2.11682E-05-5.30946E-14
 -1       660 1.27836E-02 4.07947E-05-5.51598E-14
 -1       661 1.30700E-02 6.11862E-05-5.72285E-14
 -1       662 1.33563E-02 8.25291E-05-5.93050E-14
 -1       663 1.36423E-02 1.04892E-04-6.13833E-14
 -1       664 1.39283E-02 1.28272E-04-6.34561E-14
 -1       665 2.19171E-03 4.19539E-04-2.26619E-15
 -1       666 6.90724E-03 6.20610E-04-2.02164E-14
 -1       667 1.90617E-03 4.04544E-04-1.72053E-15
 -1       668 2.76313E-03 4.28484E-04-3.57940E-15
 -1       669 3.04932E-03 4.25627E-04-4.34487E-15
 -1       670 3.33586E-03 4.19605E-04-5.17897E-15
 -1       671 3.62303E-03 4.11423E-04-6.07980E-15
 -1       672 3.91100E-03 4.01963E-04-7.04449E-15
 -1       673 4.19996E-03 3.92268E-04-8.07351E-15
 -1       674 4.49020E-03 3.83703E-04-9.16658E-15
 -1       675 4.78222E-03 3.78134E-04-1.03229E-14
 -1       676 5.07691E-03 3.78141E-04-1.15404E-14
 -1       677 5.37580E-03 3.87254E-04-1.28172E-14
 -1       678 5.68145E-03 4.10221E-04-1.41487E-14
 -1       679 5.99774E-03 4.53305E-04-1.55350E-14
 -1       680 6.32974E-03 5.24438E-04-1.69763E-14
 -1       681 6.68160E-03 6.32105E-04-1.84678E-14
 -1       682 7.05272E-03 7.80424E-04-2.00102E-14
 -1       683 8.16894E-03 1.19123E-03-2.49922E-14
 -1       684 8.52707E-03 1.14203E-03-2.67842E-14
 -1       685 8.89882E-03 1.01063E-03-2.86305E-14
 -1       686 9.27781E-03 8.63577E-04-3.05233E-14
 -1       687 9.64741E-03 7.44087E-04-3.24583E-14
 -1       688 9.99855E-03 6.64778E-04-3.44277E-14
 -1       689 1.03306E-02 6.21309E-04-3.64283E-14
 -1       690 1.06475E-02 6.05500E-04-3.84598E-14
 -1       691 1.09541E-02 6.09576E-04-4.05160E-14
 -1       692 1.12541E-02 6.27331E-04-4.26024E-14
 -1       693 1.15499E-02 6.54054E-04-4.47133E-14
 -1       694 1.18430E-02 6.86273E-04-4.68389E-14
 -1       695 1.21343E-02 7.21511E-04-4.89832E-14
 -1       696 1.24243E-02 7.58067E-04-5.11391E-14
 -1       697 1.27133E-02 7.94822E-04-5.33105E-14
 -1       698 1.30015E-02 8.31082E-04-5.54891E-14
 -1       699 1.32892E-02 8.66451E-04-5.76849E-14
 -1       700 1.35763E-02 9.00739E-04-5.98856E-14
 -1       701 1.38630E-02 9.33886E-04-6.20940E-14
 -1       702 1.41494E-02 9.65909E-04-6.43114E-14
 -1       703 1.43662E-02 9.71242E-04-6.60143E-14
 -1       704 9.79458E-03 4.72229E-04-3.14343E-14
 -1       705 1.42200E-02 5.83714E-04-6.51893E-14
 -1       706 1.41209E-02 1.42982E-04-6.48526E-14
 -1       707 1.42720E-02 7.45648E-04-6.54659E-14
 -1       708 1.41930E-02 5.03020E-04-6.50502E-14
 -1       709 1.42463E-02 6.64510E-04-6.53295E-14
 -1       710 1.41657E-02 4.23555E-04-6.49115E-14
 -1       711 1.41374E-02 3.42354E-04-6.47738E-14
 -1       712 1.41087E-02 2.60602E-04-6.46384E-14
 -1       713 1.04212E-02 2.16224E-04-3.32375E-14
 -1       714 6.10512E-03 2.24994E-04-1.86919E-14
 -1       715 1.01388E-02 3.38425E-04-3.25775E-14
 -1       716 9.66047E-03-8.10248E-05-3.13703E-14
 -1       717 1.62015E-03 3.80137E-04-1.25082E-15
 -1       718 2.47729E-03 4.26904E-04-2.88583E-15
 -1       719 1.08763E-03-2.87722E-04-6.64707E-16
 -1       720 8.87812E-04 1.04934E-04-5.06516E-16
 -1       721 1.33347E-03 3.45127E-04-8.56601E-16
 -1       722 9.34804E-03 7.07724E-04-3.01289E-14
 -1       723 9.01246E-04-1.21339E-04-5.29938E-16
 -1       724 7.84735E-03 1.12133E-03-2.35042E-14
 -1       725 1.02850E-02 1.63530E-04-3.29321E-14
 -1       726 5.87695E-03 1.45967E-04-1.83005E-14
 -1       727 5.77246E-03 1.01658E-04-1.81779E-14
 -1       728 6.41621E-03-1.57831E-04-1.95159E-14
 -1       729 8.31318E-03-7.66945E-04-2.64687E-14
 -1       730 1.03359E-02 2.64485E-04-3.30054E-14
 -1       731 7.61542E-03-7.46870E-04-2.32562E-14
 -1       732 8.91275E-03 9.43171E-04-2.84449E-14
 -1       733 8.52936E-03 1.11433E-03-2.67477E-14
 -1       734 9.06308E-04-1.74682E-04-5.20685E-16
 -1       735 8.76718E-04-2.44122E-05-5.31019E-16
 -1       736 7.01667E-03-4.63121E-04-2.10544E-14
 -1       737 8.52240E-03-6.93730E-04-2.74923E-14
 -1       738 5.91473E-03 3.14976E-05-1.84058E-14
 -1       739 1.42971E-02 8.26634E-04-6.56000E-14
 -1       740 6.20705E-03-8.93230E-05-1.87877E-14
 -1       741 1.43315E-02 8.98659E-04-6.58105E-14
 -1       742 1.04386E-02 1.99215E-04-3.40414E-14
 -1       743 1.04704E-02 2.47287E-04-3.41444E-14
 -1       744 1.01865E-02 1.20517E-04-3.31604E-14
 -1       745 5.75448E-03 8.00876E-05-1.78835E-14
 -1       746 6.25689E-03 3.05455E-04-1.85337E-14
 -1       747 7.41414E-03-6.81334E-04-2.23499E-14
 -1       748 9.40788E-03-2.26223E-04-3.09922E-14
 -1       749 8.92344E-04-7.02461E-05-5.33065E-16
 -1       750 9.29745E-04-2.44122E-04-5.11852E-16
 -1       751 1.40185E-02 1.94546E-04-6.40414E-14
 -1       752 1.15590E-03 2.24882E-04-7.37701E-16
 -1       753 1.03460E-02 3.09132E-04-3.39819E-14
 -1       754 1.51050E-03-2.79686E-04-1.25495E-15
 -1       755 1.77653E-03-2.83046E-04-1.71461E-15
 -1       756 2.06927E-03-3.06191E-04-2.25589E-15
 -1       757 2.35547E-03-3.25166E-04-2.87131E-15
 -1       758 2.64136E-03-3.32634E-04-3.55934E-15
 -1       759 2.93033E-03-3.29298E-04-4.31482E-15
 -1       760 3.22205E-03-3.20482E-04-5.13593E-15
 -1       761 3.51562E-03-3.08477E-04-6.02166E-15
 -1       762 3.80003E-03-3.00389E-04-6.97209E-15
 -1       763 4.08396E-03-2.91677E-04-7.98499E-15
 -1       764 4.36772E-03-2.83252E-04-9.06106E-15
 -1       765 4.65194E-03-2.76280E-04-1.01964E-14
 -1       766 4.93771E-03-2.72302E-04-1.13902E-14
 -1       767 5.22682E-03-2.73420E-04-1.26445E-14
 -1       768 5.52202E-03-2.82570E-04-1.39578E-14
 -1       769 5.82723E-03-3.03955E-04-1.53281E-14
 -1       770 6.14731E-03-3.43603E-04-1.67579E-14
 -1       771 6.48654E-03-4.09637E-04-1.82437E-14
 -1       772 6.84553E-03-5.08296E-04-1.97864E-14
 -1       773 7.93729E-03-8.34761E-04-2.47018E-14
 -1       774 9.01752E-03-4.98450E-04-3.00625E-14
 -1       775 9.38435E-03-3.54026E-04-3.19463E-14
 -1       776 9.73454E-03-2.43164E-04-3.38697E-14
 -1       777 1.00644E-02-1.62468E-04-3.58224E-14
 -1       778 1.03769E-02-1.04002E-04-3.78067E-14
 -1       779 1.06767E-02-6.06545E-05-3.98104E-14
 -1       780 1.09684E-02-2.73071E-05-4.18357E-14
 -1       781 1.12553E-02-4.20769E-07-4.38768E-14
 -1       782 1.15397E-02 2.24642E-05-4.59282E-14
 -1       783 1.18231E-02 4.30842E-05-4.79828E-14
 -1       784 1.21061E-02 6.26638E-05-5.00451E-14
 -1       785 1.23894E-02 8.20475E-05-5.21205E-14
 -1       786 1.26729E-02 1.01791E-04-5.41977E-14
 -1       787 1.29569E-02 1.22236E-04-5.62695E-14
 -1       788 1.32413E-02 1.43563E-04-5.83454E-14
 -1       789 1.35260E-02 1.65846E-04-6.04296E-14
 -1       790 1.37721E-02 1.79877E-04-6.22381E-14
 -1       791 3.17840E-03 3.50981E-04-4.82879E-15
 -1       792 2.89264E-03 3.55279E-04-4.02626E-15
 -1       793 3.74826E-03 3.35951E-04-6.63184E-15
 -1       794 4.03223E-03 3.26809E-04-7.62968E-15
 -1       795 4.31550E-03 3.17850E-04-8.69099E-15
 -1       796 4.59819E-03 3.10353E-04-9.81642E-15
 -1       797 4.88072E-03 3.06015E-04-1.10040E-14
 -1       798 5.16409E-03 3.07106E-04-1.22503E-14
 -1       799 5.45033E-03 3.16712E-04-1.35542E-14
 -1       800 5.74317E-03 3.39186E-04-1.49125E-14
 -1       801 6.04833E-03 3.81114E-04-1.63227E-14
 -1       802 6.37622E-03 4.52706E-04-1.77849E-14
 -1       803 9.56636E-03 6.70843E-04-3.15171E-14
 -1       804 9.92316E-03 5.82594E-04-3.34706E-14
 -1       805 1.02518E-02 5.37994E-04-3.54519E-14
 -1       806 1.05582E-02 5.22875E-04-3.74617E-14
 -1       807 1.08525E-02 5.27098E-04-3.94995E-14
 -1       808 1.11400E-02 5.44214E-04-4.15643E-14
 -1       809 1.14245E-02 5.69844E-04-4.36565E-14
 -1       810 1.17080E-02 6.00888E-04-4.57663E-14
 -1       811 1.19913E-02 6.35108E-04-4.78936E-14
 -1       812 1.22750E-02 6.70905E-04-5.00374E-14
 -1       813 1.25591E-02 7.07171E-04-5.21932E-14
 -1       814 1.28437E-02 7.43177E-04-5.43582E-14
 -1       815 1.31286E-02 7.78480E-04-5.65364E-14
 -1       816 1.34137E-02 8.12837E-04-5.87252E-14
 -1       817 1.36991E-02 8.46150E-04-6.09132E-14
 -1       818 1.39846E-02 8.78407E-04-6.31091E-14
 -1       819 1.41581E-02 8.88739E-04-6.44605E-14
 -1       820 1.39341E-02 4.40438E-04-6.31325E-14
 -1       821 1.38768E-02 2.80088E-04-6.28853E-14
 -1       822 1.39617E-02 5.20320E-04-6.32636E-14
 -1       823 9.67482E-03 5.90354E-04-3.17263E-14
 -1       824 1.74464E-03 3.23902E-04-1.53040E-15
 -1       825 9.73238E-03-1.01249E-04-3.25386E-14
 -1       826 1.39058E-02 3.60558E-04-6.30061E-14
 -1       827 1.12974E-03-2.46618E-04-7.52955E-16
 -1       828 6.65214E-03-3.12164E-04-1.96882E-14
 -1       829 1.00388E-02 4.29250E-04-3.30351E-14
 -1       830 5.70861E-03 1.15149E-04-1.71571E-14
 -1       831 3.46363E-03 3.44283E-04-5.69826E-15
 -1       832 2.03193E-03 3.42523E-04-2.04436E-15
 -1       833 6.62997E-03 5.17351E-04-1.89922E-14
 -1       834 5.89519E-03 1.81264E-04-1.75351E-14
 -1       835 9.96095E-03 2.35089E-05-3.28496E-14
 -1       836 9.20001E-03-3.79143E-04-3.06710E-14
 -1       837 1.24346E-03 2.83547E-04-7.99291E-16
 -1       838 8.85990E-03-5.36101E-04-2.90647E-14
 -1       839 1.09461E-03 3.40237E-05-7.90885E-16
 -1       840 1.08953E-03-7.56715E-06-8.01927E-16
 -1       841 1.14837E-03-1.72897E-04-8.00792E-16
 -1       842 1.02846E-02 3.83382E-04-3.44454E-14
 -1       843 1.11683E-03 9.17631E-05-7.80351E-16
 -1       844 5.97312E-03-2.93499E-05-1.79053E-14
 -1       845 1.40384E-02 7.59973E-04-6.36402E-14
 -1       846 8.64556E-03-6.62049E-04-2.82242E-14
 -1       847 1.13726E-03 1.57094E-04-7.63749E-16
 -1       848 2.31903E-03 3.52427E-04-2.63237E-15
 -1       849 2.60603E-03 3.56149E-04-3.29350E-15
 -1       850 1.40134E-02 6.79280E-04-6.35177E-14
 -1       851 1.39880E-02 5.99661E-04-6.33933E-14
 -1       852 1.05437E-02 2.30804E-04-3.49567E-14
 -1       853 1.03867E-02 1.69988E-04-3.42733E-14
 -1       854 5.76192E-03 5.02824E-05-1.75215E-14
 -1       855 6.00227E-03 2.43766E-04-1.73804E-14
 -1       856 5.65013E-03 9.22376E-05-1.68727E-14
 -1       857 1.49386E-03 3.07507E-04-1.13484E-15
 -1       858 1.14017E-03-1.14741E-04-8.10397E-16
 -1       859 6.43429E-03-2.27266E-04-1.89573E-14
 -1       860 1.38245E-02 2.30078E-04-6.25595E-14
 -1       861 1.28790E-03-2.03979E-04-9.70883E-16
 -1       862 1.90760E-03-2.21189E-04-1.99363E-15
 -1       863 2.19227E-03-2.51548E-04-2.57329E-15
 -1       864 2.47675E-03-2.68220E-04-3.23157E-15
 -1       865 2.76645E-03-2.64816E-04-3.95949E-15
 -1       866 3.06016E-03-2.54513E-04-4.75116E-15
 -1       867 3.35275E-03-2.43556E-04-5.60623E-15
 -1       868 3.64149E-03-2.35019E-04-6.52409E-15
 -1       869 3.92229E-03-2.27181E-04-7.50644E-15
 -1       870 4.20146E-03-2.18796E-04-8.55153E-15
 -1       871 4.47922E-03-2.10529E-04-9.65720E-15
 -1       872 4.75620E-03-2.03230E-04-1.08208E-14
 -1       873 5.03358E-03-1.98054E-04-1.20444E-14
 -1       874 5.31347E-03-1.96705E-04-1.33287E-14
 -1       875 5.59937E-03-2.01942E-04-1.46698E-14
 -1       876 5.89672E-03-2.18558E-04-1.60682E-14
 -1       877 6.21312E-03-2.54502E-04-1.75234E-14
 -1       878 1.00522E-02-2.71082E-05-3.44791E-14
 -1       879 1.03457E-02 1.91026E-05-3.64462E-14
 -1       880 1.06245E-02 5.14326E-05-3.84359E-14
 -1       881 1.08964E-02 7.71661E-05-4.04497E-14
 -1       882 1.11658E-02 9.96298E-05-4.24842E-14
 -1       883 1.14351E-02 1.20481E-04-4.45295E-14
 -1       884 1.17058E-02 1.40638E-04-4.65915E-14
 -1       885 1.19785E-02 1.60675E-04-4.86646E-14
 -1       886 1.22532E-02 1.80978E-04-5.07416E-14
 -1       887 1.25300E-02 2.01804E-04-5.28309E-14
 -1       888 1.28086E-02 2.23310E-04-5.49137E-14
 -1       889 1.30889E-02 2.45576E-04-5.69989E-14
 -1       890 1.33705E-02 2.68628E-04-5.90880E-14
 -1       891 3.02206E-03 2.82441E-04-4.48061E-15
 -1       892 4.14816E-03 2.55475E-04-8.21855E-15
 -1       893 3.86966E-03 2.63464E-04-7.18830E-15
 -1       894 4.69750E-03 2.42087E-04-1.04697E-14
 -1       895 4.96833E-03 2.39064E-04-1.16875E-14
 -1       896 5.23741E-03 2.40584E-04-1.29626E-14
 -1       897 5.50665E-03 2.48884E-04-1.42924E-14
 -1       898 5.78046E-03 2.67428E-04-1.56744E-14
 -1       899 1.87326E-03 2.66250E-04-1.82362E-15
 -1       900 1.37036E-02 4.57247E-04-6.13545E-14
 -1       901 1.04940E-02 4.38006E-04-3.64772E-14
 -1       902 1.07699E-02 4.45953E-04-3.84944E-14
 -1       903 1.10407E-02 4.64348E-04-4.05394E-14
 -1       904 1.13110E-02 4.89628E-04-4.26071E-14
 -1       905 1.15825E-02 5.19492E-04-4.46987E-14
 -1       906 1.18561E-02 5.52266E-04-4.68084E-14
 -1       907 1.21320E-02 5.86675E-04-4.89374E-14
 -1       908 1.24100E-02 6.21764E-04-5.10800E-14
 -1       909 1.26897E-02 6.56853E-04-5.32295E-14
 -1       910 1.29710E-02 6.91489E-04-5.53937E-14
 -1       911 1.32534E-02 7.25399E-04-5.75692E-14
 -1       912 1.35367E-02 7.58433E-04-5.97437E-14
 -1       913 1.38208E-02 7.90577E-04-6.19195E-14
 -1       914 1.40981E-02 8.24066E-04-6.40498E-14
 -1       915 5.67362E-03 1.47999E-04-1.63132E-14
 -1       916 1.12621E-03-5.47629E-05-8.12166E-16
 -1       917 4.42416E-03 2.47995E-04-9.31281E-15
 -1       918 1.05447E-02 2.87267E-04-3.54091E-14
 -1       919 1.62187E-03-2.03207E-04-1.49380E-15
 -1       920 2.16140E-03 2.78413E-04-2.38059E-15
 -1       921 1.05238E-02 3.44903E-04-3.58832E-14
 -1       922 6.17183E-03-1.37502E-04-1.80727E-14
 -1       923 5.78104E-03 9.01005E-07-1.70317E-14
 -1       924 1.34603E-03 6.56987E-05-1.10621E-15
 -1       925 1.39498E-03 2.17851E-04-1.06862E-15
 -1       926 3.30630E-03 2.77645E-04-5.31877E-15
 -1       927 1.36145E-02 2.83315E-04-6.09110E-14
 -1       928 1.06529E-02 2.65869E-04-3.62316E-14
 -1       929 2.73652E-03 2.84814E-04-3.71000E-15
 -1       930 3.58893E-03 2.71098E-04-6.22129E-15
 -1       931 1.58431E-03 2.43292E-04-1.33946E-15
 -1       932 1.37305E-02 5.35490E-04-6.14747E-14
 -1       933 1.02220E-02 8.68841E-05-3.43776E-14
 -1       934 5.58653E-03 1.18615E-04-1.60393E-14
 -1       935 1.05644E-02 2.03344E-04-3.56565E-14
 -1       936 5.74094E-03 1.95911E-04-1.61629E-14
 -1       937 5.61101E-03 6.63924E-05-1.65219E-14
 -1       938 1.36753E-02 3.78579E-04-6.12349E-14
 -1       939 1.37806E-02 6.93317E-04-6.17007E-14
 -1       940 1.29805E-03-6.68851E-06-1.11286E-15
 -1       941 1.27802E-03-1.40863E-04-9.85689E-16
 -1       942 5.29972E-03 1.80066E-04-1.36742E-14
 -1       943 2.30301E-03-2.09105E-04-2.89743E-15
 -1       944 2.59762E-03-2.02791E-04-3.60372E-15
 -1       945 2.90059E-03-1.89014E-04-4.36934E-15
 -1       946 3.19633E-03-1.77417E-04-5.19448E-15
 -1       947 3.48434E-03-1.69852E-04-6.08129E-15
 -1       948 3.76629E-03-1.64069E-04-7.03179E-15
 -1       949 4.04255E-03-1.56965E-04-8.04454E-15
 -1       950 4.31587E-03-1.49224E-04-9.12163E-15
 -1       951 4.58627E-03-1.41187E-04-1.02570E-14
 -1       952 4.85410E-03-1.33283E-04-1.14510E-14
 -1       953 5.12023E-03-1.26134E-04-1.27047E-14
 -1       954 5.38647E-03-1.20827E-04-1.40163E-14
 -1       955 5.65623E-03-1.19633E-04-1.53848E-14
 -1       956 3.98875E-03 1.94800E-04-7.74927E-15
 -1       957 1.04719E-02 1.13062E-04-3.63483E-14
 -1       958 1.07190E-02 1.33167E-04-3.83394E-14
 -1       959 1.09686E-02 1.51902E-04-4.03541E-14
 -1       960 1.12219E-02 1.70949E-04-4.23883E-14
 -1       961 1.14796E-02 1.90645E-04-4.44385E-14
 -1       962 1.17416E-02 2.11061E-04-4.65044E-14
 -1       963 1.20077E-02 2.32202E-04-4.85863E-14
 -1       964 1.22775E-02 2.54058E-04-5.06752E-14
 -1       965 1.25505E-02 2.76613E-04-5.27698E-14
 -1       966 1.28262E-02 2.99845E-04-5.48657E-14
 -1       967 1.31043E-02 3.23716E-04-5.69603E-14
 -1       968 1.33843E-02 3.48188E-04-5.90590E-14
 -1       969 5.04840E-03 1.78286E-04-1.23730E-14
 -1       970 4.79126E-03 1.79729E-04-1.11258E-14
 -1       971 1.71530E-03 1.88892E-04-1.60219E-15
 -1       972 1.74810E-03-1.31950E-04-1.73492E-15
 -1       973 1.07050E-02 3.69698E-04-3.75005E-14
 -1       974 1.12057E-02 4.15549E-04-4.15703E-14
 -1       975 1.32703E-03-2.67353E-05-1.14359E-15
 -1       976 1.14635E-02 4.44052E-04-4.36418E-14
 -1       977 1.17263E-02 4.74908E-04-4.57309E-14
 -1       978 1.19935E-02 5.07301E-04-4.78425E-14
 -1       979 1.22646E-02 5.40524E-04-4.99701E-14
 -1       980 1.25389E-02 5.74011E-04-5.21076E-14
 -1       981 1.28160E-02 6.07338E-04-5.42580E-14
 -1       982 1.30952E-02 6.40231E-04-5.64211E-14
 -1       983 1.33760E-02 6.72516E-04-5.85839E-14
 -1       984 1.37562E-02 6.14131E-04-6.15903E-14
 -1       985 2.44936E-03 2.83751E-04-3.00977E-15
 -1       986 1.07170E-02 2.38593E-04-3.69402E-14
 -1       987 1.38335E-03-1.01436E-04-1.14965E-15
 -1       988 1.37501E-03 1.43058E-04-1.09392E-15
 -1       989 2.01887E-03-1.69155E-04-2.26875E-15
 -1       990 1.54482E-03 1.65574E-04-1.33549E-15
 -1       991 1.09531E-02 3.90330E-04-3.95256E-14
 -1       992 1.52592E-03-1.54635E-04-1.34969E-15
 -1       993 2.00784E-03 2.06194E-04-2.13264E-15
 -1       994 3.71283E-03 2.00888E-04-6.74943E-15
 -1       995 4.26087E-03 1.88775E-04-8.81276E-15
 -1       996 5.93623E-03-1.28628E-04-1.68106E-14
 -1       997 5.58458E-03 2.76116E-05-1.60482E-14
 -1       998 1.06656E-02 3.12660E-04-3.67146E-14
 -1       999 2.86784E-03 2.13700E-04-4.13600E-15
 -1      1000 1.34740E-02 4.72746E-04-5.95701E-14
 -1      1001 5.54554E-03 1.86273E-04-1.50286E-14
 -1      1002 1.05244E-02 1.64179E-04-3.60043E-14
 -1      1003 1.33536E-02 5.95053E-04-5.84917E-14
 -1      1004 5.51012E-03 9.04830E-05-1.57022E-14
 -1      1005 5.56610E-03 1.49426E-04-1.55336E-14
 -1      1006 3.15186E-03 2.10882E-04-4.94260E-15
 -1      1007 1.07148E-02 2.06280E-04-3.72953E-14
 -1      1008 1.51771E-03 8.43290E-05-1.34808E-15
 -1      1009 4.52857E-03 1.83498E-04-9.93822E-15
 -1      1010 1.45893E-03-6.31740E-06-1.34242E-15
 -1      1011 5.61810E-03-3.79795E-05-1.57202E-14
 -1      1012 1.34297E-02 4.10514E-04-5.93129E-14
 -1      1013 4.63250E-03 1.24813E-04-1.05674E-14
 -1      1014 2.74851E-03-1.18626E-04-3.99222E-15
 -1      1015 3.05594E-03-1.08183E-04-4.78890E-15
 -1      1016 3.33751E-03-1.05218E-04-5.64336E-15
 -1      1017 3.61610E-03-1.01177E-04-6.56182E-15
 -1      1018 3.89120E-03-9.61788E-05-7.54306E-15
 -1      1019 4.16233E-03-9.03086E-05-8.58819E-15
 -1      1020 4.42904E-03-8.35953E-05-9.69531E-15
 -1      1021 4.69092E-03-7.60411E-05-1.08605E-14
 -1      1022 4.94766E-03-6.76272E-05-1.20846E-14
 -1      1023 5.19918E-03-5.84061E-05-1.33677E-14
 -1      1024 5.41066E-03-4.80564E-05-1.45229E-14
 -1      1025 1.13464E-02 3.75150E-04-4.25980E-14
 -1      1026 1.09140E-02 1.98929E-04-3.93641E-14
 -1      1027 1.11511E-02 2.16774E-04-4.13918E-14
 -1      1028 1.13971E-02 2.36413E-04-4.34366E-14
 -1      1029 1.16505E-02 2.57604E-04-4.54997E-14
 -1      1030 1.19100E-02 2.80028E-04-4.75807E-14
 -1      1031 1.21747E-02 3.03430E-04-4.96760E-14
 -1      1032 1.24437E-02 3.27615E-04-5.17752E-14
 -1      1033 1.27164E-02 3.52431E-04-5.38818E-14
 -1      1034 1.29921E-02 3.77769E-04-5.59906E-14
 -1      1035 1.32102E-02 3.94094E-04-5.76507E-14
 -1      1036 5.12657E-03 1.24919E-04-1.30569E-14
 -1      1037 1.11035E-02 3.48763E-04-4.05477E-14
 -1      1038 4.88415E-03 1.23936E-04-1.17836E-14
 -1      1039 1.36880E-03-8.13651E-05-1.37756E-15
 -1      1040 5.35742E-03 1.28147E-04-1.43864E-14
 -1      1041 1.18565E-02 4.33102E-04-4.67567E-14
 -1      1042 1.21207E-02 4.63790E-04-4.88715E-14
 -1      1043 1.23896E-02 4.95017E-04-5.09958E-14
 -1      1044 1.26623E-02 5.26413E-04-5.31281E-14
 -1      1045 1.29381E-02 5.57690E-04-5.52776E-14
 -1      1046 1.31453E-02 5.76569E-04-5.68861E-14
 -1      1047 1.34146E-02 5.34200E-04-5.90361E-14
 -1      1048 1.15980E-02 4.03397E-04-4.46651E-14
 -1      1049 1.08434E-02 2.84698E-04-3.81240E-14
 -1      1050 1.53267E-03-8.96297E-05-1.37703E-15
 -1      1051 3.43369E-03 2.06432E-04-5.81385E-15
 -1      1052 2.58213E-03 2.14309E-04-3.39726E-15
 -1      1053 2.29526E-03 2.12053E-04-2.72901E-15
 -1      1054 1.80315E-03-1.02908E-04-1.94676E-15
 -1      1055 2.10383E-03-1.30719E-04-2.53257E-15
 -1      1056 2.41465E-03-1.42174E-04-3.24646E-15
 -1      1057 4.37326E-03 1.27146E-04-9.41045E-15
 -1      1058 3.00074E-03 1.43596E-04-4.57000E-15
 -1      1059 3.83690E-03 1.34197E-04-7.28289E-15
 -1      1060 2.71639E-03 1.44706E-04-3.79494E-15
 -1      1061 5.44126E-03 5.59983E-05-1.52454E-14
 -1      1062 1.08711E-02 3.24533E-04-3.85192E-14
 -1      1063 1.08748E-02 2.52966E-04-3.84874E-14
 -1      1064 4.10772E-03 1.30443E-04-8.31442E-15
 -1      1065 1.69379E-03 1.10393E-04-1.61753E-15
 -1      1066 1.32078E-02 4.59479E-04-5.75318E-14
 -1      1067 5.43455E-03 1.07555E-04-1.50406E-14
 -1      1068 1.63397E-03 2.55913E-05-1.60157E-15
 -1      1069 3.28271E-03 1.41198E-04-5.41083E-15
 -1      1070 3.56165E-03 1.37929E-04-6.31466E-15
 -1      1071 2.02848E-03 1.20571E-04-2.22994E-15
 -1      1072 3.19214E-03-3.94020E-05-5.20857E-15
 -1      1073 3.47134E-03-3.75092E-05-6.09555E-15
 -1      1074 3.74687E-03-3.49535E-05-7.04683E-15
 -1      1075 4.01789E-03-3.17097E-05-8.05904E-15
 -1      1076 4.28382E-03-2.75797E-05-9.13509E-15
 -1      1077 4.54376E-03-2.23951E-05-1.02732E-14
 -1      1078 4.79667E-03-1.58885E-05-1.14693E-14
 -1      1079 5.04113E-03-7.76399E-06-1.27232E-14
 -1      1080 2.62526E-03-4.12817E-05-3.63101E-15
 -1      1081 1.13093E-02 2.77033E-04-4.24307E-14
 -1      1082 1.15550E-02 2.99792E-04-4.44878E-14
 -1      1083 1.18088E-02 3.24038E-04-4.65675E-14
 -1      1084 1.20692E-02 3.49429E-04-4.86626E-14
 -1      1085 1.23350E-02 3.75648E-04-5.07676E-14
 -1      1086 1.26051E-02 4.02439E-04-5.28830E-14
 -1      1087 1.28788E-02 4.29610E-04-5.50043E-14
 -1      1088 1.12245E-02 3.12712E-04-4.15612E-14
 -1      1089 4.98326E-03 7.46599E-05-1.24411E-14
 -1      1090 1.25084E-02 4.48793E-04-5.20137E-14
 -1      1091 1.39166E-03-4.10808E-05-1.51299E-15
 -1      1092 1.19754E-02 3.91446E-04-4.77848E-14
 -1      1093 4.74111E-03 7.17189E-05-1.11978E-14
 -1      1094 5.21232E-03 7.93547E-05-1.37422E-14
 -1      1095 1.10851E-02 2.64519E-04-4.04497E-14
 -1      1096 3.96321E-03 7.11665E-05-7.82139E-15
 -1      1097 5.41706E-03 9.09593E-06-1.48869E-14
 -1      1098 1.31776E-02 5.18148E-04-5.72134E-14
 -1      1099 1.89351E-03-3.41990E-05-2.26324E-15
 -1      1100 2.90989E-03-4.06638E-05-4.38693E-15
 -1      1101 2.33901E-03-4.11769E-05-2.94162E-15
 -1      1102 1.09936E-02 2.98382E-04-3.95155E-14
 -1      1103 3.69163E-03 7.24143E-05-6.82172E-15
 -1      1104 2.85307E-03 7.56557E-05-4.20159E-15
 -1      1105 5.23296E-03-1.29779E-07-1.37864E-14
 -1      1106 2.43031E-03 1.44078E-04-3.08911E-15
 -1      1107 4.22941E-03 7.03771E-05-8.88511E-15
 -1      1108 5.34485E-03 7.17786E-05-1.45958E-14
 -1      1109 3.13580E-03 7.49341E-05-5.01034E-15
 -1      1110 1.22395E-02 4.19865E-04-4.98936E-14
 -1      1111 1.27811E-02 4.77964E-04-5.41442E-14
 -1      1112 4.48918E-03 7.04256E-05-1.00121E-14
 -1      1113 3.60825E-03 2.77641E-05-6.55292E-15
 -1      1114 1.14499E-02 3.38520E-04-4.34757E-14
 -1      1115 2.56806E-03 7.56490E-05-3.45970E-15
 -1      1116 1.17172E-02 3.63865E-04-4.56889E-14
 -1      1117 1.92626E-03 4.50649E-05-2.18230E-15
 -1      1118 3.37315E-03 5.07775E-05-5.75884E-15
 -1      1119 3.41556E-03 7.37573E-05-5.88419E-15
 -1      1120 5.30133E-03 4.48653E-05-1.43138E-14
 -1      1121 2.23458E-03 4.87907E-05-2.69275E-15
 -1      1122 1.65692E-03 2.55152E-05-1.86396E-15
 -1      1123 0.00000E+00 0.00000E+00 0.00000E+00
 -1      1124 0.00000E+00 0.00000E+00 0.00000E+00
 -1      1125 0.00000E+00 0.00000E+00 0.00000E+00
 -1      1126 0.00000E+00 0.00000E+00 0.00000E+00
 -1      1127 0.00000E+00 0.00000E+00 0.00000E+00
 -1      1128 0.00000E+00 0.00000E+00 0.00000E+00
 -1      1129 0.00000E+00 0.00000E+00 0.00000E+00
 -1      1130 0.00000E+00 0.00000E+00 0.00000E+00
 -1      1131 0.00000E+00 0.00000E+00 0.00000E+00
 -1      1132 0.00000E+00 0.00000E+00 0.00000E+00
 -1      1133 0.00000E+00 0.00000E+00 0.00000E+00
 -1      1134 0.00000E+00 0.00000E+00 0.00000E+00
 -1      1135 0.00000E+00 0.00000E+00 0.00000E+00
 -1      1136 0.00000E+00 0.00000E+00 0.00000E+00
 -1      1137 0.00000E+00 0.00000E+00 0.00000E+00
 -1      1138 0.00000E+00 0.00000E+00 0.00000E+00
 -1      1139 0.00000E+00 0.00000E+00 0.00000E+00
 -1      1140 2.08154E-04-1.47658E-04 8.44322E-18
 -1      1141 5.39965E-04-3.38425E-04-2.68069E-17
 -1      1142 8.10618E-04-4.63385E-04-1.37802E-16
 -1      1143 1.05755E-03-5.48084E-04-3.37160E-16
 -1      1144 1.27148E-03-5.74886E-04-6.25503E-16
 -1      1145 1.55090E-03-5.98707E-04-9.90039E-16
 -1      1146 1.85585E-03-6.35271E-04-1.43036E-15
 -1      1147 2.14008E-03-6.60788E-04-1.94994E-15
 -1      1148 2.42149E-03-6.78217E-04-2.54724E-15
 -1      1149 2.70251E-03-6.87972E-04-3.21965E-15
 -1      1150 2.98527E-03-6.90388E-04-3.96669E-15
 -1      1151 3.27248E-03-6.85964E-04-4.78164E-15
 -1      1152 3.56362E-03-6.77766E-04-5.66355E-15
 -1      1153 3.85678E-03-6.71746E-04-6.61499E-15
 -1      1154 4.15569E-03-6.66114E-04-7.63155E-15
 -1      1155 4.46110E-03-6.62416E-04-8.70959E-15
 -1      1156 4.77370E-03-6.62633E-04-9.85087E-15
 -1      1157 5.09390E-03-6.69264E-04-1.10562E-14
 -1      1158 5.42154E-03-6.85311E-04-1.23213E-14
 -1      1159 5.75542E-03-7.14036E-04-1.36443E-14
 -1      1160 6.09280E-03-7.58320E-04-1.50263E-14
 -1      1161 6.42909E-03-8.19484E-04-1.64673E-14
 -1      1162 6.75795E-03-8.95563E-04-1.79640E-14
 -1      1163 7.07245E-03-9.79534E-04-1.95197E-14
 -1      1164 7.36733E-03-1.05865E-03-2.11286E-14
 -1      1165 7.64193E-03-1.11630E-03-2.27829E-14
 -1      1166 7.90196E-03-1.13696E-03-2.44837E-14
 -1      1167 8.15858E-03-1.11228E-03-2.62303E-14
 -1      1168 8.42429E-03-1.04489E-03-2.80218E-14
 -1      1169 8.70808E-03-9.47184E-04-2.98553E-14
 -1      1170 9.01262E-03-8.35944E-04-3.17354E-14
 -1      1171 9.33477E-03-7.26394E-04-3.36607E-14
 -1      1172 9.66819E-03-6.28642E-04-3.56154E-14
 -1      1173 1.00060E-02-5.47154E-04-3.75940E-14
 -1      1174 1.03428E-02-4.82130E-04-3.95944E-14
 -1      1175 1.06749E-02-4.31351E-04-4.16100E-14
 -1      1176 1.10004E-02-3.91681E-04-4.36346E-14
 -1      1177 1.13187E-02-3.59990E-04-4.56664E-14
 -1      1178 1.16303E-02-3.33597E-04-4.76993E-14
 -1      1179 1.19358E-02-3.10406E-04-4.97304E-14
 -1      1180 1.22363E-02-2.88879E-04-5.17782E-14
 -1      1181 1.25326E-02-2.67954E-04-5.38329E-14
 -1      1182 1.28256E-02-2.46932E-04-5.58923E-14
 -1      1183 1.31161E-02-2.25387E-04-5.79589E-14
 -1      1184 1.34048E-02-2.03079E-04-6.00273E-14
 -1      1185 1.36922E-02-1.79897E-04-6.20833E-14
 -1      1186 1.39786E-02-1.55816E-04-6.41233E-14
 -1      1187 1.42645E-02-1.30876E-04-6.61410E-14
 -1      1188 1.45501E-02-1.05207E-04-6.81437E-14
 -1      1189 1.48286E-02-7.97588E-05-7.01125E-14
 -1      1190 2.26097E-04 1.58035E-04 1.78080E-17
 -1      1191 5.49720E-04 3.34749E-04 1.21973E-19
 -1      1192 8.30306E-04 4.50036E-04-9.06800E-17
 -1      1193 1.10066E-03 5.28814E-04-2.63868E-16
 -1      1194 1.36713E-03 5.84764E-04-5.19753E-16
 -1      1195 1.63291E-03 6.24890E-04-8.57035E-16
 -1      1196 1.89969E-03 6.53054E-04-1.27574E-15
 -1      1197 2.16849E-03 6.71682E-04-1.77382E-15
 -1      1198 2.44007E-03 6.82594E-04-2.35063E-15
 -1      1199 2.71502E-03 6.87352E-04-3.00720E-15
 -1      1200 2.99383E-03 6.87342E-04-3.74589E-15
 -1      1201 3.27694E-03 6.83802E-04-4.55967E-15
 -1      1202 3.56518E-03 6.78006E-04-5.43965E-15
 -1      1203 3.85922E-03 6.70937E-04-6.38388E-15
 -1      1204 4.15980E-03 6.63858E-04-7.39137E-15
 -1      1205 4.46817E-03 6.58330E-04-8.46624E-15
 -1      1206 4.78575E-03 6.56509E-04-9.60766E-15
 -1      1207 5.11401E-03 6.61401E-04-1.08137E-14
 -1      1208 5.45405E-03 6.77096E-04-1.20771E-14
 -1      1209 5.80604E-03 7.08839E-04-1.34000E-14
 -1      1210 6.16829E-03 7.62644E-04-1.47797E-14
 -1      1211 6.53608E-03 8.43937E-04-1.62128E-14
 -1      1212 6.90085E-03 9.54710E-04-1.77028E-14
 -1      1213 7.25075E-03 1.08922E-03-1.92505E-14
 -1      1214 7.57396E-03 1.23012E-03-2.08599E-14
 -1      1215 7.86506E-03 1.34906E-03-2.25254E-14
 -1      1216 8.13094E-03 1.41579E-03-2.42505E-14
 -1      1217 8.39059E-03 1.41275E-03-2.60436E-14
 -1      1218 8.66633E-03 1.34549E-03-2.78946E-14
 -1      1219 8.97226E-03 1.23937E-03-2.97903E-14
 -1      1220 9.30915E-03 1.12551E-03-3.17265E-14
 -1      1221 9.66773E-03 1.02774E-03-3.37044E-14
 -1      1222 1.00355E-02 9.57616E-04-3.57154E-14
 -1      1223 1.04020E-02 9.16627E-04-3.77521E-14
 -1      1224 1.07605E-02 9.00699E-04-3.98258E-14
 -1      1225 1.11078E-02 9.03891E-04-4.19355E-14
 -1      1226 1.14435E-02 9.20492E-04-4.40589E-14
 -1      1227 1.17684E-02 9.45855E-04-4.62058E-14
 -1      1228 1.20839E-02 9.76522E-04-4.83734E-14
 -1      1229 1.23917E-02 1.01007E-03-5.05655E-14
 -1      1230 1.26934E-02 1.04489E-03-5.27705E-14
 -1      1231 1.29903E-02 1.07993E-03-5.49929E-14
 -1      1232 1.32836E-02 1.11457E-03-5.72237E-14
 -1      1233 1.35743E-02 1.14846E-03-5.94605E-14
 -1      1234 1.38630E-02 1.18141E-03-6.17105E-14
 -1      1235 1.41503E-02 1.21338E-03-6.39741E-14
 -1      1236 1.44367E-02 1.24438E-03-6.62371E-14
 -1      1237 1.47226E-02 1.27448E-03-6.84940E-14
 -1      1238 1.50082E-02 1.30382E-03-7.07497E-14
 -1      1239 1.52867E-02 1.33199E-03-7.29521E-14
 -1      1240 1.54082E-02 1.30353E-03-7.39578E-14
 -1      1241 1.53798E-02 1.21914E-03-7.38142E-14
 -1      1242 1.53519E-02 1.13476E-03-7.36547E-14
 -1      1243 1.53246E-02 1.05062E-03-7.34830E-14
 -1      1244 1.52979E-02 9.66936E-04-7.33247E-14
 -1      1245 1.52717E-02 8.84499E-04-7.31614E-14
 -1      1246 1.52456E-02 8.02591E-04-7.29878E-14
 -1      1247 1.52191E-02 7.20405E-04-7.27891E-14
 -1      1248 1.51923E-02 6.38451E-04-7.25987E-14
 -1      1249 1.51651E-02 5.56496E-04-7.24012E-14
 -1      1250 1.51376E-02 4.74308E-04-7.21896E-14
 -1      1251 1.51101E-02 3.92399E-04-7.19997E-14
 -1      1252 1.50827E-02 3.09964E-04-7.18168E-14
 -1      1253 1.50554E-02 2.26283E-04-7.16195E-14
 -1      1254 1.50287E-02 1.42158E-04-7.14477E-14
 -1      1255 1.50025E-02 5.77940E-05-7.12928E-14
 -1      1256 1.49769E-02-2.58758E-05-7.11530E-14
 -1      1257 1.03156E-02 2.60745E-04-2.92313E-14
 -1      1258 1.02109E-02 4.10287E-04-2.90190E-14
 -1      1259 1.00018E-02 5.62538E-04-2.86405E-14
 -1      1260 9.68087E-03 7.25240E-04-2.80589E-14
 -1      1261 9.27605E-03 8.78706E-04-2.73035E-14
 -1      1262 8.83497E-03 9.93284E-04-2.64528E-14
 -1      1263 8.36483E-03 1.05480E-03-2.55315E-14
 -1      1264 7.90629E-03 1.05011E-03-2.46413E-14
 -1      1265 7.43212E-03 9.74971E-04-2.37512E-14
 -1      1266 6.95640E-03 8.40051E-04-2.29015E-14
 -1      1267 6.55941E-03 6.82908E-04-2.22309E-14
 -1      1268 6.24404E-03 5.22195E-04-2.17249E-14
 -1      1269 6.01517E-03 3.64770E-04-2.13763E-14
 -1      1270 5.88781E-03 2.15729E-04-2.12060E-14
 -1      1271 5.87084E-03 6.71801E-05-2.12155E-14
 -1      1272 5.97881E-03-8.98375E-05-2.14167E-14
 -1      1273 6.19655E-03-2.44142E-04-2.17823E-14
 -1      1274 6.48818E-03-3.88272E-04-2.22678E-14
 -1      1275 6.86779E-03-5.29503E-04-2.29331E-14
 -1      1276 7.29804E-03-6.42727E-04-2.37245E-14
 -1      1277 7.74846E-03-7.05756E-04-2.45848E-14
 -1      1278 8.20999E-03-7.10697E-04-2.54896E-14
 -1      1279 8.65070E-03-6.56946E-04-2.63539E-14
 -1      1280 9.08929E-03-5.49395E-04-2.71939E-14
 -1      1281 9.51177E-03-4.02217E-04-2.79620E-14
 -1      1282 9.87865E-03-2.32537E-04-2.85964E-14
 -1      1283 1.01523E-02-6.03964E-05-2.90408E-14
 -1      1284 1.03013E-02 1.05335E-04-2.92545E-14
 -1      1285 1.63160E-04-1.10485E-04-4.07931E-18
 -1      1286 1.10265E-04-5.81941E-05-1.85805E-17
 -1      1287 1.15055E-04-6.85452E-05-1.45283E-17
 -1      1288 1.06798E-04-4.47490E-05-2.53026E-17
 -1      1289 1.08374E-04-5.09176E-05-2.32832E-17
 -1      1290 2.22117E-04-1.09949E-04-5.44676E-17
 -1      1291 1.05681E-04-3.45446E-05-2.89889E-17
 -1      1292 1.06326E-04-3.94308E-05-2.79995E-17
 -1      1293 2.16217E-04-8.45112E-05-6.64616E-17
 -1      1294 1.05193E-04-2.58457E-05-3.07778E-17
 -1      1295 1.05508E-04-3.00801E-05-3.03577E-17
 -1      1296 2.13840E-04-6.46762E-05-7.31430E-17
 -1      1297 1.04854E-04-1.80810E-05-3.17400E-17
 -1      1298 1.05094E-04-2.18597E-05-3.16316E-17
 -1      1299 2.12686E-04-4.77954E-05-7.67615E-17
 -1      1300 1.04381E-04-1.08481E-05-3.22550E-17
 -1      1301 1.04680E-04-1.43460E-05-3.22415E-17
 -1      1302 2.11741E-04-3.25177E-05-7.86860E-17
 -1      1303 1.03753E-04-4.39261E-06-3.20788E-17
 -1      1304 1.04083E-04-7.49613E-06-3.22008E-17
 -1      1305 2.10446E-04-1.85044E-05-7.91468E-17
 -1      1306 1.03251E-04 1.28288E-06-3.17807E-17
 -1      1307 1.03456E-04-1.49702E-06-3.19975E-17
 -1      1308 2.08934E-04-6.05880E-06-7.88215E-17
 -1      1309 1.03191E-04 6.64994E-06-3.12386E-17
 -1      1310 1.03137E-04 3.91294E-06-3.13877E-17
 -1      1311 2.07971E-04 5.09577E-06-7.78051E-17
 -1      1312 1.03638E-04 1.24100E-05-3.05067E-17
 -1      1313 1.03330E-04 9.38708E-06-3.06558E-17
 -1      1314 2.08184E-04 1.60706E-05-7.63007E-17
 -1      1315 1.04450E-04 1.89753E-05-2.91786E-17
 -1      1316 1.03968E-04 1.55261E-05-2.95987E-17
 -1      1317 2.09520E-04 2.80712E-05-7.41188E-17
 -1      1318 1.05552E-04 2.68359E-05-2.70644E-17
 -1      1319 1.04887E-04 2.27170E-05-2.77962E-17
 -1      1320 2.11589E-04 4.20229E-05-7.06358E-17
 -1      1321 1.07093E-04 3.62003E-05-2.38118E-17
 -1      1322 1.06088E-04 3.12680E-05-2.50451E-17
 -1      1323 2.14281E-04 5.85952E-05-6.51877E-17
 -1      1324 1.09819E-04 4.79982E-05-1.84179E-17
 -1      1325 1.07917E-04 4.16468E-05-2.07625E-17
 -1      1326 2.18166E-04 7.86326E-05-5.68122E-17
 -1      1327 1.16457E-04 6.56373E-05-9.29703E-18
 -1      1328 1.11777E-04 5.56398E-05-1.37016E-17
 -1      1329 2.25570E-04 1.04991E-04-4.35036E-17
 -1      1330 1.56450E-04 1.07762E-04 5.08220E-18
 -1      1331 1.35027E-04 8.40065E-05-3.93023E-18
 -1      1332 2.55089E-04 1.47809E-04-2.71999E-17
 -1      1333 3.32930E-04 2.16021E-04-3.68629E-18
 -1      1334 4.11927E-04-2.63047E-04-3.59684E-17
 -1      1335 5.60463E-04-3.39498E-04-7.35496E-17
 -1      1336 7.02619E-04-4.01944E-04-1.34238E-16
 -1      1337 8.39635E-04-4.53588E-04-2.16122E-16
 -1      1338 5.96968E-04-3.35420E-04-1.27028E-16
 -1      1339 9.72827E-04-4.97136E-04-3.18511E-16
 -1      1340 1.10161E-03-5.31624E-04-4.41460E-16
 -1      1341 8.82528E-04-4.39847E-04-2.96895E-16
 -1      1342 1.22667E-03-5.51599E-04-5.85808E-16
 -1      1343 1.33813E-03-5.39194E-04-7.53615E-16
 -1      1344 1.16920E-03-5.04834E-04-5.46329E-16
 -1      1345 1.47613E-03-5.44623E-04-9.36832E-16
 -1      1346 1.62616E-03-5.70340E-04-1.14063E-15
 -1      1347 1.43275E-03-5.20086E-04-8.80521E-16
 -1      1348 1.77224E-03-5.89491E-04-1.36090E-15
 -1      1349 1.91724E-03-6.05354E-04-1.60192E-15
 -1      1350 1.69743E-03-5.45692E-04-1.29021E-15
 -1      1351 2.06045E-03-6.18401E-04-1.86309E-15
 -1      1352 2.20300E-03-6.29237E-04-2.14405E-15
 -1      1353 1.98241E-03-5.75487E-04-1.77609E-15
 -1      1354 2.34496E-03-6.38025E-04-2.44368E-15
 -1      1355 2.48672E-03-6.44806E-04-2.76164E-15
 -1      1356 2.26791E-03-5.97102E-04-2.33940E-15
 -1      1357 2.62851E-03-6.49639E-04-3.09885E-15
 -1      1358 2.77057E-03-6.52516E-04-3.45446E-15
 -1      1359 2.55297E-03-6.10655E-04-2.97769E-15
 -1      1360 2.91315E-03-6.53544E-04-3.82759E-15
 -1      1361 3.05648E-03-6.52759E-04-4.21860E-15
 -1      1362 2.83881E-03-6.16248E-04-3.68892E-15
 -1      1363 3.20076E-03-6.50289E-04-4.62599E-15
 -1      1364 3.34630E-03-6.45937E-04-5.05011E-15
 -1      1365 3.12677E-03-6.14404E-04-4.47038E-15
 -1      1366 3.49233E-03-6.41589E-04-5.49115E-15
 -1      1367 3.63770E-03-6.38405E-04-5.94934E-15
 -1      1368 3.41765E-03-6.06756E-04-5.31907E-15
 -1      1369 3.78425E-03-6.35038E-04-6.42489E-15
 -1      1370 3.93204E-03-6.31676E-04-6.91702E-15
 -1      1371 3.71005E-03-5.98718E-04-6.23540E-15
 -1      1372 4.08115E-03-6.28456E-04-7.42483E-15
 -1      1373 4.23166E-03-6.25597E-04-7.94799E-15
 -1      1374 4.00503E-03-5.91399E-04-7.21832E-15
 -1      1375 4.38365E-03-6.23295E-04-8.48701E-15
 -1      1376 4.53718E-03-6.21812E-04-9.04145E-15
 -1      1377 4.30478E-03-5.85025E-04-8.26464E-15
 -1      1378 4.69231E-03-6.21426E-04-9.61145E-15
 -1      1379 4.84908E-03-6.22446E-04-1.01976E-14
 -1      1380 4.60979E-03-5.81352E-04-9.37285E-15
 -1      1381 5.00750E-03-6.25249E-04-1.07992E-14
 -1      1382 5.16754E-03-6.30185E-04-1.14161E-14
 -1      1383 4.92044E-03-5.82662E-04-1.05440E-14
 -1      1384 5.32914E-03-6.37729E-04-1.20479E-14
 -1      1385 5.49216E-03-6.48233E-04-1.26942E-14
 -1      1386 5.23681E-03-5.91834E-04-1.17757E-14
 -1      1387 5.65642E-03-6.62230E-04-1.33548E-14
 -1      1388 5.82161E-03-6.79999E-04-1.40298E-14
 -1      1389 5.55848E-03-6.12255E-04-1.30665E-14
 -1      1390 5.98740E-03-7.02007E-04-1.47201E-14
 -1      1391 6.15332E-03-7.28332E-04-1.54257E-14
 -1      1392 5.88429E-03-6.47421E-04-1.44157E-14
 -1      1393 6.31883E-03-7.59154E-04-1.61447E-14
 -1      1394 6.48332E-03-7.94155E-04-1.68776E-14
 -1      1395 6.21207E-03-7.00039E-04-1.58227E-14
 -1      1396 6.64615E-03-8.32931E-04-1.76269E-14
 -1      1397 6.80663E-03-8.74559E-04-1.83895E-14
 -1      1398 6.53860E-03-7.70465E-04-1.72901E-14
 -1      1399 6.96418E-03-9.17786E-04-1.91656E-14
 -1      1400 7.11827E-03-9.61007E-04-1.99560E-14
 -1      1401 6.85989E-03-8.54654E-04-1.88136E-14
 -1      1402 7.26860E-03-1.00212E-03-2.07592E-14
 -1      1403 7.41511E-03-1.03903E-03-2.15748E-14
 -1      1404 7.17207E-03-9.42440E-04-2.03922E-14
 -1      1405 7.55798E-03-1.06927E-03-2.24021E-14
 -1      1406 7.69780E-03-1.09088E-03-2.32381E-14
 -1      1407 7.47293E-03-1.01771E-03-2.20202E-14
 -1      1408 7.83533E-03-1.10196E-03-2.40887E-14
 -1      1409 7.97169E-03-1.10144E-03-2.49506E-14
 -1      1410 7.76350E-03-1.06201E-03-2.36951E-14
 -1      1411 8.10797E-03-1.08887E-03-2.58228E-14
 -1      1412 8.24542E-03-1.06456E-03-2.67074E-14
 -1      1413 8.04865E-03-1.06123E-03-2.54171E-14
 -1      1414 8.38504E-03-1.02974E-03-2.76024E-14
 -1      1415 8.52773E-03-9.85987E-04-2.85081E-14
 -1      1416 8.33554E-03-1.01194E-03-2.71833E-14
 -1      1417 8.67399E-03-9.35588E-04-2.94258E-14
 -1      1418 8.82411E-03-8.80657E-04-3.03539E-14
 -1      1419 8.63057E-03-9.23110E-04-2.89951E-14
 -1      1420 8.97800E-03-8.23584E-04-3.12950E-14
 -1      1421 9.13539E-03-7.66285E-04-3.22466E-14
 -1      1422 8.93689E-03-8.11789E-04-3.08530E-14
 -1      1423 9.29578E-03-7.10488E-04-3.32082E-14
 -1      1424 9.45856E-03-6.57486E-04-3.41782E-14
 -1      1425 9.25387E-03-6.96004E-04-3.27557E-14
 -1      1426 9.62310E-03-6.08108E-04-3.51549E-14
 -1      1427 9.78871E-03-5.62974E-04-3.61371E-14
 -1      1428 9.57834E-03-5.89291E-04-3.46932E-14
 -1      1429 9.95482E-03-5.22171E-04-3.71263E-14
 -1      1430 1.01209E-02-4.85810E-04-3.81213E-14
 -1      1431 9.90624E-03-4.98804E-04-3.66595E-14
 -1      1432 1.02864E-02-4.53541E-04-3.91204E-14
 -1      1433 1.04511E-02-4.25175E-04-4.01240E-14
 -1      1434 1.02339E-02-4.26263E-04-3.86463E-14
 -1      1435 1.06146E-02-4.00196E-04-4.11304E-14
 -1      1436 1.07768E-02-3.78282E-04-4.21404E-14
 -1      1437 1.05587E-02-3.69987E-04-4.06524E-14
 -1      1438 1.09376E-02-3.58921E-04-4.31531E-14
 -1      1439 1.10968E-02-3.41766E-04-4.41680E-14
 -1      1440 1.08790E-02-3.26768E-04-4.26712E-14
 -1      1441 1.12546E-02-3.26391E-04-4.51847E-14
 -1      1442 1.14108E-02-3.12479E-04-4.62043E-14
 -1      1443 1.11940E-02-2.93125E-04-4.47041E-14
 -1      1444 1.15655E-02-2.99711E-04-4.72218E-14
 -1      1445 1.17189E-02-2.87823E-04-4.82365E-14
 -1      1446 1.15038E-02-2.65956E-04-4.67403E-14
 -1      1447 1.18711E-02-2.76595E-04-4.92571E-14
 -1      1448 1.20220E-02-2.65822E-04-5.02787E-14
 -1      1449 1.18087E-02-2.42779E-04-4.87802E-14
 -1      1450 1.21719E-02-2.55363E-04-5.13007E-14
 -1      1451 1.23207E-02-2.45064E-04-5.23272E-14
 -1      1452 1.21093E-02-2.21755E-04-5.08236E-14
 -1      1453 1.24687E-02-2.34844E-04-5.33562E-14
 -1      1454 1.26159E-02-2.24593E-04-5.43844E-14
 -1      1455 1.24062E-02-2.01596E-04-5.28778E-14
 -1      1456 1.27624E-02-2.14271E-04-5.54144E-14
 -1      1457 1.29082E-02-2.03802E-04-5.64465E-14
 -1      1458 1.27001E-02-1.81451E-04-5.49361E-14
 -1      1459 1.30536E-02-1.93172E-04-5.74816E-14
 -1      1460 1.31984E-02-1.82332E-04-5.85141E-14
 -1      1461 1.29917E-02-1.60795E-04-5.70011E-14
 -1      1462 1.33429E-02-1.71282E-04-5.95450E-14
 -1      1463 1.34870E-02-1.59994E-04-6.05793E-14
 -1      1464 1.32814E-02-1.39332E-04-5.90684E-14
 -1      1465 1.36308E-02-1.48477E-04-6.16107E-14
 -1      1466 1.37744E-02-1.36715E-04-6.26328E-14
 -1      1467 1.35697E-02-1.16917E-04-6.11327E-14
 -1      1468 1.39177E-02-1.24724E-04-6.36548E-14
 -1      1469 1.40609E-02-1.12497E-04-6.46742E-14
 -1      1470 1.38570E-02-9.35108E-05-6.31882E-14
 -1      1471 1.42040E-02-1.00056E-04-6.56874E-14
 -1      1472 1.43470E-02-8.74055E-05-6.66948E-14
 -1      1473 1.41435E-02-6.91390E-05-6.52272E-14
 -1      1474 1.44899E-02-7.45777E-05-6.77013E-14
 -1      1475 1.46328E-02-6.15973E-05-6.87096E-14
 -1      1476 1.44296E-02-4.38924E-05-6.72552E-14
 -1      1477 1.48412E-02-3.83274E-05-7.01852E-14
 -1      1478 1.47811E-02-7.76532E-06-6.97409E-14
 -1      1479 6.40022E-04 3.62742E-04-5.81268E-17
 -1      1480 4.90193E-04 2.96565E-04-2.05727E-17
 -1      1481 4.42994E-04 2.59008E-04-3.79606E-17
 -1      1482 9.25708E-04 4.59481E-04-1.93842E-16
 -1      1483 7.84697E-04 4.15441E-04-1.16050E-16
 -1      1484 7.42397E-04 3.79788E-04-1.36948E-16
 -1      1485 1.20126E-03 5.27009E-04-4.10045E-16
 -1      1486 1.06422E-03 4.96133E-04-2.91556E-16
 -1      1487 1.02865E-03 4.62576E-04-3.15476E-16
 -1      1488 1.47264E-03 5.75286E-04-7.07130E-16
 -1      1489 1.33717E-03 5.53204E-04-5.48349E-16
 -1      1490 1.30718E-03 5.20993E-04-5.73380E-16
 -1      1491 1.74298E-03 6.09588E-04-1.08493E-15
 -1      1492 1.60778E-03 5.93989E-04-8.85888E-16
 -1      1493 1.58218E-03 5.62607E-04-9.11164E-16
 -1      1494 2.01398E-03 6.33014E-04-1.54333E-15
 -1      1495 1.87831E-03 6.22527E-04-1.30411E-15
 -1      1496 1.85620E-03 5.91638E-04-1.32910E-15
 -1      1497 2.28672E-03 6.47674E-04-2.08018E-15
 -1      1498 2.15008E-03 6.41328E-04-1.80188E-15
 -1      1499 2.13075E-03 6.10700E-04-1.82645E-15
 -1      1500 2.56196E-03 6.55276E-04-2.69586E-15
 -1      1501 2.42399E-03 6.52254E-04-2.37794E-15
 -1      1502 2.40685E-03 6.21713E-04-2.40185E-15
 -1      1503 2.84030E-03 6.57320E-04-3.39119E-15
 -1      1504 2.70071E-03 6.56897E-04-3.03395E-15
 -1      1505 2.68524E-03 6.26303E-04-3.05608E-15
 -1      1506 3.12224E-03 6.55126E-04-4.16418E-15
 -1      1507 2.98079E-03 6.56664E-04-3.76863E-15
 -1      1508 2.96649E-03 6.25903E-04-3.78788E-15
 -1      1509 3.40826E-03 6.49894E-04-5.00709E-15
 -1      1510 3.26469E-03 6.52787E-04-4.57684E-15
 -1      1511 3.25109E-03 6.21761E-04-4.59241E-15
 -1      1512 3.69947E-03 6.42782E-04-5.91615E-15
 -1      1513 3.55324E-03 6.46483E-04-5.45360E-15
 -1      1514 3.53976E-03 6.15017E-04-5.46469E-15
 -1      1515 3.99617E-03 6.34878E-04-6.88928E-15
 -1      1516 3.84708E-03 6.38826E-04-6.39412E-15
 -1      1517 3.83318E-03 6.06845E-04-6.40286E-15
 -1      1518 4.29933E-03 6.27490E-04-7.92712E-15
 -1      1519 4.14688E-03 6.30987E-04-7.40036E-15
 -1      1520 4.13192E-03 5.98330E-04-7.40568E-15
 -1      1521 4.61011E-03 6.22396E-04-9.03246E-15
 -1      1522 4.45369E-03 6.24481E-04-8.47189E-15
 -1      1523 4.43688E-03 5.90949E-04-8.47448E-15
 -1      1524 4.92971E-03 6.22099E-04-1.02019E-14
 -1      1525 4.76873E-03 6.21420E-04-9.60920E-15
 -1      1526 4.74909E-03 5.86768E-04-9.60792E-15
 -1      1527 5.25920E-03 6.30093E-04-1.14332E-14
 -1      1528 5.09316E-03 6.24775E-04-1.08096E-14
 -1      1529 5.06952E-03 5.88716E-04-1.08047E-14
 -1      1530 5.59908E-03 6.51073E-04-1.27208E-14
 -1      1531 5.42782E-03 6.38631E-04-1.20707E-14
 -1      1532 5.39890E-03 6.00860E-04-1.20607E-14
 -1      1533 5.94874E-03 6.90884E-04-1.40711E-14
 -1      1534 5.77276E-03 6.68301E-04-1.33879E-14
 -1      1535 5.73733E-03 6.28548E-04-1.33756E-14
 -1      1536 6.30565E-03 7.55805E-04-1.54716E-14
 -1      1537 6.12652E-03 7.19996E-04-1.47647E-14
 -1      1538 6.08382E-03 6.78138E-04-1.47473E-14
 -1      1539 6.66467E-03 8.50582E-04-1.69314E-14
 -1      1540 6.48534E-03 7.99556E-04-1.61938E-14
 -1      1541 6.43567E-03 7.55810E-04-1.61745E-14
 -1      1542 7.01794E-03 9.74747E-04-1.84444E-14
 -1      1543 6.84265E-03 9.09637E-04-1.76813E-14
 -1      1544 6.78809E-03 8.64816E-04-1.76566E-14
 -1      1545 7.35618E-03 1.11779E-03-2.00172E-14
 -1      1546 7.18957E-03 1.04528E-03-1.92239E-14
 -1      1547 7.13433E-03 1.00098E-03-1.91949E-14
 -1      1548 7.67229E-03 1.25631E-03-2.16512E-14
 -1      1549 7.51729E-03 1.18954E-03-2.08266E-14
 -1      1550 7.46726E-03 1.14794E-03-2.07915E-14
 -1      1551 7.96616E-03 1.35794E-03-2.33412E-14
 -1      1552 7.82165E-03 1.31351E-03-2.24881E-14
 -1      1553 7.78281E-03 1.27643E-03-2.24476E-14
 -1      1554 8.24716E-03 1.39485E-03-2.50948E-14
 -1      1555 8.10727E-03 1.38521E-03-2.42099E-14
 -1      1556 8.08361E-03 1.35293E-03-2.41658E-14
 -1      1557 8.53126E-03 1.35880E-03-2.69108E-14
 -1      1558 8.38770E-03 1.38508E-03-2.59952E-14
 -1      1559 8.37980E-03 1.35585E-03-2.59456E-14
 -1      1560 8.83279E-03 1.26664E-03-2.87807E-14
 -1      1561 8.67918E-03 1.31776E-03-2.78401E-14
 -1      1562 8.68409E-03 1.28890E-03-2.77836E-14
 -1      1563 9.15767E-03 1.14997E-03-3.06912E-14
 -1      1564 8.99231E-03 1.20932E-03-2.97311E-14
 -1      1565 9.00474E-03 1.17874E-03-2.96702E-14
 -1      1566 9.50268E-03 1.03890E-03-3.26448E-14
 -1      1567 9.32814E-03 1.09238E-03-3.16629E-14
 -1      1568 9.34219E-03 1.05931E-03-3.15980E-14
 -1      1569 9.85938E-03 9.52090E-04-3.46347E-14
 -1      1570 9.68019E-03 9.91963E-04-3.36349E-14
 -1      1571 9.69109E-03 9.56697E-04-3.35651E-14
 -1      1572 1.02188E-02 8.95691E-04-3.66560E-14
 -1      1573 1.00393E-02 9.20172E-04-3.56415E-14
 -1      1574 1.00442E-02 8.83469E-04-3.55662E-14
 -1      1575 1.05739E-02 8.67674E-04-3.87071E-14
 -1      1576 1.03972E-02 8.78490E-04-3.76774E-14
 -1      1577 1.03953E-02 8.41123E-04-3.75997E-14
 -1      1578 1.09208E-02 8.62373E-04-4.07942E-14
 -1      1579 1.07486E-02 8.62595E-04-3.97460E-14
 -1      1580 1.07403E-02 8.25164E-04-3.96653E-14
 -1      1581 1.12579E-02 8.73537E-04-4.29060E-14
 -1      1582 1.10906E-02 8.66260E-04-4.18476E-14
 -1      1583 1.10770E-02 8.29156E-04-4.17600E-14
 -1      1584 1.15850E-02 8.95753E-04-4.50368E-14
 -1      1585 1.14226E-02 8.83546E-04-4.39696E-14
 -1      1586 1.14050E-02 8.46978E-04-4.38776E-14
 -1      1587 1.19031E-02 9.24862E-04-4.71903E-14
 -1      1588 1.17451E-02 9.09650E-04-4.61105E-14
 -1      1589 1.17246E-02 8.73699E-04-4.60160E-14
 -1      1590 1.22135E-02 9.57890E-04-4.93629E-14
 -1      1591 1.20592E-02 9.41027E-04-4.82745E-14
 -1      1592 1.20367E-02 9.05689E-04-4.81723E-14
 -1      1593 1.25176E-02 9.92820E-04-5.15580E-14
 -1      1594 1.23662E-02 9.75211E-04-5.04585E-14
 -1      1595 1.23426E-02 9.40436E-04-5.03520E-14
 -1      1596 1.28166E-02 1.02834E-03-5.37637E-14
 -1      1597 1.26677E-02 1.01057E-03-5.26585E-14
 -1      1598 1.26433E-02 9.76283E-04-5.25463E-14
 -1      1599 1.31117E-02 1.06364E-03-5.59841E-14
 -1      1600 1.29646E-02 1.04605E-03-5.48729E-14
 -1      1601 1.29400E-02 1.01219E-03-5.47540E-14
 -1      1602 1.34039E-02 1.09826E-03-5.82163E-14
 -1      1603 1.32581E-02 1.08106E-03-5.70980E-14
 -1      1604 1.32334E-02 1.04753E-03-5.69744E-14
 -1      1605 1.36938E-02 1.13195E-03-6.04515E-14
 -1      1606 1.35491E-02 1.11523E-03-5.93327E-14
 -1      1607 1.35244E-02 1.08198E-03-5.92021E-14
 -1      1608 1.39821E-02 1.16461E-03-6.27039E-14
 -1      1609 1.38381E-02 1.14841E-03-6.15764E-14
 -1      1610 1.38136E-02 1.11538E-03-6.14424E-14
 -1      1611 1.42692E-02 1.19623E-03-6.49629E-14
 -1      1612 1.41258E-02 1.18055E-03-6.38326E-14
 -1      1613 1.41015E-02 1.14769E-03-6.36919E-14
 -1      1614 1.45556E-02 1.22687E-03-6.72174E-14
 -1      1615 1.44125E-02 1.21167E-03-6.60900E-14
 -1      1616 1.43884E-02 1.17894E-03-6.59453E-14
 -1      1617 1.48416E-02 1.25663E-03-6.94712E-14
 -1      1618 1.46986E-02 1.24185E-03-6.83432E-14
 -1      1619 1.46747E-02 1.20921E-03-6.81951E-14
 -1      1620 1.51273E-02 1.28572E-03-7.17241E-14
 -1      1621 1.49844E-02 1.27124E-03-7.05991E-14
 -1      1622 1.49607E-02 1.23866E-03-7.04463E-14
 -1      1623 1.52724E-02 1.28985E-03-7.28841E-14
 -1      1624 1.52491E-02 1.18569E-03-7.28017E-14
 -1      1625 1.52632E-02 1.22783E-03-7.28736E-14
 -1      1626 1.52213E-02 1.10155E-03-7.26447E-14
 -1      1627 1.52351E-02 1.14359E-03-7.27249E-14
 -1      1628 1.51184E-02 1.15225E-03-7.17908E-14
 -1      1629 1.51943E-02 1.01771E-03-7.24811E-14
 -1      1630 1.52077E-02 1.05958E-03-7.25630E-14
 -1      1631 1.50908E-02 1.06830E-03-7.16369E-14
 -1      1632 1.51677E-02 9.34300E-04-7.23234E-14
 -1      1633 1.51809E-02 9.75945E-04-7.24045E-14
 -1      1634 1.50640E-02 9.84701E-04-7.14828E-14
 -1      1635 1.51418E-02 8.52770E-04-7.21634E-14
 -1      1636 1.51548E-02 8.93478E-04-7.22452E-14
 -1      1637 1.50378E-02 9.02231E-04-7.13283E-14
 -1      1638 1.51155E-02 7.70269E-04-7.19870E-14
 -1      1639 1.51287E-02 8.11470E-04-7.20769E-14
 -1      1640 1.50118E-02 8.20188E-04-7.11663E-14
 -1      1641 1.50890E-02 6.88088E-04-7.17983E-14
 -1      1642 1.51023E-02 7.29148E-04-7.18912E-14
 -1      1643 1.49855E-02 7.37813E-04-7.09908E-14
 -1      1644 1.50621E-02 6.06054E-04-7.16161E-14
 -1      1645 1.50756E-02 6.47064E-04-7.17076E-14
 -1      1646 1.49589E-02 6.55688E-04-7.08135E-14
 -1      1647 1.50348E-02 5.23967E-04-7.14223E-14
 -1      1648 1.50485E-02 5.65029E-04-7.15212E-14
 -1      1649 1.49319E-02 5.73647E-04-7.06372E-14
 -1      1650 1.50072E-02 4.41640E-04-7.12249E-14
 -1      1651 1.50210E-02 4.82844E-04-7.13223E-14
 -1      1652 1.49045E-02 4.91516E-04-7.04495E-14
 -1      1653 1.49799E-02 3.60331E-04-7.10452E-14
 -1      1654 1.49935E-02 4.01038E-04-7.11356E-14
 -1      1655 1.48770E-02 4.09832E-04-7.02671E-14
 -1      1656 1.49523E-02 2.77159E-04-7.08644E-14
 -1      1657 1.49660E-02 3.18805E-04-7.09546E-14
 -1      1658 1.48494E-02 3.27782E-04-7.00912E-14
 -1      1659 1.49250E-02 1.93528E-04-7.06836E-14
 -1      1660 1.49386E-02 2.35397E-04-7.07727E-14
 -1      1661 1.48218E-02 2.44602E-04-6.99174E-14
 -1      1662 1.48983E-02 1.09522E-04-7.05252E-14
 -1      1663 1.49116E-02 1.51562E-04-7.06040E-14
 -1      1664 1.47946E-02 1.60999E-04-6.97545E-14
 -1      1665 1.48331E-02 2.98249E-05-7.00956E-14
 -1      1666 1.48461E-02 7.19381E-05-7.01668E-14
 -1      1667 1.47289E-02 8.15653E-05-6.93218E-14
 -1      1668 1.46246E-02 6.53839E-06-6.86158E-14
 -1      1669 1.03126E-02 2.60403E-04-2.96278E-14
 -1      1670 1.03409E-02 2.16323E-04-2.96890E-14
 -1      1671 1.01537E-02 3.74053E-04-2.93254E-14
 -1      1672 1.02425E-02 3.20143E-04-2.94735E-14
 -1      1673 9.88562E-03 5.19084E-04-2.88379E-14
 -1      1674 1.00223E-02 4.50031E-04-2.90728E-14
 -1      1675 9.48915E-03 6.94276E-04-2.81864E-14
 -1      1676 9.68090E-03 6.01925E-04-2.85463E-14
 -1      1677 9.07938E-03 8.88365E-04-2.72990E-14
 -1      1678 9.26993E-03 8.05290E-04-2.76986E-14
 -1      1679 8.65417E-03 1.03776E-03-2.63493E-14
 -1      1680 8.84702E-03 9.75283E-04-2.68006E-14
 -1      1681 8.24064E-03 1.10727E-03-2.53310E-14
 -1      1682 8.43071E-03 1.08657E-03-2.57961E-14
 -1      1683 7.84862E-03 1.07883E-03-2.43917E-14
 -1      1684 8.02538E-03 1.10231E-03-2.48108E-14
 -1      1685 7.42974E-03 9.51711E-04-2.33735E-14
 -1      1686 7.63527E-03 1.02744E-03-2.38329E-14
 -1      1687 6.97715E-03 7.51475E-04-2.24895E-14
 -1      1688 7.17745E-03 8.46691E-04-2.28699E-14
 -1      1689 6.56932E-03 5.61857E-04-2.18402E-14
 -1      1690 6.74246E-03 6.47701E-04-2.21212E-14
 -1      1691 6.22452E-03 4.02306E-04-2.13711E-14
 -1      1692 6.37108E-03 4.76621E-04-2.15836E-14
 -1      1693 5.98382E-03 2.64746E-04-2.10245E-14
 -1      1694 6.08270E-03 3.21283E-04-2.11515E-14
 -1      1695 5.85911E-03 1.61274E-04-2.09052E-14
 -1      1696 5.90048E-03 2.07772E-04-2.09466E-14
 -1      1697 5.87093E-03 6.32476E-05-2.09143E-14
 -1      1698 5.84665E-03 1.07393E-04-2.08663E-14
 -1      1699 6.04052E-03-4.98101E-05-2.11575E-14
 -1      1700 5.94234E-03 6.54314E-06-2.10110E-14
 -1      1701 6.31127E-03-1.98892E-04-2.16304E-14
 -1      1702 6.17712E-03-1.33616E-04-2.14260E-14
 -1      1703 6.64985E-03-3.57506E-04-2.21871E-14
 -1      1704 6.48583E-03-2.81539E-04-2.19113E-14
 -1      1705 7.07153E-03-5.33468E-04-2.29325E-14
 -1      1706 6.87296E-03-4.47737E-04-2.25479E-14
 -1      1707 7.46819E-03-6.78214E-04-2.38080E-14
 -1      1708 7.28652E-03-6.20205E-04-2.34143E-14
 -1      1709 7.88202E-03-7.57285E-04-2.47636E-14
 -1      1710 7.69018E-03-7.30704E-04-2.43049E-14
 -1      1711 8.27901E-03-7.43776E-04-2.57333E-14
 -1      1712 8.09926E-03-7.60272E-04-2.52943E-14
 -1      1713 8.67175E-03-6.50014E-04-2.66577E-14
 -1      1714 8.48996E-03-7.02596E-04-2.62371E-14
 -1      1715 9.06864E-03-4.82506E-04-2.76131E-14
 -1      1716 8.87555E-03-5.67373E-04-2.71977E-14
 -1      1717 9.51746E-03-2.95935E-04-2.83737E-14
 -1      1718 9.32251E-03-3.87393E-04-2.80182E-14
 -1      1719 9.89456E-03-9.65870E-05-2.90950E-14
 -1      1720 9.72278E-03-1.79212E-04-2.88142E-14
 -1      1721 1.01905E-02 4.47664E-05-2.94859E-14
 -1      1722 1.00725E-02-1.92752E-05-2.93171E-14
 -1      1723 1.03327E-02 1.61350E-04-2.96689E-14
 -1      1724 1.02875E-02 1.11152E-04-2.96189E-14
 -1      1725 9.32421E-03 7.12310E-04-2.82008E-14
 -1      1726 9.73394E-03 5.11932E-04-2.89913E-14
 -1      1727 1.52488E-02 1.25727E-03-7.27299E-14
 -1      1728 1.51179E-02 1.22373E-03-7.17185E-14
 -1      1729 1.02805E-02 2.61279E-04-2.99533E-14
 -1      1730 1.00706E-02 3.63611E-04-2.95431E-14
 -1      1731 1.03471E-02 1.92875E-04-3.00845E-14
 -1      1732 8.90303E-03 9.25267E-04-2.72062E-14
 -1      1733 8.50936E-03 1.08016E-03-2.61502E-14
 -1      1734 8.13995E-03 1.13184E-03-2.50747E-14
 -1      1735 7.76795E-03 1.06907E-03-2.39965E-14
 -1      1736 7.37335E-03 8.90586E-04-2.29401E-14
 -1      1737 6.93267E-03 6.61628E-04-2.20769E-14
 -1      1738 6.51824E-03 4.63573E-04-2.14612E-14
 -1      1739 6.17618E-03 3.07887E-04-2.09922E-14
 -1      1740 5.94286E-03 2.00988E-04-2.06999E-14
 -1      1741 5.84283E-03 1.26045E-04-2.05826E-14
 -1      1742 5.90335E-03 6.01638E-05-2.06349E-14
 -1      1743 6.12175E-03-3.96754E-05-2.09919E-14
 -1      1744 6.43955E-03-1.90059E-04-2.15358E-14
 -1      1745 6.82611E-03-3.68433E-04-2.21715E-14
 -1      1746 7.23057E-03-5.64467E-04-2.30078E-14
 -1      1747 7.62174E-03-7.19589E-04-2.39817E-14
 -1      1748 7.99012E-03-7.84841E-04-2.50069E-14
 -1      1749 8.35313E-03-7.42806E-04-2.60409E-14
 -1      1750 8.72154E-03-6.05910E-04-2.70868E-14
 -1      1751 9.12670E-03-4.03607E-04-2.80389E-14
 -1      1752 9.57071E-03-1.83617E-04-2.88912E-14
 -1      1753 9.95765E-03-2.65754E-06-2.95631E-14
 -1      1754 1.02388E-02 1.14038E-04-2.99261E-14
 -1      1755 2.78634E-04-1.77505E-04-3.25667E-17
 -1      1756 3.28383E-04-1.19052E-04-1.05384E-16
 -1      1757 3.31748E-04-1.35686E-04-9.87573E-17
 -1      1758 3.36563E-04-1.55032E-04-9.07071E-17
 -1      1759 3.44887E-04-1.77102E-04-7.95669E-17
 -1      1760 4.51822E-04-1.91233E-04-1.42640E-16
 -1      1761 3.22563E-04-6.58793E-05-1.18273E-16
 -1      1762 3.23479E-04-7.76628E-05-1.16362E-16
 -1      1763 3.20724E-04-4.33989E-05-1.20550E-16
 -1      1764 3.21707E-04-5.43339E-05-1.19709E-16
 -1      1765 4.34124E-04-7.95031E-05-1.75315E-16
 -1      1766 3.18274E-04-2.30260E-05-1.20794E-16
 -1      1767 3.19596E-04-3.29018E-05-1.20821E-16
 -1      1768 4.31165E-04-5.05416E-05-1.77511E-16
 -1      1769 3.15659E-04-4.91729E-06-1.19845E-16
 -1      1770 3.16859E-04-1.36653E-05-1.20333E-16
 -1      1771 4.27148E-04-2.43355E-05-1.77457E-16
 -1      1772 3.14455E-04 1.16357E-05-1.18259E-16
 -1      1773 3.14769E-04 3.45348E-06-1.19289E-16
 -1      1774 4.23448E-04-1.05127E-06-1.76034E-16
 -1      1775 3.15485E-04 2.85376E-05-1.15725E-16
 -1      1776 3.14676E-04 1.99004E-05-1.17067E-16
 -1      1777 4.22529E-04 2.07744E-05-1.73405E-16
 -1      1778 3.18316E-04 4.73046E-05-1.11957E-16
 -1      1779 3.16743E-04 3.76023E-05-1.14099E-16
 -1      1780 4.25078E-04 4.37765E-05-1.69488E-16
 -1      1781 3.22281E-04 6.95443E-05-1.06482E-16
 -1      1782 3.20179E-04 5.80330E-05-1.09708E-16
 -1      1783 4.29943E-04 7.01429E-05-1.63891E-16
 -1      1784 3.27427E-04 9.58002E-05-9.75782E-17
 -1      1785 3.24632E-04 8.21730E-05-1.02593E-16
 -1      1786 4.36230E-04 1.01066E-04-1.55244E-16
 -1      1787 3.35324E-04 1.27998E-04-8.37953E-17
 -1      1788 3.30790E-04 1.11113E-04-9.15880E-17
 -1      1789 4.44508E-04 1.37542E-04-1.41692E-16
 -1      1790 3.51284E-04 1.71173E-04-6.21112E-17
 -1      1791 3.41759E-04 1.48005E-04-7.43356E-17
 -1      1792 4.57976E-04 1.82529E-04-1.21038E-16
 -1      1793 4.06267E-04 2.27035E-04-4.72441E-17
 -1      1794 3.76946E-04 1.96107E-04-5.70968E-17
 -1      1795 4.94599E-04 2.35362E-04-1.02254E-16
 -1      1796 5.56818E-04 2.93609E-04-8.76713E-17
 -1      1797 3.32206E-04-1.93466E-04-5.75711E-17
 -1      1798 8.51662E-04 3.94749E-04-2.28902E-16
 -1      1799 7.05279E-04 3.48582E-04-1.48807E-16
 -1      1800 6.71812E-04 3.18125E-04-1.57982E-16
 -1      1801 4.49179E-04-2.40397E-04-1.02782E-16
 -1      1802 7.90761E-04-3.80264E-04-2.72921E-16
 -1      1803 9.34909E-04-4.21797E-04-3.80880E-16
 -1      1804 1.07828E-03-4.53042E-04-5.08315E-16
 -1      1805 1.21998E-03-4.75315E-04-6.54668E-16
 -1      1806 9.91225E-04-4.00026E-04-4.68728E-16
 -1      1807 1.35191E-03-4.99921E-04-8.22544E-16
 -1      1808 1.49057E-03-4.99979E-04-1.01073E-15
 -1      1809 1.28041E-03-4.52807E-04-7.66517E-16
 -1      1810 1.62745E-03-5.07345E-04-1.21826E-15
 -1      1811 1.76526E-03-5.20005E-04-1.44305E-15
 -1      1812 1.56024E-03-4.74987E-04-1.14358E-15
 -1      1813 1.90643E-03-5.33139E-04-1.68771E-15
 -1      1814 2.04838E-03-5.45509E-04-1.95163E-15
 -1      1815 1.83248E-03-4.93677E-04-1.59921E-15
 -1      1816 2.19097E-03-5.56014E-04-2.23464E-15
 -1      1817 2.33374E-03-5.64721E-04-2.53589E-15
 -1      1818 2.11461E-03-5.15381E-04-2.12924E-15
 -1      1819 2.47653E-03-5.71435E-04-2.85572E-15
 -1      1820 2.61963E-03-5.76110E-04-3.19376E-15
 -1      1821 2.39971E-03-5.32117E-04-2.73396E-15
 -1      1822 2.76292E-03-5.78795E-04-3.55045E-15
 -1      1823 2.90674E-03-5.79517E-04-3.92420E-15
 -1      1824 2.68608E-03-5.41231E-04-3.41128E-15
 -1      1825 3.05098E-03-5.78459E-04-4.31529E-15
 -1      1826 3.19585E-03-5.75822E-04-4.72289E-15
 -1      1827 2.97398E-03-5.42481E-04-4.15993E-15
 -1      1828 3.34123E-03-5.72028E-04-5.14697E-15
 -1      1829 3.48742E-03-5.67466E-04-5.58845E-15
 -1      1830 3.26378E-03-5.37196E-04-4.97559E-15
 -1      1831 3.63437E-03-5.62778E-04-6.04668E-15
 -1      1832 3.78050E-03-5.58885E-04-6.52177E-15
 -1      1833 3.55591E-03-5.28102E-04-5.85841E-15
 -1      1834 3.92754E-03-5.54946E-04-7.01229E-15
 -1      1835 4.07560E-03-5.51117E-04-7.51946E-15
 -1      1836 3.84913E-03-5.19033E-04-6.80729E-15
 -1      1837 4.22468E-03-5.47603E-04-8.04292E-15
 -1      1838 4.37491E-03-5.44599E-04-8.58143E-15
 -1      1839 4.14386E-03-5.10949E-04-7.82118E-15
 -1      1840 4.52628E-03-5.42382E-04-9.13545E-15
 -1      1841 4.67888E-03-5.41197E-04-9.70469E-15
 -1      1842 4.44225E-03-5.04423E-04-8.89859E-15
 -1      1843 4.83274E-03-5.41417E-04-1.02897E-14
 -1      1844 4.98788E-03-5.43342E-04-1.08901E-14
 -1      1845 4.74477E-03-5.01421E-04-1.00366E-14
 -1      1846 5.14435E-03-5.47444E-04-1.15054E-14
 -1      1847 5.30206E-03-5.54078E-04-1.21348E-14
 -1      1848 5.05188E-03-5.04499E-04-1.12357E-14
 -1      1849 5.46110E-03-5.63781E-04-1.27795E-14
 -1      1850 5.62120E-03-5.76936E-04-1.34388E-14
 -1      1851 5.36395E-03-5.16837E-04-1.24936E-14
 -1      1852 5.78252E-03-5.94057E-04-1.41122E-14
 -1      1853 5.94451E-03-6.15467E-04-1.48010E-14
 -1      1854 5.68113E-03-5.42088E-04-1.38109E-14
 -1      1855 6.10743E-03-6.41485E-04-1.55038E-14
 -1      1856 6.27040E-03-6.72211E-04-1.62210E-14
 -1      1857 6.00317E-03-5.83846E-04-1.51854E-14
 -1      1858 6.43373E-03-7.07499E-04-1.69545E-14
 -1      1859 6.59627E-03-7.46976E-04-1.77027E-14
 -1      1860 6.32901E-03-6.44524E-04-1.66213E-14
 -1      1861 6.75829E-03-7.89736E-04-1.84641E-14
 -1      1862 6.91862E-03-8.34631E-04-1.92385E-14
 -1      1863 6.65644E-03-7.23462E-04-1.81149E-14
 -1      1864 7.07734E-03-8.79841E-04-2.00263E-14
 -1      1865 7.23377E-03-9.23378E-04-2.08278E-14
 -1      1866 6.98187E-03-8.14462E-04-1.96633E-14
 -1      1867 7.38771E-03-9.62721E-04-2.16403E-14
 -1      1868 7.53947E-03-9.95388E-04-2.24652E-14
 -1      1869 7.30113E-03-9.03975E-04-2.12622E-14
 -1      1870 7.68860E-03-1.01893E-03-2.33023E-14
 -1      1871 7.83670E-03-1.03135E-03-2.41506E-14
 -1      1872 7.61147E-03-9.72138E-04-2.29104E-14
 -1      1873 7.98316E-03-1.03130E-03-2.50121E-14
 -1      1874 8.13037E-03-1.01829E-03-2.58828E-14
 -1      1875 7.91417E-03-9.98648E-04-2.46068E-14
 -1      1876 8.27772E-03-9.92741E-04-2.67648E-14
 -1      1877 8.42729E-03-9.55943E-04-2.76592E-14
 -1      1878 8.21497E-03-9.72076E-04-2.63482E-14
 -1      1879 8.57854E-03-9.09897E-04-2.85649E-14
 -1      1880 8.73251E-03-8.56941E-04-2.94828E-14
 -1      1881 8.52079E-03-8.96088E-04-2.81356E-14
 -1      1882 8.88884E-03-7.99687E-04-3.04124E-14
 -1      1883 9.04732E-03-7.40476E-04-3.13519E-14
 -1      1884 8.83548E-03-7.87365E-04-2.99711E-14
 -1      1885 9.20789E-03-6.81556E-04-3.23023E-14
 -1      1886 9.36957E-03-6.24539E-04-3.32619E-14
 -1      1887 9.15821E-03-6.67021E-04-3.18499E-14
 -1      1888 9.53254E-03-5.70814E-04-3.42315E-14
 -1      1889 9.69561E-03-5.21130E-04-3.52074E-14
 -1      1890 9.48526E-03-5.52388E-04-3.37696E-14
 -1      1891 9.85909E-03-4.76002E-04-3.61890E-14
 -1      1892 1.00219E-02-4.35548E-04-3.71781E-14
 -1      1893 9.81255E-03-4.53446E-04-3.57206E-14
 -1      1894 1.01844E-02-3.99659E-04-3.81711E-14
 -1      1895 1.03459E-02-3.68105E-04-3.91692E-14
 -1      1896 1.01371E-02-3.73484E-04-3.76965E-14
 -1      1897 1.05065E-02-3.40448E-04-4.01731E-14
 -1      1898 1.06659E-02-3.16327E-04-4.11805E-14
 -1      1899 1.04575E-02-3.11444E-04-3.96934E-14
 -1      1900 1.08242E-02-2.95200E-04-4.21897E-14
 -1      1901 1.09813E-02-2.76701E-04-4.32041E-14
 -1      1902 1.07729E-02-2.64186E-04-4.17092E-14
 -1      1903 1.11371E-02-2.60319E-04-4.42215E-14
 -1      1904 1.12918E-02-2.45734E-04-4.52410E-14
 -1      1905 1.10835E-02-2.28016E-04-4.37386E-14
 -1      1906 1.14452E-02-2.32528E-04-4.62598E-14
 -1      1907 1.15976E-02-2.20444E-04-4.72789E-14
 -1      1908 1.13896E-02-1.99514E-04-4.57776E-14
 -1      1909 1.17489E-02-2.09172E-04-4.83001E-14
 -1      1910 1.18993E-02-1.98515E-04-4.93229E-14
 -1      1911 1.16917E-02-1.75878E-04-4.78197E-14
 -1      1912 1.20487E-02-1.88260E-04-5.03487E-14
 -1      1913 1.21974E-02-1.78262E-04-5.13727E-14
 -1      1914 1.19903E-02-1.54982E-04-4.98679E-14
 -1      1915 1.23452E-02-1.68387E-04-5.23976E-14
 -1      1916 1.24924E-02-1.58532E-04-5.34279E-14
 -1      1917 1.22859E-02-1.35316E-04-5.19214E-14
 -1      1918 1.26390E-02-1.48619E-04-5.44583E-14
 -1      1919 1.27850E-02-1.38579E-04-5.54901E-14
 -1      1920 1.25791E-02-1.15862E-04-5.39793E-14
 -1      1921 1.29306E-02-1.28373E-04-5.65226E-14
 -1      1922 1.30757E-02-1.17957E-04-5.75564E-14
 -1      1923 1.28704E-02-9.59794E-05-5.60447E-14
 -1      1924 1.32204E-02-1.07317E-04-5.85926E-14
 -1      1925 1.33648E-02-9.64258E-05-5.96246E-14
 -1      1926 1.31601E-02-7.52980E-05-5.81116E-14
 -1      1927 1.35089E-02-8.52867E-05-6.06565E-14
 -1      1928 1.36528E-02-7.38838E-05-6.16891E-14
 -1      1929 1.34486E-02-5.36312E-05-6.01830E-14
 -1      1930 1.37964E-02-6.22301E-05-6.27196E-14
 -1      1931 1.39399E-02-5.03175E-05-6.37440E-14
 -1      1932 1.37361E-02-3.09135E-05-6.22471E-14
 -1      1933 1.40832E-02-3.81665E-05-6.47678E-14
 -1      1934 1.42264E-02-2.57757E-05-6.57889E-14
 -1      1935 1.40230E-02-7.15705E-06-6.43046E-14
 -1      1936 1.43541E-02-1.61690E-05-6.66938E-14
 -1      1937 1.44971E-02-3.38250E-06-6.77091E-14
 -1      1938 1.45492E-02 3.40958E-05-6.80575E-14
 -1      1939 1.42940E-02 1.45920E-05-6.62400E-14
 -1      1940 1.13706E-03 4.65631E-04-4.47071E-16
 -1      1941 9.95074E-04 4.33264E-04-3.27917E-16
 -1      1942 9.62947E-04 4.03823E-04-3.38217E-16
 -1      1943 1.41684E-03 5.16115E-04-7.44142E-16
 -1      1944 1.27733E-03 4.93064E-04-5.85605E-16
 -1      1945 1.24791E-03 4.64879E-04-5.95566E-16
 -1      1946 1.69403E-03 5.51845E-04-1.12077E-15
 -1      1947 1.55558E-03 5.35626E-04-9.22575E-16
 -1      1948 1.52892E-03 5.08411E-04-9.31574E-16
 -1      1949 1.97055E-03 5.76169E-04-1.57686E-15
 -1      1950 1.83227E-03 5.65305E-04-1.33884E-15
 -1      1951 1.80803E-03 5.38786E-04-1.34648E-15
 -1      1952 2.24767E-03 5.91328E-04-2.11151E-15
 -1      1953 2.10896E-03 5.84791E-04-1.83431E-15
 -1      1954 2.08672E-03 5.58744E-04-1.83990E-15
 -1      1955 2.52629E-03 5.99112E-04-2.72380E-15
 -1      1956 2.38675E-03 5.96048E-04-2.40793E-15
 -1      1957 2.36608E-03 5.70288E-04-2.41140E-15
 -1      1958 2.80709E-03 6.01084E-04-3.41353E-15
 -1      1959 2.66639E-03 6.00740E-04-3.05891E-15
 -1      1960 2.64690E-03 5.75122E-04-3.05969E-15
 -1      1961 3.09060E-03 5.98606E-04-4.17852E-15
 -1      1962 2.94848E-03 6.00324E-04-3.78689E-15
 -1      1963 2.92977E-03 5.74734E-04-3.78374E-15
 -1      1964 3.37734E-03 5.92837E-04-5.01270E-15
 -1      1965 3.23354E-03 5.96068E-04-4.58716E-15
 -1      1966 3.21519E-03 5.70404E-04-4.58000E-15
 -1      1967 3.66798E-03 5.84958E-04-5.91501E-15
 -1      1968 3.52211E-03 5.89071E-04-5.45539E-15
 -1      1969 3.50367E-03 5.63253E-04-5.44457E-15
 -1      1970 3.96309E-03 5.76053E-04-6.88139E-15
 -1      1971 3.81493E-03 5.80560E-04-6.38968E-15
 -1      1972 3.79578E-03 5.54455E-04-6.37518E-15
 -1      1973 4.26331E-03 5.67321E-04-7.91363E-15
 -1      1974 4.11249E-03 5.71564E-04-7.38972E-15
 -1      1975 4.09207E-03 5.45054E-04-7.37150E-15
 -1      1976 4.56952E-03 5.60451E-04-9.01166E-15
 -1      1977 4.41559E-03 5.63517E-04-8.45506E-15
 -1      1978 4.39321E-03 5.36423E-04-8.43322E-15
 -1      1979 4.88261E-03 5.57840E-04-1.01728E-14
 -1      1980 4.72512E-03 5.58428E-04-9.58395E-15
 -1      1981 4.69998E-03 5.30507E-04-9.55865E-15
 -1      1982 5.20341E-03 5.62880E-04-1.13947E-14
 -1      1983 5.04197E-03 5.59159E-04-1.07765E-14
 -1      1984 5.01319E-03 5.30083E-04-1.07473E-14
 -1      1985 5.53246E-03 5.80209E-04-1.26754E-14
 -1      1986 5.36686E-03 5.69703E-04-1.20278E-14
 -1      1987 5.33361E-03 5.39048E-04-1.19943E-14
 -1      1988 5.86975E-03 6.15744E-04-1.40161E-14
 -1      1989 5.70012E-03 5.95356E-04-1.33382E-14
 -1      1990 5.66182E-03 5.62614E-04-1.33006E-14
 -1      1991 6.21426E-03 6.76133E-04-1.54113E-14
 -1      1992 6.04130E-03 6.42526E-04-1.47070E-14
 -1      1993 5.99796E-03 6.07191E-04-1.46647E-14
 -1      1994 6.56351E-03 7.67010E-04-1.68616E-14
 -1      1995 6.38870E-03 7.17662E-04-1.61294E-14
 -1      1996 6.34136E-03 6.79471E-04-1.60841E-14
 -1      1997 6.91308E-03 8.89483E-04-1.83668E-14
 -1      1998 6.73887E-03 8.24684E-04-1.76078E-14
 -1      1999 6.68992E-03 7.84061E-04-1.75574E-14
 -1      2000 7.25674E-03 1.03494E-03-1.99289E-14
 -1      2001 7.08633E-03 9.60495E-04-1.91414E-14
 -1      2002 7.03935E-03 9.19105E-04-1.90865E-14
 -1      2003 7.58817E-03 1.18085E-03-2.15509E-14
 -1      2004 7.42438E-03 1.10979E-03-2.07324E-14
 -1      2005 7.38310E-03 1.07059E-03-2.06724E-14
 -1      2006 7.90483E-03 1.29299E-03-2.32306E-14
 -1      2007 7.74806E-03 1.24313E-03-2.23821E-14
 -1      2008 7.71496E-03 1.20916E-03-2.23162E-14
 -1      2009 8.21146E-03 1.33922E-03-2.49752E-14
 -1      2010 8.05834E-03 1.32536E-03-2.40952E-14
 -1      2011 8.03376E-03 1.29770E-03-2.40226E-14
 -1      2012 8.51915E-03 1.30740E-03-2.67779E-14
 -1      2013 8.36392E-03 1.33228E-03-2.58701E-14
 -1      2014 8.34698E-03 1.30894E-03-2.57926E-14
 -1      2015 8.83830E-03 1.21404E-03-2.86371E-14
 -1      2016 8.67661E-03 1.26639E-03-2.77006E-14
 -1      2017 8.66641E-03 1.24381E-03-2.76185E-14
 -1      2018 9.17225E-03 1.09312E-03-3.05404E-14
 -1      2019 9.00349E-03 1.15493E-03-2.95839E-14
 -1      2020 8.99911E-03 1.13061E-03-2.94957E-14
 -1      2021 9.51753E-03 9.77426E-04-3.24844E-14
 -1      2022 9.34402E-03 1.03330E-03-3.15062E-14
 -1      2023 9.34353E-03 1.00661E-03-3.14155E-14
 -1      2024 9.86760E-03 8.87079E-04-3.44639E-14
 -1      2025 9.69257E-03 9.28657E-04-3.34698E-14
 -1      2026 9.69323E-03 9.00122E-04-3.33744E-14
 -1      2027 1.02166E-02 8.28559E-04-3.64788E-14
 -1      2028 1.00427E-02 8.53976E-04-3.54675E-14
 -1      2029 1.00418E-02 8.24336E-04-3.53678E-14
 -1      2030 1.05605E-02 7.99659E-04-3.85240E-14
 -1      2031 1.03895E-02 8.10784E-04-3.74971E-14
 -1      2032 1.03852E-02 7.80596E-04-3.73936E-14
 -1      2033 1.08971E-02 7.94369E-04-4.06011E-14
 -1      2034 1.07298E-02 7.94471E-04-3.95594E-14
 -1      2035 1.07214E-02 7.64100E-04-3.94521E-14
 -1      2036 1.12256E-02 8.06103E-04-4.27034E-14
 -1      2037 1.10624E-02 7.98454E-04-4.16495E-14
 -1      2038 1.10499E-02 7.68129E-04-4.15381E-14
 -1      2039 1.15463E-02 8.29185E-04-4.48275E-14
 -1      2040 1.13869E-02 8.16486E-04-4.37623E-14
 -1      2041 1.13708E-02 7.86350E-04-4.36483E-14
 -1      2042 1.18598E-02 8.59270E-04-4.69706E-14
 -1      2043 1.17039E-02 8.43535E-04-4.58969E-14
 -1      2044 1.16849E-02 8.13673E-04-4.57775E-14
 -1      2045 1.21671E-02 8.93267E-04-4.91331E-14
 -1      2046 1.20142E-02 8.75901E-04-4.80484E-14
 -1      2047 1.19931E-02 8.46352E-04-4.79252E-14
 -1      2048 1.24693E-02 9.29089E-04-5.13147E-14
 -1      2049 1.23188E-02 9.11026E-04-5.02223E-14
 -1      2050 1.22962E-02 8.81796E-04-5.00937E-14
 -1      2051 1.27672E-02 9.65393E-04-5.35119E-14
 -1      2052 1.26187E-02 9.47226E-04-5.24128E-14
 -1      2053 1.25950E-02 9.18299E-04-5.22773E-14
 -1      2054 1.30618E-02 1.00136E-03-5.57215E-14
 -1      2055 1.29149E-02 9.83445E-04-5.46146E-14
 -1      2056 1.28905E-02 9.54792E-04-5.44766E-14
 -1      2057 1.33538E-02 1.03653E-03-5.79416E-14
 -1      2058 1.32081E-02 1.01906E-03-5.68292E-14
 -1      2059 1.31833E-02 9.90647E-04-5.66859E-14
 -1      2060 1.36439E-02 1.07067E-03-6.01709E-14
 -1      2061 1.34991E-02 1.05373E-03-5.90571E-14
 -1      2062 1.34741E-02 1.02553E-03-5.89075E-14
 -1      2063 1.39324E-02 1.10369E-03-6.24100E-14
 -1      2064 1.37883E-02 1.08732E-03-6.12883E-14
 -1      2065 1.37632E-02 1.05929E-03-6.11368E-14
 -1      2066 1.42199E-02 1.13560E-03-6.46577E-14
 -1      2067 1.40762E-02 1.11978E-03-6.35327E-14
 -1      2068 1.40512E-02 1.09190E-03-6.33758E-14
 -1      2069 1.45066E-02 1.16646E-03-6.69072E-14
 -1      2070 1.43633E-02 1.15116E-03-6.57826E-14
 -1      2071 1.43383E-02 1.12339E-03-6.56197E-14
 -1      2072 1.47928E-02 1.19638E-03-6.91527E-14
 -1      2073 1.46497E-02 1.18153E-03-6.80299E-14
 -1      2074 1.46248E-02 1.15385E-03-6.78644E-14
 -1      2075 1.50269E-02 1.21741E-03-7.09987E-14
 -1      2076 1.48839E-02 1.20286E-03-6.98741E-14
 -1      2077 1.48590E-02 1.17524E-03-6.97059E-14
 -1      2078 1.50413E-02 1.18802E-03-7.11444E-14
 -1      2079 1.49337E-02 9.51590E-04-7.04871E-14
 -1      2080 1.49470E-02 9.93229E-04-7.05615E-14
 -1      2081 1.49604E-02 1.03498E-03-7.06353E-14
 -1      2082 1.49740E-02 1.07683E-03-7.07110E-14
 -1      2083 1.48300E-02 1.00157E-03-6.96370E-14
 -1      2084 1.50006E-02 1.11137E-03-7.08938E-14
 -1      2085 1.50144E-02 1.15338E-03-7.09654E-14
 -1      2086 1.49233E-02 1.14701E-03-7.02482E-14
 -1      2087 1.48700E-02 1.07784E-03-6.98895E-14
 -1      2088 1.49079E-02 8.70038E-04-7.03356E-14
 -1      2089 1.49208E-02 9.10759E-04-7.04115E-14
 -1      2090 1.48038E-02 9.19085E-04-6.94929E-14
 -1      2091 1.48818E-02 7.87492E-04-7.01714E-14
 -1      2092 1.48949E-02 8.28718E-04-7.02525E-14
 -1      2093 1.47779E-02 8.37058E-04-6.93388E-14
 -1      2094 1.48555E-02 7.05279E-04-7.00021E-14
 -1      2095 1.48687E-02 7.46354E-04-7.00897E-14
 -1      2096 1.47519E-02 7.54742E-04-6.91799E-14
 -1      2097 1.48288E-02 6.23266E-04-6.98361E-14
 -1      2098 1.48422E-02 6.64261E-04-6.99186E-14
 -1      2099 1.47256E-02 6.72735E-04-6.90195E-14
 -1      2100 1.48017E-02 5.41292E-04-6.96654E-14
 -1      2101 1.48153E-02 5.82289E-04-6.97511E-14
 -1      2102 1.46988E-02 5.90889E-04-6.88585E-14
 -1      2103 1.47742E-02 4.59188E-04-6.94842E-14
 -1      2104 1.47880E-02 5.00269E-04-6.95750E-14
 -1      2105 1.46715E-02 5.09037E-04-6.86916E-14
 -1      2106 1.47468E-02 3.78208E-04-6.93147E-14
 -1      2107 1.47605E-02 4.18741E-04-6.93976E-14
 -1      2108 1.46441E-02 4.27708E-04-6.85239E-14
 -1      2109 1.47189E-02 2.95455E-04-6.91433E-14
 -1      2110 1.47329E-02 3.36883E-04-6.92286E-14
 -1      2111 1.46164E-02 3.46071E-04-6.83585E-14
 -1      2112 1.46913E-02 2.12269E-04-6.89797E-14
 -1      2113 1.47051E-02 2.53914E-04-6.90600E-14
 -1      2114 1.45884E-02 2.63325E-04-6.81966E-14
 -1      2115 1.46642E-02 1.28658E-04-6.88292E-14
 -1      2116 1.46777E-02 1.70509E-04-6.89024E-14
 -1      2117 1.45608E-02 1.80119E-04-6.80459E-14
 -1      2118 9.98238E-03 3.59150E-04-2.98117E-14
 -1      2119 1.01177E-02 3.06206E-04-3.00696E-14
 -1      2120 1.03552E-02 2.04221E-04-3.06540E-14
 -1      2121 1.03452E-02 1.89244E-04-3.06291E-14
 -1      2122 1.02393E-02 2.56642E-04-3.03633E-14
 -1      2123 1.03133E-02 2.31263E-04-3.05180E-14
 -1      2124 9.62578E-03 5.08163E-04-2.92672E-14
 -1      2125 9.81447E-03 4.25914E-04-2.95689E-14
 -1      2126 9.16968E-03 7.51912E-04-2.82224E-14
 -1      2127 9.36887E-03 6.37956E-04-2.87201E-14
 -1      2128 3.24490E-04-9.04124E-05-1.13651E-16
 -1      2129 3.26084E-04-1.03989E-04-1.10006E-16
 -1      2130 4.41860E-04-1.47186E-04-1.59717E-16
 -1      2131 4.36935E-04-1.11163E-04-1.69759E-16
 -1      2132 8.39808E-03 1.12350E-03-2.59515E-14
 -1      2133 8.55993E-03 1.06512E-03-2.65077E-14
 -1      2134 8.06251E-03 1.14985E-03-2.47864E-14
 -1      2135 8.21077E-03 1.15359E-03-2.53068E-14
 -1      2136 7.73834E-03 1.05400E-03-2.36680E-14
 -1      2137 7.89627E-03 1.11748E-03-2.42245E-14
 -1      2138 7.99031E-03 1.14649E-03-2.44506E-14
 -1      2139 7.30643E-03 8.21844E-04-2.24816E-14
 -1      2140 7.50502E-03 9.38486E-04-2.29783E-14
 -1      2141 6.85760E-03 5.75667E-04-2.16489E-14
 -1      2142 7.06171E-03 6.87844E-04-2.20095E-14
 -1      2143 6.45093E-03 3.68354E-04-2.09557E-14
 -1      2144 6.63377E-03 4.51976E-04-2.12029E-14
 -1      2145 6.12737E-03 2.42761E-04-2.05938E-14
 -1      2146 6.27318E-03 3.02512E-04-2.08075E-14
 -1      2147 5.90169E-03 1.57769E-04-2.02991E-14
 -1      2148 5.98694E-03 1.85507E-04-2.03747E-14
 -1      2149 5.83431E-03 1.14444E-04-2.02126E-14
 -1      2150 5.84972E-03 1.32278E-04-2.02548E-14
 -1      2151 5.86982E-03 1.34031E-04-1.99293E-14
 -1      2152 5.93999E-03 6.27713E-05-2.03541E-14
 -1      2153 5.86680E-03 8.74639E-05-2.02635E-14
 -1      2154 6.21992E-03-4.42679E-05-2.08397E-14
 -1      2155 6.07745E-03 1.24125E-05-2.05780E-14
 -1      2156 6.55532E-03-1.93534E-04-2.14019E-14
 -1      2157 6.38584E-03-1.16770E-04-2.11260E-14
 -1      2158 6.95230E-03-3.87042E-04-2.20845E-14
 -1      2159 6.75652E-03-2.87221E-04-2.17297E-14
 -1      2160 7.37223E-03-6.10980E-04-2.30999E-14
 -1      2161 7.19147E-03-5.13440E-04-2.26235E-14
 -1      2162 7.72464E-03-7.57159E-04-2.41203E-14
 -1      2163 7.55903E-03-6.95045E-04-2.36274E-14
 -1      2164 8.07381E-03-8.06750E-04-2.52724E-14
 -1      2165 7.92184E-03-8.00802E-04-2.47429E-14
 -1      2166 8.40520E-03-7.30961E-04-2.63647E-14
 -1      2167 8.25176E-03-7.79508E-04-2.58598E-14
 -1      2168 8.74513E-03-5.67108E-04-2.74460E-14
 -1      2169 8.57655E-03-6.59893E-04-2.69028E-14
 -1      2170 8.46590E-03-7.03386E-04-2.67183E-14
 -1      2171 9.21219E-03-3.12179E-04-2.85644E-14
 -1      2172 9.00348E-03-4.22638E-04-2.81515E-14
 -1      2173 9.62122E-03-9.58048E-05-2.94585E-14
 -1      2174 9.42004E-03-2.02266E-04-2.90110E-14
 -1      2175 9.30241E-03-2.32755E-04-2.91254E-14
 -1      2176 1.00336E-02 6.85705E-05-3.00591E-14
 -1      2177 9.85989E-03 5.08420E-06-2.98300E-14
 -1      2178 1.02937E-02 1.62916E-04-3.04900E-14
 -1      2179 1.01983E-02 1.31788E-04-3.03497E-14
 -1      2180 1.03307E-02 1.87866E-04-3.10557E-14
 -1      2181 8.77909E-03 9.67053E-04-2.71499E-14
 -1      2182 8.96414E-03 8.67269E-04-2.76542E-14
 -1      2183 9.48984E-03 5.59540E-04-2.92896E-14
 -1      2184 5.95207E-04-3.03089E-04-1.66195E-16
 -1      2185 9.05065E-03 8.03677E-04-2.81668E-14
 -1      2186 8.65470E-03 1.02258E-03-2.69498E-14
 -1      2187 6.52718E-04-2.96885E-04-2.23834E-16
 -1      2188 1.01805E-02 2.67560E-04-3.06311E-14
 -1      2189 1.03470E-02 2.14379E-04-3.10623E-14
 -1      2190 1.46118E-02 9.12615E-05-6.84738E-14
 -1      2191 9.89313E-03 3.72391E-04-3.00896E-14
 -1      2192 9.73253E-03-2.27617E-05-2.99492E-14
 -1      2193 9.61662E-03-5.97632E-05-3.00670E-14
 -1      2194 9.83731E-03 3.33478E-05-3.04446E-14
 -1      2195 8.85873E-03-4.89272E-04-2.79655E-14
 -1      2196 8.73867E-03-5.52643E-04-2.77779E-14
 -1      2197 8.97058E-03-4.11650E-04-2.84888E-14
 -1      2198 8.15376E-03-8.04915E-04-2.55915E-14
 -1      2199 7.83176E-03-7.90237E-04-2.43826E-14
 -1      2200 7.48274E-03-6.56418E-04-2.32366E-14
 -1      2201 7.09043E-03-4.43272E-04-2.21755E-14
 -1      2202 6.98934E-03-3.78137E-04-2.17316E-14
 -1      2203 7.20249E-03-5.00536E-04-2.22645E-14
 -1      2204 6.67059E-03-2.22812E-04-2.13166E-14
 -1      2205 6.31324E-03-6.23885E-05-2.07083E-14
 -1      2206 5.83918E-03 1.02936E-04-1.99344E-14
 -1      2207 6.05529E-03 1.94006E-04-2.01897E-14
 -1      2208 6.37099E-03 3.09397E-04-2.05525E-14
 -1      2209 6.74988E-03 4.89288E-04-2.11366E-14
 -1      2210 7.63718E-03 1.00258E-03-2.31994E-14
 -1      2211 8.29960E-03 1.15209E-03-2.56582E-14
 -1      2212 7.20062E-03 7.46921E-04-2.20468E-14
 -1      2213 6.00321E-03 5.04139E-05-2.02035E-14
 -1      2214 5.94145E-03 7.13225E-05-1.98336E-14
 -1      2215 6.07340E-03 3.43398E-05-2.00523E-14
 -1      2216 1.01296E-02 1.24519E-04-3.06187E-14
 -1      2217 1.01537E-03 3.85527E-04-4.25292E-16
 -1      2218 8.70765E-04 3.50232E-04-3.12657E-16
 -1      2219 5.43068E-04-5.41596E-05-2.51562E-16
 -1      2220 5.45477E-04-7.12310E-05-2.50898E-16
 -1      2221 5.47582E-04-8.92920E-05-2.49299E-16
 -1      2222 5.49346E-04-1.07833E-04-2.46764E-16
 -1      2223 6.62313E-04-9.49254E-05-3.38068E-16
 -1      2224 5.32342E-04 5.35308E-06-2.48811E-16
 -1      2225 5.34206E-04-8.22113E-06-2.50139E-16
 -1      2226 5.32447E-04 3.21874E-05-2.44786E-16
 -1      2227 5.31650E-04 1.85473E-05-2.46995E-16
 -1      2228 6.42142E-04 1.36757E-05-3.35411E-16
 -1      2229 5.37420E-04 6.15298E-05-2.39256E-16
 -1      2230 5.34566E-04 4.63527E-05-2.42401E-16
 -1      2231 6.44640E-04 4.56055E-05-3.30018E-16
 -1      2232 5.44929E-04 9.60426E-05-2.30935E-16
 -1      2233 5.41026E-04 7.82099E-05-2.35502E-16
 -1      2234 6.52731E-04 8.23307E-05-3.22279E-16
 -1      2235 5.54047E-04 1.35862E-04-2.17884E-16
 -1      2236 5.49275E-04 1.15291E-04-2.25013E-16
 -1      2237 6.63052E-04 1.24991E-04-3.10258E-16
 -1      2238 5.66360E-04 1.82465E-04-1.98517E-16
 -1      2239 5.59687E-04 1.58231E-04-2.09346E-16
 -1      2240 6.75303E-04 1.73577E-04-2.92287E-16
 -1      2241 1.30142E-03 4.41230E-04-7.08120E-16
 -1      2242 1.15877E-03 4.15767E-04-5.56968E-16
 -1      2243 1.07070E-03 3.66325E-04-5.16568E-16
 -1      2244 9.05054E-04-3.47669E-04-4.27257E-16
 -1      2245 1.04985E-03-3.78615E-04-5.59909E-16
 -1      2246 8.94345E-03 8.64092E-04-2.81149E-14
 -1      2247 9.12325E-03 7.55374E-04-2.86885E-14
 -1      2248 1.19511E-03-4.03465E-04-7.11060E-16
 -1      2249 1.34139E-03-4.23199E-04-8.80928E-16
 -1      2250 1.10911E-03-3.55170E-04-6.54574E-16
 -1      2251 1.48759E-03-4.44843E-04-1.07030E-15
 -1      2252 1.62221E-03-4.49808E-04-1.28158E-15
 -1      2253 1.39942E-03-3.96189E-04-9.99458E-16
 -1      2254 1.75903E-03-4.56784E-04-1.51039E-15
 -1      2255 1.89783E-03-4.65866E-04-1.75757E-15
 -1      2256 1.68346E-03-4.22366E-04-1.42135E-15
 -1      2257 2.03872E-03-4.75585E-04-2.02360E-15
 -1      2258 2.18040E-03-4.85002E-04-2.30840E-15
 -1      2259 1.96235E-03-4.37046E-04-1.91790E-15
 -1      2260 2.32268E-03-4.93096E-04-2.61157E-15
 -1      2261 2.46550E-03-4.99458E-04-2.93275E-15
 -1      2262 2.24539E-03-4.54374E-04-2.48894E-15
 -1      2263 2.60855E-03-5.03865E-04-3.27214E-15
 -1      2264 2.75215E-03-5.06247E-04-3.62979E-15
 -1      2265 2.53063E-03-4.66608E-04-3.13309E-15
 -1      2266 2.89608E-03-5.06645E-04-4.00419E-15
 -1      2267 3.04056E-03-5.05315E-04-4.39588E-15
 -1      2268 2.81757E-03-4.70977E-04-3.84866E-15
 -1      2269 3.18540E-03-5.02501E-04-4.80403E-15
 -1      2270 3.33074E-03-4.98547E-04-5.22901E-15
 -1      2271 3.10640E-03-4.67957E-04-4.63242E-15
 -1      2272 3.47650E-03-4.93796E-04-5.67030E-15
 -1      2273 3.62303E-03-4.88620E-04-6.12852E-15
 -1      2274 3.39693E-03-4.59773E-04-5.48281E-15
 -1      2275 3.77007E-03-4.83643E-04-6.60371E-15
 -1      2276 3.91600E-03-4.79312E-04-7.09422E-15
 -1      2277 3.68911E-03-4.49250E-04-6.39939E-15
 -1      2278 4.06258E-03-4.75058E-04-7.59990E-15
 -1      2279 4.20990E-03-4.71039E-04-8.12311E-15
 -1      2280 3.98112E-03-4.39828E-04-7.38087E-15
 -1      2281 4.35798E-03-4.67484E-04-8.66210E-15
 -1      2282 4.50694E-03-4.64602E-04-9.21528E-15
 -1      2283 4.27376E-03-4.31465E-04-8.42527E-15
 -1      2284 4.65680E-03-4.62695E-04-9.78368E-15
 -1      2285 4.80766E-03-4.62041E-04-1.03678E-14
 -1      2286 4.56906E-03-4.25174E-04-9.53167E-15
 -1      2287 4.95962E-03-4.63021E-04-1.09673E-14
 -1      2288 5.11271E-03-4.65999E-04-1.15808E-14
 -1      2289 4.86771E-03-4.23034E-04-1.06991E-14
 -1      2290 5.26711E-03-4.71427E-04-1.22091E-14
 -1      2291 5.42277E-03-4.79760E-04-1.28520E-14
 -1      2292 5.17059E-03-4.27742E-04-1.19259E-14
 -1      2293 5.57998E-03-4.91469E-04-1.35106E-14
 -1      2294 5.73851E-03-5.07081E-04-1.41832E-14
 -1      2295 5.47886E-03-4.42655E-04-1.32109E-14
 -1      2296 5.89879E-03-5.26980E-04-1.48698E-14
 -1      2297 6.06031E-03-5.51656E-04-1.55723E-14
 -1      2298 5.79378E-03-4.71664E-04-1.45558E-14
 -1      2299 6.22356E-03-5.81236E-04-1.62889E-14
 -1      2300 6.38768E-03-6.15930E-04-1.70204E-14
 -1      2301 6.11643E-03-5.18687E-04-1.59584E-14
 -1      2302 6.55311E-03-6.55356E-04-1.77680E-14
 -1      2303 6.71859E-03-6.99018E-04-1.85274E-14
 -1      2304 6.44681E-03-5.86459E-04-1.74211E-14
 -1      2305 6.88431E-03-7.45779E-04-1.93012E-14
 -1      2306 7.04890E-03-7.93848E-04-2.00872E-14
 -1      2307 6.78273E-03-6.74169E-04-1.89400E-14
 -1      2308 7.21215E-03-8.41187E-04-2.08862E-14
 -1      2309 7.37330E-03-8.84791E-04-2.16973E-14
 -1      2310 7.11892E-03-7.73670E-04-2.05111E-14
 -1      2311 7.53174E-03-9.22104E-04-2.25207E-14
 -1      2312 7.68818E-03-9.49372E-04-2.33569E-14
 -1      2313 7.44850E-03-8.66800E-04-2.21330E-14
 -1      2314 7.84193E-03-9.64555E-04-2.42037E-14
 -1      2315 7.99542E-03-9.65457E-04-2.50627E-14
 -1      2316 7.76726E-03-9.26896E-04-2.38023E-14
 -1      2317 8.14795E-03-9.51459E-04-2.59326E-14
 -1      2318 8.30243E-03-9.23446E-04-2.68135E-14
 -1      2319 8.07880E-03-9.30078E-04-2.55168E-14
 -1      2320 8.45812E-03-8.82769E-04-2.77074E-14
 -1      2321 8.61676E-03-8.32439E-04-2.86129E-14
 -1      2322 8.39274E-03-8.70326E-04-2.72792E-14
 -1      2323 8.77765E-03-7.74970E-04-2.95309E-14
 -1      2324 8.94072E-03-7.13947E-04-3.04606E-14
 -1      2325 8.71666E-03-7.63513E-04-2.90907E-14
 -1      2326 9.10554E-03-6.51756E-04-3.13993E-14
 -1      2327 9.27093E-03-5.90901E-04-3.23481E-14
 -1      2328 9.05021E-03-6.36524E-04-3.09482E-14
 -1      2329 9.43688E-03-5.33001E-04-3.33067E-14
 -1      2330 9.60204E-03-4.79161E-04-3.42754E-14
 -1      2331 9.38720E-03-5.12907E-04-3.28465E-14
 -1      2332 9.76672E-03-4.30130E-04-3.52521E-14
 -1      2333 9.92984E-03-3.86028E-04-3.62339E-14
 -1      2334 9.72114E-03-4.05948E-04-3.47819E-14
 -1      2335 1.00919E-02-3.46955E-04-3.72223E-14
 -1      2336 1.02522E-02-3.12531E-04-3.82166E-14
 -1      2337 1.00482E-02-3.19825E-04-3.67478E-14
 -1      2338 1.04112E-02-2.82481E-04-3.92156E-14
 -1      2339 1.05686E-02-2.56279E-04-4.02200E-14
 -1      2340 1.03674E-02-2.53323E-04-3.87372E-14
 -1      2341 1.07247E-02-2.33485E-04-4.12275E-14
 -1      2342 1.08795E-02-2.13601E-04-4.22387E-14
 -1      2343 1.06794E-02-2.02939E-04-4.07452E-14
 -1      2344 1.10330E-02-1.96161E-04-4.32544E-14
 -1      2345 1.11854E-02-1.80759E-04-4.42735E-14
 -1      2346 1.09855E-02-1.64684E-04-4.27705E-14
 -1      2347 1.13368E-02-1.66979E-04-4.52941E-14
 -1      2348 1.14873E-02-1.54511E-04-4.63161E-14
 -1      2349 1.12868E-02-1.34918E-04-4.48090E-14
 -1      2350 1.16369E-02-1.43024E-04-4.73375E-14
 -1      2351 1.17857E-02-1.32293E-04-4.83602E-14
 -1      2352 1.15846E-02-1.10652E-04-4.68536E-14
 -1      2353 1.19339E-02-1.22075E-04-4.93869E-14
 -1      2354 1.20814E-02-1.12211E-04-5.04155E-14
 -1      2355 1.18795E-02-8.96030E-05-4.89036E-14
 -1      2356 1.22282E-02-1.02534E-04-5.14422E-14
 -1      2357 1.23747E-02-9.29376E-05-5.24694E-14
 -1      2358 1.21723E-02-7.01164E-05-5.09602E-14
 -1      2359 1.25206E-02-8.33169E-05-5.35004E-14
 -1      2360 1.26661E-02-7.36011E-05-5.45332E-14
 -1      2361 1.24633E-02-5.10592E-05-5.30211E-14
 -1      2362 1.28112E-02-6.37317E-05-5.55658E-14
 -1      2363 1.29560E-02-5.36642E-05-5.65995E-14
 -1      2364 1.27531E-02-3.16989E-05-5.50858E-14
 -1      2365 1.31005E-02-4.33719E-05-5.76331E-14
 -1      2366 1.32448E-02-3.28285E-05-5.86694E-14
 -1      2367 1.30417E-02-1.15984E-05-5.71542E-14
 -1      2368 1.33888E-02-2.20283E-05-5.97061E-14
 -1      2369 1.35326E-02-1.09569E-05-6.07396E-14
 -1      2370 1.33296E-02 9.47310E-06-5.92254E-14
 -1      2371 1.36762E-02 3.78157E-07-6.17726E-14
 -1      2372 1.38197E-02 1.19840E-05-6.28047E-14
 -1      2373 1.36167E-02 3.16081E-05-6.12984E-14
 -1      2374 1.39631E-02 2.38443E-05-6.38363E-14
 -1      2375 1.41063E-02 3.59604E-05-6.48653E-14
 -1      2376 1.39034E-02 5.48117E-05-6.33656E-14
 -1      2377 1.86624E-03 5.08621E-04-1.50733E-15
 -1      2378 1.72556E-03 4.96267E-04-1.27826E-15
 -1      2379 2.14738E-03 5.26209E-04-2.02442E-15
 -1      2380 2.00681E-03 5.18561E-04-1.75627E-15
 -1      2381 1.92583E-03 4.77828E-04-1.67128E-15
 -1      2382 2.42901E-03 5.35731E-04-2.61735E-15
 -1      2383 2.28809E-03 5.31880E-04-2.31122E-15
 -1      2384 2.20892E-03 4.93074E-04-2.21047E-15
 -1      2385 2.71181E-03 5.38884E-04-3.28643E-15
 -1      2386 2.57023E-03 5.38012E-04-2.94290E-15
 -1      2387 2.49236E-03 5.00643E-04-2.82502E-15
 -1      2388 2.99627E-03 5.37126E-04-4.03025E-15
 -1      2389 2.85380E-03 5.38539E-04-3.64888E-15
 -1      2390 2.77669E-03 5.02228E-04-3.51441E-15
 -1      2391 3.28284E-03 5.31689E-04-4.84386E-15
 -1      2392 3.13926E-03 5.34797E-04-4.42855E-15
 -1      2393 3.06229E-03 4.99230E-04-4.27693E-15
 -1      2394 3.57190E-03 5.23716E-04-5.72536E-15
 -1      2395 3.42702E-03 5.27949E-04-5.27585E-15
 -1      2396 3.34948E-03 4.92874E-04-5.10837E-15
 -1      2397 3.86399E-03 5.14302E-04-6.67282E-15
 -1      2398 3.71753E-03 5.19132E-04-6.19124E-15
 -1      2399 3.63860E-03 4.84265E-04-6.00667E-15
 -1      2400 4.15955E-03 5.04488E-04-7.68507E-15
 -1      2401 4.01127E-03 5.09364E-04-7.17045E-15
 -1      2402 3.93003E-03 4.74395E-04-6.97073E-15
 -1      2403 4.45917E-03 4.95736E-04-8.76336E-15
 -1      2404 4.30878E-03 4.99871E-04-8.21612E-15
 -1      2405 4.22418E-03 4.64360E-04-7.99999E-15
 -1      2406 4.76354E-03 4.90115E-04-9.90393E-15
 -1      2407 4.61068E-03 4.92383E-04-9.32539E-15
 -1      2408 4.52157E-03 4.55688E-04-9.09304E-15
 -1      2409 5.07346E-03 4.90567E-04-1.11056E-14
 -1      2410 4.91773E-03 4.89370E-04-1.04970E-14
 -1      2411 4.82282E-03 4.50537E-04-1.02485E-14
 -1      2412 5.38981E-03 5.01194E-04-1.23671E-14
 -1      2413 5.23077E-03 4.94318E-04-1.17294E-14
 -1      2414 5.12881E-03 4.51966E-04-1.14649E-14
 -1      2415 5.71359E-03 5.27437E-04-1.36877E-14
 -1      2416 5.55076E-03 5.11983E-04-1.30198E-14
 -1      2417 5.44073E-03 4.64202E-04-1.27413E-14
 -1      2418 6.04577E-03 5.75922E-04-1.50636E-14
 -1      2419 5.87871E-03 5.48446E-04-1.43684E-14
 -1      2420 5.76024E-03 4.92823E-04-1.40742E-14
 -1      2421 6.38690E-03 6.53488E-04-1.64963E-14
 -1      2422 6.21547E-03 6.10644E-04-1.57735E-14
 -1      2423 6.08943E-03 5.44668E-04-1.54632E-14
 -1      2424 6.73616E-03 7.64626E-04-1.79809E-14
 -1      2425 6.56102E-03 7.04705E-04-1.72321E-14
 -1      2426 6.43026E-03 6.26910E-04-1.69081E-14
 -1      2427 7.08980E-03 9.06760E-04-1.95213E-14
 -1      2428 6.91322E-03 8.32425E-04-1.87438E-14
 -1      2429 6.78296E-03 7.44463E-04-1.84049E-14
 -1      2430 7.43994E-03 1.06343E-03-2.11189E-14
 -1      2431 7.26606E-03 9.85178E-04-2.03121E-14
 -1      2432 7.14334E-03 8.94590E-04-1.99556E-14
 -1      2433 7.77895E-03 1.20041E-03-2.27730E-14
 -1      2434 7.61102E-03 1.13708E-03-2.19387E-14
 -1      2435 7.50143E-03 1.05750E-03-2.15625E-14
 -1      2436 8.10462E-03 1.27626E-03-2.44935E-14
 -1      2437 7.94222E-03 1.24850E-03-2.36250E-14
 -1      2438 7.84663E-03 1.19255E-03-2.32307E-14
 -1      2439 8.42703E-03 1.26521E-03-2.62745E-14
 -1      2440 8.26451E-03 1.28178E-03-2.53773E-14
 -1      2441 8.17878E-03 1.25206E-03-2.49631E-14
 -1      2442 8.75910E-03 1.17749E-03-2.81125E-14
 -1      2443 8.59081E-03 1.22859E-03-2.71867E-14
 -1      2444 8.51137E-03 1.21444E-03-2.67570E-14
 -1      2445 9.10489E-03 1.05154E-03-2.99978E-14
 -1      2446 8.93056E-03 1.11647E-03-2.90488E-14
 -1      2447 8.85757E-03 1.10358E-03-2.86047E-14
 -1      2448 9.45824E-03 9.26809E-04-3.19251E-14
 -1      2449 9.28157E-03 9.87016E-04-3.09565E-14
 -1      2450 9.21642E-03 9.67605E-04-3.04990E-14
 -1      2451 9.81031E-03 8.27979E-04-3.38899E-14
 -1      2452 9.63523E-03 8.73465E-04-3.29033E-14
 -1      2453 9.57680E-03 8.46139E-04-3.24339E-14
 -1      2454 1.01556E-02 7.62740E-04-3.58908E-14
 -1      2455 9.98429E-03 7.91199E-04-3.48867E-14
 -1      2456 9.92905E-03 7.57595E-04-3.44066E-14
 -1      2457 1.04922E-02 7.28999E-04-3.79204E-14
 -1      2458 1.03252E-02 7.42302E-04-3.69014E-14
 -1      2459 1.02694E-02 7.04121E-04-3.64116E-14
 -1      2460 1.08202E-02 7.20473E-04-3.99828E-14
 -1      2461 1.06573E-02 7.22015E-04-3.89490E-14
 -1      2462 1.05983E-02 6.80564E-04-3.84472E-14
 -1      2463 1.11404E-02 7.30258E-04-4.20725E-14
 -1      2464 1.09812E-02 7.23458E-04-4.10242E-14
 -1      2465 1.09178E-02 6.79693E-04-4.05129E-14
 -1      2466 1.14540E-02 7.52370E-04-4.41819E-14
 -1      2467 1.12979E-02 7.40074E-04-4.31228E-14
 -1      2468 1.12299E-02 6.94749E-04-4.26024E-14
 -1      2469 1.17619E-02 7.82183E-04-4.63131E-14
 -1      2470 1.16085E-02 7.66536E-04-4.52453E-14
 -1      2471 1.15364E-02 7.20259E-04-4.47152E-14
 -1      2472 1.20650E-02 8.16369E-04-4.84633E-14
 -1      2473 1.19140E-02 7.98886E-04-4.73867E-14
 -1      2474 1.18384E-02 7.52129E-04-4.68475E-14
 -1      2475 1.23643E-02 8.52656E-04-5.06292E-14
 -1      2476 1.22151E-02 8.34356E-04-4.95439E-14
 -1      2477 1.21368E-02 7.87463E-04-4.89986E-14
 -1      2478 1.26603E-02 8.89566E-04-5.28131E-14
 -1      2479 1.25126E-02 8.71102E-04-5.17200E-14
 -1      2480 1.24324E-02 8.24306E-04-5.11646E-14
 -1      2481 1.29537E-02 9.26189E-04-5.50081E-14
 -1      2482 1.28072E-02 9.07957E-04-5.39094E-14
 -1      2483 1.27256E-02 8.61399E-04-5.33457E-14
 -1      2484 1.32450E-02 9.62004E-04-5.72140E-14
 -1      2485 1.30996E-02 9.44223E-04-5.61091E-14
 -1      2486 1.30170E-02 8.97982E-04-5.55368E-14
 -1      2487 1.35347E-02 9.96747E-04-5.94312E-14
 -1      2488 1.33900E-02 9.79524E-04-5.83202E-14
 -1      2489 1.33069E-02 9.33631E-04-5.77393E-14
 -1      2490 1.38232E-02 1.03032E-03-6.16571E-14
 -1      2491 1.36791E-02 1.01369E-03-6.05452E-14
 -1      2492 1.35956E-02 9.68142E-04-5.99522E-14
 -1      2493 1.41108E-02 1.06271E-03-6.38905E-14
 -1      2494 1.39671E-02 1.04666E-03-6.27724E-14
 -1      2495 1.38834E-02 1.00146E-03-6.21744E-14
 -1      2496 1.43976E-02 1.09399E-03-6.61311E-14
 -1      2497 1.42543E-02 1.07849E-03-6.50098E-14
 -1      2498 1.41706E-02 1.03360E-03-6.44022E-14
 -1      2499 1.46840E-02 1.12425E-03-6.83690E-14
 -1      2500 1.45409E-02 1.10925E-03-6.72501E-14
 -1      2501 1.44571E-02 1.06464E-03-6.66365E-14
 -1      2502 1.48322E-02 1.14057E-03-6.95294E-14
 -1      2503 1.46480E-02 8.04031E-04-6.83474E-14
 -1      2504 1.46610E-02 8.45207E-04-6.84258E-14
 -1      2505 1.46220E-02 7.21983E-04-6.81946E-14
 -1      2506 1.46351E-02 7.62963E-04-6.82706E-14
 -1      2507 1.45183E-02 7.70992E-04-6.73610E-14
 -1      2508 1.46997E-02 9.68061E-04-6.86417E-14
 -1      2509 1.47130E-02 1.00973E-03-6.87116E-14
 -1      2510 1.46739E-02 8.86151E-04-6.84998E-14
 -1      2511 1.46867E-02 9.26865E-04-6.85693E-14
 -1      2512 1.45696E-02 9.34810E-04-6.76480E-14
 -1      2513 1.45439E-02 8.52809E-04-6.75070E-14
 -1      2514 1.45957E-02 6.40226E-04-6.80389E-14
 -1      2515 1.46089E-02 6.81080E-04-6.81174E-14
 -1      2516 1.44923E-02 6.89260E-04-6.72128E-14
 -1      2517 1.45688E-02 5.58596E-04-6.78835E-14
 -1      2518 1.45823E-02 5.99410E-04-6.79627E-14
 -1      2519 1.44659E-02 6.07803E-04-6.70642E-14
 -1      2520 1.45414E-02 4.76912E-04-6.77244E-14
 -1      2521 1.45552E-02 5.17775E-04-6.78039E-14
 -1      2522 1.44389E-02 5.26434E-04-6.69142E-14
 -1      2523 1.45140E-02 3.96393E-04-6.75649E-14
 -1      2524 1.45277E-02 4.36691E-04-6.76430E-14
 -1      2525 1.44115E-02 4.45645E-04-6.67610E-14
 -1      2526 1.44859E-02 3.14121E-04-6.74076E-14
 -1      2527 1.45000E-02 3.55311E-04-6.74859E-14
 -1      2528 1.43837E-02 3.64570E-04-6.66087E-14
 -1      2529 1.44579E-02 2.31385E-04-6.72578E-14
 -1      2530 1.44719E-02 2.72814E-04-6.73318E-14
 -1      2531 1.43554E-02 2.82364E-04-6.64613E-14
 -1      2532 1.44303E-02 1.48142E-04-6.71161E-14
 -1      2533 1.44440E-02 1.89824E-04-6.71835E-14
 -1      2534 1.43273E-02 1.99624E-04-6.63202E-14
 -1      2535 1.03330E-02 2.21387E-04-3.15165E-14
 -1      2536 1.03736E-02 2.11651E-04-3.16518E-14
 -1      2537 9.83753E-03 3.85958E-04-3.04660E-14
 -1      2538 9.98564E-03 3.28170E-04-3.07146E-14
 -1      2539 1.58463E-03 4.81076E-04-1.06902E-15
 -1      2540 1.44329E-03 4.62947E-04-8.78841E-16
 -1      2541 1.64229E-03 4.53080E-04-1.20909E-15
 -1      2542 8.57191E-03 1.06984E-03-2.68124E-14
 -1      2543 8.74973E-03 9.73991E-04-2.74609E-14
 -1      2544 8.84813E-03 9.29464E-04-2.79767E-14
 -1      2545 1.44843E-02 8.13631E-05-6.75575E-14
 -1      2546 1.01251E-02 2.78919E-04-3.10118E-14
 -1      2547 1.02411E-02 2.46954E-04-3.13085E-14
 -1      2548 1.00813E-02 3.00368E-04-3.13903E-14
 -1      2549 1.03602E-02 1.97914E-04-3.16686E-14
 -1      2550 1.03090E-02 1.87564E-04-3.15242E-14
 -1      2551 8.22939E-03-7.93328E-04-2.59601E-14
 -1      2552 8.08942E-03-8.20721E-04-2.53723E-14
 -1      2553 5.99477E-03 1.61637E-04-1.96826E-14
 -1      2554 6.12933E-03 2.02227E-04-1.98977E-14
 -1      2555 5.37111E-04-2.26080E-05-2.51101E-16
 -1      2556 5.40205E-04-3.78869E-05-2.51725E-16
 -1      2557 6.55869E-04-5.43384E-05-3.40277E-16
 -1      2558 6.47401E-04-1.81487E-05-3.39193E-16
 -1      2559 8.22404E-03 1.17323E-03-2.53623E-14
 -1      2560 8.37229E-03 1.14468E-03-2.60093E-14
 -1      2561 7.08046E-03 6.61670E-04-2.15130E-14
 -1      2562 7.28873E-03 7.92174E-04-2.19767E-14
 -1      2563 7.93905E-03 1.13808E-03-2.41559E-14
 -1      2564 8.07047E-03 1.16906E-03-2.47174E-14
 -1      2565 7.54784E-03 9.49849E-04-2.26851E-14
 -1      2566 7.74241E-03 1.05953E-03-2.33702E-14
 -1      2567 6.67151E-03 4.31825E-04-2.06228E-14
 -1      2568 6.87612E-03 5.42752E-04-2.10607E-14
 -1      2569 6.26642E-03 2.51153E-04-2.00388E-14
 -1      2570 6.41871E-03 3.11579E-04-2.01802E-14
 -1      2571 6.17189E-03 2.14367E-04-1.95296E-14
 -1      2572 5.83537E-03 1.19177E-04-1.94367E-14
 -1      2573 5.88394E-03 1.29250E-04-1.94802E-14
 -1      2574 1.02009E-02 1.58127E-04-3.12766E-14
 -1      2575 1.00479E-02 1.14089E-04-3.09786E-14
 -1      2576 5.84469E-03 9.78924E-05-1.95315E-14
 -1      2577 5.81779E-03 1.07093E-04-1.94833E-14
 -1      2578 5.80563E-03 1.08775E-04-1.90363E-14
 -1      2579 6.39984E-03-8.50807E-05-2.05160E-14
 -1      2580 6.24413E-03-2.43560E-05-2.02363E-14
 -1      2581 6.74868E-03-2.49541E-04-2.11597E-14
 -1      2582 6.57005E-03-1.61318E-04-2.08378E-14
 -1      2583 6.47303E-03-1.19096E-04-2.03617E-14
 -1      2584 7.57423E-03-7.02995E-04-2.33522E-14
 -1      2585 7.41951E-03-6.21498E-04-2.28288E-14
 -1      2586 7.89973E-03-8.13992E-04-2.45829E-14
 -1      2587 7.74396E-03-7.70808E-04-2.39639E-14
 -1      2588 7.65813E-03-7.45645E-04-2.35484E-14
 -1      2589 8.50630E-03-6.79790E-04-2.70360E-14
 -1      2590 8.36621E-03-7.47489E-04-2.64964E-14
 -1      2591 8.28787E-03-7.77946E-04-2.62724E-14
 -1      2592 9.38277E-03-1.71384E-04-2.97767E-14
 -1      2593 9.20137E-03-2.72739E-04-2.93233E-14
 -1      2594 5.80457E-04-2.41209E-04-2.07083E-16
 -1      2595 7.71670E-04-3.07534E-04-3.27090E-16
 -1      2596 8.32427E-04-2.93812E-04-3.99190E-16
 -1      2597 5.72398E-04-2.12592E-04-2.19985E-16
 -1      2598 7.56452E-04 3.22199E-04-2.32507E-16
 -1      2599 6.10106E-04 2.74574E-04-1.54146E-16
 -1      2600 5.83406E-04 2.47831E-04-1.58795E-16
 -1      2601 8.12318E-04 3.09847E-04-3.00853E-16
 -1      2602 9.37634E-03 6.12164E-04-2.93868E-14
 -1      2603 9.60600E-03 4.91798E-04-2.99435E-14
 -1      2604 8.48131E-03 1.11562E-03-2.65115E-14
 -1      2605 6.66728E-04-1.38484E-04-3.31468E-16
 -1      2606 5.51182E-04-1.27136E-04-2.43092E-16
 -1      2607 5.53624E-04-1.47409E-04-2.38050E-16
 -1      2608 1.35743E-03 4.16838E-04-8.24482E-16
 -1      2609 5.70722E-04 2.17238E-04-1.75858E-16
 -1      2610 9.26699E-03 6.82560E-04-2.93343E-14
 -1      2611 5.66244E-04-1.86982E-04-2.29919E-16
 -1      2612 7.98819E-03-8.28956E-04-2.49448E-14
 -1      2613 7.89714E-03-8.23020E-04-2.45196E-14
 -1      2614 8.06472E-03-8.30066E-04-2.53073E-14
 -1      2615 6.86694E-03-3.11054E-04-2.12469E-14
 -1      2616 6.74737E-03-2.55890E-04-2.07663E-14
 -1      2617 6.96881E-03-3.74581E-04-2.13328E-14
 -1      2618 1.03068E-02 2.35263E-04-3.18988E-14
 -1      2619 5.87291E-03 8.73525E-05-1.93825E-14
 -1      2620 5.82061E-03 9.18952E-05-1.89337E-14
 -1      2621 5.91151E-03 7.49999E-05-1.92315E-14
 -1      2622 1.47484E-02 1.09620E-03-6.89113E-14
 -1      2623 9.73142E-03 4.40567E-04-3.05644E-14
 -1      2624 1.47219E-02 1.06163E-03-6.87333E-14
 -1      2625 1.02618E-02 1.76541E-04-3.18859E-14
 -1      2626 1.03879E-02 2.08163E-04-3.21233E-14
 -1      2627 9.95357E-03 8.52826E-05-3.10962E-14
 -1      2628 9.86142E-03 4.94872E-05-3.12121E-14
 -1      2629 1.00582E-02 1.17817E-04-3.17532E-14
 -1      2630 6.87737E-04 2.38759E-04-2.54516E-16
 -1      2631 9.08070E-03-3.45172E-04-2.91317E-14
 -1      2632 9.51039E-03-1.08112E-04-3.02674E-14
 -1      2633 6.53590E-03 3.63573E-04-2.01048E-14
 -1      2634 6.63738E-03 4.21623E-04-2.00264E-14
 -1      2635 6.40813E-03 3.13185E-04-1.95924E-14
 -1      2636 5.92587E-03 1.39751E-04-1.91906E-14
 -1      2637 7.41800E-03 8.75922E-04-2.21412E-14
 -1      2638 7.51735E-03 9.48902E-04-2.23042E-14
 -1      2639 7.28807E-03 8.01582E-04-2.16028E-14
 -1      2640 7.83115E-03 1.10376E-03-2.36287E-14
 -1      2641 7.30962E-03-5.63567E-04-2.23791E-14
 -1      2642 7.20030E-03-5.07034E-04-2.19322E-14
 -1      2643 7.39018E-03-6.20431E-04-2.24905E-14
 -1      2644 1.43305E-02 5.29859E-05-6.64697E-14
 -1      2645 1.43934E-02 1.09923E-04-6.68799E-14
 -1      2646 1.42764E-02 1.19931E-04-6.60168E-14
 -1      2647 1.42028E-02 4.34521E-05-6.55570E-14
 -1      2648 6.97177E-03 5.99461E-04-2.09910E-14
 -1      2649 8.15830E-03 1.18053E-03-2.50604E-14
 -1      2650 6.14492E-03 1.18418E-05-1.98652E-14
 -1      2651 6.05615E-03 3.47349E-05-1.94957E-14
 -1      2652 6.20971E-03-1.74623E-05-1.96745E-14
 -1      2653 8.62190E-03-6.17424E-04-2.75507E-14
 -1      2654 8.52829E-03-6.72413E-04-2.73242E-14
 -1      2655 8.73653E-03-5.50804E-04-2.80706E-14
 -1      2656 1.45913E-02 1.02780E-03-6.77366E-14
 -1      2657 1.41431E-02 7.42147E-05-6.50912E-14
 -1      2658 7.59495E-04 6.09927E-05-4.28219E-16
 -1      2659 7.55202E-04 4.14399E-05-4.31946E-16
 -1      2660 7.52418E-04 2.32354E-05-4.35307E-16
 -1      2661 7.53232E-04 5.98690E-06-4.38384E-16
 -1      2662 8.65167E-04 3.40439E-05-5.48132E-16
 -1      2663 7.84489E-04 1.56426E-04-4.01412E-16
 -1      2664 7.77817E-04 1.30393E-04-4.10601E-16
 -1      2665 7.99982E-04 2.13193E-04-3.77831E-16
 -1      2666 7.91820E-04 1.84040E-04-3.90801E-16
 -1      2667 9.08792E-04 1.90088E-04-5.04520E-16
 -1      2668 1.12867E-03 3.46208E-04-6.11991E-16
 -1      2669 9.84755E-04 3.17862E-04-4.74447E-16
 -1      2670 9.13436E-03-3.25648E-04-2.97079E-14
 -1      2671 8.91821E-03-4.47705E-04-2.88697E-14
 -1      2672 8.01211E-04 2.64444E-04-3.36252E-16
 -1      2673 6.82518E-04-2.04782E-04-3.17427E-16
 -1      2674 1.31129E-03-3.49690E-04-9.26505E-16
 -1      2675 1.45669E-03-3.67274E-04-1.12006E-15
 -1      2676 1.60702E-03-3.89399E-04-1.33406E-15
 -1      2677 1.74480E-03-3.92846E-04-1.56422E-15
 -1      2678 1.51140E-03-3.35382E-04-1.24306E-15
 -1      2679 1.88494E-03-3.98920E-04-1.81250E-15
 -1      2680 2.02568E-03-4.07582E-04-2.07983E-15
 -1      2681 1.80556E-03-3.61887E-04-1.70725E-15
 -1      2682 2.16752E-03-4.16000E-04-2.36638E-15
 -1      2683 2.30980E-03-4.23633E-04-2.67097E-15
 -1      2684 2.08816E-03-3.77392E-04-2.24368E-15
 -1      2685 2.45221E-03-4.29764E-04-2.99366E-15
 -1      2686 2.59516E-03-4.33852E-04-3.33479E-15
 -1      2687 2.37337E-03-3.92828E-04-2.85458E-15
 -1      2688 2.73852E-03-4.35633E-04-3.69306E-15
 -1      2689 2.88248E-03-4.35516E-04-4.06855E-15
 -1      2690 2.65904E-03-4.00688E-04-3.53753E-15
 -1      2691 3.02683E-03-4.33707E-04-4.46092E-15
 -1      2692 3.17175E-03-4.30457E-04-4.86950E-15
 -1      2693 2.94685E-03-3.99693E-04-4.28963E-15
 -1      2694 3.31703E-03-4.26026E-04-5.29556E-15
 -1      2695 3.46263E-03-4.20866E-04-5.73764E-15
 -1      2696 3.23690E-03-3.92533E-04-5.10853E-15
 -1      2697 3.60886E-03-4.15296E-04-6.19607E-15
 -1      2698 3.75523E-03-4.09745E-04-6.67148E-15
 -1      2699 3.52863E-03-3.81671E-04-5.99374E-15
 -1      2700 3.89972E-03-4.05233E-04-7.16239E-15
 -1      2701 4.04458E-03-4.00709E-04-7.66824E-15
 -1      2702 3.81859E-03-3.71152E-04-6.94362E-15
 -1      2703 4.18983E-03-3.96356E-04-8.18985E-15
 -1      2704 4.33557E-03-3.92332E-04-8.72833E-15
 -1      2705 4.10643E-03-3.62032E-04-7.95638E-15
 -1      2706 4.48184E-03-3.88869E-04-9.28143E-15
 -1      2707 4.62877E-03-3.86188E-04-9.84906E-15
 -1      2708 4.39539E-03-3.53681E-04-9.03101E-15
 -1      2709 4.77646E-03-3.84577E-04-1.04325E-14
 -1      2710 4.92504E-03-3.84353E-04-1.10312E-14
 -1      2711 4.68614E-03-3.47631E-04-1.01675E-14
 -1      2712 5.07471E-03-3.85855E-04-1.16441E-14
 -1      2713 5.22560E-03-3.89531E-04-1.22710E-14
 -1      2714 4.97976E-03-3.45911E-04-1.13628E-14
 -1      2715 5.37802E-03-3.95753E-04-1.29137E-14
 -1      2716 5.53209E-03-4.05133E-04-1.35713E-14
 -1      2717 5.27782E-03-3.51193E-04-1.26180E-14
 -1      2718 5.68826E-03-4.18022E-04-1.42420E-14
 -1      2719 5.84650E-03-4.35214E-04-1.49289E-14
 -1      2720 5.58256E-03-3.66930E-04-1.39311E-14
 -1      2721 6.00745E-03-4.56968E-04-1.56298E-14
 -1      2722 6.17071E-03-4.84110E-04-1.63448E-14
 -1      2723 5.89680E-03-3.97468E-04-1.53021E-14
 -1      2724 6.33699E-03-5.16681E-04-1.70764E-14
 -1      2725 6.50529E-03-5.55195E-04-1.78222E-14
 -1      2726 6.22328E-03-4.47836E-04-1.67335E-14
 -1      2727 6.67610E-03-5.99229E-04-1.85798E-14
 -1      2728 6.84773E-03-6.48162E-04-1.93516E-14
 -1      2729 6.56309E-03-5.22610E-04-1.82214E-14
 -1      2730 7.02023E-03-7.00661E-04-2.01374E-14
 -1      2731 7.19139E-03-7.53925E-04-2.09350E-14
 -1      2732 6.91329E-03-6.22426E-04-1.97639E-14
 -1      2733 7.36056E-03-8.05715E-04-2.17452E-14
 -1      2734 7.52682E-03-8.50769E-04-2.25671E-14
 -1      2735 7.26484E-03-7.36462E-04-2.13588E-14
 -1      2736 7.68914E-03-8.86115E-04-2.34022E-14
 -1      2737 7.84938E-03-9.06230E-04-2.42470E-14
 -1      2738 7.60596E-03-8.38252E-04-2.30020E-14
 -1      2739 8.00693E-03-9.09157E-04-2.51033E-14
 -1      2740 8.16548E-03-8.93545E-04-2.59721E-14
 -1      2741 7.93278E-03-8.85581E-04-2.46913E-14
 -1      2742 8.32396E-03-8.60102E-04-2.68535E-14
 -1      2743 8.48680E-03-8.12540E-04-2.77456E-14
 -1      2744 8.25492E-03-8.52249E-04-2.64277E-14
 -1      2745 8.65260E-03-7.53400E-04-2.86508E-14
 -1      2746 8.82161E-03-6.88598E-04-2.95694E-14
 -1      2747 8.58755E-03-7.46526E-04-2.82136E-14
 -1      2748 8.99305E-03-6.20862E-04-3.04989E-14
 -1      2749 9.16505E-03-5.54469E-04-3.14385E-14
 -1      2750 8.93494E-03-6.06664E-04-3.00498E-14
 -1      2751 9.33734E-03-4.91259E-04-3.23881E-14
 -1      2752 9.50782E-03-4.32820E-04-3.33460E-14
 -1      2753 9.28743E-03-4.68925E-04-3.19296E-14
 -1      2754 9.67681E-03-3.79989E-04-3.43130E-14
 -1      2755 9.84291E-03-3.32786E-04-3.52888E-14
 -1      2756 9.63366E-03-3.52424E-04-3.38468E-14
 -1      2757 1.00067E-02-2.91353E-04-3.62731E-14
 -1      2758 1.01677E-02-2.54968E-04-3.72623E-14
 -1      2759 9.96740E-03-2.61334E-04-3.57972E-14
 -1      2760 1.03263E-02-2.23462E-04-3.82578E-14
 -1      2761 1.04826E-02-1.95998E-04-3.92584E-14
 -1      2762 1.02879E-02-1.92608E-04-3.77797E-14
 -1      2763 1.06370E-02-1.72256E-04-4.02635E-14
 -1      2764 1.07896E-02-1.51535E-04-4.12729E-14
 -1      2765 1.05974E-02-1.41203E-04-3.97804E-14
 -1      2766 1.09408E-02-1.33464E-04-4.22864E-14
 -1      2767 1.10906E-02-1.17514E-04-4.33037E-14
 -1      2768 1.08988E-02-1.02353E-04-4.18015E-14
 -1      2769 1.12395E-02-1.03332E-04-4.43230E-14
 -1      2770 1.13874E-02-9.05417E-05-4.53450E-14
 -1      2771 1.11947E-02-7.21545E-05-4.38369E-14
 -1      2772 1.15346E-02-7.88396E-05-4.63684E-14
 -1      2773 1.16812E-02-6.79666E-05-4.73913E-14
 -1      2774 1.14869E-02-4.75761E-05-4.58816E-14
 -1      2775 1.18272E-02-5.76844E-05-4.84188E-14
 -1      2776 1.19728E-02-4.78191E-05-4.94482E-14
 -1      2777 1.17768E-02-2.63470E-05-4.79329E-14
 -1      2778 1.21180E-02-3.81965E-05-5.04759E-14
 -1      2779 1.22629E-02-2.87031E-05-5.15061E-14
 -1      2780 1.20653E-02-6.82304E-06-4.99897E-14
 -1      2781 1.24075E-02-1.92207E-05-5.25386E-14
 -1      2782 1.25518E-02-9.67824E-06-5.35719E-14
 -1      2783 1.23529E-02 1.21402E-05-5.20541E-14
 -1      2784 1.26960E-02-2.09857E-09-5.46067E-14
 -1      2785 1.28399E-02 9.84979E-06-5.56398E-14
 -1      2786 1.26400E-02 3.12991E-05-5.41246E-14
 -1      2787 1.29837E-02 1.99175E-05-5.66746E-14
 -1      2788 1.31274E-02 3.02238E-05-5.77111E-14
 -1      2789 1.29266E-02 5.11196E-05-5.61951E-14
 -1      2790 1.32709E-02 4.07851E-05-5.87485E-14
 -1      2791 1.34144E-02 5.16119E-05-5.97855E-14
 -1      2792 1.32130E-02 7.18583E-05-5.82695E-14
 -1      2793 1.35577E-02 6.27046E-05-6.08228E-14
 -1      2794 1.37010E-02 7.40674E-05-6.18576E-14
 -1      2795 1.34991E-02 9.36276E-05-6.03460E-14
 -1      2796 1.38441E-02 8.56904E-05-6.28927E-14
 -1      2797 1.39872E-02 9.75722E-05-6.39278E-14
 -1      2798 1.37852E-02 1.16449E-04-6.24214E-14
 -1      2799 2.27125E-03 4.59384E-04-2.39820E-15
 -1      2800 2.12896E-03 4.53952E-04-2.10873E-15
 -1      2801 6.86342E-03 5.50383E-04-2.03907E-14
 -1      2802 7.04198E-03 6.56229E-04-2.08342E-14
 -1      2803 1.98669E-03 4.46442E-04-1.83779E-15
 -1      2804 1.84430E-03 4.36703E-04-1.58525E-15
 -1      2805 2.04854E-03 4.14589E-04-2.00618E-15
 -1      2806 2.84154E-03 4.65251E-04-3.74364E-15
 -1      2807 2.69872E-03 4.65779E-04-3.37982E-15
 -1      2808 3.12784E-03 4.61172E-04-4.52439E-15
 -1      2809 2.98458E-03 4.63670E-04-4.12509E-15
 -1      2810 2.90634E-03 4.28089E-04-3.97409E-15
 -1      2811 3.41514E-03 4.54124E-04-5.37314E-15
 -1      2812 3.27134E-03 4.57975E-04-4.94029E-15
 -1      2813 3.19284E-03 4.23166E-04-4.77255E-15
 -1      2814 3.70376E-03 4.45088E-04-6.28950E-15
 -1      2815 3.55926E-03 4.49807E-04-5.82332E-15
 -1      2816 3.47977E-03 4.15636E-04-5.63990E-15
 -1      2817 3.99398E-03 4.34969E-04-7.26962E-15
 -1      2818 3.84864E-03 4.40105E-04-6.77185E-15
 -1      2819 3.76739E-03 4.06328E-04-6.57265E-15
 -1      2820 4.28612E-03 4.24923E-04-8.31522E-15
 -1      2821 4.13976E-03 4.29859E-04-7.78379E-15
 -1      2822 4.05585E-03 3.96161E-04-7.56966E-15
 -1      2823 4.58061E-03 4.16515E-04-9.42432E-15
 -1      2824 4.43301E-03 4.20405E-04-8.86208E-15
 -1      2825 4.34539E-03 3.86295E-04-8.63116E-15
 -1      2826 4.87808E-03 4.11948E-04-1.05942E-14
 -1      2827 4.72889E-03 4.13593E-04-1.00017E-14
 -1      2828 4.63637E-03 3.78301E-04-9.75545E-15
 -1      2829 5.17955E-03 4.14311E-04-1.18261E-14
 -1      2830 5.02822E-03 4.12032E-04-1.12027E-14
 -1      2831 4.92946E-03 3.74361E-04-1.09416E-14
 -1      2832 5.48660E-03 4.27848E-04-1.31162E-14
 -1      2833 5.33225E-03 4.19349E-04-1.24634E-14
 -1      2834 5.22586E-03 3.77506E-04-1.21874E-14
 -1      2835 5.80171E-03 4.58174E-04-1.44619E-14
 -1      2836 5.64301E-03 4.40443E-04-1.37824E-14
 -1      2837 5.52767E-03 3.91880E-04-1.34906E-14
 -1      2838 6.12829E-03 5.12339E-04-1.58638E-14
 -1      2839 5.96347E-03 4.81652E-04-1.51556E-14
 -1      2840 5.83828E-03 4.23056E-04-1.48498E-14
 -1      2841 6.46996E-03 5.98157E-04-1.73196E-14
 -1      2842 6.29736E-03 5.50610E-04-1.65852E-14
 -1      2843 6.16267E-03 4.78447E-04-1.62635E-14
 -1      2844 6.82827E-03 7.21632E-04-1.88259E-14
 -1      2845 6.64766E-03 6.54790E-04-1.80662E-14
 -1      2846 6.50638E-03 5.67129E-04-1.77299E-14
 -1      2847 7.19915E-03 8.80980E-04-2.03879E-14
 -1      2848 7.01365E-03 7.97612E-04-1.96004E-14
 -1      2849 6.87211E-03 6.97443E-04-1.92473E-14
 -1      2850 7.55538E-03 1.01972E-03-2.20782E-14
 -1      2851 7.36617E-03 9.28289E-04-2.12625E-14
 -1      2852 8.25850E-03 1.22913E-03-2.54320E-14
 -1      2853 8.08911E-03 1.22399E-03-2.45516E-14
 -1      2854 8.60143E-03 1.15974E-03-2.72365E-14
 -1      2855 8.42697E-03 1.20568E-03-2.63270E-14
 -1      2856 8.34239E-03 1.19837E-03-2.59007E-14
 -1      2857 8.96180E-03 1.02493E-03-2.90935E-14
 -1      2858 8.77919E-03 1.09584E-03-2.81584E-14
 -1      2859 8.70129E-03 1.09281E-03-2.77153E-14
 -1      2860 9.33297E-03 8.82455E-04-3.09985E-14
 -1      2861 9.14810E-03 9.51288E-04-3.00410E-14
 -1      2862 9.07899E-03 9.37026E-04-2.95842E-14
 -1      2863 9.69735E-03 7.68748E-04-3.29407E-14
 -1      2864 9.51719E-03 8.21115E-04-3.19646E-14
 -1      2865 9.45856E-03 7.95254E-04-3.14972E-14
 -1      2866 1.00468E-02 6.93144E-04-3.49212E-14
 -1      2867 9.87452E-03 7.26397E-04-3.39262E-14
 -1      2868 9.82257E-03 6.93596E-04-3.34487E-14
 -1      2869 1.03804E-02 6.52393E-04-3.69311E-14
 -1      2870 1.02157E-02 6.69021E-04-3.59226E-14
 -1      2871 1.01657E-02 6.32780E-04-3.54344E-14
 -1      2872 1.07010E-02 6.38895E-04-3.89718E-14
 -1      2873 1.05422E-02 6.42810E-04-3.79481E-14
 -1      2874 1.04903E-02 6.04805E-04-3.74511E-14
 -1      2875 1.10122E-02 6.45120E-04-4.10396E-14
 -1      2876 1.08576E-02 6.39999E-04-4.00020E-14
 -1      2877 1.08017E-02 6.00737E-04-3.94947E-14
 -1      2878 1.13169E-02 6.64801E-04-4.31319E-14
 -1      2879 1.11653E-02 6.53616E-04-4.20834E-14
 -1      2880 1.11046E-02 6.13284E-04-4.15650E-14
 -1      2881 1.16171E-02 6.93120E-04-4.52468E-14
 -1      2882 1.14675E-02 6.78121E-04-4.41864E-14
 -1      2883 1.14021E-02 6.36903E-04-4.36619E-14
 -1      2884 1.19139E-02 7.26557E-04-4.73825E-14
 -1      2885 1.17658E-02 7.09365E-04-4.63126E-14
 -1      2886 1.16963E-02 6.67483E-04-4.57788E-14
 -1      2887 1.22083E-02 7.62651E-04-4.95302E-14
 -1      2888 1.20613E-02 7.44384E-04-4.84538E-14
 -1      2889 1.19883E-02 7.02072E-04-4.79120E-14
 -1      2890 1.25007E-02 7.99749E-04-5.16976E-14
 -1      2891 1.23547E-02 7.81147E-04-5.06115E-14
 -1      2892 1.22789E-02 7.38616E-04-5.00614E-14
 -1      2893 1.27915E-02 8.36800E-04-5.38732E-14
 -1      2894 1.26463E-02 8.18326E-04-5.27845E-14
 -1      2895 1.25684E-02 7.75742E-04-5.22258E-14
 -1      2896 1.30811E-02 8.73174E-04-5.60629E-14
 -1      2897 1.29365E-02 8.55098E-04-5.49677E-14
 -1      2898 1.28571E-02 8.12582E-04-5.43999E-14
 -1      2899 1.33697E-02 9.08532E-04-5.82632E-14
 -1      2900 1.32255E-02 8.90994E-04-5.71625E-14
 -1      2901 1.31451E-02 8.48624E-04-5.65882E-14
 -1      2902 1.36576E-02 9.42724E-04-6.04754E-14
 -1      2903 1.35137E-02 9.25779E-04-5.93678E-14
 -1      2904 1.34325E-02 8.83602E-04-5.87871E-14
 -1      2905 1.39447E-02 9.75723E-04-6.26897E-14
 -1      2906 1.38012E-02 9.59374E-04-6.15822E-14
 -1      2907 1.37194E-02 9.17413E-04-6.09922E-14
 -1      2908 1.42314E-02 1.00757E-03-6.49147E-14
 -1      2909 1.40881E-02 9.91787E-04-6.38001E-14
 -1      2910 1.40060E-02 9.50054E-04-6.32030E-14
 -1      2911 1.44830E-02 1.02551E-03-6.68821E-14
 -1      2912 1.43399E-02 1.01020E-03-6.57696E-14
 -1      2913 1.42577E-02 9.68705E-04-6.51638E-14
 -1      2914 1.44744E-02 9.73738E-04-6.68665E-14
 -1      2915 9.65087E-03 4.93055E-04-3.07392E-14
 -1      2916 9.85700E-03 3.98757E-04-3.12682E-14
 -1      2917 1.43362E-02 5.75502E-04-6.60902E-14
 -1      2918 1.43495E-02 6.16041E-04-6.61632E-14
 -1      2919 1.40837E-02 1.04917E-04-6.46279E-14
 -1      2920 1.41801E-02 1.12374E-04-6.53236E-14
 -1      2921 1.40245E-02 1.35531E-04-6.41600E-14
 -1      2922 1.43886E-02 7.37977E-04-6.63786E-14
 -1      2923 1.44014E-02 7.78818E-04-6.64495E-14
 -1      2924 1.43090E-02 4.94432E-04-6.59457E-14
 -1      2925 1.43227E-02 5.34979E-04-6.60187E-14
 -1      2926 1.42066E-02 5.43367E-04-6.51221E-14
 -1      2927 1.43627E-02 6.56611E-04-6.62359E-14
 -1      2928 1.43757E-02 6.97251E-04-6.63065E-14
 -1      2929 1.42592E-02 7.05029E-04-6.53998E-14
 -1      2930 1.42332E-02 6.24084E-04-6.52616E-14
 -1      2931 1.42816E-02 4.14563E-04-6.57985E-14
 -1      2932 1.42954E-02 4.54534E-04-6.58727E-14
 -1      2933 1.41794E-02 4.63314E-04-6.49826E-14
 -1      2934 1.42533E-02 3.32947E-04-6.56573E-14
 -1      2935 1.42675E-02 3.73814E-04-6.57286E-14
 -1      2936 1.41516E-02 3.83003E-04-6.48448E-14
 -1      2937 1.42249E-02 2.50805E-04-6.55208E-14
 -1      2938 1.42391E-02 2.91950E-04-6.55877E-14
 -1      2939 1.41230E-02 3.01538E-04-6.47124E-14
 -1      2940 1.04114E-02 2.16345E-04-3.26727E-14
 -1      2941 1.04002E-02 2.08223E-04-3.26866E-14
 -1      2942 6.08088E-03 1.87558E-04-1.90468E-14
 -1      2943 6.19772E-03 2.28497E-04-1.91833E-14
 -1      2944 1.00456E-02 3.28213E-04-3.18356E-14
 -1      2945 1.01673E-02 2.88663E-04-3.21367E-14
 -1      2946 9.68068E-03-2.95234E-05-3.09713E-14
 -1      2947 9.48186E-03-1.32897E-04-3.06739E-14
 -1      2948 1.70176E-03 4.24415E-04-1.35238E-15
 -1      2949 1.55891E-03 4.09522E-04-1.13897E-15
 -1      2950 1.76257E-03 3.95271E-04-1.49910E-15
 -1      2951 2.55609E-03 4.65086E-04-3.03414E-15
 -1      2952 2.41360E-03 4.63032E-04-2.70705E-15
 -1      2953 2.33425E-03 4.25244E-04-2.58875E-15
 -1      2954 2.62015E-03 4.29199E-04-3.24515E-15
 -1      2955 1.02482E-03-3.09544E-04-5.97680E-16
 -1      2956 1.16792E-03-3.31533E-04-7.53331E-16
 -1      2957 1.22554E-03-3.07382E-04-8.54649E-16
 -1      2958 7.71405E-04 1.05774E-04-4.17540E-16
 -1      2959 7.65308E-04 8.26028E-05-4.23313E-16
 -1      2960 8.77827E-04 7.91779E-05-5.38808E-16
 -1      2961 8.93120E-04 1.31842E-04-5.25215E-16
 -1      2962 1.41579E-03 3.91642E-04-9.44381E-16
 -1      2963 1.27229E-03 3.70709E-04-7.68632E-16
 -1      2964 1.18828E-03 3.25036E-04-7.11955E-16
 -1      2965 1.47576E-03 3.65808E-04-1.06752E-15
 -1      2966 9.18308E-03 7.53056E-04-2.93861E-14
 -1      2967 9.40593E-03 6.24469E-04-3.00941E-14
 -1      2968 7.78659E-04-9.69974E-05-4.41812E-16
 -1      2969 7.81610E-04-1.21061E-04-4.39102E-16
 -1      2970 7.75924E-03 1.08193E-03-2.31875E-14
 -1      2971 7.93381E-03 1.15262E-03-2.39717E-14
 -1      2972 1.03254E-02 1.88510E-04-3.25382E-14
 -1      2973 1.02209E-02 1.65046E-04-3.22853E-14
 -1      2974 8.09782E-03 1.19001E-03-2.47163E-14
 -1      2975 8.22876E-03 1.19364E-03-2.53626E-14
 -1      2976 5.84999E-03 1.24091E-04-1.86501E-14
 -1      2977 5.95107E-03 1.47618E-04-1.88487E-14
 -1      2978 5.96868E-03 1.61962E-04-1.85075E-14
 -1      2979 5.77996E-03 1.00893E-04-1.86336E-14
 -1      2980 5.79086E-03 1.07236E-04-1.85883E-14
 -1      2981 1.42171E-02 1.50433E-04-6.55558E-14
 -1      2982 6.53080E-03-1.58917E-04-2.01014E-14
 -1      2983 6.38027E-03-9.31238E-05-1.97874E-14
 -1      2984 8.35331E-03-7.58132E-04-2.66495E-14
 -1      2985 8.23608E-03-8.00439E-04-2.61116E-14
 -1      2986 1.02786E-02 2.52922E-04-3.23462E-14
 -1      2987 1.03634E-02 2.33568E-04-3.25556E-14
 -1      2988 1.02575E-02 2.78901E-04-3.27945E-14
 -1      2989 7.71783E-03-7.80809E-04-2.37142E-14
 -1      2990 7.57316E-03-7.20192E-04-2.31066E-14
 -1      2991 8.78458E-03 9.85527E-04-2.78887E-14
 -1      2992 8.95238E-03 8.86636E-04-2.85485E-14
 -1      2993 8.41060E-03 1.15377E-03-2.62351E-14
 -1      2994 8.58615E-03 1.08370E-03-2.70435E-14
 -1      2995 7.83695E-04-1.45743E-04-4.34887E-16
 -1      2996 7.86113E-04-1.70878E-04-4.29154E-16
 -1      2997 9.02263E-04-1.48795E-04-5.52916E-16
 -1      2998 8.66587E-04-3.59620E-06-5.55708E-16
 -1      2999 7.57524E-04-1.12719E-05-4.40904E-16
 -1      3000 7.63236E-04-3.03935E-05-4.42626E-16
 -1      3001 9.10760E-03 8.23201E-04-2.92980E-14
 -1      3002 8.81712E-03-5.18449E-04-2.86366E-14
 -1      3003 8.62401E-04 2.51552E-04-4.08446E-16
 -1      3004 8.69976E-03 1.04799E-03-2.76073E-14
 -1      3005 8.13896E-03-8.25346E-04-2.56775E-14
 -1      3006 7.07433E-03-4.45585E-04-2.14435E-14
 -1      3007 6.94864E-03-3.89712E-04-2.09591E-14
 -1      3008 7.15867E-03-5.12361E-04-2.15527E-14
 -1      3009 8.46061E-03-7.13958E-04-2.71606E-14
 -1      3010 8.40569E-03-7.48097E-04-2.69957E-14
 -1      3011 8.56754E-03-6.62613E-04-2.76752E-14
 -1      3012 5.95539E-03 5.66851E-05-1.90468E-14
 -1      3013 5.87095E-03 6.62906E-05-1.86010E-14
 -1      3014 6.00039E-03 3.28896E-05-1.88601E-14
 -1      3015 1.42845E-02 7.86079E-04-6.55354E-14
 -1      3016 1.44141E-02 8.19440E-04-6.65188E-14
 -1      3017 1.44268E-02 8.60207E-04-6.65881E-14
 -1      3018 7.15851E-03 7.44748E-04-2.09907E-14
 -1      3019 5.79050E-03 1.12867E-04-1.82509E-14
 -1      3020 8.01632E-03 1.18741E-03-2.42629E-14
 -1      3021 7.94098E-03 1.18865E-03-2.38076E-14
 -1      3022 7.76606E-03 1.13234E-03-2.29577E-14
 -1      3023 9.55679E-03 5.67795E-04-3.07921E-14
 -1      3024 6.31347E-03-1.00632E-04-1.91626E-14
 -1      3025 6.27017E-03-5.65542E-05-1.94203E-14
 -1      3026 6.16685E-03-2.94237E-05-1.90550E-14
 -1      3027 1.44441E-02 8.96307E-04-6.66938E-14
 -1      3028 1.44569E-02 9.37369E-04-6.67604E-14
 -1      3029 1.43486E-02 9.34928E-04-6.59121E-14
 -1      3030 1.43142E-02 8.62605E-04-6.57055E-14
 -1      3031 9.81716E-03 1.83379E-05-3.16243E-14
 -1      3032 9.97514E-03 3.75387E-04-3.20115E-14
 -1      3033 1.04502E-02 2.11345E-04-3.36426E-14
 -1      3034 1.03951E-02 2.02183E-04-3.30901E-14
 -1      3035 1.03821E-02 1.93399E-04-3.34916E-14
 -1      3036 1.04216E-02 2.28812E-04-3.31249E-14
 -1      3037 1.04665E-02 2.28147E-04-3.36917E-14
 -1      3038 1.04233E-02 2.44161E-04-3.35757E-14
 -1      3039 1.42311E-02 1.91979E-04-6.56219E-14
 -1      3040 1.01580E-02 1.43129E-04-3.24011E-14
 -1      3041 1.00919E-02 1.15830E-04-3.25161E-14
 -1      3042 1.02478E-02 1.58865E-04-3.30537E-14
 -1      3043 6.71710E-03 4.84812E-04-1.98729E-14
 -1      3044 5.78650E-03 8.49011E-05-1.83380E-14
 -1      3045 5.77802E-03 9.30098E-05-1.84861E-14
 -1      3046 5.74078E-03 9.23335E-05-1.80418E-14
 -1      3047 6.18046E-03 2.43780E-04-1.86258E-14
 -1      3048 6.29030E-03 2.72449E-04-1.91063E-14
 -1      3049 6.37611E-03 3.22741E-04-1.90278E-14
 -1      3050 7.52989E-03-7.26218E-04-2.28142E-14
 -1      3051 7.46947E-03-6.78137E-04-2.26536E-14
 -1      3052 7.36438E-03-6.32475E-04-2.22036E-14
 -1      3053 9.51877E-03-1.36882E-04-3.11939E-14
 -1      3054 9.34445E-03-2.14611E-04-3.04892E-14
 -1      3055 6.62846E-03-2.17537E-04-2.01838E-14
 -1      3056 9.19523E-03-3.16093E-04-3.02200E-14
 -1      3057 7.68930E-04-5.08704E-05-4.43479E-16
 -1      3058 7.73962E-04-7.31169E-05-4.43073E-16
 -1      3059 8.95410E-04-9.51687E-05-5.59787E-16
 -1      3060 8.82103E-04-4.49380E-05-5.60451E-16
 -1      3061 7.80205E-03-8.11959E-04-2.40686E-14
 -1      3062 9.80171E-04 2.59442E-04-5.27071E-16
 -1      3063 7.96495E-04-2.02831E-04-4.25319E-16
 -1      3064 8.13912E-04-2.53175E-04-4.11794E-16
 -1      3065 9.44225E-04-2.85319E-04-5.25770E-16
 -1      3066 9.13687E-04-2.09860E-04-5.43294E-16
 -1      3067 1.40695E-02 1.68778E-04-6.44550E-14
 -1      3068 1.41799E-02 2.17644E-04-6.52168E-14
 -1      3069 1.40635E-02 2.27573E-04-6.43463E-14
 -1      3070 1.39733E-02 1.61415E-04-6.37518E-14
 -1      3071 1.00539E-03-2.67464E-04-6.10460E-16
 -1      3072 1.03560E-03 2.25131E-04-6.18768E-16
 -1      3073 1.02654E-03 1.92163E-04-6.33377E-16
 -1      3074 8.33574E-03 1.18756E-03-2.58836E-14
 -1      3075 1.02541E-02 3.03800E-04-3.32832E-14
 -1      3076 1.03492E-02 2.72284E-04-3.34953E-14
 -1      3077 1.42429E-03-3.00935E-04-1.15537E-15
 -1      3078 1.54950E-03-3.00241E-04-1.36295E-15
 -1      3079 1.71150E-03-3.20413E-04-1.60115E-15
 -1      3080 1.86121E-03-3.28411E-04-1.85209E-15
 -1      3081 1.63586E-03-2.72470E-04-1.49746E-15
 -1      3082 2.00725E-03-3.37686E-04-2.12059E-15
 -1      3083 2.15129E-03-3.46991E-04-2.40866E-15
 -1      3084 1.92512E-03-2.95527E-04-1.99896E-15
 -1      3085 2.29386E-03-3.55997E-04-2.71517E-15
 -1      3086 2.43634E-03-3.62602E-04-3.03983E-15
 -1      3087 2.21401E-03-3.17934E-04-2.57536E-15
 -1      3088 2.57915E-03-3.65963E-04-3.38224E-15
 -1      3089 2.72252E-03-3.67044E-04-3.74215E-15
 -1      3090 2.49870E-03-3.31921E-04-3.22687E-15
 -1      3091 2.86617E-03-3.66237E-04-4.11869E-15
 -1      3092 3.01091E-03-3.63437E-04-4.51198E-15
 -1      3093 2.78529E-03-3.33103E-04-3.94824E-15
 -1      3094 3.15637E-03-3.59130E-04-4.92233E-15
 -1      3095 3.30216E-03-3.54151E-04-5.34897E-15
 -1      3096 3.07530E-03-3.26125E-04-4.73665E-15
 -1      3097 3.44857E-03-3.48351E-04-5.79181E-15
 -1      3098 3.59505E-03-3.41843E-04-6.25075E-15
 -1      3099 3.36834E-03-3.15183E-04-5.59086E-15
 -1      3100 3.73794E-03-3.37540E-04-6.72539E-15
 -1      3101 3.88084E-03-3.33025E-04-7.21615E-15
 -1      3102 3.65790E-03-3.04259E-04-6.50842E-15
 -1      3103 4.02376E-03-3.28448E-04-7.72246E-15
 -1      3104 4.16679E-03-3.23907E-04-8.24422E-15
 -1      3105 3.94202E-03-2.95446E-04-7.48938E-15
 -1      3106 4.30995E-03-3.19575E-04-8.78196E-15
 -1      3107 4.45335E-03-3.15599E-04-9.33517E-15
 -1      3108 4.22574E-03-2.86390E-04-8.53347E-15
 -1      3109 4.59707E-03-3.12182E-04-9.90203E-15
 -1      3110 4.74128E-03-3.09549E-04-1.04844E-14
 -1      3111 4.50953E-03-2.78101E-04-9.63848E-15
 -1      3112 4.88613E-03-3.07936E-04-1.10836E-14
 -1      3113 5.03185E-03-3.07691E-04-1.16955E-14
 -1      3114 4.79424E-03-2.71903E-04-1.08036E-14
 -1      3115 5.17871E-03-3.09072E-04-1.23214E-14
 -1      3116 5.32702E-03-3.12620E-04-1.29643E-14
 -1      3117 5.08133E-03-2.69578E-04-1.20282E-14
 -1      3118 5.47721E-03-3.18595E-04-1.36211E-14
 -1      3119 5.62965E-03-3.27824E-04-1.42909E-14
 -1      3120 5.37315E-03-2.73598E-04-1.33109E-14
 -1      3121 5.78496E-03-3.40527E-04-1.49778E-14
 -1      3122 5.94344E-03-3.57976E-04-1.56776E-14
 -1      3123 5.67320E-03-2.87475E-04-1.46530E-14
 -1      3124 6.10598E-03-3.80372E-04-1.63918E-14
 -1      3125 6.27233E-03-4.09182E-04-1.71222E-14
 -1      3126 5.98629E-03-3.16468E-04-1.60532E-14
 -1      3127 6.44343E-03-4.44633E-04-1.78661E-14
 -1      3128 6.61809E-03-4.87800E-04-1.86222E-14
 -1      3129 6.31759E-03-3.68217E-04-1.75103E-14
 -1      3130 6.79769E-03-5.37802E-04-1.93932E-14
 -1      3131 6.97848E-03-5.95530E-04-2.01775E-14
 -1      3132 6.67059E-03-4.51083E-04-1.90240E-14
 -1      3133 7.25920E-03-6.76134E-04-2.14563E-14
 -1      3134 7.43970E-03-7.40617E-04-2.22708E-14
 -1      3135 7.61667E-03-7.97044E-04-2.30994E-14
 -1      3136 7.85429E-03-8.61810E-04-2.42781E-14
 -1      3137 8.01921E-03-8.67805E-04-2.51337E-14
 -1      3138 8.18924E-03-8.36099E-04-2.60207E-14
 -1      3139 8.36024E-03-7.90704E-04-2.69019E-14
 -1      3140 8.87640E-03-5.93064E-04-2.96000E-14
 -1      3141 9.05755E-03-5.16714E-04-3.05300E-14
 -1      3142 9.23914E-03-4.44859E-04-3.14716E-14
 -1      3143 9.41762E-03-3.79729E-04-3.24213E-14
 -1      3144 9.19316E-03-4.20900E-04-3.10124E-14
 -1      3145 9.59372E-03-3.22334E-04-3.33804E-14
 -1      3146 9.76460E-03-2.72184E-04-3.43474E-14
 -1      3147 9.55694E-03-2.90059E-04-3.29142E-14
 -1      3148 9.93172E-03-2.29194E-04-3.53239E-14
 -1      3149 1.00942E-02-1.92044E-04-3.63084E-14
 -1      3150 9.89989E-03-1.94692E-04-3.48516E-14
 -1      3151 1.02531E-02-1.60444E-04-3.72984E-14
 -1      3152 1.04085E-02-1.33063E-04-3.82956E-14
 -1      3153 1.02220E-02-1.26584E-04-3.68189E-14
 -1      3154 1.05611E-02-1.09613E-04-3.92964E-14
 -1      3155 1.07114E-02-8.91152E-05-4.03029E-14
 -1      3156 1.05282E-02-7.71857E-05-3.88126E-14
 -1      3157 1.08598E-02-7.12926E-05-4.13152E-14
 -1      3158 1.10067E-02-5.54722E-05-4.23294E-14
 -1      3159 1.08237E-02-4.00870E-05-4.08262E-14
 -1      3160 1.11524E-02-4.13996E-05-4.33473E-14
 -1      3161 1.12972E-02-2.86260E-05-4.43692E-14
 -1      3162 1.11126E-02-1.09595E-05-4.28567E-14
 -1      3163 1.14414E-02-1.69291E-05-4.53913E-14
 -1      3164 1.15850E-02-6.01122E-06-4.64164E-14
 -1      3165 1.13980E-02 1.31476E-05-4.49002E-14
 -1      3166 1.17283E-02 4.30933E-06-4.74452E-14
 -1      3167 1.18714E-02 1.42297E-05-4.84739E-14
 -1      3168 1.16816E-02 3.42901E-05-4.69535E-14
 -1      3169 1.20142E-02 2.38880E-05-4.95051E-14
 -1      3170 1.21570E-02 3.34141E-05-5.05369E-14
 -1      3171 1.19646E-02 5.39168E-05-4.90159E-14
 -1      3172 1.22997E-02 4.29044E-05-5.15681E-14
 -1      3173 1.24423E-02 5.24431E-05-5.26033E-14
 -1      3174 1.22476E-02 7.30376E-05-5.10832E-14
 -1      3175 1.25850E-02 6.20909E-05-5.36398E-14
 -1      3176 1.27276E-02 7.19006E-05-5.46766E-14
 -1      3177 1.25310E-02 9.23324E-05-5.31547E-14
 -1      3178 1.28703E-02 8.19048E-05-5.57153E-14
 -1      3179 1.30129E-02 9.21350E-05-5.67517E-14
 -1      3180 1.28147E-02 1.12231E-04-5.52314E-14
 -1      3181 1.31556E-02 1.02603E-04-5.77900E-14
 -1      3182 1.32983E-02 1.13326E-04-5.88294E-14
 -1      3183 1.30989E-02 1.32979E-04-5.73087E-14
 -1      3184 1.34411E-02 1.24301E-04-5.98699E-14
 -1      3185 1.35838E-02 1.35537E-04-6.09084E-14
 -1      3186 1.33834E-02 1.54690E-04-5.93910E-14
 -1      3187 1.37071E-02 1.42435E-04-6.18094E-14
 -1      3188 1.38499E-02 1.54135E-04-6.28487E-14
 -1      3189 1.38952E-02 1.87129E-04-6.31439E-14
 -1      3190 1.36489E-02 1.72822E-04-6.13353E-14
 -1      3191 3.25729E-03 3.85367E-04-5.02286E-15
 -1      3192 3.11421E-03 3.88461E-04-4.60598E-15
 -1      3193 2.97112E-03 3.90854E-04-4.20547E-15
 -1      3194 2.82785E-03 3.92470E-04-3.82287E-15
 -1      3195 3.03561E-03 3.53756E-04-4.43928E-15
 -1      3196 3.82961E-03 3.68176E-04-6.85662E-15
 -1      3197 3.68651E-03 3.73008E-04-6.37390E-15
 -1      3198 4.11583E-03 3.58178E-04-7.86975E-15
 -1      3199 3.97269E-03 3.63203E-04-7.35547E-15
 -1      3200 3.89047E-03 3.30756E-04-7.14180E-15
 -1      3201 4.40225E-03 3.48687E-04-8.94723E-15
 -1      3202 4.25898E-03 3.53297E-04-8.40017E-15
 -1      3203 4.17401E-03 3.21128E-04-8.17059E-15
 -1      3204 4.68917E-03 3.41236E-04-1.00871E-14
 -1      3205 4.54559E-03 3.44604E-04-9.50986E-15
 -1      3206 4.45683E-03 3.12181E-04-9.26392E-15
 -1      3207 4.97727E-03 3.37922E-04-1.12892E-14
 -1      3208 4.83298E-03 3.38910E-04-1.06808E-14
 -1      3209 4.73915E-03 3.05359E-04-1.04206E-14
 -1      3210 5.26794E-03 3.41611E-04-1.25493E-14
 -1      3211 5.12213E-03 3.38660E-04-1.19119E-14
 -1      3212 5.02166E-03 3.02591E-04-1.16371E-14
 -1      3213 5.56373E-03 3.56236E-04-1.38658E-14
 -1      3214 5.41495E-03 3.47194E-04-1.32003E-14
 -1      3215 5.30588E-03 3.06467E-04-1.29112E-14
 -1      3216 5.86896E-03 3.87233E-04-1.52379E-14
 -1      3217 5.71483E-03 3.69121E-04-1.45453E-14
 -1      3218 5.59482E-03 3.20583E-04-1.42413E-14
 -1      3219 6.19025E-03 4.42463E-04-1.66636E-14
 -1      3220 6.02722E-03 4.10868E-04-1.59445E-14
 -1      3221 5.89361E-03 3.50175E-04-1.56260E-14
 -1      3222 6.53581E-03 5.32738E-04-1.81392E-14
 -1      3223 6.35990E-03 4.81936E-04-1.73949E-14
 -1      3224 6.21088E-03 4.03548E-04-1.70620E-14
 -1      3225 7.22473E-03 8.23702E-04-2.08892E-14
 -1      3226 7.63520E-03 1.02751E-03-2.26343E-14
 -1      3227 9.59578E-03 7.01494E-04-3.19978E-14
 -1      3228 9.40682E-03 7.62646E-04-3.10321E-14
 -1      3229 9.95462E-03 6.17221E-04-3.39581E-14
 -1      3230 9.77928E-03 6.54049E-04-3.29735E-14
 -1      3231 9.74246E-03 6.11589E-04-3.25004E-14
 -1      3232 1.02873E-02 5.73452E-04-3.59483E-14
 -1      3233 1.01241E-02 5.91423E-04-3.49496E-14
 -1      3234 1.00889E-02 5.47354E-04-3.44677E-14
 -1      3235 1.06004E-02 5.58660E-04-3.79702E-14
 -1      3236 1.04458E-02 5.63309E-04-3.69560E-14
 -1      3237 1.04071E-02 5.20683E-04-3.64631E-14
 -1      3238 1.09014E-02 5.63566E-04-4.00165E-14
 -1      3239 1.07520E-02 5.59191E-04-3.89893E-14
 -1      3240 1.07072E-02 5.17680E-04-3.84873E-14
 -1      3241 1.11954E-02 5.81797E-04-4.20904E-14
 -1      3242 1.10490E-02 5.71372E-04-4.10500E-14
 -1      3243 1.09975E-02 5.30220E-04-4.05377E-14
 -1      3244 1.14856E-02 6.08737E-04-4.41880E-14
 -1      3245 1.13408E-02 5.94414E-04-4.31375E-14
 -1      3246 1.12830E-02 5.53032E-04-4.26148E-14
 -1      3247 1.17740E-02 6.41063E-04-4.63067E-14
 -1      3248 1.16300E-02 6.24387E-04-4.52431E-14
 -1      3249 1.15665E-02 5.82480E-04-4.47131E-14
 -1      3250 1.20615E-02 6.76393E-04-4.84384E-14
 -1      3251 1.19178E-02 6.58461E-04-4.73713E-14
 -1      3252 1.18497E-02 6.15971E-04-4.68293E-14
 -1      3253 1.23485E-02 7.13067E-04-5.05894E-14
 -1      3254 1.22050E-02 6.94634E-04-4.95122E-14
 -1      3255 1.21330E-02 6.51634E-04-4.89647E-14
 -1      3256 1.26352E-02 7.49977E-04-5.27527E-14
 -1      3257 1.24918E-02 7.31539E-04-5.16695E-14
 -1      3258 1.24168E-02 6.88154E-04-5.11146E-14
 -1      3259 1.29217E-02 7.86422E-04-5.49254E-14
 -1      3260 1.27785E-02 7.68285E-04-5.38385E-14
 -1      3261 1.27011E-02 7.24647E-04-5.32767E-14
 -1      3262 1.32082E-02 8.21995E-04-5.71099E-14
 -1      3263 1.30650E-02 8.04332E-04-5.60151E-14
 -1      3264 1.29859E-02 7.60555E-04-5.54462E-14
 -1      3265 1.34944E-02 8.56494E-04-5.93046E-14
 -1      3266 1.33513E-02 8.39385E-04-5.82050E-14
 -1      3267 1.32709E-02 7.95559E-04-5.76292E-14
 -1      3268 1.37806E-02 8.89853E-04-6.15034E-14
 -1      3269 1.36375E-02 8.73317E-04-6.04050E-14
 -1      3270 1.35562E-02 8.29508E-04-5.98191E-14
 -1      3271 1.40666E-02 9.22087E-04-6.37100E-14
 -1      3272 1.39236E-02 9.06108E-04-6.26059E-14
 -1      3273 1.38416E-02 8.62369E-04-6.20103E-14
 -1      3274 1.42619E-02 9.29991E-04-6.52347E-14
 -1      3275 1.41535E-02 9.27261E-04-6.43851E-14
 -1      3276 1.40712E-02 8.83632E-04-6.37844E-14
 -1      3277 1.42446E-02 8.93774E-04-6.51328E-14
 -1      3278 1.40498E-02 4.32071E-04-6.40268E-14
 -1      3279 1.40635E-02 4.71611E-04-6.40940E-14
 -1      3280 1.39926E-02 2.70351E-04-6.37708E-14
 -1      3281 1.40070E-02 3.11102E-04-6.38313E-14
 -1      3282 1.40773E-02 5.11769E-04-6.41599E-14
 -1      3283 1.40908E-02 5.51909E-04-6.42263E-14
 -1      3284 1.39480E-02 4.80404E-04-6.32037E-14
 -1      3285 9.50286E-03 6.31065E-04-3.09385E-14
 -1      3286 9.71786E-03 5.14553E-04-3.15910E-14
 -1      3287 1.82467E-03 3.65667E-04-1.64831E-15
 -1      3288 1.68106E-03 3.53772E-04-1.41183E-15
 -1      3289 9.68423E-03-7.38552E-05-3.19645E-14
 -1      3290 9.56495E-03-1.46376E-04-3.17750E-14
 -1      3291 1.40214E-02 3.51503E-04-6.38978E-14
 -1      3292 1.40357E-02 3.91935E-04-6.39603E-14
 -1      3293 1.39200E-02 4.00568E-04-6.30757E-14
 -1      3294 1.38913E-02 3.20426E-04-6.29505E-14
 -1      3295 1.02712E-03-2.48181E-04-6.50847E-16
 -1      3296 1.10569E-03-2.68315E-04-7.32826E-16
 -1      3297 1.24568E-03-2.84117E-04-9.03642E-16
 -1      3298 1.01545E-03-2.12359E-04-6.57298E-16
 -1      3299 6.75729E-03-3.04493E-04-2.02744E-14
 -1      3300 6.55204E-03-2.18300E-04-1.96164E-14
 -1      3301 9.91518E-03 4.27488E-04-3.22414E-14
 -1      3302 1.00864E-02 3.64893E-04-3.28135E-14
 -1      3303 5.72470E-03 1.03773E-04-1.76775E-14
 -1      3304 5.77516E-03 1.18937E-04-1.77381E-14
 -1      3305 3.54344E-03 3.77541E-04-5.90715E-15
 -1      3306 3.40036E-03 3.81706E-04-5.45650E-15
 -1      3307 3.32120E-03 3.47889E-04-5.27458E-15
 -1      3308 3.60618E-03 3.39968E-04-6.17549E-15
 -1      3309 7.00500E-03 6.98664E-04-2.01324E-14
 -1      3310 2.11132E-03 3.82276E-04-2.17734E-15
 -1      3311 1.96801E-03 3.75153E-04-1.90359E-15
 -1      3312 1.88768E-03 3.35684E-04-1.80087E-15
 -1      3313 6.77788E-03 5.53765E-04-1.96156E-14
 -1      3314 6.85883E-03 6.42112E-04-1.95129E-14
 -1      3315 6.67007E-03 5.68910E-04-1.87445E-14
 -1      3316 6.58310E-03 4.37630E-04-1.92611E-14
 -1      3317 7.95699E-03-8.44606E-04-2.47980E-14
 -1      3318 7.79173E-03-8.20470E-04-2.39886E-14
 -1      3319 5.87723E-03 1.48631E-04-1.79288E-14
 -1      3320 5.98970E-03 1.82382E-04-1.81219E-14
 -1      3321 9.96376E-03 6.45042E-05-3.23646E-14
 -1      3322 9.81257E-03-3.89240E-06-3.21178E-14
 -1      3323 9.84222E-03-2.22792E-05-3.27055E-14
 -1      3324 1.00809E-02 9.23043E-05-3.30143E-14
 -1      3325 9.28482E-03-2.96883E-04-3.08473E-14
 -1      3326 9.09035E-03-3.96980E-04-3.00622E-14
 -1      3327 1.14293E-03 2.93675E-04-6.87045E-16
 -1      3328 1.07900E-03 2.54132E-04-6.45859E-16
 -1      3329 1.19786E-03 2.54733E-04-7.93013E-16
 -1      3330 1.28666E-03 3.15514E-04-8.52440E-16
 -1      3331 8.91414E-03-4.84009E-04-2.92601E-14
 -1      3332 8.74131E-03-5.72288E-04-2.84571E-14
 -1      3333 8.67490E-03-6.24678E-04-2.82885E-14
 -1      3334 9.01630E-03-4.54361E-04-2.98782E-14
 -1      3335 9.81106E-04 4.56597E-05-6.73710E-16
 -1      3336 9.74506E-04 2.29933E-05-6.78399E-16
 -1      3337 9.71938E-04 3.06541E-06-6.83115E-16
 -1      3338 9.79794E-04-1.53881E-05-6.87669E-16
 -1      3339 1.08018E-03 9.09933E-06-8.22069E-16
 -1      3340 1.02252E-03-1.47888E-04-6.85961E-16
 -1      3341 1.02407E-03-1.77515E-04-6.79673E-16
 -1      3342 8.70323E-03 1.07462E-03-2.76964E-14
 -1      3343 8.88631E-03 9.82634E-04-2.85515E-14
 -1      3344 1.02080E-02 3.43797E-04-3.35149E-14
 -1      3345 1.03194E-02 3.32117E-04-3.42193E-14
 -1      3346 1.01669E-02 3.89391E-04-3.37470E-14
 -1      3347 7.13830E-03-5.88487E-04-2.10672E-14
 -1      3348 1.00034E-03 9.96872E-05-6.62258E-16
 -1      3349 9.90914E-04 7.16693E-05-6.68573E-16
 -1      3350 1.10225E-03 6.01296E-05-8.11620E-16
 -1      3351 6.04586E-03-2.59217E-08-1.86096E-14
 -1      3352 5.93773E-03 1.78118E-05-1.81687E-14
 -1      3353 6.08259E-03-3.88232E-05-1.83578E-14
 -1      3354 1.41551E-02 7.52927E-04-6.45585E-14
 -1      3355 1.41675E-02 7.93279E-04-6.46208E-14
 -1      3356 8.51971E-03-7.43507E-04-2.77764E-14
 -1      3357 8.69581E-03-6.71925E-04-2.86821E-14
 -1      3358 1.14498E-03 1.90889E-04-7.76533E-16
 -1      3359 1.01788E-03 1.60245E-04-6.45087E-16
 -1      3360 1.00924E-03 1.29522E-04-6.54560E-16
 -1      3361 2.39791E-03 3.90661E-04-2.78134E-15
 -1      3362 2.25460E-03 3.87353E-04-2.47010E-15
 -1      3363 2.17492E-03 3.49491E-04-2.35176E-15
 -1      3364 2.74925E-03 3.56766E-04-3.67215E-15
 -1      3365 2.68454E-03 3.93044E-04-3.45774E-15
 -1      3366 2.54123E-03 3.92507E-04-3.11033E-15
 -1      3367 6.50695E-03 4.71476E-04-1.83981E-14
 -1      3368 1.41298E-02 6.72011E-04-6.44266E-14
 -1      3369 1.41425E-02 7.12400E-04-6.44919E-14
 -1      3370 1.40259E-02 7.19519E-04-6.35829E-14
 -1      3371 1.31086E-03-2.59467E-04-1.01090E-15
 -1      3372 9.44462E-03 6.76370E-04-3.08348E-14
 -1      3373 9.61026E-03 6.19982E-04-3.16337E-14
 -1      3374 1.41040E-02 5.91798E-04-6.42936E-14
 -1      3375 1.41170E-02 6.31995E-04-6.43610E-14
 -1      3376 1.40008E-02 6.39401E-04-6.34583E-14
 -1      3377 1.39750E-02 5.59967E-04-6.33311E-14
 -1      3378 9.53704E-03-2.21032E-04-3.22564E-14
 -1      3379 9.37253E-03-2.85525E-04-3.14841E-14
 -1      3380 1.04937E-02 2.23171E-04-3.40972E-14
 -1      3381 1.05108E-02 2.17914E-04-3.45036E-14
 -1      3382 1.05262E-02 2.35604E-04-3.45538E-14
 -1      3383 1.04325E-02 2.63986E-04-3.40687E-14
 -1      3384 1.03453E-02 1.79020E-04-3.36068E-14
 -1      3385 1.03022E-02 1.60526E-04-3.37220E-14
 -1      3386 1.04288E-02 1.93212E-04-3.41632E-14
 -1      3387 5.80118E-03 7.16262E-05-1.81565E-14
 -1      3388 5.74043E-03 7.26898E-05-1.77154E-14
 -1      3389 5.82169E-03 5.51148E-05-1.79736E-14
 -1      3390 6.05703E-03 2.16015E-04-1.80445E-14
 -1      3391 6.12425E-03 2.55412E-04-1.79663E-14
 -1      3392 5.94262E-03 1.97694E-04-1.74711E-14
 -1      3393 5.69979E-03 9.51170E-05-1.75327E-14
 -1      3394 5.66243E-03 9.98220E-05-1.70288E-14
 -1      3395 5.68442E-03 8.76531E-05-1.73883E-14
 -1      3396 9.85643E-03 4.87806E-04-3.23900E-14
 -1      3397 6.84693E-03-3.74139E-04-2.03798E-14
 -1      3398 9.28600E-03 7.83614E-04-3.03421E-14
 -1      3399 9.08703E-03 8.67432E-04-2.93926E-14
 -1      3400 5.77685E-03 1.33677E-04-1.73606E-14
 -1      3401 1.55587E-03 3.45193E-04-1.21699E-15
 -1      3402 1.41194E-03 3.28491E-04-1.01613E-15
 -1      3403 1.36724E-03 2.97661E-04-9.83670E-16
 -1      3404 1.61841E-03 3.17921E-04-1.34880E-15
 -1      3405 6.45265E-03 3.91884E-04-1.87769E-14
 -1      3406 1.01385E-03-9.08666E-05-6.92209E-16
 -1      3407 1.01909E-03-1.19233E-04-6.89824E-16
 -1      3408 1.14271E-03-1.43913E-04-8.32694E-16
 -1      3409 8.81899E-03-5.84634E-04-2.91527E-14
 -1      3410 6.43904E-03-1.75836E-04-1.92500E-14
 -1      3411 6.32890E-03-1.40414E-04-1.88872E-14
 -1      3412 6.55090E-03-2.55883E-04-1.93353E-14
 -1      3413 8.11486E-03-8.35833E-04-2.55951E-14
 -1      3414 1.39213E-02 2.12351E-04-6.33050E-14
 -1      3415 1.39665E-02 2.45224E-04-6.36028E-14
 -1      3416 1.38506E-02 2.55120E-04-6.27228E-14
 -1      3417 1.37982E-02 2.05021E-04-6.23976E-14
 -1      3418 8.73473E-03-6.07211E-04-2.86582E-14
 -1      3419 8.92544E-03-5.16842E-04-2.95759E-14
 -1      3420 8.51653E-03 1.14360E-03-2.67835E-14
 -1      3421 7.24310E-03-5.80210E-04-2.17109E-14
 -1      3422 1.20091E-03-2.26095E-04-8.83977E-16
 -1      3423 1.37048E-03-2.27502E-04-1.13119E-15
 -1      3424 1.84337E-03-2.50595E-04-1.87692E-15
 -1      3425 1.98868E-03-2.63919E-04-2.14576E-15
 -1      3426 2.13330E-03-2.79130E-04-2.43498E-15
 -1      3427 2.27530E-03-2.91118E-04-2.74342E-15
 -1      3428 2.05024E-03-2.37005E-04-2.29408E-15
 -1      3429 2.41853E-03-2.96674E-04-3.07068E-15
 -1      3430 2.56127E-03-2.99558E-04-3.41566E-15
 -1      3431 2.33613E-03-2.63289E-04-2.91317E-15
 -1      3432 2.70313E-03-3.01220E-04-3.77785E-15
 -1      3433 2.84781E-03-2.98494E-04-4.15638E-15
 -1      3434 2.62155E-03-2.68619E-04-3.60703E-15
 -1      3435 2.99369E-03-2.93254E-04-4.55136E-15
 -1      3436 3.14002E-03-2.87770E-04-4.96266E-15
 -1      3437 2.91188E-03-2.61307E-04-4.36687E-15
 -1      3438 3.28657E-03-2.81984E-04-5.38999E-15
 -1      3439 3.43310E-03-2.75889E-04-5.83329E-15
 -1      3440 3.20551E-03-2.49008E-04-5.18990E-15
 -1      3441 3.57865E-03-2.71255E-04-6.29248E-15
 -1      3442 3.72015E-03-2.67215E-04-6.76703E-15
 -1      3443 3.49695E-03-2.38417E-04-6.07708E-15
 -1      3444 3.86135E-03-2.62956E-04-7.25770E-15
 -1      3445 4.00229E-03-2.58522E-04-7.76393E-15
 -1      3446 3.78185E-03-2.30797E-04-7.02682E-15
 -1      3447 4.14296E-03-2.54044E-04-8.28578E-15
 -1      3448 4.28345E-03-2.49589E-04-8.82363E-15
 -1      3449 4.06172E-03-2.22320E-04-8.03948E-15
 -1      3450 4.42377E-03-2.45303E-04-9.37595E-15
 -1      3451 4.56408E-03-2.41299E-04-9.94270E-15
 -1      3452 4.33999E-03-2.13550E-04-9.11418E-15
 -1      3453 4.70443E-03-2.37735E-04-1.05253E-14
 -1      3454 4.84509E-03-2.34808E-04-1.11235E-14
 -1      3455 4.61707E-03-2.05206E-04-1.02495E-14
 -1      3456 4.98617E-03-2.32682E-04-1.17357E-14
 -1      3457 5.12807E-03-2.31703E-04-1.23620E-14
 -1      3458 4.89386E-03-1.98232E-04-1.14434E-14
 -1      3459 5.27105E-03-2.32030E-04-1.30031E-14
 -1      3460 5.41570E-03-2.34285E-04-1.36596E-14
 -1      3461 5.17202E-03-1.93961E-04-1.26970E-14
 -1      3462 5.56244E-03-2.38602E-04-1.43303E-14
 -1      3463 5.71207E-03-2.46074E-04-1.50160E-14
 -1      3464 5.45445E-03-1.94446E-04-1.40093E-14
 -1      3465 5.86531E-03-2.56745E-04-1.57161E-14
 -1      3466 6.02308E-03-2.72782E-04-1.64295E-14
 -1      3467 5.74585E-03-2.03112E-04-1.53793E-14
 -1      3468 6.18674E-03-2.94360E-04-1.71568E-14
 -1      3469 6.35626E-03-3.24405E-04-1.78998E-14
 -1      3470 6.05353E-03-2.26790E-04-1.68062E-14
 -1      3471 6.58710E-03-3.53624E-04-1.89803E-14
 -1      3472 6.77319E-03-4.07186E-04-1.97542E-14
 -1      3473 7.71049E-03-8.20880E-04-2.35573E-14
 -1      3474 8.45710E-03-7.57139E-04-2.74132E-14
 -1      3475 9.71389E-03-1.67098E-04-3.32160E-14
 -1      3476 9.88398E-03-1.25359E-04-3.41836E-14
 -1      3477 1.00461E-02-9.00627E-05-3.51607E-14
 -1      3478 9.89331E-03-4.89413E-05-3.35148E-14
 -1      3479 1.02024E-02-6.24075E-05-3.61445E-14
 -1      3480 1.03539E-02-3.82899E-05-3.71336E-14
 -1      3481 1.02016E-02 5.66469E-06-3.54674E-14
 -1      3482 1.05015E-02-1.84943E-05-3.81302E-14
 -1      3483 1.06463E-02-8.23691E-07-3.91309E-14
 -1      3484 1.04878E-02 4.12451E-05-3.74460E-14
 -1      3485 1.07888E-02 1.44212E-05-4.01358E-14
 -1      3486 1.09298E-02 2.83540E-05-4.11485E-14
 -1      3487 1.07626E-02 6.81933E-05-3.94464E-14
 -1      3488 1.10696E-02 4.09168E-05-4.21652E-14
 -1      3489 1.12089E-02 5.26614E-05-4.31829E-14
 -1      3490 1.10327E-02 9.10297E-05-4.14692E-14
 -1      3491 1.13476E-02 6.36540E-05-4.42072E-14
 -1      3492 1.14863E-02 7.41577E-05-4.52313E-14
 -1      3493 1.13015E-02 1.11881E-04-4.35088E-14
 -1      3494 1.16248E-02 8.42913E-05-4.62584E-14
 -1      3495 1.17635E-02 9.41749E-05-4.72914E-14
 -1      3496 1.15711E-02 1.31834E-04-4.55621E-14
 -1      3497 1.19023E-02 1.03937E-04-4.83241E-14
 -1      3498 1.20415E-02 1.13623E-04-4.93599E-14
 -1      3499 1.18425E-02 1.51536E-04-4.76280E-14
 -1      3500 1.21808E-02 1.23351E-04-5.03976E-14
 -1      3501 1.23205E-02 1.33128E-04-5.14335E-14
 -1      3502 1.21160E-02 1.71415E-04-4.97051E-14
 -1      3503 1.24605E-02 1.43050E-04-5.24724E-14
 -1      3504 1.26008E-02 1.53105E-04-5.35114E-14
 -1      3505 1.23916E-02 1.91765E-04-5.17864E-14
 -1      3506 1.27413E-02 1.63363E-04-5.45524E-14
 -1      3507 1.28822E-02 1.73806E-04-5.55949E-14
 -1      3508 1.26692E-02 2.12773E-04-5.38721E-14
 -1      3509 1.30232E-02 1.84481E-04-5.66345E-14
 -1      3510 1.31646E-02 1.95365E-04-5.76766E-14
 -1      3511 1.29486E-02 2.34546E-04-5.59575E-14
 -1      3512 1.33061E-02 2.06490E-04-5.87212E-14
 -1      3513 1.34478E-02 2.17831E-04-5.97650E-14
 -1      3514 1.32295E-02 2.57126E-04-5.80462E-14
 -1      3515 3.09997E-03 3.16895E-04-4.67482E-15
 -1      3516 2.95723E-03 3.19045E-04-4.27304E-15
 -1      3517 4.23070E-03 2.85180E-04-8.47296E-15
 -1      3518 4.09065E-03 2.89687E-04-7.94234E-15
 -1      3519 3.95022E-03 2.94225E-04-7.42744E-15
 -1      3520 3.80935E-03 2.98740E-04-6.92830E-15
 -1      3521 4.00896E-03 2.58681E-04-7.71460E-15
 -1      3522 4.78672E-03 2.70856E-04-1.07545E-14
 -1      3523 4.64825E-03 2.73558E-04-1.01605E-14
 -1      3524 5.06299E-03 2.68590E-04-1.19851E-14
 -1      3525 4.92486E-03 2.69127E-04-1.13620E-14
 -1      3526 4.83210E-03 2.37752E-04-1.10880E-14
 -1      3527 5.33980E-03 2.72386E-04-1.32733E-14
 -1      3528 5.20110E-03 2.69538E-04-1.26229E-14
 -1      3529 5.10143E-03 2.35887E-04-1.23342E-14
 -1      3530 5.62034E-03 2.85389E-04-1.46163E-14
 -1      3531 5.47918E-03 2.77378E-04-1.39374E-14
 -1      3532 5.36973E-03 2.39218E-04-1.36358E-14
 -1      3533 5.91048E-03 3.12621E-04-1.60131E-14
 -1      3534 5.76345E-03 2.96598E-04-1.53082E-14
 -1      3535 5.64010E-03 2.50330E-04-1.49909E-14
 -1      3536 6.19134E-03 3.28956E-04-1.75981E-14
 -1      3537 6.03843E-03 3.02027E-04-1.68674E-14
 -1      3538 1.95166E-03 3.05335E-04-1.95680E-15
 -1      3539 1.80776E-03 2.96352E-04-1.69843E-15
 -1      3540 1.38188E-02 4.48963E-04-6.22479E-14
 -1      3541 1.38326E-02 4.88643E-04-6.23092E-14
 -1      3542 1.05244E-02 4.73858E-04-3.69786E-14
 -1      3543 1.03765E-02 4.76701E-04-3.59739E-14
 -1      3544 1.02577E-02 4.50736E-04-3.49568E-14
 -1      3545 1.01046E-02 4.63388E-04-3.39667E-14
 -1      3546 1.08103E-02 4.81157E-04-3.90045E-14
 -1      3547 1.06684E-02 4.75891E-04-3.79880E-14
 -1      3548 1.06352E-02 4.34186E-04-3.74918E-14
 -1      3549 1.10899E-02 4.99968E-04-4.10588E-14
 -1      3550 1.09505E-02 4.89478E-04-4.00282E-14
 -1      3551 1.09075E-02 4.49630E-04-3.95220E-14
 -1      3552 1.13673E-02 5.26273E-04-4.31371E-14
 -1      3553 1.12286E-02 5.12375E-04-4.20951E-14
 -1      3554 1.11772E-02 4.73013E-04-4.15770E-14
 -1      3555 1.16447E-02 5.57440E-04-4.52347E-14
 -1      3556 1.15058E-02 5.41372E-04-4.41840E-14
 -1      3557 1.14475E-02 5.01674E-04-4.36560E-14
 -1      3558 1.19231E-02 5.91538E-04-4.73536E-14
 -1      3559 1.17837E-02 5.74206E-04-4.62925E-14
 -1      3560 1.17197E-02 5.33807E-04-4.57556E-14
 -1      3561 1.22029E-02 6.27142E-04-4.94878E-14
 -1      3562 1.20628E-02 6.09209E-04-4.84178E-14
 -1      3563 1.19942E-02 5.68017E-04-4.78734E-14
 -1      3564 1.24839E-02 6.63231E-04-5.16376E-14
 -1      3565 1.23432E-02 6.45164E-04-5.05632E-14
 -1      3566 1.22709E-02 6.03237E-04-5.00099E-14
 -1      3567 1.27661E-02 6.99108E-04-5.37975E-14
 -1      3568 1.26249E-02 6.81219E-04-5.27154E-14
 -1      3569 1.25497E-02 6.38679E-04-5.21566E-14
 -1      3570 1.30492E-02 7.34338E-04-5.59649E-14
 -1      3571 1.29076E-02 7.16817E-04-5.48799E-14
 -1      3572 1.28301E-02 6.73799E-04-5.43138E-14
 -1      3573 1.33331E-02 7.68673E-04-5.81420E-14
 -1      3574 1.31911E-02 7.51623E-04-5.70512E-14
 -1      3575 1.31120E-02 7.08257E-04-5.64784E-14
 -1      3576 1.36175E-02 8.02001E-04-6.03290E-14
 -1      3577 1.34753E-02 7.85461E-04-5.92372E-14
 -1      3578 1.33949E-02 7.41859E-04-5.86558E-14
 -1      3579 1.39024E-02 8.34318E-04-6.25164E-14
 -1      3580 1.37599E-02 8.18287E-04-6.14215E-14
 -1      3581 1.36786E-02 7.74538E-04-6.08334E-14
 -1      3582 1.41975E-02 8.25430E-04-6.48272E-14
 -1      3583 1.42145E-02 8.61349E-04-6.49286E-14
 -1      3584 1.41279E-02 8.56341E-04-6.42549E-14
 -1      3585 1.40681E-02 7.91934E-04-6.38480E-14
 -1      3586 6.33383E-03 3.66167E-04-1.81755E-14
 -1      3587 5.68124E-03 1.23702E-04-1.67488E-14
 -1      3588 5.77311E-03 1.52451E-04-1.69336E-14
 -1      3589 9.91790E-04-3.35221E-05-6.91233E-16
 -1      3590 1.00263E-03-6.00822E-05-6.92805E-16
 -1      3591 1.13054E-03-8.20050E-05-8.39064E-16
 -1      3592 4.50949E-03 2.76952E-04-9.58217E-15
 -1      3593 4.37028E-03 2.80908E-04-9.01927E-15
 -1      3594 4.28606E-03 2.50415E-04-8.77613E-15
 -1      3595 4.56045E-03 2.43059E-04-9.90099E-15
 -1      3596 1.04599E-02 2.85597E-04-3.46989E-14
 -1      3597 1.05173E-02 2.59603E-04-3.47791E-14
 -1      3598 6.95148E-03-4.78841E-04-2.04328E-14
 -1      3599 1.55829E-03-2.44230E-04-1.39605E-15
 -1      3600 1.70074E-03-2.44254E-04-1.62739E-15
 -1      3601 1.76473E-03-2.10272E-04-1.75662E-15
 -1      3602 2.09545E-03 3.11780E-04-2.23388E-15
 -1      3603 2.01653E-03 2.74402E-04-2.11643E-15
 -1      3604 2.23938E-03 3.16143E-04-2.52919E-15
 -1      3605 1.04140E-02 3.50996E-04-3.51697E-14
 -1      3606 1.04372E-02 3.15774E-04-3.49341E-14
 -1      3607 1.05429E-02 3.06515E-04-3.56518E-14
 -1      3608 8.57108E-03-6.86754E-04-2.78738E-14
 -1      3609 1.12597E-03 1.23516E-04-7.98163E-16
 -1      3610 6.19470E-03-9.80059E-05-1.84437E-14
 -1      3611 6.06939E-03-6.64459E-05-1.80046E-14
 -1      3612 6.30386E-03-1.66623E-04-1.85276E-14
 -1      3613 5.86670E-03-2.55273E-07-1.74811E-14
 -1      3614 5.84466E-03 3.00155E-05-1.77275E-14
 -1      3615 5.76109E-03 3.62954E-05-1.72912E-14
 -1      3616 6.43483E-03-2.65372E-04-1.86084E-14
 -1      3617 1.23167E-03 7.96850E-05-9.62053E-16
 -1      3618 1.21483E-03 4.53707E-05-9.67122E-16
 -1      3619 9.09415E-03-4.38155E-04-3.03808E-14
 -1      3620 1.27378E-03 2.22988E-04-9.20149E-16
 -1      3621 1.26430E-03 1.86780E-04-9.34786E-16
 -1      3622 9.99796E-03 1.08107E-05-3.36727E-14
 -1      3623 3.24244E-03 3.14152E-04-5.09292E-15
 -1      3624 3.16422E-03 2.80385E-04-4.91173E-15
 -1      3625 3.38466E-03 3.10858E-04-5.52747E-15
 -1      3626 1.35703E-02 2.24867E-04-6.06700E-14
 -1      3627 1.36929E-02 2.32037E-04-6.15753E-14
 -1      3628 1.34924E-02 2.75986E-04-6.00022E-14
 -1      3629 1.06123E-02 2.70655E-04-3.58248E-14
 -1      3630 1.05691E-02 2.51729E-04-3.51872E-14
 -1      3631 1.06102E-02 2.45737E-04-3.55966E-14
 -1      3632 2.46219E-03 3.55747E-04-2.97595E-15
 -1      3633 2.81427E-03 3.20464E-04-3.88876E-15
 -1      3634 2.67080E-03 3.21035E-04-3.52223E-15
 -1      3635 2.87920E-03 2.84274E-04-4.10807E-15
 -1      3636 3.72941E-03 2.66929E-04-6.71552E-15
 -1      3637 3.66814E-03 3.03061E-04-6.44507E-15
 -1      3638 3.52655E-03 3.07149E-04-5.97787E-15
 -1      3639 5.89399E-03 2.44916E-04-1.65336E-14
 -1      3640 1.72831E-03 2.56868E-04-1.59559E-15
 -1      3641 1.66374E-03 2.84715E-04-1.45808E-15
 -1      3642 1.37173E-02 4.96372E-04-6.14167E-14
 -1      3643 1.38460E-02 5.28030E-04-6.23728E-14
 -1      3644 1.38592E-02 5.67435E-04-6.24339E-14
 -1      3645 1.03874E-02 4.01077E-04-3.54668E-14
 -1      3646 1.02050E-02 1.17785E-04-3.37762E-14
 -1      3647 1.00985E-02 7.29443E-05-3.36208E-14
 -1      3648 1.01365E-02 4.32011E-05-3.44379E-14
 -1      3649 1.03162E-02 1.43328E-04-3.43330E-14
 -1      3650 9.79317E-03 5.72546E-04-3.26060E-14
 -1      3651 1.39296E-02 7.75361E-04-6.27869E-14
 -1      3652 1.39593E-02 8.07392E-04-6.29865E-14
 -1      3653 1.40412E-02 8.51225E-04-6.35831E-14
 -1      3654 1.13497E-03-2.11693E-04-8.03299E-16
 -1      3655 9.28227E-03-3.60845E-04-3.13205E-14
 -1      3656 5.63940E-03 1.11455E-04-1.66083E-14
 -1      3657 5.61866E-03 1.26797E-04-1.61911E-14
 -1      3658 5.60496E-03 1.01368E-04-1.64683E-14
 -1      3659 1.05709E-02 2.19739E-04-3.53111E-14
 -1      3660 1.05105E-02 2.06065E-04-3.48512E-14
 -1      3661 1.04897E-02 1.94023E-04-3.49673E-14
 -1      3662 5.81630E-03 1.77100E-04-1.68578E-14
 -1      3663 5.86281E-03 2.06083E-04-1.67813E-14
 -1      3664 5.69906E-03 1.62605E-04-1.62538E-14
 -1      3665 5.67311E-03 7.67544E-05-1.72100E-14
 -1      3666 5.61484E-03 8.01954E-05-1.67111E-14
 -1      3667 5.66951E-03 6.45771E-05-1.70322E-14
 -1      3668 1.37904E-02 3.69678E-04-6.21273E-14
 -1      3669 1.38047E-02 4.09383E-04-6.21877E-14
 -1      3670 1.36896E-02 4.17987E-04-6.12971E-14
 -1      3671 1.44962E-03-2.05632E-04-1.24480E-15
 -1      3672 1.53777E-03 2.76563E-04-1.26083E-15
 -1      3673 1.38970E-02 6.86401E-04-6.26132E-14
 -1      3674 1.39093E-02 7.26535E-04-6.26726E-14
 -1      3675 1.32337E-03 2.35260E-05-1.13681E-15
 -1      3676 1.19545E-03 1.24675E-05-9.75023E-16
 -1      3677 1.18453E-03-9.29951E-06-9.81935E-16
 -1      3678 1.38007E-02 7.41694E-04-6.18167E-14
 -1      3679 1.21613E-03-1.88732E-04-9.09754E-16
 -1      3680 9.96961E-03 4.93651E-04-3.32624E-14
 -1      3681 1.20762E-03-1.27580E-04-9.22249E-16
 -1      3682 1.21134E-03-1.58013E-04-9.17072E-16
 -1      3683 1.28054E-03-1.72102E-04-1.00492E-15
 -1      3684 1.09719E-03-2.53161E-05-8.34565E-16
 -1      3685 5.39614E-03 2.07724E-04-1.39969E-14
 -1      3686 5.26703E-03 2.05683E-04-1.33334E-14
 -1      3687 2.25760E-03-2.20516E-04-2.75536E-15
 -1      3688 2.40038E-03-2.27053E-04-3.08691E-15
 -1      3689 2.53633E-03-2.39368E-04-3.43542E-15
 -1      3690 2.68176E-03-2.36774E-04-3.80123E-15
 -1      3691 2.45423E-03-2.02853E-04-3.26346E-15
 -1      3692 2.82993E-03-2.29140E-04-4.18270E-15
 -1      3693 2.97798E-03-2.22158E-04-4.57940E-15
 -1      3694 2.74789E-03-1.97548E-04-3.99890E-15
 -1      3695 3.12572E-03-2.15803E-04-4.99087E-15
 -1      3696 3.27209E-03-2.10211E-04-5.41913E-15
 -1      3697 3.04732E-03-1.82434E-04-4.79362E-15
 -1      3698 3.41716E-03-2.05656E-04-5.86259E-15
 -1      3699 3.56101E-03-2.01829E-04-6.32163E-15
 -1      3700 3.33983E-03-1.72592E-04-5.64915E-15
 -1      3701 3.70362E-03-1.98889E-04-6.79716E-15
 -1      3702 3.84319E-03-1.95092E-04-7.28734E-15
 -1      3703 3.62509E-03-1.66502E-04-6.56784E-15
 -1      3704 3.98215E-03-1.91109E-04-7.79459E-15
 -1      3705 4.12055E-03-1.86942E-04-8.31698E-15
 -1      3706 3.90426E-03-1.60173E-04-7.54987E-15
 -1      3707 4.25834E-03-1.82700E-04-8.85332E-15
 -1      3708 4.39563E-03-1.78396E-04-9.40577E-15
 -1      3709 4.17888E-03-1.52450E-04-8.59405E-15
 -1      3710 4.53236E-03-1.74145E-04-9.97351E-15
 -1      3711 4.66874E-03-1.69990E-04-1.05559E-14
 -1      3712 4.45047E-03-1.44177E-04-9.69870E-15
 -1      3713 4.80474E-03-1.66046E-04-1.11535E-14
 -1      3714 4.94069E-03-1.62429E-04-1.17659E-14
 -1      3715 4.71919E-03-1.35685E-04-1.08641E-14
 -1      3716 5.07661E-03-1.59240E-04-1.23927E-14
 -1      3717 5.21307E-03-1.56754E-04-1.30335E-14
 -1      3718 4.98564E-03-1.27403E-04-1.20886E-14
 -1      3719 5.35015E-03-1.55037E-04-1.36889E-14
 -1      3720 5.48880E-03-1.54728E-04-1.43596E-14
 -1      3721 5.25117E-03-1.20028E-04-1.33710E-14
 -1      3722 5.62920E-03-1.55788E-04-1.50448E-14
 -1      3723 5.77295E-03-1.59665E-04-1.57436E-14
 -1      3724 5.51844E-03-1.14919E-04-1.47109E-14
 -1      3725 4.06705E-03 2.24234E-04-8.00244E-15
 -1      3726 3.92902E-03 2.28001E-04-7.48671E-15
 -1      3727 1.32311E-03 2.67413E-04-9.50357E-16
 -1      3728 1.44312E-03 2.62976E-04-1.12795E-15
 -1      3729 1.02755E-02 6.01609E-05-3.54179E-14
 -1      3730 1.04115E-02 7.47740E-05-3.64054E-14
 -1      3731 1.03521E-02 1.10265E-04-3.53679E-14
 -1      3732 1.05437E-02 8.70345E-05-3.73983E-14
 -1      3733 1.06753E-02 9.82391E-05-3.83959E-14
 -1      3734 1.05995E-02 1.28762E-04-3.73473E-14
 -1      3735 1.08055E-02 1.08649E-04-3.93988E-14
 -1      3736 1.09358E-02 1.18664E-04-4.04081E-14
 -1      3737 1.08467E-02 1.45939E-04-3.93498E-14
 -1      3738 1.10659E-02 1.28518E-04-4.14212E-14
 -1      3739 1.11967E-02 1.38219E-04-4.24389E-14
 -1      3740 1.10972E-02 1.63550E-04-4.13726E-14
 -1      3741 1.13278E-02 1.47977E-04-4.34621E-14
 -1      3742 1.14596E-02 1.57689E-04-4.44885E-14
 -1      3743 1.13520E-02 1.82178E-04-4.34130E-14
 -1      3744 1.15921E-02 1.67541E-04-4.55194E-14
 -1      3745 1.17255E-02 1.77417E-04-4.65510E-14
 -1      3746 1.16114E-02 2.01771E-04-4.54726E-14
 -1      3747 1.18595E-02 1.87474E-04-4.75880E-14
 -1      3748 1.19944E-02 1.97605E-04-4.86278E-14
 -1      3749 1.18751E-02 2.22244E-04-4.75462E-14
 -1      3750 1.21299E-02 2.07941E-04-4.96687E-14
 -1      3751 1.22662E-02 2.18388E-04-5.07121E-14
 -1      3752 1.21428E-02 2.43533E-04-4.96323E-14
 -1      3753 1.24032E-02 2.29052E-04-5.17554E-14
 -1      3754 1.25408E-02 2.39855E-04-5.27979E-14
 -1      3755 1.24140E-02 2.65591E-04-5.17214E-14
 -1      3756 1.26791E-02 2.50877E-04-5.38430E-14
 -1      3757 1.28178E-02 2.62053E-04-5.48893E-14
 -1      3758 1.26883E-02 2.88379E-04-5.38154E-14
 -1      3759 1.29571E-02 2.73441E-04-5.59353E-14
 -1      3760 1.30969E-02 2.84990E-04-5.69806E-14
 -1      3761 1.29651E-02 3.11858E-04-5.59122E-14
 -1      3762 1.32370E-02 2.96742E-04-5.80285E-14
 -1      3763 1.33775E-02 3.08651E-04-5.90788E-14
 -1      3764 1.32441E-02 3.35981E-04-5.80113E-14
 -1      3765 5.13761E-03 2.04873E-04-1.26828E-14
 -1      3766 5.00715E-03 2.05151E-04-1.20454E-14
 -1      3767 5.17185E-03 1.75563E-04-1.30307E-14
 -1      3768 4.87591E-03 2.06265E-04-1.14226E-14
 -1      3769 4.74354E-03 2.08184E-04-1.08141E-14
 -1      3770 4.91848E-03 1.76435E-04-1.17574E-14
 -1      3771 1.79418E-03 2.28979E-04-1.73655E-15
 -1      3772 1.64901E-03 2.17009E-04-1.49304E-15
 -1      3773 1.69532E-03-1.85498E-04-1.63961E-15
 -1      3774 1.83352E-03-1.91334E-04-1.88495E-15
 -1      3775 1.37192E-02 2.56904E-04-6.17358E-14
 -1      3776 1.37455E-02 2.81725E-04-6.19003E-14
 -1      3777 1.07387E-02 4.01553E-04-3.80037E-14
 -1      3778 1.06083E-02 3.93830E-04-3.69976E-14
 -1      3779 1.12593E-02 4.49020E-04-4.20938E-14
 -1      3780 1.11283E-02 4.35309E-04-4.10626E-14
 -1      3781 1.17801E-03-1.38001E-05-9.85025E-16
 -1      3782 1.20720E-03-3.07816E-05-9.93929E-16
 -1      3783 1.26306E-03-2.06891E-05-1.14814E-15
 -1      3784 1.15236E-02 4.78976E-04-4.41745E-14
 -1      3785 1.13910E-02 4.63596E-04-4.31324E-14
 -1      3786 1.13359E-02 4.27155E-04-4.26099E-14
 -1      3787 1.17915E-02 5.11388E-04-4.62734E-14
 -1      3788 1.16571E-02 4.94914E-04-4.52212E-14
 -1      3789 1.15956E-02 4.57552E-04-4.46908E-14
 -1      3790 1.20628E-02 5.45269E-04-4.83921E-14
 -1      3791 1.19267E-02 5.28176E-04-4.73320E-14
 -1      3792 1.18602E-02 4.89716E-04-4.67897E-14
 -1      3793 1.23372E-02 5.79817E-04-5.05267E-14
 -1      3794 1.21996E-02 5.62483E-04-4.94568E-14
 -1      3795 1.21291E-02 5.22938E-04-4.89095E-14
 -1      3796 1.26141E-02 6.14423E-04-5.26720E-14
 -1      3797 1.24753E-02 5.97129E-04-5.15996E-14
 -1      3798 1.24017E-02 5.56610E-04-5.10415E-14
 -1      3799 1.28932E-02 6.48661E-04-5.48286E-14
 -1      3800 1.27534E-02 6.31597E-04-5.37485E-14
 -1      3801 1.26773E-02 5.90256E-04-5.31844E-14
 -1      3802 1.31740E-02 6.82266E-04-5.69889E-14
 -1      3803 1.30334E-02 6.65549E-04-5.59079E-14
 -1      3804 1.29554E-02 6.23538E-04-5.53380E-14
 -1      3805 1.34561E-02 7.15087E-04-5.91606E-14
 -1      3806 1.33149E-02 6.98778E-04-5.80735E-14
 -1      3807 1.32354E-02 6.56248E-04-5.74977E-14
 -1      3808 1.36590E-02 7.25974E-04-6.07287E-14
 -1      3809 1.38720E-02 6.07016E-04-6.24946E-14
 -1      3810 1.38846E-02 6.46578E-04-6.25540E-14
 -1      3811 1.37685E-02 6.53585E-04-6.16496E-14
 -1      3812 1.37435E-02 5.74743E-04-6.15358E-14
 -1      3813 2.52711E-03 3.20532E-04-3.17322E-15
 -1      3814 2.38330E-03 3.18987E-04-2.84228E-15
 -1      3815 2.59264E-03 2.85221E-04-3.37314E-15
 -1      3816 1.06374E-02 2.34743E-04-3.59503E-14
 -1      3817 1.06530E-02 2.23088E-04-3.63013E-14
 -1      3818 1.06990E-02 2.50973E-04-3.65896E-14
 -1      3819 5.75824E-03 2.22428E-04-1.59343E-14
 -1      3820 1.37602E-02 3.21787E-04-6.19589E-14
 -1      3821 1.25360E-03-7.27309E-05-1.00073E-15
 -1      3822 1.26038E-03-1.06176E-04-9.98577E-16
 -1      3823 1.36588E-03-5.91774E-05-1.17533E-15
 -1      3824 1.36451E-02 3.31100E-04-6.10740E-14
 -1      3825 1.25465E-03 1.50575E-04-9.46265E-16
 -1      3826 1.24358E-03 1.14616E-04-9.55507E-16
 -1      3827 1.36308E-03 1.03951E-04-1.12563E-15
 -1      3828 1.38471E-03 1.80250E-04-1.10705E-15
 -1      3829 1.48884E-03 2.31281E-04-1.22413E-15
 -1      3830 1.95990E-03-1.91123E-04-2.15369E-15
 -1      3831 2.10220E-03-2.12130E-04-2.44378E-15
 -1      3832 1.88130E-03-1.62638E-04-2.01164E-15
 -1      3833 1.56451E-03 2.05165E-04-1.36330E-15
 -1      3834 1.46915E-03 1.92582E-04-1.22408E-15
 -1      3835 1.45941E-03 1.53686E-04-1.23561E-15
 -1      3836 1.62991E-03 1.77782E-04-1.48973E-15
 -1      3837 1.09982E-02 4.22710E-04-4.00374E-14
 -1      3838 1.08682E-02 4.11392E-04-3.90173E-14
 -1      3839 1.08324E-02 3.74688E-04-3.85151E-14
 -1      3840 1.40485E-03-1.81661E-04-1.17895E-15
 -1      3841 1.56755E-03-1.73409E-04-1.44279E-15
 -1      3842 1.63982E-03-1.45972E-04-1.55714E-15
 -1      3843 1.40012E-03-1.49013E-04-1.18623E-15
 -1      3844 1.35232E-02 3.23410E-04-6.01639E-14
 -1      3845 1.35782E-02 6.83097E-04-6.01405E-14
 -1      3846 2.08284E-03 2.42581E-04-2.27971E-15
 -1      3847 1.93847E-03 2.37664E-04-1.99944E-15
 -1      3848 1.86114E-03 2.00705E-04-1.88171E-15
 -1      3849 3.85078E-03 1.97380E-04-7.26028E-15
 -1      3850 3.79025E-03 2.31675E-04-6.98745E-15
 -1      3851 3.65073E-03 2.35250E-04-6.50382E-15
 -1      3852 4.20421E-03 2.20550E-04-8.53382E-15
 -1      3853 4.12467E-03 1.90953E-04-8.29121E-15
 -1      3854 4.34052E-03 2.16953E-04-9.08030E-15
 -1      3855 5.92035E-03-1.66064E-04-1.64567E-14
 -1      3856 6.07379E-03-1.78545E-04-1.71828E-14
 -1      3857 5.66950E-03 2.30924E-05-1.65518E-14
 -1      3858 5.66740E-03 4.56984E-05-1.67921E-14
 -1      3859 5.58548E-03 5.17411E-05-1.62996E-14
 -1      3860 3.44772E-03 2.74388E-04-5.78144E-15
 -1      3861 1.06112E-02 2.93438E-04-3.60647E-14
 -1      3862 1.06705E-02 2.83671E-04-3.64767E-14
 -1      3863 1.06049E-02 3.20394E-04-3.63041E-14
 -1      3864 2.94436E-03 2.48306E-04-4.32893E-15
 -1      3865 2.80168E-03 2.49468E-04-3.94320E-15
 -1      3866 1.35887E-02 4.65146E-04-6.04651E-14
 -1      3867 1.36022E-02 5.03948E-04-6.05244E-14
 -1      3868 5.65376E-03 2.16734E-04-1.53652E-14
 -1      3869 5.52460E-03 2.11218E-04-1.46746E-14
 -1      3870 1.32917E-03-1.19336E-04-1.09175E-15
 -1      3871 2.30479E-03 2.82326E-04-2.70933E-15
 -1      3872 5.63840E-03 1.83315E-04-1.56058E-14
 -1      3873 1.04604E-02 1.74990E-04-3.51420E-14
 -1      3874 1.03894E-02 1.39399E-04-3.51961E-14
 -1      3875 1.05050E-02 1.46362E-04-3.61821E-14
 -1      3876 1.05561E-02 1.90253E-04-3.58354E-14
 -1      3877 1.06181E-02 3.50022E-04-3.66960E-14
 -1      3878 1.05114E-02 3.81831E-04-3.61889E-14
 -1      3879 5.41921E-03 1.77873E-04-1.43591E-14
 -1      3880 1.10816E-02 3.99266E-04-4.05511E-14
 -1      3881 1.35665E-02 6.43837E-04-6.00932E-14
 -1      3882 1.33650E-02 6.33513E-04-5.85348E-14
 -1      3883 1.35546E-02 6.04794E-04-6.00413E-14
 -1      3884 2.16054E-03-1.81741E-04-2.59409E-15
 -1      3885 5.96077E-03-6.62389E-05-1.73717E-14
 -1      3886 5.85465E-03-4.84161E-05-1.69394E-14
 -1      3887 1.35297E-02 3.63356E-04-6.01515E-14
 -1      3888 5.57173E-03 8.96124E-05-1.62960E-14
 -1      3889 5.53568E-03 1.01206E-04-1.58841E-14
 -1      3890 5.54610E-03 7.83592E-05-1.61237E-14
 -1      3891 5.61359E-03 1.42189E-04-1.59370E-14
 -1      3892 5.64320E-03 1.63723E-04-1.58625E-14
 -1      3893 5.55056E-03 1.61572E-04-1.52962E-14
 -1      3894 5.56782E-03 1.28188E-04-1.58011E-14
 -1      3895 6.27574E-03-1.82904E-04-1.82396E-14
 -1      3896 5.79260E-03-1.14825E-04-1.61081E-14
 -1      3897 3.08664E-03 2.46579E-04-4.73147E-15
 -1      3898 3.00975E-03 2.12656E-04-4.55159E-15
 -1      3899 3.22847E-03 2.44315E-04-5.15014E-15
 -1      3900 1.06457E-02 2.08109E-04-3.64775E-14
 -1      3901 1.06308E-02 1.90699E-04-3.66528E-14
 -1      3902 1.07270E-02 2.24887E-04-3.71218E-14
 -1      3903 1.44799E-03 1.16162E-04-1.24384E-15
 -1      3904 1.43271E-03 7.54683E-05-1.24828E-15
 -1      3905 1.53407E-03 1.27972E-04-1.36851E-15
 -1      3906 4.61024E-03 2.10649E-04-1.02209E-14
 -1      3907 4.47584E-03 2.13652E-04-9.64291E-15
 -1      3908 4.39434E-03 1.84852E-04-9.38592E-15
 -1      3909 4.65915E-03 1.79769E-04-1.05411E-14
 -1      3910 1.50494E-03 5.64887E-05-1.37374E-15
 -1      3911 1.41914E-03 4.57420E-05-1.25137E-15
 -1      3912 1.38228E-03-7.45586E-07-1.25544E-15
 -1      3913 5.76407E-03-6.87976E-05-1.62790E-14
 -1      3914 5.69745E-03-1.06037E-05-1.63869E-14
 -1      3915 5.59219E-03 2.65332E-06-1.59013E-14
 -1      3916 5.63401E-03-7.13729E-05-1.55710E-14
 -1      3917 1.35524E-02 3.94808E-04-6.02805E-14
 -1      3918 1.35666E-02 4.33776E-04-6.03348E-14
 -1      3919 1.34520E-02 4.41642E-04-5.94463E-14
 -1      3920 1.34072E-02 3.79428E-04-5.91907E-14
 -1      3921 4.70797E-03 1.50508E-04-1.08625E-14
 -1      3922 4.57883E-03 1.52212E-04-1.02700E-14
 -1      3923 2.66590E-03-1.63019E-04-3.81542E-15
 -1      3924 2.82042E-03-1.54505E-04-4.19907E-15
 -1      3925 2.97314E-03-1.49332E-04-4.59805E-15
 -1      3926 3.12160E-03-1.42619E-04-5.01042E-15
 -1      3927 2.90140E-03-1.13312E-04-4.40267E-15
 -1      3928 3.26604E-03-1.39730E-04-5.43744E-15
 -1      3929 3.40859E-03-1.37120E-04-5.88085E-15
 -1      3930 3.19658E-03-1.06851E-04-5.22772E-15
 -1      3931 3.54954E-03-1.34591E-04-6.33956E-15
 -1      3932 3.68998E-03-1.32420E-04-6.81485E-15
 -1      3933 3.47670E-03-1.03225E-04-6.11318E-15
 -1      3934 3.82807E-03-1.29398E-04-7.30558E-15
 -1      3935 3.96531E-03-1.26108E-04-7.81268E-15
 -1      3936 3.75350E-03-9.85627E-05-7.06298E-15
 -1      3937 4.10163E-03-1.22639E-04-8.33518E-15
 -1      3938 4.23703E-03-1.18933E-04-8.87213E-15
 -1      3939 4.02650E-03-9.29591E-05-8.07630E-15
 -1      3940 4.37143E-03-1.15085E-04-9.42481E-15
 -1      3941 4.50490E-03-1.11030E-04-9.99252E-15
 -1      3942 4.29519E-03-8.64489E-05-9.15186E-15
 -1      3943 4.63731E-03-1.06865E-04-1.05749E-14
 -1      3944 4.76885E-03-1.02525E-04-1.11729E-14
 -1      3945 4.55913E-03-7.90117E-05-1.02877E-14
 -1      3946 4.89933E-03-9.81034E-05-1.17850E-14
 -1      3947 5.02912E-03-9.35719E-05-1.24115E-14
 -1      3948 4.81793E-03-7.05685E-05-1.14823E-14
 -1      3949 5.15798E-03-8.90379E-05-1.30539E-14
 -1      3950 5.28658E-03-8.45455E-05-1.37092E-14
 -1      3951 5.07133E-03-6.10048E-05-1.27364E-14
 -1      3952 5.39614E-03-7.96706E-05-1.42867E-14
 -1      3953 5.52454E-03-7.56381E-05-1.49693E-14
 -1      3954 5.51023E-03-3.79567E-05-1.51331E-14
 -1      3955 5.30188E-03-5.01094E-05-1.39577E-14
 -1      3956 1.14071E-02 4.07013E-04-4.31243E-14
 -1      3957 1.12814E-02 3.92561E-04-4.20917E-14
 -1      3958 1.08255E-02 1.70855E-04-3.88591E-14
 -1      3959 1.09450E-02 1.78675E-04-3.98655E-14
 -1      3960 1.10662E-02 1.87206E-04-4.08782E-14
 -1      3961 1.11893E-02 1.96056E-04-4.18945E-14
 -1      3962 1.10351E-02 2.09227E-04-4.03821E-14
 -1      3963 1.13141E-02 2.05451E-04-4.29156E-14
 -1      3964 1.14405E-02 2.15117E-04-4.39423E-14
 -1      3965 1.12757E-02 2.27357E-04-4.24184E-14
 -1      3966 1.15683E-02 2.25208E-04-4.49721E-14
 -1      3967 1.16976E-02 2.35527E-04-4.60070E-14
 -1      3968 1.15248E-02 2.47457E-04-4.44713E-14
 -1      3969 1.18282E-02 2.46190E-04-4.70450E-14
 -1      3970 1.19600E-02 2.57044E-04-4.80875E-14
 -1      3971 1.17808E-02 2.69083E-04-4.65422E-14
 -1      3972 1.20929E-02 2.68178E-04-4.91314E-14
 -1      3973 1.22268E-02 2.79480E-04-5.01779E-14
 -1      3974 1.20426E-02 2.91888E-04-4.86286E-14
 -1      3975 1.23618E-02 2.91015E-04-5.12260E-14
 -1      3976 1.24976E-02 3.02700E-04-5.22735E-14
 -1      3977 1.23093E-02 3.15613E-04-5.07246E-14
 -1      3978 1.26342E-02 3.14584E-04-5.33247E-14
 -1      3979 1.27716E-02 3.26603E-04-5.43749E-14
 -1      3980 1.25800E-02 3.40070E-04-5.28294E-14
 -1      3981 1.29097E-02 3.38795E-04-5.54260E-14
 -1      3982 1.30484E-02 3.51109E-04-5.64778E-14
 -1      3983 1.28541E-02 3.65116E-04-5.49364E-14
 -1      3984 1.31576E-02 3.58949E-04-5.73057E-14
 -1      3985 1.32972E-02 3.71474E-04-5.83591E-14
 -1      3986 1.33199E-02 4.02333E-04-5.84848E-14
 -1      3987 1.31011E-02 3.85970E-04-5.68219E-14
 -1      3988 5.20543E-03 1.48466E-04-1.33799E-14
 -1      3989 5.08412E-03 1.48286E-04-1.27292E-14
 -1      3990 1.11577E-02 3.78754E-04-4.10632E-14
 -1      3991 1.10358E-02 3.65361E-04-4.00416E-14
 -1      3992 1.12268E-02 3.59839E-04-4.15752E-14
 -1      3993 4.96080E-03 1.48467E-04-1.20931E-14
 -1      3994 4.83528E-03 1.49318E-04-1.14706E-14
 -1      3995 5.00346E-03 1.22417E-04-1.24282E-14
 -1      3996 1.45257E-03-1.24843E-04-1.27265E-15
 -1      3997 1.29321E-03-4.44814E-05-1.22236E-15
 -1      3998 1.29471E-03-2.57671E-05-1.24231E-15
 -1      3999 1.36605E-03-4.34199E-05-1.32879E-15
 -1      4000 5.44059E-03 1.50734E-04-1.47212E-14
 -1      4001 5.32408E-03 1.49422E-04-1.40439E-14
 -1      4002 5.23901E-03 1.23624E-04-1.37285E-14
 -1      4003 1.19259E-02 4.68594E-04-4.73057E-14
 -1      4004 1.17940E-02 4.52687E-04-4.62519E-14
 -1      4005 1.21932E-02 5.00887E-04-4.94222E-14
 -1      4006 1.20590E-02 4.84643E-04-4.83622E-14
 -1      4007 1.19889E-02 4.47603E-04-4.78192E-14
 -1      4008 1.24645E-02 5.33518E-04-5.15545E-14
 -1      4009 1.23284E-02 5.17166E-04-5.04865E-14
 -1      4010 1.22552E-02 4.78810E-04-4.99354E-14
 -1      4011 1.27392E-02 5.66106E-04-5.36957E-14
 -1      4012 1.26015E-02 5.49822E-04-5.26246E-14
 -1      4013 1.25259E-02 5.10315E-04-5.20648E-14
 -1      4014 1.30166E-02 5.98375E-04-5.58458E-14
 -1      4015 1.28776E-02 5.82280E-04-5.47713E-14
 -1      4016 1.28001E-02 5.41804E-04-5.42042E-14
 -1      4017 1.32605E-02 6.23985E-04-5.77297E-14
 -1      4018 1.31206E-02 6.08142E-04-5.66513E-14
 -1      4019 1.30417E-02 5.66983E-04-5.60807E-14
 -1      4020 1.32494E-02 5.85721E-04-5.76882E-14
 -1      4021 1.35724E-02 5.35016E-04-6.02577E-14
 -1      4022 1.35851E-02 5.73895E-04-6.03127E-14
 -1      4023 1.33844E-02 5.64593E-04-5.87655E-14
 -1      4024 1.34445E-02 5.03541E-04-5.93077E-14
 -1      4025 1.16636E-02 4.37121E-04-4.52051E-14
 -1      4026 1.15345E-02 4.21811E-04-4.41638E-14
 -1      4027 1.14733E-02 3.87700E-04-4.36375E-14
 -1      4028 1.17279E-02 4.17090E-04-4.57189E-14
 -1      4029 6.05247E-03-1.19065E-04-1.74530E-14
 -1      4030 1.07536E-02 2.72528E-04-3.71799E-14
 -1      4031 1.07902E-02 2.60130E-04-3.75366E-14
 -1      4032 1.45303E-03-5.70877E-05-1.29631E-15
 -1      4033 1.45724E-03-9.50871E-05-1.28698E-15
 -1      4034 1.52747E-03-1.22428E-04-1.38898E-15
 -1      4035 1.53590E-03-5.76112E-05-1.41227E-15
 -1      4036 3.51057E-03 2.38575E-04-6.03644E-15
 -1      4037 3.36979E-03 2.41641E-04-5.58539E-15
 -1      4038 3.29277E-03 2.08776E-04-5.39019E-15
 -1      4039 3.57329E-03 2.03508E-04-6.29344E-15
 -1      4040 2.65865E-03 2.49931E-04-3.57532E-15
 -1      4041 2.51499E-03 2.49494E-04-3.22480E-15
 -1      4042 2.72472E-03 2.14604E-04-3.77979E-15
 -1      4043 2.37117E-03 2.48236E-04-2.89168E-15
 -1      4044 2.22712E-03 2.46016E-04-2.57659E-15
 -1      4045 2.15077E-03 2.10158E-04-2.44559E-15
 -1      4046 2.43821E-03 2.14011E-04-3.07706E-15
 -1      4047 1.84163E-03-1.91440E-04-1.86462E-15
 -1      4048 1.94853E-03-1.94469E-04-2.13005E-15
 -1      4049 1.06906E-02 3.34603E-04-3.71117E-14
 -1      4050 2.07576E-03-8.73098E-05-2.41091E-15
 -1      4051 2.23956E-03-1.00252E-04-2.73037E-15
 -1      4052 1.98885E-03-1.01370E-04-2.23516E-15
 -1      4053 2.35962E-03-1.79698E-04-3.08903E-15
 -1      4054 2.50826E-03-1.77918E-04-3.44611E-15
 -1      4055 2.26730E-03-1.07935E-04-2.89254E-15
 -1      4056 4.50221E-03 1.24905E-04-9.99882E-15
 -1      4057 4.44812E-03 1.54161E-04-9.69187E-15
 -1      4058 4.31587E-03 1.56459E-04-9.12868E-15
 -1      4059 3.07549E-03 1.77378E-04-4.77644E-15
 -1      4060 2.93364E-03 1.78634E-04-4.37299E-15
 -1      4061 3.91136E-03 1.64089E-04-7.53460E-15
 -1      4062 3.77423E-03 1.66727E-04-7.03495E-15
 -1      4063 1.63459E-03-1.03927E-04-1.56329E-15
 -1      4064 4.75717E-03 1.22897E-04-1.11847E-14
 -1      4065 1.07244E-02 1.76105E-04-3.78226E-14
 -1      4066 1.08170E-02 2.05140E-04-3.83326E-14
 -1      4067 2.79128E-03 1.79424E-04-3.98662E-15
 -1      4068 2.64846E-03 1.79737E-04-3.61735E-15
 -1      4069 2.85832E-03 1.44471E-04-4.19575E-15
 -1      4070 5.49967E-03 4.52384E-05-1.56596E-14
 -1      4071 5.51930E-03 6.26303E-05-1.58917E-14
 -1      4072 5.46347E-03 7.33228E-05-1.54867E-14
 -1      4073 1.09162E-02 3.52774E-04-3.90272E-14
 -1      4074 1.07986E-02 3.40619E-04-3.80168E-14
 -1      4075 1.08688E-02 2.67926E-04-3.83125E-14
 -1      4076 1.08015E-02 2.45914E-04-3.77166E-14
 -1      4077 1.08052E-02 2.31173E-04-3.78944E-14
 -1      4078 1.06118E-02 1.69821E-04-3.68262E-14
 -1      4079 1.09903E-02 3.33655E-04-3.95358E-14
 -1      4080 4.18228E-03 1.58881E-04-8.58211E-15
 -1      4081 4.04739E-03 1.61487E-04-8.05016E-15
 -1      4082 4.24015E-03 1.28050E-04-8.87311E-15
 -1      4083 2.58432E-03-1.26588E-04-3.63532E-15
 -1      4084 5.45494E-03 1.33859E-04-1.49699E-14
 -1      4085 1.62029E-03 1.38898E-04-1.49900E-15
 -1      4086 1.60671E-03 9.94096E-05-1.50327E-15
 -1      4087 1.70656E-03 1.51278E-04-1.63667E-15
 -1      4088 1.33407E-02 4.66159E-04-5.85513E-14
 -1      4089 1.33113E-02 4.96567E-04-5.82827E-14
 -1      4090 1.69532E-03-1.11245E-04-1.64944E-15
 -1      4091 1.85437E-03 1.63857E-04-1.89482E-15
 -1      4092 1.07673E-02 2.93869E-04-3.74240E-14
 -1      4093 1.07739E-02 3.14020E-04-3.76187E-14
 -1      4094 5.50310E-03 1.09363E-04-1.55505E-14
 -1      4095 5.48867E-03 1.23248E-04-1.53017E-14
 -1      4096 5.39006E-03 1.14464E-04-1.47255E-14
 -1      4097 5.46401E-03 9.64260E-05-1.53832E-14
 -1      4098 1.59697E-03 6.11742E-05-1.50150E-15
 -1      4099 1.56944E-03 2.68271E-05-1.49359E-15
 -1      4100 1.68609E-03 7.61044E-05-1.63918E-15
 -1      4101 3.97217E-03 1.31850E-04-7.81040E-15
 -1      4102 1.33422E-02 4.33166E-04-5.86099E-14
 -1      4103 1.32094E-02 4.26872E-04-5.75909E-14
 -1      4104 3.21672E-03 1.75776E-04-5.19577E-15
 -1      4105 3.14161E-03 1.42548E-04-5.00221E-15
 -1      4106 3.35730E-03 1.73826E-04-5.63139E-15
 -1      4107 3.69922E-03 1.35828E-04-6.81050E-15
 -1      4108 3.63613E-03 1.69239E-04-6.55121E-15
 -1      4109 3.49712E-03 1.71650E-04-6.08349E-15
 -1      4110 2.01659E-03 1.63711E-04-2.20734E-15
 -1      4111 1.85913E-03 1.23044E-04-1.93149E-15
 -1      4112 3.12321E-03-7.36106E-05-5.01880E-15
 -1      4113 3.26379E-03-7.24195E-05-5.44522E-15
 -1      4114 3.40358E-03-7.10280E-05-5.88809E-15
 -1      4115 3.54252E-03-6.93953E-05-6.34712E-15
 -1      4116 3.33161E-03-3.85129E-05-5.66379E-15
 -1      4117 3.68052E-03-6.75748E-05-6.82137E-15
 -1      4118 3.81753E-03-6.55020E-05-7.31258E-15
 -1      4119 3.60896E-03-3.62528E-05-6.58166E-15
 -1      4120 3.95341E-03-6.32635E-05-7.81977E-15
 -1      4121 4.08815E-03-6.07599E-05-8.34138E-15
 -1      4122 3.88218E-03-3.33091E-05-7.56334E-15
 -1      4123 4.22162E-03-5.80536E-05-8.87997E-15
 -1      4124 4.35379E-03-5.50517E-05-9.43329E-15
 -1      4125 4.15049E-03-2.95471E-05-8.60801E-15
 -1      4126 4.48449E-03-5.18214E-05-1.00010E-14
 -1      4127 4.61375E-03-4.82373E-05-1.05843E-14
 -1      4128 4.41313E-03-2.47851E-05-9.71556E-15
 -1      4129 4.74129E-03-4.43776E-05-1.11814E-14
 -1      4130 4.86722E-03-4.00691E-05-1.17936E-14
 -1      4131 4.66913E-03-1.87614E-05-1.08811E-14
 -1      4132 4.99112E-03-3.54135E-05-1.24200E-14
 -1      4133 5.11326E-03-3.01725E-05-1.30621E-14
 -1      4134 4.91716E-03-1.10917E-05-1.21055E-14
 -1      4135 1.09045E-02 2.28791E-04-3.89337E-14
 -1      4136 2.51724E-03-8.60682E-05-3.46085E-15
 -1      4137 2.67645E-03-7.81681E-05-3.82833E-15
 -1      4138 1.31002E-02 4.18363E-04-5.67576E-14
 -1      4139 1.12359E-02 2.47752E-04-4.19179E-14
 -1      4140 1.13569E-02 2.57787E-04-4.29410E-14
 -1      4141 1.14800E-02 2.68478E-04-4.39682E-14
 -1      4142 1.16053E-02 2.79464E-04-4.50002E-14
 -1      4143 1.14334E-02 2.88282E-04-4.34646E-14
 -1      4144 1.17324E-02 2.90930E-04-4.60384E-14
 -1      4145 1.18613E-02 3.02630E-04-4.70805E-14
 -1      4146 1.16827E-02 3.11747E-04-4.55315E-14
 -1      4147 1.19916E-02 3.14682E-04-4.81243E-14
 -1      4148 1.21233E-02 3.26914E-04-4.91713E-14
 -1      4149 1.19394E-02 3.36578E-04-4.76179E-14
 -1      4150 1.22562E-02 3.39407E-04-5.02220E-14
 -1      4151 1.23903E-02 3.52034E-04-5.12748E-14
 -1      4152 1.22023E-02 3.62409E-04-4.97164E-14
 -1      4153 1.25253E-02 3.64854E-04-5.23290E-14
 -1      4154 1.26614E-02 3.77772E-04-5.33857E-14
 -1      4155 1.24700E-02 3.88944E-04-5.18261E-14
 -1      4156 1.27982E-02 3.90834E-04-5.44417E-14
 -1      4157 1.29358E-02 4.03966E-04-5.55000E-14
 -1      4158 1.27419E-02 4.15949E-04-5.39431E-14
 -1      4159 1.12895E-02 3.41994E-04-4.20851E-14
 -1      4160 1.11707E-02 3.29021E-04-4.10601E-14
 -1      4161 5.04800E-03 9.82660E-05-1.27642E-14
 -1      4162 4.92930E-03 9.74781E-05-1.21288E-14
 -1      4163 1.25858E-02 4.86923E-04-5.25744E-14
 -1      4164 1.24501E-02 4.71721E-04-5.15080E-14
 -1      4165 1.55865E-03-8.02453E-06-1.49360E-15
 -1      4166 1.38207E-03-3.96415E-05-1.42508E-15
 -1      4167 1.64682E-03 1.71481E-05-1.61408E-15
 -1      4168 1.08650E-02 3.01368E-04-3.83281E-14
 -1      4169 1.20493E-02 4.26587E-04-4.83304E-14
 -1      4170 1.19183E-02 4.11765E-04-4.72787E-14
 -1      4171 1.57543E-03-8.96984E-05-1.58195E-15
 -1      4172 4.80780E-03 9.68560E-05-1.15064E-14
 -1      4173 4.68370E-03 9.68212E-05-1.08993E-14
 -1      4174 4.86057E-03 7.23847E-05-1.18290E-14
 -1      4175 5.27511E-03 1.01312E-04-1.40783E-14
 -1      4176 5.16331E-03 9.97755E-05-1.34141E-14
 -1      4177 5.09533E-03 7.60960E-05-1.31003E-14
 -1      4178 1.10092E-02 2.33424E-04-3.99127E-14
 -1      4179 1.11242E-02 2.42289E-04-4.09253E-14
 -1      4180 1.11993E-02 2.70822E-04-4.14432E-14
 -1      4181 1.09831E-02 2.58833E-04-3.94710E-14
 -1      4182 4.03363E-03 1.00633E-04-8.08633E-15
 -1      4183 3.89888E-03 1.01950E-04-7.57055E-15
 -1      4184 5.50542E-03-7.47797E-06-1.53191E-14
 -1      4185 5.49571E-03 2.21760E-05-1.54788E-14
 -1      4186 5.41878E-03 3.58439E-05-1.50821E-14
 -1      4187 5.40751E-03-1.46917E-05-1.47220E-14
 -1      4188 1.32960E-02 5.26157E-04-5.81242E-14
 -1      4189 1.32656E-02 5.56251E-04-5.78480E-14
 -1      4190 1.31618E-02 5.47225E-04-5.70464E-14
 -1      4191 1.31930E-02 4.88818E-04-5.73695E-14
 -1      4192 2.34398E-03-1.88954E-04-2.34502E-15
 -1      4193 2.45897E-03 4.26388E-05-2.61660E-15
 -1      4194 2.83000E-03-7.62196E-05-4.20979E-15
 -1      4195 2.98193E-03-7.45468E-05-4.60775E-15
 -1      4196 2.76722E-03-4.10961E-05-4.02151E-15
 -1      4197 2.14655E-03-1.11555E-04-2.69398E-15
 -1      4198 2.34019E-03-9.71744E-05-3.09866E-15
 -1      4199 2.19466E-03-4.09246E-05-2.64698E-15
 -1      4200 1.09406E-02 3.08698E-04-3.90225E-14
 -1      4201 1.09232E-02 2.89706E-04-3.88235E-14
 -1      4202 1.09415E-02 2.74510E-04-3.90051E-14
 -1      4203 1.10533E-02 3.21053E-04-4.00339E-14
 -1      4204 1.30430E-02 4.44512E-04-5.62668E-14
 -1      4205 3.76287E-03 1.03262E-04-7.07065E-15
 -1      4206 3.62571E-03 1.04627E-04-6.58662E-15
 -1      4207 3.82727E-03 7.15626E-05-7.33193E-15
 -1      4208 2.16038E-03 1.66384E-04-2.49905E-15
 -1      4209 6.17590E-03-1.53331E-04-1.78851E-14
 -1      4210 2.92596E-03 1.09774E-04-4.40629E-15
 -1      4211 2.78385E-03 1.10211E-04-4.01925E-15
 -1      4212 1.30282E-02 4.73349E-04-5.61035E-14
 -1      4213 5.21115E-03-2.60057E-05-1.35954E-14
 -1      4214 5.31278E-03-1.97582E-05-1.41704E-14
 -1      4215 5.32073E-03 6.82703E-06-1.43489E-14
 -1      4216 5.13390E-03-2.49169E-06-1.32667E-14
 -1      4217 2.57291E-03 1.44873E-04-3.45587E-15
 -1      4218 2.50527E-03 1.79451E-04-3.26509E-15
 -1      4219 2.36178E-03 1.78542E-04-2.93061E-15
 -1      4220 1.84901E-03 9.21535E-05-1.92751E-15
 -1      4221 2.48156E-03-4.13900E-05-3.29947E-15
 -1      4222 4.16698E-03 9.94740E-05-8.61842E-15
 -1      4223 4.09600E-03 7.04381E-05-8.36352E-15
 -1      4224 4.29884E-03 9.84003E-05-9.16529E-15
 -1      4225 1.11118E-02 3.04334E-04-4.05405E-14
 -1      4226 5.38488E-03 6.39537E-05-1.49332E-14
 -1      4227 5.42079E-03 8.02073E-05-1.51585E-14
 -1      4228 5.37940E-03 8.80139E-05-1.48325E-14
 -1      4229 3.20828E-03 1.08190E-04-5.22962E-15
 -1      4230 3.06746E-03 1.09106E-04-4.81008E-15
 -1      4231 2.99421E-03 7.53961E-05-4.61908E-15
 -1      4232 1.23154E-02 4.56600E-04-5.04459E-14
 -1      4233 1.21817E-02 4.41508E-04-4.93870E-14
 -1      4234 1.28599E-02 5.17295E-04-5.47106E-14
 -1      4235 1.27224E-02 5.02102E-04-5.36407E-14
 -1      4236 1.26446E-02 4.63173E-04-5.30807E-14
 -1      4237 4.61415E-03 7.04383E-05-1.06141E-14
 -1      4238 4.55739E-03 9.70023E-05-1.03060E-14
 -1      4239 4.42902E-03 9.76187E-05-9.72783E-15
 -1      4240 1.21077E-02 4.05229E-04-4.88421E-14
 -1      4241 1.23740E-02 4.34025E-04-5.09544E-14
 -1      4242 3.05081E-03-4.01237E-05-4.81016E-15
 -1      4243 5.31736E-03 9.17727E-05-1.43998E-14
 -1      4244 2.22863E-03 1.33080E-04-2.66654E-15
 -1      4245 1.28305E-02 4.53871E-04-5.45771E-14
 -1      4246 1.29788E-02 4.97962E-04-5.56775E-14
 -1      4247 3.53874E-03-4.55136E-06-6.34237E-15
 -1      4248 3.67621E-03-3.80983E-06-6.81673E-15
 -1      4249 3.85229E-03 1.89653E-05-7.45138E-15
 -1      4250 3.98696E-03 1.96039E-05-7.96292E-15
 -1      4251 4.12021E-03 2.03219E-05-8.48963E-15
 -1      4252 4.25196E-03 2.13587E-05-9.03307E-15
 -1      4253 4.38201E-03 2.25271E-05-9.59087E-15
 -1      4254 4.51028E-03 2.41361E-05-1.01639E-14
 -1      4255 4.63646E-03 2.59242E-05-1.07521E-14
 -1      4256 4.76049E-03 2.83159E-05-1.13543E-14
 -1      4257 4.88191E-03 3.09190E-05-1.19717E-14
 -1      4258 5.00063E-03 3.43813E-05-1.26030E-14
 -1      4259 1.13840E-02 3.07117E-04-4.29591E-14
 -1      4260 1.15062E-02 3.19140E-04-4.39884E-14
 -1      4261 3.42213E-03 1.39532E-04-5.87434E-15
 -1      4262 1.30583E-02 5.38135E-04-5.62468E-14
 -1      4263 1.18940E-02 3.57121E-04-4.71797E-14
 -1      4264 1.20241E-02 3.70467E-04-4.82278E-14
 -1      4265 1.21556E-02 3.84083E-04-4.92792E-14
 -1      4266 1.22885E-02 3.97814E-04-5.03332E-14
 -1      4267 1.24225E-02 4.11722E-04-5.13915E-14
 -1      4268 1.25576E-02 4.25694E-04-5.24522E-14
 -1      4269 1.26936E-02 4.39774E-04-5.35133E-14
 -1      4270 1.14027E-02 3.55625E-04-4.30420E-14
 -1      4271 1.13389E-02 3.24648E-04-4.25214E-14
 -1      4272 1.11598E-02 2.87897E-04-4.10093E-14
 -1      4273 1.10470E-02 2.81080E-04-3.99870E-14
 -1      4274 2.71017E-03 7.58373E-05-3.84434E-15
 -1      4275 2.64122E-03 1.10314E-04-3.64898E-15
 -1      4276 2.49817E-03 1.10092E-04-3.29581E-15
 -1      4277 5.11602E-03 3.80462E-05-1.32474E-14
 -1      4278 1.15265E-02 3.69371E-04-4.40771E-14
 -1      4279 3.02108E-03 1.75223E-05-4.71769E-15
 -1      4280 3.16193E-03 1.76637E-05-5.13362E-15
 -1      4281 1.17887E-02 3.97228E-04-4.62311E-14
 -1      4282 1.16609E-02 3.82862E-04-4.51888E-14
 -1      4283 1.79560E-03-3.29267E-05-1.85598E-15
 -1      4284 2.02355E-03 1.23433E-04-2.22874E-15
 -1      4285 1.81858E-03 9.86775E-05-1.88453E-15
 -1      4286 1.18468E-02 3.77084E-04-4.67410E-14
 -1      4287 3.28130E-03 6.08091E-06-5.50257E-15
 -1      4288 3.42061E-03 6.45128E-06-5.94824E-15
 -1      4289 3.49040E-03 3.90680E-05-6.16880E-15
 -1      4290 3.25419E-03 6.27300E-05-5.39846E-15
 -1      4291 2.73737E-03 1.73127E-05-3.93594E-15
 -1      4292 2.87953E-03 1.74422E-05-4.31868E-15
 -1      4293 1.78223E-03 9.10641E-05-1.85685E-15
 -1      4294 5.27349E-03 7.46788E-05-1.41811E-14
 -1      4295 2.45163E-03 1.70279E-05-3.22142E-15
 -1      4296 2.59471E-03 1.72063E-05-3.57014E-15
 -1      4297 1.12719E-02 2.94866E-04-4.20027E-14
 -1      4298 1.15844E-02 3.50441E-04-4.45865E-14
 -1      4299 1.16388E-02 3.31165E-04-4.50960E-14
 -1      4300 1.17655E-02 3.43950E-04-4.61367E-14
 -1      4301 3.48750E-03 1.05905E-04-6.11886E-15
 -1      4302 3.34832E-03 1.07134E-04-5.66611E-15
 -1      4303 4.35871E-03 6.99242E-05-9.45827E-15
 -1      4304 5.36567E-03 5.13044E-05-1.47915E-14
 -1      4305 5.31552E-03 5.87232E-05-1.44706E-14
 -1      4306 5.24883E-03 6.18949E-05-1.40437E-14
 -1      4307 5.34897E-03 2.95772E-05-1.46173E-14
 -1      4308 2.28522E-03 3.97103E-06-2.84076E-15
 -1      4309 2.40064E-03 6.23814E-05-3.08782E-15
 -1      4310 3.55350E-03 7.29760E-05-6.36413E-15
 -1      4311 2.54044E-03-7.48907E-05-2.70958E-15
 -1      4312 2.39777E-03 4.74206E-05-2.45766E-15
 -1      4313 2.09882E-03 6.86144E-05-2.44074E-15
 -1      4314 5.16875E-03 2.02276E-05-1.35254E-14
 -1      4315 3.78554E-03 4.98503E-05-7.19262E-15
 -1      4316 2.13015E-03 8.53107E-05-2.48168E-15
 -1      4317 2.33091E-03 9.63438E-05-2.91287E-15
 -1      4318 5.26025E-03 2.44474E-05-1.40669E-14
 -1      4319 3.27556E-03 7.43537E-05-5.45894E-15
 -1      4320 3.64899E-03 5.01085E-05-6.70538E-15
 -1      4321 3.51129E-03 5.04319E-05-6.23385E-15
 -1      4322 3.39374E-03 6.22374E-05-5.84090E-15
 -1      4323 2.37944E-03 2.54019E-05-2.34953E-15
 -1      4324 1.98241E-03 1.06017E-04-2.07331E-15
 -1      4325 2.08119E-03 2.54430E-06-2.09195E-15
 -1      4326 1.74035E-03 4.02044E-05-1.75179E-15
 -3
    1PSTEP                         2           1           1          
  100CL  101 1.000000000        4326                     0    1           1
 -4  STRESS      6    1
 -5  SXX         1    4    1    1
 -5  SYY         1    4    2    2
 -5  SZZ         1    4    3    3
 -5  SXY         1    4    1    2
 -5  SYZ         1    4    2    3
 -5  SZX         1    4    3    1
 -1         1 2.38519E+01 1.10182E+01 1.06865E+00-1.58163E+01-1.11794E-12 1.35686E-12
 -1         2-7.76463E-01-2.43028E+01-3.35766E+00-3.44676E-02-1.64423E-12-3.08295E-14
 -1         3 1.99996E+01-2.17722E-04 4.58080E-03-2.69803E-04-2.25967E-13-1.73352E-13
 -1         4 1.99995E+01-3.37182E-04 4.45137E-03 3.88224E-04 1.67850E-13 6.45243E-14
 -1         5 3.24104E+01 6.07924E+00 2.68775E+00 6.13475E+00-2.63053E-14 1.77340E-12
 -1         6 3.52846E+01 1.21166E+01 5.10386E+00-8.58067E+00-1.08080E-13 1.60166E-12
 -1         7 2.03513E+01 5.96828E+00-1.49620E-01-4.75794E+00-1.73334E-14 2.37428E-13
 -1         8 1.93071E+01 5.82820E+00 4.66745E-02-3.35217E+00-1.94324E-14-1.81097E-13
 -1         9 1.88683E+01 5.69126E+00 5.23419E-02-2.60022E+00-1.68077E-14-4.12885E-13
 -1        10 1.86964E+01 5.63117E+00 5.66463E-02-2.00225E+00-1.16504E-14-5.18374E-13
 -1        11 1.86158E+01 5.60180E+00 5.74031E-02-1.47727E+00-8.58168E-15-5.54966E-13
 -1        12 1.85508E+01 5.57966E+00 5.59034E-02-1.00523E+00-3.66677E-15-5.62326E-13
 -1        13 1.84623E+01 5.55219E+00 4.96927E-02-5.67934E-01-3.84285E-15-5.56171E-13
 -1        14 1.83610E+01 5.52217E+00 4.02899E-02-1.81790E-01 2.48109E-15-5.42347E-13
 -1        15 1.82956E+01 5.50358E+00 3.39626E-02 1.61266E-01 4.48372E-15-5.21555E-13
 -1        16 1.83077E+01 5.50844E+00 3.53404E-02 4.96740E-01 4.18871E-15-5.09163E-13
 -1        17 1.83982E+01 5.53670E+00 4.25214E-02 8.67196E-01 5.12524E-15-4.93501E-13
 -1        18 1.85422E+01 5.58201E+00 5.04009E-02 1.29128E+00 1.15429E-14-4.46536E-13
 -1        19 1.87400E+01 5.64509E+00 5.50474E-02 1.79779E+00 1.55292E-14-3.72828E-13
 -1        20 1.90340E+01 5.74089E+00 5.42117E-02 2.40095E+00 1.99910E-14-2.42279E-13
 -1        21 1.95827E+01 5.92180E+00 5.27695E-02 3.17114E+00 2.41612E-14 2.05378E-14
 -1        22 2.10913E+01 6.34332E+00 1.45080E-01 4.41112E+00 5.31519E-15 5.61011E-13
 -1        23 2.24929E+01-1.34419E+00-9.15041E-01-7.30917E-01-6.89136E-14 1.23621E-12
 -1        24 1.86358E+01-8.10869E-02-2.77730E-01 5.69261E-02-1.42564E-14 9.40375E-13
 -1        25 1.72830E+01-9.93278E-02-9.12767E-02-6.94216E-02 4.12745E-15 6.21597E-13
 -1        26 1.43029E+01 4.23661E-01-4.52128E-01-1.25864E-01-2.85015E-14 7.18176E-14
 -1        27 2.20204E+01 2.01721E+00 2.49283E+00-1.62294E+00-2.08875E-13-2.64788E-14
 -1        28 2.08215E+01-4.26681E-01-5.53692E-02 9.89598E-02 1.54399E-14 1.87371E-13
 -1        29 1.99016E+01-6.81005E-02-7.77880E-02 3.76470E-02 9.93129E-16 1.31223E-13
 -1        30 1.96735E+01-1.70556E-02-3.45420E-02 2.22579E-03 8.65475E-15 1.49639E-13
 -1        31 1.96392E+01-1.09838E-02-1.97205E-02 7.16155E-04-8.41861E-15 8.90560E-14
 -1        32 1.97690E+01-1.19058E-02-1.89777E-02 2.30299E-03-3.40370E-14-1.22489E-13
 -1        33 2.00657E+01-3.51741E-02-2.15383E-02-2.71687E-03 3.74738E-14-1.71626E-13
 -1        34 2.04780E+01 1.49117E-01 1.27556E-01 1.15061E-01 6.56593E-16-1.18711E-13
 -1        35 2.05113E+01-3.08306E-03-3.86571E-03 6.70360E-03 1.05617E-14-2.29984E-13
 -1        36 2.09144E+01-3.19336E-03-4.63676E-03 8.23100E-03 2.26303E-14-1.97202E-13
 -1        37 2.13710E+01-2.77953E-03-4.76783E-03 1.03739E-02-3.23880E-14-6.75050E-14
 -1        38 2.18785E+01-1.47659E-03-3.65370E-03 1.28904E-02-5.77924E-15-1.90991E-13
 -1        39 2.24198E+01 1.13017E-03-4.42926E-04 1.51984E-02-5.74349E-15-3.70043E-13
 -1        40 2.29541E+01 5.38744E-03 5.85670E-03 1.61517E-02 4.05242E-14-3.15641E-13
 -1        41 2.34087E+01 1.13088E-02 1.59560E-02 1.38329E-02 7.28367E-16-3.65433E-13
 -1        42 2.36736E+01 1.81255E-02 2.92998E-02 5.61920E-03-3.31997E-14-2.97703E-13
 -1        43 2.36111E+01 2.37892E-02 4.26215E-02-1.09827E-02-5.55287E-14-2.32538E-13
 -1        44 2.30911E+01 2.49175E-02 4.89231E-02-3.61594E-02-1.18247E-14-1.26872E-13
 -1        45 2.20623E+01 1.78756E-02 3.89224E-02-6.45789E-02 8.76773E-15-1.23811E-13
 -1        46 2.06413E+01 1.49206E-03 7.41900E-03-8.38295E-02-5.87470E-15-2.65819E-13
 -1        47 1.91603E+01-2.01357E-02-3.88521E-02-7.86126E-02 4.55418E-14 7.86662E-14
 -1        48 1.80930E+01-3.78022E-02-7.87886E-02-4.22662E-02-3.50859E-14 1.11565E-13
 -1        49 1.78422E+01-4.21753E-02-8.89022E-02 1.33495E-02 7.64128E-14 1.36016E-13
 -1        50 1.85096E+01-3.08026E-02-6.28104E-02 6.27396E-02-5.30316E-14 1.24463E-13
 -1        51 1.98321E+01-9.99361E-03-1.67255E-02 8.48059E-02 3.77389E-14 2.36974E-13
 -1        52 2.13416E+01 1.00782E-02 2.46466E-02 7.69156E-02 2.77567E-14 4.52742E-13
 -1        53 2.26118E+01 2.21837E-02 4.59950E-02 5.14616E-02-1.79830E-14 1.35426E-13
 -1        54 2.34118E+01 2.49752E-02 4.71705E-02 2.34717E-02 2.13503E-14-1.00597E-14
 -1        55 2.37148E+01 2.11812E-02 3.64236E-02 2.11557E-03-6.03502E-14-2.42189E-13
 -1        56 2.36207E+01 1.45523E-02 2.23627E-02-1.02649E-02 2.77253E-14-4.84182E-13
 -1        57 2.32709E+01 7.89833E-03 1.02181E-02-1.52775E-02 3.81622E-14-5.12313E-13
 -1        58 2.27942E+01 2.61605E-03 1.79004E-03-1.56330E-02-1.59613E-14-3.18431E-13
 -1        59 2.22849E+01-9.51251E-04-3.11722E-03-1.36499E-02 6.03830E-14-1.20691E-13
 -1        60 2.18017E+01-3.00988E-03-5.42246E-03-1.08510E-02-6.43965E-14 2.56664E-13
 -1        61 2.13754E+01-3.95050E-03-6.07656E-03-8.06846E-03 4.77142E-14 4.62381E-13
 -1        62 2.10175E+01-4.15635E-03-5.81042E-03-5.67429E-03-8.35321E-14-2.51433E-14
 -1        63 2.07282E+01-3.93166E-03-5.10895E-03-3.77900E-03 5.16163E-14-2.46680E-13
 -1        64 2.05014E+01-3.49198E-03-4.26512E-03-2.36361E-03-9.11236E-14-2.50447E-13
 -1        65 2.03283E+01-2.97879E-03-3.44505E-03-1.35448E-03-1.10942E-14 8.33506E-14
 -1        66 2.01999E+01-2.47909E-03-2.74133E-03-6.59651E-04 7.45783E-14 2.96312E-13
 -1        67 2.01077E+01-2.04146E-03-2.21068E-03-1.80571E-04 1.94468E-14 4.69188E-13
 -1        68 2.00451E+01-1.68319E-03-1.88634E-03 1.94249E-04 3.22565E-14 6.88540E-13
 -1        69 2.00071E+01-1.37833E-03-1.72353E-03 6.08256E-04 2.60169E-15 5.10718E-13
 -1        70 1.99906E+01-9.46803E-04-1.33475E-03 1.30747E-03 8.86007E-14 4.54033E-13
 -1        71 1.99932E+01 1.62052E-04 7.56482E-04 2.04418E-03-5.24514E-14 3.12393E-13
 -1        72 2.09393E+01-4.00357E-01-9.71900E-01-3.16409E-01 2.68778E-14 1.60573E-12
 -1        73 1.93397E+01-6.40026E-02-2.83959E-01-5.61821E-02 1.25225E-14 1.19723E-12
 -1        74 1.87505E+01-1.93459E-02-5.97202E-02-2.10718E-02 8.56552E-15 8.95508E-13
 -1        75 1.85619E+01-9.35309E-03-6.53260E-03-1.43522E-02 2.69305E-15 6.50762E-13
 -1        76 1.85596E+01-5.42153E-03 1.45646E-03-9.63173E-03 4.33464E-15 5.20519E-13
 -1        77 1.86506E+01-3.59149E-03 3.15943E-04-6.54543E-03 2.37093E-14 4.13664E-13
 -1        78 1.88020E+01-2.62956E-03-1.16551E-03-5.10693E-03-2.07757E-14 3.93761E-13
 -1        79 1.90009E+01-2.09786E-03-1.59538E-03-4.57087E-03 5.51588E-15 3.61342E-13
 -1        80 1.92387E+01-1.85884E-03-1.47686E-03-4.14250E-03 6.16229E-15 2.42915E-13
 -1        81 1.95089E+01-1.76094E-03-1.69801E-03-3.63558E-03 5.72664E-14-5.00155E-14
 -1        82 1.98102E+01 1.64965E-03-2.78121E-03-4.15925E-03 9.92517E-15-2.63638E-13
 -1        83 2.01717E+01-7.51741E-03-8.87885E-03 4.48974E-05-1.01389E-14-2.85495E-13
 -1        84 2.05700E+01-3.49723E-03-5.65480E-03-1.78568E-03-1.04523E-15-1.83891E-13
 -1        85 2.10260E+01-3.99752E-03-7.53323E-03-2.66184E-03-4.93721E-15-5.13673E-14
 -1        86 2.15713E+01-4.11008E-03-9.21339E-03-4.67662E-03 2.22993E-14-7.68023E-14
 -1        87 2.22207E+01-3.41819E-03-1.00403E-02-8.27012E-03 1.89580E-14-2.56461E-13
 -1        88 2.29778E+01-1.31985E-03-8.76785E-03-1.38730E-02-1.17293E-14-2.92587E-13
 -1        89 2.38218E+01 2.90625E-03-3.30682E-03-2.15750E-02 2.34677E-14-3.65067E-13
 -1        90 2.46877E+01 9.76660E-03 9.18540E-03-3.03471E-02 2.18519E-14-4.90656E-13
 -1        91 2.54408E+01 1.87519E-02 3.10657E-02-3.66959E-02-4.72810E-14-2.47904E-13
 -1        92 2.58592E+01 2.71356E-02 6.08430E-02-3.33150E-02 1.10578E-14 4.33018E-14
 -1        93 2.56523E+01 2.90201E-02 8.76639E-02-9.69243E-03-1.21533E-14 1.36184E-13
 -1        94 2.45647E+01 1.75597E-02 8.83492E-02 4.11419E-02-1.29098E-14 2.95215E-14
 -1        95 2.25927E+01-7.39762E-03 3.90330E-02 1.07348E-01-8.39454E-15-1.11314E-13
 -1        96 2.02168E+01-3.52112E-02-5.57227E-02 1.49684E-01-1.52515E-14 1.52968E-13
 -1        97 1.83662E+01-4.69965E-02-1.48165E-01 1.25354E-01-4.26655E-15 2.34594E-13
 -1        98 1.79567E+01-3.57688E-02-1.67987E-01 3.01843E-02 4.72725E-14-1.95188E-13
 -1        99 1.92108E+01-1.07543E-02-1.00366E-01-7.68163E-02-7.85938E-14-6.63768E-13
 -1       100 2.14770E+01 1.26204E-02 2.24894E-03-1.32431E-01-5.68415E-15-5.64014E-13
 -1       101 2.37429E+01 2.49970E-02 7.48691E-02-1.22865E-01-6.53861E-15-5.75970E-13
 -1       102 2.52817E+01 2.57842E-02 9.31012E-02-7.78551E-02 1.63801E-15-5.95572E-13
 -1       103 2.58920E+01 1.95954E-02 7.42823E-02-3.12991E-02-2.76712E-14-4.16524E-13
 -1       104 2.57437E+01 1.13888E-02 4.36027E-02 7.27456E-04-3.54576E-14 2.50650E-14
 -1       105 2.51315E+01 4.36326E-03 1.73124E-02 1.70127E-02 7.68189E-14-4.22029E-13
 -1       106 2.43173E+01-4.08154E-04 4.70976E-04 2.22704E-02 3.46872E-14-6.47461E-13
 -1       107 2.34773E+01-3.07271E-03-8.02429E-03 2.15604E-02-2.90236E-14-5.62814E-13
 -1       108 2.27083E+01-4.21227E-03-1.10506E-02 1.83583E-02 3.12462E-14-6.42429E-13
 -1       109 2.20513E+01-4.41143E-03-1.11241E-02 1.45645E-02 6.72401E-15-4.72514E-13
 -1       110 2.15146E+01-4.10666E-03-9.87704E-03 1.10483E-02-3.71186E-14-5.46316E-13
 -1       111 2.10900E+01-3.57932E-03-8.20917E-03 8.11812E-03 5.81189E-14-6.34384E-13
 -1       112 2.07622E+01-2.99348E-03-6.55694E-03 5.81613E-03-7.38592E-14-4.59071E-13
 -1       113 2.05144E+01-2.43693E-03-5.10373E-03 4.07642E-03 7.32982E-14-2.38640E-13
 -1       114 2.03308E+01-1.95237E-03-3.91055E-03 2.80134E-03-1.14697E-13 1.59181E-13
 -1       115 2.01977E+01-1.55674E-03-2.98968E-03 1.89148E-03 1.11812E-13-6.68231E-14
 -1       116 2.01041E+01-1.24914E-03-2.34085E-03 1.24851E-03 6.32008E-14-3.60216E-13
 -1       117 2.00417E+01-1.01665E-03-1.95942E-03 7.66966E-04-8.31379E-14-6.34922E-13
 -1       118 2.00046E+01-8.20764E-04-1.77326E-03 3.08524E-04-3.03697E-14-1.17013E-13
 -1       119 1.99896E+01-4.50230E-04-1.29628E-03-4.85050E-04-8.08197E-14 3.92812E-14
 -1       120 1.99932E+01 6.44999E-04 8.76099E-04-1.85767E-03 1.30667E-13-9.61113E-14
 -1       121 2.00000E+01-6.44579E-03 5.52924E-04-2.41047E-03 1.45022E-14 2.35086E-14
 -1       122 1.99991E+01-8.57979E-03-1.56438E-03-8.34198E-04 8.24510E-13 7.44481E-14
 -1       123 1.99991E+01 8.78743E-03-1.56303E-03 3.83440E-04 9.14467E-13-1.35026E-13
 -1       124 1.99994E+01 4.14970E-02-8.50078E-04 1.09726E-03 2.20715E-13-5.07747E-14
 -1       125 1.99999E+01 8.19083E-02-9.37017E-06 1.33868E-03 3.99654E-13-1.38233E-13
 -1       126 2.00004E+01 1.20888E-01 7.10225E-04 1.23074E-03 5.50191E-13 1.96503E-13
 -1       127 2.00007E+01 1.52089E-01 1.23158E-03 8.48632E-04 1.04146E-12 1.97964E-13
 -1       128 2.00009E+01 1.69124E-01 1.50074E-03 3.02508E-04 6.10787E-13-1.51915E-13
 -1       129 2.00009E+01 1.69010E-01 1.49220E-03-2.95131E-04 8.39427E-13 2.15560E-13
 -1       130 2.00007E+01 1.51842E-01 1.21146E-03-8.31998E-04 1.02946E-12-4.21823E-14
 -1       131 2.00003E+01 1.20745E-01 6.85822E-04-1.21187E-03 5.77520E-13-2.77706E-13
 -1       132 1.99999E+01 8.20992E-02-1.21632E-05-1.30851E-03 5.16749E-13 3.54950E-13
 -1       133 1.99995E+01 4.21098E-02-8.19220E-04-1.06855E-03 1.46144E-12 1.28424E-14
 -1       134 1.99990E+01 9.51284E-03-1.59036E-03-4.85427E-04 5.62401E-13-3.09278E-14
 -1       135 1.99993E+01-7.59984E-03-1.38451E-03 1.07374E-03 2.74646E-13-3.27962E-14
 -1       136 1.99993E+01-6.10857E-03 5.45469E-04 3.54163E-03-2.54278E-13-4.66921E-14
 -1       137-1.46232E+00-1.97832E+01-3.09981E+00-3.80666E+00-2.58682E-14 1.82760E-13
 -1       138-1.60271E+00-8.53977E+00-2.32859E+00-3.08035E+00 1.35464E-12 7.75824E-13
 -1       139 3.19881E+00 3.60387E+00-1.08933E+00 3.71476E+00 1.96643E-12 1.49042E-12
 -1       140 1.82738E+01 1.06041E+01 5.43699E-01 1.37706E+01 1.57308E-12 1.86096E-12
 -1       141 3.94553E+01 9.09403E+00 2.11532E+00 1.82395E+01 7.02605E-13 1.40860E-12
 -1       142 5.90037E+01 3.76635E+00 3.28252E+00 1.30675E+01 2.08576E-13 7.41851E-13
 -1       143 6.70736E+01 8.20569E-01 3.70488E+00 1.21533E-01 4.64039E-14-2.00696E-13
 -1       144 5.98495E+01 3.58392E+00 3.32786E+00-1.25175E+01 1.23093E-13-6.13454E-13
 -1       145 3.95267E+01 8.99515E+00 2.11369E+00-1.78949E+01 4.57884E-13-9.86378E-13
 -1       146 1.78082E+01 1.02727E+01 4.96623E-01-1.33523E+01 1.04788E-12-1.21408E-12
 -1       147 3.99398E+00 4.38998E+00-9.85667E-01-4.40814E+00 1.58645E-12-1.12216E-12
 -1       148-1.47170E+00-7.42195E+00-2.24203E+00 2.72105E+00 1.38350E-12-8.09519E-13
 -1       149-1.54703E+00-1.88521E+01-3.04113E+00 4.16620E+00 2.18214E-13-2.30163E-14
 -1       150-7.30570E-01-2.43208E+01-3.35478E+00 5.59507E-01-1.02964E-12 9.36404E-15
 -1       151-1.39193E+00-2.02361E+01-3.08042E+00-3.47279E+00-1.51315E-12-3.73854E-13
 -1       152-1.34778E+00-8.16919E+00-2.21056E+00-2.67500E+00-1.37090E-12-4.78978E-13
 -1       153 3.08476E+00 3.82624E+00-1.02068E+00 3.68757E+00-8.73801E-13-6.25944E-13
 -1       154 1.54805E+01 1.05043E+01 3.90094E-01 1.26621E+01-7.43905E-13-1.04416E-12
 -1       155 3.63331E+01 9.78059E+00 1.90847E+00 1.83176E+01-6.09790E-13-9.14713E-13
 -1       156 5.54283E+01 4.52863E+00 3.00737E+00 1.45541E+01-2.29518E-13-7.78211E-13
 -1       157 6.55788E+01 8.77575E-01 3.51881E+00 2.42821E+00-9.51184E-14-5.68164E-13
 -1       158 6.09938E+01 2.55854E+00 3.27928E+00-1.06532E+01 2.29504E-14-4.67959E-14
 -1       159 4.47608E+01 7.80143E+00 2.40150E+00-1.78605E+01-2.27679E-13 6.53422E-13
 -1       160 6.59784E+00 6.88845E+00-5.47038E-01-6.97503E+00-1.66267E-12 1.47476E-12
 -1       161-9.79599E-01-5.19882E+00-1.96997E+00 1.76480E+00-1.92024E-12 9.17738E-13
 -1       162-1.51733E+00-1.85695E+01-2.99698E+00 3.92724E+00-1.85801E-12 5.04589E-13
 -1       163 2.05749E+01 3.61842E+00-6.05824E-02-3.70363E+00-2.34469E-13 1.82701E-14
 -1       164 1.96883E+01 4.09471E+00-4.75341E-02-2.88639E+00-2.16825E-13-2.40065E-13
 -1       165 1.92970E+01 4.37016E+00-3.21190E-02-2.24522E+00-1.80139E-13-3.82515E-13
 -1       166 1.91162E+01 4.51811E+00-2.37583E-02-1.70495E+00-1.34904E-13-4.59270E-13
 -1       167 1.90110E+01 4.60369E+00-1.98619E-02-1.22226E+00-9.38595E-14-4.79700E-13
 -1       168 1.88992E+01 4.66983E+00-1.78354E-02-7.64015E-01-6.02218E-14-4.78510E-13
 -1       169 1.87535E+01 4.73664E+00-1.67710E-02-3.51406E-01-1.29371E-14-4.59160E-13
 -1       170 1.86222E+01 4.78734E+00-1.62273E-02 3.60751E-05 2.33702E-14-4.44579E-13
 -1       171 1.85869E+01 4.78651E+00-1.64874E-02 3.16293E-01 5.81132E-14-4.33057E-13
 -1       172 1.86752E+01 4.72955E+00-1.77158E-02 6.54571E-01 9.37205E-14-4.16177E-13
 -1       173 1.88499E+01 4.64321E+00-1.96418E-02 1.04640E+00 1.26558E-13-3.79792E-13
 -1       174 1.90874E+01 4.53666E+00-2.37369E-02 1.51493E+00 1.72100E-13-3.33513E-13
 -1       175 1.94090E+01 4.38876E+00-3.24568E-02 2.06073E+00 2.23750E-13-2.41803E-13
 -1       176 1.99398E+01 4.12037E+00-4.64105E-02 2.70149E+00 2.50387E-13-6.86361E-14
 -1       177 2.10641E+01 3.41169E+00-5.86013E-02 3.41006E+00 2.41373E-13 2.58231E-13
 -1       178 2.23273E+01 1.11848E+00-3.32015E-01 2.91793E+00 1.91795E-13 6.79262E-13
 -1       179 2.14100E+01 8.14908E-01-3.93911E-03-2.09419E+00-1.96291E-13 3.52610E-13
 -1       180 1.98220E+01 3.21964E-02-2.12191E-02-1.07688E+00-1.80788E-13 2.45331E-13
 -1       181 1.94454E+01-6.36604E-01-2.86524E-02-8.33239E-01-2.00699E-13 1.63352E-13
 -1       182 1.76599E+01 7.79961E-01-7.31668E-02-2.21338E-01-3.48804E-13-1.81799E-15
 -1       183 1.97100E+01 1.92671E+00 3.98348E-01-1.07563E+00-4.87457E-14-3.24116E-14
 -1       184 2.02918E+01 2.84731E-01 2.96628E-02-6.30043E-01-3.48515E-14-2.85293E-14
 -1       185 2.00356E+01 7.90789E-02-7.18622E-03-2.02430E-01 7.59419E-15-2.27093E-14
 -1       186 1.99522E+01 5.40013E-02-1.26229E-03-2.54136E-02-3.43406E-14-5.19994E-14
 -1       187 2.00048E+01 4.83323E-02 2.15164E-04 1.07338E-01-1.06124E-13-4.33282E-14
 -1       188 2.01722E+01 5.16213E-02 1.39464E-03 2.35173E-01-3.72083E-14-3.03160E-14
 -1       189 2.03965E+01 1.19223E-01 2.34444E-02 3.66560E-01-1.61684E-14-1.30573E-13
 -1       190 2.04994E+01 1.13471E-01 6.98777E-02 3.27231E-01-2.38906E-14-1.28201E-13
 -1       191 2.06462E+01 1.54953E-02 6.19867E-04 3.19385E-01 2.18297E-14-1.21286E-13
 -1       192 2.09808E+01 1.62116E-02 4.44671E-04 3.60073E-01-5.75614E-15-1.08454E-13
 -1       193 2.13511E+01 1.36582E-02 8.14905E-05 3.97836E-01-6.05193E-14-5.76457E-14
 -1       194 2.17483E+01 5.59729E-03-5.24160E-04 4.21666E-01-1.30461E-14-1.24998E-15
 -1       195 2.21521E+01-1.06485E-02-1.37498E-03 4.14612E-01 3.17305E-14 1.85982E-14
 -1       196 2.25261E+01-3.74226E-02-2.36769E-03 3.53810E-01-1.27089E-14-1.04238E-13
 -1       197 2.28159E+01-7.47910E-02-3.23162E-03 2.13776E-01-2.85943E-14-1.05293E-13
 -1       198 2.29510E+01-1.17100E-01-3.56589E-03-2.39169E-02 3.65940E-14-1.02983E-13
 -1       199 2.28567E+01-1.48989E-01-2.98515E-03-3.52225E-01 2.95306E-14-4.28287E-14
 -1       200 2.24820E+01-1.44981E-01-1.38553E-03-7.14900E-01-3.98856E-14-1.40547E-14
 -1       201 2.18413E+01-8.00892E-02 6.29954E-04-9.94245E-01 5.37359E-14 7.43247E-14
 -1       202 2.10546E+01 4.69407E-02 2.35605E-03-1.03954E+00 1.46901E-13 1.06540E-13
 -1       203 2.03478E+01 1.91886E-01 3.06803E-03-7.50446E-01 7.47813E-14 3.27282E-14
 -1       204 1.99776E+01 2.77363E-01 2.98693E-03-1.76335E-01 1.86778E-14 1.16834E-13
 -1       205 2.00956E+01 2.49881E-01 2.83442E-03 4.69934E-01-9.46855E-15 3.37243E-14
 -1       206 2.06533E+01 1.26920E-01 2.59055E-03 9.29717E-01 3.08044E-14 4.18888E-14
 -1       207 2.14330E+01-1.80597E-02 1.68549E-03 1.05884E+00 2.71025E-14 1.61598E-14
 -1       208 2.21778E+01-1.18367E-01-2.02146E-04 8.87458E-01-1.83166E-13 2.04350E-15
 -1       209 2.27075E+01-1.52268E-01-2.14063E-03 5.53016E-01-1.89448E-13-1.75428E-14
 -1       210 2.29558E+01-1.35656E-01-3.28488E-03 1.98150E-01-1.77296E-13-1.45792E-13
 -1       211 2.29453E+01-9.59827E-02-3.41315E-03-8.78459E-02-6.63644E-14-1.92196E-13
 -1       212 2.27434E+01-5.43641E-02-2.76245E-03-2.74389E-01-1.83781E-14-1.65479E-13
 -1       213 2.24259E+01-2.12085E-02-1.77269E-03-3.68943E-01 6.66834E-14-9.81356E-14
 -1       214 2.20579E+01 9.95462E-04-8.01915E-04-3.94759E-01 1.07041E-13-8.86053E-14
 -1       215 2.16864E+01 1.36901E-02-3.76082E-05-3.76682E-01 1.13368E-13-1.93452E-13
 -1       216 2.13410E+01 1.95037E-02 4.69727E-04-3.34891E-01 9.86497E-14 1.26734E-13
 -1       217 2.10371E+01 2.09166E-02 7.48186E-04-2.83481E-01-2.03987E-13 1.04607E-13
 -1       218 2.07807E+01 1.98211E-02 8.55961E-04-2.31236E-01-2.55391E-13 1.18789E-13
 -1       219 2.05712E+01 1.75054E-02 8.52602E-04-1.83005E-01-1.17347E-14-1.00752E-13
 -1       220 2.04048E+01 1.47819E-02 7.86523E-04-1.40992E-01 2.81968E-13-2.91063E-14
 -1       221 2.02759E+01 1.21357E-02 6.91702E-04-1.05739E-01 1.10748E-13 3.07150E-13
 -1       222 2.01788E+01 9.84452E-03 5.87621E-04-7.67967E-02 1.73116E-13 3.29159E-13
 -1       223 2.01080E+01 8.05974E-03 4.78972E-04-5.31669E-02 8.09683E-14 4.34137E-13
 -1       224 2.00587E+01 6.83234E-03 3.61502E-04-3.35986E-02-1.88312E-13-1.08547E-13
 -1       225 2.00268E+01 6.02104E-03 2.73202E-04-1.70010E-02 1.65230E-15-1.71335E-13
 -1       226 2.00082E+01 4.91913E-03 2.13201E-04-3.22757E-03 3.15270E-15-1.12759E-13
 -1       227 2.09293E+01 2.66016E-01-5.00670E-02 1.10614E+00 1.84540E-13 5.69237E-13
 -1       228 1.98847E+01 1.18011E-01 8.60869E-03 4.13744E-01 1.61216E-13 4.40471E-13
 -1       229 1.94058E+01 5.13999E-02 1.27694E-02 1.43192E-01 1.12786E-13 3.03602E-13
 -1       230 1.92060E+01 2.48153E-02 7.53688E-03 1.77624E-02 8.12855E-14 2.18923E-13
 -1       231 1.91594E+01 1.52888E-02 3.62174E-03-5.09164E-02 6.14619E-14 1.78116E-13
 -1       232 1.92070E+01 1.17374E-02 1.72102E-03-9.73597E-02 8.00071E-15 1.68889E-13
 -1       233 1.93198E+01 9.43051E-03 1.01551E-03-1.33131E-01 6.07337E-14 1.50354E-13
 -1       234 1.94814E+01 7.62548E-03 8.39234E-04-1.61506E-01 9.43977E-14 6.45761E-14
 -1       235 1.96819E+01 6.97128E-03 7.42706E-04-1.85627E-01 1.58706E-13-3.78351E-14
 -1       236 1.99170E+01 7.56530E-03-3.34466E-04-2.08648E-01 5.30849E-14-4.10910E-15
 -1       237 2.01979E+01 7.77416E-03-5.40153E-03-2.35163E-01 2.99859E-14-2.50401E-14
 -1       238 2.05332E+01 1.46066E-02 5.25138E-04-2.76659E-01-4.09171E-14-4.38692E-14
 -1       239 2.09050E+01 1.86305E-02 4.18803E-04-3.27825E-01-2.32410E-15-8.61483E-14
 -1       240 2.13427E+01 2.21527E-02 1.96344E-04-3.89659E-01 3.59490E-14-8.86434E-14
 -1       241 2.18535E+01 2.37663E-02-1.98411E-04-4.58162E-01 8.14123E-14-3.00675E-14
 -1       242 2.24360E+01 2.10122E-02-7.74367E-04-5.23541E-01 1.42554E-14-3.07003E-14
 -1       243 2.30729E+01 9.96812E-03-1.40351E-03-5.66726E-01 5.85180E-14-3.43714E-14
 -1       244 2.37199E+01-1.46979E-02-1.70530E-03-5.55606E-01 5.11314E-14-4.52793E-14
 -1       245 2.42950E+01-5.79472E-02-1.01676E-03-4.44043E-01-2.18509E-13 3.15117E-14
 -1       246 2.46719E+01-1.18931E-01 1.27774E-03-1.81223E-01-1.08412E-13 1.85752E-13
 -1       247 2.46940E+01-1.81187E-01 4.86914E-03 2.57869E-01-2.86654E-14 2.75125E-13
 -1       248 2.42255E+01-2.02670E-01 7.13985E-03 8.15662E-01 1.07516E-13 2.05472E-13
 -1       249 2.32534E+01-1.24677E-01 4.11963E-03 1.29142E+00-1.57847E-14 8.19796E-14
 -1       250 2.20129E+01 6.34134E-02-6.05300E-03 1.37482E+00-9.45758E-14 2.29174E-14
 -1       251 2.09860E+01 2.83165E-01-1.81807E-02 8.61298E-01 3.67614E-14 1.14451E-13
 -1       252 2.06930E+01 3.70718E-01-2.01674E-02-1.03497E-01 1.70496E-13 6.40915E-14
 -1       253 2.12999E+01 2.54515E-01-1.00646E-02-1.01110E+00 1.87698E-13-1.01863E-14
 -1       254 2.24810E+01 3.31092E-02 3.36386E-03-1.40578E+00-8.55998E-14-2.70346E-13
 -1       255 2.36830E+01-1.40351E-01 9.61588E-03-1.21967E+00 3.69904E-14-3.25825E-13
 -1       256 2.44935E+01-1.98708E-01 7.21229E-03-7.07445E-01-4.12587E-14-4.07016E-13
 -1       257 2.47821E+01-1.69751E-01 2.21280E-03-1.66123E-01-1.49979E-13-1.75985E-13
 -1       258 2.46232E+01-1.08191E-01-1.52478E-03 2.36298E-01-2.22075E-14-2.29211E-13
 -1       259 2.41708E+01-5.05449E-02-2.88898E-03 4.63230E-01 1.94105E-13-1.76163E-13
 -1       260 2.35749E+01-1.03579E-02-2.58626E-03 5.47785E-01 9.21324E-14-1.32241E-13
 -1       261 2.29465E+01 1.24751E-02-1.62002E-03 5.40874E-01 3.54600E-14-3.71982E-13
 -1       262 2.23539E+01 2.28092E-02-6.51462E-04 4.85749E-01 8.88513E-14-4.14215E-13
 -1       263 2.18316E+01 2.55704E-02 5.23443E-05 4.11542E-01-1.68987E-13-3.31958E-13
 -1       264 2.13920E+01 2.43368E-02 4.65635E-04 3.35174E-01-1.75881E-14-1.49175E-13
 -1       265 2.10339E+01 2.13338E-02 6.55321E-04 2.65173E-01 2.02453E-14 1.56688E-13
 -1       266 2.07498E+01 1.78100E-02 7.01323E-04 2.04992E-01-7.66004E-14 3.86412E-13
 -1       267 2.05291E+01 1.44042E-02 6.67251E-04 1.55284E-01-7.61354E-15 6.56545E-14
 -1       268 2.03612E+01 1.14101E-02 5.95126E-04 1.15301E-01-2.97801E-13 3.08868E-13
 -1       269 2.02359E+01 8.94521E-03 5.07846E-04 8.36604E-02 3.14155E-13 5.74688E-13
 -1       270 2.01449E+01 7.04576E-03 4.12863E-04 5.87432E-02 1.66502E-13 3.61107E-13
 -1       271 2.00811E+01 5.69348E-03 3.02153E-04 3.89039E-02-4.12683E-15 5.47654E-13
 -1       272 2.00392E+01 4.84702E-03 1.73538E-04 2.26689E-02-1.85474E-13 3.23310E-13
 -1       273 2.00146E+01 4.39104E-03 1.82237E-04 8.93771E-03 8.84004E-15 3.83996E-13
 -1       274 2.00031E+01 2.31554E-03 4.36473E-04-1.42469E-03 1.58891E-13 5.73857E-14
 -1       275 2.00049E+01 8.10968E-03 1.86323E-04 3.91541E-03 2.24540E-13 5.39327E-13
 -1       276 2.00053E+01 2.43748E-02 4.78570E-05 1.64223E-02 3.13498E-13-7.08716E-14
 -1       277 2.00034E+01 4.92184E-02 1.41876E-05 2.71259E-02 2.39311E-13-2.27627E-13
 -1       278 2.00008E+01 7.94575E-02-9.89788E-06 3.23401E-02 4.36813E-13 2.13168E-13
 -1       279 1.99982E+01 1.09894E-01-7.28329E-05 3.13087E-02 3.13552E-13-1.62753E-13
 -1       280 1.99961E+01 1.36530E-01-1.35120E-04 2.44901E-02 5.25452E-14 5.31010E-14
 -1       281 1.99947E+01 1.54365E-01-1.81931E-04 1.33153E-02 1.02193E-14-1.85098E-14
 -1       282 1.99943E+01 1.60497E-01-1.98435E-04-1.33984E-04 3.87925E-13 1.91101E-13
 -1       283 1.99948E+01 1.53959E-01-1.81449E-04-1.35053E-02 5.12039E-13-1.91602E-13
 -1       284 1.99962E+01 1.35859E-01-1.34755E-04-2.44908E-02 4.62229E-13-1.27044E-13
 -1       285 1.99983E+01 1.09712E-01-6.83989E-05-3.10466E-02 5.23643E-13-2.00151E-13
 -1       286 2.00008E+01 7.89210E-02-1.02114E-05-3.20453E-02 2.51044E-13 4.02507E-13
 -1       287 2.00033E+01 4.89012E-02 1.37908E-05-2.68438E-02 2.17483E-13-3.01511E-13
 -1       288 2.00051E+01 2.48621E-02 1.51452E-04-1.65831E-02 2.19840E-13-1.36653E-13
 -1       289 2.00088E+01 1.43021E-02 1.43876E-04-1.04546E-02-3.65863E-14-4.53371E-13
 -1       290-7.15500E-01-9.69442E+00-8.08729E-01 1.20524E+00-2.91656E-13 8.35360E-13
 -1       291 2.78966E+00-8.36223E+00-7.63285E-01 3.43773E+00 9.18710E-15 7.76226E-13
 -1       292 9.27324E+00-4.96501E+00-5.30560E-01 5.40948E+00 3.81029E-13 7.24462E-13
 -1       293 2.05174E+01-1.74864E+00-7.72894E-02 6.86504E+00 5.82256E-13 4.66710E-13
 -1       294 3.11352E+01 2.53142E+00 3.56367E-01 6.95449E+00 7.37632E-13 5.33296E-13
 -1       295 4.01452E+01 5.13421E+00 6.86134E-01 4.63559E+00 5.25059E-13 4.06786E-13
 -1       296 4.59213E+01 6.70426E+00 9.90849E-01 1.81508E+00 5.14561E-13 1.34726E-13
 -1       297 4.65762E+01 6.59364E+00 1.03621E+00-1.85853E+00 2.87201E-13-1.36863E-13
 -1       298 3.90017E+01 5.03414E+00 4.77307E-01-3.23119E+00 3.27210E-13-3.46279E-13
 -1       299 3.11158E+01 1.52067E+00 2.44018E-01-5.82531E+00 4.08673E-13-3.21465E-13
 -1       300 2.04698E+01-1.45077E+00-7.16952E-02-6.98342E+00 4.37900E-13-2.50910E-13
 -1       301 1.00050E+01-4.62478E+00-4.99121E-01-5.58078E+00 3.68539E-13-4.73815E-13
 -1       302 3.30143E+00-8.12872E+00-7.55941E-01-3.64845E+00-4.39926E-14-5.96370E-13
 -1       303-6.51320E-01-1.06447E+01-9.80131E-01-1.19773E+00-2.11442E-13-5.60219E-13
 -1       304-8.77299E-01-9.81109E+00-8.21964E-01 1.15617E+00-3.29584E-13-2.51660E-13
 -1       305 3.17710E+00-7.80107E+00-5.93443E-01 4.11385E+00-4.69708E-13-1.97675E-13
 -1       306 9.16755E+00-4.75887E+00-5.10500E-01 5.49571E+00-6.18838E-13-1.39735E-13
 -1       307 1.82230E+01-7.40905E-01-1.07024E-01 7.24576E+00-2.69923E-13-3.27238E-13
 -1       308 2.95091E+01 1.99067E+00 2.89352E-01 6.84633E+00-2.62526E-13-2.74253E-13
 -1       309 3.91858E+01 5.18049E+00 7.59525E-01 6.22197E+00-2.91758E-13-3.88106E-13
 -1       310 4.48661E+01 6.51083E+00 9.44197E-01 2.62700E+00-1.64396E-13-2.90948E-13
 -1       311 4.65649E+01 6.55221E+00 1.05774E+00-1.37279E+00-2.40336E-13-2.62290E-13
 -1       312 4.21731E+01 5.78955E+00 8.61474E-01-4.99196E+00-3.80564E-13 4.51028E-14
 -1       313 3.33363E+01 2.82944E+00 3.41506E-01-5.40838E+00-5.88932E-13 4.85167E-14
 -1       314 2.24257E+01 7.80193E-01 7.63320E-02-7.62761E+00-6.47871E-13 3.08170E-13
 -1       315 1.30507E+01-4.26042E+00-2.80786E-01-6.53413E+00-5.39846E-13 5.46160E-13
 -1       316 3.64124E+00-7.74874E+00-7.19479E-01-3.97979E+00-7.85039E-13 2.66356E-13
 -1       317-6.50673E-01-1.01827E+01-8.89321E-01-1.45186E+00-9.33420E-13 3.66374E-13
 -1       318 1.99230E+01 2.87494E+00-2.13854E-02-2.15806E+00-2.19515E-13-2.35353E-13
 -1       319 2.04325E+01 2.05576E+00-2.37256E-02-2.48739E+00-2.45807E-13-7.34968E-14
 -1       320 1.94733E+01 3.59451E+00-1.77518E-02-1.33390E+00-1.58219E-13-3.78684E-13
 -1       321 1.93650E+01 3.75294E+00-1.95176E-02-8.92990E-01-1.12584E-13-3.67173E-13
 -1       322 1.91971E+01 3.89532E+00-1.92227E-02-4.53208E-01-4.06176E-14-3.50465E-13
 -1       323 1.89719E+01 4.03517E+00-1.72780E-02-9.31394E-02 1.26087E-14-3.46152E-13
 -1       324 1.88334E+01 4.09348E+00-1.48075E-02 1.56022E-01 5.48342E-14-3.39871E-13
 -1       325 1.88954E+01 4.00827E+00-1.43306E-02 3.95687E-01 9.97979E-14-3.33981E-13
 -1       326 1.91003E+01 3.83360E+00-1.41112E-02 7.14964E-01 1.38407E-13-3.15811E-13
 -1       327 1.93685E+01 3.61200E+00-1.55679E-02 1.11960E+00 1.88479E-13-2.56590E-13
 -1       328 1.96846E+01 3.32278E+00-1.89100E-02 1.55983E+00 2.38902E-13-1.98420E-13
 -1       329 2.01122E+01 2.87479E+00-2.29959E-02 1.98191E+00 2.78615E-13-9.84612E-14
 -1       330 2.07022E+01 2.07240E+00-3.04460E-02 2.20552E+00 2.79836E-13 1.06732E-13
 -1       331 2.10534E+01 1.15220E+00-2.46563E-02 1.82981E+00 2.56632E-13 2.86011E-13
 -1       332 2.03892E+01 4.61158E-01 8.05956E-03 8.71675E-01 2.21507E-13 2.11326E-13
 -1       333 2.03422E+01 3.40322E-01 5.88224E-03-1.14400E+00-1.81869E-13-3.62098E-14
 -1       334 1.98125E+01 1.95191E-01-1.90894E-03-7.46617E-01-1.77964E-13-3.38345E-14
 -1       335 2.05732E+01 9.27875E-01 5.23011E-01-7.70198E-01-2.89553E-13 4.46240E-14
 -1       336 1.93994E+01 1.02984E+00 2.96967E-02-4.67000E-01-2.21420E-14-1.19517E-13
 -1       337 1.99141E+01 4.18294E-01 3.40578E-03-3.38084E-01-2.00716E-14-9.49180E-14
 -1       338 2.00270E+01 2.41117E-01 1.13271E-03-1.13503E-01-7.48853E-15-1.02839E-13
 -1       339 2.00965E+01 1.99322E-01 1.11342E-03 1.01309E-01-4.28181E-14-9.87049E-14
 -1       340 2.02054E+01 1.83910E-01-1.77229E-04 2.97659E-01-6.65668E-14-7.26539E-14
 -1       341 2.03483E+01 1.88049E-01 1.23511E-03 4.63063E-01-6.99100E-14-3.42322E-14
 -1       342 2.05084E+01 2.21096E-01 2.74514E-02 5.69018E-01-5.53525E-14-3.27125E-14
 -1       343 2.05701E+01 1.48701E-01 6.75515E-02 5.63451E-01-3.73685E-14-5.67411E-14
 -1       344 2.06454E+01 6.39048E-02 5.76842E-04 5.89331E-01 3.01627E-14-9.50621E-14
 -1       345 2.09018E+01 5.96919E-02 4.27198E-04 6.57605E-01 3.38086E-14-3.11185E-14
 -1       346 2.11873E+01 3.91426E-02 6.82440E-05 7.13234E-01 3.87738E-14 7.26472E-14
 -1       347 2.14978E+01-6.63670E-03-5.75121E-04 7.35593E-01 8.50828E-16 9.21374E-14
 -1       348 2.18244E+01-8.67111E-02-1.54167E-03 6.95170E-01-2.67407E-14 9.74758E-14
 -1       349 2.21504E+01-2.05795E-01-2.76948E-03 5.55202E-01-6.63436E-14 7.11602E-14
 -1       350 2.24477E+01-3.55039E-01-3.95052E-03 2.79327E-01-3.20759E-14-6.31451E-14
 -1       351 2.26720E+01-4.98535E-01-4.60204E-03-1.49956E-01 1.02210E-13-4.48099E-14
 -1       352 2.27620E+01-5.62803E-01-4.14351E-03-6.99159E-01 7.70462E-14-6.88097E-14
 -1       353 2.26531E+01-4.49392E-01-2.09146E-03-1.24640E+00 5.82913E-14 8.89496E-14
 -1       354 2.23222E+01-9.61850E-02 5.28835E-04-1.57346E+00 2.84947E-14 1.37477E-14
 -1       355 2.18510E+01 4.31171E-01 3.32502E-03-1.44236E+00 7.56541E-14-6.30166E-14
 -1       356 2.14505E+01 8.91829E-01 4.83930E-03-7.64296E-01 1.63375E-13-1.41376E-13
 -1       357 2.13496E+01 1.01004E+00 4.06832E-03 2.43687E-01 2.61692E-14 3.83687E-14
 -1       358 2.16137E+01 7.05601E-01 2.94877E-03 1.14554E+00-8.62062E-14 8.32299E-15
 -1       359 2.20819E+01 1.76445E-01 2.01661E-03 1.57655E+00-5.49334E-14-1.13143E-13
 -1       360 2.25100E+01-2.88831E-01-4.44236E-04 1.47088E+00-1.50608E-14-2.47982E-13
 -1       361 2.27437E+01-5.27299E-01-2.94598E-03 1.01213E+00-1.97958E-13-1.08690E-13
 -1       362 2.27584E+01-5.44453E-01-4.25625E-03 4.46243E-01-1.89491E-13 3.05885E-14
 -1       363 2.26047E+01-4.30590E-01-4.26660E-03-5.05923E-02-2.27846E-13 2.12300E-13
 -1       364 2.23496E+01-2.76313E-01-3.32316E-03-4.01669E-01-9.61116E-14-6.49479E-14
 -1       365 2.20474E+01-1.36979E-01-2.06340E-03-6.01784E-01 6.49387E-14 6.94410E-14
 -1       366 2.17350E+01-3.41163E-02-9.31863E-04-6.80092E-01 1.93000E-13-6.73010E-15
 -1       367 2.14352E+01 3.11370E-02-9.72908E-05-6.74459E-01 2.28146E-14 2.32396E-14
 -1       368 2.11614E+01 6.62308E-02 4.28352E-04-6.18682E-01 2.07879E-13 1.87685E-13
 -1       369 2.09201E+01 8.03293E-02 7.02527E-04-5.38209E-01-7.36986E-14-4.07313E-14
 -1       370 2.07139E+01 8.13295E-02 8.00065E-04-4.50148E-01-1.19917E-13 2.50635E-13
 -1       371 2.05419E+01 7.50670E-02 7.87876E-04-3.64875E-01-3.62281E-14 5.53361E-13
 -1       372 2.04019E+01 6.54768E-02 7.16667E-04-2.87916E-01 6.82852E-14 5.79816E-13
 -1       373 2.02902E+01 5.50437E-02 6.21035E-04-2.21554E-01 2.15076E-13 1.67061E-13
 -1       374 2.02030E+01 4.52540E-02 5.22417E-04-1.66031E-01 1.35602E-13 2.74459E-13
 -1       375 2.01364E+01 3.69337E-02 4.32023E-04-1.20387E-01 3.30068E-14 5.68683E-14
 -1       376 2.00866E+01 3.04305E-02 3.56000E-04-8.31032E-02-3.70922E-13 8.94845E-14
 -1       377 2.00503E+01 2.56359E-02 3.37674E-04-5.24874E-02-2.51999E-13 4.54968E-14
 -1       378 2.00264E+01 2.04145E-02 1.83511E-04-2.89838E-02-9.66155E-14-2.52848E-13
 -1       379 1.99193E+01 2.06695E-01 1.04285E-02 3.76130E-01 1.74591E-13 1.63852E-13
 -1       380 1.96502E+01 1.05171E-01 5.83513E-03 1.20000E-01 1.18165E-13 9.12098E-14
 -1       381 1.95275E+01 6.41042E-02 2.54995E-03-2.60146E-02 6.61754E-14 5.35854E-14
 -1       382 1.95044E+01 4.72799E-02 1.09585E-03-1.23422E-01 3.22916E-14 9.12012E-15
 -1       383 1.95538E+01 3.70920E-02 6.47755E-04-1.96209E-01 5.98525E-14 9.19822E-15
 -1       384 1.96568E+01 2.96870E-02 5.93702E-04-2.52447E-01 1.25640E-13 1.30280E-14
 -1       385 1.98002E+01 2.66520E-02 6.48340E-04-2.99143E-01 1.98450E-13 1.89453E-14
 -1       386 1.99791E+01 2.75650E-02 2.65918E-04-3.43827E-01 9.68554E-14 2.78213E-14
 -1       387 2.01954E+01 3.35998E-02-1.10724E-03-3.95710E-01 6.47548E-14 3.65958E-14
 -1       388 2.04551E+01 4.93062E-02 3.65033E-04-4.58610E-01-1.10126E-14 3.08737E-14
 -1       389 2.07492E+01 6.23772E-02 1.11266E-03-5.41294E-01 9.28652E-14-3.54875E-14
 -1       390 2.10918E+01 7.30057E-02 1.14917E-03-6.39428E-01 3.08024E-14-1.49512E-13
 -1       391 2.14891E+01 7.70928E-02 9.66074E-04-7.47087E-01 3.10694E-14-9.47964E-14
 -1       392 2.19419E+01 6.69283E-02 4.16066E-04-8.49907E-01 4.57279E-15 5.04511E-14
 -1       393 2.24437E+01 3.06759E-02-6.42334E-04-9.20672E-01 3.72129E-14 7.19944E-14
 -1       394 2.29763E+01-4.71787E-02-2.24291E-03-9.14485E-01 3.64149E-14 7.71295E-14
 -1       395 2.35037E+01-1.80638E-01-4.17663E-03-7.67254E-01-1.88378E-13 7.36954E-14
 -1       396 2.39650E+01-3.66520E-01-5.86475E-03-4.06611E-01-1.38418E-13 5.83095E-14
 -1       397 2.42683E+01-5.57228E-01-6.54490E-03 2.10007E-01-5.21562E-14 9.04026E-14
 -1       398 2.42961E+01-6.33052E-01-5.77998E-03 1.02182E+00 1.52083E-13 1.32765E-13
 -1       399 2.39416E+01-4.19908E-01-5.56883E-03 1.77108E+00 1.23174E-14 1.14720E-13
 -1       400 2.32534E+01 1.43293E-01-3.83879E-03 1.99601E+00-6.98007E-14 1.11555E-13
 -1       401 2.25104E+01 8.43606E-01-6.09237E-03 1.35840E+00 7.73426E-15 1.18399E-13
 -1       402 2.22137E+01 1.15591E+00-4.43043E-03-2.34427E-02 2.10165E-13 3.40641E-14
 -1       403 2.25727E+01 8.31209E-01-2.13480E-03-1.39487E+00 3.03537E-13 1.69309E-13
 -1       404 2.33356E+01 1.40108E-01 5.58233E-04-2.01820E+00-3.53795E-14-4.12300E-14
 -1       405 2.40225E+01-4.26020E-01-1.11659E-03-1.75875E+00 7.80574E-14 9.08952E-15
 -1       406 2.43461E+01-6.31889E-01-6.08948E-03-1.00089E+00-3.53753E-15 9.47566E-14
 -1       407 2.42927E+01-5.52638E-01-7.88053E-03-1.93798E-01-1.27219E-13-2.76211E-13
 -1       408 2.39727E+01-3.60167E-01-7.16614E-03 4.11512E-01 9.55052E-15-4.76058E-13
 -1       409 2.35074E+01-1.73611E-01-4.92246E-03 7.58416E-01-4.12153E-14-1.51699E-13
 -1       410 2.29881E+01-4.00590E-02-2.49351E-03 8.92385E-01 1.78848E-13 3.71120E-14
 -1       411 2.24736E+01 3.80336E-02-5.79242E-04 8.86259E-01 1.65877E-13 6.82552E-14
 -1       412 2.19981E+01 7.49160E-02 6.35683E-04 8.03452E-01-3.22317E-15 3.50814E-14
 -1       413 2.15790E+01 8.60833E-02 1.24961E-03 6.88002E-01-6.66471E-14 5.83439E-15
 -1       414 2.12224E+01 8.32233E-02 1.45347E-03 5.66518E-01-2.52854E-13-1.43434E-14
 -1       415 2.09275E+01 7.38364E-02 1.41910E-03 4.53138E-01-2.43280E-13 1.90930E-13
 -1       416 2.06891E+01 6.22614E-02 1.26840E-03 3.54127E-01-3.96406E-14 2.56084E-13
 -1       417 2.05003E+01 5.07970E-02 1.07644E-03 2.71202E-01 1.49771E-13 3.52967E-13
 -1       418 2.03537E+01 4.05465E-02 8.84891E-04 2.03663E-01-2.39722E-13 2.36740E-13
 -1       419 2.02420E+01 3.19743E-02 7.12953E-04 1.49649E-01-2.83410E-14 2.05556E-13
 -1       420 2.01586E+01 2.52260E-02 5.66434E-04 1.06819E-01 1.87437E-13 4.25445E-13
 -1       421 2.00979E+01 2.02394E-02 4.42872E-04 7.27419E-02 8.87003E-14 3.72909E-13
 -1       422 2.00552E+01 1.67142E-02 3.20346E-04 4.52844E-02-4.24318E-14 4.02339E-13
 -1       423 2.00266E+01 1.38823E-02 2.25219E-04 2.30526E-02-4.48266E-14 3.25328E-13
 -1       424 2.00142E+01 1.21860E-02 1.23864E-04 1.25523E-02 6.19529E-14 4.68261E-13
 -1       425 2.00076E+01 8.07200E-02 7.39308E-05 5.71055E-02 1.98008E-13 1.32155E-13
 -1       426 2.00162E+01 5.08516E-02 1.54170E-04 4.55966E-02 1.28574E-13-5.79699E-14
 -1       427 2.00177E+01 2.89933E-02 1.81878E-04 2.90192E-02-5.78948E-15-2.84758E-14
 -1       428 1.99977E+01 1.10674E-01-1.62256E-05 5.89468E-02 6.70158E-14-3.36427E-13
 -1       429 1.99885E+01 1.37880E-01-9.58392E-05 5.07377E-02 1.51108E-14-2.58150E-14
 -1       430 1.99816E+01 1.58167E-01-1.59068E-04 3.39898E-02 7.80048E-14 9.82245E-14
 -1       431 1.99780E+01 1.68803E-01-1.93532E-04 1.16767E-02-1.85292E-13 6.90432E-14
 -1       432 1.99782E+01 1.68371E-01-1.93768E-04-1.24584E-02-1.91660E-13 2.54599E-13
 -1       433 1.99820E+01 1.56978E-01-1.59081E-04-3.44712E-02 2.13840E-13 4.16499E-14
 -1       434 1.99887E+01 1.36667E-01-9.53635E-05-5.05470E-02 2.78878E-13-3.79266E-13
 -1       435 1.99978E+01 1.09475E-01-2.03583E-05-5.85180E-02 2.88271E-13 3.28161E-13
 -1       436 2.00075E+01 7.93099E-02 6.03178E-05-5.65764E-02 1.26190E-13 1.05739E-13
 -1       437 2.00161E+01 4.95195E-02 1.40077E-04-4.51353E-02-1.73176E-13-4.79208E-13
 -1       438 1.05582E+01-5.59688E+00-5.10566E-02 6.73424E+00-2.84786E-13 4.57995E-13
 -1       439 1.84189E+00-3.28021E+00 5.14757E-02-4.52238E-01-1.12036E-13 5.73708E-13
 -1       440 4.25064E+00-4.32915E+00 6.81524E-03 4.44036E+00-3.59421E-13 8.44408E-13
 -1       441 1.90006E+01-5.62187E+00-3.39725E-02 6.52512E+00-2.06252E-13 4.19772E-13
 -1       442 2.82700E+01-3.04756E+00 5.81434E-03 3.35905E+00 1.75124E-13-1.53738E-13
 -1       443 1.96210E+01 3.33546E+00-2.24544E-02-1.75238E+00-1.89640E-13-3.40172E-13
 -1       444 3.47355E+01 6.08688E+00-8.25996E-03-7.25627E-01 3.76602E-13-3.48777E-13
 -1       445 3.53030E+01 7.93282E+00-5.53772E-03-2.12880E-03 3.94518E-13-1.46969E-13
 -1       446 3.43894E+01 6.39751E+00-1.22059E-02 8.42829E-01 3.51080E-13 1.08941E-14
 -1       447 3.25601E+01 9.94223E-01-3.32018E-02-1.11644E-01 1.88141E-13-8.04912E-16
 -1       448 2.74991E+01-3.23167E+00-1.36140E-02-3.89476E+00 1.89293E-13-1.93207E-13
 -1       449 2.00004E+01-5.72681E+00 3.08956E-03-6.35282E+00 1.34615E-15-9.14199E-14
 -1       450 1.10972E+01-5.68803E+00-6.60256E-02-6.79472E+00-1.27509E-13-5.83641E-13
 -1       451 4.14768E+00-4.77136E+00-6.08404E-02-4.54063E+00-1.90750E-13-6.01755E-13
 -1       452 1.25402E+00-4.35505E+00-6.88782E-02-8.27568E-01-1.23720E-14-3.55049E-13
 -1       453 3.27885E+00-4.49470E+00-3.06671E-02 4.03212E+00-8.21981E-14-3.21063E-13
 -1       454 1.07118E+01-5.48536E+00-4.88267E-02 6.93087E+00-2.81428E-13 2.31967E-14
 -1       455 1.82910E+01-5.08224E+00-5.16150E-02 6.77709E+00-3.23686E-13-2.25098E-13
 -1       456 2.61577E+01-3.14316E+00 2.29448E-03 4.64527E+00-1.80314E-13-6.04655E-14
 -1       457 3.22617E+01 1.52937E+00 1.76681E-02 1.51271E+00-3.97876E-14-2.78944E-14
 -1       458 3.55373E+01 5.70274E+00 1.13813E-01 3.63947E-01-2.19214E-13-7.72715E-14
 -1       459 3.52265E+01 8.06855E+00 3.70557E-02-8.94851E-02-2.22156E-13-2.26213E-13
 -1       460 3.59049E+01 6.94271E+00 9.61482E-02-1.91785E-02-3.04437E-13-2.33563E-13
 -1       461 3.37360E+01 3.66927E+00 4.06528E-02-5.84415E-01-4.12580E-13-3.79946E-13
 -1       462 2.84636E+01-2.07746E+00-1.58128E-02-3.37614E+00-1.48534E-13-2.45567E-13
 -1       463 2.20622E+01-4.70089E+00-1.47577E-02-5.81922E+00-2.98928E-14-3.10592E-13
 -1       464 1.16588E+01-5.43454E+00-3.03863E-02-7.05594E+00-1.12396E-13 6.67140E-14
 -1       465 3.85552E+00-4.51128E+00-3.18916E-02-4.51970E+00-4.38122E-14-2.19824E-14
 -1       466 3.31634E+01 1.44260E+00 2.20479E-02 9.82036E-01 4.57769E-13-1.96010E-13
 -1       467 1.90474E+01-5.54388E+00 5.20549E-02-6.61767E+00 1.62301E-13-2.27067E-13
 -1       468 3.03820E+01-4.40121E-01-5.75338E-02-1.17476E-01-2.38982E-13-7.16593E-13
 -1       469 2.91994E+01-2.19867E+00-4.98494E-02 1.23582E+00-2.01742E-14 2.75474E-14
 -1       470 8.80822E+00-3.74315E+00 1.09352E-01 6.21674E+00 1.33157E-14-9.42441E-14
 -1       471 2.03797E+01 7.74313E-01 3.49187E-03 9.05050E-01 2.08510E-13 2.32569E-14
 -1       472 1.96872E+01 3.02524E+00-3.06393E-02-5.21884E-01-8.45040E-14-3.06494E-13
 -1       473 1.97924E+01 2.85141E+00-1.48055E-02-9.59725E-01-1.29194E-13-3.34041E-13
 -1       474 1.90215E+01 3.44690E+00-2.32335E-02 1.10292E-01 2.35926E-14-3.05384E-13
 -1       475 1.89848E+01 3.39275E+00-1.53139E-02 1.50183E-01 7.55116E-14-3.12257E-13
 -1       476 1.92544E+01 3.13739E+00-7.40946E-03 3.34441E-01 1.09277E-13-2.91652E-13
 -1       477 1.95766E+01 2.84441E+00-5.53291E-03 6.76895E-01 1.60957E-13-2.51989E-13
 -1       478 1.98695E+01 2.52363E+00-6.67400E-03 1.04576E+00 2.03718E-13-1.96789E-13
 -1       479 2.01819E+01 2.08677E+00-5.96470E-03 1.35327E+00 2.23707E-13-1.37711E-13
 -1       480 2.01494E+01 4.13001E-01 4.40857E-03 4.35418E-01 1.91171E-13 1.43992E-14
 -1       481 2.03210E+01 7.38019E-01-8.41503E-04-8.10347E-01-1.54872E-13-1.69938E-13
 -1       482 2.98065E+01-1.95249E+00-6.78104E-02-3.00092E-01 2.09702E-13-6.05252E-13
 -1       483 2.03670E+01 3.09782E-01 1.38223E-02-1.64398E-01-8.02284E-14-1.36465E-13
 -1       484 1.99945E+01 3.69814E-01-5.22624E-03-3.44254E-02-6.97819E-14-6.50469E-14
 -1       485 1.96892E+01 5.27800E-01-4.53148E-03 5.11350E-03-2.48707E-14-1.09857E-13
 -1       486 1.99214E+01 4.46141E-01 2.68235E-03-7.60742E-02-2.98557E-14-1.16226E-13
 -1       487 2.00869E+01 3.97326E-01 1.12622E-03 8.23951E-02-8.77276E-14-1.73393E-13
 -1       488 2.02008E+01 3.72645E-01-1.59418E-03 3.01872E-01-4.05527E-14-2.16144E-13
 -1       489 2.03252E+01 3.28957E-01-3.28393E-03 5.00057E-01-4.71225E-14-1.38076E-13
 -1       490 2.04373E+01 2.96921E-01 3.10591E-03 6.36733E-01-6.02503E-14-3.97100E-14
 -1       491 2.05314E+01 2.76593E-01 3.70952E-02 7.16199E-01-2.98712E-14-2.66297E-14
 -1       492 2.04387E+01 1.61099E-01 2.99838E-02 7.17339E-01 9.86888E-15 6.89813E-15
 -1       493 2.05226E+01 1.33786E-01 2.45138E-04 8.06613E-01 2.07796E-14 2.13656E-15
 -1       494 2.07034E+01 1.12207E-01 1.47931E-04 8.96807E-01 5.23738E-14-5.65423E-14
 -1       495 2.09197E+01 5.16340E-02-6.37098E-05 9.67056E-01 6.97980E-14-1.94594E-14
 -1       496 2.11810E+01-6.56705E-02-4.32062E-04 9.91284E-01 1.09655E-14 8.10055E-16
 -1       497 2.14986E+01-2.55270E-01-9.87704E-04 9.32706E-01-6.27453E-14 1.11683E-14
 -1       498 2.18812E+01-5.19345E-01-1.70665E-03 7.45068E-01-1.27056E-13 3.02877E-14
 -1       499 2.23233E+01-8.25473E-01-2.19076E-03 3.80700E-01 5.05311E-14 1.07608E-13
 -1       500 2.27840E+01-1.07798E+00-2.30362E-03-1.85884E-01 2.39069E-14-1.02448E-13
 -1       501 2.31646E+01-1.10116E+00-2.16223E-03-9.08458E-01 5.32325E-14-1.64979E-13
 -1       502 2.33230E+01-6.91066E-01-1.30208E-03-1.60027E+00 6.90819E-14-1.23504E-13
 -1       503 2.31520E+01 2.19623E-01-4.21850E-03-1.92040E+00 9.21519E-14-5.72573E-15
 -1       504 2.27599E+01 1.34687E+00-4.56137E-03-1.50745E+00 1.09411E-13 8.17510E-14
 -1       505 2.24684E+01 2.04596E+00-5.96297E-03-3.69066E-01 1.02366E-13-1.34753E-13
 -1       506 2.25660E+01 1.81794E+00-1.02425E-02 9.72107E-01-7.14125E-14-1.03515E-13
 -1       507 2.29553E+01 8.33643E-01-5.22965E-03 1.81044E+00-1.94070E-13-2.92838E-13
 -1       508 2.32775E+01-2.55745E-01-1.89397E-03 1.85115E+00-1.94658E-13-2.78849E-13
 -1       509 2.32940E+01-9.41269E-01-8.51062E-04 1.31093E+00-6.54241E-14-2.35812E-13
 -1       510 2.30177E+01-1.12457E+00-1.15621E-03 5.74382E-01 1.15343E-14-7.58738E-15
 -1       511 2.25872E+01-9.65746E-01-1.86974E-03-8.23285E-02-2.07779E-13-5.38672E-14
 -1       512 2.21323E+01-6.68785E-01-1.76218E-03-5.46640E-01-2.54023E-13 1.23127E-13
 -1       513 2.17227E+01-3.71832E-01-1.18075E-03-8.13668E-01 1.33253E-14 2.02011E-13
 -1       514 2.13798E+01-1.37487E-01-6.01304E-04-9.23156E-01 1.31090E-13 8.30056E-14
 -1       515 2.11008E+01 2.10532E-02-1.64625E-04-9.23615E-01 1.08147E-13 1.49153E-13
 -1       516 2.08749E+01 1.13932E-01 1.16816E-04-8.57312E-01 1.48031E-13 1.42127E-13
 -1       517 2.06914E+01 1.58331E-01 2.71269E-04-7.56128E-01-9.62664E-14 5.97247E-14
 -1       518 2.05417E+01 1.70653E-01 3.35857E-04-6.41983E-01-8.58672E-14 2.95575E-14
 -1       519 2.04197E+01 1.63812E-01 3.43467E-04-5.28758E-01 2.05027E-13 1.97672E-13
 -1       520 2.03206E+01 1.46968E-01 3.19065E-04-4.24402E-01 1.50935E-13 3.61317E-13
 -1       521 2.02407E+01 1.26171E-01 2.79702E-04-3.32748E-01-1.82040E-13 3.48853E-13
 -1       522 2.01769E+01 1.05189E-01 2.36482E-04-2.54926E-01-1.72111E-14 1.07010E-13
 -1       523 2.01266E+01 8.62363E-02 1.97314E-04-1.90399E-01-8.21979E-14 1.96847E-14
 -1       524 2.00872E+01 7.03803E-02 1.68229E-04-1.37687E-01-3.22498E-14-1.51238E-13
 -1       525 2.00566E+01 5.78682E-02 1.59871E-04-9.49643E-02-4.50274E-13-2.91224E-14
 -1       526 1.98768E+01 1.65949E-01 3.66635E-05-3.84810E-02 9.66733E-14-2.89118E-14
 -1       527 1.98396E+01 1.26160E-01-3.81162E-04-1.81586E-01 4.29088E-14-7.51410E-14
 -1       528 1.98592E+01 9.66364E-02-2.13492E-04-2.89660E-01 7.56367E-14-5.13750E-14
 -1       529 1.99182E+01 7.96821E-02 1.85345E-04-3.72215E-01 1.15681E-13-1.73672E-14
 -1       530 2.00062E+01 7.73608E-02 6.09304E-04-4.45202E-01 1.36080E-13 7.69236E-14
 -1       531 2.01223E+01 8.52184E-02-5.53492E-05-5.19131E-01 4.70606E-14 6.11635E-14
 -1       532 2.02642E+01 1.10975E-01-1.07791E-03-6.03390E-01 5.39912E-14 5.31766E-14
 -1       533 2.04371E+01 1.42129E-01 6.44623E-04-7.07421E-01 3.02361E-14 3.37375E-14
 -1       534 2.06362E+01 1.69428E-01 7.29607E-04-8.33457E-01 7.79624E-14-1.56863E-14
 -1       535 2.08686E+01 1.87147E-01 7.27041E-04-9.76760E-01-5.58689E-15-3.17831E-16
 -1       536 2.11396E+01 1.81567E-01 5.52506E-04-1.12667E+00-2.87766E-14 5.96332E-14
 -1       537 2.14576E+01 1.31251E-01 9.43577E-05-1.26127E+00 2.29790E-15 5.95767E-14
 -1       538 2.18359E+01 6.00359E-03-7.54451E-04-1.34220E+00 6.93155E-14 1.42026E-13
 -1       539 2.22940E+01-2.28830E-01-1.99291E-03-1.30933E+00-1.38431E-13 1.67778E-13
 -1       540 2.28542E+01-5.94005E-01-3.46319E-03-1.07810E+00-2.29401E-13 1.04849E-13
 -1       541 2.35184E+01-1.04865E+00-4.83057E-03-5.53320E-01-3.00028E-14 9.55090E-14
 -1       542 2.42245E+01-1.42578E+00-6.50301E-03 3.17060E-01-8.41590E-15 1.24504E-13
 -1       543 2.48038E+01-1.38719E+00-8.40194E-03 1.43797E+00 8.05252E-14 1.84545E-13
 -1       544 2.49750E+01-5.14587E-01-1.17446E-03 2.40726E+00 1.51292E-14 1.44318E-13
 -1       545 2.44763E+01 1.15383E+00-4.52062E-02 2.39515E+00 3.78725E-14 9.46971E-14
 -1       546 2.40535E+01 2.49759E+00-4.18661E-02 9.80258E-01 1.54992E-13-5.23973E-15
 -1       547 2.40974E+01 2.46548E+00-3.55254E-02-1.06988E+00 2.22308E-13-1.08238E-14
 -1       548 2.45942E+01 1.01700E+00-2.76890E-02-2.37445E+00 1.45848E-13 1.59690E-13
 -1       549 2.49497E+01-5.85804E-01-1.25410E-02-2.32027E+00 2.12243E-15 1.13188E-13
 -1       550 2.47704E+01-1.39686E+00-9.90628E-03-1.37458E+00 2.54605E-14 1.01793E-13
 -1       551 2.41966E+01-1.40826E+00-6.51776E-03-2.70121E-01 1.62502E-13 1.72900E-14
 -1       552 2.34949E+01-1.01764E+00-5.19194E-03 5.76987E-01-2.15693E-14-1.72206E-14
 -1       553 2.28425E+01-5.61292E-01-3.55569E-03 1.07527E+00-1.95704E-13 2.88468E-13
 -1       554 2.22975E+01-2.00214E-01-1.93251E-03 1.28331E+00-8.22701E-14 1.08023E-13
 -1       555 2.18558E+01 3.06423E-02-5.87296E-04 1.29671E+00 2.03784E-13 3.11418E-13
 -1       556 2.14953E+01 1.53883E-01 3.15454E-04 1.19838E+00 5.52101E-14 4.10761E-13
 -1       557 2.11973E+01 2.04193E-01 7.90153E-04 1.04690E+00-4.81667E-14 1.91680E-13
 -1       558 2.09491E+01 2.11176E-01 9.64786E-04 8.79492E-01-7.12109E-14 1.88526E-13
 -1       559 2.07426E+01 1.95492E-01 9.61123E-04 7.17541E-01-2.54895E-13 2.30290E-13
 -1       560 2.05722E+01 1.70003E-01 8.67857E-04 5.71841E-01-2.39408E-13-3.11040E-14
 -1       561 2.04333E+01 1.42070E-01 7.40200E-04 4.46637E-01-6.43026E-14 1.87448E-13
 -1       562 2.03216E+01 1.15572E-01 6.08860E-04 3.42374E-01-5.43645E-14 3.73401E-13
 -1       563 2.02332E+01 9.23516E-02 4.89396E-04 2.57472E-01-9.35106E-14 3.14340E-13
 -1       564 2.01644E+01 7.31719E-02 3.85748E-04 1.89378E-01 1.45419E-13 4.62969E-13
 -1       565 2.01115E+01 5.81321E-02 3.16586E-04 1.35190E-01 1.15440E-13 3.94625E-13
 -1       566 2.00715E+01 4.69617E-02 3.00546E-04 9.22258E-02 2.27227E-14 2.89820E-13
 -1       567 2.00414E+01 3.82647E-02 2.42990E-04 5.78050E-02-6.58339E-14 3.66532E-13
 -1       568 1.99834E+01 1.46807E-01-2.99890E-05 8.09913E-02 2.72864E-13-1.43332E-13
 -1       569 1.99665E+01 1.72794E-01-5.80345E-05 6.16023E-02 1.28242E-13 1.81297E-13
 -1       570 2.00234E+01 7.94870E-02 7.08458E-06 8.11167E-02 1.66220E-13-7.61592E-14
 -1       571 2.00036E+01 1.14532E-01-1.87971E-06 8.78118E-02-5.07952E-14-1.09471E-13
 -1       572 1.99554E+01 1.89289E-01-8.11272E-05 3.27762E-02 7.05261E-14-8.14799E-14
 -1       573 1.99518E+01 1.94449E-01-9.01054E-05-9.37402E-04 8.96662E-14 2.81124E-13
 -1       574 1.99561E+01 1.87764E-01-8.27146E-05-3.43657E-02 1.08657E-13 3.59056E-13
 -1       575 1.99672E+01 1.70509E-01-6.10232E-05-6.20241E-02 1.29766E-13-7.39204E-14
 -1       576 1.99840E+01 1.44078E-01-3.81990E-05-8.06547E-02 3.37608E-13-1.89661E-13
 -1       577 2.00035E+01 1.11835E-01-2.39174E-05-8.69484E-02-1.50289E-13-7.36882E-14
 -1       578 2.00227E+01 7.75022E-02 7.13455E-05-7.99833E-02-5.85125E-13-3.28199E-13
 -1       579 5.72580E+00-1.27885E+00 1.82761E-01 2.42760E+00-2.02269E-13 7.05880E-13
 -1       580 1.69508E+01-5.11586E+00 7.99934E-02 6.56980E+00-3.00503E-13 5.87308E-13
 -1       581 1.99806E+01 2.40530E-01 1.59928E-03 1.52023E-01 1.12446E-13-9.22136E-15
 -1       582 3.06473E+01 2.60510E+00-1.42473E-01-2.09815E+00 2.82316E-13-3.61558E-13
 -1       583 1.06106E+01-3.23460E+00 1.51065E-01 6.02961E+00-3.86538E-13 4.80858E-13
 -1       584 6.06664E+00-1.32094E+00 1.83888E-01-3.04825E+00 1.74104E-13 7.60780E-14
 -1       585 3.02534E+01 7.15425E+00-1.69109E-01 7.15395E-01-1.61718E-13-3.88111E-13
 -1       586 1.09868E+01-3.58771E+00 1.43084E-01-6.27017E+00-2.54061E-13-5.82888E-13
 -1       587 1.93967E+01 3.23959E+00-3.09443E-02-9.12214E-02-2.03377E-14-3.16143E-13
 -1       588 2.99319E+01 6.40389E+00-1.74247E-01-1.13244E+00 3.42684E-13 1.70766E-14
 -1       589 2.91135E+01-2.70762E+00-7.86895E-02-3.34953E-01-3.51854E-14 1.77226E-13
 -1       590 3.01305E+01 6.54361E+00-1.74975E-01 9.48759E-01 2.21184E-13 3.55410E-14
 -1       591 2.96659E+01 2.94705E+00-1.61046E-01 2.33916E+00 1.56986E-13 2.49328E-13
 -1       592 2.53009E+01-5.16678E+00-3.37303E-03-3.44341E+00-1.50904E-13 2.11667E-13
 -1       593 1.72679E+01-4.99410E+00 9.82032E-02-6.43063E+00-2.54984E-13-4.31183E-14
 -1       594 6.04412E+00-1.39908E+00 1.80122E-01-2.89607E+00-2.24265E-14-3.57991E-13
 -1       595 1.07994E+01-3.32582E+00 1.59547E-01-6.37449E+00 6.03198E-14-1.83326E-13
 -1       596 4.94541E+00-1.30705E+00 1.91911E-01 1.59337E+00 5.45727E-14-3.13222E-13
 -1       597 1.74489E+01-5.25521E+00 6.89093E-02 6.73847E+00-6.28941E-14-6.61433E-14
 -1       598 2.33275E+01-5.23982E+00 8.57021E-03 4.98287E+00-1.15886E-13 1.80685E-13
 -1       599 3.02970E+01 2.66623E+00-1.44630E-01-1.53836E+00-5.20278E-14 2.01596E-13
 -1       600 3.01808E+01 6.32789E+00-1.70844E-01-1.29791E+00 7.27751E-14-4.70214E-14
 -1       601 3.06978E+01 4.96852E+00-1.54604E-01 1.50836E+00-2.43972E-13-4.50071E-13
 -1       602 2.62575E+01-4.71136E+00-1.57156E-02-2.77438E+00 1.39271E-13-4.43548E-13
 -1       603 2.02254E+01 1.58852E+00-1.32434E-02-1.53122E+00-2.08332E-13-1.91960E-13
 -1       604 2.05637E+01 1.24752E+00-1.43888E-03 1.45415E+00 2.51991E-13 4.32987E-14
 -1       605 2.50553E+01-5.42011E+00-1.42005E-03 3.83867E+00-1.67491E-13-2.01339E-13
 -1       606 1.98153E+01 2.61784E+00-1.17736E-02-1.27157E+00-1.69561E-13-3.55980E-13
 -1       607 2.77026E+01 6.35601E+00-1.51438E-01-4.41815E-01 6.03267E-14 4.51028E-16
 -1       608 2.65551E+01-4.44804E+00-1.99052E-02 2.30963E+00 1.84019E-14 2.59133E-13
 -1       609 8.06931E+00-1.29913E+00 1.76759E-01 3.93713E+00 1.17906E-13-2.71151E-13
 -1       610 1.61916E+01-4.13259E+00 9.52532E-02-6.38028E+00 2.10318E-13-2.77122E-13
 -1       611 2.23783E+01-5.20800E+00 3.11552E-02-4.46858E+00-2.54990E-13 5.89017E-14
 -1       612 2.85564E+01-5.11710E-01-9.50035E-02 2.28783E+00 1.05870E-13 1.77094E-13
 -1       613 2.88198E+01-2.64818E-01-7.83878E-02-1.30604E+00-3.38896E-14-5.69683E-15
 -1       614 2.00397E+01 5.03480E-02 1.58789E-04-7.01136E-02-6.05977E-13-4.06774E-14
 -1       615 1.45275E+01-3.88518E+00 1.23262E-01 6.54263E+00 5.39846E-14 1.69378E-14
 -1       616 2.92688E+01 1.69808E+00-1.28000E-01 1.81655E+00-1.20126E-13-6.01651E-13
 -1       617 1.92563E+01 2.54424E+00-1.81960E-03-9.62141E-02 9.79919E-14-2.77220E-13
 -1       618 1.87864E+01 2.96522E+00-4.32175E-02 1.30756E-02 1.93404E-14-2.51094E-13
 -1       619 2.00338E+01 1.87959E+00-7.96840E-04 5.88767E-01 1.54621E-13-1.95824E-13
 -1       620 2.02231E+01 1.54150E+00-3.06072E-03 8.37335E-01 1.88765E-13-1.50667E-13
 -1       621 2.03414E+01 9.46337E-01 2.05201E-03 7.51251E-01 2.00374E-13-9.20727E-14
 -1       622 2.75910E+01-2.28967E+00-6.37070E-02 6.61518E-01-7.53937E-14-6.36807E-13
 -1       623 1.95899E+01 5.47839E-01-1.57492E-02 5.18351E-01-2.65760E-14-2.51689E-13
 -1       624 2.12386E+01-9.26111E-01 9.20272E-02 1.27974E+00-4.76980E-13-3.77164E-13
 -1       625 2.00197E+01 4.40999E-01 3.85027E-02 2.52692E-01-9.16797E-14-1.86582E-13
 -1       626 2.01206E+01 5.00379E-01 2.53028E-03 9.72674E-02-9.91540E-14-2.42960E-13
 -1       627 2.01798E+01 5.89753E-01-8.65092E-03 2.86862E-01-3.16408E-14-1.81796E-13
 -1       628 2.03147E+01 5.22666E-01-1.14353E-02 5.24682E-01-5.91064E-15-1.04780E-13
 -1       629 2.04495E+01 4.09551E-01-5.44996E-04 6.66802E-01-5.44980E-15-9.12382E-14
 -1       630 2.05078E+01 3.51486E-01 2.81281E-02 7.34488E-01-5.50761E-14-6.99111E-14
 -1       631 2.03566E+01 2.27759E-01 5.95036E-02 7.49863E-01-5.15317E-14-1.30883E-13
 -1       632 2.02149E+01 2.25393E-01 9.60251E-05 8.53309E-01 6.06391E-15-9.25963E-14
 -1       633 2.02920E+01 2.17619E-01 8.83387E-05 9.70866E-01 4.60119E-14 3.08636E-14
 -1       634 2.04023E+01 1.66233E-01 5.16700E-05 1.08728E+00 8.02826E-14 4.93584E-14
 -1       635 2.05644E+01 4.65110E-02-3.35167E-05 1.18638E+00 2.59723E-14 1.59612E-14
 -1       636 2.08061E+01-1.69021E-01-2.03812E-04 1.24193E+00-7.69935E-14-4.86821E-14
 -1       637 2.11646E+01-5.02372E-01-5.30410E-04 1.21380E+00-1.20871E-14 6.96657E-14
 -1       638 2.16793E+01-9.50698E-01-1.07364E-03 1.04406E+00-3.79434E-14 7.58115E-14
 -1       639 2.23697E+01-1.44768E+00-8.06650E-04 6.57352E-01-1.01777E-13-5.63998E-14
 -1       640 2.31866E+01-1.80919E+00-1.09256E-03-1.34948E-02 1.90795E-14-6.82163E-14
 -1       641 2.39620E+01-1.69825E+00-3.18281E-03-9.41529E-01 3.92747E-14-4.04282E-14
 -1       642 2.43643E+01-7.88071E-01-5.47757E-03-1.82578E+00 9.02737E-14-2.18005E-13
 -1       643 2.42980E+01 1.07237E+00-1.53433E-02-2.19227E+00 8.06239E-14-3.28276E-13
 -1       644 2.37800E+01 2.97472E+00-5.59630E-02-1.32879E+00-1.67193E-14-3.48853E-13
 -1       645 2.36605E+01 3.41459E+00-4.56305E-02 4.37619E-01 7.24473E-14-3.39335E-13
 -1       646 2.39924E+01 2.11835E+00-3.42786E-02 1.86230E+00-1.41429E-13-1.38521E-13
 -1       647 2.43922E+01 1.59231E-01-1.63382E-02 2.14051E+00-1.20729E-13-1.18130E-13
 -1       648 2.42535E+01-1.30150E+00-5.30757E-03 1.46830E+00 8.90344E-15-6.03014E-14
 -1       649 2.36317E+01-1.82666E+00 1.23016E-03 4.99443E-01 1.28602E-13-7.22066E-14
 -1       650 2.28055E+01-1.66101E+00 4.24974E-04-3.17035E-01-4.83563E-14-1.22782E-13
 -1       651 2.20364E+01-1.20012E+00-2.76754E-04-8.41661E-01-8.40880E-14 1.26621E-13
 -1       652 2.14295E+01-7.06710E-01-1.42014E-04-1.10798E+00-7.70199E-14 3.94447E-13
 -1       653 2.09943E+01-3.03173E-01 2.37094E-05-1.19176E+00-4.78719E-15 5.97047E-13
 -1       654 2.06981E+01-2.03838E-02 1.01907E-04-1.16079E+00-1.25266E-13 3.45098E-13
 -1       655 2.05008E+01 1.53450E-01 1.27028E-04-1.06446E+00 7.27864E-14 1.90697E-13
 -1       656 2.03689E+01 2.44115E-01 1.25852E-04-9.36056E-01 3.41508E-15-3.90462E-14
 -1       657 2.02785E+01 2.77680E-01 1.14109E-04-7.97154E-01-1.47190E-13-8.93224E-14
 -1       658 2.02141E+01 2.75461E-01 9.88178E-05-6.61202E-01-7.98205E-14-1.15258E-13
 -1       659 2.01665E+01 2.53115E-01 8.31179E-05-5.36006E-01 2.12963E-13-6.44077E-13
 -1       660 2.01298E+01 2.21356E-01 6.82515E-05-4.25496E-01 5.22418E-14-6.29563E-13
 -1       661 2.01008E+01 1.87103E-01 5.41466E-05-3.30990E-01-1.05370E-13-4.50724E-13
 -1       662 2.00773E+01 1.54575E-01 3.72623E-05-2.52114E-01-1.08049E-13-3.70050E-13
 -1       663 2.00581E+01 1.26080E-01 7.24263E-05-1.87497E-01-2.44916E-13-4.81323E-13
 -1       664 2.00418E+01 1.02615E-01 6.18775E-05-1.35332E-01-1.95188E-13-5.73522E-13
 -1       665 2.00552E+01 2.19254E-01-1.83015E-03-2.40608E-01 8.44561E-14-7.45286E-14
 -1       666 2.68524E+01-4.10416E+00-2.95439E-02-6.46342E-01-7.82148E-14 4.65808E-14
 -1       667 2.00896E+01 2.89577E-01-2.55154E-03-7.13468E-02 7.41541E-14-5.97629E-14
 -1       668 2.00691E+01 1.47728E-01 1.72436E-03-4.55344E-01 5.14774E-14-8.68468E-15
 -1       669 2.00920E+01 1.50897E-01 1.95666E-03-5.45808E-01 1.30955E-13-7.63365E-15
 -1       670 2.01354E+01 1.82398E-01-1.43236E-04-6.42454E-01 4.97260E-14-2.21231E-15
 -1       671 2.01979E+01 2.27369E-01 2.17637E-04-7.55074E-01 5.13186E-14-6.12199E-14
 -1       672 2.02730E+01 2.74998E-01 2.63974E-04-8.89159E-01 6.10414E-14 2.77059E-14
 -1       673 2.03619E+01 3.15808E-01 2.97753E-04-1.04579E+00 2.62871E-14 6.64524E-14
 -1       674 2.04699E+01 3.33405E-01 2.96763E-04-1.22138E+00-3.93008E-14 6.36830E-14
 -1       675 2.06087E+01 3.01942E-01 2.25962E-04-1.40572E+00-8.24396E-14 3.36773E-14
 -1       676 2.08027E+01 1.82862E-01 3.51261E-05-1.57866E+00-3.56833E-14 5.62730E-14
 -1       677 2.10959E+01-7.53925E-02-2.84296E-04-1.70485E+00-1.21499E-13 1.98147E-13
 -1       678 2.15583E+01-5.27938E-01-5.63108E-04-1.72577E+00-1.21637E-13 1.79357E-13
 -1       679 2.22908E+01-1.20330E+00-2.00798E-04-1.54163E+00-1.60606E-13 8.45217E-14
 -1       680 2.33588E+01-1.98950E+00 8.85889E-04-1.00671E+00-2.60405E-14 2.64499E-15
 -1       681 2.47218E+01-2.52274E+00 2.19031E-03 3.10754E-02 1.13839E-14 6.95343E-14
 -1       682 2.59899E+01-2.10657E+00-7.99753E-03 1.44788E+00 5.46989E-14 1.49488E-13
 -1       683 2.58793E+01 4.60233E+00-1.24443E-01-1.15989E-01 2.04604E-13 1.77719E-13
 -1       684 2.62797E+01 2.85994E+00-9.47046E-02-2.25790E+00 1.85678E-13-1.91167E-15
 -1       685 2.64483E+01-1.11462E-01-7.36605E-02-2.67308E+00 1.03842E-13 3.04808E-14
 -1       686 2.58883E+01-2.02866E+00-1.76416E-02-1.50785E+00 1.27869E-13-1.17966E-13
 -1       687 2.46449E+01-2.43692E+00-4.31104E-03-5.15639E-02 8.56149E-14-1.40022E-13
 -1       688 2.33526E+01-1.88210E+00-1.15821E-03 9.50895E-01-5.27868E-14-7.16355E-14
 -1       689 2.23365E+01-1.12183E+00-6.22240E-04 1.47575E+00-2.06314E-13 1.44560E-13
 -1       690 2.16308E+01-4.73641E-01-7.88865E-04 1.65526E+00-6.65725E-14 2.14354E-13
 -1       691 2.11790E+01-3.96286E-02-3.79694E-04 1.62938E+00-6.42194E-14 3.45867E-13
 -1       692 2.08879E+01 2.08747E-01 2.26410E-05 1.49470E+00 9.45248E-14 4.73034E-13
 -1       693 2.06926E+01 3.24746E-01 2.60838E-04 1.30975E+00 2.84410E-13 3.32506E-13
 -1       694 2.05520E+01 3.57694E-01 3.62733E-04 1.11038E+00-1.18153E-13 7.03161E-14
 -1       695 2.04435E+01 3.43994E-01 3.79262E-04 9.17322E-01-8.37905E-14 1.65614E-13
 -1       696 2.03553E+01 3.07489E-01 3.51731E-04 7.41678E-01-9.37054E-14-1.61543E-14
 -1       697 2.02819E+01 2.62583E-01 3.05644E-04 5.88401E-01-1.81004E-13-1.26614E-13
 -1       698 2.02204E+01 2.17386E-01 2.55311E-04 4.58641E-01-1.96820E-13-7.19707E-14
 -1       699 2.01692E+01 1.76094E-01 2.06474E-04 3.51294E-01-2.45947E-13-1.11863E-13
 -1       700 2.01272E+01 1.40590E-01 1.58539E-04 2.64114E-01-2.87926E-13 2.48850E-13
 -1       701 2.00928E+01 1.11717E-01 1.33466E-04 1.94229E-01 3.42472E-13 4.32842E-13
 -1       702 2.00650E+01 8.92518E-02 1.77035E-04 1.38726E-01 1.60072E-13 1.60591E-13
 -1       703 2.00413E+01 8.43521E-02 1.10000E-04 1.07956E-01 5.11767E-15 7.31620E-15
 -1       704 2.19741E+01-5.05658E+00 3.66128E-02 4.58931E+00-2.63328E-13-1.37446E-13
 -1       705 1.99180E+01 2.30320E-01-3.52228E-05 2.09559E-02 3.03418E-13 4.02285E-13
 -1       706 2.00320E+01 8.90174E-02 3.85305E-05-1.05835E-01-3.15987E-13-5.91389E-13
 -1       707 1.99537E+01 1.92755E-01-1.13861E-05 9.75462E-02 3.31761E-13-3.10176E-13
 -1       708 1.99187E+01 2.29002E-01-3.32481E-05-2.45460E-02 1.15484E-13 1.56659E-13
 -1       709 1.99302E+01 2.17845E-01-2.28057E-05 6.37257E-02 1.05266E-13 1.02301E-13
 -1       710 1.99316E+01 2.14560E-01-2.42623E-05-6.56765E-02 1.47833E-13 2.85256E-13
 -1       711 1.99553E+01 1.88121E-01-4.69055E-05-9.81122E-02 1.53273E-13-1.21730E-13
 -1       712 1.99865E+01 1.52721E-01-2.22425E-05-1.16188E-01 2.26298E-13-4.19956E-13
 -1       713 7.97513E+00 1.21961E-01 1.37209E-01-2.47173E-01 2.27227E-13 2.99608E-13
 -1       714 1.54744E+01-3.23908E+00 1.09233E-01-5.74370E+00-2.90067E-13-1.56070E-13
 -1       715 1.60030E+01-3.16963E+00 9.54438E-02 5.60668E+00-4.05787E-13 5.29986E-13
 -1       716 2.23203E+01-5.01353E+00 3.90662E-02-4.54007E+00 2.35124E-13-4.79037E-13
 -1       717 2.01698E+01 3.77935E-01-1.73499E-03 1.36841E-01 1.17246E-13-7.66109E-14
 -1       718 2.00542E+01 1.66541E-01-5.94757E-04-3.61263E-01 5.70774E-14-6.94878E-14
 -1       719 2.00473E+01 1.08891E+00 6.93521E-03-4.76366E-01-9.85739E-14-2.75298E-13
 -1       720 1.97423E+01 2.16684E+00 5.05813E-03 2.20411E-01 1.27499E-13-2.35527E-13
 -1       721 2.02634E+01 5.59850E-01-8.11268E-04 3.88369E-01 1.73208E-13-8.60323E-14
 -1       722 2.71697E+01-4.03726E+00-2.55911E-02 4.98059E-01-9.02230E-15-4.20029E-13
 -1       723 2.01260E+01 2.26718E+00-3.12618E-02-5.89783E-01-1.03550E-13-2.74494E-13
 -1       724 2.70137E+01 3.83555E+00-1.21432E-01 2.02511E+00 1.11196E-13 6.16594E-14
 -1       725 1.07284E+01-1.29781E+00 1.27416E-01-4.61860E+00 3.17385E-13-4.08701E-14
 -1       726 1.03461E+01-1.11339E+00 1.36424E-01-4.19878E+00-1.04614E-13-3.74520E-13
 -1       727 7.87628E+00 2.52881E-02 1.52267E-01-3.91795E-01 4.88244E-14-2.10700E-13
 -1       728 2.17196E+01-4.99535E+00 3.00449E-02 4.77032E+00 1.08738E-13 3.69559E-13
 -1       729 2.73407E+01 5.11247E+00-1.46504E-01 1.67546E+00-1.49263E-13-2.77132E-13
 -1       730 1.07115E+01-1.14841E+00 1.20144E-01 4.25544E+00-1.67692E-13 5.38888E-13
 -1       731 2.73715E+01 3.74219E+00-1.28425E-01-2.22823E+00 2.58335E-14-3.60892E-14
 -1       732 2.84604E+01-3.73178E-01-6.75318E-02-2.31283E+00 1.33855E-13-5.10335E-13
 -1       733 2.77289E+01 3.63191E+00-1.36463E-01-2.35645E+00 2.25008E-13-3.85560E-14
 -1       734 2.00060E+01 2.10158E+00-3.78282E-03-9.52783E-01-1.40782E-13-3.13733E-13
 -1       735 1.92827E+01 2.78984E+00-7.69828E-02 3.37228E-01-2.98008E-14-2.83152E-13
 -1       736 2.74735E+01-2.82076E+00-6.84611E-02-2.34267E-01 1.01667E-13-7.57658E-14
 -1       737 2.70747E+01 2.68044E+00-1.09110E-01 2.31824E+00-8.97442E-14-3.14252E-13
 -1       738 1.21424E+01-1.80347E+00 1.21587E-01 5.12388E+00 1.29674E-13-3.83998E-14
 -1       739 1.99852E+01 1.57780E-01-5.89825E-05 1.17328E-01 3.31484E-13 1.32327E-13
 -1       740 1.91559E+01-4.06663E+00 5.83675E-02 5.29124E+00 1.78080E-13 1.73710E-13
 -1       741 2.00149E+01 1.21526E-01-7.83491E-06 1.19101E-01-6.10374E-14-9.23266E-14
 -1       742 1.05771E+01 1.83475E-01 9.70024E-02-2.31588E+00 2.40480E-13-9.90770E-14
 -1       743 1.07473E+01 2.97700E-01 9.38119E-02 2.04265E+00 1.02945E-13 3.97012E-13
 -1       744 1.44838E+01-2.22069E+00 8.20744E-02-5.27074E+00 2.92296E-13-1.84904E-13
 -1       745 9.25637E+00 1.16623E-01 1.26642E-01 1.74482E+00 2.25445E-14-2.35104E-13
 -1       746 1.99164E+01-3.97147E+00 3.60524E-02-4.73762E+00-1.52940E-13-4.39275E-14
 -1       747 2.70262E+01 1.21039E+00-8.22940E-02-2.32550E+00-5.28501E-14-1.37659E-13
 -1       748 2.52822E+01-4.30964E+00 7.78160E-03-1.81804E+00 1.69747E-13-4.54796E-13
 -1       749 1.99969E+01 2.38387E+00-9.06291E-02-1.04269E-01-4.80779E-14-2.57669E-13
 -1       750 1.99754E+01 1.61334E+00-5.09355E-03-8.44376E-01-1.61215E-13-3.15493E-13
 -1       751 2.00113E+01 1.29758E-01 8.45723E-06-1.30108E-01-2.21569E-13-7.92210E-13
 -1       752 2.03291E+01 1.12334E+00-3.00457E-04 4.89846E-01 1.40907E-13-1.42246E-13
 -1       753 1.45989E+01-1.25449E+00 7.21657E-02 4.33311E+00-1.92115E-13 3.26739E-13
 -1       754 1.95783E+01 9.71664E-01 1.52952E-01-3.73689E-01 2.33924E-13-1.56684E-13
 -1       755 2.10463E+01 5.86475E-02 2.92983E-01-5.57551E-01 5.46238E-14-4.00225E-13
 -1       756 2.03130E+01 3.38247E-01 1.41618E-02-4.63407E-02-8.12224E-14-2.28296E-13
 -1       757 2.01637E+01 8.04623E-01-3.72454E-02 1.95619E-01-7.27716E-14-2.02931E-13
 -1       758 2.03030E+01 7.89872E-01-5.37416E-02 5.57141E-01 2.51171E-14-2.14849E-13
 -1       759 2.05066E+01 5.62293E-01-1.24735E-02 7.34541E-01 5.01522E-14-1.94400E-13
 -1       760 2.06141E+01 3.80481E-01 1.48757E-02 7.61564E-01 9.26852E-15-1.77580E-13
 -1       761 2.04917E+01 3.97349E-01 1.56215E-01 7.84637E-01-3.72072E-14-7.69662E-14
 -1       762 1.99845E+01 3.20363E-01 3.03547E-05 8.08697E-01-1.73714E-14 3.96466E-14
 -1       763 1.99631E+01 3.36926E-01 3.94100E-05 9.38966E-01 5.42566E-14-3.51730E-14
 -1       764 1.99616E+01 3.15416E-01 4.72436E-05 1.08427E+00 1.73389E-14-1.31334E-13
 -1       765 1.99984E+01 2.28390E-01 4.74119E-05 1.24018E+00 2.41912E-15-1.89316E-13
 -1       766 2.01045E+01 4.15068E-02 3.08032E-05 1.39666E+00-7.07891E-14-2.37410E-13
 -1       767 2.03279E+01-2.83799E-01-4.70662E-05 1.53359E+00-2.20112E-14-1.83375E-13
 -1       768 2.07374E+01-7.79930E-01-3.53791E-04 1.61160E+00-1.08668E-14-2.75104E-13
 -1       769 2.14161E+01-1.44677E+00-1.16911E-03 1.55693E+00-4.26070E-14-1.22892E-13
 -1       770 2.24423E+01-2.18940E+00 2.43890E-03 1.23749E+00-4.61377E-14-8.13873E-14
 -1       771 2.37650E+01-2.68670E+00 2.57520E-04 4.56803E-01 3.43861E-14-1.55438E-13
 -1       772 2.50741E+01-2.40148E+00-1.99358E-02-7.83852E-01-8.58731E-14-1.26021E-13
 -1       773 2.53357E+01 4.91959E+00-1.59557E-01-5.91398E-01 1.20813E-13-1.69243E-13
 -1       774 2.56142E+01-1.54272E+00-2.96208E-02 1.47227E+00 2.75387E-16-2.03733E-13
 -1       775 2.45561E+01-2.65843E+00-1.09676E-02 1.70174E-01-3.40624E-14-2.60584E-13
 -1       776 2.31921E+01-2.51246E+00-1.69482E-03-8.54042E-01 6.39543E-14-1.01760E-13
 -1       777 2.19690E+01-1.84111E+00-3.59970E-03-1.39100E+00 1.76895E-13-4.62922E-14
 -1       778 2.10939E+01-1.10477E+00-1.19784E-03-1.56862E+00 4.55693E-14 9.72264E-15
 -1       779 2.05338E+01-5.01766E-01-2.36962E-04-1.54471E+00 5.09903E-14 3.08304E-14
 -1       780 2.02088E+01-7.59552E-02 1.85838E-04-1.42249E+00-1.06427E-13 1.30186E-13
 -1       781 2.00379E+01 1.91272E-01 3.19628E-04-1.25944E+00-2.48008E-13 3.58367E-13
 -1       782 1.99602E+01 3.37060E-01 3.33572E-04-1.08512E+00-3.51954E-13-3.26326E-14
 -1       783 1.99347E+01 3.98112E-01 3.07052E-04-9.14850E-01-1.51603E-13-3.22182E-13
 -1       784 1.99357E+01 4.04485E-01 2.67797E-04-7.56715E-01-2.68354E-14-6.12172E-14
 -1       785 1.99481E+01 3.78605E-01 2.26649E-04-6.14887E-01-5.15107E-14-7.29310E-14
 -1       786 1.99638E+01 3.36198E-01 1.87528E-04-4.91153E-01-9.69512E-14-5.68449E-13
 -1       787 1.99785E+01 2.87737E-01 1.49745E-04-3.85698E-01-6.54255E-14-9.22303E-13
 -1       788 1.99904E+01 2.39826E-01 1.05632E-04-2.97636E-01-5.69668E-15-9.77247E-13
 -1       789 1.99993E+01 1.96261E-01 9.95833E-05-2.25529E-01-2.02780E-13-9.48474E-13
 -1       790 2.00086E+01 1.59019E-01 5.23798E-06-1.73755E-01-1.98954E-13-6.75239E-13
 -1       791 2.00629E+01 2.51011E-01 3.98236E-05-6.03119E-01 4.42584E-14-4.79526E-14
 -1       792 2.01056E+01 2.25077E-01 6.92327E-03-5.02569E-01 5.52241E-14-1.00865E-13
 -1       793 2.00121E+01 3.69986E-01 7.01118E-05-8.38873E-01 2.78173E-14 1.33407E-14
 -1       794 1.99817E+01 4.36318E-01 9.23716E-05-9.88662E-01 1.68135E-14-7.24831E-14
 -1       795 1.99485E+01 4.87598E-01 1.17848E-04-1.16365E+00 9.41477E-15 2.38746E-14
 -1       796 1.99192E+01 4.99278E-01 1.42373E-04-1.36408E+00-8.06457E-15-3.50179E-14
 -1       797 1.99126E+01 4.33870E-01 1.54337E-04-1.58779E+00-8.15993E-14-3.00102E-14
 -1       798 1.99680E+01 2.36640E-01 1.25088E-04-1.82879E+00-1.75989E-13 9.72704E-14
 -1       799 2.01599E+01-1.65391E-01 2.87800E-04-2.07126E+00-7.36686E-14 4.63999E-14
 -1       800 2.06064E+01-8.46619E-01 1.67353E-03-2.27528E+00-1.13379E-13-4.81685E-14
 -1       801 2.15271E+01-1.88435E+00-7.36141E-03-2.32968E+00-2.94196E-14-1.13620E-13
 -1       802 2.32078E+01-3.12112E+00 9.50664E-03-2.03245E+00-3.89517E-14-7.99240E-14
 -1       803 2.51624E+01-3.63512E+00-7.06940E-03 8.54629E-01-4.34201E-14-1.97582E-13
 -1       804 2.32015E+01-2.99100E+00 1.68093E-02 1.90422E+00-3.04934E-14-2.52472E-13
 -1       805 2.16148E+01-1.79131E+00-4.97047E-03 2.22083E+00-1.89996E-13-1.47041E-13
 -1       806 2.07188E+01-7.88820E-01 1.71618E-03 2.18055E+00-1.60878E-13-1.21005E-13
 -1       807 2.02681E+01-1.25931E-01 2.28574E-04 1.99173E+00-2.30679E-13-1.46693E-16
 -1       808 2.00646E+01 2.67529E-01 9.37749E-05 1.75192E+00-1.77500E-14 2.11668E-13
 -1       809 1.99941E+01 4.63301E-01 1.31766E-04 1.50470E+00 1.42696E-13 2.41776E-13
 -1       810 1.99847E+01 5.31935E-01 1.47303E-04 1.26854E+00 1.42028E-13 4.10143E-13
 -1       811 1.99977E+01 5.25961E-01 1.38094E-04 1.05158E+00-3.14323E-14 1.83690E-13
 -1       812 2.00149E+01 4.80690E-01 1.20843E-04 8.57796E-01-5.08551E-14 2.94957E-13
 -1       813 2.00286E+01 4.18324E-01 1.01562E-04 6.88798E-01 8.19003E-14 4.34487E-14
 -1       814 2.00368E+01 3.52030E-01 8.51858E-05 5.44557E-01-1.58833E-13-1.80244E-13
 -1       815 2.00399E+01 2.89161E-01 7.39743E-05 4.23798E-01-2.81503E-13-1.83243E-13
 -1       816 2.00392E+01 2.33357E-01 5.82011E-05 3.24322E-01-4.40560E-13-1.07271E-13
 -1       817 2.00357E+01 1.86238E-01 4.41497E-05 2.44061E-01-1.56902E-14-3.78229E-13
 -1       818 2.00303E+01 1.48196E-01 3.58003E-05 1.79703E-01 2.46600E-13 1.19227E-14
 -1       819 2.00214E+01 1.34008E-01-8.61057E-05 1.47080E-01 1.71269E-13-8.81886E-14
 -1       820 1.98812E+01 2.69609E-01-2.16376E-05-6.04934E-02 2.34787E-13 4.77704E-13
 -1       821 1.99521E+01 2.05823E-01 2.22996E-04-1.43734E-01-1.66936E-13-4.41691E-13
 -1       822 1.98706E+01 2.79853E-01-3.16615E-05-2.86675E-03 1.86037E-13 1.07077E-13
 -1       823 2.44103E+01-4.18914E+00 2.66000E-02 2.12267E+00-2.62751E-14-3.86871E-13
 -1       824 2.02849E+01 5.19086E-01-5.14658E-03 1.01099E-01 8.77679E-14-5.83053E-14
 -1       825 2.26564E+01-4.05114E+00 1.76101E-02-3.13364E+00 1.25535E-13-3.81560E-13
 -1       826 1.99089E+01 2.44181E-01-2.88305E-05-1.09203E-01 1.02171E-13 7.44282E-14
 -1       827 1.94601E+01 1.34103E+00-6.92214E-02-3.12768E-01-8.00217E-14-3.68202E-13
 -1       828 2.48417E+01-4.28989E+00-5.68740E-04 1.95498E+00-1.52270E-14-7.37596E-14
 -1       829 2.01050E+01-3.48170E+00 1.21556E-02 4.23578E+00-2.24957E-13 5.88089E-14
 -1       830 1.13857E+01 3.62409E-01 7.77675E-02-2.02204E+00 8.92216E-14-3.04309E-13
 -1       831 2.00386E+01 3.04566E-01 5.26308E-05-7.11897E-01 4.34839E-14 1.53855E-14
 -1       832 2.02211E+01 4.17055E-01-3.38408E-03-1.28645E-01 7.71477E-14-8.81605E-14
 -1       833 2.47889E+01-3.99031E+00 8.97843E-03-1.61576E+00-2.18579E-14-5.55220E-14
 -1       834 1.46666E+01-1.34028E+00 7.23907E-02-4.38928E+00-1.24479E-13-2.16549E-13
 -1       835 1.91372E+01-3.62532E+00 5.30495E-02-4.93465E+00 2.55861E-13-5.35577E-13
 -1       836 2.57325E+01-2.82371E+00-3.46541E-02 2.59487E-01 9.55377E-15-5.65357E-13
 -1       837 2.03389E+01 8.39515E-01-1.04150E-03 4.83637E-01 1.80519E-13-1.00258E-13
 -1       838 2.68784E+01-7.21938E-01-6.00690E-02 1.76105E+00 1.63515E-14-5.61003E-13
 -1       839 1.89309E+01 2.06329E+00 4.27807E-02-7.41743E-01 4.07226E-14-1.97488E-13
 -1       840 1.78999E+01 2.90066E+00-1.63098E-01 3.78716E-01-9.95037E-14-1.76307E-13
 -1       841 2.05206E+01 1.80722E+00 8.42942E-02-5.40234E-01-8.40664E-14-2.35897E-13
 -1       842 1.83381E+01-2.03994E+00 2.25762E-02 3.99263E+00-1.57191E-13 1.83747E-13
 -1       843 1.99288E+01 1.46373E+00 4.74409E-02-2.83956E-01 1.11134E-13-2.35475E-13
 -1       844 1.63508E+01-2.39717E+00 5.47645E-02 4.97551E+00 2.31527E-13 1.42030E-13
 -1       845 1.99475E+01 2.14226E-01 3.70477E-05 1.43151E-01 8.51195E-14-3.22440E-14
 -1       846 2.59903E+01 1.19891E+00-5.41785E-02 2.26598E+00-2.10006E-14-3.30097E-13
 -1       847 2.02419E+01 1.29805E+00 9.78844E-03 2.23061E-01 1.06496E-13-2.06373E-13
 -1       848 2.01928E+01 2.94849E-01-1.39605E-03-2.91632E-01 7.26964E-14-1.14626E-13
 -1       849 2.01572E+01 2.37086E-01 2.98454E-03-3.99456E-01 1.79639E-14-1.03956E-13
 -1       850 1.99056E+01 2.51072E-01-6.62351E-06 1.06235E-01 1.52973E-13-2.81496E-14
 -1       851 1.98791E+01 2.73489E-01-2.49455E-05 5.51828E-02 3.11693E-13 4.14548E-13
 -1       852 1.13676E+01 7.96965E-01 6.14327E-02-7.03674E-02 1.57814E-13 1.05117E-13
 -1       853 1.28044E+01-5.02597E-01 6.85646E-02-3.70181E+00 1.66802E-13-7.75213E-14
 -1       854 1.17174E+01-2.71037E-01 8.24614E-02 3.30395E+00 7.14429E-14-1.28463E-13
 -1       855 1.80737E+01-2.27649E+00 2.59498E-02-4.24863E+00-1.00644E-13-1.48799E-13
 -1       856 1.13840E+01 7.45747E-01 6.62873E-02-3.85590E-01-3.25009E-14-3.35402E-13
 -1       857 2.03428E+01 5.97571E-01-4.99252E-03 2.87829E-01 1.23596E-13-7.35706E-14
 -1       858 2.03698E+01 1.97298E+00-6.23932E-02-3.44685E-01-1.97897E-14-2.17872E-13
 -1       859 2.29013E+01-4.41646E+00-6.53438E-02 3.21808E+00 9.19056E-15 1.37808E-13
 -1       860 1.99777E+01 1.84339E-01 2.69100E-05-1.60628E-01-3.87260E-13-6.44104E-13
 -1       861 1.93471E+01 2.36394E+00 1.21400E-01-1.02877E+00 5.61912E-14-2.48593E-13
 -1       862 2.01117E+01 1.29549E-01 1.57422E-01-2.31643E-01-7.11792E-14-1.08462E-13
 -1       863 2.00982E+01 9.42221E-01-1.08986E-01-4.53272E-02-8.38236E-14-1.77199E-13
 -1       864 2.02556E+01 1.20280E+00-2.33672E-01 6.13439E-01-2.69923E-14-1.94931E-13
 -1       865 2.06864E+01 7.55687E-01-5.74057E-02 8.47655E-01 3.33438E-14-2.36476E-13
 -1       866 2.07057E+01 4.44521E-01-4.44090E-03 7.79054E-01 1.22637E-14-2.51778E-13
 -1       867 2.05212E+01 4.36026E-01 3.78498E-02 7.65082E-01 4.68039E-14-2.51841E-13
 -1       868 2.00660E+01 4.77550E-01 8.35417E-02 7.16359E-01-5.68209E-15-2.05001E-13
 -1       869 1.97291E+01 4.48379E-01 5.29402E-06 8.15891E-01-3.23141E-14-2.08648E-13
 -1       870 1.96239E+01 4.66999E-01 9.97596E-06 9.65359E-01 4.70883E-15-2.15405E-13
 -1       871 1.95314E+01 4.34884E-01 1.70997E-05 1.14358E+00 2.25340E-14-2.60465E-13
 -1       872 1.94738E+01 3.18289E-01 1.42126E-05 1.35511E+00-1.81463E-14-2.27204E-13
 -1       873 1.94905E+01 7.40401E-02 3.20015E-05 1.60279E+00-2.18404E-14-1.76280E-13
 -1       874 1.96472E+01-3.50000E-01 1.17253E-04 1.88225E+00-7.04927E-14-2.02984E-13
 -1       875 2.00499E+01-1.00655E+00 4.29562E-04 2.16483E+00 7.54152E-14-2.40261E-13
 -1       876 2.08423E+01-1.91436E+00 2.47780E-04 2.35891E+00 8.58688E-17-1.50704E-13
 -1       877 2.21987E+01-3.06424E+00 3.07822E-03 2.31031E+00-3.35010E-14-8.61334E-14
 -1       878 2.06546E+01-2.69863E+00 1.65916E-02-3.23032E+00 1.82654E-13-2.55847E-13
 -1       879 1.95300E+01-1.45717E+00 2.81770E-03-2.82556E+00 7.50617E-14-4.18301E-13
 -1       880 1.90537E+01-5.58078E-01 8.58068E-05-2.31457E+00 1.82417E-14-4.71404E-13
 -1       881 1.89112E+01 2.87510E-02-5.74699E-04-1.86053E+00 7.00462E-14-5.13212E-13
 -1       882 1.89410E+01 3.82189E-01-7.13204E-04-1.48940E+00-3.15380E-13-6.45015E-13
 -1       883 1.90528E+01 5.70772E-01-6.09339E-04-1.19367E+00-3.01658E-13-7.20526E-13
 -1       884 1.91961E+01 6.47587E-01-4.79165E-04-9.57445E-01-1.66793E-13-4.89361E-13
 -1       885 1.93435E+01 6.51711E-01-3.65375E-04-7.66696E-01 1.68924E-13-4.60655E-13
 -1       886 1.94808E+01 6.11562E-01-2.71969E-04-6.11162E-01 1.25709E-13-2.89748E-13
 -1       887 1.96012E+01 5.47374E-01-1.96280E-04-4.83693E-01-2.36171E-13-2.14491E-13
 -1       888 1.97025E+01 4.73086E-01-1.39808E-04-3.79258E-01-2.01487E-13-1.90803E-13
 -1       889 1.97851E+01 3.98058E-01-9.16596E-05-2.94080E-01-1.47109E-13-4.14446E-13
 -1       890 1.98501E+01 3.28018E-01-1.20035E-04-2.25363E-01-1.08953E-13-3.35911E-13
 -1       891 2.00425E+01 3.14750E-01 1.05420E-05-5.06608E-01-1.54688E-14-3.98300E-14
 -1       892 1.95892E+01 6.13421E-01 3.46477E-05-9.90285E-01-5.85485E-14-2.05821E-14
 -1       893 1.97325E+01 5.29608E-01 1.74901E-05-8.39619E-01 8.63100E-14-7.44510E-15
 -1       894 1.92359E+01 6.82505E-01 7.83410E-05-1.38757E+00-5.51859E-14-7.42037E-14
 -1       895 1.90475E+01 5.93531E-01 6.51996E-05-1.65557E+00-1.32635E-13-1.28576E-13
 -1       896 1.88973E+01 3.42366E-01-1.88033E-04-1.99501E+00-6.60474E-14-1.49068E-13
 -1       897 1.88724E+01-1.66393E-01-9.36581E-04-2.43218E+00-5.07844E-14-1.92258E-13
 -1       898 1.91962E+01-1.04046E+00 1.16232E-02-2.98762E+00-1.47772E-14-1.35665E-13
 -1       899 2.03587E+01 7.22722E-01 4.57936E-03 5.23460E-02 8.18868E-14-9.45451E-14
 -1       900 1.98159E+01 3.34997E-01-7.78620E-05-4.28588E-02 2.87649E-13 3.91089E-13
 -1       901 1.93612E+01-1.00643E+00 9.11712E-03 2.88836E+00-2.92484E-13-3.21759E-14
 -1       902 1.90101E+01-1.33783E-01-8.97570E-04 2.36381E+00-3.12538E-13 4.28993E-14
 -1       903 1.90038E+01 3.72996E-01-1.15483E-04 1.93697E+00-1.38650E-13 1.48221E-13
 -1       904 1.91237E+01 6.28155E-01 1.11090E-05 1.59597E+00 8.13553E-14 9.38657E-14
 -1       905 1.92840E+01 7.23943E-01 5.32957E-05 1.31807E+00 1.09160E-13 1.09160E-13
 -1       906 1.94431E+01 7.24022E-01 4.76401E-05 1.08584E+00 2.54044E-13 1.28771E-13
 -1       907 1.95829E+01 6.71022E-01 3.63765E-05 8.88312E-01-2.69256E-14-1.16291E-13
 -1       908 1.96978E+01 5.92561E-01 2.57973E-05 7.19358E-01 1.48770E-13 2.14274E-15
 -1       909 1.97880E+01 5.05795E-01 2.06394E-05 5.75433E-01 1.69087E-13 3.80966E-13
 -1       910 1.98565E+01 4.20880E-01 1.64699E-05 4.54147E-01-3.47726E-13 4.28027E-13
 -1       911 1.99072E+01 3.43404E-01 3.87118E-05 3.53235E-01-2.00437E-13 1.60692E-13
 -1       912 1.99425E+01 2.76052E-01-1.10788E-04 2.69971E-01-2.41588E-14-1.94926E-13
 -1       913 1.99683E+01 2.20438E-01 1.31022E-04 2.03238E-01-8.41654E-14 3.42068E-14
 -1       914 1.99864E+01 1.74404E-01 2.51535E-05 1.51547E-01 1.39694E-13 2.45845E-13
 -1       915 1.45233E+01 3.13470E-02 3.13954E-02-2.86139E+00-1.51097E-13-1.85634E-13
 -1       916 2.07216E+01 1.63895E+00-1.70298E-01 6.78640E-01-8.99281E-14-3.35759E-13
 -1       917 1.94221E+01 6.74331E-01 5.74204E-05-1.17022E+00-4.10158E-15-7.56519E-14
 -1       918 1.37978E+01 2.01257E-01 3.73935E-02 2.66139E+00-1.76136E-13 3.34401E-13
 -1       919 2.04666E+01 1.67784E-01 3.69919E-01 1.15713E-01 9.43967E-14-8.63684E-14
 -1       920 2.03360E+01 4.73380E-01 5.50654E-03-1.86960E-01 9.59274E-14-4.73033E-14
 -1       921 1.65038E+01-5.12138E-01 1.43219E-02 3.23234E+00-1.98411E-13 3.57277E-13
 -1       922 2.05198E+01-3.44146E+00 6.54599E-02 4.02696E+00 4.88481E-14 2.21235E-13
 -1       923 1.49631E+01-9.60961E-01 3.87955E-02 3.99412E+00 2.06640E-13 2.50704E-13
 -1       924 2.04904E+01 5.51781E-01 2.94592E-01-7.35416E-01 1.60948E-13-2.59230E-13
 -1       925 2.04687E+01 8.19635E-01 1.07636E-03 2.95328E-01 8.34348E-14-1.25906E-13
 -1       926 1.99551E+01 3.67620E-01 8.43447E-06-6.03542E-01 1.77581E-14 3.12765E-14
 -1       927 1.99018E+01 2.69215E-01 1.45118E-04-1.80173E-01 9.68877E-14-4.33252E-13
 -1       928 1.34731E+01 8.71154E-01 2.39870E-02 1.22135E+00 4.59706E-14 2.77417E-14
 -1       929 2.01460E+01 3.08023E-01 1.13265E-02-4.06987E-01-2.59385E-15-8.33173E-14
 -1       930 1.98532E+01 4.42956E-01 9.46743E-06-7.12467E-01 7.30757E-14-9.08943E-15
 -1       931 2.04756E+01 7.12293E-01 2.03434E-03 2.65644E-01 9.36037E-14-8.86181E-14
 -1       932 1.98138E+01 3.38354E-01-4.63553E-05 3.19647E-02 3.25205E-14 2.27517E-13
 -1       933 1.71496E+01-1.93417E+00 3.50132E-02-4.36729E+00 2.57294E-13-4.93397E-13
 -1       934 1.37361E+01 6.18647E-01 3.42066E-02-1.84863E+00-9.27509E-14-2.31352E-13
 -1       935 1.30504E+01 5.97491E-01 4.05268E-02-1.92138E+00 3.66894E-13 5.66101E-14
 -1       936 1.67003E+01-6.70741E-01 1.30321E-02-3.31063E+00-8.11945E-14-3.03230E-13
 -1       937 1.22800E+01 7.33553E-01 4.28326E-02 1.18745E+00 8.44373E-14-1.95424E-13
 -1       938 1.98428E+01 3.12687E-01-1.14829E-04-1.11638E-01 1.41475E-13 2.24724E-13
 -1       939 1.98866E+01 2.85064E-01-7.70858E-05 1.62703E-01-2.98021E-14-1.62586E-13
 -1       940 1.75901E+01 1.44881E+00 1.87870E-01-2.63909E+00 8.43145E-14 3.58449E-13
 -1       941 2.03549E+01 1.77828E+00-2.07398E-02-3.09654E-01-2.55386E-14-1.83608E-13
 -1       942 1.75291E+01 5.53008E-01 3.28482E-04-1.97444E+00-1.95721E-14-2.37869E-13
 -1       943 2.01492E+01 2.00872E+00-8.35094E-01 6.20668E-01-1.24845E-13-2.84439E-13
 -1       944 2.14106E+01 7.93849E-01-1.99901E-01 1.16535E+00 2.85535E-14-2.52756E-13
 -1       945 2.10644E+01 4.50384E-01-9.91286E-03 6.18706E-01 4.38817E-14-1.97828E-13
 -1       946 2.06014E+01 3.33728E-01 2.48925E-02 4.38643E-01 4.34115E-14-1.50924E-13
 -1       947 2.01076E+01 5.60714E-01 4.72752E-02 4.72469E-01-5.06236E-15-2.00665E-13
 -1       948 1.96576E+01 5.60584E-01 2.68004E-02 6.17646E-01-1.30688E-14-1.96810E-13
 -1       949 1.94086E+01 5.91009E-01-5.85151E-05 7.56622E-01 2.18627E-14-7.32223E-14
 -1       950 1.92068E+01 6.18017E-01-8.56289E-05 9.20673E-01 1.19635E-15-6.56237E-14
 -1       951 1.89987E+01 5.87041E-01-1.42029E-04 1.13120E+00-2.54408E-14-2.08378E-13
 -1       952 1.88019E+01 4.61463E-01-2.70502E-04 1.40553E+00-1.09200E-14-2.17558E-13
 -1       953 1.86520E+01 1.92426E-01-2.14720E-04 1.76605E+00-5.40968E-14-1.88585E-13
 -1       954 1.86132E+01-2.85704E-01 1.73399E-04 2.24102E+00 4.92299E-14-1.79647E-13
 -1       955 1.88070E+01-1.06844E+00-1.51333E-03 2.85524E+00 3.84374E-14-1.26993E-13
 -1       956 1.93901E+01 6.91610E-01-2.12574E-05-7.45595E-01 5.23437E-14-7.99186E-14
 -1       957 1.70498E+01-7.08741E-01 1.64270E-02-3.25184E+00 1.04647E-15-3.42389E-13
 -1       958 1.73222E+01 5.32179E-02 2.08956E-03-2.35700E+00 9.25780E-14-2.55475E-13
 -1       959 1.76932E+01 4.97999E-01-1.81409E-04-1.71794E+00 4.14753E-14-1.92279E-13
 -1       960 1.80725E+01 7.35775E-01-9.97903E-05-1.27893E+00-2.07512E-13-2.93519E-13
 -1       961 1.84205E+01 8.40815E-01-4.70149E-05-9.68570E-01-4.48037E-13-3.08861E-13
 -1       962 1.87278E+01 8.58446E-01 2.06009E-05-7.42411E-01-3.51070E-14-3.81722E-13
 -1       963 1.89928E+01 8.19579E-01 4.27154E-05-5.73380E-01 2.23543E-14-3.64837E-13
 -1       964 1.92165E+01 7.47094E-01 4.18100E-05-4.44226E-01 8.23866E-14-4.80099E-13
 -1       965 1.94020E+01 6.57579E-01 3.40757E-05-3.43877E-01-6.94364E-14-5.58291E-13
 -1       966 1.95532E+01 5.62795E-01 2.79378E-05-2.65058E-01-1.83739E-13-5.22704E-13
 -1       967 1.96745E+01 4.70365E-01-4.79091E-05-2.03379E-01-3.01763E-14-4.47978E-13
 -1       968 1.97701E+01 3.86137E-01-4.30904E-06-1.54746E-01 1.84052E-13-1.12100E-14
 -1       969 1.80130E+01 7.97686E-01-2.86632E-06-1.54978E+00-1.61249E-14-1.12450E-13
 -1       970 1.84457E+01 8.80523E-01-4.40713E-05-1.25691E+00-2.49156E-14-5.73129E-14
 -1       971 2.07749E+01 8.11006E-01 6.98989E-02 2.90056E-01 8.42338E-14-3.50824E-13
 -1       972 1.91721E+01-5.97298E-01 1.08000E+00-2.59619E-01-3.24851E-13 3.73104E-13
 -1       973 1.72256E+01 6.20825E-02 3.68447E-03 2.57885E+00-2.47071E-13 1.75979E-13
 -1       974 1.80912E+01 8.33205E-01-2.27760E-04 1.52489E+00-4.37214E-14-1.50584E-13
 -1       975 1.97384E+01 2.44375E+00 2.47747E-01 4.76067E+00-1.03199E-12-6.98219E-13
 -1       976 1.84841E+01 9.27805E-01-8.18904E-05 1.22164E+00 1.64925E-13 1.02021E-13
 -1       977 1.88198E+01 9.22982E-01-1.91271E-05 9.94141E-01 1.37069E-13-9.62554E-14
 -1       978 1.90974E+01 8.60311E-01 1.88501E-06 8.12966E-01 8.74469E-14 8.45925E-14
 -1       979 1.93217E+01 7.67590E-01 3.31054E-06 6.62997E-01-2.32369E-15 1.68069E-13
 -1       980 1.94995E+01 6.63151E-01 2.22234E-06 5.36369E-01-1.32402E-13 2.59876E-13
 -1       981 1.96381E+01 5.58612E-01-2.37114E-06 4.28893E-01-1.58750E-14 6.08216E-13
 -1       982 1.97445E+01 4.60983E-01-4.02690E-05 3.39147E-01-3.82810E-14 2.77392E-13
 -1       983 1.98246E+01 3.74578E-01-7.85995E-06 2.64219E-01 3.78349E-14-1.01824E-14
 -1       984 1.98391E+01 3.21045E-01 9.40582E-06 1.03896E-01 9.77058E-14 2.22982E-13
 -1       985 2.02499E+01 3.48467E-01 6.46744E-03-2.97847E-01 4.36221E-14-7.75108E-14
 -1       986 1.38387E+01 1.07718E+00 1.63970E-02-4.07588E-01 2.87082E-14-1.15745E-14
 -1       987 2.06780E+01 2.01874E+00-4.55183E-03-9.97405E-01 2.33064E-13-2.59463E-13
 -1       988 2.05918E+01 7.70884E-01 5.90309E-02 3.42748E-02 9.19325E-14-2.68251E-13
 -1       989 1.96522E+01 5.30656E-01-1.14845E-01 2.93302E-01-2.01610E-13-3.73035E-14
 -1       990 2.07356E+01 6.91809E-01 6.59022E-02 1.90593E-01 1.08162E-13-3.20838E-13
 -1       991 1.76576E+01 5.75264E-01 1.36362E-04 1.95215E+00-2.66724E-13 1.39300E-14
 -1       992 1.89188E+01 1.38863E+00-2.38047E-01 7.14615E-01 1.12584E-13 3.43198E-13
 -1       993 2.05466E+01 8.36613E-01 9.79800E-02-5.14186E-02 2.56683E-14-2.69978E-13
 -1       994 1.96061E+01 5.85752E-01-2.18942E-05-6.34707E-01 6.04051E-14-6.20825E-14
 -1       995 1.91299E+01 7.91479E-01-1.73916E-05-8.78664E-01 1.84754E-14-1.06959E-13
 -1       996 1.95054E+01-2.23743E+00 4.34273E-02 3.61535E+00 7.34213E-14-1.07514E-13
 -1       997 1.41764E+01 3.27248E-01 2.14630E-02 2.38957E+00 2.30275E-13 5.55966E-14
 -1       998 1.52799E+01 4.25388E-01 1.90268E-02 2.33344E+00-1.69201E-13 3.29514E-13
 -1       999 2.00615E+01 3.74867E-01 1.14451E-05-3.76759E-01-2.41984E-14-2.17510E-14
 -1      1000 1.97364E+01 4.09471E-01-2.37740E-05-8.45456E-03 3.79006E-13 5.43985E-13
 -1      1001 1.70227E+01 5.10835E-02 4.44957E-03-2.60820E+00-8.29666E-14-2.79137E-13
 -1      1002 1.49650E+01-6.39910E-02 1.15657E-02-2.94645E+00 2.58566E-13-1.02317E-13
 -1      1003 1.97374E+01 4.28875E-01 1.29255E-05 1.81153E-01 1.40033E-13 2.97249E-13
 -1      1004 1.35406E+01 9.80407E-01 2.44625E-02-5.66894E-01-6.82397E-15-2.22491E-13
 -1      1005 1.54417E+01 3.21414E-01 1.84210E-02-2.42881E+00-9.84465E-14-2.51486E-13
 -1      1006 1.99359E+01 4.15144E-01 1.26214E-05-4.55865E-01 4.13778E-15-3.42902E-14
 -1      1007 1.47429E+01 7.95259E-01 1.15136E-02-1.63419E+00 8.99144E-14-1.06895E-13
 -1      1008 2.11879E+01 3.65153E-01 4.38056E-01-3.17973E-01 2.36755E-13-3.58503E-13
 -1      1009 1.88173E+01 8.64273E-01-3.55041E-05-1.04342E+00-9.31607E-14-5.93449E-14
 -1      1010 2.27009E+01-1.11802E+00 1.78920E+00-2.17104E+00 5.92026E-13-5.57887E-14
 -1      1011 1.66827E+01-4.95907E-01 1.49280E-02 3.08834E+00 1.45871E-13-4.74828E-14
 -1      1012 1.97439E+01 4.04782E-01 2.24614E-04-8.38066E-02 3.51403E-13 2.20282E-13
 -1      1013 1.81901E+01 1.03541E+00-3.10061E-04-7.54546E-01-8.74451E-14-7.45044E-14
 -1      1014 2.20536E+01-1.54081E-01-1.79223E-03-1.21734E-01 1.64341E-13-2.88051E-13
 -1      1015 2.06071E+01 3.81574E-01 1.58989E-01-3.95788E-02 8.67292E-14-1.75724E-13
 -1      1016 1.98141E+01 5.91820E-01 3.90084E-02 2.09843E-01-1.92485E-14-7.84133E-14
 -1      1017 1.95987E+01 6.30781E-01 2.73434E-02 3.82750E-01 2.72673E-14-1.17027E-13
 -1      1018 1.93191E+01 6.67938E-01-1.35826E-04 4.95122E-01 1.27139E-13-1.81897E-14
 -1      1019 1.90444E+01 7.43751E-01-2.33657E-04 6.18057E-01-7.17893E-14-1.07986E-13
 -1      1020 1.87303E+01 7.88349E-01-3.30563E-04 7.82671E-01-4.78739E-14-1.56226E-13
 -1      1021 1.83726E+01 7.76635E-01-6.03997E-04 1.00840E+00-3.64408E-15-1.43033E-13
 -1      1022 1.79697E+01 6.74596E-01-1.25728E-03 1.32612E+00 1.47333E-14-1.59455E-13
 -1      1023 1.75313E+01 4.30892E-01-7.41168E-04 1.77930E+00-3.18581E-14-5.10011E-14
 -1      1024 1.70898E+01 7.64880E-02 7.33445E-04 2.32648E+00 6.21871E-14-1.11035E-13
 -1      1025 1.76421E+01 1.12231E+00-1.88975E-04 9.22935E-01-1.50415E-14-1.24899E-13
 -1      1026 1.64366E+01 8.20365E-01 2.49439E-03-1.46132E+00-2.29723E-14-2.27960E-13
 -1      1027 1.71887E+01 9.80461E-01-9.86522E-05-1.02246E+00-1.44172E-13-1.62512E-13
 -1      1028 1.77829E+01 1.04017E+00-1.40933E-04-7.28135E-01-2.48931E-13-5.73901E-14
 -1      1029 1.82557E+01 1.02832E+00 4.69885E-05-5.28168E-01-2.72953E-13 2.29718E-13
 -1      1030 1.86366E+01 9.68350E-01 5.17323E-05-3.87871E-01 1.97172E-14 1.02876E-13
 -1      1031 1.89449E+01 8.78803E-01 3.96136E-05-2.87210E-01-2.67211E-14 1.47417E-13
 -1      1032 1.91942E+01 7.73793E-01 2.37333E-05-2.13711E-01-1.51261E-13 5.70997E-14
 -1      1033 1.93945E+01 6.64183E-01 3.06846E-05-1.59346E-01-1.69070E-13-1.52770E-14
 -1      1034 1.95539E+01 5.57989E-01 9.34218E-05-1.18664E-01 5.39578E-14 2.12801E-13
 -1      1035 1.96582E+01 4.77760E-01 1.04462E-04-9.94848E-02 3.42401E-13 2.69698E-13
 -1      1036 1.68710E+01 1.02577E+00 9.70195E-04-1.16008E+00 1.23179E-13-1.34387E-13
 -1      1037 1.69488E+01 1.06361E+00-2.38915E-04 1.17944E+00-4.75929E-14 3.13051E-14
 -1      1038 1.76089E+01 1.07182E+00-3.80157E-04-9.15697E-01-3.20804E-14-8.54050E-14
 -1      1039-9.30128E+00 6.75268E-01-6.04717E+00 5.43563E+00-3.31754E-12 5.47284E-12
 -1      1040 1.58967E+01 8.59594E-01 5.23770E-03-1.53993E+00 2.31987E-14-2.91928E-13
 -1      1041 1.86035E+01 1.02763E+00-1.52693E-05 6.13389E-01 8.71075E-14 3.85716E-13
 -1      1042 1.89378E+01 9.24382E-01-1.46581E-05 5.07253E-01-4.00992E-14 3.77023E-13
 -1      1043 1.92015E+01 8.07508E-01-7.85644E-06 4.17580E-01-1.01581E-13 2.77707E-13
 -1      1044 1.94084E+01 6.88442E-01 1.52997E-05 3.40496E-01-2.08585E-13 1.43450E-13
 -1      1045 1.95686E+01 5.75113E-01-6.86006E-05 2.73147E-01 1.89353E-14 1.77732E-13
 -1      1046 1.96618E+01 4.99335E-01 4.45351E-04 2.23938E-01 2.59982E-13 1.96703E-13
 -1      1047 1.97194E+01 4.30404E-01 1.36484E-04 8.26176E-02 1.91894E-13 2.51302E-13
 -1      1048 1.81802E+01 1.10163E+00-5.47744E-05 7.45468E-01 1.21337E-13 1.75351E-13
 -1      1049 1.50716E+01 1.11683E+00 8.32268E-03 8.25425E-01-2.57137E-14-1.83760E-13
 -1      1050 1.96440E+01 1.38731E-01-2.80075E-01-1.21014E+00 1.72856E-12 8.30669E-13
 -1      1051 1.97858E+01 4.89300E-01-9.89213E-06-5.39867E-01 4.54306E-14-6.73880E-14
 -1      1052 2.01761E+01 3.91233E-01 6.51976E-03-2.90530E-01 4.87956E-15-6.18423E-15
 -1      1053 2.02690E+01 4.79228E-01 1.48038E-02-1.75247E-01 5.18227E-14-5.71829E-14
 -1      1054 1.78023E+01 5.14113E+00 3.46762E+00 1.63656E+00-1.26854E-12-3.01786E-13
 -1      1055 2.05867E+01 7.56076E-02-2.81962E+00-3.88058E-01-1.38090E-12-2.57012E-13
 -1      1056 2.53740E+01-5.22791E-01-2.70369E-01 2.40182E+00 1.38285E-13-9.51239E-13
 -1      1057 1.86523E+01 9.49893E-01-2.06907E-04-6.38879E-01-3.73496E-14-3.69722E-14
 -1      1058 1.99644E+01 4.48549E-01-3.39897E-05-2.93115E-01 4.79149E-15 1.87436E-14
 -1      1059 1.93316E+01 7.17161E-01-1.17539E-04-4.72886E-01 4.86910E-14-1.87564E-14
 -1      1060 2.01055E+01 4.31886E-01-6.27069E-05-2.36577E-01 1.29673E-15-1.17137E-14
 -1      1061 1.42166E+01 9.88949E-01 1.30294E-02 7.68251E-01 1.13972E-13-4.07638E-15
 -1      1062 1.60425E+01 8.66604E-01 1.48109E-03 1.58803E+00-3.54599E-15 1.02817E-13
 -1      1063 1.51251E+01 1.17903E+00 4.58057E-03-2.63532E-01 4.68475E-14 2.20256E-14
 -1      1064 1.90259E+01 8.37803E-01-1.13673E-04-5.48214E-01 2.81135E-14-5.57424E-14
 -1      1065 2.13688E+01 8.33060E-01 3.68961E-01 2.05110E-01 2.14301E-13-4.73947E-13
 -1      1066 1.96286E+01 5.01450E-01-1.19363E-04 6.66278E-03 2.84024E-13 5.60132E-13
 -1      1067 1.47616E+01 9.41159E-01 9.35663E-03-1.18320E+00-8.93152E-14-1.60054E-13
 -1      1068 2.11843E+01 1.18715E+00 1.38595E+00-2.08767E-01 8.83849E-13-1.89238E-13
 -1      1069 1.97918E+01 5.09961E-01 2.00376E-05-3.48655E-01 8.94725E-14-1.83206E-14
 -1      1070 1.95833E+01 6.03620E-01-7.79948E-05-4.07288E-01 4.28655E-14-8.06934E-14
 -1      1071 2.18719E+01 1.73232E+00 7.52097E-01-4.47513E-01 2.35229E-13-7.11316E-13
 -1      1072 1.98117E+01 5.17518E-01 1.07956E-04 1.33606E-01 1.33187E-14-1.41931E-13
 -1      1073 1.95966E+01 5.93284E-01-2.59392E-05 1.70536E-01 3.21427E-14-3.46374E-14
 -1      1074 1.93393E+01 6.94022E-01 8.26940E-04 2.23850E-01 7.50367E-14 3.17740E-15
 -1      1075 1.90279E+01 8.01762E-01 3.87325E-04 2.93972E-01-2.15070E-14-1.84792E-13
 -1      1076 1.86622E+01 8.98039E-01 3.74490E-04 3.90844E-01-5.63036E-14-1.25940E-13
 -1      1077 1.82210E+01 9.68610E-01 4.46376E-04 5.29553E-01 5.31682E-15-1.00829E-13
 -1      1078 1.76795E+01 9.93223E-01 2.07213E-04 7.30150E-01 6.79648E-15-2.04042E-14
 -1      1079 1.70127E+01 9.50251E-01 2.62338E-04 1.03415E+00-9.81666E-15-4.40452E-14
 -1      1080 2.04175E+01 5.42091E-01 9.41800E-02-9.67666E-01 2.55088E-13-1.43011E-13
 -1      1081 1.71948E+01 1.20435E+00-5.40271E-04-2.74291E-01-2.27777E-13 5.34285E-14
 -1      1082 1.78348E+01 1.16707E+00-3.08740E-05-1.67403E-01-1.54674E-13 2.94620E-13
 -1      1083 1.83278E+01 1.08867E+00-1.26005E-04-9.52496E-02-2.27294E-13 3.60182E-13
 -1      1084 1.87141E+01 9.85679E-01-6.51264E-05-4.89489E-02-3.12130E-14 3.76772E-13
 -1      1085 1.90198E+01 8.68799E-01-4.26221E-05-2.00819E-02-2.47834E-13 3.16271E-13
 -1      1086 1.92622E+01 7.47812E-01-3.24144E-05-3.15612E-03-7.66558E-14 3.83920E-13
 -1      1087 1.94545E+01 6.30174E-01 2.19586E-05 6.39193E-03 4.61767E-14 5.93188E-13
 -1      1088 1.68798E+01 1.24850E+00-1.98938E-04 3.59629E-01 2.56651E-14-2.58603E-14
 -1      1089 1.68413E+01 1.19893E+00 3.68128E-04-2.88319E-01 2.90768E-14-8.63342E-14
 -1      1090 1.91971E+01 7.94428E-01-7.81111E-06 1.85369E-01-1.23014E-13 6.27272E-13
 -1      1091 1.65649E+01 2.04059E+00 1.14720E+00-9.82244E+00 4.53351E-12 1.85307E-12
 -1      1092 1.85964E+01 1.03849E+00-2.69537E-05 2.46668E-01-9.46930E-14 6.96395E-13
 -1      1093 1.76202E+01 1.14641E+00-6.11140E-04-2.72691E-01-1.59315E-14-1.29082E-13
 -1      1094 1.58154E+01 1.18852E+00 6.57184E-03-3.31663E-01 1.65487E-13-3.64973E-14
 -1      1095 1.63300E+01 1.22315E+00 1.75218E-03-2.96002E-01-2.98975E-14-6.39844E-14
 -1      1096 1.90676E+01 8.20845E-01-3.82901E-05-2.23792E-01 1.53389E-14-8.96343E-14
 -1      1097 1.55197E+01 5.85327E-01 6.34796E-03 1.86485E+00 1.50695E-13 7.66949E-14
 -1      1098 1.96242E+01 5.12371E-01-2.11913E-04 1.13635E-01 1.78246E-13 2.48081E-13
 -1      1099 1.27372E+01-4.93481E+00-6.17177E+00-3.43343E+00 4.84696E-13 2.33502E-12
 -1      1100 2.02041E+01 6.21760E-01 1.14191E-01 4.29973E-03 2.26642E-14-1.87295E-13
 -1      1101 7.37637E+01 1.40729E+01 1.97143E+01-2.22346E+00 1.91791E-12-9.34855E-12
 -1      1102 1.59527E+01 1.19973E+00 4.09254E-03 6.37298E-01-1.24421E-13-1.17880E-13
 -1      1103 1.93854E+01 6.95469E-01 5.20495E-04-2.05592E-01 3.81278E-14-8.33856E-14
 -1      1104 2.00222E+01 4.72204E-01-3.88793E-05-1.34407E-01-3.83422E-14-4.74933E-14
 -1      1105 1.63735E+01 8.11248E-01 5.31905E-03 1.37829E+00 1.28828E-14 2.46555E-14
 -1      1106 2.02168E+01 4.72695E-01 3.89142E-05-1.73325E-01-7.54177E-16-5.87642E-14
 -1      1107 1.86853E+01 9.46398E-01-3.20014E-04-2.43170E-01-3.45574E-14-5.36022E-14
 -1      1108 1.49137E+01 1.11681E+00 5.11452E-03-1.79956E-02 4.87529E-14 1.84112E-14
 -1      1109 1.98473E+01 5.11162E-01-1.39643E-04-1.60793E-01 7.80367E-14-5.56522E-14
 -1      1110 1.89327E+01 9.19276E-01-6.86735E-06 2.15906E-01-4.60636E-15 6.36413E-13
 -1      1111 1.94057E+01 6.71356E-01-1.07203E-04 1.55806E-01-9.11392E-14 4.37112E-13
 -1      1112 1.82151E+01 1.05932E+00-4.66989E-04-2.58332E-01-3.04416E-14-5.55709E-14
 -1      1113 1.94433E+01 6.65934E-01-6.61166E-04-3.88381E-02 9.52609E-14-2.59174E-14
 -1      1114 1.75799E+01 1.21777E+00 1.59673E-04 3.45968E-01-7.26505E-14 1.29881E-13
 -1      1115 2.01607E+01 4.87487E-01-8.40680E-05-1.04402E-01-4.73603E-14-9.28687E-14
 -1      1116 1.81674E+01 1.14112E+00-2.95662E-04 2.78218E-01-8.42578E-14 2.01373E-13
 -1      1117 2.51754E+01 6.02571E+00 2.72553E+00-4.84277E+00 7.40297E-13-2.34160E-12
 -1      1118 1.96598E+01 5.81570E-01-2.28931E-04-1.10358E-01 1.01319E-13-5.06622E-14
 -1      1119 1.96387E+01 5.87968E-01-2.81986E-06-1.86136E-01 1.17495E-13 2.99636E-16
 -1      1120 1.53227E+01 1.04978E+00-2.02190E-03 6.53363E-01 8.00989E-14-1.46142E-14
 -1      1121 2.44573E+01-2.42582E+00-1.76679E-01 8.76934E-01 7.59115E-13-1.90620E-12
 -1      1122 3.40222E+01 9.25150E+00 7.13408E+00-4.00411E+00 1.56175E-12-2.61258E-12
 -1      1123 2.74900E+01 8.93670E+00 2.29887E+00-6.67436E+00-3.11973E-14 9.01890E-13
 -1      1124 2.01315E+01 6.09806E+00 1.95305E-01-3.96429E+00-1.68476E-14 7.19425E-14
 -1      1125 1.91139E+01 5.75603E+00 7.28485E-02-2.96604E+00-1.27398E-14-2.86977E-13
 -1      1126 1.87926E+01 5.65737E+00 6.53150E-02-2.29840E+00-7.48360E-15-4.58389E-13
 -1      1127 1.86632E+01 5.61861E+00 6.54860E-02-1.73817E+00-5.36723E-15-5.28019E-13
 -1      1128 1.85878E+01 5.59543E+00 6.36589E-02-1.23973E+00-3.11036E-15-5.48504E-13
 -1      1129 1.85093E+01 5.57039E+00 5.86528E-02-7.84196E-01-1.89432E-15-5.51554E-13
 -1      1130 1.84150E+01 5.53958E+00 5.03052E-02-3.71881E-01-5.15213E-16-5.37730E-13
 -1      1131 1.83334E+01 5.51278E+00 4.24796E-02-8.39217E-03 4.16334E-16-5.23877E-13
 -1      1132 1.83065E+01 5.50382E+00 3.95625E-02 3.28462E-01 2.71744E-15-5.07466E-13
 -1      1133 1.83556E+01 5.51965E+00 4.32002E-02 6.79353E-01 3.41914E-15-4.93385E-13
 -1      1134 1.84730E+01 5.55734E+00 5.14666E-02 1.07603E+00 4.63865E-15-4.59003E-13
 -1      1135 1.86455E+01 5.61151E+00 5.94692E-02 1.54107E+00 7.15053E-15-3.98737E-13
 -1      1136 1.88967E+01 5.68860E+00 6.52379E-02 2.09522E+00 9.27036E-15-2.95805E-13
 -1      1137 1.93355E+01 5.82357E+00 7.63905E-02 2.77795E+00 1.25455E-14-1.00902E-13
 -1      1138 2.03594E+01 6.15617E+00 1.61126E-01 3.75367E+00 1.44884E-14 2.94272E-13
 -1      1139 2.50197E+01 7.92971E+00 1.41252E+00 5.73653E+00 3.24740E-14 1.11791E-12
 -1      1140 2.83291E+01 3.59182E+00 1.28499E+00-4.20423E+00-1.23596E-13 1.43002E-12
 -1      1141 1.96444E+01-1.64458E-01-5.81336E-01-1.23269E-01-3.97876E-14 1.16213E-12
 -1      1142 1.78933E+01-7.98476E-02-1.92575E-01 1.88022E-02-8.92168E-15 7.88841E-13
 -1      1143 1.60386E+01 7.85796E-02-2.37192E-01-2.79607E-01-5.77038E-14 3.85234E-13
 -1      1144 1.41053E+01-3.54825E-01-5.05939E-01 5.88268E-01 9.38277E-14-4.06539E-13
 -1      1145 2.39482E+01 5.88755E-01 1.64410E+00-1.50061E+00-1.25233E-13 3.89799E-13
 -1      1146 2.01129E+01-6.59378E-02-5.33560E-02-5.06057E-03-9.61037E-15 1.53719E-13
 -1      1147 1.97274E+01-3.39040E-02-6.69722E-02 7.47047E-03-4.24921E-15 1.48302E-13
 -1      1148 1.96201E+01-2.05485E-02-3.74194E-02-1.28140E-05-4.07096E-15 1.34568E-13
 -1      1149 1.96725E+01-1.77409E-02-2.86233E-02 1.90517E-03-9.68474E-15-1.75441E-14
 -1      1150 1.98812E+01-1.74678E-02-2.57860E-02 5.36926E-03-3.15416E-15-2.05412E-13
 -1      1151 2.03794E+01 3.03991E-02 6.45952E-02 8.48964E-02 2.31273E-14-8.64690E-14
 -1      1152 2.03250E+01-5.07047E-03-6.12155E-03 6.54278E-03-9.58565E-15-1.83669E-13
 -1      1153 2.07029E+01-5.67015E-03-7.38970E-03 7.73021E-03 1.34401E-14-2.49077E-13
 -1      1154 2.11326E+01-5.66763E-03-7.87702E-03 9.54291E-03-2.24598E-15-1.17118E-13
 -1      1155 2.16167E+01-4.49819E-03-6.76652E-03 1.18120E-02-1.55810E-14-1.36837E-13
 -1      1156 2.21466E+01-1.43980E-03-2.91381E-03 1.41094E-02-7.00868E-15-2.76314E-13
 -1      1157 2.26951E+01 4.30655E-03 5.07382E-03 1.55608E-02 2.29669E-14-3.47378E-13
 -1      1158 2.32066E+01 1.33377E-02 1.84185E-02 1.46445E-02 6.09040E-15-3.50496E-13
 -1      1159 2.35893E+01 2.54428E-02 3.71155E-02 9.13645E-03-4.72756E-15-3.49557E-13
 -1      1160 2.37153E+01 3.85901E-02 5.81144E-02-3.43841E-03-3.03924E-14-2.95777E-13
 -1      1161 2.34411E+01 4.78786E-02 7.34430E-02-2.43406E-02-3.26202E-14-1.84307E-13
 -1      1162 2.26613E+01 4.56734E-02 7.04448E-02-5.09843E-02 1.77150E-14-6.14231E-14
 -1      1163 2.13954E+01 2.47164E-02 3.75543E-02-7.46012E-02-1.85030E-14-2.24584E-13
 -1      1164 1.98696E+01-1.47627E-02-2.43902E-02-8.14615E-02 2.04212E-14-9.20375E-14
 -1      1165 1.85132E+01-5.92602E-02-9.35398E-02-6.05799E-02 1.33313E-15 2.01721E-13
 -1      1166 1.78065E+01-8.54070E-02-1.33872E-01-1.44984E-02 4.77543E-14 9.42302E-14
 -1      1167 1.80300E+01-7.70304E-02-1.20968E-01 3.81364E-02-3.10862E-15 1.03674E-13
 -1      1168 1.90939E+01-3.94537E-02-6.28871E-02 7.39674E-02 4.24487E-15 2.18769E-13
 -1      1169 2.05935E+01 5.31494E-03 7.02667E-03 8.11652E-02 3.37633E-14 3.31943E-13
 -1      1170 2.20439E+01 3.68657E-02 5.67776E-02 6.46914E-02 6.75545E-15 2.50355E-13
 -1      1171 2.31021E+01 4.83262E-02 7.46017E-02 3.81776E-02 6.34996E-15 1.20133E-13
 -1      1172 2.36464E+01 4.40148E-02 6.71726E-02 1.35908E-02-2.26832E-14-1.66535E-13
 -1      1173 2.37284E+01 3.19879E-02 4.77063E-02-3.36514E-03 9.61948E-15-3.46998E-13
 -1      1174 2.34814E+01 1.87725E-02 2.69446E-02-1.22711E-02 1.35421E-14-5.88012E-13
 -1      1175 2.30475E+01 7.81939E-03 1.03821E-02-1.51955E-02 3.45734E-14-3.69454E-13
 -1      1176 2.25401E+01 1.72479E-04-6.17647E-04-1.45857E-02-2.26207E-15-3.34252E-13
 -1      1177 2.20354E+01-4.42439E-03-6.79449E-03-1.23351E-02-9.44313E-15 1.01369E-13
 -1      1178 2.15765E+01-6.70217E-03-9.52382E-03-9.62237E-03 4.62040E-14 4.22759E-13
 -1      1179 2.11832E+01-7.42277E-03-1.00920E-02-7.06406E-03-4.18398E-14 2.40002E-13
 -1      1180 2.08602E+01-7.20552E-03-9.46261E-03-4.91796E-03-1.73578E-14-1.11681E-13
 -1      1181 2.06035E+01-6.49483E-03-8.27613E-03-3.24356E-03 8.65681E-15-2.32362E-13
 -1      1182 2.04052E+01-5.58496E-03-6.92656E-03-2.00411E-03-2.91657E-14-1.35871E-13
 -1      1183 2.02561E+01-4.65916E-03-5.64448E-03-1.12270E-03 4.02058E-14 4.00116E-13
 -1      1184 2.01473E+01-3.82453E-03-4.56322E-03-5.07375E-04 3.70510E-15 3.57129E-13
 -1      1185 2.00711E+01-3.13524E-03-3.75845E-03-5.55752E-05 3.15590E-14 6.20464E-13
 -1      1186 2.00216E+01-2.59972E-03-3.23019E-03 3.56229E-04 6.53806E-15 6.27843E-13
 -1      1187 1.99950E+01-2.12008E-03-2.74739E-03 8.85922E-04 1.99190E-14 5.85080E-13
 -1      1188 1.99893E+01-1.78619E-03-1.27253E-03 1.81702E-03 6.80086E-15 3.33701E-13
 -1      1189 1.99967E+01 1.18794E-03 2.81639E-03 1.07249E-03 6.41981E-14 2.35267E-13
 -1      1190 2.75301E+01 5.19593E-01 3.53130E-01 1.93621E+00-2.26277E-14 1.79867E-12
 -1      1191 2.00426E+01-6.41928E-02-5.65369E-01 1.23247E-01 1.55258E-14 1.41745E-12
 -1      1192 1.89488E+01-3.81752E-02-1.86052E-01 1.66662E-02 1.28716E-15 1.05776E-12
 -1      1193 1.86033E+01-1.95202E-02-4.55123E-02 5.82494E-04 1.12475E-14 7.72840E-13
 -1      1194 1.85310E+01-1.17697E-02-1.07130E-02-3.14715E-03 1.25904E-14 5.95950E-13
 -1      1195 1.85858E+01-8.39318E-03-4.95755E-03-3.05259E-03 5.81241E-15 4.75394E-13
 -1      1196 1.87115E+01-6.65469E-03-5.08591E-03-2.44305E-03 1.35112E-14 3.91588E-13
 -1      1197 1.88890E+01-5.50215E-03-5.31500E-03-2.20107E-03-1.39769E-14 4.12729E-13
 -1      1198 1.91089E+01-4.81771E-03-4.98655E-03-2.14002E-03-2.61239E-16 3.17199E-13
 -1      1199 1.93638E+01-4.62112E-03-4.84142E-03-1.92443E-03 2.34748E-14 1.16632E-13
 -1      1200 1.96497E+01-4.67557E-03-6.16723E-03-1.89116E-03 3.99648E-14-1.75606E-13
 -1      1201 1.99676E+01-7.51211E-03-1.28594E-02 8.44149E-04-5.64999E-15-3.14245E-13
 -1      1202 2.03628E+01-7.80868E-03-9.58342E-03 4.68980E-04 1.19883E-14-2.16355E-13
 -1      1203 2.07798E+01-9.41863E-03-1.25178E-02 6.02155E-04-2.56254E-14-1.09038E-13
 -1      1204 2.12764E+01-1.07645E-02-1.54390E-02-6.63652E-05 1.37971E-14-6.63011E-14
 -1      1205 2.18702E+01-1.11726E-02-1.75395E-02-2.01411E-03 1.11222E-14-1.41083E-13
 -1      1206 2.25721E+01-9.51653E-03-1.72803E-02-5.87028E-03-1.78546E-15-3.01766E-13
 -1      1207 2.33766E+01-4.12016E-03-1.20295E-02-1.22881E-02 1.87605E-14-3.28557E-13
 -1      1208 2.42453E+01 7.03336E-03 2.02918E-03-2.14978E-02 2.39163E-14-3.75078E-13
 -1      1209 2.50837E+01 2.52670E-02 2.88769E-02-3.22823E-02 6.51172E-15-4.32824E-13
 -1      1210 2.57162E+01 4.88286E-02 6.92417E-02-4.03688E-02-1.11287E-14-5.44113E-14
 -1      1211 2.58804E+01 6.95461E-02 1.14149E-01-3.71499E-02-4.51288E-15 6.90455E-14
 -1      1212 2.52790E+01 7.11126E-02 1.38499E-01-1.16328E-02-8.41514E-15 1.13132E-13
 -1      1213 2.37417E+01 3.74289E-02 1.06761E-01 3.99414E-02-1.02973E-14-1.00475E-14
 -1      1214 2.14765E+01-2.64933E-02 3.56033E-03 1.00652E-01-9.84016E-15-8.93036E-14
 -1      1215 1.92123E+01-8.81547E-02-1.34325E-01 1.31704E-01-1.64261E-14 2.24459E-13
 -1      1216 1.79549E+01-1.02087E-01-2.20748E-01 1.01209E-01 5.45050E-15 5.13860E-14
 -1      1217 1.83582E+01-6.37022E-02-1.93397E-01 1.86117E-02-2.56739E-15-5.01002E-13
 -1      1218 2.02044E+01-7.41373E-03-7.94035E-02-6.54740E-02-2.21832E-14-6.01824E-13
 -1      1219 2.25869E+01 3.12841E-02 3.92440E-02-1.06931E-01-1.26010E-14-5.73444E-13
 -1      1220 2.45684E+01 4.30245E-02 1.02233E-01-9.98202E-02-6.44103E-15-6.36657E-13
 -1      1221 2.56687E+01 3.71472E-02 1.05596E-01-6.61801E-02 2.25948E-15-5.86246E-13
 -1      1222 2.58902E+01 2.48330E-02 7.68701E-02-3.01210E-02-5.85612E-14-1.99318E-13
 -1      1223 2.54876E+01 1.30422E-02 4.22494E-02-3.71787E-03 1.86017E-14-1.55809E-13
 -1      1224 2.47525E+01 4.36403E-03 1.52422E-02 1.11128E-02 4.01916E-14-5.45165E-13
 -1      1225 2.39092E+01-1.04074E-03-1.31639E-03 1.71583E-02 2.23540E-14-6.77531E-13
 -1      1226 2.30945E+01-3.91818E-03-9.50228E-03 1.79505E-02 1.71174E-14-5.07223E-13
 -1      1227 2.23759E+01-5.11498E-03-1.23856E-02 1.61766E-02 2.05265E-14-6.26305E-13
 -1      1228 2.17764E+01-5.30816E-03-1.24096E-02 1.34708E-02-2.66752E-14-4.69898E-13
 -1      1229 2.12950E+01-4.96373E-03-1.11238E-02 1.06867E-02-3.90556E-14-6.58657E-13
 -1      1230 2.09190E+01-4.37535E-03-9.39038E-03 8.20396E-03 1.20871E-14-5.71408E-13
 -1      1231 2.06319E+01-3.71734E-03-7.64431E-03 6.14878E-03 3.23961E-14-3.31136E-13
 -1      1232 2.04170E+01-3.08941E-03-6.08556E-03 4.52613E-03-2.57078E-14-8.21673E-14
 -1      1233 2.02595E+01-2.54844E-03-4.79976E-03 3.29049E-03-1.36443E-14 5.29640E-14
 -1      1234 2.01469E+01-2.12525E-03-3.82496E-03 2.37643E-03 3.64969E-14-1.19734E-13
 -1      1235 2.00694E+01-1.82604E-03-3.17675E-03 1.70503E-03 6.67524E-14-6.39282E-13
 -1      1236 2.00199E+01-1.63482E-03-2.82559E-03 1.17198E-03-4.54813E-14-3.01207E-13
 -1      1237 1.99938E+01-1.39965E-03-2.47635E-03 5.56825E-04-6.22745E-14-1.02824E-14
 -1      1238 1.99887E+01-4.50321E-04-9.25220E-04-5.55440E-04 4.19916E-14 5.31279E-14
 -1      1239 1.99970E+01 1.01319E-03 2.93558E-03-1.02000E-03-2.43841E-14-2.04875E-13
 -1      1240 2.00007E+01-3.07047E-03 2.66704E-03-1.08646E-03-1.09839E-13-4.01414E-14
 -1      1241 1.99986E+01-1.05961E-02-1.41437E-03-1.58143E-03 4.13418E-13 6.36733E-14
 -1      1242 1.99982E+01-2.99165E-03-2.51982E-03-2.08367E-04 9.32291E-13-1.17752E-13
 -1      1243 1.99987E+01 2.30310E-02-1.84415E-03 7.28783E-04 6.06382E-13-6.58530E-14
 -1      1244 1.99996E+01 6.11460E-02-5.76494E-04 1.19534E-03 3.59199E-13-7.55026E-14
 -1      1245 2.00004E+01 1.02401E-01 6.94874E-04 1.25572E-03 3.56860E-13-3.99943E-15
 -1      1246 2.00012E+01 1.38790E-01 1.72114E-03 1.02603E-03 9.25879E-13 6.79533E-14
 -1      1247 2.00016E+01 1.63769E-01 2.38883E-03 5.68254E-04 1.01979E-12 2.08285E-14
 -1      1248 2.00018E+01 1.72512E-01 2.60809E-03 4.62143E-06 5.25282E-13-3.78720E-14
 -1      1249 2.00016E+01 1.63553E-01 2.36205E-03-5.55397E-04 1.07403E-12 1.62616E-13
 -1      1250 2.00011E+01 1.38546E-01 1.68140E-03-1.00241E-03 8.67445E-13-2.27567E-13
 -1      1251 2.00004E+01 1.02371E-01 6.67540E-04-1.24005E-03 4.54330E-13 7.11710E-15
 -1      1252 1.99996E+01 6.15421E-02-5.66572E-04-1.16946E-03 1.05337E-12 1.83459E-13
 -1      1253 1.99987E+01 2.38069E-02-1.80378E-03-7.34052E-04 1.26637E-12-4.49309E-14
 -1      1254 1.99984E+01-2.52006E-03-2.52353E-03 1.83021E-04 2.25667E-13 1.05785E-13
 -1      1255 1.99984E+01-9.01479E-03-1.05714E-03 2.46143E-03 1.00050E-13-1.43353E-13
 -1      1256 2.00007E+01-3.48244E-03 2.52415E-03 1.29616E-03-1.33377E-13 1.44463E-14
 -1      1257-1.22888E+00-2.38226E+01-3.74045E+00-2.23310E+00-1.02401E-12 5.85677E-14
 -1      1258-1.86986E+00-1.53683E+01-3.13303E+00-4.13220E+00 8.28226E-13 4.37095E-13
 -1      1259 2.40123E-01-2.70398E+00-1.90878E+00-3.40927E-01 1.69487E-12 1.17195E-12
 -1      1260 1.02262E+01 7.77678E+00-2.12493E-01 8.73272E+00 1.90248E-12 1.83986E-12
 -1      1261 2.92748E+01 1.07032E+01 1.67819E+00 1.68178E+01 1.20082E-12 1.69309E-12
 -1      1262 5.08475E+01 7.01018E+00 3.30293E+00 1.65729E+01 4.08396E-13 1.03340E-12
 -1      1263 6.56060E+01 2.37304E+00 4.21250E+00 7.00661E+00 1.00503E-13 2.44027E-13
 -1      1264 6.62833E+01 2.21817E+00 4.31167E+00-6.63207E+00 9.42302E-14-3.81917E-13
 -1      1265 5.14580E+01 6.95964E+00 3.36911E+00-1.61896E+01 2.99039E-13-7.75380E-13
 -1      1266 2.91638E+01 1.07164E+01 1.76232E+00-1.64505E+01 7.66609E-13-1.16085E-12
 -1      1267 1.05202E+01 8.05682E+00-1.24643E-01-8.93215E+00 1.35181E-12-1.27054E-12
 -1      1268 6.95649E-01-1.62385E+00-1.78401E+00-2.60491E-01 1.63114E-12-1.06137E-12
 -1      1269-1.87079E+00-1.41276E+01-3.00420E+00 4.07331E+00 8.53762E-13-3.83360E-13
 -1      1270-1.14901E+00-2.33686E+01-3.68595E+00 2.74433E+00-4.39371E-13 2.68882E-15
 -1      1271-1.10304E+00-2.41688E+01-3.73426E+00-1.69756E+00-1.42869E-12-1.98130E-13
 -1      1272-1.70883E+00-1.54380E+01-3.05629E+00-3.77843E+00-1.54343E-12-4.91829E-13
 -1      1273 2.77480E-01-2.42639E+00-1.85417E+00-8.72541E-02-1.05627E-12-5.66658E-13
 -1      1274 8.85296E+00 7.72580E+00-2.60624E-01 8.12203E+00-7.96252E-13-8.13127E-13
 -1      1275 2.61166E+01 1.09623E+01 1.42996E+00 1.61014E+01-7.51621E-13-1.05604E-12
 -1      1276 4.72637E+01 7.66115E+00 2.98325E+00 1.73584E+01-3.64930E-13-8.22675E-13
 -1      1277 6.27298E+01 2.83039E+00 3.89671E+00 8.99539E+00-1.77358E-13-7.04659E-13
 -1      1278 6.56425E+01 1.76713E+00 4.06403E+00-4.37520E+00-3.24636E-14-3.16303E-13
 -1      1279 5.47153E+01 5.48406E+00 3.42752E+00-1.51248E+01-1.00309E-13 2.86549E-13
 -1      1280 3.49797E+01 1.02317E+01 2.14219E+00-1.75253E+01-6.55254E-13 1.04183E-12
 -1      1281 1.49290E+01 9.81688E+00 4.24842E-01-1.17816E+01-1.54832E-12 1.57918E-12
 -1      1282 2.18905E+00 9.24588E-01-1.39303E+00-2.11535E+00-1.74571E-12 1.14364E-12
 -1      1283-1.56798E+00-1.29058E+01-2.82666E+00 3.65829E+00-1.93290E-12 8.35998E-13
 -1      1284-1.07574E+00-2.33500E+01-3.65875E+00 2.29455E+00-1.78990E-12 1.60247E-13
 -1      1285 2.17709E+01 1.80694E+00-7.19205E-01-2.81747E+00-4.65183E-14 7.23865E-13
 -1      1286 1.99664E+01 4.60533E+00-4.81871E-02-3.38654E+00-1.21528E-13-9.66865E-14
 -1      1287 2.04127E+01 4.71479E+00-1.23156E-01-4.22811E+00-1.58484E-13 9.14685E-14
 -1      1288 1.92475E+01 4.89742E+00-1.82045E-02-2.72915E+00-1.19918E-13-3.62030E-13
 -1      1289 1.94921E+01 4.98112E+00-3.63506E-03-3.12448E+00-1.36988E-13-2.47566E-13
 -1      1290 2.01516E+01 3.85065E+00-3.14606E-02-3.16017E+00-2.10700E-13-9.08162E-14
 -1      1291 1.89789E+01 4.99870E+00-1.59017E-03-2.12265E+00-1.00220E-13-4.88991E-13
 -1      1292 1.90920E+01 5.04471E+00 1.13481E-02-2.42580E+00-1.11130E-13-4.32977E-13
 -1      1293 1.94972E+01 4.25479E+00-2.59452E-02-2.55238E+00-1.87135E-13-3.06657E-13
 -1      1294 1.88541E+01 5.05536E+00 6.00339E-03-1.59137E+00-7.32444E-14-5.41603E-13
 -1      1295 1.89104E+01 5.07969E+00 1.44610E-02-1.85398E+00-8.46458E-14-5.18027E-13
 -1      1296 1.92131E+01 4.45656E+00-1.87876E-02-1.97157E+00-1.53346E-13-4.17548E-13
 -1      1297 1.87711E+01 5.08616E+00 8.56526E-03-1.11439E+00-4.84352E-14-5.60949E-13
 -1      1298 1.88147E+01 5.10311E+00 1.51783E-02-1.34945E+00-5.79762E-14-5.52173E-13
 -1      1299 1.90691E+01 4.56968E+00-1.52097E-02-1.46214E+00-1.07508E-13-4.62949E-13
 -1      1300 1.86704E+01 5.10529E+00 6.97101E-03-6.66918E-01-2.99760E-14-5.53755E-13
 -1      1301 1.87268E+01 5.12392E+00 1.55991E-02-8.85023E-01-3.43172E-14-5.59726E-13
 -1      1302 1.89577E+01 4.64216E+00-1.47512E-02-9.91845E-01-7.44569E-14-4.82392E-13
 -1      1303 1.85478E+01 5.12585E+00 4.11483E-03-2.68045E-01-2.40259E-15-5.38625E-13
 -1      1304 1.86115E+01 5.14485E+00 1.39983E-02-4.61039E-01-1.25152E-14-5.43943E-13
 -1      1305 1.88282E+01 4.70692E+00-1.39848E-02-5.54933E-01-3.72619E-14-4.61253E-13
 -1      1306 1.84545E+01 5.14562E+00 4.00137E-03 7.99139E-02 1.51001E-14-5.18965E-13
 -1      1307 1.84942E+01 5.15630E+00 9.50883E-03-9.18544E-02 1.03988E-14-5.29510E-13
 -1      1308 1.86910E+01 4.76690E+00-1.21501E-02-1.72626E-01 6.79968E-15-4.47854E-13
 -1      1309 1.84494E+01 5.15070E+00 7.37263E-03 4.07776E-01 3.58706E-14-5.07112E-13
 -1      1310 1.84386E+01 5.14568E+00 4.26281E-03 2.38833E-01 3.20230E-14-5.14800E-13
 -1      1311 1.86083E+01 4.79221E+00-1.12708E-02 1.58533E-01 3.71925E-14-4.39176E-13
 -1      1312 1.85422E+01 5.13721E+00 1.14833E-02 7.63215E-01 5.66266E-14-4.89008E-13
 -1      1313 1.84831E+01 5.11764E+00 1.75224E-03 5.75831E-01 4.99561E-14-4.97984E-13
 -1      1314 1.86323E+01 4.76089E+00-1.32896E-02 4.82941E-01 7.08303E-14-4.20081E-13
 -1      1315 1.87026E+01 5.11702E+00 1.45030E-02 1.17100E+00 7.60364E-14-4.51684E-13
 -1      1316 1.86125E+01 5.08668E+00 2.18758E-03 9.56714E-01 6.81642E-14-4.75137E-13
 -1      1317 1.87635E+01 4.68771E+00-1.53818E-02 8.47352E-01 1.07231E-13-3.93924E-13
 -1      1318 1.89213E+01 5.09786E+00 1.52526E-02 1.65818E+00 1.07147E-13-3.85834E-13
 -1      1319 1.88002E+01 5.05570E+00 1.99337E-03 1.40241E+00 9.46673E-14-4.23755E-13
 -1      1320 1.89706E+01 4.59319E+00-1.71954E-02 1.27738E+00 1.37669E-13-3.52815E-13
 -1      1321 1.92320E+01 5.07972E+00 1.26728E-02 2.23298E+00 1.40207E-13-2.74437E-13
 -1      1322 1.90541E+01 5.01502E+00-3.29059E-03 1.92680E+00 1.23998E-13-3.41643E-13
 -1      1323 1.92527E+01 4.47200E+00-2.01304E-02 1.78351E+00 1.88912E-13-2.83700E-13
 -1      1324 1.97752E+01 5.05089E+00 8.79533E-03 2.94141E+00 1.57582E-13-5.67948E-14
 -1      1325 1.94515E+01 4.93372E+00-1.81605E-02 2.54339E+00 1.42206E-13-1.88967E-13
 -1      1326 1.96809E+01 4.28047E+00-2.37897E-02 2.37278E+00 2.29863E-13-1.48596E-13
 -1      1327 2.10133E+01 4.85744E+00 1.04873E-02 3.93336E+00 1.36641E-13 3.69565E-13
 -1      1328 2.02563E+01 4.68993E+00-4.46969E-02 3.28589E+00 1.34226E-13 1.09239E-13
 -1      1329 2.04937E+01 3.86030E+00-2.08294E-02 3.04299E+00 2.34902E-13 1.00669E-13
 -1      1330 2.69880E+01 3.16443E+00 9.08660E-01 4.48970E+00 7.16649E-14 1.17634E-12
 -1      1331 2.19128E+01 3.48779E+00-1.78061E-01 3.78153E+00 7.27751E-14 6.16451E-13
 -1      1332 2.20266E+01 2.52413E+00-3.07147E-02 3.34134E+00 2.24295E-13 4.85806E-13
 -1      1333 2.13350E+01 3.50656E-01-7.54402E-01 1.13302E+00 1.29910E-13 1.12393E-12
 -1      1334 2.14279E+01 1.16806E-01-4.00415E-01-1.35801E+00-1.22638E-13 7.78710E-13
 -1      1335 2.00066E+01 2.84057E-01-1.63259E-01-8.81085E-01-1.12910E-13 6.42056E-13
 -1      1336 1.93661E+01 1.03499E-01-6.49353E-02-5.56341E-01-9.05838E-14 5.70374E-13
 -1      1337 1.85932E+01 1.09743E-02-3.16778E-02-5.47609E-01-8.86062E-14 4.28832E-13
 -1      1338 2.03854E+01 2.80289E-01-1.07320E-01-1.48624E+00-1.99778E-13 3.08659E-13
 -1      1339 1.83749E+01-2.50105E-01-1.43122E-02-5.77077E-01-1.02361E-13 3.90681E-13
 -1      1340 1.68815E+01-3.59527E-01-3.19266E-01-6.42112E-01-1.19335E-13 1.12403E-13
 -1      1341 1.93699E+01-1.99326E-01-5.39107E-02-9.57831E-01-1.92325E-13 2.11775E-13
 -1      1342 1.70553E+01 8.81199E-01 1.29276E-01-1.40053E+00-4.67903E-13 1.52173E-13
 -1      1343 1.72998E+01 1.42840E+00 5.80017E-01-1.58878E+00-5.74152E-13-3.24629E-13
 -1      1344 2.12625E+01 2.13603E-03 6.79768E-01-8.06077E-01-2.86965E-13 3.76130E-13
 -1      1345 2.26572E+01 3.12981E+00 2.18198E+00-2.12147E+00-1.38348E-13 1.79190E-13
 -1      1346 2.02194E+01 5.14372E-01 3.82165E-02-6.41454E-01-9.89486E-15 1.80272E-14
 -1      1347 1.64858E+01 1.82310E+00-3.03662E-01-2.47565E-01-1.44246E-13-2.32224E-13
 -1      1348 2.07186E+01 1.64047E-01 1.39875E-01-4.01631E-01-2.66002E-14 8.36588E-14
 -1      1349 2.01838E+01 7.76466E-02-4.23980E-03-2.60976E-01-8.76469E-15 4.21191E-14
 -1      1350 2.01539E+01 8.28239E-01 1.75341E-01-9.32653E-01-8.35512E-14-2.60573E-14
 -1      1351 2.00369E+01 4.95903E-02-5.26347E-03-1.02414E-01 1.44112E-14 6.34527E-14
 -1      1352 1.98859E+01 3.14323E-02-1.16480E-02-9.37822E-02 1.33912E-14 5.98150E-14
 -1      1353 2.01140E+01 1.49988E-01-3.57299E-03-3.79184E-01-2.60924E-15-1.99840E-14
 -1      1354 1.98378E+01 2.83213E-02-6.57987E-03-1.81947E-02-8.34662E-15 5.63395E-14
 -1      1355 1.98140E+01 2.48837E-02-4.30377E-03-7.29081E-03-2.40220E-14 2.55054E-14
 -1      1356 1.99619E+01 5.69057E-02-1.37429E-02-1.11841E-01-1.49915E-14-3.35686E-14
 -1      1357 1.98398E+01 2.36604E-02-3.03900E-03 4.87343E-02-5.46503E-14 6.10861E-15
 -1      1358 1.99033E+01 2.28147E-02-2.53991E-03 5.99353E-02-7.72932E-14-7.71111E-14
 -1      1359 1.99537E+01 4.20499E-02-9.23918E-03 4.11931E-02-6.76629E-14-5.79676E-14
 -1      1360 1.99895E+01 2.28450E-02-2.57231E-03 1.12504E-01-4.70813E-14-7.94859E-14
 -1      1361 2.01403E+01 2.57860E-02 4.79221E-03 1.27613E-01 3.76218E-15-1.18550E-13
 -1      1362 2.00661E+01 4.06570E-02-7.17441E-03 1.70301E-01-9.20631E-14-3.48016E-14
 -1      1363 2.02442E+01 3.33290E-02 1.10151E-03 1.77480E-01 2.06510E-14-1.45198E-13
 -1      1364 2.05164E+01 1.73471E-01 1.05594E-01 2.72928E-01-4.06446E-15-1.32897E-13
 -1      1365 2.02733E+01 7.13563E-02 6.79355E-03 3.00859E-01-1.02045E-15-8.04946E-14
 -1      1366 2.04256E+01 1.28030E-01 8.24850E-02 1.96848E-01-2.61735E-14-1.37487E-13
 -1      1367 2.04331E+01 6.19062E-03 6.11433E-04 1.45610E-01-2.96824E-14-1.77935E-13
 -1      1368 2.05130E+01 1.71732E-01 7.49677E-02 3.72877E-01-2.93723E-14-1.28925E-13
 -1      1369 2.05848E+01 7.73190E-03-4.06200E-04 1.61120E-01 2.09828E-14-1.66866E-13
 -1      1370 2.07835E+01 7.00778E-03 3.20958E-04 1.65127E-01 1.73285E-14-1.48946E-13
 -1      1371 2.04900E+01 1.11605E-02-2.17064E-03 3.00616E-01-2.86706E-15-1.42008E-13
 -1      1372 2.09543E+01 8.34107E-03-7.68544E-04 1.82031E-01 2.06732E-14-1.42625E-13
 -1      1373 2.11783E+01 6.84120E-03-3.92705E-05 1.86324E-01-1.63018E-14-9.85384E-14
 -1      1374 2.08058E+01 1.24807E-02-2.40185E-03 3.39868E-01 8.92266E-15-9.67037E-14
 -1      1375 2.13677E+01 7.62489E-03-1.14474E-03 2.02006E-01-5.09804E-14-6.70835E-14
 -1      1376 2.16150E+01 4.87075E-03-4.54318E-04 2.05797E-01-4.92323E-14-1.30807E-13
 -1      1377 2.11593E+01 1.17776E-02-2.36802E-03 3.79494E-01-3.81117E-14-8.16632E-14
 -1      1378 2.18186E+01 4.57376E-03-1.43102E-03 2.15623E-01-2.43524E-14-1.10740E-13
 -1      1379 2.20799E+01 3.71922E-05-8.32632E-04 2.17546E-01-2.76449E-14-2.00849E-13
 -1      1380 2.15461E+01 7.44251E-03-1.83065E-03 4.10941E-01-4.26226E-14-4.18151E-14
 -1      1381 2.22874E+01-2.07094E-03-1.40782E-03 2.14378E-01 1.61093E-14-1.70104E-13
 -1      1382 2.25420E+01-8.80919E-03-9.65970E-04 2.12341E-01 2.55482E-14-1.55624E-13
 -1      1383 2.19523E+01-2.57813E-03-4.70872E-04 4.20267E-01 2.02662E-14 2.38234E-14
 -1      1384 2.27346E+01-1.35440E-02-7.24296E-04 1.86555E-01 8.63198E-15-2.18006E-13
 -1      1385 2.29470E+01-2.24226E-02-5.22244E-04 1.77759E-01-2.01208E-14-2.38308E-13
 -1      1386 2.23506E+01-2.03810E-02 2.07860E-03 3.87513E-01 1.63671E-15-5.86358E-14
 -1      1387 2.30960E+01-3.02944E-02 1.02548E-03 1.18659E-01-8.37871E-16-2.52310E-13
 -1      1388 2.32141E+01-4.01112E-02 8.37145E-04 1.00100E-01-2.02447E-14-2.11017E-13
 -1      1389 2.26955E+01-4.69378E-02 6.10135E-03 2.88231E-01-3.15806E-14-1.33183E-13
 -1      1390 2.32821E+01-5.05276E-02 4.00051E-03 3.88497E-05 3.00628E-15-2.17331E-13
 -1      1391 2.32428E+01-5.81112E-02 3.13557E-03-3.00533E-02-1.72215E-14-1.98216E-13
 -1      1392 2.29230E+01-7.97656E-02 1.14767E-02 9.97954E-02 9.91048E-15-1.11725E-13
 -1      1393 2.31899E+01-6.82708E-02 7.60614E-03-1.67867E-01-7.40033E-15-1.17644E-13
 -1      1394 2.29369E+01-6.81447E-02 5.60940E-03-2.07359E-01 2.62229E-14-7.26363E-14
 -1      1395 2.29565E+01-1.09836E-01 1.71119E-02-1.84635E-01 3.44724E-14-7.99770E-14
 -1      1396 2.27351E+01-7.24931E-02 1.00627E-02-3.58946E-01-2.69359E-14-8.34263E-14
 -1      1397 2.22513E+01-5.84158E-02 6.41085E-03-3.98677E-01-2.44162E-14-9.58053E-14
 -1      1398 2.27259E+01-1.19985E-01 2.04194E-02-5.34649E-01-2.35402E-15-5.24060E-15
 -1      1399 2.19073E+01-5.06141E-02 8.70884E-03-5.14514E-01 9.78384E-16-3.81917E-14
 -1      1400 2.12526E+01-2.00143E-02 3.43117E-03-5.37867E-01-1.66750E-15-1.06269E-13
 -1      1401 2.22045E+01-8.96777E-02 1.75330E-02-8.63287E-01 2.52749E-15 4.13454E-14
 -1      1402 2.08298E+01 1.92531E-03 2.16005E-03-5.55210E-01 9.33637E-14-7.05408E-14
 -1      1403 2.01573E+01 4.23045E-02-3.80805E-03-5.44232E-01 1.25624E-13 3.83096E-14
 -1      1404 2.14551E+01-9.64535E-03 5.46888E-03-1.03345E+00 9.20732E-14 8.05796E-14
 -1      1405 1.97771E+01 7.00927E-02-7.67153E-03-4.22245E-01 5.21735E-14 4.05925E-14
 -1      1406 1.92973E+01 1.03309E-01-1.23077E-02-3.70932E-01-9.03271E-15 6.79908E-14
 -1      1407 2.06585E+01 1.00760E-01-1.38721E-02-9.13857E-01 1.25571E-13 4.11962E-14
 -1      1408 1.90979E+01 1.20398E-01-1.52418E-02-1.30904E-01-6.12357E-16 8.17957E-14
 -1      1409 1.89857E+01 1.28696E-01-1.63743E-02-5.54501E-02 5.92235E-14 8.26192E-14
 -1      1410 2.00778E+01 1.92680E-01-3.14850E-02-4.74544E-01 2.69541E-14 1.23033E-13
 -1      1411 1.90492E+01 1.23185E-01-1.54769E-02 2.14372E-01 3.46494E-14 9.17617E-14
 -1      1412 1.93485E+01 1.01657E-01-1.25608E-02 2.82073E-01-5.34919E-14 8.64274E-14
 -1      1413 1.99410E+01 2.15428E-01-3.62806E-02 1.50369E-01 3.36901E-14 4.22171E-14
 -1      1414 1.96486E+01 7.73872E-02-8.70801E-03 4.74833E-01 1.15732E-14 9.71515E-14
 -1      1415 2.02457E+01 3.83357E-02-3.15268E-03 5.07956E-01 5.06505E-14 1.37723E-13
 -1      1416 2.03064E+01 1.55846E-01-2.46326E-02 7.15856E-01-4.61436E-15 6.41605E-14
 -1      1417 2.06647E+01 1.15555E-02-5.36231E-05 5.63422E-01 3.25283E-14 1.23151E-13
 -1      1418 2.13546E+01-2.57952E-02 5.87717E-03 5.56644E-01 3.14905E-14 2.73059E-13
 -1      1419 2.10241E+01 4.83719E-02-4.52104E-03 1.01315E+00 2.65196E-14 4.60396E-15
 -1      1420 2.17544E+01-4.14173E-02 5.45496E-03 4.86374E-01-4.65565E-14 2.23231E-13
 -1      1421 2.23451E+01-6.43950E-02 1.00418E-02 4.53111E-01-6.75952E-14 8.07063E-14
 -1      1422 2.18315E+01-5.24231E-02 1.22620E-02 9.86325E-01-7.05803E-14 2.02824E-14
 -1      1423 2.26294E+01-6.57886E-02 6.44348E-03 3.13797E-01-9.94213E-14 6.22835E-14
 -1      1424 2.30107E+01-7.25965E-02 9.27704E-03 2.72727E-01-8.31999E-14 4.23914E-14
 -1      1425 2.24942E+01-1.09385E-01 1.98603E-02 7.25064E-01-1.90926E-13-2.86646E-14
 -1      1426 2.31451E+01-6.46271E-02 4.55656E-03 1.24055E-01-6.44866E-14-1.03818E-13
 -1      1427 2.32979E+01-6.02894E-02 5.98855E-03 8.85974E-02-9.15119E-14-1.79908E-13
 -1      1428 2.28876E+01-1.18263E-01 1.92972E-02 3.74089E-01-2.01296E-13-6.30516E-14
 -1      1429 2.32952E+01-4.94030E-02 1.99319E-03-3.16448E-02-7.44561E-14-2.03663E-13
 -1      1430 2.32601E+01-4.01661E-02 2.53235E-03-5.59418E-02-1.85876E-14-3.38811E-13
 -1      1431 2.29971E+01-9.60269E-02 1.44048E-02 5.07014E-02-1.28718E-13-1.67391E-13
 -1      1432 2.31567E+01-3.06357E-02 9.09456E-05-1.34586E-01-1.04083E-16-2.76561E-13
 -1      1433 2.29970E+01-2.09293E-02 1.26134E-04-1.47787E-01 2.61978E-14-2.96764E-13
 -1      1434 2.28759E+01-6.27511E-02 8.60585E-03-1.85972E-01-5.57410E-14-2.01505E-13
 -1      1435 2.28334E+01-1.43866E-02-8.14232E-04-1.87795E-01 3.93201E-14-2.82487E-13
 -1      1436 2.26090E+01-6.37285E-03-1.07097E-03-1.92478E-01 3.88686E-14-2.05634E-13
 -1      1437 2.26015E+01-3.18582E-02 3.74048E-03-3.25655E-01 1.38821E-14-1.80298E-13
 -1      1438 2.24195E+01-2.76708E-03-9.55715E-04-2.03572E-01 4.49491E-14-2.33093E-13
 -1      1439 2.21758E+01 2.97178E-03-1.39115E-03-2.02733E-01 1.10268E-13-1.26900E-13
 -1      1440 2.22472E+01-8.94216E-03 3.57851E-04-3.84635E-01 8.89323E-14-1.03816E-13
 -1      1441 2.19850E+01 4.36864E-03-6.97847E-04-1.95359E-01 1.27203E-13-9.72000E-14
 -1      1442 2.17512E+01 8.04345E-03-1.23515E-03-1.91478E-01 1.66456E-14 1.67019E-14
 -1      1443 2.18696E+01 5.47854E-03-1.66206E-03-3.87423E-01 1.41372E-13-1.34452E-13
 -1      1444 2.15742E+01 8.03845E-03-3.22477E-04-1.74128E-01-1.36470E-14 2.30560E-13
 -1      1445 2.13662E+01 1.01295E-02-8.99130E-04-1.68936E-01 7.14342E-14 2.19030E-13
 -1      1446 2.15065E+01 1.30928E-02-2.66455E-03-3.56682E-01 6.46911E-14-1.25069E-14
 -1      1447 2.12109E+01 9.36727E-03 1.47362E-05-1.47541E-01-1.14678E-13 2.51685E-13
 -1      1448 2.10350E+01 1.03621E-02-5.50540E-04-1.42114E-01-2.07609E-13-2.45858E-14
 -1      1449 2.11797E+01 1.60425E-02-2.99732E-03-3.09543E-01-2.00584E-14 7.53831E-14
 -1      1450 2.09044E+01 9.28018E-03 2.55621E-04-1.20366E-01-1.57744E-13 4.77708E-14
 -1      1451 2.07613E+01 9.57598E-03-2.61998E-04-1.15299E-01-1.47658E-13-1.36502E-13
 -1      1452 2.08991E+01 1.61574E-02-2.93228E-03-2.57389E-01-2.20513E-13 1.50740E-13
 -1      1453 2.06549E+01 8.43944E-03 3.96940E-04-9.52298E-02 2.76360E-14-2.34110E-13
 -1      1454 2.05421E+01 8.32739E-03-5.19203E-05-9.07995E-02-3.23253E-14-2.49337E-13
 -1      1455 2.06666E+01 1.47601E-02-2.65770E-03-2.06974E-01-1.83542E-13-3.37620E-14
 -1      1456 2.04578E+01 7.28066E-03 4.57885E-04-7.33295E-02 4.40067E-14-1.51675E-13
 -1      1457 2.03713E+01 6.96113E-03 8.56184E-05-6.96169E-02 9.26876E-14-5.83444E-14
 -1      1458 2.04797E+01 1.27164E-02-2.29483E-03-1.61773E-01 1.30495E-13-5.55388E-14
 -1      1459 2.03062E+01 6.07405E-03 4.60743E-04-5.49689E-02 5.45269E-14 2.12697E-13
 -1      1460 2.02417E+01 5.67908E-03 1.62387E-04-5.19402E-02 8.72165E-14 3.56335E-13
 -1      1461 2.03332E+01 1.05562E-02-1.91806E-03-1.23121E-01 2.28396E-13 1.14867E-13
 -1      1462 2.01928E+01 4.98040E-03 4.20331E-04-3.99224E-02 8.89674E-14 2.44061E-13
 -1      1463 2.01463E+01 4.59279E-03 1.84760E-04-3.74786E-02 7.30028E-14 3.99797E-13
 -1      1464 2.02214E+01 8.58815E-03-1.57198E-03-9.10430E-02 1.18630E-13 3.32637E-13
 -1      1465 2.01108E+01 4.09138E-03 3.37715E-04-2.76675E-02 6.55108E-14 4.53835E-13
 -1      1466 2.00790E+01 3.75664E-03 1.50403E-04-2.56730E-02 3.79177E-14 5.44062E-13
 -1      1467 2.01385E+01 6.98600E-03-1.28349E-03-6.47979E-02 1.35555E-13 4.06870E-13
 -1      1468 2.00544E+01 3.44886E-03 2.03196E-04-1.75391E-02-9.50507E-14 2.07680E-13
 -1      1469 2.00349E+01 3.16427E-03 6.63702E-05-1.58406E-02-1.13417E-13 1.49169E-13
 -1      1470 2.00793E+01 5.84330E-03-1.06337E-03-4.32504E-02-1.00787E-13 1.91230E-13
 -1      1471 2.00192E+01 2.99304E-03 3.44100E-05-8.93943E-03-7.97417E-15 1.39305E-13
 -1      1472 2.00101E+01 2.65832E-03 2.69326E-05-7.40168E-03 1.90186E-14 1.29248E-13
 -1      1473 2.00395E+01 5.12710E-03-8.76363E-04-2.52109E-02-8.04727E-14-9.00932E-14
 -1      1474 2.00013E+01 2.81504E-03 7.97503E-05-1.66327E-03 7.61416E-14 1.66494E-13
 -1      1475 2.00010E+01 1.73176E-03 4.82691E-04-2.38086E-04-4.98058E-14 1.18963E-13
 -1      1476 2.00152E+01 4.45931E-03-6.28098E-04-1.01461E-02 1.81180E-14-1.56635E-13
 -1      1477 1.99978E+01-1.05151E-03 1.21379E-03 2.12161E-03-1.74994E-13 1.79474E-13
 -1      1478 2.00024E+01 1.96213E-04 1.15400E-04 9.04173E-04-9.63553E-14-6.84200E-14
 -1      1479 2.02439E+01 7.17317E-02-1.48085E-01 4.54850E-01 1.06963E-13 8.74318E-13
 -1      1480 2.14590E+01 2.11172E-01-2.26597E-01 6.85346E-01 9.51461E-14 1.05088E-12
 -1      1481 2.16596E+01 8.61500E-01-8.54639E-02 1.98744E+00 1.95892E-13 6.69034E-13
 -1      1482 1.93676E+01 2.94839E-02-1.92458E-02 1.72297E-01 8.68385E-14 6.61457E-13
 -1      1483 1.97608E+01 1.08508E-01-6.07704E-02 2.20667E-01 7.98736E-14 7.90808E-13
 -1      1484 2.02959E+01 1.78098E-01-5.38065E-02 7.42398E-01 1.62308E-13 5.17169E-13
 -1      1485 1.90070E+01 1.30825E-02 6.77269E-03 5.16947E-02 5.03807E-14 4.70582E-13
 -1      1486 1.91373E+01 4.73772E-02 1.85017E-03 7.48797E-02 5.90326E-14 5.79852E-13
 -1      1487 1.95902E+01 6.49420E-02-1.10284E-02 2.80739E-01 1.43297E-13 3.80659E-13
 -1      1488 1.88955E+01 6.57612E-03 7.19534E-03-3.67332E-03 4.64234E-14 3.72275E-13
 -1      1489 1.89147E+01 2.32768E-02 1.13545E-02 8.64965E-03 3.94589E-14 4.31436E-13
 -1      1490 1.92729E+01 2.67708E-02-1.76924E-03 8.35880E-02 8.96106E-14 2.67699E-13
 -1      1491 1.89131E+01 4.47076E-03 4.06883E-03-3.40865E-02 4.13244E-14 2.86512E-13
 -1      1492 1.88779E+01 1.38368E-02 8.31526E-03-2.61829E-02 2.57888E-14 3.35712E-13
 -1      1493 1.91613E+01 1.28732E-02-1.58661E-03-1.39308E-02 6.98556E-14 2.06142E-13
 -1      1494 1.90103E+01 3.69023E-03 1.97684E-03-5.53687E-02-1.15513E-14 2.73791E-13
 -1      1495 1.89415E+01 1.00066E-02 4.84653E-03-4.91222E-02 1.15190E-14 2.81892E-13
 -1      1496 1.91679E+01 8.41158E-03-2.26635E-03-7.20125E-02 3.91657E-14 1.77352E-13
 -1      1497 1.91650E+01 3.06314E-03 1.16010E-03-7.22818E-02 4.14080E-14 2.48308E-13
 -1      1498 1.90708E+01 8.02099E-03 2.91555E-03-6.69631E-02 1.49966E-14 2.67001E-13
 -1      1499 1.92514E+01 6.67117E-03-2.44071E-03-1.13598E-01 2.40472E-14 1.71786E-13
 -1      1500 1.93640E+01 2.59171E-03 1.00402E-03-8.58811E-02 6.07689E-14 1.47019E-13
 -1      1501 1.92496E+01 6.66034E-03 2.11761E-03-8.13410E-02 3.95496E-14 2.02253E-13
 -1      1502 1.93906E+01 5.19352E-03-2.30154E-03-1.45943E-01 6.55269E-14 1.19862E-13
 -1      1503 1.95990E+01 2.52384E-03 7.53577E-04-9.75716E-02 9.69108E-14-4.14200E-14
 -1      1504 1.94678E+01 5.94853E-03 1.78761E-03-9.34362E-02 7.48081E-14 7.52089E-14
 -1      1505 1.95726E+01 4.13860E-03-2.20243E-03-1.72238E-01 1.43660E-13 6.36709E-15
 -1      1506 1.98670E+01 3.13666E-03-9.54710E-04-1.09216E-01 2.65899E-14-1.09162E-13
 -1      1507 1.97199E+01 6.14111E-03 9.67375E-04-1.04972E-01 5.72041E-14-2.88081E-14
 -1      1508 1.97907E+01 4.14454E-03-2.72976E-03-1.95940E-01 1.10553E-13-7.41692E-15
 -1      1509 2.01877E+01-2.66754E-03-7.11782E-03-1.21901E-01-3.22312E-15-1.70588E-13
 -1      1510 2.00045E+01 6.13975E-03-4.11000E-03-1.19501E-01 1.02525E-14-1.33920E-13
 -1      1511 2.00410E+01 3.85827E-03-7.59701E-03-2.19834E-01 4.72989E-14-7.22773E-15
 -1      1512 2.05576E+01 5.59522E-03-5.80552E-04-1.43884E-01-1.03623E-14-1.12853E-13
 -1      1513 2.03674E+01 9.66595E-03 1.11429E-03-1.37065E-01-9.93097E-15-1.75301E-13
 -1      1514 2.03638E+01 8.62880E-03-3.24538E-03-2.54764E-01-5.24017E-15-6.35153E-14
 -1      1515 2.09728E+01 6.97491E-03-1.19014E-03-1.70844E-01-7.23553E-15-8.62609E-14
 -1      1516 2.07480E+01 1.22227E-02 9.17892E-04-1.62074E-01-1.95579E-14-1.14648E-13
 -1      1517 2.07057E+01 1.17625E-02-4.06179E-03-2.99939E-01-2.56527E-14-1.87542E-14
 -1      1518 2.14655E+01 8.05406E-03-1.78414E-03-2.03589E-01 3.19313E-14-8.45487E-14
 -1      1519 2.11975E+01 1.47354E-02 6.84023E-04-1.92777E-01 2.19343E-14-6.89344E-14
 -1      1520 2.11080E+01 1.47600E-02-4.99592E-03-3.56121E-01 2.03962E-14-1.11959E-13
 -1      1521 2.20460E+01 8.25591E-03-2.21488E-03-2.39960E-01 4.23661E-14-1.33143E-13
 -1      1522 2.17284E+01 1.64530E-02 3.74449E-04-2.27492E-01 5.06669E-14-6.23737E-14
 -1      1523 2.15803E+01 1.67819E-02-5.88517E-03-4.21137E-01 5.39213E-14-7.70399E-14
 -1      1524 2.27146E+01 6.60452E-03-2.12852E-03-2.74634E-01-1.68627E-14-1.71906E-13
 -1      1525 2.23467E+01 1.60308E-02 2.76019E-06-2.61812E-01 1.07468E-14-1.65690E-13
 -1      1526 2.21264E+01 1.63273E-02-6.38036E-03-4.88334E-01 5.34191E-14-1.67496E-14
 -1      1527 2.34508E+01 1.61357E-03-8.19866E-04-2.97164E-01 4.41000E-14-2.25471E-13
 -1      1528 2.30443E+01 1.12624E-02-2.78692E-04-2.86887E-01 3.06076E-14-1.74315E-13
 -1      1529 2.27387E+01 1.08917E-02-5.81937E-03-5.43664E-01 2.63581E-14-4.74863E-14
 -1      1530 2.41985E+01-8.58426E-03 2.84035E-03-2.89826E-01 2.52728E-14-2.59140E-13
 -1      1531 2.37863E+01-9.84293E-04-5.45475E-05-2.87432E-01 4.68436E-14-2.22329E-13
 -1      1532 2.33890E+01-3.21707E-03-3.12261E-03-5.62025E-01 7.05718E-14-5.21918E-14
 -1      1533 2.48482E+01-2.53566E-02 1.00703E-02-2.27057E-01-1.33758E-13-1.25960E-13
 -1      1534 2.44957E+01-2.40031E-02 1.41079E-03-2.40790E-01-9.14390E-14-2.36946E-13
 -1      1535 2.40168E+01-3.02584E-02 3.07612E-03-5.04676E-01-7.16475E-14-2.20058E-14
 -1      1536 2.52272E+01-4.73290E-02 2.09051E-02-8.07854E-02-5.34312E-14 1.14753E-13
 -1      1537 2.50387E+01-5.86187E-02 4.87416E-03-1.20462E-01-8.69669E-14-8.22085E-15
 -1      1538 2.45192E+01-7.22937E-02 1.36540E-02-3.22835E-01-1.82255E-13 1.19719E-13
 -1      1539 2.51184E+01-6.68647E-02 3.17374E-02 1.62203E-01-9.04485E-15 1.79631E-13
 -1      1540 2.52256E+01-9.80766E-02 1.01092E-02 9.04580E-02-1.53419E-14 1.59911E-13
 -1      1541 2.47514E+01-1.23067E-01 2.72263E-02 2.32593E-02-7.38298E-14 2.36226E-13
 -1      1542 2.43386E+01-6.73827E-02 3.31104E-02 4.67814E-01 5.09991E-14 1.16011E-13
 -1      1543 2.48505E+01-1.22214E-01 1.41578E-02 3.72326E-01 3.32789E-14 1.93238E-13
 -1      1544 2.45555E+01-1.59403E-01 3.79192E-02 5.21328E-01 4.70492E-14 2.71221E-13
 -1      1545 2.28906E+01-3.04174E-02 1.30507E-02 7.22039E-01-2.21784E-15 2.72421E-14
 -1      1546 2.37986E+01-9.97952E-02 1.07116E-02 6.36655E-01 1.49629E-14 4.81767E-14
 -1      1547 2.38367E+01-1.39457E-01 3.52485E-02 1.04653E+00 7.28254E-14 1.19536E-13
 -1      1548 2.11312E+01 4.12735E-02-2.85542E-02 7.53252E-01-7.27066E-14 8.18512E-14
 -1      1549 2.22092E+01-1.37845E-02-5.20486E-03 7.30108E-01-5.02571E-14-3.46945E-14
 -1      1550 2.26902E+01-2.54343E-02 1.34085E-02 1.34178E+00-4.27587E-14 8.10532E-14
 -1      1551 1.97417E+01 1.10871E-01-7.24156E-02 4.54647E-01 2.75387E-14 1.68240E-13
 -1      1552 2.05730E+01 1.06758E-01-2.95597E-02 5.27161E-01 9.64333E-15 1.37917E-13
 -1      1553 2.14846E+01 1.53869E-01-2.23670E-02 1.13911E+00-6.54823E-14 3.89584E-14
 -1      1554 1.94085E+01 1.24565E-01-8.14367E-02-8.46894E-02 1.02052E-13-5.25378E-14
 -1      1555 1.95880E+01 1.87619E-01-4.52787E-02 5.86451E-02 7.22616E-14 1.36169E-13
 -1      1556 2.07590E+01 3.02535E-01-4.70449E-02 3.95916E-01 1.18718E-13 1.15812E-13
 -1      1557 2.03159E+01 7.11886E-02-4.55101E-02-5.78876E-01 5.25378E-14-3.28099E-13
 -1      1558 1.97471E+01 1.69188E-01-3.64508E-02-4.43031E-01 1.60452E-13-1.15376E-13
 -1      1559 2.08932E+01 2.94902E-01-4.62365E-02-5.55457E-01 2.15421E-13 1.89952E-14
 -1      1560 2.19954E+01-5.77543E-03 8.44213E-03-7.81324E-01-1.77371E-14-3.99042E-13
 -1      1561 2.09668E+01 7.27333E-02-8.51990E-03-7.17836E-01-7.45931E-14-4.61839E-13
 -1      1562 2.18099E+01 1.33613E-01-2.58065E-02-1.21733E+00 9.31200E-15-1.55976E-13
 -1      1563 2.36921E+01-5.70787E-02 4.45644E-02-6.64667E-01 1.43115E-15-3.82361E-13
 -1      1564 2.26556E+01-2.93614E-02 1.83026E-02-6.80519E-01-1.36948E-14-4.28435E-13
 -1      1565 2.30440E+01-6.05697E-02-3.69604E-03-1.32113E+00-3.69496E-14-3.18905E-13
 -1      1566 2.48500E+01-6.84125E-02 5.00830E-02-3.76751E-01-1.30356E-14-4.76189E-13
 -1      1567 2.41372E+01-8.48204E-02 2.91349E-02-4.36267E-01 6.99787E-15-5.11452E-13
 -1      1568 2.40883E+01-1.72930E-01 8.86183E-03-9.66385E-01 3.78031E-14-4.05641E-13
 -1      1569 2.53005E+01-5.37136E-02 3.66059E-02-8.18295E-02-7.61561E-14-2.78796E-13
 -1      1570 2.50111E+01-9.01152E-02 2.45996E-02-1.46084E-01-5.90760E-14-4.22707E-13
 -1      1571 2.46604E+01-1.82624E-01 1.20009E-02-4.35715E-01-7.71119E-14-3.38979E-13
 -1      1572 2.51568E+01-3.16930E-02 1.87174E-02 1.31792E-01-4.90224E-14-1.01703E-13
 -1      1573 2.52209E+01-6.78068E-02 1.39359E-02 8.34683E-02-6.95425E-14-2.26529E-13
 -1      1574 2.47326E+01-1.33837E-01 1.00617E-02 3.69624E-02-1.12976E-13-9.21546E-14
 -1      1575 2.46360E+01-1.29938E-02 4.91275E-03 2.48544E-01 1.50103E-13-3.20332E-13
 -1      1576 2.49218E+01-3.94348E-02 4.23018E-03 2.20370E-01 1.21678E-13-1.22135E-13
 -1      1577 2.44241E+01-7.32451E-02 6.63110E-03 3.50986E-01 1.43652E-13-2.73669E-13
 -1      1578 2.39401E+01-7.70924E-04-2.93474E-03 2.89188E-01 2.02276E-14-3.66866E-13
 -1      1579 2.43264E+01-1.62072E-02-1.65653E-03 2.77210E-01 3.62952E-14-2.87341E-13
 -1      1580 2.38927E+01-2.52420E-02 3.64964E-03 5.05898E-01 6.69642E-14-1.13088E-13
 -1      1581 2.32120E+01 5.74214E-03-6.14864E-03 2.82332E-01-1.67385E-14-4.40771E-13
 -1      1582 2.36147E+01-1.01942E-03-4.03692E-03 2.80756E-01 6.07497E-14-4.79550E-13
 -1      1583 2.32727E+01 4.56927E-03 1.62464E-03 5.44232E-01 1.24683E-13-2.40794E-13
 -1      1584 2.25346E+01 8.39362E-03-6.66613E-03 2.51297E-01 8.62419E-14-5.20521E-13
 -1      1585 2.29064E+01 7.27018E-03-4.25620E-03 2.55326E-01 5.49370E-14-4.88876E-13
 -1      1586 2.26558E+01 1.94716E-02 4.25049E-04 5.13077E-01 5.33575E-14-3.70901E-13
 -1      1587 2.19464E+01 8.81777E-03-5.94926E-03 2.11315E-01-5.95895E-14-4.46185E-13
 -1      1588 2.22662E+01 1.08416E-02-3.51835E-03 2.17763E-01-7.99846E-14-5.13874E-13
 -1      1589 2.20938E+01 2.47238E-02-2.23421E-04 4.48471E-01-5.27443E-14-3.33188E-13
 -1      1590 2.14586E+01 8.12950E-03-4.83692E-03 1.70982E-01-1.24805E-14-3.28073E-13
 -1      1591 2.17213E+01 1.16066E-02-2.55098E-03 1.77997E-01-6.32610E-15-2.89142E-13
 -1      1592 2.16101E+01 2.46352E-02-5.44912E-04 3.73309E-01-7.35510E-14-2.52844E-13
 -1      1593 2.10670E+01 6.99253E-03-3.72778E-03 1.34479E-01 6.38649E-14-2.42679E-13
 -1      1594 2.12759E+01 1.08995E-02-1.68347E-03 1.41103E-01 4.97215E-15-2.10408E-13
 -1      1595 2.12098E+01 2.20325E-02-6.80081E-04 3.00243E-01-1.79405E-14-3.92414E-14
 -1      1596 2.07604E+01 5.76522E-03-2.77457E-03 1.03389E-01-1.03662E-13-7.14554E-14
 -1      1597 2.09224E+01 9.54435E-03-1.01585E-03 1.09204E-01-1.26975E-14-1.05697E-13
 -1      1598 2.08881E+01 1.85469E-02-7.10036E-04 2.35238E-01-3.91332E-14 3.07128E-13
 -1      1599 2.05255E+01 4.62327E-03-2.01280E-03 7.79011E-02 5.28939E-15-1.53768E-14
 -1      1600 2.06485E+01 8.00874E-03-5.44400E-04 8.27881E-02-3.16276E-14-1.37137E-13
 -1      1601 2.06356E+01 1.50276E-02-6.81977E-04 1.80345E-01-2.86229E-15 1.27146E-13
 -1      1602 2.03491E+01 3.64293E-03-1.43143E-03 5.75261E-02-2.00639E-13 2.88010E-13
 -1      1603 2.04405E+01 6.54006E-03-2.31129E-04 6.15222E-02-1.48393E-13 1.08962E-13
 -1      1604 2.04416E+01 1.18683E-02-6.25651E-04 1.35523E-01-1.95676E-13 2.21125E-13
 -1      1605 2.02194E+01 2.85178E-03-1.00860E-03 4.14831E-02 2.05860E-13 2.56235E-13
 -1      1606 2.02859E+01 5.26214E-03-3.59888E-05 4.47049E-02 8.86976E-14 3.79096E-13
 -1      1607 2.02953E+01 9.22201E-03-5.63431E-04 9.97200E-02-2.42595E-14 4.13100E-13
 -1      1608 2.01266E+01 2.25502E-03-7.27765E-04 2.88892E-02 5.64586E-14-2.65431E-14
 -1      1609 2.01736E+01 4.23538E-03 7.01941E-05 3.14957E-02 1.20885E-13 8.31895E-14
 -1      1610 2.01876E+01 7.12901E-03-5.15650E-04 7.14454E-02 2.86863E-13 4.25911E-13
 -1      1611 2.00632E+01 1.83891E-03-5.80092E-04 1.88599E-02-3.53071E-14-3.56297E-14
 -1      1612 2.00947E+01 3.48188E-03 1.01047E-04 2.10313E-02 8.86241E-14 7.19393E-14
 -1      1613 2.01105E+01 5.57874E-03-5.02001E-04 4.90764E-02 7.61945E-14 5.06384E-13
 -1      1614 2.00234E+01 1.57624E-03-5.28315E-04 1.05993E-02-8.05604E-14 7.78511E-14
 -1      1615 2.00424E+01 2.99117E-03 6.40873E-05 1.25220E-02-1.38907E-13-1.41620E-13
 -1      1616 2.00578E+01 4.52263E-03-5.33059E-04 3.10531E-02-1.38771E-13 3.69364E-13
 -1      1617 2.00033E+01 1.39016E-03-3.50992E-04 3.48838E-03-4.48987E-14 1.74903E-13
 -1      1618 2.00116E+01 2.68843E-03 2.48978E-05 5.37612E-03-4.78690E-14 1.10792E-13
 -1      1619 2.00247E+01 3.91865E-03-5.34629E-04 1.61247E-02-1.29314E-13 4.23825E-13
 -1      1620 1.99987E+01 7.70479E-04 6.45600E-04-1.72367E-03 1.22679E-13-1.72983E-14
 -1      1621 1.99982E+01 1.90430E-03 2.30277E-04-2.35212E-04 7.56376E-14 8.58301E-14
 -1      1622 2.00069E+01 2.84434E-03-3.31281E-04 3.79531E-03 1.66494E-13 2.75345E-13
 -1      1623 1.99981E+01-1.25827E-03 1.23064E-03-1.94950E-03 5.18083E-14-7.24968E-14
 -1      1624 2.00022E+01 1.25663E-03-3.06098E-04 2.03045E-03 4.44057E-13 3.04487E-13
 -1      1625 2.00019E+01 5.81638E-04 3.94518E-04 7.08329E-04 9.88718E-14 3.04650E-13
 -1      1626 2.00021E+01 1.78939E-02-3.78662E-04 8.82316E-03 5.21756E-13-2.28144E-13
 -1      1627 2.00023E+01 9.24698E-03-2.31042E-04 7.42099E-03 5.71939E-13-3.01673E-14
 -1      1628 2.00046E+01 1.46580E-02-4.64451E-04 1.00465E-02 3.08870E-13 2.27753E-13
 -1      1629 2.00011E+01 4.58673E-02-2.47937E-04 1.42503E-02 2.07899E-13-1.70290E-13
 -1      1630 2.00017E+01 3.03765E-02-2.53323E-04 1.33210E-02 6.25851E-13-1.63268E-13
 -1      1631 2.00036E+01 3.53319E-02-5.84489E-04 2.19912E-02 3.15979E-13-2.44560E-13
 -1      1632 1.99999E+01 8.03572E-02-1.09513E-04 1.67188E-02 4.26954E-13 4.87628E-14
 -1      1633 2.00006E+01 6.13338E-02-1.46455E-04 1.64769E-02 3.50184E-13 1.02339E-13
 -1      1634 2.00017E+01 6.36513E-02-2.72439E-04 3.00430E-02 2.58120E-13 2.44802E-15
 -1      1635 1.99987E+01 1.14345E-01-2.88708E-05 1.59162E-02 3.94559E-13 9.86556E-14
 -1      1636 1.99994E+01 9.60077E-02-5.52440E-05 1.63206E-02 3.79799E-13-1.85556E-13
 -1      1637 1.99997E+01 9.50684E-02 1.06101E-04 3.21261E-02 3.82673E-13-1.33245E-13
 -1      1638 1.99978E+01 1.42789E-01 1.81935E-05 1.21521E-02 4.38588E-13 1.26941E-13
 -1      1639 1.99983E+01 1.28095E-01 1.07610E-06 1.31058E-02 3.16083E-13 1.45627E-13
 -1      1640 1.99978E+01 1.24639E-01 4.47107E-04 2.81644E-02 1.79510E-13 2.60666E-14
 -1      1641 1.99973E+01 1.60031E-01 3.83682E-05 6.22221E-03 3.40959E-13-1.75682E-13
 -1      1642 1.99975E+01 1.52003E-01 2.83173E-05 7.52284E-03 4.53758E-13 1.11510E-13
 -1      1643 1.99964E+01 1.47664E-01 6.99690E-04 1.90732E-02 3.62730E-14 8.04090E-14
 -1      1644 1.99972E+01 1.63154E-01 4.11269E-05-7.70547E-04 6.63195E-13 2.71895E-13
 -1      1645 1.99972E+01 1.63204E-01 3.84367E-05 6.43685E-04 4.22153E-13 2.70685E-14
 -1      1646 1.99957E+01 1.60066E-01 8.29578E-04 6.64714E-03 1.09106E-13-5.51138E-15
 -1      1647 1.99976E+01 1.51694E-01 2.84121E-05-7.60103E-03 6.76211E-13-1.02982E-13
 -1      1648 1.99973E+01 1.59783E-01 3.46352E-05-6.31759E-03 6.70640E-13 8.18308E-14
 -1      1649 1.99957E+01 1.59848E-01 8.23165E-04-6.88326E-03 5.83075E-13 1.33938E-13
 -1      1650 1.99983E+01 1.27703E-01-2.39131E-06-1.30801E-02 4.90059E-13-2.43843E-13
 -1      1651 1.99978E+01 1.42360E-01 1.78516E-05-1.21550E-02 6.56138E-13-8.89988E-14
 -1      1652 1.99965E+01 1.47090E-01 6.81933E-04-1.91720E-02 4.71643E-13-1.53322E-13
 -1      1653 1.99994E+01 9.60370E-02-5.03571E-05-1.61771E-02 5.09010E-13 8.41644E-14
 -1      1654 1.99987E+01 1.14223E-01-2.69423E-05-1.57882E-02 5.75399E-13-2.84596E-13
 -1      1655 1.99979E+01 1.24152E-01 4.35644E-04-2.80201E-02 5.09184E-13-2.62384E-13
 -1      1656 2.00006E+01 6.13575E-02-1.34477E-04-1.63167E-02 7.38683E-13 1.65995E-13
 -1      1657 1.99999E+01 8.01981E-02-1.05756E-04-1.65607E-02 4.00839E-13 4.62810E-13
 -1      1658 1.99997E+01 9.46843E-02 9.67382E-05-3.18531E-02 3.99599E-13 2.60125E-13
 -1      1659 2.00016E+01 3.05781E-02-2.75610E-04-1.32107E-02 3.90596E-13-2.92115E-13
 -1      1660 2.00011E+01 4.60287E-02-2.30879E-04-1.41085E-02 7.56076E-13-1.30389E-13
 -1      1661 2.00017E+01 6.32323E-02-2.70596E-04-2.97632E-02 1.88833E-13 4.85779E-14
 -1      1662 2.00027E+01 9.77626E-03-9.50836E-05-7.59993E-03 2.02568E-13 6.78458E-15
 -1      1663 2.00019E+01 1.83951E-02-3.87527E-04-9.02552E-03 3.10279E-13-9.73214E-14
 -1      1664 2.00033E+01 3.53888E-02-5.69410E-04-2.18361E-02 2.40182E-13-3.84264E-13
 -1      1665 2.00034E+01 3.69593E-03 3.93124E-04-2.81882E-03-1.14460E-13-4.37937E-13
 -1      1666 2.00035E+01 5.19438E-03-3.44197E-04-4.65334E-03 1.66742E-13-3.62824E-13
 -1      1667 2.00071E+01 1.92139E-02-2.63017E-05-1.35774E-02 1.26652E-13-8.68607E-14
 -1      1668 2.00091E+01 1.01323E-02 4.12187E-04-7.03655E-03-2.55897E-14-3.83503E-13
 -1      1669-5.38496E-01-1.41531E+01-1.59466E+00-9.40951E-01-2.04059E-13 5.00044E-13
 -1      1670-5.55269E-01-1.61011E+01-1.76195E+00 2.62218E-01-9.30492E-13 3.00260E-13
 -1      1671 1.27708E+00-8.22921E+00-1.23758E+00 3.12542E-01 7.23976E-13 6.87395E-13
 -1      1672 5.86066E-01-1.31336E+01-1.69925E+00-1.98194E-01 6.10623E-14 4.44846E-13
 -1      1673 6.58595E+00-5.86325E-01-6.26237E-01 4.30803E+00 1.17129E-12 1.04516E-12
 -1      1674 3.53017E+00-6.18666E+00-1.38403E+00 1.38458E+00 8.25895E-13 8.43603E-13
 -1      1675 1.93434E+01 4.35231E+00 2.68876E-01 9.77596E+00 1.12443E-12 1.12688E-12
 -1      1676 1.18969E+01 8.17274E-01-6.71692E-01 5.82018E+00 1.18028E-12 1.04716E-12
 -1      1677 3.44318E+01 6.02597E+00 1.08609E+00 1.22758E+01 7.62057E-13 9.59899E-13
 -1      1678 2.45665E+01 5.98547E+00 1.77064E-01 1.05881E+01 1.05238E-12 1.17528E-12
 -1      1679 4.82444E+01 4.54802E+00 1.65092E+00 8.90645E+00 3.77816E-13 6.41376E-13
 -1      1680 3.95667E+01 6.15516E+00 9.95853E-01 1.12100E+01 5.80702E-13 8.91842E-13
 -1      1681 5.54321E+01 3.50161E+00 1.94954E+00 1.41998E+00 2.63622E-13-1.00475E-14
 -1      1682 5.17568E+01 4.45895E+00 1.66488E+00 6.92808E+00 3.62321E-13 3.97793E-13
 -1      1683 5.23919E+01 4.32370E+00 1.68770E+00-6.77366E+00 1.91291E-13-3.64708E-13
 -1      1684 5.57871E+01 3.44759E+00 1.98170E+00-1.33314E+00 1.99646E-13-1.81632E-13
 -1      1685 3.90781E+01 5.91529E+00 8.42035E-01-1.01806E+01 3.74756E-13-6.03961E-13
 -1      1686 4.79849E+01 4.42610E+00 1.54041E+00-7.75787E+00 2.23960E-13-4.46643E-13
 -1      1687 2.44475E+01 5.14170E+00 7.79146E-02-9.77832E+00 6.58140E-13-7.25198E-13
 -1      1688 3.42062E+01 5.26227E+00 9.16157E-01-1.13678E+01 4.21718E-13-6.39933E-13
 -1      1689 1.21226E+01 1.30910E+00-6.66855E-01-6.10773E+00 9.58900E-13-6.73683E-13
 -1      1690 1.89257E+01 4.32984E+00 1.85489E-01-9.65025E+00 7.56617E-13-7.09321E-13
 -1      1691 3.97114E+00-5.49592E+00-1.33423E+00-1.68578E+00 8.51208E-13-6.60194E-13
 -1      1692 7.30870E+00-1.02204E-02-5.67158E-01-4.74547E+00 9.87210E-13-6.98219E-13
 -1      1693 7.69357E-01-1.26410E+01-1.70588E+00 1.94608E-01 1.11577E-13-3.12309E-13
 -1      1694 1.61071E+00-7.61577E+00-1.20463E+00-5.83434E-01 6.26943E-13-6.68077E-13
 -1      1695-5.64135E-01-1.66730E+01-1.89014E+00-5.69595E-02-5.65548E-13-2.62679E-13
 -1      1696-6.05718E-01-1.42630E+01-1.69694E+00 1.18659E+00-1.78746E-14-3.04645E-13
 -1      1697-6.32619E-01-1.43812E+01-1.59212E+00-7.83274E-01-9.08940E-13-2.61069E-13
 -1      1698-6.20914E-01-1.61784E+01-1.77000E+00 5.64004E-01-6.75349E-13-1.50990E-13
 -1      1699 1.58221E+00-7.84032E+00-1.09852E+00 8.66051E-01-9.52127E-13-2.58266E-13
 -1      1700 7.85755E-01-1.29658E+01-1.57054E+00 3.21226E-01-9.17377E-13-3.05145E-13
 -1      1701 6.57377E+00-3.56889E-01-5.57146E-01 4.40020E+00-7.69829E-13-3.88245E-13
 -1      1702 3.71794E+00-5.80419E+00-1.26392E+00 1.67728E+00-9.56346E-13-3.21188E-13
 -1      1703 1.67124E+01 4.95007E+00 1.75167E-01 9.52978E+00-4.91607E-13-6.74905E-13
 -1      1704 1.04503E+01 1.54957E+00-6.66428E-01 5.84117E+00-5.76206E-13-4.64961E-13
 -1      1705 3.21322E+01 6.10446E+00 9.78058E-01 1.22069E+01-4.77729E-13-6.21725E-13
 -1      1706 2.25120E+01 5.73777E+00 1.23427E-01 1.01043E+01-4.55525E-13-6.31273E-13
 -1      1707 4.61852E+01 5.01552E+00 1.62561E+00 1.04049E+01-2.59293E-13-6.06071E-13
 -1      1708 3.74609E+01 6.67719E+00 9.65787E-01 1.21449E+01-3.92519E-13-6.16618E-13
 -1      1709 5.41088E+01 3.53523E+00 1.85806E+00 2.95315E+00-1.24983E-13-4.55802E-13
 -1      1710 4.96085E+01 4.77722E+00 1.56468E+00 8.13688E+00-1.65826E-13-5.59996E-13
 -1      1711 5.30689E+01 3.96366E+00 1.76484E+00-5.56960E+00-1.03612E-13-2.01394E-13
 -1      1712 5.50662E+01 3.36206E+00 1.88217E+00 3.31128E-02-1.73195E-13-4.17409E-13
 -1      1713 4.30356E+01 6.02507E+00 1.23789E+00-1.12229E+01-2.90185E-13 3.39284E-13
 -1      1714 5.05134E+01 4.30308E+00 1.80528E+00-8.01057E+00-1.79294E-13 5.48450E-14
 -1      1715 2.87800E+01 6.05128E+00 4.19659E-01-1.06829E+01-7.93310E-13 6.56142E-13
 -1      1716 3.80336E+01 5.39834E+00 1.14140E+00-1.11960E+01-4.35763E-13 3.52274E-13
 -1      1717 1.41812E+01 3.80871E+00-3.93176E-01-7.66312E+00-1.15885E-12 9.26259E-13
 -1      1718 2.25885E+01 6.11917E+00 5.17336E-01-1.13340E+01-9.24039E-13 8.13127E-13
 -1      1719 5.86033E+00-4.15050E+00-1.05902E+00-2.85552E+00-1.20226E-12 6.77902E-13
 -1      1720 1.01975E+01 1.24771E+00-2.46731E-01-6.37622E+00-1.12399E-12 9.20819E-13
 -1      1721 8.58868E-01-1.22755E+01-1.68721E+00-2.92965E-03-1.31928E-12 5.26464E-13
 -1      1722 1.94756E+00-6.35200E+00-1.08409E+00-1.11832E+00-1.38412E-12 6.17256E-13
 -1      1723-5.59763E-01-1.64067E+01-1.82697E+00-4.10931E-01-1.22435E-12 1.57957E-13
 -1      1724-5.55140E-01-1.39494E+01-1.62959E+00 9.05722E-01-1.40654E-12 3.80251E-13
 -1      1725 2.60647E+01 5.64607E-01 2.78419E-01 6.85348E+00 6.86062E-13 6.13953E-13
 -1      1726 1.49292E+01-3.31904E+00-2.95167E-01 6.35731E+00 4.78395E-13 6.26110E-13
 -1      1727 2.00010E+01-1.39642E-03 4.26205E-04-2.22726E-03 2.29055E-14-2.97864E-14
 -1      1728 2.00037E+01 5.28347E-03 1.92009E-04 1.04014E-03 1.80309E-13 3.14498E-13
 -1      1729 5.49756E-01-9.91934E+00-1.15634E+00 2.24667E+00-1.69753E-13 8.89844E-13
 -1      1730 5.63221E+00-7.27255E+00-9.03850E-01 4.26524E+00 2.04059E-13 8.09866E-13
 -1      1731-1.25909E+00-1.08886E+01-1.25442E+00-1.15945E-01-6.18401E-13 5.29465E-13
 -1      1732 3.66371E+01 4.33842E+00 9.25507E-01 6.02722E+00 7.11459E-13 4.04676E-13
 -1      1733 4.42740E+01 6.66290E+00 1.38668E+00 3.31844E+00 5.10203E-13 2.42750E-13
 -1      1734 4.78686E+01 7.39776E+00 1.66294E+00 1.14399E-02 4.11171E-13 2.59237E-14
 -1      1735 4.37818E+01 6.64871E+00 1.27652E+00-2.68801E+00 2.92599E-13-2.70506E-13
 -1      1736 3.61420E+01 3.79132E+00 7.94411E-01-4.64379E+00 3.91007E-13-3.49054E-13
 -1      1737 2.63149E+01 3.56618E-01 3.16521E-01-6.65140E+00 3.89799E-13-3.16080E-13
 -1      1738 1.52867E+01-2.97847E+00-2.55024E-01-6.40850E+00 4.58411E-13-3.53939E-13
 -1      1739 6.29716E+00-6.91977E+00-8.52768E-01-4.45744E+00 1.72973E-13-6.11261E-13
 -1      1740 8.48779E-01-1.01026E+01-1.19220E+00-2.36453E+00-1.14686E-13-5.68323E-13
 -1      1741-1.28684E+00-1.11530E+01-1.28640E+00-6.66686E-03-3.05693E-13-4.30211E-13
 -1      1742 6.39732E-01-9.53598E+00-1.02466E+00 2.57930E+00-4.32654E-13-2.86660E-13
 -1      1743 5.75794E+00-7.06727E+00-8.45207E-01 4.59530E+00-6.09401E-13-1.43392E-13
 -1      1744 1.35525E+01-2.84587E+00-3.66741E-01 6.35287E+00-4.54303E-13-2.08222E-13
 -1      1745 2.43106E+01 9.70829E-01 2.96890E-01 7.39532E+00-1.83076E-13-2.83329E-13
 -1      1746 3.47671E+01 4.02414E+00 7.65756E-01 6.61962E+00-3.38451E-13-3.20299E-13
 -1      1747 4.32603E+01 6.40464E+00 1.33532E+00 4.57658E+00-2.49800E-13-3.77476E-13
 -1      1748 4.70161E+01 7.25639E+00 1.55532E+00 6.74379E-01-2.06446E-13-2.75155E-13
 -1      1749 4.56812E+01 6.78651E+00 1.48658E+00-3.31382E+00-2.99649E-13-1.04250E-13
 -1      1750 3.81783E+01 4.81878E+00 8.70577E-01-5.26583E+00-4.89690E-13 4.11893E-14
 -1      1751 2.87813E+01 2.29185E+00 5.45977E-01-6.98344E+00-6.19449E-13 1.80189E-13
 -1      1752 1.74627E+01-2.00898E+00-2.11279E-01-6.85497E+00-6.36158E-13 5.19140E-13
 -1      1753 8.06104E+00-6.15892E+00-6.15279E-01-5.32664E+00-7.14317E-13 3.90132E-13
 -1      1754 9.90209E-01-9.81221E+00-1.15120E+00-2.68271E+00-9.04832E-13 4.07785E-13
 -1      1755 2.23494E+01 1.95102E+00-2.28037E-02-2.78055E+00-1.54248E-13 5.79037E-13
 -1      1756 1.96048E+01 3.58987E+00-3.81866E-02-2.20218E+00-1.92993E-13-2.76956E-13
 -1      1757 1.98001E+01 3.43877E+00-4.07625E-02-2.50704E+00-2.21779E-13-2.09978E-13
 -1      1758 2.00499E+01 3.05367E+00-4.78337E-02-2.68109E+00-2.26100E-13-1.13680E-13
 -1      1759 2.01882E+01 2.69327E+00-1.50985E-01-2.96199E+00-2.39472E-13 4.13558E-15
 -1      1760 2.01604E+01 2.54620E+00-6.30206E-03-2.30894E+00-2.32767E-13-1.49925E-13
 -1      1761 1.92386E+01 4.09358E+00-2.09171E-02-1.28052E+00-1.26003E-13-3.90363E-13
 -1      1762 1.92955E+01 4.05035E+00-1.89403E-02-1.51542E+00-1.48274E-13-3.86191E-13
 -1      1763 1.91268E+01 4.20792E+00-2.01195E-02-8.29678E-01-8.73962E-14-3.87001E-13
 -1      1764 1.91886E+01 4.17592E+00-1.71774E-02-1.05663E+00-1.04492E-13-3.90471E-13
 -1      1765 1.94245E+01 3.68770E+00-1.34673E-02-1.11570E+00-1.33899E-13-3.78114E-13
 -1      1766 1.89649E+01 4.30989E+00-2.14200E-02-4.04266E-01-3.06964E-14-3.72109E-13
 -1      1767 1.90547E+01 4.28417E+00-1.40263E-02-6.10229E-01-4.93956E-14-3.81330E-13
 -1      1768 1.92811E+01 3.83018E+00-1.83990E-02-6.71771E-01-7.21634E-14-3.58583E-13
 -1      1769 1.87880E+01 4.40460E+00-2.00509E-02-5.13710E-02 2.14664E-14-3.58338E-13
 -1      1770 1.88725E+01 4.38775E+00-1.25372E-02-2.23332E-01-1.72366E-15-3.63274E-13
 -1      1771 1.90857E+01 3.97260E+00-1.59098E-02-2.66623E-01-2.05625E-14-3.49575E-13
 -1      1772 1.87118E+01 4.43739E+00-1.48373E-02 2.33391E-01 5.64559E-14-3.49108E-13
 -1      1773 1.87309E+01 4.43779E+00-1.48051E-02 8.11650E-02 3.98638E-14-3.56047E-13
 -1      1774 1.89126E+01 4.07987E+00-8.13942E-03 3.59861E-02 3.19589E-14-3.45823E-13
 -1      1775 1.87939E+01 4.37076E+00-1.15175E-02 5.26412E-01 9.90498E-14-3.38958E-13
 -1      1776 1.87338E+01 4.39185E+00-1.85568E-02 3.59629E-01 7.94671E-14-3.45439E-13
 -1      1777 1.88706E+01 4.06430E+00-8.08481E-03 2.72510E-01 7.57004E-14-3.37997E-13
 -1      1778 1.89836E+01 4.24074E+00-1.16680E-02 8.82619E-01 1.36530E-13-3.07015E-13
 -1      1779 1.88775E+01 4.27610E+00-1.99464E-02 6.86618E-01 1.12708E-13-3.28340E-13
 -1      1780 1.89987E+01 3.92717E+00-1.14090E-02 5.50337E-01 1.14115E-13-3.25655E-13
 -1      1781 1.92335E+01 4.07273E+00-1.55411E-02 1.31759E+00 1.82568E-13-2.63423E-13
 -1      1782 1.90998E+01 4.12256E+00-2.14043E-02 1.08471E+00 1.57115E-13-2.84233E-13
 -1      1783 1.92356E+01 3.72989E+00-1.19681E-02 9.14461E-01 1.64906E-13-2.89933E-13
 -1      1784 1.95480E+01 3.84300E+00-2.45280E-02 1.80759E+00 2.32715E-13-1.88811E-13
 -1      1785 1.93768E+01 3.92081E+00-2.66579E-02 1.54081E+00 2.01930E-13-2.34639E-13
 -1      1786 1.95319E+01 3.48498E+00-1.04622E-02 1.33882E+00 2.07738E-13-2.26014E-13
 -1      1787 2.00049E+01 3.45080E+00-4.49308E-02 2.32630E+00 2.68530E-13-5.81028E-14
 -1      1788 1.97450E+01 3.60826E+00-3.91201E-02 2.02747E+00 2.45755E-13-1.37817E-13
 -1      1789 1.99081E+01 3.13785E+00-6.13255E-03 1.77302E+00 2.55916E-13-1.44891E-13
 -1      1790 2.08620E+01 2.62868E+00-5.71415E-02 2.73651E+00 2.60982E-13 2.02255E-13
 -1      1791 2.03540E+01 3.03692E+00-4.95499E-02 2.48527E+00 2.56636E-13 4.72677E-14
 -1      1792 2.04618E+01 2.54136E+00 3.30121E-03 2.11386E+00 2.76213E-13 4.32987E-15
 -1      1793 2.16638E+01 1.18414E+00-1.20869E-01 2.23755E+00 2.32397E-13 5.08371E-13
 -1      1794 2.12147E+01 2.21968E+00 2.91871E-05 2.63099E+00 2.44046E-13 3.12889E-13
 -1      1795 2.08936E+01 1.63897E+00-2.26124E-02 2.03488E+00 2.67498E-13 1.96086E-13
 -1      1796 2.09164E+01 7.54803E-01-6.11537E-02 1.44837E+00 2.30552E-13 4.27901E-13
 -1      1797 2.13159E+01 2.40691E+00 9.46416E-02-3.16380E+00-2.03270E-13 2.21073E-13
 -1      1798 2.01096E+01 2.79708E-01-8.50216E-03 6.15205E-01 1.93463E-13 3.29825E-13
 -1      1799 2.06362E+01 4.19907E-01-1.24242E-02 9.77006E-01 1.85664E-13 3.85761E-13
 -1      1800 2.07226E+01 8.13264E-01 1.95565E-03 1.34110E+00 2.30021E-13 2.49738E-13
 -1      1801 2.10894E+01 1.64131E+00 8.02597E-02-2.46831E+00-2.16330E-13 1.35808E-13
 -1      1802 2.01947E+01 2.31687E-01 3.28195E-02-1.16491E+00-1.81390E-13 1.09520E-13
 -1      1803 1.99006E+01-1.29380E-01-1.37580E-02-8.82276E-01-1.81348E-13 6.61728E-14
 -1      1804 1.93717E+01-2.39533E-01-1.09597E-01-6.74402E-01-1.92795E-13 3.72116E-14
 -1      1805 1.92642E+01 1.75742E-01 1.22029E-02 3.65466E-01 1.20182E-14 8.93730E-14
 -1      1806 2.01327E+01 2.48457E-01 1.08342E-02-8.16956E-01-1.62420E-13-2.80140E-14
 -1      1807 1.86939E+01 9.52088E-01 2.21993E-01 3.17971E-01-1.21035E-13-8.80962E-14
 -1      1808 2.04142E+01 2.03153E+00 7.98533E-01-8.64328E-01-2.65024E-13 9.99201E-16
 -1      1809 2.08849E+01 3.20911E-01 4.21939E-01-1.17089E+00-2.80220E-13 6.18255E-14
 -1      1810 1.98219E+01 1.27720E+00 2.45970E-01-6.59062E-01-6.32550E-14-7.42670E-14
 -1      1811 1.98378E+01 6.95112E-01 2.68438E-02-5.85582E-01-2.44735E-14-7.49192E-14
 -1      1812 1.86366E+01 1.01663E+00-1.44435E-01-3.38241E-01-1.18718E-13-1.35079E-13
 -1      1813 2.00628E+01 3.77449E-01 2.00196E-02-4.70675E-01-3.35496E-14-6.19435E-14
 -1      1814 1.99602E+01 2.25676E-01-1.76314E-02-2.64660E-01-1.58849E-14-7.40363E-14
 -1      1815 1.97306E+01 7.29786E-01 3.62474E-02-4.06955E-01-2.92197E-14-1.04686E-13
 -1      1816 2.00379E+01 1.73769E-01 3.67337E-03-1.66587E-01-9.43516E-15-8.13585E-14
 -1      1817 1.99965E+01 1.42674E-01-1.76056E-03-6.33113E-02-8.23517E-15-8.24382E-14
 -1      1818 1.99829E+01 3.22329E-01 5.37589E-03-2.24888E-01-1.67019E-14-1.09930E-13
 -1      1819 2.00350E+01 1.32767E-01 4.19897E-03 3.17396E-02-4.42918E-14-7.29768E-14
 -1      1820 2.00592E+01 1.24303E-01 2.41338E-03 1.09517E-01-5.91758E-14-6.65375E-14
 -1      1821 2.00539E+01 2.14730E-01-1.80890E-03-5.06494E-03-2.72329E-14-8.48288E-14
 -1      1822 2.01135E+01 1.20145E-01 2.52077E-03 1.97128E-01-7.90843E-14-3.69392E-14
 -1      1823 2.01934E+01 1.19114E-01 2.73987E-03 2.69953E-01-5.59101E-14-3.54708E-14
 -1      1824 2.01403E+01 1.85877E-01-3.52245E-03 2.00360E-01-4.57425E-14-1.01000E-13
 -1      1825 2.02645E+01 1.25942E-01 2.93673E-03 3.45889E-01-4.27785E-14-2.74667E-14
 -1      1826 2.03761E+01 1.46129E-01 1.38674E-02 4.11486E-01-3.30695E-14-4.20963E-14
 -1      1827 2.02702E+01 1.82992E-01-1.47088E-03 3.82141E-01-7.97372E-14-5.55103E-14
 -1      1828 2.04584E+01 1.83945E-01 3.19089E-02 4.65122E-01-4.22713E-14-7.17018E-14
 -1      1829 2.05828E+01 2.16115E-01 8.13486E-02 4.72690E-01-1.51892E-14-6.12010E-14
 -1      1830 2.04235E+01 2.04217E-01 1.36699E-02 5.19566E-01-5.69310E-14-4.50783E-14
 -1      1831 2.05401E+01 1.35596E-01 7.26976E-02 4.43785E-01-1.22680E-14-8.51298E-14
 -1      1832 2.05362E+01 3.93803E-02 3.14358E-03 4.22297E-01-4.06294E-15-1.14219E-13
 -1      1833 2.06085E+01 2.26154E-01 7.50527E-02 5.89539E-01-4.49953E-14-3.74319E-14
 -1      1834 2.06486E+01 4.03751E-02 3.06183E-04 4.52731E-01 2.56045E-14-1.45943E-13
 -1      1835 2.08165E+01 4.14310E-02 2.89557E-03 4.76631E-01 1.39802E-14-1.21193E-13
 -1      1836 2.05260E+01 5.88819E-02-1.65157E-03 5.55061E-01-3.72180E-15-7.92028E-14
 -1      1837 2.09441E+01 3.96572E-02 2.68746E-04 5.07192E-01-1.37087E-15-7.76810E-14
 -1      1838 2.11288E+01 3.63845E-02 2.10008E-03 5.29180E-01-1.05299E-14-1.85802E-14
 -1      1839 2.07680E+01 5.92848E-02-1.71109E-03 6.23715E-01 3.97718E-14-8.31687E-14
 -1      1840 2.12715E+01 2.97200E-02 1.35860E-04 5.54081E-01 5.95769E-15 3.90233E-14
 -1      1841 2.14679E+01 1.92465E-02 4.73992E-04 5.67896E-01 4.86206E-14 7.88124E-14
 -1      1842 2.10399E+01 4.71953E-02-1.71033E-03 6.86401E-01 1.48774E-14 2.96205E-14
 -1      1843 2.16243E+01 5.04826E-03-1.14247E-04 5.77711E-01 2.30976E-14 8.87274E-14
 -1      1844 2.18214E+01-1.59694E-02-2.24339E-03 5.73806E-01 2.94821E-14 9.60523E-14
 -1      1845 2.13398E+01 1.47493E-02-1.58838E-03 7.26531E-01 4.44214E-14 5.19240E-14
 -1      1846 2.19875E+01-4.03964E-02-4.81584E-04 5.54993E-01-4.94787E-15 2.01020E-14
 -1      1847 2.21666E+01-7.47797E-02-6.14273E-03 5.20617E-01-9.04853E-15 1.60293E-14
 -1      1848 2.16616E+01-4.68755E-02-1.25161E-03 7.19058E-01-4.05357E-14 6.51358E-14
 -1      1849 2.23346E+01-1.10828E-01-9.69883E-04 4.56265E-01-1.73043E-14-1.69693E-14
 -1      1850 2.24683E+01-1.58499E-01-1.08646E-02 3.77316E-01-3.40778E-14-6.43279E-15
 -1      1851 2.19928E+01-1.44426E-01-5.29647E-04 6.30700E-01-2.74921E-14 1.10664E-13
 -1      1852 2.26242E+01-2.03457E-01-1.62586E-03 2.50736E-01-5.11171E-14-4.07641E-14
 -1      1853 2.26786E+01-2.57300E-01-1.52369E-02 1.17043E-01-8.18096E-15-4.71544E-14
 -1      1854 2.23110E+01-2.75755E-01 8.97664E-04 4.24371E-01-5.86675E-14-1.85388E-14
 -1      1855 2.27989E+01-3.00226E-01-2.68561E-03-7.95331E-02 6.55812E-14-3.64700E-14
 -1      1856 2.27407E+01-3.41297E-01-1.70837E-02-2.64244E-01 7.97461E-14-5.87941E-14
 -1      1857 2.25797E+01-4.18433E-01 3.46900E-03 7.19744E-02 1.82606E-14-8.53029E-14
 -1      1858 2.27916E+01-3.59692E-01-4.47403E-03-5.14657E-01 2.47111E-14-5.86732E-14
 -1      1859 2.26021E+01-3.56659E-01-1.36680E-02-7.19728E-01 1.27285E-14-2.63027E-15
 -1      1860 2.27449E+01-5.18101E-01 7.24705E-03-4.20405E-01 1.14625E-13-3.25969E-14
 -1      1861 2.25468E+01-3.20180E-01-6.76554E-03-9.67044E-01 1.93283E-14 6.49225E-14
 -1      1862 2.22403E+01-2.41944E-01-3.72103E-03-1.12728E+00 8.70970E-14 1.10733E-13
 -1      1863 2.27399E+01-4.90307E-01 1.10700E-02-9.76983E-01 4.83337E-14 7.27803E-15
 -1      1864 2.20637E+01-1.31431E-01-8.30088E-03-1.27174E+00 7.37414E-14 3.40214E-14
 -1      1865 2.17021E+01 2.44060E-02 1.00203E-02-1.30210E+00 7.56935E-14 7.58959E-14
 -1      1866 2.25141E+01-2.58052E-01 1.15545E-02-1.42692E+00 5.51161E-14 6.15215E-14
 -1      1867 2.14467E+01 1.88917E-01-5.58573E-03-1.23735E+00 8.72488E-14 3.43371E-14
 -1      1868 2.11314E+01 3.68174E-01 2.00672E-02-1.07821E+00 1.10760E-13-2.26260E-14
 -1      1869 2.20915E+01 1.71942E-01 4.54353E-03-1.53595E+00 5.55988E-14-1.57417E-14
 -1      1870 2.09129E+01 5.11772E-01 3.23387E-03-7.68428E-01 1.01069E-13-4.19786E-14
 -1      1871 2.07510E+01 6.17982E-01 1.94641E-02-4.45654E-01 4.87978E-14-1.82992E-15
 -1      1872 2.16230E+01 6.47364E-01-8.70745E-03-1.12919E+00 1.21108E-13-1.13366E-13
 -1      1873 2.06957E+01 6.54806E-01 1.44554E-02 1.07609E-02 1.89692E-14 9.63869E-14
 -1      1874 2.07474E+01 6.20721E-01 9.05918E-03 3.75311E-01 1.15706E-14 4.79278E-14
 -1      1875 2.13509E+01 9.23614E-01-1.88439E-02-2.67269E-01 1.01636E-13-6.22292E-14
 -1      1876 2.08918E+01 5.25853E-01 2.05876E-02 7.84644E-01-5.25691E-14 2.01497E-14
 -1      1877 2.11375E+01 3.73334E-01-2.26870E-03 1.04151E+00-4.55695E-14 2.21715E-14
 -1      1878 2.14395E+01 8.34193E-01-1.66823E-02 7.12127E-01-3.07549E-14 3.82702E-14
 -1      1879 2.13922E+01 2.08343E-01 1.61735E-02 1.24110E+00-3.62718E-14-6.32740E-14
 -1      1880 2.17446E+01 2.96317E-02-7.54398E-03 1.30921E+00-8.98088E-15-8.01512E-14
 -1      1881 2.18354E+01 4.36282E-01-2.84740E-03 1.39021E+00-7.09693E-14-9.98585E-14
 -1      1882 2.19751E+01-1.15657E-01 3.68732E-03 1.26629E+00 1.51923E-14-1.25823E-13
 -1      1883 2.23237E+01-2.37917E-01-7.59834E-03 1.16569E+00-9.66397E-14-1.04769E-13
 -1      1884 2.23126E+01-4.57779E-02 8.88579E-03 1.54745E+00-3.42652E-14-1.73600E-13
 -1      1885 2.24467E+01-3.13042E-01-8.92186E-03 9.60142E-01-2.45269E-13-7.27422E-14
 -1      1886 2.27061E+01-3.52888E-01-5.38538E-03 7.70003E-01-1.72237E-13-6.87104E-14
 -1      1887 2.26575E+01-3.92085E-01 1.22243E-02 1.25215E+00-1.14257E-13-1.56334E-13
 -1      1888 2.27104E+01-3.59638E-01-1.58754E-02 5.12950E-01-2.35421E-13-5.49387E-15
 -1      1889 2.28420E+01-3.37250E-01-3.21143E-03 3.13012E-01-2.39603E-13-1.45346E-14
 -1      1890 2.27818E+01-5.21385E-01 9.63551E-03 7.28715E-01-1.72365E-13-1.37488E-14
 -1      1891 2.27576E+01-3.03564E-01-1.65581E-02 8.58669E-02-2.27770E-13-5.32972E-15
 -1      1892 2.27652E+01-2.52853E-01-1.81807E-03-7.48312E-02-1.04294E-13 1.75502E-14
 -1      1893 2.27054E+01-4.77165E-01 5.38779E-03 1.91601E-01-2.31589E-13 1.14454E-13
 -1      1894 2.26296E+01-2.06542E-01-1.32236E-02-2.35859E-01-7.39413E-14-7.91275E-14
 -1      1895 2.25413E+01-1.53489E-01-9.40361E-04-3.40731E-01-6.34224E-14-1.24667E-13
 -1      1896 2.24926E+01-3.47163E-01 2.01456E-03-2.33679E-01-1.41226E-13 9.44553E-14
 -1      1897 2.23839E+01-1.11462E-01-8.47229E-03-4.32731E-01 8.89133E-15-1.12093E-13
 -1      1898 2.22351E+01-6.89734E-02-3.04305E-04-4.85957E-01 7.16430E-14-4.12580E-14
 -1      1899 2.22065E+01-2.03708E-01-3.02876E-05-5.08255E-01-1.03461E-14-4.33353E-14
 -1      1900 2.20748E+01-3.77950E-02-4.03698E-03-5.22202E-01 1.29638E-13-4.90903E-14
 -1      1901 2.18975E+01-9.11136E-03 2.05260E-04-5.36620E-01 1.23648E-13-4.85961E-14
 -1      1902 2.18933E+01-8.51241E-02-1.12767E-03-6.45671E-01 1.34370E-13 2.03858E-14
 -1      1903 2.17455E+01 1.08421E-02-6.69392E-04-5.34521E-01 2.51231E-14-5.76501E-14
 -1      1904 2.15634E+01 2.73703E-02 6.07923E-04-5.23935E-01 3.33751E-14-1.21466E-13
 -1      1905 2.15830E+01-2.79340E-03-1.67642E-03-6.80270E-01 1.10041E-13 1.64452E-15
 -1      1906 2.14258E+01 3.83083E-02 1.51749E-03-4.99019E-01 1.59253E-13-4.27079E-14
 -1      1907 2.12546E+01 4.58997E-02 8.91374E-04-4.74746E-01 1.94849E-13 1.84698E-13
 -1      1908 2.12934E+01 4.63208E-02-1.91818E-03-6.48197E-01 1.21993E-13 1.18455E-13
 -1      1909 2.11342E+01 5.05436E-02 2.71088E-03-4.38656E-01 4.06901E-14 9.44419E-14
 -1      1910 2.09824E+01 5.23212E-02 1.05316E-03-4.08696E-01-8.17010E-14 1.21055E-13
 -1      1911 2.10344E+01 7.03838E-02-1.97842E-03-5.79122E-01 4.75859E-14 8.19565E-14
 -1      1912 2.08799E+01 5.30138E-02 3.18522E-03-3.69219E-01-1.12875E-13 2.04241E-13
 -1      1913 2.07510E+01 5.14171E-02 1.10918E-03-3.38626E-01-1.54619E-13 2.77945E-13
 -1      1914 2.08101E+01 7.77831E-02-1.92248E-03-4.94257E-01-6.97837E-14 5.71973E-14
 -1      1915 2.06659E+01 4.98900E-02 3.19620E-03-3.00452E-01-1.79748E-13 3.43508E-13
 -1      1916 2.05600E+01 4.66169E-02 1.08667E-03-2.72064E-01-5.48986E-14 3.10745E-13
 -1      1917 2.06210E+01 7.52570E-02-1.79025E-03-4.07251E-01-1.09476E-13 4.12260E-13
 -1      1918 2.04908E+01 4.40400E-02 2.94266E-03-2.37673E-01 3.01484E-14 3.17848E-13
 -1      1919 2.04064E+01 4.01840E-02 1.01552E-03-2.12816E-01 2.20542E-13 3.20773E-13
 -1      1920 2.04655E+01 6.75869E-02-1.61119E-03-3.25973E-01 5.42335E-14 5.84262E-13
 -1      1921 2.03513E+01 3.73000E-02 2.56285E-03-1.83215E-01 3.19660E-13 8.26291E-14
 -1      1922 2.02857E+01 3.35238E-02 9.22265E-04-1.62255E-01 2.08206E-13 2.43393E-13
 -1      1923 2.03404E+01 5.79048E-02-1.40863E-03-2.54264E-01 1.12870E-13 3.19193E-13
 -1      1924 2.02428E+01 3.07816E-02 2.14393E-03-1.37529E-01 9.09325E-14 3.41903E-13
 -1      1925 2.01931E+01 2.74638E-02 8.26085E-04-1.20252E-01 1.85753E-13 3.96584E-13
 -1      1926 2.02417E+01 4.81429E-02-1.20025E-03-1.93342E-01 2.03365E-13 2.46207E-13
 -1      1927 2.01603E+01 2.51185E-02 1.73372E-03-9.99502E-02 1.50306E-13 2.61344E-13
 -1      1928 2.01240E+01 2.24490E-02 7.33367E-04-8.58175E-02 1.24656E-13 2.40084E-13
 -1      1929 2.01656E+01 3.94236E-02-9.98212E-04-1.42818E-01 7.63177E-14 1.24522E-13
 -1      1930 2.00995E+01 2.06175E-02 1.34859E-03-6.92274E-02-1.61271E-13 1.51724E-13
 -1      1931 2.00741E+01 1.86620E-02 6.48794E-04-5.75800E-02-2.92462E-13-2.11895E-14
 -1      1932 2.01082E+01 3.23248E-02-8.05412E-04-1.01420E-01-1.48305E-13 5.62446E-15
 -1      1933 2.00560E+01 1.72320E-02 9.65665E-04-4.38909E-02-1.42863E-13-8.77510E-14
 -1      1934 2.00396E+01 1.57825E-02 5.49099E-04-3.41756E-02-6.46156E-14-6.27144E-14
 -1      1935 2.00657E+01 2.70497E-02-5.95848E-04-6.75553E-02-3.08680E-13 1.21896E-13
 -1      1936 2.00277E+01 1.42878E-02 7.07577E-04-2.34998E-02 2.15678E-15-2.57095E-13
 -1      1937 2.00179E+01 1.25654E-02 4.86497E-04-1.58726E-02 1.23377E-15-2.10445E-13
 -1      1938 2.00168E+01 1.61181E-02-4.25780E-04-1.94668E-02-1.04134E-13-2.65952E-13
 -1      1939 2.00361E+01 2.19658E-02-6.61628E-04-4.04048E-02-1.45425E-13-1.79369E-13
 -1      1940 1.96563E+01 1.28379E-01 7.98186E-03 2.45429E-01 1.57378E-13 2.28654E-13
 -1      1941 1.99135E+01 1.87635E-01 1.59642E-02 4.05633E-01 1.70499E-13 2.99465E-13
 -1      1942 2.01177E+01 3.26045E-01-1.47686E-03 6.15765E-01 2.05143E-13 1.94553E-13
 -1      1943 1.94291E+01 6.62812E-02 7.09623E-03 6.02471E-02 1.04070E-13 1.42655E-13
 -1      1944 1.95376E+01 9.18261E-02 1.36571E-02 1.40610E-01 1.11132E-13 2.04486E-13
 -1      1945 1.97510E+01 1.50013E-01-1.73638E-03 2.45284E-01 1.43654E-13 1.37069E-13
 -1      1946 1.93466E+01 4.14426E-02 4.59081E-03-4.42607E-02 6.62265E-14 1.14802E-13
 -1      1947 1.93736E+01 5.23209E-02 8.00334E-03 2.66913E-03 7.66874E-14 1.36623E-13
 -1      1948 1.95656E+01 7.91564E-02-2.91286E-03 4.64037E-02 1.00348E-13 7.52007E-14
 -1      1949 1.93592E+01 3.09907E-02 3.00511E-03-1.14634E-01 2.94597E-14 8.99792E-14
 -1      1950 1.93372E+01 3.63971E-02 4.43678E-03-8.17956E-02 4.55469E-14 1.04387E-13
 -1      1951 1.94993E+01 5.08379E-02-3.46585E-03-7.44619E-02 4.88182E-14 2.51320E-14
 -1      1952 1.94403E+01 2.44727E-02 2.34055E-03-1.67961E-01 6.36470E-14 7.33514E-14
 -1      1953 1.93848E+01 2.82881E-02 2.71590E-03-1.42487E-01 4.13246E-14 8.71982E-14
 -1      1954 1.95167E+01 3.81162E-02-3.18232E-03-1.59567E-01 4.64813E-14 2.86820E-14
 -1      1955 1.95727E+01 1.98900E-02 2.28410E-03-2.09769E-01 9.75736E-14 2.67366E-14
 -1      1956 1.94921E+01 2.25367E-02 1.91554E-03-1.89268E-01 8.29551E-14 7.90603E-14
 -1      1957 1.95957E+01 3.02248E-02-2.50976E-03-2.24048E-01 8.88330E-14 1.28551E-14
 -1      1958 1.97450E+01 1.81915E-02 2.39531E-03-2.45024E-01 1.77731E-13-1.75244E-14
 -1      1959 1.96442E+01 1.93697E-02 1.55834E-03-2.27124E-01 1.54537E-13 2.15387E-14
 -1      1960 1.97203E+01 2.54852E-02-2.02233E-03-2.75215E-01 1.71289E-13 1.67615E-14
 -1      1961 1.99526E+01 1.92482E-02 1.77682E-03-2.78922E-01 5.81989E-14 3.06764E-15
 -1      1962 1.98338E+01 1.91987E-02 1.22991E-03-2.61583E-01 1.24170E-13 7.29673E-15
 -1      1963 1.98818E+01 2.45273E-02-2.05704E-03-3.20707E-01 1.45906E-13 3.12605E-14
 -1      1964 2.01998E+01 2.36446E-02-1.31261E-03-3.16529E-01 4.78374E-14 2.24820E-15
 -1      1965 2.00603E+01 2.18169E-02 8.46584E-05-2.98183E-01 5.99722E-14-1.77829E-14
 -1      1966 2.00789E+01 2.74642E-02-3.16008E-03-3.68042E-01 9.36792E-14 2.97780E-14
 -1      1967 2.05010E+01 3.44414E-02 3.22702E-03-3.71229E-01-3.10715E-14 5.22629E-15
 -1      1968 2.03360E+01 3.22540E-02 3.45787E-04-3.41987E-01 1.45868E-14 1.42568E-14
 -1      1969 2.03149E+01 3.76263E-02-4.13914E-03-4.25889E-01 6.81258E-15 4.23520E-14
 -1      1970 2.08342E+01 4.27863E-02 3.51876E-03-4.38765E-01 6.57933E-14-4.86601E-14
 -1      1971 2.06462E+01 4.04175E-02 1.82792E-03-4.04475E-01 1.69313E-14-4.64667E-15
 -1      1972 2.05933E+01 5.23784E-02-2.19787E-03-4.98259E-01 3.94055E-14-3.34258E-15
 -1      1973 2.12250E+01 4.96232E-02 3.61616E-03-5.19395E-01 2.64053E-14-1.17770E-13
 -1      1974 2.10045E+01 4.84305E-02 1.97532E-03-4.78350E-01-3.69496E-16-1.31394E-13
 -1      1975 2.09099E+01 6.34040E-02-2.53368E-03-5.88523E-01 6.18589E-14-9.60200E-14
 -1      1976 2.16790E+01 5.16958E-02 3.25598E-03-6.07879E-01 5.26087E-14-4.95368E-14
 -1      1977 2.14230E+01 5.32231E-02 1.89841E-03-5.62380E-01 4.12023E-14-9.60052E-14
 -1      1978 2.12791E+01 7.02642E-02-2.94256E-03-6.91586E-01 4.83233E-14-1.36935E-13
 -1      1979 2.21953E+01 4.35807E-02 2.07465E-03-6.91768E-01 2.05458E-14 4.65448E-14
 -1      1980 2.19054E+01 5.02973E-02 1.41979E-03-6.47667E-01 3.60760E-14 1.20715E-14
 -1      1981 2.17043E+01 6.70042E-02-3.38154E-03-7.97486E-01 1.76248E-15-4.96463E-14
 -1      1982 2.27608E+01 1.70585E-02-3.16689E-04-7.47343E-01 8.74821E-15 4.35277E-14
 -1      1983 2.24472E+01 3.25159E-02 3.56739E-04-7.16184E-01 1.37308E-14 5.30995E-14
 -1      1984 2.21835E+01 4.41648E-02-3.74597E-03-8.85786E-01 5.18663E-14 9.31943E-14
 -1      1985 2.33431E+01-3.83392E-02-4.09447E-03-7.35331E-01 5.21035E-14 5.48502E-14
 -1      1986 2.30294E+01-1.00676E-02-1.39398E-03-7.36688E-01 6.63011E-14 6.86725E-14
 -1      1987 2.27051E+01-1.14837E-02-3.78982E-03-9.20847E-01 2.64739E-14 5.33761E-14
 -1      1988 2.38830E+01-1.31183E-01-8.74448E-03-5.99821E-01-2.11817E-13 4.40099E-14
 -1      1989 2.36107E+01-8.80291E-02-3.73817E-03-6.62085E-01-8.70159E-14 3.77831E-14
 -1      1990 2.32431E+01-1.14146E-01-3.01555E-03-8.48433E-01-6.89887E-14 5.20061E-14
 -1      1991 2.42894E+01-2.56776E-01-1.25300E-02-2.79120E-01-1.28052E-13 1.24333E-13
 -1      1992 2.41187E+01-2.04513E-01-6.28795E-03-4.34059E-01-2.05178E-13 7.59111E-14
 -1      1993 2.37495E+01-2.68553E-01-5.88947E-04-5.99665E-01-1.80765E-13 5.42457E-14
 -1      1994 2.44444E+01-3.78451E-01-1.25311E-02 2.58785E-01-6.15038E-14 1.59053E-13
 -1      1995 2.44450E+01-3.39006E-01-8.45409E-03-5.79974E-03-7.06293E-14 1.32841E-13
 -1      1996 2.41471E+01-4.49075E-01 4.21809E-03-1.14573E-01-9.14633E-14 8.20453E-14
 -1      1997 2.42310E+01-4.11126E-01-6.36766E-03 9.49872E-01 1.40300E-13 1.67984E-13
 -1      1998 2.44567E+01-4.27023E-01-9.65583E-03 6.07632E-01 5.85764E-14 1.71634E-13
 -1      1999 2.43277E+01-5.73763E-01 1.08262E-02 6.02738E-01 3.99420E-14 1.03398E-13
 -1      2000 2.35922E+01-2.43812E-01 2.34947E-03 1.55605E+00 3.57527E-15 8.03871E-14
 -1      2001 2.40410E+01-3.57179E-01-1.00533E-02 1.25645E+00 7.99916E-14 1.40705E-13
 -1      2002 2.41712E+01-4.97391E-01 1.56283E-02 1.39983E+00 9.39578E-14 1.39354E-13
 -1      2003 2.26543E+01 1.42976E-01 5.67642E-03 1.69013E+00-5.30617E-14 4.88394E-14
 -1      2004 2.32203E+01-4.82657E-02-7.42280E-03 1.62244E+00-8.23242E-14 7.72160E-14
 -1      2005 2.36297E+01-1.15168E-01 9.65362E-03 1.91292E+00-3.80138E-14 8.33066E-14
 -1      2006 2.17764E+01 5.78860E-01-6.93486E-03 1.08759E+00 2.08080E-14 1.06437E-13
 -1      2007 2.22621E+01 4.08040E-01-2.70577E-03 1.37497E+00-5.81861E-14 5.07754E-14
 -1      2008 2.28841E+01 4.87897E-01-6.43675E-03 1.72634E+00-3.48471E-14 1.54392E-13
 -1      2009 2.14572E+01 7.42759E-01-2.24077E-02-9.57029E-02 2.09274E-13 8.61776E-14
 -1      2010 2.16316E+01 7.36131E-01 6.83457E-03 4.50587E-01 1.38330E-13 1.00933E-13
 -1      2011 2.23292E+01 9.66290E-01-2.41757E-02 6.87153E-01 1.12688E-13 3.15681E-14
 -1      2012 2.19213E+01 5.00265E-01-2.34553E-02-1.22691E+00 2.12486E-13 9.69710E-14
 -1      2013 2.16800E+01 6.67257E-01 1.13464E-02-7.19245E-01 2.37990E-13 1.23708E-13
 -1      2014 2.23531E+01 9.63463E-01-2.24158E-02-7.29562E-01 2.84661E-13 1.33925E-13
 -1      2015 2.28980E+01 5.37420E-02-6.78950E-03-1.72197E+00-7.77529E-14-1.61385E-13
 -1      2016 2.23569E+01 2.65506E-01 7.03650E-03-1.50265E+00 5.31727E-14-2.96221E-14
 -1      2017 2.29394E+01 4.83333E-01-4.46677E-03-1.74722E+00 1.32444E-13 3.77285E-14
 -1      2018 2.38621E+01-2.91502E-01 1.07427E-02-1.48881E+00 7.27283E-14-1.98570E-13
 -1      2019 2.32706E+01-1.64394E-01-3.10593E-03-1.58208E+00-4.01467E-14-1.62217E-13
 -1      2020 2.36851E+01-1.25333E-01 7.81008E-03-1.91566E+00-1.07952E-14-6.34354E-14
 -1      2021 2.44430E+01-4.05959E-01 1.63069E-02-8.47577E-01-6.07743E-14-1.93266E-13
 -1      2022 2.40163E+01-3.90896E-01-1.19893E-02-1.11190E+00 4.26291E-14-1.76642E-13
 -1      2023 2.41954E+01-5.13719E-01 4.34346E-03-1.38371E+00 6.73741E-14 6.33729E-14
 -1      2024 2.45612E+01-3.46529E-01 1.29159E-02-1.71015E-01-1.34241E-13-2.31799E-13
 -1      2025 2.43852E+01-3.98610E-01-1.51180E-02-4.51431E-01-1.32679E-13-3.15406E-13
 -1      2026 2.43291E+01-5.84428E-01-2.30795E-03-5.87855E-01-7.34291E-14-9.83027E-14
 -1      2027 2.43140E+01-2.21823E-01 6.31766E-03 3.32364E-01-7.90860E-15-4.32266E-13
 -1      2028 2.43668E+01-2.89499E-01-1.31970E-02 1.21439E-01-1.21354E-13-3.17895E-13
 -1      2029 2.41410E+01-4.54684E-01-5.45589E-03 1.20767E-01-6.06702E-14-3.67518E-13
 -1      2030 2.38461E+01-1.04233E-01 9.91441E-04 6.17169E-01 1.26480E-13-1.64877E-13
 -1      2031 2.40555E+01-1.59420E-01-9.04493E-03 4.95224E-01 7.87044E-14-3.02087E-13
 -1      2032 2.37471E+01-2.67814E-01-5.14956E-03 5.94157E-01 1.43149E-14-3.29548E-13
 -1      2033 2.32817E+01-2.12314E-02-1.88743E-03 7.23895E-01 1.33393E-13-1.01631E-13
 -1      2034 2.35720E+01-5.63924E-02-4.64254E-03 6.75253E-01 8.80125E-14-1.20433E-14
 -1      2035 2.32528E+01-1.08524E-01-3.41326E-03 8.30863E-01 1.92043E-14 1.07019E-14
 -1      2036 2.27064E+01 2.67705E-02-2.81353E-03 7.15159E-01 1.00430E-13-2.13806E-13
 -1      2037 2.30192E+01 8.78299E-03-1.08936E-03 7.14716E-01 1.76028E-13-9.94508E-14
 -1      2038 2.27332E+01-2.80221E-03-1.77200E-03 8.91841E-01 1.73026E-13 3.36879E-14
 -1      2039 2.21709E+01 4.90926E-02-2.66838E-03 6.44593E-01 2.70088E-14-1.96405E-13
 -1      2040 2.24693E+01 4.26743E-02 1.29575E-03 6.70534E-01 1.46727E-14-2.39867E-13
 -1      2041 2.22354E+01 5.46470E-02-7.63893E-04 8.45549E-01 1.32377E-13 5.03545E-14
 -1      2042 2.17002E+01 5.55100E-02-2.11470E-03 5.48780E-01-1.30644E-13-2.29627E-13
 -1      2043 2.19650E+01 5.57684E-02 2.61970E-03 5.86014E-01-1.62134E-14-2.32282E-13
 -1      2044 2.17858E+01 7.86281E-02-3.21862E-04 7.45453E-01-2.69335E-14 7.46560E-14
 -1      2045 2.13027E+01 5.33121E-02-1.50449E-03 4.49351E-01-1.01330E-13-1.03137E-13
 -1      2046 2.15266E+01 5.68699E-02 3.15254E-03 4.88824E-01-2.17250E-13-1.62486E-13
 -1      2047 2.13965E+01 8.27667E-02-2.21264E-04 6.26566E-01-2.02885E-13-7.69946E-14
 -1      2048 2.09770E+01 4.71471E-02-9.81863E-04 3.57487E-01-1.28913E-13 1.48565E-13
 -1      2049 2.11599E+01 5.19583E-02 3.17816E-03 3.94420E-01-1.05809E-13 4.39490E-14
 -1      2050 2.10700E+01 7.66868E-02-2.70035E-04 5.09021E-01-1.79445E-13 1.01247E-13
 -1      2051 2.07166E+01 3.96931E-02-5.82562E-04 2.77919E-01-4.03189E-14 3.82186E-13
 -1      2052 2.08621E+01 4.46363E-02 2.92305E-03 3.10205E-01-3.43133E-14 2.75550E-13
 -1      2053 2.08032E+01 6.63123E-02-3.52722E-04 4.02866E-01-1.88906E-13 1.86820E-13
 -1      2054 2.05126E+01 3.23650E-02-2.96167E-04 2.11739E-01 1.20597E-13 8.39903E-14
 -1      2055 2.06259E+01 3.68874E-02 2.54248E-03 2.38799E-01 7.65690E-14 2.72943E-13
 -1      2056 2.05899E+01 5.49476E-02-4.16303E-04 3.12003E-01 8.17087E-14 2.41834E-13
 -1      2057 2.03560E+01 2.58413E-02-9.73456E-05 1.58160E-01-2.65139E-13 1.24261E-13
 -1      2058 2.04423E+01 2.97103E-02 2.13176E-03 1.80224E-01-1.80992E-13 1.11746E-13
 -1      2059 2.04227E+01 4.42717E-02-4.45316E-04 2.36896E-01-5.52274E-14 2.96626E-13
 -1      2060 2.02380E+01 2.04089E-02 3.89074E-05 1.15520E-01 1.26220E-13 3.26388E-13
 -1      2061 2.03024E+01 2.35563E-02 1.74267E-03 1.33212E-01-1.60952E-13 1.82206E-13
 -1      2062 2.02940E+01 3.50492E-02-4.42251E-04 1.76244E-01-1.55728E-13 2.16343E-13
 -1      2063 2.01512E+01 1.61572E-02 1.30239E-04 8.18132E-02 1.86315E-13 4.44176E-13
 -1      2064 2.01980E+01 1.85963E-02 1.39819E-03 9.59361E-02 3.09177E-13 5.26243E-13
 -1      2065 2.01970E+01 2.75650E-02-4.18849E-04 1.27940E-01 1.58038E-13 2.86018E-13
 -1      2066 2.00892E+01 1.30410E-02 1.78501E-04 5.49847E-02 8.40316E-15 4.85296E-13
 -1      2067 2.01221E+01 1.48476E-02 1.10145E-03 6.63940E-02 8.93250E-14 4.91816E-13
 -1      2068 2.01255E+01 2.18595E-02-3.85773E-04 8.95947E-02 8.59462E-14 4.75359E-13
 -1      2069 2.00472E+01 1.08602E-02 1.71771E-04 3.32526E-02-1.25793E-13 3.70811E-13
 -1      2070 2.00689E+01 1.21598E-02 8.34585E-04 4.27032E-02-3.64874E-14 4.38287E-13
 -1      2071 2.00743E+01 1.77075E-02-3.67236E-04 5.89120E-02 2.34483E-14 3.33422E-13
 -1      2072 2.00209E+01 9.20397E-03 2.79795E-04 1.55842E-02 2.17214E-14 2.88700E-13
 -1      2073 2.00335E+01 1.01369E-02 5.66929E-04 2.33915E-02-1.09820E-13 3.00444E-13
 -1      2074 2.00390E+01 1.47518E-02-3.14852E-04 3.40580E-02-7.82934E-14 3.97584E-13
 -1      2075 2.00086E+01 7.04903E-03 3.88693E-04 5.26147E-03 1.27313E-13 3.42134E-13
 -1      2076 2.00150E+01 8.94980E-03 3.65534E-04 1.09782E-02 3.70908E-14 3.89908E-13
 -1      2077 2.00194E+01 1.29644E-02-1.98075E-04 1.77447E-02 3.64301E-14 3.13744E-13
 -1      2078 2.00095E+01 9.88798E-03 6.64832E-05 8.06237E-03 2.09736E-13 5.99720E-13
 -1      2079 2.00032E+01 7.98179E-02-2.38361E-04 4.46334E-02 3.44988E-13 1.65526E-13
 -1      2080 2.00065E+01 6.55197E-02 4.04884E-04 4.18166E-02 2.19927E-13 2.39343E-14
 -1      2081 2.00092E+01 5.01131E-02-4.76440E-05 3.65359E-02 1.97862E-13-2.14973E-13
 -1      2082 2.00115E+01 3.80733E-02 4.23882E-04 3.04678E-02 1.86839E-13-2.62765E-15
 -1      2083 2.00117E+01 6.53949E-02-8.10753E-05 5.18528E-02 2.29151E-13 2.65164E-14
 -1      2084 2.00114E+01 2.69244E-02 1.01134E-04 2.28377E-02 1.75201E-13-7.81559E-15
 -1      2085 2.00115E+01 1.82556E-02 3.19966E-04 1.58993E-02 1.15540E-13 2.27962E-13
 -1      2086 2.00164E+01 2.02557E-02 1.85337E-04 2.06715E-02 3.86487E-14 2.35929E-13
 -1      2087 2.00161E+01 3.93182E-02-2.65120E-04 3.70955E-02 5.64096E-14-4.04873E-14
 -1      2088 1.99969E+01 1.09614E-01-4.22501E-04 4.47869E-02 2.29435E-13-3.43222E-13
 -1      2089 2.00002E+01 9.52361E-02 2.04807E-04 4.55611E-02 2.50115E-13-3.53731E-14
 -1      2090 2.00027E+01 9.59911E-02 1.19585E-04 5.85144E-02 5.52790E-14-6.40739E-14
 -1      2091 1.99912E+01 1.36198E-01-5.67156E-04 3.70762E-02 9.86260E-14-5.90655E-14
 -1      2092 1.99940E+01 1.23614E-01-5.45306E-05 4.12135E-02 1.27946E-13-3.22608E-14
 -1      2093 1.99936E+01 1.25309E-01 3.36100E-04 5.52995E-02 8.51675E-14-1.86487E-13
 -1      2094 1.99873E+01 1.55076E-01-6.34268E-04 2.30003E-02 3.98461E-14 1.00936E-13
 -1      2095 1.99891E+01 1.46633E-01-3.10776E-04 2.96644E-02 6.52967E-14 1.24392E-13
 -1      2096 1.99858E+01 1.49702E-01 5.25009E-04 4.27034E-02 6.11373E-14 3.13831E-14
 -1      2097 1.99856E+01 1.63457E-01-6.09658E-04 5.10364E-03 1.58471E-14-2.36509E-14
 -1      2098 1.99862E+01 1.60543E-01-5.10638E-04 1.30905E-02-5.66517E-14 2.46690E-14
 -1      2099 1.99808E+01 1.65594E-01 6.46163E-04 2.30101E-02-6.37426E-15 4.01050E-14
 -1      2100 1.99863E+01 1.60148E-01-4.92666E-04-1.35638E-02 2.22788E-13-4.09148E-14
 -1      2101 1.99857E+01 1.63232E-01-6.23491E-04-5.62561E-03 1.00200E-13 2.83420E-13
 -1      2102 1.99791E+01 1.70833E-01 6.82173E-04-3.99069E-04-1.98017E-13 2.36884E-13
 -1      2103 1.99894E+01 1.45726E-01-3.00715E-04-2.98841E-02 4.08756E-13-2.83619E-15
 -1      2104 1.99875E+01 1.54296E-01-6.34622E-04-2.33463E-02 3.86696E-13-8.52602E-14
 -1      2105 1.99810E+01 1.64751E-01 6.27711E-04-2.36552E-02-3.53836E-15-2.08178E-15
 -1      2106 1.99941E+01 1.22919E-01-5.18194E-05-4.09661E-02 3.64463E-13-3.45259E-13
 -1      2107 1.99914E+01 1.35278E-01-5.59413E-04-3.70009E-02 3.93309E-13-1.41647E-13
 -1      2108 1.99861E+01 1.48427E-01 5.06953E-04-4.28416E-02 3.03311E-13-2.29318E-14
 -1      2109 2.00002E+01 9.43788E-02 2.03035E-04-4.51957E-02 3.38609E-13 3.17527E-13
 -1      2110 1.99969E+01 1.08940E-01-4.13426E-04-4.44517E-02 4.01693E-13 1.19390E-13
 -1      2111 1.99937E+01 1.24047E-01 3.07382E-04-5.49787E-02 2.81849E-13-1.57574E-13
 -1      2112 2.00064E+01 6.46219E-02 3.91985E-04-4.14344E-02 2.00589E-13-4.89577E-14
 -1      2113 2.00032E+01 7.88652E-02-2.30465E-04-4.42257E-02 2.29771E-13 1.60181E-13
 -1      2114 2.00026E+01 9.46240E-02 8.12643E-05-5.80119E-02 2.38066E-13 1.67421E-13
 -1      2115 2.00109E+01 3.66201E-02 5.98673E-05-3.02082E-02 4.96631E-14-3.23061E-13
 -1      2116 2.00091E+01 4.94319E-02-2.18769E-05-3.61789E-02 1.30714E-13-3.43252E-13
 -1      2117 2.00115E+01 6.43022E-02-4.13820E-05-5.12600E-02-5.62312E-14-1.43059E-13
 -1      2118 1.01445E+01-5.28319E+00-1.93624E-01 6.18073E+00 3.55271E-14 4.99392E-13
 -1      2119 6.58916E+00-6.70883E+00-3.98825E-01 5.04133E+00-1.67311E-13 6.05627E-13
 -1      2120 6.57080E-01-6.09871E+00-2.53999E-01 5.83281E-01-2.09721E-13 7.45626E-13
 -1      2121 7.52459E-01-6.32604E+00-2.86011E-01-1.21018E+00-4.48641E-13 4.71512E-13
 -1      2122 3.77975E+00-6.17284E+00-2.50674E-01 4.19873E+00-1.85629E-13 8.01859E-13
 -1      2123 1.79242E+00-6.61646E+00-3.20358E-01 2.71291E+00-3.23824E-13 8.76577E-13
 -1      2124 1.95959E+01-3.71649E+00-4.99799E-02 6.72102E+00 1.79023E-13 3.65818E-13
 -1      2125 1.42687E+01-5.34464E+00-3.26019E-01 6.00747E+00 4.51861E-14 5.47479E-13
 -1      2126 2.95335E+01-3.33887E-01 1.81956E-01 5.11927E+00 4.42174E-13 2.39808E-13
 -1      2127 2.44173E+01-2.51684E+00-1.28727E-01 5.00777E+00 3.60378E-13 1.73861E-13
 -1      2128 1.93615E+01 3.91248E+00-2.80245E-02-1.73231E+00-1.60032E-13-3.67180E-13
 -1      2129 1.94603E+01 3.83986E+00-2.48172E-02-1.99268E+00-1.90490E-13-3.20410E-13
 -1      2130 1.97716E+01 3.12444E+00-1.81606E-02-1.95510E+00-1.99523E-13-2.88320E-13
 -1      2131 1.95655E+01 3.48975E+00-6.47080E-03-1.54264E+00-1.67923E-13-3.59107E-13
 -1      2132 3.96169E+01 6.34319E+00 3.24089E-01 7.77833E-01 4.69513E-13-6.72518E-14
 -1      2133 3.71464E+01 5.30734E+00 1.44784E-01 1.54085E+00 4.35152E-13 2.97540E-14
 -1      2134 4.03219E+01 7.04503E+00 2.88052E-01-5.22655E-01 3.67761E-13-9.30089E-14
 -1      2135 3.99180E+01 7.13735E+00 2.46649E-01 5.35583E-01 4.91607E-13 3.81778E-14
 -1      2136 3.62775E+01 5.47587E+00 1.81832E-02-9.61743E-01 3.52274E-13-2.21934E-13
 -1      2137 3.99097E+01 6.51050E+00 4.07299E-01-7.07180E-01 3.21299E-13-3.46390E-14
 -1      2138 3.54277E+01 7.61909E+00 2.77308E-01 4.23804E-01 3.72424E-13-3.63876E-14
 -1      2139 3.18957E+01 1.07833E+00 1.99435E-02-2.74181E+00 3.29951E-13-1.91847E-13
 -1      2140 3.52978E+01 2.99185E+00 1.31509E-01-1.93442E+00 2.68341E-13-1.90625E-13
 -1      2141 2.38964E+01-2.45158E+00-1.39187E-01-5.30591E+00 2.86382E-13-2.23488E-13
 -1      2142 2.89228E+01-8.15498E-01 6.58313E-02-4.95334E+00 3.15359E-13-2.74558E-13
 -1      2143 1.51585E+01-5.24598E+00-2.96095E-01-6.05974E+00 1.49158E-13-2.96513E-13
 -1      2144 2.01271E+01-3.68902E+00-1.17590E-02-6.65905E+00 2.49134E-13-1.87239E-13
 -1      2145 7.05382E+00-6.70236E+00-4.30270E-01-5.12303E+00-1.08136E-13-5.81243E-13
 -1      2146 1.07271E+01-5.16676E+00-2.06599E-01-6.24923E+00 1.18128E-13-5.54966E-13
 -1      2147 1.78222E+00-7.36378E+00-4.56539E-01-2.74487E+00-2.34646E-13-5.36016E-13
 -1      2148 3.92672E+00-6.27498E+00-2.79244E-01-4.29133E+00-1.09524E-13-5.67435E-13
 -1      2149 2.41173E-01-6.84442E+00-3.64203E-01 3.42740E-01-1.41345E-13-3.07254E-13
 -1      2150 4.90867E-01-7.26306E+00-4.20901E-01-1.26957E+00-9.86988E-14-4.94160E-13
 -1      2151 2.53305E+00-4.87713E+00-1.97336E-01-2.69859E+00-1.37140E-13-5.01654E-13
 -1      2152 3.27307E+00-6.17436E+00-2.96977E-01 4.17915E+00-2.53242E-13-2.91211E-13
 -1      2153 1.17981E+00-7.08256E+00-4.28474E-01 2.37099E+00-2.02588E-13-2.92211E-13
 -1      2154 1.01145E+01-5.14868E+00-1.90467E-01 6.35791E+00-4.48419E-13-8.53831E-14
 -1      2155 6.90957E+00-6.25993E+00-2.64156E-01 5.52131E+00-3.65930E-13-8.59035E-14
 -1      2156 1.82894E+01-2.91411E+00-2.28722E-02 6.99840E+00-3.05977E-13-2.53408E-13
 -1      2157 1.36725E+01-4.87532E+00-3.42851E-01 6.14186E+00-4.25215E-13-1.26260E-13
 -1      2158 2.73242E+01-6.93804E-01 2.52565E-02 5.59205E+00-1.68532E-13-1.82965E-13
 -1      2159 2.22559E+01-2.15681E+00-1.59812E-01 5.84393E+00-1.96287E-13-2.15494E-13
 -1      2160 3.55195E+01 3.52105E+00 4.29340E-01 4.04788E+00-1.96045E-13-1.54543E-13
 -1      2161 3.10662E+01 1.64319E+00 1.19142E-01 4.17492E+00-2.33202E-13-1.52545E-13
 -1      2162 3.96152E+01 6.05962E+00 3.76070E-01 1.70421E+00-2.22378E-13-1.69420E-13
 -1      2163 3.71928E+01 5.09335E+00 2.68356E-01 2.98218E+00-2.31426E-13-2.47136E-13
 -1      2164 4.03926E+01 7.17583E+00 3.71298E-01-3.26481E-01-2.16271E-13-1.43760E-13
 -1      2165 3.96105E+01 7.07776E+00 2.93461E-01 8.42955E-01-1.97231E-13-1.75471E-13
 -1      2166 3.87542E+01 6.02593E+00 2.83107E-01-2.15644E+00-3.39562E-13-1.03029E-13
 -1      2167 4.05999E+01 6.70072E+00 4.07553E-01-9.24217E-01-2.88713E-13-2.05364E-13
 -1      2168 3.34928E+01 3.17668E+00 1.15812E-01-2.98799E+00-4.92814E-13-1.53932E-13
 -1      2169 3.77980E+01 4.84857E+00 4.85022E-01-2.95514E+00-3.77864E-13-2.06668E-13
 -1      2170 3.53621E+01 5.57280E+00 2.71587E-01-3.07935E-01-3.17302E-13-3.32179E-13
 -1      2171 2.57481E+01-1.00366E+00-5.23514E-02-5.33957E+00-3.81639E-13-3.44169E-14
 -1      2172 3.03685E+01 3.98413E-01 7.19040E-02-4.34456E+00-3.32484E-13-8.64864E-14
 -1      2173 1.76134E+01-4.31463E+00-1.49337E-01-6.31651E+00-2.84384E-13 1.69614E-13
 -1      2174 2.23050E+01-2.10628E+00 9.26463E-02-6.74851E+00-3.61045E-13-3.02536E-14
 -1      2175 2.56331E+01-3.40952E+00 8.90136E-02-4.58710E+00-1.11633E-13-3.33289E-13
 -1      2176 7.59316E+00-6.49154E+00-4.06009E-01-5.38364E+00-4.22828E-13 3.55133E-14
 -1      2177 1.21585E+01-4.98246E+00-2.14075E-01-6.69914E+00-2.99427E-13 3.09558E-13
 -1      2178 1.68972E+00-6.95305E+00-3.70888E-01-2.83850E+00-4.82114E-13 2.08944E-13
 -1      2179 3.84732E+00-6.06399E+00-2.82195E-01-4.49450E+00-3.53328E-13 2.84217E-14
 -1      2180 2.69872E+00-4.22620E+00-1.20549E-01-2.45190E+00-6.46705E-14 2.70783E-13
 -1      2181 3.61202E+01 3.28477E+00 2.48153E-01 2.92005E+00 4.85278E-13 1.33227E-13
 -1      2182 3.20828E+01 1.66301E+00 3.85354E-02 3.75705E+00 5.86711E-13 1.20570E-13
 -1      2183 2.39395E+01-4.45692E+00 4.40368E-02 5.07102E+00-1.26565E-14 1.14492E-13
 -1      2184 2.02978E+01 9.57818E-01-2.30031E-02-1.81979E+00-2.08018E-13 7.90531E-14
 -1      2185 3.10244E+01-6.65507E-01 1.51844E-01 2.08561E+00 3.44523E-13-1.66089E-13
 -1      2186 3.46764E+01 4.04521E+00 2.34342E-01 1.37611E-01 4.22995E-13-2.60514E-13
 -1      2187 2.03640E+01 1.07495E+00-3.67414E-02-1.81841E+00-2.16134E-13-4.55903E-14
 -1      2188 7.18914E+00-5.31908E+00-1.42489E-01 5.58864E+00-3.10252E-13 6.62304E-13
 -1      2189 2.76209E+00-4.14515E+00-9.29368E-02 2.00060E+00-2.94681E-13 7.80709E-13
 -1      2190 2.00135E+01 3.08865E-02 1.93171E-04-2.77832E-02-1.07941E-13-2.72717E-13
 -1      2191 1.48382E+01-5.66651E+00-4.29613E-02 6.73168E+00-2.15716E-13 5.20769E-13
 -1      2192 1.65589E+01-4.93979E+00-3.06782E-03-6.65251E+00-8.43214E-14 1.63952E-13
 -1      2193 2.01708E+01-5.51901E+00-1.90922E-01-6.22849E+00 8.73468E-14-1.82132E-13
 -1      2194 1.56856E+01-5.16767E+00 1.60196E-01-6.98021E+00 4.77396E-15-9.48547E-15
 -1      2195 3.17640E+01 1.02075E+00 1.04097E-01-2.47837E+00-4.20514E-13-3.29792E-13
 -1      2196 3.17793E+01 1.44565E+00-1.17449E-01-2.73664E-01-3.41394E-13-5.36016E-13
 -1      2197 2.96813E+01-9.94781E-01 9.30366E-02-1.76855E+00-1.77171E-13-3.98848E-13
 -1      2198 3.62577E+01 7.91614E+00 3.34395E-01-3.78050E-02-2.67897E-13-1.83117E-13
 -1      2199 3.61569E+01 7.25436E+00 3.26950E-01 1.36535E-01-2.43694E-13-1.77580E-13
 -1      2200 3.43917E+01 3.84891E+00 2.53786E-01 9.55542E-01-1.13215E-13-3.49720E-14
 -1      2201 2.95076E+01-3.97536E-01 1.08345E-01 3.68836E+00-1.36113E-13-1.37779E-13
 -1      2202 2.81381E+01-2.42541E+00 1.45835E-01 2.98998E+00-1.22222E-13-9.93650E-15
 -1      2203 3.03780E+01-6.24235E-01-1.66678E-01 1.27128E+00-1.95816E-14-2.44804E-14
 -1      2204 2.24690E+01-4.02700E+00 5.86350E-02 5.81004E+00-2.56184E-13-1.63008E-13
 -1      2205 1.43460E+01-5.54108E+00-1.31089E-01 6.86370E+00-3.29459E-13-7.80626E-14
 -1      2206 1.90294E+00-4.79504E+00-1.75522E-01 1.64542E+00-7.61197E-14-3.28182E-13
 -1      2207 7.39910E+00-5.57177E+00-1.62319E-01-5.66897E+00-1.41664E-13-6.03795E-13
 -1      2208 1.56664E+01-5.61654E+00 7.95245E-03-6.76236E+00-4.76286E-14-3.21097E-13
 -1      2209 2.38001E+01-4.62126E+00 1.81436E-02-5.09635E+00 1.60094E-13-1.46078E-13
 -1      2210 3.40129E+01 3.86414E+00 1.15893E-01 3.95472E-01 2.62568E-13-4.06342E-14
 -1      2211 3.56904E+01 7.46259E+00 2.80843E-01-3.71970E-01 4.01346E-13-2.50661E-13
 -1      2212 3.06140E+01-9.16321E-01 1.43402E-01-2.12705E+00 1.92041E-13-1.12133E-13
 -1      2213 6.29775E+00-5.58406E+00-1.66582E-01 5.33391E+00-1.99230E-13-1.86046E-13
 -1      2214 6.15079E+00-3.99288E+00 8.27411E-02 5.27013E+00-9.57567E-15-1.96787E-13
 -1      2215 9.50088E+00-4.86252E+00-9.66419E-02 6.50862E+00-1.06026E-13-5.95357E-14
 -1      2216 7.50909E+00-5.27948E+00-1.03262E-01-5.88553E+00-8.64864E-14-3.00870E-14
 -1      2217 2.01649E+01 4.67896E-01 3.27598E-03 6.33636E-01 1.88649E-13 1.02293E-13
 -1      2218 2.04170E+01 6.57251E-01 2.03745E-02 9.08369E-01 2.21351E-13 1.20459E-13
 -1      2219 1.94341E+01 3.45609E+00-2.70907E-02-4.87845E-01-5.78921E-14-3.25496E-13
 -1      2220 1.95248E+01 3.38535E+00-2.36292E-02-7.05945E-01-1.01222E-13-3.38738E-13
 -1      2221 1.95820E+01 3.29721E+00-1.78568E-02-9.27414E-01-1.14297E-13-3.46550E-13
 -1      2222 1.96190E+01 3.20951E+00-2.11281E-02-1.14094E+00-1.50690E-13-3.57538E-13
 -1      2223 1.97502E+01 2.95354E+00-1.68541E-02-7.45463E-01-9.90631E-14-3.19597E-13
 -1      2224 1.89211E+01 3.75910E+00-2.30646E-02 1.21583E-01 4.19184E-14-3.27142E-13
 -1      2225 1.90159E+01 3.73879E+00-1.62996E-02 1.23764E-02 1.56741E-14-3.29899E-13
 -1      2226 1.89534E+01 3.69920E+00-1.08249E-02 2.73125E-01 8.69747E-14-3.27838E-13
 -1      2227 1.89015E+01 3.73200E+00-2.07630E-02 1.63924E-01 6.45157E-14-3.31253E-13
 -1      2228 1.90248E+01 3.45149E+00-3.59833E-03 1.28245E-01 4.98304E-14-3.11406E-13
 -1      2229 1.91895E+01 3.48639E+00-6.38583E-03 5.27526E-01 1.26048E-13-3.10444E-13
 -1      2230 1.90570E+01 3.56085E+00-1.93285E-02 3.67906E-01 1.02702E-13-3.16243E-13
 -1      2231 1.91180E+01 3.27480E+00-7.94969E-03 2.30250E-01 9.16242E-14-3.08902E-13
 -1      2232 1.94742E+01 3.22332E+00-1.00512E-02 8.96980E-01 1.76764E-13-2.55200E-13
 -1      2233 1.93288E+01 3.33192E+00-1.44589E-02 6.96907E-01 1.49449E-13-2.91128E-13
 -1      2234 1.94143E+01 2.99487E+00-5.51442E-03 5.01425E-01 1.34802E-13-2.76021E-13
 -1      2235 1.97675E+01 2.90660E+00-1.76583E-02 1.29598E+00 2.28208E-13-1.97085E-13
 -1      2236 1.96178E+01 3.05897E+00-1.41472E-02 1.08597E+00 1.91466E-13-2.26139E-13
 -1      2237 1.97286E+01 2.69891E+00-1.06635E-03 8.62967E-01 1.75878E-13-2.26858E-13
 -1      2238 2.01074E+01 2.45355E+00-2.90514E-02 1.64771E+00 2.58161E-13-1.20706E-13
 -1      2239 1.99313E+01 2.69151E+00-1.59735E-02 1.45598E+00 2.31511E-13-1.69652E-13
 -1      2240 2.00290E+01 2.34057E+00 4.46962E-03 1.19745E+00 2.14490E-13-1.64356E-13
 -1      2241 1.99142E+01 2.45244E-01 4.59959E-03 2.71334E-01 1.56312E-13 5.08699E-14
 -1      2242 2.00641E+01 3.35396E-01 1.91768E-02 4.16393E-01 1.76166E-13 9.80539E-14
 -1      2243 2.02334E+01 5.86535E-01-2.24727E-03 6.57132E-01 2.05449E-13 2.44405E-14
 -1      2244 2.03658E+01 6.01355E-01 2.55679E-02-9.94119E-01-1.64573E-13-9.90579E-14
 -1      2245 2.02464E+01 3.19348E-01 9.69862E-05-7.10169E-01-1.62446E-13-8.83391E-14
 -1      2246 3.11408E+01-4.81197E-01-1.26731E-01 4.40283E-01 3.28414E-13-3.94962E-13
 -1      2247 2.91658E+01-2.33713E+00 9.80858E-03 1.32398E+00 1.82101E-13-4.19692E-13
 -1      2248 2.02466E+01 1.33927E-01 6.10121E-03-4.35616E-01-1.35865E-13-6.41969E-14
 -1      2249 2.06682E+01 2.31489E-01 1.72587E-01-1.21864E-01-8.33691E-14-4.59355E-15
 -1      2250 2.03087E+01 4.67497E-01-1.20502E-02-4.66183E-01-1.24675E-13-1.58677E-13
 -1      2251 1.96619E+01 5.38909E-01 4.14095E-03 3.28693E-02-9.99149E-14-4.52208E-14
 -1      2252 1.93640E+01 1.04712E+00 3.79435E-02-6.70235E-02-5.49283E-14-9.69572E-14
 -1      2253 2.04558E+01 5.28382E-02 1.57359E-03-2.21403E-01-6.23529E-14-9.49674E-14
 -1      2254 1.94926E+01 7.68526E-01-4.40012E-03-1.77717E-01-2.90185E-14-1.10113E-13
 -1      2255 1.97623E+01 5.28838E-01-1.54199E-03-1.91506E-01-1.90264E-14-8.50370E-14
 -1      2256 1.94531E+01 6.97372E-01-3.99993E-02 1.69470E-01-5.05498E-14-9.57533E-14
 -1      2257 1.98964E+01 4.05189E-01-6.72059E-03-1.99488E-01-1.54720E-14-9.90956E-14
 -1      2258 1.99703E+01 3.47012E-01-8.83222E-04-9.53179E-02-1.80398E-14-1.00978E-13
 -1      2259 1.98073E+01 5.14955E-01 5.52473E-03-7.86913E-02-3.18929E-14-1.04226E-13
 -1      2260 2.00505E+01 3.15536E-01-7.39209E-04-1.49726E-02-4.90516E-14-1.18420E-13
 -1      2261 2.00912E+01 2.99397E-01 3.97968E-04 9.44098E-02-6.40982E-14-1.18958E-13
 -1      2262 2.00225E+01 4.23797E-01 6.78754E-03 7.51721E-04-5.37936E-14-1.41378E-13
 -1      2263 2.01496E+01 2.88234E-01 5.19103E-04 1.98577E-01-3.60884E-14-1.66329E-13
 -1      2264 2.02034E+01 2.75622E-01-1.38245E-03 3.01105E-01-4.44463E-14-1.65251E-13
 -1      2265 2.01436E+01 3.80920E-01-1.54197E-03 1.91376E-01-6.16483E-14-2.04504E-13
 -1      2266 2.02684E+01 2.63013E-01 3.27999E-04 3.97102E-01-7.01435E-14-1.25818E-13
 -1      2267 2.03352E+01 2.52510E-01-1.87782E-03 4.80084E-01-7.52961E-14-9.54553E-14
 -1      2268 2.02626E+01 3.49448E-01-3.01138E-03 4.04088E-01-4.83058E-14-1.88214E-13
 -1      2269 2.03955E+01 2.50173E-01 4.53310E-03 5.49618E-01-6.30368E-14-5.33193E-14
 -1      2270 2.04693E+01 2.50594E-01 1.40302E-02 6.01402E-01-5.86085E-14-5.23739E-14
 -1      2271 2.03847E+01 3.15708E-01 2.10859E-03 5.71353E-01-5.15420E-14-6.50582E-14
 -1      2272 2.05236E+01 2.52729E-01 3.41395E-02 6.41864E-01-5.19253E-14-1.58467E-14
 -1      2273 2.06272E+01 2.51139E-01 8.29573E-02 6.63213E-01-2.86143E-14-4.38746E-14
 -1      2274 2.04878E+01 2.84573E-01 2.08334E-02 6.78263E-01-5.79968E-14-3.80980E-14
 -1      2275 2.05291E+01 1.70037E-01 6.01286E-02 6.47658E-01-2.36096E-14-1.15324E-14
 -1      2276 2.05110E+01 9.95919E-02 2.79710E-03 6.52554E-01 1.32261E-14 5.01995E-15
 -1      2277 2.05538E+01 2.52062E-01 6.37599E-02 7.23831E-01-7.89039E-15-2.30163E-14
 -1      2278 2.05860E+01 9.97375E-02 3.07100E-05 6.96657E-01 3.66459E-14-1.66948E-14
 -1      2279 2.07148E+01 9.71886E-02 2.37019E-03 7.33190E-01 4.88806E-14-1.37749E-14
 -1      2280 2.04421E+01 1.30912E-01-1.48258E-03 7.59780E-01 1.62142E-14 2.81883E-14
 -1      2281 2.08051E+01 8.86308E-02 4.63015E-04 7.75681E-01 4.47524E-14-3.12477E-14
 -1      2282 2.09470E+01 7.37325E-02 1.38837E-03 8.05668E-01 3.37805E-14 9.34238E-15
 -1      2283 2.06083E+01 1.21062E-01-1.74784E-03 8.52166E-01 2.76569E-14-5.46531E-14
 -1      2284 2.10567E+01 5.08951E-02 1.17769E-03 8.38307E-01 4.34365E-14 1.10872E-14
 -1      2285 2.12089E+01 1.68708E-02-3.77032E-04 8.51312E-01 3.08368E-14 2.15905E-14
 -1      2286 2.08064E+01 7.97825E-02-2.22487E-03 9.33308E-01 6.87717E-14-3.18208E-14
 -1      2287 2.13437E+01-2.66708E-02 2.23221E-03 8.61161E-01-1.08468E-14 2.73017E-14
 -1      2288 2.15007E+01-8.68753E-02-3.13175E-03 8.42331E-01-3.21168E-15 8.24111E-14
 -1      2289 2.10442E+01-9.51488E-03-2.98012E-03 9.81929E-01 1.93284E-14-4.61451E-14
 -1      2290 2.16672E+01-1.56613E-01 3.58779E-03 8.11124E-01-2.57448E-14 1.04968E-13
 -1      2291 2.18195E+01-2.47221E-01-6.93475E-03 7.41989E-01-7.14086E-14 6.91862E-14
 -1      2292 2.13322E+01-1.63542E-01-4.00841E-03 9.66640E-01-1.00115E-14 3.67244E-14
 -1      2293 2.20225E+01-3.43457E-01 4.93172E-03 6.46918E-01-1.47701E-13 2.50262E-14
 -1      2294 2.21558E+01-4.59288E-01-1.13666E-02 5.09007E-01-8.34202E-14-1.89617E-14
 -1      2295 2.16809E+01-3.91091E-01-5.05573E-03 8.45820E-01-1.11106E-13-2.75681E-14
 -1      2296 2.23915E+01-5.69238E-01 5.54654E-03 3.27208E-01 1.58892E-14 1.00039E-14
 -1      2297 2.24853E+01-6.85363E-01-1.50469E-02 1.10833E-01 5.16583E-14-1.22908E-14
 -1      2298 2.20933E+01-6.76668E-01-5.25117E-03 5.71988E-01-3.25933E-14 8.54043E-14
 -1      2299 2.27295E+01-7.73052E-01 3.79603E-03-1.68142E-01 4.32532E-14-5.53423E-14
 -1      2300 2.27588E+01-8.34793E-01-1.53575E-02-4.48344E-01 6.61515E-14-1.04543E-13
 -1      2301 2.25494E+01-9.54665E-01-2.95265E-03 1.07081E-01 3.04147E-14-3.00725E-15
 -1      2302 2.29547E+01-8.36280E-01-2.25677E-03-7.97898E-01 6.83464E-14-1.17570E-13
 -1      2303 2.28987E+01-7.64549E-01-8.78221E-03-1.08348E+00 6.50651E-14-6.03311E-14
 -1      2304 2.29823E+01-1.08760E+00 2.89942E-03-5.41752E-01 3.01436E-14-1.59614E-13
 -1      2305 2.29646E+01-6.07280E-01-1.22190E-02-1.40862E+00 4.88897E-14-6.96812E-14
 -1      2306 2.28242E+01-3.44033E-01 5.18684E-03-1.58863E+00 3.24389E-14-4.23448E-14
 -1      2307 2.32679E+01-8.83649E-01 1.12097E-02-1.26164E+00 6.30510E-14-1.76525E-13
 -1      2308 2.27071E+01-1.10126E-02-2.26911E-02-1.72628E+00 5.66662E-14-2.73752E-14
 -1      2309 2.25232E+01 4.04486E-01 1.96197E-02-1.67464E+00 9.24816E-14 1.51355E-16
 -1      2310 2.32731E+01-2.18483E-01 1.34438E-02-1.78903E+00 9.83494E-14-7.54527E-14
 -1      2311 2.22800E+01 8.12735E-01-2.16497E-02-1.46347E+00 6.77397E-14-3.11227E-14
 -1      2312 2.21324E+01 1.18593E+00 2.20778E-02-1.11923E+00 1.62680E-13-2.35523E-14
 -1      2313 2.29768E+01 7.95647E-01 2.54359E-03-1.75658E+00 8.14166E-14 6.41228E-14
 -1      2314 2.19615E+01 1.43339E+00-5.76614E-03-5.72230E-01 1.94355E-13-1.51726E-13
 -1      2315 2.19250E+01 1.53084E+00 5.46157E-03-4.84122E-02 9.18076E-14-7.23913E-14
 -1      2316 2.26103E+01 1.69074E+00-1.32162E-02-9.70459E-01 1.34463E-13 1.19609E-15
 -1      2317 2.19820E+01 1.45061E+00 1.29861E-02 5.90381E-01-1.76560E-14-2.58062E-14
 -1      2318 2.20778E+01 1.20139E+00-1.74263E-02 1.05585E+00-8.10020E-14-7.84962E-15
 -1      2319 2.25063E+01 1.91908E+00-2.13856E-02 3.12776E-01 1.10771E-14-1.01615E-13
 -1      2320 2.23116E+01 8.48615E-01 2.19098E-02 1.46493E+00-1.45111E-13-1.30645E-13
 -1      2321 2.24894E+01 4.24406E-01-2.42885E-02 1.67565E+00-1.07088E-13-1.98381E-13
 -1      2322 2.27690E+01 1.33102E+00-8.02937E-03 1.43226E+00-1.65866E-13-1.91454E-13
 -1      2323 2.26916E+01 2.87800E-02 1.37290E-02 1.71135E+00-1.32957E-13-2.09329E-13
 -1      2324 2.28653E+01-3.29526E-01-1.78238E-02 1.64229E+00-1.21850E-13-2.73158E-13
 -1      2325 2.31476E+01 3.05512E-01 9.57964E-03 1.86924E+00-1.68176E-13-3.30773E-13
 -1      2326 2.28973E+01-5.84851E-01-1.57710E-03 1.39539E+00-7.03513E-14-2.69214E-13
 -1      2327 2.30030E+01-7.54831E-01-6.55681E-03 1.15102E+00-1.12554E-13-2.22124E-13
 -1      2328 2.33178E+01-5.82528E-01 1.43494E-02 1.59882E+00-1.47801E-13-2.09776E-13
 -1      2329 2.28675E+01-8.29385E-01-1.23428E-02 7.99403E-01-8.69795E-14-1.39322E-13
 -1      2330 2.28851E+01-8.27485E-01 1.95633E-03 5.07876E-01-2.86837E-14-1.59350E-14
 -1      2331 2.31727E+01-1.02584E+00 8.46547E-03 9.42731E-01 6.69039E-15-1.39593E-13
 -1      2332 2.26591E+01-7.75595E-01-1.55394E-02 1.87153E-01-1.64793E-13-6.82552E-14
 -1      2333 2.26005E+01-6.78678E-01 5.48160E-03-6.45201E-02-2.36252E-13 1.26022E-13
 -1      2334 2.28035E+01-1.04634E+00 3.28316E-04 2.37621E-01-1.00618E-13-1.97241E-14
 -1      2335 2.23580E+01-5.73449E-01-1.34085E-02-2.94806E-01-2.56812E-13 1.60042E-13
 -1      2336 2.22480E+01-4.51507E-01 5.81788E-03-4.70824E-01-1.72217E-13 4.27490E-14
 -1      2337 2.23523E+01-8.21323E-01-4.20597E-03-3.24316E-01-2.40422E-13 3.46829E-14
 -1      2338 2.20295E+01-3.44054E-01-9.18809E-03-6.05175E-01-2.89220E-14 3.11196E-14
 -1      2339 2.18918E+01-2.36975E-01 4.74316E-03-7.04457E-01 6.77868E-14 1.42412E-13
 -1      2340 2.19179E+01-5.24602E-01-5.25227E-03-6.88413E-01-1.48404E-13 1.60348E-13
 -1      2341 2.17103E+01-1.51244E-01-4.99941E-03-7.61151E-01 6.00074E-14 8.09978E-14
 -1      2342 2.15629E+01-7.33418E-02 3.34557E-03-7.98847E-01 1.80581E-13 4.30110E-14
 -1      2343 2.15424E+01-2.58318E-01-4.61458E-03-8.74348E-01 7.01460E-14 1.24728E-13
 -1      2344 2.14172E+01-1.48768E-02-1.70686E-03-8.01541E-01 1.25843E-13 1.33571E-13
 -1      2345 2.12723E+01 3.40537E-02 2.15375E-03-7.96746E-01 7.19910E-14 1.05598E-13
 -1      2346 2.12329E+01-6.12013E-02-3.58284E-03-9.27190E-01 1.58199E-13 1.24859E-13
 -1      2347 2.11562E+01 6.86243E-02 5.42649E-04-7.66369E-01 1.02252E-13 1.56117E-13
 -1      2348 2.10214E+01 9.46051E-02 1.30775E-03-7.36083E-01 1.30004E-13 2.11495E-13
 -1      2349 2.09817E+01 6.49776E-02-2.69434E-03-8.92612E-01 1.32167E-13 9.08030E-14
 -1      2350 2.09287E+01 1.11449E-01 1.88960E-03-6.88447E-01 2.95717E-14 1.18062E-13
 -1      2351 2.08084E+01 1.21493E-01 7.69918E-04-6.45536E-01-7.82149E-14-4.25576E-14
 -1      2352 2.07778E+01 1.33905E-01-2.06909E-03-8.07700E-01-1.10056E-14 9.74659E-14
 -1      2353 2.07340E+01 1.26581E-01 2.55610E-03-5.91472E-01-5.41086E-14-6.48716E-14
 -1      2354 2.06300E+01 1.26661E-01 4.54201E-04-5.44655E-01-3.87126E-14 1.13593E-13
 -1      2355 2.06117E+01 1.62458E-01-1.66203E-03-6.99272E-01-9.45347E-14 4.39147E-14
 -1      2356 2.05701E+01 1.24709E-01 2.75632E-03-4.90973E-01-1.43769E-14 2.01776E-13
 -1      2357 2.04827E+01 1.19246E-01 2.81399E-04-4.45596E-01 7.25207E-14 3.50499E-13
 -1      2358 2.04763E+01 1.65362E-01-1.39407E-03-5.85128E-01 7.90687E-14 1.12349E-13
 -1      2359 2.04346E+01 1.13598E-01 2.66425E-03-3.96160E-01 1.14411E-13 4.57004E-13
 -1      2360 2.03629E+01 1.05592E-01 1.94427E-04-3.55110E-01 1.06386E-13 5.13884E-13
 -1      2361 2.03660E+01 1.53686E-01-1.20120E-03-4.76096E-01 2.06970E-13 2.74698E-13
 -1      2362 2.03244E+01 9.84528E-02 2.40789E-03-3.11760E-01-6.92670E-14 4.71975E-13
 -1      2363 2.02669E+01 8.98139E-02 1.56934E-04-2.76258E-01-1.45257E-14 3.25384E-13
 -1      2364 2.02769E+01 1.35045E-01-1.04371E-03-3.77993E-01-3.92864E-14 3.52209E-13
 -1      2365 2.02363E+01 8.25587E-02 2.07439E-03-2.39517E-01 1.09175E-13 1.33137E-13
 -1      2366 2.01912E+01 7.44329E-02 1.47621E-04-2.09729E-01 1.25173E-13 9.95422E-14
 -1      2367 2.02056E+01 1.14346E-01-9.00784E-04-2.93249E-01-1.29825E-13 2.57743E-13
 -1      2368 2.01672E+01 6.78730E-02 1.71967E-03-1.79311E-01 1.69403E-14-7.01399E-14
 -1      2369 2.01325E+01 6.08937E-02 1.53380E-04-1.54775E-01-3.70953E-14-5.01233E-16
 -1      2370 2.01490E+01 9.45721E-02-7.61725E-04-2.22123E-01-5.65857E-14-6.27783E-14
 -1      2371 2.01137E+01 5.54312E-02 1.37556E-03-1.29935E-01-1.03825E-14-6.14811E-14
 -1      2372 2.00877E+01 4.98728E-02 1.77456E-04-1.09906E-01-1.35648E-13-1.73689E-14
 -1      2373 2.01046E+01 7.73720E-02-6.21549E-04-1.63565E-01-5.60836E-14-7.83882E-16
 -1      2374 2.00729E+01 4.54580E-02 1.01525E-03-8.96995E-02-4.01162E-13 1.83104E-13
 -1      2375 2.00542E+01 4.14873E-02 3.23986E-04-7.34466E-02-4.49456E-13 8.78700E-14
 -1      2376 2.00699E+01 6.34925E-02-4.63680E-04-1.15898E-01-1.99625E-13-7.17602E-14
 -1      2377 1.96981E+01 1.04837E-01 2.76912E-03-8.57449E-02 6.55209E-14-3.27558E-14
 -1      2378 1.97147E+01 1.22995E-01 5.60254E-03-2.83124E-02 8.60625E-14 9.87209E-15
 -1      2379 1.97021E+01 8.05547E-02 2.13144E-03-1.92616E-01 4.94780E-14-3.68095E-14
 -1      2380 1.96808E+01 9.20723E-02 3.17788E-03-1.49633E-01 3.21952E-14-4.04032E-14
 -1      2381 1.98440E+01 1.40529E-01-4.95495E-03-1.11557E-01 6.09469E-14-6.50694E-14
 -1      2382 1.97620E+01 6.29124E-02 2.10861E-03-2.73957E-01 9.80319E-14-2.71087E-14
 -1      2383 1.97129E+01 7.08839E-02 2.08084E-03-2.41000E-01 6.38486E-14-1.40608E-14
 -1      2384 1.98387E+01 1.07431E-01-3.88156E-03-2.37144E-01 6.48551E-14-5.12037E-14
 -1      2385 1.98629E+01 5.41315E-02 2.59823E-03-3.38465E-01 1.56556E-13 6.41920E-15
 -1      2386 1.97921E+01 5.71086E-02 1.36949E-03-3.11104E-01 1.34353E-13 9.55540E-15
 -1      2387 1.98808E+01 8.53762E-02-2.58589E-03-3.31806E-01 9.73759E-14-5.43524E-14
 -1      2388 1.99966E+01 5.41727E-02 2.96681E-03-3.97641E-01 1.27301E-13 3.61933E-14
 -1      2389 1.99069E+01 5.29710E-02 9.85172E-04-3.71148E-01 1.80233E-13 5.82886E-14
 -1      2390 1.99555E+01 7.60737E-02-1.75551E-03-4.08717E-01 1.29131E-13 3.32472E-14
 -1      2391 2.01628E+01 6.29204E-02 2.56001E-03-4.60880E-01 5.16726E-14 7.62294E-14
 -1      2392 2.00540E+01 5.65061E-02 9.13013E-05-4.30755E-01 7.54915E-14 6.34338E-14
 -1      2393 2.00578E+01 7.85948E-02-1.96525E-03-4.82344E-01 9.01982E-14 5.69647E-14
 -1      2394 2.03635E+01 8.34993E-02 2.58161E-03-5.34864E-01 2.32041E-14 2.09906E-14
 -1      2395 2.02311E+01 7.07446E-02-2.19518E-03-4.99840E-01 6.88541E-14 5.54194E-14
 -1      2396 2.01852E+01 9.45557E-02-3.34129E-03-5.61172E-01 6.16779E-14 6.55724E-14
 -1      2397 2.05979E+01 1.06066E-01 4.49219E-03-6.28501E-01 5.16556E-14-1.45574E-14
 -1      2398 2.04500E+01 9.48830E-02 2.60089E-04-5.82549E-01 1.19931E-14 3.39312E-15
 -1      2399 2.03461E+01 1.25373E-01-1.61837E-03-6.53861E-01 3.21606E-14 2.26983E-14
 -1      2400 2.08688E+01 1.24539E-01 4.77141E-03-7.40936E-01 7.20753E-14-9.40207E-14
 -1      2401 2.06963E+01 1.15082E-01 3.40340E-04-6.86854E-01 1.01414E-13-1.88855E-14
 -1      2402 2.05302E+01 1.53105E-01-1.70188E-03-7.69632E-01 6.02520E-14 5.53040E-14
 -1      2403 2.11829E+01 1.33928E-01 4.57468E-03-8.66479E-01 1.47303E-14-3.27449E-14
 -1      2404 2.09840E+01 1.30220E-01 4.76932E-04-8.07537E-01 3.03706E-14-6.14841E-14
 -1      2405 2.07457E+01 1.75432E-01-1.87844E-03-9.04579E-01 3.59797E-14-2.44009E-14
 -1      2406 2.15432E+01 1.22929E-01 3.50781E-03-9.92346E-01-3.89594E-14 4.09334E-14
 -1      2407 2.13182E+01 1.31527E-01 6.99952E-04-9.36199E-01-1.31046E-14-1.40896E-14
 -1      2408 2.09971E+01 1.81351E-01-2.22102E-03-1.05186E+00-6.55509E-15 3.02263E-14
 -1      2409 2.19503E+01 7.41980E-02 1.06276E-03-1.09362E+00 4.98215E-14 7.96765E-14
 -1      2410 2.17034E+01 1.04979E-01 1.10288E-03-1.05457E+00 1.60146E-14 4.93807E-14
 -1      2411 2.12912E+01 1.53252E-01-2.88315E-03-1.19538E+00-2.66303E-14 3.45345E-14
 -1      2412 2.24017E+01-3.56419E-02-3.27577E-03-1.12830E+00 2.42561E-14 8.17874E-14
 -1      2413 2.21431E+01 3.01293E-02 1.85559E-03-1.12962E+00 7.65910E-14 8.19329E-14
 -1      2414 2.16384E+01 6.51823E-02-4.08922E-03-1.30528E+00 4.60510E-14 1.18701E-13
 -1      2415 2.28890E+01-2.30492E-01-9.78156E-03-1.03403E+00-1.30408E-13 1.04487E-13
 -1      2416 2.26379E+01-1.17938E-01 3.15126E-03-1.10850E+00-5.68716E-14 9.07826E-14
 -1      2417 2.20545E+01-1.15541E-01-6.00382E-03-1.33254E+00-4.10420E-14 1.42206E-13
 -1      2418 2.33935E+01-5.15546E-01-1.77150E-02-7.32216E-01-1.57381E-13 6.29490E-14
 -1      2419 2.31804E+01-3.58008E-01 4.83714E-03-9.16849E-01-1.84651E-13 1.22107E-13
 -1      2420 2.25605E+01-4.17057E-01-8.38795E-03-1.20500E+00-1.92876E-13 1.70092E-13
 -1      2421 2.38721E+01-8.38115E-01-2.44096E-02-1.54941E-01-4.07521E-14 9.33434E-14
 -1      2422 2.37401E+01-6.73449E-01 5.67131E-03-4.71999E-01-7.13431E-14 6.93104E-14
 -1      2423 2.31713E+01-8.28418E-01-9.62456E-03-8.31422E-01-1.37212E-13 4.23796E-14
 -1      2424 2.42381E+01-1.04134E+00-2.53016E-02 6.90367E-01 5.15196E-14 1.22554E-13
 -1      2425 2.42372E+01-9.66317E-01 2.47617E-03 2.70202E-01-1.52881E-14 7.14095E-14
 -1      2426 2.38622E+01-1.24255E+00-7.22370E-03-1.34974E-01-2.21481E-15 1.17281E-13
 -1      2427 2.43585E+01-8.52761E-01-1.41435E-02 1.62222E+00 1.66625E-14 1.59516E-13
 -1      2428 2.45245E+01-1.01751E+00-8.56733E-03 1.22606E+00 9.89694E-14 1.41735E-13
 -1      2429 2.45205E+01-1.40818E+00-1.39684E-03 8.67410E-01 2.85583E-14 1.28753E-13
 -1      2430 2.41205E+01-3.84038E-02 1.50385E-02 2.17392E+00-1.92580E-14 1.24490E-13
 -1      2431 2.44002E+01-5.21721E-01-2.88066E-02 2.05048E+00-1.62064E-14 1.44864E-13
 -1      2432 2.48919E+01-9.44152E-01-4.73897E-03 1.94738E+00 4.45492E-14 2.10876E-13
 -1      2433 2.35966E+01 1.09766E+00 1.86305E-02 1.81697E+00 2.37137E-14 1.06001E-13
 -1      2434 2.38603E+01 4.84758E-01-5.57332E-02 2.12877E+00-7.85136E-15 1.31907E-13
 -1      2435 2.47669E+01 3.72017E-01-2.18223E-03 2.49611E+00 3.40492E-14 1.10474E-13
 -1      2436 2.31831E+01 1.84295E+00-6.74675E-03 4.38306E-01 1.35340E-13-3.00610E-14
 -1      2437 2.33055E+01 1.58544E+00-3.43005E-02 1.15046E+00 7.42462E-14 1.50097E-15
 -1      2438 2.43727E+01 1.80611E+00-1.56871E-02 1.75002E+00 8.13655E-14 4.01727E-14
 -1      2439 2.33277E+01 1.53977E+00-3.61500E-02-1.23645E+00 2.79207E-13 1.11256E-13
 -1      2440 2.32008E+01 1.84001E+00 8.80187E-04-5.33272E-01 2.16011E-13 3.71031E-14
 -1      2441 2.40781E+01 2.48957E+00-4.94989E-02-5.00797E-02 1.69899E-13-5.15126E-15
 -1      2442 2.39216E+01 4.45417E-01-4.22074E-02-2.16952E+00 3.39659E-14 1.02860E-13
 -1      2443 2.36200E+01 1.03634E+00 1.60980E-02-1.87583E+00 2.48780E-13 1.62894E-13
 -1      2444 2.43611E+01 1.75172E+00-3.23234E-02-1.79223E+00 2.17389E-13 7.50918E-14
 -1      2445 2.44364E+01-5.75560E-01-2.30104E-02-2.01448E+00 1.88443E-14 4.85280E-14
 -1      2446 2.41408E+01-1.21471E-01 7.45033E-03-2.17340E+00-2.24135E-14 1.00501E-13
 -1      2447 2.48179E+01 2.38814E-01-7.04186E-04-2.41117E+00 6.46653E-14 1.53623E-13
 -1      2448 2.45247E+01-1.01645E+00-6.13266E-03-1.18071E+00 4.94440E-15 1.74455E-13
 -1      2449 2.43668E+01-8.73317E-01-1.34887E-02-1.57432E+00 3.74713E-14 1.24684E-13
 -1      2450 2.48958E+01-9.83181E-01 5.37964E-03-1.86607E+00-1.65319E-15 5.82195E-14
 -1      2451 2.42299E+01-9.46968E-01 4.31096E-03-2.38083E-01 3.37855E-14-9.31651E-14
 -1      2452 2.42352E+01-1.02950E+00-2.40271E-02-6.42982E-01 8.82818E-14 1.35359E-13
 -1      2453 2.44945E+01-1.39928E+00 2.32457E-04-8.13669E-01 9.23815E-14 5.74216E-14
 -1      2454 2.37315E+01-6.49197E-01 6.28306E-03 4.85622E-01 1.44147E-14-2.16458E-13
 -1      2455 2.38656E+01-8.12592E-01-2.26459E-02 1.86143E-01-5.91792E-14-1.46172E-13
 -1      2456 2.38371E+01-1.21770E+00-7.27750E-03 1.69839E-01 7.97934E-14-3.51916E-14
 -1      2457 2.31791E+01-3.35830E-01 4.90377E-03 9.10287E-01-1.74355E-13 5.59375E-14
 -1      2458 2.33910E+01-4.88123E-01-1.59015E-02 7.39997E-01-6.20727E-14-7.07696E-14
 -1      2459 2.31541E+01-7.95114E-01-9.43462E-03 8.40863E-01-1.01559E-13 1.46727E-13
 -1      2460 2.26498E+01-9.97694E-02 3.04218E-03 1.08402E+00 3.38228E-14 1.04231E-13
 -1      2461 2.28958E+01-2.07335E-01-8.49087E-03 1.01933E+00-1.55305E-13 1.78967E-14
 -1      2462 2.25569E+01-3.85488E-01-8.01791E-03 1.18968E+00-1.75178E-13 1.92334E-13
 -1      2463 2.21728E+01 4.54716E-02 1.79701E-03 1.08949E+00 2.07806E-13 2.30820E-13
 -1      2464 2.24223E+01-1.73030E-02-2.63046E-03 1.09456E+00 2.53709E-13 2.10860E-13
 -1      2465 2.20666E+01-8.84473E-02-5.60879E-03 1.29624E+00 4.59817E-14 2.61051E-13
 -1      2466 2.17550E+01 1.19319E-01 1.17229E-03 9.99798E-01 5.02952E-14 2.06698E-13
 -1      2467 2.19891E+01 8.95715E-02 1.22160E-03 1.04353E+00 1.43098E-13 3.08901E-13
 -1      2468 2.16674E+01 8.90301E-02-3.71133E-03 1.25084E+00 1.40117E-13 3.68617E-13
 -1      2469 2.13960E+01 1.46367E-01 9.06740E-04 8.66631E-01-2.19139E-15 2.24874E-13
 -1      2470 2.16047E+01 1.37427E-01 3.37224E-03 9.27135E-01-1.50241E-14 2.28563E-13
 -1      2471 2.13390E+01 1.75948E-01-2.54387E-03 1.12401E+00 1.51455E-14 2.77696E-13
 -1      2472 2.10930E+01 1.46484E-01 8.05181E-04 7.22222E-01-2.63374E-13 1.09155E-13
 -1      2473 2.12719E+01 1.49100E-01 4.29467E-03 7.86051E-01-1.00350E-13 1.89485E-13
 -1      2474 2.10662E+01 2.04668E-01-1.92239E-03 9.63420E-01 5.50970E-15 1.58365E-13
 -1      2475 2.08415E+01 1.33082E-01 7.57429E-04 5.84520E-01-2.30221E-13 2.35443E-13
 -1      2476 2.09904E+01 1.41222E-01 4.43782E-03 6.44380E-01-2.54877E-13 2.34356E-13
 -1      2477 2.08392E+01 2.00437E-01-1.60541E-03 7.98120E-01-2.33563E-13 2.51673E-13
 -1      2478 2.06362E+01 1.14295E-01 7.15526E-04 4.62137E-01-1.71723E-13 9.99253E-14
 -1      2479 2.07572E+01 1.24385E-01 4.14338E-03 5.14698E-01-2.92348E-13 1.21858E-13
 -1      2480 2.06511E+01 1.80049E-01-1.42252E-03 6.44005E-01-2.31870E-13 7.10355E-14
 -1      2481 2.04714E+01 9.46621E-02 6.65476E-04 3.58081E-01-4.98885E-15 4.16030E-13
 -1      2482 2.05676E+01 1.04751E-01 3.64149E-03 4.02348E-01-5.72684E-14 1.94799E-13
 -1      2483 2.04970E+01 1.53602E-01-1.28217E-03 5.08462E-01-9.29620E-14 3.64785E-14
 -1      2484 2.03415E+01 7.65037E-02 6.08427E-04 2.72221E-01-9.99433E-14 4.40727E-13
 -1      2485 2.04165E+01 8.56194E-02 3.07324E-03 3.08471E-01 2.49542E-14 4.93629E-13
 -1      2486 2.03723E+01 1.26688E-01-1.14657E-03 3.93749E-01-6.86147E-14 3.28430E-13
 -1      2487 2.02407E+01 6.08847E-02 5.51468E-04 2.02826E-01-5.67862E-14 3.71282E-13
 -1      2488 2.02981E+01 6.85977E-02 2.51728E-03 2.31966E-01-1.41210E-13 4.56365E-13
 -1      2489 2.02730E+01 1.02138E-01-1.00583E-03 2.99242E-01-1.41245E-13 3.22845E-13
 -1      2490 2.01639E+01 4.82060E-02 4.96785E-04 1.47432E-01 1.48435E-13 3.95467E-13
 -1      2491 2.02069E+01 5.43762E-02 2.00986E-03 1.70643E-01 7.01013E-14 3.39735E-13
 -1      2492 2.01951E+01 8.12415E-02-8.58481E-04 2.22850E-01 5.39828E-14 2.77059E-13
 -1      2493 2.01066E+01 3.84876E-02 4.65364E-04 1.03374E-01 1.48251E-13 3.28316E-13
 -1      2494 2.01380E+01 4.31433E-02 1.56867E-03 1.21885E-01 1.07502E-13 3.68811E-13
 -1      2495 2.01349E+01 6.44083E-02-7.12645E-04 1.61805E-01 7.63348E-14 4.91706E-13
 -1      2496 2.00646E+01 3.12558E-02 3.83612E-04 6.80329E-02-4.43255E-14 3.33298E-13
 -1      2497 2.00868E+01 3.47410E-02 1.18405E-03 8.29929E-02 6.58696E-14 2.91403E-13
 -1      2498 2.00889E+01 5.15693E-02-5.88960E-04 1.13351E-01 1.19567E-13 3.01523E-13
 -1      2499 2.00345E+01 2.57174E-02 3.07510E-04 3.98421E-02-1.27313E-13 3.89641E-13
 -1      2500 2.00498E+01 2.84352E-02 8.92338E-04 5.19113E-02-6.57588E-14 4.02342E-13
 -1      2501 2.00542E+01 4.13419E-02-6.50263E-04 7.44970E-02-5.60074E-14 3.44047E-13
 -1      2502 2.00231E+01 2.20775E-02 5.37921E-04 2.63389E-02-4.05591E-14 2.32045E-13
 -1      2503 1.99844E+01 1.41264E-01-7.15065E-04 6.53216E-02 1.30706E-13-9.17785E-14
 -1      2504 1.99918E+01 1.28778E-01 2.68298E-04 6.99808E-02 1.40074E-13-2.92748E-13
 -1      2505 1.99728E+01 1.64305E-01-7.21728E-04 4.71844E-02 1.17243E-13 8.13276E-14
 -1      2506 1.99783E+01 1.55011E-01 9.22163E-06 5.63803E-02 8.73153E-14 9.70384E-14
 -1      2507 1.99756E+01 1.61254E-01 5.27287E-04 7.18169E-02 2.25852E-13 4.21514E-14
 -1      2508 2.00139E+01 7.96703E-02-4.42872E-04 6.87549E-02 2.02926E-13 9.17398E-14
 -1      2509 2.00209E+01 6.58358E-02 5.67158E-04 6.33489E-02 1.99902E-13 2.25902E-14
 -1      2510 1.99990E+01 1.11785E-01-6.11617E-04 7.29551E-02-5.68358E-14-2.18816E-13
 -1      2511 2.00070E+01 9.79739E-02 4.81956E-04 7.23397E-02-1.04577E-14 3.64142E-14
 -1      2512 2.00139E+01 9.76139E-02 2.63875E-04 8.49831E-02 5.68143E-14-6.93996E-14
 -1      2513 1.99938E+01 1.31636E-01 3.29955E-04 8.49853E-02 1.19454E-13-1.38668E-13
 -1      2514 1.99659E+01 1.77922E-01-6.33879E-04 2.16235E-02-1.03611E-13 3.06117E-14
 -1      2515 1.99688E+01 1.73042E-01-2.62404E-04 3.37788E-02 8.82449E-14-1.83177E-15
 -1      2516 1.99618E+01 1.82894E-01 6.74087E-04 4.75251E-02 9.68133E-14 2.77609E-14
 -1      2517 1.99647E+01 1.80473E-01-4.64575E-04-7.21706E-03-1.12149E-13 2.43717E-13
 -1      2518 1.99646E+01 1.80658E-01-4.93849E-04 5.90136E-03-5.95791E-14 1.62620E-13
 -1      2519 1.99546E+01 1.93923E-01 7.41370E-04 1.60251E-02 1.43956E-13 9.57809E-14
 -1      2520 1.99693E+01 1.71722E-01-2.40307E-04-3.47855E-02 9.45385E-14 1.23878E-13
 -1      2521 1.99663E+01 1.76947E-01-6.48914E-04-2.28123E-02-6.90074E-14 2.40391E-13
 -1      2522 1.99548E+01 1.93138E-01 7.25999E-04-1.77860E-02 3.66192E-14 3.06739E-13
 -1      2523 1.99788E+01 1.53299E-01 2.35058E-05-5.64709E-02 1.91747E-13-2.01007E-13
 -1      2524 1.99733E+01 1.62586E-01-7.20199E-04-4.76577E-02 1.82194E-13 3.53510E-14
 -1      2525 1.99625E+01 1.80891E-01 6.45002E-04-4.85337E-02 1.42221E-13 1.63395E-13
 -1      2526 1.99920E+01 1.26855E-01 2.64538E-04-6.95718E-02 2.83562E-13 1.71597E-13
 -1      2527 1.99848E+01 1.39360E-01-6.95842E-04-6.50893E-02 3.07675E-13-3.10913E-13
 -1      2528 1.99761E+01 1.58654E-01 4.77906E-04-7.18716E-02 2.56861E-13-2.14960E-13
 -1      2529 2.00069E+01 9.57302E-02 4.04196E-04-7.15444E-02-3.06102E-14 4.29056E-14
 -1      2530 1.99993E+01 1.09913E-01-5.42223E-04-7.23893E-02 2.13439E-14 2.56296E-13
 -1      2531 1.99940E+01 1.28830E-01 2.64772E-04-8.43749E-02 6.66602E-14-8.38105E-14
 -1      2532 2.00204E+01 6.38091E-02 4.68068E-04-6.22447E-02-4.37852E-13-4.01624E-13
 -1      2533 2.00140E+01 7.79704E-02-3.16358E-04-6.81520E-02-2.34520E-13-5.31182E-14
 -1      2534 2.00128E+01 9.46845E-02-1.02599E-04-8.39788E-02-3.08268E-13-2.80784E-13
 -1      2535 4.94165E+00-2.78093E+00 8.95179E-02 3.50467E+00-3.08309E-13 8.16125E-13
 -1      2536 3.73109E+00-2.24213E+00 1.11947E-01 9.44004E-01-1.91794E-13 6.20060E-13
 -1      2537 1.76737E+01-5.47086E+00-6.03113E-02 6.64860E+00-2.32925E-13 5.44540E-13
 -1      2538 1.39412E+01-5.24076E+00 4.65265E-02 6.55574E+00-3.04839E-13 5.77260E-13
 -1      2539 1.97643E+01 1.47297E-01 3.73134E-03 5.74803E-02 8.07822E-14 1.97557E-14
 -1      2540 1.98345E+01 1.87305E-01 1.09303E-02 1.42068E-01 1.11119E-13 3.83200E-14
 -1      2541 1.99111E+01 1.96769E-01-4.71949E-03 5.45293E-02 1.07143E-13-1.43718E-14
 -1      2542 3.23721E+01 4.16362E+00-1.82832E-01-1.30500E+00 3.18523E-13-3.64930E-13
 -1      2543 3.19805E+01 2.07915E+00-4.77360E-02-7.56671E-01 3.56826E-13-3.80251E-13
 -1      2544 3.04574E+01 3.97591E-01-3.21120E-02-1.27209E+00 2.68285E-13-5.21250E-13
 -1      2545 2.00221E+01 3.54923E-02 4.87324E-04-3.77512E-02-1.84043E-13-2.50551E-13
 -1      2546 1.05243E+01-4.46994E+00 3.41545E-02 6.46357E+00-3.47833E-13 5.00294E-13
 -1      2547 7.49087E+00-3.65942E+00 9.11120E-02 5.19271E+00-3.74534E-13 6.54532E-13
 -1      2548 1.38448E+01-4.22229E+00 1.36163E-01 6.32606E+00-3.57686E-13 5.39679E-13
 -1      2549 3.96608E+00-2.21569E+00 1.25862E-01-1.70842E+00 6.60375E-14 2.55129E-13
 -1      2550 5.01343E+00-2.85094E+00 8.30038E-02-3.86762E+00 8.51819E-14 4.54636E-14
 -1      2551 3.30437E+01 7.00555E+00-5.42452E-02 5.18347E-01-2.46247E-13-2.96846E-13
 -1      2552 3.25198E+01 7.58192E+00-1.15743E-01 2.44819E-01-1.99563E-13-3.22305E-13
 -1      2553 7.61380E+00-4.03613E+00 6.11775E-02-5.39625E+00-1.93401E-13-5.75151E-13
 -1      2554 1.10007E+01-4.71271E+00 2.16707E-02-6.59857E+00-1.72418E-13-5.81979E-13
 -1      2555 1.91607E+01 3.62331E+00-3.26923E-02-9.81546E-02-1.58814E-15-3.35533E-13
 -1      2556 1.93128E+01 3.57084E+00-1.86282E-02-2.77615E-01-3.45769E-14-3.28275E-13
 -1      2557 1.95315E+01 3.13621E+00-3.52645E-02-3.02090E-01-5.14233E-14-3.04135E-13
 -1      2558 1.92189E+01 3.36198E+00-1.87059E-02 2.87489E-02-7.92769E-16-3.17171E-13
 -1      2559 3.24570E+01 7.04783E+00-1.41125E-01-3.95519E-01 3.23852E-13-8.35859E-14
 -1      2560 3.22070E+01 6.27255E+00-1.17767E-01-1.08248E+00 3.46501E-13-2.09610E-13
 -1      2561 2.85747E+01-2.93940E+00-1.10815E-02-1.95235E+00 3.60267E-14 1.00475E-14
 -1      2562 3.04896E+01-9.75743E-01-1.34552E-01-2.17269E-01 8.58480E-14 9.12048E-14
 -1      2563 3.21230E+01 6.48677E+00-1.28169E-01 1.02866E+00 2.83773E-13 4.43534E-14
 -1      2564 3.25758E+01 7.09742E+00-1.44396E-01 2.99282E-01 2.68230E-13-5.02098E-14
 -1      2565 3.11329E+01 2.02080E+00-1.00254E-01 1.19657E+00 1.56902E-13 1.48076E-13
 -1      2566 3.18951E+01 4.46875E+00-1.35638E-01 1.47587E+00 2.34979E-13 8.88734E-14
 -1      2567 2.27771E+01-5.29557E+00 2.91005E-02-4.93468E+00-6.70852E-14 2.70062E-14
 -1      2568 2.62171E+01-4.36347E+00-4.54525E-02-3.80475E+00 3.10585E-14-6.13398E-15
 -1      2569 1.44003E+01-5.33311E+00 2.92419E-02-6.55840E+00-1.83881E-13-3.30430E-13
 -1      2570 1.82820E+01-5.44899E+00-3.19317E-02-6.35039E+00-1.56236E-13-3.40040E-14
 -1      2571 1.42582E+01-4.36473E+00 1.43411E-01-6.41535E+00-2.29206E-13-3.36897E-13
 -1      2572 3.76434E+00-2.68799E+00 9.04469E-02-1.80674E+00-3.35010E-14-3.14249E-13
 -1      2573 5.11336E+00-2.98466E+00 7.37632E-02-3.80123E+00-9.73388E-14-4.90274E-13
 -1      2574 7.33528E+00-3.80821E+00 6.96796E-02-5.42716E+00-1.15186E-14-1.31894E-13
 -1      2575 1.10940E+01-4.53856E+00 1.91014E-02-6.76901E+00 1.48770E-14-1.02779E-13
 -1      2576 4.03499E+00-2.87688E+00 8.26505E-02 2.86917E+00-2.47580E-14-3.48666E-13
 -1      2577 3.06517E+00-2.73058E+00 7.66058E-02 3.48135E-01 1.79553E-14-2.96319E-13
 -1      2578 5.34980E+00-1.43962E+00 1.61244E-01-6.77486E-01 1.15602E-14-2.96485E-13
 -1      2579 1.77443E+01-5.20757E+00 4.97808E-03 6.84527E+00-2.09888E-13-1.67040E-13
 -1      2580 1.41598E+01-5.18161E+00 5.15004E-02 6.84683E+00-2.01394E-13 2.06779E-15
 -1      2581 2.44736E+01-4.28322E+00-5.56726E-02 4.79314E+00-1.51434E-13 7.21090E-14
 -1      2582 2.09615E+01-5.15631E+00-2.38445E-02 5.77002E+00-2.25153E-13-6.20753E-14
 -1      2583 2.05119E+01-5.38711E+00 5.02901E-02 5.89429E+00-9.47020E-14 3.29667E-14
 -1      2584 3.26651E+01 4.09099E+00-6.69636E-02-4.81283E-01-1.09274E-13 9.70890E-14
 -1      2585 3.13472E+01 2.07876E+00-8.53169E-02-1.32823E-01 3.24740E-15 7.56062E-14
 -1      2586 3.24529E+01 7.14596E+00-1.29490E-01-6.24241E-01-9.25926E-14-2.47205E-13
 -1      2587 3.28312E+01 6.02031E+00-4.46940E-02-6.78085E-01-9.88654E-14-6.67799E-14
 -1      2588 3.05886E+01 4.61230E+00-6.59783E-02-1.46049E+00 2.96152E-14 1.22458E-13
 -1      2589 3.22282E+01 4.31191E+00-9.39105E-02 5.79059E-01-3.14471E-13-4.24161E-13
 -1      2590 3.31517E+01 5.86279E+00-7.11807E-02 6.21276E-01-2.28317E-13-2.88713E-13
 -1      2591 3.08092E+01 6.17950E+00-6.41827E-02 1.12773E+00-2.02616E-13-3.74950E-13
 -1      2592 2.45572E+01-4.65155E+00 5.28849E-02-4.16902E+00 6.85840E-14-3.36398E-13
 -1      2593 2.71797E+01-3.61174E+00-6.94869E-02-3.17995E+00-3.84415E-14-3.04784E-13
 -1      2594 2.03143E+01 1.77801E+00-1.83940E-02-1.96521E+00-2.19644E-13-1.39486E-13
 -1      2595 2.02700E+01 9.65817E-01-1.10265E-02-1.33484E+00-1.92025E-13-1.25124E-13
 -1      2596 2.02546E+01 1.15508E+00-1.07622E-02-1.16882E+00-1.77098E-13-1.68135E-13
 -1      2597 2.00905E+01 2.22266E+00-1.06440E-02-1.86609E+00-2.13887E-13-2.05901E-13
 -1      2598 2.04779E+01 8.32343E-01-7.49831E-03 1.15167E+00 2.40290E-13 1.23201E-13
 -1      2599 2.08085E+01 1.21123E+00-6.20260E-03 1.63484E+00 2.47365E-13 1.52975E-13
 -1      2600 2.06108E+01 1.65783E+00-1.66263E-02 1.81614E+00 2.66156E-13 7.56131E-14
 -1      2601 2.04410E+01 9.99215E-01-1.03029E-02 1.16087E+00 2.34784E-13 3.45717E-14
 -1      2602 2.62623E+01-4.48052E+00-1.34001E-01 3.72569E+00-6.52256E-15-2.37255E-13
 -1      2603 2.22834E+01-5.33001E+00 6.30563E-02 5.07579E+00-1.98952E-13 9.20097E-14
 -1      2604 3.05769E+01 4.67334E+00-8.84499E-02-1.66567E+00 3.37258E-13-1.10079E-13
 -1      2605 1.98200E+01 2.75963E+00-1.13351E-03-1.12277E+00-1.56195E-13-3.49633E-13
 -1      2606 1.96512E+01 3.08617E+00-1.81831E-02-1.30482E+00-1.59954E-13-3.68829E-13
 -1      2607 1.97150E+01 2.96409E+00-1.94761E-02-1.49645E+00-1.80583E-13-3.53964E-13
 -1      2608 2.00435E+01 3.18208E-01-3.45706E-03 2.88197E-01 1.55678E-13 1.53046E-15
 -1      2609 2.03806E+01 2.04697E+00-1.21236E-02 1.75500E+00 2.61205E-13-2.60885E-14
 -1      2610 2.77537E+01-3.79951E+00 1.06743E-02 1.76205E+00 4.16334E-15-4.94271E-13
 -1      2611 1.99309E+01 2.48407E+00-1.78988E-02-1.68445E+00-1.98606E-13-2.67043E-13
 -1      2612 3.10070E+01 7.05772E+00-1.21577E-01-2.77431E-01-7.00273E-14-1.83367E-13
 -1      2613 2.89364E+01 6.43133E+00-1.19803E-01-8.84502E-01 8.54317E-14-2.03448E-14
 -1      2614 2.89512E+01 6.84052E+00-1.31368E-01 1.72427E-01-4.06342E-14-2.10370E-13
 -1      2615 2.65659E+01-3.86899E+00 2.93439E-02 3.40634E+00-8.51819E-14 1.22929E-13
 -1      2616 2.51052E+01-4.72347E+00 5.95203E-02 3.66671E+00-3.48194E-14 2.12177E-13
 -1      2617 2.75334E+01-3.45783E+00-1.57457E-01 1.70751E+00 6.75154E-15 1.62592E-13
 -1      2618 8.02367E+00-2.34057E+00 1.52809E-01 4.32352E+00-3.42670E-13 6.24500E-13
 -1      2619 5.94219E+00-2.79076E+00 1.24562E-01 4.02394E+00 2.44665E-14-3.07476E-13
 -1      2620 6.50410E+00-1.33928E+00 1.70466E-01 2.89172E+00 1.02765E-13-3.04007E-13
 -1      2621 8.23251E+00-2.58911E+00 9.59209E-02 4.96867E+00 4.95159E-14-1.78246E-13
 -1      2622 2.00284E+01 3.38626E-02 4.87204E-05 4.30729E-02 1.53547E-15 1.31473E-13
 -1      2623 2.11620E+01-5.33860E+00 8.93038E-02 5.35489E+00-2.16355E-13 2.83069E-13
 -1      2624 2.00280E+01 4.48196E-02 4.22482E-05 5.19687E-02 7.40301E-14 1.47836E-13
 -1      2625 8.27242E+00-2.44335E+00 1.47614E-01-4.78824E+00 8.90815E-14-3.66929E-14
 -1      2626 5.54224E+00-1.31928E+00 1.60905E-01-3.33304E-01 2.25341E-15 3.32734E-13
 -1      2627 1.43214E+01-4.70501E+00 1.14026E-01-6.76541E+00 6.38378E-14-8.70137E-14
 -1      2628 1.71406E+01-5.02384E+00-8.01583E-02-6.42033E+00 1.96843E-13-3.55910E-13
 -1      2629 1.36607E+01-3.66616E+00 1.68785E-01-6.46380E+00 1.51684E-13-1.69101E-13
 -1      2630 2.04020E+01 1.72899E+00 1.23980E-02 1.44307E+00 2.35567E-13-4.44714E-14
 -1      2631 2.82217E+01-2.73854E+00-6.34612E-02-1.34293E+00-5.06713E-14-5.64160E-13
 -1      2632 2.29556E+01-5.06405E+00 6.89823E-02-4.85668E+00 1.37446E-13-3.02432E-13
 -1      2633 2.13658E+01-5.43654E+00 6.29305E-02-5.37065E+00-1.74000E-13-2.03379E-14
 -1      2634 2.35267E+01-5.41164E+00-1.15674E-01-3.97019E+00-2.10207E-13 1.37255E-13
 -1      2635 1.99613E+01-4.94855E+00 1.32098E-01-5.57625E+00-2.78721E-13 8.25034E-15
 -1      2636 8.38122E+00-2.59655E+00 1.44117E-01-4.63994E+00-1.68587E-13-4.54664E-13
 -1      2637 3.03913E+01 9.16199E-03-1.04501E-01 1.16794E+00 8.35165E-14 1.41026E-13
 -1      2638 2.89240E+01 1.02542E+00-2.29049E-01 2.28874E+00 1.37446E-13 2.42403E-13
 -1      2639 2.90423E+01-1.43482E+00 1.51993E-03 9.34294E-01 1.16712E-14 1.72820E-13
 -1      2640 3.02284E+01 4.85302E+00-8.22443E-02 1.76611E+00 1.84325E-13 9.07607E-14
 -1      2641 3.05498E+01 4.30318E-01-3.84251E-02-6.59487E-02-2.06779E-15-4.04954E-14
 -1      2642 2.91260E+01-1.07514E+00-1.48307E-02 8.87169E-02-2.27596E-14-5.27356E-15
 -1      2643 2.95292E+01 1.13429E+00-1.14803E-01-1.47244E+00-6.91808E-14 9.28702E-14
 -1      2644 2.00341E+01 3.54125E-02 4.96781E-04-4.93349E-02-2.90882E-13-1.43709E-13
 -1      2645 2.00263E+01 4.96429E-02-3.68611E-04-5.73102E-02-3.60551E-13-3.53044E-13
 -1      2646 2.00317E+01 6.43550E-02 3.37233E-04-7.54377E-02-6.73833E-13-1.68849E-13
 -1      2647 2.00465E+01 3.89332E-02 8.87204E-04-6.17071E-02-4.35478E-13 5.63800E-14
 -1      2648 2.75529E+01-4.05521E+00 2.49626E-02-1.86952E+00-1.01370E-13 2.04115E-13
 -1      2649 3.02576E+01 6.64053E+00-7.69421E-02-9.29562E-02 2.74308E-13 6.48162E-14
 -1      2650 1.28459E+01-4.71689E+00 6.28722E-02 6.76083E+00-1.11550E-13-1.05749E-14
 -1      2651 1.17478E+01-3.65385E+00 1.72650E-01 6.48197E+00 1.67366E-14-5.05151E-14
 -1      2652 1.58148E+01-4.72053E+00 2.14048E-02 6.57914E+00-9.65894E-15-9.43690E-16
 -1      2653 3.14746E+01 2.54101E+00-5.39075E-02 7.36323E-01-3.05228E-13-5.38652E-13
 -1      2654 2.99969E+01 3.34868E+00-1.31727E-01 1.71318E+00-1.86517E-13-5.88890E-13
 -1      2655 2.98694E+01 8.39215E-01-5.87163E-02 7.60760E-01-1.88544E-13-7.29472E-13
 -1      2656 2.00334E+01 5.92008E-02 3.49916E-04 7.03080E-02 6.32177E-14 1.89505E-13
 -1      2657 2.00466E+01 5.30011E-02-6.07099E-04-8.22028E-02-5.82766E-13-3.76128E-14
 -1      2658 1.92830E+01 2.84807E+00 4.46177E-03 1.30511E-01 1.04698E-13-2.79454E-13
 -1      2659 1.90744E+01 2.94281E+00-2.88791E-02 2.88577E-02 8.67622E-14-2.87265E-13
 -1      2660 1.89133E+01 3.17563E+00-2.13724E-02 7.79918E-02 5.14883E-14-2.83419E-13
 -1      2661 1.89181E+01 3.19500E+00-3.49101E-02 9.62324E-02 2.55091E-14-2.75644E-13
 -1      2662 1.90055E+01 2.76767E+00-1.84669E-02-8.30243E-02 5.78981E-14-2.81289E-13
 -1      2663 1.99369E+01 2.18824E+00-1.03336E-02 8.10047E-01 1.79760E-13-2.03094E-13
 -1      2664 1.98084E+01 2.35911E+00-2.46026E-03 6.34969E-01 1.56146E-13-2.19209E-13
 -1      2665 2.01800E+01 1.79124E+00-1.30885E-02 1.07524E+00 2.03147E-13-1.46776E-13
 -1      2666 2.00600E+01 2.02828E+00-2.63711E-03 9.51405E-01 1.95276E-13-1.73902E-13
 -1      2667 2.01393E+01 1.73553E+00 5.80369E-03 7.21982E-01 1.71828E-13-1.77517E-13
 -1      2668 2.02425E+01 6.62249E-01-4.42772E-03 5.88542E-01 1.95134E-13-3.52121E-14
 -1      2669 2.03693E+01 8.78000E-01 8.64438E-03 8.32476E-01 1.97864E-13-3.44497E-14
 -1      2670 2.70184E+01-3.32617E+00-1.60161E-02-9.83439E-01 2.71103E-14-5.77496E-13
 -1      2671 2.88950E+01-1.52339E+00-9.42372E-02 2.37589E-01-1.61855E-13-7.19980E-13
 -1      2672 2.03184E+01 1.41924E+00-2.23677E-03 1.15987E+00 2.12090E-13-5.91558E-14
 -1      2673 2.00166E+01 2.18066E+00 6.15518E-04-1.41185E+00-1.87301E-13-2.76640E-13
 -1      2674 2.02675E+01 4.08104E-01 4.98894E-02 6.88555E-02-4.13766E-14-1.89497E-13
 -1      2675 2.01733E+01-2.16947E-01-1.10409E-01 1.46815E-01-3.78170E-14-1.61558E-13
 -1      2676 2.06492E+01 4.45728E-01 1.88341E-01-9.93795E-02-7.82707E-14-1.45571E-13
 -1      2677 1.94816E+01 5.98537E-01-7.78767E-02 2.29348E-01-3.51438E-14-4.31530E-14
 -1      2678 2.09345E+01-7.07457E-01 1.00514E-01 1.18905E+00-3.48832E-13-4.15612E-13
 -1      2679 1.98034E+01 4.34365E-01-2.17520E-03 7.20403E-02-6.13745E-14-1.50276E-13
 -1      2680 1.99401E+01 4.87944E-01 2.05658E-02 6.83492E-02-6.00761E-14-1.42320E-13
 -1      2681 1.91557E+01 9.58208E-03-3.48480E-01 8.17901E-01-1.88717E-13-3.92256E-14
 -1      2682 1.99853E+01 4.39066E-01-1.59673E-02 2.19477E-02-6.00340E-14-1.76898E-13
 -1      2683 2.00969E+01 4.70926E-01 5.45880E-03 9.44248E-02-9.39114E-14-2.03877E-13
 -1      2684 2.00875E+01 4.23674E-01 5.70874E-03 1.61023E-01-8.42095E-14-2.14993E-13
 -1      2685 2.01257E+01 4.82813E-01-8.08433E-03 1.82815E-01-7.05755E-14-1.82712E-13
 -1      2686 2.01891E+01 4.82098E-01-5.05398E-03 2.96105E-01-4.17270E-14-1.80988E-13
 -1      2687 2.01428E+01 5.38551E-01-7.51006E-03 1.83464E-01-7.25310E-14-2.14973E-13
 -1      2688 2.02602E+01 4.54608E-01-3.97155E-03 4.12315E-01-1.87697E-14-1.49665E-13
 -1      2689 2.03150E+01 4.15938E-01-1.01453E-02 5.09481E-01-5.68729E-15-1.14058E-13
 -1      2690 2.02476E+01 5.54474E-01-1.21956E-02 4.10595E-01-1.58970E-14-1.51315E-13
 -1      2691 2.03858E+01 3.78727E-01-3.25397E-04 5.84500E-01-1.37645E-14-1.02684E-13
 -1      2692 2.04363E+01 3.46452E-01-1.06456E-03 6.47133E-01-3.02870E-14-5.61317E-14
 -1      2693 2.03899E+01 4.72349E-01-2.14160E-03 6.02465E-01-3.51585E-15-7.16563E-14
 -1      2694 2.04704E+01 3.25011E-01 1.55078E-02 6.86529E-01-6.40464E-14-5.41355E-14
 -1      2695 2.05134E+01 3.00881E-01 3.11155E-02 7.20776E-01-4.46865E-14-4.41201E-14
 -1      2696 2.04911E+01 3.82211E-01 1.82586E-02 6.99441E-01-3.14566E-14-8.77666E-14
 -1      2697 2.05414E+01 2.73138E-01 7.78104E-02 7.34553E-01-3.27655E-14-8.30482E-14
 -1      2698 2.04105E+01 1.95778E-01 4.99876E-02 7.24905E-01-3.86323E-15-8.74127E-14
 -1      2699 2.05440E+01 3.06764E-01 7.73155E-02 7.52064E-01-6.07500E-14-1.01405E-13
 -1      2700 2.02937E+01 1.78168E-01-6.30254E-04 7.82450E-01 1.33022E-14-6.20528E-14
 -1      2701 2.03714E+01 1.81096E-01 2.43633E-03 8.30894E-01-7.78295E-15-4.31345E-14
 -1      2702 2.01846E+01 2.16218E-01-1.03753E-03 7.97958E-01-1.35328E-14-1.26603E-13
 -1      2703 2.04090E+01 1.76567E-01-1.83317E-04 8.87700E-01 1.95136E-14-3.73617E-14
 -1      2704 2.05003E+01 1.65034E-01 2.15789E-03 9.34703E-01 3.81695E-14-5.24644E-14
 -1      2705 2.02501E+01 2.20230E-01-1.37238E-03 9.11919E-01 2.43688E-14-2.65290E-14
 -1      2706 2.05560E+01 1.42382E-01 7.34844E-04 9.90412E-01 6.72498E-14 2.07127E-14
 -1      2707 2.06637E+01 1.06729E-01 1.52607E-03 1.02804E+00 9.22124E-14 2.62929E-14
 -1      2708 2.03423E+01 1.90127E-01-2.08533E-03 1.02942E+00 6.33003E-14 4.38242E-14
 -1      2709 2.07476E+01 5.59335E-02 2.30079E-03 1.07402E+00 5.98877E-14 3.33250E-15
 -1      2710 2.08754E+01-1.53071E-02 3.66190E-04 1.08988E+00 1.94897E-14 1.30124E-14
 -1      2711 2.04755E+01 1.03513E-01-3.36613E-03 1.13806E+00 5.44000E-14 7.69384E-15
 -1      2712 2.10028E+01-1.05052E-01 4.67770E-03 1.11217E+00-1.86192E-14-1.92994E-14
 -1      2713 2.11552E+01-2.22842E-01-1.58930E-03 1.08878E+00-5.44203E-14-2.61083E-14
 -1      2714 2.06724E+01-6.59881E-02-5.41985E-03 1.21677E+00-2.00989E-14 7.63826E-15
 -1      2715 2.13457E+01-3.59281E-01 7.86036E-03 1.06635E+00-6.04717E-14-3.67891E-15
 -1      2716 2.15253E+01-5.27975E-01-4.70959E-03 9.81549E-01-5.23873E-14 6.30441E-14
 -1      2717 2.09652E+01-3.43381E-01-8.33686E-03 1.23257E+00-6.10158E-14-1.24681E-14
 -1      2718 2.17991E+01-7.07300E-01 1.13399E-02 8.84825E-01-4.18136E-14 1.01104E-13
 -1      2719 2.20017E+01-9.12009E-01-9.00190E-03 7.14937E-01 2.35771E-14 1.27626E-13
 -1      2720 2.13929E+01-7.38151E-01-1.17512E-02 1.13670E+00-3.75497E-15 9.28079E-14
 -1      2721 2.23672E+01-1.10324E+00 1.40261E-02 5.07596E-01-2.96599E-14 6.70853E-14
 -1      2722 2.25727E+01-1.28965E+00-1.33327E-02 2.37540E-01-4.44156E-14-4.54964E-14
 -1      2723 2.19886E+01-1.21545E+00-1.39092E-02 8.62503E-01-5.98430E-14-1.11369E-15
 -1      2724 2.29991E+01-1.41525E+00 1.17513E-02-1.07811E-01 1.35057E-14-8.90473E-14
 -1      2725 2.31652E+01-1.47051E+00-1.52799E-02-4.61959E-01 2.30313E-14-1.10473E-13
 -1      2726 2.27451E+01-1.64475E+00-1.11839E-02 3.37091E-01-4.76033E-14-9.59968E-14
 -1      2727 2.35538E+01-1.39951E+00-1.14105E-03-9.21138E-01 5.61336E-14-7.65690E-14
 -1      2728 2.36356E+01-1.16598E+00-5.99080E-03-1.27810E+00 5.79073E-14-8.69135E-14
 -1      2729 2.35606E+01-1.76351E+00-2.85818E-03-4.64980E-01 2.90915E-14-4.68722E-15
 -1      2730 2.38097E+01-7.71847E-01-2.71975E-02-1.69195E+00 8.97456E-14-1.34019E-13
 -1      2731 2.37812E+01-1.81412E-01 7.29953E-03-1.87419E+00 9.53734E-14-9.46903E-14
 -1      2732 2.41866E+01-1.18972E+00 8.48322E-03-1.41210E+00 5.97591E-14-1.46281E-13
 -1      2733 2.36646E+01 5.32689E-01-4.75360E-02-2.01931E+00 6.82852E-14-1.17439E-13
 -1      2734 2.35303E+01 1.33867E+00 1.54209E-02-1.83752E+00 9.96165E-14-1.17730E-13
 -1      2735 2.43874E+01 4.96589E-02-4.02106E-03-2.03723E+00 7.54336E-14-2.81990E-13
 -1      2736 2.32480E+01 2.01421E+00-5.66236E-02-1.36446E+00 7.77416E-14-1.20883E-13
 -1      2737 2.31779E+01 2.52410E+00-1.11968E-03-8.11236E-01 3.17021E-14-2.16666E-13
 -1      2738 2.40849E+01 2.11592E+00-1.85303E-02-1.82999E+00 6.20545E-14-3.74308E-13
 -1      2739 2.30902E+01 2.71159E+00-2.05922E-02 1.50587E-02 5.62952E-14-2.45547E-13
 -1      2740 2.30976E+01 2.54421E+00-4.75390E-02 6.78421E-01-1.13173E-14-2.34427E-13
 -1      2741 2.38542E+01 3.18592E+00-2.31775E-02-4.58542E-01 2.71588E-14-2.93544E-13
 -1      2742 2.33249E+01 2.07763E+00 4.30109E-03 1.41167E+00-1.58644E-13-1.52689E-13
 -1      2743 2.34545E+01 1.36093E+00-5.58001E-02 1.80558E+00-2.10729E-13-2.21101E-13
 -1      2744 2.38841E+01 2.80882E+00-2.22933E-02 1.21011E+00-5.30999E-14-2.72192E-13
 -1      2745 2.36851E+01 6.02879E-01 1.19835E-02 1.97230E+00-1.48662E-13-2.48099E-13
 -1      2746 2.37860E+01-1.39771E-01-3.83004E-02 1.96293E+00-1.36981E-13-2.41475E-13
 -1      2747 2.42829E+01 1.16040E+00-8.07806E-03 2.06409E+00-1.53454E-13-1.27775E-13
 -1      2748 2.37621E+01-7.23979E-01-2.65511E-04 1.66608E+00-8.65831E-14-1.57199E-13
 -1      2749 2.37508E+01-1.14853E+00-1.12100E-02 1.37558E+00-4.28739E-14-1.13773E-13
 -1      2750 2.43720E+01-5.50152E-01 1.23697E-02 1.83655E+00-3.00012E-14-9.22786E-14
 -1      2751 2.34505E+01-1.38114E+00-1.09822E-02 9.09706E-01 2.91490E-14-1.07262E-13
 -1      2752 2.33291E+01-1.45717E+00 9.04187E-03 5.40069E-01 6.99480E-14-1.76014E-14
 -1      2753 2.39499E+01-1.55832E+00 7.35542E-03 9.82617E-01 4.64331E-14-3.27533E-14
 -1      2754 2.29033E+01-1.41622E+00-1.40244E-02 1.28066E-01-6.63215E-14 1.13482E-14
 -1      2755 2.27153E+01-1.27976E+00 1.49817E-02-1.89160E-01-1.24887E-13-8.54462E-14
 -1      2756 2.31918E+01-1.76003E+00-6.55249E-03 7.49241E-02 3.47326E-14-1.18559E-13
 -1      2757 2.23096E+01-1.10926E+00-1.10289E-02-4.64471E-01-1.91094E-13 8.69774E-14
 -1      2758 2.21051E+01-9.02322E-01 1.38251E-02-6.83303E-01-1.80712E-13 1.01744E-13
 -1      2759 2.23834E+01-1.44942E+00-1.31621E-02-5.93814E-01-3.08902E-14-3.34368E-15
 -1      2760 2.17823E+01-7.08696E-01-6.58794E-03-8.29823E-01-1.64295E-13 2.74704E-13
 -1      2761 2.15931E+01-5.14801E-01 1.03837E-02-9.52399E-01-4.26152E-14 2.93785E-13
 -1      2762 2.16987E+01-9.68391E-01-1.29687E-02-9.85074E-01-1.05081E-13 2.11758E-13
 -1      2763 2.13612E+01-3.51639E-01-2.94224E-03-1.00458E+00 5.57041E-15 4.40661E-13
 -1      2764 2.11989E+01-2.03910E-01 6.74750E-03-1.05174E+00 5.83153E-14 3.60619E-13
 -1      2765 2.11865E+01-5.15220E-01-9.94557E-03-1.15629E+00 1.19550E-14 4.84421E-13
 -1      2766 2.10418E+01-8.73213E-02-5.33428E-04-1.04326E+00 3.77926E-14 2.70053E-13
 -1      2767 2.09070E+01 1.02684E-02 3.82932E-03-1.03859E+00 5.36589E-14 2.08597E-13
 -1      2768 2.08295E+01-1.68219E-01-6.74100E-03-1.17999E+00-7.75476E-14 4.80028E-13
 -1      2769 2.08035E+01 8.31220E-02 9.25225E-04-9.95001E-01 9.91253E-14 1.24618E-13
 -1      2770 2.06923E+01 1.38990E-01 1.80431E-03-9.58681E-01 1.47512E-13 1.10276E-13
 -1      2771 2.05891E+01 6.26730E-02-4.26367E-03-1.11454E+00-3.89566E-14 1.72985E-13
 -1      2772 2.06245E+01 1.77833E-01 1.74523E-03-8.97543E-01 1.09497E-13 5.05384E-14
 -1      2773 2.05326E+01 2.03450E-01 5.37153E-04-8.44741E-01-4.39274E-14 6.80768E-14
 -1      2774 2.04286E+01 1.96475E-01-2.61295E-03-1.00101E+00 6.05764E-14 4.01687E-14
 -1      2775 2.04875E+01 2.18720E-01 2.14425E-03-7.77512E-01-1.12740E-13-8.52237E-15
 -1      2776 2.04114E+01 2.24490E-01-1.79332E-04-7.18712E-01-1.49142E-13-4.18838E-15
 -1      2777 2.03198E+01 2.59451E-01-1.61190E-03-8.66628E-01-6.55673E-14-9.68565E-15
 -1      2778 2.03804E+01 2.24904E-01 2.26392E-03-6.52504E-01-1.46099E-13 1.58801E-15
 -1      2779 2.03176E+01 2.18875E-01-5.31033E-04-5.94402E-01 7.40988E-14 1.07317E-14
 -1      2780 2.02437E+01 2.75572E-01-1.04388E-03-7.28766E-01-1.16185E-13 3.12031E-15
 -1      2781 2.02955E+01 2.10882E-01 2.20063E-03-5.33316E-01 3.04121E-13-1.97010E-13
 -1      2782 2.02439E+01 1.98744E-01-6.57672E-04-4.79782E-01 2.56713E-13-1.63406E-13
 -1      2783 2.01883E+01 2.63514E-01-7.35031E-04-5.97959E-01 5.38547E-14-4.66918E-13
 -1      2784 2.02275E+01 1.86763E-01 2.02347E-03-4.25868E-01 4.85456E-14-1.30788E-13
 -1      2785 2.01854E+01 1.72279E-01-6.55526E-04-3.78792E-01-1.03765E-13-1.49502E-13
 -1      2786 2.01465E+01 2.36579E-01-5.67419E-04-4.80013E-01 1.62582E-13-5.84891E-13
 -1      2787 2.01728E+01 1.59163E-01 1.78229E-03-3.32735E-01-1.80636E-13-6.71049E-14
 -1      2788 2.01390E+01 1.44687E-01-5.86790E-04-2.92688E-01-9.45166E-14-1.43412E-13
 -1      2789 2.01138E+01 2.03646E-01-4.69397E-04-3.77501E-01-9.03630E-14-5.19069E-13
 -1      2790 2.01289E+01 1.32174E-01 1.51215E-03-2.54305E-01-7.29022E-14-3.93337E-14
 -1      2791 2.01021E+01 1.19081E-01-4.92868E-04-2.21039E-01-1.05476E-13-6.64362E-14
 -1      2792 2.00877E+01 1.70322E-01-3.99621E-04-2.90867E-01-4.90195E-14-4.13407E-13
 -1      2793 2.00938E+01 1.08204E-01 1.26015E-03-1.89643E-01-2.07308E-13-1.19979E-13
 -1      2794 2.00727E+01 9.71671E-02-3.47031E-04-1.62390E-01-1.69402E-13-2.78792E-13
 -1      2795 2.00665E+01 1.39926E-01-3.20113E-04-2.19199E-01-2.24769E-13-5.10245E-13
 -1      2796 2.00655E+01 8.80956E-02 9.46410E-04-1.37117E-01-1.54993E-13-3.55658E-13
 -1      2797 2.00494E+01 7.97540E-02-6.31026E-05-1.15089E-01-2.96306E-13-3.83329E-13
 -1      2798 2.00487E+01 1.13863E-01-3.45452E-04-1.60833E-01-1.63545E-13-5.11347E-13
 -1      2799 1.99605E+01 1.55414E-01-1.12362E-04-2.66535E-01 7.50751E-14-6.20541E-14
 -1      2800 1.99543E+01 1.79492E-01 1.73420E-03-2.07311E-01 6.50090E-14-5.92984E-14
 -1      2801 2.63971E+01-4.48603E+00 8.73322E-02-1.94019E+00-1.02883E-13 1.65964E-13
 -1      2802 2.77129E+01-3.64803E+00-1.58347E-01-6.25263E-01-4.02560E-14 1.38015E-13
 -1      2803 1.99692E+01 2.04913E-01-4.90218E-04-1.29291E-01 5.92122E-14-5.84759E-14
 -1      2804 1.99915E+01 2.34638E-01 2.16136E-03-5.02381E-02 8.40530E-14-4.34347E-14
 -1      2805 2.00628E+01 2.50179E-01-5.50821E-03-1.58535E-01 7.79966E-14-5.69766E-14
 -1      2806 2.00404E+01 1.13947E-01 3.12157E-03-4.51591E-01 8.05046E-14 4.49396E-14
 -1      2807 1.99965E+01 1.15502E-01 1.19802E-03-4.12164E-01 8.79813E-14-5.45641E-15
 -1      2808 2.01101E+01 1.19695E-01 2.58137E-03-5.33567E-01 1.00677E-13 3.30620E-14
 -1      2809 2.00536E+01 1.15116E-01 1.47887E-03-4.93932E-01 1.30456E-13 5.70427E-14
 -1      2810 2.00799E+01 1.48836E-01 2.00770E-03-5.00403E-01 9.11984E-14-1.35124E-14
 -1      2811 2.02037E+01 1.50216E-01 2.29786E-03-6.24573E-01 5.10190E-14 3.75590E-14
 -1      2812 2.01306E+01 1.31818E-01-1.30331E-03-5.79437E-01 6.82636E-14 1.55028E-14
 -1      2813 2.01063E+01 1.63686E-01-1.74853E-03-5.93452E-01 8.88320E-14-2.68956E-15
 -1      2814 2.03212E+01 1.88736E-01 3.58535E-03-7.32736E-01 2.42462E-14 1.12995E-14
 -1      2815 2.02335E+01 1.68541E-01-1.05769E-03-6.77736E-01 3.68454E-14 3.35988E-14
 -1      2816 2.01635E+01 2.04061E-01-8.79084E-04-6.97939E-01 6.68790E-14-3.29812E-14
 -1      2817 2.04583E+01 2.26172E-01 3.91171E-03-8.62732E-01 5.75783E-14 1.09550E-14
 -1      2818 2.03557E+01 2.06420E-01-1.25658E-03-7.97578E-01 6.19600E-14 4.10980E-14
 -1      2819 2.02327E+01 2.50094E-01-7.39878E-04-8.21167E-01 3.77487E-14-5.36261E-14
 -1      2820 2.06189E+01 2.54735E-01 4.05562E-03-1.01256E+00 3.82821E-15-5.94980E-15
 -1      2821 2.04998E+01 2.40903E-01-1.26016E-03-9.38868E-01 4.92744E-14-1.78543E-14
 -1      2822 2.03150E+01 2.94426E-01-7.17168E-04-9.66572E-01 5.99157E-14 6.41439E-14
 -1      2823 2.08083E+01 2.59037E-01 3.87244E-03-1.17512E+00-2.14681E-14 4.69282E-14
 -1      2824 2.06705E+01 2.59947E-01-9.35969E-04-1.09808E+00-2.02212E-14 9.20652E-15
 -1      2825 2.04132E+01 3.23608E-01-9.38410E-04-1.13297E+00-1.05112E-14 6.18279E-14
 -1      2826 2.10369E+01 2.14965E-01 3.15259E-03-1.33446E+00-4.41087E-14 3.19889E-14
 -1      2827 2.08770E+01 2.44306E-01-3.28122E-05-1.26458E+00-3.90260E-14 5.94673E-14
 -1      2828 2.05352E+01 3.16320E-01-1.66492E-03-1.31355E+00-6.31080E-14 6.48851E-14
 -1      2829 2.13236E+01 8.75298E-02 1.59563E-03-1.46158E+00 3.13114E-15 1.12690E-13
 -1      2830 2.11363E+01 1.64770E-01 1.85049E-03-1.41700E+00-2.45115E-14 7.12023E-14
 -1      2831 2.06980E+01 2.39947E-01-3.34576E-03-1.49332E+00-6.41856E-14 1.82225E-14
 -1      2832 2.17005E+01-1.67064E-01-1.16972E-03-1.50911E+00-1.42571E-13 2.17830E-13
 -1      2833 2.14779E+01-1.85616E-02 5.27063E-03-1.51793E+00-3.55052E-14 1.79404E-13
 -1      2834 2.09339E+01 4.87122E-02-6.59706E-03-1.64482E+00-7.24441E-14 1.15733E-13
 -1      2835 2.22130E+01-5.87947E-01-5.95544E-03-1.40613E+00-1.77888E-13 1.67967E-13
 -1      2836 2.19474E+01-3.49655E-01 1.08438E-02-1.50733E+00-1.28614E-13 2.03642E-13
 -1      2837 2.12979E+01-3.11565E-01-1.19099E-02-1.72141E+00-1.18982E-13 1.93629E-13
 -1      2838 2.29088E+01-1.16449E+00-1.28940E-02-1.05402E+00-1.00352E-13 3.75531E-14
 -1      2839 2.26027E+01-8.52304E-01 1.83119E-02-1.29351E+00-2.01611E-13 5.52414E-14
 -1      2840 2.18726E+01-8.83677E-01-1.92920E-02-1.64667E+00-1.34740E-13 1.75125E-13
 -1      2841 2.37912E+01-1.75192E+00-2.05981E-02-3.50811E-01-2.40415E-14 1.13012E-13
 -1      2842 2.34748E+01-1.46206E+00 2.44079E-02-7.58376E-01-3.19231E-14 8.87795E-14
 -1      2843 2.27527E+01-1.62902E+00-2.57008E-02-1.29292E+00-1.10397E-13 6.04421E-15
 -1      2844 2.47450E+01-1.97656E+00-2.29752E-02 7.14777E-01 6.06308E-14 1.35331E-13
 -1      2845 2.44857E+01-1.92644E+00 2.03341E-02 1.81537E-01 1.15181E-14 1.54675E-13
 -1      2846 2.39518E+01-2.30187E+00-2.66255E-02-5.16053E-01 1.69615E-14 4.57360E-14
 -1      2847 2.54965E+01-1.30315E+00-1.26236E-03 1.88600E+00 4.69039E-14 1.73783E-13
 -1      2848 2.54142E+01-1.76069E+00 2.28961E-03 1.42683E+00 8.68929E-14 2.47360E-13
 -1      2849 2.52730E+01-2.41284E+00-4.59943E-02 7.19981E-01 2.69368E-14 1.20515E-13
 -1      2850 2.64684E+01 7.34269E-01-3.78626E-02 2.46136E+00 1.14672E-13 1.45495E-13
 -1      2851 2.65084E+01-5.55951E-01-7.13390E-02 2.33782E+00 8.30447E-14 1.73632E-13
 -1      2852 2.49605E+01 3.43646E+00-9.55583E-02-5.67282E-01 1.56833E-13 4.35901E-14
 -1      2853 2.49182E+01 3.49850E+00-9.16825E-02 4.38399E-01 1.96912E-13 1.01330E-13
 -1      2854 2.53534E+01 1.76964E+00-1.05203E-01-2.28475E+00 1.37765E-13 2.80782E-14
 -1      2855 2.51681E+01 2.83651E+00-2.98981E-02-1.66856E+00 2.04864E-13-5.22030E-14
 -1      2856 2.61446E+01 3.87945E+00-9.70878E-02-1.25945E+00 2.08958E-13 1.22735E-13
 -1      2857 2.56758E+01-4.68262E-01-5.11338E-02-2.44054E+00 1.99840E-14 7.96320E-14
 -1      2858 2.55116E+01 6.34115E-01-1.24155E-02-2.49698E+00 7.69662E-14 9.32887E-14
 -1      2859 2.63831E+01 1.34965E+00-6.90745E-02-2.48405E+00 8.29753E-14 7.72993E-15
 -1      2860 2.52919E+01-1.73370E+00-1.23931E-02-1.40655E+00 7.18384E-14-3.53554E-14
 -1      2861 2.53746E+01-1.25482E+00-2.08959E-02-1.87186E+00 5.40835E-14 6.95581E-15
 -1      2862 2.62038E+01-1.12806E+00-5.01991E-02-2.10886E+00 1.49995E-13-6.55049E-14
 -1      2863 2.44394E+01-1.87426E+00 1.67723E-02-1.71814E-01 1.31347E-13-1.14459E-13
 -1      2864 2.46898E+01-1.93072E+00-2.66632E-02-7.05666E-01 8.18421E-14-5.58793E-14
 -1      2865 2.52008E+01-2.29179E+00-2.85176E-02-7.66534E-01 8.95352E-14-1.14174E-13
 -1      2866 2.34583E+01-1.39547E+00 2.24611E-02 7.46768E-01-2.64913E-14-6.29757E-14
 -1      2867 2.37669E+01-1.68877E+00-2.24779E-02 3.49249E-01 9.31156E-14-7.07049E-14
 -1      2868 2.39342E+01-2.18915E+00-2.21785E-02 4.76650E-01 5.37300E-14-1.42087E-13
 -1      2869 2.26165E+01-7.95886E-01 1.73610E-02 1.26149E+00-1.84916E-13 2.47331E-13
 -1      2870 2.29135E+01-1.10650E+00-1.43068E-02 1.03379E+00-1.47391E-13 1.15411E-13
 -1      2871 2.27837E+01-1.53022E+00-2.30194E-02 1.22982E+00-1.73167E-13 5.12394E-14
 -1      2872 2.19831E+01-3.08001E-01 1.04392E-02 1.45982E+00-9.58371E-14 1.66011E-13
 -1      2873 2.22389E+01-5.43538E-01-7.25192E-03 1.36932E+00-1.60633E-13 2.30380E-13
 -1      2874 2.19382E+01-8.13695E-01-1.73715E-02 1.57750E+00-9.59840E-14 1.55042E-13
 -1      2875 2.15280E+01 1.21212E-02 5.29273E-03 1.45716E+00 2.18099E-14 3.48902E-13
 -1      2876 2.17413E+01-1.34972E-01-2.20197E-03 1.45783E+00-2.61323E-14 1.71811E-13
 -1      2877 2.13791E+01-2.65626E-01-1.08433E-02 1.64827E+00-8.89870E-14 2.81452E-13
 -1      2878 2.11970E+01 1.89619E-01 2.14307E-03 1.34278E+00 4.99713E-14 4.71184E-13
 -1      2879 2.13751E+01 1.12224E-01 8.74046E-04 1.39617E+00 1.31729E-13 4.10059E-13
 -1      2880 2.10195E+01 7.98838E-02-6.05449E-03 1.56516E+00 1.29642E-14 4.83723E-13
 -1      2881 2.09474E+01 2.67639E-01 4.00959E-04 1.17576E+00 5.86605E-14 1.79980E-13
 -1      2882 2.10973E+01 2.36916E-01 2.63943E-03 1.25435E+00 1.40950E-13 3.40333E-13
 -1      2883 2.07830E+01 2.64341E-01-3.10274E-03 1.40352E+00 1.92984E-13 4.06174E-13
 -1      2884 2.07515E+01 2.84687E-01-4.43770E-04 9.93012E-01-5.68240E-14 9.12614E-14
 -1      2885 2.08782E+01 2.81689E-01 3.47584E-03 1.07910E+00-1.43827E-13-1.18744E-14
 -1      2886 2.06183E+01 3.39811E-01-1.55452E-03 1.21026E+00 7.80648E-14 1.53311E-13
 -1      2887 2.05934E+01 2.68496E-01-7.70746E-04 8.15881E-01-2.40393E-13 1.78541E-13
 -1      2888 2.06999E+01 2.80101E-01 3.71264E-03 8.99141E-01-9.87307E-14 2.07882E-13
 -1      2889 2.04950E+01 3.49793E-01-8.54721E-04 1.01342E+00-1.02727E-13 1.96556E-13
 -1      2890 2.04639E+01 2.36855E-01-8.23962E-04 6.55458E-01-1.20385E-13-2.20378E-14
 -1      2891 2.05525E+01 2.54844E-01 3.58496E-03 7.30555E-01-1.27312E-13 4.05910E-14
 -1      2892 2.03970E+01 3.24784E-01-5.90976E-04 8.28743E-01-9.66634E-14 4.11010E-14
 -1      2893 2.03577E+01 2.00280E-01-7.47574E-04 5.16413E-01-1.02944E-13-1.71058E-14
 -1      2894 2.04304E+01 2.19883E-01 3.25561E-03 5.81178E-01-2.02866E-13-1.08737E-13
 -1      2895 2.03163E+01 2.84095E-01-5.16544E-04 6.64155E-01-1.20867E-13-7.03619E-14
 -1      2896 2.02711E+01 1.64540E-01-6.21081E-04 3.99571E-01-6.87662E-14 4.70220E-14
 -1      2897 2.03299E+01 1.83188E-01 2.83304E-03 4.53715E-01-7.35840E-14 3.08877E-15
 -1      2898 2.02489E+01 2.39064E-01-5.02625E-04 5.22631E-01-2.16178E-13-2.32027E-14
 -1      2899 2.02014E+01 1.32509E-01-4.87844E-04 3.03599E-01-1.66975E-13 4.44030E-14
 -1      2900 2.02481E+01 1.48963E-01 2.38557E-03 3.47859E-01-1.67475E-13 1.03190E-13
 -1      2901 2.01926E+01 1.95868E-01-4.93788E-04 4.04142E-01-2.25806E-13-1.11011E-13
 -1      2902 2.01459E+01 1.05461E-01-3.63342E-04 2.26109E-01-2.22714E-14 3.73532E-13
 -1      2903 2.01825E+01 1.19178E-01 1.95069E-03 2.61716E-01-1.24444E-13 2.29688E-13
 -1      2904 2.01462E+01 1.57543E-01-4.71612E-04 3.06966E-01-2.43705E-13 7.38546E-15
 -1      2905 2.01024E+01 8.38327E-02-2.13790E-04 1.64196E-01 1.98993E-13 4.65308E-13
 -1      2906 2.01305E+01 9.46808E-02 1.54890E-03 1.92594E-01 2.18328E-13 5.48416E-13
 -1      2907 2.01082E+01 1.25446E-01-4.26664E-04 2.28546E-01-9.09030E-15 3.94705E-13
 -1      2908 2.00692E+01 6.75099E-02 2.31965E-04 1.15128E-01 1.14118E-13 2.36169E-13
 -1      2909 2.00897E+01 7.52815E-02 1.18970E-03 1.37354E-01 1.51272E-13 2.67090E-13
 -1      2910 2.00771E+01 9.99184E-02-3.85735E-04 1.65872E-01 2.46063E-13 3.19761E-13
 -1      2911 2.00428E+01 6.08150E-02 3.61911E-04 8.26284E-02-5.83935E-15 2.38923E-13
 -1      2912 2.00578E+01 6.69054E-02 9.00959E-04 1.00923E-01 9.91462E-14 2.87317E-13
 -1      2913 2.00506E+01 8.55924E-02-8.67482E-04 1.22855E-01 1.03635E-13 2.01018E-13
 -1      2914 2.00306E+01 8.05306E-02-8.00792E-04 9.41882E-02 2.41133E-14-1.75793E-13
 -1      2915 2.31319E+01-5.45479E+00-1.23395E-01 4.33961E+00-2.03032E-13-1.55835E-13
 -1      2916 1.96474E+01-4.92913E+00 1.25963E-01 5.48854E+00-2.66925E-13 2.20043E-13
 -1      2917 1.99343E+01 2.11328E-01-5.11447E-04 9.45297E-03 2.78011E-13 3.39684E-13
 -1      2918 1.99368E+01 2.09003E-01-2.90073E-04 2.73112E-02 2.47019E-13 1.67817E-13
 -1      2919 2.00456E+01 7.45729E-02 7.46444E-04-1.00902E-01-3.50773E-13-3.25053E-13
 -1      2920 2.00365E+01 6.94805E-02 1.05919E-04-8.81450E-02-5.08344E-13-1.98900E-13
 -1      2921 2.00359E+01 9.50719E-02-4.39277E-04-1.20196E-01-2.94402E-13-6.49201E-13
 -1      2922 1.99583E+01 1.81416E-01-8.55971E-04 7.88986E-02 2.02253E-13-7.89755E-14
 -1      2923 1.99699E+01 1.69702E-01 2.81822E-04 8.93258E-02 3.35112E-13-1.71175E-13
 -1      2924 1.99375E+01 2.07636E-01-2.47445E-04-2.98643E-02 1.15036E-13 3.57620E-13
 -1      2925 1.99346E+01 2.10643E-01-5.49849E-04-1.21676E-02 1.12030E-13 2.70086E-13
 -1      2926 1.99192E+01 2.31793E-01 8.58142E-04-1.81945E-03 1.91667E-13 1.64203E-13
 -1      2927 1.99416E+01 2.02293E-01-7.27218E-04 4.76025E-02 8.51565E-14-4.88802E-15
 -1      2928 1.99491E+01 1.94882E-01 1.15977E-05 6.29382E-02 1.03481E-13 1.93646E-13
 -1      2929 1.99428E+01 2.07109E-01 7.36689E-04 8.11748E-02 2.01534E-13-8.19243E-14
 -1      2930 1.99250E+01 2.26153E-01 8.36876E-04 4.26068E-02 2.00306E-13 2.44756E-13
 -1      2931 1.99502E+01 1.92165E-01 4.84429E-05-6.40810E-02 1.43428E-13 2.08324E-14
 -1      2932 1.99426E+01 1.99883E-01-7.42522E-04-4.93984E-02 1.66534E-13 3.27562E-13
 -1      2933 1.99261E+01 2.23730E-01 8.06451E-04-4.54092E-02 1.31491E-13 3.32238E-13
 -1      2934 1.99710E+01 1.66089E-01 2.85087E-04-8.94186E-02 2.91795E-13-1.99041E-13
 -1      2935 1.99595E+01 1.78043E-01-8.50414E-04-7.94266E-02 1.73745E-13-1.09929E-13
 -1      2936 1.99442E+01 2.03011E-01 6.52035E-04-8.24522E-02 9.86638E-14 8.74690E-15
 -1      2937 1.99960E+01 1.32010E-01 1.40770E-04-1.01265E-01 7.29096E-14-2.21888E-13
 -1      2938 1.99834E+01 1.47335E-01-7.62654E-04-9.81314E-02 2.82872E-13-3.25298E-13
 -1      2939 1.99710E+01 1.71789E-01 3.82732E-04-1.08020E-01 1.71005E-13-2.76436E-13
 -1      2940 6.79262E+00-5.59020E-01 1.49796E-01 9.99360E-01 7.15226E-14 4.73926E-13
 -1      2941 6.93262E+00-5.90027E-01 1.47550E-01-1.56831E+00 1.77549E-13 1.93734E-13
 -1      2942 1.34110E+01-3.36889E+00 1.61855E-01-5.93083E+00-2.67716E-13-4.10838E-13
 -1      2943 1.61246E+01-4.19570E+00 2.99981E-02-6.08119E+00-2.52715E-13-4.33126E-14
 -1      2944 1.62247E+01-4.20031E+00 1.18867E-02 6.15896E+00-3.53093E-13 5.33046E-13
 -1      2945 1.34472E+01-3.10794E+00 1.48748E-01 5.75530E+00-3.82958E-13 5.27980E-13
 -1      2946 2.09533E+01-5.13887E+00 1.28517E-01-5.47733E+00 1.76026E-13-3.99254E-13
 -1      2947 2.40183E+01-4.96739E+00-6.27916E-02-3.71000E+00 1.89466E-13-4.52680E-13
 -1      2948 2.00287E+01 2.68053E-01-5.38797E-04 4.62528E-02 9.67692E-14-3.69114E-14
 -1      2949 2.00847E+01 3.19354E-01 4.43617E-03 1.49832E-01 1.10893E-13-4.18174E-14
 -1      2950 2.01199E+01 3.28811E-01-5.41917E-03 3.19436E-02 1.03736E-13-7.05108E-14
 -1      2951 1.99891E+01 1.22720E-01 1.20422E-03-3.67914E-01 8.10537E-14-5.53886E-14
 -1      2952 1.99615E+01 1.36380E-01 1.25769E-03-3.23219E-01 8.13401E-14-5.57417E-14
 -1      2953 2.00481E+01 1.90825E-01-3.11956E-03-3.03082E-01 7.82362E-14-7.64815E-14
 -1      2954 2.00563E+01 1.55059E-01-9.84375E-04-4.08817E-01 5.12247E-14-4.77498E-14
 -1      2955 2.01974E+01 9.27650E-01 1.01059E-02-6.39914E-01-1.29338E-13-2.29490E-13
 -1      2956 2.02532E+01 6.72923E-01 2.16573E-02-3.14921E-01-9.13939E-14-2.12315E-13
 -1      2957 1.98730E+01 7.31318E-01-3.40338E-02-1.50718E-01-5.18544E-14-2.47365E-13
 -1      2958 1.96613E+01 2.50429E+00-1.08174E-04 4.49289E-01 1.46933E-13-2.43767E-13
 -1      2959 1.94800E+01 2.64588E+00-7.23182E-03 2.74416E-01 1.15235E-13-2.56394E-13
 -1      2960 1.94896E+01 2.34308E+00-3.11384E-03 5.30551E-02 1.13067E-13-2.58379E-13
 -1      2961 1.98930E+01 2.03081E+00 4.42737E-03 4.09358E-01 1.42767E-13-2.11528E-13
 -1      2962 2.01278E+01 3.90346E-01-1.77998E-03 2.69116E-01 1.50941E-13-4.21789E-14
 -1      2963 2.02170E+01 5.04383E-01 8.26287E-03 4.19317E-01 1.73618E-13-3.26367E-14
 -1      2964 2.02954E+01 7.49795E-01 2.37444E-04 5.61392E-01 1.86900E-13-8.51616E-14
 -1      2965 2.02095E+01 4.62752E-01-3.44926E-03 2.61205E-01 1.44162E-13-9.19935E-14
 -1      2966 2.80861E+01-3.29017E+00-1.85966E-01 2.79683E-01 9.21208E-14-5.23526E-13
 -1      2967 2.63894E+01-4.48692E+00 1.00179E-01 2.02349E+00-9.24053E-14-3.64403E-13
 -1      2968 1.99188E+01 2.64569E+00-2.78246E-02-5.66095E-01-9.31911E-14-2.97536E-13
 -1      2969 1.99421E+01 2.54318E+00-2.86282E-02-7.71398E-01-1.17411E-13-3.08806E-13
 -1      2970 2.85482E+01 3.56049E+00-6.49476E-02 2.32971E+00 1.13631E-13 1.38278E-13
 -1      2971 2.83749E+01 5.00817E+00-2.19166E-01 1.42481E+00 1.37640E-13-1.28716E-14
 -1      2972 8.44171E+00-1.32791E+00 1.41469E-01-3.89665E+00 2.36935E-13 1.96509E-14
 -1      2973 1.06792E+01-2.34384E+00 1.23093E-01-5.48924E+00 1.69892E-13-8.12406E-14
 -1      2974 2.78223E+01 5.55666E+00-1.58763E-01 4.92572E-01 2.17826E-13 1.00149E-13
 -1      2975 2.77044E+01 5.45054E+00-1.80828E-01-6.71157E-01 2.85910E-13 7.79828E-14
 -1      2976 8.28209E+00-1.24418E+00 1.69426E-01-3.51417E+00-8.14418E-14-3.13943E-13
 -1      2977 1.04528E+01-2.40335E+00 7.79443E-02-5.23996E+00-1.87309E-13-4.51195E-13
 -1      2978 1.29386E+01-2.20049E+00 1.57270E-01-5.06263E+00-1.91000E-13-3.67345E-13
 -1      2979 6.44340E+00-6.46087E-01 1.68661E-01 6.19501E-01 4.95125E-14-2.30871E-13
 -1      2980 6.81676E+00-7.17378E-01 1.21775E-01-1.61806E+00 3.11418E-14-2.89990E-13
 -1      2981 2.00271E+01 8.33251E-02 1.05794E-05-9.27878E-02-4.14291E-13-4.66308E-13
 -1      2982 2.24478E+01-5.20234E+00 9.30159E-03 4.98179E+00-2.81858E-14 2.62011E-13
 -1      2983 1.97027E+01-5.01173E+00 7.26252E-02 5.73620E+00 2.11359E-14 1.07265E-13
 -1      2984 2.90194E+01 4.97545E+00-1.67636E-01 1.64487E+00-2.47191E-13-4.44533E-13
 -1      2985 2.87406E+01 5.99422E+00-2.12488E-01 1.08399E+00-1.40304E-13-3.57006E-13
 -1      2986 1.05328E+01-2.22192E+00 9.35794E-02 5.14129E+00-2.55587E-13 4.86833E-13
 -1      2987 8.29077E+00-1.17818E+00 1.50775E-01 3.42209E+00-2.31141E-13 6.62775E-13
 -1      2988 1.34024E+01-2.14951E+00 1.48377E-01 5.00897E+00-2.41890E-13 4.96450E-13
 -1      2989 2.86987E+01 4.86312E+00-1.91747E-01-1.64205E+00 5.29299E-14 1.93179E-14
 -1      2990 2.88455E+01 3.20076E+00-1.35388E-01-1.89893E+00-3.26961E-14 7.50927E-14
 -1      2991 2.93201E+01 8.91962E-01-1.85141E-01-2.06540E+00 1.92096E-13-4.27575E-13
 -1      2992 2.91489E+01-9.15083E-01-3.83164E-03-1.46850E+00 2.11581E-13-5.57276E-13
 -1      2993 2.87041E+01 4.95420E+00-1.95737E-01-1.69312E+00 3.12833E-13-6.45595E-14
 -1      2994 2.92091E+01 3.26207E+00-1.03824E-01-2.30022E+00 2.61902E-13-1.75082E-13
 -1      2995 1.99209E+01 2.46270E+00-8.62652E-03-9.46783E-01-1.33677E-13-3.23319E-13
 -1      2996 1.98684E+01 2.32564E+00-2.48613E-02-1.08747E+00-1.60943E-13-3.32335E-13
 -1      2997 2.00623E+01 2.19435E+00-1.66598E-02-7.80964E-01-1.16188E-13-2.97372E-13
 -1      2998 1.91158E+01 2.95011E+00-1.46128E-02 2.04968E-01-1.44919E-14-2.58273E-13
 -1      2999 1.91102E+01 3.09022E+00-6.34229E-02 1.88736E-01-3.74787E-15-2.86354E-13
 -1      3000 1.94010E+01 3.02109E+00-3.53545E-02 1.01132E-01-2.65118E-14-3.06796E-13
 -1      3001 2.79541E+01-2.19855E+00-2.29810E-02-9.89877E-01 9.34391E-14-5.73278E-13
 -1      3002 2.84000E+01-4.05926E-01-1.12236E-01 1.31105E+00-1.11383E-13-6.00353E-13
 -1      3003 2.02772E+01 1.49175E+00-9.95066E-04 1.05051E+00 2.11754E-13-1.10130E-13
 -1      3004 2.81803E+01 1.59606E+00-1.00675E-01-2.35229E+00 1.19821E-13-2.19783E-13
 -1      3005 2.76866E+01 5.97656E+00-1.03289E-01 7.44612E-01-5.19862E-14-1.50893E-13
 -1      3006 2.83538E+01-2.47978E+00-2.97924E-02 5.30472E-01 6.81902E-14-1.94289E-15
 -1      3007 2.70314E+01-3.47519E+00-2.08543E-02 1.10630E+00 5.95288E-14 1.03278E-13
 -1      3008 2.80221E+01-1.59334E+00-1.30957E-01-7.50902E-01 6.99510E-14-3.26961E-14
 -1      3009 2.87897E+01 3.68714E+00-1.50876E-01 1.86325E+00-2.07306E-13-4.55191E-13
 -1      3010 2.73175E+01 3.85381E+00-8.68041E-02 2.02877E+00-1.28828E-13-3.78780E-13
 -1      3011 2.81552E+01 2.31710E+00-1.02478E-01 2.05380E+00-1.00628E-13-3.99625E-13
 -1      3012 1.06365E+01-2.70642E+00 1.61052E-01 5.65355E+00 6.20615E-14-4.43534E-14
 -1      3013 1.00833E+01-1.54186E+00 1.49312E-01 4.63142E+00 1.24317E-13-1.47549E-13
 -1      3014 1.31413E+01-2.94175E+00 7.13344E-02 5.75656E+00 9.40775E-14-1.52656E-14
 -1      3015 1.99698E+01 1.76727E-01 4.74409E-04 1.08185E-01 3.20849E-13-2.75886E-14
 -1      3016 1.99823E+01 1.51159E-01-8.49873E-04 9.85483E-02 2.78129E-13-5.25092E-14
 -1      3017 1.99959E+01 1.36284E-01 3.98361E-04 1.02364E-01 1.69067E-13-5.39631E-14
 -1      3018 2.79200E+01-2.48554E+00-3.60469E-02 8.47116E-01-1.34276E-14 7.08322E-14
 -1      3019 9.00513E+00-5.04490E-01 1.67715E-01-2.34169E+00-5.39430E-14-2.73753E-13
 -1      3020 2.65015E+01 4.26655E+00-1.01972E-01 9.54691E-01 1.64688E-13 1.31346E-13
 -1      3021 2.54157E+01 3.25715E+00-6.51866E-02 1.49416E+00 1.74832E-13 4.83155E-14
 -1      3022 2.55292E+01 2.30215E+00-1.55650E-01 2.18279E+00 8.25451E-14 1.20881E-13
 -1      3023 2.48679E+01-4.61496E+00 6.47315E-02 2.63570E+00-1.51767E-13-3.12445E-13
 -1      3024 2.02988E+01-4.58005E+00-6.65836E-03 5.02597E+00 1.48909E-13 2.67380E-13
 -1      3025 1.84453E+01-4.64678E+00 9.08314E-02 6.00894E+00 7.34413E-14 4.35069E-14
 -1      3026 1.68769E+01-3.86881E+00 1.07893E-01 5.94336E+00 1.01724E-13 1.11147E-13
 -1      3027 2.00073E+01 1.16954E-01-7.76544E-04 1.02932E-01-6.05813E-14-1.27567E-13
 -1      3028 2.00207E+01 1.00580E-01 4.42422E-04 9.98353E-02 3.86084E-14-1.64030E-13
 -1      3029 2.00293E+01 1.04199E-01 7.50751E-04 1.14134E-01-6.81302E-14-1.88255E-13
 -1      3030 2.00007E+01 1.40828E-01 4.92180E-04 1.18808E-01 1.77185E-13 8.12043E-14
 -1      3031 1.94075E+01-4.61298E+00 9.99340E-02-5.59915E+00 2.26777E-13-4.48207E-13
 -1      3032 1.90122E+01-4.13369E+00 1.08363E-01 5.17667E+00-3.26947E-13 2.50178E-13
 -1      3033 9.22994E+00 1.37411E-01 9.53267E-02-1.39136E+00 2.14245E-13 1.20307E-13
 -1      3034 8.62000E+00-5.12390E-01 1.67228E-01-2.64382E+00 1.65354E-13-3.74700E-14
 -1      3035 1.05705E+01-5.67528E-01 9.27275E-02-3.39213E+00 2.84796E-13-1.34115E-13
 -1      3036 8.58456E+00-4.32434E-01 1.65399E-01 2.19059E+00-3.67414E-15 5.07913E-13
 -1      3037 9.36857E+00 2.00565E-01 1.08589E-01 9.88618E-01 1.92065E-13 3.21229E-13
 -1      3038 1.05471E+01-4.55975E-01 4.74412E-02 3.09190E+00-6.29982E-14 4.69985E-13
 -1      3039 2.00172E+01 1.01135E-01 1.95442E-04-9.67567E-02-2.23251E-13-4.15020E-13
 -1      3040 1.29046E+01-2.71951E+00 1.58806E-01-5.75155E+00 1.93290E-13-1.51490E-13
 -1      3041 1.50539E+01-3.23588E+00 1.17231E-03-5.76681E+00 2.21836E-13-2.09860E-13
 -1      3042 1.26109E+01-1.78878E+00 9.36867E-02-5.01578E+00 2.94764E-13-7.41629E-14
 -1      3043 2.49373E+01-4.66188E+00 6.77895E-02-2.64009E+00-1.25025E-13 4.95437E-14
 -1      3044 8.54362E+00-6.14119E-01 1.16003E-01 2.78344E+00 9.11250E-14-2.35756E-13
 -1      3045 7.31578E+00-5.57887E-01 1.86132E-01 1.65440E+00 5.68226E-14-2.87298E-13
 -1      3046 8.55842E+00 2.33692E-02 1.24419E-01 7.79210E-01 4.26291E-14-2.44027E-13
 -1      3047 1.77527E+01-3.54572E+00 1.00844E-01-5.32927E+00-2.28081E-13-1.86309E-14
 -1      3048 1.87705E+01-4.38198E+00 1.25436E-01-5.55307E+00-2.25583E-13-7.41074E-15
 -1      3049 2.07030E+01-4.73839E+00-1.18276E-01-4.59479E+00-2.05572E-13 6.88338E-15
 -1      3050 2.71804E+01 2.55413E+00-9.10365E-02-2.25321E+00 5.96745E-16-1.18197E-13
 -1      3051 2.86171E+01 1.77035E+00-1.39636E-01-1.87998E+00-8.33222E-14 2.91434E-14
 -1      3052 2.80796E+01 5.96759E-01-3.68537E-02-1.83404E+00-6.75571E-14-1.42664E-14
 -1      3053 2.36819E+01-4.66675E+00-1.88111E-02-3.29184E+00 1.92034E-13-4.72077E-13
 -1      3054 2.57326E+01-4.49963E+00 3.63753E-03-2.32458E+00 1.66686E-13-4.68806E-13
 -1      3055 2.40750E+01-4.90794E+00-1.22897E-02 3.59301E+00 4.71706E-14 2.88658E-13
 -1      3056 2.65060E+01-3.37115E+00-2.58257E-02-5.53289E-01 6.84687E-14-5.20570E-13
 -1      3057 1.96691E+01 2.80507E+00-6.46178E-02-8.67585E-02-3.24792E-14-2.79214E-13
 -1      3058 1.98412E+01 2.70333E+00-5.44110E-02-3.09573E-01-6.88338E-14-2.74822E-13
 -1      3059 2.01064E+01 2.35215E+00-4.21735E-02-3.66437E-01-7.57068E-14-2.67203E-13
 -1      3060 1.95650E+01 2.55830E+00-1.17804E-01 1.49861E-01-3.94389E-14-2.71935E-13
 -1      3061 2.76633E+01 5.11822E+00-1.22495E-01-1.47409E+00 3.41949E-14 3.24185E-14
 -1      3062 2.02828E+01 1.25431E+00 1.06147E-03 8.03103E-01 1.96452E-13-1.21177E-13
 -1      3063 1.99088E+01 2.11373E+00-6.02902E-03-1.09223E+00-1.59157E-13-3.28681E-13
 -1      3064 2.00934E+01 1.58913E+00-1.37069E-02-1.16566E+00-1.87234E-13-2.52654E-13
 -1      3065 2.01536E+01 1.19872E+00 4.23570E-03-8.19201E-01-1.59124E-13-2.44797E-13
 -1      3066 2.00287E+01 1.93194E+00 2.98523E-02-9.21370E-01-1.51718E-13-3.08974E-13
 -1      3067 2.00214E+01 1.08978E-01-2.15437E-04-1.17744E-01-3.23482E-13-7.10847E-13
 -1      3068 2.00064E+01 1.20582E-01-2.43179E-04-1.07906E-01-1.06890E-13-4.26710E-13
 -1      3069 1.99997E+01 1.42286E-01 5.80552E-04-1.23364E-01 5.96328E-14-5.38664E-13
 -1      3070 2.00277E+01 1.17700E-01 8.16010E-04-1.33076E-01-2.62794E-13-6.90042E-13
 -1      3071 2.00005E+01 1.33139E+00-7.99095E-03-6.59364E-01-1.33491E-13-2.94234E-13
 -1      3072 2.02514E+01 1.31456E+00-1.21907E-02 6.48576E-01 1.65000E-13-1.53335E-13
 -1      3073 2.01954E+01 1.50304E+00 4.26002E-03 5.45769E-01 1.40035E-13-1.66811E-13
 -1      3074 2.68907E+01 4.30042E+00-1.04156E-01-1.21595E+00 2.72157E-13 7.14082E-14
 -1      3075 1.50884E+01-2.23782E+00 2.27971E-02 4.93028E+00-2.97928E-13 3.52829E-13
 -1      3076 1.28335E+01-1.16001E+00 1.51017E-01 4.29885E+00-1.89349E-13 4.29892E-13
 -1      3077 1.89184E+01 1.82564E+00 2.16355E-01-7.26953E-01 2.30316E-13-1.60705E-13
 -1      3078 2.01564E+01 3.93616E-01 3.80705E-01 1.02007E-01-6.91114E-15-4.39454E-13
 -1      3079 2.19127E+01-9.33420E-01 3.17275E-01 6.31155E-01-3.24768E-13-5.55500E-13
 -1      3080 2.09906E+01 3.02540E-01 3.10991E-01 4.60285E-02-6.24023E-14-3.24928E-13
 -1      3081 1.89636E+01 1.08789E+00 7.11889E-03-7.00996E-01 3.40727E-13-1.64785E-13
 -1      3082 2.02869E+01 3.38531E-01 3.99284E-02 1.51568E-01-9.26013E-14-2.13563E-13
 -1      3083 2.02663E+01 4.75585E-01 3.47562E-02 2.91956E-02-9.70120E-14-2.35207E-13
 -1      3084 2.05296E+01 4.64863E-02 4.87449E-02-1.21504E-01-5.57037E-14-2.75863E-13
 -1      3085 2.01516E+01 6.25233E-01-1.85255E-02 1.42355E-01-9.15787E-14-2.24636E-13
 -1      3086 2.01840E+01 7.09604E-01-1.63160E-02 2.47608E-01-3.65593E-14-2.08326E-13
 -1      3087 2.01915E+01 5.71845E-01-2.15275E-02 4.35126E-02-7.82811E-14-2.03514E-13
 -1      3088 2.02545E+01 7.00088E-01-2.34134E-02 4.21686E-01 6.40460E-15-2.13336E-13
 -1      3089 2.03048E+01 6.39458E-01-3.42763E-02 5.34549E-01 4.31252E-15-1.89815E-13
 -1      3090 2.02278E+01 7.84080E-01-5.76346E-02 3.84817E-01-2.03622E-14-2.17992E-13
 -1      3091 2.04099E+01 5.58352E-01-9.61242E-03 6.32064E-01-1.73472E-18-1.55540E-13
 -1      3092 2.04728E+01 4.72414E-01-9.86012E-03 6.95281E-01 1.19824E-14-1.51772E-13
 -1      3093 2.04247E+01 7.01815E-01-2.08681E-02 6.59206E-01 3.38445E-14-1.99488E-13
 -1      3094 2.05243E+01 4.03978E-01 9.04204E-03 7.17087E-01 5.06293E-15-1.51410E-13
 -1      3095 2.05534E+01 3.70350E-01 2.15401E-02 7.36392E-01-6.80012E-15-1.34044E-13
 -1      3096 2.05653E+01 4.78801E-01 6.15319E-03 7.55515E-01 2.93430E-14-1.87889E-13
 -1      3097 2.05915E+01 3.35882E-01 9.88156E-02 7.47332E-01-4.39787E-14-9.19126E-14
 -1      3098 2.03384E+01 2.49223E-01 7.15069E-02 7.33034E-01-5.50324E-14-9.01987E-14
 -1      3099 2.07082E+01 3.95011E-01 1.16979E-01 8.00629E-01-1.35360E-14-1.37362E-13
 -1      3100 2.00722E+01 2.63269E-01-1.23852E-03 7.75899E-01-3.90882E-14-3.90286E-14
 -1      3101 2.01019E+01 2.75181E-01 2.30868E-03 8.31635E-01 1.10612E-14-1.94286E-14
 -1      3102 1.99993E+01 3.03273E-01-3.37839E-04 7.50798E-01-3.56294E-14-1.74484E-14
 -1      3103 2.00893E+01 2.79997E-01-1.09785E-03 8.95858E-01 3.13756E-14-3.45662E-14
 -1      3104 2.01301E+01 2.79246E-01 2.52707E-03 9.55629E-01 4.08926E-14 3.41923E-14
 -1      3105 1.99727E+01 3.28329E-01-5.47941E-04 8.73180E-01 3.50934E-14 2.33761E-14
 -1      3106 2.01282E+01 2.66487E-01-5.41175E-04 1.02684E+00 5.42902E-14 1.16584E-14
 -1      3107 2.01854E+01 2.42018E-01 2.73638E-03 1.08679E+00 6.02146E-14-3.81589E-14
 -1      3108 1.99600E+01 3.25469E-01-1.13715E-03 1.01106E+00 2.73340E-14-1.10932E-13
 -1      3109 2.02041E+01 1.99533E-01 6.37751E-04 1.16200E+00 2.50223E-14-7.74380E-14
 -1      3110 2.02864E+01 1.37217E-01 2.90284E-03 1.21499E+00 1.11600E-14-1.38643E-13
 -1      3111 1.99748E+01 2.70229E-01-2.34726E-03 1.16194E+00 1.77884E-15-1.33682E-13
 -1      3112 2.03422E+01 5.01744E-02 2.74621E-03 1.28792E+00-2.48647E-14-1.15742E-13
 -1      3113 2.04628E+01-6.65095E-02 2.85636E-03 1.32230E+00-8.05115E-14-1.23063E-13
 -1      3114 2.00407E+01 1.31334E-01-4.52420E-03 1.31870E+00-2.02585E-14-2.64238E-13
 -1      3115 2.05814E+01-2.13713E-01 6.16775E-03 1.38100E+00-6.73570E-14-1.01868E-13
 -1      3116 2.07571E+01-4.00344E-01 2.10061E-03 1.37878E+00-2.06129E-14-5.00660E-14
 -1      3117 2.01960E+01-1.28203E-01-8.09768E-03 1.46649E+00-5.05073E-14-1.87635E-13
 -1      3118 2.09745E+01-6.18201E-01 1.12020E-02 1.40111E+00 4.45824E-16-7.51617E-14
 -1      3119 2.12221E+01-8.80355E-01-4.20829E-04 1.33575E+00-4.57326E-14-9.56728E-14
 -1      3120 2.04979E+01-5.44530E-01-1.34743E-02 1.57614E+00-4.79879E-15-2.50145E-13
 -1      3121 2.15819E+01-1.16122E+00 1.75848E-02 1.28251E+00-6.26656E-14-4.54263E-14
 -1      3122 2.19068E+01-1.47466E+00-5.64106E-03 1.11776E+00-4.87659E-14-9.76841E-14
 -1      3123 2.10223E+01-1.13367E+00-2.05523E-02 1.59203E+00-4.10131E-14-1.87916E-13
 -1      3124 2.24452E+01-1.76495E+00 2.53466E-02 9.22928E-01-7.60162E-14-8.34528E-14
 -1      3125 2.28207E+01-2.03697E+00-1.22783E-02 6.21920E-01-8.89826E-15-7.96710E-14
 -1      3126 2.18532E+01-1.85158E+00-2.66304E-02 1.41375E+00-3.97804E-14-9.52623E-14
 -1      3127 2.34996E+01-2.19013E+00 2.34144E-02 2.12073E-01 3.49352E-14-9.67698E-14
 -1      3128 2.38592E+01-2.21025E+00-1.54694E-02-2.18687E-01 2.82144E-14-6.48145E-14
 -1      3129 2.30134E+01-2.47305E+00-2.63042E-02 8.71724E-01 4.23619E-15-1.28383E-13
 -1      3130 2.45415E+01-2.04756E+00-1.17731E-02-8.40920E-01-1.45075E-14-1.31430E-13
 -1      3131 2.47257E+01-1.54469E+00-4.30491E-03-1.30191E+00 3.59365E-14-1.73500E-13
 -1      3132 2.44063E+01-2.51030E+00-9.52837E-03-1.48822E-01-5.04805E-14-1.35132E-13
 -1      3133 2.55535E+01-2.12141E-02-4.52362E-02-2.05610E+00-4.96565E-15-2.33313E-13
 -1      3134 2.54985E+01 1.22753E+00-6.16136E-02-2.22166E+00 1.15047E-14-3.01122E-13
 -1      3135 2.53673E+01 2.42588E+00-6.62151E-02-1.88615E+00-1.64521E-14-3.46352E-13
 -1      3136 2.44892E+01 3.91882E+00-9.93034E-02-9.21606E-01 2.09138E-14-2.29240E-13
 -1      3137 2.44240E+01 4.22070E+00-9.09373E-02-9.70458E-02 9.71445E-14-2.45149E-13
 -1      3138 2.53410E+01 4.29334E+00-9.81568E-02 1.06014E+00-2.99483E-14-2.30344E-13
 -1      3139 2.54613E+01 3.39693E+00-1.13736E-01 1.71875E+00-1.02335E-13-1.85804E-13
 -1      3140 2.50304E+01-5.96207E-01-1.01733E-02 1.83099E+00-7.73687E-14-9.05495E-14
 -1      3141 2.49039E+01-1.47181E+00-3.45337E-02 1.46071E+00-3.28557E-15-8.57509E-14
 -1      3142 2.43902E+01-1.96931E+00-1.23894E-02 8.10836E-01-3.11860E-14-1.46987E-13
 -1      3143 2.41067E+01-2.19998E+00 2.27651E-02 3.38046E-01 6.11065E-14-6.48867E-14
 -1      3144 2.50672E+01-2.12096E+00-3.70144E-03 8.01250E-01-6.26721E-14-2.62704E-13
 -1      3145 2.33634E+01-2.19901E+00-1.77566E-02-2.05549E-01 8.34905E-14-1.02668E-13
 -1      3146 2.30125E+01-2.01113E+00 3.46128E-02-5.69918E-01 1.51919E-14-5.60428E-14
 -1      3147 2.37331E+01-2.64066E+00-5.17049E-02-3.72511E-01 6.19999E-14-1.73354E-13
 -1      3148 2.23649E+01-1.77631E+00-1.04878E-02-8.76684E-01 9.36083E-14-4.40986E-14
 -1      3149 2.20211E+01-1.45826E+00 2.64952E-02-1.09905E+00 8.85232E-14 5.64217E-14
 -1      3150 2.24151E+01-2.25024E+00-6.09704E-02-1.14666E+00 1.26985E-13-2.31447E-14
 -1      3151 2.15592E+01-1.16569E+00-2.49991E-03-1.21976E+00-3.96614E-14 7.04841E-14
 -1      3152 2.12758E+01-8.63788E-01 1.73945E-02-1.32409E+00-3.58821E-14 2.00165E-13
 -1      3153 2.14031E+01-1.52662E+00-4.86298E-02-1.49224E+00 7.87304E-14-3.55115E-14
 -1      3154 2.09838E+01-6.09335E-01 1.89675E-03-1.33402E+00 3.48510E-14 2.65393E-13
 -1      3155 2.07730E+01-3.77516E-01 9.90300E-03-1.35787E+00 4.88242E-14 2.97298E-13
 -1      3156 2.07282E+01-8.38877E-01-3.28384E-02-1.56230E+00 8.88191E-14 7.46013E-14
 -1      3157 2.06062E+01-1.90412E-01 3.51285E-03-1.31015E+00-8.65713E-14 3.43896E-13
 -1      3158 2.04580E+01-3.48358E-02 4.76210E-03-1.28438E+00-1.39092E-13 3.85100E-13
 -1      3159 2.03200E+01-3.09875E-01-1.99463E-02-1.48561E+00-6.45300E-14-5.78006E-14
 -1      3160 2.03728E+01 8.65256E-02 3.75536E-03-1.21041E+00-2.15697E-13 4.40454E-13
 -1      3161 2.02709E+01 1.78388E-01 1.55401E-03-1.15683E+00-1.08913E-13 3.83639E-13
 -1      3162 2.00952E+01 4.61094E-02-1.11310E-02-1.34131E+00-1.60256E-13 3.33889E-13
 -1      3163 2.02348E+01 2.47249E-01 3.52890E-03-1.07373E+00-1.29266E-13 1.87232E-13
 -1      3164 2.01642E+01 2.92247E-01-2.95917E-04-1.00686E+00-1.71012E-13-9.43764E-14
 -1      3165 1.99851E+01 2.58282E-01-5.66354E-03-1.17181E+00-3.20564E-13 2.26122E-13
 -1      3166 2.01556E+01 3.23604E-01 3.20161E-03-9.23890E-01-1.09822E-13-1.72957E-13
 -1      3167 2.01052E+01 3.37081E-01-1.25973E-03-8.53152E-01-1.56035E-13-2.65476E-13
 -1      3168 1.99414E+01 3.64831E-01-2.52540E-03-9.99060E-01-2.54001E-13-1.70938E-13
 -1      3169 2.01104E+01 3.43860E-01 2.88086E-03-7.75345E-01-1.01756E-13-1.11217E-13
 -1      3170 2.00730E+01 3.37881E-01-1.67169E-03-7.06688E-01-5.06014E-14-1.29650E-13
 -1      3171 1.99333E+01 4.00127E-01-8.67206E-04-8.34581E-01-4.17782E-14-2.07946E-13
 -1      3172 2.00841E+01 3.29941E-01 2.57791E-03-6.36662E-01-6.71124E-14-1.34514E-13
 -1      3173 2.00553E+01 3.13232E-01-1.75497E-03-5.73586E-01 9.31892E-15-3.80041E-13
 -1      3174 1.99418E+01 3.91082E-01-8.72981E-05-6.84443E-01-8.74804E-14-2.32120E-14
 -1      3175 2.00678E+01 2.97552E-01 2.28353E-03-5.12486E-01 2.74566E-14-5.39304E-13
 -1      3176 2.00449E+01 2.76062E-01-1.65463E-03-4.56778E-01 9.64539E-14-6.90024E-13
 -1      3177 1.99565E+01 3.57186E-01 2.06269E-04-5.51601E-01-7.42676E-14-2.50698E-13
 -1      3178 2.00565E+01 2.57306E-01 1.99078E-03-4.04795E-01 2.18070E-14-8.83528E-13
 -1      3179 2.00379E+01 2.34872E-01-1.46514E-03-3.57058E-01-9.78406E-14-7.58780E-13
 -1      3180 1.99717E+01 3.11790E-01 2.55244E-04-4.37026E-01-7.49168E-14-8.33703E-13
 -1      3181 2.00476E+01 2.15987E-01 1.69746E-03-3.13768E-01-6.00531E-14-7.05270E-13
 -1      3182 2.00323E+01 1.94938E-01-1.25413E-03-2.73827E-01-6.78705E-14-7.37707E-13
 -1      3183 1.99848E+01 2.63566E-01 1.99950E-04-3.40351E-01-3.78624E-14-9.01231E-13
 -1      3184 2.00397E+01 1.77688E-01 1.39490E-03-2.38460E-01-1.71370E-13-7.10322E-13
 -1      3185 2.00275E+01 1.59421E-01-9.18074E-04-2.05693E-01-2.26209E-13-6.80997E-13
 -1      3186 1.99948E+01 2.17878E-01 1.42555E-04-2.60331E-01-9.92841E-14-1.05395E-12
 -1      3187 2.00347E+01 1.44555E-01 1.13492E-03-1.80390E-01-2.06377E-13-5.44677E-13
 -1      3188 2.00250E+01 1.29902E-01-3.42714E-04-1.53712E-01-1.67509E-13-5.61666E-13
 -1      3189 2.00096E+01 1.43805E-01-1.90815E-04-1.51265E-01-2.45426E-13-8.14441E-13
 -1      3190 2.00035E+01 1.77405E-01-9.95973E-05-1.98787E-01-1.96596E-13-7.91133E-13
 -1      3191 2.01015E+01 2.19682E-01 2.17769E-03-6.23679E-01 2.90876E-14-2.14874E-14
 -1      3192 2.00752E+01 1.99392E-01-9.08942E-04-5.74296E-01 8.25074E-14-4.82670E-14
 -1      3193 2.01017E+01 1.89784E-01 6.50680E-03-5.25488E-01 8.60087E-14-5.96055E-14
 -1      3194 2.00980E+01 1.90271E-01 6.86503E-03-4.76173E-01 5.16059E-14-5.42604E-14
 -1      3195 2.00733E+01 2.33676E-01-4.98743E-04-5.54036E-01 6.65716E-14-9.34541E-14
 -1      3196 2.01446E+01 3.25984E-01 2.84805E-03-8.64578E-01 1.39316E-14 7.05902E-15
 -1      3197 2.01041E+01 2.95817E-01-1.99211E-03-7.97106E-01 3.90200E-14-4.20326E-14
 -1      3198 2.01738E+01 3.79545E-01 3.15995E-03-1.01759E+00 1.68535E-14 5.09303E-14
 -1      3199 2.01259E+01 3.52447E-01-2.32253E-03-9.39285E-01 3.27461E-14 2.01930E-14
 -1      3200 1.99981E+01 4.03670E-01 4.63971E-04-9.12765E-01 2.11890E-14-5.90323E-14
 -1      3201 2.02114E+01 4.13613E-01 3.51329E-03-1.19276E+00-1.35951E-14 5.11467E-14
 -1      3202 2.01538E+01 3.98677E-01-2.41291E-03-1.10517E+00 3.22038E-14 8.51626E-14
 -1      3203 1.99670E+01 4.62808E-01 5.72978E-04-1.07511E+00 1.29773E-14-2.24466E-14
 -1      3204 2.02672E+01 4.02936E-01 3.98574E-03-1.38530E+00-4.86471E-14 1.30029E-14
 -1      3205 2.01941E+01 4.14306E-01-2.07220E-03-1.29291E+00-3.35903E-14 4.98160E-14
 -1      3206 1.99354E+01 4.94338E-01 2.81140E-04-1.26287E+00-1.89564E-14 6.97210E-16
 -1      3207 2.03633E+01 3.09307E-01 4.65496E-03-1.58444E+00-5.83935E-14-1.75828E-14
 -1      3208 2.02628E+01 3.68191E-01-9.48659E-04-1.49594E+00-7.92996E-14-1.57873E-14
 -1      3209 1.99149E+01 4.66857E-01-8.43167E-04-1.47508E+00-3.43951E-14-3.80855E-14
 -1      3210 2.05425E+01 7.89517E-02 5.46752E-03-1.77012E+00-1.39641E-13 1.31956E-13
 -1      3211 2.03932E+01 2.14695E-01 1.56364E-03-1.70050E+00-8.61554E-14 8.59402E-14
 -1      3212 1.99326E+01 3.33562E-01-3.53455E-03-1.70774E+00-1.27021E-13 3.09558E-14
 -1      3213 2.08775E+01-3.53464E-01 6.24754E-03-1.90565E+00-1.10548E-13 9.82145E-14
 -1      3214 2.06460E+01-1.06588E-01 6.53291E-03-1.87991E+00-8.53862E-14 1.42529E-13
 -1      3215 2.00418E+01 2.92706E-02-8.83446E-03-1.95038E+00-1.27510E-13 8.24031E-14
 -1      3216 2.14816E+01-1.04402E+00 7.27008E-03-1.92416E+00-1.52446E-13 5.35793E-14
 -1      3217 2.11192E+01-6.58694E-01 1.59293E-02-1.98347E+00-1.45821E-13 1.03836E-13
 -1      3218 2.03369E+01-5.23281E-01-1.74871E-02-2.17501E+00-9.83600E-14 8.31279E-15
 -1      3219 2.24875E+01-1.96907E+00 6.63750E-03-1.71134E+00-3.39225E-14-6.62393E-14
 -1      3220 2.19543E+01-1.47786E+00 2.99408E-02-1.91764E+00-8.90537E-14 2.06593E-14
 -1      3221 2.09417E+01-1.38884E+00-3.67008E-02-2.31302E+00-5.26898E-14-1.03619E-13
 -1      3222 2.40029E+01-2.84978E+00 9.05583E-03-9.95679E-01-8.36570E-15-4.08363E-14
 -1      3223 2.33279E+01-2.45247E+00 5.36287E-02-1.46155E+00-6.20489E-15-4.03143E-14
 -1      3224 2.21724E+01-2.60034E+00-6.90022E-02-2.21399E+00-5.10555E-14-9.78783E-14
 -1      3225 2.69959E+01-1.50825E+00-8.90156E-02 1.77543E+00 8.65488E-14 1.57624E-13
 -1      3226 2.80753E+01 1.93268E+00-4.94620E-02 2.37034E+00 1.47632E-13 1.21098E-13
 -1      3227 2.50122E+01-2.99248E+00 3.07754E-02 3.59216E-01 3.06270E-14-1.54859E-13
 -1      3228 2.56924E+01-2.89269E+00-1.18665E-02-3.56217E-01 8.49507E-14-1.24924E-13
 -1      3229 2.33259E+01-2.33698E+00 4.64281E-02 1.35622E+00-7.33948E-14-1.15711E-13
 -1      3230 2.39333E+01-2.74573E+00-5.70619E-03 9.13256E-01 3.26440E-14-1.10198E-13
 -1      3231 2.40087E+01-3.33721E+00-2.58430E-02 1.37691E+00 2.11983E-15-2.46008E-13
 -1      3232 2.20192E+01-1.39807E+00 2.68162E-02 1.82681E+00-1.99768E-13-5.15126E-14
 -1      3233 2.25233E+01-1.87448E+00 1.67712E-03 1.61658E+00-1.65938E-13-9.93931E-15
 -1      3234 2.22685E+01-2.46741E+00-4.95358E-02 2.09568E+00-1.44505E-13-1.53452E-13
 -1      3235 2.12088E+01-6.02722E-01 1.52566E-02 1.90163E+00-5.92805E-14 5.81566E-16
 -1      3236 2.15575E+01-9.74409E-01 5.95122E-03 1.84135E+00-1.57279E-13-6.27364E-14
 -1      3237 2.10558E+01-1.30797E+00-3.19015E-02 2.20954E+00-1.80143E-13-2.09679E-13
 -1      3238 2.07409E+01-6.83076E-02 6.58603E-03 1.80267E+00-1.50920E-13 1.32018E-13
 -1      3239 2.09661E+01-3.08273E-01 4.93059E-03 1.82993E+00-1.12088E-13 8.31605E-14
 -1      3240 2.04494E+01-4.73943E-01-1.66366E-02 2.08891E+00-1.83552E-13-2.67160E-14
 -1      3241 2.04842E+01 2.43880E-01 1.92011E-03 1.62021E+00 6.72872E-15 2.70670E-13
 -1      3242 2.06313E+01 1.10878E-01 4.55787E-03 1.69379E+00-3.79375E-14 2.35014E-13
 -1      3243 2.01450E+01 6.46250E-02-8.55305E-03 1.87264E+00-1.18352E-13 8.34776E-14
 -1      3244 2.03460E+01 3.95054E-01-4.73293E-04 1.40649E+00 2.12571E-13 2.82204E-13
 -1      3245 2.04461E+01 3.35886E-01 4.01228E-03 1.50103E+00 1.18568E-13 2.47676E-13
 -1      3246 2.00217E+01 3.63647E-01-3.50045E-03 1.62811E+00 6.67425E-14 2.21517E-13
 -1      3247 2.02685E+01 4.43399E-01-1.55918E-03 1.18970E+00 3.16899E-14 2.94026E-13
 -1      3248 2.03415E+01 4.29846E-01 3.50982E-03 1.28976E+00 2.22672E-13 3.90680E-13
 -1      3249 1.99883E+01 4.97801E-01-8.76541E-04 1.38602E+00 1.44699E-13 3.48020E-13
 -1      3250 2.02197E+01 4.32389E-01-1.92782E-03 9.85003E-01-7.65739E-15 2.22838E-13
 -1      3251 2.02769E+01 4.44313E-01 3.12536E-03 1.08144E+00-4.18806E-14 2.53403E-13
 -1      3252 1.99926E+01 5.29775E-01 2.62996E-04 1.15924E+00 4.89224E-14 2.69415E-13
 -1      3253 2.01840E+01 3.91060E-01-1.92001E-03 8.00291E-01-1.29858E-13 7.41872E-14
 -1      3254 2.02309E+01 4.15369E-01 2.81073E-03 8.88077E-01 7.44299E-15 1.14609E-13
 -1      3255 2.00083E+01 5.04192E-01 6.20986E-04 9.53742E-01-7.30255E-15 2.37381E-13
 -1      3256 2.01542E+01 3.37404E-01-1.73328E-03 6.39044E-01-2.98200E-14-3.44708E-14
 -1      3257 2.01936E+01 3.66144E-01 2.51761E-03 7.15862E-01-8.72633E-14 3.84007E-14
 -1      3258 2.00234E+01 4.50173E-01 6.15134E-04 7.72305E-01-4.38826E-14 2.30493E-13
 -1      3259 2.01278E+01 2.81875E-01-1.47581E-03 5.01914E-01-2.70549E-13-9.28921E-14
 -1      3260 2.01611E+01 3.10505E-01 2.22381E-03 5.67177E-01-1.56881E-13-1.68683E-13
 -1      3261 2.00338E+01 3.85592E-01 4.74055E-04 6.15700E-01 2.65466E-14-1.15103E-13
 -1      3262 2.01040E+01 2.30125E-01-1.20755E-03 3.87746E-01-2.66276E-13-1.87208E-13
 -1      3263 2.01319E+01 2.56256E-01 1.92669E-03 4.41942E-01-2.50989E-13-1.88662E-13
 -1      3264 2.00389E+01 3.20791E-01 3.13698E-04 4.83265E-01-2.50331E-13-2.16268E-13
 -1      3265 2.00828E+01 1.84780E-01-9.77018E-04 2.94344E-01-4.02211E-13-1.73582E-14
 -1      3266 2.01058E+01 2.07380E-01 1.62860E-03 3.38535E-01-3.60742E-13-1.43756E-13
 -1      3267 2.00397E+01 2.61306E-01 1.81961E-04 3.73264E-01-3.89402E-13-1.22294E-13
 -1      3268 2.00640E+01 1.47247E-01-7.39707E-04 2.19157E-01 1.71712E-13-4.86593E-14
 -1      3269 2.00829E+01 1.65677E-01 1.33230E-03 2.54704E-01-2.41724E-13-7.89571E-14
 -1      3270 2.00374E+01 2.09740E-01 1.06487E-04 2.83447E-01-2.33846E-13-2.45526E-13
 -1      3271 2.00482E+01 1.17909E-01-1.39676E-04 1.59388E-01 2.16562E-13 9.23837E-14
 -1      3272 2.00628E+01 1.31643E-01 1.03723E-03 1.87297E-01 3.48678E-13 2.19370E-13
 -1      3273 2.00326E+01 1.67163E-01 4.95407E-06 2.11129E-01 1.22079E-13-1.80655E-13
 -1      3274 2.00327E+01 1.09042E-01 2.78169E-04 1.27550E-01 3.23303E-14-1.05463E-13
 -1      3275 2.00445E+01 1.12927E-01 7.38990E-04 1.43826E-01 1.48531E-13 2.46076E-14
 -1      3276 2.00249E+01 1.41048E-01-2.55080E-04 1.63126E-01 2.28652E-13 4.34988E-15
 -1      3277 2.00166E+01 1.26461E-01-8.42541E-04 1.32716E-01 7.44576E-14-1.25015E-13
 -1      3278 1.99072E+01 2.41547E-01-2.57991E-06-6.33824E-02 1.36011E-13 4.21242E-13
 -1      3279 1.98988E+01 2.47966E-01-7.30328E-04-4.18435E-02 1.59150E-13 3.11784E-13
 -1      3280 1.99703E+01 1.78680E-01 1.65997E-04-1.29633E-01-8.54863E-15-4.60116E-13
 -1      3281 1.99514E+01 1.95400E-01-9.24817E-04-1.20506E-01 3.38486E-15-2.56328E-13
 -1      3282 1.98944E+01 2.53495E-01-3.73730E-04-1.42258E-02 1.35638E-13 6.10462E-14
 -1      3283 1.98940E+01 2.54055E-01-4.45331E-04 9.58044E-03 2.18651E-13 3.03994E-13
 -1      3284 1.98768E+01 2.76963E-01 9.37465E-04-3.18495E-02 2.53884E-13 2.96659E-13
 -1      3285 2.55631E+01-4.29324E+00-6.58599E-02 1.44403E+00-5.53099E-14-2.71347E-13
 -1      3286 2.34310E+01-4.53472E+00 8.65009E-02 3.24789E+00-1.78933E-13-3.35185E-13
 -1      3287 2.01912E+01 4.01996E-01-3.03522E-03 1.19135E-02 7.55463E-14-7.00411E-14
 -1      3288 2.02323E+01 4.49357E-01-1.66444E-03 1.20832E-01 1.08932E-13-7.34474E-14
 -1      3289 2.25699E+01-4.41449E+00 9.37252E-02-3.81126E+00 2.12705E-13-3.49058E-13
 -1      3290 2.37709E+01-4.26583E+00-4.77217E-02-2.53319E+00 1.45071E-13-3.87326E-13
 -1      3291 1.99337E+01 2.16126E-01 3.22021E-04-1.03792E-01 1.02069E-13-8.71222E-14
 -1      3292 1.99186E+01 2.27790E-01-9.41793E-04-8.67608E-02 1.18622E-13 2.43149E-13
 -1      3293 1.98962E+01 2.58673E-01 8.39098E-04-8.54426E-02 1.59757E-13 3.33909E-13
 -1      3294 1.99298E+01 2.26364E-01 3.36616E-04-1.27504E-01 1.48699E-14-2.88565E-13
 -1      3295 1.97520E+01 1.49747E+00-3.55308E-02-6.38294E-01-1.28775E-13-3.38790E-13
 -1      3296 1.99737E+01 1.29477E+00 4.77320E-02-4.06814E-01-8.68611E-14-3.24437E-13
 -1      3297 1.93149E+01 6.47269E-01-1.82058E-01 6.18002E-02-5.93692E-14-3.14276E-13
 -1      3298 1.98331E+01 1.84635E+00 1.21207E-02-8.13999E-01-1.26888E-13-3.29962E-13
 -1      3299 2.57218E+01-4.37005E+00 1.05271E-03 2.14007E+00 2.14412E-15 1.06512E-13
 -1      3300 2.34800E+01-4.56110E+00 4.44228E-02 3.36432E+00 1.11119E-13 1.96392E-13
 -1      3301 2.07521E+01-4.34010E+00-5.59557E-02 4.48728E+00-2.42459E-13 1.21014E-14
 -1      3302 1.81377E+01-3.29648E+00 6.58742E-02 4.93190E+00-3.54758E-13 3.24005E-13
 -1      3303 9.66246E+00 2.16299E-01 1.13952E-01-1.23942E+00 4.78645E-14-2.34465E-13
 -1      3304 1.07410E+01-3.77093E-01 6.75487E-02-3.07541E+00-1.38223E-14-3.72258E-13
 -1      3305 2.01204E+01 2.69140E-01 2.52984E-03-7.34230E-01 6.55141E-14-4.67510E-14
 -1      3306 2.00868E+01 2.41815E-01-1.51161E-03-6.76976E-01 4.62690E-14-2.09898E-14
 -1      3307 2.00498E+01 2.77438E-01-1.49667E-04-6.56878E-01 3.03212E-14-3.45401E-14
 -1      3308 2.00255E+01 3.37368E-01 1.86044E-04-7.74518E-01 4.05363E-14 5.39772E-14
 -1      3309 2.64880E+01-2.88074E+00 4.44930E-02 5.92111E-01-3.27238E-14 2.84599E-14
 -1      3310 2.01400E+01 3.11594E-01-2.93815E-03-1.85483E-01 8.02084E-14-7.60456E-14
 -1      3311 2.01608E+01 3.59547E-01-2.24690E-04-9.54920E-02 6.92948E-14-5.97593E-14
 -1      3312 2.02481E+01 4.63206E-01-6.35582E-03-1.47769E-02 8.34350E-14-6.04403E-14
 -1      3313 2.54665E+01-4.21359E+00-1.41310E-01-1.21727E+00-3.91458E-14 1.39819E-15
 -1      3314 2.55358E+01-3.07237E+00 2.94158E-03-9.04749E-03 4.55625E-15-3.50501E-14
 -1      3315 2.48384E+01-3.13899E+00 5.70142E-02-6.94035E-01-2.77983E-14-4.76529E-14
 -1      3316 2.39288E+01-4.40258E+00 1.40554E-01-2.93187E+00-9.54063E-14 2.83072E-14
 -1      3317 2.65575E+01 5.49809E+00-1.95027E-01-5.30452E-01 6.98747E-14-8.02518E-14
 -1      3318 2.64673E+01 4.44749E+00-1.15179E-01-1.40841E+00 7.83679E-14-9.97882E-14
 -1      3319 1.26045E+01-1.21591E+00 1.13891E-01-4.28827E+00-1.05752E-13-3.54730E-13
 -1      3320 1.49187E+01-2.35789E+00 3.64974E-02-5.06592E+00-2.33154E-13-1.83881E-13
 -1      3321 1.78508E+01-3.72793E+00 1.52279E-01-5.60644E+00 2.62679E-13-3.80390E-13
 -1      3322 2.04567E+01-4.40905E+00-2.74840E-02-4.76435E+00 2.47198E-13-5.42566E-13
 -1      3323 2.08687E+01-3.87140E+00 2.49105E-02-4.13531E+00 1.67907E-13-4.42675E-13
 -1      3324 1.68753E+01-2.96153E+00 8.40362E-02-5.21239E+00 2.87416E-13-4.22724E-13
 -1      3325 2.56738E+01-3.50339E+00 2.60265E-02-7.06573E-01 1.01685E-13-4.73073E-13
 -1      3326 2.66167E+01-2.64892E+00-6.87427E-02 3.72802E-01-4.87371E-15-6.08836E-13
 -1      3327 2.03299E+01 8.89545E-01-2.77467E-03 6.13997E-01 1.93911E-13-1.06115E-13
 -1      3328 2.02972E+01 1.19145E+00 5.56722E-03 6.61711E-01 1.84621E-13-1.22518E-13
 -1      3329 2.03473E+01 9.94599E-01 6.39171E-03 4.94266E-01 1.58878E-13-1.21257E-13
 -1      3330 2.02901E+01 6.98550E-01-5.54753E-03 4.30532E-01 1.84704E-13-9.49437E-14
 -1      3331 2.72282E+01-1.34284E+00-2.27628E-02 1.19669E+00-4.73337E-14-5.64659E-13
 -1      3332 2.79626E+01 3.16824E-01-1.33833E-01 1.74037E+00-5.92235E-14-5.13395E-13
 -1      3333 2.70959E+01 9.69339E-01-6.88238E-02 2.09771E+00-4.03289E-14-3.96766E-13
 -1      3334 2.63586E+01-1.81898E+00-3.29930E-02 1.04680E+00 1.84158E-14-6.00242E-13
 -1      3335 1.91727E+01 2.32816E+00 4.22393E-02-3.65455E-01 6.92814E-14-2.46856E-13
 -1      3336 1.86984E+01 2.44157E+00-6.69487E-02-3.70630E-01 3.20195E-14-2.23580E-13
 -1      3337 1.84011E+01 2.93358E+00-7.68198E-02 1.32886E-01-4.43812E-14-2.05176E-13
 -1      3338 1.87849E+01 2.88176E+00-6.93760E-02 4.53220E-01-7.50650E-14-2.46289E-13
 -1      3339 1.83553E+01 2.53792E+00-2.83274E-02-3.44726E-01-3.08642E-14-2.16736E-13
 -1      3340 2.03382E+01 2.00719E+00 1.96738E-02-5.48164E-01-9.71792E-14-2.58770E-13
 -1      3341 2.02026E+01 1.83927E+00-6.61825E-03-8.05328E-01-1.14901E-13-2.99883E-13
 -1      3342 2.69781E+01 1.62800E+00-1.14594E-01-2.53841E+00 9.58400E-14-4.65600E-15
 -1      3343 2.74439E+01-2.30557E-01-8.12743E-02-2.50416E+00 1.68657E-13-2.02421E-13
 -1      3344 1.73204E+01-2.54792E+00 8.49235E-02 4.67968E+00-3.09652E-13 3.91732E-13
 -1      3345 1.64616E+01-1.63307E+00 3.88922E-02 4.17348E+00-1.58127E-13 2.68313E-13
 -1      3346 1.90598E+01-2.84156E+00-4.64732E-02 4.13591E+00-2.37388E-13 1.74194E-13
 -1      3347 2.60706E+01-8.85938E-01-4.54730E-02-1.62450E+00-6.74322E-14-8.56988E-14
 -1      3348 1.98376E+01 1.82775E+00 2.73698E-02-2.65617E-02 1.22832E-13-2.38198E-13
 -1      3349 1.95465E+01 2.00364E+00 1.28134E-02-2.07377E-01 1.01240E-13-2.46348E-13
 -1      3350 1.94024E+01 1.69376E+00 2.34937E-02-5.31594E-01 8.55063E-14-2.15189E-13
 -1      3351 1.55332E+01-3.08260E+00 1.19663E-01 5.73852E+00 1.17462E-13 1.02911E-13
 -1      3352 1.42304E+01-2.07008E+00 8.24040E-02 5.12134E+00 1.35565E-13 5.71210E-14
 -1      3353 1.75450E+01-3.31929E+00-3.83365E-03 5.08975E+00 1.92193E-13 1.52975E-13
 -1      3354 1.99485E+01 2.01873E-01-9.81712E-04 1.19659E-01 2.01524E-13-2.39839E-13
 -1      3355 1.99679E+01 1.85951E-01 3.36154E-04 1.30039E-01 1.84983E-13 1.31596E-13
 -1      3356 2.50269E+01 1.77962E+00-2.21242E-02 2.05314E+00-7.74936E-14-2.39810E-13
 -1      3357 2.51205E+01 5.49279E-01-7.42374E-02 2.18313E+00-9.79043E-14-1.94220E-13
 -1      3358 2.02948E+01 1.24019E+00 1.28403E-02 3.67609E-01 1.24669E-13-1.63963E-13
 -1      3359 2.01156E+01 1.57676E+00-4.15087E-03 3.95144E-01 1.38006E-13-1.92217E-13
 -1      3360 2.00063E+01 1.74038E+00 1.61969E-02 2.23520E-01 1.20715E-13-2.17581E-13
 -1      3361 2.01245E+01 2.27875E-01-7.18292E-04-3.26646E-01 6.56081E-14-8.68205E-14
 -1      3362 2.01288E+01 2.65586E-01 1.17819E-03-2.64356E-01 9.07430E-14-9.05713E-14
 -1      3363 2.02033E+01 3.55849E-01-2.87224E-03-2.15682E-01 7.96919E-14-1.16511E-13
 -1      3364 2.01365E+01 2.33258E-01 7.35217E-03-4.49171E-01 2.07070E-14-1.10263E-13
 -1      3365 2.01152E+01 1.92945E-01 3.82456E-03-4.28420E-01 1.90824E-14-7.67537E-14
 -1      3366 2.01082E+01 2.04823E-01 1.80867E-03-3.78904E-01 3.05126E-14-8.84599E-14
 -1      3367 2.36348E+01-3.68706E+00-1.16739E-01-1.86867E+00-4.77977E-14-8.06265E-14
 -1      3368 1.99161E+01 2.32873E-01-9.31647E-04 8.42241E-02 1.44302E-13 7.91005E-14
 -1      3369 1.99311E+01 2.21733E-01 2.77720E-04 1.02090E-01 2.48698E-13-1.64437E-13
 -1      3370 1.99275E+01 2.34255E-01 7.34315E-04 1.25802E-01 1.35533E-13-1.55003E-13
 -1      3371 2.11248E+01 6.35442E-01 3.57993E-01-2.14243E-01-4.47281E-14-4.23370E-13
 -1      3372 2.59938E+01-3.85599E+00-2.84582E-02 7.02397E-01-5.45692E-14-1.95306E-13
 -1      3373 2.46518E+01-3.84883E+00 1.10992E-03 1.52627E+00-4.82878E-14-2.44877E-13
 -1      3374 1.98975E+01 2.50615E-01-6.86526E-04 3.73984E-02 3.29487E-13 4.73656E-13
 -1      3375 1.99052E+01 2.45016E-01-1.01582E-04 5.98209E-02 2.09589E-13 2.11438E-13
 -1      3376 1.98934E+01 2.64375E-01 9.18151E-04 8.11456E-02 1.79866E-13 1.70272E-13
 -1      3377 1.98758E+01 2.79003E-01 9.91002E-04 2.62805E-02 2.99214E-13 3.02867E-13
 -1      3378 2.38627E+01-3.40765E+00 8.44741E-03-1.41726E+00 6.26938E-14-3.97282E-13
 -1      3379 2.50827E+01-3.36445E+00 4.66689E-02-7.22354E-01 6.59785E-14-3.78635E-13
 -1      3380 9.89042E+00 5.23357E-01 1.55693E-01-1.45670E-01 1.76898E-13 2.20574E-13
 -1      3381 1.08457E+01 4.58445E-01 4.96189E-02-1.12524E+00 2.24499E-13 8.62713E-14
 -1      3382 1.09742E+01 5.27231E-01 5.83966E-02 8.96220E-01 1.19637E-13 2.47760E-13
 -1      3383 1.25559E+01-4.75023E-01 9.61168E-02 3.29380E+00-8.42763E-14 4.54595E-13
 -1      3384 1.19636E+01-8.41041E-01 1.62291E-01-4.11796E+00 2.10894E-13-8.51957E-14
 -1      3385 1.34395E+01-1.40726E+00 2.18908E-02-4.48704E+00 2.51597E-13-1.01461E-13
 -1      3386 1.16227E+01-2.08500E-01 6.09408E-02-3.04496E+00 1.48874E-13-9.35640E-14
 -1      3387 1.00788E+01-7.35729E-01 1.68241E-01 3.58838E+00 9.82756E-14-1.95052E-13
 -1      3388 1.04247E+01-1.23603E-01 8.24697E-02 2.61178E+00 2.27179E-14-1.70336E-13
 -1      3389 1.17903E+01-1.07394E+00 6.18000E-02 4.15425E+00 1.18856E-13-7.40658E-14
 -1      3390 1.69352E+01-2.66905E+00 1.15669E-01-4.89499E+00-1.97599E-13-1.09558E-13
 -1      3391 1.86551E+01-3.25080E+00-8.18673E-02-4.52628E+00-1.37217E-13-7.88258E-14
 -1      3392 1.63804E+01-1.79069E+00 5.94766E-02-4.34630E+00-9.71515E-14-1.55903E-13
 -1      3393 9.82173E+00 4.14442E-01 1.35367E-01-4.22541E-01 3.71491E-15-2.45290E-13
 -1      3394 1.13522E+01 5.15158E-01 5.15485E-02-1.12202E+00 1.91069E-14-2.78728E-13
 -1      3395 1.02459E+01 4.28708E-01 7.61394E-02 6.12256E-01-4.64906E-16-2.69451E-13
 -1      3396 2.25138E+01-3.87142E+00 8.87521E-02 3.16694E+00-8.29545E-14-2.39813E-13
 -1      3397 2.61848E+01-3.60087E+00-2.74759E-02 7.42056E-01 9.50889E-15-8.73607E-14
 -1      3398 2.65970E+01-2.86599E+00 4.29549E-03-6.73156E-01 9.67768E-14-2.73281E-13
 -1      3399 2.71319E+01-1.91423E+00-3.10580E-02-1.30795E+00 1.54012E-13-2.74163E-13
 -1      3400 1.29351E+01-4.50351E-01 9.94594E-02-3.28580E+00-1.82042E-14-3.35440E-13
 -1      3401 2.02538E+01 4.95209E-01-2.06434E-03 2.08749E-01 1.26525E-13-8.77509E-14
 -1      3402 2.03040E+01 5.86463E-01 3.69390E-04 3.38829E-01 1.53139E-13-8.61166E-14
 -1      3403 2.03318E+01 6.97985E-01-9.88324E-03 3.79932E-01 1.56155E-13-8.62277E-14
 -1      3404 2.03106E+01 5.66029E-01-2.79481E-03 1.93098E-01 9.98906E-14-6.76178E-14
 -1      3405 2.26902E+01-3.98637E+00 1.01541E-01-3.22272E+00-6.47815E-14-6.33278E-14
 -1      3406 2.02716E+01 2.19441E+00-5.39056E-02-2.61623E-01-3.11140E-14-2.54914E-13
 -1      3407 2.02197E+01 2.10012E+00-5.65179E-02-4.51575E-01-6.92987E-14-2.40708E-13
 -1      3408 2.03715E+01 1.94514E+00 7.64670E-03-3.93225E-01-5.84949E-14-2.17835E-13
 -1      3409 2.58900E+01-1.89117E-01-1.83954E-02 1.94729E+00-2.72352E-15-2.34281E-13
 -1      3410 2.25294E+01-4.61819E+00 2.82465E-02 3.91291E+00 1.00968E-13 2.92392E-13
 -1      3411 2.12014E+01-4.27472E+00 1.21838E-02 4.27352E+00 1.10516E-13 2.15175E-13
 -1      3412 2.37567E+01-4.41267E+00-7.34753E-02 2.64297E+00 5.35683E-15 1.56264E-14
 -1      3413 2.64241E+01 5.24104E+00-1.24047E-01 5.22794E-01 6.38378E-15-1.72169E-13
 -1      3414 1.99940E+01 1.55826E-01-5.70699E-04-1.45180E-01-3.14930E-13-7.64267E-13
 -1      3415 1.99811E+01 1.67513E-01-5.03303E-04-1.37712E-01-5.43324E-14-5.46393E-13
 -1      3416 1.99660E+01 1.95682E-01 6.04611E-04-1.52155E-01-2.87608E-13-4.87383E-13
 -1      3417 1.99927E+01 1.72549E-01 1.21551E-04-1.68048E-01-3.29589E-13-6.64669E-13
 -1      3418 2.64970E+01 3.91426E-01-1.97969E-02 2.04971E+00 1.89015E-14-4.71647E-13
 -1      3419 2.61855E+01-1.28091E+00-9.71289E-02 1.57189E+00 5.65346E-14-4.45456E-13
 -1      3420 2.70077E+01 3.20437E+00-1.18249E-01-2.28225E+00 2.35742E-13 4.23342E-14
 -1      3421 2.74496E+01-7.71308E-01-6.47350E-02-1.31969E+00 1.98591E-14-5.36932E-14
 -1      3422 1.90211E+01 1.93021E+00-1.90661E-02-7.34883E-01-9.10383E-15-3.01176E-13
 -1      3423 2.02104E+01 9.44810E-01 2.40246E-01-1.98405E-01-4.61298E-14-4.21829E-13
 -1      3424 2.03479E+01 8.08786E-02 1.35088E-01-2.66924E-01-9.53404E-15-2.05558E-13
 -1      3425 2.02060E+01 2.22514E-01 5.07791E-02-1.22965E-01-7.36633E-14-1.67033E-13
 -1      3426 2.02113E+01 6.24596E-01-2.77300E-02-5.99542E-02-8.12614E-14-2.25757E-13
 -1      3427 2.01411E+01 9.21156E-01-6.15796E-02 9.65897E-02-8.18512E-14-1.86323E-13
 -1      3428 2.01055E+01 5.23526E-01 2.16139E-02-1.86119E-01-7.69940E-14-1.58124E-13
 -1      3429 2.02528E+01 1.02530E+00-1.06708E-01 4.01363E-01-5.79814E-14-2.08129E-13
 -1      3430 2.02706E+01 9.52472E-01-1.40994E-01 5.67982E-01 8.77076E-15-1.82382E-13
 -1      3431 2.01602E+01 9.98285E-01-2.20167E-01 2.85533E-01-5.40262E-14-1.95895E-13
 -1      3432 2.04848E+01 8.08301E-01-5.50685E-02 7.15708E-01 2.04975E-14-1.99958E-13
 -1      3433 2.05865E+01 6.37491E-01-3.90636E-02 7.80095E-01 4.93191E-14-2.07553E-13
 -1      3434 2.05472E+01 1.08907E+00-9.37908E-02 7.73910E-01 1.94289E-16-2.07473E-13
 -1      3435 2.05972E+01 5.05620E-01-1.28478E-02 7.61794E-01 4.33444E-14-2.16009E-13
 -1      3436 2.06621E+01 4.18278E-01 1.11622E-02 7.76146E-01 2.14802E-15-2.24239E-13
 -1      3437 2.07326E+01 5.98330E-01-1.86741E-02 8.15233E-01 2.02588E-14-2.44525E-13
 -1      3438 2.05693E+01 3.84567E-01 1.75186E-02 7.66580E-01 1.71052E-14-2.08972E-13
 -1      3439 2.06430E+01 5.20866E-01 1.58387E-01 8.42548E-01 7.50788E-15-1.66728E-13
 -1      3440 2.06175E+01 4.31468E-01 1.85466E-02 7.64321E-01 2.66078E-14-2.63451E-13
 -1      3441 2.02091E+01 4.72779E-01 1.16657E-01 7.44893E-01-3.26232E-14-1.06304E-13
 -1      3442 1.99110E+01 3.65051E-01 1.87832E-03 7.49682E-01-3.09780E-14-8.06313E-14
 -1      3443 2.03951E+01 4.92548E-01 9.52928E-02 7.52968E-01 2.15071E-14-2.18305E-13
 -1      3444 1.98555E+01 3.81655E-01-1.88180E-03 8.12820E-01-2.73987E-14-1.01567E-13
 -1      3445 1.98477E+01 3.95563E-01 2.33611E-03 8.77653E-01 2.22619E-14-1.30697E-13
 -1      3446 1.97837E+01 4.27320E-01 4.67468E-04 7.52227E-01-2.66013E-14-2.04542E-13
 -1      3447 1.97925E+01 3.99139E-01-1.88504E-03 9.52601E-01 3.60045E-14-1.70118E-13
 -1      3448 1.97953E+01 3.94550E-01 2.98047E-03 1.02531E+00 1.03175E-14-2.12474E-13
 -1      3449 1.96779E+01 4.58401E-01 2.34124E-04 8.89545E-01-9.99413E-15-2.11612E-13
 -1      3450 1.97467E+01 3.72756E-01-1.52079E-03 1.11387E+00-1.01323E-15-1.94674E-13
 -1      3451 1.97693E+01 3.35431E-01 3.92800E-03 1.19307E+00-2.76343E-16-1.98288E-13
 -1      3452 1.95776E+01 4.51243E-01-4.50006E-04 1.05318E+00 3.20331E-14-2.26144E-13
 -1      3453 1.97392E+01 2.72306E-01-5.38539E-04 1.29640E+00-1.70264E-14-2.02852E-13
 -1      3454 1.97969E+01 1.84011E-01 5.26359E-03 1.37847E+00-4.98888E-14-2.57231E-13
 -1      3455 1.94991E+01 3.75766E-01-1.91916E-03 1.24785E+00-1.53203E-14-2.38713E-13
 -1      3456 1.98059E+01 5.98985E-02 1.55479E-03 1.49605E+00-5.73681E-14-1.88692E-13
 -1      3457 1.99226E+01-1.01287E-01 6.90294E-03 1.57326E+00-4.10166E-14-1.92676E-13
 -1      3458 1.94714E+01 1.92953E-01-4.69534E-03 1.47732E+00 1.29917E-15-2.11030E-13
 -1      3459 2.00055E+01-3.08008E-01 5.58987E-03 1.69962E+00-6.29169E-14-2.13869E-13
 -1      3460 2.02136E+01-5.64793E-01 8.14637E-03 1.75595E+00-4.24931E-14-2.99455E-13
 -1      3461 1.95447E+01-1.45554E-01-9.49306E-03 1.74113E+00-6.00113E-14-1.64830E-13
 -1      3462 2.04263E+01-8.70819E-01 1.27554E-02 1.87178E+00 3.47530E-14-2.81571E-13
 -1      3463 2.07635E+01-1.23605E+00 7.24048E-03 1.87569E+00 3.29451E-14-2.13136E-13
 -1      3464 1.98014E+01-6.93433E-01-1.71071E-02 2.02371E+00 1.51441E-15-2.43057E-13
 -1      3465 2.11841E+01-1.63537E+00 2.42603E-02 1.93247E+00-2.70435E-14-1.40073E-13
 -1      3466 2.16830E+01-2.08018E+00 5.90901E-03 1.82264E+00-2.94138E-14-1.20505E-13
 -1      3467 2.03654E+01-1.48875E+00-2.82076E-02 2.26811E+00 4.85987E-14-2.00234E-13
 -1      3468 2.24253E+01-2.54211E+00 4.13798E-02 1.72458E+00-1.58640E-14-1.02308E-13
 -1      3469 2.30822E+01-2.91993E+00 9.15687E-03 1.37608E+00-2.60555E-15-1.76059E-13
 -1      3470 2.13970E+01-2.52504E+00-4.54985E-02 2.35404E+00-8.40127E-15-9.24608E-14
 -1      3471 2.43273E+01-3.39100E+00 6.89860E-03 1.10992E+00-1.25299E-14-1.68329E-13
 -1      3472 2.50879E+01-3.27030E+00-2.26790E-02 4.97458E-01-8.61325E-14-1.42354E-13
 -1      3473 2.54800E+01 3.35475E+00-1.10411E-01-1.79751E+00-8.04912E-16-2.41075E-13
 -1      3474 2.53620E+01 2.46442E+00-7.94753E-02 2.08041E+00-6.54476E-14-2.08045E-13
 -1      3475 2.31548E+01-3.17534E+00 6.55966E-02-1.86829E+00 9.75478E-14-3.47621E-13
 -1      3476 2.21386E+01-2.66758E+00 2.54677E-02-2.03505E+00 1.28796E-13-2.76132E-13
 -1      3477 2.15072E+01-2.19330E+00 5.33836E-02-2.23313E+00 1.74760E-13-2.52126E-13
 -1      3478 2.13735E+01-3.43186E+00-6.28337E-02-3.19147E+00 1.57712E-13-3.65308E-13
 -1      3479 2.09404E+01-1.68420E+00 2.98691E-02-2.11108E+00 1.32663E-13-2.92757E-13
 -1      3480 2.04698E+01-1.24990E+00 3.33971E-02-2.16164E+00 9.89441E-14-2.85545E-13
 -1      3481 1.99205E+01-2.09549E+00-3.21654E-02-3.03748E+00 9.49085E-14-3.07337E-13
 -1      3482 2.01999E+01-8.46129E-01 2.59889E-02-1.95139E+00 2.28081E-14-2.13235E-13
 -1      3483 1.98943E+01-5.19727E-01 1.92506E-02-1.91983E+00-2.62973E-14-2.37730E-13
 -1      3484 1.92117E+01-1.00658E+00-1.95237E-02-2.55954E+00 5.83630E-14-4.38818E-13
 -1      3485 1.97975E+01-2.41914E-01 1.85107E-02-1.71293E+00-5.46958E-15-2.86192E-13
 -1      3486 1.96187E+01-2.30958E-02 9.54296E-03-1.64303E+00-2.29686E-14-3.05608E-13
 -1      3487 1.89479E+01-2.60816E-01-9.57059E-03-2.07562E+00 3.46299E-14-5.26487E-13
 -1      3488 1.96166E+01 1.51888E-01 1.22317E-02-1.46486E+00-1.53647E-13-3.04391E-13
 -1      3489 1.95217E+01 2.83306E-01 3.73346E-03-1.38076E+00-2.02483E-13-3.09279E-13
 -1      3490 1.89161E+01 2.11978E-01-2.95702E-03-1.66481E+00-1.32978E-13-5.63153E-13
 -1      3491 1.95669E+01 3.81712E-01 7.79767E-03-1.23390E+00-3.61680E-13-3.40094E-13
 -1      3492 1.95231E+01 4.49166E-01 5.05544E-04-1.14745E+00-4.20093E-13-4.30717E-13
 -1      3493 1.89993E+01 4.83484E-01 6.32894E-04-1.33357E+00-2.98326E-13-7.00724E-13
 -1      3494 1.95883E+01 4.94021E-01 4.95379E-03-1.02737E+00-3.07589E-13-3.02755E-13
 -1      3495 1.95734E+01 5.17833E-01-1.12831E-03-9.44451E-01-1.93749E-13-3.43641E-13
 -1      3496 1.91323E+01 6.15841E-01 2.36750E-03-1.06947E+00-2.22736E-13-5.64916E-13
 -1      3497 1.96432E+01 5.27229E-01 3.23961E-03-8.45922E-01 1.60256E-14-3.64903E-13
 -1      3498 1.96431E+01 5.23255E-01-1.82328E-03-7.69571E-01 1.21769E-13-2.28995E-13
 -1      3499 1.92794E+01 6.55478E-01 2.98189E-03-8.57372E-01-2.45275E-14-4.28788E-13
 -1      3500 1.97094E+01 5.10719E-01 2.23971E-03-6.88377E-01 4.27257E-16-1.26495E-13
 -1      3501 1.97159E+01 4.90603E-01-1.98895E-03-6.20121E-01-6.16908E-15-1.60056E-13
 -1      3502 1.94216E+01 6.36417E-01 2.97391E-03-6.85230E-01 1.70682E-13-3.65816E-13
 -1      3503 1.97746E+01 4.65866E-01 1.66109E-03-5.53146E-01-1.13414E-13-2.40207E-13
 -1      3504 1.97831E+01 4.37753E-01-1.87644E-03-4.93612E-01-1.81059E-13-3.77163E-13
 -1      3505 1.95494E+01 5.83184E-01 2.65914E-03-5.44459E-01-4.78606E-14-3.00087E-13
 -1      3506 1.98328E+01 4.07549E-01 1.31520E-03-4.38550E-01-2.02032E-13-3.71369E-13
 -1      3507 1.98408E+01 3.76887E-01-1.63252E-03-3.87739E-01-1.48828E-13-4.55609E-13
 -1      3508 1.96588E+01 5.12990E-01 2.22302E-03-4.29063E-01-2.26551E-13-1.65812E-13
 -1      3509 1.98814E+01 3.45691E-01 1.08351E-03-3.42790E-01-8.25339E-14-5.29056E-13
 -1      3510 1.98880E+01 3.15919E-01-1.36175E-03-3.00251E-01-5.07470E-14-6.13767E-13
 -1      3511 1.97493E+01 4.37510E-01 1.76627E-03-3.34726E-01-1.60517E-13-2.37820E-13
 -1      3512 1.99202E+01 2.86456E-01 8.72874E-04-2.63949E-01-8.95686E-14-6.24194E-13
 -1      3513 1.99254E+01 2.59781E-01-9.71109E-04-2.29022E-01-1.82170E-13-6.00660E-13
 -1      3514 1.98220E+01 3.64366E-01 1.40308E-03-2.58013E-01-1.64009E-13-4.28801E-13
 -1      3515 2.00537E+01 2.84169E-01 1.21358E-03-5.55206E-01 1.99825E-14-2.68450E-14
 -1      3516 2.00654E+01 2.65974E-01-7.99896E-04-5.05700E-01 2.96691E-14-6.60773E-14
 -1      3517 1.97687E+01 5.53761E-01 2.49997E-03-1.07616E+00-3.42719E-14-1.65561E-14
 -1      3518 1.97817E+01 5.20373E-01-3.30975E-03-9.91097E-01-2.01959E-14-6.76789E-14
 -1      3519 1.98571E+01 4.85847E-01 2.06484E-03-9.13625E-01 4.68979E-14-7.17475E-14
 -1      3520 1.98693E+01 4.46054E-01-2.77738E-03-8.40422E-01 7.72057E-14-1.66224E-14
 -1      3521 1.96666E+01 5.73845E-01 1.98088E-03-9.13898E-01-1.52118E-15-1.42654E-14
 -1      3522 1.95766E+01 5.63340E-01 4.78656E-03-1.48728E+00-7.52991E-14-3.99525E-14
 -1      3523 1.95739E+01 5.85271E-01-3.91108E-03-1.37773E+00-2.17109E-14-8.10899E-14
 -1      3524 1.95150E+01 4.22379E-01 7.39027E-03-1.74338E+00-1.66999E-13-7.72808E-15
 -1      3525 1.94790E+01 5.08018E-01-3.56165E-03-1.62277E+00-1.11742E-13-4.23837E-14
 -1      3526 1.91477E+01 6.41164E-01 1.38968E-03-1.51910E+00-9.68145E-14-9.62381E-14
 -1      3527 1.95456E+01 9.81845E-02 1.15173E-02-2.03823E+00-7.81589E-14-7.03912E-14
 -1      3528 1.94383E+01 2.85232E-01-1.99561E-03-1.91051E+00-1.24597E-13-3.66319E-14
 -1      3529 1.89718E+01 4.69501E-01-1.35141E-03-1.82160E+00-1.06732E-13-1.29305E-13
 -1      3530 1.97720E+01-4.98374E-01 1.62637E-02-2.36389E+00-7.36767E-14-1.47104E-13
 -1      3531 1.95366E+01-1.63870E-01 2.61516E-03-2.24410E+00-7.58769E-14-1.14678E-13
 -1      3532 1.88668E+01 8.63781E-02-7.56455E-03-2.20872E+00-5.45230E-14-1.75314E-13
 -1      3533 2.04506E+01-1.44631E+00 3.02480E-02-2.63909E+00-2.27143E-14-1.38381E-13
 -1      3534 1.99356E+01-9.32012E-01 1.70368E-02-2.59680E+00-4.55017E-14-1.55461E-13
 -1      3535 1.89753E+01-6.16997E-01-1.21227E-02-2.70517E+00-2.51765E-14-1.80165E-13
 -1      3536 2.08943E+01-2.76957E+00 6.09125E-02-3.26950E+00-8.85680E-14-9.30905E-14
 -1      3537 2.00799E+01-2.07364E+00 4.88037E-02-3.27925E+00-8.91691E-14-1.47878E-13
 -1      3538 2.02945E+01 5.51091E-01 5.91405E-04-4.39112E-02 7.13015E-14-9.05333E-14
 -1      3539 2.03260E+01 6.03097E-01-1.40038E-03 7.87759E-02 8.46294E-14-7.97368E-14
 -1      3540 1.98489E+01 3.01478E-01-2.32862E-04-5.19589E-02 3.26171E-13 3.78732E-13
 -1      3541 1.98423E+01 3.06247E-01-6.75359E-04-2.22087E-02 2.32130E-13 2.25799E-13
 -1      3542 2.00747E+01-8.82941E-01 1.63835E-02 2.49844E+00-2.14315E-13-1.40339E-14
 -1      3543 2.05638E+01-1.37806E+00 2.86389E-02 2.53439E+00-2.40895E-13-9.94825E-14
 -1      3544 2.01940E+01-1.92337E+00 3.90029E-02 3.09565E+00-1.65101E-13-5.16774E-14
 -1      3545 2.09482E+01-2.59360E+00 4.60755E-02 3.07392E+00-1.30347E-13-1.15763E-13
 -1      3546 1.96604E+01-1.26547E-01 3.34136E-03 2.16969E+00-2.85279E-13 6.03003E-14
 -1      3547 1.98961E+01-4.56264E-01 1.49263E-02 2.28250E+00-2.29884E-13 1.80568E-14
 -1      3548 1.91313E+01-5.78105E-01-1.09022E-02 2.62342E+00-2.60188E-13 2.00868E-14
 -1      3549 1.95405E+01 3.17396E-01-1.30719E-03 1.84288E+00-6.64428E-14 2.18134E-13
 -1      3550 1.96524E+01 1.31531E-01 1.07150E-02 1.96934E+00-2.14560E-13 9.05164E-14
 -1      3551 1.89886E+01 1.17776E-01-7.62267E-03 2.14576E+00-2.84924E-13 7.25057E-14
 -1      3552 1.95584E+01 5.41054E-01-3.06563E-03 1.55130E+00 1.22799E-13 1.84622E-13
 -1      3553 1.96010E+01 4.53920E-01 6.79265E-03 1.67522E+00 5.26485E-14 1.80207E-13
 -1      3554 1.90623E+01 5.01687E-01-1.64169E-03 1.76328E+00 1.97028E-14 1.64479E-13
 -1      3555 1.96311E+01 6.22991E-01-3.52005E-03 1.29516E+00 1.30427E-13 3.28497E-13
 -1      3556 1.96412E+01 5.98000E-01 4.36817E-03 1.41107E+00 1.49481E-13 2.74218E-13
 -1      3557 1.92094E+01 6.79036E-01 1.20576E-03 1.45482E+00 1.03882E-13 5.47927E-14
 -1      3558 1.97165E+01 6.20237E-01-3.43522E-03 1.07069E+00 7.46155E-14 1.29816E-13
 -1      3559 1.97140E+01 6.31361E-01 2.97454E-03 1.17638E+00 1.96196E-13 2.75577E-13
 -1      3560 1.93712E+01 7.27320E-01 2.24080E-03 1.20040E+00 2.01223E-13 1.48866E-13
 -1      3561 1.97951E+01 5.71443E-01-3.11776E-03 8.74828E-01-2.51406E-14 1.72488E-13
 -1      3562 1.97899E+01 6.01433E-01 2.22091E-03 9.69153E-01-2.57030E-14 2.53053E-14
 -1      3563 1.95205E+01 7.00594E-01 2.39812E-03 9.85842E-01 9.15922E-14 2.79578E-14
 -1      3564 1.98599E+01 5.01433E-01-2.71401E-03 7.05547E-01 9.27571E-14 4.08901E-14
 -1      3565 1.98559E+01 5.39390E-01 1.80899E-03 7.88002E-01 1.36722E-14 1.05363E-13
 -1      3566 1.96467E+01 6.34341E-01 2.15933E-03 8.02770E-01 7.53860E-14-1.68266E-13
 -1      3567 1.99097E+01 4.25339E-01-2.29487E-03 5.61150E-01 5.38983E-14 1.15306E-13
 -1      3568 1.99081E+01 4.64721E-01 1.55810E-03 6.31797E-01 1.81383E-13 8.11876E-14
 -1      3569 1.97479E+01 5.51167E-01 1.78261E-03 6.46432E-01 1.59734E-13 2.39918E-13
 -1      3570 1.99461E+01 3.51923E-01-1.89399E-03 4.39842E-01-3.12830E-13 1.53339E-13
 -1      3571 1.99468E+01 3.88990E-01 1.37420E-03 4.99234E-01-2.36307E-13 1.75636E-13
 -1      3572 1.98261E+01 4.64799E-01 1.39051E-03 5.13895E-01-8.36438E-14 4.41530E-13
 -1      3573 1.99714E+01 2.85865E-01-1.51564E-03 3.39450E-01-3.13262E-13-6.55890E-14
 -1      3574 1.99739E+01 3.18685E-01 1.21852E-03 3.88516E-01-2.40979E-13 1.12036E-13
 -1      3575 1.98845E+01 3.83159E-01 1.02028E-03 4.02811E-01-2.89744E-13 3.67660E-13
 -1      3576 1.99880E+01 2.28591E-01-1.43549E-03 2.58029E-01 2.68295E-14-2.79313E-13
 -1      3577 1.99917E+01 2.56456E-01 9.25663E-04 2.97362E-01-2.11455E-13-1.52378E-13
 -1      3578 1.99272E+01 3.10485E-01 8.17606E-04 3.10802E-01-1.06884E-13-1.39179E-13
 -1      3579 1.99991E+01 1.82754E-01-6.35095E-04 1.91729E-01 2.17611E-14-2.11108E-14
 -1      3580 2.00025E+01 2.05146E-01 8.55197E-04 2.23541E-01-3.92500E-14-1.25727E-13
 -1      3581 1.99568E+01 2.50113E-01 9.95199E-04 2.36277E-01-6.95627E-14-1.17638E-13
 -1      3582 1.99842E+01 1.64630E-01-8.77063E-04 1.34060E-01 2.72439E-13 2.13131E-13
 -1      3583 2.00019E+01 1.47464E-01 1.14163E-04 1.35165E-01 7.39000E-14 1.45555E-13
 -1      3584 2.00042E+01 1.54610E-01 1.61936E-04 1.49501E-01 1.92225E-13 1.25881E-13
 -1      3585 1.99663E+01 1.95126E-01 7.65022E-05 1.47833E-01 8.82568E-14 1.04048E-13
 -1      3586 2.19175E+01-3.43293E+00 1.14168E-01-3.30634E+00-7.76046E-14-7.37153E-14
 -1      3587 1.30060E+01 1.87474E-01 6.06635E-02-2.49888E+00-4.42354E-16-2.55754E-13
 -1      3588 1.45085E+01-6.36449E-01 3.84399E-02-3.59380E+00-1.26194E-13-2.12670E-13
 -1      3589 1.97297E+01 2.24390E+00-1.57376E-01 5.49410E-01-5.14935E-14-2.97234E-13
 -1      3590 2.02491E+01 2.01023E+00-1.35226E-01 1.91454E-01-6.09790E-14-2.93710E-13
 -1      3591 2.07461E+01 1.87949E+00-3.01793E-02-3.37518E-02-3.30569E-14-2.86382E-13
 -1      3592 1.96710E+01 5.90697E-01 3.29777E-03-1.26627E+00-3.04704E-15-6.49990E-14
 -1      3593 1.96811E+01 5.75831E-01-3.72884E-03-1.16887E+00-3.12245E-15-3.56066E-14
 -1      3594 1.95129E+01 6.46867E-01 2.33782E-03-1.07894E+00-2.76257E-14-5.62516E-14
 -1      3595 1.93368E+01 6.81821E-01 2.30403E-03-1.27717E+00-1.66896E-14-5.40821E-14
 -1      3596 1.40503E+01-5.42860E-01 2.11275E-02 3.48125E+00-1.65628E-13 3.77150E-13
 -1      3597 1.23326E+01 2.61560E-01 8.16415E-02 2.38599E+00-5.69718E-14 3.65236E-13
 -1      3598 2.62484E+01-2.66318E+00-3.87272E-02-5.35029E-01-3.60528E-14-1.04923E-13
 -1      3599 2.01762E+01-4.19008E-01-7.96170E-02 8.48024E-01-9.14824E-14-1.19967E-13
 -1      3600 2.07943E+01 6.08017E-01 4.85363E-01-1.66180E-01 8.45435E-14-2.31429E-13
 -1      3601 2.01374E+01 2.43580E-01 2.69619E-01-3.13513E-02 2.22877E-14-4.84959E-14
 -1      3602 2.02800E+01 4.65259E-01 6.21551E-03-1.57963E-01 8.43540E-14-7.09944E-14
 -1      3603 2.03523E+01 6.01830E-01 7.24805E-03-9.23373E-02 9.15604E-14-6.85823E-14
 -1      3604 2.02588E+01 3.80380E-01 9.56402E-04-2.36996E-01 7.30597E-14-7.94195E-14
 -1      3605 1.72644E+01-1.21003E+00 1.00523E-02 3.57201E+00-1.31039E-13 3.02298E-13
 -1      3606 1.57165E+01-8.35885E-01 8.08111E-02 3.73097E+00-1.63869E-13 3.13718E-13
 -1      3607 1.51288E+01-1.93038E-01 8.15720E-03 3.01599E+00-1.95519E-13 3.31908E-13
 -1      3608 2.64730E+01 1.88371E+00-1.14993E-01 2.27881E+00-3.51663E-14-3.44426E-13
 -1      3609 2.00940E+01 1.38112E+00 2.80394E-02-1.31008E-02 1.11718E-13-2.23890E-13
 -1      3610 1.99530E+01-3.71467E+00 9.86046E-02 4.62634E+00 1.19939E-13 1.95356E-13
 -1      3611 1.85437E+01-2.95232E+00 8.24379E-02 4.53829E+00 1.72876E-13 1.38718E-13
 -1      3612 2.15366E+01-4.00058E+00-5.47525E-02 3.65174E+00 2.97332E-14 2.06482E-13
 -1      3613 1.55075E+01-1.71896E+00-1.05971E-03 4.48423E+00 2.35943E-13 2.12226E-13
 -1      3614 1.37472E+01-1.32409E+00 1.25797E-01 4.50842E+00 1.32241E-13 1.01807E-13
 -1      3615 1.33063E+01-6.37766E-01 4.37155E-02 3.69588E+00 9.97050E-14 4.23550E-14
 -1      3616 2.33786E+01-3.64709E+00 2.65101E-02 2.19353E+00-6.76854E-14-5.94177E-14
 -1      3617 2.01530E+01 1.03962E+00 1.54374E-01-5.54245E-01 1.32463E-13-2.26402E-13
 -1      3618 1.96091E+01 1.25398E+00 1.39383E-01-8.32249E-01 9.09273E-14-1.82077E-13
 -1      3619 2.56780E+01-2.09340E+00-9.64591E-03 8.66163E-01 2.17968E-15-4.34783E-13
 -1      3620 2.03782E+01 9.43893E-01-9.87415E-03 3.81946E-01 1.18675E-13-1.35949E-13
 -1      3621 2.03877E+01 1.04558E+00 1.35933E-02 2.64892E-01 8.39601E-14-1.79416E-13
 -1      3622 2.00476E+01-3.08449E+00 7.91858E-02-3.97691E+00 2.03302E-13-3.49954E-13
 -1      3623 2.00081E+01 3.07590E-01-1.52078E-03-6.03500E-01 3.06825E-14 1.69212E-14
 -1      3624 1.99996E+01 3.41524E-01 5.26351E-04-5.54733E-01 1.26544E-15 7.10990E-15
 -1      3625 1.99976E+01 3.38130E-01 1.52428E-03-6.57833E-01 2.04029E-14 3.20030E-14
 -1      3626 1.99499E+01 2.35084E-01 6.56343E-04-2.04813E-01-2.25691E-14-6.25533E-13
 -1      3627 1.99562E+01 2.13071E-01-3.49253E-04-1.79668E-01-3.36742E-15-4.77416E-13
 -1      3628 1.98779E+01 2.99530E-01 8.37063E-04-2.01747E-01-9.64169E-15-3.98653E-13
 -1      3629 1.36194E+01 5.22522E-01 2.57260E-02 1.90411E+00-6.60019E-14 1.85362E-13
 -1      3630 1.22250E+01 6.03149E-01 7.22941E-02 1.61647E+00 5.86024E-14 2.41415E-13
 -1      3631 1.23516E+01 7.96987E-01 5.78450E-03 6.15093E-01 7.00941E-14 8.96089E-14
 -1      3632 2.01706E+01 2.63660E-01-1.59589E-04-3.46303E-01 5.06869E-14-1.05850E-13
 -1      3633 2.01279E+01 2.67355E-01 1.06253E-02-4.55688E-01 2.16676E-14-9.12486E-14
 -1      3634 2.01673E+01 2.79097E-01 1.18106E-02-3.98333E-01 1.28838E-14-7.15079E-14
 -1      3635 2.00801E+01 3.04479E-01 1.46285E-04-4.60198E-01-5.23490E-15-8.37538E-14
 -1      3636 1.97969E+01 4.87894E-01 1.48444E-03-7.75192E-01 1.04101E-13-1.05592E-14
 -1      3637 1.99330E+01 4.09006E-01 1.78211E-03-7.75490E-01 6.81999E-14 2.45208E-14
 -1      3638 1.99439E+01 3.70924E-01-2.17794E-03-7.12865E-01 5.68344E-14 4.51018E-14
 -1      3639 1.86071E+01-1.65381E+00-6.14144E-03-3.57569E+00-6.69048E-14-1.39314E-13
 -1      3640 2.04473E+01 7.22157E-01 1.60287E-02 1.78337E-01 8.43258E-14-1.09163E-13
 -1      3641 2.03857E+01 6.25053E-01 1.85124E-03 1.86078E-01 9.49466E-14-7.66483E-14
 -1      3642 1.98154E+01 3.39697E-01 1.10668E-03-5.50826E-03 1.89843E-13 3.03273E-13
 -1      3643 1.98415E+01 3.08091E-01-5.45046E-04 1.41543E-02 1.26504E-13 1.81373E-13
 -1      3644 1.98464E+01 3.04905E-01-4.03415E-04 4.42453E-02 1.55576E-13 4.01930E-13
 -1      3645 1.88375E+01-1.51985E+00 1.09140E-03 3.40274E+00-2.11052E-13 7.60481E-15
 -1      3646 1.60332E+01-1.98626E+00 1.30940E-01-4.79547E+00 3.14759E-13-3.35877E-13
 -1      3647 1.79635E+01-2.81303E+00-1.06889E-02-4.62761E+00 2.59563E-13-4.90795E-13
 -1      3648 1.89123E+01-2.37418E+00 4.90656E-03-3.84010E+00 1.92820E-13-2.93586E-13
 -1      3649 1.49771E+01-1.30345E+00 3.04696E-02-4.15022E+00 2.96711E-13-3.32699E-13
 -1      3650 2.36498E+01-3.65774E+00-3.23915E-02 2.04656E+00 3.81483E-14-3.17787E-13
 -1      3651 1.99551E+01 2.16195E-01-8.54968E-04 1.72846E-01 4.76552E-14 7.07956E-14
 -1      3652 1.99785E+01 1.97328E-01 4.44508E-04 1.76797E-01 3.04875E-14 4.46987E-14
 -1      3653 2.00080E+01 1.62283E-01 3.23229E-04 1.65856E-01 2.03743E-13 1.22795E-13
 -1      3654 1.98000E+01 1.56821E+00-5.12805E-02-6.36923E-01-9.58539E-14-3.17264E-13
 -1      3655 2.49899E+01-2.77354E+00-7.08405E-02 1.96087E-01-4.82227E-14-4.04950E-13
 -1      3656 1.26979E+01 4.92074E-01 7.64635E-02-1.95461E+00 2.90653E-14-2.71169E-13
 -1      3657 1.41169E+01 3.14249E-01 2.85564E-02-2.31097E+00-1.08114E-13-2.09339E-13
 -1      3658 1.25291E+01 6.56006E-01 3.58886E-02-1.17750E+00-4.84821E-14-3.10106E-13
 -1      3659 1.21348E+01 6.70256E-01 3.29499E-02-1.06311E+00 2.71155E-13 3.22728E-14
 -1      3660 1.19679E+01 4.58296E-01 1.25079E-01-2.09742E+00 3.05663E-13 3.05866E-14
 -1      3661 1.28124E+01 4.42484E-02 2.09755E-02-2.74052E+00 2.50266E-13 6.13259E-14
 -1      3662 1.58273E+01-9.65646E-01 7.05390E-02-3.78365E+00-1.00880E-13-2.32241E-13
 -1      3663 1.72066E+01-1.40665E+00 4.10557E-03-3.72163E+00-6.38647E-14-2.32703E-13
 -1      3664 1.56238E+01-3.61884E-01 1.50502E-02-3.13439E+00-1.51183E-13-2.63373E-13
 -1      3665 1.09386E+01 4.78758E-01 1.29434E-01 1.43590E+00 4.47233E-14-2.04003E-13
 -1      3666 1.17331E+01 6.93415E-01 2.11587E-02 4.62632E-01 3.28895E-14-2.85508E-13
 -1      3667 1.19010E+01 2.28116E-01 4.33375E-02 2.18495E+00 7.75322E-14-1.58033E-13
 -1      3668 1.98780E+01 2.78574E-01 4.93752E-04-1.10376E-01 1.19821E-13 2.03869E-13
 -1      3669 1.98609E+01 2.89503E-01-9.03277E-04-8.54113E-02 2.06666E-13 4.14456E-13
 -1      3670 1.98305E+01 3.25733E-01 8.23008E-04-7.80159E-02 2.47848E-13 3.12453E-13
 -1      3671 1.92751E+01 1.54819E+00 1.60930E-01-6.86962E-01 1.43177E-13-1.76248E-13
 -1      3672 2.04016E+01 6.48102E-01-5.62726E-03 2.71772E-01 1.05018E-13-7.32600E-14
 -1      3673 1.98935E+01 2.66001E-01-1.34293E-03 1.33507E-01 9.76292E-14-1.95389E-13
 -1      3674 1.99194E+01 2.50645E-01 8.28005E-04 1.53175E-01 7.52590E-14-1.32803E-13
 -1      3675 1.92089E+01 6.32446E-01 2.11733E-01-1.62232E+00 1.20487E-13-1.00753E-13
 -1      3676 1.84038E+01 1.87947E+00 1.65080E-01-1.37511E+00-7.24421E-15-4.20775E-14
 -1      3677 1.68273E+01 2.06391E+00-2.68824E-01-1.03086E+00-4.82669E-14-2.24820E-15
 -1      3678 1.99244E+01 2.53992E-01-3.99914E-04 1.84608E-01-4.36425E-14 2.33207E-14
 -1      3679 2.10252E+01 1.94168E+00 3.42130E-01-7.03166E-01-6.64885E-14-2.12004E-13
 -1      3680 2.19640E+01-3.18084E+00 8.92262E-02 3.03301E+00-1.03050E-13-1.92999E-13
 -1      3681 2.03618E+01 1.85125E+00-4.61850E-02-3.05101E-01-2.58543E-14-1.92638E-13
 -1      3682 2.03497E+01 1.84187E+00 1.99298E-02-3.56951E-01-4.79755E-14-2.05246E-13
 -1      3683 2.04046E+01 1.61333E+00 3.30794E-02-3.62105E-01-3.49443E-14-2.13652E-13
 -1      3684 1.93184E+01 2.45091E+00-1.30649E-01 8.04692E-01-1.34448E-13-2.32092E-13
 -1      3685 1.82130E+01 2.19072E-01 1.61696E-02-2.20744E+00-1.42705E-14-1.82081E-13
 -1      3686 1.82059E+01 4.27054E-01-1.04015E-02-1.98967E+00-1.13412E-14-1.92594E-13
 -1      3687 2.03195E+01 1.41761E+00-3.60654E-01 3.17088E-01-1.25899E-13-2.31190E-13
 -1      3688 2.00989E+01 1.44073E+00-5.28578E-01 6.32478E-01-6.89448E-14-2.35367E-13
 -1      3689 2.07723E+01 1.14836E+00-2.18089E-01 9.59011E-01-1.23235E-14-2.12802E-13
 -1      3690 2.10111E+01 7.49789E-01-1.32123E-01 9.67650E-01 3.47899E-14-2.50272E-13
 -1      3691 2.10171E+01 1.98033E+00-2.69371E-01 1.13826E+00-8.26006E-14-2.79943E-13
 -1      3692 2.08397E+01 5.54650E-01-6.09406E-02 7.36468E-01 3.91753E-14-2.25448E-13
 -1      3693 2.08804E+01 4.39542E-01-4.23494E-03 7.08256E-01 3.09223E-14-2.19949E-13
 -1      3694 2.13470E+01 5.54340E-01-7.74775E-02 8.32541E-01 2.67709E-14-2.30399E-13
 -1      3695 2.06388E+01 3.85137E-01 1.31815E-03 6.13181E-01 3.80043E-14-1.92903E-13
 -1      3696 2.05488E+01 4.12372E-01 3.66880E-02 6.06861E-01 3.84085E-14-1.90559E-13
 -1      3697 2.08261E+01 3.87936E-01 1.10013E-02 5.55956E-01 5.52683E-14-1.61229E-13
 -1      3698 2.03149E+01 4.92326E-01 4.23914E-02 6.14551E-01 6.31613E-15-2.19779E-13
 -1      3699 2.02082E+01 5.73199E-01 1.07696E-01 6.14015E-01-5.79398E-16-2.35457E-13
 -1      3700 2.03033E+01 4.39204E-01 2.38352E-02 4.41359E-01 3.51975E-15-1.62126E-13
 -1      3701 1.98765E+01 5.12008E-01 5.72131E-02 6.75085E-01 1.51650E-14-2.32515E-13
 -1      3702 1.96624E+01 4.93938E-01 1.64093E-03 7.20848E-01-1.89965E-14-2.03880E-13
 -1      3703 1.99371E+01 5.92203E-01 6.25267E-02 5.31546E-01-4.38712E-15-2.09884E-13
 -1      3704 1.95656E+01 5.15244E-01-2.81971E-03 7.87740E-01-1.04502E-14-1.61725E-13
 -1      3705 1.95168E+01 5.32818E-01 2.31514E-03 8.60614E-01-7.83640E-15-1.31965E-13
 -1      3706 1.95070E+01 5.64475E-01 1.54729E-03 6.90453E-01 3.55435E-16-1.35223E-13
 -1      3707 1.94120E+01 5.37042E-01-3.24794E-03 9.44623E-01-1.24489E-14-1.16499E-13
 -1      3708 1.93708E+01 5.31726E-01 3.39453E-03 1.03207E+00 2.01698E-14-1.60368E-13
 -1      3709 1.93131E+01 6.06770E-01 1.51378E-03 8.37013E-01 9.45334E-15-6.01714E-14
 -1      3710 1.92623E+01 5.04496E-01-3.54876E-03 1.13880E+00-1.53767E-16-2.17823E-13
 -1      3711 1.92405E+01 4.60098E-01 5.11898E-03 1.24394E+00-2.55205E-14-1.82381E-13
 -1      3712 1.91078E+01 6.04794E-01 1.12685E-03 1.02368E+00-1.39403E-14-1.61412E-13
 -1      3713 1.91374E+01 3.82716E-01-3.51335E-03 1.38086E+00 1.98074E-14-2.17263E-13
 -1      3714 1.91552E+01 2.78062E-01 7.78382E-03 1.50672E+00 1.40643E-14-1.82650E-13
 -1      3715 1.89030E+01 5.25962E-01-1.54560E-05 1.26520E+00-2.04973E-14-2.34135E-13
 -1      3716 1.90762E+01 1.26528E-01-2.44545E-03 1.68284E+00-2.14054E-14-1.84705E-13
 -1      3717 1.91672E+01-6.50451E-02 1.19580E-02 1.82986E+00-3.05124E-14-1.70577E-13
 -1      3718 1.87237E+01 3.26666E-01-2.50257E-03 1.58158E+00-3.42957E-14-1.74439E-13
 -1      3719 1.91480E+01-3.22250E-01 5.43311E-04 2.05460E+00-1.64986E-14-1.73587E-13
 -1      3720 1.93674E+01-6.31199E-01 1.82204E-02 2.21170E+00 3.07929E-14-1.96554E-13
 -1      3721 1.86175E+01-4.90573E-02-6.50416E-03 1.99796E+00-3.51412E-15-1.59791E-13
 -1      3722 1.94779E+01-1.03143E+00 8.00984E-03 2.48786E+00 5.55862E-14-1.58909E-13
 -1      3723 1.98955E+01-1.49496E+00 2.03025E-02 2.61919E+00 4.55762E-14-1.33363E-13
 -1      3724 1.86778E+01-6.72533E-01-9.71421E-03 2.53642E+00 4.61953E-14-1.87260E-13
 -1      3725 1.94870E+01 6.54554E-01 1.07422E-03-8.66175E-01 6.17833E-16-4.26525E-14
 -1      3726 1.95561E+01 6.06037E-01-3.48549E-03-7.94926E-01 7.56942E-14-2.51870E-14
 -1      3727 2.03563E+01 8.48103E-01 1.09886E-03 3.93385E-01 1.39444E-13-1.03911E-13
 -1      3728 2.04118E+01 7.30914E-01 4.70762E-03 3.01666E-01 1.11163E-13-8.46463E-14
 -1      3729 1.87809E+01-1.69507E+00 3.11777E-02-3.33859E+00 7.19390E-14-2.65313E-13
 -1      3730 1.82386E+01-1.12715E+00-1.67728E-02-3.05070E+00-1.95937E-14-3.76097E-13
 -1      3731 1.71317E+01-1.27252E+00 4.77245E-02-3.78112E+00 1.14908E-13-4.19779E-13
 -1      3732 1.83810E+01-6.55840E-01 2.18348E-02-2.61822E+00 6.34571E-14-3.66853E-13
 -1      3733 1.81378E+01-2.90312E-01-2.01175E-02-2.34023E+00 7.67354E-14-3.51399E-13
 -1      3734 1.72109E+01-2.95141E-01 1.84096E-02-2.77902E+00 3.90577E-14-3.10004E-13
 -1      3735 1.83267E+01 9.37638E-04 7.28950E-03-2.03382E+00 6.07116E-14-3.52877E-13
 -1      3736 1.82538E+01 2.36879E-01-1.85252E-02-1.79848E+00 7.35731E-14-3.56918E-13
 -1      3737 1.75593E+01 3.04853E-01 2.02428E-02-2.01697E+00 7.21901E-14-2.10194E-13
 -1      3738 1.84543E+01 4.02988E-01 2.05831E-03-1.57623E+00-5.83775E-14-3.85253E-13
 -1      3739 1.84667E+01 5.39790E-01-1.50315E-02-1.39066E+00-3.11823E-13-3.71511E-13
 -1      3740 1.79224E+01 6.40296E-01 1.50457E-02-1.48335E+00-6.27727E-14-2.58163E-13
 -1      3741 1.86522E+01 6.24195E-01-3.53800E-04-1.22999E+00-4.19446E-13-4.15019E-13
 -1      3742 1.87055E+01 6.91815E-01-1.15828E-02-1.08561E+00-2.90593E-13-4.86453E-13
 -1      3743 1.82792E+01 8.06149E-01 1.23977E-02-1.11353E+00-3.60133E-13-2.54013E-13
 -1      3744 1.88691E+01 7.22112E-01-1.23177E-03-9.66413E-01-1.13227E-13-5.16889E-13
 -1      3745 1.89380E+01 7.42845E-01-8.80049E-03-8.53066E-01-4.96066E-14-4.99763E-13
 -1      3746 1.86007E+01 8.63579E-01 1.00879E-02-8.48368E-01-2.57515E-13-3.28154E-13
 -1      3747 1.90784E+01 7.37810E-01-1.51833E-03-7.62582E-01-5.68576E-14-4.79603E-13
 -1      3748 1.91496E+01 7.28340E-01-6.69051E-03-6.72205E-01 7.23659E-14-4.16703E-13
 -1      3749 1.88817E+01 8.49773E-01 8.13793E-03-6.52846E-01 3.94118E-14-4.15879E-13
 -1      3750 1.92679E+01 7.01607E-01-1.53036E-03-6.02202E-01 1.16409E-13-5.52662E-13
 -1      3751 1.93341E+01 6.74157E-01-5.10497E-03-5.29153E-01 1.54718E-13-4.47379E-13
 -1      3752 1.91217E+01 7.91647E-01 6.53241E-03-5.05202E-01 5.39149E-15-3.45928E-13
 -1      3753 1.94321E+01 6.35574E-01-1.40674E-03-4.74256E-01 2.88628E-14-4.34219E-13
 -1      3754 1.94902E+01 5.98883E-01-3.90308E-03-4.14726E-01-1.69746E-13-3.83101E-13
 -1      3755 1.93229E+01 7.08764E-01 5.22863E-03-3.91468E-01 1.13245E-15-4.91348E-13
 -1      3756 1.95701E+01 5.55396E-01-1.22310E-03-3.71355E-01-2.28247E-13-2.97721E-13
 -1      3757 1.96189E+01 5.15490E-01-2.98548E-03-3.22701E-01-1.84716E-13-3.43537E-13
 -1      3758 1.94884E+01 6.15145E-01 4.16543E-03-3.02625E-01-8.76786E-14-5.80746E-13
 -1      3759 1.96830E+01 4.71880E-01-1.00791E-03-2.88518E-01-1.42605E-13-3.71677E-13
 -1      3760 1.97227E+01 4.32997E-01-2.18997E-03-2.48702E-01-1.12400E-13-4.31152E-13
 -1      3761 1.96222E+01 5.20353E-01 3.21409E-03-2.32846E-01-1.44227E-13-4.79975E-13
 -1      3762 1.97731E+01 3.91965E-01-8.59375E-04-2.21986E-01-1.76830E-14-3.50338E-13
 -1      3763 1.98044E+01 3.56650E-01-1.60763E-03-1.89533E-01 3.40968E-14-2.10297E-13
 -1      3764 1.97282E+01 4.30473E-01 2.15355E-03-1.78148E-01 1.14804E-13-1.75565E-13
 -1      3765 1.84584E+01 5.84989E-01 9.02588E-03-1.77131E+00-6.36367E-14-1.58249E-13
 -1      3766 1.85205E+01 6.80163E-01-8.72432E-03-1.60790E+00-7.45446E-14-1.62430E-13
 -1      3767 1.77927E+01 6.84756E-01 6.42422E-03-1.75496E+00-8.73336E-15-1.97628E-13
 -1      3768 1.87452E+01 7.45471E-01 4.89148E-03-1.45385E+00-6.11399E-14-1.40823E-13
 -1      3769 1.88313E+01 7.70470E-01-6.95966E-03-1.32697E+00-3.43805E-14-7.28384E-14
 -1      3770 1.82504E+01 8.47471E-01 6.37438E-03-1.39915E+00-2.53267E-14-9.10954E-14
 -1      3771 2.05337E+01 8.01036E-01 3.37874E-02 1.84898E-01 8.02258E-14-2.10007E-13
 -1      3772 2.05912E+01 7.28912E-01 2.48309E-02 2.56168E-01 9.50368E-14-2.28373E-13
 -1      3773 1.98710E+01-1.08957E-01 5.93707E-01-5.57101E-02-5.56222E-14 1.55514E-13
 -1      3774 1.93957E+01-4.27487E-03 4.17842E-01-3.14933E-02-1.85296E-13 1.37057E-13
 -1      3775 1.99434E+01 2.25648E-01 4.55782E-04-1.71344E-01-8.40077E-14-5.08267E-13
 -1      3776 1.99281E+01 2.36456E-01 1.45540E-04-1.61176E-01-1.49281E-14-4.89783E-13
 -1      3777 1.81111E+01-5.90679E-02-1.19480E-02 2.46897E+00-2.80538E-13 8.92235E-14
 -1      3778 1.82699E+01-4.55142E-01 1.60847E-02 2.76759E+00-2.72942E-13 9.06692E-14
 -1      3779 1.85987E+01 7.16586E-01-8.15392E-03 1.56523E+00 7.21169E-14 2.22087E-14
 -1      3780 1.85510E+01 6.16962E-01 8.61724E-03 1.73014E+00-1.23754E-14 3.23409E-14
 -1      3781 1.73016E+01 3.50291E+00-8.15017E-02 1.58825E+00-3.96877E-13-2.40141E-13
 -1      3782 1.98400E+01 1.19509E+00-3.93998E-01 2.38139E+00-3.62328E-13-4.52638E-13
 -1      3783 1.71251E+01 4.00695E+00 5.21692E-01 1.36259E-01-5.14311E-13 2.45748E-13
 -1      3784 1.88751E+01 8.15549E-01-6.57181E-03 1.27441E+00 1.18862E-13 1.82875E-14
 -1      3785 1.88026E+01 7.85841E-01 4.63202E-03 1.40649E+00 7.78191E-14 7.98641E-14
 -1      3786 1.83074E+01 8.88762E-01 5.87964E-03 1.36929E+00 5.69856E-14-6.10191E-14
 -1      3787 1.91234E+01 8.15844E-01-5.28397E-03 1.04388E+00 1.97258E-13-5.35253E-14
 -1      3788 1.90488E+01 8.27788E-01 2.43695E-03 1.15353E+00 1.02477E-13-5.61832E-14
 -1      3789 1.86696E+01 9.32221E-01 5.49426E-03 1.10559E+00 1.80995E-13 6.48260E-14
 -1      3790 1.93333E+01 7.59698E-01-4.28699E-03 8.53846E-01 1.20928E-14-5.85238E-14
 -1      3791 1.92669E+01 7.94801E-01 1.36405E-03 9.47039E-01 2.07164E-13 6.74729E-14
 -1      3792 1.89733E+01 8.97429E-01 4.81658E-03 9.02081E-01 1.38360E-13 4.80737E-14
 -1      3793 1.95041E+01 6.75227E-01-3.51158E-03 6.93754E-01 1.11940E-13 6.40025E-14
 -1      3794 1.94494E+01 7.21221E-01 8.78424E-04 7.73721E-01 9.17148E-15 3.49207E-14
 -1      3795 1.92215E+01 8.18580E-01 4.01283E-03 7.36938E-01 4.79474E-14 1.47097E-13
 -1      3796 1.96392E+01 5.80420E-01-2.87969E-03 5.57936E-01 1.88861E-14 4.66246E-13
 -1      3797 1.95963E+01 6.29524E-01 6.87223E-04 6.26395E-01 2.83108E-14 2.49562E-13
 -1      3798 1.94200E+01 7.19018E-01 3.25062E-03 5.98845E-01-7.94492E-14 5.17469E-14
 -1      3799 1.97437E+01 4.86185E-01-2.39392E-03 4.43091E-01-1.72992E-13 5.61174E-13
 -1      3800 1.97114E+01 5.33809E-01 6.25008E-04 5.01159E-01 6.44764E-14 5.35828E-13
 -1      3801 1.95760E+01 6.13734E-01 2.58278E-03 4.81951E-01-7.01489E-14 4.37016E-13
 -1      3802 1.98229E+01 3.99403E-01-1.92069E-03 3.46889E-01-1.50716E-13 2.17461E-13
 -1      3803 1.97995E+01 4.42873E-01 7.27562E-04 3.95869E-01-2.37232E-13 2.94716E-13
 -1      3804 1.96968E+01 5.11731E-01 1.95435E-03 3.83338E-01-2.51220E-14 4.54016E-13
 -1      3805 1.98804E+01 3.23279E-01-1.63635E-03 2.66434E-01 4.36218E-14 6.33446E-15
 -1      3806 1.98655E+01 3.61197E-01 8.85234E-04 3.08044E-01-7.34776E-14 6.48504E-14
 -1      3807 1.97877E+01 4.18298E-01 8.72484E-04 3.01297E-01-3.99792E-14 1.47394E-13
 -1      3808 1.99115E+01 2.82577E-01 2.33172E-04 2.15877E-01-6.47610E-14-6.57872E-14
 -1      3809 1.98571E+01 2.95984E-01-8.56940E-04 7.89467E-02 1.61885E-13 3.74155E-13
 -1      3810 1.98733E+01 2.85696E-01 1.27735E-04 1.05466E-01 9.75931E-14 1.63448E-13
 -1      3811 1.98655E+01 3.05284E-01 1.33940E-03 1.34323E-01 2.54401E-14 4.48750E-15
 -1      3812 1.98277E+01 3.32905E-01 1.37775E-03 6.82220E-02 6.61625E-14 3.01551E-13
 -1      3813 2.02049E+01 2.92865E-01 5.41856E-03-3.49437E-01 2.35431E-14-8.07483E-14
 -1      3814 2.02236E+01 3.25760E-01 3.41334E-03-2.92243E-01 4.17371E-14-8.56841E-14
 -1      3815 2.02065E+01 3.33254E-01 1.33416E-02-3.47922E-01 8.21739E-15-8.03160E-14
 -1      3816 1.27411E+01 9.76983E-01 7.30834E-02-2.41177E-01 9.22136E-14 3.26371E-14
 -1      3817 1.33500E+01 8.04665E-01-6.59843E-03-1.13752E+00 1.62082E-13 3.64292E-16
 -1      3818 1.36212E+01 9.83625E-01 2.10510E-02 3.57506E-01 5.51742E-14-3.63078E-15
 -1      3819 1.79072E+01-8.77351E-01-9.75215E-03-3.18141E+00-3.58307E-14-1.67953E-13
 -1      3820 1.99016E+01 2.55444E-01-1.13552E-03-1.43174E-01 1.58000E-14-2.17886E-13
 -1      3821 2.15913E+01 1.88722E+00 1.43047E-01-5.41406E-01 7.66887E-14-4.01845E-13
 -1      3822 2.03191E+01 1.83193E+00-1.21944E-01-3.97333E-01 2.68952E-14-2.65281E-13
 -1      3823 2.41882E+01 2.18855E+00 1.16016E+00 1.27334E+00-1.62800E-13-9.08107E-13
 -1      3824 1.98683E+01 2.92661E-01-3.32505E-04-1.45697E-01 7.41952E-14-1.07786E-13
 -1      3825 2.03796E+01 1.00369E+00 2.27827E-02 1.06539E-01 9.64957E-14-2.43654E-13
 -1      3826 2.03153E+01 1.11783E+00 8.04473E-02-1.21856E-01 9.58400E-14-2.40426E-13
 -1      3827 2.04517E+01 6.59707E-01 1.31356E-01-3.43646E-01 1.40929E-13-2.33827E-13
 -1      3828 2.05168E+01 8.20891E-01 3.27220E-02 1.69393E-01 8.75064E-14-2.12615E-13
 -1      3829 2.04864E+01 7.84561E-01 1.31034E-02 2.84808E-01 9.01371E-14-8.74214E-14
 -1      3830 1.99241E+01 3.07235E-01 1.00201E-01-1.51871E-02-1.59039E-13-1.03806E-13
 -1      3831 1.99740E+01 8.19602E-01-1.19158E-01 2.33065E-03-1.40846E-13-8.22675E-14
 -1      3832 1.89174E+01 8.33804E-02 4.27664E-01 2.57709E-02-2.16271E-13 1.51268E-13
 -1      3833 2.05953E+01 7.12065E-01 3.35565E-02 2.24979E-01 9.75296E-14-2.08356E-13
 -1      3834 2.05740E+01 7.29936E-01 2.05818E-02 2.30050E-01 8.97234E-14-2.30680E-13
 -1      3835 2.06893E+01 7.64180E-01 8.43549E-02 1.31244E-01 9.42441E-14-3.01576E-13
 -1      3836 2.07940E+01 7.29362E-01 8.33987E-02 2.37486E-01 1.05662E-13-3.47403E-13
 -1      3837 1.83249E+01 4.55428E-01-9.43173E-03 1.94836E+00-2.43404E-13 5.89101E-14
 -1      3838 1.83456E+01 2.44631E-01 1.51039E-02 2.16132E+00-3.29516E-13 4.96940E-14
 -1      3839 1.74560E+01 3.28480E-01 5.35503E-03 2.25353E+00-3.15588E-13 9.54029E-14
 -1      3840 1.94126E+01 2.12981E+00 3.02802E-02-1.76731E-01 1.23263E-13-4.86000E-14
 -1      3841 1.92407E+01 1.24867E+00 1.74585E-01 5.43336E-01 2.29428E-13 2.88436E-13
 -1      3842 1.77973E+01-5.04359E-01-8.29902E-02 9.91512E-01-1.24345E-13 7.49623E-13
 -1      3843 2.04010E+01 1.55081E+00 3.38675E-02-1.59741E-01-3.37369E-14-1.61274E-13
 -1      3844 1.98428E+01 3.20283E-01-7.47954E-04-1.66151E-01 7.08019E-14-8.09503E-14
 -1      3845 1.98560E+01 3.28197E-01-2.87142E-04 2.11154E-01-1.87351E-15-8.05768E-14
 -1      3846 2.03940E+01 6.04642E-01 3.53334E-02-7.89428E-02 3.33102E-14-1.16955E-13
 -1      3847 2.04796E+01 8.01837E-01 6.52528E-02 2.91627E-02 3.65090E-14-2.00989E-13
 -1      3848 2.08151E+01 9.88366E-01 1.52940E-01 1.57393E-01 4.60569E-14-3.69867E-13
 -1      3849 1.95064E+01 6.41926E-01 2.91830E-03-6.89415E-01 5.31758E-14-6.42115E-14
 -1      3850 1.96674E+01 5.59273E-01 8.62150E-04-7.35931E-01 7.10657E-14-1.68083E-14
 -1      3851 1.97259E+01 5.10931E-01-2.71760E-03-6.75192E-01 5.87302E-14-5.41100E-14
 -1      3852 1.93528E+01 6.96446E-01-4.38335E-03-9.37563E-01-1.50987E-14-7.92133E-14
 -1      3853 1.92712E+01 7.45897E-01 3.78364E-03-8.11097E-01 3.59763E-14-9.56357E-14
 -1      3854 1.92728E+01 7.35810E-01 1.56227E-03-1.02217E+00-1.89195E-14-1.16346E-13
 -1      3855 2.02729E+01-1.99515E+00 4.14489E-02 2.88065E+00 8.16847E-14-1.19265E-13
 -1      3856 2.08169E+01-2.71398E+00 1.12223E-02 2.99917E+00 2.75405E-14-2.26173E-14
 -1      3857 1.44332E+01-3.08552E-01 5.42450E-03 3.12786E+00 2.11829E-13 1.33948E-13
 -1      3858 1.31072E+01 8.46082E-02 9.54991E-02 2.82098E+00 1.62683E-13-5.26246E-14
 -1      3859 1.31582E+01 4.88023E-01 1.85484E-03 1.84820E+00 1.47177E-13-7.99187E-14
 -1      3860 1.99065E+01 4.06228E-01 9.81533E-04-6.57374E-01 3.61509E-14 1.75768E-14
 -1      3861 1.46541E+01 3.55988E-01 6.84955E-02 2.49701E+00-1.99687E-13 3.10224E-13
 -1      3862 1.43044E+01 6.06021E-01-2.72276E-03 1.82695E+00-8.27619E-14 9.36924E-14
 -1      3863 1.58505E+01-5.44053E-02 9.29795E-03 2.77061E+00-2.08497E-13 3.97342E-13
 -1      3864 2.00518E+01 3.44851E-01 3.18584E-04-4.41556E-01-2.47128E-14-3.72570E-14
 -1      3865 2.00900E+01 3.34927E-01-6.32821E-04-3.95101E-01-1.66479E-14-4.60621E-14
 -1      3866 1.97760E+01 3.70812E-01-5.64664E-04-2.61612E-02 3.09451E-13 5.10994E-13
 -1      3867 1.97741E+01 3.71404E-01-1.09867E-03 1.16258E-02 2.11361E-13 2.81593E-13
 -1      3868 1.80876E+01-4.73593E-01 2.07117E-02-2.83638E+00-3.69045E-14-1.97458E-13
 -1      3869 1.79455E+01-8.20995E-02-1.17200E-02-2.52417E+00-4.54107E-14-1.99382E-13
 -1      3870 2.04555E+01 1.97830E+00 2.97520E-02-2.80659E-01 5.33601E-14-1.97432E-13
 -1      3871 2.02819E+01 4.06898E-01 4.60494E-03-2.39860E-01 8.08665E-14-6.49285E-14
 -1      3872 1.68658E+01-3.00475E-01 1.26649E-02-2.95349E+00-7.95006E-14-3.06455E-13
 -1      3873 1.40500E+01-1.87309E-01 9.56317E-02-3.29983E+00 2.68107E-13-1.40350E-13
 -1      3874 1.59564E+01-9.73166E-01 2.48527E-02-3.63736E+00 2.27114E-13-3.70579E-13
 -1      3875 1.59514E+01-4.29182E-01-1.22121E-02-3.09914E+00 1.17356E-13-1.60545E-13
 -1      3876 1.40000E+01 2.09017E-01 5.32256E-03-2.49298E+00 3.70587E-13-2.72213E-14
 -1      3877 1.69054E+01-2.11380E-01 2.22084E-02 2.88946E+00-2.10054E-13 2.76007E-13
 -1      3878 1.78959E+01-8.03538E-01-1.46703E-02 3.09342E+00-2.38759E-13 1.39203E-13
 -1      3879 1.72916E+01 3.06443E-01 3.48851E-03-2.27984E+00-5.07311E-14-2.35216E-13
 -1      3880 1.78935E+01 7.12400E-01 5.25714E-03 1.73188E+00-1.26839E-13-3.99299E-14
 -1      3881 1.98152E+01 3.54169E-01-5.30984E-04 1.72517E-01 3.47189E-14 9.62675E-14
 -1      3882 1.97832E+01 4.03784E-01 1.32286E-03 2.23878E-01 8.14147E-14 8.81511E-14
 -1      3883 1.97881E+01 3.72419E-01-8.97957E-04 1.41115E-01 1.11274E-13 2.16578E-13
 -1      3884 2.02344E+01 1.06450E+00-5.70596E-01 3.62170E-01-1.34337E-13-1.88960E-13
 -1      3885 1.81923E+01-2.23897E+00 9.28028E-02 4.22927E+00 1.83675E-13-3.05819E-14
 -1      3886 1.73465E+01-1.71318E+00 1.10473E-02 3.89310E+00 1.69219E-13 2.23753E-14
 -1      3887 1.98100E+01 3.50199E-01 1.11039E-03-1.32193E-01 1.17874E-13 4.10228E-14
 -1      3888 1.25793E+01 9.01834E-01 8.35226E-02-4.91736E-01-2.34309E-14-3.08652E-13
 -1      3889 1.35895E+01 7.90235E-01 1.83676E-02-1.18087E+00-6.04065E-14-2.26355E-13
 -1      3890 1.28455E+01 8.39942E-01 1.72151E-02 2.49898E-01 4.59494E-14-2.29747E-13
 -1      3891 1.50472E+01 2.00401E-01 4.89373E-02-2.63972E+00-1.42243E-13-1.87753E-13
 -1      3892 1.60502E+01-1.72939E-01 2.09449E-02-2.86452E+00-1.05012E-13-2.90719E-13
 -1      3893 1.61990E+01 1.58192E-01-8.56078E-03-2.51289E+00-9.76502E-14-3.22567E-13
 -1      3894 1.45610E+01 4.28848E-01 6.80460E-03-2.14867E+00-1.08849E-13-1.99459E-13
 -1      3895 2.19000E+01-3.50382E+00 6.97216E-03 3.07572E+00-8.96852E-15 2.20692E-14
 -1      3896 1.91098E+01-1.64350E+00-5.43473E-03 3.17598E+00 6.54745E-14-1.33229E-13
 -1      3897 1.99879E+01 3.63836E-01-1.31062E-03-4.81626E-01-6.55799E-15-2.88760E-14
 -1      3898 2.00008E+01 3.95849E-01 1.08785E-03-4.16261E-01-7.34154E-15-2.16198E-14
 -1      3899 1.99450E+01 3.92150E-01 5.84027E-04-5.29316E-01 5.94007E-17-1.40814E-14
 -1      3900 1.40436E+01 7.35465E-01 6.90957E-02-1.73097E+00 2.10606E-13-3.81067E-14
 -1      3901 1.47941E+01 3.63161E-01-3.09290E-04-2.26893E+00 2.05975E-13-1.14075E-14
 -1      3902 1.42426E+01 9.03559E-01-5.61104E-03-1.02958E+00 1.30540E-14-7.85344E-14
 -1      3903 2.07780E+01 5.22474E-01 1.84515E-01-1.32877E-01 1.63203E-13-3.00997E-13
 -1      3904 2.07373E+01 5.27413E-01 3.65788E-01-4.51740E-01 1.90792E-13-2.81761E-13
 -1      3905 2.08833E+01 5.60126E-01 2.15808E-01-6.85735E-02 1.81077E-13-3.08864E-13
 -1      3906 1.90236E+01 7.78161E-01 2.65426E-03-1.21290E+00-6.13812E-14-5.01426E-14
 -1      3907 1.91115E+01 7.61283E-01-5.50945E-03-1.11075E+00-3.78206E-14-5.25671E-14
 -1      3908 1.89881E+01 8.33530E-01 4.73307E-03-9.59522E-01-3.81352E-14-1.03031E-13
 -1      3909 1.86495E+01 8.79489E-01 5.67145E-03-1.14770E+00-6.06651E-14-3.28487E-14
 -1      3910 2.08433E+01 2.25822E-01 8.14405E-01-1.15647E+00 3.79696E-13-5.11813E-14
 -1      3911 2.07727E+01 1.48249E-01 7.60111E-01-1.15059E+00 2.58127E-13-1.23790E-14
 -1      3912 1.84884E+01-1.07112E+00 4.26663E-02-2.64140E+00 5.62439E-13 4.65739E-13
 -1      3913 1.80167E+01-1.39864E+00-3.27031E-03 3.35004E+00 8.08060E-14-1.36543E-13
 -1      3914 1.59407E+01-6.54892E-01 7.29242E-02 3.52898E+00 1.96442E-13 1.17670E-13
 -1      3915 1.53732E+01-1.44274E-01-1.48239E-02 2.80805E+00 2.04411E-13 5.20174E-14
 -1      3916 1.76948E+01-8.18624E-01-1.81123E-02 2.97357E+00 7.65969E-14-1.11085E-13
 -1      3917 1.97936E+01 3.57211E-01-5.62421E-04-9.90581E-02 2.04764E-13 1.76706E-13
 -1      3918 1.97795E+01 3.68149E-01-6.20482E-04-6.31124E-02 3.05598E-13 3.34874E-13
 -1      3919 1.97398E+01 4.08819E-01 6.47373E-04-4.60852E-02 3.66169E-13 4.27732E-13
 -1      3920 1.97573E+01 3.95899E-01 3.17753E-04-1.19356E-01 2.95128E-13 9.16715E-14
 -1      3921 1.83083E+01 9.61510E-01 3.35468E-04-1.00025E+00-7.01775E-14-7.82938E-14
 -1      3922 1.84900E+01 9.39049E-01-7.56903E-03-9.05389E-01-9.66661E-14-7.32817E-14
 -1      3923 2.15694E+01 1.06929E-01-2.09510E-01 4.71470E-01 1.09114E-13-2.70686E-13
 -1      3924 2.15402E+01 2.88309E-01 1.50502E-02 2.85105E-01 9.56180E-14-2.52014E-13
 -1      3925 2.10994E+01 3.57986E-01 1.12219E-01 1.71876E-01 1.05249E-13-2.18450E-13
 -1      3926 2.05222E+01 2.35126E-01 2.03327E-02 4.48519E-02 8.99697E-14-1.55102E-13
 -1      3927 2.16630E+01 2.06705E-01 2.03842E-01-9.69911E-02 1.61288E-13-2.75183E-13
 -1      3928 2.02919E+01 5.23965E-01 7.42823E-02 2.36831E-01 8.82627E-15-1.49511E-13
 -1      3929 2.00025E+01 6.16882E-01 6.48120E-02 2.88379E-01 1.48145E-15-1.21074E-13
 -1      3930 1.98449E+01 4.61625E-01-1.04106E-02 6.71206E-02 1.87836E-14-1.05010E-13
 -1      3931 1.99016E+01 6.40761E-01 6.75044E-02 4.05908E-01 2.42965E-14-1.47342E-13
 -1      3932 1.96742E+01 6.28707E-01 5.09540E-02 4.83348E-01-4.86416E-15-1.31587E-13
 -1      3933 1.96927E+01 6.11939E-01 2.81354E-02 2.98070E-01 3.09128E-15-8.78165E-14
 -1      3934 1.94526E+01 5.96188E-01-3.15984E-03 5.63068E-01 2.87849E-14-1.10065E-13
 -1      3935 1.93621E+01 6.32448E-01 1.10467E-03 6.24636E-01 7.62277E-14-3.62801E-14
 -1      3936 1.94455E+01 6.28823E-01 2.63947E-03 4.47609E-01 7.86482E-14-6.50587E-14
 -1      3937 1.92205E+01 6.60763E-01-4.11556E-03 6.90039E-01-5.74948E-15-8.46945E-14
 -1      3938 1.91241E+01 6.85180E-01 1.81825E-03 7.67926E-01-3.56762E-14-7.28855E-14
 -1      3939 1.91911E+01 7.09693E-01 3.00279E-03 5.54969E-01 3.93008E-14-3.14732E-14
 -1      3940 1.89613E+01 6.94285E-01-5.29456E-03 8.55031E-01-2.93341E-14-1.02130E-13
 -1      3941 1.88637E+01 6.94368E-01 3.05185E-03 9.55512E-01-4.38965E-14-1.72727E-13
 -1      3942 1.88994E+01 7.70848E-01 3.64958E-03 6.98178E-01-6.91943E-14-1.55079E-13
 -1      3943 1.86773E+01 6.69742E-01-6.89912E-03 1.07378E+00-8.90332E-15-1.95097E-13
 -1      3944 1.85884E+01 6.29579E-01 5.14112E-03 1.20598E+00-2.98067E-14-2.14368E-13
 -1      3945 1.85662E+01 7.88381E-01 4.18957E-03 8.92252E-01-2.02953E-14-1.65036E-13
 -1      3946 1.83773E+01 5.51890E-01-8.90461E-03 1.37021E+00-1.45203E-14-2.11053E-13
 -1      3947 1.83157E+01 4.49248E-01 8.38943E-03 1.54684E+00-3.25359E-14-1.96411E-13
 -1      3948 1.81882E+01 7.32862E-01 4.36687E-03 1.16212E+00-3.54187E-15-1.67465E-13
 -1      3949 1.80861E+01 2.91733E-01-1.04080E-02 1.77585E+00-4.70539E-14-1.61298E-13
 -1      3950 1.80796E+01 9.73822E-02 1.32487E-02 2.01411E+00 3.83359E-14-1.31899E-13
 -1      3951 1.77694E+01 5.58557E-01 3.37697E-03 1.54604E+00-2.82221E-15-1.10447E-13
 -1      3952 1.78412E+01-1.35201E-01-1.41606E-02 2.29000E+00 6.42709E-14-1.75353E-13
 -1      3953 1.79389E+01-4.60904E-01 1.53676E-02 2.60075E+00 3.95391E-14-1.63103E-13
 -1      3954 1.69381E+01-1.81373E-01 2.75404E-02 2.68018E+00 1.15162E-13-1.19665E-13
 -1      3955 1.73404E+01 2.67056E-01 9.17923E-03 2.04041E+00 5.09824E-15-3.36940E-14
 -1      3956 1.80448E+01 1.01029E+00-1.00728E-02 1.08020E+00 3.04267E-14-2.82610E-14
 -1      3957 1.78552E+01 9.87374E-01 2.44926E-03 1.21722E+00-1.30305E-13-1.37470E-13
 -1      3958 1.68475E+01 4.43347E-01-3.24704E-03-1.89012E+00 6.46904E-14-1.94379E-13
 -1      3959 1.70310E+01 6.18918E-01-2.37152E-02-1.59254E+00-2.29504E-15-2.15821E-13
 -1      3960 1.74433E+01 7.48960E-01 4.71174E-03-1.35284E+00-3.49386E-14-1.76858E-13
 -1      3961 1.76143E+01 8.28880E-01-1.54390E-02-1.15951E+00-1.47833E-13-2.62400E-13
 -1      3962 1.68732E+01 9.24725E-01 2.24984E-02-1.22839E+00-6.80666E-14-2.06179E-13
 -1      3963 1.79281E+01 8.92975E-01 2.62640E-03-9.94306E-01-2.31139E-13-2.33249E-13
 -1      3964 1.80881E+01 9.20759E-01-1.08122E-02-8.57557E-01-3.57210E-13-2.07038E-13
 -1      3965 1.75260E+01 1.02386E+00 1.27352E-02-8.70203E-01-2.00572E-13-1.51331E-13
 -1      3966 1.83370E+01 9.36848E-01 1.17037E-03-7.41953E-01-3.49179E-13-6.65952E-14
 -1      3967 1.84814E+01 9.29458E-01-7.67668E-03-6.42615E-01-1.51686E-13-4.77824E-14
 -1      3968 1.80462E+01 1.04429E+00 8.86610E-03-6.25128E-01-2.65455E-13 8.45060E-14
 -1      3969 1.86804E+01 9.14142E-01 2.88356E-04-5.60500E-01-1.08116E-14-1.72535E-13
 -1      3970 1.88067E+01 8.83951E-01-5.60334E-03-4.86448E-01 3.49188E-14-2.12163E-13
 -1      3971 1.84665E+01 1.00589E+00 6.81883E-03-4.56067E-01-9.36675E-14 1.59033E-13
 -1      3972 1.89668E+01 8.49172E-01-1.74317E-04-4.26892E-01-7.38971E-15-1.89919E-13
 -1      3973 1.90746E+01 8.05582E-01-4.18425E-03-3.70362E-01 1.51689E-14-1.44374E-13
 -1      3974 1.88065E+01 9.29521E-01 5.35938E-03-3.36245E-01-6.96199E-15 8.48417E-14
 -1      3975 1.92033E+01 7.60100E-01-3.97342E-04-3.26453E-01-6.41798E-14-1.77829E-13
 -1      3976 1.92934E+01 7.10175E-01-3.17815E-03-2.82507E-01-1.01879E-13-2.99693E-13
 -1      3977 1.90818E+01 8.31020E-01 4.27576E-03-2.49564E-01-1.18386E-13 2.14535E-13
 -1      3978 1.93964E+01 6.60432E-01-4.79103E-04-2.49751E-01-7.61431E-14-3.40275E-13
 -1      3979 1.94702E+01 6.09353E-01-2.40963E-03-2.15191E-01-1.57089E-13-3.45265E-13
 -1      3980 1.93040E+01 7.22763E-01 3.44406E-03-1.85886E-01-1.36569E-13-5.58406E-14
 -1      3981 1.95519E+01 5.59746E-01-4.91767E-04-1.90400E-01-8.11547E-14-2.54507E-13
 -1      3982 1.96118E+01 5.10984E-01-1.72300E-03-1.63510E-01 5.70311E-14-1.40883E-13
 -1      3983 1.94819E+01 6.14128E-01 2.83505E-03-1.38498E-01-7.82377E-14 1.87534E-14
 -1      3984 1.96652E+01 4.73887E-01-3.06808E-04-1.51168E-01 2.15449E-13-1.27018E-13
 -1      3985 1.97137E+01 4.29892E-01-9.10785E-04-1.29283E-01 3.34932E-13 1.12406E-13
 -1      3986 1.97029E+01 4.40931E-01 4.76830E-04-9.14030E-02 3.58876E-13 2.30267E-13
 -1      3987 1.96105E+01 5.20273E-01 1.99605E-03-1.09023E-01 2.02381E-13 3.83767E-13
 -1      3988 1.71874E+01 8.06884E-01 6.95803E-03-1.55972E+00 4.13671E-14-1.86728E-13
 -1      3989 1.74155E+01 8.86914E-01-1.51279E-02-1.36709E+00 7.53661E-14-7.07660E-14
 -1      3990 1.74941E+01 9.25228E-01-1.48595E-02 1.36613E+00-9.80371E-14-7.23588E-14
 -1      3991 1.72901E+01 8.36945E-01 6.49985E-03 1.56270E+00-9.71616E-14 1.62863E-14
 -1      3992 1.73346E+01 1.10895E+00 1.28119E-02 1.04637E+00-3.36433E-14-5.90587E-14
 -1      3993 1.77995E+01 9.42729E-01 2.07830E-03-1.22607E+00-8.45867E-15-5.16283E-14
 -1      3994 1.80089E+01 9.59466E-01-1.07908E-02-1.09509E+00-4.01232E-14-3.51172E-14
 -1      3995 1.72850E+01 1.06515E+00 1.47979E-02-1.03387E+00 5.45230E-14-1.14758E-13
 -1      3996 2.05242E+01 1.76016E+00 1.03594E-01-4.41876E-02 5.77455E-14-1.57277E-13
 -1      3997 1.13092E+01 2.23515E+00-5.12693E-01-3.66350E+00-9.57498E-13 9.29368E-13
 -1      3998 8.86987E+00 2.97310E+00-1.69688E+00 5.97618E+00-2.87792E-12 7.96585E-14
 -1      3999 1.33730E+01-1.57758E+00-2.64658E-01-2.84043E+00-5.39568E-13 1.96970E-12
 -1      4000 1.64403E+01 4.86238E-01 1.77179E-02-2.08223E+00-3.71560E-14-3.01472E-13
 -1      4001 1.66836E+01 6.75052E-01-1.70197E-02-1.78488E+00-4.02846E-15-2.75552E-13
 -1      4002 1.64403E+01 9.59288E-01 1.81142E-02-1.34084E+00 7.96889E-14-2.10125E-13
 -1      4003 1.88401E+01 9.36803E-01-5.35695E-03 7.18069E-01 8.01476E-14 1.89882E-13
 -1      4004 1.87039E+01 9.76698E-01-2.64183E-04 7.99414E-01 1.43880E-13 1.45967E-13
 -1      4005 1.91217E+01 8.40670E-01-4.10259E-03 5.88878E-01-1.19004E-14 2.88708E-13
 -1      4006 1.90113E+01 8.92750E-01-5.16579E-04 6.56669E-01 1.93689E-14 2.21078E-13
 -1      4007 1.87887E+01 9.82814E-01 6.07666E-03 5.59585E-01 3.21274E-14 3.06075E-13
 -1      4008 1.93442E+01 7.31146E-01-3.24595E-03 4.79886E-01-1.53985E-13 2.38435E-13
 -1      4009 1.92567E+01 7.87761E-01-4.73293E-04 5.37626E-01-9.34182E-14 2.25397E-13
 -1      4010 1.90834E+01 8.71238E-01 4.74915E-03 4.61874E-01-5.80434E-14 3.20577E-13
 -1      4011 1.95183E+01 6.20263E-01-2.55448E-03 3.87041E-01-9.16302E-14 3.72883E-13
 -1      4012 1.94502E+01 6.76078E-01-3.45891E-04 4.36387E-01-1.71475E-13 2.62311E-13
 -1      4013 1.93155E+01 7.52062E-01 3.72910E-03 3.78535E-01-1.65544E-13 2.33722E-13
 -1      4014 1.96529E+01 5.14768E-01-2.22027E-03 3.08459E-01 3.20384E-15 2.46569E-13
 -1      4015 1.96008E+01 5.66994E-01-2.79615E-04 3.49599E-01 7.26516E-15 4.17909E-13
 -1      4016 1.94970E+01 6.35377E-01 3.10555E-03 3.06532E-01-6.61777E-14 1.35573E-13
 -1      4017 1.97419E+01 4.34998E-01-1.15807E-03 2.46750E-01 1.50495E-13 5.81411E-14
 -1      4018 1.97015E+01 4.81953E-01 5.09491E-04 2.81303E-01 1.42518E-13 3.25221E-13
 -1      4019 1.96184E+01 5.38538E-01 1.48721E-03 2.47389E-01 9.80642E-14 1.74743E-13
 -1      4020 1.97001E+01 4.62938E-01-1.16983E-05 2.02824E-01 2.15511E-13 1.94184E-13
 -1      4021 1.97671E+01 3.82364E-01-5.02687E-04 5.65507E-02 1.02774E-13 2.11806E-13
 -1      4022 1.97790E+01 3.72586E-01-1.13753E-03 9.35460E-02 1.52831E-13 1.77951E-13
 -1      4023 1.97286E+01 4.32647E-01 1.27848E-03 1.31305E-01 1.20543E-13 2.21102E-13
 -1      4024 1.97282E+01 4.22046E-01 9.54057E-04 3.60470E-02 3.15679E-13 3.59973E-13
 -1      4025 1.84860E+01 1.00189E+00-7.32270E-03 8.76411E-01 2.25984E-13 3.49598E-15
 -1      4026 1.83222E+01 1.01786E+00 2.99425E-04 9.78672E-01 2.39300E-13 1.37423E-13
 -1      4027 1.79422E+01 1.12223E+00 9.64208E-03 8.32680E-01 4.03290E-14 2.95456E-15
 -1      4028 1.84151E+01 1.07357E+00 7.79518E-03 6.77960E-01 1.12980E-13 3.84300E-13
 -1      4029 1.99260E+01-2.76207E+00 5.14764E-02 3.77695E+00 5.41858E-14 5.59743E-14
 -1      4030 1.43698E+01 1.04890E+00 5.57758E-02 1.00805E+00-5.70095E-15-1.05296E-13
 -1      4031 1.43965E+01 1.05877E+00-1.39000E-02 2.57505E-01 3.37924E-15-5.26194E-14
 -1      4032 2.79278E+01 2.62107E+00 2.33023E+00 9.72796E-01 8.01664E-13-1.51368E-12
 -1      4033 1.89200E+01 1.16520E+00-6.65056E-01-1.23890E+00 5.18030E-13 1.92013E-13
 -1      4034 1.75810E+01 3.22107E-01-9.03066E-01 1.57592E+00 4.35763E-15 8.46101E-13
 -1      4035 1.11545E+01 2.39117E+00-1.34436E+00 6.15821E+00-7.30749E-13 2.04803E-12
 -1      4036 1.98184E+01 4.67382E-01 7.40034E-04-6.25401E-01 5.66960E-14-3.10193E-14
 -1      4037 1.98680E+01 4.26152E-01-2.00557E-03-5.72676E-01 4.53220E-14-1.48549E-14
 -1      4038 1.98646E+01 4.53703E-01 1.55803E-03-4.97543E-01 1.91063E-14-4.34382E-14
 -1      4039 1.97017E+01 5.39806E-01 2.16487E-03-5.86736E-01 6.16429E-14-6.28104E-14
 -1      4040 2.01685E+01 3.52923E-01 1.25229E-02-3.47515E-01-8.89089E-15-4.27852E-14
 -1      4041 2.02291E+01 3.82593E-01 1.41808E-02-2.87462E-01 2.91607E-14-3.69054E-14
 -1      4042 2.01144E+01 3.78075E-01 7.95007E-04-3.36365E-01-1.00621E-14-1.16971E-14
 -1      4043 2.02758E+01 4.31267E-01 1.85866E-02-2.26467E-01 6.64069E-14-7.33983E-14
 -1      4044 2.03318E+01 5.01838E-01 2.40442E-02-1.59179E-01 8.19570E-14-6.09443E-14
 -1      4045 2.02967E+01 5.67242E-01 1.95613E-02-1.04365E-01 5.07840E-14-9.64246E-14
 -1      4046 2.02164E+01 4.37565E-01 1.00499E-02-2.34416E-01 2.80479E-14-2.79253E-14
 -1      4047 1.88129E+01 1.86941E+00 2.23581E+00 7.50910E-03-8.02469E-13 2.93432E-13
 -1      4048 1.69603E+01 1.50441E+00 2.62250E-01 2.39583E+00-5.60885E-13-5.54834E-14
 -1      4049 1.62085E+01 1.93032E-01-2.03571E-02 2.47245E+00-1.69251E-13 2.79247E-13
 -1      4050 2.24131E+01 9.68882E-02-5.22090E-01 6.13001E-01-6.11733E-13 6.21725E-14
 -1      4051 1.91937E+01 7.05992E-01-2.09294E+00-1.25030E-01-5.47118E-13-6.10179E-13
 -1      4052 2.00468E+01-1.76425E+00-7.74244E-01 3.53266E+00-6.06959E-13-9.01501E-14
 -1      4053 2.23521E+01 2.27074E+00-3.29747E-01 1.99692E+00-1.99840E-14-5.04596E-13
 -1      4054 2.25996E+01 3.82354E-01-3.12525E-01 1.61837E+00 1.19654E-13-5.17475E-13
 -1      4055 2.35251E+01 6.68093E+00 3.75008E-01 2.91657E+00-1.11200E-12-1.16906E-12
 -1      4056 1.84454E+01 1.00158E+00 7.81123E-03-6.95441E-01-5.11594E-14-6.11155E-14
 -1      4057 1.87271E+01 9.08324E-01-3.46951E-04-8.36859E-01-7.42058E-14-6.38678E-14
 -1      4058 1.88810E+01 8.63418E-01-5.45259E-03-7.63451E-01 2.48355E-15-3.76109E-14
 -1      4059 1.99486E+01 4.31531E-01-2.30383E-04-3.73732E-01 7.23428E-15-3.52059E-14
 -1      4060 2.00114E+01 4.11239E-01-1.06491E-03-3.35455E-01-3.87333E-15-3.68730E-14
 -1      4061 1.93564E+01 7.04583E-01-3.72609E-04-6.06783E-01 4.76642E-14-6.34347E-14
 -1      4062 1.94633E+01 6.47876E-01-3.08831E-03-5.56280E-01 5.97106E-14-4.62363E-14
 -1      4063 1.59746E+01-1.53825E+00-3.18991E-01 1.91627E+00-4.03455E-13 1.46061E-12
 -1      4064 1.79331E+01 1.06580E+00 1.06548E-02-8.32588E-01-7.80845E-14-6.02925E-14
 -1      4065 1.60268E+01 3.78956E-01-1.18530E-02-2.07745E+00 1.18996E-13-1.05811E-13
 -1      4066 1.57269E+01 8.26797E-01 3.74721E-02-1.54825E+00 1.74257E-14-1.88734E-13
 -1      4067 2.00823E+01 4.02526E-01-4.48013E-04-3.06139E-01-7.98725E-15-2.80068E-14
 -1      4068 2.01348E+01 4.06777E-01-5.58136E-04-2.66124E-01 5.19359E-15-1.85124E-14
 -1      4069 2.00378E+01 4.41435E-01 1.39794E-03-2.65001E-01 8.30506E-15 5.40968E-15
 -1      4070 1.41145E+01 6.59223E-01 2.63714E-03 1.53603E+00 1.57881E-13 2.16303E-14
 -1      4071 1.33661E+01 9.10902E-01 6.75888E-02 9.67810E-01 9.98004E-14-8.54559E-14
 -1      4072 1.38312E+01 9.71824E-01 5.62612E-03 1.29846E-01 6.37433E-14-1.41246E-13
 -1      4073 1.68234E+01 6.89026E-01-1.83522E-02 1.78989E+00-1.84810E-13 1.48700E-14
 -1      4074 1.66199E+01 4.99205E-01 1.71271E-02 2.08359E+00-1.41478E-13 1.38022E-13
 -1      4075 1.50682E+01 1.12041E+00-6.30539E-03 2.80370E-01-3.77352E-14-2.11393E-14
 -1      4076 1.45893E+01 1.16678E+00 5.07763E-02-3.19893E-01 2.11988E-14-1.45084E-14
 -1      4077 1.48543E+01 9.59064E-01-2.20633E-02-9.09057E-01 4.95498E-14-1.11061E-13
 -1      4078 1.57936E+01 8.17771E-02 1.67295E-02-2.48226E+00 1.23163E-13-1.23849E-13
 -1      4079 1.65504E+01 9.78139E-01 1.41732E-02 1.37724E+00-6.72770E-14 8.04323E-14
 -1      4080 1.90720E+01 8.15045E-01-4.48638E-04-7.10160E-01 3.62466E-14-7.08909E-14
 -1      4081 1.92005E+01 7.59582E-01-4.07214E-03-6.50299E-01 4.90984E-14-8.15979E-14
 -1      4082 1.88567E+01 9.00484E-01 5.83507E-03-5.92794E-01-1.02812E-14-4.27595E-14
 -1      4083 2.31079E+01-6.06508E-01-2.33855E-01 5.07880E-01 2.60347E-13-5.12979E-13
 -1      4084 1.56757E+01 6.02678E-01 1.59179E-02-1.97389E+00-3.68836E-14-3.09317E-13
 -1      4085 2.10185E+01 6.68412E-01 2.06624E-01 1.21622E-01 1.78593E-13-3.76935E-13
 -1      4086 2.13212E+01 4.57075E-01 4.09752E-01-4.40469E-02 2.01061E-13-4.13274E-13
 -1      4087 2.10325E+01 7.73092E-01 1.88170E-01 1.93061E-01 1.61385E-13-4.11726E-13
 -1      4088 1.96855E+01 4.56502E-01 1.00511E-03-1.10331E-03 3.60901E-13 5.35294E-13
 -1      4089 1.96707E+01 4.64206E-01-1.44445E-03 4.53042E-02 2.67093E-13 4.71299E-13
 -1      4090 1.41625E+01-1.73753E+00-2.62445E-01-5.81320E-01-1.04805E-13 1.63669E-12
 -1      4091 2.10286E+01 1.04731E+00 2.61791E-01 3.81892E-02 1.68421E-13-4.21326E-13
 -1      4092 1.51173E+01 7.89574E-01 9.69488E-03 1.55085E+00-8.55392E-14-3.66443E-14
 -1      4093 1.57127E+01 6.82483E-01 3.19876E-02 1.93735E+00-4.42520E-14 2.35971E-13
 -1      4094 1.42902E+01 7.93329E-01 3.67591E-02-1.50299E+00-1.24762E-13-1.74853E-13
 -1      4095 1.50955E+01 6.48547E-01 2.46847E-02-1.80232E+00-1.25903E-13-2.25825E-13
 -1      4096 1.53049E+01 8.73971E-01-9.10520E-03-1.35255E+00-5.34930E-14-2.53917E-13
 -1      4097 1.41171E+01 9.21731E-01-5.77096E-03-8.81294E-01-2.80509E-14-1.18712E-13
 -1      4098 2.13775E+01 3.30927E-01 8.44940E-01-6.12386E-01 5.63105E-13-3.26517E-13
 -1      4099 2.09213E+01-3.34204E-01 1.24254E+00-7.16917E-01 3.68594E-13 1.03584E-13
 -1      4100 2.14510E+01 7.14897E-01 7.76029E-01-2.92873E-01 5.06373E-13-4.48058E-13
 -1      4101 1.91915E+01 7.82262E-01 4.32147E-03-5.09999E-01 3.51440E-14-1.25901E-14
 -1      4102 1.96951E+01 4.42655E-01-8.94879E-04-5.20487E-02 3.47960E-13 4.27942E-13
 -1      4103 1.96411E+01 4.90234E-01-2.43997E-04-4.71742E-02 3.04826E-13 4.45998E-13
 -1      4104 1.98613E+01 4.61038E-01-1.62033E-03-4.03312E-01 4.02908E-14-3.77360E-14
 -1      4105 1.98824E+01 4.80930E-01 1.82432E-03-3.20844E-01 4.44417E-14 1.28700E-14
 -1      4106 1.97866E+01 4.99612E-01-1.75483E-04-4.43114E-01 3.80018E-14-5.53197E-14
 -1      4107 1.94666E+01 6.63967E-01 3.20823E-03-4.39767E-01 5.40682E-14-3.82314E-14
 -1      4108 1.95916E+01 5.94846E-01-2.55239E-04-5.19291E-01 7.04565E-14-4.63145E-14
 -1      4109 1.96807E+01 5.43931E-01-2.30689E-03-4.75329E-01 5.44858E-14-9.12863E-14
 -1      4110 2.08888E+01 9.11962E-01 2.23554E-01-2.00945E-01 4.13948E-14-4.07008E-13
 -1      4111 2.20919E+01 1.69931E+00 7.51411E-01-1.84633E-01 2.37255E-13-8.04322E-13
 -1      4112 1.98718E+01 4.81543E-01-1.92039E-03 2.00641E-01 7.25171E-15-1.42450E-13
 -1      4113 1.97865E+01 5.11678E-01 9.58751E-05 2.29614E-01-2.38684E-15-1.26262E-13
 -1      4114 1.96755E+01 5.46195E-01-2.33106E-03 2.50912E-01-1.54045E-14-6.70898E-14
 -1      4115 1.95748E+01 5.89275E-01-1.02823E-05 2.84856E-01 1.54159E-14-9.59392E-14
 -1      4116 1.97116E+01 5.57816E-01 2.88144E-03 1.51628E-01 2.62374E-14-9.35234E-14
 -1      4117 1.94446E+01 6.32744E-01-2.74706E-03 3.12816E-01 6.87820E-14-5.60449E-14
 -1      4118 1.93261E+01 6.80449E-01-4.79178E-04 3.54226E-01 1.27479E-13-3.31565E-14
 -1      4119 1.94814E+01 6.46445E-01 4.55294E-03 1.96304E-01 5.20026E-14 2.42986E-14
 -1      4120 1.91691E+01 7.26437E-01-4.44558E-03 3.95434E-01 5.45452E-14-1.03199E-13
 -1      4121 1.90366E+01 7.73165E-01 3.14635E-04 4.50390E-01-5.95019E-14-1.32517E-13
 -1      4122 1.91993E+01 7.56467E-01 6.91045E-03 2.58320E-01 4.00137E-14-1.10458E-13
 -1      4123 1.88477E+01 8.08712E-01-6.31499E-03 5.06075E-01-8.37462E-14-1.39849E-13
 -1      4124 1.86978E+01 8.44365E-01 7.66339E-04 5.79439E-01-4.77945E-14-1.44834E-13
 -1      4125 1.88739E+01 8.60976E-01 1.05396E-02 3.41727E-01-4.56459E-14-1.70075E-13
 -1      4126 1.84685E+01 8.61312E-01-8.77258E-03 6.57984E-01-1.91297E-14-1.26457E-13
 -1      4127 1.82998E+01 8.75355E-01 1.60419E-03 7.58976E-01-8.01843E-15-8.93505E-14
 -1      4128 1.84813E+01 9.48975E-01 1.44154E-02 4.59305E-01-2.42805E-14-1.37428E-13
 -1      4129 1.80163E+01 8.60541E-01-1.26169E-02 8.71478E-01-4.89273E-16-5.70076E-14
 -1      4130 1.78302E+01 8.39717E-01 2.96526E-03 1.01471E+00 1.76675E-14-4.87850E-14
 -1      4131 1.80050E+01 1.00241E+00 1.95475E-02 6.28197E-01 2.87379E-15-7.17289E-14
 -1      4132 1.74708E+01 7.81867E-01-1.68634E-02 1.18025E+00 2.83409E-14-6.10552E-14
 -1      4133 1.72604E+01 6.94556E-01 1.35121E-03 1.39509E+00-1.37459E-14-3.01390E-14
 -1      4134 1.74120E+01 9.97853E-01 2.47372E-02 8.72781E-01 9.00929E-15-2.45518E-14
 -1      4135 1.57345E+01 9.91553E-01-8.13696E-03-9.15719E-01 2.94860E-14-8.75310E-14
 -1      4136 2.40181E+01-1.76902E-02 2.82048E-01-6.42135E-01 5.09481E-13-7.01383E-13
 -1      4137 2.17242E+01 2.94426E-01 1.83309E-01-9.44660E-01 3.34788E-13-2.17382E-13
 -1      4138 1.95878E+01 5.28737E-01-1.22692E-03-5.42540E-02 1.81937E-13 4.77638E-13
 -1      4139 1.71592E+01 1.09290E+00-6.62527E-03-6.42388E-01-2.24381E-13-1.47298E-14
 -1      4140 1.74610E+01 1.10666E+00-1.22502E-02-5.12149E-01-1.99337E-13 9.13408E-14
 -1      4141 1.77934E+01 1.10456E+00-2.52672E-03-4.40785E-01-2.36295E-13 1.89930E-13
 -1      4142 1.80278E+01 1.08528E+00-8.07298E-03-3.55559E-01-2.82284E-13 2.77486E-13
 -1      4143 1.75525E+01 1.20046E+00 1.25402E-02-2.18506E-01-1.08512E-13 2.53595E-13
 -1      4144 1.82809E+01 1.05908E+00-1.81114E-03-3.06912E-01-2.19479E-13 3.39593E-13
 -1      4145 1.84694E+01 1.02015E+00-5.67768E-03-2.47620E-01-5.50631E-14 2.85159E-13
 -1      4146 1.81084E+01 1.13727E+00 8.81006E-03-1.29562E-01-1.67755E-13 2.83088E-13
 -1      4147 1.86672E+01 9.77030E-01-1.54119E-03-2.14744E-01-1.04734E-14 3.49771E-13
 -1      4148 1.88200E+01 9.26222E-01-4.13936E-03-1.72654E-01-2.23439E-14 3.36026E-13
 -1      4149 1.85404E+01 1.04445E+00 6.46642E-03-7.10089E-02-1.50688E-13 3.44019E-13
 -1      4150 1.89760E+01 8.73518E-01-1.35173E-03-1.50766E-01-1.50777E-13 2.77759E-13
 -1      4151 1.90998E+01 8.16894E-01-3.10026E-03-1.20405E-01-1.52077E-13 2.19353E-13
 -1      4152 1.88817E+01 9.32827E-01 4.98113E-03-3.37561E-02-1.70182E-13 3.48945E-13
 -1      4153 1.92232E+01 7.60362E-01-1.19754E-03-1.06148E-01-1.18174E-13 1.78404E-13
 -1      4154 1.93229E+01 7.02839E-01-2.30975E-03-8.39843E-02-1.64098E-13 2.75037E-13
 -1      4155 1.91523E+01 8.12660E-01 3.90303E-03-1.10805E-02-1.39480E-13 2.72855E-13
 -1      4156 1.94200E+01 6.46508E-01-1.12417E-03-7.48155E-02-8.65730E-14 3.09775E-13
 -1      4157 1.95004E+01 5.92066E-01-1.42761E-03-5.85277E-02 5.08713E-14 3.98334E-13
 -1      4158 1.93667E+01 6.92942E-01 3.24206E-03 1.82862E-03-3.44608E-14 4.48731E-13
 -1      4159 1.72344E+01 1.16874E+00-1.18131E-02 6.57278E-01 5.97640E-14-3.08499E-14
 -1      4160 1.68992E+01 1.16221E+00 6.56242E-04 7.56226E-01 1.64469E-14 1.30875E-14
 -1      4161 1.68375E+01 1.10853E+00-5.00633E-03-7.15822E-01 6.65902E-14-1.12742E-13
 -1      4162 1.72074E+01 1.11300E+00-1.34145E-02-6.23913E-01 7.52057E-15-1.12074E-13
 -1      4163 1.92967E+01 7.38556E-01-2.55862E-03 2.65517E-01-1.99956E-13 3.01523E-13
 -1      4164 1.91933E+01 7.99592E-01-1.49591E-03 2.98423E-01-6.12583E-14 3.72674E-13
 -1      4165 2.16548E+01 1.28258E+00 2.72766E+00-4.83269E+00 2.21956E-12 6.16174E-13
 -1      4166 1.65172E-03 1.95164E+00-3.19560E+00-9.23442E+00 2.30127E-12 5.30687E-12
 -1      4167 1.95258E+01 1.81355E+00 1.67418E+00-3.16435E+00 2.25597E-12 8.16680E-13
 -1      4168 1.54887E+01 9.51464E-01-2.34637E-02 1.21482E+00 5.83184E-14-1.08180E-13
 -1      4169 1.87567E+01 9.76668E-01-4.23193E-03 3.81518E-01-7.90156E-14 5.94088E-13
 -1      4170 1.85895E+01 1.03087E+00-2.50447E-03 4.24768E-01 1.77580E-14 5.71100E-13
 -1      4171-3.33576E+00-2.85572E-01-3.89722E+00 1.15293E+01-4.40492E-12 4.53226E-12
 -1      4172 1.76010E+01 1.10235E+00-6.19926E-03-5.86181E-01-3.05758E-14-1.47352E-13
 -1      4173 1.78945E+01 1.07650E+00-9.19768E-03-5.26731E-01-5.45327E-14-8.04556E-14
 -1      4174 1.73092E+01 1.19694E+00 2.49934E-02-2.79328E-01 1.97325E-15-1.26712E-13
 -1      4175 1.58462E+01 1.02622E+00 7.74117E-03-9.29864E-01 8.13891E-14-1.58036E-13
 -1      4176 1.63010E+01 1.07114E+00-1.86111E-02-7.94555E-01 1.27555E-13-1.01531E-13
 -1      4177 1.64004E+01 1.22913E+00 2.96042E-02-3.07947E-01 9.04189E-14-6.25039E-14
 -1      4178 1.63096E+01 1.01432E+00-1.36039E-02-8.66543E-01 2.74793E-14-6.75103E-14
 -1      4179 1.67086E+01 1.07949E+00-1.74924E-02-6.76297E-01-7.09918E-14-2.75510E-14
 -1      4180 1.68249E+01 1.23048E+00 1.95863E-02-2.80971E-01-1.88281E-13-8.48002E-14
 -1      4181 1.58093E+01 1.24397E+00 3.31984E-02-2.83870E-01 3.82375E-14 6.24132E-15
 -1      4182 1.90408E+01 8.26417E-01-2.30885E-03-3.83340E-01 3.36369E-14-7.41284E-14
 -1      4183 1.91947E+01 7.64461E-01-3.26653E-03-3.52701E-01 4.52605E-14-5.90956E-14
 -1      4184 1.60395E+01 5.90382E-02 5.67458E-03 2.47367E+00 1.48116E-13 1.12636E-14
 -1      4185 1.49427E+01 5.17713E-01 5.50911E-02 2.11319E+00 2.02245E-13 9.87318E-14
 -1      4186 1.48075E+01 7.52099E-01-1.38508E-02 1.34733E+00 1.42645E-13 4.40360E-14
 -1      4187 1.62418E+01 2.88911E-01-2.72009E-02 2.11354E+00 1.03572E-13-2.30837E-14
 -1      4188 1.96746E+01 4.72889E-01 1.22304E-03 9.80246E-02 1.33634E-13 2.48236E-13
 -1      4189 1.96772E+01 4.69988E-01-1.18429E-03 1.48534E-01 1.61424E-13 2.33178E-13
 -1      4190 1.96389E+01 5.06163E-01-5.26517E-04 1.68293E-01 1.83606E-13 1.90937E-13
 -1      4191 1.96262E+01 5.07594E-01 1.27298E-04 5.94567E-02 1.78433E-13 4.64497E-13
 -1      4192 3.35481E+01 8.63329E+00 7.07840E+00 2.71034E+00 2.15805E-12-2.34834E-12
 -1      4193-1.87179E+01-1.51224E+01-1.86013E+01 3.75113E+00 3.85469E-13 7.31148E-12
 -1      4194 2.15285E+01 3.83151E-01 2.14770E-01-1.83377E-01 1.47285E-13-2.76279E-13
 -1      4195 2.06766E+01 6.85723E-01 2.80492E-01 1.09450E-01 4.17028E-14-1.99646E-13
 -1      4196 2.00469E+01 4.37611E-01-3.06492E-02-4.33170E-01 1.30937E-13-1.31359E-13
 -1      4197 5.92301E+01 9.76196E+00 1.17836E+01 9.96617E-01-9.75331E-13-7.68963E-12
 -1      4198 2.65691E+01-5.42064E+00-1.26464E+00-7.96037E-01 2.21068E-12-1.86318E-12
 -1      4199 2.65636E+01 5.48492E+00 2.30388E+00-2.52902E+00 1.44396E-12 7.10543E-15
 -1      4200 1.59758E+01 1.03477E+00 2.41617E-04 1.09651E+00-6.32713E-14-7.46452E-15
 -1      4201 1.55916E+01 1.18786E+00 3.68546E-02 7.28030E-01-7.14268E-14-1.50280E-13
 -1      4202 1.54880E+01 1.15736E+00-1.94106E-02 2.19444E-01-2.55525E-14-4.32592E-14
 -1      4203 1.64157E+01 1.10430E+00-1.76596E-02 9.19987E-01-1.06957E-13 5.74714E-15
 -1      4204 1.95480E+01 5.66773E-01 1.63244E-03 7.20230E-03 1.76542E-13 6.18810E-13
 -1      4205 1.93515E+01 7.05668E-01-1.36292E-03-3.37366E-01 3.17479E-14-6.52236E-14
 -1      4206 1.94779E+01 6.48196E-01-2.10660E-03-3.08999E-01 2.56389E-14-9.13283E-14
 -1      4207 1.92368E+01 7.56938E-01 1.55344E-03-2.13704E-01 3.14047E-14-7.45727E-14
 -1      4208 2.02821E+01 5.56800E-01-1.10602E-03-1.25357E-01 2.33373E-14-7.54518E-14
 -1      4209 2.09944E+01-3.29316E+00 2.34642E-02 3.51667E+00 1.07310E-14 5.17572E-14
 -1      4210 1.99911E+01 4.58635E-01-9.50350E-04-2.13644E-01-1.30435E-14 2.85167E-15
 -1      4211 2.00632E+01 4.51408E-01-6.77543E-04-1.86361E-01-1.13449E-14-1.50253E-14
 -1      4212 1.95384E+01 5.68869E-01-1.50733E-03 6.36978E-02 1.44679E-13 5.08561E-13
 -1      4213 1.69039E+01 5.93962E-01-1.82916E-02 1.58568E+00-1.67696E-14-9.84781E-15
 -1      4214 1.66945E+01 4.65939E-01 5.04304E-03 1.84385E+00 4.91414E-14-2.37539E-14
 -1      4215 1.60159E+01 7.28169E-01 3.07892E-02 1.60695E+00 7.73687E-14 6.95540E-14
 -1      4216 1.67249E+01 8.71070E-01 2.28050E-03 1.19819E+00-2.80483E-15-2.75700E-14
 -1      4217 2.01631E+01 4.53864E-01 1.32673E-03-2.05672E-01-5.99461E-15-4.32434E-14
 -1      4218 2.01895E+01 4.25118E-01-9.49995E-04-2.34564E-01 6.48827E-16-4.51987E-14
 -1      4219 2.02327E+01 4.60010E-01 1.12054E-05-1.87909E-01 1.74749E-14-4.98286E-14
 -1      4220 2.25848E+01 2.55841E+00 1.57842E+00-8.22007E-01 7.92200E-13-8.25784E-13
 -1      4221 1.96601E+01-6.82413E-01-5.77077E-01-2.16716E+00 8.89899E-13-1.28898E-13
 -1      4222 1.88508E+01 8.85472E-01-4.42226E-03-4.01893E-01-3.36832E-15-6.08816E-14
 -1      4223 1.89020E+01 8.93784E-01 8.91588E-03-2.34437E-01 3.03219E-15-9.03162E-14
 -1      4224 1.86625E+01 9.43391E-01-3.35607E-03-4.36546E-01-3.35554E-14-5.17259E-14
 -1      4225 1.64699E+01 1.24311E+00 1.83128E-02 4.91542E-01-4.71956E-14-1.08483E-13
 -1      4226 1.45217E+01 1.02930E+00-1.04297E-02 3.62292E-01 9.72115E-14 8.81586E-15
 -1      4227 1.42822E+01 1.06156E+00 2.97000E-02-2.83391E-01 2.56000E-14-1.03553E-13
 -1      4228 1.48518E+01 1.03519E+00 1.62158E-02-5.93767E-01-6.60713E-15-7.18900E-14
 -1      4229 1.98172E+01 5.08742E-01-9.64483E-04-2.54035E-01 1.00270E-13-3.44492E-14
 -1      4230 1.99044E+01 4.78395E-01-1.18348E-03-2.28263E-01 3.73769E-14-9.74318E-16
 -1      4231 1.99406E+01 4.93791E-01 2.40846E-03-1.48093E-01 1.71418E-14-5.99050E-14
 -1      4232 1.90592E+01 8.59807E-01-3.23710E-03 3.20191E-01-1.18498E-14 4.85748E-13
 -1      4233 1.89273E+01 9.19975E-01-1.97437E-03 3.57562E-01-3.58467E-14 5.38736E-13
 -1      4234 1.94832E+01 6.21960E-01-1.65154E-03 2.16825E-01-3.35919E-14 3.59663E-13
 -1      4235 1.94020E+01 6.78990E-01-1.22630E-03 2.45956E-01-1.95279E-13 2.55815E-13
 -1      4236 1.93108E+01 7.37032E-01 3.48050E-03 1.70623E-01-1.56931E-13 5.16167E-13
 -1      4237 1.79723E+01 1.12216E+00 1.77427E-02-2.64383E-01-2.38354E-14-6.64529E-14
 -1      4238 1.81937E+01 1.04141E+00-4.59965E-03-5.00514E-01-5.18613E-14-8.39938E-14
 -1      4239 1.84269E+01 9.94978E-01-6.28801E-03-4.57586E-01-2.24197E-14-7.43295E-14
 -1      4240 1.87817E+01 9.85355E-01 5.85388E-03 2.31485E-01-6.13955E-14 6.55503E-13
 -1      4241 1.90779E+01 8.61818E-01 4.51319E-03 2.00755E-01-3.46753E-14 6.96864E-13
 -1      4242 1.99077E+01 4.98430E-01 2.50868E-03 1.18399E-01 1.01605E-14-1.77208E-13
 -1      4243 1.53265E+01 1.07698E+00 1.68425E-02-7.49093E-01 4.77717E-14-1.29001E-13
 -1      4244 2.02684E+01 5.70867E-01 7.67495E-04-1.14764E-01 3.30833E-15-8.37064E-14
 -1      4245 1.94273E+01 6.49985E-01-8.55755E-04 7.86942E-02-1.36599E-14 4.71583E-13
 -1      4246 1.95246E+01 5.92470E-01 2.03369E-03 1.34406E-01 1.27529E-13 3.26487E-13
 -1      4247 1.95104E+01 6.26787E-01-3.65981E-03 6.82255E-02 7.54120E-14-1.22097E-15
 -1      4248 1.93802E+01 6.80050E-01-2.50098E-03 9.39033E-02 5.43665E-14 4.78686E-15
 -1      4249 1.91842E+01 7.55657E-01-3.87110E-03 6.71782E-03 4.07064E-15-2.51447E-14
 -1      4250 1.90229E+01 8.12348E-01-4.04756E-03 3.23739E-02 9.98117E-16-9.42627E-14
 -1      4251 1.88272E+01 8.67036E-01-8.08821E-03 3.41028E-02-2.71667E-14-1.00635E-13
 -1      4252 1.86383E+01 9.22784E-01-6.25928E-03 7.18727E-02-3.79553E-14-6.59535E-14
 -1      4253 1.83966E+01 9.69018E-01-1.15884E-02 7.82179E-02-4.77325E-14-8.59931E-14
 -1      4254 1.81680E+01 1.01457E+00-8.78514E-03 1.33256E-01-6.34486E-15-7.12525E-14
 -1      4255 1.78618E+01 1.04395E+00-1.62890E-02 1.45700E-01 1.57670E-14-1.04164E-13
 -1      4256 1.75800E+01 1.07123E+00-1.19892E-02 2.25699E-01-5.43749E-15-8.38191E-14
 -1      4257 1.71821E+01 1.07637E+00-2.18080E-02 2.47817E-01 1.43561E-14-7.67364E-14
 -1      4258 1.68320E+01 1.07456E+00-1.42901E-02 3.65359E-01 2.15865E-15-7.32167E-14
 -1      4259 1.73671E+01 1.20383E+00-6.64756E-03 4.72035E-02-9.21563E-14 7.50495E-14
 -1      4260 1.76888E+01 1.18487E+00-6.21901E-03 7.89935E-02-3.64234E-14 2.24737E-13
 -1      4261 1.96940E+01 5.59331E-01 2.46537E-03-3.77812E-01 6.31614E-14-6.25771E-14
 -1      4262 1.95938E+01 5.43707E-01-5.69938E-04 1.89404E-01 1.20911E-13 1.86742E-13
 -1      4263 1.84525E+01 1.06038E+00-3.50512E-03 8.12729E-02-2.51488E-13 4.56799E-13
 -1      4264 1.86463E+01 1.00734E+00-3.43678E-03 9.40793E-02-5.35531E-14 4.92043E-13
 -1      4265 1.88163E+01 9.49977E-01-2.66139E-03 8.76935E-02-5.09692E-14 4.24420E-13
 -1      4266 1.89696E+01 8.90574E-01-2.52156E-03 9.43094E-02-1.67148E-13 5.02965E-13
 -1      4267 1.91031E+01 8.29499E-01-2.13242E-03 8.58983E-02-1.96889E-13 5.56374E-13
 -1      4268 1.92247E+01 7.68663E-01-1.86624E-03 8.84198E-02-8.20010E-14 5.49459E-13
 -1      4269 1.93291E+01 7.07589E-01-1.95001E-03 7.87786E-02-7.05202E-14 4.33620E-13
 -1      4270 1.75936E+01 1.16784E+00-3.57033E-03 6.26325E-01-1.29344E-14-4.81694E-14
 -1      4271 1.72709E+01 1.24977E+00 1.45788E-02 3.54190E-01 1.40469E-15 9.78255E-14
 -1      4272 1.65762E+01 1.21411E+00-1.44237E-02 4.37359E-02-6.65850E-14-1.34826E-13
 -1      4273 1.61252E+01 1.20779E+00-1.41059E-03 1.46614E-01-9.35502E-14-1.46417E-13
 -1      4274 2.00959E+01 4.81131E-01 1.98505E-03-1.21140E-01-4.61900E-14-6.82729E-14
 -1      4275 2.01305E+01 4.57547E-01-1.25516E-03-1.71151E-01-2.92901E-14-5.18016E-14
 -1      4276 2.01871E+01 4.79163E-01-1.12216E-03-1.39071E-01-2.36955E-14-6.81897E-14
 -1      4277 1.63374E+01 1.06300E+00-1.39061E-02 4.06460E-01 5.94091E-14-4.60246E-14
 -1      4278 1.78627E+01 1.14919E+00-8.27494E-03 5.54127E-01-1.12277E-13 1.23235E-13
 -1      4279 1.99140E+01 4.91862E-01-2.14445E-03-2.33707E-02 3.09253E-14-1.07868E-13
 -1      4280 1.98232E+01 5.18012E-01-7.56868E-04-1.33391E-02 3.68017E-14-8.61855E-14
 -1      4281 1.83715E+01 1.07739E+00-5.84730E-03 4.52084E-01-1.72433E-14 3.89372E-13
 -1      4282 1.81619E+01 1.12002E+00-2.49162E-03 5.04165E-01-3.21857E-14 2.27870E-13
 -1      4283 2.66535E+01 1.83254E+00 2.70664E+00-7.34451E-01 1.88960E-13-2.32703E-13
 -1      4284 2.35589E+01 3.25547E+00 1.55268E+00-3.24813E+00 7.87259E-13-1.57235E-12
 -1      4285 2.26696E+01 3.86485E+00 2.03492E+00-1.94508E+00 1.22791E-12-1.00397E-12
 -1      4286 1.84046E+01 1.09852E+00 7.67115E-03 2.62773E-01-8.61921E-14 3.95362E-13
 -1      4287 1.97291E+01 5.46911E-01-2.61723E-03 1.41376E-02 5.19864E-14-7.86607E-14
 -1      4288 1.96226E+01 5.90064E-01-5.90873E-04 2.86735E-02 8.63389E-14-4.75073E-14
 -1      4289 1.95575E+01 6.27041E-01 2.02710E-03-7.67041E-02 1.09453E-13-3.27444E-14
 -1      4290 1.97587E+01 5.47221E-01 1.38375E-03-1.37239E-01 9.05620E-14-5.65164E-14
 -1      4291 2.00760E+01 4.75948E-01-2.10234E-03-2.38921E-02-6.64473E-14-9.36786E-14
 -1      4292 2.00023E+01 4.77176E-01-8.62120E-04-1.46103E-02-3.08400E-14-1.12575E-13
 -1      4293 2.49237E+01 5.31284E+00 3.47572E+00-5.30311E+00 2.42695E-12-8.16236E-13
 -1      4294 1.54170E+01 1.16132E+00 2.14686E-02-1.71355E-01 1.08974E-13 2.37148E-15
 -1      4295 2.02020E+01 5.21362E-01-1.36949E-03-2.15566E-02-4.98714E-14-1.39193E-13
 -1      4296 2.01461E+01 4.89918E-01-5.60780E-04-1.22460E-02-7.38292E-14-1.24471E-13
 -1      4297 1.70173E+01 1.21704E+00-7.52197E-03 2.79234E-02-1.51544E-13-5.57151E-14
 -1      4298 1.79060E+01 1.18993E+00 9.84127E-03 3.11662E-01-1.12580E-13 1.70938E-13
 -1      4299 1.79866E+01 1.14957E+00-5.22022E-03 6.29000E-02-1.16878E-13 1.85014E-13
 -1      4300 1.82349E+01 1.10875E+00-4.80547E-03 8.50601E-02-1.67201E-13 2.82214E-13
 -1      4301 1.96064E+01 5.94899E-01-1.15851E-03-2.94641E-01 6.23373E-14-4.57594E-14
 -1      4302 1.97114E+01 5.48140E-01-1.46266E-03-2.68515E-01 1.25065E-13-2.00385E-14
 -1      4303 1.84889E+01 1.01690E+00 1.27307E-02-2.50100E-01-3.71678E-14-6.17058E-14
 -1      4304 1.48338E+01 1.05000E+00 3.10503E-02 7.01652E-01 1.05128E-13 3.83070E-15
 -1      4305 1.50667E+01 1.07709E+00-1.25031E-02 3.22501E-01 8.10803E-14 5.93059E-15
 -1      4306 1.55062E+01 1.10537E+00-1.64823E-02 1.66641E-01 1.35172E-13-1.09504E-14
 -1      4307 1.53824E+01 8.07474E-01-5.90177E-03 1.24517E+00 1.03780E-13 3.72289E-14
 -1      4308 6.33999E+01 1.75971E+01 1.79474E+01-2.39447E+00 2.13535E-12-7.93199E-12
 -1      4309 2.02213E+01 5.46410E-01 2.13651E-03-7.14460E-02-1.86084E-14-1.02914E-13
 -1      4310 1.95180E+01 6.44515E-01 2.57995E-03-1.96380E-01 7.88434E-14-4.45660E-14
 -1      4311-6.73280E+00-1.25592E+01-1.42598E+01-6.12002E+00 1.27864E-12 4.10338E-12
 -1      4312 3.66724E+01 8.02210E+00 5.59261E+00-5.32076E+00-2.27285E-12-2.77822E-12
 -1      4313 2.62388E+01-1.00945E+00 5.48921E-01-3.73897E+00 1.39347E-12-2.37221E-12
 -1      4314 1.62617E+01 1.01686E+00 1.94890E-02 8.66643E-01 2.51113E-14-4.75288E-14
 -1      4315 1.92674E+01 7.46151E-01 3.15737E-03-1.26198E-01 2.80115E-14-6.39231E-14
 -1      4316 2.35279E+01 1.10857E+00 1.04851E+00-4.69395E-01 5.28938E-13-9.00613E-13
 -1      4317 2.02452E+01 5.37597E-01-3.56318E-04-1.05413E-01 4.19857E-16-8.83489E-14
 -1      4318 1.58694E+01 9.14414E-01 1.60251E-03 1.03705E+00 3.24536E-14 6.68172E-15
 -1      4319 1.97479E+01 5.49117E-01 1.22821E-03-1.74676E-01 1.10990E-13-2.60328E-14
 -1      4320 1.94184E+01 6.78279E-01 2.48553E-04-1.20858E-01 8.26073E-14-5.35069E-14
 -1      4321 1.95434E+01 6.25539E-01-3.11110E-04-1.15574E-01 1.12256E-13-3.13305E-14
 -1      4322 1.96507E+01 5.81653E-01-7.43893E-04-1.47827E-01 1.07836E-13-1.55196E-14
 -1      4323 5.06194E+01 9.76521E+00 1.09201E+01-3.56403E+00-9.68225E-13-5.15854E-12
 -1      4324 3.02498E+01 8.43626E+00 5.43509E+00-3.69950E+00 8.87734E-13-2.70717E-12
 -1      4325 4.45083E+01 2.24456E+00 7.28243E+00-1.23355E+01 2.96962E-12-3.58114E-12
 -1      4326 2.55165E+01 4.19703E+00 3.61820E+00-8.07531E+00 3.61594E-12-3.52607E-13
 -3
    1PSTEP                         3           1           1          
  100CL  101 1.000000000        4326                     0    1           1
 -4  TOSTRAIN    6    1
 -5  EXX         1    4    1    1
 -5  EYY         1    4    2    2
 -5  EZZ         1    4    3    3
 -5  EXY         1    4    1    2
 -5  EYZ         1    4    2    3
 -5  EZX         1    4    3    1
 -1         1 9.63137E-05 1.68670E-05-4.47258E-05-9.79103E-05-6.91984E-18 8.39876E-18
 -1         2 3.58175E-05-1.09822E-04 1.98387E-05-2.13371E-07-1.01786E-17-1.90874E-19
 -1         3 9.52300E-05-2.85785E-05-2.85487E-05-1.67021E-09-1.39884E-18-1.07313E-18
 -1         4 9.52298E-05-2.85787E-05-2.85490E-05 2.40329E-09 1.03907E-18 3.99436E-19
 -1         5 1.41811E-04-2.11914E-05-4.21864E-05 3.79770E-05-1.62577E-19 1.09781E-17
 -1         6 1.43421E-04 2.52021E-10-4.34118E-05-5.31185E-05-6.69580E-19 9.91452E-18
 -1         7 8.85986E-05-4.39158E-07-3.83119E-05-2.94539E-05-1.07361E-19 1.46984E-18
 -1         8 8.35457E-05 1.05135E-07-3.56852E-05-2.07515E-05-1.20226E-19-1.12108E-18
 -1         9 8.16440E-05 7.17102E-08-3.48359E-05-1.60966E-05-1.04079E-19-2.55596E-18
 -1        10 8.09052E-05 2.49840E-08-3.44840E-05-1.23949E-05-7.21169E-20-3.20898E-18
 -1        11 8.05620E-05-7.22186E-10-3.43232E-05-9.14501E-06-5.31083E-20-3.43551E-18
 -1        12 8.02863E-05-1.11892E-08-3.42058E-05-6.22287E-06-2.27078E-20-3.48107E-18
 -1        13 7.99130E-05-6.71075E-09-3.40698E-05-3.51578E-06-2.37897E-20-3.44298E-18
 -1        14 7.94870E-05 8.48496E-09-3.39270E-05-1.12537E-06 1.53690E-20-3.35739E-18
 -1        15 7.92110E-05 2.24594E-08-3.38371E-05 9.98316E-07 2.77577E-20-3.22866E-18
 -1        16 7.92597E-05 2.63557E-08-3.38547E-05 3.07506E-06 2.59271E-20-3.15196E-18
 -1        17 7.96403E-05 2.12859E-08-3.39903E-05 5.36836E-06 3.17207E-20-3.05500E-18
 -1        18 8.02499E-05 2.01483E-08-3.42232E-05 7.99365E-06 7.14684E-20-2.76428E-18
 -1        19 8.10948E-05 3.13941E-08-3.45737E-05 1.11292E-05 9.61250E-20-2.30798E-18
 -1        20 8.23596E-05 6.86131E-08-3.51346E-05 1.48630E-05 1.23799E-19-1.49981E-18
 -1        21 8.47157E-05 1.48429E-07-3.61837E-05 1.96309E-05 1.49448E-19 1.27179E-19
 -1        22 9.11656E-05-1.31401E-07-3.85015E-05 2.73069E-05 3.27166E-20 3.47295E-18
 -1        23 1.10336E-04-3.72264E-05-3.45697E-05-4.52473E-06-4.26613E-19 7.65284E-18
 -1        24 8.92546E-05-2.66120E-05-2.78293E-05 3.52400E-07-8.82569E-20 5.82133E-18
 -1        25 8.25723E-05-2.50326E-05-2.49828E-05-4.29753E-07 2.55409E-20 3.84796E-18
 -1        26 6.81495E-05-1.77693E-05-2.31909E-05-7.79160E-07-1.76500E-19 4.44573E-19
 -1        27 9.84161E-05-2.54131E-05-2.24688E-05-1.00468E-05-1.29384E-18-1.63477E-19
 -1        28 9.98388E-05-3.16978E-05-2.93992E-05 6.12608E-07 9.55493E-20 1.15991E-18
 -1        29 9.49780E-05-2.86440E-05-2.87040E-05 2.33053E-07 6.14099E-21 8.12311E-19
 -1        30 9.37569E-05-2.81368E-05-2.82451E-05 1.37787E-08 5.35765E-20 9.26323E-19
 -1        31 9.35641E-05-2.80802E-05-2.81343E-05 4.43334E-09-5.21178E-20 5.51300E-19
 -1        32 9.41820E-05-2.82710E-05-2.83147E-05 1.42566E-08-2.10705E-19-7.58273E-19
 -1        33 9.56322E-05-2.88021E-05-2.87177E-05-1.68187E-08 2.31983E-19-1.06245E-18
 -1        34 9.71190E-05-2.87264E-05-2.88599E-05 7.12285E-07 4.06973E-21-7.34907E-19
 -1        35 9.76826E-05-2.93110E-05-2.93158E-05 4.14985E-08 6.53816E-20-1.42370E-18
 -1        36 9.96035E-05-2.98863E-05-2.98952E-05 5.09538E-08 1.40092E-19-1.22078E-18
 -1        37 1.01777E-04-3.05364E-05-3.05487E-05 6.42194E-08-2.00497E-19-4.17868E-19
 -1        38 1.04191E-04-3.12568E-05-3.12703E-05 7.97976E-08-3.57761E-20-1.18233E-18
 -1        39 1.06760E-04-3.20222E-05-3.20319E-05 9.40855E-08-3.55549E-20-2.29074E-18
 -1        40 1.09289E-04-3.27743E-05-3.27714E-05 9.99869E-08 2.50863E-19-1.95398E-18
 -1        41 1.11431E-04-3.34099E-05-3.33811E-05 8.56321E-08 4.50441E-21-2.26221E-18
 -1        42 1.12664E-04-3.37750E-05-3.37058E-05 3.47855E-08-2.05522E-19-1.84292E-18
 -1        43 1.12339E-04-3.36778E-05-3.35612E-05-6.79884E-08-3.43751E-19-1.43954E-18
 -1        44 1.09852E-04-3.29385E-05-3.27899E-05-2.23844E-07-7.32038E-20-7.85411E-19
 -1        45 1.04977E-04-3.14880E-05-3.13577E-05-3.99774E-07 5.42788E-20-7.66459E-19
 -1        46 9.82793E-05-2.94911E-05-2.94544E-05-5.18945E-07-3.63660E-20-1.64555E-18
 -1        47 9.13237E-05-2.74122E-05-2.75281E-05-4.86650E-07 2.81926E-19 4.86965E-19
 -1        48 8.63235E-05-2.59145E-05-2.61683E-05-2.61648E-07-2.17213E-19 6.90623E-19
 -1        49 8.51500E-05-2.55627E-05-2.58519E-05 8.26395E-08 4.73032E-19 8.42014E-19
 -1        50 8.82748E-05-2.64993E-05-2.66974E-05 3.88388E-07-3.28298E-19 7.70456E-19
 -1        51 9.44767E-05-2.83553E-05-2.83969E-05 5.24989E-07 2.33621E-19 1.46688E-18
 -1        52 1.01577E-04-3.04753E-05-3.03851E-05 4.76144E-07 1.71830E-19 2.80259E-18
 -1        53 1.07578E-04-3.22626E-05-3.21152E-05 3.18572E-07-1.11326E-19 8.38324E-19
 -1        54 1.11382E-04-3.33939E-05-3.32565E-05 1.45301E-07 1.32170E-19-6.22768E-20
 -1        55 1.12845E-04-3.38295E-05-3.37351E-05 1.30964E-08-3.73593E-19-1.49926E-18
 -1        56 1.12427E-04-3.37065E-05-3.36581E-05-6.35444E-08 1.71636E-19-2.99731E-18
 -1        57 1.10788E-04-3.32212E-05-3.32068E-05-9.45752E-08 2.36242E-19-3.17147E-18
 -1        58 1.08538E-04-3.25533E-05-3.25584E-05-9.67759E-08-9.88077E-20-1.97124E-18
 -1        59 1.06124E-04-3.18356E-05-3.18490E-05-8.44994E-08 3.73800E-19-7.47139E-19
 -1        60 1.03830E-04-3.11518E-05-3.11668E-05-6.71728E-08-3.98645E-19 1.58887E-18
 -1        61 1.01802E-04-3.05464E-05-3.05595E-05-4.99476E-08 2.95374E-19 2.86237E-18
 -1        62 1.00098E-04-3.00365E-05-3.00468E-05-3.51265E-08-5.17103E-19-1.55647E-19
 -1        63 9.87188E-05-2.96232E-05-2.96305E-05-2.33938E-08 3.19530E-19-1.52707E-18
 -1        64 9.76368E-05-2.92982E-05-2.93030E-05-1.46319E-08-5.64099E-19-1.55039E-18
 -1        65 9.68107E-05-2.90497E-05-2.90526E-05-8.38487E-09-6.86777E-20 5.15978E-19
 -1        66 9.61973E-05-2.88649E-05-2.88665E-05-4.08355E-09 4.61675E-19 1.83431E-18
 -1        67 9.57572E-05-2.87319E-05-2.87330E-05-1.11782E-09 1.20385E-19 2.90450E-18
 -1        68 9.54581E-05-2.86412E-05-2.86425E-05 1.20250E-09 1.99683E-19 4.26239E-18
 -1        69 9.52765E-05-2.85857E-05-2.85879E-05 3.76539E-09 1.61056E-20 3.16159E-18
 -1        70 9.51968E-05-2.85607E-05-2.85631E-05 8.09384E-09 5.48480E-19 2.81068E-18
 -1        71 9.52043E-05-2.85620E-05-2.85583E-05 1.26544E-08-3.24699E-19 1.93386E-18
 -1        72 1.01671E-04-3.04313E-05-3.39694E-05-1.95872E-06 1.66336E-19 9.94014E-18
 -1        73 9.25911E-05-2.75273E-05-2.88889E-05-3.47794E-07 7.75333E-20 7.41142E-18
 -1        74 8.94011E-05-2.67932E-05-2.70432E-05-1.30445E-07 5.30256E-20 5.54365E-18
 -1        75 8.84127E-05-2.65522E-05-2.65347E-05-8.88467E-08 1.66710E-20 4.02854E-18
 -1        76 8.83845E-05-2.65415E-05-2.64990E-05-5.96250E-08 2.68333E-20 3.22230E-18
 -1        77 8.88173E-05-2.66613E-05-2.66371E-05-4.05193E-08 1.46771E-19 2.56079E-18
 -1        78 8.95386E-05-2.68708E-05-2.68617E-05-3.16143E-08-1.28611E-19 2.43758E-18
 -1        79 9.04857E-05-2.71518E-05-2.71487E-05-2.82959E-08 3.41460E-20 2.23688E-18
 -1        80 9.16176E-05-2.74906E-05-2.74882E-05-2.56440E-08 3.81473E-20 1.50375E-18
 -1        81 9.29042E-05-2.78757E-05-2.78754E-05-2.25060E-08 3.54506E-19-3.09625E-19
 -1        82 9.43357E-05-2.82884E-05-2.83158E-05-2.57477E-08 6.14414E-20-1.63205E-18
 -1        83 9.60791E-05-2.88398E-05-2.88482E-05 2.77936E-10-6.27638E-20-1.76734E-18
 -1        84 9.79654E-05-2.93943E-05-2.94076E-05-1.10542E-08-6.47041E-21-1.13837E-18
 -1        85 1.00140E-04-3.00454E-05-3.00673E-05-1.64781E-08-3.05618E-20-3.17988E-19
 -1        86 1.02740E-04-3.08226E-05-3.08542E-05-2.89505E-08 1.38043E-19-4.75453E-19
 -1        87 1.05832E-04-3.17458E-05-3.17868E-05-5.11960E-08 1.17359E-19-1.58764E-18
 -1        88 1.09433E-04-3.28192E-05-3.28653E-05-8.58808E-08-7.26089E-20-1.81127E-18
 -1        89 1.13438E-04-3.40126E-05-3.40511E-05-1.33559E-07 1.45276E-19-2.25992E-18
 -1        90 1.17533E-04-3.52347E-05-3.52383E-05-1.87863E-07 1.35277E-19-3.03737E-18
 -1        91 1.21076E-04-3.62991E-05-3.62229E-05-2.27165E-07-2.92694E-19-1.53461E-18
 -1        92 1.23013E-04-3.68993E-05-3.66907E-05-2.06235E-07 6.84525E-20 2.68063E-19
 -1        93 1.21987E-04-3.66331E-05-3.62701E-05-6.00008E-08-7.52238E-20 8.43076E-19
 -1        94 1.16824E-04-3.51351E-05-3.46969E-05 2.54688E-07-7.99123E-20 1.82615E-19
 -1        95 1.07539E-04-3.23663E-05-3.20789E-05 6.64533E-07-5.19656E-20-6.89114E-19
 -1        96 9.64004E-05-2.89692E-05-2.90962E-05 9.26614E-07-9.44111E-20 9.46665E-19
 -1        97 8.77371E-05-2.62496E-05-2.68759E-05 7.75999E-07-2.64069E-20 1.45224E-18
 -1        98 8.57994E-05-2.55828E-05-2.64013E-05 1.86855E-07 2.92627E-19-1.20832E-18
 -1        99 9.16388E-05-2.73518E-05-2.79066E-05-4.75529E-07-4.86536E-19-4.10898E-18
 -1       100 1.02250E-04-3.06245E-05-3.06887E-05-8.19812E-07-3.51905E-20-3.49142E-18
 -1       101 1.12919E-04-3.39064E-05-3.35976E-05-7.60595E-07-4.04855E-20-3.56551E-18
 -1       102 1.20219E-04-3.61269E-05-3.57102E-05-4.81960E-07 1.01412E-20-3.68674E-18
 -1       103 1.23161E-04-3.70013E-05-3.66628E-05-1.93756E-07-1.71295E-19-2.57845E-18
 -1       104 1.22511E-04-3.67848E-05-3.65854E-05 4.50330E-09-2.19499E-19 1.55163E-19
 -1       105 1.19643E-04-3.59062E-05-3.58260E-05 1.05317E-07 4.75544E-19-2.61259E-18
 -1       106 1.15796E-04-3.47416E-05-3.47361E-05 1.37864E-07 2.14730E-19-4.00807E-18
 -1       107 1.11813E-04-3.35422E-05-3.35728E-05 1.33469E-07-1.79671E-19-3.48406E-18
 -1       108 1.08157E-04-3.24447E-05-3.24870E-05 1.13647E-07 1.93429E-19-3.97693E-18
 -1       109 1.05028E-04-3.15070E-05-3.15485E-05 9.01613E-08 4.16260E-20-2.92509E-18
 -1       110 1.02471E-04-3.07406E-05-3.07763E-05 6.83941E-08-2.29783E-19-3.38195E-18
 -1       111 1.00445E-04-3.01339E-05-3.01625E-05 5.02550E-08 3.59784E-19-3.92715E-18
 -1       112 9.88813E-05-2.96652E-05-2.96872E-05 3.60046E-08-4.57224E-19-2.84187E-18
 -1       113 9.76984E-05-2.93106E-05-2.93271E-05 2.52350E-08 4.53751E-19-1.47730E-18
 -1       114 9.68216E-05-2.90477E-05-2.90598E-05 1.73416E-08-7.10030E-19 9.85405E-19
 -1       115 9.61860E-05-2.88570E-05-2.88659E-05 1.17092E-08 6.92170E-19-4.13667E-19
 -1       116 9.57389E-05-2.87227E-05-2.87295E-05 7.72884E-09 3.91243E-19-2.22991E-18
 -1       117 9.54408E-05-2.86330E-05-2.86388E-05 4.74788E-09-5.14663E-19-3.93047E-18
 -1       118 9.52639E-05-2.85794E-05-2.85853E-05 1.90991E-09-1.88003E-19-7.24370E-19
 -1       119 9.51911E-05-2.85569E-05-2.85621E-05-3.00269E-09-5.00313E-19 2.43168E-19
 -1       120 9.52036E-05-2.85599E-05-2.85585E-05-1.14998E-08 8.08889E-19-5.94974E-19
 -1       121 9.52463E-05-2.86028E-05-2.85595E-05-1.49219E-08 8.97743E-20 1.45530E-19
 -1       122 9.52482E-05-2.86087E-05-2.85653E-05-5.16408E-09 5.10411E-18 4.60869E-19
 -1       123 9.52235E-05-2.85261E-05-2.85901E-05 2.37368E-09 5.66099E-18-8.35874E-19
 -1       124 9.51774E-05-2.83718E-05-2.86340E-05 6.79258E-09 1.36633E-18-3.14319E-19
 -1       125 9.51207E-05-2.81812E-05-2.86884E-05 8.28707E-09 2.47405E-18-8.55729E-19
 -1       126 9.50661E-05-2.79973E-05-2.87413E-05 7.61887E-09 3.40594E-18 1.21645E-18
 -1       127 9.50224E-05-2.78500E-05-2.87838E-05 5.25344E-09 6.44713E-18 1.22549E-18
 -1       128 9.49985E-05-2.77695E-05-2.88071E-05 1.87267E-09 3.78106E-18-9.40428E-19
 -1       129 9.49987E-05-2.77700E-05-2.88070E-05-1.82700E-09 5.19645E-18 1.33442E-18
 -1       130 9.50227E-05-2.78511E-05-2.87836E-05-5.15047E-09 6.37283E-18-2.61129E-19
 -1       131 9.50663E-05-2.79979E-05-2.87411E-05-7.50206E-09 3.57512E-18-1.71913E-18
 -1       132 9.51204E-05-2.81803E-05-2.86886E-05-8.10032E-09 3.19892E-18 2.19731E-18
 -1       133 9.51765E-05-2.83690E-05-2.86347E-05-6.61484E-09 9.04702E-18 7.95008E-20
 -1       134 9.52221E-05-2.85225E-05-2.85912E-05-3.00503E-09 3.48153E-18-1.91458E-19
 -1       135 9.52475E-05-2.86046E-05-2.85661E-05 6.64696E-09 1.70019E-18-2.03024E-19
 -1       136 9.52428E-05-2.86003E-05-2.85591E-05 2.19243E-08-1.57410E-18-2.89047E-19
 -1       137 2.57266E-05-8.76885E-05 1.55898E-05-2.35650E-05-1.60089E-19 1.13137E-18
 -1       138 7.89428E-06-3.50494E-05 3.40075E-06-1.90689E-05 8.38732E-18 4.80247E-18
 -1       139 1.16402E-05 1.41477E-05-1.49054E-05 2.29961E-05 1.21740E-17 9.22631E-18
 -1       140 7.10926E-05 2.36135E-05-3.86650E-05 8.52464E-05 9.74088E-18 1.15188E-17
 -1       141 1.71869E-04-1.60817E-05-5.92832E-05 1.12911E-04 4.34909E-18 8.71936E-18
 -1       142 2.70900E-04-7.10453E-05-7.40404E-05 8.08938E-05 1.29109E-18 4.59261E-18
 -1       143 3.12933E-04-9.72047E-05-7.93494E-05 7.52347E-07 2.87329E-19-1.24240E-18
 -1       144 2.75124E-04-7.31870E-05-7.47722E-05-7.74893E-05 7.62038E-19-3.79788E-18
 -1       145 1.72352E-04-1.66522E-05-5.92517E-05-1.10778E-04 2.83481E-18-6.10668E-18
 -1       146 6.94162E-05 2.27679E-05-3.77507E-05-8.26573E-05 6.48573E-18-7.51699E-18
 -1       147 1.41557E-05 1.66071E-05-1.66707E-05-2.72885E-05 9.82092E-18-6.94525E-18
 -1       148 6.79757E-06-3.00373E-05 2.02890E-06 1.68446E-05 8.56477E-18-5.01147E-18
 -1       149 2.39092E-05-8.32172E-05 1.46600E-05 2.57908E-05 1.35081E-18-1.42619E-19
 -1       150 3.60577E-05-1.09977E-04 1.98125E-05 3.46362E-06-6.37403E-18 5.81541E-20
 -1       151 2.66810E-05-8.99731E-05 1.62285E-05-2.14982E-05-9.36861E-18-2.31429E-18
 -1       152 8.41020E-06-3.38176E-05 3.06921E-06-1.65595E-05-8.48769E-18-2.96567E-18
 -1       153 1.06814E-05 1.52715E-05-1.47332E-05 2.28278E-05-5.41000E-18-3.87518E-18
 -1       154 5.81532E-05 2.73482E-05-3.52635E-05 7.83846E-05-4.60489E-18-6.46413E-18
 -1       155 1.56316E-04-8.05662E-06-5.67888E-05 1.13395E-04-3.77501E-18-5.66326E-18
 -1       156 2.53178E-04-6.19146E-05-7.13319E-05 9.00968E-05-1.42084E-18-4.81771E-18
 -1       157 3.05999E-04-9.45319E-05-7.81814E-05 1.50317E-05-5.88820E-19-3.51736E-18
 -1       158 2.82107E-04-7.96352E-05-7.51735E-05-6.59485E-05 1.42037E-19-2.90321E-19
 -1       159 1.98571E-04-3.02250E-05-6.36532E-05-1.10565E-04-1.40946E-18 4.04458E-18
 -1       160 2.23591E-05 2.41581E-05-2.18711E-05-4.31788E-05-1.02927E-17 9.13059E-18
 -1       161 5.57638E-06-2.05426E-05-5.54512E-07 1.09250E-05-1.18881E-17 5.68232E-18
 -1       162 2.35838E-05-8.19771E-05 1.44241E-05 2.43115E-05-1.15021E-17 3.12354E-18
 -1       163 9.28932E-05-1.20756E-05-3.48504E-05-2.29272E-05-1.45147E-18 1.13211E-19
 -1       164 8.79721E-05-8.55961E-06-3.42021E-05-1.78681E-05-1.34224E-18-1.48611E-18
 -1       165 8.56933E-05-6.71097E-06-3.39632E-05-1.38990E-05-1.11514E-18-2.36797E-18
 -1       166 8.46089E-05-5.76005E-06-3.38764E-05-1.05544E-05-8.35118E-19-2.84313E-18
 -1       167 8.39801E-05-5.20782E-06-3.38298E-05-7.56638E-06-5.81032E-19-2.96960E-18
 -1       168 8.33502E-05-4.73601E-06-3.37549E-05-4.72961E-06-3.72800E-19-2.96222E-18
 -1       169 8.25599E-05-4.21137E-06-3.36373E-05-2.17537E-06-8.00893E-20-2.84242E-18
 -1       170 8.18615E-05-3.78316E-06-3.35195E-05 2.23322E-10 1.44673E-19-2.75216E-18
 -1       171 8.16947E-05-3.73625E-06-3.34691E-05 1.95801E-06 3.59749E-19-2.68081E-18
 -1       172 8.21983E-05-4.13188E-06-3.35197E-05 4.05210E-06 5.80177E-19-2.57632E-18
 -1       173 8.31564E-05-4.78988E-06-3.36551E-05 6.47773E-06 7.83459E-19-2.35109E-18
 -1       174 8.44453E-05-5.63065E-06-3.38617E-05 9.37814E-06 1.06538E-18-2.06460E-18
 -1       175 8.62006E-05-6.78194E-06-3.41514E-05 1.27569E-05 1.38513E-18-1.49687E-18
 -1       176 8.91315E-05-8.79831E-06-3.45927E-05 1.67235E-05 1.55002E-18-4.24853E-19
 -1       177 9.55150E-05-1.37617E-05-3.52444E-05 2.11099E-05 1.49421E-18 1.59843E-18
 -1       178 1.05197E-04-2.60958E-05-3.50751E-05 1.80634E-05 1.18730E-18 4.20467E-18
 -1       179 1.00794E-04-2.66996E-05-3.17686E-05-1.29640E-05-1.21520E-18 2.18272E-18
 -1       180 9.43750E-05-2.81336E-05-2.84642E-05-6.66642E-06-1.11913E-18 1.51871E-18
 -1       181 9.35476E-05-3.07697E-05-2.70062E-05-5.15815E-06-1.24247E-18 1.01128E-18
 -1       182 8.30852E-05-2.14099E-05-2.66911E-05-1.37019E-06-2.15951E-18-1.12232E-20
 -1       183 9.05358E-05-1.95515E-05-2.90127E-05-6.65864E-06-3.01782E-19-2.00456E-19
 -1       184 9.61786E-05-2.76748E-05-2.92538E-05-3.90027E-06-2.15729E-19-1.76620E-19
 -1       185 9.53051E-05-2.82355E-05-2.87695E-05-1.25314E-06 4.70103E-20-1.40574E-19
 -1       186 9.49354E-05-2.82443E-05-2.85864E-05-1.57322E-07-2.12584E-19-3.21903E-19
 -1       187 9.51916E-05-2.83484E-05-2.86463E-05 6.64475E-07-6.56959E-19-2.68224E-19
 -1       188 9.59823E-05-2.85736E-05-2.88845E-05 1.45583E-06-2.30340E-19-1.87672E-19
 -1       189 9.69224E-05-2.86036E-05-2.91965E-05 2.26918E-06-1.00091E-19-8.08303E-19
 -1       190 9.73542E-05-2.88443E-05-2.91142E-05 2.02572E-06-1.47900E-19-7.93590E-19
 -1       191 9.82921E-05-2.94216E-05-2.95137E-05 1.97714E-06 1.35136E-19-7.50819E-19
 -1       192 9.98847E-05-2.98960E-05-2.99936E-05 2.22902E-06-3.56333E-20-6.71380E-19
 -1       193 1.01652E-04-3.04367E-05-3.05207E-05 2.46280E-06-3.74643E-19-3.56854E-19
 -1       194 1.03556E-04-3.10417E-05-3.10796E-05 2.61032E-06-8.07612E-20-7.73745E-21
 -1       195 1.05503E-04-3.16945E-05-3.16371E-05 2.56665E-06 1.96428E-19 1.15130E-19
 -1       196 1.07324E-04-3.23549E-05-3.21379E-05 2.19025E-06-7.86748E-20-6.45288E-19
 -1       197 1.08759E-04-3.29457E-05-3.25027E-05 1.32338E-06-1.77018E-19-6.51813E-19
 -1       198 1.09463E-04-3.33396E-05-3.26368E-05-1.48057E-07 2.26535E-19-6.37512E-19
 -1       199 1.09058E-04-3.33576E-05-3.24538E-05-2.18044E-06 1.82814E-19-2.65128E-19
 -1       200 1.07266E-04-3.28056E-05-3.19167E-05-4.42557E-06-2.46925E-19-8.70012E-20
 -1       201 1.04120E-04-3.15842E-05-3.10845E-05-6.15485E-06 3.32647E-19 4.60124E-19
 -1       202 1.00189E-04-2.98578E-05-3.01338E-05-6.43526E-06 9.09392E-19 6.59534E-19
 -1       203 9.66156E-05-2.81589E-05-2.93277E-05-4.64562E-06 4.62933E-19 2.02616E-19
 -1       204 9.47309E-05-2.72229E-05-2.89214E-05-1.09160E-06 1.15630E-19 7.23258E-19
 -1       205 9.53325E-05-2.75222E-05-2.90515E-05 2.90912E-06-5.86140E-20 2.08764E-19
 -1       206 9.81638E-05-2.89040E-05-2.96736E-05 5.75539E-06 1.90697E-19 2.59318E-19
 -1       207 1.02085E-04-3.07069E-05-3.05847E-05 6.55473E-06 1.67777E-19 1.00036E-19
 -1       208 1.05778E-04-3.22460E-05-3.15145E-05 5.49379E-06-1.13388E-18 1.26426E-20
 -1       209 1.08352E-04-3.31614E-05-3.22320E-05 3.42343E-06-1.17278E-18-1.08601E-19
 -1       210 1.09512E-04-3.34353E-05-3.26159E-05 1.22664E-06-1.09755E-18-9.02519E-19
 -1       211 1.09406E-04-3.32312E-05-3.26582E-05-5.43808E-07-4.10828E-19-1.18979E-18
 -1       212 1.08383E-04-3.27454E-05-3.24260E-05-1.69860E-06-1.13770E-19-1.02439E-18
 -1       213 1.06823E-04-3.21354E-05-3.20151E-05-2.28393E-06 4.12802E-19-6.07503E-19
 -1       214 1.05037E-04-3.15054E-05-3.15165E-05-2.44374E-06 6.62635E-19-5.48508E-19
 -1       215 1.03249E-04-3.09153E-05-3.10003E-05-2.33184E-06 7.01800E-19-1.19756E-18
 -1       216 1.01595E-04-3.03949E-05-3.05127E-05-2.07314E-06 6.10689E-19 7.84544E-19
 -1       217 1.00146E-04-2.99545E-05-3.00794E-05-1.75488E-06-1.26277E-18 6.47567E-19
 -1       218 9.89262E-05-2.95935E-05-2.97110E-05-1.43146E-06-1.58100E-18 7.35359E-19
 -1       219 9.79320E-05-2.93053E-05-2.94084E-05-1.13289E-06-7.26442E-20-6.23702E-19
 -1       220 9.71434E-05-2.90804E-05-2.91671E-05-8.72809E-07 1.74551E-18-1.80182E-19
 -1       221 9.65338E-05-2.89088E-05-2.89797E-05-6.54573E-07 6.85581E-19 1.90141E-18
 -1       222 9.60747E-05-2.87809E-05-2.88382E-05-4.75408E-07 1.07167E-18 2.03765E-18
 -1       223 9.57401E-05-2.86880E-05-2.87349E-05-3.29129E-07 5.01233E-19 2.68752E-18
 -1       224 9.55072E-05-2.86232E-05-2.86633E-05-2.07991E-07-1.16574E-18-6.71959E-19
 -1       225 9.53569E-05-2.85815E-05-2.86171E-05-1.05244E-07 1.02284E-20-1.06064E-18
 -1       226 9.52699E-05-2.85601E-05-2.85892E-05-1.99802E-08 1.95168E-20-6.98030E-19
 -1       227 9.93546E-05-2.85607E-05-3.05174E-05 6.84751E-06 1.14237E-18 3.52383E-18
 -1       228 9.45083E-05-2.78571E-05-2.85343E-05 2.56127E-06 9.98010E-19 2.72674E-18
 -1       229 9.23171E-05-2.74961E-05-2.77353E-05 8.86426E-07 6.98202E-19 1.87944E-18
 -1       230 9.14110E-05-2.73298E-05-2.74367E-05 1.09958E-07 5.03195E-19 1.35523E-18
 -1       231 9.12084E-05-2.73030E-05-2.73752E-05-3.15197E-07 3.80477E-19 1.10263E-18
 -1       232 9.14425E-05-2.73851E-05-2.74471E-05-6.02703E-07 4.95283E-20 1.04551E-18
 -1       233 9.19841E-05-2.75563E-05-2.76084E-05-8.24143E-07 3.75971E-19 9.30761E-19
 -1       234 9.27566E-05-2.77955E-05-2.78375E-05-9.99798E-07 5.84368E-19 3.99758E-19
 -1       235 9.37124E-05-2.80849E-05-2.81234E-05-1.14912E-06 9.82467E-19-2.34218E-19
 -1       236 9.48326E-05-2.84164E-05-2.84653E-05-1.29163E-06 3.28621E-19-2.54370E-20
 -1       237 9.61771E-05-2.88094E-05-2.88910E-05-1.45577E-06 1.85628E-19-1.55007E-19
 -1       238 9.77555E-05-2.92643E-05-2.93515E-05-1.71265E-06-2.53297E-19-2.71570E-19
 -1       239 9.95204E-05-2.97762E-05-2.98889E-05-2.02939E-06-1.43863E-20-5.33300E-19
 -1       240 1.01600E-04-3.03844E-05-3.05203E-05-2.41218E-06 2.22541E-19-5.48748E-19
 -1       241 1.04031E-04-3.11058E-05-3.12542E-05-2.83624E-06 5.03981E-19-1.86136E-19
 -1       242 1.06809E-04-3.19503E-05-3.20852E-05-3.24097E-06 8.82482E-20-1.90048E-19
 -1       243 1.09859E-04-3.29118E-05-3.29822E-05-3.50830E-06 3.62254E-19-2.12772E-19
 -1       244 1.12975E-04-3.39532E-05-3.38727E-05-3.43947E-06 3.16527E-19-2.80293E-19
 -1       245 1.15775E-04-3.49816E-05-3.46292E-05-2.74884E-06-1.35268E-18 1.95071E-19
 -1       246 1.17653E-04-3.58138E-05-3.50696E-05-1.12185E-06-6.71135E-19 1.14990E-18
 -1       247 1.17843E-04-3.61469E-05-3.49952E-05 1.59633E-06-1.77447E-19 1.70315E-18
 -1       248 1.15639E-04-3.55832E-05-3.42844E-05 5.04934E-06 6.65573E-19 1.27197E-18
 -1       249 1.10903E-04-3.38187E-05-3.30214E-05 7.99448E-06-9.77132E-20 5.07492E-19
 -1       250 1.04741E-04-3.11363E-05-3.15663E-05 8.51080E-06-5.85459E-19 1.41918E-19
 -1       251 9.95546E-05-2.86056E-05-3.04710E-05 5.33184E-06 2.27574E-19 7.08487E-19
 -1       252 9.80374E-05-2.77673E-05-3.01871E-05-6.40695E-07 1.05544E-18 3.96762E-19
 -1       253 1.01079E-04-2.92021E-05-3.08399E-05-6.25916E-06 1.16193E-18-6.30775E-20
 -1       254 1.07000E-04-3.19628E-05-3.21470E-05-8.70242E-06-5.29907E-19-1.67358E-18
 -1       255 1.12963E-04-3.45150E-05-3.35866E-05-7.55035E-06 2.28990E-19-2.01704E-18
 -1       256 1.16909E-04-3.59473E-05-3.46725E-05-4.37942E-06-2.55394E-19-2.51964E-18
 -1       257 1.18250E-04-3.62145E-05-3.51500E-05-1.02838E-06-9.28451E-19-1.08943E-18
 -1       258 1.17410E-04-3.56890E-05-3.50287E-05 1.46280E-06-1.37471E-19-1.41894E-18
 -1       259 1.15175E-04-3.47663E-05-3.44713E-05 2.86762E-06 1.20160E-18-1.09053E-18
 -1       260 1.12280E-04-3.37241E-05-3.36760E-05 3.39105E-06 5.70344E-19-8.18623E-19
 -1       261 1.09254E-04-3.27191E-05-3.28063E-05 3.34827E-06 2.19515E-19-2.30275E-18
 -1       262 1.06415E-04-3.18246E-05-3.19698E-05 3.00701E-06 5.50034E-19-2.56419E-18
 -1       263 1.03924E-04-3.10663E-05-3.12243E-05 2.54764E-06-1.04611E-18-2.05498E-18
 -1       264 1.01831E-04-3.04447E-05-3.05925E-05 2.07489E-06-1.08881E-19-9.23464E-19
 -1       265 1.00130E-04-2.99478E-05-3.00758E-05 1.64155E-06 1.25327E-19 9.69975E-19
 -1       266 9.87820E-05-2.95587E-05-2.96647E-05 1.26900E-06-4.74193E-19 2.39207E-18
 -1       267 9.77362E-05-2.92597E-05-2.93447E-05 9.61285E-07-4.71311E-20 4.06433E-19
 -1       268 9.69408E-05-2.90339E-05-2.91009E-05 7.13770E-07-1.84353E-18 1.91204E-18
 -1       269 9.63482E-05-2.88666E-05-2.89189E-05 5.17898E-07 1.94477E-18 3.55759E-18
 -1       270 9.59175E-05-2.87455E-05-2.87865E-05 3.63649E-07 1.03073E-18 2.23543E-18
 -1       271 9.56159E-05-2.86607E-05-2.86940E-05 2.40834E-07-2.55473E-20 3.39024E-18
 -1       272 9.54174E-05-2.86045E-05-2.86335E-05 1.40331E-07-1.14817E-18 2.00144E-18
 -1       273 9.53011E-05-2.85716E-05-2.85977E-05 5.53287E-08 5.47240E-20 2.37712E-18
 -1       274 9.52489E-05-2.85654E-05-2.85771E-05-8.81948E-09 9.83613E-19 3.55245E-19
 -1       275 9.52498E-05-2.85401E-05-2.85892E-05 2.42383E-08 1.39001E-18 3.33869E-18
 -1       276 9.52284E-05-2.84630E-05-2.86136E-05 1.01662E-07 1.94070E-18-4.38729E-19
 -1       277 9.51837E-05-2.83419E-05-2.86465E-05 1.67922E-07 1.48145E-18-1.40912E-18
 -1       278 9.51283E-05-2.81941E-05-2.86861E-05 2.00201E-07 2.70408E-18 1.31961E-18
 -1       279 9.50728E-05-2.80455E-05-2.87262E-05 1.93816E-07 1.94103E-18-1.00752E-18
 -1       280 9.50248E-05-2.79155E-05-2.87616E-05 1.51605E-07 3.25280E-19 3.28720E-19
 -1       281 9.49928E-05-2.78286E-05-2.87853E-05 8.24283E-08 6.32624E-20-1.14585E-19
 -1       282 9.49820E-05-2.77987E-05-2.87935E-05-8.29425E-10 2.40144E-18 1.18300E-18
 -1       283 9.49937E-05-2.78306E-05-2.87848E-05-8.36045E-08 3.16976E-18-1.18611E-18
 -1       284 9.50261E-05-2.79189E-05-2.87607E-05-1.51610E-07 2.86142E-18-7.86463E-19
 -1       285 9.50732E-05-2.80464E-05-2.87260E-05-1.92193E-07 3.24160E-18-1.23903E-18
 -1       286 9.51291E-05-2.81967E-05-2.86853E-05-1.98376E-07 1.55408E-18 2.49171E-18
 -1       287 9.51838E-05-2.83433E-05-2.86459E-05-1.66176E-07 1.34632E-18-1.86650E-18
 -1       288 9.52268E-05-2.84606E-05-2.86136E-05-1.02658E-07 1.36091E-18-8.45947E-19
 -1       289 9.52594E-05-2.85161E-05-2.86037E-05-6.47192E-08-2.26487E-19-2.80659E-18
 -1       290 1.15974E-05-4.39864E-05 1.10202E-05 7.46100E-06-1.80550E-18 5.17145E-18
 -1       291 2.63206E-05-4.27150E-05 4.32612E-06 2.12812E-05 5.73865E-20 4.80501E-18
 -1       292 5.20091E-05-3.61324E-05-8.68109E-06 3.34873E-05 2.35856E-18 4.48472E-18
 -1       293 1.00310E-04-3.75270E-05-2.71805E-05 4.24978E-05 3.60434E-18 2.88923E-18
 -1       294 1.44137E-04-3.29335E-05-4.63981E-05 4.30516E-05 4.56657E-18 3.30173E-18
 -1       295 1.82853E-04-3.38819E-05-6.14176E-05 2.86965E-05 3.25049E-18 2.51844E-18
 -1       296 2.07680E-04-3.50922E-05-7.04610E-05 1.12362E-05 3.18516E-18 8.34116E-19
 -1       297 2.10892E-04-3.66195E-05-7.10226E-05-1.15052E-05 1.77792E-18-8.47033E-19
 -1       298 1.77849E-04-3.24265E-05-6.06355E-05-2.00026E-05 2.02568E-18-2.14342E-18
 -1       299 1.45649E-04-3.75584E-05-4.54615E-05-3.60615E-05 2.53041E-18-1.98926E-18
 -1       300 9.96502E-05-3.60486E-05-2.75114E-05-4.32307E-05 2.71093E-18-1.55367E-18
 -1       301 5.49627E-05-3.56026E-05-1.00628E-05-3.45477E-05 2.28127E-18-2.93275E-18
 -1       302 2.84135E-05-4.23446E-05 3.29641E-06-2.25856E-05-2.72745E-19-3.69179E-18
 -1       303 1.35053E-05-4.83582E-05 1.14698E-05-7.41449E-06-1.30888E-18-3.46796E-18
 -1       304 1.10125E-05-4.42920E-05 1.13550E-05 7.15726E-06-2.04024E-18-1.55791E-18
 -1       305 2.71212E-05-4.08389E-05 3.77975E-06 2.54667E-05-2.90850E-18-1.22370E-18
 -1       306 5.11827E-05-3.50285E-05-8.72906E-06 3.40210E-05-3.83049E-18-8.64821E-19
 -1       307 8.79874E-05-2.94081E-05-2.54840E-05 4.48547E-05-1.67120E-18-2.02610E-18
 -1       308 1.37262E-04-3.30898E-05-4.36218E-05 4.23820E-05-1.62524E-18-1.69767E-18
 -1       309 1.78113E-04-3.23958E-05-5.97636E-05 3.85170E-05-1.80614E-18-2.40155E-18
 -1       310 2.02998E-04-3.44394E-05-6.88995E-05 1.62624E-05-1.01760E-18-1.80111E-18
 -1       311 2.10866E-04-3.68313E-05-7.08448E-05-8.49823E-06-1.48771E-18-1.62366E-18
 -1       312 1.91323E-04-3.39086E-05-6.44157E-05-3.09026E-05-2.35586E-18 2.80156E-19
 -1       313 1.54214E-04-3.46376E-05-5.00391E-05-3.34804E-05-3.64571E-18 3.00273E-19
 -1       314 1.05565E-04-2.84305E-05-3.27877E-05-4.72185E-05-4.01112E-18 1.90731E-18
 -1       315 6.86334E-05-3.85304E-05-1.38946E-05-4.04494E-05-3.34154E-18 3.38093E-18
 -1       316 2.94367E-05-4.10727E-05 2.44176E-06-2.46368E-05-4.86091E-18 1.64907E-18
 -1       317 1.27188E-05-4.62893E-05 1.12415E-05-8.98769E-06-5.77846E-18 2.26793E-18
 -1       318 9.07950E-05-1.47407E-05-3.26703E-05-1.33594E-05-1.35890E-18-1.45692E-18
 -1       319 9.43946E-05-1.93660E-05-3.22390E-05-1.53981E-05-1.52167E-18-4.55002E-19
 -1       320 8.76203E-05-1.06769E-05-3.30385E-05-8.25748E-06-9.79453E-19-2.34425E-18
 -1       321 8.68807E-05-9.76523E-06-3.31185E-05-5.52803E-06-6.96945E-19-2.27297E-18
 -1       322 8.58776E-05-8.84786E-06-3.30807E-05-2.80557E-06-2.51441E-19-2.16954E-18
 -1       323 8.46026E-05-7.86293E-06-3.29495E-05-5.76577E-07 7.80543E-20-2.14285E-18
 -1       324 8.38560E-05-7.39090E-06-3.28231E-05 9.65849E-07 3.39449E-19-2.10396E-18
 -1       325 8.42723E-05-7.88592E-06-3.27877E-05 2.44949E-06 6.17796E-19-2.06750E-18
 -1       326 8.54973E-05-9.01071E-06-3.28299E-05 4.42597E-06 8.56807E-19-1.95501E-18
 -1       327 8.70931E-05-1.04470E-05-3.29034E-05 6.93086E-06 1.16677E-18-1.58843E-18
 -1       328 8.90162E-05-1.22710E-05-3.29577E-05 9.65609E-06 1.47892E-18-1.22831E-18
 -1       329 9.16984E-05-1.50094E-05-3.29481E-05 1.22689E-05 1.72476E-18-6.09513E-19
 -1       330 9.56648E-05-1.96625E-05-3.26801E-05 1.36532E-05 1.73231E-18 6.60706E-19
 -1       331 9.86437E-05-2.45544E-05-3.18398E-05 1.13274E-05 1.58868E-18 1.77053E-18
 -1       332 9.64210E-05-2.69429E-05-2.97478E-05 5.39608E-06 1.37124E-18 1.30821E-18
 -1       333 9.63729E-05-2.74481E-05-2.95184E-05-7.08188E-06-1.12585E-18-2.24139E-19
 -1       334 9.40690E-05-2.73713E-05-2.85915E-05-4.62191E-06-1.10169E-18-2.09475E-19
 -1       335 9.58950E-05-2.57190E-05-2.82253E-05-4.76789E-06-1.79253E-18 2.76027E-19
 -1       336 9.08645E-05-2.28519E-05-2.90432E-05-2.89095E-06-1.37021E-19-7.39844E-19
 -1       337 9.42267E-05-2.64617E-05-2.90301E-05-2.09290E-06-1.24262E-19-5.87589E-19
 -1       338 9.50205E-05-2.74634E-05-2.89490E-05-7.02635E-07-4.63566E-20-6.36619E-19
 -1       339 9.54114E-05-2.77617E-05-2.89888E-05 6.27152E-07-2.65065E-19-6.11030E-19
 -1       340 9.59535E-05-2.79888E-05-2.91284E-05 1.84265E-06-4.12080E-19-4.49762E-19
 -1       341 9.66260E-05-2.81752E-05-2.93317E-05 2.86658E-06-4.32777E-19-2.11914E-19
 -1       342 9.73042E-05-2.82842E-05-2.94829E-05 3.52249E-06-3.42658E-19-2.02512E-19
 -1       343 9.76441E-05-2.87743E-05-2.92767E-05 3.48803E-06-2.31339E-19-3.51228E-19
 -1       344 9.82191E-05-2.91899E-05-2.95819E-05 3.64824E-06 1.86721E-19-5.88480E-19
 -1       345 9.94466E-05-2.95761E-05-2.99430E-05 4.07089E-06 2.09291E-19-1.92638E-19
 -1       346 1.00836E-04-3.00812E-05-3.03231E-05 4.41526E-06 2.40028E-19 4.49721E-19
 -1       347 1.02381E-04-3.07419E-05-3.07043E-05 4.55367E-06 5.26712E-21 5.70375E-19
 -1       348 1.04052E-04-3.15884E-05-3.10611E-05 4.30343E-06-1.65538E-19 6.03421E-19
 -1       349 1.05776E-04-3.26194E-05-3.13626E-05 3.43697E-06-4.10700E-19 4.40517E-19
 -1       350 1.07407E-04-3.37532E-05-3.15798E-05 1.72917E-06-1.98562E-19-3.90898E-19
 -1       351 1.08681E-04-3.47560E-05-3.16983E-05-9.28299E-07 6.32728E-19-2.77394E-19
 -1       352 1.09200E-04-3.51912E-05-3.17328E-05-4.32813E-06 4.76952E-19-4.25967E-19
 -1       353 1.08517E-04-3.44986E-05-3.17296E-05-7.71578E-06 3.60854E-19 5.50643E-19
 -1       354 1.06433E-04-3.23477E-05-3.17490E-05-9.74049E-06 1.76396E-19 8.51037E-20
 -1       355 1.03432E-04-2.91673E-05-3.18158E-05-8.92887E-06 4.68337E-19-3.90100E-19
 -1       356 1.00864E-04-2.64037E-05-3.18946E-05-4.73135E-06 1.01136E-18-8.75181E-19
 -1       357 1.00216E-04-2.56955E-05-3.19229E-05 1.50854E-06 1.61998E-19 2.37522E-19
 -1       358 1.01910E-04-2.75210E-05-3.18707E-05 7.09145E-06-5.33662E-19 5.15201E-20
 -1       359 1.04897E-04-3.07083E-05-3.17881E-05 9.75959E-06-3.40066E-19-7.00413E-19
 -1       360 1.07604E-04-3.35319E-05-3.17466E-05 9.10544E-06-9.32324E-20-1.53513E-18
 -1       361 1.09061E-04-3.49977E-05-3.17517E-05 6.26554E-06-1.22545E-18-6.72843E-19
 -1       362 1.09157E-04-3.50986E-05-3.17545E-05 2.76246E-06-1.17303E-18 1.89358E-19
 -1       363 1.08263E-04-3.43368E-05-3.16977E-05-3.13190E-07-1.41047E-18 1.31424E-18
 -1       364 1.06826E-04-3.32391E-05-3.15491E-05-2.48652E-06-5.94977E-19-4.02059E-19
 -1       365 1.05186E-04-3.21457E-05-3.13105E-05-3.72533E-06 4.02002E-19 4.29872E-19
 -1       366 1.03550E-04-3.12111E-05-3.10057E-05-4.21009E-06 1.19476E-18-4.16622E-20
 -1       367 1.02028E-04-3.04733E-05-3.06667E-05-4.17522E-06 1.41233E-19 1.43864E-19
 -1       368 1.00673E-04-2.99157E-05-3.03231E-05-3.82993E-06 1.28687E-18 1.16186E-18
 -1       369 9.95039E-05-2.95044E-05-2.99973E-05-3.33177E-06-4.56229E-19-2.52146E-19
 -1       370 9.85201E-05-2.92051E-05-2.97036E-05-2.78663E-06-7.42341E-19 1.55155E-18
 -1       371 9.77104E-05-2.89893E-05-2.94491E-05-2.25875E-06-2.24271E-19 3.42557E-18
 -1       372 9.70573E-05-2.88348E-05-2.92357E-05-1.78234E-06 4.22718E-19 3.58934E-18
 -1       373 9.65406E-05-2.87248E-05-2.90617E-05-1.37153E-06 1.33142E-18 1.03419E-18
 -1       374 9.61396E-05-2.86467E-05-2.89237E-05-1.02781E-06 8.39441E-19 1.69903E-18
 -1       375 9.58343E-05-2.85910E-05-2.88170E-05-7.45253E-07 2.04328E-19 3.52042E-19
 -1       376 9.56066E-05-2.85508E-05-2.87369E-05-5.14449E-07-2.29618E-18 5.53951E-19
 -1       377 9.54407E-05-2.85217E-05-2.86783E-05-3.24922E-07-1.56000E-18 2.81647E-19
 -1       378 9.53344E-05-2.85122E-05-2.86374E-05-1.79423E-07-5.98096E-19-1.56525E-18
 -1       379 9.45439E-05-2.74868E-05-2.87018E-05 2.32843E-06 1.08081E-18 1.01432E-18
 -1       380 9.34137E-05-2.75792E-05-2.81942E-05 7.42855E-07 7.31499E-19 5.64634E-19
 -1       381 9.28928E-05-2.75948E-05-2.79759E-05-1.61043E-07 4.09658E-19 3.31719E-19
 -1       382 9.28088E-05-2.76398E-05-2.79257E-05-7.64040E-07 1.99901E-19 5.64578E-20
 -1       383 9.30595E-05-2.77583E-05-2.79839E-05-1.21463E-06 3.70515E-19 5.69418E-20
 -1       384 9.35603E-05-2.79406E-05-2.81207E-05-1.56277E-06 7.77769E-19 8.06491E-20
 -1       385 9.42475E-05-2.81600E-05-2.83209E-05-1.85184E-06 1.22850E-18 1.17280E-19
 -1       386 9.50986E-05-2.84106E-05-2.85796E-05-2.12845E-06 5.99580E-19 1.72228E-19
 -1       387 9.61223E-05-2.86890E-05-2.89039E-05-2.44964E-06 4.00863E-19 2.26546E-19
 -1       388 9.73343E-05-2.89873E-05-2.92903E-05-2.83902E-06-6.81729E-20 1.91123E-19
 -1       389 9.87151E-05-2.93463E-05-2.97256E-05-3.35087E-06 5.74880E-19-2.19684E-19
 -1       390 1.00331E-04-2.97852E-05-3.02300E-05-3.95837E-06 1.90682E-19-9.25551E-19
 -1       391 1.02217E-04-3.03329E-05-3.08042E-05-4.62482E-06 1.92336E-19-5.86834E-19
 -1       392 1.04389E-04-3.10274E-05-3.14392E-05-5.26133E-06 2.83069E-20 3.12315E-19
 -1       393 1.06832E-04-3.19155E-05-3.21094E-05-5.69940E-06 2.30365E-19 4.45678E-19
 -1       394 1.09482E-04-3.30448E-05-3.27666E-05-5.66110E-06 2.25426E-19 4.77473E-19
 -1       395 1.12186E-04-3.44310E-05-3.33386E-05-4.74967E-06-1.16615E-18 4.56212E-19
 -1       396 1.14651E-04-3.59726E-05-3.37400E-05-2.51711E-06-8.56875E-19 3.60968E-19
 -1       397 1.16369E-04-3.73131E-05-3.39041E-05 1.30005E-06-3.22875E-19 5.59637E-19
 -1       398 1.16608E-04-3.77149E-05-3.38318E-05 6.32555E-06 9.41461E-19 8.21880E-19
 -1       399 1.14615E-04-3.61939E-05-3.36289E-05 1.09638E-05 7.62495E-20 7.10171E-19
 -1       400 1.10531E-04-3.25313E-05-3.34422E-05 1.23562E-05-4.32098E-19 6.90570E-19
 -1       401 1.05996E-04-2.81319E-05-3.33919E-05 8.40912E-06 4.79103E-20 7.32945E-19
 -1       402 1.04135E-04-2.62232E-05-3.34063E-05-1.45122E-07 1.30105E-18 2.10871E-19
 -1       403 1.06305E-04-2.82855E-05-3.34443E-05-8.63490E-06 1.87905E-18 1.04811E-18
 -1       404 1.10921E-04-3.26702E-05-3.35341E-05-1.24936E-05-2.19013E-19-2.55225E-19
 -1       405 1.15003E-04-3.63449E-05-3.37145E-05-1.08875E-05 4.83201E-19 5.62714E-20
 -1       406 1.16845E-04-3.77805E-05-3.39065E-05-6.19601E-06-2.19037E-20 5.86588E-19
 -1       407 1.16480E-04-3.73242E-05-3.39519E-05-1.19970E-06-7.87552E-19-1.70988E-18
 -1       408 1.14681E-04-3.59516E-05-3.37663E-05 2.54746E-06 5.91252E-20-2.94702E-18
 -1       409 1.12195E-04-3.44017E-05-3.33575E-05 4.69495E-06-2.55144E-19-9.39087E-19
 -1       410 1.09528E-04-3.30274E-05-3.27948E-05 5.52429E-06 1.10716E-18 2.29739E-19
 -1       411 1.06964E-04-3.19233E-05-3.21623E-05 5.48637E-06 1.02686E-18 4.22533E-19
 -1       412 1.04645E-04-3.10701E-05-3.15299E-05 4.97375E-06-1.99533E-20 2.17172E-19
 -1       413 1.02632E-04-3.04190E-05-3.09442E-05 4.25906E-06-4.12576E-19 3.61172E-20
 -1       414 1.00938E-04-2.99235E-05-3.04297E-05 3.50701E-06-1.56528E-18-8.87925E-20
 -1       415 9.95470E-05-2.95468E-05-2.99951E-05 2.80514E-06-1.50602E-18 1.18195E-18
 -1       416 9.84287E-05-2.92612E-05-2.96387E-05 2.19222E-06-2.45394E-19 1.58528E-18
 -1       417 9.75465E-05-2.90458E-05-2.93536E-05 1.67887E-06 9.27152E-19 2.18504E-18
 -1       418 9.68633E-05-2.88849E-05-2.91304E-05 1.26077E-06-1.48400E-18 1.46553E-18
 -1       419 9.63436E-05-2.87658E-05-2.89594E-05 9.26399E-07-1.75444E-19 1.27249E-18
 -1       420 9.59563E-05-2.86786E-05-2.88313E-05 6.61263E-07 1.16032E-18 2.63371E-18
 -1       421 9.56746E-05-2.86155E-05-2.87381E-05 4.50307E-07 5.49097E-19 2.30848E-18
 -1       422 9.54767E-05-2.85712E-05-2.86726E-05 2.80332E-07-2.62673E-19 2.49067E-18
 -1       423 9.53444E-05-2.85436E-05-2.86281E-05 1.42706E-07-2.77498E-19 2.01393E-18
 -1       424 9.52880E-05-2.85338E-05-2.86085E-05 7.77048E-08 3.83518E-19 2.89876E-18
 -1       425 9.51587E-05-2.81980E-05-2.86972E-05 3.53510E-07 1.22577E-18 8.18101E-19
 -1       426 9.52426E-05-2.83527E-05-2.86665E-05 2.82265E-07 7.95935E-19-3.58861E-19
 -1       427 9.52805E-05-2.84588E-05-2.86372E-05 1.79643E-07-3.58396E-20-1.76279E-19
 -1       428 9.50691E-05-2.80411E-05-2.87263E-05 3.64909E-07 4.14860E-19-2.08264E-18
 -1       429 9.49865E-05-2.78983E-05-2.87524E-05 3.14091E-07 9.35433E-20-1.59807E-19
 -1       430 9.49249E-05-2.77918E-05-2.87719E-05 2.10413E-07 4.82887E-19 6.08056E-19
 -1       431 9.48927E-05-2.77360E-05-2.87821E-05 7.22843E-08-1.14705E-18 4.27410E-19
 -1       432 9.48939E-05-2.77382E-05-2.87817E-05-7.71236E-08-1.18647E-18 1.57609E-18
 -1       433 9.49283E-05-2.77979E-05-2.87707E-05-2.13393E-07 1.32377E-18 2.57832E-19
 -1       434 9.49894E-05-2.79044E-05-2.87510E-05-3.12910E-07 1.72639E-18-2.34784E-18
 -1       435 9.50711E-05-2.80469E-05-2.87247E-05-3.62254E-07 1.78454E-18 2.03147E-18
 -1       436 9.51602E-05-2.82045E-05-2.86951E-05-3.50235E-07 7.81177E-19 6.54574E-19
 -1       437 9.52438E-05-2.83588E-05-2.86645E-05-2.79409E-07-1.07204E-18-2.96652E-18
 -1       438 5.83457E-05-4.16620E-05-7.33075E-06 4.16882E-05-1.76268E-18 2.83534E-18
 -1       439 1.33834E-05-1.83249E-05 2.29987E-06-2.79957E-06-6.93568E-19 3.55161E-18
 -1       440 2.64159E-05-2.66971E-05 1.44605E-07 2.74879E-05-2.22473E-18 5.22736E-18
 -1       441 9.85589E-05-5.38660E-05-1.92743E-05 4.03936E-05-1.27690E-18 2.59867E-18
 -1       442 1.38965E-04-5.49062E-05-3.60044E-05 2.07941E-05 1.08420E-18-9.51853E-19
 -1       443 8.87007E-05-1.21148E-05-3.29019E-05-1.08481E-05-1.17396E-18-2.10583E-18
 -1       444 1.56723E-04-2.06252E-05-5.83570E-05-4.49198E-06 2.33082E-18-2.15940E-18
 -1       445 1.56785E-04-1.26497E-05-6.17919E-05-1.31783E-08 2.44221E-18-9.09803E-19
 -1       446 1.54637E-04-1.86460E-05-5.83252E-05 5.21751E-06 2.17338E-18 6.74979E-20
 -1       447 1.53675E-04-4.17327E-05-4.80929E-05-6.91132E-07 1.16464E-18-4.97632E-21
 -1       448 1.35584E-04-5.46539E-05-3.47326E-05-2.41104E-05 1.17192E-18-1.19590E-18
 -1       449 1.03417E-04-5.58470E-05-2.03762E-05-3.93270E-05 8.15269E-21-5.65765E-19
 -1       450 6.10639E-05-4.28447E-05-8.04180E-06-4.20626E-05-7.89223E-19-3.61302E-18
 -1       451 2.66540E-05-2.85591E-05 6.01255E-07-2.81087E-05-1.18108E-18-3.72536E-18
 -1       452 1.22914E-05-2.24314E-05 4.10206E-06-5.12304E-06-7.65109E-20-2.19816E-18
 -1       453 2.20784E-05-2.60436E-05 1.59090E-06 2.49607E-05-5.08908E-19-1.98735E-18
 -1       454 5.89144E-05-4.13535E-05-7.69880E-06 4.29054E-05-1.74224E-18 1.43757E-19
 -1       455 9.44341E-05-5.02574E-05-1.91154E-05 4.19534E-05-2.00323E-18-1.39342E-18
 -1       456 1.29047E-04-5.23388E-05-3.28670E-05 2.87565E-05-1.11618E-18-3.74283E-19
 -1       457 1.51417E-04-3.88307E-05-4.81888E-05 9.36440E-06-2.46328E-19-1.72583E-19
 -1       458 1.60916E-04-2.37743E-05-5.83724E-05 2.25301E-06-1.35695E-18-4.78574E-19
 -1       459 1.56166E-04-1.19549E-05-6.16737E-05-5.53956E-07-1.37484E-18-1.40038E-18
 -1       460 1.60920E-04-1.83696E-05-6.07530E-05-1.18724E-07-1.88465E-18-1.44567E-18
 -1       461 1.55348E-04-3.07797E-05-5.32425E-05-3.61781E-06-2.55412E-18-2.35200E-18
 -1       462 1.38531E-04-5.05324E-05-3.77698E-05-2.08999E-05-9.19613E-19-1.52000E-18
 -1       463 1.11795E-04-5.38815E-05-2.48721E-05-3.60237E-05-1.84971E-19-1.92282E-18
 -1       464 6.33250E-05-4.24907E-05-9.03647E-06-4.36796E-05-6.95308E-19 4.13008E-19
 -1       465 2.48499E-05-2.69446E-05 7.84935E-07-2.79791E-05-2.71209E-19-1.36266E-19
 -1       466 1.55829E-04-4.05382E-05-4.93321E-05 6.07927E-06 2.83372E-18-1.21327E-18
 -1       467 9.85473E-05-5.36843E-05-1.90428E-05-4.09665E-05 1.00479E-18-1.40562E-18
 -1       468 1.45387E-04-4.54165E-05-4.30481E-05-7.27235E-07-1.47936E-18-4.43602E-18
 -1       469 1.42257E-04-5.21120E-05-3.88098E-05 7.65034E-06-1.24893E-19 1.70571E-19
 -1       470 4.71351E-05-3.05639E-05-6.71509E-06 3.84846E-05 8.26387E-20-5.83341E-19
 -1       471 9.59349E-05-2.54316E-05-3.02034E-05 5.60269E-06 1.29078E-18 1.43970E-19
 -1       472 8.94706E-05-1.36749E-05-3.25922E-05-3.23071E-06-5.23117E-19-1.89735E-18
 -1       473 9.01971E-05-1.46755E-05-3.24188E-05-5.94115E-06-7.99772E-19-2.06787E-18
 -1       474 8.56878E-05-1.07266E-05-3.22084E-05 6.82761E-07 1.46051E-19-1.89047E-18
 -1       475 8.55789E-05-1.09433E-05-3.20409E-05 9.29705E-07 4.67456E-19-1.93302E-18
 -1       476 8.72164E-05-1.25558E-05-3.20236E-05 2.07035E-06 6.76477E-19-1.80546E-18
 -1       477 8.91662E-05-1.44138E-05-3.20563E-05 4.19030E-06 9.96400E-19-1.55993E-18
 -1       478 9.10208E-05-1.63581E-05-3.20219E-05 6.47376E-06 1.26111E-18-1.21821E-18
 -1       479 9.31319E-05-1.88858E-05-3.18408E-05 8.37741E-06 1.38485E-18-8.52491E-19
 -1       480 9.53531E-05-2.68244E-05-2.93538E-05 2.69545E-06 1.18344E-18 8.91378E-20
 -1       481 9.57135E-05-2.55144E-05-3.00883E-05-5.01644E-06-9.58722E-19-1.05200E-18
 -1       482 1.44822E-04-5.17814E-05-4.01143E-05-1.85772E-06 1.29810E-18-3.74680E-18
 -1       483 9.65234E-05-2.76403E-05-2.94724E-05-1.01770E-06-4.96646E-19-8.44786E-19
 -1       484 9.46910E-05-2.67951E-05-2.91167E-05-2.13110E-07-4.31960E-19-4.02678E-19
 -1       485 9.30104E-05-2.56076E-05-2.89030E-05 3.16550E-08-1.53948E-19-6.80075E-19
 -1       486 9.42227E-05-2.63385E-05-2.90837E-05-4.70936E-07-1.84818E-19-7.19493E-19
 -1       487 9.50827E-05-2.68052E-05-2.92578E-05 5.10065E-07-5.43076E-19-1.07339E-18
 -1       488 9.56642E-05-2.70815E-05-2.93982E-05 1.86873E-06-2.51041E-19-1.33803E-18
 -1       489 9.63216E-05-2.74649E-05-2.95216E-05 3.09559E-06-2.91711E-19-8.54760E-19
 -1       490 9.68919E-05-2.77867E-05-2.96055E-05 3.94168E-06-3.72979E-19-2.45823E-19
 -1       491 9.73204E-05-2.80664E-05-2.95490E-05 4.43361E-06-1.84917E-19-1.64850E-19
 -1       492 9.70542E-05-2.84739E-05-2.92855E-05 4.44067E-06 6.10931E-20 4.27024E-20
 -1       493 9.75351E-05-2.86812E-05-2.95079E-05 4.99332E-06 1.28635E-19 1.32263E-20
 -1       494 9.84272E-05-2.90422E-05-2.97359E-05 5.55166E-06 3.24218E-19-3.50024E-19
 -1       495 9.95441E-05-2.96394E-05-2.99594E-05 5.98654E-06 4.32083E-19-1.20463E-19
 -1       496 1.00956E-04-3.05707E-05-3.01669E-05 6.13652E-06 6.78818E-20 5.01468E-21
 -1       497 1.02740E-04-3.19265E-05-3.03523E-05 5.77389E-06-3.88424E-19 6.91370E-20
 -1       498 1.04940E-04-3.37295E-05-3.05250E-05 4.61233E-06-7.86537E-19 1.87495E-19
 -1       499 1.07484E-04-3.58181E-05-3.07216E-05 2.35672E-06 3.12811E-19 6.66142E-19
 -1       500 1.10039E-04-3.76786E-05-3.10196E-05-1.15071E-06 1.47994E-19-6.34201E-19
 -1       501 1.11884E-04-3.83328E-05-3.15295E-05-5.62379E-06 3.29534E-19-1.02130E-18
 -1       502 1.12051E-04-3.66076E-05-3.23376E-05-9.90645E-06 4.27647E-19-7.64551E-19
 -1       503 1.09940E-04-3.20225E-05-3.34082E-05-1.18882E-05 5.70459E-19-3.54466E-20
 -1       504 1.06463E-04-2.60940E-05-3.44600E-05-9.33183E-06 6.77314E-19 5.06082E-19
 -1       505 1.04078E-04-2.23466E-05-3.50489E-05-2.28469E-06 6.33690E-19-8.34190E-19
 -1       506 1.04875E-04-2.35657E-05-3.48830E-05 6.01780E-06-4.42085E-19-6.40806E-19
 -1       507 1.08128E-04-2.88161E-05-3.40091E-05 1.12075E-05-1.20139E-18-1.81281E-18
 -1       508 1.11213E-04-3.44687E-05-3.28973E-05 1.14595E-05-1.20502E-18-1.72621E-18
 -1       509 1.12270E-04-3.77582E-05-3.19365E-05 8.11530E-06-4.05009E-19-1.45979E-18
 -1       510 1.11216E-04-3.82359E-05-3.12814E-05 3.55570E-06 7.14031E-20-4.69708E-20
 -1       511 1.08940E-04-3.68636E-05-3.08967E-05-5.09653E-07-1.28625E-18-3.33461E-19
 -1       512 1.06350E-04-3.47998E-05-3.06706E-05-3.38396E-06-1.57252E-18 7.62212E-19
 -1       513 1.03974E-04-3.28014E-05-3.05069E-05-5.03699E-06 8.24891E-20 1.25055E-18
 -1       514 1.02006E-04-3.11964E-05-3.03491E-05-5.71478E-06 8.11508E-19 5.13844E-19
 -1       515 1.00450E-04-3.00435E-05-3.01748E-05-5.71761E-06 6.69481E-19 9.23327E-19
 -1       516 9.92412E-05-2.92789E-05-2.99834E-05-5.30717E-06 9.16381E-19 8.79832E-19
 -1       517 9.83037E-05-2.88055E-05-2.97840E-05-4.68080E-06-5.95935E-19 3.69724E-19
 -1       518 9.75735E-05-2.85332E-05-2.95875E-05-3.97418E-06-5.31559E-19 1.82975E-19
 -1       519 9.70021E-05-2.83914E-05-2.94034E-05-3.27326E-06 1.26921E-18 1.22368E-18
 -1       520 9.65541E-05-2.83300E-05-2.92378E-05-2.62725E-06 9.34362E-19 2.23672E-18
 -1       521 9.62035E-05-2.83148E-05-2.90942E-05-2.05987E-06-1.12691E-18 2.15956E-18
 -1       522 9.59301E-05-2.83236E-05-2.89733E-05-1.57811E-06-1.06545E-19 6.62440E-19
 -1       523 9.57176E-05-2.83419E-05-2.88746E-05-1.17866E-06-5.08844E-19 1.21858E-19
 -1       524 9.55526E-05-2.83611E-05-2.87958E-05-8.52346E-07-1.99642E-19-9.36237E-19
 -1       525 9.54247E-05-2.83769E-05-2.87342E-05-5.87874E-07-2.78741E-18-1.80281E-19
 -1       526 9.44142E-05-2.76052E-05-2.86323E-05-2.38216E-07 5.98455E-19-1.78978E-19
 -1       527 9.42944E-05-2.77409E-05-2.85243E-05-1.12410E-06 2.65626E-19-4.65159E-19
 -1       528 9.44297E-05-2.79097E-05-2.85093E-05-1.79313E-06 4.68227E-19-3.18036E-19
 -1       529 9.47345E-05-2.80754E-05-2.85675E-05-2.30419E-06 7.16119E-19-1.07512E-19
 -1       530 9.51560E-05-2.82127E-05-2.86878E-05-2.75601E-06 8.42401E-19 4.76193E-19
 -1       531 9.56990E-05-2.83403E-05-2.88682E-05-3.21367E-06 2.91328E-19 3.78631E-19
 -1       532 9.63390E-05-2.84188E-05-2.91125E-05-3.73527E-06 3.34232E-19 3.29189E-19
 -1       533 9.71156E-05-2.85200E-05-2.93958E-05-4.37928E-06 1.87176E-19 2.08851E-19
 -1       534 9.80247E-05-2.86746E-05-2.97189E-05-5.15949E-06 4.82624E-19-9.71059E-20
 -1       535 9.91057E-05-2.89221E-05-3.00761E-05-6.04661E-06-3.45859E-20-1.96776E-21
 -1       536 1.00405E-04-2.93356E-05-3.04562E-05-6.97463E-06-1.78140E-19 3.69158E-19
 -1       537 1.01992E-04-3.00289E-05-3.08408E-05-7.80786E-06 1.42250E-20 3.68808E-19
 -1       538 1.03973E-04-3.11645E-05-3.12063E-05-8.30889E-06 4.29096E-19 8.79208E-19
 -1       539 1.06492E-04-3.29354E-05-3.15312E-05-8.10540E-06-8.56954E-19 1.03863E-18
 -1       540 1.09683E-04-3.54725E-05-3.18168E-05-6.67395E-06-1.42010E-18 6.49065E-19
 -1       541 1.13497E-04-3.85843E-05-3.21226E-05-3.42531E-06-1.85731E-19 5.91247E-19
 -1       542 1.17401E-04-4.13865E-05-3.26005E-05 1.96275E-06-5.20983E-20 7.70740E-19
 -1       543 1.20107E-04-4.20276E-05-3.34923E-05 8.90170E-06 4.98489E-19 1.14242E-18
 -1       544 1.19666E-04-3.81274E-05-3.49491E-05 1.49021E-05 9.36601E-20 8.93401E-19
 -1       545 1.14970E-04-2.94071E-05-3.68297E-05 1.48271E-05 2.34423E-19 5.86251E-19
 -1       546 1.11033E-04-2.24091E-05-3.81296E-05 6.06827E-06 9.59463E-19-3.24420E-20
 -1       547 1.11278E-04-2.26337E-05-3.81161E-05-6.62309E-06 1.37620E-18-6.69900E-20
 -1       548 1.15702E-04-3.02522E-05-3.67193E-05-1.46990E-05 9.02871E-19 9.88557E-19
 -1       549 1.19663E-04-3.84140E-05-3.48652E-05-1.43636E-05 1.31385E-20 7.00684E-19
 -1       550 1.19964E-04-4.20239E-05-3.34379E-05-8.50930E-06 1.57609E-19 6.30147E-19
 -1       551 1.17243E-04-4.12633E-05-3.25858E-05-1.67218E-06 1.00597E-18 1.07036E-19
 -1       552 1.13341E-04-3.84026E-05-3.21350E-05 3.57182E-06-1.33528E-19-1.06605E-19
 -1       553 1.09581E-04-3.52999E-05-3.18472E-05 6.65643E-06-1.21150E-18 1.78575E-18
 -1       554 1.06468E-04-3.28043E-05-3.15768E-05 7.94429E-06-5.09291E-19 6.68712E-19
 -1       555 1.04032E-04-3.10758E-05-3.12692E-05 8.02723E-06 1.26152E-18 1.92782E-18
 -1       556 1.02138E-04-2.99753E-05-3.09259E-05 7.41852E-06 3.41777E-19 2.54281E-18
 -1       557 1.00647E-04-2.93106E-05-3.05698E-05 6.48079E-06-2.98175E-19 1.18659E-18
 -1       558 9.94543E-05-2.89230E-05-3.02243E-05 5.44448E-06-4.40829E-19 1.16706E-18
 -1       559 9.84936E-05-2.87027E-05-2.99070E-05 4.44192E-06-1.57792E-18 1.42560E-18
 -1       560 9.77188E-05-2.85806E-05-2.96276E-05 3.53997E-06-1.48205E-18-1.92549E-19
 -1       561 9.70973E-05-2.85149E-05-2.93898E-05 2.76490E-06-3.98064E-19 1.16039E-18
 -1       562 9.66036E-05-2.84814E-05-2.91931E-05 2.11946E-06-3.36542E-19 2.31153E-18
 -1       563 9.62161E-05-2.84656E-05-2.90342E-05 1.59387E-06-5.78875E-19 1.94592E-18
 -1       564 9.59157E-05-2.84584E-05-2.89089E-05 1.17234E-06 9.00211E-19 2.86600E-18
 -1       565 9.56857E-05-2.84544E-05-2.88123E-05 8.36889E-07 7.14630E-19 2.44292E-18
 -1       566 9.55113E-05-2.84504E-05-2.87393E-05 5.70921E-07 1.40664E-19 1.79413E-18
 -1       567 9.53802E-05-2.84487E-05-2.86841E-05 3.57840E-07-4.07543E-19 2.26900E-18
 -1       568 9.49494E-05-2.78486E-05-2.87576E-05 5.01375E-07 1.68916E-18-8.87292E-19
 -1       569 9.48316E-05-2.77006E-05-2.87706E-05 3.81348E-07 7.93878E-19 1.12231E-18
 -1       570 9.52359E-05-2.82263E-05-2.87183E-05 5.02151E-07 1.02898E-18-4.71462E-19
 -1       571 9.50917E-05-2.80312E-05-2.87402E-05 5.43597E-07-3.14446E-19-6.77675E-19
 -1       572 9.47556E-05-2.76063E-05-2.87786E-05 2.02900E-07 4.36590E-19-5.04399E-19
 -1       573 9.47311E-05-2.75766E-05-2.87809E-05-5.80297E-09 5.55077E-19 1.74029E-18
 -1       574 9.47608E-05-2.76145E-05-2.87773E-05-2.12740E-07 6.72638E-19 2.22273E-18
 -1       575 9.48383E-05-2.77125E-05-2.87684E-05-3.83958E-07 8.03312E-19-4.57602E-19
 -1       576 9.49560E-05-2.78624E-05-2.87546E-05-4.99291E-07 2.08996E-18-1.17409E-18
 -1       577 9.50950E-05-2.80438E-05-2.87363E-05-5.38252E-07-9.30362E-19-4.56165E-19
 -1       578 9.52356E-05-2.82350E-05-2.87143E-05-4.95135E-07-3.62220E-18-2.03171E-18
 -1       579 2.88316E-05-1.45306E-05-5.48249E-06 1.50280E-05-1.25206E-18 4.36979E-18
 -1       580 8.79122E-05-4.86910E-05-1.65261E-05 4.06702E-05-1.86014E-18 3.63573E-18
 -1       581 9.47998E-05-2.74006E-05-2.88797E-05 9.41097E-07 6.96094E-19-5.70854E-20
 -1       582 1.42421E-04-3.11731E-05-4.81818E-05-1.29885E-05 1.74785E-18-2.23850E-18
 -1       583 5.49317E-05-3.07767E-05-9.81777E-06 3.73262E-05-2.39292E-18 2.97653E-18
 -1       584 3.05131E-05-1.52195E-05-5.90392E-06-1.88701E-05 1.07777E-18 4.70580E-19
 -1       585 1.34085E-04-8.90969E-06-5.42448E-05 4.42864E-06-1.00109E-18-2.40258E-18
 -1       586 5.72388E-05-3.29841E-05-9.88872E-06-3.88153E-05-1.57273E-18-3.60831E-18
 -1       587 8.77813E-05-1.22387E-05-3.24849E-05-5.64704E-07-1.25890E-19-1.95707E-18
 -1       588 1.33633E-04-1.20162E-05-5.27380E-05-7.01035E-06 2.12139E-18 1.05773E-19
 -1       589 1.42616E-04-5.43717E-05-3.80973E-05-2.07352E-06-2.17853E-19 1.09744E-18
 -1       590 1.34381E-04-1.16336E-05-5.32248E-05 5.87327E-06 1.36933E-18 2.20096E-19
 -1       591 1.37286E-04-2.81162E-05-4.73568E-05 1.44805E-05 9.71811E-19 1.54340E-18
 -1       592 1.27866E-04-6.07431E-05-2.87791E-05-2.13163E-05-9.34119E-19 1.31036E-18
 -1       593 8.92220E-05-4.85901E-05-1.70663E-05-3.98086E-05-1.57855E-18-2.66948E-19
 -1       594 3.05229E-05-1.55540E-05-5.77805E-06-1.79280E-05-1.38834E-19-2.21605E-18
 -1       595 5.59487E-05-3.14928E-05-9.91672E-06-3.94612E-05 3.73330E-19-1.13471E-18
 -1       596 2.51426E-05-1.35631E-05-4.28379E-06 9.86369E-06 3.37827E-19-1.93886E-18
 -1       597 9.04989E-05-5.00502E-05-1.70914E-05 4.17143E-05-3.89106E-19-4.09461E-19
 -1       598 1.18557E-04-5.82888E-05-2.57988E-05 3.08463E-05-7.17066E-19 1.11861E-18
 -1       599 1.40669E-04-3.03785E-05-4.77791E-05-9.52319E-06-3.22084E-19 1.24805E-18
 -1       600 1.34922E-04-1.27385E-05-5.29688E-05-8.03467E-06 4.50410E-19-2.91009E-19
 -1       601 1.39303E-04-1.99735E-05-5.16881E-05 9.33748E-06-1.51015E-18-2.78616E-18
 -1       602 1.31789E-04-5.99233E-05-3.08550E-05-1.71747E-05 8.62147E-19-2.74579E-18
 -1       603 9.40610E-05-2.13101E-05-3.12258E-05-9.47900E-06-1.28967E-18-1.18833E-18
 -1       604 9.61421E-05-2.34340E-05-3.11657E-05 9.00188E-06 1.55995E-18 2.68035E-19
 -1       605 1.27056E-04-6.16012E-05-2.80570E-05 2.37632E-05-1.03677E-18-1.24638E-18
 -1       606 9.06357E-05-1.58249E-05-3.21034E-05-7.87163E-06-1.04966E-18-2.20368E-18
 -1       607 1.23054E-04-9.09212E-06-4.93763E-05-2.73505E-06 3.73542E-19 2.75286E-21
 -1       608 1.32836E-04-5.90886E-05-3.16763E-05 1.42977E-05 1.13939E-19 1.60417E-18
 -1       609 4.00287E-05-1.79664E-05-8.82998E-06 2.43727E-05 7.29917E-19-1.67855E-18
 -1       610 8.28706E-05-4.29460E-05-1.67736E-05-3.94970E-05 1.30194E-18-1.71553E-18
 -1       611 1.13959E-04-5.68134E-05-2.43806E-05-2.76626E-05-1.57850E-18 3.64634E-19
 -1       612 1.36849E-04-4.30958E-05-4.05162E-05 1.41628E-05 6.55379E-19 1.09630E-18
 -1       613 1.37728E-04-4.23202E-05-4.11661E-05-8.08504E-06-2.09826E-19-3.51783E-20
 -1       614 9.53552E-05-2.83887E-05-2.86994E-05-4.34036E-07-3.75128E-18-2.51812E-19
 -1       615 7.45527E-05-3.94305E-05-1.46163E-05 4.05020E-05 3.34181E-19 1.04847E-19
 -1       616 1.37132E-04-3.35436E-05-4.48479E-05 1.12453E-05-7.43695E-19-3.72456E-18
 -1       617 8.80644E-05-1.53909E-05-3.11522E-05-5.95611E-07 6.06621E-19-1.71612E-18
 -1       618 8.52847E-05-1.26559E-05-3.12795E-05 8.09439E-08 1.19736E-19-1.55442E-18
 -1       619 9.27149E-05-1.96681E-05-3.13086E-05 3.64475E-06 9.57175E-19-1.21225E-18
 -1       620 9.41026E-05-2.15452E-05-3.11068E-05 5.18350E-06 1.16854E-18-9.32702E-19
 -1       621 9.55089E-05-2.45557E-05-3.04013E-05 4.65060E-06 1.24041E-18-5.69973E-19
 -1       622 1.34748E-04-5.02279E-05-3.64481E-05 4.09511E-06-4.66728E-19-3.94212E-18
 -1       623 9.25253E-05-2.53544E-05-2.88433E-05 3.20884E-06-1.64616E-19-1.55805E-18
 -1       624 1.02328E-04-3.48824E-05-2.85796E-05 7.92218E-06-2.95286E-18-2.33432E-18
 -1       625 9.46468E-05-2.65545E-05-2.90462E-05 1.56428E-06-5.67572E-19-1.15507E-18
 -1       626 9.50937E-05-2.63645E-05-2.94464E-05 6.02131E-07-6.13806E-19-1.50403E-18
 -1       627 9.52643E-05-2.60076E-05-2.97120E-05 1.77581E-06-1.95874E-19-1.12540E-18
 -1       628 9.60063E-05-2.65158E-05-2.98221E-05 3.24803E-06-3.65895E-20-6.48639E-19
 -1       629 9.67945E-05-2.72626E-05-2.98013E-05 4.12782E-06-3.37374E-20-5.64809E-19
 -1       630 9.71139E-05-2.76633E-05-2.96651E-05 4.54683E-06-3.40944E-19-4.32788E-19
 -1       631 9.65257E-05-2.80813E-05-2.91229E-05 4.64201E-06-3.18981E-19-8.10194E-19
 -1       632 9.59395E-05-2.78053E-05-2.92000E-05 5.28239E-06 3.75385E-20-5.73215E-19
 -1       633 9.63176E-05-2.79524E-05-2.92991E-05 6.01012E-06 2.84835E-19 1.91060E-19
 -1       634 9.69164E-05-2.83547E-05-2.93834E-05 6.73080E-06 4.96987E-19 3.05552E-19
 -1       635 9.78592E-05-2.91562E-05-2.94443E-05 7.34428E-06 1.60781E-19 9.88071E-20
 -1       636 9.93184E-05-3.05276E-05-2.94825E-05 7.68811E-06-4.76627E-19-3.01366E-19
 -1       637 1.01502E-04-3.26267E-05-2.95200E-05 7.51399E-06-7.48247E-20 4.31263E-19
 -1       638 1.04595E-04-3.54960E-05-2.96174E-05 6.46321E-06-2.34888E-19 4.69308E-19
 -1       639 1.08592E-04-3.88493E-05-2.98925E-05 4.06932E-06-6.30050E-19-3.49140E-19
 -1       640 1.12999E-04-4.17374E-05-3.05444E-05-8.35395E-08 1.18110E-19-4.22289E-19
 -1       641 1.16535E-04-4.23138E-05-3.18205E-05-5.82852E-06 2.43132E-19-2.50265E-19
 -1       642 1.17154E-04-3.85511E-05-3.37065E-05-1.13024E-05 5.58837E-19-1.34956E-18
 -1       643 1.14195E-04-2.95829E-05-3.63164E-05-1.35712E-05 4.99098E-19-2.03221E-18
 -1       644 1.09069E-04-1.97262E-05-3.84875E-05-8.22586E-06-1.03510E-19-2.15957E-18
 -1       645 1.07856E-04-1.74757E-05-3.88961E-05 2.70907E-06 4.48504E-19-2.10064E-18
 -1       646 1.11272E-04-2.41385E-05-3.74643E-05 1.15285E-05-8.75524E-19-8.57500E-19
 -1       647 1.15949E-04-3.40644E-05-3.51513E-05 1.32508E-05-7.47358E-19-7.31272E-19
 -1       648 1.17360E-04-4.08379E-05-3.28139E-05 9.08947E-06 5.51181E-20-3.73288E-19
 -1       649 1.15140E-04-4.24597E-05-3.11442E-05 3.09179E-06 7.96113E-19-4.46992E-19
 -1       650 1.10970E-04-4.04895E-05-3.02044E-05-1.96260E-06-2.99349E-19-7.60080E-19
 -1       651 1.06650E-04-3.71950E-05-2.97674E-05-5.21028E-06-5.20545E-19 7.83845E-19
 -1       652 1.03055E-04-3.39786E-05-2.96046E-05-6.85891E-06-4.76790E-19 2.44182E-18
 -1       653 1.00406E-04-3.14356E-05-2.95587E-05-7.37758E-06-2.96354E-20 3.69601E-18
 -1       654 9.85916E-05-2.96660E-05-2.95392E-05-7.18587E-06-7.75460E-19 2.13632E-18
 -1       655 9.74037E-05-2.85564E-05-2.95055E-05-6.58954E-06 4.50582E-19 1.18051E-18
 -1       656 9.66458E-05-2.79361E-05-2.94465E-05-5.79463E-06 2.11411E-20-2.41714E-19
 -1       657 9.61673E-05-2.76471E-05-2.93654E-05-4.93477E-06-9.11178E-19-5.52948E-19
 -1       658 9.58642E-05-2.75658E-05-2.92704E-05-4.09315E-06-4.94127E-19-7.13503E-19
 -1       659 9.56691E-05-2.76040E-05-2.91704E-05-3.31813E-06 1.31834E-18-3.98714E-18
 -1       660 9.55398E-05-2.77029E-05-2.90727E-05-2.63402E-06 3.23402E-19-3.89729E-18
 -1       661 9.54506E-05-2.78245E-05-2.89824E-05-2.04899E-06-6.52292E-19-2.79020E-18
 -1       662 9.53852E-05-2.79458E-05-2.89025E-05-1.56071E-06-6.68876E-19-2.29079E-18
 -1       663 9.53347E-05-2.80542E-05-2.88342E-05-1.16070E-06-1.51615E-18-2.97962E-18
 -1       664 9.52903E-05-2.81425E-05-2.87774E-05-8.37772E-07-1.20830E-18-3.55037E-18
 -1       665 9.51903E-05-2.76036E-05-2.89722E-05-1.48948E-06 5.22823E-19-4.61368E-19
 -1       666 1.33774E-04-5.78620E-05-3.26382E-05-4.00117E-06-4.84205E-19 2.88282E-19
 -1       667 9.52546E-05-2.73168E-05-2.91252E-05-4.41671E-07 4.59047E-19-3.69962E-19
 -1       668 9.53537E-05-2.79692E-05-2.88730E-05-2.81880E-06 3.18670E-19-5.37620E-20
 -1       669 9.54579E-05-2.79871E-05-2.89091E-05-3.37881E-06 8.10671E-19-4.72552E-20
 -1       670 9.56224E-05-2.78961E-05-2.90261E-05-3.97709E-06 3.07828E-19-1.36950E-20
 -1       671 9.58555E-05-2.77718E-05-2.91780E-05-4.67427E-06 3.17687E-19-3.78980E-19
 -1       672 9.61446E-05-2.76522E-05-2.93530E-05-5.50432E-06 3.77875E-19 1.71513E-19
 -1       673 9.65100E-05-2.75850E-05-2.95382E-05-6.47393E-06 1.62730E-19 4.11372E-19
 -1       674 9.69988E-05-2.76555E-05-2.97175E-05-7.56095E-06-2.43291E-19 3.94228E-19
 -1       675 9.77051E-05-2.80035E-05-2.98713E-05-8.70206E-06-5.10340E-19 2.08478E-19
 -1       676 9.87994E-05-2.88475E-05-2.99793E-05-9.77263E-06-2.20897E-19 3.48357E-19
 -1       677 1.00565E-04-3.04956E-05-3.00307E-05-1.05538E-05-7.52139E-19 1.22662E-18
 -1       678 1.03413E-04-3.33107E-05-3.00460E-05-1.06834E-05-7.52990E-19 1.11031E-18
 -1       679 1.07866E-04-3.75738E-05-3.01260E-05-9.54342E-06-9.94230E-19 5.23227E-19
 -1       680 1.14073E-04-4.28448E-05-3.05233E-05-6.23202E-06-1.61206E-19 1.63793E-20
 -1       681 1.21324E-04-4.73331E-05-3.17025E-05 1.92372E-07 7.04609E-20 4.30454E-19
 -1       682 1.26782E-04-4.71483E-05-3.41572E-05 8.96309E-06 3.38628E-19 9.25420E-19
 -1       683 1.16838E-04-1.48767E-05-4.41377E-05-7.18026E-07 1.26655E-18 1.10017E-18
 -1       684 1.21191E-04-2.37884E-05-4.20791E-05-1.39775E-05 1.14934E-18-1.17923E-20
 -1       685 1.26209E-04-3.82088E-05-3.79748E-05-1.65476E-05 6.42832E-19 1.88677E-19
 -1       686 1.26201E-04-4.66184E-05-3.41693E-05-9.33433E-06 7.91579E-19-7.30262E-19
 -1       687 1.20844E-04-4.68052E-05-3.17462E-05-3.19205E-07 5.29998E-19-8.66808E-19
 -1       688 1.13893E-04-4.23216E-05-3.06777E-05 5.88649E-06-3.26777E-19-4.43455E-19
 -1       689 1.07968E-04-3.72504E-05-3.03096E-05 9.13561E-06-1.27718E-18 8.94895E-19
 -1       690 1.03681E-04-3.31554E-05-3.02282E-05 1.02469E-05-4.12116E-19 1.32696E-18
 -1       691 1.00909E-04-3.04438E-05-3.02009E-05 1.00867E-05-3.97549E-19 2.14108E-18
 -1       692 9.91681E-05-2.88459E-05-3.01380E-05 9.25290E-06 5.85153E-19 2.92831E-18
 -1       693 9.80719E-05-2.80148E-05-3.00235E-05 8.10800E-06 1.76063E-18 2.05837E-18
 -1       694 9.73554E-05-2.76573E-05-2.98693E-05 6.87377E-06-7.31422E-19 4.35290E-19
 -1       695 9.68579E-05-2.75674E-05-2.96946E-05 5.67866E-06-5.18702E-19 1.02523E-18
 -1       696 9.64902E-05-2.76153E-05-2.95166E-05 4.59134E-06-5.80081E-19-1.00003E-19
 -1       697 9.62047E-05-2.77241E-05-2.93477E-05 3.64248E-06-1.12050E-18-7.83800E-19
 -1       698 9.59766E-05-2.78515E-05-2.91956E-05 2.83921E-06-1.21841E-18-4.45533E-19
 -1       699 9.57921E-05-2.79749E-05-2.90638E-05 2.17468E-06-1.52253E-18-6.92485E-19
 -1       700 9.56425E-05-2.80838E-05-2.89532E-05 1.63499E-06-1.78240E-18 1.54050E-18
 -1       701 9.55201E-05-2.81722E-05-2.88629E-05 1.20237E-06 2.12007E-18 2.67950E-18
 -1       702 9.54200E-05-2.82396E-05-2.87910E-05 8.58778E-07 9.90919E-19 9.94137E-19
 -1       703 9.53140E-05-2.82289E-05-2.87504E-05 6.68301E-07 3.16809E-20 4.52908E-20
 -1       704 1.11810E-04-5.55228E-05-2.39935E-05 2.84100E-05-1.63011E-18-8.50838E-19
 -1       705 9.45184E-05-2.73574E-05-2.87834E-05 1.29727E-07 1.87830E-18 2.49034E-18
 -1       706 9.52635E-05-2.81934E-05-2.87442E-05-6.55169E-07-1.95611E-18-3.66098E-18
 -1       707 9.47425E-05-2.75874E-05-2.87808E-05 6.03857E-07 2.05376E-18-1.92014E-18
 -1       708 9.45236E-05-2.73647E-05-2.87825E-05-1.51951E-07 7.14900E-19 9.69791E-19
 -1       709 9.45944E-05-2.74343E-05-2.87830E-05 3.94493E-07 6.51650E-19 6.33294E-19
 -1       710 9.46061E-05-2.74520E-05-2.87804E-05-4.06569E-07 9.15158E-19 1.76587E-18
 -1       711 9.47567E-05-2.76117E-05-2.87766E-05-6.07361E-07 9.48832E-19-7.53564E-19
 -1       712 9.49555E-05-2.78248E-05-2.87704E-05-7.19260E-07 1.40089E-18-2.59973E-18
 -1       713 3.76066E-05-1.10083E-05-1.09139E-05-1.53012E-06 1.40665E-18 1.85458E-18
 -1       714 7.81589E-05-3.76866E-05-1.69589E-05-3.55563E-05-1.79568E-18-9.66120E-19
 -1       715 8.05964E-05-3.80912E-05-1.78789E-05 3.47080E-05-2.51194E-18 3.28082E-18
 -1       716 1.13394E-04-5.58159E-05-2.45380E-05-2.81052E-05 1.45565E-18-2.96545E-18
 -1       717 9.55093E-05-2.70118E-05-2.93622E-05 8.47108E-07 7.25812E-19-4.74259E-19
 -1       718 9.52591E-05-2.78550E-05-2.88896E-05-2.23639E-06 3.53336E-19-4.30163E-19
 -1       719 9.38979E-05-2.34636E-05-3.01616E-05-2.94893E-06-6.10211E-19-1.70423E-18
 -1       720 9.09083E-05-1.78922E-05-3.12747E-05 1.36445E-06 7.89282E-19-1.45803E-18
 -1       721 9.56938E-05-2.62806E-05-2.97514E-05 2.40419E-06 1.07224E-18-5.32581E-19
 -1       722 1.35184E-04-5.80024E-05-3.31683E-05 3.08322E-06-5.58512E-20-2.60017E-18
 -1       723 9.26439E-05-1.79107E-05-3.21391E-05-3.65104E-06-6.41048E-19-1.69923E-18
 -1       724 1.23331E-04-2.01530E-05-4.46486E-05 1.25364E-05 6.88400E-19 3.81691E-19
 -1       725 5.27596E-05-2.16884E-05-1.28655E-05-2.85913E-05 1.96473E-18-2.52945E-19
 -1       726 5.06626E-05-2.02768E-05-1.25399E-05-2.59924E-05-6.47663E-19-2.31849E-18
 -1       727 3.72524E-05-1.13489E-05-1.05629E-05-2.42540E-06 3.02238E-19-1.30443E-18
 -1       728 1.10520E-04-5.48584E-05-2.37487E-05 2.95306E-05 6.73179E-19 2.28774E-18
 -1       729 1.23100E-04-1.45038E-05-4.70593E-05 1.03719E-05-9.24060E-19-1.71560E-18
 -1       730 5.24759E-05-2.09424E-05-1.30894E-05 2.63432E-05-1.03813E-18 3.33599E-18
 -1       731 1.25178E-04-2.10987E-05-4.50596E-05-1.37938E-05 1.59825E-19-2.23405E-19
 -1       732 1.36155E-04-4.23382E-05-4.04461E-05-1.43175E-05 8.28557E-19-3.15938E-18
 -1       733 1.27049E-04-2.21230E-05-4.54510E-05-1.45875E-05 1.39284E-18-2.38704E-19
 -1       734 9.22697E-05-1.85670E-05-3.16002E-05-5.89818E-06-8.71524E-19-1.94216E-18
 -1       735 8.79470E-05-1.41518E-05-3.18988E-05 2.08760E-06-1.84448E-19-1.75282E-18
 -1       736 1.34953E-04-5.25822E-05-3.55441E-05-1.45023E-06 6.29379E-19-4.69097E-19
 -1       737 1.25254E-04-2.57583E-05-4.30269E-05 1.43510E-05-5.55468E-19-1.94540E-18
 -1       738 6.02237E-05-2.61080E-05-1.41909E-05 3.17193E-05 8.02736E-19-2.37672E-19
 -1       739 9.49423E-05-2.77989E-05-2.87760E-05 7.26319E-07 2.05204E-18 8.19166E-19
 -1       740 9.69445E-05-4.68138E-05-2.12781E-05 3.27553E-05 1.10239E-18 1.07535E-18
 -1       741 9.51354E-05-2.80140E-05-2.87663E-05 7.37289E-07-3.77851E-19-5.71545E-19
 -1       742 4.99664E-05-1.43750E-05-1.49103E-05-1.43364E-05 1.48868E-18-6.13278E-19
 -1       743 5.06183E-05-1.40697E-05-1.53318E-05 1.26450E-05 6.37286E-19 2.45772E-18
 -1       744 7.20255E-05-3.13831E-05-1.71279E-05-3.26284E-05 1.80950E-18-1.14470E-18
 -1       745 4.37304E-05-1.28490E-05-1.27869E-05 1.08012E-05 1.39559E-19-1.45520E-18
 -1       746 1.00462E-04-4.74152E-05-2.26067E-05-2.93281E-05-9.46811E-19-2.71951E-19
 -1       747 1.27085E-04-3.27276E-05-4.07299E-05-1.43960E-05-3.27246E-19-8.52208E-19
 -1       748 1.26537E-04-5.66507E-05-2.99238E-05-1.12545E-05 1.05084E-18-2.81538E-18
 -1       749 9.19474E-05-1.70858E-05-3.24041E-05-6.45472E-07-2.97613E-19-1.59504E-18
 -1       750 9.28236E-05-2.08465E-05-3.08654E-05-5.22709E-06-9.97996E-19-1.95305E-18
 -1       751 9.51067E-05-2.79698E-05-2.87730E-05-8.05428E-07-1.37161E-18-4.90416E-18
 -1       752 9.52008E-05-2.36919E-05-3.06478E-05 3.03238E-06 8.72284E-19-8.80574E-19
 -1       753 7.12076E-05-2.69324E-05-1.87198E-05 2.68240E-05-1.18935E-18 2.02267E-18
 -1       754 9.16236E-05-2.35606E-05-2.86288E-05-2.31331E-06 1.44821E-18-9.69906E-19
 -1       755 9.97179E-05-3.02054E-05-2.87547E-05-3.45151E-06 3.38113E-19-2.47760E-18
 -1       756 9.62251E-05-2.74281E-05-2.94343E-05-2.86871E-07-5.02797E-19-1.41325E-18
 -1       757 9.49211E-05-2.49205E-05-3.01320E-05 1.21097E-06-4.50489E-19-1.25626E-18
 -1       758 9.56293E-05-2.51662E-05-3.03886E-05 3.44897E-06 1.55431E-19-1.33003E-18
 -1       759 9.68649E-05-2.65997E-05-3.01578E-05 4.54716E-06 3.10470E-19-1.20343E-18
 -1       760 9.75977E-05-2.76582E-05-2.99215E-05 4.71444E-06 5.73766E-20-1.09931E-18
 -1       761 9.67888E-05-2.76049E-05-2.90976E-05 4.85728E-06-2.30309E-19-4.76535E-19
 -1       762 9.47068E-05-2.70239E-05-2.90069E-05 5.00622E-06-1.07537E-19 2.45431E-19
 -1       763 9.45810E-05-2.69144E-05-2.89999E-05 5.81265E-06 3.35874E-19-2.17738E-19
 -1       764 9.46046E-05-2.70147E-05-2.89670E-05 6.71212E-06 1.07336E-19-8.13018E-19
 -1       765 9.49042E-05-2.74817E-05-2.88952E-05 7.67732E-06 1.49753E-20-1.17195E-18
 -1       766 9.56762E-05-2.85230E-05-2.87798E-05 8.64599E-06-4.38218E-19-1.46968E-18
 -1       767 9.72053E-05-3.03913E-05-2.86347E-05 9.49365E-06-1.36261E-19-1.13518E-18
 -1       768 9.98642E-05-3.33383E-05-2.85123E-05 9.97655E-06-6.72721E-20-1.70303E-18
 -1       769 1.04050E-04-3.74821E-05-2.85332E-05 9.63816E-06-2.63756E-19-7.60762E-19
 -1       770 1.09992E-04-4.24897E-05-2.89211E-05 7.66067E-06-2.85613E-19-5.03823E-19
 -1       771 1.17005E-04-4.67442E-05-3.01107E-05 2.82783E-06 2.12868E-19-9.62233E-19
 -1       772 1.22859E-04-4.72272E-05-3.24843E-05-4.85242E-06-5.31566E-19-7.80127E-19
 -1       773 1.13846E-04-1.25393E-05-4.39817E-05-3.66104E-06 7.47824E-19-1.04767E-18
 -1       774 1.24219E-04-4.38957E-05-3.45289E-05 9.11408E-06 1.70730E-21-1.26120E-18
 -1       775 1.20747E-04-4.77237E-05-3.13346E-05 1.05346E-06-2.10862E-19-1.61313E-18
 -1       776 1.14030E-04-4.50932E-05-2.95504E-05-5.28693E-06 3.95904E-19-6.29938E-19
 -1       777 1.07250E-04-4.01464E-05-2.87713E-05-8.61095E-06 1.09507E-18-2.86572E-19
 -1       778 1.02027E-04-3.53932E-05-2.85616E-05-9.71049E-06 2.82095E-19 6.01919E-20
 -1       779 9.84974E-05-3.17231E-05-2.86184E-05-9.56249E-06 3.15658E-19 1.90854E-19
 -1       780 9.63405E-05-2.92316E-05-2.87603E-05-8.80591E-06-6.58831E-19 8.05912E-19
 -1       781 9.51447E-05-2.77152E-05-2.88973E-05-7.79652E-06-1.53529E-18 2.21846E-18
 -1       782 9.45665E-05-2.69100E-05-2.89945E-05-6.71741E-06-2.17876E-18-2.02012E-19
 -1       783 9.43578E-05-2.65827E-05-2.90453E-05-5.66336E-06-9.38494E-19-1.99446E-18
 -1       784 9.43535E-05-2.65538E-05-2.90561E-05-4.68443E-06-1.66124E-19-3.78964E-19
 -1       785 9.44500E-05-2.66948E-05-2.90371E-05-3.80645E-06-3.18876E-19-4.51477E-19
 -1       786 9.45852E-05-2.69191E-05-2.89991E-05-3.04047E-06-6.00174E-19-3.51897E-18
 -1       787 9.47245E-05-2.71708E-05-2.89511E-05-2.38766E-06-4.05015E-19-5.70949E-18
 -1       788 9.48496E-05-2.74158E-05-2.88998E-05-1.84251E-06-3.52652E-20-6.04963E-18
 -1       789 9.49541E-05-2.76360E-05-2.88503E-05-1.39613E-06-1.25530E-18-5.87151E-18
 -1       790 9.50518E-05-2.78265E-05-2.88108E-05-1.07563E-06-1.23162E-18-4.18005E-18
 -1       791 9.51790E-05-2.74661E-05-2.90197E-05-3.73359E-06 2.73981E-19-2.96849E-19
 -1       792 9.54095E-05-2.76604E-05-2.90109E-05-3.11114E-06 3.41864E-19-6.24404E-19
 -1       793 9.47670E-05-2.68270E-05-2.91169E-05-5.19302E-06 1.72202E-19 8.25856E-20
 -1       794 9.45276E-05-2.64678E-05-2.91682E-05-6.12029E-06 1.04084E-19-4.48705E-19
 -1       795 9.42960E-05-2.61761E-05-2.91938E-05-7.20356E-06 5.82817E-20 1.47795E-19
 -1       796 9.41401E-05-2.60788E-05-2.91686E-05-8.44432E-06-4.99237E-20-2.16777E-19
 -1       797 9.42020E-05-2.63808E-05-2.90657E-05-9.82920E-06-5.05139E-19-1.85778E-19
 -1       798 9.47477E-05-2.73991E-05-2.88632E-05-1.13211E-05-1.08945E-18 6.02150E-19
 -1       799 9.62353E-05-2.95878E-05-2.85622E-05-1.28221E-05-4.56043E-19 2.87238E-19
 -1       800 9.93328E-05-3.34716E-05-2.82203E-05-1.40851E-05-7.01875E-19-2.98185E-19
 -1       801 1.05212E-04-3.97156E-05-2.80961E-05-1.44218E-05-1.82134E-19-7.03365E-19
 -1       802 1.14958E-04-4.80300E-05-2.86499E-05-1.25819E-05-2.41110E-19-4.94765E-19
 -1       803 1.25024E-04-5.32462E-05-3.07869E-05 5.29056E-06-2.68794E-19-1.22312E-18
 -1       804 1.14732E-04-4.74119E-05-2.87921E-05 1.17880E-05-1.88779E-19-1.56293E-18
 -1       805 1.05494E-04-3.94012E-05-2.83429E-05 1.37480E-05-1.17617E-18-9.10266E-19
 -1       806 9.97855E-05-3.33571E-05-2.84633E-05 1.34986E-05-9.95913E-19-7.49085E-19
 -1       807 9.66945E-05-2.95545E-05-2.87735E-05 1.23298E-05-1.42801E-18-9.09485E-22
 -1       808 9.51636E-05-2.73899E-05-2.90455E-05 1.08452E-05-1.09880E-19 1.31032E-18
 -1       809 9.45480E-05-2.63570E-05-2.92243E-05 9.31483E-06 8.83355E-19 1.49671E-18
 -1       810 9.44049E-05-2.60167E-05-2.93087E-05 7.85286E-06 8.79224E-19 2.53898E-18
 -1       811 9.44757E-05-2.60638E-05-2.93189E-05 6.50980E-06-1.94580E-19 1.13713E-18
 -1       812 9.46220E-05-2.63038E-05-2.92788E-05 5.31016E-06-3.14817E-19 1.82593E-18
 -1       813 9.47763E-05-2.66203E-05-2.92093E-05 4.26399E-06 5.07002E-19 2.68968E-19
 -1       814 9.49103E-05-2.69478E-05-2.91265E-05 3.37106E-06-9.83249E-19-1.11580E-18
 -1       815 9.50151E-05-2.72516E-05-2.90412E-05 2.62351E-06-1.74264E-18-1.13436E-18
 -1       816 9.50911E-05-2.75162E-05-2.89605E-05 2.00771E-06-2.72728E-18-6.64057E-19
 -1       817 9.51420E-05-2.77357E-05-2.88883E-05 1.51085E-06-9.71297E-20-2.34142E-18
 -1       818 9.51706E-05-2.79091E-05-2.88262E-05 1.11245E-06 1.52657E-18 7.38070E-20
 -1       819 9.51485E-05-2.79637E-05-2.87938E-05 9.10497E-07 1.06024E-18-5.45930E-19
 -1       820 9.42873E-05-2.71179E-05-2.87870E-05-3.74483E-07 1.45344E-18 2.95721E-18
 -1       821 9.47154E-05-2.75231E-05-2.87959E-05-8.89783E-07-1.03341E-18-2.73428E-18
 -1       822 9.42221E-05-2.70539E-05-2.87865E-05-1.77465E-08 1.15166E-18 6.62858E-19
 -1       823 1.22186E-04-5.48582E-05-2.87608E-05 1.31403E-05-1.62660E-19-2.39493E-18
 -1       824 9.58605E-05-2.64992E-05-2.97445E-05 6.25854E-07 5.43324E-19-3.60939E-19
 -1       825 1.13650E-04-5.16826E-05-2.64951E-05-1.93987E-05 7.77146E-19-2.36204E-18
 -1       826 9.44557E-05-2.72785E-05-2.87903E-05-6.76019E-07 6.32488E-19 4.60746E-19
 -1       827 9.08503E-05-2.13154E-05-3.00455E-05-1.93618E-06-4.95389E-19-2.27934E-18
 -1       828 1.24423E-04-5.59153E-05-2.93624E-05 1.21022E-05-9.42688E-20-4.56590E-19
 -1       829 1.00694E-04-4.53183E-05-2.36897E-05 2.62215E-05-1.39259E-18 3.64079E-19
 -1       830 5.35887E-05-1.46506E-05-1.64126E-05-1.25174E-05 5.52325E-19-1.88379E-18
 -1       831 9.49866E-05-2.71763E-05-2.90614E-05-4.40698E-06 2.69186E-19 9.52435E-20
 -1       832 9.57001E-05-2.68965E-05-2.94992E-05-7.96376E-07 4.77581E-19-5.45756E-19
 -1       833 1.23730E-04-5.44271E-05-2.96696E-05-1.00024E-05-1.35317E-19-3.43723E-19
 -1       834 7.16524E-05-2.74380E-05-1.86929E-05-2.71717E-05-7.70588E-19-1.34063E-18
 -1       835 9.62326E-05-4.46780E-05-2.19072E-05-3.05478E-05 1.58386E-18-3.31549E-18
 -1       836 1.26619E-04-5.01574E-05-3.28919E-05 1.60635E-06 5.91484E-20-3.49983E-18
 -1       837 9.56543E-05-2.50565E-05-3.02599E-05 2.99395E-06 1.11750E-18-6.20647E-19
 -1       838 1.29110E-04-4.17498E-05-3.76525E-05 1.09017E-05 1.01247E-19-3.47290E-18
 -1       839 8.71385E-05-1.72801E-05-2.97880E-05-4.59174E-06 2.52098E-19-1.22247E-18
 -1       840 8.13270E-05-1.15257E-05-3.04918E-05 2.34443E-06-6.15793E-19-1.09140E-18
 -1       841 9.50148E-05-2.08297E-05-3.14954E-05-3.34431E-06-5.20383E-19-1.46030E-18
 -1       842 9.02060E-05-3.59435E-05-2.31755E-05 2.47163E-05-9.73079E-19 1.13749E-18
 -1       843 9.27404E-05-2.15674E-05-3.03349E-05-1.75782E-06 6.87950E-19-1.45770E-18
 -1       844 8.12075E-05-3.48517E-05-1.96730E-05 3.08008E-05 1.43325E-18 8.79273E-19
 -1       845 9.46822E-05-2.74764E-05-2.88023E-05 8.86172E-07 5.26930E-19-1.99606E-19
 -1       846 1.22128E-04-3.13426E-05-3.90997E-05 1.40275E-05-1.30046E-19-2.04346E-18
 -1       847 9.45218E-05-2.27498E-05-3.07248E-05 1.38086E-06 6.59265E-19-1.27755E-18
 -1       848 9.57368E-05-2.74408E-05-2.92747E-05-1.80534E-06 4.50026E-19-7.09589E-19
 -1       849 9.56436E-05-2.76712E-05-2.91204E-05-2.47282E-06 1.11205E-19-6.43537E-19
 -1       850 9.44301E-05-2.72410E-05-2.87953E-05 6.57648E-07 9.46978E-19-1.74260E-19
 -1       851 9.42715E-05-2.70963E-05-2.87895E-05 3.41608E-07 1.92953E-18 2.56625E-18
 -1       852 5.29051E-05-1.25321E-05-1.70854E-05-4.35607E-07 9.76947E-19 6.50786E-19
 -1       853 6.15933E-05-2.07832E-05-1.72475E-05-2.29159E-05 1.03258E-18-4.79950E-19
 -1       854 5.60666E-05-1.81476E-05-1.59593E-05 2.04530E-05 4.42217E-19-7.95205E-19
 -1       855 8.92801E-05-3.66970E-05-2.24438E-05-2.63010E-05-6.23056E-19-9.21142E-19
 -1       856 5.30495E-05-1.28064E-05-1.70126E-05-2.38698E-06-2.01189E-19-2.07628E-18
 -1       857 9.60238E-05-2.62084E-05-2.99385E-05 1.78180E-06 7.65123E-19-4.55437E-19
 -1       858 9.42694E-05-1.96154E-05-3.22153E-05-2.13376E-06-1.22515E-19-1.34870E-18
 -1       859 1.15456E-04-5.36535E-05-2.67181E-05 1.99214E-05 5.68836E-20 8.53093E-19
 -1       860 9.48687E-05-2.76619E-05-2.88028E-05-9.94366E-07-2.39733E-18-3.98731E-18
 -1       861 8.85786E-05-1.65553E-05-3.04377E-05-6.36855E-06 3.47813E-19-1.53879E-18
 -1       862 9.53599E-05-2.83389E-05-2.81664E-05-1.43398E-06-4.40484E-19-6.71432E-19
 -1       863 9.45153E-05-2.40692E-05-3.05767E-05-2.80597E-07-5.18861E-19-1.09680E-18
 -1       864 9.50706E-05-2.28751E-05-3.17675E-05 3.79748E-06-1.67130E-19-1.20673E-18
 -1       865 9.75089E-05-2.58714E-05-3.09049E-05 5.24739E-06 2.06401E-19-1.46388E-18
 -1       866 9.79698E-05-2.74564E-05-3.02357E-05 4.82272E-06 7.59192E-20-1.55863E-18
 -1       867 9.70430E-05-2.72937E-05-2.97587E-05 4.73622E-06 2.89740E-19-1.55902E-18
 -1       868 9.47509E-05-2.65110E-05-2.89501E-05 4.43460E-06-3.51783E-20-1.26905E-18
 -1       869 9.33075E-05-2.60493E-05-2.88249E-05 5.05076E-06-2.00039E-19-1.29163E-18
 -1       870 9.27799E-05-2.58103E-05-2.87012E-05 5.97603E-06 2.91499E-20-1.33346E-18
 -1       871 9.23852E-05-2.58311E-05-2.85231E-05 7.07931E-06 1.39496E-19-1.61240E-18
 -1       872 9.22779E-05-2.63041E-05-2.82744E-05 8.38880E-06-1.12334E-19-1.40650E-18
 -1       873 9.27061E-05-2.74911E-05-2.79492E-05 9.92202E-06-1.35202E-19-1.09126E-18
 -1       874 9.40579E-05-2.97343E-05-2.75669E-05 1.16520E-05-4.36383E-19-1.25657E-18
 -1       875 9.69132E-05-3.34365E-05-2.72028E-05 1.34013E-05 4.66856E-19-1.48733E-18
 -1       876 1.01983E-04-3.88911E-05-2.70387E-05 1.46028E-05 5.36013E-22-9.32924E-19
 -1       877 1.10081E-04-4.63084E-05-2.73202E-05 1.43019E-05-2.07404E-19-5.33207E-19
 -1       878 1.02187E-04-4.23809E-05-2.55723E-05-1.99972E-05 1.13072E-18-1.58382E-18
 -1       879 9.50777E-05-3.48429E-05-2.58049E-05-1.74915E-05 4.64664E-19-2.58948E-18
 -1       880 9.15291E-05-2.98772E-05-2.64219E-05-1.43283E-05 1.12927E-19-2.91821E-18
 -1       881 9.00133E-05-2.68783E-05-2.70599E-05-1.15176E-05 4.33619E-19-3.17703E-18
 -1       882 8.96501E-05-2.52376E-05-2.76079E-05-9.22011E-06-1.95235E-18-3.99295E-18
 -1       883 8.99131E-05-2.44995E-05-2.80366E-05-7.38939E-06-1.86740E-18-4.46040E-18
 -1       884 9.04855E-05-2.43386E-05-2.83504E-05-5.92704E-06-1.03253E-18-3.02938E-18
 -1       885 9.11815E-05-2.45297E-05-2.85664E-05-4.74621E-06 1.04572E-18-2.85167E-18
 -1       886 9.18924E-05-2.49171E-05-2.87047E-05-3.78338E-06 7.78196E-19-1.79368E-18
 -1       887 9.25574E-05-2.53949E-05-2.87846E-05-2.99429E-06-1.46201E-18-1.32780E-18
 -1       888 9.31460E-05-2.58935E-05-2.88230E-05-2.34779E-06-1.24730E-18-1.18116E-18
 -1       889 9.36460E-05-2.63687E-05-2.88335E-05-1.82049E-06-9.10676E-19-2.56562E-18
 -1       890 9.40560E-05-2.67952E-05-2.88265E-05-1.39510E-06-6.74471E-19-2.07945E-18
 -1       891 9.49906E-05-2.71333E-05-2.90817E-05-3.13614E-06-9.57593E-20-2.46567E-19
 -1       892 9.24054E-05-2.50635E-05-2.88607E-05-6.13034E-06-3.62443E-19-1.27413E-19
 -1       893 9.32074E-05-2.56673E-05-2.89457E-05-5.19764E-06 5.34300E-19-4.60886E-20
 -1       894 9.06244E-05-2.42299E-05-2.84545E-05-8.58973E-06-3.41627E-19-4.59357E-19
 -1       895 8.98545E-05-2.43845E-05-2.80583E-05-1.02488E-05-8.21071E-19-7.95947E-19
 -1       896 8.94984E-05-2.53656E-05-2.74862E-05-1.23501E-05-4.08865E-19-9.22804E-19
 -1       897 9.01077E-05-2.77516E-05-2.67273E-05-1.50563E-05-3.14380E-19-1.19017E-18
 -1       898 9.28801E-05-3.23943E-05-2.58814E-05-1.84948E-05-9.14862E-20-8.39836E-19
 -1       899 9.59072E-05-2.56489E-05-3.00945E-05 3.24046E-07 5.06929E-19-5.85284E-19
 -1       900 9.38829E-05-2.67131E-05-2.87873E-05-2.65316E-07 1.78068E-18 2.42103E-18
 -1       901 9.36209E-05-3.24644E-05-2.61777E-05 1.78803E-05-1.81062E-18-1.99177E-19
 -1       902 9.07169E-05-2.77931E-05-2.69705E-05 1.46331E-05-1.93476E-18 2.65567E-19
 -1       903 8.99618E-05-2.53720E-05-2.76818E-05 1.19908E-05-8.58312E-19 9.17556E-19
 -1       904 9.01677E-05-2.43283E-05-2.82168E-05 9.87982E-06 5.03628E-19 5.81073E-19
 -1       905 9.07942E-05-2.41013E-05-2.85825E-05 8.15951E-06 6.75753E-19 6.75750E-19
 -1       906 9.15516E-05-2.43281E-05-2.88099E-05 6.72189E-06 1.57265E-18 7.97157E-19
 -1       907 9.22933E-05-2.47803E-05-2.89340E-05 5.49908E-06-1.66682E-19-7.19896E-19
 -1       908 9.29523E-05-2.53180E-05-2.89861E-05 4.45317E-06 9.20956E-19 1.32646E-20
 -1       909 9.35059E-05-2.58600E-05-2.89910E-05 3.56221E-06 1.04673E-18 2.35836E-18
 -1       910 9.39535E-05-2.63623E-05-2.89676E-05 2.81138E-06-2.15259E-18 2.64969E-18
 -1       911 9.43054E-05-2.68036E-05-2.89292E-05 2.18669E-06-1.24080E-18 9.94763E-19
 -1       912 9.45701E-05-2.71746E-05-2.88842E-05 1.67125E-06-1.49554E-19-1.20669E-18
 -1       913 9.47718E-05-2.74766E-05-2.88404E-05 1.25814E-06-5.21024E-19 2.11756E-19
 -1       914 9.49240E-05-2.77215E-05-2.88010E-05 9.38150E-07 8.64769E-19 1.52190E-18
 -1       915 6.90687E-05-2.06431E-05-2.06428E-05-1.77134E-05-9.35364E-19-1.14920E-18
 -1       916 9.65761E-05-2.15545E-05-3.27545E-05 4.20110E-06-5.56924E-19-2.07830E-18
 -1       917 9.15227E-05-2.45348E-05-2.87089E-05-7.24422E-06-2.53908E-20-4.68321E-19
 -1       918 6.53631E-05-1.88063E-05-1.98207E-05 1.64753E-05-1.09037E-18 2.07008E-18
 -1       919 9.66918E-05-2.89675E-05-2.77161E-05 7.16320E-07 5.84347E-19-5.34584E-19
 -1       920 9.61538E-05-2.68051E-05-2.97014E-05-1.15737E-06 5.93838E-19-2.92829E-19
 -1       921 7.93009E-05-2.60361E-05-2.27771E-05 2.00097E-05-1.22826E-18 2.21172E-18
 -1       922 1.02536E-04-4.57955E-05-2.40860E-05 2.49288E-05 3.02351E-19 1.36956E-18
 -1       923 7.25700E-05-2.60072E-05-1.98183E-05 2.47255E-05 1.27921E-18 1.55200E-18
 -1       924 9.63644E-05-2.70654E-05-2.86575E-05-4.55258E-06 9.96323E-19-1.60486E-18
 -1       925 9.62977E-05-2.53396E-05-3.04068E-05 1.82822E-06 5.16503E-19-7.79419E-19
 -1       926 9.44992E-05-2.67568E-05-2.90324E-05-3.73621E-06 1.09931E-19 1.93616E-19
 -1       927 9.43859E-05-2.71494E-05-2.88151E-05-1.11536E-06 5.99781E-19-2.68204E-18
 -1       928 6.28791E-05-1.51333E-05-2.03776E-05 7.56075E-06 2.84586E-19 1.71729E-19
 -1       929 9.54772E-05-2.73294E-05-2.91661E-05-2.51945E-06-1.60572E-20-5.15785E-19
 -1       930 9.39062E-05-2.62524E-05-2.89945E-05-4.41051E-06 4.52373E-19-5.62678E-20
 -1       931 9.64824E-05-2.58619E-05-3.02587E-05 1.64446E-06 5.79450E-19-5.48585E-19
 -1       932 9.38680E-05-2.66941E-05-2.87890E-05 1.97877E-07 2.01318E-19 1.40844E-18
 -1       933 8.43778E-05-3.37598E-05-2.15696E-05-2.70356E-05 1.59279E-18-3.05435E-18
 -1       934 6.44774E-05-1.67259E-05-2.03439E-05-1.14439E-05-5.74171E-19-1.43219E-18
 -1       935 6.12333E-05-1.58561E-05-1.93040E-05-1.18943E-05 2.27125E-18 3.50447E-19
 -1       936 8.04650E-05-2.70703E-05-2.28374E-05-2.04944E-05-5.02633E-19-1.87714E-18
 -1       937 5.73673E-05-1.41110E-05-1.83869E-05 7.35090E-06 5.22711E-19-1.20973E-18
 -1       938 9.40430E-05-2.68577E-05-2.87941E-05-6.91094E-07 8.75796E-19 1.39115E-18
 -1       939 9.42910E-05-2.70519E-05-2.88170E-05 1.00721E-06-1.84489E-19-1.00649E-18
 -1       940 8.14244E-05-1.84980E-05-2.63039E-05-1.63372E-05 5.21772E-19 2.21933E-18
 -1       941 9.44172E-05-2.05808E-05-3.17176E-05-1.91691E-06-1.58025E-19-1.13661E-18
 -1       942 8.26812E-05-2.24086E-05-2.58300E-05-1.22227E-05-1.21159E-19-1.47252E-18
 -1       943 9.42718E-05-1.80262E-05-3.56307E-05 3.84223E-06-7.71647E-19-1.76066E-18
 -1       944 1.01107E-04-2.65208E-05-3.26726E-05 7.21405E-06 1.76725E-19-1.56473E-18
 -1       945 9.96775E-05-2.79332E-05-3.07826E-05 3.83009E-06 2.71650E-19-1.22465E-18
 -1       946 9.75896E-05-2.78770E-05-2.97888E-05 2.71541E-06 2.68715E-19-9.34282E-19
 -1       947 9.48820E-05-2.61226E-05-2.93011E-05 2.92481E-06-3.13270E-20-1.24221E-18
 -1       948 9.27686E-05-2.54512E-05-2.87555E-05 3.82352E-06-8.09033E-20-1.21835E-18
 -1       949 9.15777E-05-2.49122E-05-2.85712E-05 4.68385E-06 1.35340E-19-4.53281E-19
 -1       950 9.05783E-05-2.44953E-05-2.83216E-05 5.69941E-06 7.40605E-21-4.06242E-19
 -1       951 8.96314E-05-2.43453E-05-2.79802E-05 7.00266E-06-1.57491E-19-1.28996E-18
 -1       952 8.88740E-05-2.46620E-05-2.75204E-05 8.70092E-06-6.76000E-20-1.34679E-18
 -1       953 8.85444E-05-2.57291E-05-2.69216E-05 1.09327E-05-3.34885E-19-1.16743E-18
 -1       954 8.90423E-05-2.79510E-05-2.61813E-05 1.38730E-05 3.04756E-19-1.11210E-18
 -1       955 9.10856E-05-3.19528E-05-2.53480E-05 1.76753E-05 2.37945E-19-7.86148E-19
 -1       956 9.13458E-05-2.44067E-05-2.86882E-05-4.61559E-06 3.24033E-19-4.94734E-19
 -1       957 8.21787E-05-2.77553E-05-2.32662E-05-2.01304E-05 6.48179E-21-2.11955E-18
 -1       958 8.24078E-05-2.44956E-05-2.48121E-05-1.45909E-05 5.73102E-19-1.58151E-18
 -1       959 8.35421E-05-2.29043E-05-2.59883E-05-1.06349E-05 2.56753E-19-1.19030E-18
 -1       960 8.50085E-05-2.23140E-05-2.68694E-05-7.91719E-06-1.28460E-18-1.81702E-18
 -1       961 8.65154E-05-2.23110E-05-2.75163E-05-5.99591E-06-2.77356E-18-1.91200E-18
 -1       962 8.79538E-05-2.26663E-05-2.79803E-05-4.59587E-06-2.17328E-19-2.36304E-18
 -1       963 8.92709E-05-2.32298E-05-2.83031E-05-3.54949E-06 1.38385E-19-2.25851E-18
 -1       964 9.04397E-05-2.38946E-05-2.85192E-05-2.74997E-06 5.10012E-19-2.97204E-18
 -1       965 9.14511E-05-2.45859E-05-2.86564E-05-2.12876E-06-4.29844E-19-3.45608E-18
 -1       966 9.23064E-05-2.52532E-05-2.87370E-05-1.64083E-06-1.13744E-18-3.23578E-18
 -1       967 9.30160E-05-2.58665E-05-2.87786E-05-1.25901E-06-1.86805E-19-2.77319E-18
 -1       968 9.35917E-05-2.64042E-05-2.87946E-05-9.57949E-07 1.13937E-18-6.93952E-20
 -1       969 8.46366E-05-2.19343E-05-2.68724E-05-9.59390E-06-9.98206E-20-6.96117E-19
 -1       970 8.65790E-05-2.21580E-05-2.76091E-05-7.78087E-06-1.54240E-19-3.54794E-19
 -1       971 9.76696E-05-2.59163E-05-3.05041E-05 1.79558E-06 5.21455E-19-2.17172E-18
 -1       972 9.06060E-05-3.17758E-05-2.13925E-05-1.60717E-06-2.01001E-18 2.30996E-18
 -1       973 8.19326E-05-2.43176E-05-2.46791E-05 1.59643E-05-1.52949E-18 1.08939E-18
 -1       974 8.49587E-05-2.18766E-05-2.70360E-05 9.43981E-06-2.70657E-19-9.32186E-19
 -1       975 9.01473E-05-1.69147E-05-3.05090E-05 2.94708E-05-6.38822E-18-4.32283E-18
 -1       976 8.66944E-05-2.19877E-05-2.77317E-05 7.56253E-06 1.02096E-18 6.31555E-19
 -1       977 8.82996E-05-2.24903E-05-2.82041E-05 6.15421E-06 8.48522E-19-5.95866E-19
 -1       978 8.97111E-05-2.31853E-05-2.85110E-05 5.03265E-06 5.41338E-19 5.23668E-19
 -1       979 9.09116E-05-2.39473E-05-2.86990E-05 4.10426E-06-1.43847E-20 1.04043E-18
 -1       980 9.19073E-05-2.46986E-05-2.88038E-05 3.32038E-06-8.19630E-19 1.60876E-18
 -1       981 9.27165E-05-2.53943E-05-2.88524E-05 2.65505E-06-9.82739E-20 3.76514E-18
 -1       982 9.33629E-05-2.60112E-05-2.88651E-05 2.09948E-06-2.36977E-19 1.71719E-18
 -1       983 9.38680E-05-2.65372E-05-2.88561E-05 1.63564E-06 2.34216E-19-6.30339E-20
 -1       984 9.40132E-05-2.68128E-05-2.88001E-05 6.43164E-07 6.04845E-19 1.38036E-18
 -1       985 9.59211E-05-2.72783E-05-2.93955E-05-1.84381E-06 2.70042E-19-4.79828E-19
 -1       986 6.43362E-05-1.46635E-05-2.12303E-05-2.52316E-06 1.77711E-19-7.16520E-20
 -1       987 9.55893E-05-1.99205E-05-3.24456E-05-6.17441E-06 1.44292E-18-1.60624E-18
 -1       988 9.68708E-05-2.58304E-05-3.02371E-05 2.12177E-07 5.69094E-19-1.66061E-18
 -1       989 9.29881E-05-2.53836E-05-2.93796E-05 1.81568E-06-1.24763E-18-2.30816E-19
 -1       990 9.76583E-05-2.64220E-05-3.02967E-05 1.17986E-06 6.69527E-19-1.98613E-18
 -1       991 8.32619E-05-2.24860E-05-2.60463E-05 1.20847E-05-1.65115E-18 8.62323E-20
 -1       992 8.84461E-05-2.00743E-05-3.01442E-05 4.42381E-06 6.97082E-19 2.12436E-18
 -1       993 9.65056E-05-2.55083E-05-3.00808E-05-3.18305E-07 1.58905E-19-1.67125E-18
 -1       994 9.25255E-05-2.52194E-05-2.88456E-05-3.92914E-06 3.73937E-19-3.84321E-19
 -1       995 8.99639E-05-2.35594E-05-2.84591E-05-5.43935E-06 1.14371E-19-6.62126E-19
 -1       996 9.60172E-05-3.85813E-05-2.44617E-05 2.23807E-05 4.54519E-19-6.65561E-19
 -1       997 6.70087E-05-1.87244E-05-2.06173E-05 1.47926E-05 1.42551E-18 3.44210E-19
 -1       998 7.21267E-05-1.98300E-05-2.23456E-05 1.44451E-05-1.04744E-18 2.03985E-18
 -1       999 9.49953E-05-2.68742E-05-2.91947E-05-2.33232E-06-1.49800E-19-1.34649E-19
 -1      1000 9.33977E-05-2.62449E-05-2.87799E-05-5.23377E-08 2.34623E-18 3.36752E-18
 -1      1001 8.09810E-05-2.40812E-05-2.43699E-05-1.61460E-05-5.13605E-19-1.72799E-18
 -1      1002 7.13370E-05-2.16999E-05-2.12321E-05-1.82399E-05 1.60065E-18-6.33402E-19
 -1      1003 9.33749E-05-2.61540E-05-2.88089E-05 1.12142E-06 8.66873E-19 1.84012E-18
 -1      1004 6.30433E-05-1.47100E-05-2.06277E-05-3.50934E-06-4.22416E-20-1.37733E-18
 -1      1005 7.30463E-05-2.05553E-05-2.24310E-05-1.50355E-05-6.09432E-19-1.55681E-18
 -1      1006 9.43397E-05-2.65030E-05-2.90728E-05-2.82202E-06 2.56150E-20-2.12273E-19
 -1      1007 6.90516E-05-1.72907E-05-2.21425E-05-1.01164E-05 5.56612E-19-6.61727E-19
 -1      1008 9.97473E-05-2.91554E-05-2.87041E-05-1.96840E-06 1.46568E-18-2.21922E-18
 -1      1009 8.83717E-05-2.27663E-05-2.81167E-05-6.45929E-06-5.76709E-19-3.67373E-19
 -1      1010 1.07141E-04-4.03098E-05-2.23127E-05-1.34398E-05 3.66469E-18-3.43684E-19
 -1      1011 8.01287E-05-2.62153E-05-2.30530E-05 1.91183E-05 9.03009E-19-2.93938E-19
 -1      1012 9.34401E-05-2.62784E-05-2.87828E-05-5.18803E-07 2.17535E-18 1.36365E-18
 -1      1013 8.51406E-05-2.10548E-05-2.74664E-05-4.67100E-06-5.41327E-19-4.61218E-19
 -1      1014 1.05240E-04-3.22362E-05-3.12935E-05-7.53589E-07 1.01739E-18-1.78314E-18
 -1      1015 9.73568E-05-2.78488E-05-2.92267E-05-2.45012E-07 5.36887E-19-1.08783E-18
 -1      1016 9.34516E-05-2.55434E-05-2.89655E-05 1.29903E-06-1.19174E-19-4.85414E-19
 -1      1017 9.23871E-05-2.50335E-05-2.87691E-05 2.36940E-06 1.68809E-19-7.24455E-19
 -1      1018 9.10416E-05-2.44178E-05-2.85535E-05 3.06504E-06 7.87050E-19-1.12603E-19
 -1      1019 8.96253E-05-2.36642E-05-2.82699E-05 3.82607E-06-4.44410E-19-6.68485E-19
 -1      1020 8.80663E-05-2.30031E-05-2.78854E-05 4.84511E-06-2.96362E-19-9.67116E-19
 -1      1021 8.63797E-05-2.25474E-05-2.73589E-05 6.24246E-06-2.25587E-20-8.85444E-19
 -1      1022 8.46080E-05-2.24568E-05-2.66407E-05 8.20934E-06 9.12060E-20-9.87099E-19
 -1      1023 8.28679E-05-2.29918E-05-2.56638E-05 1.10147E-05-1.97216E-19-3.15722E-19
 -1      1024 8.12696E-05-2.40508E-05-2.45198E-05 1.44020E-05 3.84969E-19-6.87360E-19
 -1      1025 8.24069E-05-1.98584E-05-2.68072E-05 5.71341E-06-9.31149E-20-7.73185E-19
 -1      1026 7.70940E-05-1.95779E-05-2.46409E-05-9.04628E-06-1.42208E-19-1.41118E-18
 -1      1027 8.04503E-05-1.98862E-05-2.59564E-05-6.32949E-06-8.92494E-19-1.00603E-18
 -1      1028 8.31945E-05-2.04507E-05-2.68907E-05-4.50750E-06-1.54100E-18-3.55271E-19
 -1      1029 8.54628E-05-2.11829E-05-2.75484E-05-3.26961E-06-1.68971E-18 1.42207E-18
 -1      1030 8.73624E-05-2.20126E-05-2.80068E-05-2.40110E-06 1.22059E-19 6.36851E-19
 -1      1031 8.89584E-05-2.28794E-05-2.83194E-05-1.77797E-06-1.65416E-19 9.12585E-19
 -1      1032 9.02954E-05-2.37356E-05-2.85256E-05-1.32297E-06-9.36375E-19 3.53474E-19
 -1      1033 9.14060E-05-2.45437E-05-2.86551E-05-9.86430E-07-1.04662E-18-9.45716E-20
 -1      1034 9.23164E-05-2.52772E-05-2.87308E-05-7.34589E-07 3.34024E-19 1.31734E-18
 -1      1035 9.29277E-05-2.58082E-05-2.87651E-05-6.15858E-07 2.11962E-18 1.66956E-18
 -1      1036 7.88711E-05-1.92181E-05-2.55621E-05-7.18146E-06 7.62535E-19-8.31920E-19
 -1      1037 7.91896E-05-1.91475E-05-2.57332E-05 7.30128E-06-2.94624E-19 1.93793E-19
 -1      1038 8.23211E-05-2.00510E-05-2.66885E-05-5.66860E-06-1.98593E-19-5.28697E-19
 -1      1039-3.66177E-05 2.51419E-05-1.64732E-05 3.36491E-05-2.05357E-17 3.38762E-17
 -1      1040 7.44631E-05-1.86238E-05-2.39126E-05-9.53290E-06 1.43611E-19-1.80718E-18
 -1      1041 8.71203E-05-2.16830E-05-2.80446E-05 3.79717E-06 5.39237E-19 2.38777E-18
 -1      1042 8.88595E-05-2.26522E-05-2.83746E-05 3.14014E-06-2.48233E-19 2.33395E-18
 -1      1043 9.02819E-05-2.35854E-05-2.85843E-05 2.58502E-06-6.28834E-19 1.71914E-18
 -1      1044 9.14374E-05-2.44480E-05-2.87097E-05 2.10783E-06-1.29124E-18 8.88026E-19
 -1      1045 9.23622E-05-2.52164E-05-2.87770E-05 1.69091E-06 1.17219E-19 1.10025E-18
 -1      1046 9.29135E-05-2.57111E-05-2.87995E-05 1.38628E-06 1.60941E-18 1.21768E-18
 -1      1047 9.32870E-05-2.61213E-05-2.87848E-05 5.11442E-07 1.18792E-18 1.55568E-18
 -1      1048 8.49989E-05-2.07258E-05-2.75458E-05 4.61480E-06 7.51136E-19 1.08551E-18
 -1      1049 7.01621E-05-1.62245E-05-2.30867E-05 5.10977E-06-1.59181E-19-1.13756E-18
 -1      1050 9.37447E-05-2.70021E-05-2.95947E-05-7.49134E-06 1.07007E-17 5.14234E-18
 -1      1051 9.35190E-05-2.59354E-05-2.89644E-05-3.34203E-06 2.81237E-19-4.17164E-19
 -1      1052 9.55086E-05-2.69693E-05-2.93509E-05-1.79852E-06 3.02028E-20-3.82840E-20
 -1      1053 9.58133E-05-2.66948E-05-2.95698E-05-1.08487E-06 3.20810E-19-3.53989E-19
 -1      1054 7.24746E-05-5.90399E-06-1.62639E-05 1.01311E-05-7.85369E-18-1.86728E-18
 -1      1055 1.01952E-04-2.50215E-05-4.29443E-05-2.40227E-06-8.55164E-18-1.59154E-18
 -1      1056 1.21962E-04-3.83519E-05-3.67892E-05 1.48684E-05 8.56033E-19-5.88921E-18
 -1      1057 8.74638E-05-2.21225E-05-2.80041E-05-3.95497E-06-2.31211E-19-2.28875E-19
 -1      1058 9.44277E-05-2.63845E-05-2.91615E-05-1.81452E-06 2.96615E-20 1.16032E-19
 -1      1059 9.10307E-05-2.42013E-05-2.86416E-05-2.92739E-06 3.01420E-19-1.16111E-19
 -1      1060 9.51235E-05-2.66654E-05-2.93394E-05-1.46452E-06 8.02750E-21-7.25133E-20
 -1      1061 6.62667E-05-1.56188E-05-2.16602E-05 4.75584E-06 7.05540E-19-2.52356E-20
 -1      1062 7.51527E-05-1.87933E-05-2.41488E-05 9.83069E-06-2.19517E-20 6.36491E-19
 -1      1063 7.03333E-05-1.59993E-05-2.32698E-05-1.63139E-06 2.90012E-19 1.36345E-19
 -1      1064 8.94030E-05-2.31902E-05-2.83773E-05-3.39371E-06 1.74036E-19-3.45072E-19
 -1      1065 1.00039E-04-2.70869E-05-2.99599E-05 1.26973E-06 1.32661E-18-2.93396E-18
 -1      1066 9.27536E-05-2.56529E-05-2.87578E-05 4.12458E-08 1.75824E-18 3.46749E-18
 -1      1067 6.89353E-05-1.66196E-05-2.23879E-05-7.32454E-06-5.52904E-19-9.90812E-19
 -1      1068 9.72017E-05-2.65901E-05-2.53594E-05-1.29237E-06 5.47247E-18-1.17166E-18
 -1      1069 9.35181E-05-2.58456E-05-2.90024E-05-2.15834E-06 5.53878E-19-1.13413E-19
 -1      1070 9.23917E-05-2.51017E-05-2.88389E-05-2.52131E-06 2.65357E-19-4.99531E-19
 -1      1071 1.00603E-04-2.40709E-05-3.01390E-05-2.77032E-06 1.45631E-18-4.40335E-18
 -1      1072 9.36021E-05-2.58383E-05-2.90413E-05 8.27088E-07 8.24489E-20-8.78623E-19
 -1      1073 9.24694E-05-2.51699E-05-2.88428E-05 1.05570E-06 1.98979E-19-2.14422E-19
 -1      1074 9.10993E-05-2.43239E-05-2.86151E-05 1.38574E-06 4.64513E-19 1.96695E-20
 -1      1075 8.94632E-05-2.33654E-05-2.83263E-05 1.81983E-06-1.33138E-19-1.14395E-18
 -1      1076 8.75842E-05-2.23844E-05-2.79414E-05 2.41951E-06-3.48547E-19-7.79627E-19
 -1      1077 8.53821E-05-2.14181E-05-2.74115E-05 3.27818E-06 3.29148E-20-6.24177E-19
 -1      1078 8.27687E-05-2.05270E-05-2.66743E-05 4.51998E-06 4.20741E-20-1.26311E-19
 -1      1079 7.96548E-05-1.97792E-05-2.56601E-05 6.40189E-06-6.07725E-20-2.72660E-19
 -1      1080 9.63174E-05-2.67211E-05-2.94938E-05-5.99031E-06 1.57929E-18-8.85295E-19
 -1      1081 8.01602E-05-1.88282E-05-2.62871E-05-1.69799E-06-1.41005E-18 3.30749E-19
 -1      1082 8.32603E-05-1.99207E-05-2.71456E-05-1.03630E-06-9.57505E-19 1.82383E-18
 -1      1083 8.57200E-05-2.09982E-05-2.77384E-05-5.89640E-07-1.40706E-18 2.22970E-18
 -1      1084 8.77066E-05-2.20406E-05-2.81428E-05-3.03017E-07-1.93224E-19 2.33240E-18
 -1      1085 8.93294E-05-2.30340E-05-2.84125E-05-1.24317E-07-1.53421E-18 1.95787E-18
 -1      1086 9.06567E-05-2.39564E-05-2.85859E-05-1.95379E-08-4.74536E-19 2.37665E-18
 -1      1087 9.17401E-05-2.47913E-05-2.86922E-05 3.95691E-08 2.85856E-19 3.67212E-18
 -1      1088 7.85968E-05-1.81685E-05-2.58985E-05 2.22628E-06 1.58879E-19-1.60088E-19
 -1      1089 7.84835E-05-1.83504E-05-2.57700E-05-1.78483E-06 1.79999E-19-5.34448E-19
 -1      1090 9.02801E-05-2.36415E-05-2.85594E-05 1.14752E-06-7.61517E-19 3.88311E-18
 -1      1091 7.43264E-05-1.55859E-05-2.11164E-05-6.08056E-05 2.80645E-17 1.14705E-17
 -1      1092 8.70709E-05-2.16211E-05-2.80500E-05 1.52699E-06-5.86195E-19 4.31102E-18
 -1      1093 8.22687E-05-1.97117E-05-2.68123E-05-1.68809E-06-9.86256E-20-7.99078E-19
 -1      1094 7.36041E-05-1.69432E-05-2.42600E-05-2.05315E-06 1.02444E-18-2.25935E-19
 -1      1095 7.60121E-05-1.75065E-05-2.50676E-05-1.83240E-06-1.85081E-19-3.96093E-19
 -1      1096 8.96253E-05-2.33305E-05-2.84122E-05-1.38538E-06 9.49549E-20-5.54879E-19
 -1      1097 7.30581E-05-1.93928E-05-2.29769E-05 1.15443E-05 9.32875E-19 4.74776E-19
 -1      1098 9.27169E-05-2.55944E-05-2.87675E-05 7.03456E-07 1.10343E-18 1.53574E-18
 -1      1099 7.65199E-05-3.28783E-05-4.05357E-05-2.12545E-05 3.00083E-18 1.44741E-17
 -1      1100 9.51589E-05-2.60654E-05-2.92075E-05 2.66174E-08 1.40303E-19-1.15949E-18
 -1      1101 3.02988E-04-6.65261E-05-3.16034E-05-1.37643E-05 1.18754E-17-5.78725E-17
 -1      1102 7.42455E-05-1.70824E-05-2.44840E-05 3.94518E-06-7.70222E-19-7.29736E-19
 -1      1103 9.13171E-05-2.43824E-05-2.86844E-05-1.27271E-06 2.36030E-19-5.16196E-19
 -1      1104 9.46693E-05-2.63545E-05-2.92779E-05-8.32042E-07-2.37356E-19-2.94006E-19
 -1      1105 7.68025E-05-1.95352E-05-2.45243E-05 8.53227E-06 7.97493E-20 1.52632E-19
 -1      1106 9.55950E-05-2.66302E-05-2.95562E-05-1.07296E-06-4.66872E-21-3.63778E-19
 -1      1107 8.76259E-05-2.21861E-05-2.80467E-05-1.50534E-06-2.13927E-19-3.31823E-19
 -1      1108 6.94147E-05-1.59944E-05-2.28763E-05-1.11401E-07 3.01802E-19 1.13975E-19
 -1      1109 9.37807E-05-2.59189E-05-2.90841E-05-9.95388E-07 4.83084E-19-3.44514E-19
 -1      1110 8.88425E-05-2.26692E-05-2.83600E-05 1.33656E-06-2.85159E-20 3.93970E-18
 -1      1111 9.14491E-05-2.45253E-05-2.86820E-05 9.64515E-07-5.64195E-19 2.70593E-18
 -1      1112 8.52262E-05-2.09766E-05-2.75372E-05-1.59920E-06-1.88448E-19-3.44009E-19
 -1      1113 9.16368E-05-2.46041E-05-2.87306E-05-2.40426E-07 5.89710E-19-1.60441E-19
 -1      1114 8.19737E-05-1.93154E-05-2.68530E-05 2.14171E-06-4.49741E-19 8.04026E-19
 -1      1115 9.53069E-05-2.64795E-05-2.94978E-05-6.46298E-07-2.93183E-19-5.74901E-19
 -1      1116 8.48817E-05-2.05191E-05-2.75850E-05 1.72230E-06-5.21596E-19 1.24659E-18
 -1      1117 1.07381E-04-1.11647E-05-3.15943E-05-2.99790E-05 4.57991E-18-1.44965E-17
 -1      1118 9.27876E-05-2.53157E-05-2.89173E-05-6.83166E-07 6.27211E-19-3.13623E-19
 -1      1119 9.26777E-05-2.52554E-05-2.88953E-05-1.15227E-06 7.27349E-19 1.85491E-21
 -1      1120 7.14686E-05-1.68878E-05-2.33989E-05 4.04463E-06 4.95851E-19-9.04675E-20
 -1      1121 1.20181E-04-4.62382E-05-3.23149E-05 5.42864E-06 4.69934E-18-1.18019E-17
 -1      1122 1.38603E-04-1.47399E-05-2.78478E-05-2.47874E-05 9.66740E-18-1.61817E-17
 -1      1123 1.14854E-04 2.52021E-10-4.10911E-05-4.13174E-05-1.93971E-19 5.58301E-18
 -1      1124 8.68739E-05 7.01776E-11-3.65408E-05-2.45408E-05-1.04291E-19 4.45433E-19
 -1      1125 8.26915E-05 4.18208E-11-3.51815E-05-1.83612E-05-7.88270E-20-1.77655E-18
 -1      1126 8.13131E-05 3.31266E-11-3.46174E-05-1.42282E-05-4.63486E-20-2.83764E-18
 -1      1127 8.07522E-05 2.87080E-11-3.43764E-05-1.07601E-05-3.32196E-20-3.26869E-18
 -1      1128 8.04287E-05 2.60601E-11-3.42443E-05-7.67449E-06-1.92369E-20-3.39550E-18
 -1      1129 8.00980E-05 2.37147E-11-3.41203E-05-4.85455E-06-1.17327E-20-3.41440E-18
 -1      1130 7.97047E-05 2.10408E-11-3.39812E-05-2.30212E-06-3.18961E-21-3.32881E-18
 -1      1131 7.93660E-05 1.88468E-11-3.38638E-05-5.19515E-08 2.59404E-21-3.24304E-18
 -1      1132 7.92546E-05 1.85559E-11-3.38263E-05 2.03334E-06 1.68265E-20-3.14146E-18
 -1      1133 7.94608E-05 2.04942E-11-3.39018E-05 4.20552E-06 2.11758E-20-3.05428E-18
 -1      1134 7.99540E-05 2.37881E-11-3.40839E-05 6.66112E-06 2.87197E-20-2.84145E-18
 -1      1135 8.06869E-05 2.79251E-11-3.43697E-05 9.53993E-06 4.42575E-20-2.46837E-18
 -1      1136 8.17647E-05 3.34393E-11-3.48113E-05 1.29704E-05 5.74659E-20-1.83117E-18
 -1      1137 8.36452E-05 4.30606E-11-3.55777E-05 1.71969E-05 7.78212E-20-6.24594E-19
 -1      1138 8.79247E-05 6.77795E-11-3.71121E-05 2.32370E-05 8.96796E-20 1.82173E-18
 -1      1139 1.05796E-04 1.63834E-10-4.03443E-05 3.55118E-05 2.01170E-19 6.92047E-18
 -1      1140 1.27934E-04-2.52019E-05-3.94823E-05-2.60262E-05-7.65294E-19 8.85276E-18
 -1      1141 9.46101E-05-2.80161E-05-3.05967E-05-7.63091E-07-2.46301E-19 7.19396E-18
 -1      1142 8.55955E-05-2.56670E-05-2.63649E-05 1.16394E-07-5.52490E-20 4.88330E-18
 -1      1143 7.66010E-05-2.21993E-05-2.41541E-05-1.73090E-06-3.57210E-19 2.38476E-18
 -1      1144 6.83979E-05-2.11173E-05-2.20528E-05 3.64166E-06 5.80747E-19-2.51669E-18
 -1      1145 1.10849E-04-3.37568E-05-2.72237E-05-9.28947E-06-7.75247E-19 2.41362E-18
 -1      1146 9.59463E-05-2.89705E-05-2.88926E-05-3.13274E-08-5.95305E-20 9.51522E-19
 -1      1147 9.40840E-05-2.82477E-05-2.84524E-05 4.62458E-08-2.63043E-20 9.18051E-19
 -1      1148 9.35120E-05-2.80731E-05-2.81776E-05-7.93246E-11-2.52042E-20 8.33030E-19
 -1      1149 9.37448E-05-2.81471E-05-2.82145E-05 1.17939E-08-5.99541E-20-1.08602E-19
 -1      1150 9.47342E-05-2.84481E-05-2.84996E-05 3.32383E-08-1.95215E-20-1.27161E-18
 -1      1151 9.69090E-05-2.90609E-05-2.88492E-05 5.25549E-07 1.43162E-19-5.35285E-19
 -1      1152 9.68015E-05-2.90511E-05-2.90576E-05 4.05029E-08-5.93403E-20-1.13699E-18
 -1      1153 9.86041E-05-2.95921E-05-2.96027E-05 4.78537E-08 8.32007E-20-1.54190E-18
 -1      1154 1.00651E-04-3.02052E-05-3.02189E-05 5.90752E-08-1.39041E-20-7.25014E-19
 -1      1155 1.02953E-04-3.08927E-05-3.09067E-05 7.31221E-08-9.64534E-20-8.47073E-19
 -1      1156 1.05466E-04-3.16407E-05-3.16498E-05 8.73436E-08-4.33871E-20-1.71050E-18
 -1      1157 1.08058E-04-3.24083E-05-3.24035E-05 9.63289E-08 1.42176E-19-2.15044E-18
 -1      1158 1.10462E-04-3.31150E-05-3.30836E-05 9.06566E-08 3.76996E-20-2.16975E-18
 -1      1159 1.12240E-04-3.36308E-05-3.35586E-05 5.65590E-08-2.92690E-20-2.16392E-18
 -1      1160 1.12792E-04-3.37783E-05-3.36574E-05-2.12854E-08-1.88151E-19-1.83101E-18
 -1      1161 1.11451E-04-3.33642E-05-3.32060E-05-1.50680E-07-2.01938E-19-1.14093E-18
 -1      1162 1.07745E-04-3.22564E-05-3.21030E-05-3.15617E-07 1.09664E-19-3.80212E-19
 -1      1163 1.01794E-04-3.05008E-05-3.04214E-05-4.61817E-07-1.14543E-19-1.39040E-18
 -1      1164 9.46732E-05-2.84206E-05-2.84802E-05-5.04285E-07 1.26420E-19-5.69736E-19
 -1      1165 8.83764E-05-2.65960E-05-2.68082E-05-3.75018E-07 8.24534E-21 1.24869E-18
 -1      1166 8.51061E-05-2.56533E-05-2.59533E-05-8.97521E-08 2.95614E-19 5.83301E-19
 -1      1167 8.61402E-05-2.59512E-05-2.62232E-05 2.36082E-07-1.92501E-20 6.41760E-19
 -1      1168 9.10697E-05-2.73751E-05-2.75201E-05 4.57894E-07 2.62779E-20 1.35419E-18
 -1      1169 9.80465E-05-2.94040E-05-2.93934E-05 5.02451E-07 2.09011E-19 2.05480E-18
 -1      1170 1.04837E-04-3.13968E-05-3.12736E-05 4.00470E-07 4.18189E-20 1.54986E-18
 -1      1171 1.09834E-04-3.28795E-05-3.27168E-05 2.36338E-07 3.93142E-20 7.43695E-19
 -1      1172 1.12443E-04-3.36669E-05-3.35236E-05 8.41335E-08-1.40419E-19-1.03092E-18
 -1      1173 1.12878E-04-3.38135E-05-3.37162E-05-2.08318E-08 5.95570E-20-2.14808E-18
 -1      1174 1.11751E-04-3.34939E-05-3.34434E-05-7.59640E-08 8.38314E-20-3.64007E-18
 -1      1175 1.09724E-04-3.29025E-05-3.28867E-05-9.40672E-08 2.14026E-19-2.28711E-18
 -1      1176 1.07335E-04-3.21985E-05-3.22033E-05-9.02927E-08-1.40033E-20-2.06918E-18
 -1      1177 1.04946E-04-3.14905E-05-3.15051E-05-7.63601E-08-5.84573E-20 6.27519E-19
 -1      1178 1.02769E-04-3.08419E-05-3.08594E-05-5.95671E-08 2.86026E-19 2.61708E-18
 -1      1179 1.00898E-04-3.02827E-05-3.02992E-05-4.37299E-08-2.59009E-19 1.48573E-18
 -1      1180 9.93580E-05-2.98210E-05-2.98350E-05-3.04445E-08-1.07452E-19-6.91358E-19
 -1      1181 9.81328E-05-2.94526E-05-2.94637E-05-2.00792E-08 5.35901E-20-1.43843E-18
 -1      1182 9.71854E-05-2.91670E-05-2.91753E-05-1.24064E-08-1.80550E-19-8.41110E-19
 -1      1183 9.64723E-05-2.89514E-05-2.89575E-05-6.95002E-09 2.48894E-19 2.47691E-18
 -1      1184 9.59514E-05-2.87935E-05-2.87981E-05-3.14089E-09 2.29365E-20 2.21080E-18
 -1      1185 9.55864E-05-2.86825E-05-2.86864E-05-3.44037E-10 1.95365E-19 3.84097E-18
 -1      1186 9.53494E-05-2.86101E-05-2.86140E-05 2.20523E-09 4.04735E-20 3.88665E-18
 -1      1187 9.52214E-05-2.85705E-05-2.85744E-05 5.48428E-09 1.23308E-19 3.62192E-18
 -1      1188 9.51917E-05-2.85629E-05-2.85597E-05 1.12482E-08 4.21006E-20 2.06577E-18
 -1      1189 9.52165E-05-2.85650E-05-2.85550E-05 6.63922E-09 3.97417E-19 1.45641E-18
 -1      1190 1.29849E-04-3.73590E-05-3.83895E-05 1.19861E-05-1.40052E-19 1.11342E-17
 -1      1191 9.63402E-05-2.81303E-05-3.12328E-05 7.62955E-07 9.61118E-20 8.77463E-18
 -1      1192 9.05528E-05-2.69858E-05-2.79012E-05 1.03172E-07 7.98064E-21 6.54805E-18
 -1      1193 8.86801E-05-2.66041E-05-2.67650E-05 3.60592E-09 6.96238E-20 4.78423E-18
 -1      1194 8.82750E-05-2.65136E-05-2.65071E-05-1.94823E-08 7.79419E-20 3.68925E-18
 -1      1195 8.85229E-05-2.65840E-05-2.65628E-05-1.88970E-08 3.59799E-20 2.94292E-18
 -1      1196 8.91191E-05-2.67551E-05-2.67454E-05-1.51236E-08 8.36412E-20 2.42412E-18
 -1      1197 8.99629E-05-2.70028E-05-2.70017E-05-1.36256E-08-8.65227E-20 2.55498E-18
 -1      1198 9.10090E-05-2.73143E-05-2.73153E-05-1.32478E-08-1.61797E-21 1.96362E-18
 -1      1199 9.22222E-05-2.76777E-05-2.76791E-05-1.19131E-08 1.45320E-19 7.21990E-19
 -1      1200 9.35853E-05-2.80844E-05-2.80936E-05-1.17072E-08 2.47401E-19-1.08708E-18
 -1      1201 9.51128E-05-2.85425E-05-2.85756E-05 5.22568E-09-3.49757E-20-1.94534E-18
 -1      1202 9.69907E-05-2.91132E-05-2.91242E-05 2.90321E-09 7.42126E-20-1.33933E-18
 -1      1203 9.89827E-05-2.97124E-05-2.97316E-05 3.72762E-09-1.58633E-19-6.74993E-19
 -1      1204 1.01353E-04-3.04240E-05-3.04530E-05-4.10832E-10 8.54105E-20-4.10427E-19
 -1      1205 1.04185E-04-3.12712E-05-3.13107E-05-1.24683E-08 6.88504E-20-8.73397E-19
 -1      1206 1.07525E-04-3.22665E-05-3.23146E-05-3.63398E-08-1.10528E-20-1.86810E-18
 -1      1207 1.11340E-04-3.33976E-05-3.34466E-05-7.60691E-08 1.16137E-19-2.03391E-18
 -1      1208 1.15441E-04-3.46056E-05-3.46366E-05-1.33081E-07 1.48054E-19-2.32188E-18
 -1      1209 1.19369E-04-3.57548E-05-3.57324E-05-1.99843E-07 4.03135E-20-2.67938E-18
 -1      1210 1.22290E-04-3.66039E-05-3.64775E-05-2.49902E-07-6.88909E-20-3.36828E-19
 -1      1211 1.22977E-04-3.68038E-05-3.65277E-05-2.29976E-07-2.79389E-20 4.27434E-19
 -1      1212 1.20077E-04-3.59720E-05-3.55549E-05-7.20124E-08-5.20859E-20 7.00443E-19
 -1      1213 1.12850E-04-3.38910E-05-3.34618E-05 2.47256E-07-6.37392E-20-6.25746E-20
 -1      1214 1.02302E-04-3.08119E-05-3.06259E-05 6.23087E-07-6.09152E-20-5.53007E-19
 -1      1215 9.18051E-05-2.76741E-05-2.79599E-05 8.15313E-07-1.01697E-19 1.38956E-18
 -1      1216 8.59606E-05-2.58206E-05-2.65552E-05 6.26535E-07 3.37556E-20 3.18114E-19
 -1      1217 8.77871E-05-2.62530E-05-2.70559E-05 1.15215E-07-1.59017E-20-3.10146E-18
 -1      1218 9.63354E-05-2.87853E-05-2.92309E-05-4.05315E-07-1.37322E-19-3.72536E-18
 -1      1219 1.07456E-04-3.21740E-05-3.21248E-05-6.61952E-07-7.80097E-20-3.54970E-18
 -1      1220 1.16785E-04-3.50389E-05-3.46724E-05-6.17935E-07-3.98866E-20-3.94114E-18
 -1      1221 1.22028E-04-3.66436E-05-3.62199E-05-4.09686E-07 1.40025E-20-3.62911E-18
 -1      1222 1.23142E-04-3.69776E-05-3.66555E-05-1.86463E-07-3.62520E-19-1.23386E-18
 -1      1223 1.21290E-04-3.64091E-05-3.62283E-05-2.30154E-08 1.15155E-19-9.64546E-19
 -1      1224 1.17841E-04-3.53617E-05-3.52943E-05 6.87935E-08 2.48804E-19-3.37479E-18
 -1      1225 1.13857E-04-3.41591E-05-3.41608E-05 1.06218E-07 1.38382E-19-4.19419E-18
 -1      1226 1.09993E-04-3.29972E-05-3.30318E-05 1.11122E-07 1.05964E-19-3.13995E-18
 -1      1227 1.06577E-04-3.19722E-05-3.20172E-05 1.00141E-07 1.27069E-19-3.87712E-18
 -1      1228 1.03723E-04-3.11167E-05-3.11607E-05 8.33907E-08-1.65130E-19-2.90887E-18
 -1      1229 1.01428E-04-3.04292E-05-3.04673E-05 6.61557E-08-2.41774E-19-4.07740E-18
 -1      1230 9.96339E-05-2.98917E-05-2.99227E-05 5.07864E-08 7.48255E-20-3.53729E-18
 -1      1231 9.82633E-05-2.94809E-05-2.95052E-05 3.80639E-08 2.00547E-19-2.04989E-18
 -1      1232 9.72371E-05-2.91732E-05-2.91918E-05 2.80189E-08-1.59143E-19-5.08652E-19
 -1      1233 9.64844E-05-2.89475E-05-2.89614E-05 2.03697E-08-8.44642E-20 3.27871E-19
 -1      1234 9.59461E-05-2.87859E-05-2.87965E-05 1.47112E-08 2.25933E-19-7.41208E-19
 -1      1235 9.55756E-05-2.86747E-05-2.86831E-05 1.05549E-08 4.13229E-19-3.95746E-18
 -1      1236 9.53391E-05-2.86036E-05-2.86109E-05 7.25509E-09-2.81551E-19-1.86461E-18
 -1      1237 9.52143E-05-2.85658E-05-2.85724E-05 3.44701E-09-3.85509E-19-6.36540E-20
 -1      1238 9.51865E-05-2.85562E-05-2.85591E-05-3.43844E-09 2.59948E-19 3.28889E-19
 -1      1239 9.52182E-05-2.85665E-05-2.85546E-05-6.31427E-09-1.50949E-19-1.26827E-18
 -1      1240 9.52420E-05-2.85909E-05-2.85553E-05-6.72572E-09-6.79957E-19-2.48494E-19
 -1      1241 9.52486E-05-2.86179E-05-2.85610E-05-9.78983E-09 2.55925E-18 3.94168E-19
 -1      1242 9.52375E-05-2.85795E-05-2.85766E-05-1.28989E-09 5.77133E-18-7.28939E-19
 -1      1243 9.52018E-05-2.84573E-05-2.86113E-05 4.51152E-09 3.75380E-18-4.07662E-19
 -1      1244 9.51495E-05-2.82788E-05-2.86609E-05 7.39974E-09 2.22362E-18-4.67397E-19
 -1      1245 9.50929E-05-2.80854E-05-2.87150E-05 7.77350E-09 2.20913E-18-2.47583E-20
 -1      1246 9.50429E-05-2.79146E-05-2.87632E-05 6.35159E-09 5.73163E-18 4.20664E-19
 -1      1247 9.50086E-05-2.77973E-05-2.87964E-05 3.51776E-09 6.31298E-18 1.28938E-19
 -1      1248 9.49965E-05-2.77563E-05-2.88080E-05 2.86089E-11 3.25175E-18-2.34446E-19
 -1      1249 9.50088E-05-2.77983E-05-2.87962E-05-3.43817E-09 6.64873E-18 1.00667E-18
 -1      1250 9.50431E-05-2.79157E-05-2.87630E-05-6.20539E-09 5.36990E-18-1.40875E-18
 -1      1251 9.50929E-05-2.80855E-05-2.87151E-05-7.67650E-09 2.81252E-18 4.40582E-20
 -1      1252 9.51489E-05-2.82769E-05-2.86614E-05-7.23952E-09 6.52086E-18 1.13570E-18
 -1      1253 9.52007E-05-2.84537E-05-2.86122E-05-4.54413E-09 7.83943E-18-2.78144E-19
 -1      1254 9.52378E-05-2.85776E-05-2.85776E-05 1.13299E-09 1.39699E-18 6.54860E-19
 -1      1255 9.52447E-05-2.86105E-05-2.85613E-05 1.52375E-08 6.19360E-19-8.87425E-19
 -1      1256 9.52430E-05-2.85927E-05-2.85555E-05 8.02383E-09-8.25666E-19 8.94295E-20
 -1      1257 3.35240E-05-1.06342E-04 1.79762E-05-1.38239E-05-6.33877E-18 3.62689E-19
 -1      1258 1.75263E-05-6.60353E-05 9.70673E-06-2.55803E-05 5.12624E-18 2.70500E-18
 -1      1259 7.73310E-06-1.04923E-05-5.56965E-06-2.11050E-06 1.04914E-17 7.25399E-18
 -1      1260 3.78902E-05 2.27269E-05-2.67305E-05 5.40597E-05 1.17788E-17 1.13892E-17
 -1      1261 1.21716E-04 6.74901E-06-4.91200E-05 1.04110E-04 7.43356E-18 1.04812E-17
 -1      1262 2.27398E-04-4.39759E-05-6.69256E-05 1.02594E-04 2.52797E-18 6.39595E-18
 -1      1263 3.03002E-04-8.84405E-05-7.70534E-05 4.33742E-05 6.22278E-19 1.51068E-18
 -1      1264 3.06307E-04-9.02873E-05-7.73275E-05-4.10557E-05 5.83262E-19-2.36365E-18
 -1      1265 2.30283E-04-4.51833E-05-6.74104E-05-1.00221E-04 1.85204E-18-4.80098E-18
 -1      1266 1.21048E-04 6.85032E-06-4.85797E-05-1.01837E-04 4.74508E-18-7.18792E-18
 -1      1267 3.87644E-05 2.35150E-05-2.71321E-05-5.52943E-05 8.36530E-18-7.86724E-18
 -1      1268 8.18098E-06-6.17780E-06-7.16930E-06-1.61256E-06 1.00932E-17-6.56874E-18
 -1      1269 1.55656E-05-6.03102E-05 8.54920E-06 2.52157E-05 5.28549E-18-2.37339E-18
 -1      1270 3.31779E-05-1.04372E-04 1.74731E-05 1.69887E-05-2.71940E-18 1.65171E-20
 -1      1271 3.46090E-05-1.08179E-04 1.83205E-05-1.05087E-05-8.84472E-18-1.22637E-18
 -1      1272 1.82832E-05-6.67071E-05 9.94171E-06-2.33903E-05-9.55623E-18-3.04487E-18
 -1      1273 7.43642E-06-9.30180E-06-5.75953E-06-5.40144E-07-6.53909E-18-3.50756E-18
 -1      1274 3.14924E-05 2.45148E-05-2.49250E-05 5.02792E-05-4.92804E-18-5.03561E-18
 -1      1275 1.06661E-04 1.28491E-05-4.61605E-05 9.96754E-05-4.65360E-18-6.53909E-18
 -1      1276 2.09859E-04-3.52998E-05-6.42582E-05 1.07457E-04-2.25904E-18-5.09406E-18
 -1      1277 2.89103E-04-8.17027E-05-7.51016E-05 5.56858E-05-1.09802E-18-4.36180E-18
 -1      1278 3.04253E-04-9.11660E-05-7.69470E-05-2.70846E-05-2.01064E-19-1.95792E-18
 -1      1279 2.47818E-04-5.69467E-05-6.96776E-05-9.36296E-05-6.20663E-19 1.77284E-18
 -1      1280 1.48893E-04-4.30908E-06-5.43868E-05-1.08490E-04-4.05729E-18 6.44931E-18
 -1      1281 5.64595E-05 2.48130E-05-3.33282E-05-7.29335E-05-9.58079E-18 9.77307E-18
 -1      1282 1.10932E-05 3.26563E-06-1.10815E-05-1.30950E-05-1.08048E-17 7.08120E-18
 -1      1283 1.50084E-05-5.51782E-05 7.21655E-06 2.26466E-05-1.19669E-17 5.17622E-18
 -1      1284 3.34613E-05-1.04427E-04 1.74712E-05 1.42044E-05-1.10805E-17 9.91796E-19
 -1      1285 1.02117E-04-2.14693E-05-3.71074E-05-1.74415E-05-2.88415E-19 4.48144E-18
 -1      1286 8.85679E-05-6.52445E-06-3.53319E-05-2.09643E-05-7.52271E-19-5.98641E-19
 -1      1287 9.06437E-05-6.53364E-06-3.64828E-05-2.61740E-05-9.81076E-19 5.66242E-19
 -1      1288 8.46843E-05-4.14932E-06-3.45794E-05-1.68948E-05-7.42345E-19-2.24114E-18
 -1      1289 8.57090E-05-4.12110E-06-3.49791E-05-1.93420E-05-8.48039E-19-1.53260E-18
 -1      1290 9.05039E-05-1.04066E-05-3.44387E-05-1.95630E-05-1.30432E-18-5.62218E-19
 -1      1291 8.32370E-05-3.30710E-06-3.42613E-05-1.31402E-05-6.20412E-19-3.02708E-18
 -1      1292 8.36915E-05-3.26813E-06-3.44270E-05-1.50168E-05-6.87976E-19-2.68033E-18
 -1      1293 8.68027E-05-7.55522E-06-3.40550E-05-1.58004E-05-1.15845E-18-1.89833E-18
 -1      1294 8.25511E-05-2.86994E-06-3.41278E-05-9.85134E-06-4.53407E-19-3.35279E-18
 -1      1295 8.27723E-05-2.84655E-06-3.42027E-05-1.14770E-05-5.23996E-19-3.20683E-18
 -1      1296 8.51512E-05-6.19873E-06-3.39033E-05-1.22049E-05-9.49282E-19-2.58480E-18
 -1      1297 8.21078E-05-2.60824E-06-3.40409E-05-6.89862E-06-2.99836E-19-3.47257E-18
 -1      1298 8.22819E-05-2.59928E-06-3.40960E-05-8.35371E-06-3.58891E-19-3.41821E-18
 -1      1299 8.42987E-05-5.45940E-06-3.38421E-05-9.05133E-06-6.65523E-19-2.86588E-18
 -1      1300 8.16033E-05-2.37100E-06-3.39320E-05-4.12854E-06-1.85566E-19-3.42802E-18
 -1      1301 8.18331E-05-2.37524E-06-3.39982E-05-5.47871E-06-2.12446E-19-3.46500E-18
 -1      1302 8.36643E-05-4.95586E-06-3.37844E-05-6.13999E-06-4.60918E-19-2.98627E-18
 -1      1303 8.09942E-05-2.09391E-06-3.37999E-05-1.65933E-06-1.48760E-20-3.33437E-18
 -1      1304 8.12565E-05-2.10860E-06-3.38710E-05-2.85405E-06-7.74903E-20-3.36727E-18
 -1      1305 8.29538E-05-4.46348E-06-3.36882E-05-3.43530E-06-2.30673E-19-2.85540E-18
 -1      1306 8.05222E-05-1.86640E-06-3.36955E-05 4.94705E-07 9.34747E-20-3.21264E-18
 -1      1307 8.06878E-05-1.88001E-06-3.37411E-05-5.68623E-07 6.43745E-20-3.27791E-18
 -1      1308 8.22120E-05-3.98449E-06-3.35691E-05-1.06864E-06 4.20903E-20-2.77244E-18
 -1      1309 8.04856E-05-1.83964E-06-3.36793E-05 2.52433E-06 2.22055E-19-3.13926E-18
 -1      1310 8.04457E-05-1.84368E-06-3.36715E-05 1.47849E-06 1.98239E-19-3.18686E-18
 -1      1311 8.17813E-05-3.74722E-06-3.34830E-05 9.81396E-07 2.30239E-19-2.71872E-18
 -1      1312 8.09411E-05-2.04242E-06-3.37731E-05 4.72467E-06 3.50546E-19-3.02719E-18
 -1      1313 8.07014E-05-2.03722E-06-3.37070E-05 3.56467E-06 3.09253E-19-3.08275E-18
 -1      1314 8.19432E-05-3.92773E-06-3.34822E-05 2.98964E-06 4.38472E-19-2.60050E-18
 -1      1315 8.17291E-05-2.37192E-06-3.39589E-05 7.24903E-06 4.70699E-19-2.79615E-18
 -1      1316 8.13610E-05-2.37008E-06-3.38455E-05 5.92251E-06 4.21975E-19-2.94132E-18
 -1      1317 8.26751E-05-4.46057E-06-3.35749E-05 5.24551E-06 6.63816E-19-2.43859E-18
 -1      1318 8.27970E-05-2.77669E-06-3.42405E-05 1.02649E-05 6.63293E-19-2.38849E-18
 -1      1319 8.22996E-05-2.78554E-06-3.40704E-05 8.68161E-06 5.86028E-19-2.62326E-18
 -1      1320 8.37991E-05-5.20398E-06-3.37445E-05 7.90756E-06 8.52231E-19-2.18407E-18
 -1      1321 8.43061E-05-3.30324E-06-3.46707E-05 1.38232E-05 8.67944E-19-1.69888E-18
 -1      1322 8.35744E-05-3.33444E-06-3.44002E-05 1.19278E-05 7.67597E-19-2.11492E-18
 -1      1323 8.53199E-05-6.17992E-06-3.39883E-05 1.10408E-05 1.16945E-18-1.75627E-18
 -1      1324 8.69394E-05-4.21095E-06-3.54239E-05 1.82087E-05 9.75570E-19-3.51519E-19
 -1      1325 8.56041E-05-4.26805E-06-3.49225E-05 1.57448E-05 8.80279E-19-1.16978E-18
 -1      1326 8.76374E-05-7.69835E-06-3.43437E-05 1.46886E-05 1.42296E-18-9.19904E-19
 -1      1327 9.31094E-05-6.90337E-06-3.69083E-05 2.43493E-05 8.45974E-19 2.28768E-18
 -1      1328 8.98226E-05-6.54072E-06-3.58503E-05 2.03412E-05 8.30833E-19 6.76250E-19
 -1      1329 9.21039E-05-1.08645E-05-3.48905E-05 1.88375E-05 1.45417E-18 6.23099E-19
 -1      1330 1.22696E-04-2.47837E-05-3.87480E-05 2.77934E-05 4.43739E-19 7.28173E-18
 -1      1331 9.96187E-05-1.44412E-05-3.71345E-05 2.34095E-05 4.50410E-19 3.81578E-18
 -1      1332 1.01327E-04-1.94031E-05-3.52188E-05 2.06845E-05 1.38845E-18 3.00718E-18
 -1      1333 1.02172E-04-2.77310E-05-3.45718E-05 7.01391E-06 8.04152E-19 6.95774E-18
 -1      1334 1.02443E-04-2.94830E-05-3.26849E-05-8.40675E-06-7.59153E-19 4.82046E-18
 -1      1335 9.50972E-05-2.69950E-05-2.97641E-05-5.45434E-06-6.99014E-19 3.97454E-18
 -1      1336 9.21647E-05-2.70803E-05-2.81230E-05-3.44402E-06-5.60789E-19 3.53090E-18
 -1      1337 8.85688E-05-2.64643E-05-2.67283E-05-3.38996E-06-5.48520E-19 2.65468E-18
 -1      1338 9.68263E-05-2.76340E-05-3.00335E-05-9.20053E-06-1.23677E-18 1.91072E-18
 -1      1339 8.78772E-05-2.74204E-05-2.59607E-05-3.57238E-06-6.33687E-19 2.41849E-18
 -1      1340 8.13577E-05-2.53723E-05-2.51231E-05-3.97498E-06-7.38824E-19 6.95864E-19
 -1      1341 9.25992E-05-2.85434E-05-2.76432E-05-5.92943E-06-1.19058E-18 1.31097E-18
 -1      1342 7.97720E-05-2.03532E-05-2.50079E-05-8.66997E-06-2.89643E-18 9.42059E-19
 -1      1343 7.95108E-05-1.87407E-05-2.39926E-05-9.83533E-06-3.55500E-18-2.01001E-18
 -1      1344 1.00276E-04-3.13359E-05-2.71410E-05-4.99000E-06-1.77644E-18 2.32849E-18
 -1      1345 1.00303E-04-2.05808E-05-2.64483E-05-1.31329E-05-8.56986E-19 1.11046E-18
 -1      1346 9.54932E-05-2.64900E-05-2.94376E-05-3.97091E-06-6.13040E-20 1.11597E-19
 -1      1347 7.63331E-05-1.44359E-05-2.76016E-05-1.53254E-06-8.93090E-19-1.43731E-18
 -1      1348 9.82261E-05-2.90167E-05-2.91664E-05-2.48629E-06-1.64682E-19 5.17868E-19
 -1      1349 9.60083E-05-2.84581E-05-2.89651E-05-1.61557E-06-5.42630E-20 2.60727E-19
 -1      1350 9.45372E-05-2.50978E-05-2.91395E-05-5.77357E-06-5.17219E-19-1.61320E-19
 -1      1351 9.53503E-05-2.83804E-05-2.87200E-05-6.33994E-07 8.92098E-20 3.92838E-19
 -1      1352 9.46667E-05-2.82422E-05-2.85089E-05-5.80556E-07 8.28967E-20 3.70286E-19
 -1      1353 9.55716E-05-2.80149E-05-2.89655E-05-2.34733E-06-1.61474E-20-1.23720E-19
 -1      1354 9.44348E-05-2.81955E-05-2.84115E-05-1.12634E-07-5.16690E-20 3.48759E-19
 -1      1355 9.43229E-05-2.81810E-05-2.83617E-05-4.51336E-08-1.48707E-19 1.57891E-19
 -1      1356 9.49949E-05-2.82264E-05-2.86637E-05-6.92350E-07-9.28130E-20-2.07801E-19
 -1      1357 9.44456E-05-2.82255E-05-2.83908E-05 3.01688E-07-3.38310E-19 3.78129E-20
 -1      1358 9.47485E-05-2.83210E-05-2.84779E-05 3.71028E-07-4.78484E-19-4.77353E-19
 -1      1359 9.49707E-05-2.82918E-05-2.86093E-05 2.55005E-07-4.18864E-19-3.58852E-19
 -1      1360 9.51589E-05-2.84439E-05-2.86013E-05 6.96454E-07-2.91460E-19-4.92053E-19
 -1      1361 9.58624E-05-2.86559E-05-2.87859E-05 7.89985E-07 2.32934E-20-7.33881E-19
 -1      1362 9.55049E-05-2.84620E-05-2.87581E-05 1.05424E-06-5.69918E-19-2.15438E-19
 -1      1363 9.63520E-05-2.87632E-05-2.89627E-05 1.09868E-06 1.27842E-19-8.98828E-19
 -1      1364 9.72986E-05-2.86340E-05-2.90542E-05 1.68955E-06-2.51463E-20-8.22681E-19
 -1      1365 9.64278E-05-2.86318E-05-2.90314E-05 1.86246E-06-6.31966E-21-4.98304E-19
 -1      1366 9.69639E-05-2.86876E-05-2.89695E-05 1.21858E-06-1.62008E-19-8.51109E-19
 -1      1367 9.72910E-05-2.91616E-05-2.91961E-05 9.01394E-07-1.83749E-19-1.10150E-18
 -1      1368 9.73283E-05-2.85935E-05-2.91926E-05 2.30829E-06-1.81821E-19-7.98064E-19
 -1      1369 9.80124E-05-2.93695E-05-2.94199E-05 9.97410E-07 1.29894E-19-1.03298E-18
 -1      1370 9.89587E-05-2.96578E-05-2.96992E-05 1.02221E-06 1.07271E-19-9.22045E-19
 -1      1371 9.75585E-05-2.92152E-05-2.92977E-05 1.86096E-06-1.77472E-20-8.79094E-19
 -1      1372 9.97717E-05-2.98939E-05-2.99503E-05 1.12686E-06 1.27979E-19-8.82916E-19
 -1      1373 1.00839E-04-3.02221E-05-3.02647E-05 1.15344E-06-1.00916E-19-6.09989E-19
 -1      1374 9.90611E-05-2.96598E-05-2.97519E-05 2.10395E-06 5.52350E-20-5.98639E-19
 -1      1375 1.01742E-04-3.04874E-05-3.05417E-05 1.25051E-06-3.15593E-19-4.15265E-19
 -1      1376 1.02922E-04-3.08547E-05-3.08877E-05 1.27398E-06-3.04772E-19-8.09757E-19
 -1      1377 1.00745E-04-3.01681E-05-3.02557E-05 2.34925E-06-2.35929E-19-5.05535E-19
 -1      1378 1.03894E-04-3.11457E-05-3.11828E-05 1.33481E-06-1.50753E-19-6.85528E-19
 -1      1379 1.05143E-04-3.15413E-05-3.15467E-05 1.34671E-06-1.71135E-19-1.24335E-18
 -1      1380 1.02592E-04-3.07420E-05-3.07994E-05 2.54392E-06-2.63854E-19-2.58855E-19
 -1      1381 1.06135E-04-3.18469E-05-3.18428E-05 1.32710E-06 9.97249E-20-1.05301E-18
 -1      1382 1.07357E-04-3.22435E-05-3.21949E-05 1.31449E-06 1.58157E-19-9.63387E-19
 -1      1383 1.04539E-04-3.13721E-05-3.13590E-05 2.60165E-06 1.25458E-19 1.47476E-19
 -1      1384 1.08280E-04-3.25414E-05-3.24620E-05 1.15486E-06 5.34359E-20-1.34957E-18
 -1      1385 1.09304E-04-3.28875E-05-3.27519E-05 1.10041E-06-1.24557E-19-1.47523E-18
 -1      1386 1.06457E-04-3.20294E-05-3.18903E-05 2.39889E-06 1.01280E-20-3.62987E-19
 -1      1387 1.10023E-04-3.31400E-05-3.29461E-05 7.34554E-07-5.19139E-21-1.56191E-18
 -1      1388 1.10600E-04-3.33552E-05-3.31018E-05 6.19668E-07-1.25324E-19-1.30629E-18
 -1      1389 1.08132E-04-3.26543E-05-3.23260E-05 1.78429E-06-1.95499E-19-8.24464E-19
 -1      1390 1.10934E-04-3.35065E-05-3.31689E-05 2.40498E-10 1.86016E-20-1.34538E-18
 -1      1391 1.10759E-04-3.34853E-05-3.31061E-05-1.86044E-07-1.06607E-19-1.22706E-18
 -1      1392 1.09255E-04-3.31434E-05-3.25786E-05 6.17781E-07 6.13569E-20-6.91626E-19
 -1      1393 1.10515E-04-3.34644E-05-3.29947E-05-1.03918E-06-4.58126E-20-7.28290E-19
 -1      1394 1.09313E-04-3.30996E-05-3.26430E-05-1.28365E-06 1.62326E-19-4.49616E-19
 -1      1395 1.09449E-04-3.33425E-05-3.25566E-05-1.14298E-06 2.13406E-19-4.95096E-19
 -1      1396 1.08352E-04-3.28383E-05-3.23273E-05-2.22205E-06-1.66760E-19-5.16478E-19
 -1      1397 1.06033E-04-3.20749E-05-3.16736E-05-2.46800E-06-1.51142E-19-5.93082E-19
 -1      1398 1.08361E-04-3.30661E-05-3.21970E-05-3.30973E-06-1.45782E-20-3.24387E-20
 -1      1399 1.04380E-04-3.15496E-05-3.11824E-05-3.18509E-06 6.06158E-21-2.36507E-19
 -1      1400 1.01226E-04-3.04610E-05-3.03159E-05-3.32965E-06-1.03265E-20-6.57933E-19
 -1      1401 1.05839E-04-3.21728E-05-3.15091E-05-5.34416E-06 1.56569E-20 2.55963E-19
 -1      1402 9.91839E-05-2.97508E-05-2.97494E-05-3.43702E-06 5.77966E-19-4.36645E-19
 -1      1403 9.59324E-05-2.85893E-05-2.88748E-05-3.36906E-06 7.77674E-19 2.37143E-19
 -1      1404 1.02173E-04-3.07039E-05-3.06104E-05-6.39756E-06 5.69977E-19 4.98836E-19
 -1      1405 9.40877E-05-2.79083E-05-2.83897E-05-2.61390E-06 3.22978E-19 2.51278E-19
 -1      1406 9.17617E-05-2.70580E-05-2.77737E-05-2.29625E-06-5.59240E-20 4.20949E-19
 -1      1407 9.82494E-05-2.90124E-05-2.97221E-05-5.65721E-06 7.77351E-19 2.55010E-19
 -1      1408 9.07923E-05-2.66876E-05-2.75273E-05-8.10360E-07-3.79841E-21 5.06380E-19
 -1      1409 9.02478E-05-2.64863E-05-2.73843E-05-3.43263E-07 3.66620E-19 5.11452E-19
 -1      1410 9.53781E-05-2.77200E-05-2.91077E-05-2.93765E-06 1.66865E-19 7.61641E-19
 -1      1411 9.05567E-05-2.66045E-05-2.74629E-05 1.32706E-06 2.14504E-19 5.68048E-19
 -1      1412 9.20085E-05-2.71387E-05-2.78458E-05 1.74617E-06-3.31163E-19 5.35034E-19
 -1      1413 9.47011E-05-2.74094E-05-2.89676E-05 9.30857E-07 2.08569E-19 2.61333E-19
 -1      1414 9.34666E-05-2.76884E-05-2.82214E-05 2.93944E-06 7.16405E-20 6.01446E-19
 -1      1415 9.63577E-05-2.87353E-05-2.89922E-05 3.14449E-06 3.13548E-19 8.52486E-19
 -1      1416 9.65096E-05-2.82318E-05-2.93491E-05 4.43149E-06-2.85609E-20 3.97186E-19
 -1      1417 9.83869E-05-2.94659E-05-2.95378E-05 3.48785E-06 2.01366E-19 7.62383E-19
 -1      1418 1.01717E-04-3.06379E-05-3.04418E-05 3.44589E-06 1.94942E-19 1.69031E-18
 -1      1419 1.00052E-04-2.97977E-05-3.01251E-05 6.27190E-06 1.64166E-19 2.84947E-20
 -1      1420 1.03644E-04-3.12828E-05-3.09926E-05 3.01089E-06-2.88206E-19 1.38193E-18
 -1      1421 1.06483E-04-3.22425E-05-3.17817E-05 2.80497E-06-4.18448E-19 4.99591E-19
 -1      1422 1.04017E-04-3.14550E-05-3.10546E-05 6.10582E-06-4.36920E-19 1.25559E-19
 -1      1423 1.07844E-04-3.26502E-05-3.22031E-05 1.94256E-06-6.15462E-19 3.85559E-19
 -1      1424 1.09665E-04-3.32314E-05-3.27246E-05 1.68831E-06-5.15049E-19 2.62421E-19
 -1      1425 1.07243E-04-3.26838E-05-3.18837E-05 4.48849E-06-1.18193E-18-1.77447E-19
 -1      1426 1.10300E-04-3.33787E-05-3.29504E-05 7.67958E-07-3.99204E-19-6.42699E-19
 -1      1427 1.11020E-04-3.35783E-05-3.31680E-05 5.48460E-07-5.66500E-19-1.11372E-18
 -1      1428 1.09130E-04-3.32873E-05-3.24357E-05 2.31579E-06-1.24612E-18-3.90318E-19
 -1      1429 1.10997E-04-3.35169E-05-3.31987E-05-1.95896E-07-4.60912E-19-1.26077E-18
 -1      1430 1.10816E-04-3.34236E-05-3.31592E-05-3.46307E-07-1.15067E-19-2.09740E-18
 -1      1431 1.09626E-04-3.33308E-05-3.26472E-05 3.13866E-07-7.96826E-19-1.03623E-18
 -1      1432 1.10314E-04-3.32270E-05-3.30368E-05-8.33151E-07-6.45201E-22-1.71205E-18
 -1      1433 1.09539E-04-3.29526E-05-3.28223E-05-9.14872E-07 1.62180E-19-1.83712E-18
 -1      1434 1.09010E-04-3.29909E-05-3.25492E-05-1.15125E-06-3.45067E-19-1.24741E-18
 -1      1435 1.08752E-04-3.26865E-05-3.26024E-05-1.16254E-06 2.43412E-19-1.74873E-18
 -1      1436 1.07673E-04-3.23274E-05-3.22946E-05-1.19153E-06 2.40616E-19-1.27299E-18
 -1      1437 1.07666E-04-3.24449E-05-3.22245E-05-2.01596E-06 8.59341E-20-1.11613E-18
 -1      1438 1.06765E-04-3.20397E-05-3.20284E-05-1.26020E-06 2.78257E-19-1.44295E-18
 -1      1439 1.05597E-04-3.16636E-05-3.16906E-05-1.25502E-06 6.82613E-19-7.85564E-19
 -1      1440 1.05951E-04-3.18248E-05-3.17672E-05-2.38107E-06 5.50533E-19-6.42670E-19
 -1      1441 1.04685E-04-3.13853E-05-3.14167E-05-1.20936E-06 7.87446E-19-6.01711E-19
 -1      1442 1.03567E-04-3.10331E-05-3.10905E-05-1.18534E-06 1.03044E-19 1.03404E-19
 -1      1443 1.04135E-04-3.12138E-05-3.12580E-05-2.39833E-06 8.75159E-19-8.32322E-19
 -1      1444 1.02723E-04-3.07815E-05-3.08333E-05-1.07793E-06-8.44808E-20 1.42728E-18
 -1      1445 1.01730E-04-3.04736E-05-3.05418E-05-1.04579E-06 4.42213E-19 1.35590E-18
 -1      1446 1.02397E-04-3.06574E-05-3.07550E-05-2.20803E-06 4.00468E-19-7.74258E-20
 -1      1447 1.00991E-04-3.02567E-05-3.03146E-05-9.13351E-07-7.09911E-19 1.55805E-18
 -1      1448 1.00153E-04-2.99999E-05-3.00675E-05-8.79756E-07-1.28520E-18-1.52195E-19
 -1      1449 1.00837E-04-3.01761E-05-3.02939E-05-1.91622E-06-1.24171E-19 4.66657E-19
 -1      1450 9.95311E-05-2.98196E-05-2.98754E-05-7.45124E-07-9.76514E-19 2.95724E-19
 -1      1451 9.88501E-05-2.96131E-05-2.96740E-05-7.13756E-07-9.14073E-19-8.45011E-19
 -1      1452 9.95006E-05-2.97747E-05-2.98929E-05-1.59336E-06-1.36508E-18 9.33152E-19
 -1      1453 9.83440E-05-2.94674E-05-2.95172E-05-5.89518E-07 1.71079E-19-1.44926E-18
 -1      1454 9.78077E-05-2.93061E-05-2.93580E-05-5.62092E-07-2.00108E-19-1.54351E-18
 -1      1455 9.83952E-05-2.94496E-05-2.95575E-05-1.28127E-06-1.13621E-18-2.09004E-19
 -1      1456 9.74070E-05-2.91914E-05-2.92336E-05-4.53945E-07 2.72423E-19-9.38945E-19
 -1      1457 9.69961E-05-2.90688E-05-2.91114E-05-4.30962E-07 5.73780E-19-3.61180E-19
 -1      1458 9.75073E-05-2.91928E-05-2.92857E-05-1.00145E-06 8.07826E-19-3.43812E-19
 -1      1459 9.66869E-05-2.89806E-05-2.90153E-05-3.40284E-07 3.37548E-19 1.31670E-18
 -1      1460 9.63807E-05-2.88899E-05-2.89241E-05-3.21535E-07 5.39910E-19 2.20588E-18
 -1      1461 9.68124E-05-2.89944E-05-2.90716E-05-7.62180E-07 1.41388E-18 7.11083E-19
 -1      1462 9.61484E-05-2.88237E-05-2.88520E-05-2.47139E-07 5.50750E-19 1.51086E-18
 -1      1463 9.59280E-05-2.87588E-05-2.87861E-05-2.32011E-07 4.51923E-19 2.47494E-18
 -1      1464 9.62823E-05-2.88446E-05-2.89075E-05-5.63599E-07 7.34376E-19 2.05918E-18
 -1      1465 9.57592E-05-2.87107E-05-2.87339E-05-1.71275E-07 4.05544E-19 2.80946E-18
 -1      1466 9.56087E-05-2.86666E-05-2.86889E-05-1.58928E-07 2.34728E-19 3.36800E-18
 -1      1467 9.58893E-05-2.87341E-05-2.87853E-05-4.01130E-07 8.39150E-19 2.51872E-18
 -1      1468 9.54919E-05-2.86330E-05-2.86531E-05-1.08576E-07-5.88409E-19 1.28564E-18
 -1      1469 9.53995E-05-2.86063E-05-2.86254E-05-9.80609E-08-7.02105E-19 9.23430E-19
 -1      1470 9.56089E-05-2.86554E-05-2.86981E-05-2.67741E-07-6.23923E-19 1.18380E-18
 -1      1471 9.53251E-05-2.85846E-05-2.86029E-05-5.53393E-08-4.93637E-20 8.62361E-19
 -1      1472 9.52824E-05-2.85733E-05-2.85895E-05-4.58199E-08 1.17735E-19 8.00106E-19
 -1      1473 9.54203E-05-2.86022E-05-2.86394E-05-1.56067E-07-4.98165E-19-5.57720E-19
 -1      1474 9.52401E-05-2.85600E-05-2.85769E-05-1.02964E-08 4.71353E-19 1.03068E-18
 -1      1475 9.52396E-05-2.85653E-05-2.85730E-05-1.47386E-09-3.08322E-19 7.36437E-19
 -1      1476 9.53052E-05-2.85711E-05-2.86026E-05-6.28091E-08 1.12160E-19-9.69647E-19
 -1      1477 9.52273E-05-2.85750E-05-2.85610E-05 1.31338E-08-1.08330E-18 1.11103E-18
 -1      1478 9.52491E-05-2.85741E-05-2.85746E-05 5.59726E-09-5.96484E-19-4.23552E-19
 -1      1479 9.65088E-05-2.83668E-05-2.97275E-05 2.81574E-06 6.62142E-19 5.41241E-18
 -1      1480 1.02208E-04-2.93265E-05-3.20365E-05 4.24262E-06 5.88900E-19 6.50564E-18
 -1      1481 1.02032E-04-2.67178E-05-3.25800E-05 1.23032E-05 1.21258E-18 4.14178E-18
 -1      1482 9.22119E-05-2.75001E-05-2.78017E-05 1.06660E-06 5.37548E-19 4.09474E-18
 -1      1483 9.40309E-05-2.76262E-05-2.86741E-05 1.36604E-06 4.94482E-19 4.89550E-18
 -1      1484 9.64697E-05-2.80692E-05-2.95048E-05 4.59580E-06 1.00477E-18 3.20152E-18
 -1      1485 9.04811E-05-2.71002E-05-2.71393E-05 3.20015E-07 3.11874E-19 2.91313E-18
 -1      1486 9.10596E-05-2.71160E-05-2.73978E-05 4.63541E-07 3.65442E-19 3.58954E-18
 -1      1487 9.32095E-05-2.76610E-05-2.81312E-05 1.73791E-06 8.87068E-19 2.35646E-18
 -1      1488 8.99587E-05-2.69725E-05-2.69687E-05-2.27396E-08 2.87386E-19 2.30458E-18
 -1      1489 9.00206E-05-2.69264E-05-2.70002E-05 5.35455E-08 2.44270E-19 2.67081E-18
 -1      1490 9.17400E-05-2.74027E-05-2.75794E-05 5.17450E-07 5.54734E-19 1.65717E-18
 -1      1491 9.00502E-05-2.70033E-05-2.70057E-05-2.11012E-07 2.55816E-19 1.77366E-18
 -1      1492 8.98629E-05-2.69144E-05-2.69485E-05-1.62085E-07 1.59643E-19 2.07822E-18
 -1      1493 9.12281E-05-2.73097E-05-2.73992E-05-8.62383E-08 4.32437E-19 1.27612E-18
 -1      1494 9.05173E-05-2.71429E-05-2.71535E-05-3.42759E-07-7.15089E-20 1.69489E-18
 -1      1495 9.01763E-05-2.70185E-05-2.70505E-05-3.04090E-07 7.13088E-20 1.74505E-18
 -1      1496 9.12669E-05-2.73394E-05-2.74055E-05-4.45791E-07 2.42453E-19 1.09790E-18
 -1      1497 9.12558E-05-2.73656E-05-2.73774E-05-4.47459E-07 2.56336E-19 1.53715E-18
 -1      1498 9.07979E-05-2.72100E-05-2.72416E-05-4.14534E-07 9.28370E-20 1.65287E-18
 -1      1499 9.16675E-05-2.74668E-05-2.75232E-05-7.03223E-07 1.48866E-19 1.06343E-18
 -1      1500 9.22043E-05-2.76519E-05-2.76618E-05-5.31645E-07 3.76189E-19 9.10117E-19
 -1      1501 9.16522E-05-2.74707E-05-2.74989E-05-5.03540E-07 2.44831E-19 1.25204E-18
 -1      1502 9.23319E-05-2.76728E-05-2.77192E-05-9.03458E-07 4.05644E-19 7.42004E-19
 -1      1503 9.33239E-05-2.79876E-05-2.79986E-05-6.04015E-07 5.99923E-19-2.56413E-19
 -1      1504 9.26928E-05-2.77854E-05-2.78111E-05-5.78415E-07 4.63096E-19 4.65570E-19
 -1      1505 9.31999E-05-2.79379E-05-2.79772E-05-1.06623E-06 8.89325E-19 3.94135E-20
 -1      1506 9.46015E-05-2.83651E-05-2.83904E-05-6.76101E-07 1.64605E-19-6.75760E-19
 -1      1507 9.38942E-05-2.81434E-05-2.81755E-05-6.49828E-07 3.54122E-19-1.78337E-19
 -1      1508 9.42394E-05-2.82488E-05-2.82914E-05-1.21296E-06 6.84375E-19-4.59135E-20
 -1      1509 9.61457E-05-2.88421E-05-2.88696E-05-7.54624E-07-1.99508E-20-1.05603E-18
 -1      1510 9.52565E-05-2.85427E-05-2.86062E-05-7.39767E-07 6.34696E-20-8.29033E-19
 -1      1511 9.54387E-05-2.86008E-05-2.86717E-05-1.36088E-06 2.92802E-19-4.47405E-20
 -1      1512 9.78862E-05-2.93405E-05-2.93788E-05-8.90712E-07-6.41470E-20-6.98617E-19
 -1      1513 9.69721E-05-2.90518E-05-2.91048E-05-8.48497E-07-6.14777E-20-1.08519E-18
 -1      1514 9.69630E-05-2.90455E-05-2.91190E-05-1.57711E-06-3.24404E-20-3.93189E-19
 -1      1515 9.98624E-05-2.99263E-05-2.99768E-05-1.05761E-06-4.47893E-20-5.34001E-19
 -1      1516 9.87812E-05-2.95831E-05-2.96531E-05-1.00332E-06-1.21073E-19-7.09728E-19
 -1      1517 9.85876E-05-2.95178E-05-2.96157E-05-1.85676E-06-1.58804E-19-1.16097E-19
 -1      1518 1.02208E-04-3.06241E-05-3.06850E-05-1.26031E-06 1.97669E-19-5.23400E-19
 -1      1519 1.00918E-04-3.02129E-05-3.02999E-05-1.19338E-06 1.35783E-19-4.26733E-19
 -1      1520 1.00501E-04-3.00769E-05-3.01992E-05-2.20456E-06 1.26263E-19-6.93083E-19
 -1      1521 1.04972E-04-3.14518E-05-3.15166E-05-1.48547E-06 2.62266E-19-8.24242E-19
 -1      1522 1.03444E-04-3.09627E-05-3.10622E-05-1.40828E-06 3.13652E-19-3.86128E-19
 -1      1523 1.02748E-04-3.07406E-05-3.08809E-05-2.60704E-06 3.33796E-19-4.76916E-19
 -1      1524 1.08158E-04-3.24149E-05-3.24690E-05-1.70012E-06-1.04387E-19-1.06419E-18
 -1      1525 1.06390E-04-3.18476E-05-3.19468E-05-1.62074E-06 6.65285E-20-1.02572E-18
 -1      1526 1.05349E-04-3.15222E-05-3.16628E-05-3.02302E-06 3.30690E-19-1.03689E-19
 -1      1527 1.11669E-04-3.34923E-05-3.35074E-05-1.83958E-06 2.73000E-19-1.39578E-18
 -1      1528 1.09719E-04-3.28664E-05-3.29378E-05-1.77597E-06 1.89476E-19-1.07909E-18
 -1      1529 1.08272E-04-3.24237E-05-3.25272E-05-3.36554E-06 1.63169E-19-2.93960E-19
 -1      1530 1.15239E-04-3.46142E-05-3.45435E-05-1.79416E-06 1.56450E-19-1.60421E-18
 -1      1531 1.13269E-04-3.39850E-05-3.39792E-05-1.77934E-06 2.89983E-19-1.37630E-18
 -1      1532 1.11385E-04-3.34237E-05-3.34231E-05-3.47920E-06 4.36870E-19-3.23077E-19
 -1      1533 1.18346E-04-3.56325E-05-3.54132E-05-1.40559E-06-8.28031E-19-7.79720E-19
 -1      1534 1.16678E-04-3.51101E-05-3.49528E-05-1.49061E-06-5.66053E-19-1.46681E-18
 -1      1535 1.14404E-04-3.44581E-05-3.42518E-05-3.12418E-06-4.43531E-19-1.36227E-19
 -1      1536 1.20167E-04-3.62941E-05-3.58717E-05-5.00100E-07-3.30766E-19 7.10378E-19
 -1      1537 1.19309E-04-3.60557E-05-3.56627E-05-7.45716E-07-5.38369E-19-5.08815E-20
 -1      1538 1.16842E-04-3.53911E-05-3.48591E-05-1.99850E-06-1.12823E-18 7.41134E-19
 -1      1539 1.19662E-04-3.62472E-05-3.56368E-05 1.00412E-06-5.59836E-20 1.11205E-18
 -1      1540 1.20247E-04-3.65180E-05-3.58483E-05 5.59978E-07-9.49603E-20 9.89930E-19
 -1      1541 1.18001E-04-3.59841E-05-3.50537E-05 1.43986E-07-4.57027E-19 1.46235E-18
 -1      1542 1.15947E-04-3.51376E-05-3.45155E-05 2.89599E-06 3.15705E-19 7.18231E-19
 -1      1543 1.18490E-04-3.61029E-05-3.52587E-05 2.30488E-06 2.06014E-19 1.19622E-18
 -1      1544 1.17104E-04-3.58925E-05-3.46710E-05 3.22727E-06 2.91247E-19 1.67900E-18
 -1      1545 1.09028E-04-3.28644E-05-3.25953E-05 4.46977E-06-1.37246E-20 1.68718E-19
 -1      1546 1.13454E-04-3.44885E-05-3.38044E-05 3.94120E-06 9.26310E-20 2.98103E-19
 -1      1547 1.13657E-04-3.47668E-05-3.36853E-05 6.47852E-06 4.50827E-19 7.39989E-19
 -1      1548 1.00607E-04-2.99501E-05-3.03824E-05 4.66299E-06-4.50079E-19 5.06473E-19
 -1      1549 1.05785E-04-3.17856E-05-3.17325E-05 4.51972E-06-3.11114E-19-2.14617E-19
 -1      1550 1.08066E-04-3.25549E-05-3.23144E-05 8.30624E-06-2.64693E-19 5.01814E-19
 -1      1551 9.39531E-05-2.75710E-05-2.87056E-05 2.81448E-06 1.70479E-19 1.04153E-18
 -1      1552 9.78562E-05-2.88394E-05-2.96832E-05 3.26338E-06 5.96894E-20 8.53809E-19
 -1      1553 1.02120E-04-2.99276E-05-3.10186E-05 7.05162E-06-4.05358E-19 2.41166E-19
 -1      1554 9.23597E-05-2.70169E-05-2.82921E-05-5.24268E-07 6.31728E-19-3.25247E-19
 -1      1555 9.30729E-05-2.70248E-05-2.84665E-05 3.63041E-07 4.47313E-19 8.42930E-19
 -1      1556 9.84872E-05-2.81478E-05-3.03119E-05 2.45091E-06 7.34907E-19 7.16921E-19
 -1      1557 9.67057E-05-2.86187E-05-2.93411E-05-3.58352E-06 3.25228E-19-2.03097E-18
 -1      1558 9.38441E-05-2.73524E-05-2.86254E-05-2.74257E-06 9.93252E-19-7.14234E-19
 -1      1559 9.91362E-05-2.83771E-05-3.04889E-05-3.43854E-06 1.33355E-18 1.17605E-19
 -1      1560 1.04736E-04-3.14615E-05-3.13735E-05-4.83677E-06-1.09801E-19-2.47016E-18
 -1      1561 9.97501E-05-2.95940E-05-3.00970E-05-4.44375E-06-4.61779E-19-2.85900E-18
 -1      1562 1.03703E-04-3.04839E-05-3.14708E-05-7.53586E-06 5.76247E-20-9.65618E-19
 -1      1563 1.12837E-04-3.41813E-05-3.35520E-05-4.11461E-06 8.86076E-21-2.36693E-18
 -1      1564 1.07900E-04-3.25311E-05-3.22360E-05-4.21274E-06-8.47827E-20-2.65222E-18
 -1      1565 1.09825E-04-3.32032E-05-3.28511E-05-8.17842E-06-2.28732E-19-1.97422E-18
 -1      1566 1.18359E-04-3.58973E-05-3.51638E-05-2.33227E-06-8.06997E-20-2.94781E-18
 -1      1567 1.15019E-04-3.49273E-05-3.42219E-05-2.70070E-06 4.33046E-20-3.16610E-18
 -1      1568 1.14940E-04-3.52479E-05-3.41226E-05-5.98238E-06 2.34046E-19-2.51114E-18
 -1      1569 1.20503E-04-3.64517E-05-3.58925E-05-5.06563E-07-4.71433E-19-1.72586E-18
 -1      1570 1.19194E-04-3.61944E-05-3.54843E-05-9.04330E-07-3.65706E-19-2.61675E-18
 -1      1571 1.17674E-04-3.61159E-05-3.49111E-05-2.69728E-06-4.77369E-19-2.09844E-18
 -1      1572 1.19813E-04-3.61160E-05-3.58039E-05 8.15858E-07-3.03476E-19-6.29597E-19
 -1      1573 1.20177E-04-3.63727E-05-3.58667E-05 5.16709E-07-4.30498E-19-1.40231E-18
 -1      1574 1.17951E-04-3.59840E-05-3.50932E-05 2.28815E-07-6.99371E-19-5.70483E-19
 -1      1575 1.17326E-04-3.52631E-05-3.51523E-05 1.53860E-06 9.29205E-19-1.98302E-18
 -1      1576 1.18725E-04-3.57964E-05-3.55261E-05 1.36420E-06 7.53244E-19-7.56070E-19
 -1      1577 1.16401E-04-3.52499E-05-3.47554E-05 2.17277E-06 8.89265E-19-1.69415E-18
 -1      1578 1.14006E-04-3.41996E-05-3.42130E-05 1.79021E-06 1.25219E-19-2.27105E-18
 -1      1579 1.15865E-04-3.48268E-05-3.47367E-05 1.71606E-06 2.24683E-19-1.77878E-18
 -1      1580 1.13806E-04-3.42578E-05-3.40790E-05 3.13175E-06 4.14540E-19-7.00073E-19
 -1      1581 1.10534E-04-3.31239E-05-3.31975E-05 1.74777E-06-1.03619E-19-2.72857E-18
 -1      1582 1.12458E-04-3.37344E-05-3.37531E-05 1.73801E-06 3.76070E-19-2.96863E-18
 -1      1583 1.10814E-04-3.32273E-05-3.32455E-05 3.36905E-06 7.71847E-19-1.49063E-18
 -1      1584 1.07305E-04-3.21427E-05-3.22360E-05 1.55565E-06 5.33877E-19-3.22227E-18
 -1      1585 1.09074E-04-3.26827E-05-3.27540E-05 1.58059E-06 3.40085E-19-3.02637E-18
 -1      1586 1.07856E-04-3.22733E-05-3.23912E-05 3.17619E-06 3.30308E-19-2.29605E-18
 -1      1587 1.04503E-04-3.13015E-05-3.13930E-05 1.30814E-06-3.68889E-19-2.76211E-18
 -1      1588 1.06019E-04-3.17523E-05-3.18411E-05 1.34806E-06-4.95142E-19-3.18111E-18
 -1      1589 1.05174E-04-3.14445E-05-3.15990E-05 2.77625E-06-3.26511E-19-2.06259E-18
 -1      1590 1.02179E-04-3.06095E-05-3.06898E-05 1.05846E-06-7.72587E-20-2.03092E-18
 -1      1591 1.03422E-04-3.09715E-05-3.10592E-05 1.10188E-06-3.91604E-20-1.78993E-18
 -1      1592 1.02871E-04-3.07534E-05-3.09093E-05 2.31096E-06-4.55317E-19-1.56522E-18
 -1      1593 1.00314E-04-3.00571E-05-3.01234E-05 8.32489E-07 3.95353E-19-1.50230E-18
 -1      1594 1.01300E-04-3.03398E-05-3.04177E-05 8.73496E-07 3.07777E-20-1.30253E-18
 -1      1595 1.00968E-04-3.01938E-05-3.03344E-05 1.85865E-06-1.11066E-19-2.42922E-19
 -1      1596 9.88549E-05-2.96263E-05-2.96792E-05 6.40027E-07-6.41718E-19-4.42341E-19
 -1      1597 9.96183E-05-2.98422E-05-2.99076E-05 6.76026E-07-7.86037E-20-6.54320E-19
 -1      1598 9.94415E-05-2.97508E-05-2.98700E-05 1.45624E-06-2.42255E-19 1.90127E-18
 -1      1599 9.77369E-05-2.92973E-05-2.93384E-05 4.82245E-07 3.27431E-20-9.51919E-20
 -1      1600 9.83154E-05-2.94589E-05-2.95118E-05 5.12498E-07-1.95789E-19-8.48942E-19
 -1      1601 9.82444E-05-2.94069E-05-2.95042E-05 1.11642E-06-1.77182E-20 7.87095E-19
 -1      1602 9.68972E-05-2.90507E-05-2.90821E-05 3.56114E-07-1.24205E-18 1.78292E-18
 -1      1603 9.73269E-05-2.91693E-05-2.92112E-05 3.80852E-07-9.18625E-19 6.74528E-19
 -1      1604 9.73247E-05-2.91448E-05-2.92222E-05 8.38955E-07-1.21133E-18 1.36887E-18
 -1      1605 9.62800E-05-2.88698E-05-2.88937E-05 2.56800E-07 1.27437E-18 1.58621E-18
 -1      1606 9.65921E-05-2.89548E-05-2.89876E-05 2.76745E-07 5.49081E-19 2.34678E-18
 -1      1607 9.66321E-05-2.89486E-05-2.90092E-05 6.17314E-07-1.50175E-19 2.55728E-18
 -1      1608 9.58387E-05-2.87405E-05-2.87590E-05 1.78838E-07 3.49506E-19-1.64315E-19
 -1      1609 9.60585E-05-2.87993E-05-2.88251E-05 1.94973E-07 7.48336E-19 5.14983E-19
 -1      1610 9.61219E-05-2.88047E-05-2.88520E-05 4.42281E-07 1.77582E-18 2.63659E-18
 -1      1611 9.55370E-05-2.86521E-05-2.86670E-05 1.16752E-07-2.18568E-19-2.20565E-19
 -1      1612 9.56838E-05-2.86902E-05-2.87112E-05 1.30194E-07 5.48625E-19 4.45339E-19
 -1      1613 9.57570E-05-2.87020E-05-2.87396E-05 3.03806E-07 4.71679E-19 3.13476E-18
 -1      1614 9.53482E-05-2.85967E-05-2.86097E-05 6.56150E-08-4.98708E-19 4.81935E-19
 -1      1615 9.54355E-05-2.86178E-05-2.86359E-05 7.75171E-08-8.59898E-19-8.76693E-19
 -1      1616 9.55078E-05-2.86318E-05-2.86631E-05 1.92233E-07-8.59055E-19 2.28654E-18
 -1      1617 9.52522E-05-2.85690E-05-2.85798E-05 2.15947E-08-2.77944E-19 1.08273E-18
 -1      1618 9.52893E-05-2.85752E-05-2.85917E-05 3.32808E-08-2.96332E-19 6.85854E-19
 -1      1619 9.53511E-05-2.85874E-05-2.86149E-05 9.98194E-08-8.00518E-19 2.62368E-18
 -1      1620 9.52298E-05-2.85668E-05-2.85676E-05-1.06703E-08 7.59441E-19-1.07084E-19
 -1      1621 9.52265E-05-2.85601E-05-2.85705E-05-1.45607E-09 4.68233E-19 5.31330E-19
 -1      1622 9.52675E-05-2.85673E-05-2.85870E-05 2.34948E-08 1.03068E-18 1.70452E-18
 -1      1623 9.52290E-05-2.85764E-05-2.85610E-05-1.20683E-08 3.20718E-19-4.48789E-19
 -1      1624 9.52473E-05-2.85682E-05-2.85778E-05 1.25694E-08 2.74893E-18 1.88492E-18
 -1      1625 9.52455E-05-2.85719E-05-2.85730E-05 4.38490E-09 6.12063E-19 1.88593E-18
 -1      1626 9.52231E-05-2.84887E-05-2.86018E-05 5.46196E-08 3.22992E-18-1.41232E-18
 -1      1627 9.52364E-05-2.85304E-05-2.85891E-05 4.59395E-08 3.54057E-18-1.86750E-19
 -1      1628 9.52398E-05-2.85076E-05-2.86012E-05 6.21928E-08 1.91205E-18 1.40990E-18
 -1      1629 9.51783E-05-2.83543E-05-2.86397E-05 8.82160E-08 1.28700E-18-1.05418E-18
 -1      1630 9.52032E-05-2.84289E-05-2.86185E-05 8.24635E-08 3.87432E-18-1.01071E-18
 -1      1631 9.52054E-05-2.84074E-05-2.86298E-05 1.36136E-07 1.95606E-18-1.51394E-18
 -1      1632 9.51229E-05-2.81884E-05-2.86866E-05 1.03497E-07 2.64305E-18 3.01865E-19
 -1      1633 9.51534E-05-2.82800E-05-2.86606E-05 1.02000E-07 2.16781E-18 6.33530E-19
 -1      1634 9.51559E-05-2.82704E-05-2.86661E-05 1.85981E-07 1.59789E-18 1.51544E-20
 -1      1635 9.50687E-05-2.80251E-05-2.87331E-05 9.85288E-08 2.44251E-18 6.10725E-19
 -1      1636 9.50980E-05-2.81133E-05-2.87079E-05 1.01032E-07 2.35114E-18-1.14868E-18
 -1      1637 9.51006E-05-2.81184E-05-2.87063E-05 1.98876E-07 2.36893E-18-8.24847E-19
 -1      1638 9.50236E-05-2.78884E-05-2.87722E-05 7.52273E-08 2.71507E-18 7.85822E-19
 -1      1639 9.50470E-05-2.79590E-05-2.87520E-05 8.11309E-08 1.95671E-18 9.01500E-19
 -1      1640 9.50490E-05-2.79754E-05-2.87442E-05 1.74351E-07 1.11125E-18 1.61365E-19
 -1      1641 9.49964E-05-2.78055E-05-2.87960E-05 3.85184E-08 2.11070E-18-1.08755E-18
 -1      1642 9.50092E-05-2.78441E-05-2.87849E-05 4.65700E-08 2.80898E-18 6.90298E-19
 -1      1643 9.50091E-05-2.78642E-05-2.87739E-05 1.18072E-07 2.24547E-19 4.97770E-19
 -1      1644 9.49916E-05-2.77906E-05-2.88003E-05-4.77005E-09 4.10550E-18 1.68316E-18
 -1      1645 9.49915E-05-2.77903E-05-2.88004E-05 3.98472E-09 2.61333E-18 1.67567E-19
 -1      1646 9.49878E-05-2.78043E-05-2.87900E-05 4.11490E-08 6.75419E-19-3.41179E-20
 -1      1647 9.50098E-05-2.78456E-05-2.87845E-05-4.70540E-08 4.18607E-18-6.37508E-19
 -1      1648 9.49969E-05-2.78067E-05-2.87957E-05-3.91089E-08 4.15158E-18 5.06572E-19
 -1      1649 9.49882E-05-2.78053E-05-2.87898E-05-4.26107E-08 3.60951E-18 8.29138E-19
 -1      1650 9.50477E-05-2.79609E-05-2.87515E-05-8.09723E-08 3.03370E-18-1.50950E-18
 -1      1651 9.50245E-05-2.78905E-05-2.87716E-05-7.52454E-08 4.06181E-18-5.50945E-19
 -1      1652 9.50102E-05-2.78669E-05-2.87733E-05-1.18684E-07 2.91969E-18-9.49134E-19
 -1      1653 9.50980E-05-2.81131E-05-2.87080E-05-1.00144E-07 3.15101E-18 5.21018E-19
 -1      1654 9.50690E-05-2.80257E-05-2.87329E-05-9.77366E-08 3.56199E-18-1.76178E-18
 -1      1655 9.50500E-05-2.79778E-05-2.87437E-05-1.73458E-07 3.15209E-18-1.62428E-18
 -1      1656 9.51534E-05-2.82799E-05-2.86605E-05-1.01008E-07 4.57280E-18 1.02759E-18
 -1      1657 9.51232E-05-2.81892E-05-2.86863E-05-1.02519E-07 2.48139E-18 2.86501E-18
 -1      1658 9.51011E-05-2.81202E-05-2.87058E-05-1.97186E-07 2.47371E-18 1.61030E-18
 -1      1659 9.52025E-05-2.84277E-05-2.86187E-05-8.17806E-08 2.41798E-18-1.80833E-18
 -1      1660 9.51779E-05-2.83535E-05-2.86399E-05-8.73381E-08 4.68047E-18-8.07169E-19
 -1      1661 9.51563E-05-2.82724E-05-2.86655E-05-1.84248E-07 1.16897E-18 3.00720E-19
 -1      1662 9.52370E-05-2.85285E-05-2.85897E-05-4.70472E-08 1.25399E-18 4.20001E-20
 -1      1663 9.52215E-05-2.84860E-05-2.86023E-05-5.58722E-08 1.92077E-18-6.02466E-19
 -1      1664 9.52040E-05-2.84068E-05-2.86294E-05-1.35176E-07 1.48684E-18-2.37877E-18
 -1      1665 9.52482E-05-2.85592E-05-2.85796E-05-1.74499E-08-7.08563E-19-2.71104E-18
 -1      1666 9.52478E-05-2.85512E-05-2.85855E-05-2.88064E-08 1.03221E-18-2.24605E-18
 -1      1667 9.52444E-05-2.84900E-05-2.86091E-05-8.40509E-08 7.84033E-19-5.37709E-19
 -1      1668 9.52664E-05-2.85368E-05-2.85969E-05-4.35596E-08-1.58412E-19-2.37406E-18
 -1      1669 1.99326E-05-6.43485E-05 1.33944E-05-5.82493E-06-1.26250E-18 3.09548E-18
 -1      1670 2.28744E-05-7.33614E-05 1.54045E-05 1.62326E-06-5.76025E-18 1.85881E-18
 -1      1671 1.96053E-05-3.92431E-05 4.03838E-06 1.93478E-06 4.48250E-18 4.25496E-18
 -1      1672 2.39806E-05-6.09508E-05 9.83344E-06-1.22691E-06 3.77777E-19 2.75381E-18
 -1      1673 3.30939E-05-1.13059E-05-1.15530E-05 2.66688E-05 7.25145E-18 6.46921E-18
 -1      1674 2.76256E-05-3.25262E-05-2.79562E-06 8.57119E-06 5.11438E-18 5.22196E-18
 -1      1675 8.55096E-05-7.29223E-06-3.25706E-05 6.05178E-05 6.96176E-18 6.97532E-18
 -1      1676 5.64437E-05-1.21442E-05-2.13616E-05 3.60297E-05 7.30651E-18 6.48234E-18
 -1      1677 1.53801E-04-2.20447E-05-5.26249E-05 7.59931E-05 4.71797E-18 5.94194E-18
 -1      1678 1.08180E-04-6.84571E-06-4.28025E-05 6.55453E-05 6.51538E-18 7.27517E-18
 -1      1679 2.20880E-04-4.96218E-05-6.75562E-05 5.51352E-05 2.33866E-18 3.97004E-18
 -1      1680 1.78197E-04-2.86363E-05-6.05749E-05 6.93951E-05 3.59460E-18 5.52096E-18
 -1      1681 2.56175E-04-6.52994E-05-7.49074E-05 8.79037E-06 1.63223E-18-6.20452E-20
 -1      1682 2.37712E-04-5.50836E-05-7.23802E-05 4.28881E-05 2.24294E-18 2.46275E-18
 -1      1683 2.40898E-04-5.66676E-05-7.29856E-05-4.19322E-05 1.18458E-18-2.25692E-18
 -1      1684 2.57897E-04-6.61098E-05-7.51844E-05-8.25279E-06 1.23603E-18-1.12433E-18
 -1      1685 1.76433E-04-2.88607E-05-6.02666E-05-6.30229E-05 2.32024E-18-3.73880E-18
 -1      1686 2.19976E-04-4.96738E-05-6.75376E-05-4.80249E-05 1.38638E-18-2.76556E-18
 -1      1687 1.08960E-04-1.05520E-05-4.18992E-05-6.05324E-05 4.07592E-18-4.49012E-18
 -1      1688 1.54060E-04-2.51164E-05-5.20209E-05-7.03719E-05 2.61098E-18-3.96242E-18
 -1      1689 5.68091E-05-1.01315E-05-2.23636E-05-3.78097E-05 5.93601E-18-4.16994E-18
 -1      1690 8.36721E-05-6.68347E-06-3.23390E-05-5.97397E-05 4.68240E-18-4.39102E-18
 -1      1691 2.86675E-05-2.99381E-05-4.17520E-06-1.04358E-05 5.26939E-18-4.08693E-18
 -1      1692 3.56282E-05-9.67945E-06-1.31272E-05-2.93767E-05 6.11304E-18-4.32156E-18
 -1      1693 2.41591E-05-5.88572E-05 8.83620E-06 1.20472E-06 6.90332E-19-1.93327E-18
 -1      1694 2.02706E-05-3.68457E-05 2.84235E-06-3.61174E-06 3.88195E-18-4.13543E-18
 -1      1695 2.38324E-05-7.58891E-05 1.56238E-05-3.52606E-07-3.50079E-18-1.62588E-18
 -1      1696 1.99156E-05-6.46297E-05 1.31604E-05 7.34556E-06-1.11385E-19-1.88613E-18
 -1      1697 1.98065E-05-6.53036E-05 1.38668E-05-4.84884E-06-5.62769E-18-1.61593E-18
 -1      1698 2.26839E-05-7.36245E-05 1.55705E-05 3.49145E-06-4.18080E-18-9.34489E-19
 -1      1699 2.03041E-05-3.80258E-05 3.70910E-06 5.36127E-06-5.89366E-18-1.59888E-18
 -1      1700 2.45079E-05-6.06208E-05 9.92134E-06 1.98854E-06-5.68020E-18-1.88883E-18
 -1      1701 3.26094E-05-1.02946E-05-1.15343E-05 2.72394E-05-4.76541E-18-2.40261E-18
 -1      1702 2.78018E-05-3.11447E-05-3.03830E-06 1.03832E-05-5.92076E-18-1.98841E-18
 -1      1703 7.22609E-05-5.53248E-07-3.01122E-05 5.89939E-05-3.04254E-18-4.17757E-18
 -1      1704 4.85015E-05-6.59800E-06-2.03161E-05 3.61596E-05-3.56601E-18-2.87991E-18
 -1      1705 1.42892E-04-1.82314E-05-4.99663E-05 7.55663E-05-2.95699E-18-3.84722E-18
 -1      1706 9.88267E-05-5.01356E-06-3.97690E-05 6.25505E-05-2.82147E-18-3.90990E-18
 -1      1707 2.10442E-04-4.44177E-05-6.54028E-05 6.44114E-05-1.60513E-18-3.75236E-18
 -1      1708 1.67467E-04-2.30991E-05-5.84554E-05 7.51829E-05-2.43014E-18-3.81588E-18
 -1      1709 2.49956E-04-6.31182E-05-7.35008E-05 1.82814E-05-7.73765E-19-2.82125E-18
 -1      1710 2.27171E-04-5.03559E-05-7.02431E-05 5.03711E-05-1.02660E-18-3.46691E-18
 -1      1711 2.44526E-04-5.94594E-05-7.30711E-05-3.44785E-05-6.41204E-19-1.24641E-18
 -1      1712 2.54728E-04-6.53450E-05-7.45062E-05 2.04984E-07-1.07213E-18-2.58406E-18
 -1      1713 1.94556E-04-3.45571E-05-6.41920E-05-6.94754E-05-1.79613E-18 2.09979E-18
 -1      1714 2.31814E-04-5.42501E-05-6.97127E-05-4.95892E-05-1.10982E-18 3.38390E-19
 -1      1715 1.27803E-04-1.28982E-05-4.77606E-05-6.61321E-05-4.91110E-18 4.06068E-18
 -1      1716 1.71770E-04-3.02579E-05-5.66104E-05-6.93085E-05-2.69801E-18 2.18026E-18
 -1      1717 6.26504E-05-1.56050E-06-2.75722E-05-4.74383E-05-7.17352E-18 5.73357E-18
 -1      1718 9.80837E-05-3.86947E-06-3.85475E-05-7.01629E-05-5.71917E-18 5.03307E-18
 -1      1719 3.53485E-05-2.66233E-05-7.48559E-06-1.76770E-05-7.44203E-18 4.19705E-18
 -1      1720 4.71295E-05-8.27386E-06-1.75252E-05-3.94718E-05-6.95753E-18 5.70223E-18
 -1      1721 2.40366E-05-5.72715E-05 8.27517E-06-1.81359E-08-8.16624E-18 3.25909E-18
 -1      1722 1.98971E-05-3.14811E-05 1.12971E-06-6.92293E-06-8.57028E-18 3.82160E-18
 -1      1723 2.33825E-05-7.47174E-05 1.55379E-05-2.54386E-06-7.57925E-18 9.77476E-19
 -1      1724 1.96122E-05-6.33049E-05 1.29609E-05 5.60685E-06-8.70708E-18 2.35401E-18
 -1      1725 1.22913E-04-3.49444E-05-3.67160E-05 4.24263E-05 4.24745E-18 3.80064E-18
 -1      1726 7.62545E-05-3.67107E-05-1.79915E-05 3.93548E-05 2.96123E-18 3.87602E-18
 -1      1727 9.52444E-05-2.85802E-05-2.85689E-05-1.37878E-08 1.41796E-19-1.84392E-19
 -1      1728 9.52481E-05-2.85519E-05-2.85834E-05 6.43895E-09 1.11620E-18 1.94689E-18
 -1      1729 1.84403E-05-4.63684E-05 7.87873E-06 1.39080E-05-1.05032E-18 5.50804E-18
 -1      1730 3.85006E-05-4.13860E-05-1.96071E-06 2.64039E-05 1.26377E-18 5.01359E-18
 -1      1731 1.13515E-05-4.82599E-05 1.13804E-05-7.17756E-07-3.82811E-18 3.27759E-18
 -1      1732 1.66942E-04-3.30017E-05-5.41293E-05 3.73114E-05 4.40436E-18 2.50552E-18
 -1      1733 1.99329E-04-3.35015E-05-6.61638E-05 2.05427E-05 3.15837E-18 1.50264E-18
 -1      1734 2.15002E-04-3.55320E-05-7.10332E-05 7.08184E-08 2.54533E-18 1.60513E-19
 -1      1735 1.97163E-04-3.27085E-05-6.59650E-05-1.66401E-05 1.81096E-18-1.67458E-18
 -1      1736 1.65554E-04-3.47124E-05-5.32647E-05-2.87473E-05 2.42069E-18-2.16078E-18
 -1      1737 1.24348E-04-3.63468E-05-3.65950E-05-4.11753E-05 2.41362E-18-1.95665E-18
 -1      1738 7.74129E-05-3.56570E-05-1.87975E-05-3.96717E-05 2.83841E-18-2.19085E-18
 -1      1739 4.10901E-05-4.07290E-05-3.17137E-06-2.75937E-05 1.07065E-18-3.78396E-18
 -1      1740 2.01772E-05-4.76170E-05 7.54258E-06-1.46375E-05-7.10237E-19-3.51773E-18
 -1      1741 1.16428E-05-4.94336E-05 1.16455E-05-4.12710E-08-1.89232E-18-2.66265E-18
 -1      1742 1.81330E-05-4.48595E-05 7.82961E-06 1.59671E-05-2.67874E-18-1.77496E-18
 -1      1743 3.87223E-05-4.06719E-05-2.15432E-06 2.84471E-05-3.77353E-18-8.87638E-19
 -1      1744 6.91253E-05-3.23886E-05-1.70416E-05 3.93273E-05-2.81215E-18-1.28918E-18
 -1      1745 1.13954E-04-3.05306E-05-3.47026E-05 4.57806E-05-1.13375E-18-1.75505E-18
 -1      1746 1.58715E-04-3.15986E-05-5.17696E-05 4.09786E-05-2.09514E-18-1.98036E-18
 -1      1747 1.94945E-04-3.32098E-05-6.45913E-05 2.83312E-05-1.54647E-18-2.33612E-18
 -1      1748 2.11298E-04-3.48335E-05-7.01258E-05 4.17472E-06-1.27817E-18-1.70307E-18
 -1      1749 2.05711E-04-3.50658E-05-6.78749E-05-2.05141E-05-1.85479E-18-6.45016E-19
 -1      1750 1.73674E-04-3.28376E-05-5.72788E-05-3.25980E-05-3.03150E-18 2.55804E-19
 -1      1751 1.33000E-04-3.09825E-05-4.17903E-05-4.32308E-05-3.83452E-18 1.11470E-18
 -1      1752 8.63274E-05-3.42114E-05-2.30828E-05-4.24355E-05-3.93786E-18 3.21322E-18
 -1      1753 4.80633E-05-3.99650E-05-5.64722E-06-3.29745E-05-4.42236E-18 2.41510E-18
 -1      1754 2.03773E-05-4.64948E-05 7.12094E-06-1.66072E-05-5.60228E-18 2.52458E-18
 -1      1755 1.03671E-04-2.26045E-05-3.48234E-05-1.72129E-05-9.54924E-19 3.58443E-18
 -1      1756 8.82824E-05-1.08577E-05-3.33171E-05-1.36325E-05-1.19472E-18-1.71450E-18
 -1      1757 8.94321E-05-1.18526E-05-3.33926E-05-1.55198E-05-1.37291E-18-1.29977E-18
 -1      1758 9.11815E-05-1.40330E-05-3.32328E-05-1.65972E-05-1.39966E-18-7.03673E-19
 -1      1759 9.25026E-05-1.57995E-05-3.34068E-05-1.83361E-05-1.48249E-18 2.56757E-20
 -1      1760 9.23736E-05-1.66668E-05-3.24680E-05-1.42934E-05-1.44093E-18-9.28070E-19
 -1      1761 8.57943E-05-7.96057E-06-3.34313E-05-7.92701E-06-7.80015E-19-2.41653E-18
 -1      1762 8.61242E-05-8.25056E-06-3.34414E-05-9.38117E-06-9.17883E-19-2.39071E-18
 -1      1763 8.50974E-05-7.25754E-06-3.34311E-05-5.13610E-06-5.41024E-19-2.39570E-18
 -1      1764 8.54335E-05-7.50249E-06-3.34597E-05-6.54104E-06-6.46855E-19-2.41722E-18
 -1      1765 8.72487E-05-1.01696E-05-3.30815E-05-6.90669E-06-8.28899E-19-2.34072E-18
 -1      1766 8.41825E-05-6.53875E-06-3.33516E-05-2.50260E-06-1.90025E-19-2.30353E-18
 -1      1767 8.46367E-05-6.80023E-06-3.34081E-05-3.77761E-06-3.05779E-19-2.36063E-18
 -1      1768 8.63695E-05-9.27923E-06-3.31038E-05-4.15858E-06-4.46726E-19-2.21980E-18
 -1      1769 8.32030E-05-5.83706E-06-3.32278E-05-3.18011E-07 1.32888E-19-2.21830E-18
 -1      1770 8.36187E-05-6.04875E-06-3.32886E-05-1.38253E-06-1.06706E-20-2.24883E-18
 -1      1771 8.52316E-05-8.32535E-06-3.30161E-05-1.65053E-06-1.27290E-19-2.16404E-18
 -1      1772 8.27859E-05-5.57954E-06-3.31409E-05 1.44480E-06 3.49490E-19-2.16114E-18
 -1      1773 8.28764E-05-5.60499E-06-3.31687E-05 5.02450E-07 2.46775E-19-2.20411E-18
 -1      1774 8.42433E-05-7.57845E-06-3.28852E-05 2.22771E-07 1.97840E-19-2.14081E-18
 -1      1775 8.32674E-05-6.01889E-06-3.31473E-05 3.25874E-06 6.13165E-19-2.09833E-18
 -1      1776 8.29610E-05-5.82249E-06-3.31250E-05 2.22627E-06 4.91938E-19-2.13841E-18
 -1      1777 8.40653E-05-7.59260E-06-3.28026E-05 1.68697E-06 4.68621E-19-2.09236E-18
 -1      1778 8.43565E-05-6.90876E-06-3.32332E-05 5.46383E-06 8.45183E-19-1.90056E-18
 -1      1779 8.38124E-05-6.57691E-06-3.31715E-05 4.25049E-06 6.97720E-19-2.03259E-18
 -1      1780 8.48761E-05-8.42390E-06-3.28056E-05 3.40685E-06 7.06424E-19-2.01596E-18
 -1      1781 8.57922E-05-8.06030E-06-3.33686E-05 8.15650E-06 1.13018E-18-1.63075E-18
 -1      1782 8.50928E-05-7.62367E-06-3.32768E-05 6.71486E-06 9.72616E-19-1.75953E-18
 -1      1783 8.62868E-05-9.70097E-06-3.28648E-05 5.66095E-06 1.02085E-18-1.79482E-18
 -1      1784 8.76306E-05-9.59062E-06-3.35325E-05 1.11898E-05 1.44062E-18-1.16885E-18
 -1      1785 8.67074E-05-8.97253E-06-3.34093E-05 9.53836E-06 1.25006E-18-1.45250E-18
 -1      1786 8.80454E-05-1.12926E-05-3.29311E-05 8.28792E-06 1.28600E-18-1.39915E-18
 -1      1787 9.03959E-05-1.20819E-05-3.37221E-05 1.44009E-05 1.66232E-18-3.59698E-19
 -1      1788 8.89252E-05-1.09691E-05-3.35481E-05 1.25510E-05 1.52134E-18-8.53147E-19
 -1      1789 9.03265E-05-1.34892E-05-3.29520E-05 1.09758E-05 1.58424E-18-8.96968E-19
 -1      1790 9.56693E-05-1.72037E-05-3.38302E-05 1.69403E-05 1.61560E-18 1.25207E-18
 -1      1791 9.26561E-05-1.45448E-05-3.36515E-05 1.53850E-05 1.58871E-18 2.92597E-19
 -1      1792 9.38019E-05-1.71342E-05-3.28459E-05 1.30858E-05 1.70988E-18 2.67874E-20
 -1      1793 1.01642E-04-2.51369E-05-3.32155E-05 1.38515E-05 1.43863E-18 3.14715E-18
 -1      1794 9.78516E-05-1.97369E-05-3.34776E-05 1.62871E-05 1.51074E-18 1.93695E-18
 -1      1795 9.71842E-05-2.20110E-05-3.22970E-05 1.25969E-05 1.65594E-18 1.21382E-18
 -1      1796 9.86110E-05-2.61989E-05-3.12501E-05 8.96609E-06 1.42722E-18 2.64892E-18
 -1      1797 9.79307E-05-1.91250E-05-3.34391E-05-1.95854E-05-1.25829E-18 1.36849E-18
 -1      1798 9.53725E-05-2.73839E-05-2.91681E-05 3.80841E-06 1.19761E-18 2.04177E-18
 -1      1799 9.76853E-05-2.74629E-05-3.01393E-05 6.04813E-06 1.14932E-18 2.38804E-18
 -1      1800 9.75146E-05-2.57339E-05-3.07563E-05 8.30208E-06 1.42392E-18 1.54599E-18
 -1      1801 9.79662E-05-2.24266E-05-3.20902E-05-1.52800E-05-1.33924E-18 8.40680E-19
 -1      1802 9.57872E-05-2.77931E-05-2.90242E-05-7.21137E-06-1.12290E-18 6.77984E-19
 -1      1803 9.49695E-05-2.90259E-05-2.83102E-05-5.46171E-06-1.12264E-18 4.09593E-19
 -1      1804 9.27451E-05-2.86580E-05-2.78536E-05-4.17487E-06-1.19352E-18 2.30327E-19
 -1      1805 9.14658E-05-2.67009E-05-2.77132E-05 2.26241E-06 7.43271E-20 5.53113E-19
 -1      1806 9.54994E-05-2.75933E-05-2.90643E-05-5.05735E-06-1.00546E-18-1.73417E-19
 -1      1807 8.73413E-05-2.24889E-05-2.70086E-05 1.96839E-06-7.49412E-19-5.45913E-19
 -1      1808 9.31676E-05-2.06300E-05-2.82628E-05-5.35060E-06-1.64070E-18 6.14099E-21
 -1      1809 9.83907E-05-2.89102E-05-2.82848E-05-7.24838E-06-1.73472E-18 3.82621E-19
 -1      1810 9.22141E-05-2.25865E-05-2.89703E-05-4.07991E-06-3.91541E-19-4.59780E-19
 -1      1811 9.34344E-05-2.50680E-05-2.92049E-05-3.62503E-06-1.51513E-19-4.63803E-19
 -1      1812 8.74998E-05-2.15763E-05-2.87638E-05-2.09387E-06-7.34907E-19-8.36180E-19
 -1      1813 9.49693E-05-2.68923E-05-2.91050E-05-2.91370E-06-2.07708E-19-3.83468E-19
 -1      1814 9.47513E-05-2.74147E-05-2.89209E-05-1.63837E-06-9.83286E-20-4.58311E-19
 -1      1815 9.28607E-05-2.47631E-05-2.90565E-05-2.51925E-06-1.80921E-19-6.48056E-19
 -1      1816 9.51652E-05-2.78034E-05-2.88564E-05-1.03125E-06-5.84056E-20-5.03647E-19
 -1      1817 9.50201E-05-2.78845E-05-2.87786E-05-3.91927E-07-5.09808E-20-5.10329E-19
 -1      1818 9.46883E-05-2.70197E-05-2.89818E-05-1.39216E-06-1.03384E-19-6.80521E-19
 -1      1819 9.52091E-05-2.79952E-05-2.87911E-05 1.96483E-07-2.74187E-19-4.51761E-19
 -1      1820 9.53390E-05-2.80675E-05-2.88221E-05 6.77965E-07-3.66329E-19-4.11900E-19
 -1      1821 9.51907E-05-2.76234E-05-2.89638E-05-3.13544E-08-1.68585E-19-5.25131E-19
 -1      1822 9.56036E-05-2.81651E-05-2.88933E-05 1.22031E-06-4.89570E-19-2.28666E-19
 -1      1823 9.59852E-05-2.82845E-05-2.90049E-05 1.67114E-06-3.46114E-19-2.19583E-19
 -1      1824 9.56457E-05-2.78817E-05-2.90542E-05 1.24032E-06-2.83169E-19-6.25234E-19
 -1      1825 9.63137E-05-2.83538E-05-2.91153E-05 2.14122E-06-2.64819E-19-1.70035E-19
 -1      1826 9.68006E-05-2.84327E-05-2.92515E-05 2.54729E-06-2.04714E-19-2.60597E-19
 -1      1827 9.62652E-05-2.80839E-05-2.92258E-05 2.36564E-06-4.93612E-19-3.43631E-19
 -1      1828 9.71127E-05-2.83960E-05-2.93372E-05 2.87932E-06-2.61684E-19-4.43872E-19
 -1      1829 9.75885E-05-2.84911E-05-2.93254E-05 2.92618E-06-9.40207E-20-3.78809E-19
 -1      1830 9.69434E-05-2.82235E-05-2.94031E-05 3.21636E-06-3.52432E-19-2.79059E-19
 -1      1831 9.75126E-05-2.88012E-05-2.91906E-05 2.74724E-06-7.59418E-20-5.26987E-19
 -1      1832 9.77309E-05-2.91545E-05-2.93788E-05 2.61422E-06-2.51504E-20-7.07068E-19
 -1      1833 9.77054E-05-2.84710E-05-2.94064E-05 3.64953E-06-2.78541E-19-2.31664E-19
 -1      1834 9.82687E-05-2.93062E-05-2.95543E-05 2.80262E-06 1.58504E-19-9.03456E-19
 -1      1835 9.90631E-05-2.95448E-05-2.97833E-05 2.95057E-06 8.65429E-20-7.50244E-19
 -1      1836 9.76613E-05-2.90402E-05-2.94149E-05 3.43609E-06-2.30386E-20-4.90303E-19
 -1      1837 9.96767E-05-2.97317E-05-2.99755E-05 3.13976E-06-8.48605E-21-4.80882E-19
 -1      1838 1.00558E-04-3.00137E-05-3.02260E-05 3.27588E-06-6.51851E-20-1.15019E-19
 -1      1839 9.88129E-05-2.93838E-05-2.97614E-05 3.86109E-06 2.46207E-19-5.14854E-19
 -1      1840 1.01250E-04-3.02465E-05-3.04297E-05 3.43003E-06 3.68813E-20 2.41572E-19
 -1      1841 1.02200E-04-3.05775E-05-3.06937E-05 3.51555E-06 3.00985E-19 4.87887E-19
 -1      1842 1.00125E-04-2.98298E-05-3.01325E-05 4.24915E-06 9.20983E-20 1.83365E-19
 -1      1843 1.02966E-04-3.08676E-05-3.08996E-05 3.57631E-06 1.42986E-19 5.49264E-19
 -1      1844 1.03937E-04-3.12462E-05-3.11613E-05 3.55213E-06 1.82508E-19 5.94609E-19
 -1      1845 1.01599E-04-3.04129E-05-3.05141E-05 4.49757E-06 2.74990E-19 3.21433E-19
 -1      1846 1.04761E-04-3.16024E-05-3.13553E-05 3.43567E-06-3.06305E-20 1.24439E-19
 -1      1847 1.05671E-04-3.20138E-05-3.15890E-05 3.22287E-06-5.60150E-20 9.92286E-20
 -1      1848 1.03219E-04-3.11666E-05-3.08842E-05 4.45131E-06-2.50936E-19 4.03221E-19
 -1      1849 1.06515E-04-3.24329E-05-3.17529E-05 2.82450E-06-1.07125E-19-1.05049E-19
 -1      1850 1.07234E-04-3.28368E-05-3.19229E-05 2.33577E-06-2.10964E-19-3.98188E-20
 -1      1851 1.04935E-04-3.21053E-05-3.12145E-05 3.90434E-06-1.70189E-19 6.85065E-19
 -1      1852 1.08027E-04-3.32867E-05-3.20373E-05 1.55217E-06-3.16443E-19-2.52350E-19
 -1      1853 1.08383E-04-3.36014E-05-3.21029E-05 7.24554E-07-5.06400E-20-2.91910E-19
 -1      1854 1.06635E-04-3.31872E-05-3.14746E-05 2.62706E-06-3.63179E-19-1.14763E-19
 -1      1855 1.08999E-04-3.39956E-05-3.21537E-05-4.92348E-07 4.05980E-19-2.25770E-19
 -1      1856 1.08801E-04-3.40875E-05-3.20804E-05-1.63580E-06 4.93675E-19-3.63963E-19
 -1      1857 1.08115E-04-3.42542E-05-3.16425E-05 4.45556E-07 1.13046E-19-5.28065E-19
 -1      1858 1.09052E-04-3.42659E-05-3.20669E-05-3.18597E-06 1.52969E-19-3.63216E-19
 -1      1859 1.08158E-04-3.39675E-05-3.18442E-05-4.45546E-06 7.87807E-20-1.62789E-20
 -1      1860 1.09039E-04-3.49703E-05-3.17181E-05-2.60251E-06 7.09579E-19-2.01791E-19
 -1      1861 1.07833E-04-3.37247E-05-3.17846E-05-5.98646E-06 1.19653E-19 4.01901E-19
 -1      1862 1.06257E-04-3.29186E-05-3.14439E-05-6.97842E-06 5.39179E-19 6.85494E-19
 -1      1863 1.08970E-04-3.48362E-05-3.17324E-05-6.04799E-06 2.99214E-19 4.50532E-20
 -1      1864 1.05265E-04-3.21335E-05-3.13713E-05-7.87271E-06 4.56496E-19 2.10600E-19
 -1      1865 1.03294E-04-3.09012E-05-3.09902E-05-8.06064E-06 4.68579E-19 4.69825E-19
 -1      1866 1.07562E-04-3.34083E-05-3.17393E-05-8.83334E-06 3.41195E-19 3.80852E-19
 -1      1867 1.01865E-04-2.97305E-05-3.09346E-05-7.65979E-06 5.40109E-19 2.12552E-19
 -1      1868 1.00071E-04-2.84632E-05-3.06182E-05-6.67464E-06 6.85647E-19-1.40065E-19
 -1      1869 1.04946E-04-3.07470E-05-3.17833E-05-9.50824E-06 3.44187E-19-9.74518E-20
 -1      1870 9.88493E-05-2.74431E-05-3.05912E-05-4.75693E-06 6.25673E-19-2.59867E-19
 -1      1871 9.79035E-05-2.67293E-05-3.04344E-05-2.75881E-06 3.02067E-19-1.13224E-20
 -1      1872 1.02054E-04-2.77949E-05-3.18563E-05-6.99024E-06 7.49713E-19-7.01790E-19
 -1      1873 9.75951E-05-2.64679E-05-3.04320E-05 6.66150E-08 1.17420E-19 5.96682E-19
 -1      1874 9.78975E-05-2.66963E-05-3.04828E-05 2.32335E-06 7.16140E-20 2.96683E-19
 -1      1875 1.00379E-04-2.60762E-05-3.19105E-05-1.65452E-06 6.29180E-19-3.85223E-19
 -1      1876 9.87041E-05-2.73708E-05-3.04986E-05 4.85732E-06-3.25419E-19 1.24739E-19
 -1      1877 1.00124E-04-2.84153E-05-3.07405E-05 6.44744E-06-2.82088E-19 1.37259E-19
 -1      1878 1.00925E-04-2.66317E-05-3.18990E-05 4.40841E-06-1.90404E-19 2.36908E-19
 -1      1879 1.01547E-04-2.95912E-05-3.07808E-05 7.68300E-06-2.24543E-19-3.91687E-19
 -1      1880 1.03514E-04-3.09118E-05-3.11420E-05 8.10464E-06-5.55948E-20-4.96176E-19
 -1      1881 1.03359E-04-2.91118E-05-3.18302E-05 8.60604E-06-4.39332E-19-6.18170E-19
 -1      1882 1.04803E-04-3.19490E-05-3.12102E-05 7.83895E-06 9.40504E-20-7.78906E-19
 -1      1883 1.06654E-04-3.30132E-05-3.15874E-05 7.21620E-06-5.98237E-19-6.48576E-19
 -1      1884 1.06303E-04-3.21058E-05-3.17674E-05 9.57945E-06-2.12118E-19-1.07467E-18
 -1      1885 1.07349E-04-3.35447E-05-3.16620E-05 5.94373E-06-1.51833E-18-4.50311E-19
 -1      1886 1.08636E-04-3.41100E-05-3.19588E-05 4.76668E-06-1.06623E-18-4.25351E-19
 -1      1887 1.08436E-04-3.42524E-05-3.17496E-05 7.75138E-06-7.07299E-19-9.67788E-19
 -1      1888 1.08681E-04-3.41333E-05-3.20052E-05 3.17540E-06-1.45737E-18-3.40054E-20
 -1      1889 1.09258E-04-3.42329E-05-3.21650E-05 1.93770E-06-1.48326E-18-8.99757E-20
 -1      1890 1.09216E-04-3.50420E-05-3.17548E-05 4.51109E-06-1.06701E-18-8.51111E-20
 -1      1891 1.08827E-04-3.39328E-05-3.21561E-05 5.31557E-07-1.41001E-18-3.29942E-20
 -1      1892 1.08770E-04-3.37232E-05-3.21692E-05-4.63241E-07-6.45638E-19 1.08644E-19
 -1      1893 1.08795E-04-3.47162E-05-3.17290E-05 1.18610E-06-1.43365E-18 7.08522E-19
 -1      1894 1.08074E-04-3.32927E-05-3.20960E-05-1.46008E-06-4.57739E-19-4.89838E-19
 -1      1895 1.07560E-04-3.29315E-05-3.19871E-05-2.10929E-06-3.92616E-19-7.71743E-19
 -1      1896 1.07601E-04-3.37883E-05-3.16268E-05-1.44658E-06-8.74254E-19 5.84723E-19
 -1      1897 1.06761E-04-3.24957E-05-3.18581E-05-2.67881E-06 5.50406E-20-6.93912E-19
 -1      1898 1.05981E-04-3.20925E-05-3.16674E-05-3.00830E-06 4.43501E-19-2.55407E-19
 -1      1899 1.06036E-04-3.26935E-05-3.14327E-05-3.14634E-06-6.40453E-20-2.68269E-19
 -1      1900 1.05178E-04-3.17097E-05-3.15007E-05-3.23268E-06 8.02520E-19-3.03895E-19
 -1      1901 1.04286E-04-3.13258E-05-3.12681E-05-3.32193E-06 7.65438E-19-3.00834E-19
 -1      1902 1.04377E-04-3.16799E-05-3.11599E-05-3.99701E-06 8.31811E-19 1.26199E-19
 -1      1903 1.03535E-04-3.10123E-05-3.10836E-05-3.30894E-06 1.55524E-19-3.56883E-19
 -1      1904 1.02643E-04-3.06755E-05-3.08411E-05-3.24341E-06 2.06608E-19-7.51931E-19
 -1      1905 1.02783E-04-3.08438E-05-3.08369E-05-4.21119E-06 6.81203E-19 1.01793E-20
 -1      1906 1.01971E-04-3.04280E-05-3.06558E-05-3.08916E-06 9.85850E-19-2.64383E-19
 -1      1907 1.01146E-04-3.01465E-05-3.04251E-05-2.93890E-06 1.20621E-18 1.14337E-18
 -1      1908 1.01334E-04-3.01959E-05-3.04945E-05-4.01265E-06 7.55197E-19 7.33292E-19
 -1      1909 1.00563E-04-2.99549E-05-3.02510E-05-2.71549E-06 2.51891E-19 5.84641E-19
 -1      1910 9.98400E-05-2.97272E-05-3.00446E-05-2.53003E-06-5.05766E-19 7.49386E-19
 -1      1911 1.00066E-04-2.97111E-05-3.01591E-05-3.58504E-06 2.94580E-19 5.07350E-19
 -1      1912 9.93479E-05-2.95806E-05-2.98890E-05-2.28564E-06-6.98750E-19 1.26435E-18
 -1      1913 9.87392E-05-2.94010E-05-2.97125E-05-2.09625E-06-9.57170E-19 1.72061E-18
 -1      1914 9.89871E-05-2.93555E-05-2.98489E-05-3.05968E-06-4.31994E-19 3.54078E-19
 -1      1915 9.83331E-05-2.92897E-05-2.95787E-05-1.85994E-06-1.11273E-18 2.12648E-18
 -1      1916 9.78366E-05-2.91510E-05-2.94329E-05-1.68421E-06-3.39849E-19 1.92366E-18
 -1      1917 9.80904E-05-2.90977E-05-2.95746E-05-2.52108E-06-6.77706E-19 2.55209E-18
 -1      1918 9.75084E-05-2.90671E-05-2.93215E-05-1.47131E-06 1.86633E-19 1.96763E-18
 -1      1919 9.71143E-05-2.89621E-05-2.92045E-05-1.31744E-06 1.36526E-18 1.98574E-18
 -1      1920 9.73606E-05-2.89123E-05-2.93407E-05-2.01793E-06 3.35730E-19 3.61686E-18
 -1      1921 9.68542E-05-2.88994E-05-2.91144E-05-1.13419E-06 1.97885E-18 5.11513E-19
 -1      1922 9.65493E-05-2.88212E-05-2.90230E-05-1.00444E-06 1.28890E-18 1.50672E-18
 -1      1923 9.67782E-05-2.87799E-05-2.91471E-05-1.57401E-06 6.98719E-19 1.97596E-18
 -1      1924 9.63471E-05-2.87747E-05-2.89520E-05-8.51372E-07 5.62915E-19 2.11654E-18
 -1      1925 9.61173E-05-2.87177E-05-2.88826E-05-7.44416E-07 1.14990E-18 2.45504E-18
 -1      1926 9.63221E-05-2.86858E-05-2.89912E-05-1.19688E-06 1.25893E-18 1.52414E-18
 -1      1927 9.59633E-05-2.86834E-05-2.88281E-05-6.18739E-07 9.30462E-19 1.61785E-18
 -1      1928 9.57955E-05-2.86427E-05-2.87772E-05-5.31251E-07 7.71682E-19 1.48624E-18
 -1      1929 9.59718E-05-2.86189E-05-2.88691E-05-8.84111E-07 4.72444E-19 7.70848E-19
 -1      1930 9.56805E-05-2.86173E-05-2.87366E-05-4.28551E-07-9.98347E-19 9.39242E-19
 -1      1931 9.55633E-05-2.85893E-05-2.87008E-05-3.56448E-07-1.81048E-18-1.31173E-19
 -1      1932 9.57081E-05-2.85709E-05-2.87759E-05-6.27839E-07-9.18078E-19 3.48179E-20
 -1      1933 9.54790E-05-2.85708E-05-2.86715E-05-2.71705E-07-8.84393E-19-5.43220E-19
 -1      1934 9.54033E-05-2.85536E-05-2.86479E-05-2.11563E-07-4.00001E-19-3.88232E-19
 -1      1935 9.55134E-05-2.85357E-05-2.87068E-05-4.18199E-07-1.91087E-18 7.54594E-19
 -1      1936 9.53485E-05-2.85440E-05-2.86280E-05-1.45475E-07 1.33515E-20-1.59154E-18
 -1      1937 9.53048E-05-2.85379E-05-2.86127E-05-9.82591E-08 7.63798E-21-1.30276E-18
 -1      1938 9.52957E-05-2.85181E-05-2.86205E-05-1.20509E-07-6.44637E-19-1.64637E-18
 -1      1939 9.53796E-05-2.85175E-05-2.86575E-05-2.50125E-07-9.00252E-19-1.11038E-18
 -1      1940 9.34066E-05-2.74805E-05-2.82258E-05 1.51932E-06 9.74233E-19 1.41547E-18
 -1      1941 9.45355E-05-2.75772E-05-2.86399E-05 2.51106E-06 1.05547E-18 1.85382E-18
 -1      1942 9.53350E-05-2.71849E-05-2.92124E-05 3.81188E-06 1.26994E-18 1.20436E-18
 -1      1943 9.24147E-05-2.74504E-05-2.78167E-05 3.72958E-07 6.44245E-19 8.83101E-19
 -1      1944 9.28854E-05-2.74931E-05-2.79770E-05 8.70441E-07 6.87956E-19 1.26588E-18
 -1      1945 9.38403E-05-2.74988E-05-2.84382E-05 1.51843E-06 8.89285E-19 8.48515E-19
 -1      1946 9.20610E-05-2.74472E-05-2.76754E-05-2.73995E-07 4.09974E-19 7.10677E-19
 -1      1947 9.21691E-05-2.74389E-05-2.77132E-05 1.65232E-08 4.74731E-19 8.45762E-19
 -1      1948 9.30604E-05-2.75697E-05-2.80778E-05 2.87261E-07 6.21199E-19 4.65531E-19
 -1      1949 9.21381E-05-2.75127E-05-2.76860E-05-7.09637E-07 1.82369E-19 5.57013E-19
 -1      1950 9.20238E-05-2.74576E-05-2.76555E-05-5.06354E-07 2.81958E-19 6.46210E-19
 -1      1951 9.27863E-05-2.76092E-05-2.79453E-05-4.60955E-07 3.02205E-19 1.55579E-19
 -1      1952 9.25345E-05-2.76587E-05-2.77957E-05-1.03976E-06 3.94006E-19 4.54079E-19
 -1      1953 9.22643E-05-2.75618E-05-2.77201E-05-8.82065E-07 2.55819E-19 5.39798E-19
 -1      1954 9.28870E-05-2.76950E-05-2.79507E-05-9.87794E-07 2.87743E-19 1.77556E-19
 -1      1955 9.31719E-05-2.78696E-05-2.79786E-05-1.29857E-06 6.04028E-19 1.65512E-19
 -1      1956 9.27845E-05-2.77412E-05-2.78689E-05-1.17166E-06 5.13532E-19 4.89420E-19
 -1      1957 9.32732E-05-2.78463E-05-2.80490E-05-1.38696E-06 5.49919E-19 7.95777E-20
 -1      1958 9.39946E-05-2.81240E-05-2.82218E-05-1.51682E-06 1.10024E-18-1.08485E-19
 -1      1959 9.35139E-05-2.79731E-05-2.80834E-05-1.40600E-06 9.56656E-19 1.33334E-19
 -1      1960 9.38727E-05-2.80476E-05-2.82179E-05-1.70371E-06 1.06036E-18 1.03761E-19
 -1      1961 9.49825E-05-2.84147E-05-2.85228E-05-1.72666E-06 3.60279E-19 1.89908E-20
 -1      1962 9.44173E-05-2.82443E-05-2.83555E-05-1.61932E-06 7.68670E-19 4.51699E-20
 -1      1963 9.46430E-05-2.82828E-05-2.84474E-05-1.98533E-06 9.03227E-19 1.93518E-19
 -1      1964 9.61577E-05-2.87424E-05-2.88969E-05-1.95947E-06 2.96136E-19 1.39165E-20
 -1      1965 9.54941E-05-2.85538E-05-2.86884E-05-1.84590E-06 3.71257E-19-1.10084E-19
 -1      1966 9.55793E-05-2.85489E-05-2.87385E-05-2.27836E-06 5.79918E-19 1.84341E-19
 -1      1967 9.75698E-05-2.91277E-05-2.93209E-05-2.29808E-06-1.92348E-19 3.23531E-20
 -1      1968 9.67913E-05-2.88983E-05-2.90958E-05-2.11706E-06 9.02990E-20 8.82569E-20
 -1      1969 9.66897E-05-2.88362E-05-2.90947E-05-2.63646E-06 4.21730E-20 2.62178E-19
 -1      1970 9.91441E-05-2.95644E-05-2.98075E-05-2.71616E-06 4.07290E-19-3.01229E-19
 -1      1971 9.82549E-05-2.93047E-05-2.95436E-05-2.50389E-06 1.04814E-19-2.87656E-20
 -1      1972 9.79914E-05-2.91664E-05-2.95042E-05-3.08446E-06 2.43939E-19-2.06917E-20
 -1      1973 1.00995E-04-3.00903E-05-3.03751E-05-3.21530E-06 1.63464E-19-7.29050E-19
 -1      1974 9.99492E-05-2.97786E-05-3.00661E-05-2.96121E-06-2.28798E-21-8.13389E-19
 -1      1975 9.94839E-05-2.95657E-05-2.99739E-05-3.64323E-06 3.82935E-19-5.94409E-19
 -1      1976 1.03155E-04-3.07285E-05-3.10284E-05-3.76306E-06 3.25671E-19-3.06656E-19
 -1      1977 1.01935E-04-3.03535E-05-3.06712E-05-3.48140E-06 2.55061E-19-5.94319E-19
 -1      1978 1.01233E-04-3.00599E-05-3.05130E-05-4.28124E-06 2.99142E-19-8.47696E-19
 -1      1979 1.05627E-04-3.15030E-05-3.17599E-05-4.28237E-06 1.27187E-19 2.88137E-19
 -1      1980 1.04238E-04-3.10559E-05-3.13585E-05-4.00937E-06 2.23326E-19 7.47258E-20
 -1      1981 1.03263E-04-3.06822E-05-3.11179E-05-4.93682E-06 1.09105E-20-3.07333E-19
 -1      1982 1.08361E-04-3.24337E-05-3.25412E-05-4.62641E-06 5.41554E-20 2.69456E-19
 -1      1983 1.06844E-04-3.19131E-05-3.21122E-05-4.43352E-06 8.50003E-20 3.28715E-19
 -1      1984 1.05578E-04-3.14750E-05-3.17716E-05-5.48343E-06 3.21077E-19 5.76917E-19
 -1      1985 1.11218E-04-3.35240E-05-3.33120E-05-4.55205E-06 3.22547E-19 3.39548E-19
 -1      1986 1.09680E-04-3.29451E-05-3.28914E-05-4.56045E-06 4.10436E-19 4.25115E-19
 -1      1987 1.08141E-04-3.24852E-05-3.24375E-05-5.70048E-06 1.63887E-19 3.30426E-19
 -1      1988 1.13929E-04-3.47308E-05-3.39729E-05-3.71318E-06-1.31125E-18 2.72440E-19
 -1      1989 1.12563E-04-3.41434E-05-3.36216E-05-4.09862E-06-5.38667E-19 2.33897E-19
 -1      1990 1.10849E-04-3.37436E-05-3.30557E-05-5.25220E-06-4.27070E-19 3.21949E-19
 -1      1991 1.16049E-04-3.59040E-05-3.43920E-05-1.72788E-06-7.92704E-19 7.69680E-19
 -1      1992 1.15152E-04-3.54201E-05-3.41930E-05-2.68703E-06-1.27015E-18 4.69928E-19
 -1      1993 1.13477E-04-3.52058E-05-3.35470E-05-3.71221E-06-1.11903E-18 3.35802E-19
 -1      1994 1.16961E-04-3.67048E-05-3.44396E-05 1.60200E-06-3.80735E-19 9.84610E-19
 -1      1995 1.16901E-04-3.65236E-05-3.44773E-05-3.59031E-08-4.37228E-19 8.22349E-19
 -1      1996 1.15622E-04-3.66403E-05-3.38342E-05-7.09260E-07-5.66208E-19 5.07902E-19
 -1      1997 1.15982E-04-3.65644E-05-3.40588E-05 5.88016E-06 8.68526E-19 1.03992E-18
 -1      1998 1.17084E-04-3.69578E-05-3.43741E-05 3.76153E-06 3.62623E-19 1.06251E-18
 -1      1999 1.16651E-04-3.75016E-05-3.38827E-05 3.73124E-06 2.47248E-19 6.40086E-19
 -1      2000 1.12689E-04-3.48675E-05-3.33437E-05 9.63270E-06 2.21354E-20 4.97658E-19
 -1      2001 1.15006E-04-3.60308E-05-3.38820E-05 7.77803E-06 4.95190E-19 8.71028E-19
 -1      2002 1.15789E-04-3.69211E-05-3.37452E-05 8.66562E-06 5.81647E-19 8.62670E-19
 -1      2003 1.07665E-04-3.16905E-05-3.25404E-05 1.04627E-05-3.28480E-19 3.02338E-19
 -1      2004 1.10652E-04-3.33911E-05-3.31382E-05 1.00437E-05-5.09626E-19 4.78018E-19
 -1      2005 1.12673E-04-3.43189E-05-3.35462E-05 1.18419E-05-2.35318E-19 5.15697E-19
 -1      2006 1.02880E-04-2.83428E-05-3.19691E-05 6.73268E-06 1.28828E-19 6.58906E-19
 -1      2007 1.05431E-04-2.98561E-05-3.23988E-05 8.51173E-06-3.60188E-19 3.14315E-19
 -1      2008 1.08284E-04-3.03590E-05-3.34192E-05 1.06869E-05-2.15702E-19 9.55758E-19
 -1      2009 1.01148E-04-2.70842E-05-3.18209E-05-5.92447E-07 1.29550E-18 5.33479E-19
 -1      2010 1.01946E-04-2.74066E-05-3.19213E-05 2.78935E-06 8.56377E-19 6.24809E-19
 -1      2011 1.04984E-04-2.72630E-05-3.33944E-05 4.25380E-06 6.97611E-19 1.95423E-19
 -1      2012 1.03706E-04-2.89005E-05-3.21426E-05-7.59517E-06 1.31539E-18 6.00282E-19
 -1      2013 1.02269E-04-2.78102E-05-3.18706E-05-4.45247E-06 1.47323E-18 7.65824E-19
 -1      2014 1.05099E-04-2.73131E-05-3.34162E-05-4.51633E-06 1.76217E-18 8.29063E-19
 -1      2015 1.08971E-04-3.24458E-05-3.28205E-05-1.06598E-05-4.81336E-19-9.99049E-19
 -1      2016 1.06072E-04-3.06842E-05-3.22842E-05-9.30209E-06 3.29152E-19-1.83383E-19
 -1      2017 1.08551E-04-3.04627E-05-3.34824E-05-1.08161E-05 8.19915E-19 2.33569E-19
 -1      2018 1.14030E-04-3.54921E-05-3.36211E-05-9.21644E-06 4.50224E-19-1.22924E-18
 -1      2019 1.11051E-04-3.40220E-05-3.30236E-05-9.79384E-06-2.48528E-19-1.00422E-18
 -1      2020 1.12954E-04-3.44439E-05-3.36197E-05-1.18588E-05-6.68312E-20-3.92679E-19
 -1      2021 1.16952E-04-3.68749E-05-3.42609E-05-5.24691E-06-3.76215E-19-1.19640E-18
 -1      2022 1.14939E-04-3.61532E-05-3.38076E-05-6.88317E-06 2.63904E-19-1.09349E-18
 -1      2023 1.15944E-04-3.70174E-05-3.38103E-05-8.56582E-06 4.17084E-19 3.92315E-19
 -1      2024 1.17435E-04-3.67560E-05-3.45308E-05-1.05867E-06-8.31019E-19-1.43495E-18
 -1      2025 1.16711E-04-3.67125E-05-3.43385E-05-2.79457E-06-8.21357E-19-1.95251E-18
 -1      2026 1.16691E-04-3.75356E-05-3.39320E-05-3.63910E-06-4.54572E-19-6.08540E-19
 -1      2027 1.16089E-04-3.57996E-05-3.43873E-05 2.05749E-06-4.89426E-20-2.67594E-18
 -1      2028 1.16465E-04-3.61694E-05-3.44590E-05 7.51764E-07-7.51239E-19-1.96793E-18
 -1      2029 1.15614E-04-3.66445E-05-3.38635E-05 7.47605E-07-3.75573E-19-2.27511E-18
 -1      2030 1.13700E-04-3.45636E-05-3.39122E-05 3.82057E-06 7.82969E-19-1.02066E-18
 -1      2031 1.14791E-04-3.51113E-05-3.41804E-05 3.06567E-06 4.87216E-19-1.87007E-18
 -1      2032 1.13471E-04-3.51923E-05-3.35663E-05 3.67811E-06 8.86208E-20-2.04006E-18
 -1      2033 1.10898E-04-3.33580E-05-3.32382E-05 4.48126E-06 8.25768E-19-6.29134E-19
 -1      2034 1.12335E-04-3.39361E-05-3.36158E-05 4.18013E-06 5.44837E-19-7.45521E-20
 -1      2035 1.10887E-04-3.37301E-05-3.30795E-05 5.14344E-06 1.18886E-19 6.62505E-20
 -1      2036 1.08092E-04-3.23063E-05-3.24894E-05 4.42718E-06 6.21707E-19-1.32356E-18
 -1      2037 1.09604E-04-3.28412E-05-3.29023E-05 4.42443E-06 1.08970E-18-6.15647E-19
 -1      2038 1.08260E-04-3.24868E-05-3.24804E-05 5.52092E-06 1.07111E-18 2.08545E-19
 -1      2039 1.05509E-04-3.14351E-05-3.17556E-05 3.99034E-06 1.67197E-19-1.21584E-18
 -1      2040 1.06934E-04-3.18976E-05-3.21538E-05 4.15093E-06 9.08319E-20-1.48489E-18
 -1      2041 1.05806E-04-3.15035E-05-3.18465E-05 5.23435E-06 8.19479E-19 3.11720E-19
 -1      2042 1.03258E-04-3.07329E-05-3.10896E-05 3.39721E-06-8.08748E-19-1.42150E-18
 -1      2043 1.04512E-04-3.11167E-05-3.14457E-05 3.62771E-06-1.00363E-19-1.43793E-18
 -1      2044 1.03630E-04-3.07477E-05-3.12364E-05 4.61471E-06-1.66730E-19 4.62157E-19
 -1      2045 1.01367E-04-3.01764E-05-3.05157E-05 2.78169E-06-6.27286E-19-6.38469E-19
 -1      2046 1.02422E-04-3.04860E-05-3.08185E-05 3.02605E-06-1.34488E-18-1.00587E-18
 -1      2047 1.01770E-04-3.01720E-05-3.06857E-05 3.87874E-06-1.25595E-18-4.76633E-19
 -1      2048 9.98246E-05-2.97412E-05-3.00392E-05 2.21302E-06-7.98031E-19 9.19691E-19
 -1      2049 1.00683E-04-2.99856E-05-3.02876E-05 2.44165E-06-6.55015E-19 2.72065E-19
 -1      2050 1.00224E-04-2.97344E-05-3.02108E-05 3.15108E-06-1.11085E-18 6.26766E-19
 -1      2051 9.85946E-05-2.94053E-05-2.96546E-05 1.72045E-06-2.49592E-19 2.36591E-18
 -1      2052 9.92755E-05-2.95946E-05-2.98529E-05 1.92032E-06-2.12418E-19 1.70579E-18
 -1      2053 9.89686E-05-2.94026E-05-2.98152E-05 2.49393E-06-1.16942E-18 1.15650E-18
 -1      2054 9.76334E-05-2.91492E-05-2.93514E-05 1.31077E-06 7.46551E-19 5.19940E-19
 -1      2055 9.81620E-05-2.92935E-05-2.95061E-05 1.47828E-06 4.73999E-19 1.68965E-18
 -1      2056 9.79691E-05-2.91519E-05-2.94946E-05 1.93145E-06 5.05817E-19 1.49707E-18
 -1      2057 9.68964E-05-2.89568E-05-2.91173E-05 9.79087E-07-1.64134E-18 7.69233E-19
 -1      2058 9.72987E-05-2.90648E-05-2.92355E-05 1.11567E-06-1.12043E-18 6.91759E-19
 -1      2059 9.71881E-05-2.89638E-05-2.92406E-05 1.46650E-06-3.41883E-19 1.83626E-18
 -1      2060 9.63421E-05-2.88143E-05-2.89404E-05 7.15121E-07 7.81361E-19 2.02050E-18
 -1      2061 9.66419E-05-2.88937E-05-2.90288E-05 8.24648E-07-9.96366E-19 1.12794E-18
 -1      2062 9.65887E-05-2.88239E-05-2.90436E-05 1.09103E-06-9.64029E-19 1.33927E-18
 -1      2063 9.59346E-05-2.87106E-05-2.88098E-05 5.06462E-07 1.15338E-18 2.74966E-18
 -1      2064 9.61526E-05-2.87678E-05-2.88742E-05 5.93890E-07 1.91395E-18 3.25770E-18
 -1      2065 9.61374E-05-2.87210E-05-2.88942E-05 7.92010E-07 9.78327E-19 1.77059E-18
 -1      2066 9.56442E-05-2.86371E-05-2.87167E-05 3.40382E-07 5.20197E-20 3.00421E-18
 -1      2067 9.57969E-05-2.86768E-05-2.87619E-05 4.11010E-07 5.52965E-19 3.04458E-18
 -1      2068 9.58049E-05-2.86460E-05-2.87837E-05 5.54634E-07 5.32047E-19 2.94270E-18
 -1      2069 9.54469E-05-2.85873E-05-2.86535E-05 2.05849E-07-7.78718E-19 2.29550E-18
 -1      2070 9.55477E-05-2.86132E-05-2.86833E-05 2.64353E-07-2.25874E-19 2.71321E-18
 -1      2071 9.55670E-05-2.85927E-05-2.87046E-05 3.64693E-07 1.45155E-19 2.06404E-18
 -1      2072 9.53241E-05-2.85579E-05-2.86131E-05 9.64734E-08 1.34466E-19 1.78719E-18
 -1      2073 9.53824E-05-2.85718E-05-2.86311E-05 1.44805E-07-6.79836E-19 1.85989E-18
 -1      2074 9.54034E-05-2.85565E-05-2.86498E-05 2.10835E-07-4.84673E-19 2.46123E-18
 -1      2075 9.52684E-05-2.85507E-05-2.85919E-05 3.25710E-08 7.88128E-19 2.11797E-18
 -1      2076 9.52961E-05-2.85507E-05-2.86039E-05 6.79602E-08 2.29610E-19 2.41372E-18
 -1      2077 9.53121E-05-2.85371E-05-2.86186E-05 1.09848E-07 2.25520E-19 1.94222E-18
 -1      2078 9.52692E-05-2.85380E-05-2.85988E-05 4.99099E-08 1.29837E-18 3.71255E-18
 -1      2079 9.51397E-05-2.81956E-05-2.86912E-05 2.76302E-07 2.13564E-18 1.02468E-18
 -1      2080 9.51747E-05-2.82693E-05-2.86723E-05 2.58864E-07 1.36146E-18 1.48165E-19
 -1      2081 9.52105E-05-2.83459E-05-2.86564E-05 2.26175E-07 1.22486E-18-1.33078E-18
 -1      2082 9.52378E-05-2.84071E-05-2.86402E-05 1.88610E-07 1.15662E-18-1.62663E-20
 -1      2083 9.52004E-05-2.82766E-05-2.86819E-05 3.20994E-07 1.41856E-18 1.64149E-19
 -1      2084 9.52536E-05-2.84596E-05-2.86256E-05 1.41376E-07 1.08458E-18-4.83820E-20
 -1      2085 9.52665E-05-2.85014E-05-2.86125E-05 9.84245E-08 7.15246E-19 1.41119E-18
 -1      2086 9.52868E-05-2.84986E-05-2.86228E-05 1.27967E-07 2.39254E-19 1.46051E-18
 -1      2087 9.52590E-05-2.84068E-05-2.86519E-05 2.29639E-07 3.49202E-19-2.50635E-19
 -1      2088 9.50672E-05-2.80444E-05-2.87256E-05 2.77252E-07 1.42031E-18-2.12471E-18
 -1      2089 9.51026E-05-2.81185E-05-2.87067E-05 2.82045E-07 1.54833E-18-2.18976E-19
 -1      2090 9.51138E-05-2.81184E-05-2.87119E-05 3.62232E-07 3.42203E-19-3.96648E-19
 -1      2091 9.50026E-05-2.79095E-05-2.87562E-05 2.29520E-07 6.10542E-19-3.65644E-19
 -1      2092 9.50332E-05-2.79742E-05-2.87398E-05 2.55131E-07 7.92046E-19-1.99710E-19
 -1      2093 9.50279E-05-2.79660E-05-2.87396E-05 3.42331E-07 5.27227E-19-1.15444E-18
 -1      2094 9.49571E-05-2.78140E-05-2.87779E-05 1.42383E-07 2.46666E-19 6.24844E-19
 -1      2095 9.49773E-05-2.78572E-05-2.87669E-05 1.83637E-07 4.04218E-19 7.70047E-19
 -1      2096 9.49560E-05-2.78391E-05-2.87625E-05 2.64354E-07 3.78469E-19 1.94276E-19
 -1      2097 9.49370E-05-2.77717E-05-2.87873E-05 3.15940E-08 9.81008E-20-1.46410E-19
 -1      2098 9.49439E-05-2.77865E-05-2.87835E-05 8.10361E-08-3.50701E-19 1.52713E-19
 -1      2099 9.49091E-05-2.77564E-05-2.87775E-05 1.42443E-07-3.94597E-20 2.48269E-19
 -1      2100 9.49450E-05-2.77886E-05-2.87831E-05-8.39663E-08 1.37917E-18-2.53281E-19
 -1      2101 9.49376E-05-2.77728E-05-2.87871E-05-3.48252E-08 6.20285E-19 1.75450E-18
 -1      2102 9.48937E-05-2.77291E-05-2.87824E-05-2.47043E-09-1.22582E-18 1.46643E-18
 -1      2103 9.49797E-05-2.78619E-05-2.87658E-05-1.84997E-07 2.53039E-18-1.75573E-20
 -1      2104 9.49592E-05-2.78180E-05-2.87770E-05-1.44525E-07 2.39383E-18-5.27801E-19
 -1      2105 9.49113E-05-2.77606E-05-2.87766E-05-1.46437E-07-2.19042E-20-1.28874E-20
 -1      2106 9.50347E-05-2.79777E-05-2.87389E-05-2.53600E-07 2.25620E-18-2.13731E-18
 -1      2107 9.50048E-05-2.79142E-05-2.87551E-05-2.29053E-07 2.43477E-18-8.76862E-19
 -1      2108 9.49592E-05-2.78455E-05-2.87612E-05-2.65210E-07 1.87764E-18-1.41959E-19
 -1      2109 9.51039E-05-2.81226E-05-2.87056E-05-2.79783E-07 2.09615E-18 1.96564E-18
 -1      2110 9.50685E-05-2.80477E-05-2.87246E-05-2.75177E-07 2.48667E-18 7.39078E-19
 -1      2111 9.50302E-05-2.79721E-05-2.87381E-05-3.40344E-07 1.74478E-18-9.75457E-19
 -1      2112 9.51756E-05-2.82734E-05-2.86710E-05-2.56499E-07 1.24174E-18-3.03071E-19
 -1      2113 9.51409E-05-2.82001E-05-2.86897E-05-2.73778E-07 1.42239E-18 9.91596E-19
 -1      2114 9.51154E-05-2.81247E-05-2.87100E-05-3.59121E-07 1.47374E-18 1.03641E-18
 -1      2115 9.52374E-05-2.84126E-05-2.86390E-05-1.87003E-07 3.07438E-19-1.99990E-18
 -1      2116 9.52107E-05-2.83490E-05-2.86551E-05-2.23964E-07 8.09182E-19-2.12490E-18
 -1      2117 9.52009E-05-2.82816E-05-2.86799E-05-3.17324E-07-3.48098E-19-8.85604E-19
 -1      2118 5.61314E-05-3.93736E-05-7.86681E-06 3.82616E-05 2.19382E-19 3.09156E-18
 -1      2119 4.15308E-05-4.07902E-05-1.72821E-06 3.12082E-05-1.03592E-18 3.74886E-18
 -1      2120 1.22043E-05-2.96173E-05 6.56424E-06 3.61079E-06-1.29829E-18 4.61548E-18
 -1      2121 1.30289E-05-3.07903E-05 6.60030E-06-7.49160E-06-2.77710E-18 2.91888E-18
 -1      2122 2.71753E-05-3.44360E-05 2.22502E-06 2.59921E-05-1.14773E-18 4.96340E-18
 -1      2123 1.84451E-05-3.36099E-05 5.36597E-06 1.67942E-05-2.00450E-18 5.42609E-18
 -1      2124 9.86946E-05-4.56204E-05-2.29229E-05 4.16063E-05 1.10792E-18 2.26475E-18
 -1      2125 7.60469E-05-4.53687E-05-1.43011E-05 3.71891E-05 2.79944E-19 3.38898E-18
 -1      2126 1.40853E-04-4.40406E-05-4.08473E-05 3.16907E-05 2.73740E-18 1.48400E-18
 -1      2127 1.20052E-04-4.66830E-05-3.18994E-05 3.10005E-05 2.23066E-18 1.07616E-18
 -1      2128 8.66484E-05-8.98839E-06-3.33820E-05-1.07238E-05-9.90671E-19-2.27303E-18
 -1      2129 8.72180E-05-9.47991E-06-3.34041E-05-1.23356E-05-1.17922E-18-1.98349E-18
 -1      2130 8.97128E-05-1.33409E-05-3.27951E-05-1.21030E-05-1.23514E-18-1.78483E-18
 -1      2131 8.81927E-05-1.13236E-05-3.29668E-05-9.54965E-06-1.03952E-18-2.22305E-18
 -1      2132 1.79127E-04-2.68529E-05-6.41140E-05 4.81515E-06 2.90659E-18-4.16528E-19
 -1      2133 1.69099E-04-2.80001E-05-5.99588E-05 9.53859E-06 2.69356E-18 1.84230E-19
 -1      2134 1.81533E-04-2.44664E-05-6.62953E-05-3.23549E-06 2.27640E-18-5.75771E-19
 -1      2135 1.79537E-04-2.33908E-05-6.60475E-05 3.31551E-06 3.04297E-18 2.36322E-19
 -1      2136 1.64902E-04-2.57754E-05-5.95612E-05-5.95365E-06 2.18111E-18-1.37346E-18
 -1      2137 1.80164E-04-2.65934E-05-6.43751E-05-4.37778E-06 1.98926E-18-2.14088E-19
 -1      2138 1.57423E-04-1.47258E-05-6.01749E-05 2.62355E-06 2.30605E-18-2.25311E-19
 -1      2139 1.50315E-04-4.04589E-05-4.70108E-05-1.69731E-05 2.04243E-18-1.18669E-18
 -1      2140 1.63623E-04-3.63664E-05-5.40732E-05-1.19750E-05 1.66124E-18-1.17992E-18
 -1      2141 1.17494E-04-4.56131E-05-3.12983E-05-3.28461E-05 1.77242E-18-1.38363E-18
 -1      2142 1.38798E-04-4.52956E-05-3.98397E-05-3.06635E-05 1.95241E-18-1.69915E-18
 -1      2143 8.01008E-05-4.62129E-05-1.55708E-05-3.75127E-05 9.23266E-19-1.83510E-18
 -1      2144 1.01130E-04-4.63030E-05-2.35390E-05-4.12227E-05 1.54245E-18-1.15874E-18
 -1      2145 4.37791E-05-4.13782E-05-2.55099E-06-3.17140E-05-6.70003E-19-3.59809E-18
 -1      2146 5.87578E-05-3.96329E-05-8.92720E-06-3.86857E-05 7.31413E-19-3.43551E-18
 -1      2147 1.96586E-05-3.69594E-05 5.79966E-06-1.69921E-05-1.45266E-18-3.31868E-18
 -1      2148 2.80618E-05-3.50915E-05 2.02492E-06-2.65654E-05-6.78050E-19-3.51307E-18
 -1      2149 1.14465E-05-3.24167E-05 7.69891E-06 2.12172E-06-8.74932E-19-1.90244E-18
 -1      2150 1.33145E-05-3.46859E-05 7.67026E-06-7.85927E-06-6.10923E-19-3.05991E-18
 -1      2151 1.93114E-05-2.65612E-05 2.40898E-06-1.67056E-05-8.49362E-19-3.10607E-18
 -1      2152 2.48308E-05-3.36533E-05 2.73052E-06 2.58709E-05-1.56743E-18-1.80270E-18
 -1      2153 1.63482E-05-3.47998E-05 6.39215E-06 1.46776E-05-1.25424E-18-1.80969E-18
 -1      2154 5.57915E-05-3.86947E-05-8.00098E-06 3.93585E-05-2.77615E-18-5.28522E-19
 -1      2155 4.22228E-05-3.93027E-05-2.18594E-06 3.41795E-05-2.26539E-18-5.31725E-19
 -1      2156 9.12881E-05-3.99718E-05-2.20736E-05 4.33235E-05-1.89397E-18-1.56871E-18
 -1      2157 7.25617E-05-4.22582E-05-1.42000E-05 3.80210E-05-2.63173E-18-7.81600E-19
 -1      2158 1.31070E-04-4.23745E-05-3.79232E-05 3.46174E-05-1.04354E-18-1.13248E-18
 -1      2159 1.09290E-04-4.18364E-05-2.94740E-05 3.61767E-05-1.21592E-18-1.33365E-18
 -1      2160 1.63497E-04-3.45886E-05-5.37277E-05 2.50583E-05-1.21359E-18-9.55877E-19
 -1      2161 1.45417E-04-3.67258E-05-4.61604E-05 2.58447E-05-1.44356E-18-9.43595E-19
 -1      2162 1.79450E-04-2.82750E-05-6.34589E-05 1.05499E-05-1.37685E-18-1.04884E-18
 -1      2163 1.69449E-04-2.92618E-05-5.91309E-05 1.84611E-05-1.43276E-18-1.52974E-18
 -1      2164 1.81564E-04-2.40636E-05-6.61869E-05-2.02107E-06-1.33916E-18-8.89808E-19
 -1      2165 1.78091E-04-2.33020E-05-6.53000E-05 5.21829E-06-1.22142E-18-1.08632E-18
 -1      2166 1.75531E-04-2.70728E-05-6.26235E-05-1.33494E-05-2.10191E-18-6.37392E-19
 -1      2167 1.83178E-04-2.66739E-05-6.56316E-05-5.72134E-06-1.78766E-18-1.27097E-18
 -1      2168 1.54786E-04-3.28853E-05-5.18336E-05-1.84971E-05-3.05075E-18-9.52912E-19
 -1      2169 1.72371E-04-3.16017E-05-5.86141E-05-1.82937E-05-2.33908E-18-1.27860E-18
 -1      2170 1.60042E-04-2.43681E-05-5.71851E-05-1.90626E-06-1.96448E-18-2.05575E-18
 -1      2171 1.24118E-04-4.14875E-05-3.55985E-05-3.30545E-05-2.36280E-18-2.13876E-19
 -1      2172 1.43940E-04-4.15890E-05-4.36103E-05-2.68949E-05-2.05829E-18-5.34901E-19
 -1      2173 9.02504E-05-4.54945E-05-1.97093E-05-3.91022E-05-1.76013E-18 1.04947E-18
 -1      2174 1.09091E-04-4.20265E-05-2.84141E-05-4.17765E-05-2.23490E-18-1.88041E-19
 -1      2175 1.26806E-04-5.29818E-05-3.13241E-05-2.83963E-05-6.90755E-19-2.06295E-18
 -1      2176 4.60116E-05-4.11795E-05-3.50712E-06-3.33273E-05-2.61776E-18 2.19911E-19
 -1      2177 6.53211E-05-4.07894E-05-1.12708E-05-4.14709E-05-1.85288E-18 1.91636E-18
 -1      2178 1.85090E-05-3.49938E-05 5.75291E-06-1.75716E-05-2.98452E-18 1.29342E-18
 -1      2179 2.73865E-05-3.39692E-05 1.82290E-06-2.78231E-05-2.18746E-18 1.76183E-19
 -1      2180 1.90607E-05-2.38078E-05 1.60806E-06-1.51784E-05-4.00329E-19 1.67585E-18
 -1      2181 1.66954E-04-3.63130E-05-5.51111E-05 1.80765E-05 3.00400E-18 8.25010E-19
 -1      2182 1.50344E-04-3.79684E-05-4.80247E-05 2.32579E-05 3.63192E-18 7.45813E-19
 -1      2183 1.20302E-04-5.54856E-05-2.76225E-05 3.13920E-05-7.87741E-20 7.08543E-19
 -1      2184 9.53207E-05-2.44030E-05-3.04747E-05-1.12654E-05-1.28775E-18 4.89373E-19
 -1      2185 1.48469E-04-4.77066E-05-4.26468E-05 1.29109E-05 2.13272E-18-1.02830E-18
 -1      2186 1.59012E-04-3.06096E-05-5.42007E-05 8.51880E-07 2.61860E-18-1.61190E-18
 -1      2187 9.54883E-05-2.39201E-05-3.08020E-05-1.12568E-05-1.33797E-18-2.82221E-19
 -1      2188 4.20362E-05-3.53956E-05-3.35003E-06 3.45963E-05-1.92001E-18 4.10027E-18
 -1      2189 1.92072E-05-2.35519E-05 1.53324E-06 1.23847E-05-1.82409E-18 4.83232E-18
 -1      2190 9.52578E-05-2.84438E-05-2.86339E-05-1.71991E-07-6.68205E-19-1.68825E-18
 -1      2191 7.88144E-05-4.81194E-05-1.33070E-05 4.16723E-05-1.33577E-18 3.22390E-18
 -1      2192 8.59132E-05-4.71740E-05-1.66134E-05-4.11822E-05-5.21772E-19 1.01496E-18
 -1      2193 1.04208E-04-5.48237E-05-2.18402E-05-3.85573E-05 5.40619E-19-1.12756E-18
 -1      2194 8.18471E-05-4.72449E-05-1.42628E-05-4.32108E-05 2.94344E-20-5.86570E-20
 -1      2195 1.49650E-04-4.06651E-05-4.63396E-05-1.53423E-05-2.60328E-18-2.04135E-18
 -1      2196 1.49432E-04-3.83471E-05-4.80234E-05-1.69411E-06-2.11345E-18-3.31783E-18
 -1      2197 1.42628E-04-4.72718E-05-4.05377E-05-1.09482E-05-1.09683E-18-2.46910E-18
 -1      2198 1.60869E-04-1.45786E-05-6.15132E-05-2.34031E-07-1.65849E-18-1.13344E-18
 -1      2199 1.61345E-04-1.75752E-05-6.04591E-05 8.45215E-07-1.50857E-18-1.09924E-18
 -1      2200 1.57909E-04-3.11654E-05-5.34209E-05 5.91526E-06-7.00920E-19-2.16840E-19
 -1      2201 1.40925E-04-4.42015E-05-4.10698E-05 2.28327E-05-8.42798E-19-8.53809E-19
 -1      2202 1.37248E-04-5.19552E-05-3.60380E-05 1.85094E-05-7.56718E-19-6.18334E-20
 -1      2203 1.45787E-04-4.61317E-05-4.32992E-05 7.86982E-06-1.21179E-19-1.51195E-19
 -1      2204 1.12665E-04-5.13586E-05-2.60666E-05 3.59669E-05-1.58607E-18-1.00924E-18
 -1      2205 7.64173E-05-4.66931E-05-1.32027E-05 4.24896E-05-2.03881E-18-4.83312E-19
 -1      2206 1.61624E-05-2.53013E-05 3.29575E-06 1.01860E-05-4.71374E-19-2.03161E-18
 -1      2207 4.34254E-05-3.68705E-05-3.38342E-06-3.50936E-05-8.77103E-19-3.73796E-18
 -1      2208 8.26141E-05-4.91373E-05-1.43191E-05-4.18622E-05-2.94767E-19-1.98754E-18
 -1      2209 1.19910E-04-5.60320E-05-2.73119E-05-3.15489E-05 9.91240E-19-9.04419E-19
 -1      2210 1.56281E-04-3.03548E-05-5.35582E-05 2.44816E-06 1.62524E-18-2.51569E-19
 -1      2211 1.58892E-04-1.58514E-05-6.03098E-05-2.30267E-06 2.48477E-18-1.55176E-18
 -1      2212 1.46885E-04-4.83025E-05-4.17423E-05-1.31674E-05 1.18870E-18-6.94144E-19
 -1      2213 3.82045E-05-3.53496E-05-1.81281E-06 3.30194E-05-1.23328E-18-1.15154E-18
 -1      2214 3.48754E-05-2.79187E-05-2.68872E-06 3.26246E-05-5.90805E-20-1.21846E-18
 -1      2215 5.23268E-05-3.65895E-05-7.08642E-06 4.02914E-05-6.56874E-19-3.68459E-19
 -1      2216 4.34472E-05-3.57201E-05-3.67689E-06-3.64342E-05-5.34901E-19-1.86347E-19
 -1      2217 9.53504E-05-2.65837E-05-2.94599E-05 3.92251E-06 1.16785E-18 6.33243E-19
 -1      2218 9.62560E-05-2.60665E-05-3.00091E-05 5.62323E-06 1.37027E-18 7.45700E-19
 -1      2219 8.76450E-05-1.12668E-05-3.28293E-05-3.01999E-06-3.58381E-19-2.01496E-18
 -1      2220 8.81727E-05-1.17381E-05-3.28413E-05-4.37014E-06-6.26616E-19-2.09694E-18
 -1      2221 8.85627E-05-1.22477E-05-3.27696E-05-5.74113E-06-7.07551E-19-2.14531E-18
 -1      2222 8.88690E-05-1.27136E-05-3.27128E-05-7.06298E-06-9.32844E-19-2.21334E-18
 -1      2223 8.98534E-05-1.41260E-05-3.25142E-05-4.61477E-06-6.13252E-19-1.97844E-18
 -1      2224 8.47634E-05-9.09674E-06-3.25101E-05 7.52658E-07 2.59495E-19-2.02516E-18
 -1      2225 8.52340E-05-9.33850E-06-3.25843E-05 7.66158E-08 9.70304E-20-2.04223E-18
 -1      2226 8.49853E-05-9.44563E-06-3.24124E-05 1.69078E-06 5.38417E-19-2.02947E-18
 -1      2227 8.47054E-05-9.20108E-06-3.24325E-05 1.01477E-06 3.99383E-19-2.05061E-18
 -1      2228 8.56689E-05-1.07375E-05-3.21262E-05 7.93901E-07 3.08469E-19-1.92775E-18
 -1      2229 8.64070E-05-1.08025E-05-3.24245E-05 3.26564E-06 7.80298E-19-1.92180E-18
 -1      2230 8.56883E-05-1.02402E-05-3.24033E-05 2.27751E-06 6.35775E-19-1.95770E-18
 -1      2231 8.63714E-05-1.17059E-05-3.20276E-05 1.42536E-06 5.67201E-19-1.91225E-18
 -1      2232 8.81440E-05-1.24568E-05-3.24729E-05 5.55273E-06 1.09426E-18-1.57980E-18
 -1      2233 8.73025E-05-1.17256E-05-3.24413E-05 4.31419E-06 9.25161E-19-1.80220E-18
 -1      2234 8.81785E-05-1.34655E-05-3.20394E-05 3.10406E-06 8.34488E-19-1.70870E-18
 -1      2235 9.00040E-05-1.43731E-05-3.24757E-05 8.02275E-06 1.41272E-18-1.22006E-18
 -1      2236 8.90682E-05-1.34386E-05-3.24627E-05 6.72268E-06 1.18527E-18-1.39989E-18
 -1      2237 9.00914E-05-1.53302E-05-3.20443E-05 5.34217E-06 1.08877E-18-1.40436E-18
 -1      2238 9.22858E-05-1.69997E-05-3.23682E-05 1.02001E-05 1.59814E-18-7.47215E-19
 -1      2239 9.10886E-05-1.56337E-05-3.23943E-05 9.01322E-06 1.43316E-18-1.05023E-18
 -1      2240 9.20260E-05-1.74736E-05-3.19352E-05 7.41277E-06 1.32780E-18-1.01744E-18
 -1      2241 9.44728E-05-2.72877E-05-2.87774E-05 1.67968E-06 9.67642E-19 3.14909E-19
 -1      2242 9.50367E-05-2.70932E-05-2.90508E-05 2.57767E-06 1.09055E-18 6.07005E-19
 -1      2243 9.55151E-05-2.61087E-05-2.97535E-05 4.06796E-06 1.27183E-18 1.51295E-19
 -1      2244 9.60845E-05-2.62670E-05-2.98313E-05-6.15407E-06-1.01878E-18-6.13225E-19
 -1      2245 9.59550E-05-2.74028E-05-2.93792E-05-4.39629E-06-1.00563E-18-5.46866E-19
 -1      2246 1.49158E-04-4.65972E-05-4.44029E-05 2.72556E-06 2.03298E-18-2.44538E-18
 -1      2247 1.42210E-04-5.28087E-05-3.82800E-05 8.19605E-06 1.12729E-18-2.59785E-18
 -1      2248 9.62123E-05-2.82947E-05-2.90860E-05-2.69667E-06-8.41097E-19-3.97404E-19
 -1      2249 9.78426E-05-2.86702E-05-2.90348E-05-7.54398E-07-5.16068E-19-2.84550E-20
 -1      2250 9.60575E-05-2.67691E-05-2.97377E-05-2.88589E-06-7.71806E-19-9.82294E-19
 -1      2251 9.28521E-05-2.55280E-05-2.88385E-05 2.03477E-07-6.18506E-19-2.79918E-19
 -1      2252 9.06596E-05-2.27308E-05-2.89781E-05-4.14907E-07-3.40031E-19-6.00176E-19
 -1      2253 9.73307E-05-2.89732E-05-2.92905E-05-1.37059E-06-3.85982E-19-5.87881E-19
 -1      2254 9.17304E-05-2.41807E-05-2.89654E-05-1.10016E-06-1.79624E-19-6.81650E-19
 -1      2255 9.33530E-05-2.57114E-05-2.89947E-05-1.18551E-06-1.17791E-19-5.26418E-19
 -1      2256 9.16946E-05-2.44121E-05-2.89768E-05 1.04910E-06-3.12939E-19-5.92758E-19
 -1      2257 9.41753E-05-2.64843E-05-2.90342E-05-1.23493E-06-9.57610E-20-6.13444E-19
 -1      2258 9.46023E-05-2.68753E-05-2.90290E-05-5.90063E-07-1.11673E-19-6.25107E-19
 -1      2259 9.35769E-05-2.58519E-05-2.90055E-05-4.87137E-07-1.97412E-19-6.45201E-19
 -1      2260 9.50289E-05-2.71400E-05-2.90979E-05-9.26876E-08-3.03653E-19-7.33075E-19
 -1      2261 9.52441E-05-2.72766E-05-2.91275E-05 5.84442E-07-3.96800E-19-7.36403E-19
 -1      2262 9.47303E-05-2.65952E-05-2.91767E-05 4.65351E-09-3.33005E-19-8.75210E-19
 -1      2263 9.55379E-05-2.74133E-05-2.91944E-05 1.22928E-06-2.23406E-19-1.02965E-18
 -1      2264 9.58151E-05-2.75476E-05-2.92624E-05 1.86399E-06-2.75144E-19-1.02298E-18
 -1      2265 9.53799E-05-2.69605E-05-2.93281E-05 1.18471E-06-3.81632E-19-1.26598E-18
 -1      2266 9.61400E-05-2.77029E-05-2.93290E-05 2.45825E-06-4.34222E-19-7.78873E-19
 -1      2267 9.64764E-05-2.78452E-05-2.94200E-05 2.97195E-06-4.66119E-19-5.90911E-19
 -1      2268 9.59939E-05-2.72783E-05-2.94602E-05 2.50150E-06-2.99036E-19-1.16514E-18
 -1      2269 9.67576E-05-2.79516E-05-2.94722E-05 3.40239E-06-3.90228E-19-3.30068E-19
 -1      2270 9.70946E-05-2.80685E-05-2.95330E-05 3.72297E-06-3.62815E-19-3.24218E-19
 -1      2271 9.66161E-05-2.76207E-05-2.95620E-05 3.53695E-06-3.19072E-19-4.02743E-19
 -1      2272 9.73214E-05-2.81647E-05-2.95179E-05 3.97344E-06-3.21446E-19-9.80970E-20
 -1      2273 9.77475E-05-2.83900E-05-2.94312E-05 4.10560E-06-1.77136E-19-2.71580E-19
 -1      2274 9.71245E-05-2.79429E-05-2.95756E-05 4.19877E-06-3.59027E-19-2.35839E-19
 -1      2275 9.74288E-05-2.86035E-05-2.92839E-05 4.00931E-06-1.46166E-19-7.14684E-20
 -1      2276 9.75251E-05-2.88312E-05-2.94304E-05 4.03962E-06 8.18756E-20 3.10759E-20
 -1      2277 9.74240E-05-2.82533E-05-2.94190E-05 4.48086E-06-4.88434E-20-1.42513E-19
 -1      2278 9.78858E-05-2.89336E-05-2.95508E-05 4.31264E-06 2.26855E-19-1.03349E-19
 -1      2279 9.84997E-05-2.91332E-05-2.97201E-05 4.53880E-06 3.02595E-19-8.52731E-20
 -1      2280 9.71582E-05-2.85774E-05-2.93970E-05 4.70340E-06 1.00374E-19 1.74499E-19
 -1      2281 9.89445E-05-2.93001E-05-2.98459E-05 4.80184E-06 2.77039E-19-1.93438E-19
 -1      2282 9.96403E-05-2.95752E-05-3.00230E-05 4.98747E-06 2.09118E-19 5.78340E-20
 -1      2283 9.79645E-05-2.88615E-05-2.96217E-05 5.27531E-06 1.71209E-19-3.38328E-19
 -1      2284 1.00196E-04-2.98403E-05-3.01481E-05 5.18952E-06 2.68893E-19 6.86351E-20
 -1      2285 1.00971E-04-3.02175E-05-3.03243E-05 5.27003E-06 1.90895E-19 1.33656E-19
 -1      2286 9.89671E-05-2.93403E-05-2.98479E-05 5.77762E-06 4.25730E-19-1.96986E-19
 -1      2287 1.01672E-04-3.06212E-05-3.04423E-05 5.33100E-06-6.71474E-20 1.69010E-19
 -1      2288 1.02513E-04-3.11244E-05-3.06060E-05 5.21443E-06-1.98821E-20 5.10164E-19
 -1      2289 1.00228E-04-3.01042E-05-3.00637E-05 6.07861E-06 1.19652E-19-2.85660E-19
 -1      2290 1.03396E-04-3.17040E-05-3.07123E-05 5.02125E-06-1.59373E-19 6.49800E-19
 -1      2291 1.04266E-04-3.23381E-05-3.08506E-05 4.59326E-06-4.42055E-19 4.28296E-19
 -1      2292 1.01821E-04-3.12477E-05-3.02601E-05 5.98396E-06-6.19761E-20 2.27342E-19
 -1      2293 1.05353E-04-3.31032E-05-3.09465E-05 4.00473E-06-9.14341E-19 1.54924E-19
 -1      2294 1.06176E-04-3.38221E-05-3.10492E-05 3.15099E-06-5.16406E-19-1.17381E-19
 -1      2295 1.03808E-04-3.28278E-05-3.04381E-05 5.23603E-06-6.87796E-19-1.70660E-19
 -1      2296 1.07432E-04-3.47065E-05-3.11483E-05 2.02557E-06 9.83634E-20 6.19302E-20
 -1      2297 1.08074E-04-3.53640E-05-3.12144E-05 6.86111E-07 3.19788E-19-7.60857E-20
 -1      2298 1.06181E-04-3.47766E-05-3.06202E-05 3.54088E-06-2.01766E-19 5.28694E-19
 -1      2299 1.09335E-04-3.61573E-05-3.13483E-05-1.04088E-06 2.67755E-19-3.42594E-19
 -1      2300 1.09590E-04-3.64658E-05-3.13931E-05-2.77546E-06 4.09507E-19-6.47170E-19
 -1      2301 1.08746E-04-3.67552E-05-3.08637E-05 6.62885E-07 1.88280E-19-1.86169E-20
 -1      2302 1.10506E-04-3.67716E-05-3.16085E-05-4.93937E-06 4.23095E-19-7.27814E-19
 -1      2303 1.10146E-04-3.63406E-05-3.16621E-05-6.70725E-06 4.02784E-19-3.73475E-19
 -1      2304 1.10989E-04-3.80151E-05-3.12644E-05-3.35370E-06 1.86604E-19-9.88088E-19
 -1      2305 1.10240E-04-3.56810E-05-3.19972E-05-8.72003E-06 3.02652E-19-4.31357E-19
 -1      2306 1.09171E-04-3.42517E-05-3.20898E-05-9.83438E-06 2.00812E-19-2.62137E-19
 -1      2307 1.12046E-04-3.74637E-05-3.19241E-05-7.81018E-06 3.90317E-19-1.09277E-18
 -1      2308 1.08177E-04-3.24587E-05-3.25310E-05-1.06865E-05 3.50788E-19-1.69466E-19
 -1      2309 1.06648E-04-3.02779E-05-3.26604E-05-1.03668E-05 5.72508E-19 9.41332E-22
 -1      2310 1.11117E-04-3.43069E-05-3.28711E-05-1.10749E-05 6.08824E-19-4.67087E-19
 -1      2311 1.04965E-04-2.79274E-05-3.30927E-05-9.05956E-06 4.19343E-19-1.92654E-19
 -1      2312 1.03666E-04-2.60019E-05-3.32067E-05-6.92857E-06 1.00706E-18-1.45801E-19
 -1      2313 1.08273E-04-2.90388E-05-3.39485E-05-1.08741E-05 5.04011E-19 3.96951E-19
 -1      2314 1.02539E-04-2.45396E-05-3.34487E-05-3.54237E-06 1.20314E-18-9.39254E-19
 -1      2315 1.02210E-04-2.40396E-05-3.34824E-05-2.99695E-07 5.68339E-19-4.48135E-19
 -1      2316 1.05272E-04-2.42304E-05-3.47787E-05-6.00760E-06 8.32385E-19 7.40161E-21
 -1      2317 1.02585E-04-2.45137E-05-3.34133E-05 3.65474E-06-1.09294E-19-1.59748E-19
 -1      2318 1.03441E-04-2.57939E-05-3.33390E-05 6.53619E-06-5.01437E-19-4.85919E-20
 -1      2319 1.04462E-04-2.29828E-05-3.49952E-05 1.93623E-06 6.85700E-20-6.29048E-19
 -1      2320 1.05002E-04-2.78641E-05-3.29818E-05 9.06864E-06-8.98325E-19-8.08754E-19
 -1      2321 1.06521E-04-3.00721E-05-3.28497E-05 1.03731E-05-6.62927E-19-1.22808E-18
 -1      2322 1.06534E-04-2.61775E-05-3.44668E-05 8.86636E-06-1.02680E-18-1.18519E-18
 -1      2323 1.07994E-04-3.22991E-05-3.23923E-05 1.05941E-05-8.23070E-19-1.29584E-18
 -1      2324 1.09378E-04-3.42084E-05-3.22788E-05 1.01665E-05-7.54314E-19-1.69098E-18
 -1      2325 1.09777E-04-3.16269E-05-3.34589E-05 1.15715E-05-1.04108E-18-2.04765E-18
 -1      2326 1.09872E-04-3.54932E-05-3.18824E-05 8.63810E-06-4.35506E-19-1.66656E-18
 -1      2327 1.10626E-04-3.64465E-05-3.18143E-05 7.12538E-06-6.96764E-19-1.37505E-18
 -1      2328 1.11849E-04-3.61056E-05-3.24106E-05 9.89748E-06-9.14959E-19-1.29861E-18
 -1      2329 1.10095E-04-3.65996E-05-3.15418E-05 4.94869E-06-5.38438E-19-8.62471E-19
 -1      2330 1.10156E-04-3.66362E-05-3.15016E-05 3.14399E-06-1.77566E-19-9.86446E-20
 -1      2331 1.11800E-04-3.80009E-05-3.15981E-05 5.83596E-06 4.14169E-20-8.64147E-19
 -1      2332 1.09031E-04-3.60413E-05-3.13362E-05 1.15857E-06-1.02015E-18-4.22532E-19
 -1      2333 1.08583E-04-3.55261E-05-3.12908E-05-3.99410E-07-1.46251E-18 7.80139E-19
 -1      2334 1.10082E-04-3.75594E-05-3.10800E-05 1.47098E-06-6.22874E-19-1.22102E-19
 -1      2335 1.07305E-04-3.46516E-05-3.11847E-05-1.82499E-06-1.58979E-18 9.90735E-19
 -1      2336 1.06580E-04-3.39412E-05-3.11102E-05-2.91462E-06-1.06610E-18 2.64637E-19
 -1      2337 1.07619E-04-3.58369E-05-3.07785E-05-2.00767E-06-1.48832E-18 2.14703E-19
 -1      2338 1.05407E-04-3.30959E-05-3.10229E-05-3.74632E-06-1.79043E-19 1.92644E-19
 -1      2339 1.04578E-04-3.24092E-05-3.09129E-05-4.36093E-06 4.19635E-19 8.81598E-19
 -1      2340 1.05128E-04-3.38018E-05-3.05868E-05-4.26160E-06-9.18693E-19 9.92628E-19
 -1      2341 1.03606E-04-3.17278E-05-3.08225E-05-4.71188E-06 3.71474E-19 5.01414E-19
 -1      2342 1.02781E-04-3.11582E-05-3.06835E-05-4.94524E-06 1.11788E-18 2.66258E-19
 -1      2343 1.02959E-04-3.19984E-05-3.04278E-05-5.41263E-06 4.34236E-19 7.72126E-19
 -1      2344 1.02010E-04-3.06644E-05-3.05828E-05-4.96192E-06 7.79026E-19 8.26868E-19
 -1      2345 1.01245E-04-3.02299E-05-3.04273E-05-4.93224E-06 4.45658E-19 6.53704E-19
 -1      2346 1.01202E-04-3.06191E-05-3.02624E-05-5.73975E-06 9.79325E-19 7.72939E-19
 -1      2347 1.00645E-04-2.98971E-05-3.03186E-05-4.74419E-06 6.32986E-19 9.66435E-19
 -1      2348 9.99651E-05-2.95820E-05-3.01596E-05-4.55670E-06 8.04788E-19 1.30925E-18
 -1      2349 9.98237E-05-2.96605E-05-3.00795E-05-5.52569E-06 8.18173E-19 5.62114E-19
 -1      2350 9.94987E-05-2.93702E-05-3.00484E-05-4.26182E-06 1.83063E-19 7.30859E-19
 -1      2351 9.89131E-05-2.91489E-05-2.98962E-05-3.99618E-06-4.84188E-19-2.63452E-19
 -1      2352 9.87534E-05-2.90419E-05-2.98837E-05-5.00005E-06-6.81302E-20 6.03360E-19
 -1      2353 9.85488E-05-2.90209E-05-2.97886E-05-3.66149E-06-3.34959E-19-4.01586E-19
 -1      2354 9.80566E-05-2.88690E-05-2.96503E-05-3.37167E-06-2.39650E-19 7.03192E-19
 -1      2355 9.79213E-05-2.86693E-05-2.96853E-05-4.32882E-06-5.85215E-19 2.71853E-19
 -1      2356 9.77708E-05-2.87960E-05-2.95509E-05-3.03936E-06-8.90009E-20 1.24909E-18
 -1      2357 9.73660E-05-2.86936E-05-2.94300E-05-2.75845E-06 4.48937E-19 2.16975E-18
 -1      2358 9.72718E-05-2.84624E-05-2.94947E-05-3.62222E-06 4.89473E-19 6.95493E-19
 -1      2359 9.71413E-05-2.86551E-05-2.93418E-05-2.45242E-06 7.08259E-19 2.82907E-18
 -1      2360 9.68149E-05-2.85873E-05-2.92397E-05-2.19830E-06 6.58583E-19 3.18118E-18
 -1      2361 9.67634E-05-2.83608E-05-2.93196E-05-2.94726E-06 1.28124E-18 1.70051E-18
 -1      2362 9.66386E-05-2.85694E-05-2.91640E-05-1.92994E-06-4.28796E-19 2.92175E-18
 -1      2363 9.63803E-05-2.85252E-05-2.90802E-05-1.71017E-06-8.99212E-20 2.01428E-18
 -1      2364 9.63654E-05-2.83225E-05-2.91649E-05-2.33996E-06-2.43202E-19 2.18034E-18
 -1      2365 9.62425E-05-2.85189E-05-2.90171E-05-1.48272E-06 6.75846E-19 8.24181E-19
 -1      2366 9.60420E-05-2.84903E-05-2.89502E-05-1.29832E-06 7.74880E-19 6.16214E-19
 -1      2367 9.60549E-05-2.83193E-05-2.90327E-05-1.81535E-06-8.03678E-19 1.59555E-18
 -1      2368 9.59347E-05-2.84895E-05-2.88990E-05-1.11002E-06 1.04869E-19-4.34199E-19
 -1      2369 9.57819E-05-2.84710E-05-2.88470E-05-9.58131E-07-2.29637E-19-3.10291E-21
 -1      2370 9.58136E-05-2.83328E-05-2.89230E-05-1.37505E-06-3.50292E-19-3.88628E-19
 -1      2371 9.56984E-05-2.84719E-05-2.88065E-05-8.04358E-07-6.42721E-20-3.80597E-19
 -1      2372 9.55844E-05-2.84595E-05-2.87672E-05-6.80370E-07-8.39725E-19-1.07522E-19
 -1      2373 9.56265E-05-2.83515E-05-2.88343E-05-1.01254E-06-3.47184E-19-4.85253E-21
 -1      2374 9.55190E-05-2.84606E-05-2.87357E-05-5.55282E-07-2.48338E-18 1.13350E-18
 -1      2375 9.54367E-05-2.84518E-05-2.87066E-05-4.54669E-07-2.78235E-18 5.43957E-19
 -1      2376 9.54809E-05-2.83683E-05-2.87642E-05-7.17465E-07-1.23577E-18-4.44230E-19
 -1      2377 9.36467E-05-2.76449E-05-2.82767E-05-5.30802E-07 4.05606E-19-2.02773E-19
 -1      2378 9.36958E-05-2.75862E-05-2.83129E-05-1.75267E-07 5.32770E-19 6.11129E-20
 -1      2379 9.37013E-05-2.77653E-05-2.82508E-05-1.19239E-06 3.06293E-19-2.27868E-19
 -1      2380 9.35820E-05-2.76815E-05-2.82318E-05-9.26302E-07 1.99303E-19-2.50115E-19
 -1      2381 9.43017E-05-2.76724E-05-2.85730E-05-6.90590E-07 3.77289E-19-4.02810E-19
 -1      2382 9.40120E-05-2.79349E-05-2.83113E-05-1.69592E-06 6.06864E-19-1.67816E-19
 -1      2383 9.37665E-05-2.78266E-05-2.82526E-05-1.49191E-06 3.95253E-19-8.70434E-20
 -1      2384 9.43222E-05-2.78239E-05-2.85130E-05-1.46804E-06 4.01484E-19-3.16976E-19
 -1      2385 9.45041E-05-2.81215E-05-2.84405E-05-2.09526E-06 9.69156E-19 3.97379E-20
 -1      2386 9.41643E-05-2.80044E-05-2.83494E-05-1.92588E-06 8.31707E-19 5.91525E-20
 -1      2387 9.45520E-05-2.79908E-05-2.85354E-05-2.05404E-06 6.02803E-19-3.36467E-19
 -1      2388 9.51405E-05-2.83129E-05-2.86299E-05-2.46158E-06 7.88051E-19 2.24054E-19
 -1      2389 9.47177E-05-2.81876E-05-2.85094E-05-2.29758E-06 1.11573E-18 3.60834E-19
 -1      2390 9.49202E-05-2.81432E-05-2.86250E-05-2.53015E-06 7.99383E-19 2.05816E-19
 -1      2391 9.59198E-05-2.85080E-05-2.88817E-05-2.85306E-06 3.19877E-19 4.71896E-19
 -1      2392 9.54146E-05-2.83797E-05-2.87289E-05-2.66658E-06 4.67327E-19 3.92686E-19
 -1      2393 9.54039E-05-2.82769E-05-2.87757E-05-2.98594E-06 5.58370E-19 3.52639E-19
 -1      2394 9.68462E-05-2.86968E-05-2.91977E-05-3.31106E-06 1.43645E-19 1.29942E-19
 -1      2395 9.62407E-05-2.85616E-05-2.90131E-05-3.09425E-06 4.26240E-19 3.43073E-19
 -1      2396 9.59899E-05-2.83810E-05-2.89870E-05-3.47392E-06 3.81817E-19 4.05925E-19
 -1      2397 9.79275E-05-2.89270E-05-2.95557E-05-3.89072E-06 3.19774E-19-9.01172E-20
 -1      2398 9.72449E-05-2.87628E-05-2.93485E-05-3.60626E-06 7.42436E-20 2.10053E-20
 -1      2399 9.67092E-05-2.84665E-05-2.92526E-05-4.04771E-06 1.99089E-19 1.40513E-19
 -1      2400 9.91903E-05-2.92263E-05-2.99677E-05-4.58675E-06 4.46179E-19-5.82033E-19
 -1      2401 9.83889E-05-2.90186E-05-2.97289E-05-4.25195E-06 6.27804E-19-1.16911E-19
 -1      2402 9.75466E-05-2.85974E-05-2.95557E-05-4.76439E-06 3.72989E-19 3.42358E-19
 -1      2403 1.00673E-04-2.96300E-05-3.04308E-05-5.36392E-06 9.11884E-20-2.02706E-19
 -1      2404 9.97370E-05-2.93577E-05-3.01609E-05-4.99904E-06 1.88007E-19-3.80616E-19
 -1      2405 9.85409E-05-2.87986E-05-2.98962E-05-5.59978E-06 2.22731E-19-1.51053E-19
 -1      2406 1.02406E-04-3.01956E-05-3.09349E-05-6.14309E-06-2.41176E-19 2.53399E-19
 -1      2407 1.01326E-04-2.98292E-05-3.06391E-05-5.79552E-06-8.11233E-20-8.72212E-20
 -1      2408 9.97301E-05-2.91291E-05-3.02655E-05-6.51149E-06-4.05794E-20 1.87115E-19
 -1      2409 1.04418E-04-3.10058E-05-3.14586E-05-6.77002E-06 3.08418E-19 4.93237E-19
 -1      2410 1.03198E-04-3.05065E-05-3.11496E-05-6.52829E-06 9.91380E-20 3.05690E-19
 -1      2411 1.01172E-04-2.96821E-05-3.06486E-05-7.39997E-06-1.64854E-19 2.13785E-19
 -1      2412 1.06730E-04-3.21674E-05-3.19671E-05-6.98472E-06 1.50156E-19 5.06307E-19
 -1      2413 1.05398E-04-3.14922E-05-3.16672E-05-6.99288E-06 4.74135E-19 5.07206E-19
 -1      2414 1.02953E-04-3.05958E-05-3.10246E-05-8.08028E-06 2.85078E-19 7.34813E-19
 -1      2415 1.09339E-04-3.37822E-05-3.24159E-05-6.40113E-06-8.07289E-19 6.46824E-19
 -1      2416 1.07963E-04-3.29059E-05-3.21563E-05-6.86213E-06-3.52061E-19 5.61990E-19
 -1      2417 1.05195E-04-3.20481E-05-3.13700E-05-8.24905E-06-2.54069E-19 8.80324E-19
 -1      2418 1.12160E-04-3.58490E-05-3.27672E-05-4.53277E-06-9.74267E-19 3.89691E-19
 -1      2419 1.10888E-04-3.48266E-05-3.25804E-05-5.67573E-06-1.14308E-18 7.55897E-19
 -1      2420 1.08039E-04-3.42033E-05-3.16734E-05-7.45954E-06-1.19399E-18 1.05295E-18
 -1      2421 1.14909E-04-3.80592E-05-3.30220E-05-9.59159E-07-2.52277E-19 5.77840E-19
 -1      2422 1.14002E-04-3.71294E-05-3.29253E-05-2.92190E-06-4.41648E-19 4.29075E-19
 -1      2423 1.11537E-04-3.70330E-05-3.19643E-05-5.14690E-06-8.49410E-19 2.62350E-19
 -1      2424 1.16943E-04-3.95485E-05-3.32587E-05 4.27370E-06 3.18934E-19 7.58667E-19
 -1      2425 1.16792E-04-3.92296E-05-3.32323E-05 1.67268E-06-9.46427E-20 4.42059E-19
 -1      2426 1.15415E-04-3.99954E-05-3.23482E-05-8.35551E-07-1.37130E-20 7.26023E-19
 -1      2427 1.17231E-04-3.88384E-05-3.36470E-05 1.00423E-05 1.03149E-19 9.87475E-19
 -1      2428 1.18249E-04-3.98680E-05-3.36222E-05 7.58989E-06 6.12666E-19 8.77401E-19
 -1      2429 1.18778E-04-4.17330E-05-3.30243E-05 5.36968E-06 1.76795E-19 7.97041E-19
 -1      2430 1.14893E-04-3.46623E-05-3.43314E-05 1.34576E-05-1.19207E-19 7.70654E-19
 -1      2431 1.16978E-04-3.73007E-05-3.42493E-05 1.26934E-05-1.00325E-19 8.96776E-19
 -1      2432 1.19889E-04-4.00491E-05-3.42337E-05 1.20552E-05 2.75777E-19 1.30541E-18
 -1      2433 1.10770E-04-2.85091E-05-3.51889E-05 1.12479E-05 1.46854E-19 6.56189E-19
 -1      2434 1.13007E-04-3.16981E-05-3.50440E-05 1.31781E-05-4.85919E-20 8.16563E-19
 -1      2435 1.17409E-04-3.36067E-05-3.59231E-05 1.54521E-05 2.10752E-19 6.83873E-19
 -1      2436 1.07773E-04-2.43331E-05-3.57836E-05 2.71332E-06 8.37821E-19-1.86083E-19
 -1      2437 1.08763E-04-2.56949E-05-3.57218E-05 7.12189E-06 4.59674E-19 9.28428E-21
 -1      2438 1.13503E-04-2.61952E-05-3.74730E-05 1.08335E-05 5.03746E-19 2.48697E-19
 -1      2439 1.08936E-04-2.59414E-05-3.56971E-05-7.65420E-06 1.72845E-18 6.88730E-19
 -1      2440 1.07850E-04-2.43833E-05-3.57684E-05-3.30121E-06 1.33720E-18 2.29690E-19
 -1      2441 1.11172E-04-2.24714E-05-3.81895E-05-3.10017E-07 1.05178E-18-3.18828E-20
 -1      2442 1.13336E-04-3.19923E-05-3.50110E-05-1.34304E-05 2.10289E-19 6.36750E-19
 -1      2443 1.10973E-04-2.88309E-05-3.51467E-05-1.16123E-05 1.54006E-18 1.00840E-18
 -1      2444 1.13549E-04-2.64138E-05-3.74579E-05-1.10948E-05 1.34575E-18 4.64849E-19
 -1      2445 1.17219E-04-3.76171E-05-3.41966E-05-1.24706E-05 1.16646E-19 3.00419E-19
 -1      2446 1.15119E-04-3.50760E-05-3.42779E-05-1.34544E-05-1.38745E-19 6.22146E-19
 -1      2447 1.17840E-04-3.43159E-05-3.57986E-05-1.49263E-05 4.00329E-19 9.51000E-19
 -1      2448 1.18245E-04-3.98667E-05-3.36124E-05-7.30916E-06 3.06024E-20 1.07996E-18
 -1      2449 1.17299E-04-3.89491E-05-3.36264E-05-9.74577E-06 2.31963E-19 7.71865E-19
 -1      2450 1.19948E-04-4.02549E-05-3.41352E-05-1.15518E-05-1.02372E-20 3.60409E-19
 -1      2451 1.16727E-04-3.91297E-05-3.32408E-05-1.47385E-06 2.09158E-19-5.76737E-19
 -1      2452 1.16911E-04-3.94897E-05-3.32654E-05-3.98036E-06 5.46502E-19 8.37937E-19
 -1      2453 1.18639E-04-4.16558E-05-3.29921E-05-5.03700E-06 5.71883E-19 3.55466E-19
 -1      2454 1.13926E-04-3.70025E-05-3.29448E-05 3.00623E-06 8.92362E-20-1.33998E-18
 -1      2455 1.14839E-04-3.79308E-05-3.30407E-05 1.15231E-06-3.66335E-19-9.04875E-19
 -1      2456 1.15260E-04-3.98412E-05-3.23481E-05 1.05138E-06 4.93959E-19-2.17853E-19
 -1      2457 1.10849E-04-3.47192E-05-3.26099E-05 5.63511E-06-1.07934E-18 3.46278E-19
 -1      2458 1.12106E-04-3.57173E-05-3.27941E-05 4.58093E-06-3.84262E-19-4.38098E-19
 -1      2459 1.11407E-04-3.68501E-05-3.19863E-05 5.20534E-06-6.28709E-19 9.08309E-19
 -1      2460 1.07994E-04-3.28363E-05-3.21999E-05 6.71061E-06 2.09381E-19 6.45239E-19
 -1      2461 1.09336E-04-3.36835E-05-3.24525E-05 6.31014E-06-9.61409E-19 1.10788E-19
 -1      2462 1.07976E-04-3.40484E-05-3.17117E-05 7.36470E-06-1.08443E-18 1.19064E-18
 -1      2463 1.05517E-04-3.14614E-05-3.17318E-05 6.74447E-06 1.28642E-18 1.42888E-18
 -1      2464 1.06801E-04-3.21105E-05-3.20196E-05 6.77585E-06 1.57058E-18 1.30532E-18
 -1      2465 1.05213E-04-3.19369E-05-3.14241E-05 8.02435E-06 2.84648E-19 1.61603E-18
 -1      2466 1.03423E-04-3.05120E-05-3.12434E-05 6.18923E-06 3.11351E-19 1.27956E-18
 -1      2467 1.04580E-04-3.09882E-05-3.15352E-05 6.45996E-06 8.85846E-19 1.91224E-18
 -1      2468 1.03056E-04-3.05242E-05-3.10983E-05 7.74329E-06 8.67393E-19 2.28191E-18
 -1      2469 1.01676E-04-2.98701E-05-3.07706E-05 5.36486E-06-1.35658E-20 1.39208E-18
 -1      2470 1.02678E-04-3.02142E-05-3.10441E-05 5.73941E-06-9.30049E-20 1.41491E-18
 -1      2471 1.01367E-04-2.96428E-05-3.07478E-05 6.95816E-06 9.37584E-20 1.71907E-18
 -1      2472 1.00232E-04-2.94365E-05-3.03383E-05 4.47090E-06-1.63041E-18 6.75724E-19
 -1      2473 1.01076E-04-2.96846E-05-3.05810E-05 4.86603E-06-6.21214E-19 1.17300E-18
 -1      2474 1.00026E-04-2.91173E-05-3.03962E-05 5.96403E-06 3.41076E-20 9.80356E-19
 -1      2475 9.90538E-05-2.91409E-05-2.99600E-05 3.61845E-06-1.42518E-18 1.45750E-18
 -1      2476 9.97462E-05-2.93201E-05-3.01669E-05 3.98902E-06-1.57781E-18 1.45077E-18
 -1      2477 9.89501E-05-2.88135E-05-3.00642E-05 4.94074E-06-1.44587E-18 1.55797E-18
 -1      2478 9.81032E-05-2.89370E-05-2.96401E-05 2.86085E-06-1.06305E-18 6.18585E-19
 -1      2479 9.86600E-05-2.90667E-05-2.98110E-05 3.18623E-06-1.80977E-18 7.54361E-19
 -1      2480 9.80835E-05-2.86422E-05-2.97656E-05 3.98670E-06-1.43538E-18 4.39743E-19
 -1      2481 9.73469E-05-2.87951E-05-2.93770E-05 2.21669E-06-3.08820E-20 2.57542E-18
 -1      2482 9.77863E-05-2.88887E-05-2.95147E-05 2.49072E-06-3.54519E-19 1.20590E-18
 -1      2483 9.73871E-05-2.85481E-05-2.95070E-05 3.14762E-06-5.75479E-19 2.25819E-19
 -1      2484 9.67540E-05-2.86958E-05-2.91657E-05 1.68518E-06-6.18696E-19 2.72831E-18
 -1      2485 9.70947E-05-2.87631E-05-2.92741E-05 1.90958E-06 1.54480E-19 3.05580E-18
 -1      2486 9.68318E-05-2.84984E-05-2.92898E-05 2.43749E-06-4.24757E-19 2.03314E-18
 -1      2487 9.62965E-05-2.86261E-05-2.89996E-05 1.25559E-06-3.51533E-19 2.29841E-18
 -1      2488 9.65559E-05-2.86742E-05-2.90833E-05 1.43598E-06-8.74159E-19 2.82512E-18
 -1      2489 9.63937E-05-2.84736E-05-2.91121E-05 1.85245E-06-8.74375E-19 1.99857E-18
 -1      2490 9.59491E-05-2.85768E-05-2.88721E-05 9.12676E-07 9.18885E-19 2.44813E-18
 -1      2491 9.61428E-05-2.86109E-05-2.89351E-05 1.05636E-06 4.33960E-19 2.10312E-18
 -1      2492 9.60523E-05-2.84620E-05-2.89703E-05 1.37955E-06 3.34179E-19 1.71513E-18
 -1      2493 9.56902E-05-2.85411E-05-2.87765E-05 6.39933E-07 9.17745E-19 2.03243E-18
 -1      2494 9.58313E-05-2.85653E-05-2.88227E-05 7.54526E-07 6.65485E-19 2.28311E-18
 -1      2495 9.57894E-05-2.84564E-05-2.88595E-05 1.00165E-06 4.72549E-19 3.04390E-18
 -1      2496 9.55007E-05-2.85155E-05-2.87066E-05 4.21156E-07-2.74396E-19 2.06327E-18
 -1      2497 9.56001E-05-2.85317E-05-2.87394E-05 5.13766E-07 4.07764E-19 1.80392E-18
 -1      2498 9.55884E-05-2.84520E-05-2.87748E-05 7.01698E-07 7.40174E-19 1.86657E-18
 -1      2499 9.53653E-05-2.84987E-05-2.86560E-05 2.46642E-07-7.88127E-19 2.41206E-18
 -1      2500 9.54335E-05-2.85085E-05-2.86790E-05 3.21356E-07-4.07078E-19 2.49069E-18
 -1      2501 9.54382E-05-2.84511E-05-2.87110E-05 4.61172E-07-3.46712E-19 2.12982E-18
 -1      2502 9.53159E-05-2.85001E-05-2.86334E-05 1.63051E-07-2.51080E-19 1.43647E-18
 -1      2503 9.49631E-05-2.78755E-05-2.87544E-05 4.04372E-07 8.09129E-19-5.68153E-19
 -1      2504 9.50146E-05-2.79468E-05-2.87424E-05 4.33215E-07 8.67122E-19-1.81225E-18
 -1      2505 9.48748E-05-2.77491E-05-2.87707E-05 2.92094E-07 7.25790E-19 5.03457E-19
 -1      2506 9.49133E-05-2.78023E-05-2.87618E-05 3.49021E-07 5.40523E-19 6.00714E-19
 -1      2507 9.48906E-05-2.77694E-05-2.87644E-05 4.44581E-07 1.39813E-18 2.60937E-19
 -1      2508 9.51911E-05-2.82113E-05-2.87072E-05 4.25626E-07 1.25621E-18 5.67913E-19
 -1      2509 9.52427E-05-2.82886E-05-2.86926E-05 3.92160E-07 1.23749E-18 1.39844E-19
 -1      2510 9.50747E-05-2.80369E-05-2.87327E-05 4.51627E-07-3.51841E-19-1.35457E-18
 -1      2511 9.51306E-05-2.81155E-05-2.87191E-05 4.47817E-07-6.47381E-20 2.25421E-19
 -1      2512 9.51644E-05-2.81268E-05-2.87295E-05 5.26086E-07 3.51708E-19-4.29617E-19
 -1      2513 9.50202E-05-2.79362E-05-2.87491E-05 5.26099E-07 7.39480E-19-8.58422E-19
 -1      2514 9.48226E-05-2.76746E-05-2.87799E-05 1.33860E-07-6.41401E-19 1.89501E-19
 -1      2515 9.48427E-05-2.77025E-05-2.87753E-05 2.09107E-07 5.46278E-19-1.13396E-20
 -1      2516 9.47938E-05-2.76469E-05-2.87749E-05 2.94203E-07 5.99320E-19 1.71853E-19
 -1      2517 9.48131E-05-2.76610E-05-2.87811E-05-4.46771E-08-6.94257E-19 1.50873E-18
 -1      2518 9.48123E-05-2.76599E-05-2.87813E-05 3.65322E-08-3.68823E-19 1.00670E-18
 -1      2519 9.47436E-05-2.75841E-05-2.87800E-05 9.92030E-08 8.91158E-19 5.92930E-19
 -1      2520 9.48470E-05-2.77095E-05-2.87741E-05-2.15339E-07 5.85238E-19 7.66863E-19
 -1      2521 9.48256E-05-2.76797E-05-2.87791E-05-1.41219E-07-4.27189E-19 1.48813E-18
 -1      2522 9.47461E-05-2.75883E-05-2.87794E-05-1.10104E-07 2.26690E-19 1.89886E-18
 -1      2523 9.49180E-05-2.78112E-05-2.87600E-05-3.49582E-07 1.18701E-18-1.24433E-18
 -1      2524 9.48798E-05-2.77581E-05-2.87690E-05-2.95024E-07 1.12787E-18 2.18840E-19
 -1      2525 9.48000E-05-2.76573E-05-2.87731E-05-3.00447E-07 8.80414E-19 1.01149E-18
 -1      2526 9.50186E-05-2.79564E-05-2.87400E-05-4.30683E-07 1.75538E-18 1.06227E-18
 -1      2527 9.49679E-05-2.78852E-05-2.87522E-05-4.02934E-07 1.90465E-18-1.92470E-18
 -1      2528 9.48972E-05-2.77825E-05-2.87617E-05-4.44920E-07 1.59009E-18-1.33070E-18
 -1      2529 9.51338E-05-2.81261E-05-2.87162E-05-4.42894E-07-1.89492E-19 2.65606E-19
 -1      2530 9.50786E-05-2.80463E-05-2.87300E-05-4.48124E-07 1.32129E-19 1.58659E-18
 -1      2531 9.50253E-05-2.79498E-05-2.87457E-05-5.22321E-07 4.12658E-19-5.18827E-19
 -1      2532 9.52436E-05-2.82974E-05-2.86896E-05-3.85324E-07-2.71051E-18-2.48625E-18
 -1      2533 9.51937E-05-2.82197E-05-2.87043E-05-4.21893E-07-1.45179E-18-3.28827E-19
 -1      2534 9.51641E-05-2.81387E-05-2.87255E-05-5.19869E-07-1.90833E-18-1.73819E-18
 -1      2535 2.73765E-05-2.04299E-05-2.66047E-06 2.16956E-05-1.90858E-18 5.05234E-18
 -1      2536 2.08102E-05-1.61669E-05-1.59400E-06 5.84383E-06-1.18729E-18 3.83875E-18
 -1      2537 9.20621E-05-5.12137E-05-1.77198E-05 4.11580E-05-1.44165E-18 3.37101E-18
 -1      2538 7.38071E-05-4.49385E-05-1.22077E-05 4.05832E-05-1.88655E-18 3.57363E-18
 -1      2539 9.39000E-05-2.75386E-05-2.84274E-05 3.55830E-07 5.00082E-19 1.22297E-19
 -1      2540 9.41667E-05-2.74586E-05-2.85505E-05 8.79471E-07 6.87880E-19 2.37219E-19
 -1      2541 9.45403E-05-2.75007E-05-2.87480E-05 3.37563E-07 6.63265E-19-8.89674E-20
 -1      2542 1.48466E-04-2.61579E-05-5.30645E-05-8.07859E-06 1.97189E-18-2.25904E-18
 -1      2543 1.49386E-04-3.57175E-05-4.88840E-05-4.68415E-06 2.20885E-18-2.35369E-18
 -1      2544 1.44513E-04-4.15714E-05-4.42314E-05-7.87482E-06 1.66082E-18-3.22698E-18
 -1      2545 9.52919E-05-2.84347E-05-2.86514E-05-2.33698E-07-1.13931E-18-1.55103E-18
 -1      2546 5.64523E-05-3.63688E-05-8.48638E-06 4.00126E-05-2.15273E-18 3.09718E-18
 -1      2547 4.07684E-05-2.82572E-05-5.03963E-06 3.21453E-05-2.31854E-18 4.05178E-18
 -1      2548 7.17651E-05-4.00790E-05-1.30981E-05 3.91613E-05-2.21414E-18 3.34080E-18
 -1      2549 2.18716E-05-1.63966E-05-1.90121E-06-1.05759E-05 4.08799E-19 1.57950E-18
 -1      2550 2.78277E-05-2.08565E-05-2.69402E-06-2.39424E-05 5.27278E-19 2.81427E-19
 -1      2551 1.47421E-04-1.37681E-05-5.74716E-05 3.20881E-06-1.52424E-18-1.83764E-18
 -1      2552 1.44190E-04-1.01872E-05-5.78394E-05 1.51554E-06-1.23497E-18-1.99525E-18
 -1      2553 4.19347E-05-3.01839E-05-4.81964E-06-3.34054E-05-1.19707E-18-3.56071E-18
 -1      2554 5.90856E-05-3.81877E-05-8.87960E-06-4.08483E-05-1.06641E-18-3.60285E-18
 -1      2555 8.61122E-05-1.00719E-05-3.27043E-05-6.07624E-07-9.82691E-21-2.07711E-18
 -1      2556 8.68914E-05-1.05592E-05-3.27797E-05-1.71857E-06-2.14048E-19-2.03218E-18
 -1      2557 8.85772E-05-1.29174E-05-3.25504E-05-1.87008E-06-3.18331E-19-1.88274E-18
 -1      2558 8.67426E-05-1.14195E-05-3.23475E-05 1.77970E-07-4.89691E-21-1.96344E-18
 -1      2559 1.44690E-04-1.26044E-05-5.71075E-05-2.44845E-06 2.00493E-18-5.17405E-19
 -1      2560 1.44574E-04-1.59725E-05-5.55316E-05-6.70105E-06 2.14490E-18-1.29755E-18
 -1      2561 1.40285E-04-5.48024E-05-3.66747E-05-1.20860E-05 2.23034E-19 6.22569E-20
 -1      2562 1.46775E-04-4.80108E-05-4.28034E-05-1.34500E-06 5.31460E-19 5.64971E-19
 -1      2563 1.43883E-04-1.48175E-05-5.57672E-05 6.36792E-06 1.75675E-18 2.74545E-19
 -1      2564 1.45190E-04-1.25333E-05-5.73636E-05 1.85270E-06 1.66018E-18-3.10835E-19
 -1      2565 1.45508E-04-3.47095E-05-4.78398E-05 7.40732E-06 9.71335E-19 9.16490E-19
 -1      2566 1.45691E-04-2.40909E-05-5.25943E-05 9.13631E-06 1.45436E-18 5.50148E-19
 -1      2567 1.15986E-04-5.77973E-05-2.48351E-05-3.05480E-05-4.15470E-19 1.67077E-19
 -1      2568 1.31142E-04-5.81666E-05-3.14360E-05-2.35532E-05 1.92276E-19-3.81165E-20
 -1      2569 7.61499E-05-4.60094E-05-1.28139E-05-4.05996E-05-1.13841E-18-2.04558E-18
 -1      2570 9.48869E-05-5.20191E-05-1.84849E-05-3.93119E-05-9.67312E-19-2.10527E-19
 -1      2571 7.39267E-05-4.13582E-05-1.34506E-05-3.97140E-05-1.41899E-18-2.08550E-18
 -1      2572 2.16362E-05-1.83068E-05-1.10695E-06-1.11846E-05-2.07364E-19-1.94542E-18
 -1      2573 2.85078E-05-2.16228E-05-2.68975E-06-2.35314E-05-6.02876E-19-3.03534E-18
 -1      2574 4.02707E-05-2.87129E-05-4.70685E-06-3.35967E-05-7.13625E-20-8.16328E-19
 -1      2575 5.92849E-05-3.74880E-05-9.27393E-06-4.19034E-05 9.23266E-20-6.36228E-19
 -1      2576 2.32060E-05-1.95818E-05-1.26088E-06 1.77615E-05-1.53101E-19-2.15824E-18
 -1      2577 1.83874E-05-1.74910E-05-1.13197E-07 2.15512E-06 1.11166E-19-1.83383E-18
 -1      2578 2.73015E-05-1.47282E-05-4.81814E-06-4.19396E-06 7.15743E-20-1.83531E-18
 -1      2579 9.19290E-05-5.01541E-05-1.78859E-05 4.23755E-05-1.29871E-18-1.03411E-18
 -1      2580 7.47563E-05-4.49762E-05-1.25807E-05 4.23851E-05-1.24641E-18 1.28114E-20
 -1      2581 1.22740E-04-5.52791E-05-2.91086E-05 2.96718E-05-9.37242E-19 4.46598E-19
 -1      2582 1.07217E-04-5.44647E-05-2.26923E-05 3.57192E-05-1.39379E-18-3.84341E-19
 -1      2583 1.05300E-04-5.50275E-05-2.13674E-05 3.64885E-05-5.85935E-19 2.04082E-19
 -1      2584 1.49800E-04-2.70879E-05-5.28276E-05-2.97937E-06-6.76779E-19 6.00970E-19
 -1      2585 1.46425E-04-3.47610E-05-4.81576E-05-8.22239E-07 1.99053E-20 4.68409E-19
 -1      2586 1.44514E-04-1.21479E-05-5.71864E-05-3.86435E-06-5.72594E-19-1.53027E-18
 -1      2587 1.47802E-04-1.81697E-05-5.57149E-05-4.19767E-06-6.11770E-19-4.13352E-19
 -1      2588 1.39165E-04-2.16404E-05-5.06012E-05-9.04114E-06 1.83383E-19 7.57989E-19
 -1      2589 1.47442E-04-2.53733E-05-5.26474E-05 3.58465E-06-1.94627E-18-2.62559E-18
 -1      2590 1.49592E-04-1.93399E-05-5.60740E-05 3.84599E-06-1.41349E-18-1.78724E-18
 -1      2591 1.37974E-04-1.44953E-05-5.31466E-05 6.98116E-06-1.25446E-18-2.32108E-18
 -1      2592 1.23509E-04-5.73075E-05-2.81848E-05-2.58082E-05 4.24575E-19-2.08243E-18
 -1      2593 1.34686E-04-5.59276E-05-3.39994E-05-1.96854E-05-2.38122E-19-1.88655E-18
 -1      2594 9.42210E-05-2.05274E-05-3.16480E-05-1.21656E-05-1.35969E-18-8.63491E-19
 -1      2595 9.51598E-05-2.43422E-05-3.03894E-05-8.26331E-06-1.18872E-18-7.74572E-19
 -1      2596 9.48156E-05-2.34193E-05-3.06365E-05-7.23557E-06-1.09632E-18-1.04084E-18
 -1      2597 9.25092E-05-1.81015E-05-3.19267E-05-1.15520E-05-1.32405E-18-1.27463E-18
 -1      2598 9.63356E-05-2.52799E-05-3.04790E-05 7.12936E-06 1.48754E-18 7.62672E-19
 -1      2599 9.73668E-05-2.39498E-05-3.14863E-05 1.01204E-05 1.53130E-18 9.46996E-19
 -1      2600 9.58022E-05-2.15259E-05-3.18915E-05 1.12427E-05 1.64763E-18 4.68078E-19
 -1      2601 9.59253E-05-2.44285E-05-3.06779E-05 7.18636E-06 1.45344E-18 2.14014E-19
 -1      2602 1.31651E-04-5.86620E-05-3.17550E-05 2.30638E-05-4.02341E-20-1.46876E-18
 -1      2603 1.13636E-04-5.73045E-05-2.39189E-05 3.14216E-05-1.23159E-18 5.69736E-19
 -1      2604 1.39055E-04-2.13010E-05-5.07787E-05-1.03113E-05 2.08815E-18-6.81544E-19
 -1      2605 9.04400E-05-1.51715E-05-3.22619E-05-6.95049E-06-9.66921E-19-2.16440E-18
 -1      2606 8.91941E-05-1.33511E-05-3.25685E-05-8.07746E-06-9.90191E-19-2.28323E-18
 -1      2607 8.96744E-05-1.40217E-05-3.24915E-05-9.26372E-06-1.11789E-18-2.19121E-18
 -1      2608 9.49957E-05-2.71134E-05-2.91046E-05 1.78408E-06 9.63720E-19 9.47287E-21
 -1      2609 9.41434E-05-1.93503E-05-3.20971E-05 1.08643E-05 1.61698E-18-1.61505E-19
 -1      2610 1.37573E-04-5.77563E-05-3.41695E-05 1.09079E-05 2.59404E-20-3.05980E-18
 -1      2611 9.13860E-05-1.66183E-05-3.21066E-05-1.04275E-05-1.22947E-18-1.65312E-18
 -1      2612 1.37744E-04-1.05139E-05-5.49571E-05-1.71743E-06-4.33257E-19-1.13516E-18
 -1      2613 1.28776E-04-1.05412E-05-5.10958E-05-5.47549E-06 5.28760E-19-1.25996E-19
 -1      2614 1.28278E-04-8.59725E-06-5.17566E-05 1.06741E-06-2.51992E-19-1.30229E-18
 -1      2615 1.31989E-04-5.64170E-05-3.22844E-05 2.10869E-05-5.27278E-19 7.61059E-19
 -1      2616 1.26212E-04-5.84424E-05-2.88334E-05 2.26987E-05-2.15252E-19 1.31343E-18
 -1      2617 1.36276E-04-5.55743E-05-3.51434E-05 1.05703E-05 4.18752E-20 1.00670E-18
 -1      2618 4.13333E-05-2.28263E-05-7.39105E-06 2.67646E-05-2.12129E-18 3.86586E-18
 -1      2619 3.21050E-05-2.19561E-05-3.90889E-06 2.49101E-05 1.51619E-19-1.90328E-18
 -1      2620 3.26416E-05-1.59126E-05-6.56657E-06 1.79011E-05 6.36175E-19-1.88211E-18
 -1      2621 4.27641E-05-2.42269E-05-7.60524E-06 3.07584E-05 3.06626E-19-1.10326E-18
 -1      2622 9.53250E-05-2.84509E-05-2.86602E-05 2.66642E-07 9.50539E-21 8.13877E-19
 -1      2623 1.08270E-04-5.57808E-05-2.21795E-05 3.31493E-05-1.33916E-18 1.75241E-18
 -1      2624 9.53072E-05-2.83980E-05-2.86752E-05 3.21711E-07 4.58282E-19 9.15178E-19
 -1      2625 4.26721E-05-2.36636E-05-7.62432E-06-2.96415E-05 5.51418E-19-2.27428E-19
 -1      2626 2.80464E-05-1.44296E-05-5.26659E-06-2.06331E-06 1.40025E-20 2.06020E-18
 -1      2627 7.47555E-05-4.30268E-05-1.31947E-05-4.18811E-05 3.95141E-19-5.38607E-19
 -1      2628 8.89135E-05-4.82952E-05-1.76914E-05-3.97449E-05 1.21856E-18-2.20319E-18
 -1      2629 7.00471E-05-3.72143E-05-1.34742E-05-4.00140E-05 9.38830E-19-1.04683E-18
 -1      2630 9.46649E-05-2.09302E-05-3.15567E-05 8.93331E-06 1.45827E-18-2.75299E-19
 -1      2631 1.38392E-04-5.32668E-05-3.67068E-05-8.31336E-06-3.13720E-19-3.49232E-18
 -1      2632 1.16448E-04-5.70068E-05-2.52309E-05-3.00651E-05 8.51056E-19-1.87221E-18
 -1      2633 1.09418E-04-5.65008E-05-2.24564E-05-3.32469E-05-1.07743E-18-1.25943E-19
 -1      2634 1.19928E-04-5.92141E-05-2.64296E-05-2.45774E-05-1.30125E-18 8.49680E-19
 -1      2635 1.01934E-04-5.22694E-05-2.08177E-05-3.45197E-05-1.72541E-18 5.10337E-20
 -1      2636 4.34141E-05-2.45436E-05-7.57754E-06-2.87235E-05-1.04344E-18-2.81427E-18
 -1      2637 1.44857E-04-4.32233E-05-4.39269E-05 7.23009E-06 5.17008E-19 8.73291E-19
 -1      2638 1.36596E-04-3.61099E-05-4.38757E-05 1.41684E-05 8.51056E-19 1.50062E-18
 -1      2639 1.40344E-04-4.83236E-05-3.94320E-05 5.78372E-06 7.22096E-20 1.06980E-18
 -1      2640 1.37129E-04-1.99563E-05-5.05079E-05 1.09331E-05 1.14095E-18 5.61795E-19
 -1      2641 1.44916E-04-4.15386E-05-4.44403E-05-4.08254E-07-1.28114E-20-2.50510E-19
 -1      2642 1.40252E-04-4.67071E-05-4.01433E-05 5.49200E-07-1.40925E-19-3.27166E-20
 -1      2643 1.39159E-04-3.66191E-05-4.43516E-05-9.11513E-06-4.28175E-19 5.75029E-19
 -1      2644 9.53491E-05-2.84522E-05-2.86683E-05-3.05406E-07-1.80070E-18-8.89626E-19
 -1      2645 9.52928E-05-2.83720E-05-2.86816E-05-3.54777E-07-2.23198E-18-2.18551E-18
 -1      2646 9.52967E-05-2.83108E-05-2.87071E-05-4.66995E-07-4.17135E-18-1.04525E-18
 -1      2647 9.54028E-05-2.84538E-05-2.86893E-05-3.81997E-07-2.69582E-18 3.49019E-19
 -1      2648 1.36962E-04-5.87075E-05-3.34493E-05-1.15732E-05-6.27598E-19 1.26377E-18
 -1      2649 1.34707E-04-1.14936E-05-5.30780E-05-5.75443E-07 1.69809E-18 4.01255E-19
 -1      2650 6.78195E-05-4.09025E-05-1.13135E-05 4.18527E-05-6.90332E-19-6.54333E-20
 -1      2651 6.09151E-05-3.44285E-05-1.07407E-05 4.01265E-05 1.03762E-19-3.12767E-19
 -1      2652 8.20216E-05-4.51019E-05-1.57470E-05 4.07280E-05-5.95041E-20-5.77041E-21
 -1      2653 1.46326E-04-3.27866E-05-4.88504E-05 4.55819E-06-1.88962E-18-3.33477E-18
 -1      2654 1.38247E-04-2.67185E-05-4.82638E-05 1.06054E-05-1.15408E-18-3.64542E-18
 -1      2655 1.41120E-04-3.85904E-05-4.41490E-05 4.70946E-06-1.16711E-18-4.51596E-18
 -1      2656 9.53119E-05-2.83377E-05-2.87020E-05 4.35240E-07 3.91348E-19 1.17313E-18
 -1      2657 9.53852E-05-2.83848E-05-2.87166E-05-5.08874E-07-3.60760E-18-2.32841E-19
 -1      2658 8.77486E-05-1.39912E-05-3.15945E-05 8.07927E-07 6.48132E-19-1.72995E-18
 -1      2659 8.66678E-05-1.31945E-05-3.15907E-05 1.78643E-07 5.37105E-19-1.77831E-18
 -1      2660 8.55574E-05-1.18665E-05-3.16574E-05 4.82807E-07 3.18723E-19-1.75448E-18
 -1      2661 8.55716E-05-1.17616E-05-3.17563E-05 5.95725E-07 1.57905E-19-1.70636E-18
 -1      2662 8.65751E-05-1.39450E-05-3.11925E-05-5.13960E-07 3.58401E-19-1.74131E-18
 -1      2663 9.18262E-05-1.80463E-05-3.16565E-05 5.01458E-06 1.11280E-18-1.25725E-18
 -1      2664 9.09589E-05-1.70603E-05-3.16795E-05 3.93076E-06 9.66616E-19-1.35701E-18
 -1      2665 9.35549E-05-2.02801E-05-3.14498E-05 6.65624E-06 1.25757E-18-9.08610E-19
 -1      2666 9.26300E-05-1.89949E-05-3.15672E-05 5.88965E-06 1.20885E-18-1.07653E-18
 -1      2667 9.34138E-05-2.05143E-05-3.12221E-05 4.46941E-06 1.06370E-18-1.09892E-18
 -1      2668 9.54532E-05-2.57580E-05-2.98850E-05 3.64335E-06 1.20797E-18-2.17982E-19
 -1      2669 9.57299E-05-2.49304E-05-3.03121E-05 5.15342E-06 1.22487E-18-2.13262E-19
 -1      2670 1.33434E-04-5.44138E-05-3.39224E-05-6.08796E-06 1.67832E-19-3.57480E-18
 -1      2671 1.39906E-04-4.83982E-05-3.95511E-05 1.47079E-06-1.00193E-18-4.45730E-18
 -1      2672 9.47300E-05-2.22648E-05-3.10644E-05 7.18014E-06 1.31294E-18-3.66199E-19
 -1      2673 9.22012E-05-1.82120E-05-3.17075E-05-8.74002E-06-1.15948E-18-1.71253E-18
 -1      2674 9.58574E-05-2.70814E-05-2.92990E-05 4.26248E-07-2.56201E-19-1.17307E-18
 -1      2675 9.65311E-05-2.96944E-05-2.90349E-05 9.08854E-07-2.34258E-19-1.00015E-18
 -1      2676 9.74236E-05-2.76454E-05-2.92387E-05-6.15206E-07-4.84450E-19-9.00925E-19
 -1      2677 9.20257E-05-2.48694E-05-2.90567E-05 1.41977E-06-2.17568E-19-2.67107E-19
 -1      2678 1.00555E-04-3.34188E-05-2.84171E-05 7.36080E-06-2.15951E-18-2.57265E-18
 -1      2679 9.36843E-05-2.62190E-05-2.89214E-05 4.45964E-07-3.79947E-19-9.30307E-19
 -1      2680 9.42265E-05-2.61917E-05-2.90850E-05 4.23114E-07-3.71903E-19-8.81047E-19
 -1      2681 9.17016E-05-2.68218E-05-2.90384E-05 5.06320E-06-1.16824E-18-2.42834E-19
 -1      2682 9.45636E-05-2.64368E-05-2.92537E-05 1.35867E-07-3.71636E-19-1.09508E-18
 -1      2683 9.50188E-05-2.64751E-05-2.93566E-05 5.84534E-07-5.81357E-19-1.26210E-18
 -1      2684 9.50412E-05-2.66870E-05-2.92744E-05 9.96809E-07-5.21293E-19-1.33092E-18
 -1      2685 9.51583E-05-2.64403E-05-2.94792E-05 1.13171E-06-4.36897E-19-1.13108E-18
 -1      2686 9.54569E-05-2.65386E-05-2.95543E-05 1.83303E-06-2.58315E-19-1.12040E-18
 -1      2687 9.51593E-05-2.62001E-05-2.95805E-05 1.13573E-06-4.49004E-19-1.33078E-18
 -1      2688 9.58335E-05-2.67727E-05-2.96115E-05 2.55242E-06-1.16189E-19-9.26496E-19
 -1      2689 9.61585E-05-2.70263E-05-2.96640E-05 3.15393E-06-3.52114E-20-7.06074E-19
 -1      2690 9.56423E-05-2.62673E-05-2.97753E-05 2.54178E-06-9.84146E-20-9.36708E-19
 -1      2691 9.65345E-05-2.73186E-05-2.96651E-05 3.61834E-06-8.52099E-20-6.35665E-19
 -1      2692 9.68224E-05-2.75435E-05-2.96947E-05 4.00606E-06-1.87492E-19-3.47475E-19
 -1      2693 9.64228E-05-2.68760E-05-2.98133E-05 3.72954E-06-2.17648E-20-4.43587E-19
 -1      2694 9.69916E-05-2.77179E-05-2.96339E-05 4.24994E-06-3.96479E-19-3.35121E-19
 -1      2695 9.72084E-05-2.79165E-05-2.95865E-05 4.46195E-06-2.76626E-19-2.73115E-19
 -1      2696 9.70043E-05-2.74790E-05-2.97320E-05 4.32987E-06-1.94732E-19-5.43319E-19
 -1      2697 9.73150E-05-2.81554E-05-2.93646E-05 4.54723E-06-2.02811E-19-5.14070E-19
 -1      2698 9.68417E-05-2.82970E-05-2.91995E-05 4.48751E-06-2.39022E-20-5.41095E-19
 -1      2699 9.72801E-05-2.79983E-05-2.94187E-05 4.65564E-06-3.76083E-19-6.27731E-19
 -1      2700 9.63832E-05-2.81417E-05-2.92486E-05 4.84374E-06 8.23468E-20-3.84137E-19
 -1      2701 9.67445E-05-2.82431E-05-2.93491E-05 5.14363E-06-4.81804E-20-2.67023E-19
 -1      2702 9.58097E-05-2.78040E-05-2.91489E-05 4.93974E-06-8.37745E-20-7.83735E-19
 -1      2703 9.69339E-05-2.83147E-05-2.94089E-05 5.49529E-06 1.20798E-19-2.31287E-19
 -1      2704 9.73818E-05-2.85034E-05-2.95117E-05 5.78625E-06 2.36287E-19-3.24780E-19
 -1      2705 9.61162E-05-2.78780E-05-2.92498E-05 5.64522E-06 1.50854E-19-1.64227E-19
 -1      2706 9.76813E-05-2.86888E-05-2.95656E-05 6.13112E-06 4.16308E-19 1.28221E-19
 -1      2707 9.82437E-05-2.90135E-05-2.96647E-05 6.36406E-06 5.70839E-19 1.62766E-19
 -1      2708 9.65993E-05-2.81520E-05-2.93419E-05 6.37263E-06 3.91859E-19 2.71293E-19
 -1      2709 9.87149E-05-2.93764E-05-2.97084E-05 6.64868E-06 3.70733E-19 2.06297E-20
 -1      2710 9.94282E-05-2.98955E-05-2.97985E-05 6.74685E-06 1.20650E-19 8.05529E-20
 -1      2711 9.73593E-05-2.87530E-05-2.94146E-05 7.04514E-06 3.36762E-19 4.76283E-20
 -1      2712 1.00157E-04-3.05109E-05-2.98316E-05 6.88489E-06-1.15262E-19-1.19473E-19
 -1      2713 1.01060E-04-3.12806E-05-2.99109E-05 6.74006E-06-3.36888E-19-1.61623E-19
 -1      2714 9.85420E-05-2.98385E-05-2.94636E-05 7.53237E-06-1.24422E-19 4.72845E-20
 -1      2715 1.02148E-04-3.22159E-05-2.99431E-05 6.60124E-06-3.74349E-19-2.27748E-20
 -1      2716 1.03262E-04-3.32578E-05-3.00186E-05 6.07626E-06-3.24303E-19 3.90272E-19
 -1      2717 1.00337E-04-3.15735E-05-2.94994E-05 7.63017E-06-3.77717E-19-7.71838E-20
 -1      2718 1.04800E-04-3.45259E-05-3.00772E-05 5.47749E-06-2.58846E-19 6.25882E-19
 -1      2719 1.06086E-04-3.57611E-05-3.01710E-05 4.42580E-06 1.45953E-19 7.90063E-19
 -1      2720 1.02942E-04-3.40595E-05-2.95627E-05 7.03669E-06-2.32442E-20 5.74525E-19
 -1      2721 1.08066E-04-3.72266E-05-3.03102E-05 3.14226E-06-1.83610E-19 4.15289E-19
 -1      2722 1.09350E-04-3.83688E-05-3.04678E-05 1.47049E-06-2.74955E-19-2.81645E-19
 -1      2723 1.06464E-04-3.71803E-05-2.97422E-05 5.33930E-06-3.70457E-19-6.89290E-21
 -1      2724 1.11525E-04-3.96119E-05-3.07781E-05-6.67401E-07 8.36060E-20-5.51245E-19
 -1      2725 1.12433E-04-4.00737E-05-3.10651E-05-2.85975E-06 1.42575E-19-6.83880E-19
 -1      2726 1.10676E-04-4.03092E-05-3.01967E-05 2.08676E-06-2.94686E-19-5.94266E-19
 -1      2727 1.14162E-04-4.03110E-05-3.16544E-05-5.70228E-06 3.47493E-19-4.73994E-19
 -1      2728 1.14225E-04-3.93089E-05-3.21280E-05-7.91206E-06 3.58472E-19-5.38043E-19
 -1      2729 1.14717E-04-4.20516E-05-3.11523E-05-2.87845E-06 1.80094E-19-2.90109E-20
 -1      2730 1.14521E-04-3.76505E-05-3.30408E-05-1.04740E-05 5.55562E-19-8.29649E-19
 -1      2731 1.13492E-04-3.48474E-05-3.36792E-05-1.16021E-05 5.90402E-19-5.86180E-19
 -1      2732 1.16862E-04-4.02298E-05-3.28123E-05-8.74158E-06 3.69942E-19-9.05538E-19
 -1      2733 1.11996E-04-3.12021E-05-3.47940E-05-1.25005E-05 4.22719E-19-7.26999E-19
 -1      2734 1.10115E-04-2.72622E-05-3.54537E-05-1.13751E-05 6.16653E-19-7.28819E-19
 -1      2735 1.16065E-04-3.45969E-05-3.49292E-05-1.26114E-05 4.66953E-19-1.74564E-18
 -1      2736 1.07908E-04-2.35391E-05-3.63585E-05-8.44669E-06 4.81247E-19-7.48321E-19
 -1      2737 1.06767E-04-2.10902E-05-3.67225E-05-5.02194E-06 1.96234E-19-1.34127E-18
 -1      2738 1.11694E-04-2.43048E-05-3.75180E-05-1.13285E-05 3.84129E-19-2.31718E-18
 -1      2739 1.06109E-04-2.00442E-05-3.69577E-05 9.32204E-08 3.48501E-19-1.52004E-18
 -1      2740 1.06422E-04-2.08134E-05-3.68576E-05 4.19975E-06-7.00787E-20-1.45122E-18
 -1      2741 1.09073E-04-1.88733E-05-3.87391E-05-2.83859E-06 1.68136E-19-1.81718E-18
 -1      2742 1.08097E-04-2.34340E-05-3.62689E-05 8.73891E-06-9.82108E-19-9.45221E-19
 -1      2743 1.09824E-04-2.69461E-05-3.57163E-05 1.11774E-05-1.30451E-18-1.36872E-18
 -1      2744 1.09753E-04-2.07130E-05-3.82389E-05 7.49117E-06-3.28755E-19-1.68499E-18
 -1      2745 1.11908E-04-3.09822E-05-3.46401E-05 1.22095E-05-9.20308E-19-1.53585E-18
 -1      2746 1.13521E-04-3.45908E-05-3.39626E-05 1.21515E-05-8.47974E-19-1.49485E-18
 -1      2747 1.13987E-04-2.91526E-05-3.63861E-05 1.27777E-05-9.49947E-19-7.90983E-19
 -1      2748 1.14188E-04-3.73930E-05-3.29129E-05 1.03138E-05-5.35990E-19-9.73138E-19
 -1      2749 1.14756E-04-3.93829E-05-3.23424E-05 8.51550E-06-2.65414E-19-7.04305E-19
 -1      2750 1.16825E-04-3.74546E-05-3.39723E-05 1.13691E-05-1.85712E-19-5.71238E-19
 -1      2751 1.13658E-04-4.00619E-05-3.15800E-05 5.63151E-06 1.80444E-19-6.64004E-19
 -1      2752 1.13160E-04-4.02791E-05-3.12026E-05 3.34328E-06 4.33009E-19-1.08962E-19
 -1      2753 1.16263E-04-4.16452E-05-3.19530E-05 6.08287E-06 2.87444E-19-2.02752E-19
 -1      2754 1.11107E-04-3.94429E-05-3.07627E-05 7.92787E-07-4.10563E-19 7.02493E-20
 -1      2755 1.09975E-04-3.85660E-05-3.05509E-05-1.17099E-06-7.73110E-19-5.28950E-19
 -1      2756 1.12961E-04-4.15029E-05-3.06481E-05 4.63816E-07 2.15014E-19-7.33938E-19
 -1      2757 1.07837E-04-3.71373E-05-3.03387E-05-2.87530E-06-1.18296E-18 5.38434E-19
 -1      2758 1.06532E-04-3.58953E-05-3.02239E-05-4.22997E-06-1.11870E-18 6.29843E-19
 -1      2759 1.08677E-04-3.88595E-05-2.99684E-05-3.67599E-06-1.91223E-19-2.07002E-20
 -1      2760 1.04747E-04-3.44829E-05-3.01365E-05-5.13700E-06-1.01706E-18 1.70055E-18
 -1      2761 1.03545E-04-3.33136E-05-3.00624E-05-5.89580E-06-2.63809E-19 1.81867E-18
 -1      2762 1.04729E-04-3.55911E-05-2.96765E-05-6.09808E-06-6.50501E-19 1.31088E-18
 -1      2763 1.02226E-04-3.21862E-05-3.00276E-05-6.21883E-06 3.44827E-20 2.72790E-18
 -1      2764 1.01229E-04-3.12649E-05-2.99608E-05-6.51078E-06 3.61000E-19 2.23241E-18
 -1      2765 1.01638E-04-3.27057E-05-2.95778E-05-7.15796E-06 7.40068E-20 2.99880E-18
 -1      2766 1.00325E-04-3.04748E-05-2.99375E-05-6.45827E-06 2.33954E-19 1.67176E-18
 -1      2767 9.95368E-05-2.98237E-05-2.98635E-05-6.42939E-06 3.32174E-19 1.29132E-18
 -1      2768 9.94378E-05-3.05478E-05-2.95482E-05-7.30468E-06-4.80057E-19 2.97160E-18
 -1      2769 9.89442E-05-2.93248E-05-2.98336E-05-6.15953E-06 6.13633E-19 7.71442E-19
 -1      2770 9.83335E-05-2.89011E-05-2.97503E-05-5.93469E-06 9.13169E-19 6.82661E-19
 -1      2771 9.79600E-05-2.91085E-05-2.95229E-05-6.89954E-06-2.41161E-19 1.07086E-18
 -1      2772 9.79552E-05-2.86192E-05-2.97093E-05-5.55622E-06 6.77835E-19 3.12857E-19
 -1      2773 9.74827E-05-2.83642E-05-2.96203E-05-5.22935E-06-2.71932E-19 4.21427E-19
 -1      2774 9.70021E-05-2.82444E-05-2.94768E-05-6.19674E-06 3.74997E-19 2.48663E-19
 -1      2775 9.72438E-05-2.82293E-05-2.95700E-05-4.81317E-06-6.97916E-19-5.27576E-20
 -1      2776 9.68766E-05-2.80899E-05-2.94807E-05-4.44917E-06-9.23259E-19-2.59281E-20
 -1      2777 9.63926E-05-2.77905E-05-2.94066E-05-5.36484E-06-4.05893E-19-5.99588E-20
 -1      2778 9.67252E-05-2.80472E-05-2.94254E-05-4.03931E-06-9.04421E-19 9.83068E-21
 -1      2779 9.64385E-05-2.79821E-05-2.93403E-05-3.67963E-06 4.58707E-19 6.64344E-20
 -1      2780 9.60063E-05-2.76058E-05-2.93182E-05-4.51141E-06-7.19243E-19 1.93162E-20
 -1      2781 9.63408E-05-2.79925E-05-2.92844E-05-3.30148E-06 1.88265E-18-1.21959E-18
 -1      2782 9.61164E-05-2.79725E-05-2.92069E-05-2.97008E-06 1.58917E-18-1.01156E-18
 -1      2783 9.57594E-05-2.75846E-05-2.92204E-05-3.70165E-06 3.33386E-19-2.89045E-18
 -1      2784 9.60515E-05-2.80099E-05-2.91535E-05-2.63633E-06 3.00520E-19-8.09642E-19
 -1      2785 9.58760E-05-2.80150E-05-2.90856E-05-2.34490E-06-6.42355E-19-9.25492E-19
 -1      2786 9.55983E-05-2.76533E-05-2.91213E-05-2.97151E-06 1.00646E-18-3.62075E-18
 -1      2787 9.58310E-05-2.80629E-05-2.90372E-05-2.05979E-06-1.11822E-18-4.15411E-19
 -1      2788 9.56942E-05-2.80802E-05-2.89795E-05-1.81188E-06-5.85103E-19-8.87790E-19
 -1      2789 9.54897E-05-2.77636E-05-2.90272E-05-2.33691E-06-5.59390E-19-3.21329E-18
 -1      2790 9.56612E-05-2.81284E-05-2.89373E-05-1.57427E-06-4.51299E-19-2.43495E-19
 -1      2791 9.55548E-05-2.81495E-05-2.88897E-05-1.36834E-06-6.52948E-19-4.11272E-19
 -1      2792 9.54130E-05-2.78851E-05-2.89419E-05-1.80060E-06-3.03454E-19-2.55918E-18
 -1      2793 9.55285E-05-2.81920E-05-2.88540E-05-1.17398E-06-1.28334E-18-7.42726E-19
 -1      2794 9.54461E-05-2.82121E-05-2.88158E-05-1.00527E-06-1.04868E-18-1.72586E-18
 -1      2795 9.53551E-05-2.79996E-05-2.88678E-05-1.35695E-06-1.39143E-18-3.15866E-18
 -1      2796 9.54228E-05-2.82469E-05-2.87864E-05-8.48817E-07-9.59479E-19-2.20169E-18
 -1      2797 9.53596E-05-2.82622E-05-2.87563E-05-7.12454E-07-1.83428E-18-2.37299E-18
 -1      2798 9.53076E-05-2.80982E-05-2.88052E-05-9.95634E-07-1.01242E-18-3.16548E-18
 -1      2799 9.48282E-05-2.77748E-05-2.87376E-05-1.64998E-06 4.64751E-19-3.84144E-19
 -1      2800 9.47614E-05-2.76538E-05-2.87542E-05-1.28336E-06 4.02436E-19-3.67086E-19
 -1      2801 1.31985E-04-5.91970E-05-3.08857E-05-1.20107E-05-6.36969E-19 1.02735E-18
 -1      2802 1.37404E-04-5.67353E-05-3.51324E-05-3.87068E-06-2.49266E-19 8.54392E-19
 -1      2803 9.47994E-05-2.75510E-05-2.88225E-05-8.00373E-07 3.66554E-19-3.61994E-19
 -1      2804 9.48593E-05-2.74451E-05-2.88842E-05-3.10998E-07 5.20330E-19-2.68882E-19
 -1      2805 9.51875E-05-2.74619E-05-2.90447E-05-9.81408E-07 4.82837E-19-3.52713E-19
 -1      2806 9.52631E-05-2.80909E-05-2.87770E-05-2.79556E-06 4.98362E-19 2.78197E-19
 -1      2807 9.50545E-05-2.80181E-05-2.87257E-05-2.55149E-06 5.44647E-19-3.37771E-20
 -1      2808 9.55878E-05-2.81625E-05-2.88875E-05-3.30303E-06 6.23241E-19 2.04669E-19
 -1      2809 9.53269E-05-2.81020E-05-2.88055E-05-3.05768E-06 8.07585E-19 3.53121E-19
 -1      2810 9.54031E-05-2.79797E-05-2.88886E-05-3.09773E-06 5.64562E-19-8.36462E-20
 -1      2811 9.59902E-05-2.81504E-05-2.90661E-05-3.86640E-06 3.15833E-19 2.32508E-19
 -1      2812 9.56736E-05-2.81285E-05-2.89525E-05-3.58699E-06 4.22584E-19 9.59703E-20
 -1      2813 9.55132E-05-2.79414E-05-2.89655E-05-3.67375E-06 5.49913E-19-1.66497E-20
 -1      2814 9.64928E-05-2.81367E-05-2.92828E-05-4.53598E-06 1.50095E-19 6.99493E-20
 -1      2815 9.61109E-05-2.81010E-05-2.91509E-05-4.19551E-06 2.28091E-19 2.07993E-19
 -1      2816 9.57264E-05-2.78320E-05-2.91007E-05-4.32057E-06 4.14013E-19-2.04169E-19
 -1      2817 9.70918E-05-2.81547E-05-2.95306E-05-5.34072E-06 3.56438E-19 6.78166E-20
 -1      2818 9.66387E-05-2.80948E-05-2.93804E-05-4.93739E-06 3.83562E-19 2.54416E-19
 -1      2819 9.59901E-05-2.77119E-05-2.92647E-05-5.08341E-06 2.33682E-19-3.31971E-19
 -1      2820 9.78156E-05-2.82484E-05-2.98002E-05-6.26822E-06 2.36979E-20-3.68322E-20
 -1      2821 9.72758E-05-2.81365E-05-2.96356E-05-5.81204E-06 3.05032E-19-1.10526E-19
 -1      2822 9.63184E-05-2.76183E-05-2.94454E-05-5.98354E-06 3.70907E-19 3.97081E-19
 -1      2823 9.87117E-05-2.84982E-05-3.00778E-05-7.27455E-06-1.32898E-19 2.90508E-19
 -1      2824 9.80611E-05-2.82902E-05-2.99052E-05-6.79763E-06-1.25179E-19 5.69925E-20
 -1      2825 9.67447E-05-2.76194E-05-2.96285E-05-7.01360E-06-6.50697E-20 3.82744E-19
 -1      2826 9.98640E-05-2.90335E-05-3.03448E-05-8.26093E-06-2.73054E-19 1.98026E-19
 -1      2827 9.90655E-05-2.86609E-05-3.01735E-05-7.82836E-06-2.41590E-19 3.68131E-19
 -1      2828 9.73372E-05-2.78274E-05-2.97958E-05-8.13151E-06-3.90668E-19 4.01669E-19
 -1      2829 1.01413E-04-3.00477E-05-3.05797E-05-9.04787E-06 1.93833E-20 6.97606E-19
 -1      2830 1.00411E-04-2.94127E-05-3.04213E-05-8.77188E-06-1.51738E-19 4.40776E-19
 -1      2831 9.82238E-05-2.84212E-05-2.99273E-05-9.24435E-06-3.97339E-19 1.12806E-19
 -1      2832 1.03576E-04-3.17945E-05-3.07676E-05-9.34213E-06-8.82583E-19 1.34847E-18
 -1      2833 1.02295E-04-3.07786E-05-3.06311E-05-9.39672E-06-2.19794E-19 1.11059E-18
 -1      2834 9.96249E-05-2.96641E-05-3.00065E-05-1.01822E-05-4.48463E-19 7.16443E-19
 -1      2835 1.06625E-04-3.45242E-05-3.09214E-05-8.70461E-06-1.10121E-18 1.03979E-18
 -1      2836 1.04995E-04-3.30339E-05-3.08023E-05-9.33108E-06-7.96181E-19 1.26064E-18
 -1      2837 1.01880E-04-3.18921E-05-3.00371E-05-1.06563E-05-7.36557E-19 1.19866E-18
 -1      2838 1.10772E-04-3.82537E-05-3.11248E-05-6.52487E-06-6.21226E-19 2.32472E-19
 -1      2839 1.08823E-04-3.63743E-05-3.09848E-05-8.00746E-06-1.24807E-18 3.41971E-19
 -1      2840 1.05445E-04-3.54270E-05-3.00760E-05-1.01937E-05-8.34108E-19 1.08411E-18
 -1      2841 1.15823E-04-4.23004E-05-3.15827E-05-2.17168E-06-1.48833E-19 6.99598E-19
 -1      2842 1.13839E-04-4.05325E-05-3.13306E-05-4.69471E-06-1.97623E-19 5.49589E-19
 -1      2843 1.10710E-04-4.02243E-05-3.02990E-05-8.00382E-06-6.83420E-19 3.74117E-20
 -1      2844 1.20690E-04-4.47294E-05-3.26357E-05 4.42481E-06 3.75338E-19 8.37760E-19
 -1      2845 1.19322E-04-4.41822E-05-3.21307E-05 1.12380E-06 7.13046E-20 9.57513E-19
 -1      2846 1.17383E-04-4.51402E-05-3.10553E-05-3.19461E-06 1.04996E-19 2.83127E-19
 -1      2847 1.23275E-04-4.26273E-05-3.45680E-05 1.16753E-05 2.90360E-19 1.07580E-18
 -1      2848 1.23532E-04-4.46934E-05-3.37798E-05 8.83274E-06 5.37907E-19 1.53127E-18
 -1      2849 1.23860E-04-4.75283E-05-3.28764E-05 4.45702E-06 1.66740E-19 7.46044E-19
 -1      2850 1.25045E-04-3.42613E-05-3.90412E-05 1.52370E-05 7.09814E-19 9.00740E-19
 -1      2851 1.27126E-04-4.04146E-05-3.74146E-05 1.44722E-05 5.14096E-19 1.07483E-18
 -1      2852 1.14087E-04-1.91573E-05-4.10222E-05-3.51174E-06 9.70753E-19 2.69859E-19
 -1      2853 1.13791E-04-1.88069E-05-4.10319E-05 2.71390E-06 1.21904E-18 6.27274E-19
 -1      2854 1.18353E-04-2.76420E-05-3.92482E-05-1.41437E-05 8.52750E-19 1.73801E-19
 -1      2855 1.15839E-04-2.24045E-05-4.01490E-05-1.03292E-05 1.26811E-18-3.23156E-19
 -1      2856 1.19095E-04-1.87372E-05-4.33539E-05-7.79662E-06 1.29342E-18 7.59789E-19
 -1      2857 1.23008E-04-3.88365E-05-3.62543E-05-1.51081E-05 1.23713E-19 4.92960E-19
 -1      2858 1.20595E-04-3.34078E-05-3.74101E-05-1.54575E-05 4.76483E-19 5.77491E-19
 -1      2859 1.23804E-04-3.11646E-05-3.99471E-05-1.53774E-05 5.13620E-19 4.79103E-20
 -1      2860 1.22932E-04-4.43693E-05-3.37135E-05-8.70722E-06 4.44706E-19-2.18859E-19
 -1      2861 1.22654E-04-4.21949E-05-3.45564E-05-1.15877E-05 3.34803E-19 4.30630E-20
 -1      2862 1.26463E-04-4.27340E-05-3.60615E-05-1.30549E-05 9.28507E-19-4.05517E-19
 -1      2863 1.19031E-04-4.38624E-05-3.21560E-05-1.06361E-06 8.13105E-19-7.08556E-19
 -1      2864 1.20367E-04-4.44269E-05-3.26399E-05-4.36841E-06 5.06640E-19-3.45927E-19
 -1      2865 1.23318E-04-4.68737E-05-3.28629E-05-4.74521E-06 5.54271E-19-7.06796E-19
 -1      2866 1.13668E-04-4.01890E-05-3.14114E-05 4.62285E-06-1.63995E-19-3.89854E-19
 -1      2867 1.15620E-04-4.19624E-05-3.16472E-05 2.16202E-06 5.76432E-19-4.37693E-19
 -1      2868 1.17131E-04-4.45845E-05-3.11700E-05 2.95069E-06 3.32611E-19-8.79585E-19
 -1      2869 1.08810E-04-3.61241E-05-3.10897E-05 7.80921E-06-1.14472E-18 1.53109E-18
 -1      2870 1.10713E-04-3.79821E-05-3.12209E-05 6.39965E-06-9.12420E-19 7.14451E-19
 -1      2871 1.10713E-04-3.98020E-05-3.04717E-05 7.61317E-06-1.07198E-18 3.17197E-19
 -1      2872 1.05106E-04-3.28860E-05-3.09147E-05 9.03697E-06-5.93277E-19 1.02769E-18
 -1      2873 1.06686E-04-3.43478E-05-3.10279E-05 8.47675E-06-9.94395E-19 1.42616E-18
 -1      2874 1.05655E-04-3.51902E-05-3.02606E-05 9.76549E-06-5.94186E-19 9.59785E-19
 -1      2875 1.02490E-04-3.07042E-05-3.07465E-05 9.02050E-06 1.35014E-19 2.15987E-18
 -1      2876 1.03726E-04-3.16986E-05-3.08767E-05 9.02468E-06-1.61771E-19 1.06359E-18
 -1      2877 1.02200E-04-3.17910E-05-3.02137E-05 1.02036E-05-5.50871E-19 1.74232E-18
 -1      2878 1.00664E-04-2.93816E-05-3.05421E-05 8.31245E-06 3.09346E-19 2.91685E-18
 -1      2879 1.01624E-04-3.00026E-05-3.06920E-05 8.64298E-06 8.15464E-19 2.53846E-18
 -1      2880 9.99875E-05-2.96388E-05-3.01708E-05 9.68911E-06 8.02549E-20 2.99448E-18
 -1      2881 9.93665E-05-2.86509E-05-3.03053E-05 7.27850E-06 3.63137E-19 1.11416E-18
 -1      2882 1.00121E-04-2.90146E-05-3.04649E-05 7.76499E-06 8.72547E-19 2.10682E-18
 -1      2883 9.85935E-05-2.84268E-05-3.00824E-05 8.68843E-06 1.19466E-18 2.51441E-18
 -1      2884 9.84107E-05-2.82888E-05-3.00538E-05 6.14721E-06-3.51768E-19 5.64952E-19
 -1      2885 9.90126E-05-2.84896E-05-3.02119E-05 6.68016E-06-8.90361E-19-7.35081E-20
 -1      2886 9.76991E-05-2.78343E-05-2.99475E-05 7.49208E-06 4.83258E-19 9.49070E-19
 -1      2887 9.76813E-05-2.81395E-05-2.98063E-05 5.05069E-06-1.48815E-18 1.10525E-18
 -1      2888 9.81655E-05-2.82428E-05-2.99538E-05 5.56611E-06-6.11189E-19 1.28689E-18
 -1      2889 9.70967E-05-2.76117E-05-2.97823E-05 6.27353E-06-6.35929E-19 1.21677E-18
 -1      2890 9.71098E-05-2.81051E-05-2.95764E-05 4.05760E-06-7.45238E-19-1.36424E-19
 -1      2891 9.75000E-05-2.81523E-05-2.97077E-05 4.52248E-06-7.88124E-19 2.51278E-19
 -1      2892 9.66655E-05-2.75912E-05-2.96054E-05 5.13031E-06-5.98392E-19 2.54435E-19
 -1      2893 9.66562E-05-2.81276E-05-2.93720E-05 3.19684E-06-6.37274E-19-1.05893E-19
 -1      2894 9.69689E-05-2.81439E-05-2.94849E-05 3.59777E-06-1.25583E-18-6.73135E-19
 -1      2895 9.63391E-05-2.76697E-05-2.94316E-05 4.11144E-06-7.48225E-19-4.35574E-19
 -1      2896 9.62950E-05-2.81743E-05-2.91968E-05 2.47354E-06-4.25695E-19 2.91089E-19
 -1      2897 9.65434E-05-2.81745E-05-2.92909E-05 2.80871E-06-4.55520E-19 1.91211E-20
 -1      2898 9.60824E-05-2.77878E-05-2.92709E-05 3.23533E-06-1.33825E-18-1.43636E-19
 -1      2899 9.60085E-05-2.82274E-05-2.90508E-05 1.87942E-06-1.03365E-18 2.74876E-19
 -1      2900 9.62035E-05-2.82200E-05-2.91273E-05 2.15342E-06-1.03675E-18 6.38796E-19
 -1      2901 9.58763E-05-2.79132E-05-2.91288E-05 2.50183E-06-1.39784E-18-6.87208E-19
 -1      2902 9.57829E-05-2.82772E-05-2.89323E-05 1.39972E-06-1.37871E-19 2.31234E-18
 -1      2903 9.59341E-05-2.82674E-05-2.89931E-05 1.62015E-06-7.70369E-19 1.42188E-18
 -1      2904 9.57099E-05-2.80294E-05-2.90076E-05 1.90026E-06-1.50865E-18 4.57195E-20
 -1      2905 9.56062E-05-2.83182E-05-2.88385E-05 1.01645E-06 1.23186E-18 2.88048E-18
 -1      2906 9.57218E-05-2.83091E-05-2.88857E-05 1.19225E-06 1.35155E-18 3.39496E-18
 -1      2907 9.55747E-05-2.81280E-05-2.89072E-05 1.41481E-06-5.62733E-20 2.44341E-18
 -1      2908 9.54707E-05-2.83491E-05-2.87656E-05 7.12699E-07 7.06444E-19 1.46200E-18
 -1      2909 9.55560E-05-2.83428E-05-2.88015E-05 8.50284E-07 9.36448E-19 1.65342E-18
 -1      2910 9.54630E-05-2.82052E-05-2.88261E-05 1.02682E-06 1.52325E-18 1.97947E-18
 -1      2911 9.53546E-05-2.83435E-05-2.87177E-05 5.11509E-07-3.61482E-20 1.47905E-18
 -1      2912 9.54164E-05-2.83367E-05-2.87453E-05 6.24762E-07 6.13762E-19 1.77863E-18
 -1      2913 9.53580E-05-2.82349E-05-2.87701E-05 7.60530E-07 6.41552E-19 1.24439E-18
 -1      2914 9.52698E-05-2.82305E-05-2.87340E-05 5.83070E-07 1.49273E-19-1.08824E-18
 -1      2915 1.18121E-04-5.88445E-05-2.58407E-05 2.68643E-05-1.25700E-18-9.64665E-19
 -1      2916 1.00421E-04-5.17198E-05-2.04263E-05 3.39767E-05-1.65235E-18 1.36219E-18
 -1      2917 9.46243E-05-2.74706E-05-2.87820E-05 5.85184E-08 1.72102E-18 2.10281E-18
 -1      2918 9.46388E-05-2.74854E-05-2.87811E-05 1.69069E-07 1.52917E-18 1.03887E-18
 -1      2919 9.53477E-05-2.82825E-05-2.87396E-05-6.24632E-07-2.17145E-18-2.01224E-18
 -1      2920 9.53126E-05-2.82929E-05-2.87223E-05-5.45660E-07-3.14689E-18-1.23128E-18
 -1      2921 9.52740E-05-2.81694E-05-2.87607E-05-7.44068E-07-1.82249E-18-4.01886E-18
 -1      2922 9.47818E-05-2.76468E-05-2.87752E-05 4.88420E-07 1.25205E-18-4.88896E-19
 -1      2923 9.48520E-05-2.77208E-05-2.87696E-05 5.52969E-07 2.07450E-18-1.05965E-18
 -1      2924 9.46443E-05-2.74931E-05-2.87800E-05-1.84874E-07 7.12125E-19 2.21384E-18
 -1      2925 9.46265E-05-2.74741E-05-2.87815E-05-7.53233E-08 6.93521E-19 1.67196E-18
 -1      2926 9.45211E-05-2.73535E-05-2.87831E-05-1.12632E-08 1.18651E-18 1.01649E-18
 -1      2927 9.46719E-05-2.75236E-05-2.87804E-05 2.94682E-07 5.27159E-19-3.02591E-20
 -1      2928 9.47173E-05-2.75707E-05-2.87771E-05 3.89617E-07 6.40595E-19 1.19876E-18
 -1      2929 9.46686E-05-2.75045E-05-2.87820E-05 5.02511E-07 1.24759E-18-5.07150E-19
 -1      2930 9.45565E-05-2.73885E-05-2.87833E-05 2.63756E-07 1.23999E-18 1.51516E-18
 -1      2931 9.47266E-05-2.75853E-05-2.87746E-05-3.96692E-07 8.87891E-19 1.28962E-19
 -1      2932 9.46802E-05-2.75365E-05-2.87785E-05-3.05800E-07 1.03092E-18 2.02777E-18
 -1      2933 9.45652E-05-2.74016E-05-2.87816E-05-2.81104E-07 8.13993E-19 2.05671E-18
 -1      2934 9.48624E-05-2.77395E-05-2.87659E-05-5.53544E-07 1.80635E-18-1.23216E-18
 -1      2935 9.47922E-05-2.76646E-05-2.87720E-05-4.91689E-07 1.07557E-18-6.80513E-19
 -1      2936 9.46814E-05-2.75259E-05-2.87786E-05-5.10418E-07 6.10776E-19 5.41474E-20
 -1      2937 9.50304E-05-2.79373E-05-2.87537E-05-6.26880E-07 4.51345E-19-1.37359E-18
 -1      2938 9.49498E-05-2.78451E-05-2.87619E-05-6.07480E-07 1.75111E-18-2.01375E-18
 -1      2939 9.48542E-05-2.77125E-05-2.87736E-05-6.68694E-07 1.05860E-18-1.71127E-18
 -1      2940 3.29304E-05-1.25797E-05-8.19183E-06 6.18651E-06 4.42773E-19 2.93370E-18
 -1      2941 3.36446E-05-1.29242E-05-8.35822E-06-9.70861E-06 1.09913E-18 1.19982E-18
 -1      2942 6.84434E-05-3.54322E-05-1.35751E-05-3.67146E-05-1.65733E-18-2.54322E-18
 -1      2943 8.27349E-05-4.30575E-05-1.68985E-05-3.76455E-05-1.56447E-18-2.68086E-19
 -1      2944 8.32438E-05-4.31966E-05-1.71211E-05 3.81269E-05-2.18577E-18 3.29978E-18
 -1      2945 6.82619E-05-3.42226E-05-1.40621E-05 3.56281E-05-2.37063E-18 3.26838E-18
 -1      2946 1.06935E-04-5.45877E-05-2.19801E-05-3.39073E-05 1.08992E-18-2.47148E-18
 -1      2947 1.21559E-04-5.78764E-05-2.75146E-05-2.29667E-05 1.17298E-18-2.80225E-18
 -1      2948 9.49928E-05-2.73353E-05-2.89980E-05 2.86327E-07 5.99048E-19-2.28499E-19
 -1      2949 9.51787E-05-2.71780E-05-2.91275E-05 9.27531E-07 6.86482E-19-2.58869E-19
 -1      2950 9.53472E-05-2.71692E-05-2.92383E-05 1.97746E-07 6.42168E-19-4.36496E-19
 -1      2951 9.50093E-05-2.79732E-05-2.87255E-05-2.27756E-06 5.01759E-19-3.42882E-19
 -1      2952 9.48582E-05-2.78688E-05-2.87053E-05-2.00088E-06 5.03534E-19-3.45068E-19
 -1      2953 9.51988E-05-2.77270E-05-2.89276E-05-1.87622E-06 4.84318E-19-4.73456E-19
 -1      2954 9.52860E-05-2.79120E-05-2.88780E-05-2.53077E-06 3.17105E-19-2.95594E-19
 -1      2955 9.48386E-05-2.44505E-05-3.01306E-05-3.96137E-06-8.00658E-19-1.42066E-18
 -1      2956 9.54517E-05-2.57597E-05-2.97914E-05-1.94951E-06-5.65778E-19-1.31434E-18
 -1      2957 9.36372E-05-2.48589E-05-2.95968E-05-9.33019E-07-3.20973E-19-1.53129E-18
 -1      2958 9.00477E-05-1.61622E-05-3.16656E-05 2.78131E-06 9.09584E-19-1.50904E-18
 -1      2959 8.89923E-05-1.52187E-05-3.16428E-05 1.69877E-06 7.13357E-19-1.58720E-18
 -1      2960 8.94647E-05-1.66803E-05-3.12043E-05 3.28437E-07 6.99949E-19-1.59949E-18
 -1      2961 9.18212E-05-1.87544E-05-3.12987E-05 2.53412E-06 8.83796E-19-1.30946E-18
 -1      2962 9.52915E-05-2.68926E-05-2.93201E-05 1.66596E-06 9.34398E-19-2.61109E-19
 -1      2963 9.55391E-05-2.64914E-05-2.95626E-05 2.59577E-06 1.07478E-18-2.02037E-19
 -1      2964 9.55731E-05-2.54233E-05-3.00634E-05 3.47528E-06 1.15700E-18-5.27191E-19
 -1      2965 9.55795E-05-2.66622E-05-2.95482E-05 1.61698E-06 8.92432E-19-5.69484E-19
 -1      2966 1.38709E-04-5.55248E-05-3.63083E-05 1.73137E-06 5.70252E-19-3.24091E-18
 -1      2967 1.31931E-04-5.92086E-05-3.08122E-05 1.25264E-05-5.72065E-19-2.25586E-18
 -1      2968 9.11118E-05-1.58172E-05-3.23675E-05-3.50440E-06-5.76935E-19-1.84191E-18
 -1      2969 9.13703E-05-1.63375E-05-3.22582E-05-4.77532E-06-7.26847E-19-1.91166E-18
 -1      2970 1.30950E-04-2.37356E-05-4.61788E-05 1.44220E-05 7.03037E-19 8.56033E-19
 -1      2971 1.28277E-04-1.63741E-05-4.87338E-05 8.82025E-06 8.52115E-19-7.96476E-20
 -1      2972 4.18935E-05-1.85851E-05-9.48891E-06-2.41221E-05 1.46674E-18 1.21126E-19
 -1      2973 5.40260E-05-2.65931E-05-1.13215E-05-3.39810E-05 1.05180E-18-5.02714E-19
 -1      2974 1.24776E-04-1.30591E-05-4.84403E-05 3.04925E-06 1.34826E-18 6.19975E-19
 -1      2975 1.24397E-04-1.33644E-05-4.82252E-05-4.15478E-06 1.76988E-18 4.82782E-19
 -1      2976 4.09739E-05-1.79982E-05-9.24736E-06-2.17544E-05-5.04249E-19-1.94331E-18
 -1      2977 5.30973E-05-2.64884E-05-1.11281E-05-3.24379E-05-1.15938E-18-2.79330E-18
 -1      2978 6.45313E-05-2.91869E-05-1.45912E-05-3.13401E-05-1.18251E-18-2.27407E-18
 -1      2979 3.13649E-05-1.25224E-05-7.47873E-06 3.83500E-06 3.06500E-19-1.42916E-18
 -1      2980 3.33116E-05-1.33283E-05-8.13353E-06-1.00166E-05 1.92753E-19-1.79550E-18
 -1      2981 9.52480E-05-2.82133E-05-2.87291E-05-5.74401E-07-2.56466E-18-2.88667E-18
 -1      2982 1.14313E-04-5.68547E-05-2.45921E-05 3.08396E-05-1.74277E-19 1.62197E-18
 -1      2983 1.00878E-04-5.21159E-05-2.06413E-05 3.55098E-05 1.30867E-19 6.64047E-19
 -1      2984 1.31319E-04-1.75241E-05-4.93623E-05 1.01825E-05-1.53038E-18-2.75180E-18
 -1      2985 1.28600E-04-1.22105E-05-5.06330E-05 6.71040E-06-8.68844E-19-2.21007E-18
 -1      2986 5.31966E-05-2.57611E-05-1.14271E-05 3.18270E-05-1.58205E-18 3.01374E-18
 -1      2987 4.09476E-05-1.76697E-05-9.44287E-06 2.11844E-05-1.43085E-18 4.10303E-18
 -1      2988 6.66797E-05-2.95940E-05-1.53690E-05 3.10079E-05-1.49745E-18 3.07325E-18
 -1      2989 1.29987E-04-1.75665E-05-4.88585E-05-1.01651E-05 3.27378E-19 1.19643E-19
 -1      2990 1.32981E-04-2.57728E-05-4.64251E-05-1.17553E-05-2.02335E-19 4.64915E-19
 -1      2991 1.38610E-04-3.73739E-05-4.40417E-05-1.27858E-05 1.18913E-18-2.64687E-18
 -1      2992 1.40117E-04-4.59933E-05-4.03522E-05-9.09070E-06 1.30962E-18-3.44975E-18
 -1      2993 1.29888E-04-1.71348E-05-4.90154E-05-1.04812E-05 1.93674E-18-3.99588E-19
 -1      2994 1.34579E-04-2.60453E-05-4.68818E-05-1.42394E-05 1.62122E-18-1.08378E-18
 -1      2995 9.13554E-05-1.67189E-05-3.20176E-05-5.86104E-06-8.27525E-19-2.00150E-18
 -1      2996 9.13246E-05-1.72734E-05-3.18242E-05-6.73196E-06-9.96309E-19-2.05731E-18
 -1      2997 9.24240E-05-1.81874E-05-3.18746E-05-4.83454E-06-7.19263E-19-1.84087E-18
 -1      2998 8.68339E-05-1.32392E-05-3.15923E-05 1.26885E-06-8.96796E-20-1.59880E-18
 -1      2999 8.66771E-05-1.24944E-05-3.20169E-05 1.16837E-06-2.32008E-20-1.77267E-18
 -1      3000 8.81203E-05-1.32790E-05-3.21999E-05 6.26057E-07-1.64126E-19-1.89921E-18
 -1      3001 1.36288E-04-5.03709E-05-3.69031E-05-6.12781E-06 5.78444E-19-3.54896E-18
 -1      3002 1.35978E-04-4.23441E-05-4.05260E-05 8.11605E-06-6.89485E-19-3.71646E-18
 -1      3003 9.44283E-05-2.18624E-05-3.11032E-05 6.50318E-06 1.31086E-18-6.81759E-19
 -1      3004 1.32056E-04-3.25135E-05-4.30171E-05-1.45618E-05 7.41577E-19-1.36065E-18
 -1      3005 1.23451E-04-1.09449E-05-4.85821E-05 4.60950E-06-3.21661E-19-9.34066E-19
 -1      3006 1.38603E-04-5.22713E-05-3.71047E-05 3.28387E-06 4.22114E-19-1.21761E-20
 -1      3007 1.33715E-04-5.51350E-05-3.37510E-05 6.84853E-06 3.68486E-19 6.39298E-19
 -1      3008 1.35902E-04-4.74319E-05-3.83790E-05-4.64844E-06 4.33046E-19-2.02441E-19
 -1      3009 1.32042E-04-2.33547E-05-4.71139E-05 1.15344E-05-1.28315E-18-2.81776E-18
 -1      3010 1.24702E-04-2.05496E-05-4.49438E-05 1.25591E-05-7.97587E-19-2.34485E-18
 -1      3011 1.30909E-04-2.90415E-05-4.40199E-05 1.27140E-05-6.22993E-19-2.47397E-18
 -1      3012 5.42865E-05-2.83129E-05-1.05618E-05 3.49982E-05 3.84447E-19-2.74650E-19
 -1      3013 5.00049E-05-2.19602E-05-1.14910E-05 2.86707E-05 7.69635E-19-9.13525E-19
 -1      3014 6.66784E-05-3.28836E-05-1.42311E-05 3.56359E-05 5.82229E-19-9.45501E-20
 -1      3015 9.48410E-05-2.76874E-05-2.87785E-05 6.69719E-07 1.98621E-18-1.70786E-19
 -1      3016 9.49389E-05-2.78251E-05-2.87661E-05 6.10061E-07 1.72175E-18-3.25057E-19
 -1      3017 9.50234E-05-2.79172E-05-2.87584E-05 6.33682E-07 1.04661E-18-3.34057E-19
 -1      3018 1.36555E-04-5.16701E-05-3.65065E-05 5.24405E-06-8.31614E-20 4.38340E-19
 -1      3019 4.33627E-05-1.55064E-05-1.13451E-05-1.44962E-05-3.33969E-19-1.69470E-18
 -1      3020 1.20248E-04-1.73968E-05-4.44400E-05 5.90999E-06 1.01930E-18 8.13085E-19
 -1      3021 1.16467E-04-2.07048E-05-4.12716E-05 9.24956E-06 1.08230E-18 2.99089E-19
 -1      3022 1.18501E-04-2.52853E-05-4.05002E-05 1.35125E-05 5.10973E-19 7.48327E-19
 -1      3023 1.24919E-04-5.75941E-05-2.86245E-05 1.63162E-05-9.39571E-19-1.93415E-18
 -1      3024 1.03213E-04-5.07985E-05-2.24871E-05 3.11131E-05 9.21889E-19 1.65523E-18
 -1      3025 9.43433E-05-4.86077E-05-1.92796E-05 3.71982E-05 4.54539E-19 2.69251E-19
 -1      3026 8.57390E-05-4.26869E-05-1.80692E-05 3.67922E-05 6.29769E-19 6.87950E-19
 -1      3027 9.51071E-05-2.80239E-05-2.87527E-05 6.37196E-07-3.75027E-19-7.89698E-19
 -1      3028 9.51923E-05-2.81227E-05-2.87426E-05 6.18028E-07 2.39004E-19-1.01543E-18
 -1      3029 9.52278E-05-2.81182E-05-2.87586E-05 7.06543E-07-4.21758E-19-1.16539E-18
 -1      3030 9.50397E-05-2.79026E-05-2.87713E-05 7.35475E-07 1.09686E-18 5.02693E-19
 -1      3031 9.88638E-05-4.98343E-05-2.06591E-05-3.46614E-05 1.40396E-18-2.77454E-18
 -1      3032 9.62848E-05-4.69994E-05-2.07390E-05 3.20461E-05-2.02393E-18 1.54875E-18
 -1      3033 4.36196E-05-1.26675E-05-1.29280E-05-8.61317E-06 1.32629E-18 7.44860E-19
 -1      3034 4.15407E-05-1.49931E-05-1.07860E-05-1.63665E-05 1.02364E-18-2.31981E-19
 -1      3035 5.10142E-05-1.79358E-05-1.38485E-05-2.09989E-05 1.76302E-18-8.30304E-19
 -1      3036 4.12604E-05-1.45592E-05-1.08583E-05 1.35608E-05-2.27111E-20 3.14440E-18
 -1      3037 4.41706E-05-1.25837E-05-1.31531E-05 6.12002E-06 1.18900E-18 1.98862E-18
 -1      3038 5.08080E-05-1.73064E-05-1.41900E-05 1.91403E-05-3.90006E-19 2.90956E-18
 -1      3039 9.51751E-05-2.81146E-05-2.87395E-05-5.98970E-07-1.38203E-18-2.56917E-18
 -1      3040 6.51087E-05-3.16121E-05-1.37939E-05-3.56049E-05 1.19665E-18-9.37771E-19
 -1      3041 7.63064E-05-3.69162E-05-1.68773E-05-3.56993E-05 1.37325E-18-1.29924E-18
 -1      3042 6.24736E-05-2.66675E-05-1.50141E-05-3.10500E-05 1.82477E-18-4.59092E-19
 -1      3043 1.25312E-04-5.79210E-05-2.86421E-05-1.63434E-05-7.73976E-19 3.06573E-19
 -1      3044 4.13955E-05-1.52953E-05-1.07755E-05 1.72309E-05 5.64124E-19-1.45933E-18
 -1      3045 3.53681E-05-1.33736E-05-8.76779E-06 1.02415E-05 3.51730E-19-1.77856E-18
 -1      3046 4.05432E-05-1.22928E-05-1.16672E-05 4.82368E-06 2.63877E-19-1.51068E-18
 -1      3047 8.94580E-05-4.23895E-05-1.98155E-05-3.29907E-05-1.41200E-18-1.15249E-19
 -1      3048 9.54640E-05-4.78607E-05-1.99577E-05-3.43762E-05-1.39665E-18-4.58986E-20
 -1      3049 1.05524E-04-5.19706E-05-2.33699E-05-2.84439E-05-1.27256E-18 4.25899E-20
 -1      3050 1.25912E-04-2.65365E-05-4.29113E-05-1.39485E-05 3.59989E-21-7.31678E-19
 -1      3051 1.33942E-04-3.22518E-05-4.40755E-05-1.16379E-05-5.15843E-19 1.80418E-19
 -1      3052 1.32912E-04-3.72193E-05-4.11417E-05-1.13536E-05-4.18434E-19-8.84091E-20
 -1      3053 1.19464E-04-5.60270E-05-2.72540E-05-2.03780E-05 1.18892E-18-2.92238E-18
 -1      3054 1.28959E-04-5.81929E-05-3.03155E-05-1.43903E-05 1.03195E-18-2.90220E-18
 -1      3055 1.21672E-04-5.77465E-05-2.74401E-05 2.22424E-05 2.92015E-19 1.78692E-18
 -1      3056 1.31072E-04-5.38820E-05-3.31728E-05-3.42512E-06 4.23857E-19-3.22254E-18
 -1      3057 8.97476E-05-1.46490E-05-3.24137E-05-5.37077E-07-2.01051E-19-1.72848E-18
 -1      3058 9.06979E-05-1.53939E-05-3.24656E-05-1.91640E-06-4.26124E-19-1.70132E-18
 -1      3059 9.24450E-05-1.74625E-05-3.22845E-05-2.26842E-06-4.68674E-19-1.65410E-18
 -1      3060 8.96804E-05-1.55994E-05-3.21657E-05 9.27713E-07-2.44151E-19-1.68332E-18
 -1      3061 1.24593E-04-1.49716E-05-4.74141E-05-9.12533E-06 2.11758E-19 2.00641E-19
 -1      3062 9.47915E-05-2.30041E-05-3.07623E-05 4.97159E-06 1.21613E-18-7.50146E-19
 -1      3063 9.17927E-05-1.83671E-05-3.14894E-05-6.76142E-06-9.85260E-19-2.03469E-18
 -1      3064 9.34322E-05-2.11180E-05-3.10403E-05-7.21599E-06-1.15907E-18-1.56405E-18
 -1      3065 9.42508E-05-2.30887E-05-3.04831E-05-5.07125E-06-9.85046E-19-1.51541E-18
 -1      3066 9.25723E-05-1.94554E-05-3.12302E-05-5.70372E-06-9.39214E-19-1.91269E-18
 -1      3067 9.51847E-05-2.80828E-05-2.87587E-05-7.28891E-07-2.00251E-18-4.40048E-18
 -1      3068 9.50964E-05-2.80060E-05-2.87539E-05-6.67990E-07-6.61697E-19-2.64154E-18
 -1      3069 9.50327E-05-2.78943E-05-2.87715E-05-7.63680E-07 3.69156E-19-3.33458E-18
 -1      3070 9.52007E-05-2.80517E-05-2.87752E-05-8.23803E-07-1.62682E-18-4.27169E-18
 -1      3071 9.33498E-05-2.22207E-05-3.05121E-05-4.08177E-06-8.26373E-19-1.82145E-18
 -1      3072 9.45746E-05-2.26533E-05-3.08665E-05 4.01499E-06 1.02143E-18-9.49218E-19
 -1      3073 9.40153E-05-2.16994E-05-3.09775E-05 3.37857E-06 8.66880E-19-1.03264E-18
 -1      3074 1.22057E-04-1.77884E-05-4.50548E-05-7.52733E-06 1.68464E-18 4.42078E-19
 -1      3075 7.50140E-05-3.22438E-05-1.82495E-05 3.05208E-05-1.84436E-18 2.18418E-18
 -1      3076 6.25533E-05-2.40732E-05-1.59573E-05 2.66119E-05-1.17224E-18 2.66117E-18
 -1      3077 8.71703E-05-1.86418E-05-2.86040E-05-4.50018E-06 1.42598E-18-9.94840E-19
 -1      3078 9.48766E-05-2.74643E-05-2.75443E-05 6.31473E-07-4.27752E-20-2.72025E-18
 -1      3079 1.05226E-04-3.62020E-05-2.84596E-05 3.90715E-06-2.01064E-18-3.43811E-18
 -1      3080 9.90786E-05-2.89901E-05-2.89378E-05 2.84938E-07-3.86360E-19-2.01149E-18
 -1      3081 8.87384E-05-2.19206E-05-2.86111E-05-4.33950E-06 2.10975E-18-1.02015E-18
 -1      3082 9.60636E-05-2.74263E-05-2.92748E-05 9.38278E-07-5.73233E-19-1.32206E-18
 -1      3083 9.57771E-05-2.67368E-05-2.94657E-05 1.80735E-07-6.00545E-19-1.45604E-18
 -1      3084 9.76237E-05-2.91762E-05-2.91622E-05-7.52168E-07-3.44848E-19-1.70772E-18
 -1      3085 9.50932E-05-2.57842E-05-2.97694E-05 8.81247E-07-5.66923E-19-1.39061E-18
 -1      3086 9.51240E-05-2.54319E-05-2.99257E-05 1.53281E-06-2.26330E-19-1.28963E-18
 -1      3087 9.53640E-05-2.60912E-05-2.97645E-05 2.69364E-07-4.84569E-19-1.25983E-18
 -1      3088 9.54833E-05-2.55678E-05-3.00466E-05 2.61044E-06 3.96517E-20-1.32065E-18
 -1      3089 9.58250E-05-2.59129E-05-3.00836E-05 3.30911E-06 2.66815E-20-1.17504E-18
 -1      3090 9.52851E-05-2.50808E-05-3.02914E-05 2.38220E-06-1.26102E-19-1.34948E-18
 -1      3091 9.64060E-05-2.64844E-05-3.00004E-05 3.91278E-06-9.92617E-24-9.62866E-19
 -1      3092 9.68287E-05-2.69832E-05-2.99687E-05 4.30412E-06 7.41766E-20-9.39542E-19
 -1      3093 9.62875E-05-2.58063E-05-3.02800E-05 4.08080E-06 2.09508E-19-1.23493E-18
 -1      3094 9.71447E-05-2.74096E-05-2.98545E-05 4.43911E-06 3.13413E-20-9.37298E-19
 -1      3095 9.73133E-05-2.76291E-05-2.97884E-05 4.55862E-06-4.20903E-20-8.29824E-19
 -1      3096 9.72372E-05-2.71078E-05-3.00337E-05 4.67700E-06 1.81646E-19-1.16312E-18
 -1      3097 9.74338E-05-2.79582E-05-2.94257E-05 4.62634E-06-2.72255E-19-5.68994E-19
 -1      3098 9.63915E-05-2.79703E-05-2.90704E-05 4.53783E-06-3.40666E-19-5.58354E-19
 -1      3099 9.78792E-05-2.78693E-05-2.95904E-05 4.95627E-06-8.37901E-20-8.50368E-19
 -1      3100 9.52076E-05-2.74192E-05-2.90566E-05 4.80318E-06-2.41974E-19-2.41606E-19
 -1      3101 9.53269E-05-2.74099E-05-2.90991E-05 5.14822E-06 6.84738E-20-1.20272E-19
 -1      3102 9.48022E-05-2.71258E-05-2.90053E-05 4.64780E-06-2.20563E-19-1.08014E-19
 -1      3103 9.52650E-05-2.73642E-05-2.91043E-05 5.54579E-06 1.94230E-19-2.13981E-19
 -1      3104 9.54552E-05-2.74312E-05-2.91442E-05 5.91580E-06 2.53145E-19 2.11666E-19
 -1      3105 9.46399E-05-2.69682E-05-2.90041E-05 5.40540E-06 2.17245E-19 1.44709E-19
 -1      3106 9.54688E-05-2.74849E-05-2.91379E-05 6.35660E-06 3.36082E-19 7.21709E-20
 -1      3107 9.57712E-05-2.76877E-05-2.91690E-05 6.72774E-06 3.72757E-19-2.36222E-19
 -1      3108 9.45844E-05-2.69629E-05-2.89847E-05 6.25896E-06 1.69210E-19-6.86721E-19
 -1      3109 9.59241E-05-2.79138E-05-2.91450E-05 7.19335E-06 1.54899E-19-4.79378E-19
 -1      3110 9.64017E-05-2.83313E-05-2.91628E-05 7.52137E-06 6.90857E-20-8.58265E-19
 -1      3111 9.47355E-05-2.72453E-05-2.89327E-05 7.19299E-06 1.10117E-20-8.27556E-19
 -1      3112 9.67922E-05-2.88254E-05-2.91190E-05 7.97286E-06-1.53925E-19-7.16501E-19
 -1      3113 9.75327E-05-2.95533E-05-2.91239E-05 8.18567E-06-4.98404E-19-7.61819E-19
 -1      3114 9.52509E-05-2.79977E-05-2.88388E-05 8.16336E-06-1.25410E-19-1.63576E-18
 -1      3115 9.83029E-05-3.04284E-05-2.90673E-05 8.54903E-06-4.16972E-19-6.30613E-19
 -1      3116 9.94121E-05-3.15623E-05-2.90710E-05 8.53532E-06-1.27605E-19-3.09933E-19
 -1      3117 9.63663E-05-2.94504E-05-2.87069E-05 9.07829E-06-3.12664E-19-1.16155E-18
 -1      3118 1.00746E-04-3.29234E-05-2.90271E-05 8.67353E-06 2.76030E-21-4.65287E-19
 -1      3119 1.02316E-04-3.45089E-05-2.90617E-05 8.26892E-06-2.83108E-19-5.92260E-19
 -1      3120 9.84064E-05-3.18565E-05-2.85690E-05 9.75708E-06-2.97074E-20-1.54852E-18
 -1      3121 1.04405E-04-3.63860E-05-2.90887E-05 7.93932E-06-3.87930E-19-2.81212E-19
 -1      3122 1.06433E-04-3.83096E-05-2.92156E-05 6.91944E-06-3.01885E-19-6.04710E-19
 -1      3123 1.01755E-04-3.54009E-05-2.85101E-05 9.85540E-06-2.53892E-19-1.16329E-18
 -1      3124 1.09367E-04-4.05053E-05-2.94225E-05 5.71337E-06-4.70577E-19-5.16612E-19
 -1      3125 1.11597E-04-4.22833E-05-2.97494E-05 3.84998E-06-5.50803E-20-4.93198E-19
 -1      3126 1.06746E-04-3.99978E-05-2.87005E-05 8.75179E-06-2.46257E-19-5.89720E-19
 -1      3127 1.14998E-04-4.40335E-05-3.03306E-05 1.31283E-06 2.16265E-19-5.99044E-19
 -1      3128 1.16795E-04-4.45875E-05-3.10008E-05-1.35377E-06 1.74661E-19-4.01236E-19
 -1      3129 1.13158E-04-4.46151E-05-2.94686E-05 5.39639E-06 2.62216E-20-7.94753E-19
 -1      3130 1.19806E-04-4.47928E-05-3.21903E-05-5.20570E-06-8.98120E-20-8.13612E-19
 -1      3131 1.19954E-04-4.26720E-05-3.31363E-05-8.05943E-06 2.22492E-19-1.07405E-18
 -1      3132 1.19820E-04-4.68063E-05-3.13253E-05-9.21278E-07-3.12502E-19-8.36538E-19
 -1      3133 1.21778E-04-3.65414E-05-3.66902E-05-1.27282E-05-3.07513E-20-1.44432E-18
 -1      3134 1.19756E-04-3.04931E-05-3.84735E-05-1.37531E-05 7.12831E-20-1.86409E-18
 -1      3135 1.17426E-04-2.45925E-05-4.00198E-05-1.16762E-05-1.01909E-19-2.14404E-18
 -1      3136 1.11159E-04-1.61816E-05-4.10557E-05-5.70518E-06 1.29490E-19-1.41909E-18
 -1      3137 1.10405E-04-1.46630E-05-4.13541E-05-6.00760E-07 6.01340E-19-1.51759E-18
 -1      3138 1.14679E-04-1.56168E-05-4.28023E-05 6.56279E-06-1.85288E-19-1.42593E-18
 -1      3139 1.16554E-04-2.00350E-05-4.17677E-05 1.06399E-05-6.33528E-19-1.15022E-18
 -1      3140 1.20059E-04-3.85823E-05-3.49544E-05 1.13347E-05-4.78944E-19-5.60531E-19
 -1      3141 1.20742E-04-4.25363E-05-3.36389E-05 9.04249E-06-2.03387E-20-5.30838E-19
 -1      3142 1.18975E-04-4.42032E-05-3.20889E-05 5.01946E-06-1.93057E-19-9.09923E-19
 -1      3143 1.17904E-04-4.49468E-05-3.11870E-05 2.09267E-06 3.78276E-19-4.01678E-19
 -1      3144 1.22403E-04-4.59049E-05-3.27980E-05 4.96012E-06-3.87968E-19-1.62627E-18
 -1      3145 1.14421E-04-4.38224E-05-3.03195E-05-1.27245E-06 5.16849E-19-6.35560E-19
 -1      3146 1.12407E-04-4.25012E-05-2.98371E-05-3.52806E-06 9.40446E-20-3.46928E-19
 -1      3147 1.16861E-04-4.64051E-05-3.03782E-05-2.30602E-06 3.83812E-19-1.07313E-18
 -1      3148 1.09052E-04-4.03935E-05-2.94622E-05-5.42709E-06 5.79483E-19-2.72991E-19
 -1      3149 1.06908E-04-3.84407E-05-2.92493E-05-6.80361E-06 5.48002E-19 3.49279E-19
 -1      3150 1.10040E-04-4.26499E-05-2.90973E-05-7.09837E-06 7.86106E-19-1.43276E-19
 -1      3151 1.04332E-04-3.63463E-05-2.91455E-05-7.55092E-06-2.45527E-19 4.36334E-19
 -1      3152 1.02522E-04-3.45321E-05-2.90771E-05-8.19673E-06-2.22128E-19 1.23912E-18
 -1      3153 1.04170E-04-3.77760E-05-2.86265E-05-9.23765E-06 4.87378E-19-2.19828E-19
 -1      3154 1.00791E-04-3.28812E-05-2.90974E-05-8.25821E-06 2.15746E-19 1.64291E-18
 -1      3155 9.94444E-05-3.14876E-05-2.90893E-05-8.40583E-06 3.02245E-19 1.84041E-18
 -1      3156 9.99510E-05-3.35594E-05-2.85697E-05-9.67135E-06 5.49835E-19 4.61817E-19
 -1      3157 9.83916E-05-3.03491E-05-2.91486E-05-8.11043E-06-5.35917E-19 2.12888E-18
 -1      3158 9.74621E-05-2.93984E-05-2.91533E-05-7.95095E-06-8.61044E-19 2.38395E-18
 -1      3159 9.72333E-05-3.04757E-05-2.86809E-05-9.19665E-06-3.99470E-19-3.57811E-19
 -1      3160 9.68844E-05-2.86974E-05-2.92097E-05-7.49303E-06-1.33527E-18 2.72662E-18
 -1      3161 9.62709E-05-2.81111E-05-2.92058E-05-7.16136E-06-6.74222E-19 2.37491E-18
 -1      3162 9.56417E-05-2.84720E-05-2.88264E-05-8.30334E-06-9.92064E-19 2.06693E-18
 -1      3163 9.59982E-05-2.77346E-05-2.92433E-05-6.64692E-06-8.00217E-19 1.15906E-18
 -1      3164 9.56028E-05-2.74139E-05-2.92249E-05-6.23292E-06-1.05864E-18-5.84235E-19
 -1      3165 9.48063E-05-2.73121E-05-2.89461E-05-7.25404E-06-1.98445E-18 1.39980E-18
 -1      3166 9.55121E-05-2.72573E-05-2.92407E-05-5.71932E-06-6.79853E-19-1.07069E-18
 -1      3167 9.52591E-05-2.71147E-05-2.92092E-05-5.28142E-06-9.65934E-19-1.64342E-18
 -1      3168 9.44417E-05-2.67469E-05-2.90210E-05-6.18466E-06-1.57239E-18-1.05818E-18
 -1      3169 9.52686E-05-2.70959E-05-2.92067E-05-4.79976E-06-6.29916E-19-6.88485E-19
 -1      3170 9.51056E-05-2.70644E-05-2.91664E-05-4.37473E-06-3.13247E-19-8.02594E-19
 -1      3171 9.43499E-05-2.65695E-05-2.90518E-05-5.16646E-06-2.58627E-19-1.28728E-18
 -1      3172 9.51637E-05-2.71242E-05-2.91507E-05-3.94124E-06-4.15458E-19-8.32703E-19
 -1      3173 9.50566E-05-2.71564E-05-2.91063E-05-3.55077E-06 5.76886E-20-2.35263E-18
 -1      3174 9.44024E-05-2.66259E-05-2.90474E-05-4.23703E-06-5.41546E-19-1.43694E-19
 -1      3175 9.51326E-05-2.72546E-05-2.90825E-05-3.17254E-06 1.69969E-19-3.33855E-18
 -1      3176 9.50599E-05-2.73186E-05-2.90378E-05-2.82767E-06 5.97095E-19-4.27157E-18
 -1      3177 9.45203E-05-2.68087E-05-2.90185E-05-3.41467E-06-4.59752E-19-1.55194E-18
 -1      3178 9.51366E-05-2.74297E-05-2.90102E-05-2.50588E-06 1.34996E-19-5.46946E-18
 -1      3179 9.50853E-05-2.75051E-05-2.89681E-05-2.21036E-06-6.05680E-19-4.69721E-18
 -1      3180 9.46575E-05-2.70466E-05-2.89752E-05-2.70540E-06-4.63771E-19-5.16102E-18
 -1      3181 9.51538E-05-2.76133E-05-2.89399E-05-1.94237E-06-3.71757E-19-4.36596E-18
 -1      3182 9.51154E-05-2.76876E-05-2.89021E-05-1.69512E-06-4.20151E-19-4.56676E-18
 -1      3183 9.47888E-05-2.72949E-05-2.89252E-05-2.10693E-06-2.34386E-19-5.57905E-18
 -1      3184 9.51715E-05-2.77841E-05-2.88754E-05-1.47618E-06-1.06086E-18-4.39723E-18
 -1      3185 9.51427E-05-2.78503E-05-2.88429E-05-1.27334E-06-1.40034E-18-4.21570E-18
 -1      3186 9.49019E-05-2.75267E-05-2.88746E-05-1.61157E-06-6.14616E-19-6.52446E-18
 -1      3187 9.51950E-05-2.79342E-05-2.88221E-05-1.11670E-06-1.27757E-18-3.37181E-18
 -1      3188 9.51723E-05-2.79881E-05-2.87944E-05-9.51551E-07-1.03696E-18-3.47698E-18
 -1      3189 9.50787E-05-2.79001E-05-2.87915E-05-9.36405E-07-1.51930E-18-5.04178E-18
 -1      3190 9.50013E-05-2.77314E-05-2.88303E-05-1.23059E-06-1.21702E-18-4.89749E-18
 -1      3191 9.54044E-05-2.76734E-05-2.90199E-05-3.86087E-06 1.80066E-19-1.33017E-19
 -1      3192 9.53128E-05-2.77281E-05-2.89681E-05-3.55516E-06 5.10760E-19-2.98796E-19
 -1      3193 9.54421E-05-2.78223E-05-2.89569E-05-3.25302E-06 5.32435E-19-3.68990E-19
 -1      3194 9.54232E-05-2.78152E-05-2.89506E-05-2.94774E-06 3.19465E-19-3.35902E-19
 -1      3195 9.52539E-05-2.75627E-05-2.90123E-05-3.42974E-06 4.12110E-19-5.78525E-19
 -1      3196 9.54567E-05-2.72297E-05-2.92301E-05-5.35215E-06 8.62437E-20 4.36988E-20
 -1      3197 9.53139E-05-2.73086E-05-2.91522E-05-4.93447E-06 2.41552E-19-2.60202E-19
 -1      3198 9.55189E-05-2.70169E-05-2.93469E-05-6.29938E-06 1.04331E-19 3.15283E-19
 -1      3199 9.53377E-05-2.70697E-05-2.92659E-05-5.81462E-06 2.02714E-19 1.25005E-19
 -1      3200 9.46518E-05-2.66472E-05-2.91432E-05-5.65045E-06 1.31170E-19-3.65438E-19
 -1      3201 9.56487E-05-2.69088E-05-2.94475E-05-7.38377E-06-8.41603E-20 3.16623E-19
 -1      3202 9.54044E-05-2.68892E-05-2.93722E-05-6.84154E-06 1.99357E-19 5.27197E-19
 -1      3203 9.44188E-05-2.63212E-05-2.91827E-05-6.65545E-06 8.03356E-20-1.38955E-19
 -1      3204 9.59290E-05-2.70400E-05-2.95097E-05-8.57567E-06-3.01149E-19 8.04942E-20
 -1      3205 9.55733E-05-2.68728E-05-2.94504E-05-8.00374E-06-2.07940E-19 3.08385E-19
 -1      3206 9.42238E-05-2.61255E-05-2.91840E-05-7.81775E-06-1.17349E-19 4.31602E-21
 -1      3207 9.65197E-05-2.76242E-05-2.95102E-05-9.80843E-06-3.61484E-19-1.08846E-19
 -1      3208 9.59649E-05-2.71922E-05-2.94774E-05-9.26059E-06-4.90903E-19-9.77306E-20
 -1      3209 9.41674E-05-2.62256E-05-2.91209E-05-9.13144E-06-2.12922E-19-2.35767E-19
 -1      3210 9.77007E-05-2.89782E-05-2.94331E-05-1.09579E-05-8.64442E-19 8.16873E-19
 -1      3211 9.68014E-05-2.81130E-05-2.94324E-05-1.05269E-05-5.33343E-19 5.32011E-19
 -1      3212 9.44456E-05-2.68817E-05-2.89685E-05-1.05717E-05-7.86322E-19 1.91631E-19
 -1      3213 9.99126E-05-3.15171E-05-2.92903E-05-1.17969E-05-6.84343E-19 6.07995E-19
 -1      3214 9.84573E-05-3.00112E-05-2.93109E-05-1.16375E-05-5.28580E-19 8.82323E-19
 -1      3215 9.54080E-05-2.84791E-05-2.87150E-05-1.20738E-05-7.89345E-19 5.10114E-19
 -1      3216 1.03775E-04-3.56700E-05-2.91620E-05-1.19115E-05-9.43712E-19 3.31683E-19
 -1      3217 1.01486E-04-3.33297E-05-2.91535E-05-1.22786E-05-9.02706E-19 6.42796E-19
 -1      3218 9.76149E-05-3.15196E-05-2.83885E-05-1.34644E-05-6.08895E-19 5.14606E-20
 -1      3219 1.09887E-04-4.15110E-05-2.92804E-05-1.05940E-05-2.09998E-19-4.10057E-19
 -1      3220 1.06613E-04-3.84435E-05-2.91095E-05-1.18711E-05-5.51286E-19 1.27889E-19
 -1      3221 1.01759E-04-3.64779E-05-2.81075E-05-1.43187E-05-3.26177E-19-6.41455E-19
 -1      3222 1.18358E-04-4.78731E-05-3.01756E-05-6.16373E-06-5.17749E-20-2.52793E-19
 -1      3223 1.14512E-04-4.50807E-05-2.95667E-05-9.04767E-06-3.84060E-20-2.49559E-19
 -1      3224 1.09396E-04-4.39588E-05-2.82886E-05-1.37056E-05-3.16052E-19-6.05893E-19
 -1      3225 1.30834E-04-4.56205E-05-3.68348E-05 1.09908E-05 5.35815E-19 9.75703E-19
 -1      3226 1.31002E-04-3.08337E-05-4.31041E-05 1.46735E-05 9.13949E-19 7.49571E-19
 -1      3227 1.23337E-04-5.00256E-05-3.13102E-05 2.22372E-06 1.89586E-19-9.58649E-19
 -1      3228 1.26494E-04-5.04612E-05-3.26276E-05-2.20515E-06 5.25875E-19-7.73328E-19
 -1      3229 1.14348E-04-4.45175E-05-2.97630E-05 8.39567E-06-4.54354E-19-7.16305E-19
 -1      3230 1.17899E-04-4.72571E-05-3.02951E-05 5.65349E-06 2.02057E-19-6.82182E-19
 -1      3231 1.19131E-04-5.01527E-05-2.96537E-05 8.52374E-06 1.31158E-20-1.52289E-18
 -1      3232 1.06812E-04-3.81519E-05-2.93311E-05 1.13088E-05-1.23666E-18-3.18891E-19
 -1      3233 1.09929E-04-4.11047E-05-2.94904E-05 1.00074E-05-1.02723E-18-6.15273E-20
 -1      3234 1.09636E-04-4.34910E-05-2.85232E-05 1.29733E-05-8.94559E-19-9.49934E-19
 -1      3235 1.01834E-04-3.31902E-05-2.93646E-05 1.17720E-05-3.66975E-19 3.60072E-21
 -1      3236 1.04038E-04-3.54450E-05-2.93761E-05 1.13989E-05-9.73631E-19-3.88373E-19
 -1      3237 1.02180E-04-3.62626E-05-2.83631E-05 1.36781E-05-1.11517E-18-1.29802E-18
 -1      3238 9.88546E-05-2.99646E-05-2.95010E-05 1.11594E-05-9.34268E-19 8.17255E-19
 -1      3239 1.00272E-04-3.14265E-05-2.94877E-05 1.13282E-05-6.93875E-19 5.14801E-19
 -1      3240 9.80789E-05-3.14465E-05-2.86156E-05 1.29314E-05-1.13627E-18-1.65383E-19
 -1      3241 9.71927E-05-2.81046E-05-2.96024E-05 1.00299E-05 4.16544E-20 1.67558E-18
 -1      3242 9.80794E-05-2.89518E-05-2.96100E-05 1.04854E-05-2.34851E-19 1.45485E-18
 -1      3243 9.58486E-05-2.84587E-05-2.89117E-05 1.15925E-05-7.32657E-19 5.16765E-19
 -1      3244 9.63221E-05-2.71838E-05-2.96324E-05 8.70682E-06 1.31592E-18 1.74698E-18
 -1      3245 9.68769E-05-2.76150E-05-2.96695E-05 9.29210E-06 7.33989E-19 1.53323E-18
 -1      3246 9.48271E-05-2.68658E-05-2.91386E-05 1.00788E-05 4.13168E-19 1.37130E-18
 -1      3247 9.58854E-05-2.68413E-05-2.95958E-05 7.36482E-06 1.96176E-19 1.82016E-18
 -1      3248 9.62452E-05-2.70174E-05-2.96566E-05 7.98424E-06 1.37844E-18 2.41849E-18
 -1      3249 9.44723E-05-2.61829E-05-2.92700E-05 8.58011E-06 8.95753E-19 2.15441E-18
 -1      3250 9.56696E-05-2.68236E-05-2.95122E-05 6.09764E-06-4.74029E-20 1.37947E-18
 -1      3251 9.59173E-05-2.68556E-05-2.95868E-05 6.69461E-06-2.59261E-19 1.56869E-18
 -1      3252 9.44457E-05-2.60385E-05-2.93164E-05 7.17623E-06 3.02853E-19 1.66780E-18
 -1      3253 9.55583E-05-2.69693E-05-2.94021E-05 4.95418E-06-8.03884E-19 4.59254E-19
 -1      3254 9.57402E-05-2.69273E-05-2.94813E-05 5.49762E-06 4.60756E-20 7.09484E-19
 -1      3255 9.45562E-05-2.61832E-05-2.93005E-05 5.90412E-06-4.52060E-20 1.46950E-18
 -1      3256 9.54929E-05-2.71826E-05-2.92820E-05 3.95599E-06-1.84600E-19-2.13391E-19
 -1      3257 9.56335E-05-2.71081E-05-2.93591E-05 4.43152E-06-5.40201E-19 2.37719E-19
 -1      3258 9.47054E-05-2.64620E-05-2.92450E-05 4.78093E-06-2.71654E-19 1.42686E-18
 -1      3259 9.54462E-05-2.74096E-05-2.91637E-05 3.10708E-06-1.67483E-18-5.75046E-19
 -1      3260 9.55583E-05-2.73261E-05-2.92345E-05 3.51110E-06-9.71165E-19-1.04423E-18
 -1      3261 9.48474E-05-2.67842E-05-2.91683E-05 3.81148E-06 1.64336E-19-7.12541E-19
 -1      3262 9.54065E-05-2.76225E-05-2.90545E-05 2.40033E-06-1.64837E-18-1.15891E-18
 -1      3263 9.54972E-05-2.75423E-05-2.91167E-05 2.73583E-06-1.55374E-18-1.16791E-18
 -1      3264 9.49647E-05-2.70999E-05-2.90838E-05 2.99164E-06-1.54967E-18-1.33880E-18
 -1      3265 9.53698E-05-2.78084E-05-2.89583E-05 1.82213E-06-2.48988E-18-1.07456E-19
 -1      3266 9.54434E-05-2.77374E-05-2.90111E-05 2.09569E-06-2.23316E-18-8.89917E-19
 -1      3267 9.50536E-05-2.73841E-05-2.90006E-05 2.31068E-06-2.41059E-18-7.57056E-19
 -1      3268 9.53336E-05-2.79606E-05-2.88767E-05 1.35669E-06 1.06298E-18-3.01224E-19
 -1      3269 9.53941E-05-2.79028E-05-2.89201E-05 1.57674E-06-1.49639E-18-4.88782E-19
 -1      3270 9.51164E-05-2.76262E-05-2.89240E-05 1.75467E-06-1.44762E-18-1.51992E-18
 -1      3271 9.52996E-05-2.80787E-05-2.88095E-05 9.86686E-07 1.34062E-18 5.71899E-19
 -1      3272 9.53476E-05-2.80358E-05-2.88443E-05 1.15946E-06 2.15848E-18 1.35800E-18
 -1      3273 9.51546E-05-2.78220E-05-2.88568E-05 1.30699E-06 7.55727E-19-1.11834E-18
 -1      3274 9.52375E-05-2.80993E-05-2.87726E-05 7.89592E-07 2.00140E-19-6.52867E-19
 -1      3275 9.52878E-05-2.80984E-05-2.87929E-05 8.90354E-07 9.19475E-19 1.52333E-19
 -1      3276 9.51554E-05-2.79349E-05-2.88097E-05 1.00982E-06 1.41547E-18 2.69279E-20
 -1      3277 9.51377E-05-2.79918E-05-2.87798E-05 8.21575E-07 4.60928E-19-7.73900E-19
 -1      3278 9.44511E-05-2.72886E-05-2.87839E-05-3.92367E-07 8.41970E-19 2.60769E-18
 -1      3279 9.44030E-05-2.72450E-05-2.87846E-05-2.59031E-07 9.85216E-19 1.93009E-18
 -1      3280 9.48412E-05-2.76784E-05-2.87835E-05-8.02492E-07-5.29201E-20-2.84834E-18
 -1      3281 9.47289E-05-2.75702E-05-2.87856E-05-7.45992E-07 2.09539E-20-1.58679E-18
 -1      3282 9.43738E-05-2.72130E-05-2.87845E-05-8.80646E-08 8.39661E-19 3.77905E-19
 -1      3283 9.43709E-05-2.72095E-05-2.87850E-05 5.93075E-08 1.35355E-18 1.88187E-18
 -1      3284 9.42546E-05-2.70779E-05-2.87867E-05-1.97164E-07 1.57166E-18 1.83646E-18
 -1      3285 1.27956E-04-5.68686E-05-3.06991E-05 8.93923E-06-3.42413E-19-1.67983E-18
 -1      3286 1.17931E-04-5.51903E-05-2.65828E-05 2.01060E-05-1.10768E-18-2.07499E-18
 -1      3287 9.55784E-05-2.69259E-05-2.94332E-05 7.37503E-08 4.67661E-19-4.33588E-19
 -1      3288 9.57046E-05-2.67611E-05-2.95531E-05 7.48005E-07 6.74347E-19-4.54676E-19
 -1      3289 1.13648E-04-5.33981E-05-2.54900E-05-2.35935E-05 1.31692E-18-2.16083E-18
 -1      3290 1.19357E-04-5.42038E-05-2.80917E-05-1.56816E-05 8.98080E-19-2.39770E-18
 -1      3291 9.46131E-05-2.74480E-05-2.87839E-05-6.42521E-07 6.31854E-19-5.39328E-19
 -1      3292 9.45265E-05-2.73691E-05-2.87851E-05-5.37091E-07 7.34327E-19 1.50521E-18
 -1      3293 9.43733E-05-2.71926E-05-2.87887E-05-5.28930E-07 9.88974E-19 2.06705E-18
 -1      3294 9.45800E-05-2.73937E-05-2.87929E-05-7.89312E-07 9.20519E-20-1.78636E-18
 -1      3295 9.19685E-05-2.10355E-05-3.05256E-05-3.95134E-06-7.97184E-19-2.09729E-18
 -1      3296 9.31951E-05-2.24365E-05-3.01563E-05-2.51837E-06-5.37734E-19-2.00843E-18
 -1      3297 9.13112E-05-2.42504E-05-2.93843E-05 3.82573E-07-3.67559E-19-1.94553E-18
 -1      3298 9.17886E-05-1.95582E-05-3.09130E-05-5.03904E-06-7.85530E-19-2.04262E-18
 -1      3299 1.28726E-04-5.75567E-05-3.04975E-05 1.32480E-05 1.32349E-20 6.59309E-19
 -1      3300 1.18262E-04-5.53258E-05-2.68154E-05 2.08267E-05 6.87817E-19 1.21574E-18
 -1      3301 1.05100E-04-5.02330E-05-2.37122E-05 2.77784E-05-1.50089E-18 7.49095E-20
 -1      3302 9.09850E-05-4.17026E-05-2.08880E-05 3.05308E-05-2.19612E-18 2.00575E-18
 -1      3303 4.55399E-05-1.29363E-05-1.35699E-05-7.67259E-06 2.96283E-19-1.45139E-18
 -1      3304 5.15899E-05-1.72365E-05-1.44840E-05-1.90383E-05-8.55768E-20-2.30435E-18
 -1      3305 9.54234E-05-2.74655E-05-2.91159E-05-4.54523E-06 4.05563E-19-2.89411E-19
 -1      3306 9.53081E-05-2.75418E-05-2.90481E-05-4.19081E-06 2.86427E-19-1.29937E-19
 -1      3307 9.50790E-05-2.73212E-05-2.90396E-05-4.06639E-06 1.87702E-19-2.13819E-19
 -1      3308 9.48774E-05-2.70016E-05-2.90889E-05-4.79464E-06 2.50939E-19 3.34144E-19
 -1      3309 1.30185E-04-5.16214E-05-3.35128E-05 3.66545E-06-2.02547E-19 1.76183E-19
 -1      3310 9.54637E-05-2.72834E-05-2.92305E-05-1.14823E-06 4.96527E-19-4.70758E-19
 -1      3311 9.54903E-05-2.70886E-05-2.93158E-05-5.91141E-07 4.28966E-19-3.69938E-19
 -1      3312 9.57667E-05-2.67110E-05-2.96178E-05-9.14760E-08 5.16498E-19-3.74154E-19
 -1      3313 1.27490E-04-5.62435E-05-3.10342E-05-7.53549E-06-2.42331E-19 8.65562E-21
 -1      3314 1.25984E-04-5.11142E-05-3.20766E-05-5.60083E-08 2.82036E-20-2.16960E-19
 -1      3315 1.22681E-04-5.05125E-05-3.07277E-05-4.29640E-06-1.72097E-19-2.94986E-19
 -1      3316 1.20035E-04-5.53494E-05-2.72253E-05-1.81497E-05-5.90673E-19 1.75256E-19
 -1      3317 1.18888E-04-1.14793E-05-4.67224E-05-3.28375E-06 4.32516E-19-4.96758E-19
 -1      3318 1.19846E-04-1.64674E-05-4.47125E-05-8.71870E-06 4.85244E-19-6.17699E-19
 -1      3319 6.15958E-05-2.39592E-05-1.57271E-05-2.65464E-05-6.54730E-19-2.19593E-18
 -1      3320 7.43577E-05-3.25926E-05-1.77702E-05-3.13604E-05-1.44345E-18-1.13825E-18
 -1      3321 9.01121E-05-4.34708E-05-1.94505E-05-3.47065E-05 1.62604E-18-2.35483E-18
 -1      3322 1.03751E-04-5.01801E-05-2.30561E-05-2.94936E-05 1.53027E-18-3.35871E-18
 -1      3323 1.04870E-04-4.82832E-05-2.41632E-05-2.55995E-05 1.03944E-18-2.74036E-18
 -1      3324 8.44692E-05-3.83301E-05-1.94766E-05-3.22671E-05 1.77925E-18-2.61691E-18
 -1      3325 1.27224E-04-5.33969E-05-3.15481E-05-4.37402E-06 6.29468E-19-2.92851E-18
 -1      3326 1.30629E-04-5.05396E-05-3.45670E-05 2.30782E-06-3.01557E-20-3.76908E-18
 -1      3327 9.55423E-05-2.48029E-05-3.03267E-05 3.80093E-06 1.20040E-18-6.56904E-19
 -1      3328 9.49432E-05-2.33303E-05-3.06715E-05 4.09631E-06 1.14289E-18-7.58449E-19
 -1      3329 9.54621E-05-2.43406E-05-3.04580E-05 3.05974E-06 9.83533E-19-7.50638E-19
 -1      3330 9.56294E-05-2.56515E-05-3.00102E-05 2.66520E-06 1.14340E-18-5.87748E-19
 -1      3331 1.31609E-04-4.52593E-05-3.70874E-05 7.40805E-06-2.93047E-19-3.49560E-18
 -1      3332 1.32894E-04-3.82466E-05-4.10364E-05 1.07737E-05-3.66606E-19-3.17828E-18
 -1      3333 1.27742E-04-3.39942E-05-4.04209E-05 1.29858E-05-2.49610E-19-2.45608E-18
 -1      3334 1.28163E-04-4.62697E-05-3.52136E-05 6.48020E-06 1.14032E-19-3.71572E-18
 -1      3335 8.79125E-05-1.63635E-05-3.05144E-05-2.26234E-06 4.28890E-19-1.52818E-18
 -1      3336 8.56477E-05-1.49898E-05-3.05188E-05-2.29438E-06 1.98206E-19-1.38403E-18
 -1      3337 8.35430E-05-1.22081E-05-3.08439E-05 8.22630E-07-2.74650E-19-1.27023E-18
 -1      3338 8.54341E-05-1.30138E-05-3.12827E-05 2.80565E-06-4.64598E-19-1.52455E-18
 -1      3339 8.38208E-05-1.40960E-05-2.99823E-05-2.13402E-06-1.91006E-19-1.34169E-18
 -1      3340 9.39529E-05-1.95246E-05-3.18283E-05-3.39340E-06-6.01592E-19-1.60191E-18
 -1      3341 9.35846E-05-2.00929E-05-3.15198E-05-4.98536E-06-7.11322E-19-1.85642E-18
 -1      3342 1.26305E-04-3.06240E-05-4.14115E-05-1.57140E-05 5.93241E-19-2.88521E-20
 -1      3343 1.31131E-04-4.01873E-05-3.92632E-05-1.55020E-05 1.04397E-18-1.25319E-18
 -1      3344 8.59965E-05-3.69976E-05-2.06991E-05 2.89694E-05-1.91691E-18 2.42503E-18
 -1      3345 8.06658E-05-3.13486E-05-2.09984E-05 2.58358E-05-9.78879E-19 1.66106E-18
 -1      3346 9.48868E-05-4.06932E-05-2.33902E-05 2.56033E-05-1.46955E-18 1.07838E-18
 -1      3347 1.25476E-04-4.13976E-05-3.61947E-05-1.00564E-05-4.17455E-19-5.30507E-19
 -1      3348 9.18147E-05-1.96750E-05-3.08202E-05-1.64430E-07 7.60397E-19-1.47457E-18
 -1      3349 9.01977E-05-1.84007E-05-3.07248E-05-1.28376E-06 6.26705E-19-1.52498E-18
 -1      3350 8.99391E-05-1.96857E-05-3.00255E-05-3.29082E-06 5.29290E-19-1.33207E-18
 -1      3351 7.82002E-05-3.70402E-05-1.72167E-05 3.55241E-05 7.27072E-19 6.37075E-19
 -1      3352 7.06036E-05-3.03044E-05-1.69796E-05 3.17035E-05 8.39198E-19 3.53689E-19
 -1      3353 8.82948E-05-4.08649E-05-2.03406E-05 3.15079E-05 1.18976E-18 9.46983E-19
 -1      3354 9.47061E-05-2.75352E-05-2.87910E-05 7.40747E-07 1.24753E-18-1.48472E-18
 -1      3355 9.48193E-05-2.76406E-05-2.87897E-05 8.05003E-07 1.14513E-18 8.14639E-19
 -1      3356 1.16665E-04-2.72467E-05-3.84003E-05 1.27099E-05-4.79791E-19-1.48453E-18
 -1      3357 1.18943E-04-3.31647E-05-3.70246E-05 1.35146E-05-6.06052E-19-1.20230E-18
 -1      3358 9.48519E-05-2.31053E-05-3.07031E-05 2.27567E-06 7.71760E-19-1.01501E-18
 -1      3359 9.35420E-05-2.12222E-05-3.10089E-05 2.44613E-06 8.54319E-19-1.18992E-18
 -1      3360 9.27588E-05-2.03161E-05-3.09896E-05 1.38369E-06 7.47278E-19-1.34693E-18
 -1      3361 9.55067E-05-2.76632E-05-2.90783E-05-2.02209E-06 4.06145E-19-5.37461E-19
 -1      3362 9.54705E-05-2.74925E-05-2.91293E-05-1.63649E-06 5.61745E-19-5.60680E-19
 -1      3363 9.57019E-05-2.71632E-05-2.93839E-05-1.33517E-06 4.93331E-19-7.21262E-19
 -1      3364 9.55443E-05-2.76662E-05-2.90646E-05-2.78058E-06 1.28187E-19-6.82589E-19
 -1      3365 9.55057E-05-2.78227E-05-2.89935E-05-2.65212E-06 1.18129E-19-4.75141E-19
 -1      3366 9.54581E-05-2.77532E-05-2.90100E-05-2.34559E-06 1.88888E-19-5.47608E-19
 -1      3367 1.17981E-04-5.11547E-05-2.90527E-05-1.15680E-05-2.95886E-19-4.99141E-19
 -1      3368 9.45074E-05-2.73414E-05-2.87887E-05 5.21387E-07 8.93298E-19 4.89670E-19
 -1      3369 9.45930E-05-2.74176E-05-2.87885E-05 6.31988E-07 1.53956E-18-1.01794E-18
 -1      3370 9.45570E-05-2.73534E-05-2.87990E-05 7.78775E-07 8.39015E-19-9.59542E-19
 -1      3371 9.91749E-05-2.76637E-05-2.93813E-05-1.32626E-06-2.76874E-19-2.62072E-18
 -1      3372 1.29329E-04-5.54551E-05-3.17609E-05 4.34817E-06-3.37821E-19-1.20906E-18
 -1      3373 1.22886E-04-5.35461E-05-2.97132E-05 9.44835E-06-2.98923E-19-1.51588E-18
 -1      3374 9.43928E-05-2.72306E-05-2.87862E-05 2.31514E-07 2.03968E-18 2.93216E-18
 -1      3375 9.44367E-05-2.72691E-05-2.87865E-05 3.70320E-07 1.29746E-18 1.30890E-18
 -1      3376 9.43513E-05-2.71615E-05-2.87924E-05 5.02330E-07 1.11345E-18 1.05407E-18
 -1      3377 9.42469E-05-2.70669E-05-2.87879E-05 1.62689E-07 1.85228E-18 1.87489E-18
 -1      3378 1.18488E-04-5.03286E-05-2.91813E-05-8.77354E-06 3.88120E-19-2.45936E-18
 -1      3379 1.24181E-04-5.19202E-05-3.08038E-05-4.47171E-06 4.08442E-19-2.34390E-18
 -1      3380 4.61271E-05-1.18594E-05-1.41354E-05-9.01767E-07 1.09509E-18 1.36542E-18
 -1      3381 5.09204E-05-1.33817E-05-1.59125E-05-6.96577E-06 1.38976E-18 5.34160E-19
 -1      3382 5.14213E-05-1.32502E-05-1.61525E-05 5.54803E-06 7.40611E-19 1.53387E-18
 -1      3383 6.03313E-05-2.03363E-05-1.68007E-05 2.03902E-05-5.21772E-19 2.81411E-18
 -1      3384 5.79391E-05-2.13276E-05-1.51165E-05-2.54921E-05 1.30552E-18-5.27384E-19
 -1      3385 6.59769E-05-2.59318E-05-1.70847E-05-2.77769E-05 1.55748E-18-6.28075E-19
 -1      3386 5.55571E-05-1.76838E-05-1.60159E-05-1.88498E-05 9.21572E-19-5.79212E-19
 -1      3387 4.88051E-05-1.81421E-05-1.25461E-05 2.22138E-05 6.08302E-19-1.20745E-18
 -1      3388 4.97000E-05-1.55988E-05-1.43231E-05 1.61681E-05 1.40607E-19-1.05445E-18
 -1      3389 5.75901E-05-2.20455E-05-1.50148E-05 2.57168E-05 7.35780E-19-4.58668E-19
 -1      3390 8.42914E-05-3.70681E-05-1.98294E-05-3.03023E-05-1.22319E-18-6.78235E-19
 -1      3391 9.35947E-05-4.20132E-05-2.23960E-05-2.80198E-05-8.49468E-19-4.87970E-19
 -1      3392 8.04750E-05-3.20126E-05-2.05592E-05-2.69057E-05-6.01420E-19-9.65141E-19
 -1      3393 4.59847E-05-1.22509E-05-1.39785E-05-2.61573E-06 2.30022E-20-1.51831E-18
 -1      3394 5.32483E-05-1.38379E-05-1.67078E-05-6.94581E-06 1.18287E-19-1.72546E-18
 -1      3395 4.80686E-05-1.27042E-05-1.48868E-05 3.79015E-06-2.87859E-21-1.66791E-18
 -1      3396 1.12613E-04-5.07248E-05-2.62094E-05 1.96049E-05-5.13514E-19-1.48456E-18
 -1      3397 1.29873E-04-5.45146E-05-3.23936E-05 4.59368E-06 5.88688E-20-5.40831E-19
 -1      3398 1.30741E-04-5.16494E-05-3.38810E-05-4.16716E-06 5.99064E-19-1.69171E-18
 -1      3399 1.31978E-04-4.78308E-05-3.61731E-05-8.09682E-06 9.53389E-19-1.69719E-18
 -1      3400 6.20971E-05-2.07654E-05-1.73618E-05-2.03406E-05-1.12682E-19-2.07650E-18
 -1      3401 9.57423E-05-2.65730E-05-2.96513E-05 1.29225E-06 7.83254E-19-5.43219E-19
 -1      3402 9.58473E-05-2.62135E-05-2.98417E-05 2.09751E-06 9.48002E-19-5.33101E-19
 -1      3403 9.58351E-05-2.57076E-05-3.00896E-05 2.35196E-06 9.66680E-19-5.33790E-19
 -1      3404 9.59126E-05-2.63158E-05-2.98371E-05 1.19537E-06 6.18380E-19-4.18586E-19
 -1      3405 1.13598E-04-5.15423E-05-2.62362E-05-1.99502E-05-4.01097E-19-3.92070E-19
 -1      3406 9.34736E-05-1.84329E-05-3.23510E-05-1.61957E-06-1.92594E-19-1.57792E-18
 -1      3407 9.33647E-05-1.88040E-05-3.21545E-05-2.79546E-06-4.28996E-19-1.49008E-18
 -1      3408 9.42174E-05-1.98505E-05-3.18445E-05-2.43425E-06-3.62160E-19-1.34849E-18
 -1      3409 1.23582E-04-3.78600E-05-3.68032E-05 1.20547E-05-1.68612E-20-1.45028E-18
 -1      3410 1.13840E-04-5.42166E-05-2.54530E-05 2.42228E-05 6.25057E-19 1.81005E-18
 -1      3411 1.07048E-04-5.06609E-05-2.41230E-05 2.64551E-05 6.84085E-19 1.33208E-18
 -1      3412 1.19536E-04-5.48459E-05-2.79842E-05 1.63612E-05 3.31137E-20 9.67371E-20
 -1      3413 1.18519E-04-1.26142E-05-4.58266E-05 3.23635E-06 3.95988E-20-1.06581E-18
 -1      3414 9.49875E-05-2.78200E-05-2.87881E-05-8.98733E-07-1.94957E-18-4.73118E-18
 -1      3415 9.49093E-05-2.77460E-05-2.87861E-05-8.52503E-07-3.36343E-19-3.38243E-18
 -1      3416 9.47957E-05-2.75919E-05-2.87995E-05-9.41913E-07-1.78043E-18-3.01713E-18
 -1      3417 9.49567E-05-2.77395E-05-2.88069E-05-1.04030E-06-2.04031E-18-4.11462E-18
 -1      3418 1.25645E-04-3.59606E-05-3.85063E-05 1.26887E-05 1.16943E-19-2.91970E-18
 -1      3419 1.26661E-04-4.33686E-05-3.60404E-05 9.73076E-06 3.50010E-19-2.75757E-18
 -1      3420 1.24199E-04-2.31546E-05-4.37232E-05-1.41282E-05 1.45923E-18 2.62210E-19
 -1      3421 1.31907E-04-4.27942E-05-3.84201E-05-8.16949E-06 1.22873E-19-3.32407E-19
 -1      3422 8.78464E-05-1.79543E-05-3.00212E-05-4.54928E-06-5.62218E-20-1.86421E-18
 -1      3423 9.45471E-05-2.47161E-05-2.90777E-05-1.22822E-06-2.85450E-19-2.61108E-18
 -1      3424 9.65863E-05-2.88763E-05-2.85407E-05-1.65239E-06-5.89217E-20-1.27256E-18
 -1      3425 9.58286E-05-2.78786E-05-2.89418E-05-7.61212E-07-4.56021E-19-1.03391E-18
 -1      3426 9.53916E-05-2.58594E-05-2.98976E-05-3.71145E-07-5.03042E-19-1.39745E-18
 -1      3427 9.46823E-05-2.42986E-05-3.03822E-05 5.97936E-07-5.06605E-19-1.15334E-18
 -1      3428 9.49615E-05-2.62600E-05-2.93671E-05-1.15217E-06-4.76668E-19-9.78747E-19
 -1      3429 9.51296E-05-2.38978E-05-3.09054E-05 2.48463E-06-3.58930E-19-1.28847E-18
 -1      3430 9.53672E-05-2.42209E-05-3.09900E-05 3.51608E-06 5.42101E-20-1.12904E-18
 -1      3431 9.48895E-05-2.37321E-05-3.12749E-05 1.76758E-06-3.34366E-19-1.21271E-18
 -1      3432 9.64706E-05-2.53363E-05-3.06809E-05 4.43057E-06 1.26843E-19-1.23789E-18
 -1      3433 9.71762E-05-2.63179E-05-3.05061E-05 4.82916E-06 3.05306E-19-1.28486E-18
 -1      3434 9.64222E-05-2.40332E-05-3.13556E-05 4.79087E-06 1.27055E-21-1.28437E-18
 -1      3435 9.73780E-05-2.69985E-05-3.02081E-05 4.71587E-06 2.68320E-19-1.33720E-18
 -1      3436 9.77776E-05-2.75415E-05-3.00617E-05 4.80471E-06 1.32944E-20-1.38814E-18
 -1      3437 9.78984E-05-2.67421E-05-3.05616E-05 5.04668E-06 1.25411E-19-1.51373E-18
 -1      3438 9.73746E-05-2.75785E-05-2.98507E-05 4.74550E-06 1.05892E-19-1.29363E-18
 -1      3439 9.73297E-05-2.72360E-05-2.94799E-05 5.21577E-06 4.64809E-20-1.03211E-18
 -1      3440 9.75358E-05-2.74255E-05-2.99817E-05 4.73151E-06 1.64717E-19-1.63088E-18
 -1      3441 9.53915E-05-2.67854E-05-2.89900E-05 4.61124E-06-2.01911E-19-6.58039E-19
 -1      3442 9.42901E-05-2.67086E-05-2.89569E-05 4.64089E-06-1.91769E-19-4.99146E-19
 -1      3443 9.62800E-05-2.69266E-05-2.93858E-05 4.66123E-06 1.33156E-19-1.35144E-18
 -1      3444 9.40074E-05-2.65449E-05-2.89192E-05 5.03175E-06-1.69611E-19-6.28747E-19
 -1      3445 9.39443E-05-2.64735E-05-2.89078E-05 5.43309E-06 1.37812E-19-8.09079E-19
 -1      3446 9.35968E-05-2.62282E-05-2.88706E-05 4.65664E-06-1.64675E-19-1.26621E-18
 -1      3447 9.36825E-05-2.63716E-05-2.88542E-05 5.89705E-06 2.22885E-19-1.05311E-18
 -1      3448 9.36952E-05-2.64044E-05-2.88284E-05 6.34715E-06 6.38700E-20-1.31531E-18
 -1      3449 9.30489E-05-2.59287E-05-2.87650E-05 5.50670E-06-6.18681E-20-1.30998E-18
 -1      3450 9.35018E-05-2.64324E-05-2.87494E-05 6.89537E-06-6.27241E-21-1.20512E-18
 -1      3451 9.36547E-05-2.66502E-05-2.87023E-05 7.38566E-06-1.71082E-21-1.22750E-18
 -1      3452 9.25827E-05-2.58186E-05-2.86148E-05 6.51970E-06 1.98300E-19-1.39994E-18
 -1      3453 9.36080E-05-2.69014E-05-2.85904E-05 8.02531E-06-1.05401E-19-1.25575E-18
 -1      3454 9.40008E-05-2.74126E-05-2.85192E-05 8.53338E-06-3.08835E-19-1.59238E-18
 -1      3455 9.23187E-05-2.60637E-05-2.84018E-05 7.72477E-06-9.48403E-20-1.47774E-18
 -1      3456 9.42263E-05-2.80112E-05-2.83724E-05 9.26124E-06-3.55136E-19-1.16809E-18
 -1      3457 9.50042E-05-2.89530E-05-2.82832E-05 9.73922E-06-2.53912E-19-1.19276E-18
 -1      3458 9.24522E-05-2.68908E-05-2.81144E-05 9.14533E-06 8.04278E-21-1.30638E-18
 -1      3459 9.56963E-05-3.00540E-05-2.81127E-05 1.05214E-05-3.89485E-19-1.32395E-18
 -1      3460 9.70505E-05-3.15777E-05-2.80309E-05 1.08702E-05-2.63052E-19-1.85377E-18
 -1      3461 9.32917E-05-2.86006E-05-2.77583E-05 1.07784E-05-3.71498E-19-1.02038E-18
 -1      3462 9.84939E-05-3.33454E-05-2.78757E-05 1.15872E-05 2.15138E-19-1.74306E-18
 -1      3463 1.00629E-04-3.55584E-05-2.78618E-05 1.16114E-05 2.03945E-19-1.31941E-18
 -1      3464 9.53076E-05-3.15654E-05-2.73786E-05 1.25277E-05 9.37609E-21-1.50464E-18
 -1      3465 1.03178E-04-3.80851E-05-2.78112E-05 1.19629E-05-1.67408E-19-8.67122E-19
 -1      3466 1.06216E-04-4.08898E-05-2.79759E-05 1.12830E-05-1.82084E-19-7.45971E-19
 -1      3467 9.91452E-05-3.61424E-05-2.71010E-05 1.40407E-05 3.00849E-19-1.23954E-18
 -1      3468 1.10360E-04-4.42006E-05-2.82076E-05 1.06760E-05-9.82161E-20-6.33326E-19
 -1      3469 1.14074E-04-4.68921E-05-2.87597E-05 8.51860E-06-1.61730E-20-1.08989E-18
 -1      3470 1.05563E-04-4.25262E-05-2.71766E-05 1.45726E-05-5.19866E-20-5.72369E-19
 -1      3471 1.20679E-04-5.09107E-05-2.98761E-05 6.87094E-06-7.75697E-20-1.04204E-18
 -1      3472 1.24170E-04-5.13803E-05-3.12760E-05 3.07950E-06-5.33154E-19-8.81196E-19
 -1      3473 1.16699E-04-2.02673E-05-4.17183E-05-1.11274E-05-4.97632E-21-1.49237E-18
 -1      3474 1.17364E-04-2.43825E-05-4.01304E-05 1.28787E-05-4.05146E-19-1.28789E-18
 -1      3475 1.14703E-04-4.82926E-05-2.82297E-05-1.15656E-05 6.03858E-19-2.15194E-18
 -1      3476 1.09197E-04-4.43658E-05-2.76945E-05-1.25979E-05 7.97309E-19-1.70939E-18
 -1      3477 1.05472E-04-4.12452E-05-2.73371E-05-1.38241E-05 1.08185E-18-1.56078E-18
 -1      3478 1.06771E-04-4.67860E-05-2.59301E-05-1.97567E-05 9.76308E-19-2.26145E-18
 -1      3479 1.02080E-04-3.79775E-05-2.73666E-05-1.30686E-05 8.21245E-19-1.81230E-18
 -1      3480 9.92130E-05-3.52421E-05-2.72979E-05-1.33816E-05 6.12514E-19-1.76766E-18
 -1      3481 9.78992E-05-3.83905E-05-2.56175E-05-1.88035E-05 5.87517E-19-1.90257E-18
 -1      3482 9.73616E-05-3.29233E-05-2.75245E-05-1.20800E-05 1.41196E-19-1.32001E-18
 -1      3483 9.54498E-05-3.09228E-05-2.75863E-05-1.18847E-05-1.62790E-19-1.47166E-18
 -1      3484 9.29500E-05-3.22106E-05-2.61002E-05-1.58448E-05 3.61299E-19-2.71649E-18
 -1      3485 9.45931E-05-2.94606E-05-2.78484E-05-1.06039E-05-3.38573E-20-1.77166E-18
 -1      3486 9.34418E-05-2.81503E-05-2.79483E-05-1.01711E-05-1.42187E-19-1.89186E-18
 -1      3487 9.06142E-05-2.82967E-05-2.67414E-05-1.28491E-05 2.14379E-19-3.25920E-18
 -1      3488 9.31779E-05-2.73179E-05-2.81824E-05-9.06819E-06-9.51151E-19-1.88433E-18
 -1      3489 9.25505E-05-2.65444E-05-2.82751E-05-8.54756E-06-1.25347E-18-1.91458E-18
 -1      3490 8.97779E-05-2.60093E-05-2.73399E-05-1.03060E-05-8.23200E-19-3.48619E-18
 -1      3491 9.26192E-05-2.61462E-05-2.84609E-05-7.63843E-06-2.23897E-18-2.10534E-18
 -1      3492 9.23250E-05-2.57521E-05-2.85295E-05-7.10323E-06-2.60057E-18-2.66634E-18
 -1      3493 8.97812E-05-2.48404E-05-2.78295E-05-8.25542E-06-1.84678E-18-4.33782E-18
 -1      3494 9.25647E-05-2.56379E-05-2.86654E-05-6.35989E-06-1.90412E-18-1.87420E-18
 -1      3495 9.24684E-05-2.54945E-05-2.87071E-05-5.84660E-06-1.19940E-18-2.12730E-18
 -1      3496 9.02231E-05-2.44027E-05-2.82004E-05-6.62054E-06-1.37884E-18-3.49710E-18
 -1      3497 9.27812E-05-2.55557E-05-2.87995E-05-5.23666E-06 9.92060E-20-2.25892E-18
 -1      3498 9.27938E-05-2.55673E-05-2.88178E-05-4.76401E-06 7.53807E-19-1.41759E-18
 -1      3499 9.08662E-05-2.44250E-05-2.84643E-05-5.30754E-06-1.51837E-19-2.65440E-18
 -1      3500 9.31215E-05-2.57275E-05-2.88752E-05-4.26138E-06 2.64486E-21-7.83067E-19
 -1      3501 9.31871E-05-2.58265E-05-2.88759E-05-3.83884E-06-3.81897E-20-9.90824E-19
 -1      3502 9.15705E-05-2.47189E-05-2.86402E-05-4.24190E-06 1.05660E-18-2.26457E-18
 -1      3503 9.34971E-05-2.60335E-05-2.89071E-05-3.42424E-06-7.02090E-19-1.48699E-18
 -1      3504 9.35824E-05-2.61743E-05-2.88958E-05-3.05569E-06-1.12084E-18-2.33482E-18
 -1      3505 9.22554E-05-2.51544E-05-2.87481E-05-3.37046E-06-2.96280E-19-1.85768E-18
 -1      3506 9.38579E-05-2.63938E-05-2.89085E-05-2.71483E-06-1.25068E-18-2.29895E-18
 -1      3507 9.39441E-05-2.65470E-05-2.88902E-05-2.40029E-06-9.21317E-19-2.82044E-18
 -1      3508 9.28775E-05-2.56444E-05-2.88063E-05-2.65610E-06-1.40246E-18-1.02645E-18
 -1      3509 9.41781E-05-2.67575E-05-2.88907E-05-2.12203E-06-5.10924E-19-3.27511E-18
 -1      3510 9.42555E-05-2.69052E-05-2.88693E-05-1.85870E-06-3.14148E-19-3.79951E-18
 -1      3511 9.34168E-05-2.61324E-05-2.88299E-05-2.07212E-06-9.93676E-19-1.47222E-18
 -1      3512 9.44474E-05-2.70945E-05-2.88624E-05-1.63397E-06-5.54472E-19-3.86406E-18
 -1      3513 9.45132E-05-2.72264E-05-2.88406E-05-1.41775E-06-1.12772E-18-3.71837E-18
 -1      3514 9.38681E-05-2.65841E-05-2.88310E-05-1.59723E-06-1.01530E-18-2.65448E-18
 -1      3515 9.50860E-05-2.72966E-05-2.90483E-05-3.43699E-06 1.23701E-19-1.66183E-19
 -1      3516 9.51709E-05-2.73972E-05-2.90487E-05-3.13052E-06 1.83666E-19-4.09050E-19
 -1      3517 9.33419E-05-2.56076E-05-2.90201E-05-6.66197E-06-2.12159E-19-1.02490E-19
 -1      3518 9.34599E-05-2.57769E-05-2.90187E-05-6.13536E-06-1.25022E-19-4.18965E-19
 -1      3519 9.38605E-05-2.60566E-05-2.90515E-05-5.65578E-06 2.90320E-19-4.44151E-19
 -1      3520 9.39826E-05-2.62567E-05-2.90352E-05-5.20261E-06 4.77940E-19-1.02900E-19
 -1      3521 9.28279E-05-2.53654E-05-2.89055E-05-5.65747E-06-9.41673E-21-8.83098E-20
 -1      3522 9.24105E-05-2.52909E-05-2.87486E-05-9.20695E-06-4.66137E-19-2.47326E-19
 -1      3523 9.23788E-05-2.51702E-05-2.88175E-05-8.52879E-06-1.34401E-19-5.01985E-19
 -1      3524 9.23145E-05-2.58778E-05-2.84467E-05-1.07924E-05-1.03380E-18-4.78409E-20
 -1      3525 9.20364E-05-2.54029E-05-2.85698E-05-1.00457E-05-6.91733E-19-2.62376E-19
 -1      3526 9.02617E-05-2.43027E-05-2.82632E-05-9.40396E-06-5.99327E-19-5.95760E-19
 -1      3527 9.29176E-05-2.74712E-05-2.80077E-05-1.26176E-05-4.83841E-19-4.35754E-19
 -1      3528 9.21585E-05-2.64079E-05-2.81859E-05-1.18270E-05-7.71314E-19-2.26769E-19
 -1      3529 8.96731E-05-2.48649E-05-2.77797E-05-1.12766E-05-6.60720E-19-8.00459E-19
 -1      3530 9.48409E-05-3.06421E-05-2.74563E-05-1.46336E-05-4.56096E-19-9.10644E-19
 -1      3531 9.32616E-05-2.86934E-05-2.76628E-05-1.38921E-05-4.69713E-19-7.09915E-19
 -1      3532 8.97294E-05-2.65305E-05-2.71120E-05-1.36730E-05-3.37524E-19-1.08528E-18
 -1      3533 9.94069E-05-3.61456E-05-2.70050E-05-1.63372E-05-1.40616E-19-8.56655E-19
 -1      3534 9.62386E-05-3.29419E-05-2.70669E-05-1.60754E-05-2.81677E-19-9.62382E-19
 -1      3535 9.12574E-05-3.00284E-05-2.62839E-05-1.67463E-05-1.55854E-19-1.11531E-18
 -1      3536 1.03366E-04-4.31245E-05-2.56025E-05-2.02398E-05-5.48269E-19-5.76267E-19
 -1      3537 9.85111E-05-3.86297E-05-2.54908E-05-2.03001E-05-5.52014E-19-9.15424E-19
 -1      3538 9.58524E-05-2.63688E-05-2.97766E-05-2.71831E-07 4.41397E-19-5.60450E-19
 -1      3539 9.59310E-05-2.61633E-05-2.99054E-05 4.87660E-07 5.23896E-19-4.93609E-19
 -1      3540 9.40882E-05-2.69196E-05-2.87874E-05-3.21650E-07 2.01916E-18 2.34453E-18
 -1      3541 9.40508E-05-2.68869E-05-2.87869E-05-1.37483E-07 1.43700E-18 1.39780E-18
 -1      3542 9.68319E-05-3.29061E-05-2.73388E-05 1.54666E-05-1.32671E-18-8.68755E-20
 -1      3543 9.98505E-05-3.59799E-05-2.72718E-05 1.56891E-05-1.49126E-18-6.15853E-19
 -1      3544 9.88539E-05-3.80632E-05-2.59152E-05 1.91635E-05-1.02205E-18-3.19909E-19
 -1      3545 1.03393E-04-4.23423E-05-2.60015E-05 1.90291E-05-8.06931E-19-7.16656E-19
 -1      3546 9.37971E-05-2.86937E-05-2.78896E-05 1.34314E-05-1.76601E-18 3.73288E-19
 -1      3547 9.53740E-05-3.06171E-05-2.77002E-05 1.41298E-05-1.42309E-18 1.11779E-19
 -1      3548 9.19427E-05-3.00677E-05-2.65564E-05 1.62402E-05-1.61068E-18 1.24347E-19
 -1      3549 9.25983E-05-2.64017E-05-2.83746E-05 1.14083E-05-4.11312E-19 1.35036E-18
 -1      3550 9.33797E-05-2.74638E-05-2.82117E-05 1.21912E-05-1.32823E-18 5.60338E-19
 -1      3551 9.02647E-05-2.65549E-05-2.73312E-05 1.32833E-05-1.76382E-18 4.48846E-19
 -1      3552 9.23666E-05-2.53597E-05-2.87281E-05 9.60327E-06 7.60184E-19 1.14290E-18
 -1      3553 9.26799E-05-2.58496E-05-2.86175E-05 1.03704E-05 3.25919E-19 1.11557E-18
 -1      3554 9.00587E-05-2.48406E-05-2.79564E-05 1.09155E-05 1.21969E-19 1.01820E-18
 -1      3555 9.25966E-05-2.50728E-05-2.89512E-05 8.01765E-06 8.07406E-19 2.03355E-18
 -1      3556 9.26689E-05-2.52174E-05-2.88923E-05 8.73521E-06 9.25358E-19 1.69754E-18
 -1      3557 9.05014E-05-2.42102E-05-2.84063E-05 9.00602E-06 6.43081E-19 3.39193E-19
 -1      3558 9.30067E-05-2.52080E-05-2.90688E-05 6.62806E-06 4.61906E-19 8.03623E-19
 -1      3559 9.29699E-05-2.51606E-05-2.90506E-05 7.28234E-06 1.21455E-18 1.70595E-18
 -1      3560 9.12014E-05-2.42129E-05-2.87014E-05 7.43102E-06 1.24567E-18 9.21553E-19
 -1      3561 9.34505E-05-2.55531E-05-2.91099E-05 5.41560E-06-1.55632E-19 1.06779E-18
 -1      3562 9.33750E-05-2.54104E-05-2.91198E-05 5.99952E-06-1.59114E-19 1.56651E-19
 -1      3563 9.19503E-05-2.45536E-05-2.88758E-05 6.10283E-06 5.67000E-19 1.73072E-19
 -1      3564 9.38584E-05-2.59796E-05-2.91005E-05 4.36767E-06 5.74211E-19 2.53129E-19
 -1      3565 9.37788E-05-2.57996E-05-2.91275E-05 4.87811E-06 8.46374E-20 6.52249E-19
 -1      3566 9.26466E-05-2.50492E-05-2.89627E-05 4.96953E-06 4.66675E-19-1.04165E-18
 -1      3567 9.42037E-05-2.64137E-05-2.90610E-05 3.47379E-06 3.33656E-19 7.13800E-19
 -1      3568 9.41345E-05-2.62295E-05-2.90967E-05 3.91113E-06 1.12285E-18 5.02590E-19
 -1      3569 9.32479E-05-2.55893E-05-2.89902E-05 4.00172E-06 9.88827E-19 1.48521E-18
 -1      3570 9.44813E-05-2.68159E-05-2.90062E-05 2.72283E-06-1.93657E-18 9.49240E-19
 -1      3571 9.44271E-05-2.66451E-05-2.90446E-05 3.09049E-06-1.46285E-18 1.08727E-18
 -1      3572 9.37438E-05-2.61116E-05-2.89803E-05 3.18126E-06-5.17795E-19 2.73328E-18
 -1      3573 9.46958E-05-2.71672E-05-2.89462E-05 2.10135E-06-1.93924E-18-4.06027E-19
 -1      3574 9.46567E-05-2.70183E-05-2.89836E-05 2.40510E-06-1.49177E-18 6.93558E-19
 -1      3575 9.41392E-05-2.65833E-05-2.89489E-05 2.49359E-06-1.79365E-18 2.27599E-18
 -1      3576 9.48562E-05-2.74636E-05-2.88876E-05 1.59732E-06 1.66087E-19-1.72908E-18
 -1      3577 9.48309E-05-2.73397E-05-2.89215E-05 1.84081E-06-1.30901E-18-9.43292E-19
 -1      3578 9.44469E-05-2.69902E-05-2.89071E-05 1.92401E-06-6.61665E-19-8.61584E-19
 -1      3579 9.49738E-05-2.76990E-05-2.88343E-05 1.18689E-06 1.34711E-19-1.30686E-19
 -1      3580 9.49556E-05-2.75993E-05-2.88640E-05 1.38382E-06-2.42976E-19-7.78313E-19
 -1      3581 9.46738E-05-2.73202E-05-2.88623E-05 1.46267E-06-4.30626E-19-7.28235E-19
 -1      3582 9.49290E-05-2.77637E-05-2.87883E-05 8.29897E-07 1.68653E-18 1.31938E-18
 -1      3583 9.50362E-05-2.78721E-05-2.87842E-05 8.36738E-07 4.57476E-19 9.01056E-19
 -1      3584 9.50369E-05-2.78414E-05-2.87975E-05 9.25485E-07 1.18997E-18 7.79263E-19
 -1      3585 9.47987E-05-2.75942E-05-2.88017E-05 9.15158E-07 5.46351E-19 6.44106E-19
 -1      3586 1.09110E-04-4.78211E-05-2.58629E-05-2.04679E-05-4.80400E-19-4.56332E-19
 -1      3587 6.15789E-05-1.77739E-05-1.85590E-05-1.54693E-05-2.72639E-21-1.58310E-18
 -1      3588 6.99426E-05-2.38121E-05-1.96342E-05-2.22473E-05-7.81189E-19-1.31650E-18
 -1      3589 9.09703E-05-1.72752E-05-3.21403E-05 3.40111E-06-3.18749E-19-1.84018E-18
 -1      3590 9.37458E-05-1.91616E-05-3.24430E-05 1.18519E-06-3.77565E-19-1.81816E-18
 -1      3591 9.61492E-05-2.06442E-05-3.24660E-05-2.08940E-07-2.04770E-19-1.77263E-18
 -1      3592 9.28231E-05-2.52934E-05-2.89296E-05-7.83882E-06-1.88628E-20-4.02374E-19
 -1      3593 9.29023E-05-2.53685E-05-2.89563E-05-7.23585E-06-1.93295E-20-2.20422E-19
 -1      3594 9.19911E-05-2.47986E-05-2.87885E-05-6.67916E-06-1.71016E-19-3.48224E-19
 -1      3595 9.11025E-05-2.43805E-05-2.85870E-05-7.90626E-06-1.03317E-19-3.34794E-19
 -1      3596 6.76515E-05-2.26871E-05-1.91957E-05 2.15506E-05-1.02534E-18 2.33474E-18
 -1      3597 5.82364E-05-1.64891E-05-1.76029E-05 1.47704E-05-3.52703E-19 2.26100E-18
 -1      3598 1.28852E-04-5.01241E-05-3.38775E-05-3.31208E-06-2.23163E-19-6.49568E-19
 -1      3599 9.67894E-05-3.07047E-05-2.86037E-05 5.24967E-06-5.65818E-19-7.42477E-19
 -1      3600 9.74584E-05-2.75042E-05-2.82634E-05-1.02873E-06 5.23466E-19-1.43260E-18
 -1      3601 9.51593E-05-2.79930E-05-2.78318E-05-1.94080E-07 1.38066E-19-3.00061E-19
 -1      3602 9.58978E-05-2.67648E-05-2.96065E-05-9.77867E-07 5.22189E-19-4.39484E-19
 -1      3603 9.60454E-05-2.62192E-05-2.98999E-05-5.71612E-07 5.66811E-19-4.24555E-19
 -1      3604 9.59255E-05-2.71311E-05-2.94799E-05-1.46712E-06 4.52274E-19-4.91643E-19
 -1      3605 8.39255E-05-3.04398E-05-2.28869E-05 2.21124E-05-8.11195E-19 1.87136E-18
 -1      3606 7.59192E-05-2.65480E-05-2.08732E-05 2.30965E-05-1.01443E-18 1.94211E-18
 -1      3607 7.23058E-05-2.25434E-05-2.12979E-05 1.86704E-05-1.21036E-18 2.05464E-18
 -1      3608 1.23535E-04-2.86842E-05-4.10571E-05 1.41069E-05-2.17687E-19-2.13214E-18
 -1      3609 9.36727E-05-2.21690E-05-3.05453E-05-8.11004E-08 6.91576E-19-1.38597E-18
 -1      3610 1.00180E-04-4.63341E-05-2.27281E-05 2.86393E-05 7.42424E-19 1.20938E-18
 -1      3611 9.24031E-05-4.06674E-05-2.18808E-05 2.80942E-05 1.07017E-18 8.58752E-19
 -1      3612 1.08349E-04-4.97388E-05-2.53123E-05 2.26060E-05 1.84124E-19 1.27822E-18
 -1      3613 7.63023E-05-3.03376E-05-1.97029E-05 2.77595E-05 1.46060E-18 1.31380E-18
 -1      3614 6.71748E-05-2.61238E-05-1.71483E-05 2.79093E-05 8.18631E-19 6.30298E-19
 -1      3615 6.42118E-05-2.21084E-05-1.78897E-05 2.28793E-05 6.17222E-19 2.62263E-19
 -1      3616 1.16499E-04-5.08030E-05-2.80616E-05 1.35790E-05-4.19030E-19-3.67824E-19
 -1      3617 9.42611E-05-2.40600E-05-2.95401E-05-3.43104E-06 8.20034E-19-1.40163E-18
 -1      3618 9.13862E-05-2.22408E-05-2.91407E-05-5.15202E-06 5.62853E-19-1.12698E-18
 -1      3619 1.25281E-04-4.66377E-05-3.37383E-05 5.36196E-06 1.34996E-20-2.69151E-18
 -1      3620 9.57050E-05-2.46029E-05-3.05072E-05 2.36443E-06 7.34659E-19-8.41588E-19
 -1      3621 9.55712E-05-2.41657E-05-3.05543E-05 1.63981E-06 5.19756E-19-1.11067E-18
 -1      3622 9.97580E-05-4.34406E-05-2.38559E-05-2.46189E-05 1.25854E-18-2.16639E-18
 -1      3623 9.48395E-05-2.71161E-05-2.90297E-05-3.73595E-06 1.89939E-19 1.04750E-19
 -1      3624 9.47474E-05-2.69453E-05-2.90562E-05-3.43406E-06 7.83361E-21 4.40137E-20
 -1      3625 9.47413E-05-2.69600E-05-2.90437E-05-4.07230E-06 1.26304E-19 1.98114E-19
 -1      3626 9.46626E-05-2.73813E-05-2.88325E-05-1.26789E-06-1.39713E-19-3.87234E-18
 -1      3627 9.47258E-05-2.74938E-05-2.88150E-05-1.11223E-06-2.08459E-20-2.95543E-18
 -1      3628 9.42277E-05-2.69719E-05-2.88210E-05-1.24891E-06-5.96867E-20-2.46785E-18
 -1      3629 6.40709E-05-1.70048E-05-2.00802E-05 1.17874E-05-4.08574E-19 1.14749E-18
 -1      3630 5.72492E-05-1.46954E-05-1.79816E-05 1.00067E-05 3.62762E-19 1.49448E-18
 -1      3631 5.76705E-05-1.38583E-05-1.87562E-05 3.80772E-06 4.33919E-19 5.54754E-19
 -1      3632 9.56740E-05-2.75594E-05-2.91925E-05-2.14378E-06 3.13776E-19-6.55263E-19
 -1      3633 9.54498E-05-2.74961E-05-2.90854E-05-2.82093E-06 1.34132E-19-5.64882E-19
 -1      3634 9.56190E-05-2.74982E-05-2.91528E-05-2.46587E-06 7.97568E-20-4.42681E-19
 -1      3635 9.51843E-05-2.72361E-05-2.91201E-05-2.84884E-06-3.24067E-20-5.18476E-19
 -1      3636 9.35717E-05-2.59601E-05-2.89712E-05-4.79881E-06 6.44433E-19-6.53663E-20
 -1      3637 9.43322E-05-2.65306E-05-2.90515E-05-4.80065E-06 4.22190E-19 1.51796E-19
 -1      3638 9.44442E-05-2.67219E-05-2.90316E-05-4.41297E-06 3.51832E-19 2.79202E-19
 -1      3639 9.09767E-05-3.44481E-05-2.42483E-05-2.21352E-05-4.14186E-19-8.62409E-19
 -1      3640 9.63138E-05-2.57945E-05-3.01658E-05 1.10399E-06 5.22011E-19-6.75770E-19
 -1      3641 9.61792E-05-2.61486E-05-3.00066E-05 1.15191E-06 5.87775E-19-4.74487E-19
 -1      3642 9.38720E-05-2.66916E-05-2.87877E-05-3.40987E-08 1.17522E-18 1.87741E-18
 -1      3643 9.40439E-05-2.68771E-05-2.87877E-05 8.76220E-08 7.83117E-19 1.12278E-18
 -1      3644 9.40716E-05-2.68995E-05-2.87895E-05 2.73900E-07 9.63088E-19 2.48814E-18
 -1      3645 9.18719E-05-3.41496E-05-2.47343E-05 2.10646E-05-1.30653E-18 4.70798E-20
 -1      3646 7.89991E-05-3.25500E-05-1.94436E-05-2.96863E-05 1.94855E-18-2.07925E-18
 -1      3647 8.95744E-05-3.90423E-05-2.16944E-05-2.86471E-05 1.60682E-18-3.03823E-18
 -1      3648 9.34430E-05-3.83301E-05-2.36025E-05-2.37721E-05 1.19365E-18-1.81744E-18
 -1      3649 7.31382E-05-2.76463E-05-1.93887E-05-2.56919E-05 1.83676E-18-2.05959E-18
 -1      3650 1.17890E-04-5.11569E-05-2.87143E-05 1.26692E-05 2.36150E-19-1.96724E-18
 -1      3651 9.47166E-05-2.74766E-05-2.88202E-05 1.07000E-06 2.95008E-19 4.38258E-19
 -1      3652 9.48533E-05-2.76017E-05-2.88205E-05 1.09446E-06 1.88732E-19 2.76706E-19
 -1      3653 9.50438E-05-2.78105E-05-2.88131E-05 1.02673E-06 1.26126E-18 7.60157E-19
 -1      3654 9.21188E-05-2.07448E-05-3.07702E-05-3.94286E-06-5.93347E-19-1.96402E-18
 -1      3655 1.23063E-04-4.88060E-05-3.20751E-05 1.21387E-06-2.98516E-19-2.50682E-18
 -1      3656 5.96542E-05-1.59060E-05-1.84788E-05-1.21000E-05 1.79928E-19-1.67861E-18
 -1      3657 6.67338E-05-1.87114E-05-2.04800E-05-1.43060E-05-6.69275E-19-1.29591E-18
 -1      3658 5.86740E-05-1.48261E-05-1.86650E-05-7.28927E-06-3.00114E-19-1.91964E-18
 -1      3659 5.67804E-05-1.41909E-05-1.81361E-05-6.58114E-06 1.67855E-18 1.99794E-19
 -1      3660 5.61567E-05-1.50933E-05-1.71561E-05-1.29840E-05 1.89218E-18 1.89365E-19
 -1      3661 6.09182E-05-1.81227E-05-1.82667E-05-1.69651E-05 1.54926E-18 3.79683E-19
 -1      3662 7.66467E-05-2.73095E-05-2.08950E-05-2.34226E-05-6.24508E-19-1.43773E-18
 -1      3663 8.39399E-05-3.12851E-05-2.25518E-05-2.30387E-05-3.95361E-19-1.44053E-18
 -1      3664 7.48945E-05-2.40645E-05-2.17311E-05-1.94034E-05-9.35899E-19-1.63045E-18
 -1      3665 5.12197E-05-1.35317E-05-1.56942E-05 8.88891E-06 2.76864E-19-1.26282E-18
 -1      3666 5.48509E-05-1.34898E-05-1.76513E-05 2.86392E-06 2.03599E-19-1.76736E-18
 -1      3667 5.62836E-05-1.59771E-05-1.71209E-05 1.35259E-05 4.79961E-19-9.78217E-19
 -1      3668 9.42586E-05-2.70713E-05-2.87928E-05-6.83278E-07 7.41749E-19 1.26205E-18
 -1      3669 9.41633E-05-2.69928E-05-2.87905E-05-5.28737E-07 1.27936E-18 2.56568E-18
 -1      3670 9.39645E-05-2.67794E-05-2.87907E-05-4.82956E-07 1.53430E-18 1.93423E-18
 -1      3671 8.93447E-05-2.03934E-05-2.89812E-05-4.25262E-06 8.86526E-19-1.09098E-18
 -1      3672 9.62326E-05-2.60509E-05-3.00978E-05 1.68240E-06 6.50114E-19-4.53513E-19
 -1      3673 9.43531E-05-2.71508E-05-2.88057E-05 8.26470E-07 6.04371E-19-1.20955E-18
 -1      3674 9.44951E-05-2.72639E-05-2.88104E-05 9.48227E-07 4.65889E-19-8.22112E-19
 -1      3675 9.02650E-05-2.47321E-05-2.73365E-05-1.00430E-05 7.45601E-19-6.23628E-19
 -1      3676 8.47163E-05-1.75771E-05-2.81900E-05-8.51261E-06-4.48927E-20-2.60251E-19
 -1      3677 7.75656E-05-1.38268E-05-2.82676E-05-6.38150E-06-2.99003E-19-1.40819E-20
 -1      3678 9.45158E-05-2.72534E-05-2.88282E-05 1.14281E-06-2.70168E-19 1.44366E-19
 -1      3679 9.68573E-05-2.12786E-05-3.11806E-05-4.35293E-06-4.11552E-19-1.31242E-18
 -1      3680 1.09007E-04-4.66515E-05-2.64082E-05 1.87757E-05-6.37935E-19-1.19479E-18
 -1      3681 9.43824E-05-2.02069E-05-3.19529E-05-1.88872E-06-1.60089E-19-1.19253E-18
 -1      3682 9.42436E-05-2.03287E-05-3.16073E-05-2.20969E-06-2.96859E-19-1.27057E-18
 -1      3683 9.48130E-05-2.15142E-05-3.12967E-05-2.24160E-06-2.16258E-19-1.32264E-18
 -1      3684 8.86776E-05-1.57400E-05-3.17211E-05 4.98143E-06-8.32316E-19-1.43636E-18
 -1      3685 8.63924E-05-2.49984E-05-2.62545E-05-1.36651E-05-8.83410E-20-1.12716E-18
 -1      3686 8.60994E-05-2.39599E-05-2.66680E-05-1.23170E-05-7.02070E-20-1.19225E-18
 -1      3687 9.52496E-05-2.17621E-05-3.27704E-05 1.96293E-06-7.79270E-19-1.43085E-18
 -1      3688 9.44058E-05-2.10969E-05-3.32879E-05 3.91534E-06-4.26905E-19-1.45668E-18
 -1      3689 9.75869E-05-2.38948E-05-3.23538E-05 5.93673E-06-7.62330E-20-1.31735E-18
 -1      3690 9.91705E-05-2.62567E-05-3.17162E-05 5.99022E-06 2.15371E-19-1.54933E-18
 -1      3691 9.76371E-05-2.02095E-05-3.41362E-05 7.04639E-06-5.10337E-19-1.73303E-18
 -1      3692 9.85315E-05-2.70428E-05-3.08536E-05 4.55909E-06 2.42516E-19-1.39562E-18
 -1      3693 9.88087E-05-2.77301E-05-3.04773E-05 4.38444E-06 1.91423E-19-1.36159E-18
 -1      3694 1.00971E-04-2.77453E-05-3.16566E-05 5.15382E-06 1.65742E-19-1.42640E-18
 -1      3695 9.77281E-05-2.76519E-05-3.00280E-05 3.79588E-06 2.35263E-19-1.19416E-18
 -1      3696 9.72101E-05-2.74442E-05-2.97699E-05 3.75676E-06 2.37752E-19-1.17966E-18
 -1      3697 9.86021E-05-2.79200E-05-3.02534E-05 3.44163E-06 3.42129E-19-9.98070E-19
 -1      3698 9.59735E-05-2.67374E-05-2.95227E-05 3.80436E-06 3.91091E-20-1.36054E-18
 -1      3699 9.52568E-05-2.62932E-05-2.91749E-05 3.80105E-06-3.57342E-21-1.45756E-18
 -1      3700 9.60211E-05-2.69474E-05-2.95187E-05 2.73222E-06 2.17846E-20-1.00364E-18
 -1      3701 9.38371E-05-2.60387E-05-2.88541E-05 4.17909E-06 9.38751E-20-1.43940E-18
 -1      3702 9.29224E-05-2.57394E-05-2.87869E-05 4.46239E-06-1.17597E-19-1.26211E-18
 -1      3703 9.40031E-05-2.57508E-05-2.90298E-05 3.29052E-06-2.71448E-20-1.29927E-18
 -1      3704 9.24375E-05-2.54933E-05-2.87004E-05 4.87648E-06-6.46917E-20-1.00115E-18
 -1      3705 9.21725E-05-2.53472E-05-2.86312E-05 5.32761E-06-4.85109E-20-8.16927E-19
 -1      3706 9.20817E-05-2.51813E-05-2.86661E-05 4.27423E-06 2.20035E-21-8.37094E-19
 -1      3707 9.16755E-05-2.51694E-05-2.85141E-05 5.84766E-06-7.70647E-20-7.21185E-19
 -1      3708 9.14775E-05-2.51454E-05-2.84160E-05 6.38898E-06 1.24861E-19-9.92754E-19
 -1      3709 9.10983E-05-2.47030E-05-2.84498E-05 5.18151E-06 5.85209E-20-3.72490E-19
 -1      3710 9.10097E-05-2.51102E-05-2.82552E-05 7.04971E-06-9.51878E-22-1.34843E-18
 -1      3711 9.09568E-05-2.53028E-05-2.81193E-05 7.70059E-06-1.57984E-19-1.12903E-18
 -1      3712 9.01238E-05-2.44185E-05-2.81555E-05 6.33706E-06-8.62975E-20-9.99217E-19
 -1      3713 9.05889E-05-2.55117E-05-2.79027E-05 8.54819E-06 1.22617E-19-1.34496E-18
 -1      3714 9.08068E-05-2.60516E-05-2.77247E-05 9.32731E-06 8.70642E-20-1.13069E-18
 -1      3715 8.92630E-05-2.44997E-05-2.77558E-05 7.83216E-06-1.26888E-19-1.44941E-18
 -1      3716 9.06619E-05-2.66458E-05-2.74442E-05 1.04176E-05-1.32510E-19-1.14341E-18
 -1      3717 9.13480E-05-2.77085E-05-2.72318E-05 1.13277E-05-1.88887E-19-1.05595E-18
 -1      3718 8.86972E-05-2.51890E-05-2.72267E-05 9.79074E-06-2.12306E-19-1.07986E-18
 -1      3719 9.16407E-05-2.88896E-05-2.68914E-05 1.27189E-05-1.02134E-19-1.07458E-18
 -1      3720 9.31012E-05-3.06994E-05-2.66792E-05 1.36915E-05 1.90620E-19-1.21676E-18
 -1      3721 8.87341E-05-2.68207E-05-2.65573E-05 1.23683E-05-2.17549E-20-9.89186E-19
 -1      3722 9.42138E-05-3.27485E-05-2.63139E-05 1.54010E-05 3.44108E-19-9.83718E-19
 -1      3723 9.68470E-05-3.55700E-05-2.61898E-05 1.62140E-05 2.82143E-19-8.25579E-19
 -1      3724 8.99163E-05-2.98712E-05-2.57680E-05 1.57016E-05 2.85970E-19-1.15923E-18
 -1      3725 9.18588E-05-2.47232E-05-2.87686E-05-5.36204E-06 3.82468E-21-2.64040E-19
 -1      3726 9.22634E-05-2.50464E-05-2.88196E-05-4.92097E-06 4.68583E-19-1.55920E-19
 -1      3727 9.57216E-05-2.50434E-05-3.02868E-05 2.43524E-06 8.63219E-19-6.43262E-19
 -1      3728 9.61483E-05-2.56859E-05-3.01815E-05 1.86746E-06 6.88145E-19-5.24001E-19
 -1      3729 9.18097E-05-3.49461E-05-2.42598E-05-2.06675E-05 4.45337E-19-1.64242E-18
 -1      3730 8.84845E-05-3.13985E-05-2.45248E-05-1.88853E-05-1.21301E-19-2.32822E-18
 -1      3731 8.33292E-05-3.06017E-05-2.24287E-05-2.34069E-05 7.11336E-19-2.59862E-18
 -1      3732 8.84345E-05-2.94129E-05-2.52177E-05-1.62080E-05 3.92828E-19-2.27099E-18
 -1      3733 8.68138E-05-2.72648E-05-2.55922E-05-1.44871E-05 4.75030E-19-2.17533E-18
 -1      3734 8.23519E-05-2.60187E-05-2.40777E-05-1.72034E-05 2.41792E-19-1.91907E-18
 -1      3735 8.72581E-05-2.61869E-05-2.61476E-05-1.25903E-05 3.75834E-19-2.18447E-18
 -1      3736 8.66111E-05-2.49224E-05-2.65035E-05-1.11334E-05 4.55452E-19-2.20949E-18
 -1      3737 8.31511E-05-2.36619E-05-2.54238E-05-1.24860E-05 4.46891E-19-1.30120E-18
 -1      3738 8.72991E-05-2.44473E-05-2.69292E-05-9.75764E-06-3.61385E-19-2.38490E-18
 -1      3739 8.71870E-05-2.37891E-05-2.72237E-05-8.60882E-06-1.93034E-18-2.29983E-18
 -1      3740 8.44087E-05-2.25759E-05-2.64465E-05-9.18266E-06-3.88596E-19-1.59815E-18
 -1      3741 8.79288E-05-2.36731E-05-2.75394E-05-7.61423E-06-2.59657E-18-2.56917E-18
 -1      3742 8.81022E-05-2.34113E-05-2.77656E-05-6.72045E-06-1.79891E-18-3.01138E-18
 -1      3743 8.58746E-05-2.22921E-05-2.72058E-05-6.89331E-06-2.22940E-18-1.57246E-18
 -1      3744 8.88228E-05-2.35154E-05-2.79933E-05-5.98256E-06-7.00929E-19-3.19979E-18
 -1      3745 8.91325E-05-2.35044E-05-2.81575E-05-5.28089E-06-3.07089E-19-3.09377E-18
 -1      3746 8.73265E-05-2.24745E-05-2.77580E-05-5.25180E-06-1.59414E-18-2.03143E-18
 -1      3747 8.97979E-05-2.37394E-05-2.83162E-05-4.72075E-06-3.51976E-19-2.96897E-18
 -1      3748 9.01577E-05-2.38787E-05-2.84289E-05-4.16127E-06 4.47980E-19-2.57959E-18
 -1      3749 8.86870E-05-2.29389E-05-2.81490E-05-4.04143E-06 2.43978E-19-2.57449E-18
 -1      3750 9.07517E-05-2.41824E-05-2.85351E-05-3.72791E-06 7.20625E-19-3.42124E-18
 -1      3751 9.11116E-05-2.44026E-05-2.86076E-05-3.27571E-06 9.57779E-19-2.76949E-18
 -1      3752 8.99156E-05-2.35563E-05-2.84166E-05-3.12744E-06 3.33763E-20-2.14146E-18
 -1      3753 9.16279E-05-2.47316E-05-2.86748E-05-2.93587E-06 1.78675E-19-2.68802E-18
 -1      3754 9.19606E-05-2.49858E-05-2.87173E-05-2.56735E-06-1.05081E-18-2.37158E-18
 -1      3755 9.09938E-05-2.42365E-05-2.85918E-05-2.42338E-06 7.01015E-21-3.04168E-18
 -1      3756 9.23992E-05-2.53108E-05-2.87565E-05-2.29886E-06-1.41296E-18-1.84303E-18
 -1      3757 9.26912E-05-2.55680E-05-2.87776E-05-1.99767E-06-1.14348E-18-2.12666E-18
 -1      3758 9.19173E-05-2.49173E-05-2.86996E-05-1.87339E-06-5.42773E-19-3.59509E-18
 -1      3759 9.30559E-05-2.58701E-05-2.87975E-05-1.78607E-06-8.82791E-19-2.30086E-18
 -1      3760 9.33021E-05-2.61103E-05-2.88043E-05-1.53958E-06-6.95808E-19-2.66904E-18
 -1      3761 9.26910E-05-2.55584E-05-2.87597E-05-1.44143E-06-8.92835E-19-2.97127E-18
 -1      3762 9.35990E-05-2.63796E-05-2.88114E-05-1.37420E-06-1.09466E-19-2.16876E-18
 -1      3763 9.37994E-05-2.65914E-05-2.88092E-05-1.17330E-06 2.11075E-19-1.30184E-18
 -1      3764 9.33259E-05-2.61364E-05-2.87879E-05-1.10282E-06 7.10694E-19-1.08683E-18
 -1      3765 8.70484E-05-2.35963E-05-2.71618E-05-1.09652E-05-3.93942E-19-9.79638E-19
 -1      3766 8.72338E-05-2.32066E-05-2.74711E-05-9.95366E-06-4.61466E-19-1.00552E-18
 -1      3767 8.37398E-05-2.21666E-05-2.63658E-05-1.08641E-05-5.40645E-20-1.22341E-18
 -1      3768 8.81909E-05-2.32360E-05-2.78205E-05-9.00001E-06-3.78485E-19-8.71764E-19
 -1      3769 8.85821E-05-2.32230E-05-2.80357E-05-8.21460E-06-2.12832E-19-4.50905E-19
 -1      3770 8.56870E-05-2.20456E-05-2.72524E-05-8.66139E-06-1.56784E-19-5.63925E-19
 -1      3771 9.65868E-05-2.55676E-05-3.03173E-05 1.14461E-06 4.96639E-19-1.30006E-18
 -1      3772 9.69766E-05-2.59805E-05-3.03391E-05 1.58580E-06 5.88331E-19-1.41375E-18
 -1      3773 9.39315E-05-2.97542E-05-2.54044E-05-3.44872E-07-3.44742E-19 9.63076E-19
 -1      3774 9.17697E-05-2.83254E-05-2.57123E-05-1.94959E-07-1.14858E-18 8.48568E-19
 -1      3775 9.46455E-05-2.74167E-05-2.88107E-05-1.06070E-06-5.20048E-19-3.14642E-18
 -1      3776 9.45579E-05-2.73430E-05-2.88059E-05-9.97758E-07-9.24119E-20-3.03199E-18
 -1      3777 8.63448E-05-2.61372E-05-2.58455E-05 1.52841E-05-1.73667E-18 5.52336E-19
 -1      3778 8.76267E-05-2.82902E-05-2.53730E-05 1.71327E-05-1.68965E-18 5.61288E-19
 -1      3779 8.75530E-05-2.31456E-05-2.76320E-05 9.68955E-06 4.46438E-19 1.37482E-19
 -1      3780 8.74446E-05-2.35759E-05-2.73418E-05 1.07104E-05-7.66102E-20 2.00205E-19
 -1      3781 7.75009E-05-7.91962E-06-3.01088E-05 9.83202E-06-2.45682E-18-1.48570E-18
 -1      3782 9.33319E-05-2.20891E-05-3.19264E-05 1.47419E-05-2.24310E-18-2.80198E-18
 -1      3783 7.50788E-05-6.12906E-06-2.77044E-05 8.43508E-07-3.18400E-18 1.52148E-18
 -1      3784 8.87257E-05-2.30715E-05-2.81608E-05 7.88923E-06 7.35814E-19 1.13208E-19
 -1      3785 8.84071E-05-2.31254E-05-2.79615E-05 8.70686E-06 4.81737E-19 4.94397E-19
 -1      3786 8.58999E-05-2.19296E-05-2.73951E-05 8.47653E-06 3.52768E-19-3.77738E-19
 -1      3787 8.99056E-05-2.34266E-05-2.85097E-05 6.46214E-06 1.22112E-18-3.31348E-19
 -1      3788 8.95224E-05-2.32742E-05-2.83835E-05 7.14088E-06 6.34381E-19-3.47801E-19
 -1      3789 8.75632E-05-2.22395E-05-2.79764E-05 6.84413E-06 1.12045E-18 4.01303E-19
 -1      3790 9.09843E-05-2.39953E-05-2.87247E-05 5.28572E-06 7.48607E-20-3.62290E-19
 -1      3791 9.06096E-05-2.37413E-05-2.86530E-05 5.86262E-06 1.28244E-18 4.17689E-19
 -1      3792 8.90602E-05-2.28382E-05-2.83638E-05 5.58431E-06 8.56512E-19 2.97600E-19
 -1      3793 9.19171E-05-2.46426E-05-2.88444E-05 4.29467E-06 6.92962E-19 3.96206E-19
 -1      3794 9.15844E-05-2.43517E-05-2.88109E-05 4.78970E-06 5.67757E-20 2.16176E-19
 -1      3795 9.03556E-05-2.35670E-05-2.86095E-05 4.56200E-06 2.96818E-19 9.10598E-19
 -1      3796 9.26950E-05-2.52880E-05-2.88989E-05 3.45389E-06 1.16914E-19 2.88629E-18
 -1      3797 9.24156E-05-2.49980E-05-2.88908E-05 3.87768E-06 1.75258E-19 1.54491E-18
 -1      3798 9.14443E-05-2.43236E-05-2.87545E-05 3.70714E-06-4.91828E-19 3.20337E-19
 -1      3799 9.33265E-05-2.58867E-05-2.89112E-05 2.74294E-06-1.07091E-18 3.47394E-18
 -1      3800 9.31004E-05-2.56181E-05-2.89188E-05 3.10241E-06 3.99140E-19 3.31703E-18
 -1      3801 9.23386E-05-2.50469E-05-2.88302E-05 2.98350E-06-4.34255E-19 2.70534E-18
 -1      3802 9.38269E-05-2.64138E-05-2.88981E-05 2.14741E-06-9.33007E-19 1.34619E-18
 -1      3803 9.36498E-05-2.61772E-05-2.89143E-05 2.45062E-06-1.46858E-18 1.82443E-18
 -1      3804 9.30605E-05-2.57043E-05-2.88601E-05 2.37304E-06-1.55517E-19 2.81058E-18
 -1      3805 9.42092E-05-2.68589E-05-2.88702E-05 1.64935E-06 2.70040E-19 3.92134E-20
 -1      3806 9.40802E-05-2.66605E-05-2.88910E-05 1.90694E-06-4.54862E-19 4.01455E-19
 -1      3807 9.36282E-05-2.62774E-05-2.88615E-05 1.86517E-06-2.47490E-19 9.12442E-19
 -1      3808 9.44125E-05-2.70997E-05-2.88475E-05 1.33638E-06-4.00901E-19-4.07254E-19
 -1      3809 9.41362E-05-2.69567E-05-2.87943E-05 4.88718E-07 1.00214E-18 2.31620E-18
 -1      3810 9.42265E-05-2.70302E-05-2.87980E-05 6.52882E-07 6.04148E-19 1.01182E-18
 -1      3811 9.41596E-05-2.69275E-05-2.88090E-05 8.31524E-07 1.57487E-19 2.77797E-20
 -1      3812 9.39399E-05-2.67419E-05-2.87942E-05 4.22327E-07 4.09577E-19 1.86674E-18
 -1      3813 9.57875E-05-2.74772E-05-2.92567E-05-2.16318E-06 1.45743E-19-4.99870E-19
 -1      3814 9.58326E-05-2.73445E-05-2.93400E-05-1.80912E-06 2.58371E-19-5.30426E-19
 -1      3815 9.57262E-05-2.72986E-05-2.92790E-05-2.15380E-06 5.08749E-20-4.97205E-19
 -1      3816 5.91716E-05-1.36536E-05-1.92492E-05-1.49300E-06 5.70839E-19 2.02044E-19
 -1      3817 6.24315E-05-1.52303E-05-2.02524E-05-7.04181E-06 1.00335E-18 2.26317E-21
 -1      3818 6.34275E-05-1.48050E-05-2.07638E-05 2.21313E-06 3.41558E-19-2.24795E-20
 -1      3819 8.65399E-05-2.97457E-05-2.43748E-05-1.96944E-05-2.21810E-19-1.03972E-18
 -1      3820 9.44061E-05-2.72128E-05-2.88011E-05-8.86316E-07 9.78095E-20-1.34882E-18
 -1      3821 9.99154E-05-2.20623E-05-3.28596E-05-3.35156E-06 4.74550E-19-2.48763E-18
 -1      3822 9.43148E-05-2.01296E-05-3.22250E-05-2.45968E-06 1.66548E-19-1.64221E-18
 -1      3823 1.10398E-04-2.57903E-05-3.21565E-05 7.88259E-06-1.00755E-18-5.62218E-18
 -1      3824 9.41933E-05-2.69892E-05-2.88029E-05-9.01933E-07 4.59304E-19-6.67244E-19
 -1      3825 9.55794E-05-2.43668E-05-3.04391E-05 6.59529E-07 5.97370E-19-1.50832E-18
 -1      3826 9.50276E-05-2.38138E-05-3.02356E-05-7.54345E-07 5.93347E-19-1.48836E-18
 -1      3827 9.62590E-05-2.62629E-05-2.95336E-05-2.12733E-06 8.72444E-19-1.44758E-18
 -1      3828 9.64798E-05-2.54475E-05-3.03267E-05 1.04862E-06 5.41691E-19-1.31619E-18
 -1      3829 9.64146E-05-2.55489E-05-3.03246E-05 1.76310E-06 5.57993E-19-5.41181E-19
 -1      3830 9.42946E-05-2.71431E-05-2.84248E-05-9.40155E-08-9.84517E-19-6.42051E-19
 -1      3831 9.41138E-05-2.44613E-05-3.02726E-05 1.44278E-08-8.71597E-19-5.09914E-19
 -1      3832 8.93526E-05-2.72387E-05-2.51074E-05 1.59534E-07-1.33831E-18 9.35971E-19
 -1      3833 9.70077E-05-2.60790E-05-3.02793E-05 1.39273E-06 6.03736E-19-1.28981E-18
 -1      3834 9.68992E-05-2.59449E-05-3.03362E-05 1.42412E-06 5.55468E-19-1.42803E-18
 -1      3835 9.73083E-05-2.60377E-05-3.02462E-05 8.12462E-07 5.83394E-19-1.86691E-18
 -1      3836 9.78577E-05-2.63516E-05-3.03505E-05 1.47015E-06 6.54042E-19-2.15054E-18
 -1      3837 8.66245E-05-2.39963E-05-2.68740E-05 1.20613E-05-1.50679E-18 3.64682E-19
 -1      3838 8.69891E-05-2.50647E-05-2.64856E-05 1.33796E-05-2.03986E-18 3.07630E-19
 -1      3839 8.26469E-05-2.33806E-05-2.53809E-05 1.39504E-05-1.95364E-18 5.90589E-19
 -1      3840 8.93552E-05-1.76336E-05-3.06307E-05-1.09405E-06 7.63177E-19-3.01120E-19
 -1      3841 8.95892E-05-2.17901E-05-2.84392E-05 3.36351E-06 1.42021E-18 1.78512E-18
 -1      3842 8.55883E-05-2.77079E-05-2.50994E-05 6.13793E-06-7.69106E-19 4.64005E-18
 -1      3843 9.48836E-05-2.18078E-05-3.11984E-05-9.88873E-07-2.08900E-19-9.98334E-19
 -1      3844 9.40330E-05-2.68206E-05-2.88080E-05-1.02855E-06 4.38298E-19-5.01121E-19
 -1      3845 9.40841E-05-2.68025E-05-2.88360E-05 1.30715E-06-1.15979E-20-4.98809E-19
 -1      3846 9.61999E-05-2.63055E-05-2.98298E-05-4.88693E-07 2.06147E-19-7.24001E-19
 -1      3847 9.62832E-05-2.55315E-05-3.00913E-05 1.80531E-07 2.26019E-19-1.24421E-18
 -1      3848 9.74892E-05-2.52479E-05-3.04196E-05 9.74336E-07 2.85172E-19-2.28953E-18
 -1      3849 9.19664E-05-2.48137E-05-2.87694E-05-4.26780E-06 3.29184E-19-3.97500E-19
 -1      3850 9.28543E-05-2.54344E-05-2.88912E-05-4.55576E-06 4.39931E-19-1.04051E-19
 -1      3851 9.32067E-05-2.57429E-05-2.89227E-05-4.17976E-06 3.63568E-19-3.34967E-19
 -1      3852 9.11676E-05-2.43242E-05-2.86627E-05-5.80396E-06-9.34683E-20-4.90368E-19
 -1      3853 9.06966E-05-2.39838E-05-2.85778E-05-5.02108E-06 2.22710E-19-5.92030E-19
 -1      3854 9.07219E-05-2.40310E-05-2.85763E-05-6.32770E-06-1.17121E-19-7.20237E-19
 -1      3855 9.93285E-05-3.85212E-05-2.59137E-05 1.78326E-05 5.05665E-19-7.38302E-19
 -1      3856 1.02989E-04-4.26782E-05-2.58079E-05 1.85663E-05 1.70479E-19-1.39999E-19
 -1      3857 6.91626E-05-2.20959E-05-2.01523E-05 1.93629E-05 1.31132E-18 8.29219E-19
 -1      3858 6.21579E-05-1.84581E-05-1.83907E-05 1.74632E-05 1.00707E-18-3.25684E-19
 -1      3859 6.19584E-05-1.64762E-05-1.94858E-05 1.14412E-05 9.11110E-19-4.94694E-19
 -1      3860 9.42111E-05-2.65048E-05-2.90135E-05-4.06946E-06 2.23791E-19 1.08809E-19
 -1      3861 6.91751E-05-1.93371E-05-2.11168E-05 1.54577E-05-1.23616E-18 1.92041E-18
 -1      3862 6.72543E-05-1.75451E-05-2.13135E-05 1.13097E-05-5.12336E-19 5.80006E-19
 -1      3863 7.55432E-05-2.29160E-05-2.25216E-05 1.71514E-05-1.29069E-18 2.45973E-18
 -1      3864 9.49915E-05-2.70037E-05-2.91365E-05-2.73344E-06-1.52984E-19-2.30639E-19
 -1      3865 9.51890E-05-2.71042E-05-2.91814E-05-2.44586E-06-1.03059E-19-2.85146E-19
 -1      3866 9.36424E-05-2.64848E-05-2.87838E-05-1.61950E-07 1.91565E-18 3.16330E-18
 -1      3867 9.36334E-05-2.64786E-05-2.87845E-05 7.19695E-08 1.30843E-18 1.74319E-18
 -1      3868 8.67785E-05-2.81242E-05-2.50643E-05-1.75586E-05-2.28447E-19-1.22236E-18
 -1      3869 8.55887E-05-2.60106E-05-2.55749E-05-1.56258E-05-2.81112E-19-1.23427E-18
 -1      3870 9.45384E-05-1.98442E-05-3.19066E-05-1.73741E-06 3.30131E-19-1.22216E-18
 -1      3871 9.59928E-05-2.70432E-05-2.95335E-05-1.48485E-06 5.00601E-19-4.01944E-19
 -1      3872 8.07246E-05-2.55429E-05-2.36045E-05-1.82835E-05-4.92153E-19-1.89711E-18
 -1      3873 6.70356E-05-2.11000E-05-1.93484E-05-2.04275E-05 1.65971E-18-8.68844E-19
 -1      3874 7.73377E-05-2.74645E-05-2.12863E-05-2.25170E-05 1.40595E-18-2.29408E-18
 -1      3875 7.65897E-05-2.48140E-05-2.22328E-05-1.91851E-05 7.26486E-19-9.93861E-19
 -1      3876 6.63607E-05-1.90123E-05-2.02733E-05-1.54327E-05 2.29410E-18-1.68467E-19
 -1      3877 8.07723E-05-2.51889E-05-2.37429E-05 1.78872E-05-1.30033E-18 1.70861E-18
 -1      3878 8.63873E-05-2.93709E-05-2.44875E-05 1.91497E-05-1.47804E-18 8.61737E-19
 -1      3879 8.18982E-05-2.32480E-05-2.51234E-05-1.41133E-05-3.14046E-19-1.45610E-18
 -1      3880 8.41819E-05-2.21773E-05-2.65548E-05 1.07212E-05-7.85193E-19-2.47185E-19
 -1      3881 9.38529E-05-2.66202E-05-2.88159E-05 1.06796E-06 2.14926E-19 5.95942E-19
 -1      3882 9.36270E-05-2.63408E-05-2.88323E-05 1.38591E-06 5.03996E-19 5.45697E-19
 -1      3883 9.36981E-05-2.64939E-05-2.88050E-05 8.73567E-07 6.88838E-19 1.34072E-18
 -1      3884 9.56485E-05-2.30220E-05-3.31441E-05 2.24201E-06-8.30092E-19-1.17060E-18
 -1      3885 8.96958E-05-3.67833E-05-2.23485E-05 2.61812E-05 1.13701E-18-1.89315E-19
 -1      3886 8.50341E-05-3.29545E-05-2.22807E-05 2.41002E-05 1.04757E-18 1.38549E-19
 -1      3887 9.38315E-05-2.66340E-05-2.87950E-05-8.18340E-07 7.29696E-19 2.53950E-19
 -1      3888 5.84938E-05-1.37953E-05-1.88610E-05-3.04408E-06-1.45048E-19-1.91069E-18
 -1      3889 6.35567E-05-1.56768E-05-2.04550E-05-7.31012E-06-3.73942E-19-1.40126E-18
 -1      3890 5.99446E-05-1.43756E-05-1.94687E-05 1.54699E-06 2.84444E-19-1.42225E-18
 -1      3891 7.12971E-05-2.06116E-05-2.15492E-05-1.63411E-05-8.80557E-19-1.16226E-18
 -1      3892 7.66465E-05-2.37822E-05-2.25820E-05-1.77327E-05-6.50075E-19-1.79969E-18
 -1      3893 7.69243E-05-2.23759E-05-2.34082E-05-1.55560E-05-6.04502E-19-1.99685E-18
 -1      3894 6.87158E-05-1.87690E-05-2.13817E-05-1.33013E-05-6.73821E-19-1.23476E-18
 -1      3895 1.09281E-04-4.79806E-05-2.62471E-05 1.90402E-05-5.55468E-20 1.36597E-19
 -1      3896 9.33546E-05-3.51181E-05-2.49777E-05 1.96609E-05 4.05310E-19-8.24751E-19
 -1      3897 9.46626E-05-2.68197E-05-2.90801E-05-2.98150E-06-4.05970E-20-1.78756E-19
 -1      3898 9.46747E-05-2.66891E-05-2.91329E-05-2.57686E-06-4.54478E-20-1.33837E-19
 -1      3899 9.44150E-05-2.66263E-05-2.90502E-05-3.27672E-06 3.67682E-22-8.71706E-20
 -1      3900 6.57248E-05-1.66588E-05-2.07839E-05-1.07155E-05 1.30375E-18-2.35899E-19
 -1      3901 6.99295E-05-1.94046E-05-2.16546E-05-1.40458E-05 1.27508E-18-7.06081E-20
 -1      3902 6.65392E-05-1.60359E-05-2.16641E-05-6.37358E-06 8.08104E-20-4.86157E-19
 -1      3903 9.79330E-05-2.74585E-05-2.95506E-05-8.22571E-07 1.01030E-18-1.86335E-18
 -1      3904 9.74731E-05-2.76358E-05-2.86363E-05-2.79648E-06 1.18119E-18-1.74425E-18
 -1      3905 9.83356E-05-2.74743E-05-2.96057E-05-4.24503E-07 1.12062E-18-1.91202E-18
 -1      3906 8.94729E-05-2.34748E-05-2.82755E-05-7.50845E-06-3.79979E-19-3.10407E-19
 -1      3907 8.99274E-05-2.36691E-05-2.84159E-05-6.87608E-06-2.34127E-19-3.25416E-19
 -1      3908 8.92221E-05-2.31635E-05-2.82941E-05-5.93990E-06-2.36076E-19-6.37810E-19
 -1      3909 8.75429E-05-2.24623E-05-2.78716E-05-7.10480E-06-3.75546E-19-2.03348E-19
 -1      3910 9.77678E-05-2.98643E-05-2.62206E-05-7.15910E-06 2.35136E-18-3.15943E-19
 -1      3911 9.76199E-05-3.00552E-05-2.62675E-05-7.12272E-06 1.59835E-18-7.58094E-20
 -1      3912 8.95090E-05-3.15735E-05-2.46786E-05-1.63515E-05 3.48046E-18 2.88372E-18
 -1      3913 8.77964E-05-3.23936E-05-2.37556E-05 2.07384E-05 5.00239E-19-8.45269E-19
 -1      3914 7.67393E-05-2.59951E-05-2.14895E-05 2.18461E-05 1.21606E-18 7.28435E-19
 -1      3915 7.34328E-05-2.26275E-05-2.18261E-05 1.73832E-05 1.26540E-18 3.22031E-19
 -1      3916 8.54564E-05-2.91507E-05-2.41951E-05 1.84078E-05 4.74173E-19-6.87672E-19
 -1      3917 9.37458E-05-2.65748E-05-2.87896E-05-6.13217E-07 1.26758E-18 1.09389E-18
 -1      3918 9.36630E-05-2.65024E-05-2.87853E-05-3.90696E-07 1.89180E-18 2.07303E-18
 -1      3919 9.34142E-05-2.62539E-05-2.87807E-05-2.85289E-07 2.26676E-18 2.64787E-18
 -1      3920 9.35165E-05-2.63400E-05-2.87888E-05-7.38869E-07 1.82698E-18 5.67490E-19
 -1      3921 8.58082E-05-2.15765E-05-2.75267E-05-6.19202E-06-4.34432E-19-4.84676E-19
 -1      3922 8.67170E-05-2.19318E-05-2.77918E-05-5.60479E-06-5.98410E-19-4.53648E-19
 -1      3923 1.02858E-04-3.00049E-05-3.19638E-05 2.91862E-06 6.75509E-19-1.67564E-18
 -1      3924 1.02139E-04-2.94203E-05-3.11119E-05 1.76494E-06 5.91970E-19-1.56013E-18
 -1      3925 9.98018E-05-2.85977E-05-3.01191E-05 1.06399E-06 6.51474E-19-1.35239E-18
 -1      3926 9.73597E-05-2.82268E-05-2.95565E-05 2.77654E-07 5.56871E-19-9.60165E-19
 -1      3927 1.02571E-04-3.02541E-05-3.02718E-05-6.00421E-07 9.98334E-19-1.70349E-18
 -1      3928 9.57736E-05-2.65995E-05-2.93833E-05 1.46610E-06 5.46601E-20-9.25539E-19
 -1      3929 9.42760E-05-2.57300E-05-2.91476E-05 1.78520E-06 9.15854E-21-7.49508E-19
 -1      3930 9.38548E-05-2.61367E-05-2.90589E-05 4.15508E-07 1.16255E-19-6.50059E-19
 -1      3931 9.37576E-05-2.54760E-05-2.90248E-05 2.51277E-06 1.50441E-19-9.12109E-19
 -1      3932 9.27157E-05-2.51849E-05-2.87615E-05 2.99216E-06-3.01094E-20-8.14568E-19
 -1      3933 9.28604E-05-2.52586E-05-2.88726E-05 1.84519E-06 1.91112E-20-5.43626E-19
 -1      3934 9.17840E-05-2.49459E-05-2.86561E-05 3.48566E-06 1.78192E-19-6.81354E-19
 -1      3935 9.12954E-05-2.46501E-05-2.85584E-05 3.86679E-06 4.71886E-19-2.24591E-19
 -1      3936 9.16954E-05-2.47886E-05-2.86650E-05 2.77091E-06 4.86871E-19-4.02745E-19
 -1      3937 9.05883E-05-2.43056E-05-2.84215E-05 4.27167E-06-3.55919E-20-5.24300E-19
 -1      3938 9.00858E-05-2.40600E-05-2.82903E-05 4.75383E-06-2.20852E-19-4.51196E-19
 -1      3939 9.03680E-05-2.40406E-05-2.84154E-05 3.43552E-06 2.43290E-19-1.94834E-19
 -1      3940 8.93078E-05-2.37739E-05-2.81047E-05 5.29305E-06-1.81592E-19-6.32231E-19
 -1      3941 8.88307E-05-2.36459E-05-2.79255E-05 5.91508E-06-2.71741E-19-1.06926E-18
 -1      3942 8.88907E-05-2.33337E-05-2.80830E-05 4.32206E-06-4.28345E-19-9.60011E-19
 -1      3943 8.79924E-05-2.34827E-05-2.76714E-05 6.64718E-06-5.51157E-20-1.20775E-18
 -1      3944 8.76093E-05-2.35641E-05-2.74297E-05 7.46557E-06-1.84518E-19-1.32704E-18
 -1      3945 8.72780E-05-2.27749E-05-2.76294E-05 5.52346E-06-1.25638E-19-1.02165E-18
 -1      3946 8.67355E-05-2.36126E-05-2.70842E-05 8.48222E-06-8.98881E-20-1.30652E-18
 -1      3947 8.65641E-05-2.40381E-05-2.67672E-05 9.57570E-06-2.01412E-19-1.21588E-18
 -1      3948 8.55574E-05-2.24996E-05-2.70093E-05 7.19406E-06-2.19265E-20-1.03669E-18
 -1      3949 8.57224E-05-2.44332E-05-2.63036E-05 1.09934E-05-2.91286E-19-9.98509E-19
 -1      3950 8.59355E-05-2.53833E-05-2.59041E-05 1.24683E-05 2.37318E-19-8.16512E-19
 -1      3951 8.38133E-05-2.27298E-05-2.61667E-05 9.57074E-06-1.74705E-20-6.83722E-19
 -1      3952 8.51716E-05-2.61110E-05-2.53617E-05 1.41762E-05 3.97867E-19-1.08552E-18
 -1      3953 8.60600E-05-2.78438E-05-2.48954E-05 1.60999E-05 2.44766E-19-1.00968E-18
 -1      3954 8.08775E-05-2.51003E-05-2.38071E-05 1.65916E-05 7.12909E-19-7.40782E-19
 -1      3955 8.21785E-05-2.35134E-05-2.51097E-05 1.26311E-05 3.15602E-20-2.08584E-19
 -1      3956 8.44986E-05-2.09529E-05-2.72695E-05 6.68696E-06 1.88356E-19-1.74950E-19
 -1      3957 8.36107E-05-2.08091E-05-2.69063E-05 7.53516E-06-8.06651E-19-8.51002E-19
 -1      3958 7.95975E-05-2.19521E-05-2.47167E-05-1.17008E-05 4.00465E-19-1.20330E-18
 -1      3959 8.02495E-05-2.13488E-05-2.53270E-05-9.85856E-06-1.42035E-20-1.33604E-18
 -1      3960 8.19864E-05-2.13592E-05-2.59664E-05-8.37470E-06-2.16289E-19-1.09484E-18
 -1      3961 8.27156E-05-2.11942E-05-2.64209E-05-7.17794E-06-9.15156E-19-1.62438E-18
 -1      3962 7.89952E-05-1.97332E-05-2.53184E-05-7.60434E-06-4.21362E-19-1.27635E-18
 -1      3963 8.40923E-05-2.13630E-05-2.68747E-05-6.15523E-06-1.43086E-18-1.44392E-18
 -1      3964 8.48340E-05-2.14402E-05-2.72070E-05-5.30868E-06-2.21130E-18-1.28166E-18
 -1      3965 8.19763E-05-2.01798E-05-2.64392E-05-5.38697E-06-1.24164E-18-9.36807E-19
 -1      3966 8.59793E-05-2.17363E-05-2.75286E-05-4.59304E-06-2.16159E-18-4.12256E-19
 -1      3967 8.66898E-05-2.19650E-05-2.77664E-05-3.97809E-06-9.39012E-19-2.95795E-19
 -1      3968 8.44299E-05-2.08202E-05-2.72300E-05-3.86984E-06-1.64329E-18 5.23133E-19
 -1      3969 8.76481E-05-2.23337E-05-2.79909E-05-3.46976E-06-6.69288E-20-1.06807E-18
 -1      3970 8.83011E-05-2.26495E-05-2.81562E-05-3.01134E-06 2.16164E-19-1.31339E-18
 -1      3971 8.64891E-05-2.16005E-05-2.77853E-05-2.82327E-06-5.79846E-19 9.84489E-19
 -1      3972 8.91052E-05-2.30515E-05-2.83094E-05-2.64266E-06-4.57455E-20-1.17569E-18
 -1      3973 8.96864E-05-2.34073E-05-2.84201E-05-2.29272E-06 9.39028E-20-8.93746E-19
 -1      3974 8.82190E-05-2.24477E-05-2.81687E-05-2.08152E-06-4.30976E-20 5.25210E-19
 -1      3975 9.03590E-05-2.38132E-05-2.85210E-05-2.02090E-06-3.97303E-19-1.10085E-18
 -1      3976 9.08631E-05-2.41756E-05-2.85916E-05-1.74885E-06-6.30683E-19-1.85525E-18
 -1      3977 8.96727E-05-2.33087E-05-2.84266E-05-1.54492E-06-7.32864E-19 1.32807E-18
 -1      3978 9.14208E-05-2.45635E-05-2.86548E-05-1.54608E-06-4.71362E-19-2.10647E-18
 -1      3979 9.18482E-05-2.49095E-05-2.86966E-05-1.33214E-06-9.72459E-19-2.13736E-18
 -1      3980 9.08865E-05-2.41404E-05-2.85933E-05-1.15072E-06-8.45424E-19-3.45680E-19
 -1      3981 9.23055E-05-2.52652E-05-2.87333E-05-1.17867E-06-5.02386E-19-1.57552E-18
 -1      3982 9.26619E-05-2.55811E-05-2.87550E-05-1.01220E-06 3.53049E-19-8.72132E-19
 -1      3983 9.18894E-05-2.49109E-05-2.86951E-05-8.57365E-07-4.84328E-19 1.16093E-19
 -1      3984 9.29672E-05-2.58361E-05-2.87716E-05-9.35804E-07 1.33373E-18-7.86302E-19
 -1      3985 9.32619E-05-2.61140E-05-2.87809E-05-8.00323E-07 2.07339E-18 6.95845E-19
 -1      3986 9.31926E-05-2.60480E-05-2.87746E-05-5.65828E-07 2.22162E-18 1.42546E-18
 -1      3987 9.26372E-05-2.55403E-05-2.87487E-05-6.74904E-07 1.25284E-18 2.37570E-18
 -1      3988 8.06823E-05-2.07211E-05-2.56730E-05-9.65538E-06 2.56081E-19-1.15594E-18
 -1      3989 8.16855E-05-2.06343E-05-2.62183E-05-8.46292E-06 4.66553E-19-4.38075E-19
 -1      3990 8.20045E-05-2.05644E-05-2.63840E-05 8.45700E-06-6.06897E-19-4.47936E-19
 -1      3991 8.11290E-05-2.07240E-05-2.58649E-05 9.67388E-06-6.01477E-19 1.00818E-19
 -1      3992 8.09433E-05-1.95014E-05-2.62870E-05 6.47750E-06-2.08269E-19-3.65601E-19
 -1      3993 8.34100E-05-2.09417E-05-2.67648E-05-7.58997E-06-5.23618E-20-3.19603E-19
 -1      3994 8.44012E-05-2.11426E-05-2.71490E-05-6.77912E-06-2.48382E-19-2.17393E-19
 -1      3995 8.07670E-05-1.96419E-05-2.61441E-05-6.40015E-06 3.37523E-19-7.10408E-19
 -1      3996 9.50718E-05-2.10866E-05-3.13415E-05-2.73542E-07 3.57342E-19-9.73876E-19
 -1      3997 5.13927E-05-4.78001E-06-2.17905E-05-2.26788E-05-5.92717E-18 5.75347E-18
 -1      3998 4.04143E-05 3.91047E-06-2.49989E-05 3.69954E-05-1.78165E-17 4.92761E-19
 -1      3999 6.63129E-05-2.62385E-05-1.81109E-05-1.75836E-05-3.34239E-18 1.21926E-17
 -1      4000 7.75671E-05-2.11960E-05-2.40964E-05-1.28900E-05-2.30017E-19-1.86625E-18
 -1      4001 7.85057E-05-2.05949E-05-2.48791E-05-1.10493E-05-2.49345E-20-1.70580E-18
 -1      4002 7.68907E-05-1.89439E-05-2.47703E-05-8.30042E-06 4.93313E-19-1.30078E-18
 -1      4003 8.83839E-05-2.24458E-05-2.82782E-05 4.44519E-06 4.96151E-19 1.17546E-18
 -1      4004 8.76711E-05-2.20685E-05-2.81163E-05 4.94876E-06 8.90688E-19 9.03606E-19
 -1      4005 8.98608E-05-2.33077E-05-2.85373E-05 3.64544E-06-7.36689E-20 1.78724E-18
 -1      4006 8.92555E-05-2.29071E-05-2.84369E-05 4.06509E-06 1.19903E-19 1.36858E-18
 -1      4007 8.80572E-05-2.21696E-05-2.82161E-05 3.46410E-06 1.98885E-19 1.89475E-18
 -1      4008 9.10754E-05-2.41483E-05-2.86945E-05 2.97073E-06-9.53244E-19 1.47603E-18
 -1      4009 9.05739E-05-2.37577E-05-2.86372E-05 3.32816E-06-5.78303E-19 1.39531E-18
 -1      4010 8.96220E-05-2.31201E-05-2.84840E-05 2.85922E-06-3.59316E-19 1.98452E-18
 -1      4011 9.20620E-05-2.49261E-05-2.87816E-05 2.39597E-06-5.67235E-19 2.30833E-18
 -1      4012 9.16547E-05-2.45661E-05-2.87535E-05 2.70144E-06-1.06151E-18 1.62383E-18
 -1      4013 9.08989E-05-2.40177E-05-2.86502E-05 2.34331E-06-1.02480E-18 1.44685E-18
 -1      4014 9.28530E-05-2.56211E-05-2.88215E-05 1.90951E-06 1.98334E-20 1.52638E-18
 -1      4015 9.25276E-05-2.53008E-05-2.88125E-05 2.16419E-06 4.49747E-20 2.58706E-18
 -1      4016 9.19305E-05-2.48316E-05-2.87457E-05 1.89758E-06-4.09671E-19 8.39258E-19
 -1      4017 9.33891E-05-2.61296E-05-2.88296E-05 1.52750E-06 9.31634E-19 3.59921E-19
 -1      4018 9.31273E-05-2.58507E-05-2.88310E-05 1.74140E-06 8.82254E-19 2.01327E-18
 -1      4019 9.26494E-05-2.54639E-05-2.87885E-05 1.53146E-06 6.07064E-19 1.08174E-18
 -1      4020 9.31487E-05-2.59385E-05-2.88044E-05 1.25558E-06 1.33411E-18 1.20209E-18
 -1      4021 9.35833E-05-2.64172E-05-2.87873E-05 3.50076E-07 6.36217E-19 1.31118E-18
 -1      4022 9.36553E-05-2.64799E-05-2.87935E-05 5.79095E-07 9.46097E-19 1.10160E-18
 -1      4023 9.33256E-05-2.61253E-05-2.87956E-05 8.12838E-07 7.46221E-19 1.36873E-18
 -1      4024 9.33397E-05-2.61748E-05-2.87816E-05 2.23148E-07 1.95421E-18 2.22840E-18
 -1      4025 8.66076E-05-2.16271E-05-2.78747E-05 5.42540E-06 1.39895E-18 2.16419E-20
 -1      4026 8.57941E-05-2.13281E-05-2.76272E-05 6.05844E-06 1.48138E-18 8.50714E-19
 -1      4027 8.38221E-05-2.03015E-05-2.71890E-05 5.15469E-06 2.49656E-19 1.82906E-20
 -1      4028 8.61460E-05-2.12061E-05-2.78038E-05 4.19689E-06 6.99399E-19 2.37900E-18
 -1      4029 9.87580E-05-4.16920E-05-2.42748E-05 2.33811E-05 3.35399E-19 3.46529E-19
 -1      4030 6.68495E-05-1.56132E-05-2.17611E-05 6.24028E-06-3.52908E-20-6.51822E-19
 -1      4031 6.70619E-05-1.55048E-05-2.21451E-05 1.59408E-06 2.09244E-20-3.25730E-19
 -1      4032 1.25916E-04-3.07444E-05-3.25449E-05 6.02207E-06 4.96287E-18-9.37242E-18
 -1      4033 8.93809E-05-2.05300E-05-3.18601E-05-7.66937E-06 3.20708E-18 1.18881E-18
 -1      4034 8.45489E-05-2.22918E-05-2.98762E-05 9.75572E-06 2.72109E-20 5.23805E-18
 -1      4035 5.16213E-05-2.62799E-06-2.57527E-05 3.81222E-05-4.52316E-18 1.26775E-17
 -1      4036 9.37045E-05-2.60874E-05-2.89762E-05-3.87153E-06 3.50975E-19-1.92024E-19
 -1      4037 9.40035E-05-2.63507E-05-2.90012E-05-3.54514E-06 2.80565E-19-9.19588E-20
 -1      4038 9.39428E-05-2.62197E-05-2.90187E-05-3.08003E-06 1.18277E-19-2.68903E-19
 -1      4039 9.30436E-05-2.55779E-05-2.89062E-05-3.63218E-06 3.81599E-19-3.88826E-19
 -1      4040 9.55185E-05-2.71495E-05-2.92567E-05-2.15128E-06-5.50389E-20-2.64863E-19
 -1      4041 9.57620E-05-2.70970E-05-2.93777E-05-1.77953E-06 1.80511E-19-2.28461E-19
 -1      4042 9.52417E-05-2.69357E-05-2.92712E-05-2.08226E-06-6.22895E-20-7.24107E-20
 -1      4043 9.59087E-05-2.69383E-05-2.94930E-05-1.40194E-06 4.11082E-19-4.54367E-19
 -1      4044 9.60669E-05-2.66901E-05-2.96479E-05-9.85395E-07 5.07346E-19-3.77287E-19
 -1      4045 9.58128E-05-2.63221E-05-2.97125E-05-6.46072E-07 3.14355E-19-5.96916E-19
 -1      4046 9.56290E-05-2.68113E-05-2.94578E-05-1.45115E-06 1.73622E-19-1.72871E-19
 -1      4047 8.37205E-05-2.11676E-05-1.88994E-05 4.64849E-08-4.96700E-18 1.81731E-18
 -1      4048 7.82394E-05-1.74398E-05-2.51293E-05 1.48313E-05-3.46945E-18-3.43472E-19
 -1      4049 7.69368E-05-2.22068E-05-2.35277E-05 1.53056E-05-1.04774E-18 1.72867E-18
 -1      4050 1.07336E-04-3.08115E-05-3.46433E-05 3.79477E-06-3.78793E-18 3.84976E-19
 -1      4051 9.33800E-05-2.10678E-05-3.83945E-05-7.73993E-07-3.38644E-18-3.77692E-18
 -1      4052 9.90872E-05-3.59334E-05-2.98048E-05 2.18688E-05-3.75744E-18-5.55654E-19
 -1      4053 1.03666E-04-2.06475E-05-3.67457E-05 1.23619E-05-1.22396E-19-3.12428E-18
 -1      4054 1.07517E-04-3.00179E-05-3.43196E-05 1.00185E-05 7.40730E-19-3.20348E-18
 -1      4055 1.01944E-04-2.32900E-06-4.13657E-05 1.80550E-05-6.88468E-18-7.23790E-18
 -1      4056 8.63934E-05-2.15924E-05-2.77443E-05-4.30511E-06-3.16701E-19-3.78334E-19
 -1      4057 8.78795E-05-2.24271E-05-2.80522E-05-5.18056E-06-4.59369E-19-3.95373E-19
 -1      4058 8.86837E-05-2.28535E-05-2.82322E-05-4.72612E-06 1.53740E-20-2.32829E-19
 -1      4059 9.43772E-05-2.64428E-05-2.91156E-05-2.31358E-06 4.47838E-20-2.17941E-19
 -1      4060 9.47067E-05-2.66280E-05-2.91803E-05-2.07662E-06-2.39780E-20-2.28261E-19
 -1      4061 9.11675E-05-2.42964E-05-2.86604E-05-3.75627E-06 2.95064E-19-3.92691E-19
 -1      4062 9.17612E-05-2.47152E-05-2.87450E-05-3.44364E-06 3.69637E-19-2.86225E-19
 -1      4063 7.87229E-05-2.96902E-05-2.21424E-05 1.18626E-05-2.49536E-18 9.04292E-18
 -1      4064 8.38580E-05-2.05587E-05-2.70906E-05-5.15412E-06-4.83381E-19-3.73240E-19
 -1      4065 7.57934E-05-2.10739E-05-2.34932E-05-1.28604E-05 7.36642E-19-6.55023E-19
 -1      4066 7.36555E-05-1.85835E-05-2.34698E-05-9.58440E-06 1.07870E-19-1.16835E-18
 -1      4067 9.50555E-05-2.67715E-05-2.92661E-05-1.89515E-06-4.94449E-20-1.73376E-19
 -1      4068 9.52999E-05-2.68262E-05-2.93478E-05-1.64743E-06 3.21510E-20-1.14600E-19
 -1      4069 9.47854E-05-2.65253E-05-2.92494E-05-1.64049E-06 5.14123E-20 3.34884E-20
 -1      4070 6.62664E-05-1.70282E-05-2.10928E-05 9.50874E-06 9.77357E-19 1.33911E-19
 -1      4071 6.22504E-05-1.48534E-05-2.00739E-05 5.99121E-06 6.17811E-19-5.28999E-19
 -1      4072 6.44665E-05-1.51392E-05-2.11204E-05 8.03807E-07 3.94602E-19-8.74370E-19
 -1      4073 7.91534E-05-2.07262E-05-2.51052E-05 1.10803E-05-1.14406E-18 9.20511E-20
 -1      4074 7.84047E-05-2.13900E-05-2.43743E-05 1.28984E-05-8.75813E-19 8.54420E-19
 -1      4075 7.01619E-05-1.61817E-05-2.31566E-05 1.73562E-06-2.33600E-19-1.30867E-19
 -1      4076 6.77334E-05-1.53583E-05-2.22669E-05-1.98029E-06 1.31237E-19-8.98120E-20
 -1      4077 6.93960E-05-1.66219E-05-2.26955E-05-5.62749E-06 3.06742E-19-6.87513E-19
 -1      4078 7.50667E-05-2.21967E-05-2.25994E-05-1.53664E-05 7.62436E-19-7.66677E-19
 -1      4079 7.73939E-05-1.90059E-05-2.49733E-05 8.52576E-06-4.16479E-19 4.97915E-19
 -1      4080 8.96552E-05-2.33639E-05-2.84121E-05-4.39623E-06 2.24384E-19-4.38849E-19
 -1      4081 9.03516E-05-2.38064E-05-2.85338E-05-4.02566E-06 3.03943E-19-5.05130E-19
 -1      4082 8.84993E-05-2.26585E-05-2.81968E-05-3.66968E-06-6.36458E-20-2.64702E-19
 -1      4083 1.11238E-04-3.55654E-05-3.32585E-05 3.14402E-06 1.61116E-18-3.17595E-18
 -1      4084 7.37623E-05-1.95467E-05-2.31790E-05-1.22193E-05-2.28330E-19-1.91482E-18
 -1      4085 9.88378E-05-2.71386E-05-2.99973E-05 7.52900E-07 1.10559E-18-2.33336E-18
 -1      4086 1.00291E-04-2.88677E-05-2.91606E-05-2.72672E-07 1.24471E-18-2.55841E-18
 -1      4087 9.87816E-05-2.66339E-05-3.02548E-05 1.19514E-06 9.99075E-19-2.54872E-18
 -1      4088 9.30870E-05-2.59498E-05-2.87695E-05-6.83004E-09 2.23415E-18 3.31373E-18
 -1      4089 9.30091E-05-2.58885E-05-2.87711E-05 2.80455E-07 1.65343E-18 2.91756E-18
 -1      4090 7.02977E-05-2.81312E-05-1.89997E-05-3.59865E-06-6.50521E-19 1.01305E-17
 -1      4091 9.82660E-05-2.54276E-05-3.02904E-05 2.36409E-07 1.04259E-18-2.60809E-18
 -1      4092 7.08452E-05-1.78501E-05-2.26779E-05 9.60051E-06-5.29531E-19-2.26846E-19
 -1      4093 7.38019E-05-1.92426E-05-2.32694E-05 1.19931E-05-2.73940E-19 1.46078E-18
 -1      4094 6.68627E-05-1.66893E-05-2.13728E-05-9.30424E-06-7.72335E-19-1.08243E-18
 -1      4095 7.09215E-05-1.85119E-05-2.23739E-05-1.11572E-05-7.79403E-19-1.39796E-18
 -1      4096 7.16450E-05-1.76894E-05-2.31560E-05-8.37292E-06-3.31149E-19-1.57187E-18
 -1      4097 6.59156E-05-1.57698E-05-2.15115E-05-5.45563E-06-1.73648E-19-7.34887E-19
 -1      4098 1.00118E-04-3.01705E-05-2.69885E-05-3.79096E-06 3.48554E-18-2.02102E-18
 -1      4099 9.83274E-05-3.32540E-05-2.34932E-05-4.43806E-06 2.28275E-18 6.41627E-19
 -1      4100 1.00018E-04-2.83486E-05-2.79701E-05-1.81302E-06 3.13487E-18-2.77382E-18
 -1      4101 9.02645E-05-2.36976E-05-2.85134E-05-3.15713E-06 2.17558E-19-7.79386E-20
 -1      4102 9.31549E-05-2.60266E-05-2.87724E-05-3.22206E-07 2.15404E-18 2.64916E-18
 -1      4103 9.28290E-05-2.57239E-05-2.87602E-05-2.92031E-07 1.88702E-18 2.76094E-18
 -1      4104 9.39211E-05-2.61755E-05-2.90396E-05-2.49669E-06 2.49419E-19-2.33604E-19
 -1      4105 9.39884E-05-2.61159E-05-2.90818E-05-1.98618E-06 2.75115E-19 7.96715E-20
 -1      4106 9.35084E-05-2.58872E-05-2.89811E-05-2.74309E-06 2.35249E-19-3.42455E-19
 -1      4107 9.17448E-05-2.46522E-05-2.87426E-05-2.72237E-06 3.34708E-19-2.36670E-19
 -1      4108 9.24437E-05-2.51550E-05-2.88389E-05-3.21466E-06 4.36160E-19-2.86709E-19
 -1      4109 9.29437E-05-2.55218E-05-2.89033E-05-2.94251E-06 3.37293E-19-5.65105E-19
 -1      4110 9.78482E-05-2.58178E-05-3.00794E-05-1.24395E-06 2.56234E-19-2.51955E-18
 -1      4111 1.01699E-04-2.45414E-05-3.04093E-05-1.14297E-06 1.46886E-18-4.97907E-18
 -1      4112 9.39424E-05-2.60925E-05-2.90853E-05 1.24206E-06 4.48914E-20-8.81833E-19
 -1      4113 9.34902E-05-2.58300E-05-2.89969E-05 1.42142E-06-1.47755E-20-7.81624E-19
 -1      4114 9.29160E-05-2.55036E-05-2.88993E-05 1.55327E-06-9.53611E-20-4.15318E-19
 -1      4115 9.23715E-05-2.51579E-05-2.88059E-05 1.76340E-06 9.54320E-20-5.93910E-19
 -1      4116 9.30640E-05-2.55073E-05-2.89427E-05 9.38652E-07 1.62422E-19-5.78955E-19
 -1      4117 9.16932E-05-2.47610E-05-2.86950E-05 1.93648E-06 4.25793E-19-3.46945E-19
 -1      4118 9.10576E-05-2.43678E-05-2.85831E-05 2.19282E-06 7.89155E-19-2.05255E-19
 -1      4119 9.18384E-05-2.47587E-05-2.87323E-05 1.21521E-06 3.21921E-19 1.50420E-19
 -1      4120 9.02500E-05-2.39189E-05-2.84434E-05 2.44792E-06 3.37661E-19-6.38851E-19
 -1      4121 8.95453E-05-2.35138E-05-2.82981E-05 2.78813E-06-3.68345E-19-8.20343E-19
 -1      4122 9.03345E-05-2.38352E-05-2.84753E-05 1.59912E-06 2.47705E-19-6.83788E-19
 -1      4123 8.86049E-05-2.30653E-05-2.81107E-05 3.13284E-06-5.18429E-19-8.65732E-19
 -1      4124 8.78296E-05-2.26914E-05-2.79137E-05 3.58700E-06-2.95871E-19-8.96591E-19
 -1      4125 8.86307E-05-2.28779E-05-2.81425E-05 2.11545E-06-2.82569E-19-1.05284E-18
 -1      4126 8.67271E-05-2.22695E-05-2.76557E-05 4.07323E-06-1.18423E-19-7.82826E-19
 -1      4127 8.58891E-05-2.19765E-05-2.73854E-05 4.69842E-06-4.96383E-20-5.53122E-19
 -1      4128 8.66299E-05-2.19035E-05-2.76889E-05 2.84332E-06-1.50310E-19-8.50742E-19
 -1      4129 8.45807E-05-2.16218E-05-2.70270E-05 5.39486E-06-3.02893E-21-3.52905E-19
 -1      4130 8.37019E-05-2.14773E-05-2.66572E-05 6.28152E-06 1.09371E-19-3.02001E-19
 -1      4131 8.42780E-05-2.09759E-05-2.70603E-05 3.88884E-06 1.77927E-20-4.44036E-19
 -1      4132 8.21014E-05-2.12110E-05-2.61555E-05 7.30632E-06 1.75445E-19-3.77960E-19
 -1      4133 8.11980E-05-2.13522E-05-2.56435E-05 8.63626E-06-8.50937E-20-1.86576E-19
 -1      4134 8.14533E-05-2.01579E-05-2.61820E-05 5.40293E-06 5.57702E-20-1.51986E-19
 -1      4135 7.35211E-05-1.77445E-05-2.39330E-05-5.66873E-06 1.82532E-19-5.41861E-19
 -1      4136 1.13994E-04-3.47987E-05-3.29432E-05-3.97512E-06 3.15350E-18-4.34189E-18
 -1      4137 1.02766E-04-2.98945E-05-3.05823E-05-5.84789E-06 2.07269E-18-1.34562E-18
 -1      4138 9.25216E-05-2.54630E-05-2.87437E-05-3.35858E-07 1.12628E-18 2.95681E-18
 -1      4139 8.01588E-05-1.92994E-05-2.61060E-05-3.97669E-06-1.38902E-18-9.11849E-20
 -1      4140 8.15841E-05-1.96569E-05-2.65835E-05-3.17044E-06-1.23399E-18 5.65444E-19
 -1      4141 8.31560E-05-2.01557E-05-2.70091E-05-2.72867E-06-1.46278E-18 1.17576E-18
 -1      4142 8.43076E-05-2.05744E-05-2.73428E-05-2.20108E-06-1.74747E-18 1.71777E-18
 -1      4143 8.18506E-05-1.93765E-05-2.67303E-05-1.35266E-06-6.71742E-19 1.56987E-18
 -1      4144 8.55415E-05-2.10697E-05-2.76372E-05-1.89993E-06-1.35868E-18 2.10224E-18
 -1      4145 8.65004E-05-2.15189E-05-2.78693E-05-1.53288E-06-3.40867E-19 1.76527E-18
 -1      4146 8.45934E-05-2.04662E-05-2.74519E-05-8.02052E-07-1.03848E-18 1.75245E-18
 -1      4147 8.74979E-05-2.20127E-05-2.80705E-05-1.32937E-06-6.48350E-20 2.16525E-18
 -1      4148 8.83017E-05-2.24692E-05-2.82286E-05-1.06881E-06-1.38320E-19 2.08016E-18
 -1      4149 8.67864E-05-2.15219E-05-2.79476E-05-4.39579E-07-9.32832E-19 2.12964E-18
 -1      4150 8.91161E-05-2.29471E-05-2.83629E-05-9.33311E-07-9.33381E-19 1.71946E-18
 -1      4151 8.97887E-05-2.33910E-05-2.84671E-05-7.45365E-07-9.41429E-19 1.35790E-18
 -1      4152 8.85729E-05-2.25389E-05-2.82827E-05-2.08966E-07-1.05351E-18 2.16014E-18
 -1      4153 9.04545E-05-2.38392E-05-2.85536E-05-6.57105E-07-7.31554E-19 1.10440E-18
 -1      4154 9.10129E-05-2.42539E-05-2.86192E-05-5.19903E-07-1.01584E-18 1.70261E-18
 -1      4155 9.00350E-05-2.34962E-05-2.85028E-05-6.85933E-08-8.63446E-19 1.68910E-18
 -1      4156 9.15540E-05-2.46626E-05-2.86717E-05-4.63143E-07-5.35928E-19 1.91766E-18
 -1      4157 9.20153E-05-2.50363E-05-2.87103E-05-3.62314E-07 3.14918E-19 2.46588E-18
 -1      4158 9.12278E-05-2.43716E-05-2.86412E-05 1.13200E-08-2.13329E-19 2.77786E-18
 -1      4159 8.04161E-05-1.90383E-05-2.63465E-05 4.06887E-06 3.69967E-19-1.90976E-19
 -1      4160 7.88109E-05-1.86083E-05-2.57988E-05 4.68140E-06 1.01814E-19 8.10170E-20
 -1      4161 7.86023E-05-1.87678E-05-2.56611E-05-4.43128E-06 4.12224E-19-6.97927E-19
 -1      4162 8.03693E-05-1.92629E-05-2.62359E-05-3.86232E-06 4.65558E-20-6.93789E-19
 -1      4163 9.08375E-05-2.40461E-05-2.86339E-05 1.64368E-06-1.23782E-18 1.86657E-18
 -1      4164 9.02565E-05-2.36093E-05-2.85684E-05 1.84738E-06-3.79218E-19 2.30703E-18
 -1      4165 9.73891E-05-2.87245E-05-1.97788E-05-2.99167E-05 1.37406E-17 3.81504E-18
 -1      4166 1.78495E-06 1.38563E-05-1.80076E-05-5.71655E-05 1.42479E-17 3.28479E-17
 -1      4167 8.79974E-05-2.16497E-05-2.25125E-05-1.95888E-05 1.39659E-17 5.05340E-18
 -1      4168 7.24301E-05-1.75625E-05-2.35977E-05 7.52031E-06 3.61025E-19-6.69689E-19
 -1      4169 8.79284E-05-2.21384E-05-2.82107E-05 2.36178E-06-4.89143E-19 3.67769E-18
 -1      4170 8.70522E-05-2.16439E-05-2.80410E-05 2.62951E-06 1.09931E-19 3.53538E-18
 -1      4171-9.90915E-06 8.97296E-06-1.33849E-05 7.13716E-05-2.72728E-17 2.80563E-17
 -1      4172 8.22484E-05-1.98862E-05-2.67486E-05-3.62874E-06-1.89281E-19-9.12180E-19
 -1      4173 8.36874E-05-2.04243E-05-2.71453E-05-3.26072E-06-3.37584E-19-4.98058E-19
 -1      4174 8.06792E-05-1.90634E-05-2.63184E-05-1.72917E-06 1.22133E-20-7.84412E-19
 -1      4175 7.39811E-05-1.77618E-05-2.40666E-05-5.75630E-06 5.03836E-19-9.78321E-19
 -1      4176 7.61202E-05-1.81599E-05-2.49060E-05-4.91867E-06 7.89623E-19-6.28530E-19
 -1      4177 7.62987E-05-1.76184E-05-2.50440E-05-1.90634E-06 5.59735E-19-3.86929E-19
 -1      4178 7.62353E-05-1.84499E-05-2.48133E-05-5.36431E-06 1.70110E-19-4.17918E-19
 -1      4179 7.80476E-05-1.87040E-05-2.54948E-05-4.18660E-06-4.39474E-19-1.70555E-19
 -1      4180 7.83328E-05-1.82041E-05-2.57001E-05-1.73934E-06-1.16555E-18-5.24955E-19
 -1      4181 7.34577E-05-1.67084E-05-2.42037E-05-1.75729E-06 2.36708E-19 3.86376E-20
 -1      4182 8.94932E-05-2.32625E-05-2.83927E-05-2.37306E-06 2.08228E-19-4.58890E-19
 -1      4183 9.03157E-05-2.37760E-05-2.85286E-05-2.18339E-06 2.80184E-19-3.65830E-19
 -1      4184 7.62863E-05-2.26406E-05-2.29710E-05 1.53132E-05 9.16901E-19 6.97280E-20
 -1      4185 7.03374E-05-1.89601E-05-2.18240E-05 1.30816E-05 1.25199E-18 6.11200E-19
 -1      4186 6.94570E-05-1.75523E-05-2.22939E-05 8.34059E-06 8.83048E-19 2.72599E-19
 -1      4187 7.69682E-05-2.17880E-05-2.37449E-05 1.30838E-05 6.41159E-19-1.42897E-19
 -1      4188 9.30111E-05-2.58564E-05-2.87762E-05 6.06819E-07 8.27260E-19 1.53670E-18
 -1      4189 9.30315E-05-2.58706E-05-2.87874E-05 9.19495E-07 9.99289E-19 1.44348E-18
 -1      4190 9.27961E-05-2.56445E-05-2.87811E-05 1.04181E-06 1.13661E-18 1.18199E-18
 -1      4191 9.27326E-05-2.56205E-05-2.87619E-05 3.68065E-07 1.10459E-18 2.87546E-18
 -1      4192 1.37307E-04-1.69269E-05-2.65524E-05 1.67783E-05 1.33560E-17-1.45283E-17
 -1      4193-4.09562E-05-1.86984E-05-4.02345E-05 2.32213E-05 2.38355E-18 4.52654E-17
 -1      4194 1.01662E-04-2.92373E-05-3.02796E-05-1.13519E-06 9.11725E-19-1.71027E-18
 -1      4195 9.70797E-05-2.66733E-05-2.91819E-05 6.77550E-07 2.58186E-19-1.23598E-18
 -1      4196 9.48799E-05-2.65107E-05-2.94095E-05-2.68153E-06 8.10822E-19-8.13197E-19
 -1      4197 2.51269E-04-5.49628E-05-4.24475E-05 6.16953E-06-6.04019E-18-4.76041E-17
 -1      4198 1.36070E-04-6.19618E-05-3.62342E-05-4.92785E-06 1.36847E-17-1.15332E-17
 -1      4199 1.15366E-04-1.51205E-05-3.48127E-05-1.56558E-05 8.93959E-18 4.06576E-20
 -1      4200 7.45967E-05-1.78955E-05-2.42997E-05 6.78794E-06-3.91679E-19-4.62063E-20
 -1      4201 7.24961E-05-1.66699E-05-2.37951E-05 4.50686E-06-4.42165E-19-9.30302E-19
 -1      4202 7.21266E-05-1.65867E-05-2.38715E-05 1.35847E-06-1.58182E-19-2.67798E-19
 -1      4203 7.66177E-05-1.81672E-05-2.51127E-05 5.69516E-06-6.62116E-19 3.55779E-20
 -1      4204 9.22739E-05-2.52292E-05-2.87277E-05 4.45857E-08 1.09288E-18 3.83073E-18
 -1      4205 9.11439E-05-2.42827E-05-2.86596E-05-2.08846E-06 1.96535E-19-4.03765E-19
 -1      4206 9.18290E-05-2.47359E-05-2.87616E-05-1.91285E-06 1.58717E-19-5.65366E-19
 -1      4207 9.05201E-05-2.38788E-05-2.85550E-05-1.32293E-06 1.94411E-19-4.61640E-19
 -1      4208 9.57878E-05-2.63215E-05-2.97752E-05-7.76020E-07 1.44469E-19-4.67083E-19
 -1      4209 1.04644E-04-4.57072E-05-2.51757E-05 2.17699E-05 6.64391E-20 3.20377E-19
 -1      4210 9.45419E-05-2.63734E-05-2.92185E-05-1.32256E-06-8.07455E-20 1.76532E-20
 -1      4211 9.48949E-05-2.65111E-05-2.93097E-05-1.15366E-06-7.02304E-20-9.30140E-20
 -1      4212 9.22295E-05-2.52010E-05-2.87319E-05 3.94320E-07 8.95634E-19 3.14823E-18
 -1      4213 7.96725E-05-2.12939E-05-2.50841E-05 9.81613E-06-1.03814E-19-6.09640E-20
 -1      4214 7.88249E-05-2.16378E-05-2.44909E-05 1.14143E-05 3.04206E-19-1.47049E-19
 -1      4215 7.51822E-05-1.94564E-05-2.37735E-05 9.94779E-06 4.78948E-19 4.30574E-19
 -1      4216 7.83946E-05-1.97480E-05-2.51262E-05 7.41738E-06-1.73633E-20-1.70669E-19
 -1      4217 9.53643E-05-2.66450E-05-2.94464E-05-1.27321E-06-3.71096E-20-2.67697E-19
 -1      4218 9.55345E-05-2.68164E-05-2.94540E-05-1.45207E-06 4.01638E-21-2.79802E-19
 -1      4219 9.56888E-05-2.67133E-05-2.95609E-05-1.16324E-06 1.08178E-19-3.08463E-19
 -1      4220 1.01637E-04-2.23360E-05-2.84026E-05-5.08862E-06 4.90517E-18-5.11227E-18
 -1      4221 9.54187E-05-3.05110E-05-2.98589E-05-1.34157E-05 5.50953E-18-7.97954E-19
 -1      4222 8.85072E-05-2.27069E-05-2.82158E-05-2.48791E-06-2.08513E-20-3.76886E-19
 -1      4223 8.87198E-05-2.27594E-05-2.82372E-05-1.45127E-06 1.87708E-20-5.59100E-19
 -1      4224 8.75263E-05-2.21636E-05-2.80244E-05-2.70242E-06-2.07724E-19-3.20208E-19
 -1      4225 7.66263E-05-1.76351E-05-2.52172E-05 3.04288E-06-2.92164E-19-6.71562E-19
 -1      4226 6.76957E-05-1.58290E-05-2.22654E-05 2.24276E-06 6.01785E-19 5.45741E-20
 -1      4227 6.64517E-05-1.53906E-05-2.17783E-05-1.75433E-06 1.58476E-19-6.41029E-19
 -1      4228 6.92210E-05-1.63106E-05-2.26185E-05-3.67570E-06-4.08991E-20-4.45033E-19
 -1      4229 9.36421E-05-2.58863E-05-2.90416E-05-1.57260E-06 6.20717E-19-2.13257E-19
 -1      4230 9.41013E-05-2.61551E-05-2.91240E-05-1.41305E-06 2.31381E-19-6.03165E-21
 -1      4231 9.42462E-05-2.61386E-05-2.91805E-05-9.16766E-07 1.06116E-19-3.70841E-19
 -1      4232 8.95343E-05-2.31285E-05-2.84711E-05 1.98213E-06-7.33558E-20 3.00701E-18
 -1      4233 8.88185E-05-2.26553E-05-2.83626E-05 2.21348E-06-2.21908E-19 3.33503E-18
 -1      4234 9.18910E-05-2.48691E-05-2.87295E-05 1.34225E-06-2.07950E-19 2.22649E-18
 -1      4235 9.14222E-05-2.44821E-05-2.86930E-05 1.52258E-06-1.20887E-18 1.58362E-18
 -1      4236 9.08982E-05-2.40821E-05-2.86232E-05 1.05624E-06-9.71478E-19 3.19532E-18
 -1      4237 8.39540E-05-2.03564E-05-2.71933E-05-1.63666E-06-1.47554E-19-4.11373E-19
 -1      4238 8.51557E-05-2.10254E-05-2.75007E-05-3.09842E-06-3.21045E-19-5.19961E-19
 -1      4239 8.63345E-05-2.15771E-05-2.77754E-05-2.83267E-06-1.38788E-19-4.60135E-19
 -1      4240 8.80204E-05-2.21471E-05-2.82107E-05 1.43300E-06-3.80068E-19 4.05788E-18
 -1      4241 8.96093E-05-2.31566E-05-2.84638E-05 1.24277E-06-2.14656E-19 4.31392E-18
 -1      4242 9.40829E-05-2.60697E-05-2.91396E-05 7.32948E-07 6.28978E-20-1.09700E-18
 -1      4243 7.14207E-05-1.67906E-05-2.33533E-05-4.63724E-06 2.95730E-19-7.98587E-19
 -1      4244 9.56995E-05-2.62375E-05-2.97667E-05-7.10446E-07 2.04803E-20-5.18183E-19
 -1      4245 9.15837E-05-2.46569E-05-2.86859E-05 4.87155E-07-8.45614E-20 2.91932E-18
 -1      4246 9.21250E-05-2.50739E-05-2.87290E-05 8.32035E-07 7.89466E-19 2.02111E-18
 -1      4247 9.20167E-05-2.48821E-05-2.87849E-05 4.22348E-07 4.66836E-19-7.55878E-21
 -1      4248 9.13189E-05-2.44441E-05-2.86695E-05 5.81306E-07 3.36555E-19 2.96325E-20
 -1      4249 9.02795E-05-2.38021E-05-2.85040E-05 4.15865E-08 2.52001E-20-1.55658E-19
 -1      4250 8.94305E-05-2.33015E-05-2.83553E-05 2.00410E-07 6.17904E-21-5.83532E-19
 -1      4251 8.84264E-05-2.27557E-05-2.81732E-05 2.11112E-07-1.68174E-19-6.22977E-19
 -1      4252 8.74447E-05-2.22231E-05-2.79743E-05 4.44926E-07-2.34961E-19-4.08284E-19
 -1      4253 8.62350E-05-2.16499E-05-2.77203E-05 4.84206E-07-2.95489E-19-5.32339E-19
 -1      4254 8.50774E-05-2.11104E-05-2.74455E-05 8.24917E-07-3.92778E-20-4.41085E-19
 -1      4255 8.35882E-05-2.05224E-05-2.70858E-05 9.01955E-07 9.76061E-20-6.44826E-19
 -1      4256 8.22013E-05-1.99961E-05-2.67018E-05 1.39719E-06-3.36600E-20-5.18879E-19
 -1      4257 8.03131E-05-1.93892E-05-2.61874E-05 1.53410E-06 8.88715E-20-4.75032E-19
 -1      4258 7.86378E-05-1.89083E-05-2.56489E-05 2.26174E-06 1.33639E-20-4.53242E-19
 -1      4259 8.09903E-05-1.90682E-05-2.65616E-05 2.92212E-07-5.70492E-19 4.64592E-19
 -1      4260 8.25486E-05-1.96186E-05-2.69920E-05 4.89007E-07-2.25479E-19 1.39123E-18
 -1      4261 9.29784E-05-2.54743E-05-2.89216E-05-2.33884E-06 3.90999E-19-3.87382E-19
 -1      4262 9.25280E-05-2.54013E-05-2.87706E-05 1.17250E-06 7.48497E-19 1.15602E-18
 -1      4263 8.63592E-05-2.13063E-05-2.78922E-05 5.03118E-07-1.55683E-18 2.82781E-18
 -1      4264 8.73577E-05-2.18358E-05-2.80930E-05 5.82396E-07-3.31519E-19 3.04598E-18
 -1      4265 8.82481E-05-2.23529E-05-2.82502E-05 5.42864E-07-3.15523E-19 2.62736E-18
 -1      4266 8.90629E-05-2.28550E-05-2.83837E-05 5.83820E-07-1.03473E-18 3.11359E-18
 -1      4267 8.97850E-05-2.33370E-05-2.84852E-05 5.31751E-07-1.21883E-18 3.44422E-18
 -1      4268 9.04506E-05-2.38008E-05-2.85708E-05 5.47361E-07-5.07626E-19 3.40141E-18
 -1      4269 9.10354E-05-2.42408E-05-2.86332E-05 4.87677E-07-4.36554E-19 2.68432E-18
 -1      4270 8.21160E-05-1.95675E-05-2.68191E-05 3.87725E-06-8.00698E-20-2.98191E-19
 -1      4271 8.04364E-05-1.87423E-05-2.63887E-05 2.19261E-06 8.69491E-21 6.05586E-19
 -1      4272 7.72202E-05-1.78781E-05-2.54833E-05 2.70746E-07-4.12194E-19-8.34635E-19
 -1      4273 7.50634E-05-1.72826E-05-2.47682E-05 9.07612E-07-5.79122E-19-9.06395E-19
 -1      4274 9.50045E-05-2.64201E-05-2.93863E-05-7.49912E-07-2.85938E-19-4.22642E-19
 -1      4275 9.52078E-05-2.65773E-05-2.94175E-05-1.05951E-06-1.81320E-19-3.20677E-19
 -1      4276 9.54462E-05-2.65554E-05-2.95286E-05-8.60916E-07-1.46686E-19-4.22127E-19
 -1      4277 7.62985E-05-1.82574E-05-2.49240E-05 2.51618E-06 3.67771E-19-2.84914E-19
 -1      4278 8.34305E-05-2.00339E-05-2.71992E-05 3.43031E-06-6.95046E-19 7.62887E-19
 -1      4279 9.41287E-05-2.61032E-05-2.91614E-05-1.44676E-07 1.91442E-19-6.67753E-19
 -1      4280 9.36571E-05-2.58510E-05-2.90624E-05-8.25753E-08 2.27820E-19-5.33529E-19
 -1      4281 8.59524E-05-2.11061E-05-2.78119E-05 2.79862E-06-1.06744E-19 2.41040E-18
 -1      4282 8.48886E-05-2.06085E-05-2.75574E-05 3.12102E-06-1.99245E-19 1.41063E-18
 -1      4283 1.20437E-04-3.32168E-05-2.78056E-05-4.54660E-06 1.17229E-18-1.46367E-18
 -1      4284 1.05316E-04-2.03714E-05-3.09125E-05-2.01074E-05 4.87213E-18-9.73453E-18
 -1      4285 9.95220E-05-1.68881E-05-2.82162E-05-1.20410E-05 7.60297E-18-6.21468E-18
 -1      4286 8.60607E-05-2.10722E-05-2.78251E-05 1.62669E-06-5.33571E-19 2.44748E-18
 -1      4287 9.31707E-05-2.55764E-05-2.89782E-05 8.75187E-08 3.21820E-19-4.86947E-19
 -1      4288 9.25986E-05-2.52215E-05-2.88780E-05 1.77503E-07 5.34479E-19-2.94093E-19
 -1      4289 9.22322E-05-2.49562E-05-2.88254E-05-4.74835E-07 6.77566E-19-2.02704E-19
 -1      4290 9.33055E-05-2.56229E-05-2.90019E-05-8.49575E-07 5.60622E-19-3.49863E-19
 -1      4291 9.49232E-05-2.64106E-05-2.93700E-05-1.47904E-07-4.11340E-19-5.79914E-19
 -1      4292 9.45687E-05-2.63012E-05-2.92605E-05-9.04447E-08-1.90914E-19-6.96891E-19
 -1      4293 1.06129E-04-1.52714E-05-2.66440E-05-3.28287E-05 1.50230E-17-5.05170E-18
 -1      4294 7.17248E-05-1.65249E-05-2.35811E-05-1.06077E-06 6.74596E-19 1.46812E-20
 -1      4295 9.54570E-05-2.63753E-05-2.96113E-05-1.33445E-07-3.08728E-19-8.61672E-19
 -1      4296 9.52349E-05-2.64464E-05-2.94827E-05-7.58086E-08-4.57038E-19-7.70534E-19
 -1      4297 7.93068E-05-1.85042E-05-2.60848E-05 1.72859E-07-9.38133E-19-3.44904E-19
 -1      4298 8.35525E-05-1.99276E-05-2.72330E-05 1.92934E-06-6.96924E-19 1.05819E-18
 -1      4299 8.40155E-05-2.02135E-05-2.73622E-05 3.89381E-07-7.23533E-19 1.14532E-18
 -1      4300 8.52556E-05-2.07632E-05-2.76566E-05 5.26562E-07-1.03505E-18 1.74704E-18
 -1      4301 9.25155E-05-2.51746E-05-2.88645E-05-1.82397E-06 3.85897E-19-2.83272E-19
 -1      4302 9.30831E-05-2.55469E-05-2.89492E-05-1.66223E-06 7.74213E-19-1.24048E-19
 -1      4303 8.65715E-05-2.15885E-05-2.78048E-05-1.54824E-06-2.30086E-19-3.81989E-19
 -1      4304 6.90927E-05-1.62355E-05-2.25433E-05 4.34356E-06 6.50793E-19 2.37087E-20
 -1      4305 7.02255E-05-1.63771E-05-2.31222E-05 1.99644E-06 5.01925E-19 3.67136E-20
 -1      4306 7.22834E-05-1.68645E-05-2.38093E-05 1.03159E-06 8.36776E-19-6.77858E-20
 -1      4307 7.21045E-05-1.81213E-05-2.31565E-05 7.70820E-06 6.42451E-19 2.30462E-19
 -1      4308 2.51126E-04-3.24144E-05-3.02464E-05-1.48229E-05 1.32192E-17-4.91059E-17
 -1      4309 9.55084E-05-2.62887E-05-2.96580E-05-4.42285E-07-1.15195E-19-6.37088E-19
 -1      4310 9.20182E-05-2.48174E-05-2.87912E-05-1.21569E-06 4.88078E-19-2.75885E-19
 -1      4311 6.25194E-06-2.98162E-05-4.03440E-05-3.78858E-05 7.91552E-18 2.53974E-17
 -1      4312 1.55181E-04-2.21782E-05-3.72179E-05-3.29380E-05-1.40709E-17-1.71982E-17
 -1      4313 1.25604E-04-4.30750E-05-3.34280E-05-2.31460E-05 8.62555E-18-1.46850E-17
 -1      4314 7.59563E-05-1.84167E-05-2.45909E-05 5.36493E-06 1.55449E-19-2.94228E-19
 -1      4315 9.06792E-05-2.39763E-05-2.85758E-05-7.81224E-07 1.73405E-19-3.95714E-19
 -1      4316 1.08956E-04-2.98303E-05-3.02021E-05-2.90578E-06 3.27463E-18-5.57581E-18
 -1      4317 9.56381E-05-2.63612E-05-2.96914E-05-6.52554E-07 2.59942E-21-5.46922E-19
 -1      4318 7.42598E-05-1.83185E-05-2.39692E-05 6.41986E-06 2.00906E-19 4.13665E-20
 -1      4319 9.32516E-05-2.55982E-05-2.89899E-05-1.08133E-06 6.87079E-19-1.61156E-19
 -1      4320 9.14992E-05-2.45110E-05-2.87083E-05-7.48170E-07 5.11378E-19-3.31233E-19
 -1      4321 9.21709E-05-2.49400E-05-2.88143E-05-7.15460E-07 6.94917E-19-1.93951E-19
 -1      4322 9.27450E-05-2.53016E-05-2.89069E-05-9.15119E-07 6.67554E-19-9.60737E-20
 -1      4323 2.11495E-04-4.14126E-05-3.42634E-05-2.20630E-05-5.99361E-18-3.19298E-17
 -1      4324 1.24230E-04-1.08057E-05-2.93844E-05-2.29017E-05 5.49386E-18-1.67645E-17
 -1      4325 1.98334E-04-6.32983E-05-3.21115E-05-7.63624E-05 1.83840E-17-2.21990E-17
 -1      4326 1.10343E-04-2.16352E-05-2.52184E-05-4.99900E-05 2.23841E-17-2.18873E-18
 -3
    1PSTEP                         4           1           1          
  100CL  101 1.000000000        4326                     0    1           1
 -4  ERROR       1    1
 -5  STR(%)      1    1    0    0
 -1         1 1.60255E+01
 -1         2 2.55223E+01
 -1         3 8.67053E-03
 -1         4 9.85553E-03
 -1         5 1.39071E+01
 -1         6 1.33834E+01
 -1         7 1.33834E+01
 -1         8 3.62719E+00
 -1         9 1.73786E+00
 -1        10 1.27190E+00
 -1        11 1.04125E+00
 -1        12 9.28574E-01
 -1        13 8.61309E-01
 -1        14 7.86568E-01
 -1        15 6.90423E-01
 -1        16 8.10885E-01
 -1        17 9.54007E-01
 -1        18 1.12838E+00
 -1        19 1.37755E+00
 -1        20 1.86492E+00
 -1        21 3.48466E+00
 -1        22 8.52287E+00
 -1        23 1.33834E+01
 -1        24 4.43164E+00
 -1        25 6.09989E+00
 -1        26 1.11795E+01
 -1        27 1.23548E+01
 -1        28 8.98227E+00
 -1        29 1.19846E+00
 -1        30 6.73004E-01
 -1        31 6.02667E-01
 -1        32 6.14513E-01
 -1        33 8.69172E-01
 -1        34 8.69172E-01
 -1        35 4.53913E-01
 -1        36 4.99097E-01
 -1        37 5.34259E-01
 -1        38 6.77002E-01
 -1        39 8.50477E-01
 -1        40 9.99659E-01
 -1        41 1.07269E+00
 -1        42 1.07269E+00
 -1        43 1.10528E+00
 -1        44 1.10528E+00
 -1        45 1.45934E+00
 -1        46 2.29140E+00
 -1        47 3.18617E+00
 -1        48 3.33627E+00
 -1        49 3.37899E+00
 -1        50 3.37899E+00
 -1        51 2.84121E+00
 -1        52 1.74776E+00
 -1        53 1.31324E+00
 -1        54 1.09006E+00
 -1        55 1.09006E+00
 -1        56 1.03992E+00
 -1        57 1.03582E+00
 -1        58 9.17154E-01
 -1        59 7.50560E-01
 -1        60 5.99206E-01
 -1        61 4.65941E-01
 -1        62 4.03568E-01
 -1        63 3.37834E-01
 -1        64 2.73033E-01
 -1        65 2.14074E-01
 -1        66 1.63126E-01
 -1        67 1.20487E-01
 -1        68 1.03898E-01
 -1        69 8.58233E-02
 -1        70 6.30976E-02
 -1        71 3.18022E-02
 -1        72 1.39071E+01
 -1        73 3.33427E+00
 -1        74 2.32743E+00
 -1        75 1.59232E+00
 -1        76 1.10832E+00
 -1        77 8.95644E-01
 -1        78 7.80603E-01
 -1        79 7.00649E-01
 -1        80 6.35189E-01
 -1        81 5.78747E-01
 -1        82 5.31686E-01
 -1        83 4.82037E-01
 -1        84 5.21102E-01
 -1        85 6.04271E-01
 -1        86 6.90777E-01
 -1        87 7.64401E-01
 -1        88 7.98726E-01
 -1        89 8.91713E-01
 -1        90 1.16547E+00
 -1        91 1.37767E+00
 -1        92 1.51758E+00
 -1        93 1.83762E+00
 -1        94 1.83762E+00
 -1        95 2.33760E+00
 -1        96 3.39329E+00
 -1        97 4.12694E+00
 -1        98 4.69516E+00
 -1        99 4.69516E+00
 -1       100 3.95941E+00
 -1       101 2.24513E+00
 -1       102 1.44983E+00
 -1       103 1.47501E+00
 -1       104 1.64604E+00
 -1       105 1.64604E+00
 -1       106 1.55552E+00
 -1       107 1.33891E+00
 -1       108 1.12389E+00
 -1       109 9.09995E-01
 -1       110 7.07489E-01
 -1       111 5.30875E-01
 -1       112 3.90138E-01
 -1       113 3.04182E-01
 -1       114 2.31698E-01
 -1       115 1.72483E-01
 -1       116 1.25006E-01
 -1       117 8.69757E-02
 -1       118 6.37441E-02
 -1       119 4.93914E-02
 -1       120 2.70932E-02
 -1       121 9.86397E-03
 -1       122 1.15306E-02
 -1       123 1.15306E-02
 -1       124 8.09199E-03
 -1       125 3.96978E-03
 -1       126 8.06036E-03
 -1       127 1.09043E-02
 -1       128 1.17353E-02
 -1       129 1.17353E-02
 -1       130 1.07803E-02
 -1       131 7.81828E-03
 -1       132 3.91400E-03
 -1       133 8.00223E-03
 -1       134 1.10757E-02
 -1       135 1.29100E-02
 -1       136 1.42041E-02
 -1       137 2.55223E+01
 -1       138 4.84817E+01
 -1       139 4.84817E+01
 -1       140 2.10981E+01
 -1       141 1.27736E+01
 -1       142 1.27736E+01
 -1       143 1.22826E+01
 -1       144 1.36827E+01
 -1       145 1.36827E+01
 -1       146 1.91641E+01
 -1       147 4.73147E+01
 -1       148 4.73147E+01
 -1       149 2.45956E+01
 -1       150 2.54013E+01
 -1       151 2.57059E+01
 -1       152 4.77490E+01
 -1       153 4.77490E+01
 -1       154 2.06509E+01
 -1       155 1.19265E+01
 -1       156 1.21600E+01
 -1       157 1.21600E+01
 -1       158 1.19963E+01
 -1       159 1.19963E+01
 -1       160 4.20598E+01
 -1       161 4.20598E+01
 -1       162 2.48153E+01
 -1       163 6.07550E+00
 -1       164 2.23060E+00
 -1       165 1.48526E+00
 -1       166 1.15512E+00
 -1       167 9.98825E-01
 -1       168 9.12758E-01
 -1       169 8.44328E-01
 -1       170 7.59218E-01
 -1       171 7.44362E-01
 -1       172 8.79610E-01
 -1       173 1.03904E+00
 -1       174 1.24638E+00
 -1       175 1.59574E+00
 -1       176 2.30807E+00
 -1       177 3.90598E+00
 -1       178 1.39071E+01
 -1       179 4.43164E+00
 -1       180 3.89333E+00
 -1       181 1.11795E+01
 -1       182 1.23548E+01
 -1       183 1.23548E+01
 -1       184 1.94019E+00
 -1       185 6.73004E-01
 -1       186 5.68985E-01
 -1       187 6.02667E-01
 -1       188 6.14513E-01
 -1       189 8.69172E-01
 -1       190 4.08770E-01
 -1       191 4.53913E-01
 -1       192 4.99097E-01
 -1       193 5.81186E-01
 -1       194 6.98795E-01
 -1       195 8.50477E-01
 -1       196 9.99659E-01
 -1       197 1.07269E+00
 -1       198 1.02639E+00
 -1       199 1.10528E+00
 -1       200 1.08602E+00
 -1       201 1.45934E+00
 -1       202 2.29140E+00
 -1       203 3.18617E+00
 -1       204 3.33627E+00
 -1       205 3.37899E+00
 -1       206 2.84121E+00
 -1       207 1.84912E+00
 -1       208 1.31324E+00
 -1       209 1.04357E+00
 -1       210 1.09006E+00
 -1       211 1.03992E+00
 -1       212 1.03582E+00
 -1       213 9.17154E-01
 -1       214 7.54397E-01
 -1       215 6.37777E-01
 -1       216 5.48092E-01
 -1       217 4.46760E-01
 -1       218 3.47994E-01
 -1       219 2.73033E-01
 -1       220 2.14074E-01
 -1       221 1.67584E-01
 -1       222 1.28498E-01
 -1       223 1.03898E-01
 -1       224 8.58233E-02
 -1       225 6.30976E-02
 -1       226 3.58439E-02
 -1       227 3.33427E+00
 -1       228 2.32743E+00
 -1       229 1.59232E+00
 -1       230 1.10832E+00
 -1       231 8.95644E-01
 -1       232 7.80603E-01
 -1       233 7.00649E-01
 -1       234 6.35189E-01
 -1       235 5.78747E-01
 -1       236 5.31686E-01
 -1       237 4.82037E-01
 -1       238 4.67329E-01
 -1       239 5.21102E-01
 -1       240 6.04271E-01
 -1       241 6.90777E-01
 -1       242 7.64401E-01
 -1       243 7.98726E-01
 -1       244 9.81492E-01
 -1       245 1.16547E+00
 -1       246 1.37767E+00
 -1       247 1.51758E+00
 -1       248 1.83762E+00
 -1       249 1.81917E+00
 -1       250 2.33760E+00
 -1       251 3.39329E+00
 -1       252 4.12694E+00
 -1       253 4.69516E+00
 -1       254 3.95941E+00
 -1       255 2.24513E+00
 -1       256 1.44983E+00
 -1       257 1.34319E+00
 -1       258 1.47501E+00
 -1       259 1.64604E+00
 -1       260 1.55552E+00
 -1       261 1.33891E+00
 -1       262 1.12389E+00
 -1       263 9.25973E-01
 -1       264 7.40398E-01
 -1       265 5.70924E-01
 -1       266 4.26073E-01
 -1       267 3.08990E-01
 -1       268 2.31698E-01
 -1       269 1.72483E-01
 -1       270 1.25669E-01
 -1       271 9.02971E-02
 -1       272 6.37441E-02
 -1       273 4.93914E-02
 -1       274 2.70932E-02
 -1       275 1.69547E-02
 -1       276 1.98686E-02
 -1       277 1.98686E-02
 -1       278 1.18370E-02
 -1       279 1.58116E-02
 -1       280 2.15377E-02
 -1       281 2.38113E-02
 -1       282 2.38113E-02
 -1       283 2.37326E-02
 -1       284 2.10770E-02
 -1       285 1.54370E-02
 -1       286 1.15249E-02
 -1       287 1.97248E-02
 -1       288 1.97248E-02
 -1       289 2.16902E-02
 -1       290 3.30374E+01
 -1       291 2.98190E+01
 -1       292 4.84817E+01
 -1       293 2.33848E+01
 -1       294 1.12458E+01
 -1       295 1.27736E+01
 -1       296 1.22826E+01
 -1       297 1.20400E+01
 -1       298 1.36827E+01
 -1       299 1.16948E+01
 -1       300 2.12210E+01
 -1       301 4.73147E+01
 -1       302 2.82496E+01
 -1       303 2.96264E+01
 -1       304 2.96264E+01
 -1       305 2.83422E+01
 -1       306 4.77490E+01
 -1       307 2.21380E+01
 -1       308 1.19128E+01
 -1       309 1.19265E+01
 -1       310 1.21600E+01
 -1       311 1.16072E+01
 -1       312 1.19963E+01
 -1       313 1.19780E+01
 -1       314 1.60255E+01
 -1       315 4.20598E+01
 -1       316 3.79933E+01
 -1       317 3.30374E+01
 -1       318 9.76731E-01
 -1       319 2.48129E+00
 -1       320 7.75744E-01
 -1       321 7.23399E-01
 -1       322 7.01699E-01
 -1       323 6.54172E-01
 -1       324 5.54210E-01
 -1       325 6.58701E-01
 -1       326 7.75454E-01
 -1       327 8.77557E-01
 -1       328 1.00069E+00
 -1       329 1.19047E+00
 -1       330 1.34177E+00
 -1       331 2.12457E+00
 -1       332 1.83883E+00
 -1       333 2.26226E+00
 -1       334 7.28731E+00
 -1       335 1.12022E+01
 -1       336 3.31999E+00
 -1       337 7.44823E-01
 -1       338 2.08876E-01
 -1       339 3.10007E-01
 -1       340 3.43529E-01
 -1       341 2.79992E-01
 -1       342 3.52940E-01
 -1       343 3.68854E-01
 -1       344 4.06076E-01
 -1       345 5.07303E-01
 -1       346 5.92834E-01
 -1       347 6.83963E-01
 -1       348 7.73801E-01
 -1       349 7.99558E-01
 -1       350 7.13374E-01
 -1       351 5.74362E-01
 -1       352 5.79568E-01
 -1       353 1.01923E+00
 -1       354 1.48352E+00
 -1       355 1.93215E+00
 -1       356 2.11589E+00
 -1       357 2.04472E+00
 -1       358 2.08375E+00
 -1       359 1.71128E+00
 -1       360 1.29986E+00
 -1       361 7.64059E-01
 -1       362 5.80435E-01
 -1       363 5.95823E-01
 -1       364 7.64371E-01
 -1       365 7.92454E-01
 -1       366 7.33601E-01
 -1       367 6.53514E-01
 -1       368 5.81202E-01
 -1       369 4.99746E-01
 -1       370 4.10367E-01
 -1       371 3.23949E-01
 -1       372 2.46628E-01
 -1       373 1.81143E-01
 -1       374 1.28498E-01
 -1       375 9.55831E-02
 -1       376 6.82115E-02
 -1       377 4.99036E-02
 -1       378 3.33496E-02
 -1       379 1.09152E+00
 -1       380 8.64243E-01
 -1       381 6.93570E-01
 -1       382 5.41399E-01
 -1       383 4.82686E-01
 -1       384 4.57043E-01
 -1       385 4.29146E-01
 -1       386 4.02651E-01
 -1       387 3.82530E-01
 -1       388 3.87170E-01
 -1       389 4.85845E-01
 -1       390 6.49351E-01
 -1       391 8.18394E-01
 -1       392 9.73976E-01
 -1       393 1.10552E+00
 -1       394 1.19750E+00
 -1       395 1.19750E+00
 -1       396 1.15442E+00
 -1       397 8.92900E-01
 -1       398 8.53690E-01
 -1       399 1.50067E+00
 -1       400 2.17067E+00
 -1       401 2.59386E+00
 -1       402 2.32534E+00
 -1       403 2.53068E+00
 -1       404 2.48185E+00
 -1       405 1.65923E+00
 -1       406 9.27984E-01
 -1       407 9.00076E-01
 -1       408 1.15643E+00
 -1       409 1.19618E+00
 -1       410 1.20976E+00
 -1       411 1.10939E+00
 -1       412 9.93665E-01
 -1       413 8.51060E-01
 -1       414 6.95566E-01
 -1       415 5.47601E-01
 -1       416 4.17510E-01
 -1       417 3.08990E-01
 -1       418 2.23622E-01
 -1       419 1.69621E-01
 -1       420 1.25669E-01
 -1       421 9.02971E-02
 -1       422 6.16011E-02
 -1       423 3.98888E-02
 -1       424 2.15130E-02
 -1       425 2.30391E-02
 -1       426 3.34462E-02
 -1       427 3.34462E-02
 -1       428 2.22652E-02
 -1       429 3.11333E-02
 -1       430 3.52860E-02
 -1       431 3.52860E-02
 -1       432 3.48184E-02
 -1       433 3.48184E-02
 -1       434 3.03808E-02
 -1       435 2.13165E-02
 -1       436 2.29931E-02
 -1       437 3.10973E-02
 -1       438 2.98190E+01
 -1       439 3.30374E+01
 -1       440 3.21845E+01
 -1       441 1.71863E+01
 -1       442 1.00732E+01
 -1       443 8.94089E-01
 -1       444 1.07427E+01
 -1       445 1.13884E+01
 -1       446 1.11425E+01
 -1       447 7.14630E+00
 -1       448 8.47134E+00
 -1       449 1.62062E+01
 -1       450 2.82496E+01
 -1       451 2.97795E+01
 -1       452 3.41976E+01
 -1       453 3.41976E+01
 -1       454 2.83422E+01
 -1       455 1.71935E+01
 -1       456 9.59890E+00
 -1       457 7.77115E+00
 -1       458 9.47977E+00
 -1       459 1.09769E+01
 -1       460 1.03436E+01
 -1       461 8.22857E+00
 -1       462 7.09732E+00
 -1       463 1.40906E+01
 -1       464 2.57138E+01
 -1       465 2.78283E+01
 -1       466 7.68071E+00
 -1       467 1.41962E+01
 -1       468 4.64812E+00
 -1       469 4.29271E+00
 -1       470 2.37672E+01
 -1       471 1.00346E+00
 -1       472 1.06305E+00
 -1       473 6.11690E-01
 -1       474 7.80869E-01
 -1       475 7.39605E-01
 -1       476 6.47367E-01
 -1       477 6.47367E-01
 -1       478 6.33585E-01
 -1       479 6.66118E-01
 -1       480 8.64243E-01
 -1       481 9.37060E-01
 -1       482 5.96091E+00
 -1       483 1.77065E+00
 -1       484 4.37190E+00
 -1       485 1.70085E+00
 -1       486 5.32993E-01
 -1       487 2.23321E-01
 -1       488 2.22162E-01
 -1       489 2.53090E-01
 -1       490 1.96473E-01
 -1       491 3.68854E-01
 -1       492 3.68854E-01
 -1       493 4.43340E-01
 -1       494 5.40419E-01
 -1       495 6.21915E-01
 -1       496 6.88091E-01
 -1       497 7.81352E-01
 -1       498 8.34578E-01
 -1       499 8.22355E-01
 -1       500 1.02898E+00
 -1       501 1.07127E+00
 -1       502 1.32842E+00
 -1       503 1.51933E+00
 -1       504 1.93428E+00
 -1       505 2.11527E+00
 -1       506 2.30943E+00
 -1       507 1.69831E+00
 -1       508 1.39803E+00
 -1       509 1.25122E+00
 -1       510 1.10580E+00
 -1       511 9.45984E-01
 -1       512 8.50831E-01
 -1       513 8.35670E-01
 -1       514 7.65677E-01
 -1       515 6.79598E-01
 -1       516 6.17232E-01
 -1       517 5.39489E-01
 -1       518 4.52332E-01
 -1       519 3.66244E-01
 -1       520 2.87480E-01
 -1       521 2.19152E-01
 -1       522 1.62268E-01
 -1       523 1.16538E-01
 -1       524 8.09888E-02
 -1       525 5.42796E-02
 -1       526 5.41399E-01
 -1       527 4.70147E-01
 -1       528 4.17007E-01
 -1       529 3.57121E-01
 -1       530 2.92857E-01
 -1       531 2.73851E-01
 -1       532 3.15518E-01
 -1       533 4.08296E-01
 -1       534 5.59434E-01
 -1       535 7.21708E-01
 -1       536 8.84647E-01
 -1       537 1.02852E+00
 -1       538 1.13424E+00
 -1       539 1.27850E+00
 -1       540 1.42430E+00
 -1       541 1.46850E+00
 -1       542 1.64728E+00
 -1       543 1.88585E+00
 -1       544 2.79309E+00
 -1       545 4.79438E+00
 -1       546 4.26659E+00
 -1       547 3.25658E+00
 -1       548 2.43149E+00
 -1       549 2.06785E+00
 -1       550 1.64903E+00
 -1       551 1.57135E+00
 -1       552 1.36705E+00
 -1       553 1.32483E+00
 -1       554 1.19618E+00
 -1       555 1.13870E+00
 -1       556 1.01367E+00
 -1       557 8.58680E-01
 -1       558 7.02051E-01
 -1       559 5.61965E-01
 -1       560 4.38310E-01
 -1       561 3.33029E-01
 -1       562 2.46726E-01
 -1       563 1.78083E-01
 -1       564 1.24947E-01
 -1       565 8.49710E-02
 -1       566 5.88552E-02
 -1       567 4.15291E-02
 -1       568 4.06984E-02
 -1       569 4.75031E-02
 -1       570 3.29383E-02
 -1       571 3.29383E-02
 -1       572 4.75042E-02
 -1       573 4.75042E-02
 -1       574 4.74877E-02
 -1       575 4.64615E-02
 -1       576 3.90495E-02
 -1       577 3.79392E-02
 -1       578 3.79392E-02
 -1       579 3.21845E+01
 -1       580 1.27670E+01
 -1       581 6.93570E-01
 -1       582 5.26050E+00
 -1       583 2.00044E+01
 -1       584 2.78283E+01
 -1       585 7.78103E+00
 -1       586 2.06964E+01
 -1       587 1.06305E+00
 -1       588 7.66216E+00
 -1       589 4.92742E+00
 -1       590 7.56175E+00
 -1       591 5.36939E+00
 -1       592 7.96237E+00
 -1       593 1.18994E+01
 -1       594 2.97795E+01
 -1       595 2.11202E+01
 -1       596 3.41976E+01
 -1       597 1.30398E+01
 -1       598 8.02934E+00
 -1       599 5.71258E+00
 -1       600 7.46264E+00
 -1       601 6.34467E+00
 -1       602 9.23285E+00
 -1       603 7.06823E-01
 -1       604 1.26644E+00
 -1       605 9.90712E+00
 -1       606 6.73865E-01
 -1       607 7.35061E+00
 -1       608 5.17215E+00
 -1       609 1.65083E+01
 -1       610 1.11787E+01
 -1       611 8.17190E+00
 -1       612 4.79438E+00
 -1       613 3.46068E+00
 -1       614 3.33496E-02
 -1       615 1.36941E+01
 -1       616 4.38360E+00
 -1       617 1.12491E+00
 -1       618 3.25651E+00
 -1       619 6.17680E-01
 -1       620 4.81077E-01
 -1       621 4.95834E-01
 -1       622 3.99966E+00
 -1       623 8.71640E+00
 -1       624 8.71640E+00
 -1       625 5.11602E+00
 -1       626 6.05985E-01
 -1       627 2.80850E-01
 -1       628 4.92868E-01
 -1       629 2.53090E-01
 -1       630 4.79444E-01
 -1       631 2.67685E-01
 -1       632 3.72055E-01
 -1       633 4.83375E-01
 -1       634 5.96987E-01
 -1       635 7.04095E-01
 -1       636 8.16668E-01
 -1       637 9.92366E-01
 -1       638 1.15376E+00
 -1       639 1.27540E+00
 -1       640 1.59621E+00
 -1       641 1.89268E+00
 -1       642 2.90982E+00
 -1       643 2.77758E+00
 -1       644 4.80204E+00
 -1       645 5.06355E+00
 -1       646 4.25200E+00
 -1       647 1.80393E+00
 -1       648 1.69137E+00
 -1       649 1.97815E+00
 -1       650 1.55365E+00
 -1       651 1.25992E+00
 -1       652 1.11014E+00
 -1       653 9.34344E-01
 -1       654 7.78788E-01
 -1       655 6.88503E-01
 -1       656 5.86719E-01
 -1       657 4.85660E-01
 -1       658 3.92139E-01
 -1       659 3.09515E-01
 -1       660 2.38994E-01
 -1       661 1.80472E-01
 -1       662 1.33090E-01
 -1       663 9.57861E-02
 -1       664 6.03510E-02
 -1       665 3.08659E-01
 -1       666 6.23882E+00
 -1       667 3.69765E-01
 -1       668 2.18174E-01
 -1       669 1.60230E-01
 -1       670 1.95481E-01
 -1       671 3.12672E-01
 -1       672 4.47475E-01
 -1       673 6.01132E-01
 -1       674 7.73167E-01
 -1       675 9.59656E-01
 -1       676 1.15050E+00
 -1       677 1.32579E+00
 -1       678 1.59612E+00
 -1       679 2.02098E+00
 -1       680 2.28281E+00
 -1       681 2.49526E+00
 -1       682 3.08697E+00
 -1       683 6.35947E+00
 -1       684 3.25658E+00
 -1       685 2.27199E+00
 -1       686 2.10082E+00
 -1       687 2.48636E+00
 -1       688 2.13262E+00
 -1       689 1.93373E+00
 -1       690 1.54955E+00
 -1       691 1.29448E+00
 -1       692 1.13612E+00
 -1       693 9.61010E-01
 -1       694 7.90041E-01
 -1       695 6.34360E-01
 -1       696 4.98857E-01
 -1       697 3.84686E-01
 -1       698 2.90930E-01
 -1       699 2.15621E-01
 -1       700 1.56328E-01
 -1       701 1.10614E-01
 -1       702 7.53192E-02
 -1       703 4.82785E-02
 -1       704 7.59788E+00
 -1       705 6.58613E-02
 -1       706 3.79392E-02
 -1       707 6.26550E-02
 -1       708 6.51373E-02
 -1       709 6.58613E-02
 -1       710 6.51373E-02
 -1       711 6.02779E-02
 -1       712 4.37296E-02
 -1       713 1.19381E+01
 -1       714 1.02076E+01
 -1       715 1.01326E+01
 -1       716 8.77823E+00
 -1       717 4.50938E-01
 -1       718 2.72154E-01
 -1       719 1.02919E+00
 -1       720 1.12491E+00
 -1       721 5.00544E-01
 -1       722 6.43647E+00
 -1       723 8.35488E-01
 -1       724 4.79438E+00
 -1       725 1.45843E+01
 -1       726 1.43983E+01
 -1       727 1.21468E+01
 -1       728 6.95785E+00
 -1       729 5.25190E+00
 -1       730 1.52856E+01
 -1       731 4.80204E+00
 -1       732 2.93540E+00
 -1       733 4.52933E+00
 -1       734 1.09947E+00
 -1       735 3.34466E+00
 -1       736 3.20750E+00
 -1       737 4.25200E+00
 -1       738 1.19612E+01
 -1       739 4.86135E-02
 -1       740 7.84635E+00
 -1       741 4.19605E-02
 -1       742 9.95376E+00
 -1       743 1.19381E+01
 -1       744 8.11082E+00
 -1       745 1.21468E+01
 -1       746 7.17144E+00
 -1       747 3.70793E+00
 -1       748 5.23418E+00
 -1       749 3.34466E+00
 -1       750 1.09947E+00
 -1       751 4.42850E-02
 -1       752 4.51701E-01
 -1       753 9.07703E+00
 -1       754 8.71640E+00
 -1       755 7.90251E+00
 -1       756 1.04985E+00
 -1       757 6.10717E-01
 -1       758 1.49990E+00
 -1       759 4.92868E-01
 -1       760 4.79444E-01
 -1       761 6.68662E-01
 -1       762 3.02135E-01
 -1       763 4.05579E-01
 -1       764 5.37997E-01
 -1       765 6.90773E-01
 -1       766 8.71451E-01
 -1       767 1.06180E+00
 -1       768 1.32544E+00
 -1       769 1.68322E+00
 -1       770 2.15963E+00
 -1       771 2.68356E+00
 -1       772 2.93547E+00
 -1       773 5.06355E+00
 -1       774 1.80393E+00
 -1       775 3.25341E+00
 -1       776 3.66863E+00
 -1       777 3.18022E+00
 -1       778 2.62979E+00
 -1       779 2.05916E+00
 -1       780 1.62887E+00
 -1       781 1.36145E+00
 -1       782 1.11010E+00
 -1       783 8.90106E-01
 -1       784 7.03829E-01
 -1       785 5.48975E-01
 -1       786 4.23915E-01
 -1       787 3.24546E-01
 -1       788 2.42330E-01
 -1       789 1.75988E-01
 -1       790 1.27076E-01
 -1       791 1.31601E-01
 -1       792 1.15328E-01
 -1       793 3.28182E-01
 -1       794 4.66206E-01
 -1       795 6.22493E-01
 -1       796 8.26990E-01
 -1       797 1.07140E+00
 -1       798 1.39025E+00
 -1       799 1.78030E+00
 -1       800 2.15099E+00
 -1       801 3.81113E+00
 -1       802 6.57632E+00
 -1       803 3.42902E+00
 -1       804 6.14123E+00
 -1       805 3.89649E+00
 -1       806 2.09032E+00
 -1       807 1.73749E+00
 -1       808 1.37993E+00
 -1       809 1.08517E+00
 -1       810 8.57270E-01
 -1       811 6.67970E-01
 -1       812 5.14493E-01
 -1       813 3.93047E-01
 -1       814 2.99700E-01
 -1       815 2.25527E-01
 -1       816 1.67037E-01
 -1       817 1.21614E-01
 -1       818 8.55879E-02
 -1       819 5.94764E-02
 -1       820 8.51306E-02
 -1       821 8.70634E-02
 -1       822 8.41981E-02
 -1       823 5.17786E+00
 -1       824 3.47794E-01
 -1       825 4.91591E+00
 -1       826 8.51306E-02
 -1       827 7.56382E+00
 -1       828 5.69894E+00
 -1       829 6.61860E+00
 -1       830 8.79259E+00
 -1       831 2.19821E-01
 -1       832 2.40061E-01
 -1       833 6.60240E+00
 -1       834 8.54698E+00
 -1       835 7.34508E+00
 -1       836 2.62994E+00
 -1       837 2.35750E-01
 -1       838 2.25496E+00
 -1       839 3.17170E+00
 -1       840 1.08353E+01
 -1       841 4.59554E+00
 -1       842 6.14123E+00
 -1       843 3.01022E+00
 -1       844 8.01102E+00
 -1       845 8.00285E-02
 -1       846 2.61427E+00
 -1       847 8.59692E-01
 -1       848 1.91338E-01
 -1       849 1.56377E-01
 -1       850 8.74242E-02
 -1       851 8.74242E-02
 -1       852 7.80331E+00
 -1       853 7.61179E+00
 -1       854 7.44521E+00
 -1       855 6.57632E+00
 -1       856 8.32712E+00
 -1       857 2.73455E-01
 -1       858 2.18459E+00
 -1       859 5.42943E+00
 -1       860 1.09672E-01
 -1       861 7.56382E+00
 -1       862 5.84314E+00
 -1       863 5.09963E+00
 -1       864 5.51800E+00
 -1       865 1.49990E+00
 -1       866 6.61727E-01
 -1       867 6.68662E-01
 -1       868 7.71902E-01
 -1       869 4.05579E-01
 -1       870 5.18656E-01
 -1       871 6.64064E-01
 -1       872 8.45222E-01
 -1       873 1.12899E+00
 -1       874 1.52379E+00
 -1       875 1.94330E+00
 -1       876 2.41310E+00
 -1       877 5.69894E+00
 -1       878 4.69679E+00
 -1       879 4.13170E+00
 -1       880 2.88591E+00
 -1       881 2.05916E+00
 -1       882 1.62887E+00
 -1       883 1.36145E+00
 -1       884 1.11010E+00
 -1       885 8.90106E-01
 -1       886 7.03829E-01
 -1       887 5.48975E-01
 -1       888 4.21876E-01
 -1       889 3.18600E-01
 -1       890 2.35258E-01
 -1       891 1.47155E-01
 -1       892 6.17699E-01
 -1       893 4.55801E-01
 -1       894 1.03617E+00
 -1       895 1.31816E+00
 -1       896 1.77092E+00
 -1       897 2.64046E+00
 -1       898 3.60180E+00
 -1       899 8.54597E-01
 -1       900 1.24703E-01
 -1       901 3.84140E+00
 -1       902 2.59672E+00
 -1       903 1.72616E+00
 -1       904 1.30712E+00
 -1       905 1.03620E+00
 -1       906 8.26624E-01
 -1       907 6.48506E-01
 -1       908 5.01160E-01
 -1       909 3.81553E-01
 -1       910 2.85765E-01
 -1       911 2.10049E-01
 -1       912 1.50226E-01
 -1       913 1.11462E-01
 -1       914 6.94394E-02
 -1       915 6.23911E+00
 -1       916 1.08353E+01
 -1       917 8.10561E-01
 -1       918 6.52376E+00
 -1       919 8.53785E+00
 -1       920 2.86410E-01
 -1       921 4.69963E+00
 -1       922 6.10407E+00
 -1       923 6.68792E+00
 -1       924 1.01557E+01
 -1       925 4.77726E-01
 -1       926 2.11638E-01
 -1       927 1.69865E-01
 -1       928 5.77059E+00
 -1       929 1.27113E-01
 -1       930 3.21105E-01
 -1       931 4.81122E-01
 -1       932 1.50748E-01
 -1       933 7.61179E+00
 -1       934 5.79015E+00
 -1       935 5.46384E+00
 -1       936 3.58734E+00
 -1       937 6.49443E+00
 -1       938 1.24703E-01
 -1       939 1.91583E-01
 -1       940 3.52404E+01
 -1       941 7.18857E-01
 -1       942 2.38420E+00
 -1       943 1.93434E+01
 -1       944 5.51800E+00
 -1       945 1.42472E+00
 -1       946 1.26418E+00
 -1       947 7.90577E-01
 -1       948 7.71902E-01
 -1       949 5.12822E-01
 -1       950 6.64064E-01
 -1       951 8.45222E-01
 -1       952 1.09129E+00
 -1       953 1.47012E+00
 -1       954 2.29596E+00
 -1       955 3.78911E+00
 -1       956 5.50240E-01
 -1       957 4.28376E+00
 -1       958 3.87790E+00
 -1       959 1.97372E+00
 -1       960 1.42464E+00
 -1       961 1.00957E+00
 -1       962 7.25155E-01
 -1       963 5.32737E-01
 -1       964 4.03112E-01
 -1       965 3.05839E-01
 -1       966 2.31447E-01
 -1       967 1.73205E-01
 -1       968 1.48693E-01
 -1       969 1.77092E+00
 -1       970 1.31816E+00
 -1       971 8.54597E-01
 -1       972 2.55155E+01
 -1       973 3.20915E+00
 -1       974 1.72616E+00
 -1       975 3.52404E+01
 -1       976 1.30712E+00
 -1       977 9.91954E-01
 -1       978 7.57724E-01
 -1       979 5.79283E-01
 -1       980 4.41658E-01
 -1       981 3.34397E-01
 -1       982 2.50653E-01
 -1       983 2.02046E-01
 -1       984 1.91583E-01
 -1       985 1.46113E-01
 -1       986 5.24117E+00
 -1       987 1.44331E+01
 -1       988 1.39335E+00
 -1       989 1.67842E+01
 -1       990 1.20273E+00
 -1       991 2.32732E+00
 -1       992 9.36328E+00
 -1       993 2.57322E+00
 -1       994 4.02179E-01
 -1       995 7.39193E-01
 -1       996 6.68107E+00
 -1       997 4.68734E+00
 -1       998 3.88549E+00
 -1       999 1.66997E-01
 -1      1000 1.38085E-01
 -1      1001 2.85741E+00
 -1      1002 5.11404E+00
 -1      1003 1.99230E-01
 -1      1004 4.67591E+00
 -1      1005 3.07124E+00
 -1      1006 1.97827E-01
 -1      1007 4.28376E+00
 -1      1008 6.45025E+00
 -1      1009 9.86710E-01
 -1      1010 6.08357E+01
 -1      1011 4.59410E+00
 -1      1012 1.31357E-01
 -1      1013 1.09156E+00
 -1      1014 4.26386E+00
 -1      1015 1.40330E+00
 -1      1016 1.26418E+00
 -1      1017 6.65606E-01
 -1      1018 4.48433E-01
 -1      1019 6.00525E-01
 -1      1020 8.05989E-01
 -1      1021 1.09129E+00
 -1      1022 1.47012E+00
 -1      1023 1.95166E+00
 -1      1024 2.52337E+00
 -1      1025 1.54929E+00
 -1      1026 3.27710E+00
 -1      1027 1.73701E+00
 -1      1028 1.19168E+00
 -1      1029 8.42584E-01
 -1      1030 6.05133E-01
 -1      1031 4.43556E-01
 -1      1032 3.30067E-01
 -1      1033 2.60019E-01
 -1      1034 2.11941E-01
 -1      1035 1.48693E-01
 -1      1036 2.31577E+00
 -1      1037 2.23647E+00
 -1      1038 1.54751E+00
 -1      1039 6.08357E+01
 -1      1040 2.38420E+00
 -1      1041 8.06287E-01
 -1      1042 6.03647E-01
 -1      1043 4.58058E-01
 -1      1044 3.48271E-01
 -1      1045 2.68656E-01
 -1      1046 2.04424E-01
 -1      1047 1.50748E-01
 -1      1048 1.09281E+00
 -1      1049 3.00834E+00
 -1      1050 4.22523E+01
 -1      1051 2.84232E-01
 -1      1052 1.36733E-01
 -1      1053 1.62535E-01
 -1      1054 4.22523E+01
 -1      1055 5.38686E+01
 -1      1056 1.93434E+01
 -1      1057 7.91726E-01
 -1      1058 1.99487E-01
 -1      1059 4.35103E-01
 -1      1060 1.69278E-01
 -1      1061 3.63768E+00
 -1      1062 2.77509E+00
 -1      1063 3.03177E+00
 -1      1064 5.85400E-01
 -1      1065 2.57322E+00
 -1      1066 2.18230E-01
 -1      1067 2.99076E+00
 -1      1068 1.16294E+01
 -1      1069 2.45127E-01
 -1      1070 3.18856E-01
 -1      1071 1.12332E+01
 -1      1072 2.62599E-01
 -1      1073 3.12098E-01
 -1      1074 4.45411E-01
 -1      1075 6.12821E-01
 -1      1076 8.41614E-01
 -1      1077 1.18586E+00
 -1      1078 1.71720E+00
 -1      1079 2.82529E+00
 -1      1080 9.30020E+00
 -1      1081 1.34539E+00
 -1      1082 9.34658E-01
 -1      1083 6.94574E-01
 -1      1084 5.29525E-01
 -1      1085 4.08233E-01
 -1      1086 3.16215E-01
 -1      1087 2.64626E-01
 -1      1088 1.52203E+00
 -1      1089 1.71720E+00
 -1      1090 3.44325E-01
 -1      1091 6.08357E+01
 -1      1092 5.87411E-01
 -1      1093 1.18586E+00
 -1      1094 2.82529E+00
 -1      1095 2.09453E+00
 -1      1096 4.90588E-01
 -1      1097 3.44262E+00
 -1      1098 2.68656E-01
 -1      1099 5.38686E+01
 -1      1100 3.44187E+00
 -1      1101 5.38686E+01
 -1      1102 2.09453E+00
 -1      1103 4.67298E-01
 -1      1104 2.03251E-01
 -1      1105 2.33197E+00
 -1      1106 1.43427E-01
 -1      1107 6.31041E-01
 -1      1108 2.74186E+00
 -1      1109 2.41242E-01
 -1      1110 4.47571E-01
 -1      1111 2.68656E-01
 -1      1112 8.41614E-01
 -1      1113 4.67298E-01
 -1      1114 1.05265E+00
 -1      1115 1.66847E-01
 -1      1116 8.34678E-01
 -1      1117 3.57891E+01
 -1      1118 2.75286E-01
 -1      1119 3.08364E-01
 -1      1120 2.82529E+00
 -1      1121 5.16270E+01
 -1      1122 3.57891E+01
 -1      1123 1.33834E+01
 -1      1124 8.50527E+00
 -1      1125 2.68253E+00
 -1      1126 1.50488E+00
 -1      1127 1.15657E+00
 -1      1128 9.84910E-01
 -1      1129 8.94941E-01
 -1      1130 8.23938E-01
 -1      1131 7.38495E-01
 -1      1132 7.50654E-01
 -1      1133 8.82446E-01
 -1      1134 1.04119E+00
 -1      1135 1.25296E+00
 -1      1136 1.62123E+00
 -1      1137 2.67479E+00
 -1      1138 6.00376E+00
 -1      1139 1.12150E+01
 -1      1140 1.33834E+01
 -1      1141 8.90750E+00
 -1      1142 5.26577E+00
 -1      1143 8.63971E+00
 -1      1144 1.17671E+01
 -1      1145 1.06685E+01
 -1      1146 5.09036E+00
 -1      1147 9.35731E-01
 -1      1148 6.37836E-01
 -1      1149 6.08590E-01
 -1      1150 7.41843E-01
 -1      1151 8.69172E-01
 -1      1152 6.61543E-01
 -1      1153 4.76505E-01
 -1      1154 5.16678E-01
 -1      1155 6.05631E-01
 -1      1156 7.63740E-01
 -1      1157 9.25068E-01
 -1      1158 1.03617E+00
 -1      1159 1.07269E+00
 -1      1160 1.08898E+00
 -1      1161 1.10528E+00
 -1      1162 1.28231E+00
 -1      1163 1.87537E+00
 -1      1164 2.73878E+00
 -1      1165 3.26122E+00
 -1      1166 3.35763E+00
 -1      1167 3.37899E+00
 -1      1168 3.11010E+00
 -1      1169 2.29448E+00
 -1      1170 1.53050E+00
 -1      1171 1.20165E+00
 -1      1172 1.09006E+00
 -1      1173 1.06499E+00
 -1      1174 1.03787E+00
 -1      1175 9.76489E-01
 -1      1176 8.33857E-01
 -1      1177 6.74883E-01
 -1      1178 5.32573E-01
 -1      1179 4.34755E-01
 -1      1180 3.70701E-01
 -1      1181 3.05433E-01
 -1      1182 2.43553E-01
 -1      1183 1.88600E-01
 -1      1184 1.41807E-01
 -1      1185 1.12193E-01
 -1      1186 9.48605E-02
 -1      1187 7.44604E-02
 -1      1188 4.74499E-02
 -1      1189 2.08289E-02
 -1      1190 1.39071E+01
 -1      1191 8.62068E+00
 -1      1192 2.83085E+00
 -1      1193 1.95987E+00
 -1      1194 1.35032E+00
 -1      1195 1.00198E+00
 -1      1196 8.38124E-01
 -1      1197 7.40626E-01
 -1      1198 6.67919E-01
 -1      1199 6.06968E-01
 -1      1200 5.55216E-01
 -1      1201 5.06861E-01
 -1      1202 5.01569E-01
 -1      1203 5.62686E-01
 -1      1204 6.47524E-01
 -1      1205 7.27589E-01
 -1      1206 7.81564E-01
 -1      1207 8.45220E-01
 -1      1208 1.02859E+00
 -1      1209 1.27157E+00
 -1      1210 1.44763E+00
 -1      1211 1.67760E+00
 -1      1212 1.83762E+00
 -1      1213 2.08761E+00
 -1      1214 2.86545E+00
 -1      1215 3.76012E+00
 -1      1216 4.41105E+00
 -1      1217 4.69516E+00
 -1      1218 4.32729E+00
 -1      1219 3.10227E+00
 -1      1220 1.84748E+00
 -1      1221 1.46242E+00
 -1      1222 1.56052E+00
 -1      1223 1.64604E+00
 -1      1224 1.60078E+00
 -1      1225 1.44722E+00
 -1      1226 1.23140E+00
 -1      1227 1.01694E+00
 -1      1228 8.08742E-01
 -1      1229 6.19182E-01
 -1      1230 4.60506E-01
 -1      1231 3.47160E-01
 -1      1232 2.67940E-01
 -1      1233 2.02090E-01
 -1      1234 1.48745E-01
 -1      1235 1.05991E-01
 -1      1236 7.53599E-02
 -1      1237 5.65677E-02
 -1      1238 3.82423E-02
 -1      1239 1.78819E-02
 -1      1240 9.26725E-03
 -1      1241 1.06973E-02
 -1      1242 1.15306E-02
 -1      1243 9.81129E-03
 -1      1244 6.03089E-03
 -1      1245 6.01507E-03
 -1      1246 9.48233E-03
 -1      1247 1.13198E-02
 -1      1248 1.17353E-02
 -1      1249 1.12578E-02
 -1      1250 9.29930E-03
 -1      1251 5.86614E-03
 -1      1252 5.95811E-03
 -1      1253 9.53899E-03
 -1      1254 1.19929E-02
 -1      1255 1.35571E-02
 -1      1256 1.20298E-02
 -1      1257 2.55223E+01
 -1      1258 3.70020E+01
 -1      1259 4.84817E+01
 -1      1260 3.47899E+01
 -1      1261 1.69359E+01
 -1      1262 1.27736E+01
 -1      1263 1.25281E+01
 -1      1264 1.29827E+01
 -1      1265 1.36827E+01
 -1      1266 1.64234E+01
 -1      1267 3.32394E+01
 -1      1268 4.73147E+01
 -1      1269 3.59552E+01
 -1      1270 2.49984E+01
 -1      1271 2.55536E+01
 -1      1272 3.67274E+01
 -1      1273 4.77490E+01
 -1      1274 3.41999E+01
 -1      1275 1.62887E+01
 -1      1276 1.20432E+01
 -1      1277 1.21600E+01
 -1      1278 1.20781E+01
 -1      1279 1.19963E+01
 -1      1280 1.40109E+01
 -1      1281 2.90427E+01
 -1      1282 4.20598E+01
 -1      1283 3.34376E+01
 -1      1284 2.51688E+01
 -1      1285 1.33834E+01
 -1      1286 4.85135E+00
 -1      1287 9.72943E+00
 -1      1288 1.98423E+00
 -1      1289 2.92889E+00
 -1      1290 4.15305E+00
 -1      1291 1.37858E+00
 -1      1292 1.61156E+00
 -1      1293 1.85793E+00
 -1      1294 1.09818E+00
 -1      1295 1.21351E+00
 -1      1296 1.32019E+00
 -1      1297 9.63699E-01
 -1      1298 1.02004E+00
 -1      1299 1.07697E+00
 -1      1300 8.87033E-01
 -1      1301 9.20666E-01
 -1      1302 9.55791E-01
 -1      1303 8.15448E-01
 -1      1304 8.52818E-01
 -1      1305 8.78543E-01
 -1      1306 7.24820E-01
 -1      1307 7.72893E-01
 -1      1308 8.01773E-01
 -1      1309 7.77623E-01
 -1      1310 7.17392E-01
 -1      1311 7.51790E-01
 -1      1312 9.16809E-01
 -1      1313 8.45247E-01
 -1      1314 8.11986E-01
 -1      1315 1.08371E+00
 -1      1316 9.96523E-01
 -1      1317 9.59325E-01
 -1      1318 1.31196E+00
 -1      1319 1.18738E+00
 -1      1320 1.14271E+00
 -1      1321 1.73033E+00
 -1      1322 1.48664E+00
 -1      1323 1.42106E+00
 -1      1324 2.89636E+00
 -1      1325 2.08649E+00
 -1      1326 1.95190E+00
 -1      1327 6.21443E+00
 -1      1328 3.69532E+00
 -1      1329 3.10702E+00
 -1      1330 1.39071E+01
 -1      1331 1.12150E+01
 -1      1332 8.90653E+00
 -1      1333 1.39071E+01
 -1      1334 8.90750E+00
 -1      1335 4.43164E+00
 -1      1336 4.16249E+00
 -1      1337 4.99661E+00
 -1      1338 4.16249E+00
 -1      1339 8.63971E+00
 -1      1340 1.11795E+01
 -1      1341 7.53643E+00
 -1      1342 1.17671E+01
 -1      1343 1.23548E+01
 -1      1344 1.17671E+01
 -1      1345 1.23548E+01
 -1      1346 1.06685E+01
 -1      1347 1.23548E+01
 -1      1348 5.46123E+00
 -1      1349 1.56933E+00
 -1      1350 7.14748E+00
 -1      1351 9.35731E-01
 -1      1352 6.73004E-01
 -1      1353 1.30660E+00
 -1      1354 6.20995E-01
 -1      1355 5.85826E-01
 -1      1356 6.20995E-01
 -1      1357 6.02667E-01
 -1      1358 6.08590E-01
 -1      1359 5.85826E-01
 -1      1360 6.14513E-01
 -1      1361 7.41843E-01
 -1      1362 6.08590E-01
 -1      1363 8.69172E-01
 -1      1364 8.69172E-01
 -1      1365 7.41843E-01
 -1      1366 6.38971E-01
 -1      1367 4.31342E-01
 -1      1368 6.38971E-01
 -1      1369 4.53913E-01
 -1      1370 4.76505E-01
 -1      1371 4.31342E-01
 -1      1372 4.99097E-01
 -1      1373 5.16678E-01
 -1      1374 4.76505E-01
 -1      1375 5.57723E-01
 -1      1376 6.29094E-01
 -1      1377 5.40141E-01
 -1      1378 6.87899E-01
 -1      1379 7.74636E-01
 -1      1380 6.39991E-01
 -1      1381 8.50477E-01
 -1      1382 9.25068E-01
 -1      1383 7.74636E-01
 -1      1384 9.99659E-01
 -1      1385 1.03617E+00
 -1      1386 9.25068E-01
 -1      1387 1.07269E+00
 -1      1388 1.07269E+00
 -1      1389 1.03617E+00
 -1      1390 1.04954E+00
 -1      1391 1.06583E+00
 -1      1392 1.04954E+00
 -1      1393 1.10528E+00
 -1      1394 1.10528E+00
 -1      1395 1.06583E+00
 -1      1396 1.09565E+00
 -1      1397 1.27268E+00
 -1      1398 1.09565E+00
 -1      1399 1.45934E+00
 -1      1400 1.87537E+00
 -1      1401 1.27268E+00
 -1      1402 2.29140E+00
 -1      1403 2.73878E+00
 -1      1404 1.87537E+00
 -1      1405 3.18617E+00
 -1      1406 3.26122E+00
 -1      1407 2.73878E+00
 -1      1408 3.33627E+00
 -1      1409 3.35763E+00
 -1      1410 3.26122E+00
 -1      1411 3.37899E+00
 -1      1412 3.37899E+00
 -1      1413 3.35763E+00
 -1      1414 3.11010E+00
 -1      1415 2.84121E+00
 -1      1416 3.11010E+00
 -1      1417 2.34516E+00
 -1      1418 1.79844E+00
 -1      1419 2.34516E+00
 -1      1420 1.53050E+00
 -1      1421 1.31324E+00
 -1      1422 1.58118E+00
 -1      1423 1.17841E+00
 -1      1424 1.06682E+00
 -1      1425 1.17841E+00
 -1      1426 1.09006E+00
 -1      1427 1.09006E+00
 -1      1428 1.06682E+00
 -1      1429 1.06499E+00
 -1      1430 1.03992E+00
 -1      1431 1.06499E+00
 -1      1432 1.03787E+00
 -1      1433 1.03582E+00
 -1      1434 1.03787E+00
 -1      1435 9.76489E-01
 -1      1436 9.17154E-01
 -1      1437 9.76489E-01
 -1      1438 8.35776E-01
 -1      1439 7.52479E-01
 -1      1440 8.35776E-01
 -1      1441 6.94169E-01
 -1      1442 6.18491E-01
 -1      1443 6.96087E-01
 -1      1444 5.73649E-01
 -1      1445 5.07016E-01
 -1      1446 5.92935E-01
 -1      1447 4.56350E-01
 -1      1448 4.25164E-01
 -1      1449 4.97426E-01
 -1      1450 3.75781E-01
 -1      1451 3.42914E-01
 -1      1452 3.97377E-01
 -1      1453 3.05433E-01
 -1      1454 2.73033E-01
 -1      1455 3.10514E-01
 -1      1456 2.43553E-01
 -1      1457 2.14074E-01
 -1      1458 2.43553E-01
 -1      1459 1.90829E-01
 -1      1460 1.65355E-01
 -1      1461 1.90829E-01
 -1      1462 1.45812E-01
 -1      1463 1.24493E-01
 -1      1464 1.48041E-01
 -1      1465 1.12193E-01
 -1      1466 1.03898E-01
 -1      1467 1.16198E-01
 -1      1468 9.48605E-02
 -1      1469 8.58233E-02
 -1      1470 9.48605E-02
 -1      1471 7.44604E-02
 -1      1472 6.30976E-02
 -1      1473 7.44604E-02
 -1      1474 4.94707E-02
 -1      1475 3.38231E-02
 -1      1476 4.94707E-02
 -1      1477 2.30032E-02
 -1      1478 2.50240E-02
 -1      1479 3.33427E+00
 -1      1480 8.62068E+00
 -1      1481 8.62068E+00
 -1      1482 2.32743E+00
 -1      1483 2.83085E+00
 -1      1484 2.83085E+00
 -1      1485 1.59232E+00
 -1      1486 1.95987E+00
 -1      1487 1.95987E+00
 -1      1488 1.10832E+00
 -1      1489 1.35032E+00
 -1      1490 1.35032E+00
 -1      1491 8.95644E-01
 -1      1492 1.00198E+00
 -1      1493 1.00198E+00
 -1      1494 7.80603E-01
 -1      1495 8.38124E-01
 -1      1496 8.38124E-01
 -1      1497 7.00649E-01
 -1      1498 7.40626E-01
 -1      1499 7.40626E-01
 -1      1500 6.35189E-01
 -1      1501 6.67919E-01
 -1      1502 6.67919E-01
 -1      1503 5.78747E-01
 -1      1504 6.06968E-01
 -1      1505 6.06968E-01
 -1      1506 5.31686E-01
 -1      1507 5.55216E-01
 -1      1508 5.55216E-01
 -1      1509 4.82037E-01
 -1      1510 5.06861E-01
 -1      1511 5.06861E-01
 -1      1512 4.94215E-01
 -1      1513 4.74683E-01
 -1      1514 4.74683E-01
 -1      1515 5.62686E-01
 -1      1516 5.21102E-01
 -1      1517 4.94215E-01
 -1      1518 6.47524E-01
 -1      1519 6.04271E-01
 -1      1520 5.62686E-01
 -1      1521 7.27589E-01
 -1      1522 6.90777E-01
 -1      1523 6.47524E-01
 -1      1524 7.81564E-01
 -1      1525 7.64401E-01
 -1      1526 7.27589E-01
 -1      1527 8.45220E-01
 -1      1528 7.98726E-01
 -1      1529 7.81564E-01
 -1      1530 1.07348E+00
 -1      1531 9.36602E-01
 -1      1532 8.90109E-01
 -1      1533 1.27157E+00
 -1      1534 1.16547E+00
 -1      1535 1.07348E+00
 -1      1536 1.44763E+00
 -1      1537 1.37767E+00
 -1      1538 1.27157E+00
 -1      1539 1.67760E+00
 -1      1540 1.51758E+00
 -1      1541 1.44763E+00
 -1      1542 1.83762E+00
 -1      1543 1.83762E+00
 -1      1544 1.67760E+00
 -1      1545 2.07838E+00
 -1      1546 1.82840E+00
 -1      1547 1.82840E+00
 -1      1548 2.86545E+00
 -1      1549 2.33760E+00
 -1      1550 2.07838E+00
 -1      1551 3.76012E+00
 -1      1552 3.39329E+00
 -1      1553 2.86545E+00
 -1      1554 4.41105E+00
 -1      1555 4.12694E+00
 -1      1556 3.76012E+00
 -1      1557 4.69516E+00
 -1      1558 4.69516E+00
 -1      1559 4.41105E+00
 -1      1560 3.95941E+00
 -1      1561 4.32729E+00
 -1      1562 4.32729E+00
 -1      1563 2.24513E+00
 -1      1564 3.10227E+00
 -1      1565 3.10227E+00
 -1      1566 1.44983E+00
 -1      1567 1.84748E+00
 -1      1568 1.84748E+00
 -1      1569 1.40910E+00
 -1      1570 1.39651E+00
 -1      1571 1.39651E+00
 -1      1572 1.56052E+00
 -1      1573 1.47501E+00
 -1      1574 1.40910E+00
 -1      1575 1.64604E+00
 -1      1576 1.64604E+00
 -1      1577 1.56052E+00
 -1      1578 1.55552E+00
 -1      1579 1.60078E+00
 -1      1580 1.60078E+00
 -1      1581 1.33891E+00
 -1      1582 1.44722E+00
 -1      1583 1.44722E+00
 -1      1584 1.12389E+00
 -1      1585 1.23140E+00
 -1      1586 1.23140E+00
 -1      1587 9.17984E-01
 -1      1588 1.02493E+00
 -1      1589 1.02493E+00
 -1      1590 7.23944E-01
 -1      1591 8.25196E-01
 -1      1592 8.33186E-01
 -1      1593 5.50899E-01
 -1      1594 6.39206E-01
 -1      1595 6.55661E-01
 -1      1596 4.08106E-01
 -1      1597 4.78474E-01
 -1      1598 4.98498E-01
 -1      1599 3.06586E-01
 -1      1600 3.49564E-01
 -1      1601 3.67531E-01
 -1      1602 2.31698E-01
 -1      1603 2.67940E-01
 -1      1604 2.70344E-01
 -1      1605 1.72483E-01
 -1      1606 2.02090E-01
 -1      1607 2.02090E-01
 -1      1608 1.25338E-01
 -1      1609 1.49076E-01
 -1      1610 1.49076E-01
 -1      1611 8.86364E-02
 -1      1612 1.07652E-01
 -1      1613 1.07983E-01
 -1      1614 6.37441E-02
 -1      1615 7.53599E-02
 -1      1616 7.70206E-02
 -1      1617 4.93914E-02
 -1      1618 5.65677E-02
 -1      1619 5.65677E-02
 -1      1620 2.70932E-02
 -1      1621 3.82423E-02
 -1      1622 3.82423E-02
 -1      1623 1.84786E-02
 -1      1624 1.42426E-02
 -1      1625 1.34093E-02
 -1      1626 1.56996E-02
 -1      1627 1.56996E-02
 -1      1628 1.84116E-02
 -1      1629 1.39803E-02
 -1      1630 1.56996E-02
 -1      1631 1.98686E-02
 -1      1632 7.90341E-03
 -1      1633 9.96451E-03
 -1      1634 1.58528E-02
 -1      1635 1.19360E-02
 -1      1636 9.89070E-03
 -1      1637 1.38243E-02
 -1      1638 1.62210E-02
 -1      1639 1.47991E-02
 -1      1640 1.86747E-02
 -1      1641 1.77733E-02
 -1      1642 1.73578E-02
 -1      1643 2.26745E-02
 -1      1644 1.77733E-02
 -1      1645 1.77733E-02
 -1      1646 2.38113E-02
 -1      1647 1.72565E-02
 -1      1648 1.77340E-02
 -1      1649 2.37719E-02
 -1      1650 1.44476E-02
 -1      1651 1.59287E-02
 -1      1652 2.24048E-02
 -1      1653 9.67552E-03
 -1      1654 1.16277E-02
 -1      1655 1.82570E-02
 -1      1656 9.76359E-03
 -1      1657 7.71947E-03
 -1      1658 1.34810E-02
 -1      1659 1.54003E-02
 -1      1660 1.38635E-02
 -1      1661 1.56249E-02
 -1      1662 1.63174E-02
 -1      1663 1.54003E-02
 -1      1664 1.97248E-02
 -1      1665 1.79472E-02
 -1      1666 1.73001E-02
 -1      1667 2.07075E-02
 -1      1668 2.87671E-02
 -1      1669 2.92798E+01
 -1      1670 2.92798E+01
 -1      1671 3.91504E+01
 -1      1672 2.76706E+01
 -1      1673 4.84817E+01
 -1      1674 4.84817E+01
 -1      1675 2.22414E+01
 -1      1676 3.59333E+01
 -1      1677 1.20097E+01
 -1      1678 1.61719E+01
 -1      1679 1.27736E+01
 -1      1680 1.27736E+01
 -1      1681 1.22826E+01
 -1      1682 1.25281E+01
 -1      1683 1.28613E+01
 -1      1684 1.21613E+01
 -1      1685 1.36827E+01
 -1      1686 1.36827E+01
 -1      1687 1.54294E+01
 -1      1688 1.26887E+01
 -1      1689 3.42679E+01
 -1      1690 2.01926E+01
 -1      1691 4.73147E+01
 -1      1692 4.73147E+01
 -1      1693 2.64226E+01
 -1      1694 3.77821E+01
 -1      1695 2.75138E+01
 -1      1696 2.71110E+01
 -1      1697 2.76662E+01
 -1      1698 2.75138E+01
 -1      1699 3.80456E+01
 -1      1700 2.70241E+01
 -1      1701 4.77490E+01
 -1      1702 4.77490E+01
 -1      1703 2.13944E+01
 -1      1704 3.49435E+01
 -1      1705 1.19197E+01
 -1      1706 1.62819E+01
 -1      1707 1.20432E+01
 -1      1708 1.19265E+01
 -1      1709 1.21600E+01
 -1      1710 1.21600E+01
 -1      1711 1.18018E+01
 -1      1712 1.18836E+01
 -1      1713 1.19963E+01
 -1      1714 1.19963E+01
 -1      1715 1.40017E+01
 -1      1716 1.19871E+01
 -1      1717 2.90427E+01
 -1      1718 1.60255E+01
 -1      1719 4.20598E+01
 -1      1720 4.20598E+01
 -1      1721 3.14043E+01
 -1      1722 4.00266E+01
 -1      1723 2.92798E+01
 -1      1724 2.89264E+01
 -1      1725 1.73153E+01
 -1      1726 3.59333E+01
 -1      1727 1.84786E-02
 -1      1728 2.20240E-02
 -1      1729 3.14282E+01
 -1      1730 3.91504E+01
 -1      1731 3.30374E+01
 -1      1732 1.20097E+01
 -1      1733 1.25281E+01
 -1      1734 1.21613E+01
 -1      1735 1.28613E+01
 -1      1736 1.26887E+01
 -1      1737 1.64579E+01
 -1      1738 3.42679E+01
 -1      1739 3.77821E+01
 -1      1740 2.89380E+01
 -1      1741 2.96264E+01
 -1      1742 2.89843E+01
 -1      1743 3.80456E+01
 -1      1744 3.49435E+01
 -1      1745 1.70254E+01
 -1      1746 1.19197E+01
 -1      1747 1.20432E+01
 -1      1748 1.18836E+01
 -1      1749 1.18018E+01
 -1      1750 1.19871E+01
 -1      1751 1.40017E+01
 -1      1752 2.90427E+01
 -1      1753 4.00266E+01
 -1      1754 3.55153E+01
 -1      1755 9.72943E+00
 -1      1756 1.23099E+00
 -1      1757 1.60366E+00
 -1      1758 2.35594E+00
 -1      1759 4.27839E+00
 -1      1760 1.72901E+00
 -1      1761 8.87284E-01
 -1      1762 9.65430E-01
 -1      1763 8.18078E-01
 -1      1764 8.61112E-01
 -1      1765 7.49571E-01
 -1      1766 7.73013E-01
 -1      1767 8.07228E-01
 -1      1768 7.12549E-01
 -1      1769 7.06695E-01
 -1      1770 7.49250E-01
 -1      1771 6.77935E-01
 -1      1772 6.49286E-01
 -1      1773 6.56714E-01
 -1      1774 6.04191E-01
 -1      1775 7.69156E-01
 -1      1776 7.01531E-01
 -1      1777 6.06455E-01
 -1      1778 9.07246E-01
 -1      1779 8.27532E-01
 -1      1780 7.17077E-01
 -1      1781 1.06197E+00
 -1      1782 9.58298E-01
 -1      1783 8.26505E-01
 -1      1784 1.29822E+00
 -1      1785 1.12353E+00
 -1      1786 9.39126E-01
 -1      1787 1.74927E+00
 -1      1788 1.39310E+00
 -1      1789 1.09558E+00
 -1      1790 2.62388E+00
 -1      1791 1.82492E+00
 -1      1792 1.26612E+00
 -1      1793 8.01583E+00
 -1      1794 3.01528E+00
 -1      1795 1.73317E+00
 -1      1796 2.72942E+00
 -1      1797 5.25357E+00
 -1      1798 2.08313E+00
 -1      1799 2.58655E+00
 -1      1800 1.98170E+00
 -1      1801 3.45646E+00
 -1      1802 3.07780E+00
 -1      1803 6.72089E+00
 -1      1804 9.23342E+00
 -1      1805 9.82104E+00
 -1      1806 4.77479E+00
 -1      1807 1.17785E+01
 -1      1808 1.17785E+01
 -1      1809 9.24477E+00
 -1      1810 7.83738E+00
 -1      1811 2.63009E+00
 -1      1812 7.26110E+00
 -1      1813 1.34251E+00
 -1      1814 7.08913E-01
 -1      1815 2.03241E+00
 -1      1816 4.40940E-01
 -1      1817 3.88930E-01
 -1      1818 4.76849E-01
 -1      1819 4.39496E-01
 -1      1820 4.56337E-01
 -1      1821 2.59442E-01
 -1      1822 4.73098E-01
 -1      1823 4.79021E-01
 -1      1824 3.26768E-01
 -1      1825 4.47253E-01
 -1      1826 5.74582E-01
 -1      1827 3.11761E-01
 -1      1828 6.11056E-01
 -1      1829 3.80855E-01
 -1      1830 3.16466E-01
 -1      1831 3.88812E-01
 -1      1832 4.11384E-01
 -1      1833 3.60897E-01
 -1      1834 4.29995E-01
 -1      1835 4.52587E-01
 -1      1836 3.87465E-01
 -1      1837 5.03200E-01
 -1      1838 5.44244E-01
 -1      1839 4.56690E-01
 -1      1840 5.87010E-01
 -1      1841 6.45814E-01
 -1      1842 5.50068E-01
 -1      1843 6.91379E-01
 -1      1844 7.67220E-01
 -1      1845 6.38398E-01
 -1      1846 8.12139E-01
 -1      1847 8.86730E-01
 -1      1848 7.28882E-01
 -1      1849 8.99609E-01
 -1      1850 9.36124E-01
 -1      1851 7.86680E-01
 -1      1852 8.93032E-01
 -1      1853 8.69883E-01
 -1      1854 7.56466E-01
 -1      1855 8.00377E-01
 -1      1856 8.39819E-01
 -1      1857 6.43868E-01
 -1      1858 8.42421E-01
 -1      1859 8.32794E-01
 -1      1860 5.76965E-01
 -1      1861 1.05263E+00
 -1      1862 1.23929E+00
 -1      1863 7.99401E-01
 -1      1864 1.47143E+00
 -1      1865 1.88746E+00
 -1      1866 1.25138E+00
 -1      1867 2.11177E+00
 -1      1868 2.55916E+00
 -1      1869 1.70784E+00
 -1      1870 2.65103E+00
 -1      1871 2.72608E+00
 -1      1872 2.02402E+00
 -1      1873 2.69050E+00
 -1      1874 2.71186E+00
 -1      1875 2.08031E+00
 -1      1876 2.73137E+00
 -1      1877 2.46248E+00
 -1      1878 2.06423E+00
 -1      1879 2.27624E+00
 -1      1880 1.78020E+00
 -1      1881 1.89751E+00
 -1      1882 1.57449E+00
 -1      1883 1.30655E+00
 -1      1884 1.50557E+00
 -1      1885 1.03865E+00
 -1      1886 9.03817E-01
 -1      1887 1.03196E+00
 -1      1888 8.12005E-01
 -1      1889 8.35246E-01
 -1      1890 6.72247E-01
 -1      1891 8.42940E-01
 -1      1892 8.17873E-01
 -1      1893 5.88129E-01
 -1      1894 9.02148E-01
 -1      1895 9.00098E-01
 -1      1896 6.80097E-01
 -1      1897 9.14140E-01
 -1      1898 8.54804E-01
 -1      1899 7.78413E-01
 -1      1900 8.25377E-01
 -1      1901 7.43999E-01
 -1      1902 7.63028E-01
 -1      1903 7.03956E-01
 -1      1904 6.45646E-01
 -1      1905 6.93558E-01
 -1      1906 6.09490E-01
 -1      1907 5.64647E-01
 -1      1908 6.17358E-01
 -1      1909 5.23919E-01
 -1      1910 4.73253E-01
 -1      1911 5.40474E-01
 -1      1912 4.28563E-01
 -1      1913 3.79181E-01
 -1      1914 4.55057E-01
 -1      1915 3.35972E-01
 -1      1916 2.98491E-01
 -1      1917 3.67158E-01
 -1      1918 2.59831E-01
 -1      1919 2.30351E-01
 -1      1920 2.85289E-01
 -1      1921 1.97609E-01
 -1      1922 1.74364E-01
 -1      1923 2.13886E-01
 -1      1924 1.48041E-01
 -1      1925 1.28498E-01
 -1      1926 1.54821E-01
 -1      1927 1.12041E-01
 -1      1928 9.97404E-02
 -1      1929 1.12041E-01
 -1      1930 8.60546E-02
 -1      1931 7.70174E-02
 -1      1932 8.18973E-02
 -1      1933 6.78634E-02
 -1      1934 5.65006E-02
 -1      1935 5.90576E-02
 -1      1936 4.82236E-02
 -1      1937 3.45968E-02
 -1      1938 2.75199E-02
 -1      1939 4.16266E-02
 -1      1940 1.34192E+00
 -1      1941 1.70947E+00
 -1      1942 1.46518E+00
 -1      1943 9.86282E-01
 -1      1944 1.22828E+00
 -1      1945 9.77883E-01
 -1      1946 7.94607E-01
 -1      1947 9.00946E-01
 -1      1948 7.78906E-01
 -1      1949 6.61001E-01
 -1      1950 7.18522E-01
 -1      1951 6.17484E-01
 -1      1952 5.91668E-01
 -1      1953 6.31644E-01
 -1      1954 5.12042E-01
 -1      1955 5.46116E-01
 -1      1956 5.78846E-01
 -1      1957 4.69865E-01
 -1      1958 5.03946E-01
 -1      1959 5.32167E-01
 -1      1960 4.43094E-01
 -1      1961 4.67169E-01
 -1      1962 4.90699E-01
 -1      1963 4.15899E-01
 -1      1964 4.32283E-01
 -1      1965 4.57108E-01
 -1      1966 3.92590E-01
 -1      1967 4.27249E-01
 -1      1968 4.34603E-01
 -1      1969 3.84850E-01
 -1      1970 5.03473E-01
 -1      1971 4.76587E-01
 -1      1972 4.36508E-01
 -1      1973 6.26811E-01
 -1      1974 5.85226E-01
 -1      1975 5.67598E-01
 -1      1976 7.54585E-01
 -1      1977 7.11332E-01
 -1      1978 7.33873E-01
 -1      1979 8.69189E-01
 -1      1980 8.32376E-01
 -1      1981 8.96185E-01
 -1      1982 9.52125E-01
 -1      1983 9.34962E-01
 -1      1984 1.03975E+00
 -1      1985 1.08950E+00
 -1      1986 9.98113E-01
 -1      1987 1.15151E+00
 -1      1988 1.18149E+00
 -1      1989 1.08950E+00
 -1      1990 1.19750E+00
 -1      1991 1.26605E+00
 -1      1992 1.15995E+00
 -1      1993 1.17596E+00
 -1      1994 1.20524E+00
 -1      1995 1.13529E+00
 -1      1996 1.02366E+00
 -1      1997 1.34566E+00
 -1      1998 1.18564E+00
 -1      1999 8.73295E-01
 -1      2000 1.65992E+00
 -1      2001 1.66915E+00
 -1      2002 1.17718E+00
 -1      2003 2.25413E+00
 -1      2004 1.99492E+00
 -1      2005 1.83567E+00
 -1      2006 2.99358E+00
 -1      2007 2.46573E+00
 -1      2008 2.38226E+00
 -1      2009 3.22614E+00
 -1      2010 2.85932E+00
 -1      2011 2.45960E+00
 -1      2012 3.61292E+00
 -1      2013 3.32881E+00
 -1      2014 2.42801E+00
 -1      2015 3.22063E+00
 -1      2016 3.58851E+00
 -1      2017 2.50627E+00
 -1      2018 1.95218E+00
 -1      2019 2.80932E+00
 -1      2020 2.07054E+00
 -1      2021 1.18891E+00
 -1      2022 1.58656E+00
 -1      2023 1.29361E+00
 -1      2024 1.12163E+00
 -1      2025 1.17495E+00
 -1      2026 9.14030E-01
 -1      2027 1.31572E+00
 -1      2028 1.24981E+00
 -1      2029 1.02825E+00
 -1      2030 1.42111E+00
 -1      2031 1.33559E+00
 -1      2032 1.17630E+00
 -1      2033 1.38264E+00
 -1      2034 1.42790E+00
 -1      2035 1.20297E+00
 -1      2036 1.22415E+00
 -1      2037 1.33246E+00
 -1      2038 1.15958E+00
 -1      2039 1.05878E+00
 -1      2040 1.16629E+00
 -1      2041 1.05153E+00
 -1      2042 8.88517E-01
 -1      2043 9.87475E-01
 -1      2044 9.22363E-01
 -1      2045 7.17982E-01
 -1      2046 8.10769E-01
 -1      2047 7.73313E-01
 -1      2048 5.59262E-01
 -1      2049 6.43999E-01
 -1      2050 6.21583E-01
 -1      2051 4.21792E-01
 -1      2052 4.94217E-01
 -1      2053 4.82555E-01
 -1      2054 3.08990E-01
 -1      2055 3.67531E-01
 -1      2056 3.63250E-01
 -1      2057 2.27660E-01
 -1      2058 2.66306E-01
 -1      2059 2.66306E-01
 -1      2060 1.71052E-01
 -1      2061 2.00659E-01
 -1      2062 1.96621E-01
 -1      2063 1.25669E-01
 -1      2064 1.49076E-01
 -1      2065 1.47645E-01
 -1      2066 9.02971E-02
 -1      2067 1.07983E-01
 -1      2068 1.07983E-01
 -1      2069 6.26726E-02
 -1      2070 7.59491E-02
 -1      2071 7.59491E-02
 -1      2072 4.46401E-02
 -1      2073 5.18164E-02
 -1      2074 5.07449E-02
 -1      2075 2.43031E-02
 -1      2076 3.54522E-02
 -1      2077 3.07009E-02
 -1      2078 1.92338E-02
 -1      2079 1.74380E-02
 -1      2080 2.14538E-02
 -1      2081 2.66574E-02
 -1      2082 2.66574E-02
 -1      2083 2.82426E-02
 -1      2084 2.66574E-02
 -1      2085 2.52004E-02
 -1      2086 2.74796E-02
 -1      2087 3.34462E-02
 -1      2088 1.90384E-02
 -1      2089 1.70511E-02
 -1      2090 2.26521E-02
 -1      2091 2.63355E-02
 -1      2092 2.34725E-02
 -1      2093 2.66993E-02
 -1      2094 2.95486E-02
 -1      2095 2.84119E-02
 -1      2096 3.32097E-02
 -1      2097 2.95486E-02
 -1      2098 2.95486E-02
 -1      2099 3.52860E-02
 -1      2100 2.92755E-02
 -1      2101 2.93149E-02
 -1      2102 3.50522E-02
 -1      2103 2.79477E-02
 -1      2104 2.92755E-02
 -1      2105 3.48184E-02
 -1      2106 2.29089E-02
 -1      2107 2.57289E-02
 -1      2108 3.25996E-02
 -1      2109 1.64207E-02
 -1      2110 1.83768E-02
 -1      2111 2.58487E-02
 -1      2112 2.13590E-02
 -1      2113 1.72590E-02
 -1      2114 2.21548E-02
 -1      2115 2.54111E-02
 -1      2116 2.54111E-02
 -1      2117 2.70452E-02
 -1      2118 3.91504E+01
 -1      2119 2.98190E+01
 -1      2120 3.30374E+01
 -1      2121 3.30374E+01
 -1      2122 3.10017E+01
 -1      2123 3.26109E+01
 -1      2124 2.02855E+01
 -1      2125 3.28340E+01
 -1      2126 1.06595E+01
 -1      2127 1.67290E+01
 -1      2128 1.02460E+00
 -1      2129 1.18967E+00
 -1      2130 9.35410E-01
 -1      2131 8.34916E-01
 -1      2132 1.15126E+01
 -1      2133 1.17582E+01
 -1      2134 1.17142E+01
 -1      2135 1.18355E+01
 -1      2136 1.24126E+01
 -1      2137 1.15912E+01
 -1      2138 1.12655E+01
 -1      2139 9.42053E+00
 -1      2140 1.04145E+01
 -1      2141 1.48462E+01
 -1      2142 1.00830E+01
 -1      2143 3.17605E+01
 -1      2144 1.87136E+01
 -1      2145 2.82496E+01
 -1      2146 3.77821E+01
 -1      2147 2.97029E+01
 -1      2148 2.90145E+01
 -1      2149 3.19120E+01
 -1      2150 3.19120E+01
 -1      2151 3.19885E+01
 -1      2152 3.12699E+01
 -1      2153 3.19120E+01
 -1      2154 3.80456E+01
 -1      2155 2.83422E+01
 -1      2156 1.96658E+01
 -1      2157 3.24712E+01
 -1      2158 1.07559E+01
 -1      2159 1.58684E+01
 -1      2160 9.84883E+00
 -1      2161 9.84199E+00
 -1      2162 1.08199E+01
 -1      2163 1.07031E+01
 -1      2164 1.12921E+01
 -1      2165 1.15685E+01
 -1      2166 1.11699E+01
 -1      2167 1.09754E+01
 -1      2168 1.01033E+01
 -1      2169 1.01124E+01
 -1      2170 9.28606E+00
 -1      2171 1.15614E+01
 -1      2172 9.53765E+00
 -1      2173 2.80752E+01
 -1      2174 1.50581E+01
 -1      2175 1.05940E+01
 -1      2176 3.18535E+01
 -1      2177 3.38868E+01
 -1      2178 3.04329E+01
 -1      2179 3.29108E+01
 -1      2180 3.04329E+01
 -1      2181 1.02272E+01
 -1      2182 9.46324E+00
 -1      2183 1.36298E+01
 -1      2184 3.18731E+00
 -1      2185 8.87696E+00
 -1      2186 9.21171E+00
 -1      2187 2.37177E+00
 -1      2188 3.10017E+01
 -1      2189 3.26109E+01
 -1      2190 2.63938E-02
 -1      2191 2.35026E+01
 -1      2192 2.81280E+01
 -1      2193 1.41434E+01
 -1      2194 1.99550E+01
 -1      2195 8.31305E+00
 -1      2196 6.43835E+00
 -1      2197 5.87272E+00
 -1      2198 1.06602E+01
 -1      2199 1.02284E+01
 -1      2200 8.62546E+00
 -1      2201 8.10277E+00
 -1      2202 6.94580E+00
 -1      2203 6.03193E+00
 -1      2204 1.33962E+01
 -1      2205 2.27679E+01
 -1      2206 3.41976E+01
 -1      2207 2.90145E+01
 -1      2208 2.22279E+01
 -1      2209 1.23388E+01
 -1      2210 9.14441E+00
 -1      2211 1.10656E+01
 -1      2212 7.80882E+00
 -1      2213 2.60547E+01
 -1      2214 2.89824E+01
 -1      2215 2.60547E+01
 -1      2216 2.67711E+01
 -1      2217 1.04749E+00
 -1      2218 1.42115E+00
 -1      2219 8.82374E-01
 -1      2220 8.93224E-01
 -1      2221 6.67544E-01
 -1      2222 6.93717E-01
 -1      2223 8.37370E-01
 -1      2224 6.67539E-01
 -1      2225 7.17521E-01
 -1      2226 6.99153E-01
 -1      2227 6.46907E-01
 -1      2228 7.60237E-01
 -1      2229 7.11410E-01
 -1      2230 6.53034E-01
 -1      2231 6.93486E-01
 -1      2232 7.62462E-01
 -1      2233 7.11410E-01
 -1      2234 6.47367E-01
 -1      2235 8.17139E-01
 -1      2236 7.55571E-01
 -1      2237 6.40476E-01
 -1      2238 9.28292E-01
 -1      2239 8.33406E-01
 -1      2240 6.49851E-01
 -1      2241 8.64243E-01
 -1      2242 9.77883E-01
 -1      2243 9.33854E-01
 -1      2244 1.59966E+00
 -1      2245 4.11219E+00
 -1      2246 6.82081E+00
 -1      2247 8.01707E+00
 -1      2248 4.52898E+00
 -1      2249 6.48643E+00
 -1      2250 1.35386E+00
 -1      2251 7.78706E+00
 -1      2252 3.84595E+00
 -1      2253 3.07128E+00
 -1      2254 2.51042E+00
 -1      2255 1.22284E+00
 -1      2256 3.03638E+00
 -1      2257 6.38908E-01
 -1      2258 3.70934E-01
 -1      2259 1.11692E+00
 -1      2260 2.16098E-01
 -1      2261 2.66664E-01
 -1      2262 3.78157E-01
 -1      2263 2.66085E-01
 -1      2264 2.82846E-01
 -1      2265 2.22742E-01
 -1      2266 2.98310E-01
 -1      2267 2.66541E-01
 -1      2268 2.37626E-01
 -1      2269 2.38233E-01
 -1      2270 2.74707E-01
 -1      2271 2.24782E-01
 -1      2272 3.60897E-01
 -1      2273 3.68854E-01
 -1      2274 2.82664E-01
 -1      2275 3.68854E-01
 -1      2276 3.87465E-01
 -1      2277 3.68854E-01
 -1      2278 4.24708E-01
 -1      2279 4.75322E-01
 -1      2280 4.06097E-01
 -1      2281 5.23861E-01
 -1      2282 5.66626E-01
 -1      2283 4.91880E-01
 -1      2284 6.07374E-01
 -1      2285 6.52939E-01
 -1      2286 5.81167E-01
 -1      2287 6.86027E-01
 -1      2288 7.30946E-01
 -1      2289 6.55003E-01
 -1      2290 7.77577E-01
 -1      2291 7.90455E-01
 -1      2292 7.34721E-01
 -1      2293 8.17068E-01
 -1      2294 7.73976E-01
 -1      2295 8.07965E-01
 -1      2296 7.67864E-01
 -1      2297 6.98358E-01
 -1      2298 8.28466E-01
 -1      2299 8.01672E-01
 -1      2300 8.04274E-01
 -1      2301 9.25668E-01
 -1      2302 8.25420E-01
 -1      2303 1.04525E+00
 -1      2304 1.05013E+00
 -1      2305 1.17383E+00
 -1      2306 1.40597E+00
 -1      2307 1.19985E+00
 -1      2308 1.50143E+00
 -1      2309 1.72574E+00
 -1      2310 1.42388E+00
 -1      2311 1.93322E+00
 -1      2312 2.02509E+00
 -1      2313 1.72681E+00
 -1      2314 2.11558E+00
 -1      2315 2.08000E+00
 -1      2316 2.02478E+00
 -1      2317 2.17707E+00
 -1      2318 2.19659E+00
 -1      2319 2.21235E+00
 -1      2320 1.89103E+00
 -1      2321 1.70480E+00
 -1      2322 2.00387E+00
 -1      2323 1.55465E+00
 -1      2324 1.34894E+00
 -1      2325 1.54817E+00
 -1      2326 1.27554E+00
 -1      2327 1.00764E+00
 -1      2328 1.32462E+00
 -1      2329 9.34930E-01
 -1      2330 8.43118E-01
 -1      2331 1.17851E+00
 -1      2332 7.63210E-01
 -1      2333 7.70903E-01
 -1      2334 1.02589E+00
 -1      2335 7.23327E-01
 -1      2336 8.07601E-01
 -1      2337 8.98407E-01
 -1      2338 8.00020E-01
 -1      2339 8.14062E-01
 -1      2340 8.43250E-01
 -1      2341 7.79066E-01
 -1      2342 7.49639E-01
 -1      2343 8.00673E-01
 -1      2344 7.06599E-01
 -1      2345 6.66556E-01
 -1      2346 7.22638E-01
 -1      2347 6.35373E-01
 -1      2348 5.99217E-01
 -1      2349 6.48415E-01
 -1      2350 5.60346E-01
 -1      2351 5.19618E-01
 -1      2352 5.78361E-01
 -1      2353 4.76039E-01
 -1      2354 4.31350E-01
 -1      2355 4.95911E-01
 -1      2356 3.88306E-01
 -1      2357 3.45097E-01
 -1      2358 4.09288E-01
 -1      2359 3.05714E-01
 -1      2360 2.67054E-01
 -1      2361 3.26862E-01
 -1      2362 2.32890E-01
 -1      2363 2.00148E-01
 -1      2364 2.53316E-01
 -1      2365 1.71706E-01
 -1      2366 1.45383E-01
 -1      2367 1.90710E-01
 -1      2368 1.22518E-01
 -1      2369 1.06060E-01
 -1      2370 1.39403E-01
 -1      2371 8.82860E-02
 -1      2372 7.46002E-02
 -1      2373 9.87633E-02
 -1      2374 6.12455E-02
 -1      2375 5.20916E-02
 -1      2376 6.76342E-02
 -1      2377 5.41399E-01
 -1      2378 6.17484E-01
 -1      2379 4.76416E-01
 -1      2380 5.05773E-01
 -1      2381 5.05773E-01
 -1      2382 4.37025E-01
 -1      2383 4.49847E-01
 -1      2384 4.43577E-01
 -1      2385 3.93133E-01
 -1      2386 4.07082E-01
 -1      2387 3.87064E-01
 -1      2388 3.47754E-01
 -1      2389 3.61002E-01
 -1      2390 3.24989E-01
 -1      2391 3.28190E-01
 -1      2392 3.38251E-01
 -1      2393 2.83354E-01
 -1      2394 3.51344E-01
 -1      2395 3.49024E-01
 -1      2396 2.94684E-01
 -1      2397 4.47070E-01
 -1      2398 3.97733E-01
 -1      2399 3.61907E-01
 -1      2400 6.04392E-01
 -1      2401 5.22639E-01
 -1      2402 4.83865E-01
 -1      2403 7.70051E-01
 -1      2404 6.85530E-01
 -1      2405 6.40571E-01
 -1      2406 9.29311E-01
 -1      2407 8.51521E-01
 -1      2408 8.03178E-01
 -1      2409 1.06702E+00
 -1      2410 1.00125E+00
 -1      2411 9.56583E-01
 -1      2412 1.16587E+00
 -1      2413 1.11988E+00
 -1      2414 1.08138E+00
 -1      2415 1.23800E+00
 -1      2416 1.23800E+00
 -1      2417 1.20637E+00
 -1      2418 1.28936E+00
 -1      2419 1.31090E+00
 -1      2420 1.35140E+00
 -1      2421 1.18070E+00
 -1      2422 1.31146E+00
 -1      2423 1.44640E+00
 -1      2424 1.25049E+00
 -1      2425 1.27009E+00
 -1      2426 1.55789E+00
 -1      2427 1.69326E+00
 -1      2428 1.36977E+00
 -1      2429 1.76657E+00
 -1      2430 2.48188E+00
 -1      2431 2.14688E+00
 -1      2432 2.33947E+00
 -1      2433 3.69412E+00
 -1      2434 3.48252E+00
 -1      2435 3.79374E+00
 -1      2436 3.29597E+00
 -1      2437 3.43022E+00
 -1      2438 4.53048E+00
 -1      2439 2.89363E+00
 -1      2440 2.79096E+00
 -1      2441 3.76158E+00
 -1      2442 2.45667E+00
 -1      2443 2.48109E+00
 -1      2444 2.84403E+00
 -1      2445 1.86354E+00
 -1      2446 2.27485E+00
 -1      2447 2.24967E+00
 -1      2448 1.28851E+00
 -1      2449 1.65413E+00
 -1      2450 1.85844E+00
 -1      2451 1.23571E+00
 -1      2452 1.24967E+00
 -1      2453 1.61019E+00
 -1      2454 1.26174E+00
 -1      2455 1.13356E+00
 -1      2456 1.46920E+00
 -1      2457 1.26050E+00
 -1      2458 1.24063E+00
 -1      2459 1.34594E+00
 -1      2460 1.20297E+00
 -1      2461 1.19618E+00
 -1      2462 1.26050E+00
 -1      2463 1.12405E+00
 -1      2464 1.17423E+00
 -1      2465 1.16744E+00
 -1      2466 1.00367E+00
 -1      2467 1.06153E+00
 -1      2468 1.07619E+00
 -1      2469 8.54870E-01
 -1      2470 9.26173E-01
 -1      2471 9.36177E-01
 -1      2472 6.98808E-01
 -1      2473 7.76556E-01
 -1      2474 7.80366E-01
 -1      2475 5.54783E-01
 -1      2476 6.28766E-01
 -1      2477 6.32008E-01
 -1      2478 4.27910E-01
 -1      2479 4.92955E-01
 -1      2480 5.00138E-01
 -1      2481 3.21009E-01
 -1      2482 3.75269E-01
 -1      2483 3.85670E-01
 -1      2484 2.35174E-01
 -1      2485 2.77858E-01
 -1      2486 2.89877E-01
 -1      2487 1.73852E-01
 -1      2488 2.00853E-01
 -1      2489 2.12404E-01
 -1      2490 1.25308E-01
 -1      2491 1.47284E-01
 -1      2492 1.51515E-01
 -1      2493 8.76341E-02
 -1      2494 1.05320E-01
 -1      2495 1.04959E-01
 -1      2496 6.02282E-02
 -1      2497 7.45762E-02
 -1      2498 7.19131E-02
 -1      2499 4.07089E-02
 -1      2500 5.15651E-02
 -1      2501 5.01922E-02
 -1      2502 3.66675E-02
 -1      2503 3.59159E-02
 -1      2504 3.14818E-02
 -1      2505 4.13946E-02
 -1      2506 3.93182E-02
 -1      2507 4.41008E-02
 -1      2508 2.79887E-02
 -1      2509 3.31922E-02
 -1      2510 2.76018E-02
 -1      2511 2.79887E-02
 -1      2512 3.29383E-02
 -1      2513 3.68184E-02
 -1      2514 4.13951E-02
 -1      2515 4.13951E-02
 -1      2516 4.75037E-02
 -1      2517 4.11613E-02
 -1      2518 4.13951E-02
 -1      2519 4.75042E-02
 -1      2520 4.11531E-02
 -1      2521 4.11531E-02
 -1      2522 4.74959E-02
 -1      2523 3.84211E-02
 -1      2524 4.06399E-02
 -1      2525 4.69746E-02
 -1      2526 3.01830E-02
 -1      2527 3.47152E-02
 -1      2528 4.27555E-02
 -1      2529 3.04662E-02
 -1      2530 2.96278E-02
 -1      2531 3.84943E-02
 -1      2532 3.45182E-02
 -1      2533 3.04662E-02
 -1      2534 3.79392E-02
 -1      2535 3.21845E+01
 -1      2536 3.26109E+01
 -1      2537 1.49766E+01
 -1      2538 2.12930E+01
 -1      2539 6.93570E-01
 -1      2540 7.78906E-01
 -1      2541 6.17484E-01
 -1      2542 8.00160E+00
 -1      2543 6.47060E+00
 -1      2544 5.61070E+00
 -1      2545 3.22235E-02
 -1      2546 2.49117E+01
 -1      2547 2.60944E+01
 -1      2548 1.63857E+01
 -1      2549 3.04329E+01
 -1      2550 2.78283E+01
 -1      2551 9.06229E+00
 -1      2552 9.37898E+00
 -1      2553 2.52379E+01
 -1      2554 2.44730E+01
 -1      2555 8.58611E-01
 -1      2556 8.82374E-01
 -1      2557 1.06305E+00
 -1      2558 9.21959E-01
 -1      2559 9.52530E+00
 -1      2560 9.20243E+00
 -1      2561 6.69938E+00
 -1      2562 6.03686E+00
 -1      2563 9.35214E+00
 -1      2564 9.47509E+00
 -1      2565 6.25784E+00
 -1      2566 8.25596E+00
 -1      2567 1.20843E+01
 -1      2568 8.21685E+00
 -1      2569 2.00745E+01
 -1      2570 1.40528E+01
 -1      2571 1.62979E+01
 -1      2572 3.19885E+01
 -1      2573 2.97795E+01
 -1      2574 2.44743E+01
 -1      2575 2.34170E+01
 -1      2576 3.41976E+01
 -1      2577 3.41976E+01
 -1      2578 3.19885E+01
 -1      2579 1.51167E+01
 -1      2580 2.06910E+01
 -1      2581 8.81411E+00
 -1      2582 1.26114E+01
 -1      2583 1.05346E+01
 -1      2584 7.59618E+00
 -1      2585 6.74186E+00
 -1      2586 9.21979E+00
 -1      2587 8.47121E+00
 -1      2588 6.58761E+00
 -1      2589 7.28662E+00
 -1      2590 8.34411E+00
 -1      2591 7.06285E+00
 -1      2592 1.16617E+01
 -1      2593 8.16509E+00
 -1      2594 1.59405E+00
 -1      2595 1.48454E+00
 -1      2596 8.21941E-01
 -1      2597 8.41777E-01
 -1      2598 1.55264E+00
 -1      2599 1.69551E+00
 -1      2600 1.30411E+00
 -1      2601 1.13495E+00
 -1      2602 9.99017E+00
 -1      2603 1.35467E+01
 -1      2604 6.46133E+00
 -1      2605 6.42777E-01
 -1      2606 7.24804E-01
 -1      2607 7.83977E-01
 -1      2608 7.78906E-01
 -1      2609 1.22846E+00
 -1      2610 7.93401E+00
 -1      2611 8.00456E-01
 -1      2612 9.16378E+00
 -1      2613 7.40662E+00
 -1      2614 7.56582E+00
 -1      2615 7.38552E+00
 -1      2616 6.60074E+00
 -1      2617 4.73243E+00
 -1      2618 2.60944E+01
 -1      2619 2.53529E+01
 -1      2620 2.53529E+01
 -1      2621 2.01377E+01
 -1      2622 3.74876E-02
 -1      2623 1.13371E+01
 -1      2624 3.74876E-02
 -1      2625 2.44743E+01
 -1      2626 3.00064E+01
 -1      2627 1.84462E+01
 -1      2628 1.26875E+01
 -1      2629 1.61494E+01
 -1      2630 9.66281E-01
 -1      2631 6.94049E+00
 -1      2632 1.17145E+01
 -1      2633 1.21890E+01
 -1      2634 8.06713E+00
 -1      2635 1.00356E+01
 -1      2636 2.52379E+01
 -1      2637 5.97034E+00
 -1      2638 5.08188E+00
 -1      2639 4.86090E+00
 -1      2640 6.46557E+00
 -1      2641 5.61592E+00
 -1      2642 3.87670E+00
 -1      2643 4.58663E+00
 -1      2644 3.33496E-02
 -1      2645 3.22235E-02
 -1      2646 3.56444E-02
 -1      2647 4.16266E-02
 -1      2648 6.44489E+00
 -1      2649 7.61196E+00
 -1      2650 2.10181E+01
 -1      2651 1.87306E+01
 -1      2652 1.33669E+01
 -1      2653 6.30608E+00
 -1      2654 5.36413E+00
 -1      2655 4.51586E+00
 -1      2656 3.72337E-02
 -1      2657 4.38146E-02
 -1      2658 8.86139E-01
 -1      2659 9.32257E-01
 -1      2660 1.99806E+00
 -1      2661 2.01869E+00
 -1      2662 2.19071E+00
 -1      2663 6.25632E-01
 -1      2664 6.32524E-01
 -1      2665 5.73597E-01
 -1      2666 5.57331E-01
 -1      2667 5.49378E-01
 -1      2668 6.80038E-01
 -1      2669 7.49649E-01
 -1      2670 6.61626E+00
 -1      2671 4.32389E+00
 -1      2672 8.34791E-01
 -1      2673 6.90344E-01
 -1      2674 5.24353E+00
 -1      2675 6.54415E+00
 -1      2676 6.54415E+00
 -1      2677 5.20863E+00
 -1      2678 8.71640E+00
 -1      2679 3.40844E+00
 -1      2680 2.82451E+00
 -1      2681 6.91621E+00
 -1      2682 5.69489E-01
 -1      2683 4.14653E-01
 -1      2684 2.86100E+00
 -1      2685 2.52086E-01
 -1      2686 2.51506E-01
 -1      2687 4.43418E-01
 -1      2688 3.57515E-01
 -1      2689 3.72979E-01
 -1      2690 3.86859E-01
 -1      2691 2.53090E-01
 -1      2692 2.24782E-01
 -1      2693 3.72979E-01
 -1      2694 3.37959E-01
 -1      2695 4.24149E-01
 -1      2696 3.66267E-01
 -1      2697 3.18270E-01
 -1      2698 3.18270E-01
 -1      2699 3.73565E-01
 -1      2700 3.70455E-01
 -1      2701 4.07698E-01
 -1      2702 3.19870E-01
 -1      2703 4.63358E-01
 -1      2704 5.11897E-01
 -1      2705 4.27715E-01
 -1      2706 5.68703E-01
 -1      2707 6.09451E-01
 -1      2708 5.40181E-01
 -1      2709 6.63005E-01
 -1      2710 6.96093E-01
 -1      2711 6.50541E-01
 -1      2712 7.52380E-01
 -1      2713 7.99010E-01
 -1      2714 7.60382E-01
 -1      2715 8.86859E-01
 -1      2716 9.13472E-01
 -1      2717 9.04517E-01
 -1      2718 9.94169E-01
 -1      2719 9.88057E-01
 -1      2720 1.07306E+00
 -1      2721 1.04888E+00
 -1      2722 1.15219E+00
 -1      2723 1.21458E+00
 -1      2724 1.31260E+00
 -1      2725 1.33374E+00
 -1      2726 1.43580E+00
 -1      2727 1.48197E+00
 -1      2728 1.61055E+00
 -1      2729 1.74444E+00
 -1      2730 2.11912E+00
 -1      2731 2.21457E+00
 -1      2732 2.40125E+00
 -1      2733 2.14846E+00
 -1      2734 2.35593E+00
 -1      2735 2.84370E+00
 -1      2736 3.36816E+00
 -1      2737 3.45866E+00
 -1      2738 3.78981E+00
 -1      2739 3.58941E+00
 -1      2740 3.68649E+00
 -1      2741 4.93280E+00
 -1      2742 3.28071E+00
 -1      2743 2.97516E+00
 -1      2744 4.65777E+00
 -1      2745 1.75112E+00
 -1      2746 1.60098E+00
 -1      2747 3.02797E+00
 -1      2748 1.54470E+00
 -1      2749 1.47130E+00
 -1      2750 1.74765E+00
 -1      2751 1.61468E+00
 -1      2752 1.54198E+00
 -1      2753 1.83476E+00
 -1      2754 1.32973E+00
 -1      2755 1.24982E+00
 -1      2756 1.76590E+00
 -1      2757 1.10295E+00
 -1      2758 1.05537E+00
 -1      2759 1.40679E+00
 -1      2760 9.80485E-01
 -1      2761 9.72905E-01
 -1      2762 1.18503E+00
 -1      2763 8.85007E-01
 -1      2764 8.50010E-01
 -1      2765 1.02224E+00
 -1      2766 7.72232E-01
 -1      2767 7.29193E-01
 -1      2768 8.56566E-01
 -1      2769 6.84050E-01
 -1      2770 6.52867E-01
 -1      2771 7.33645E-01
 -1      2772 6.01976E-01
 -1      2773 5.63104E-01
 -1      2774 6.37611E-01
 -1      2775 5.12575E-01
 -1      2776 4.68996E-01
 -1      2777 5.36189E-01
 -1      2778 4.22236E-01
 -1      2779 3.79192E-01
 -1      2780 4.38899E-01
 -1      2781 3.37880E-01
 -1      2782 2.98497E-01
 -1      2783 3.50827E-01
 -1      2784 2.63237E-01
 -1      2785 2.29073E-01
 -1      2786 2.74254E-01
 -1      2787 1.99812E-01
 -1      2788 1.71370E-01
 -1      2789 2.09733E-01
 -1      2790 1.47679E-01
 -1      2791 1.24814E-01
 -1      2792 1.56781E-01
 -1      2793 1.06162E-01
 -1      2794 8.83874E-02
 -1      2795 1.14438E-01
 -1      2796 7.06699E-02
 -1      2797 5.73153E-02
 -1      2798 7.80686E-02
 -1      2799 3.62833E-01
 -1      2800 3.89403E-01
 -1      2801 7.10060E+00
 -1      2802 5.58312E+00
 -1      2803 4.19956E-01
 -1      2804 4.55582E-01
 -1      2805 3.39212E-01
 -1      2806 2.55516E-01
 -1      2807 2.87648E-01
 -1      2808 2.17040E-01
 -1      2809 2.26544E-01
 -1      2810 1.89202E-01
 -1      2811 2.55499E-01
 -1      2812 2.34666E-01
 -1      2813 1.77855E-01
 -1      2814 3.60484E-01
 -1      2815 3.14095E-01
 -1      2816 2.54077E-01
 -1      2817 5.03454E-01
 -1      2818 4.27885E-01
 -1      2819 3.80074E-01
 -1      2820 6.61420E-01
 -1      2821 5.80283E-01
 -1      2822 5.24303E-01
 -1      2823 8.28907E-01
 -1      2824 7.47438E-01
 -1      2825 6.87150E-01
 -1      2826 9.94087E-01
 -1      2827 9.22152E-01
 -1      2828 8.66412E-01
 -1      2829 1.14237E+00
 -1      2830 1.08951E+00
 -1      2831 1.05508E+00
 -1      2832 1.30214E+00
 -1      2833 1.23001E+00
 -1      2834 1.23814E+00
 -1      2835 1.51021E+00
 -1      2836 1.43731E+00
 -1      2837 1.46095E+00
 -1      2838 1.74474E+00
 -1      2839 1.72264E+00
 -1      2840 1.80855E+00
 -1      2841 1.96504E+00
 -1      2842 1.87565E+00
 -1      2843 2.15189E+00
 -1      2844 2.19056E+00
 -1      2845 2.07127E+00
 -1      2846 2.38903E+00
 -1      2847 2.94003E+00
 -1      2848 2.48641E+00
 -1      2849 2.79111E+00
 -1      2850 4.79438E+00
 -1      2851 3.79374E+00
 -1      2852 4.80802E+00
 -1      2853 5.31303E+00
 -1      2854 2.84403E+00
 -1      2855 3.25658E+00
 -1      2856 4.80802E+00
 -1      2857 2.16992E+00
 -1      2858 2.35174E+00
 -1      2859 2.76428E+00
 -1      2860 1.87492E+00
 -1      2861 2.08434E+00
 -1      2862 2.18641E+00
 -1      2863 2.02886E+00
 -1      2864 2.06770E+00
 -1      2865 2.29359E+00
 -1      2866 1.74984E+00
 -1      2867 1.85199E+00
 -1      2868 2.30949E+00
 -1      2869 1.62928E+00
 -1      2870 1.65039E+00
 -1      2871 2.03318E+00
 -1      2872 1.37287E+00
 -1      2873 1.43719E+00
 -1      2874 1.74164E+00
 -1      2875 1.21659E+00
 -1      2876 1.24533E+00
 -1      2877 1.42202E+00
 -1      2878 1.07489E+00
 -1      2879 1.13741E+00
 -1      2880 1.21530E+00
 -1      2881 9.09845E-01
 -1      2882 9.87342E-01
 -1      2883 1.04856E+00
 -1      2884 7.46046E-01
 -1      2885 8.24361E-01
 -1      2886 8.75525E-01
 -1      2887 5.98163E-01
 -1      2888 6.68206E-01
 -1      2889 7.12201E-01
 -1      2890 4.68584E-01
 -1      2891 5.30411E-01
 -1      2892 5.66608E-01
 -1      2893 3.58857E-01
 -1      2894 4.11498E-01
 -1      2895 4.41771E-01
 -1      2896 2.68828E-01
 -1      2897 3.11979E-01
 -1      2898 3.37808E-01
 -1      2899 1.96852E-01
 -1      2900 2.31173E-01
 -1      2901 2.53275E-01
 -1      2902 1.40637E-01
 -1      2903 1.67205E-01
 -1      2904 1.85974E-01
 -1      2905 9.77925E-02
 -1      2906 1.17780E-01
 -1      2907 1.33471E-01
 -1      2908 6.70872E-02
 -1      2909 8.01451E-02
 -1      2910 9.29666E-02
 -1      2911 4.49038E-02
 -1      2912 5.35668E-02
 -1      2913 6.17988E-02
 -1      2914 4.06084E-02
 -1      2915 8.75250E+00
 -1      2916 1.01824E+01
 -1      2917 5.66828E-02
 -1      2918 5.66828E-02
 -1      2919 4.61094E-02
 -1      2920 3.56444E-02
 -1      2921 4.91451E-02
 -1      2922 5.50790E-02
 -1      2923 5.16767E-02
 -1      2924 5.63125E-02
 -1      2925 5.63208E-02
 -1      2926 6.54993E-02
 -1      2927 5.66828E-02
 -1      2928 5.66822E-02
 -1      2929 6.42582E-02
 -1      2930 6.58613E-02
 -1      2931 5.57994E-02
 -1      2932 5.63125E-02
 -1      2933 6.51373E-02
 -1      2934 4.96637E-02
 -1      2935 5.33697E-02
 -1      2936 6.27076E-02
 -1      2937 4.08344E-02
 -1      2938 4.13895E-02
 -1      2939 5.20037E-02
 -1      2940 2.20613E+01
 -1      2941 1.98832E+01
 -1      2942 1.54520E+01
 -1      2943 1.10535E+01
 -1      2944 1.14498E+01
 -1      2945 1.50685E+01
 -1      2946 1.14872E+01
 -1      2947 9.00554E+00
 -1      2948 4.96168E-01
 -1      2949 5.72254E-01
 -1      2950 4.10351E-01
 -1      2951 3.14637E-01
 -1      2952 3.44581E-01
 -1      2953 2.90406E-01
 -1      2954 2.45164E-01
 -1      2955 9.83126E-01
 -1      2956 1.39992E+00
 -1      2957 4.87280E+00
 -1      2958 8.86139E-01
 -1      2959 8.86139E-01
 -1      2960 1.12491E+00
 -1      2961 8.71295E-01
 -1      2962 5.97057E-01
 -1      2963 6.82394E-01
 -1      2964 4.98189E-01
 -1      2965 4.75741E-01
 -1      2966 6.19869E+00
 -1      2967 8.17179E+00
 -1      2968 9.49269E-01
 -1      2969 7.23589E-01
 -1      2970 5.08188E+00
 -1      2971 6.17806E+00
 -1      2972 2.12063E+01
 -1      2973 1.78523E+01
 -1      2974 6.96061E+00
 -1      2975 7.01082E+00
 -1      2976 2.20889E+01
 -1      2977 1.75473E+01
 -1      2978 1.23030E+01
 -1      2979 2.31722E+01
 -1      2980 2.09631E+01
 -1      2981 3.79392E-02
 -1      2982 7.49359E+00
 -1      2983 9.99883E+00
 -1      2984 5.79829E+00
 -1      2985 6.51646E+00
 -1      2986 1.76450E+01
 -1      2987 2.37350E+01
 -1      2988 1.27091E+01
 -1      2989 6.13234E+00
 -1      2990 5.25731E+00
 -1      2991 4.09795E+00
 -1      2992 4.44815E+00
 -1      2993 6.09575E+00
 -1      2994 4.89491E+00
 -1      2995 8.55581E-01
 -1      2996 8.86669E-01
 -1      2997 9.67480E-01
 -1      2998 3.30058E+00
 -1      2999 2.06276E+00
 -1      3000 2.20385E+00
 -1      3001 4.68593E+00
 -1      3002 4.19163E+00
 -1      3003 5.80976E-01
 -1      3004 3.73236E+00
 -1      3005 6.30126E+00
 -1      3006 3.75010E+00
 -1      3007 4.18983E+00
 -1      3008 3.33409E+00
 -1      3009 5.29834E+00
 -1      3010 4.75195E+00
 -1      3011 4.31780E+00
 -1      3012 1.78642E+01
 -1      3013 1.42347E+01
 -1      3014 1.28276E+01
 -1      3015 5.56342E-02
 -1      3016 4.46560E-02
 -1      3017 4.07759E-02
 -1      3018 5.51660E+00
 -1      3019 1.32726E+01
 -1      3020 5.57692E+00
 -1      3021 4.53048E+00
 -1      3022 4.79438E+00
 -1      3023 7.01717E+00
 -1      3024 7.40210E+00
 -1      3025 1.04431E+01
 -1      3026 1.07702E+01
 -1      3027 3.74494E-02
 -1      3028 3.74494E-02
 -1      3029 4.51195E-02
 -1      3030 4.52870E-02
 -1      3031 9.97846E+00
 -1      3032 8.86525E+00
 -1      3033 1.09459E+01
 -1      3034 1.88911E+01
 -1      3035 1.22691E+01
 -1      3036 2.20613E+01
 -1      3037 1.19381E+01
 -1      3038 1.36118E+01
 -1      3039 3.79392E-02
 -1      3040 1.46155E+01
 -1      3041 9.64476E+00
 -1      3042 1.13476E+01
 -1      3043 7.20536E+00
 -1      3044 1.43276E+01
 -1      3045 2.31722E+01
 -1      3046 1.21468E+01
 -1      3047 8.68953E+00
 -1      3048 9.53540E+00
 -1      3049 7.67167E+00
 -1      3050 4.25499E+00
 -1      3051 4.71026E+00
 -1      3052 3.58431E+00
 -1      3053 7.00620E+00
 -1      3054 7.23352E+00
 -1      3055 6.06500E+00
 -1      3056 4.61692E+00
 -1      3057 2.20385E+00
 -1      3058 2.20385E+00
 -1      3059 2.09007E+00
 -1      3060 3.34466E+00
 -1      3061 6.07633E+00
 -1      3062 4.88455E-01
 -1      3063 8.86669E-01
 -1      3064 9.03148E-01
 -1      3065 1.01827E+00
 -1      3066 1.09947E+00
 -1      3067 4.11121E-02
 -1      3068 4.11121E-02
 -1      3069 4.40073E-02
 -1      3070 5.23180E-02
 -1      3071 1.06433E+00
 -1      3072 4.66389E-01
 -1      3073 5.34691E-01
 -1      3074 5.44440E+00
 -1      3075 9.60483E+00
 -1      3076 1.21813E+01
 -1      3077 8.71640E+00
 -1      3078 8.71640E+00
 -1      3079 8.30946E+00
 -1      3080 6.50927E+00
 -1      3081 8.30946E+00
 -1      3082 3.08294E+00
 -1      3083 8.27916E-01
 -1      3084 4.47618E+00
 -1      3085 6.08351E-01
 -1      3086 4.45783E-01
 -1      3087 8.30282E-01
 -1      3088 8.90375E-01
 -1      3089 9.96384E-01
 -1      3090 1.05531E+00
 -1      3091 4.92868E-01
 -1      3092 3.72979E-01
 -1      3093 9.96384E-01
 -1      3094 3.66267E-01
 -1      3095 4.79444E-01
 -1      3096 4.86156E-01
 -1      3097 5.74053E-01
 -1      3098 4.68173E-01
 -1      3099 5.74053E-01
 -1      3100 2.84910E-01
 -1      3101 3.37095E-01
 -1      3102 4.85398E-01
 -1      3103 3.88817E-01
 -1      3104 4.44477E-01
 -1      3105 3.53857E-01
 -1      3106 5.10686E-01
 -1      3107 5.67492E-01
 -1      3108 4.71788E-01
 -1      3109 6.43880E-01
 -1      3110 6.97434E-01
 -1      3111 6.14385E-01
 -1      3112 7.87773E-01
 -1      3113 8.44060E-01
 -1      3114 7.81112E-01
 -1      3115 9.39234E-01
 -1      3116 1.02708E+00
 -1      3117 9.66626E-01
 -1      3118 1.15890E+00
 -1      3119 1.23960E+00
 -1      3120 1.19362E+00
 -1      3121 1.41849E+00
 -1      3122 1.47931E+00
 -1      3123 1.50433E+00
 -1      3124 1.71751E+00
 -1      3125 1.87792E+00
 -1      3126 1.92142E+00
 -1      3127 2.13989E+00
 -1      3128 2.28812E+00
 -1      3129 2.42159E+00
 -1      3130 2.41407E+00
 -1      3131 2.92264E+00
 -1      3132 2.80952E+00
 -1      3133 3.30888E+00
 -1      3134 3.24276E+00
 -1      3135 4.25499E+00
 -1      3136 4.93280E+00
 -1      3137 5.06355E+00
 -1      3138 5.15772E+00
 -1      3139 4.75195E+00
 -1      3140 1.80393E+00
 -1      3141 1.74765E+00
 -1      3142 2.47239E+00
 -1      3143 2.61578E+00
 -1      3144 2.52867E+00
 -1      3145 2.82339E+00
 -1      3146 2.61114E+00
 -1      3147 3.46102E+00
 -1      3148 2.36694E+00
 -1      3149 2.22007E+00
 -1      3150 3.42443E+00
 -1      3151 1.94485E+00
 -1      3152 1.86996E+00
 -1      3153 2.90501E+00
 -1      3154 1.58465E+00
 -1      3155 1.49675E+00
 -1      3156 2.34448E+00
 -1      3157 1.28161E+00
 -1      3158 1.20383E+00
 -1      3159 1.84402E+00
 -1      3160 1.07012E+00
 -1      3161 1.02498E+00
 -1      3162 1.49516E+00
 -1      3163 8.99300E-01
 -1      3164 8.48408E-01
 -1      3165 1.23577E+00
 -1      3166 7.38413E-01
 -1      3167 6.87883E-01
 -1      3168 1.00010E+00
 -1      3169 5.94745E-01
 -1      3170 5.47984E-01
 -1      3171 7.96968E-01
 -1      3172 4.70557E-01
 -1      3173 4.29245E-01
 -1      3174 6.26402E-01
 -1      3175 3.66715E-01
 -1      3176 3.31454E-01
 -1      3177 4.86445E-01
 -1      3178 2.81770E-01
 -1      3179 2.52509E-01
 -1      3180 3.74231E-01
 -1      3181 2.11401E-01
 -1      3182 1.87710E-01
 -1      3183 2.83438E-01
 -1      3184 1.54539E-01
 -1      3185 1.35887E-01
 -1      3186 2.09159E-01
 -1      3187 1.11431E-01
 -1      3188 9.37138E-02
 -1      3189 8.56807E-02
 -1      3190 1.51532E-01
 -1      3191 1.63541E-01
 -1      3192 1.45915E-01
 -1      3193 1.37779E-01
 -1      3194 1.66751E-01
 -1      3195 1.23464E-01
 -1      3196 3.87828E-01
 -1      3197 3.20427E-01
 -1      3198 5.33669E-01
 -1      3199 4.56840E-01
 -1      3200 3.97194E-01
 -1      3201 6.97830E-01
 -1      3202 6.11813E-01
 -1      3203 5.44350E-01
 -1      3204 8.93323E-01
 -1      3205 8.00079E-01
 -1      3206 7.24741E-01
 -1      3207 1.11095E+00
 -1      3208 1.01553E+00
 -1      3209 9.49196E-01
 -1      3210 1.35802E+00
 -1      3211 1.27038E+00
 -1      3212 1.23083E+00
 -1      3213 1.68821E+00
 -1      3214 1.55304E+00
 -1      3215 1.58527E+00
 -1      3216 2.08598E+00
 -1      3217 1.87355E+00
 -1      3218 1.96564E+00
 -1      3219 3.04697E+00
 -1      3220 2.91605E+00
 -1      3221 2.98106E+00
 -1      3222 4.53579E+00
 -1      3223 4.42956E+00
 -1      3224 5.19373E+00
 -1      3225 3.94067E+00
 -1      3226 4.79438E+00
 -1      3227 2.95769E+00
 -1      3228 2.76492E+00
 -1      3229 4.13693E+00
 -1      3230 4.31380E+00
 -1      3231 4.78513E+00
 -1      3232 2.91511E+00
 -1      3233 3.01456E+00
 -1      3234 5.01886E+00
 -1      3235 1.81993E+00
 -1      3236 2.01202E+00
 -1      3237 2.99340E+00
 -1      3238 1.51598E+00
 -1      3239 1.64352E+00
 -1      3240 1.91390E+00
 -1      3241 1.25802E+00
 -1      3242 1.33720E+00
 -1      3243 1.55871E+00
 -1      3244 1.02309E+00
 -1      3245 1.11064E+00
 -1      3246 1.23255E+00
 -1      3247 8.23655E-01
 -1      3248 9.09140E-01
 -1      3249 9.71221E-01
 -1      3250 6.51165E-01
 -1      3251 7.29005E-01
 -1      3252 7.62620E-01
 -1      3253 5.06675E-01
 -1      3254 5.74426E-01
 -1      3255 5.91231E-01
 -1      3256 3.88866E-01
 -1      3257 4.45952E-01
 -1      3258 4.53770E-01
 -1      3259 2.95315E-01
 -1      3260 3.42193E-01
 -1      3261 3.46373E-01
 -1      3262 2.20574E-01
 -1      3263 2.58229E-01
 -1      3264 2.62614E-01
 -1      3265 1.61682E-01
 -1      3266 1.91329E-01
 -1      3267 1.96282E-01
 -1      3268 1.16114E-01
 -1      3269 1.38971E-01
 -1      3270 1.44326E-01
 -1      3271 8.04536E-02
 -1      3272 9.81009E-02
 -1      3273 1.03601E-01
 -1      3274 5.38774E-02
 -1      3275 6.73978E-02
 -1      3276 7.25322E-02
 -1      3277 5.07185E-02
 -1      3278 7.51340E-02
 -1      3279 7.51340E-02
 -1      3280 6.53965E-02
 -1      3281 7.36706E-02
 -1      3282 7.46677E-02
 -1      3283 7.50297E-02
 -1      3284 8.46644E-02
 -1      3285 5.80717E+00
 -1      3286 6.38787E+00
 -1      3287 3.58779E-01
 -1      3288 3.99366E-01
 -1      3289 6.84707E+00
 -1      3290 5.07505E+00
 -1      3291 7.27042E-02
 -1      3292 7.51340E-02
 -1      3293 8.51306E-02
 -1      3294 8.60970E-02
 -1      3295 4.33165E+00
 -1      3296 4.29650E+00
 -1      3297 8.14011E+00
 -1      3298 4.33165E+00
 -1      3299 5.43555E+00
 -1      3300 6.32840E+00
 -1      3301 7.10824E+00
 -1      3302 8.37562E+00
 -1      3303 1.04697E+01
 -1      3304 1.15954E+01
 -1      3305 2.66246E-01
 -1      3306 2.07651E-01
 -1      3307 1.75711E-01
 -1      3308 2.74001E-01
 -1      3309 4.66290E+00
 -1      3310 2.74360E-01
 -1      3311 3.04913E-01
 -1      3312 2.93927E-01
 -1      3313 6.42061E+00
 -1      3314 4.84469E+00
 -1      3315 4.54883E+00
 -1      3316 7.38715E+00
 -1      3317 6.20708E+00
 -1      3318 4.93280E+00
 -1      3319 1.14726E+01
 -1      3320 9.37730E+00
 -1      3321 9.26188E+00
 -1      3322 8.06165E+00
 -1      3323 6.13050E+00
 -1      3324 7.72795E+00
 -1      3325 3.93206E+00
 -1      3326 3.31480E+00
 -1      3327 3.65792E-01
 -1      3328 3.58413E-01
 -1      3329 3.43726E-01
 -1      3330 3.68147E-01
 -1      3331 3.12731E+00
 -1      3332 3.31928E+00
 -1      3333 3.25348E+00
 -1      3334 2.44245E+00
 -1      3335 2.14831E+00
 -1      3336 3.21410E+00
 -1      3337 7.04591E+00
 -1      3338 7.08998E+00
 -1      3339 7.00351E+00
 -1      3340 2.71552E+00
 -1      3341 2.84751E+00
 -1      3342 3.40066E+00
 -1      3343 2.60370E+00
 -1      3344 8.13693E+00
 -1      3345 7.60913E+00
 -1      3346 6.37992E+00
 -1      3347 3.32170E+00
 -1      3348 2.06756E+00
 -1      3349 2.06756E+00
 -1      3350 3.09096E+00
 -1      3351 1.08525E+01
 -1      3352 9.98611E+00
 -1      3353 7.92869E+00
 -1      3354 7.13418E-02
 -1      3355 6.43210E-02
 -1      3356 3.43314E+00
 -1      3357 2.20910E+00
 -1      3358 6.55697E-01
 -1      3359 7.38686E-01
 -1      3360 9.92301E-01
 -1      3361 2.31746E-01
 -1      3362 2.49998E-01
 -1      3363 2.15699E-01
 -1      3364 1.35853E-01
 -1      3365 1.87276E-01
 -1      3366 2.14266E-01
 -1      3367 6.58936E+00
 -1      3368 7.66428E-02
 -1      3369 7.50396E-02
 -1      3370 8.37264E-02
 -1      3371 8.14011E+00
 -1      3372 4.93275E+00
 -1      3373 4.30344E+00
 -1      3374 7.66428E-02
 -1      3375 7.66428E-02
 -1      3376 8.74242E-02
 -1      3377 8.58111E-02
 -1      3378 4.08466E+00
 -1      3379 4.24380E+00
 -1      3380 9.87068E+00
 -1      3381 8.87854E+00
 -1      3382 9.87068E+00
 -1      3383 1.05075E+01
 -1      3384 1.10981E+01
 -1      3385 7.86131E+00
 -1      3386 8.78277E+00
 -1      3387 1.19768E+01
 -1      3388 9.79601E+00
 -1      3389 9.70320E+00
 -1      3390 8.39197E+00
 -1      3391 6.87388E+00
 -1      3392 7.56165E+00
 -1      3393 1.02370E+01
 -1      3394 8.55986E+00
 -1      3395 1.02370E+01
 -1      3396 5.89823E+00
 -1      3397 4.45322E+00
 -1      3398 4.26865E+00
 -1      3399 4.35423E+00
 -1      3400 8.66979E+00
 -1      3401 3.62196E-01
 -1      3402 3.87000E-01
 -1      3403 2.54602E-01
 -1      3404 3.10624E-01
 -1      3405 6.88692E+00
 -1      3406 2.76462E+00
 -1      3407 1.51004E+00
 -1      3408 3.39007E+00
 -1      3409 2.20910E+00
 -1      3410 6.19364E+00
 -1      3411 6.63789E+00
 -1      3412 5.56419E+00
 -1      3413 5.15772E+00
 -1      3414 7.69786E-02
 -1      3415 7.67009E-02
 -1      3416 9.83678E-02
 -1      3417 1.18374E-01
 -1      3418 2.43462E+00
 -1      3419 2.02945E+00
 -1      3420 3.89295E+00
 -1      3421 3.45772E+00
 -1      3422 7.56382E+00
 -1      3423 8.14011E+00
 -1      3424 6.87283E+00
 -1      3425 3.44649E+00
 -1      3426 3.07474E+00
 -1      3427 2.85517E+00
 -1      3428 5.47138E+00
 -1      3429 3.06436E+00
 -1      3430 3.50895E+00
 -1      3431 5.30881E+00
 -1      3432 1.49990E+00
 -1      3433 9.96384E-01
 -1      3434 3.50895E+00
 -1      3435 5.77298E-01
 -1      3436 5.70585E-01
 -1      3437 1.08081E+00
 -1      3438 5.74053E-01
 -1      3439 6.68662E-01
 -1      3440 6.65194E-01
 -1      3441 7.20282E-01
 -1      3442 5.37019E-01
 -1      3443 7.20282E-01
 -1      3444 3.53857E-01
 -1      3445 4.05579E-01
 -1      3446 5.88741E-01
 -1      3447 4.62118E-01
 -1      3448 5.28327E-01
 -1      3449 4.62118E-01
 -1      3450 6.01031E-01
 -1      3451 6.77418E-01
 -1      3452 5.91360E-01
 -1      3453 7.67998E-01
 -1      3454 8.58336E-01
 -1      3455 7.54643E-01
 -1      3456 1.00022E+00
 -1      3457 1.09540E+00
 -1      3458 9.87108E-01
 -1      3459 1.29280E+00
 -1      3460 1.42462E+00
 -1      3461 1.32639E+00
 -1      3462 1.63437E+00
 -1      3463 1.81326E+00
 -1      3464 1.73355E+00
 -1      3465 2.04816E+00
 -1      3466 2.28636E+00
 -1      3467 2.17820E+00
 -1      3468 3.92928E+00
 -1      3469 4.19125E+00
 -1      3470 4.05602E+00
 -1      3471 4.19125E+00
 -1      3472 4.31721E+00
 -1      3473 4.80204E+00
 -1      3474 4.25200E+00
 -1      3475 4.29227E+00
 -1      3476 4.18271E+00
 -1      3477 3.93851E+00
 -1      3478 4.80635E+00
 -1      3479 3.65596E+00
 -1      3480 3.38074E+00
 -1      3481 4.41425E+00
 -1      3482 2.75785E+00
 -1      3483 2.47253E+00
 -1      3484 3.50880E+00
 -1      3485 2.05916E+00
 -1      3486 1.84402E+00
 -1      3487 2.47253E+00
 -1      3488 1.62887E+00
 -1      3489 1.49516E+00
 -1      3490 1.84402E+00
 -1      3491 1.36145E+00
 -1      3492 1.23577E+00
 -1      3493 1.49516E+00
 -1      3494 1.11010E+00
 -1      3495 1.00010E+00
 -1      3496 1.23577E+00
 -1      3497 8.90106E-01
 -1      3498 7.96968E-01
 -1      3499 1.00010E+00
 -1      3500 7.03829E-01
 -1      3501 6.26402E-01
 -1      3502 7.96968E-01
 -1      3503 5.48975E-01
 -1      3504 4.86445E-01
 -1      3505 6.26402E-01
 -1      3506 4.22895E-01
 -1      3507 3.73211E-01
 -1      3508 4.85425E-01
 -1      3509 3.21573E-01
 -1      3510 2.80465E-01
 -1      3511 3.70238E-01
 -1      3512 2.38794E-01
 -1      3513 2.05623E-01
 -1      3514 2.76929E-01
 -1      3515 1.39378E-01
 -1      3516 1.31242E-01
 -1      3517 6.20096E-01
 -1      3518 5.41953E-01
 -1      3519 4.61004E-01
 -1      3520 3.91991E-01
 -1      3521 5.36750E-01
 -1      3522 1.05378E+00
 -1      3523 9.31578E-01
 -1      3524 1.35421E+00
 -1      3525 1.19478E+00
 -1      3526 1.17716E+00
 -1      3527 1.77561E+00
 -1      3528 1.58059E+00
 -1      3529 1.54454E+00
 -1      3530 2.39573E+00
 -1      3531 2.21038E+00
 -1      3532 2.20569E+00
 -1      3533 3.70647E+00
 -1      3534 2.87639E+00
 -1      3535 3.12113E+00
 -1      3536 6.57632E+00
 -1      3537 5.19373E+00
 -1      3538 5.47329E-01
 -1      3539 6.01195E-01
 -1      3540 1.04917E-01
 -1      3541 1.04450E-01
 -1      3542 2.96586E+00
 -1      3543 3.86895E+00
 -1      3544 5.01886E+00
 -1      3545 6.14123E+00
 -1      3546 2.16710E+00
 -1      3547 2.34352E+00
 -1      3548 3.21906E+00
 -1      3549 1.55304E+00
 -1      3550 1.73182E+00
 -1      3551 2.16144E+00
 -1      3552 1.19615E+00
 -1      3553 1.34352E+00
 -1      3554 1.51664E+00
 -1      3555 9.46737E-01
 -1      3556 1.06069E+00
 -1      3557 1.17166E+00
 -1      3558 7.47297E-01
 -1      3559 8.41947E-01
 -1      3560 9.31414E-01
 -1      3561 5.81499E-01
 -1      3562 6.58238E-01
 -1      3563 7.37565E-01
 -1      3564 4.47104E-01
 -1      3565 5.07826E-01
 -1      3566 5.74833E-01
 -1      3567 3.40626E-01
 -1      3568 3.87300E-01
 -1      3569 4.41357E-01
 -1      3570 2.55646E-01
 -1      3571 2.92732E-01
 -1      3572 3.33659E-01
 -1      3573 1.88543E-01
 -1      3574 2.17788E-01
 -1      3575 2.47907E-01
 -1      3576 1.35920E-01
 -1      3577 1.58632E-01
 -1      3578 1.80138E-01
 -1      3579 9.85248E-02
 -1      3580 1.16538E-01
 -1      3581 1.30844E-01
 -1      3582 5.90265E-02
 -1      3583 5.57000E-02
 -1      3584 6.44579E-02
 -1      3585 7.47340E-02
 -1      3586 6.87388E+00
 -1      3587 7.51585E+00
 -1      3588 7.39304E+00
 -1      3589 7.08998E+00
 -1      3590 7.08998E+00
 -1      3591 6.50995E+00
 -1      3592 8.18775E-01
 -1      3593 7.16527E-01
 -1      3594 7.14130E-01
 -1      3595 9.23363E-01
 -1      3596 7.80039E+00
 -1      3597 9.23091E+00
 -1      3598 3.07149E+00
 -1      3599 8.62713E+00
 -1      3600 8.22018E+00
 -1      3601 7.19050E+00
 -1      3602 2.63235E-01
 -1      3603 5.70503E-01
 -1      3604 2.38874E-01
 -1      3605 5.42043E+00
 -1      3606 6.88833E+00
 -1      3607 5.61169E+00
 -1      3608 3.43314E+00
 -1      3609 1.93496E+00
 -1      3610 6.97521E+00
 -1      3611 7.05755E+00
 -1      3612 5.76675E+00
 -1      3613 7.34947E+00
 -1      3614 9.32456E+00
 -1      3615 7.06656E+00
 -1      3616 5.69894E+00
 -1      3617 6.58294E+00
 -1      3618 6.66369E+00
 -1      3619 2.21693E+00
 -1      3620 4.64713E-01
 -1      3621 6.68709E-01
 -1      3622 6.02093E+00
 -1      3623 1.71619E-01
 -1      3624 1.79396E-01
 -1      3625 2.15729E-01
 -1      3626 1.72927E-01
 -1      3627 1.48471E-01
 -1      3628 2.02562E-01
 -1      3629 6.14718E+00
 -1      3630 8.85433E+00
 -1      3631 6.78695E+00
 -1      3632 1.73857E-01
 -1      3633 1.21220E-01
 -1      3634 1.41745E-01
 -1      3635 1.37134E-01
 -1      3636 3.88453E-01
 -1      3637 3.24644E-01
 -1      3638 2.70463E-01
 -1      3639 5.08906E+00
 -1      3640 6.67859E-01
 -1      3641 4.14458E-01
 -1      3642 1.37726E-01
 -1      3643 1.17473E-01
 -1      3644 1.19086E-01
 -1      3645 4.99132E+00
 -1      3646 7.86131E+00
 -1      3647 7.47843E+00
 -1      3648 6.15429E+00
 -1      3649 7.61179E+00
 -1      3650 5.65955E+00
 -1      3651 9.57451E-02
 -1      3652 9.04505E-02
 -1      3653 7.75137E-02
 -1      3654 6.07968E+00
 -1      3655 2.94167E+00
 -1      3656 7.29137E+00
 -1      3657 6.01463E+00
 -1      3658 7.05864E+00
 -1      3659 6.63358E+00
 -1      3660 7.70880E+00
 -1      3661 6.53781E+00
 -1      3662 6.06716E+00
 -1      3663 5.08183E+00
 -1      3664 4.91322E+00
 -1      3665 9.32063E+00
 -1      3666 7.41078E+00
 -1      3667 6.96982E+00
 -1      3668 1.04917E-01
 -1      3669 1.04917E-01
 -1      3670 1.24703E-01
 -1      3671 8.05084E+00
 -1      3672 3.77288E-01
 -1      3673 1.39503E-01
 -1      3674 1.35806E-01
 -1      3675 2.26980E+01
 -1      3676 1.92060E+01
 -1      3677 2.30378E+01
 -1      3678 1.51522E-01
 -1      3679 6.07968E+00
 -1      3680 6.37992E+00
 -1      3681 1.45172E+00
 -1      3682 2.65720E+00
 -1      3683 4.14134E+00
 -1      3684 1.08353E+01
 -1      3685 2.51233E+00
 -1      3686 2.07756E+00
 -1      3687 1.22215E+01
 -1      3688 1.24307E+01
 -1      3689 5.51800E+00
 -1      3690 3.50895E+00
 -1      3691 1.24307E+01
 -1      3692 1.46231E+00
 -1      3693 1.04322E+00
 -1      3694 3.47136E+00
 -1      3695 9.62953E-01
 -1      3696 9.66420E-01
 -1      3697 1.34445E+00
 -1      3698 7.29619E-01
 -1      3699 7.81239E-01
 -1      3700 1.02738E+00
 -1      3701 7.71902E-01
 -1      3702 5.88741E-01
 -1      3703 7.81239E-01
 -1      3704 4.59200E-01
 -1      3705 5.15739E-01
 -1      3706 6.42362E-01
 -1      3707 5.91360E-01
 -1      3708 6.64064E-01
 -1      3709 5.88443E-01
 -1      3710 7.54643E-01
 -1      3711 8.45222E-01
 -1      3712 7.54643E-01
 -1      3713 9.68254E-01
 -1      3714 1.11014E+00
 -1      3715 9.68254E-01
 -1      3716 1.29956E+00
 -1      3717 1.49696E+00
 -1      3718 1.28070E+00
 -1      3719 1.90988E+00
 -1      3720 2.11963E+00
 -1      3721 1.88304E+00
 -1      3722 2.86620E+00
 -1      3723 3.10110E+00
 -1      3724 3.04254E+00
 -1      3725 5.83970E-01
 -1      3726 5.03020E-01
 -1      3727 3.62578E-01
 -1      3728 3.75590E-01
 -1      3729 4.49028E+00
 -1      3730 4.20773E+00
 -1      3731 5.94777E+00
 -1      3732 4.00480E+00
 -1      3733 3.38191E+00
 -1      3734 4.08083E+00
 -1      3735 2.42981E+00
 -1      3736 2.01644E+00
 -1      3737 2.92581E+00
 -1      3738 1.74190E+00
 -1      3739 1.52675E+00
 -1      3740 1.69918E+00
 -1      3741 1.31922E+00
 -1      3742 1.18551E+00
 -1      3743 1.21710E+00
 -1      3744 1.04330E+00
 -1      3745 9.17627E-01
 -1      3746 8.67360E-01
 -1      3747 8.21417E-01
 -1      3748 7.11421E-01
 -1      3749 6.28946E-01
 -1      3750 6.46609E-01
 -1      3751 5.53471E-01
 -1      3752 4.67924E-01
 -1      3753 5.04834E-01
 -1      3754 4.27407E-01
 -1      3755 3.54476E-01
 -1      3756 3.90211E-01
 -1      3757 3.26661E-01
 -1      3758 2.68643E-01
 -1      3759 2.97540E-01
 -1      3760 2.45903E-01
 -1      3761 2.02326E-01
 -1      3762 2.33647E-01
 -1      3763 1.91975E-01
 -1      3764 1.60949E-01
 -1      3765 1.77092E+00
 -1      3766 1.54454E+00
 -1      3767 2.07756E+00
 -1      3768 1.31816E+00
 -1      3769 1.17716E+00
 -1      3770 1.54454E+00
 -1      3771 8.54597E-01
 -1      3772 6.67859E-01
 -1      3773 1.70267E+01
 -1      3774 1.56793E+01
 -1      3775 1.39769E-01
 -1      3776 1.28464E-01
 -1      3777 2.90293E+00
 -1      3778 3.52527E+00
 -1      3779 1.51664E+00
 -1      3780 1.72616E+00
 -1      3781 2.30378E+01
 -1      3782 2.30378E+01
 -1      3783 3.52404E+01
 -1      3784 1.17166E+00
 -1      3785 1.30712E+00
 -1      3786 1.51664E+00
 -1      3787 9.09289E-01
 -1      3788 1.01408E+00
 -1      3789 1.14954E+00
 -1      3790 7.03115E-01
 -1      3791 7.92174E-01
 -1      3792 8.74839E-01
 -1      3793 5.40221E-01
 -1      3794 6.13894E-01
 -1      3795 6.68503E-01
 -1      3796 4.11606E-01
 -1      3797 4.71409E-01
 -1      3798 5.10471E-01
 -1      3799 3.10081E-01
 -1      3800 3.57975E-01
 -1      3801 3.88028E-01
 -1      3802 2.30351E-01
 -1      3803 2.68209E-01
 -1      3804 2.92525E-01
 -1      3805 1.76136E-01
 -1      3806 2.06048E-01
 -1      3807 2.26349E-01
 -1      3808 1.70905E-01
 -1      3809 1.39503E-01
 -1      3810 1.39503E-01
 -1      3811 1.91583E-01
 -1      3812 1.71165E-01
 -1      3813 1.51245E-01
 -1      3814 1.68726E-01
 -1      3815 1.36613E-01
 -1      3816 6.52224E+00
 -1      3817 5.35251E+00
 -1      3818 5.50588E+00
 -1      3819 3.59457E+00
 -1      3820 1.27498E-01
 -1      3821 1.26342E+01
 -1      3822 8.30884E+00
 -1      3823 2.48367E+01
 -1      3824 1.47284E-01
 -1      3825 1.12652E+00
 -1      3826 2.20179E+00
 -1      3827 5.77451E+00
 -1      3828 9.35538E-01
 -1      3829 4.79424E-01
 -1      3830 1.13137E+01
 -1      3831 1.09419E+01
 -1      3832 2.11498E+01
 -1      3833 8.41927E-01
 -1      3834 8.40229E-01
 -1      3835 1.29804E+00
 -1      3836 1.02866E+00
 -1      3837 2.02674E+00
 -1      3838 2.46202E+00
 -1      3839 2.76823E+00
 -1      3840 8.46355E+00
 -1      3841 8.95057E+00
 -1      3842 1.74394E+01
 -1      3843 5.04107E+00
 -1      3844 1.79980E-01
 -1      3845 1.96814E-01
 -1      3846 1.42982E+00
 -1      3847 1.71391E+00
 -1      3848 1.71391E+00
 -1      3849 4.76209E-01
 -1      3850 4.28990E-01
 -1      3851 3.61642E-01
 -1      3852 6.78446E-01
 -1      3853 6.44716E-01
 -1      3854 7.74877E-01
 -1      3855 4.54708E+00
 -1      3856 6.19001E+00
 -1      3857 5.68763E+00
 -1      3858 6.06627E+00
 -1      3859 5.59089E+00
 -1      3860 2.66372E-01
 -1      3861 5.20463E+00
 -1      3862 4.82804E+00
 -1      3863 4.29256E+00
 -1      3864 1.57076E-01
 -1      3865 1.47055E-01
 -1      3866 1.31394E-01
 -1      3867 1.44417E-01
 -1      3868 3.22961E+00
 -1      3869 2.74894E+00
 -1      3870 7.57597E+00
 -1      3871 2.16261E-01
 -1      3872 3.22238E+00
 -1      3873 6.36292E+00
 -1      3874 6.36292E+00
 -1      3875 4.69890E+00
 -1      3876 5.28894E+00
 -1      3877 3.95439E+00
 -1      3878 4.27052E+00
 -1      3879 2.62081E+00
 -1      3880 2.02674E+00
 -1      3881 1.95406E-01
 -1      3882 2.00638E-01
 -1      3883 1.95406E-01
 -1      3884 1.80638E+01
 -1      3885 7.34605E+00
 -1      3886 6.68449E+00
 -1      3887 1.36698E-01
 -1      3888 6.50151E+00
 -1      3889 5.23303E+00
 -1      3890 5.58517E+00
 -1      3891 4.65517E+00
 -1      3892 3.32929E+00
 -1      3893 2.96433E+00
 -1      3894 4.43070E+00
 -1      3895 6.19001E+00
 -1      3896 5.23509E+00
 -1      3897 1.72491E-01
 -1      3898 1.82412E-01
 -1      3899 2.04732E-01
 -1      3900 4.87380E+00
 -1      3901 4.69890E+00
 -1      3902 4.76247E+00
 -1      3903 3.92180E+00
 -1      3904 8.30296E+00
 -1      3905 3.82649E+00
 -1      3906 1.01144E+00
 -1      3907 8.98636E-01
 -1      3908 8.62952E-01
 -1      3909 1.15244E+00
 -1      3910 3.36430E+01
 -1      3911 3.54957E+01
 -1      3912 4.80381E+01
 -1      3913 5.63759E+00
 -1      3914 5.64101E+00
 -1      3915 4.64072E+00
 -1      3916 4.19161E+00
 -1      3917 1.28030E-01
 -1      3918 1.28030E-01
 -1      3919 1.34721E-01
 -1      3920 1.40025E-01
 -1      3921 1.20486E+00
 -1      3922 1.03913E+00
 -1      3923 4.89093E+00
 -1      3924 2.84429E+00
 -1      3925 1.41401E+00
 -1      3926 1.33374E+00
 -1      3927 2.83358E+00
 -1      3928 1.26418E+00
 -1      3929 1.02738E+00
 -1      3930 1.33374E+00
 -1      3931 7.28091E-01
 -1      3932 7.18754E-01
 -1      3933 9.64892E-01
 -1      3934 6.10168E-01
 -1      3935 4.80627E-01
 -1      3936 5.57020E-01
 -1      3937 5.56673E-01
 -1      3938 6.32294E-01
 -1      3939 5.24479E-01
 -1      3940 7.35026E-01
 -1      3941 8.25605E-01
 -1      3942 7.03257E-01
 -1      3943 9.68254E-01
 -1      3944 1.09129E+00
 -1      3945 9.48638E-01
 -1      3946 1.28070E+00
 -1      3947 1.47012E+00
 -1      3948 1.28070E+00
 -1      3949 1.71089E+00
 -1      3950 2.12381E+00
 -1      3951 1.71089E+00
 -1      3952 2.40966E+00
 -1      3953 3.15624E+00
 -1      3954 3.55873E+00
 -1      3955 2.23751E+00
 -1      3956 1.42821E+00
 -1      3957 1.63773E+00
 -1      3958 3.57750E+00
 -1      3959 2.62541E+00
 -1      3960 1.85537E+00
 -1      3961 1.58082E+00
 -1      3962 2.50705E+00
 -1      3963 1.30816E+00
 -1      3964 1.10062E+00
 -1      3965 1.46435E+00
 -1      3966 9.26075E-01
 -1      3967 7.83869E-01
 -1      3968 1.01713E+00
 -1      3969 6.65144E-01
 -1      3970 5.68935E-01
 -1      3971 7.23858E-01
 -1      3972 4.88146E-01
 -1      3973 4.23334E-01
 -1      3974 5.24344E-01
 -1      3975 3.66590E-01
 -1      3976 3.17953E-01
 -1      3977 3.86812E-01
 -1      3978 2.82929E-01
 -1      3979 2.45733E-01
 -1      3980 2.95043E-01
 -1      3981 2.21694E-01
 -1      3982 1.92573E-01
 -1      3983 2.35980E-01
 -1      3984 1.60949E-01
 -1      3985 1.48693E-01
 -1      3986 1.40025E-01
 -1      3987 1.80317E-01
 -1      3988 2.34998E+00
 -1      3989 2.04335E+00
 -1      3990 1.98131E+00
 -1      3991 2.28189E+00
 -1      3992 1.89288E+00
 -1      3993 1.65922E+00
 -1      3994 1.43284E+00
 -1      3995 1.93164E+00
 -1      3996 1.18982E+01
 -1      3997 4.80381E+01
 -1      3998 4.80381E+01
 -1      3999 6.08357E+01
 -1      4000 2.62081E+00
 -1      4001 2.38420E+00
 -1      4002 2.34998E+00
 -1      4003 7.82005E-01
 -1      4004 8.99121E-01
 -1      4005 5.91465E-01
 -1      4006 6.80685E-01
 -1      4007 7.04967E-01
 -1      4008 4.49858E-01
 -1      4009 5.18670E-01
 -1      4010 5.30852E-01
 -1      4011 3.41334E-01
 -1      4012 3.94965E-01
 -1      4013 4.03164E-01
 -1      4014 2.59654E-01
 -1      4015 3.01526E-01
 -1      4016 3.08463E-01
 -1      4017 2.03235E-01
 -1      4018 2.27538E-01
 -1      4019 2.36540E-01
 -1      4020 2.01827E-01
 -1      4021 1.50748E-01
 -1      4022 1.71165E-01
 -1      4023 1.74989E-01
 -1      4024 1.44417E-01
 -1      4025 1.04238E+00
 -1      4026 1.19997E+00
 -1      4027 1.32105E+00
 -1      4028 9.49550E-01
 -1      4029 6.39257E+00
 -1      4030 4.38947E+00
 -1      4031 4.12476E+00
 -1      4032 3.87464E+01
 -1      4033 2.83427E+01
 -1      4034 2.58078E+01
 -1      4035 5.15440E+01
 -1      4036 3.02669E-01
 -1      4037 2.47935E-01
 -1      4038 2.41030E-01
 -1      4039 3.43206E-01
 -1      4040 1.31923E-01
 -1      4041 1.41423E-01
 -1      4042 1.51865E-01
 -1      4043 1.54324E-01
 -1      4044 2.24472E-01
 -1      4045 1.36788E+00
 -1      4046 1.49634E-01
 -1      4047 3.38839E+01
 -1      4048 2.95183E+01
 -1      4049 3.54732E+00
 -1      4050 3.53264E+01
 -1      4051 3.66060E+01
 -1      4052 4.80605E+01
 -1      4053 1.93434E+01
 -1      4054 1.24307E+01
 -1      4055 3.66060E+01
 -1      4056 9.41642E-01
 -1      4057 8.89218E-01
 -1      4058 7.65459E-01
 -1      4059 1.98657E-01
 -1      4060 1.83242E-01
 -1      4061 4.92671E-01
 -1      4062 4.18641E-01
 -1      4063 3.38839E+01
 -1      4064 1.31953E+00
 -1      4065 4.08083E+00
 -1      4066 3.78043E+00
 -1      4067 1.68137E-01
 -1      4068 1.53006E-01
 -1      4069 1.84383E-01
 -1      4070 4.16251E+00
 -1      4071 5.06606E+00
 -1      4072 4.15680E+00
 -1      4073 2.55120E+00
 -1      4074 2.99212E+00
 -1      4075 3.02005E+00
 -1      4076 4.13647E+00
 -1      4077 3.65776E+00
 -1      4078 4.28376E+00
 -1      4079 2.50578E+00
 -1      4080 6.62296E-01
 -1      4081 5.67820E-01
 -1      4082 6.88563E-01
 -1      4083 1.18036E+01
 -1      4084 2.72772E+00
 -1      4085 1.88798E+00
 -1      4086 4.51174E+00
 -1      4087 1.71391E+00
 -1      4088 1.78158E-01
 -1      4089 1.84489E-01
 -1      4090 4.22523E+01
 -1      4091 2.57322E+00
 -1      4092 3.44692E+00
 -1      4093 3.33029E+00
 -1      4094 4.39046E+00
 -1      4095 3.03100E+00
 -1      4096 2.68748E+00
 -1      4097 3.83333E+00
 -1      4098 9.03981E+00
 -1      4099 3.62326E+01
 -1      4100 7.10130E+00
 -1      4101 5.10251E-01
 -1      4102 1.43389E-01
 -1      4103 1.83461E-01
 -1      4104 2.21477E-01
 -1      4105 2.22307E-01
 -1      4106 2.64680E-01
 -1      4107 3.76979E-01
 -1      4108 3.60518E-01
 -1      4109 3.01544E-01
 -1      4110 6.90324E+00
 -1      4111 6.90324E+00
 -1      4112 8.32950E-01
 -1      4113 7.63389E-01
 -1      4114 7.88138E-01
 -1      4115 4.88852E-01
 -1      4116 2.87348E-01
 -1      4117 5.55509E-01
 -1      4118 4.46922E-01
 -1      4119 3.78754E-01
 -1      4120 5.30627E-01
 -1      4121 6.06673E-01
 -1      4122 5.29116E-01
 -1      4123 7.21069E-01
 -1      4124 8.23801E-01
 -1      4125 7.27217E-01
 -1      4126 9.95925E-01
 -1      4127 1.13857E+00
 -1      4128 1.01374E+00
 -1      4129 1.40424E+00
 -1      4130 1.59366E+00
 -1      4131 1.45153E+00
 -1      4132 2.14771E+00
 -1      4133 2.38847E+00
 -1      4134 2.27125E+00
 -1      4135 3.15443E+00
 -1      4136 1.43218E+01
 -1      4137 6.78203E+00
 -1      4138 2.15086E-01
 -1      4139 1.54120E+00
 -1      4140 1.26854E+00
 -1      4141 1.06317E+00
 -1      4142 8.88621E-01
 -1      4143 1.14002E+00
 -1      4144 7.68579E-01
 -1      4145 6.49854E-01
 -1      4146 8.14616E-01
 -1      4147 5.67329E-01
 -1      4148 4.86541E-01
 -1      4149 6.12050E-01
 -1      4150 4.25894E-01
 -1      4151 3.69150E-01
 -1      4152 4.68879E-01
 -1      4153 3.23141E-01
 -1      4154 2.88117E-01
 -1      4155 3.62224E-01
 -1      4156 2.62322E-01
 -1      4157 2.38284E-01
 -1      4158 2.90421E-01
 -1      4159 1.53566E+00
 -1      4160 1.87925E+00
 -1      4161 2.01648E+00
 -1      4162 1.63235E+00
 -1      4163 3.46298E-01
 -1      4164 4.01191E-01
 -1      4165 6.08357E+01
 -1      4166 6.08357E+01
 -1      4167 3.62326E+01
 -1      4168 2.89172E+00
 -1      4169 5.95529E-01
 -1      4170 6.96849E-01
 -1      4171 5.15440E+01
 -1      4172 1.36669E+00
 -1      4173 1.13871E+00
 -1      4174 1.45153E+00
 -1      4175 2.60474E+00
 -1      4176 2.57053E+00
 -1      4177 2.27125E+00
 -1      4178 2.68581E+00
 -1      4179 1.91577E+00
 -1      4180 1.71996E+00
 -1      4181 2.56315E+00
 -1      4182 5.37994E-01
 -1      4183 4.62845E-01
 -1      4184 4.01836E+00
 -1      4185 4.06498E+00
 -1      4186 3.54015E+00
 -1      4187 2.98299E+00
 -1      4188 2.09702E-01
 -1      4189 2.33943E-01
 -1      4190 2.36540E-01
 -1      4191 2.43443E-01
 -1      4192 4.80605E+01
 -1      4193 5.38686E+01
 -1      4194 3.85287E+00
 -1      4195 2.42259E+00
 -1      4196 6.37104E+00
 -1      4197 5.38686E+01
 -1      4198 3.66060E+01
 -1      4199 5.38686E+01
 -1      4200 2.43481E+00
 -1      4201 2.55144E+00
 -1      4202 2.56315E+00
 -1      4203 2.16550E+00
 -1      4204 2.41428E-01
 -1      4205 4.51200E-01
 -1      4206 3.93077E-01
 -1      4207 4.78943E-01
 -1      4208 5.69789E+00
 -1      4209 6.05525E+00
 -1      4210 2.01369E-01
 -1      4211 1.86265E-01
 -1      4212 2.66641E-01
 -1      4213 2.14181E+00
 -1      4214 2.42767E+00
 -1      4215 2.88730E+00
 -1      4216 2.57863E+00
 -1      4217 1.56353E-01
 -1      4218 1.40080E-01
 -1      4219 1.52981E-01
 -1      4220 1.14313E+01
 -1      4221 3.15844E+01
 -1      4222 6.08221E-01
 -1      4223 5.60814E-01
 -1      4224 7.11384E-01
 -1      4225 1.80828E+00
 -1      4226 3.18977E+00
 -1      4227 3.70888E+00
 -1      4228 2.86631E+00
 -1      4229 2.43185E-01
 -1      4230 2.20365E-01
 -1      4231 2.22247E-01
 -1      4232 4.52814E-01
 -1      4233 5.25609E-01
 -1      4234 2.68656E-01
 -1      4235 3.08463E-01
 -1      4236 3.06490E-01
 -1      4237 1.01374E+00
 -1      4238 9.66586E-01
 -1      4239 8.16670E-01
 -1      4240 5.17491E-01
 -1      4241 3.95948E-01
 -1      4242 1.85224E+00
 -1      4243 2.90803E+00
 -1      4244 5.68834E+00
 -1      4245 2.66641E-01
 -1      4246 2.68656E-01
 -1      4247 3.89698E-01
 -1      4248 4.56355E-01
 -1      4249 4.67999E-01
 -1      4250 5.51704E-01
 -1      4251 6.21931E-01
 -1      4252 7.36327E-01
 -1      4253 8.41614E-01
 -1      4254 1.01374E+00
 -1      4255 1.18586E+00
 -1      4256 1.45153E+00
 -1      4257 1.71720E+00
 -1      4258 2.27125E+00
 -1      4259 1.19902E+00
 -1      4260 9.93652E-01
 -1      4261 2.81992E-01
 -1      4262 2.68656E-01
 -1      4263 6.40993E-01
 -1      4264 5.58468E-01
 -1      4265 4.88548E-01
 -1      4266 4.27902E-01
 -1      4267 3.76279E-01
 -1      4268 3.30270E-01
 -1      4269 2.92435E-01
 -1      4270 1.30097E+00
 -1      4271 1.28734E+00
 -1      4272 1.80828E+00
 -1      4273 2.09453E+00
 -1      4274 1.85049E-01
 -1      4275 1.68063E-01
 -1      4276 1.55137E-01
 -1      4277 2.82529E+00
 -1      4278 1.07273E+00
 -1      4279 1.84156E+00
 -1      4280 2.51921E-01
 -1      4281 8.20482E-01
 -1      4282 9.63746E-01
 -1      4283 5.73522E+01
 -1      4284 2.35112E+01
 -1      4285 2.37092E+01
 -1      4286 7.11044E-01
 -1      4287 2.68942E-01
 -1      4288 2.93692E-01
 -1      4289 3.71292E-01
 -1      4290 2.58264E-01
 -1      4291 4.75173E+00
 -1      4292 1.82256E+00
 -1      4293 4.83124E+01
 -1      4294 2.78358E+00
 -1      4295 2.70177E+01
 -1      4296 4.73353E+00
 -1      4297 1.43371E+00
 -1      4298 9.43663E-01
 -1      4299 8.84668E-01
 -1      4300 7.64626E-01
 -1      4301 3.13610E-01
 -1      4302 2.76746E-01
 -1      4303 7.36327E-01
 -1      4304 3.23149E+00
 -1      4305 2.78358E+00
 -1      4306 2.82529E+00
 -1      4307 3.13396E+00
 -1      4308 5.27478E+01
 -1      4309 2.58969E+01
 -1      4310 3.87831E-01
 -1      4311 5.27478E+01
 -1      4312 4.48289E+01
 -1      4313 4.37081E+01
 -1      4314 2.82529E+00
 -1      4315 4.78943E-01
 -1      4316 3.14301E+01
 -1      4317 2.58852E+01
 -1      4318 2.57863E+00
 -1      4319 2.74803E-01
 -1      4320 4.67298E-01
 -1      4321 3.87831E-01
 -1      4322 2.91825E-01
 -1      4323 4.48289E+01
 -1      4324 3.57891E+01
 -1      4325 5.73522E+01
 -1      4326 4.83124E+01
 -3
 9999
