    1C
    1UUSER                                                              
    1UDATE              26.october.2022                                 
    1UTIME              23:44:11                                        
    1UHOST                                                              
    1UPGM               CalculiX                                        
    1UVERSION           Version 2.17                             
    1UCOMPILETIME       Thu Jul 23 21:43:50 CEST 2020                    
    1UDIR                                                               
    1UDBN                                                               
    1UMAT    1SOLIDMATERIAL                                             
    2C                          4185                                     1
 -1         1 4.30794E+01 2.99788E+01 0.00000E+00
 -1         2 5.24921E+01 2.34077E+01 0.00000E+00
 -1         3 1.50000E+02 0.00000E+00 0.00000E+00
 -1         4 1.50000E+02 5.00000E+01 0.00000E+00
 -1         5 0.00000E+00 0.00000E+00 0.00000E+00
 -1         6 0.00000E+00 5.00000E+01 0.00000E+00
 -1         7 0.00000E+00 4.70500E+01 0.00000E+00
 -1         8 0.00000E+00 4.41000E+01 0.00000E+00
 -1         9 0.00000E+00 4.11500E+01 0.00000E+00
 -1        10 0.00000E+00 3.82000E+01 0.00000E+00
 -1        11 0.00000E+00 3.52500E+01 0.00000E+00
 -1        12 0.00000E+00 3.23500E+01 0.00000E+00
 -1        13 0.00000E+00 2.94000E+01 0.00000E+00
 -1        14 0.00000E+00 2.64500E+01 0.00000E+00
 -1        15 0.00000E+00 2.35000E+01 0.00000E+00
 -1        16 0.00000E+00 2.05500E+01 0.00000E+00
 -1        17 0.00000E+00 1.76000E+01 0.00000E+00
 -1        18 0.00000E+00 1.47000E+01 0.00000E+00
 -1        19 0.00000E+00 1.17500E+01 0.00000E+00
 -1        20 0.00000E+00 8.80000E+00 0.00000E+00
 -1        21 0.00000E+00 5.85000E+00 0.00000E+00
 -1        22 0.00000E+00 2.90000E+00 0.00000E+00
 -1        23 3.15000E+00 5.00000E+01 0.00000E+00
 -1        24 6.15000E+00 5.00000E+01 0.00000E+00
 -1        25 9.15000E+00 5.00000E+01 0.00000E+00
 -1        26 1.21500E+01 5.00000E+01 0.00000E+00
 -1        27 1.51500E+01 5.00000E+01 0.00000E+00
 -1        28 1.81500E+01 5.00000E+01 0.00000E+00
 -1        29 2.11500E+01 5.00000E+01 0.00000E+00
 -1        30 2.41500E+01 5.00000E+01 0.00000E+00
 -1        31 2.71500E+01 5.00000E+01 0.00000E+00
 -1        32 3.01500E+01 5.00000E+01 0.00000E+00
 -1        33 3.31500E+01 5.00000E+01 0.00000E+00
 -1        34 3.61500E+01 5.00000E+01 0.00000E+00
 -1        35 3.91500E+01 5.00000E+01 0.00000E+00
 -1        36 4.21500E+01 5.00000E+01 0.00000E+00
 -1        37 4.51500E+01 5.00000E+01 0.00000E+00
 -1        38 4.81500E+01 5.00000E+01 0.00000E+00
 -1        39 5.11500E+01 5.00000E+01 0.00000E+00
 -1        40 5.41500E+01 5.00000E+01 0.00000E+00
 -1        41 5.71500E+01 5.00000E+01 0.00000E+00
 -1        42 6.01500E+01 5.00000E+01 0.00000E+00
 -1        43 6.31500E+01 5.00000E+01 0.00000E+00
 -1        44 6.61500E+01 5.00000E+01 0.00000E+00
 -1        45 6.91500E+01 5.00000E+01 0.00000E+00
 -1        46 7.21500E+01 5.00000E+01 0.00000E+00
 -1        47 7.51500E+01 5.00000E+01 0.00000E+00
 -1        48 7.81500E+01 5.00000E+01 0.00000E+00
 -1        49 8.11500E+01 5.00000E+01 0.00000E+00
 -1        50 8.41500E+01 5.00000E+01 0.00000E+00
 -1        51 8.71500E+01 5.00000E+01 0.00000E+00
 -1        52 9.01500E+01 5.00000E+01 0.00000E+00
 -1        53 9.31500E+01 5.00000E+01 0.00000E+00
 -1        54 9.61500E+01 5.00000E+01 0.00000E+00
 -1        55 9.91500E+01 5.00000E+01 0.00000E+00
 -1        56 1.02150E+02 5.00000E+01 0.00000E+00
 -1        57 1.05150E+02 5.00000E+01 0.00000E+00
 -1        58 1.08150E+02 5.00000E+01 0.00000E+00
 -1        59 1.11150E+02 5.00000E+01 0.00000E+00
 -1        60 1.14150E+02 5.00000E+01 0.00000E+00
 -1        61 1.17150E+02 5.00000E+01 0.00000E+00
 -1        62 1.20150E+02 5.00000E+01 0.00000E+00
 -1        63 1.23150E+02 5.00000E+01 0.00000E+00
 -1        64 1.26150E+02 5.00000E+01 0.00000E+00
 -1        65 1.29150E+02 5.00000E+01 0.00000E+00
 -1        66 1.32150E+02 5.00000E+01 0.00000E+00
 -1        67 1.35150E+02 5.00000E+01 0.00000E+00
 -1        68 1.38150E+02 5.00000E+01 0.00000E+00
 -1        69 1.41150E+02 5.00000E+01 0.00000E+00
 -1        70 1.44150E+02 5.00000E+01 0.00000E+00
 -1        71 1.47150E+02 5.00000E+01 0.00000E+00
 -1        72 3.15000E+00 0.00000E+00 0.00000E+00
 -1        73 6.15000E+00 0.00000E+00 0.00000E+00
 -1        74 9.15000E+00 0.00000E+00 0.00000E+00
 -1        75 1.21500E+01 0.00000E+00 0.00000E+00
 -1        76 1.51500E+01 0.00000E+00 0.00000E+00
 -1        77 1.81500E+01 0.00000E+00 0.00000E+00
 -1        78 2.11500E+01 0.00000E+00 0.00000E+00
 -1        79 2.41500E+01 0.00000E+00 0.00000E+00
 -1        80 2.71500E+01 0.00000E+00 0.00000E+00
 -1        81 3.01500E+01 0.00000E+00 0.00000E+00
 -1        82 3.31500E+01 0.00000E+00 0.00000E+00
 -1        83 3.61500E+01 0.00000E+00 0.00000E+00
 -1        84 3.91500E+01 0.00000E+00 0.00000E+00
 -1        85 4.21500E+01 0.00000E+00 0.00000E+00
 -1        86 4.51500E+01 0.00000E+00 0.00000E+00
 -1        87 4.81500E+01 0.00000E+00 0.00000E+00
 -1        88 5.11500E+01 0.00000E+00 0.00000E+00
 -1        89 5.41500E+01 0.00000E+00 0.00000E+00
 -1        90 5.71500E+01 0.00000E+00 0.00000E+00
 -1        91 6.01500E+01 0.00000E+00 0.00000E+00
 -1        92 6.31500E+01 0.00000E+00 0.00000E+00
 -1        93 6.61500E+01 0.00000E+00 0.00000E+00
 -1        94 6.91500E+01 0.00000E+00 0.00000E+00
 -1        95 7.21500E+01 0.00000E+00 0.00000E+00
 -1        96 7.51500E+01 0.00000E+00 0.00000E+00
 -1        97 7.81500E+01 0.00000E+00 0.00000E+00
 -1        98 8.11500E+01 0.00000E+00 0.00000E+00
 -1        99 8.41500E+01 0.00000E+00 0.00000E+00
 -1       100 8.71500E+01 0.00000E+00 0.00000E+00
 -1       101 9.01500E+01 0.00000E+00 0.00000E+00
 -1       102 9.31500E+01 0.00000E+00 0.00000E+00
 -1       103 9.61500E+01 0.00000E+00 0.00000E+00
 -1       104 9.91500E+01 0.00000E+00 0.00000E+00
 -1       105 1.02150E+02 0.00000E+00 0.00000E+00
 -1       106 1.05150E+02 0.00000E+00 0.00000E+00
 -1       107 1.08150E+02 0.00000E+00 0.00000E+00
 -1       108 1.11150E+02 0.00000E+00 0.00000E+00
 -1       109 1.14150E+02 0.00000E+00 0.00000E+00
 -1       110 1.17150E+02 0.00000E+00 0.00000E+00
 -1       111 1.20150E+02 0.00000E+00 0.00000E+00
 -1       112 1.23150E+02 0.00000E+00 0.00000E+00
 -1       113 1.26150E+02 0.00000E+00 0.00000E+00
 -1       114 1.29150E+02 0.00000E+00 0.00000E+00
 -1       115 1.32150E+02 0.00000E+00 0.00000E+00
 -1       116 1.35150E+02 0.00000E+00 0.00000E+00
 -1       117 1.38150E+02 0.00000E+00 0.00000E+00
 -1       118 1.41150E+02 0.00000E+00 0.00000E+00
 -1       119 1.44150E+02 0.00000E+00 0.00000E+00
 -1       120 1.47150E+02 0.00000E+00 0.00000E+00
 -1       121 1.50000E+02 2.95000E+00 0.00000E+00
 -1       122 1.50000E+02 5.90000E+00 0.00000E+00
 -1       123 1.50000E+02 8.85000E+00 0.00000E+00
 -1       124 1.50000E+02 1.18000E+01 0.00000E+00
 -1       125 1.50000E+02 1.47500E+01 0.00000E+00
 -1       126 1.50000E+02 1.76500E+01 0.00000E+00
 -1       127 1.50000E+02 2.06000E+01 0.00000E+00
 -1       128 1.50000E+02 2.35500E+01 0.00000E+00
 -1       129 1.50000E+02 2.65000E+01 0.00000E+00
 -1       130 1.50000E+02 2.94500E+01 0.00000E+00
 -1       131 1.50000E+02 3.24000E+01 0.00000E+00
 -1       132 1.50000E+02 3.53000E+01 0.00000E+00
 -1       133 1.50000E+02 3.82500E+01 0.00000E+00
 -1       134 1.50000E+02 4.12000E+01 0.00000E+00
 -1       135 1.50000E+02 4.41500E+01 0.00000E+00
 -1       136 1.50000E+02 4.71000E+01 0.00000E+00
 -1       137 5.22836E+01 2.17122E+01 0.00000E+00
 -1       138 5.18118E+01 2.03977E+01 0.00000E+00
 -1       139 5.10512E+01 1.91538E+01 0.00000E+00
 -1       140 4.99774E+01 1.80335E+01 0.00000E+00
 -1       141 4.86922E+01 1.71820E+01 0.00000E+00
 -1       142 4.72786E+01 1.66395E+01 0.00000E+00
 -1       143 4.57428E+01 1.64122E+01 0.00000E+00
 -1       144 4.41468E+01 1.65382E+01 0.00000E+00
 -1       145 4.27410E+01 1.69710E+01 0.00000E+00
 -1       146 4.14218E+01 1.77127E+01 0.00000E+00
 -1       147 4.03226E+01 1.86879E+01 0.00000E+00
 -1       148 3.94256E+01 1.99151E+01 0.00000E+00
 -1       149 3.88381E+01 2.12339E+01 0.00000E+00
 -1       150 3.85357E+01 2.26276E+01 0.00000E+00
 -1       151 3.85338E+01 2.41706E+01 0.00000E+00
 -1       152 3.88326E+01 2.55646E+01 0.00000E+00
 -1       153 3.94164E+01 2.68842E+01 0.00000E+00
 -1       154 4.03915E+01 2.82019E+01 0.00000E+00
 -1       155 4.15109E+01 2.91653E+01 0.00000E+00
 -1       156 4.45246E+01 3.03405E+01 0.00000E+00
 -1       157 4.60862E+01 3.03825E+01 0.00000E+00
 -1       158 4.75636E+01 3.00942E+01 0.00000E+00
 -1       159 4.89278E+01 2.95065E+01 0.00000E+00
 -1       160 5.01034E+01 2.86742E+01 0.00000E+00
 -1       161 5.10945E+01 2.76044E+01 0.00000E+00
 -1       162 5.18424E+01 2.63526E+01 0.00000E+00
 -1       163 5.23241E+01 2.49320E+01 0.00000E+00
 -1       164 2.59800E+00 4.55750E+01 0.00000E+00
 -1       165 2.59800E+00 4.26250E+01 0.00000E+00
 -1       166 2.59800E+00 3.96750E+01 0.00000E+00
 -1       167 2.59800E+00 3.67250E+01 0.00000E+00
 -1       168 2.59800E+00 3.38250E+01 0.00000E+00
 -1       169 2.59800E+00 3.08750E+01 0.00000E+00
 -1       170 2.59800E+00 2.79250E+01 0.00000E+00
 -1       171 2.59800E+00 2.49750E+01 0.00000E+00
 -1       172 2.59800E+00 2.20250E+01 0.00000E+00
 -1       173 2.59800E+00 1.90750E+01 0.00000E+00
 -1       174 2.59800E+00 1.61750E+01 0.00000E+00
 -1       175 2.59800E+00 1.32250E+01 0.00000E+00
 -1       176 2.59800E+00 1.02750E+01 0.00000E+00
 -1       177 2.59800E+00 7.32500E+00 0.00000E+00
 -1       178 2.59800E+00 4.37500E+00 0.00000E+00
 -1       179 2.87400E+00 2.18750E+00 0.00000E+00
 -1       180 4.65000E+00 4.74020E+01 0.00000E+00
 -1       181 7.65000E+00 4.74020E+01 0.00000E+00
 -1       182 1.06500E+01 4.74020E+01 0.00000E+00
 -1       183 1.36500E+01 4.74020E+01 0.00000E+00
 -1       184 1.66500E+01 4.74020E+01 0.00000E+00
 -1       185 1.96500E+01 4.74020E+01 0.00000E+00
 -1       186 2.26500E+01 4.74020E+01 0.00000E+00
 -1       187 2.56500E+01 4.74020E+01 0.00000E+00
 -1       188 2.86500E+01 4.74020E+01 0.00000E+00
 -1       189 3.16500E+01 4.74020E+01 0.00000E+00
 -1       190 3.46500E+01 4.74020E+01 0.00000E+00
 -1       191 3.76500E+01 4.74020E+01 0.00000E+00
 -1       192 4.06500E+01 4.74020E+01 0.00000E+00
 -1       193 4.36500E+01 4.74020E+01 0.00000E+00
 -1       194 4.66500E+01 4.74020E+01 0.00000E+00
 -1       195 4.96500E+01 4.74020E+01 0.00000E+00
 -1       196 5.26500E+01 4.74020E+01 0.00000E+00
 -1       197 5.56500E+01 4.74020E+01 0.00000E+00
 -1       198 5.86500E+01 4.74020E+01 0.00000E+00
 -1       199 6.16500E+01 4.74020E+01 0.00000E+00
 -1       200 6.46500E+01 4.74020E+01 0.00000E+00
 -1       201 6.76500E+01 4.74020E+01 0.00000E+00
 -1       202 7.06500E+01 4.74020E+01 0.00000E+00
 -1       203 7.36500E+01 4.74020E+01 0.00000E+00
 -1       204 7.66500E+01 4.74020E+01 0.00000E+00
 -1       205 7.96500E+01 4.74020E+01 0.00000E+00
 -1       206 8.26500E+01 4.74020E+01 0.00000E+00
 -1       207 8.56500E+01 4.74020E+01 0.00000E+00
 -1       208 8.86500E+01 4.74020E+01 0.00000E+00
 -1       209 9.16500E+01 4.74020E+01 0.00000E+00
 -1       210 9.46500E+01 4.74020E+01 0.00000E+00
 -1       211 9.76500E+01 4.74020E+01 0.00000E+00
 -1       212 1.00650E+02 4.74020E+01 0.00000E+00
 -1       213 1.03650E+02 4.74020E+01 0.00000E+00
 -1       214 1.06650E+02 4.74020E+01 0.00000E+00
 -1       215 1.09650E+02 4.74020E+01 0.00000E+00
 -1       216 1.12650E+02 4.74020E+01 0.00000E+00
 -1       217 1.15650E+02 4.74020E+01 0.00000E+00
 -1       218 1.18650E+02 4.74020E+01 0.00000E+00
 -1       219 1.21650E+02 4.74020E+01 0.00000E+00
 -1       220 1.24650E+02 4.74020E+01 0.00000E+00
 -1       221 1.27650E+02 4.74020E+01 0.00000E+00
 -1       222 1.30650E+02 4.74020E+01 0.00000E+00
 -1       223 1.33650E+02 4.74020E+01 0.00000E+00
 -1       224 1.36650E+02 4.74020E+01 0.00000E+00
 -1       225 1.39650E+02 4.74020E+01 0.00000E+00
 -1       226 1.42650E+02 4.74020E+01 0.00000E+00
 -1       227 1.45650E+02 4.74020E+01 0.00000E+00
 -1       228 5.87400E+00 2.18750E+00 0.00000E+00
 -1       229 8.87400E+00 2.18750E+00 0.00000E+00
 -1       230 1.18740E+01 2.18750E+00 0.00000E+00
 -1       231 1.48740E+01 2.18750E+00 0.00000E+00
 -1       232 1.78740E+01 2.18750E+00 0.00000E+00
 -1       233 2.08740E+01 2.18750E+00 0.00000E+00
 -1       234 2.38740E+01 2.18750E+00 0.00000E+00
 -1       235 2.68740E+01 2.18750E+00 0.00000E+00
 -1       236 2.98740E+01 2.18750E+00 0.00000E+00
 -1       237 3.28740E+01 2.18750E+00 0.00000E+00
 -1       238 3.58740E+01 2.18750E+00 0.00000E+00
 -1       239 3.88740E+01 2.18750E+00 0.00000E+00
 -1       240 4.18740E+01 2.18750E+00 0.00000E+00
 -1       241 4.48740E+01 2.18750E+00 0.00000E+00
 -1       242 4.78740E+01 2.18750E+00 0.00000E+00
 -1       243 5.08740E+01 2.18750E+00 0.00000E+00
 -1       244 5.38740E+01 2.18750E+00 0.00000E+00
 -1       245 5.68740E+01 2.18750E+00 0.00000E+00
 -1       246 5.98740E+01 2.18750E+00 0.00000E+00
 -1       247 6.28740E+01 2.18750E+00 0.00000E+00
 -1       248 6.58740E+01 2.18750E+00 0.00000E+00
 -1       249 6.88740E+01 2.18750E+00 0.00000E+00
 -1       250 7.18740E+01 2.18750E+00 0.00000E+00
 -1       251 7.48740E+01 2.18750E+00 0.00000E+00
 -1       252 7.78740E+01 2.18750E+00 0.00000E+00
 -1       253 8.08740E+01 2.18750E+00 0.00000E+00
 -1       254 8.38740E+01 2.18750E+00 0.00000E+00
 -1       255 8.68740E+01 2.18750E+00 0.00000E+00
 -1       256 8.98740E+01 2.18750E+00 0.00000E+00
 -1       257 9.28740E+01 2.18750E+00 0.00000E+00
 -1       258 9.58740E+01 2.18750E+00 0.00000E+00
 -1       259 9.88740E+01 2.18750E+00 0.00000E+00
 -1       260 1.01874E+02 2.18750E+00 0.00000E+00
 -1       261 1.04874E+02 2.18750E+00 0.00000E+00
 -1       262 1.07874E+02 2.18750E+00 0.00000E+00
 -1       263 1.10874E+02 2.18750E+00 0.00000E+00
 -1       264 1.13874E+02 2.18750E+00 0.00000E+00
 -1       265 1.16874E+02 2.18750E+00 0.00000E+00
 -1       266 1.19874E+02 2.18750E+00 0.00000E+00
 -1       267 1.22874E+02 2.18750E+00 0.00000E+00
 -1       268 1.25874E+02 2.18750E+00 0.00000E+00
 -1       269 1.28874E+02 2.18750E+00 0.00000E+00
 -1       270 1.31874E+02 2.18750E+00 0.00000E+00
 -1       271 1.34874E+02 2.18750E+00 0.00000E+00
 -1       272 1.37874E+02 2.18750E+00 0.00000E+00
 -1       273 1.40874E+02 2.18750E+00 0.00000E+00
 -1       274 1.43874E+02 2.18750E+00 0.00000E+00
 -1       275 1.46874E+02 2.18750E+00 0.00000E+00
 -1       276 1.47402E+02 4.42500E+00 0.00000E+00
 -1       277 1.47402E+02 7.37500E+00 0.00000E+00
 -1       278 1.47402E+02 1.03250E+01 0.00000E+00
 -1       279 1.47402E+02 1.32750E+01 0.00000E+00
 -1       280 1.47402E+02 1.61750E+01 0.00000E+00
 -1       281 1.47402E+02 1.91250E+01 0.00000E+00
 -1       282 1.47402E+02 2.20750E+01 0.00000E+00
 -1       283 1.47402E+02 2.50250E+01 0.00000E+00
 -1       284 1.47402E+02 2.79750E+01 0.00000E+00
 -1       285 1.47402E+02 3.09250E+01 0.00000E+00
 -1       286 1.47402E+02 3.38250E+01 0.00000E+00
 -1       287 1.47402E+02 3.67750E+01 0.00000E+00
 -1       288 1.47402E+02 3.97250E+01 0.00000E+00
 -1       289 1.47402E+02 4.26750E+01 0.00000E+00
 -1       290 1.46526E+02 4.50385E+01 0.00000E+00
 -1       291 5.37575E+01 2.23916E+01 0.00000E+00
 -1       292 5.31889E+01 2.06454E+01 0.00000E+00
 -1       293 5.25374E+01 1.90995E+01 0.00000E+00
 -1       294 5.14500E+01 1.76967E+01 0.00000E+00
 -1       295 5.00044E+01 1.65971E+01 0.00000E+00
 -1       296 4.84798E+01 1.56224E+01 0.00000E+00
 -1       297 4.67373E+01 1.49950E+01 0.00000E+00
 -1       298 4.48230E+01 1.49325E+01 0.00000E+00
 -1       299 4.30625E+01 1.55158E+01 0.00000E+00
 -1       300 4.14050E+01 1.61390E+01 0.00000E+00
 -1       301 4.00676E+01 1.72934E+01 0.00000E+00
 -1       302 3.87600E+01 1.84872E+01 0.00000E+00
 -1       303 3.80244E+01 2.00812E+01 0.00000E+00
 -1       304 3.75021E+01 2.16736E+01 0.00000E+00
 -1       305 3.71547E+01 2.33974E+01 0.00000E+00
 -1       306 3.74977E+01 2.51217E+01 0.00000E+00
 -1       307 3.80157E+01 2.67149E+01 0.00000E+00
 -1       308 3.87273E+01 2.84138E+01 0.00000E+00
 -1       309 4.01057E+01 2.96661E+01 0.00000E+00
 -1       310 4.15441E+01 3.10202E+01 0.00000E+00
 -1       311 4.35076E+01 3.13358E+01 0.00000E+00
 -1       312 4.52706E+01 3.16572E+01 0.00000E+00
 -1       313 4.70571E+01 3.14283E+01 0.00000E+00
 -1       314 4.87585E+01 3.09908E+01 0.00000E+00
 -1       315 5.02162E+01 3.00799E+01 0.00000E+00
 -1       316 5.15497E+01 2.90203E+01 0.00000E+00
 -1       317 5.25093E+01 2.76004E+01 0.00000E+00
 -1       318 5.33108E+01 2.60585E+01 0.00000E+00
 -1       319 5.36132E+01 2.43026E+01 0.00000E+00
 -1       320 5.19600E+00 4.11500E+01 0.00000E+00
 -1       321 5.19600E+00 4.41000E+01 0.00000E+00
 -1       322 5.19600E+00 3.52750E+01 0.00000E+00
 -1       323 5.19600E+00 3.23250E+01 0.00000E+00
 -1       324 5.19600E+00 2.93750E+01 0.00000E+00
 -1       325 5.19600E+00 2.64250E+01 0.00000E+00
 -1       326 5.19600E+00 2.34750E+01 0.00000E+00
 -1       327 5.19600E+00 2.05250E+01 0.00000E+00
 -1       328 5.19600E+00 1.76250E+01 0.00000E+00
 -1       329 5.19600E+00 1.46750E+01 0.00000E+00
 -1       330 5.19600E+00 1.17250E+01 0.00000E+00
 -1       331 5.19600E+00 8.77500E+00 0.00000E+00
 -1       332 5.19600E+00 5.82500E+00 0.00000E+00
 -1       333 5.53500E+00 4.00625E+00 0.00000E+00
 -1       334 8.53500E+00 4.00625E+00 0.00000E+00
 -1       335 9.15000E+00 4.48040E+01 0.00000E+00
 -1       336 1.21500E+01 4.48040E+01 0.00000E+00
 -1       337 1.51500E+01 4.48040E+01 0.00000E+00
 -1       338 1.81500E+01 4.48040E+01 0.00000E+00
 -1       339 2.11500E+01 4.48040E+01 0.00000E+00
 -1       340 2.41500E+01 4.48040E+01 0.00000E+00
 -1       341 2.71500E+01 4.48040E+01 0.00000E+00
 -1       342 3.01500E+01 4.48040E+01 0.00000E+00
 -1       343 3.31500E+01 4.48040E+01 0.00000E+00
 -1       344 3.61500E+01 4.48040E+01 0.00000E+00
 -1       345 3.91500E+01 4.48040E+01 0.00000E+00
 -1       346 4.21500E+01 4.48040E+01 0.00000E+00
 -1       347 4.51500E+01 4.48040E+01 0.00000E+00
 -1       348 4.81500E+01 4.48040E+01 0.00000E+00
 -1       349 5.11500E+01 4.48040E+01 0.00000E+00
 -1       350 5.41500E+01 4.48040E+01 0.00000E+00
 -1       351 5.71500E+01 4.48040E+01 0.00000E+00
 -1       352 6.01500E+01 4.48040E+01 0.00000E+00
 -1       353 6.31500E+01 4.48040E+01 0.00000E+00
 -1       354 6.61500E+01 4.48040E+01 0.00000E+00
 -1       355 6.91500E+01 4.48040E+01 0.00000E+00
 -1       356 7.21500E+01 4.48040E+01 0.00000E+00
 -1       357 7.51500E+01 4.48040E+01 0.00000E+00
 -1       358 7.81500E+01 4.48040E+01 0.00000E+00
 -1       359 8.11500E+01 4.48040E+01 0.00000E+00
 -1       360 8.41500E+01 4.48040E+01 0.00000E+00
 -1       361 8.71500E+01 4.48040E+01 0.00000E+00
 -1       362 9.01500E+01 4.48040E+01 0.00000E+00
 -1       363 9.31500E+01 4.48040E+01 0.00000E+00
 -1       364 9.61500E+01 4.48040E+01 0.00000E+00
 -1       365 9.91500E+01 4.48040E+01 0.00000E+00
 -1       366 1.02150E+02 4.48040E+01 0.00000E+00
 -1       367 1.05150E+02 4.48040E+01 0.00000E+00
 -1       368 1.08150E+02 4.48040E+01 0.00000E+00
 -1       369 1.11150E+02 4.48040E+01 0.00000E+00
 -1       370 1.14150E+02 4.48040E+01 0.00000E+00
 -1       371 1.17150E+02 4.48040E+01 0.00000E+00
 -1       372 1.20150E+02 4.48040E+01 0.00000E+00
 -1       373 1.23150E+02 4.48040E+01 0.00000E+00
 -1       374 1.26150E+02 4.48040E+01 0.00000E+00
 -1       375 1.29150E+02 4.48040E+01 0.00000E+00
 -1       376 1.32150E+02 4.48040E+01 0.00000E+00
 -1       377 1.35150E+02 4.48040E+01 0.00000E+00
 -1       378 1.38150E+02 4.48040E+01 0.00000E+00
 -1       379 1.41150E+02 4.48040E+01 0.00000E+00
 -1       380 1.43838E+02 4.49212E+01 0.00000E+00
 -1       381 1.15350E+01 4.00625E+00 0.00000E+00
 -1       382 1.45350E+01 4.00625E+00 0.00000E+00
 -1       383 1.75350E+01 4.00625E+00 0.00000E+00
 -1       384 2.05350E+01 4.00625E+00 0.00000E+00
 -1       385 2.35350E+01 4.00625E+00 0.00000E+00
 -1       386 2.65350E+01 4.00625E+00 0.00000E+00
 -1       387 2.95350E+01 4.00625E+00 0.00000E+00
 -1       388 3.25350E+01 4.00625E+00 0.00000E+00
 -1       389 3.55350E+01 4.00625E+00 0.00000E+00
 -1       390 3.85350E+01 4.00625E+00 0.00000E+00
 -1       391 4.15350E+01 4.00625E+00 0.00000E+00
 -1       392 4.45350E+01 4.00625E+00 0.00000E+00
 -1       393 4.75350E+01 4.00625E+00 0.00000E+00
 -1       394 5.05350E+01 4.00625E+00 0.00000E+00
 -1       395 5.35350E+01 4.00625E+00 0.00000E+00
 -1       396 5.65350E+01 4.00625E+00 0.00000E+00
 -1       397 5.95350E+01 4.00625E+00 0.00000E+00
 -1       398 6.25350E+01 4.00625E+00 0.00000E+00
 -1       399 6.55350E+01 4.00625E+00 0.00000E+00
 -1       400 6.85350E+01 4.00625E+00 0.00000E+00
 -1       401 7.15350E+01 4.00625E+00 0.00000E+00
 -1       402 7.45350E+01 4.00625E+00 0.00000E+00
 -1       403 7.75350E+01 4.00625E+00 0.00000E+00
 -1       404 8.05350E+01 4.00625E+00 0.00000E+00
 -1       405 8.35350E+01 4.00625E+00 0.00000E+00
 -1       406 8.65350E+01 4.00625E+00 0.00000E+00
 -1       407 8.95350E+01 4.00625E+00 0.00000E+00
 -1       408 9.25350E+01 4.00625E+00 0.00000E+00
 -1       409 9.55350E+01 4.00625E+00 0.00000E+00
 -1       410 9.85350E+01 4.00625E+00 0.00000E+00
 -1       411 1.01535E+02 4.00625E+00 0.00000E+00
 -1       412 1.04535E+02 4.00625E+00 0.00000E+00
 -1       413 1.07535E+02 4.00625E+00 0.00000E+00
 -1       414 1.10535E+02 4.00625E+00 0.00000E+00
 -1       415 1.13535E+02 4.00625E+00 0.00000E+00
 -1       416 1.16535E+02 4.00625E+00 0.00000E+00
 -1       417 1.19535E+02 4.00625E+00 0.00000E+00
 -1       418 1.22535E+02 4.00625E+00 0.00000E+00
 -1       419 1.25535E+02 4.00625E+00 0.00000E+00
 -1       420 1.28535E+02 4.00625E+00 0.00000E+00
 -1       421 1.31535E+02 4.00625E+00 0.00000E+00
 -1       422 1.34535E+02 4.00625E+00 0.00000E+00
 -1       423 1.37535E+02 4.00625E+00 0.00000E+00
 -1       424 1.40535E+02 4.00625E+00 0.00000E+00
 -1       425 1.43535E+02 4.00625E+00 0.00000E+00
 -1       426 1.45469E+02 4.21562E+00 0.00000E+00
 -1       427 1.44804E+02 1.18000E+01 0.00000E+00
 -1       428 1.44804E+02 8.85000E+00 0.00000E+00
 -1       429 1.45136E+02 6.53281E+00 0.00000E+00
 -1       430 1.44804E+02 1.47000E+01 0.00000E+00
 -1       431 1.44804E+02 1.76500E+01 0.00000E+00
 -1       432 1.44804E+02 2.06000E+01 0.00000E+00
 -1       433 1.44804E+02 2.35500E+01 0.00000E+00
 -1       434 1.44804E+02 2.65000E+01 0.00000E+00
 -1       435 1.44804E+02 2.94500E+01 0.00000E+00
 -1       436 1.44804E+02 3.23500E+01 0.00000E+00
 -1       437 1.44804E+02 3.53000E+01 0.00000E+00
 -1       438 1.44804E+02 3.82500E+01 0.00000E+00
 -1       439 1.44804E+02 4.12000E+01 0.00000E+00
 -1       440 5.41348E+01 1.93365E+01 0.00000E+00
 -1       441 5.51449E+01 2.34573E+01 0.00000E+00
 -1       442 5.47034E+01 2.10827E+01 0.00000E+00
 -1       443 5.32168E+01 1.74501E+01 0.00000E+00
 -1       444 5.17149E+01 1.58485E+01 0.00000E+00
 -1       445 5.19600E+00 3.82125E+01 0.00000E+00
 -1       446 4.81328E+01 1.38527E+01 0.00000E+00
 -1       447 4.58361E+01 1.32495E+01 0.00000E+00
 -1       448 4.34297E+01 1.36756E+01 0.00000E+00
 -1       449 4.17722E+01 1.42988E+01 0.00000E+00
 -1       450 3.97251E+01 1.55447E+01 0.00000E+00
 -1       451 3.84176E+01 1.67385E+01 0.00000E+00
 -1       452 3.68349E+01 1.85655E+01 0.00000E+00
 -1       453 3.63126E+01 2.01580E+01 0.00000E+00
 -1       454 3.59756E+01 2.22629E+01 0.00000E+00
 -1       455 3.60550E+01 2.45124E+01 0.00000E+00
 -1       456 3.64444E+01 2.63450E+01 0.00000E+00
 -1       457 3.71560E+01 2.80440E+01 0.00000E+00
 -1       458 3.84885E+01 3.00613E+01 0.00000E+00
 -1       459 3.98215E+01 3.14089E+01 0.00000E+00
 -1       460 4.22936E+01 3.26232E+01 0.00000E+00
 -1       461 4.40566E+01 3.29447E+01 0.00000E+00
 -1       462 4.63499E+01 3.29946E+01 0.00000E+00
 -1       463 4.82305E+01 3.24649E+01 0.00000E+00
 -1       464 5.01742E+01 3.16345E+01 0.00000E+00
 -1       465 5.18457E+01 3.07617E+01 0.00000E+00
 -1       466 5.31729E+01 2.90830E+01 0.00000E+00
 -1       467 5.40601E+01 2.74273E+01 0.00000E+00
 -1       468 5.48220E+01 2.54147E+01 0.00000E+00
 -1       469 5.01903E+01 1.48739E+01 0.00000E+00
 -1       470 5.60908E+01 2.21485E+01 0.00000E+00
 -1       471 4.05710E+01 3.30119E+01 0.00000E+00
 -1       472 3.69172E+01 2.96915E+01 0.00000E+00
 -1       473 1.00350E+01 6.60425E+00 0.00000E+00
 -1       474 7.79400E+00 3.08500E+01 0.00000E+00
 -1       475 7.79400E+00 3.38000E+01 0.00000E+00
 -1       476 7.79400E+00 2.49500E+01 0.00000E+00
 -1       477 7.79400E+00 2.20000E+01 0.00000E+00
 -1       478 7.79400E+00 1.91000E+01 0.00000E+00
 -1       479 7.79400E+00 1.61500E+01 0.00000E+00
 -1       480 7.79400E+00 1.32000E+01 0.00000E+00
 -1       481 7.79400E+00 1.02500E+01 0.00000E+00
 -1       482 1.30350E+01 6.60425E+00 0.00000E+00
 -1       483 1.06500E+01 4.22060E+01 0.00000E+00
 -1       484 5.00731E+01 1.25268E+01 0.00000E+00
 -1       485 1.36500E+01 4.22060E+01 0.00000E+00
 -1       486 1.66500E+01 4.22060E+01 0.00000E+00
 -1       487 1.96500E+01 4.22060E+01 0.00000E+00
 -1       488 2.26500E+01 4.22060E+01 0.00000E+00
 -1       489 2.56500E+01 4.22060E+01 0.00000E+00
 -1       490 2.86500E+01 4.22060E+01 0.00000E+00
 -1       491 3.16500E+01 4.22060E+01 0.00000E+00
 -1       492 3.46500E+01 4.22060E+01 0.00000E+00
 -1       493 3.76500E+01 4.22060E+01 0.00000E+00
 -1       494 4.06500E+01 4.22060E+01 0.00000E+00
 -1       495 4.36500E+01 4.22060E+01 0.00000E+00
 -1       496 4.66500E+01 4.22060E+01 0.00000E+00
 -1       497 4.96500E+01 4.22060E+01 0.00000E+00
 -1       498 5.26500E+01 4.22060E+01 0.00000E+00
 -1       499 5.56500E+01 4.22060E+01 0.00000E+00
 -1       500 5.86500E+01 4.22060E+01 0.00000E+00
 -1       501 6.16500E+01 4.22060E+01 0.00000E+00
 -1       502 6.46500E+01 4.22060E+01 0.00000E+00
 -1       503 6.76500E+01 4.22060E+01 0.00000E+00
 -1       504 7.06500E+01 4.22060E+01 0.00000E+00
 -1       505 7.36500E+01 4.22060E+01 0.00000E+00
 -1       506 7.66500E+01 4.22060E+01 0.00000E+00
 -1       507 7.96500E+01 4.22060E+01 0.00000E+00
 -1       508 8.26500E+01 4.22060E+01 0.00000E+00
 -1       509 8.56500E+01 4.22060E+01 0.00000E+00
 -1       510 8.86500E+01 4.22060E+01 0.00000E+00
 -1       511 9.16500E+01 4.22060E+01 0.00000E+00
 -1       512 9.46500E+01 4.22060E+01 0.00000E+00
 -1       513 9.76500E+01 4.22060E+01 0.00000E+00
 -1       514 1.00650E+02 4.22060E+01 0.00000E+00
 -1       515 1.03650E+02 4.22060E+01 0.00000E+00
 -1       516 1.06650E+02 4.22060E+01 0.00000E+00
 -1       517 1.09650E+02 4.22060E+01 0.00000E+00
 -1       518 1.12650E+02 4.22060E+01 0.00000E+00
 -1       519 1.15650E+02 4.22060E+01 0.00000E+00
 -1       520 1.18650E+02 4.22060E+01 0.00000E+00
 -1       521 1.21650E+02 4.22060E+01 0.00000E+00
 -1       522 1.24650E+02 4.22060E+01 0.00000E+00
 -1       523 1.27650E+02 4.22060E+01 0.00000E+00
 -1       524 1.30650E+02 4.22060E+01 0.00000E+00
 -1       525 1.33650E+02 4.22060E+01 0.00000E+00
 -1       526 1.36650E+02 4.22060E+01 0.00000E+00
 -1       527 1.39650E+02 4.22060E+01 0.00000E+00
 -1       528 5.58906E+01 1.97304E+01 0.00000E+00
 -1       529 1.90350E+01 6.60425E+00 0.00000E+00
 -1       530 2.20350E+01 6.60425E+00 0.00000E+00
 -1       531 2.50350E+01 6.60425E+00 0.00000E+00
 -1       532 2.80350E+01 6.60425E+00 0.00000E+00
 -1       533 3.10350E+01 6.60425E+00 0.00000E+00
 -1       534 3.40350E+01 6.60425E+00 0.00000E+00
 -1       535 3.70350E+01 6.60425E+00 0.00000E+00
 -1       536 4.00350E+01 6.60425E+00 0.00000E+00
 -1       537 4.30350E+01 6.60425E+00 0.00000E+00
 -1       538 4.60350E+01 6.60425E+00 0.00000E+00
 -1       539 4.90350E+01 6.60425E+00 0.00000E+00
 -1       540 5.20350E+01 6.60425E+00 0.00000E+00
 -1       541 5.50350E+01 6.60425E+00 0.00000E+00
 -1       542 5.80350E+01 6.60425E+00 0.00000E+00
 -1       543 6.10350E+01 6.60425E+00 0.00000E+00
 -1       544 6.40350E+01 6.60425E+00 0.00000E+00
 -1       545 6.70350E+01 6.60425E+00 0.00000E+00
 -1       546 7.00350E+01 6.60425E+00 0.00000E+00
 -1       547 7.30350E+01 6.60425E+00 0.00000E+00
 -1       548 7.60350E+01 6.60425E+00 0.00000E+00
 -1       549 7.90350E+01 6.60425E+00 0.00000E+00
 -1       550 8.20350E+01 6.60425E+00 0.00000E+00
 -1       551 8.50350E+01 6.60425E+00 0.00000E+00
 -1       552 8.80350E+01 6.60425E+00 0.00000E+00
 -1       553 9.10350E+01 6.60425E+00 0.00000E+00
 -1       554 9.40350E+01 6.60425E+00 0.00000E+00
 -1       555 9.70350E+01 6.60425E+00 0.00000E+00
 -1       556 1.00035E+02 6.60425E+00 0.00000E+00
 -1       557 1.03035E+02 6.60425E+00 0.00000E+00
 -1       558 1.06035E+02 6.60425E+00 0.00000E+00
 -1       559 1.09035E+02 6.60425E+00 0.00000E+00
 -1       560 1.12035E+02 6.60425E+00 0.00000E+00
 -1       561 1.15035E+02 6.60425E+00 0.00000E+00
 -1       562 1.18035E+02 6.60425E+00 0.00000E+00
 -1       563 1.21035E+02 6.60425E+00 0.00000E+00
 -1       564 1.24035E+02 6.60425E+00 0.00000E+00
 -1       565 1.27035E+02 6.60425E+00 0.00000E+00
 -1       566 1.30035E+02 6.60425E+00 0.00000E+00
 -1       567 1.33035E+02 6.60425E+00 0.00000E+00
 -1       568 1.36035E+02 6.60425E+00 0.00000E+00
 -1       569 1.39035E+02 6.60425E+00 0.00000E+00
 -1       570 1.42035E+02 6.60425E+00 0.00000E+00
 -1       571 1.42206E+02 1.61750E+01 0.00000E+00
 -1       572 1.42206E+02 1.91250E+01 0.00000E+00
 -1       573 1.42206E+02 1.03250E+01 0.00000E+00
 -1       574 1.42206E+02 1.32500E+01 0.00000E+00
 -1       575 1.42206E+02 2.20750E+01 0.00000E+00
 -1       576 1.42206E+02 2.50250E+01 0.00000E+00
 -1       577 1.42206E+02 2.79750E+01 0.00000E+00
 -1       578 1.42206E+02 3.08750E+01 0.00000E+00
 -1       579 1.42206E+02 3.38250E+01 0.00000E+00
 -1       580 1.42206E+02 3.67750E+01 0.00000E+00
 -1       581 1.42206E+02 3.97250E+01 0.00000E+00
 -1       582 5.63450E+01 2.46607E+01 0.00000E+00
 -1       583 1.60350E+01 6.60425E+00 0.00000E+00
 -1       584 5.52180E+01 1.76429E+01 0.00000E+00
 -1       585 5.60451E+01 2.70282E+01 0.00000E+00
 -1       586 7.92300E+00 4.16780E+01 0.00000E+00
 -1       587 5.37169E+01 1.54761E+01 0.00000E+00
 -1       588 3.45720E+01 2.57852E+01 0.00000E+00
 -1       589 4.77764E+01 1.19236E+01 0.00000E+00
 -1       590 7.79400E+00 2.79000E+01 0.00000E+00
 -1       591 4.42755E+01 1.14437E+01 0.00000E+00
 -1       592 3.43012E+01 2.34481E+01 0.00000E+00
 -1       593 4.26180E+01 1.20669E+01 0.00000E+00
 -1       594 3.97699E+01 1.33135E+01 0.00000E+00
 -1       595 3.76890E+01 1.46274E+01 0.00000E+00
 -1       596 3.61063E+01 1.64545E+01 0.00000E+00
 -1       597 3.51033E+01 1.88794E+01 0.00000E+00
 -1       598 3.79952E+01 3.18823E+01 0.00000E+00
 -1       599 3.46988E+01 2.09790E+01 0.00000E+00
 -1       600 3.52182E+01 2.78571E+01 0.00000E+00
 -1       601 4.77325E+01 3.43000E+01 0.00000E+00
 -1       602 4.28825E+01 3.43888E+01 0.00000E+00
 -1       603 4.51695E+01 3.45168E+01 0.00000E+00
 -1       604 4.96762E+01 3.34696E+01 0.00000E+00
 -1       605 5.18039E+01 3.27184E+01 0.00000E+00
 -1       606 5.38547E+01 3.09860E+01 0.00000E+00
 -1       607 5.51282E+01 2.90652E+01 0.00000E+00
 -1       608 5.18950E+01 1.40014E+01 0.00000E+00
 -1       609 7.61550E+00 6.21462E+00 0.00000E+00
 -1       610 4.62157E+01 1.01178E+01 0.00000E+00
 -1       611 7.79400E+00 3.67375E+01 0.00000E+00
 -1       612 5.72909E+01 2.33518E+01 0.00000E+00
 -1       613 1.41678E+02 4.22645E+01 0.00000E+00
 -1       614 3.87447E+01 3.34853E+01 0.00000E+00
 -1       615 4.11599E+01 3.47775E+01 0.00000E+00
 -1       616 1.03920E+01 2.05500E+01 0.00000E+00
 -1       617 1.03920E+01 2.35000E+01 0.00000E+00
 -1       618 1.03920E+01 1.46750E+01 0.00000E+00
 -1       619 1.03920E+01 1.17250E+01 0.00000E+00
 -1       620 1.15350E+01 9.20225E+00 0.00000E+00
 -1       621 5.60150E+01 1.54873E+01 0.00000E+00
 -1       622 1.45350E+01 9.20225E+00 0.00000E+00
 -1       623 1.51500E+01 3.96080E+01 0.00000E+00
 -1       624 1.81500E+01 3.96080E+01 0.00000E+00
 -1       625 2.11500E+01 3.96080E+01 0.00000E+00
 -1       626 2.41500E+01 3.96080E+01 0.00000E+00
 -1       627 2.71500E+01 3.96080E+01 0.00000E+00
 -1       628 3.01500E+01 3.96080E+01 0.00000E+00
 -1       629 3.31500E+01 3.96080E+01 0.00000E+00
 -1       630 3.61500E+01 3.96080E+01 0.00000E+00
 -1       631 3.91500E+01 3.96080E+01 0.00000E+00
 -1       632 4.21500E+01 3.96080E+01 0.00000E+00
 -1       633 4.51500E+01 3.96080E+01 0.00000E+00
 -1       634 4.81500E+01 3.96080E+01 0.00000E+00
 -1       635 5.11500E+01 3.96080E+01 0.00000E+00
 -1       636 5.41500E+01 3.96080E+01 0.00000E+00
 -1       637 5.71500E+01 3.96080E+01 0.00000E+00
 -1       638 6.01500E+01 3.96080E+01 0.00000E+00
 -1       639 6.31500E+01 3.96080E+01 0.00000E+00
 -1       640 6.61500E+01 3.96080E+01 0.00000E+00
 -1       641 6.91500E+01 3.96080E+01 0.00000E+00
 -1       642 7.21500E+01 3.96080E+01 0.00000E+00
 -1       643 7.51500E+01 3.96080E+01 0.00000E+00
 -1       644 7.81500E+01 3.96080E+01 0.00000E+00
 -1       645 8.11500E+01 3.96080E+01 0.00000E+00
 -1       646 8.41500E+01 3.96080E+01 0.00000E+00
 -1       647 8.71500E+01 3.96080E+01 0.00000E+00
 -1       648 9.01500E+01 3.96080E+01 0.00000E+00
 -1       649 9.31500E+01 3.96080E+01 0.00000E+00
 -1       650 9.61500E+01 3.96080E+01 0.00000E+00
 -1       651 9.91500E+01 3.96080E+01 0.00000E+00
 -1       652 1.02150E+02 3.96080E+01 0.00000E+00
 -1       653 1.05150E+02 3.96080E+01 0.00000E+00
 -1       654 1.08150E+02 3.96080E+01 0.00000E+00
 -1       655 1.11150E+02 3.96080E+01 0.00000E+00
 -1       656 1.14150E+02 3.96080E+01 0.00000E+00
 -1       657 1.17150E+02 3.96080E+01 0.00000E+00
 -1       658 1.20150E+02 3.96080E+01 0.00000E+00
 -1       659 1.23150E+02 3.96080E+01 0.00000E+00
 -1       660 1.26150E+02 3.96080E+01 0.00000E+00
 -1       661 1.29150E+02 3.96080E+01 0.00000E+00
 -1       662 1.32150E+02 3.96080E+01 0.00000E+00
 -1       663 1.35150E+02 3.96080E+01 0.00000E+00
 -1       664 1.38150E+02 3.96080E+01 0.00000E+00
 -1       665 4.39395E+01 3.59980E+01 0.00000E+00
 -1       666 4.66098E+01 3.62844E+01 0.00000E+00
 -1       667 2.05350E+01 9.20225E+00 0.00000E+00
 -1       668 2.95350E+01 9.20225E+00 0.00000E+00
 -1       669 3.25350E+01 9.20225E+00 0.00000E+00
 -1       670 3.55350E+01 9.20225E+00 0.00000E+00
 -1       671 3.85350E+01 9.20225E+00 0.00000E+00
 -1       672 4.15350E+01 9.20225E+00 0.00000E+00
 -1       673 5.05350E+01 8.98965E+00 0.00000E+00
 -1       674 5.35350E+01 8.98965E+00 0.00000E+00
 -1       675 5.65350E+01 8.98965E+00 0.00000E+00
 -1       676 5.95350E+01 8.98965E+00 0.00000E+00
 -1       677 6.25350E+01 8.98965E+00 0.00000E+00
 -1       678 6.55350E+01 8.98965E+00 0.00000E+00
 -1       679 6.85350E+01 8.98965E+00 0.00000E+00
 -1       680 7.15350E+01 8.98965E+00 0.00000E+00
 -1       681 7.45350E+01 8.98965E+00 0.00000E+00
 -1       682 7.75350E+01 8.98965E+00 0.00000E+00
 -1       683 8.05350E+01 8.98965E+00 0.00000E+00
 -1       684 8.35350E+01 8.98965E+00 0.00000E+00
 -1       685 8.65350E+01 8.98965E+00 0.00000E+00
 -1       686 8.95350E+01 8.98965E+00 0.00000E+00
 -1       687 9.25350E+01 8.98965E+00 0.00000E+00
 -1       688 9.55350E+01 8.98965E+00 0.00000E+00
 -1       689 9.85350E+01 8.98965E+00 0.00000E+00
 -1       690 1.01535E+02 8.98965E+00 0.00000E+00
 -1       691 1.04535E+02 8.98965E+00 0.00000E+00
 -1       692 1.07535E+02 8.98965E+00 0.00000E+00
 -1       693 1.10535E+02 8.98965E+00 0.00000E+00
 -1       694 1.13535E+02 8.98965E+00 0.00000E+00
 -1       695 1.16535E+02 8.98965E+00 0.00000E+00
 -1       696 1.19535E+02 8.98965E+00 0.00000E+00
 -1       697 1.22535E+02 8.98965E+00 0.00000E+00
 -1       698 1.25535E+02 8.98965E+00 0.00000E+00
 -1       699 1.28535E+02 8.98965E+00 0.00000E+00
 -1       700 1.31535E+02 8.98965E+00 0.00000E+00
 -1       701 1.34535E+02 8.98965E+00 0.00000E+00
 -1       702 1.37535E+02 8.98965E+00 0.00000E+00
 -1       703 1.39870E+02 9.65732E+00 0.00000E+00
 -1       704 1.39608E+02 2.35500E+01 0.00000E+00
 -1       705 1.40178E+02 3.96665E+01 0.00000E+00
 -1       706 1.39608E+02 1.76500E+01 0.00000E+00
 -1       707 1.39608E+02 2.65000E+01 0.00000E+00
 -1       708 1.39608E+02 2.06000E+01 0.00000E+00
 -1       709 5.73463E+01 1.81093E+01 0.00000E+00
 -1       710 1.39608E+02 2.94000E+01 0.00000E+00
 -1       711 1.39608E+02 3.23500E+01 0.00000E+00
 -1       712 1.39608E+02 3.53000E+01 0.00000E+00
 -1       713 1.75350E+01 9.20225E+00 0.00000E+00
 -1       714 5.75330E+01 2.08117E+01 0.00000E+00
 -1       715 5.62003E+01 3.11586E+01 0.00000E+00
 -1       716 9.78035E+00 3.93914E+01 0.00000E+00
 -1       717 4.03719E+01 1.08120E+01 0.00000E+00
 -1       718 3.37102E+01 1.68833E+01 0.00000E+00
 -1       719 4.93604E+01 1.05664E+01 0.00000E+00
 -1       720 2.65350E+01 9.20225E+00 0.00000E+00
 -1       721 2.35350E+01 9.20225E+00 0.00000E+00
 -1       722 1.24652E+01 3.94997E+01 0.00000E+00
 -1       723 3.45635E+01 3.01674E+01 0.00000E+00
 -1       724 3.75453E+01 1.20952E+01 0.00000E+00
 -1       725 1.03920E+01 1.76125E+01 0.00000E+00
 -1       726 3.30978E+01 2.73817E+01 0.00000E+00
 -1       727 3.28878E+01 1.95413E+01 0.00000E+00
 -1       728 3.52213E+01 1.40888E+01 0.00000E+00
 -1       729 1.03920E+01 3.23250E+01 0.00000E+00
 -1       730 5.40442E+01 3.32905E+01 0.00000E+00
 -1       731 3.28271E+01 2.50446E+01 0.00000E+00
 -1       732 3.56415E+01 3.23583E+01 0.00000E+00
 -1       733 5.74562E+01 2.88882E+01 0.00000E+00
 -1       734 5.77303E+01 2.60390E+01 0.00000E+00
 -1       735 4.93782E+01 3.54620E+01 0.00000E+00
 -1       736 5.15058E+01 3.47108E+01 0.00000E+00
 -1       737 3.24903E+01 2.20104E+01 0.00000E+00
 -1       738 1.03920E+01 3.52625E+01 0.00000E+00
 -1       739 1.03920E+01 2.64500E+01 0.00000E+00
 -1       740 5.86762E+01 2.47301E+01 0.00000E+00
 -1       741 1.39608E+02 1.47250E+01 0.00000E+00
 -1       742 1.39739E+02 1.21912E+01 0.00000E+00
 -1       743 5.20631E+01 1.19309E+01 0.00000E+00
 -1       744 3.93336E+01 3.52509E+01 0.00000E+00
 -1       745 4.22170E+01 3.63867E+01 0.00000E+00
 -1       746 3.63910E+01 3.39613E+01 0.00000E+00
 -1       747 1.03920E+01 2.93875E+01 0.00000E+00
 -1       748 5.48777E+01 1.30963E+01 0.00000E+00
 -1       749 5.88076E+01 1.57184E+01 0.00000E+00
 -1       750 1.29900E+01 1.32000E+01 0.00000E+00
 -1       751 1.66500E+01 3.70100E+01 0.00000E+00
 -1       752 1.96500E+01 3.70100E+01 0.00000E+00
 -1       753 2.26500E+01 3.70100E+01 0.00000E+00
 -1       754 2.56500E+01 3.70100E+01 0.00000E+00
 -1       755 2.86500E+01 3.70100E+01 0.00000E+00
 -1       756 3.16500E+01 3.70100E+01 0.00000E+00
 -1       757 3.46500E+01 3.70100E+01 0.00000E+00
 -1       758 4.06500E+01 3.73902E+01 0.00000E+00
 -1       759 5.56500E+01 3.70100E+01 0.00000E+00
 -1       760 5.86500E+01 3.70100E+01 0.00000E+00
 -1       761 6.16500E+01 3.70100E+01 0.00000E+00
 -1       762 6.46500E+01 3.70100E+01 0.00000E+00
 -1       763 6.76500E+01 3.70100E+01 0.00000E+00
 -1       764 7.06500E+01 3.70100E+01 0.00000E+00
 -1       765 7.36500E+01 3.70100E+01 0.00000E+00
 -1       766 7.66500E+01 3.70100E+01 0.00000E+00
 -1       767 7.96500E+01 3.70100E+01 0.00000E+00
 -1       768 8.26500E+01 3.70100E+01 0.00000E+00
 -1       769 8.56500E+01 3.70100E+01 0.00000E+00
 -1       770 8.86500E+01 3.70100E+01 0.00000E+00
 -1       771 9.16500E+01 3.70100E+01 0.00000E+00
 -1       772 9.46500E+01 3.70100E+01 0.00000E+00
 -1       773 9.76500E+01 3.70100E+01 0.00000E+00
 -1       774 1.00650E+02 3.70100E+01 0.00000E+00
 -1       775 1.03650E+02 3.70100E+01 0.00000E+00
 -1       776 1.06650E+02 3.70100E+01 0.00000E+00
 -1       777 1.09650E+02 3.70100E+01 0.00000E+00
 -1       778 1.12650E+02 3.70100E+01 0.00000E+00
 -1       779 1.15650E+02 3.70100E+01 0.00000E+00
 -1       780 1.18650E+02 3.70100E+01 0.00000E+00
 -1       781 1.21650E+02 3.70100E+01 0.00000E+00
 -1       782 1.24650E+02 3.70100E+01 0.00000E+00
 -1       783 1.27650E+02 3.70100E+01 0.00000E+00
 -1       784 1.30650E+02 3.70100E+01 0.00000E+00
 -1       785 1.33650E+02 3.70100E+01 0.00000E+00
 -1       786 1.36650E+02 3.70100E+01 0.00000E+00
 -1       787 5.40216E+01 3.62285E+01 0.00000E+00
 -1       788 5.87689E+01 3.10970E+01 0.00000E+00
 -1       789 3.10350E+01 1.18003E+01 0.00000E+00
 -1       790 6.10350E+01 1.15876E+01 0.00000E+00
 -1       791 6.40350E+01 1.15876E+01 0.00000E+00
 -1       792 6.70350E+01 1.15876E+01 0.00000E+00
 -1       793 7.00350E+01 1.15876E+01 0.00000E+00
 -1       794 7.30350E+01 1.15876E+01 0.00000E+00
 -1       795 7.60350E+01 1.15876E+01 0.00000E+00
 -1       796 7.90350E+01 1.15876E+01 0.00000E+00
 -1       797 8.20350E+01 1.15876E+01 0.00000E+00
 -1       798 8.50350E+01 1.15876E+01 0.00000E+00
 -1       799 8.80350E+01 1.15876E+01 0.00000E+00
 -1       800 9.10350E+01 1.15876E+01 0.00000E+00
 -1       801 9.40350E+01 1.15876E+01 0.00000E+00
 -1       802 9.70350E+01 1.15876E+01 0.00000E+00
 -1       803 1.00035E+02 1.15876E+01 0.00000E+00
 -1       804 1.03035E+02 1.15876E+01 0.00000E+00
 -1       805 1.06035E+02 1.15876E+01 0.00000E+00
 -1       806 1.09035E+02 1.15876E+01 0.00000E+00
 -1       807 1.12035E+02 1.15876E+01 0.00000E+00
 -1       808 1.15035E+02 1.15876E+01 0.00000E+00
 -1       809 1.18035E+02 1.15876E+01 0.00000E+00
 -1       810 1.21035E+02 1.15876E+01 0.00000E+00
 -1       811 1.24035E+02 1.15876E+01 0.00000E+00
 -1       812 1.27035E+02 1.15876E+01 0.00000E+00
 -1       813 1.30035E+02 1.15876E+01 0.00000E+00
 -1       814 1.33035E+02 1.15876E+01 0.00000E+00
 -1       815 1.36035E+02 1.15876E+01 0.00000E+00
 -1       816 1.37887E+02 1.18894E+01 0.00000E+00
 -1       817 3.09957E+01 2.05033E+01 0.00000E+00
 -1       818 1.29900E+01 2.20250E+01 0.00000E+00
 -1       819 3.34133E+01 3.20941E+01 0.00000E+00
 -1       820 5.92861E+01 2.22604E+01 0.00000E+00
 -1       821 1.37010E+02 2.50250E+01 0.00000E+00
 -1       822 1.37010E+02 3.38250E+01 0.00000E+00
 -1       823 1.37010E+02 2.79250E+01 0.00000E+00
 -1       824 3.09258E+01 2.64492E+01 0.00000E+00
 -1       825 5.81155E+01 1.20153E+01 0.00000E+00
 -1       826 3.21645E+01 2.96512E+01 0.00000E+00
 -1       827 3.23675E+01 1.43514E+01 0.00000E+00
 -1       828 2.80350E+01 1.18003E+01 0.00000E+00
 -1       829 1.37010E+02 3.08750E+01 0.00000E+00
 -1       830 3.11803E+01 1.75568E+01 0.00000E+00
 -1       831 2.50350E+01 1.18003E+01 0.00000E+00
 -1       832 5.98193E+01 1.92961E+01 0.00000E+00
 -1       833 1.37625E+01 1.12011E+01 0.00000E+00
 -1       834 5.96341E+01 2.76599E+01 0.00000E+00
 -1       835 2.20350E+01 1.18003E+01 0.00000E+00
 -1       836 3.23656E+01 2.31397E+01 0.00000E+00
 -1       837 5.66816E+01 3.38016E+01 0.00000E+00
 -1       838 3.46918E+01 1.11202E+01 0.00000E+00
 -1       839 3.04644E+01 2.45442E+01 0.00000E+00
 -1       840 1.29900E+01 2.49750E+01 0.00000E+00
 -1       841 1.29900E+01 1.61375E+01 0.00000E+00
 -1       842 1.37010E+02 1.61875E+01 0.00000E+00
 -1       843 5.21494E+01 3.67293E+01 0.00000E+00
 -1       844 3.41627E+01 3.36971E+01 0.00000E+00
 -1       845 1.29900E+01 1.90875E+01 0.00000E+00
 -1       846 1.37010E+02 1.91375E+01 0.00000E+00
 -1       847 1.37010E+02 2.20812E+01 0.00000E+00
 -1       848 2.99925E+01 2.87186E+01 0.00000E+00
 -1       849 3.07301E+01 2.25237E+01 0.00000E+00
 -1       850 1.67625E+01 1.12011E+01 0.00000E+00
 -1       851 1.93988E+01 1.15007E+01 0.00000E+00
 -1       852 6.05800E+01 2.63510E+01 0.00000E+00
 -1       853 1.39652E+01 3.69017E+01 0.00000E+00
 -1       854 1.29900E+01 3.08563E+01 0.00000E+00
 -1       855 1.29900E+01 3.37938E+01 0.00000E+00
 -1       856 2.93377E+01 1.50517E+01 0.00000E+00
 -1       857 6.17209E+01 3.00126E+01 0.00000E+00
 -1       858 2.11500E+01 3.44120E+01 0.00000E+00
 -1       859 2.41500E+01 3.44120E+01 0.00000E+00
 -1       860 2.71500E+01 3.44120E+01 0.00000E+00
 -1       861 3.01500E+01 3.44120E+01 0.00000E+00
 -1       862 2.63377E+01 1.50517E+01 0.00000E+00
 -1       863 6.01500E+01 3.44120E+01 0.00000E+00
 -1       864 6.31500E+01 3.44120E+01 0.00000E+00
 -1       865 6.61500E+01 3.44120E+01 0.00000E+00
 -1       866 6.91500E+01 3.44120E+01 0.00000E+00
 -1       867 7.21500E+01 3.44120E+01 0.00000E+00
 -1       868 7.51500E+01 3.44120E+01 0.00000E+00
 -1       869 7.81500E+01 3.44120E+01 0.00000E+00
 -1       870 8.11500E+01 3.44120E+01 0.00000E+00
 -1       871 8.41500E+01 3.44120E+01 0.00000E+00
 -1       872 8.71500E+01 3.44120E+01 0.00000E+00
 -1       873 9.01500E+01 3.44120E+01 0.00000E+00
 -1       874 9.31500E+01 3.44120E+01 0.00000E+00
 -1       875 9.61500E+01 3.44120E+01 0.00000E+00
 -1       876 9.91500E+01 3.44120E+01 0.00000E+00
 -1       877 1.02150E+02 3.44120E+01 0.00000E+00
 -1       878 1.05150E+02 3.44120E+01 0.00000E+00
 -1       879 1.08150E+02 3.44120E+01 0.00000E+00
 -1       880 1.11150E+02 3.44120E+01 0.00000E+00
 -1       881 1.14150E+02 3.44120E+01 0.00000E+00
 -1       882 1.17150E+02 3.44120E+01 0.00000E+00
 -1       883 1.20150E+02 3.44120E+01 0.00000E+00
 -1       884 1.23150E+02 3.44120E+01 0.00000E+00
 -1       885 1.26150E+02 3.44120E+01 0.00000E+00
 -1       886 1.29150E+02 3.44120E+01 0.00000E+00
 -1       887 1.32150E+02 3.44120E+01 0.00000E+00
 -1       888 1.34580E+02 3.41185E+01 0.00000E+00
 -1       889 1.37449E+02 1.40385E+01 0.00000E+00
 -1       890 6.25350E+01 1.41856E+01 0.00000E+00
 -1       891 7.15350E+01 1.41856E+01 0.00000E+00
 -1       892 7.45350E+01 1.41856E+01 0.00000E+00
 -1       893 7.75350E+01 1.41856E+01 0.00000E+00
 -1       894 8.05350E+01 1.41856E+01 0.00000E+00
 -1       895 8.35350E+01 1.41856E+01 0.00000E+00
 -1       896 8.65350E+01 1.41856E+01 0.00000E+00
 -1       897 8.95350E+01 1.41856E+01 0.00000E+00
 -1       898 9.25350E+01 1.41856E+01 0.00000E+00
 -1       899 9.55350E+01 1.41856E+01 0.00000E+00
 -1       900 9.85350E+01 1.41856E+01 0.00000E+00
 -1       901 1.01535E+02 1.41856E+01 0.00000E+00
 -1       902 1.04535E+02 1.41856E+01 0.00000E+00
 -1       903 1.07535E+02 1.41856E+01 0.00000E+00
 -1       904 1.10535E+02 1.41856E+01 0.00000E+00
 -1       905 1.13535E+02 1.41856E+01 0.00000E+00
 -1       906 1.16535E+02 1.41856E+01 0.00000E+00
 -1       907 1.19535E+02 1.41856E+01 0.00000E+00
 -1       908 1.22535E+02 1.41856E+01 0.00000E+00
 -1       909 1.25535E+02 1.41856E+01 0.00000E+00
 -1       910 1.28535E+02 1.41856E+01 0.00000E+00
 -1       911 1.31535E+02 1.41856E+01 0.00000E+00
 -1       912 6.55350E+01 1.41856E+01 0.00000E+00
 -1       913 6.85350E+01 1.41856E+01 0.00000E+00
 -1       914 1.34412E+02 2.64750E+01 0.00000E+00
 -1       915 6.18134E+01 1.68003E+01 0.00000E+00
 -1       916 3.06649E+01 3.19584E+01 0.00000E+00
 -1       917 6.19004E+01 2.12006E+01 0.00000E+00
 -1       918 6.11899E+01 2.38813E+01 0.00000E+00
 -1       919 2.88653E+01 2.59399E+01 0.00000E+00
 -1       920 1.81500E+01 3.44120E+01 0.00000E+00
 -1       921 1.29900E+01 2.79188E+01 0.00000E+00
 -1       922 1.59900E+01 1.32000E+01 0.00000E+00
 -1       923 2.33377E+01 1.50517E+01 0.00000E+00
 -1       924 2.90418E+01 1.89018E+01 0.00000E+00
 -1       925 1.34580E+02 3.11685E+01 0.00000E+00
 -1       926 1.55700E+01 3.41029E+01 0.00000E+00
 -1       927 1.34412E+02 2.35313E+01 0.00000E+00
 -1       928 1.34535E+02 1.41856E+01 0.00000E+00
 -1       929 1.55880E+01 2.05562E+01 0.00000E+00
 -1       930 6.38945E+01 1.87048E+01 0.00000E+00
 -1       931 2.83983E+01 2.32448E+01 0.00000E+00
 -1       932 2.87200E+01 2.10733E+01 0.00000E+00
 -1       933 2.07014E+01 1.47522E+01 0.00000E+00
 -1       934 1.55880E+01 2.35063E+01 0.00000E+00
 -1       935 1.34412E+02 1.76625E+01 0.00000E+00
 -1       936 1.55880E+01 2.93875E+01 0.00000E+00
 -1       937 1.34496E+02 2.88218E+01 0.00000E+00
 -1       938 1.55790E+01 3.17452E+01 0.00000E+00
 -1       939 6.26211E+01 2.71123E+01 0.00000E+00
 -1       940 6.46522E+01 2.93326E+01 0.00000E+00
 -1       941 2.56500E+01 3.18140E+01 0.00000E+00
 -1       942 2.81574E+01 3.18862E+01 0.00000E+00
 -1       943 2.26500E+01 3.18140E+01 0.00000E+00
 -1       944 1.55880E+01 1.76063E+01 0.00000E+00
 -1       945 6.76522E+01 2.93326E+01 0.00000E+00
 -1       946 7.06522E+01 2.93326E+01 0.00000E+00
 -1       947 7.36522E+01 2.93326E+01 0.00000E+00
 -1       948 7.66522E+01 2.93326E+01 0.00000E+00
 -1       949 7.96522E+01 2.93326E+01 0.00000E+00
 -1       950 8.26522E+01 2.93326E+01 0.00000E+00
 -1       951 8.56522E+01 2.93326E+01 0.00000E+00
 -1       952 8.86522E+01 2.93326E+01 0.00000E+00
 -1       953 9.16522E+01 2.93326E+01 0.00000E+00
 -1       954 9.46522E+01 2.93326E+01 0.00000E+00
 -1       955 9.76522E+01 2.93326E+01 0.00000E+00
 -1       956 1.00652E+02 2.93326E+01 0.00000E+00
 -1       957 1.03652E+02 2.93326E+01 0.00000E+00
 -1       958 1.06652E+02 2.93326E+01 0.00000E+00
 -1       959 1.09652E+02 2.93326E+01 0.00000E+00
 -1       960 1.12652E+02 2.93326E+01 0.00000E+00
 -1       961 1.15652E+02 2.93326E+01 0.00000E+00
 -1       962 1.18652E+02 2.93326E+01 0.00000E+00
 -1       963 1.21652E+02 2.93326E+01 0.00000E+00
 -1       964 1.24652E+02 2.93326E+01 0.00000E+00
 -1       965 1.27652E+02 2.93326E+01 0.00000E+00
 -1       966 1.30652E+02 2.93326E+01 0.00000E+00
 -1       967 7.90350E+01 1.67836E+01 0.00000E+00
 -1       968 1.30972E+02 1.75803E+01 0.00000E+00
 -1       969 7.60350E+01 1.67836E+01 0.00000E+00
 -1       970 7.30350E+01 1.67836E+01 0.00000E+00
 -1       971 8.20350E+01 1.67836E+01 0.00000E+00
 -1       972 8.50350E+01 1.67836E+01 0.00000E+00
 -1       973 8.80350E+01 1.67836E+01 0.00000E+00
 -1       974 9.10350E+01 1.67836E+01 0.00000E+00
 -1       975 9.40350E+01 1.67836E+01 0.00000E+00
 -1       976 9.70350E+01 1.67836E+01 0.00000E+00
 -1       977 1.00035E+02 1.67836E+01 0.00000E+00
 -1       978 1.03035E+02 1.67836E+01 0.00000E+00
 -1       979 1.06035E+02 1.67836E+01 0.00000E+00
 -1       980 1.09035E+02 1.67836E+01 0.00000E+00
 -1       981 1.12035E+02 1.67836E+01 0.00000E+00
 -1       982 1.15035E+02 1.67836E+01 0.00000E+00
 -1       983 1.18035E+02 1.67836E+01 0.00000E+00
 -1       984 1.21035E+02 1.67836E+01 0.00000E+00
 -1       985 1.24035E+02 1.67836E+01 0.00000E+00
 -1       986 1.27035E+02 1.67836E+01 0.00000E+00
 -1       987 6.70350E+01 1.67836E+01 0.00000E+00
 -1       988 7.00350E+01 1.67836E+01 0.00000E+00
 -1       989 1.55880E+01 2.64469E+01 0.00000E+00
 -1       990 1.34412E+02 2.05969E+01 0.00000E+00
 -1       991 2.72185E+01 2.82259E+01 0.00000E+00
 -1       992 6.47148E+01 1.64452E+01 0.00000E+00
 -1       993 1.96500E+01 3.18140E+01 0.00000E+00
 -1       994 1.83457E+01 1.39761E+01 0.00000E+00
 -1       995 2.55637E+01 1.84700E+01 0.00000E+00
 -1       996 6.32311E+01 2.46426E+01 0.00000E+00
 -1       997 6.39416E+01 2.19619E+01 0.00000E+00
 -1       998 2.66117E+01 2.49424E+01 0.00000E+00
 -1       999 1.81860E+01 2.79172E+01 0.00000E+00
 -1      1000 6.52622E+01 2.68629E+01 0.00000E+00
 -1      1001 1.30972E+02 2.05147E+01 0.00000E+00
 -1      1002 1.31814E+02 2.50031E+01 0.00000E+00
 -1      1003 2.69334E+01 2.27709E+01 0.00000E+00
 -1      1004 1.81860E+01 2.20313E+01 0.00000E+00
 -1      1005 2.17262E+01 1.74833E+01 0.00000E+00
 -1      1006 1.76145E+01 3.17796E+01 0.00000E+00
 -1      1007 1.81860E+01 1.90812E+01 0.00000E+00
 -1      1008 1.31898E+02 2.73499E+01 0.00000E+00
 -1      1009 2.41500E+01 2.92160E+01 0.00000E+00
 -1      1010 1.81860E+01 2.49766E+01 0.00000E+00
 -1      1011 6.91522E+01 2.67346E+01 0.00000E+00
 -1      1012 7.21522E+01 2.67346E+01 0.00000E+00
 -1      1013 7.51522E+01 2.67346E+01 0.00000E+00
 -1      1014 7.81522E+01 2.67346E+01 0.00000E+00
 -1      1015 8.11522E+01 2.67346E+01 0.00000E+00
 -1      1016 8.41522E+01 2.67346E+01 0.00000E+00
 -1      1017 8.71522E+01 2.67346E+01 0.00000E+00
 -1      1018 9.01522E+01 2.67346E+01 0.00000E+00
 -1      1019 9.31522E+01 2.67346E+01 0.00000E+00
 -1      1020 9.61522E+01 2.67346E+01 0.00000E+00
 -1      1021 9.91522E+01 2.67346E+01 0.00000E+00
 -1      1022 1.02152E+02 2.67346E+01 0.00000E+00
 -1      1023 1.05152E+02 2.67346E+01 0.00000E+00
 -1      1024 1.08152E+02 2.67346E+01 0.00000E+00
 -1      1025 1.11152E+02 2.67346E+01 0.00000E+00
 -1      1026 1.14152E+02 2.67346E+01 0.00000E+00
 -1      1027 1.17152E+02 2.67346E+01 0.00000E+00
 -1      1028 1.20152E+02 2.67346E+01 0.00000E+00
 -1      1029 1.23152E+02 2.67346E+01 0.00000E+00
 -1      1030 1.26152E+02 2.67346E+01 0.00000E+00
 -1      1031 8.35350E+01 1.93816E+01 0.00000E+00
 -1      1032 7.75350E+01 1.93816E+01 0.00000E+00
 -1      1033 8.05350E+01 1.93816E+01 0.00000E+00
 -1      1034 7.45350E+01 1.93816E+01 0.00000E+00
 -1      1035 1.27035E+02 1.97180E+01 0.00000E+00
 -1      1036 8.65350E+01 1.93816E+01 0.00000E+00
 -1      1037 8.95350E+01 1.93816E+01 0.00000E+00
 -1      1038 9.25350E+01 1.93816E+01 0.00000E+00
 -1      1039 9.55350E+01 1.93816E+01 0.00000E+00
 -1      1040 9.85350E+01 1.93816E+01 0.00000E+00
 -1      1041 1.01535E+02 1.93816E+01 0.00000E+00
 -1      1042 1.04535E+02 1.93816E+01 0.00000E+00
 -1      1043 1.07535E+02 1.93816E+01 0.00000E+00
 -1      1044 1.10535E+02 1.93816E+01 0.00000E+00
 -1      1045 1.13535E+02 1.93816E+01 0.00000E+00
 -1      1046 1.16535E+02 1.93816E+01 0.00000E+00
 -1      1047 1.19535E+02 1.93816E+01 0.00000E+00
 -1      1048 1.22535E+02 1.93816E+01 0.00000E+00
 -1      1049 1.24785E+02 1.95498E+01 0.00000E+00
 -1      1050 6.85350E+01 1.93816E+01 0.00000E+00
 -1      1051 7.15350E+01 1.93816E+01 0.00000E+00
 -1      1052 2.11500E+01 2.92160E+01 0.00000E+00
 -1      1053 2.44046E+01 2.70481E+01 0.00000E+00
 -1      1054 1.93705E+01 1.67072E+01 0.00000E+00
 -1      1055 6.62148E+01 1.90432E+01 0.00000E+00
 -1      1056 1.31393E+02 2.27589E+01 0.00000E+00
 -1      1057 2.29980E+01 2.04928E+01 0.00000E+00
 -1      1058 6.59727E+01 2.41821E+01 0.00000E+00
 -1      1059 2.07840E+01 2.64469E+01 0.00000E+00
 -1      1060 2.07840E+01 2.05562E+01 0.00000E+00
 -1      1061 1.29152E+02 2.67346E+01 0.00000E+00
 -1      1062 2.37013E+01 2.37705E+01 0.00000E+00
 -1      1063 1.28731E+02 2.44904E+01 0.00000E+00
 -1      1064 2.07840E+01 2.35016E+01 0.00000E+00
 -1      1065 6.72538E+01 2.17819E+01 0.00000E+00
 -1      1066 7.90350E+01 2.19796E+01 0.00000E+00
 -1      1067 7.06522E+01 2.41366E+01 0.00000E+00
 -1      1068 7.36522E+01 2.41366E+01 0.00000E+00
 -1      1069 7.66522E+01 2.41366E+01 0.00000E+00
 -1      1070 8.56522E+01 2.41366E+01 0.00000E+00
 -1      1071 8.86522E+01 2.41366E+01 0.00000E+00
 -1      1072 9.16522E+01 2.41366E+01 0.00000E+00
 -1      1073 9.46522E+01 2.41366E+01 0.00000E+00
 -1      1074 9.76522E+01 2.41366E+01 0.00000E+00
 -1      1075 1.00652E+02 2.41366E+01 0.00000E+00
 -1      1076 1.03652E+02 2.41366E+01 0.00000E+00
 -1      1077 1.06652E+02 2.41366E+01 0.00000E+00
 -1      1078 1.09652E+02 2.41366E+01 0.00000E+00
 -1      1079 1.12652E+02 2.41366E+01 0.00000E+00
 -1      1080 1.15652E+02 2.41366E+01 0.00000E+00
 -1      1081 1.18652E+02 2.41366E+01 0.00000E+00
 -1      1082 1.21652E+02 2.41366E+01 0.00000E+00
 -1      1083 1.24652E+02 2.41366E+01 0.00000E+00
 -1      1084 8.80350E+01 2.19796E+01 0.00000E+00
 -1      1085 1.27456E+02 2.19622E+01 0.00000E+00
 -1      1086 8.23436E+01 2.30581E+01 0.00000E+00
 -1      1087 1.25206E+02 2.17940E+01 0.00000E+00
 -1      1088 0.00000E+00 4.85250E+01 0.00000E+00
 -1      1089 0.00000E+00 4.55750E+01 0.00000E+00
 -1      1090 0.00000E+00 4.26250E+01 0.00000E+00
 -1      1091 0.00000E+00 3.96750E+01 0.00000E+00
 -1      1092 0.00000E+00 3.67250E+01 0.00000E+00
 -1      1093 0.00000E+00 3.38000E+01 0.00000E+00
 -1      1094 0.00000E+00 3.08750E+01 0.00000E+00
 -1      1095 0.00000E+00 2.79250E+01 0.00000E+00
 -1      1096 0.00000E+00 2.49750E+01 0.00000E+00
 -1      1097 0.00000E+00 2.20250E+01 0.00000E+00
 -1      1098 0.00000E+00 1.90750E+01 0.00000E+00
 -1      1099 0.00000E+00 1.61500E+01 0.00000E+00
 -1      1100 0.00000E+00 1.32250E+01 0.00000E+00
 -1      1101 0.00000E+00 1.02750E+01 0.00000E+00
 -1      1102 0.00000E+00 7.32500E+00 0.00000E+00
 -1      1103 0.00000E+00 4.37500E+00 0.00000E+00
 -1      1104 0.00000E+00 1.45000E+00 0.00000E+00
 -1      1105 1.57500E+00 5.00000E+01 0.00000E+00
 -1      1106 4.65000E+00 5.00000E+01 0.00000E+00
 -1      1107 7.65000E+00 5.00000E+01 0.00000E+00
 -1      1108 1.06500E+01 5.00000E+01 0.00000E+00
 -1      1109 1.36500E+01 5.00000E+01 0.00000E+00
 -1      1110 1.66500E+01 5.00000E+01 0.00000E+00
 -1      1111 1.96500E+01 5.00000E+01 0.00000E+00
 -1      1112 2.26500E+01 5.00000E+01 0.00000E+00
 -1      1113 2.56500E+01 5.00000E+01 0.00000E+00
 -1      1114 2.86500E+01 5.00000E+01 0.00000E+00
 -1      1115 3.16500E+01 5.00000E+01 0.00000E+00
 -1      1116 3.46500E+01 5.00000E+01 0.00000E+00
 -1      1117 3.76500E+01 5.00000E+01 0.00000E+00
 -1      1118 4.06500E+01 5.00000E+01 0.00000E+00
 -1      1119 4.36500E+01 5.00000E+01 0.00000E+00
 -1      1120 4.66500E+01 5.00000E+01 0.00000E+00
 -1      1121 4.96500E+01 5.00000E+01 0.00000E+00
 -1      1122 5.26500E+01 5.00000E+01 0.00000E+00
 -1      1123 5.56500E+01 5.00000E+01 0.00000E+00
 -1      1124 5.86500E+01 5.00000E+01 0.00000E+00
 -1      1125 6.16500E+01 5.00000E+01 0.00000E+00
 -1      1126 6.46500E+01 5.00000E+01 0.00000E+00
 -1      1127 6.76500E+01 5.00000E+01 0.00000E+00
 -1      1128 7.06500E+01 5.00000E+01 0.00000E+00
 -1      1129 7.36500E+01 5.00000E+01 0.00000E+00
 -1      1130 7.66500E+01 5.00000E+01 0.00000E+00
 -1      1131 7.96500E+01 5.00000E+01 0.00000E+00
 -1      1132 8.26500E+01 5.00000E+01 0.00000E+00
 -1      1133 8.56500E+01 5.00000E+01 0.00000E+00
 -1      1134 8.86500E+01 5.00000E+01 0.00000E+00
 -1      1135 9.16500E+01 5.00000E+01 0.00000E+00
 -1      1136 9.46500E+01 5.00000E+01 0.00000E+00
 -1      1137 9.76500E+01 5.00000E+01 0.00000E+00
 -1      1138 1.00650E+02 5.00000E+01 0.00000E+00
 -1      1139 1.03650E+02 5.00000E+01 0.00000E+00
 -1      1140 1.06650E+02 5.00000E+01 0.00000E+00
 -1      1141 1.09650E+02 5.00000E+01 0.00000E+00
 -1      1142 1.12650E+02 5.00000E+01 0.00000E+00
 -1      1143 1.15650E+02 5.00000E+01 0.00000E+00
 -1      1144 1.18650E+02 5.00000E+01 0.00000E+00
 -1      1145 1.21650E+02 5.00000E+01 0.00000E+00
 -1      1146 1.24650E+02 5.00000E+01 0.00000E+00
 -1      1147 1.27650E+02 5.00000E+01 0.00000E+00
 -1      1148 1.30650E+02 5.00000E+01 0.00000E+00
 -1      1149 1.33650E+02 5.00000E+01 0.00000E+00
 -1      1150 1.36650E+02 5.00000E+01 0.00000E+00
 -1      1151 1.39650E+02 5.00000E+01 0.00000E+00
 -1      1152 1.42650E+02 5.00000E+01 0.00000E+00
 -1      1153 1.45650E+02 5.00000E+01 0.00000E+00
 -1      1154 1.48575E+02 5.00000E+01 0.00000E+00
 -1      1155 1.57500E+00 0.00000E+00 0.00000E+00
 -1      1156 4.65000E+00 0.00000E+00 0.00000E+00
 -1      1157 7.65000E+00 0.00000E+00 0.00000E+00
 -1      1158 1.06500E+01 0.00000E+00 0.00000E+00
 -1      1159 1.36500E+01 0.00000E+00 0.00000E+00
 -1      1160 1.66500E+01 0.00000E+00 0.00000E+00
 -1      1161 1.96500E+01 0.00000E+00 0.00000E+00
 -1      1162 2.26500E+01 0.00000E+00 0.00000E+00
 -1      1163 2.56500E+01 0.00000E+00 0.00000E+00
 -1      1164 2.86500E+01 0.00000E+00 0.00000E+00
 -1      1165 3.16500E+01 0.00000E+00 0.00000E+00
 -1      1166 3.46500E+01 0.00000E+00 0.00000E+00
 -1      1167 3.76500E+01 0.00000E+00 0.00000E+00
 -1      1168 4.06500E+01 0.00000E+00 0.00000E+00
 -1      1169 4.36500E+01 0.00000E+00 0.00000E+00
 -1      1170 4.66500E+01 0.00000E+00 0.00000E+00
 -1      1171 4.96500E+01 0.00000E+00 0.00000E+00
 -1      1172 5.26500E+01 0.00000E+00 0.00000E+00
 -1      1173 5.56500E+01 0.00000E+00 0.00000E+00
 -1      1174 5.86500E+01 0.00000E+00 0.00000E+00
 -1      1175 6.16500E+01 0.00000E+00 0.00000E+00
 -1      1176 6.46500E+01 0.00000E+00 0.00000E+00
 -1      1177 6.76500E+01 0.00000E+00 0.00000E+00
 -1      1178 7.06500E+01 0.00000E+00 0.00000E+00
 -1      1179 7.36500E+01 0.00000E+00 0.00000E+00
 -1      1180 7.66500E+01 0.00000E+00 0.00000E+00
 -1      1181 7.96500E+01 0.00000E+00 0.00000E+00
 -1      1182 8.26500E+01 0.00000E+00 0.00000E+00
 -1      1183 8.56500E+01 0.00000E+00 0.00000E+00
 -1      1184 8.86500E+01 0.00000E+00 0.00000E+00
 -1      1185 9.16500E+01 0.00000E+00 0.00000E+00
 -1      1186 9.46500E+01 0.00000E+00 0.00000E+00
 -1      1187 9.76500E+01 0.00000E+00 0.00000E+00
 -1      1188 1.00650E+02 0.00000E+00 0.00000E+00
 -1      1189 1.03650E+02 0.00000E+00 0.00000E+00
 -1      1190 1.06650E+02 0.00000E+00 0.00000E+00
 -1      1191 1.09650E+02 0.00000E+00 0.00000E+00
 -1      1192 1.12650E+02 0.00000E+00 0.00000E+00
 -1      1193 1.15650E+02 0.00000E+00 0.00000E+00
 -1      1194 1.18650E+02 0.00000E+00 0.00000E+00
 -1      1195 1.21650E+02 0.00000E+00 0.00000E+00
 -1      1196 1.24650E+02 0.00000E+00 0.00000E+00
 -1      1197 1.27650E+02 0.00000E+00 0.00000E+00
 -1      1198 1.30650E+02 0.00000E+00 0.00000E+00
 -1      1199 1.33650E+02 0.00000E+00 0.00000E+00
 -1      1200 1.36650E+02 0.00000E+00 0.00000E+00
 -1      1201 1.39650E+02 0.00000E+00 0.00000E+00
 -1      1202 1.42650E+02 0.00000E+00 0.00000E+00
 -1      1203 1.45650E+02 0.00000E+00 0.00000E+00
 -1      1204 1.48575E+02 0.00000E+00 0.00000E+00
 -1      1205 1.50000E+02 1.47500E+00 0.00000E+00
 -1      1206 1.50000E+02 4.42500E+00 0.00000E+00
 -1      1207 1.50000E+02 7.37500E+00 0.00000E+00
 -1      1208 1.50000E+02 1.03250E+01 0.00000E+00
 -1      1209 1.50000E+02 1.32750E+01 0.00000E+00
 -1      1210 1.50000E+02 1.62000E+01 0.00000E+00
 -1      1211 1.50000E+02 1.91250E+01 0.00000E+00
 -1      1212 1.50000E+02 2.20750E+01 0.00000E+00
 -1      1213 1.50000E+02 2.50250E+01 0.00000E+00
 -1      1214 1.50000E+02 2.79750E+01 0.00000E+00
 -1      1215 1.50000E+02 3.09250E+01 0.00000E+00
 -1      1216 1.50000E+02 3.38500E+01 0.00000E+00
 -1      1217 1.50000E+02 3.67750E+01 0.00000E+00
 -1      1218 1.50000E+02 3.97250E+01 0.00000E+00
 -1      1219 1.50000E+02 4.26750E+01 0.00000E+00
 -1      1220 1.50000E+02 4.56250E+01 0.00000E+00
 -1      1221 1.50000E+02 4.85500E+01 0.00000E+00
 -1      1222 5.24398E+01 2.25536E+01 0.00000E+00
 -1      1223 5.20806E+01 2.10431E+01 0.00000E+00
 -1      1224 5.14640E+01 1.97559E+01 0.00000E+00
 -1      1225 5.05454E+01 1.85638E+01 0.00000E+00
 -1      1226 4.93583E+01 1.75723E+01 0.00000E+00
 -1      1227 4.80001E+01 1.68724E+01 0.00000E+00
 -1      1228 4.65170E+01 1.64832E+01 0.00000E+00
 -1      1229 4.49412E+01 1.64294E+01 0.00000E+00
 -1      1230 4.34325E+01 1.67176E+01 0.00000E+00
 -1      1231 4.20613E+01 1.73061E+01 0.00000E+00
 -1      1232 4.08465E+01 1.81714E+01 0.00000E+00
 -1      1233 3.98407E+01 1.92771E+01 0.00000E+00
 -1      1234 3.90978E+01 2.05593E+01 0.00000E+00
 -1      1235 3.86513E+01 2.19230E+01 0.00000E+00
 -1      1236 3.84921E+01 2.33990E+01 0.00000E+00
 -1      1237 3.86476E+01 2.48752E+01 0.00000E+00
 -1      1238 3.90904E+01 2.62395E+01 0.00000E+00
 -1      1239 3.98652E+01 2.75717E+01 0.00000E+00
 -1      1240 4.09257E+01 2.87132E+01 0.00000E+00
 -1      1241 4.22694E+01 2.96217E+01 0.00000E+00
 -1      1242 4.37923E+01 3.01982E+01 0.00000E+00
 -1      1243 4.53042E+01 3.04052E+01 0.00000E+00
 -1      1244 4.68326E+01 3.02781E+01 0.00000E+00
 -1      1245 4.82613E+01 2.98366E+01 0.00000E+00
 -1      1246 4.95370E+01 2.91207E+01 0.00000E+00
 -1      1247 5.06269E+01 2.81652E+01 0.00000E+00
 -1      1248 5.15012E+01 2.69981E+01 0.00000E+00
 -1      1249 5.21214E+01 2.56552E+01 0.00000E+00
 -1      1250 5.24499E+01 2.41744E+01 0.00000E+00
 -1      1251 1.57500E+00 4.85250E+01 0.00000E+00
 -1      1252 1.29900E+00 4.48375E+01 0.00000E+00
 -1      1253 1.29900E+00 4.63125E+01 0.00000E+00
 -1      1254 1.29900E+00 4.18875E+01 0.00000E+00
 -1      1255 1.29900E+00 4.33625E+01 0.00000E+00
 -1      1256 2.59800E+00 4.41000E+01 0.00000E+00
 -1      1257 1.29900E+00 3.89375E+01 0.00000E+00
 -1      1258 1.29900E+00 4.04125E+01 0.00000E+00
 -1      1259 2.59800E+00 4.11500E+01 0.00000E+00
 -1      1260 1.29900E+00 3.59875E+01 0.00000E+00
 -1      1261 1.29900E+00 3.74625E+01 0.00000E+00
 -1      1262 2.59800E+00 3.82000E+01 0.00000E+00
 -1      1263 1.29900E+00 3.30875E+01 0.00000E+00
 -1      1264 1.29900E+00 3.45375E+01 0.00000E+00
 -1      1265 2.59800E+00 3.52750E+01 0.00000E+00
 -1      1266 1.29900E+00 3.01375E+01 0.00000E+00
 -1      1267 1.29900E+00 3.16125E+01 0.00000E+00
 -1      1268 2.59800E+00 3.23500E+01 0.00000E+00
 -1      1269 1.29900E+00 2.71875E+01 0.00000E+00
 -1      1270 1.29900E+00 2.86625E+01 0.00000E+00
 -1      1271 2.59800E+00 2.94000E+01 0.00000E+00
 -1      1272 1.29900E+00 2.42375E+01 0.00000E+00
 -1      1273 1.29900E+00 2.57125E+01 0.00000E+00
 -1      1274 2.59800E+00 2.64500E+01 0.00000E+00
 -1      1275 1.29900E+00 2.12875E+01 0.00000E+00
 -1      1276 1.29900E+00 2.27625E+01 0.00000E+00
 -1      1277 2.59800E+00 2.35000E+01 0.00000E+00
 -1      1278 1.29900E+00 1.83375E+01 0.00000E+00
 -1      1279 1.29900E+00 1.98125E+01 0.00000E+00
 -1      1280 2.59800E+00 2.05500E+01 0.00000E+00
 -1      1281 1.29900E+00 1.54375E+01 0.00000E+00
 -1      1282 1.29900E+00 1.68875E+01 0.00000E+00
 -1      1283 2.59800E+00 1.76250E+01 0.00000E+00
 -1      1284 1.29900E+00 1.24875E+01 0.00000E+00
 -1      1285 1.29900E+00 1.39625E+01 0.00000E+00
 -1      1286 2.59800E+00 1.47000E+01 0.00000E+00
 -1      1287 1.29900E+00 9.53750E+00 0.00000E+00
 -1      1288 1.29900E+00 1.10125E+01 0.00000E+00
 -1      1289 2.59800E+00 1.17500E+01 0.00000E+00
 -1      1290 1.29900E+00 6.58750E+00 0.00000E+00
 -1      1291 1.29900E+00 8.06250E+00 0.00000E+00
 -1      1292 2.59800E+00 8.80000E+00 0.00000E+00
 -1      1293 1.29900E+00 3.63750E+00 0.00000E+00
 -1      1294 1.29900E+00 5.11250E+00 0.00000E+00
 -1      1295 2.59800E+00 5.85000E+00 0.00000E+00
 -1      1296 1.43700E+00 1.09375E+00 0.00000E+00
 -1      1297 1.43700E+00 2.54375E+00 0.00000E+00
 -1      1298 2.73600E+00 3.28125E+00 0.00000E+00
 -1      1299 3.01200E+00 1.09375E+00 0.00000E+00
 -1      1300 3.90000E+00 4.87010E+01 0.00000E+00
 -1      1301 5.40000E+00 4.87010E+01 0.00000E+00
 -1      1302 6.90000E+00 4.87010E+01 0.00000E+00
 -1      1303 8.40000E+00 4.87010E+01 0.00000E+00
 -1      1304 6.15000E+00 4.74020E+01 0.00000E+00
 -1      1305 9.90000E+00 4.87010E+01 0.00000E+00
 -1      1306 1.14000E+01 4.87010E+01 0.00000E+00
 -1      1307 9.15000E+00 4.74020E+01 0.00000E+00
 -1      1308 1.29000E+01 4.87010E+01 0.00000E+00
 -1      1309 1.44000E+01 4.87010E+01 0.00000E+00
 -1      1310 1.21500E+01 4.74020E+01 0.00000E+00
 -1      1311 1.59000E+01 4.87010E+01 0.00000E+00
 -1      1312 1.74000E+01 4.87010E+01 0.00000E+00
 -1      1313 1.51500E+01 4.74020E+01 0.00000E+00
 -1      1314 1.89000E+01 4.87010E+01 0.00000E+00
 -1      1315 2.04000E+01 4.87010E+01 0.00000E+00
 -1      1316 1.81500E+01 4.74020E+01 0.00000E+00
 -1      1317 2.19000E+01 4.87010E+01 0.00000E+00
 -1      1318 2.34000E+01 4.87010E+01 0.00000E+00
 -1      1319 2.11500E+01 4.74020E+01 0.00000E+00
 -1      1320 2.49000E+01 4.87010E+01 0.00000E+00
 -1      1321 2.64000E+01 4.87010E+01 0.00000E+00
 -1      1322 2.41500E+01 4.74020E+01 0.00000E+00
 -1      1323 2.79000E+01 4.87010E+01 0.00000E+00
 -1      1324 2.94000E+01 4.87010E+01 0.00000E+00
 -1      1325 2.71500E+01 4.74020E+01 0.00000E+00
 -1      1326 3.09000E+01 4.87010E+01 0.00000E+00
 -1      1327 3.24000E+01 4.87010E+01 0.00000E+00
 -1      1328 3.01500E+01 4.74020E+01 0.00000E+00
 -1      1329 3.39000E+01 4.87010E+01 0.00000E+00
 -1      1330 3.54000E+01 4.87010E+01 0.00000E+00
 -1      1331 3.31500E+01 4.74020E+01 0.00000E+00
 -1      1332 3.69000E+01 4.87010E+01 0.00000E+00
 -1      1333 3.84000E+01 4.87010E+01 0.00000E+00
 -1      1334 3.61500E+01 4.74020E+01 0.00000E+00
 -1      1335 3.99000E+01 4.87010E+01 0.00000E+00
 -1      1336 4.14000E+01 4.87010E+01 0.00000E+00
 -1      1337 3.91500E+01 4.74020E+01 0.00000E+00
 -1      1338 4.29000E+01 4.87010E+01 0.00000E+00
 -1      1339 4.44000E+01 4.87010E+01 0.00000E+00
 -1      1340 4.21500E+01 4.74020E+01 0.00000E+00
 -1      1341 4.59000E+01 4.87010E+01 0.00000E+00
 -1      1342 4.74000E+01 4.87010E+01 0.00000E+00
 -1      1343 4.51500E+01 4.74020E+01 0.00000E+00
 -1      1344 4.89000E+01 4.87010E+01 0.00000E+00
 -1      1345 5.04000E+01 4.87010E+01 0.00000E+00
 -1      1346 4.81500E+01 4.74020E+01 0.00000E+00
 -1      1347 5.19000E+01 4.87010E+01 0.00000E+00
 -1      1348 5.34000E+01 4.87010E+01 0.00000E+00
 -1      1349 5.11500E+01 4.74020E+01 0.00000E+00
 -1      1350 5.49000E+01 4.87010E+01 0.00000E+00
 -1      1351 5.64000E+01 4.87010E+01 0.00000E+00
 -1      1352 5.41500E+01 4.74020E+01 0.00000E+00
 -1      1353 5.79000E+01 4.87010E+01 0.00000E+00
 -1      1354 5.94000E+01 4.87010E+01 0.00000E+00
 -1      1355 5.71500E+01 4.74020E+01 0.00000E+00
 -1      1356 6.09000E+01 4.87010E+01 0.00000E+00
 -1      1357 6.24000E+01 4.87010E+01 0.00000E+00
 -1      1358 6.01500E+01 4.74020E+01 0.00000E+00
 -1      1359 6.39000E+01 4.87010E+01 0.00000E+00
 -1      1360 6.54000E+01 4.87010E+01 0.00000E+00
 -1      1361 6.31500E+01 4.74020E+01 0.00000E+00
 -1      1362 6.69000E+01 4.87010E+01 0.00000E+00
 -1      1363 6.84000E+01 4.87010E+01 0.00000E+00
 -1      1364 6.61500E+01 4.74020E+01 0.00000E+00
 -1      1365 6.99000E+01 4.87010E+01 0.00000E+00
 -1      1366 7.14000E+01 4.87010E+01 0.00000E+00
 -1      1367 6.91500E+01 4.74020E+01 0.00000E+00
 -1      1368 7.29000E+01 4.87010E+01 0.00000E+00
 -1      1369 7.44000E+01 4.87010E+01 0.00000E+00
 -1      1370 7.21500E+01 4.74020E+01 0.00000E+00
 -1      1371 7.59000E+01 4.87010E+01 0.00000E+00
 -1      1372 7.74000E+01 4.87010E+01 0.00000E+00
 -1      1373 7.51500E+01 4.74020E+01 0.00000E+00
 -1      1374 7.89000E+01 4.87010E+01 0.00000E+00
 -1      1375 8.04000E+01 4.87010E+01 0.00000E+00
 -1      1376 7.81500E+01 4.74020E+01 0.00000E+00
 -1      1377 8.19000E+01 4.87010E+01 0.00000E+00
 -1      1378 8.34000E+01 4.87010E+01 0.00000E+00
 -1      1379 8.11500E+01 4.74020E+01 0.00000E+00
 -1      1380 8.49000E+01 4.87010E+01 0.00000E+00
 -1      1381 8.64000E+01 4.87010E+01 0.00000E+00
 -1      1382 8.41500E+01 4.74020E+01 0.00000E+00
 -1      1383 8.79000E+01 4.87010E+01 0.00000E+00
 -1      1384 8.94000E+01 4.87010E+01 0.00000E+00
 -1      1385 8.71500E+01 4.74020E+01 0.00000E+00
 -1      1386 9.09000E+01 4.87010E+01 0.00000E+00
 -1      1387 9.24000E+01 4.87010E+01 0.00000E+00
 -1      1388 9.01500E+01 4.74020E+01 0.00000E+00
 -1      1389 9.39000E+01 4.87010E+01 0.00000E+00
 -1      1390 9.54000E+01 4.87010E+01 0.00000E+00
 -1      1391 9.31500E+01 4.74020E+01 0.00000E+00
 -1      1392 9.69000E+01 4.87010E+01 0.00000E+00
 -1      1393 9.84000E+01 4.87010E+01 0.00000E+00
 -1      1394 9.61500E+01 4.74020E+01 0.00000E+00
 -1      1395 9.99000E+01 4.87010E+01 0.00000E+00
 -1      1396 1.01400E+02 4.87010E+01 0.00000E+00
 -1      1397 9.91500E+01 4.74020E+01 0.00000E+00
 -1      1398 1.02900E+02 4.87010E+01 0.00000E+00
 -1      1399 1.04400E+02 4.87010E+01 0.00000E+00
 -1      1400 1.02150E+02 4.74020E+01 0.00000E+00
 -1      1401 1.05900E+02 4.87010E+01 0.00000E+00
 -1      1402 1.07400E+02 4.87010E+01 0.00000E+00
 -1      1403 1.05150E+02 4.74020E+01 0.00000E+00
 -1      1404 1.08900E+02 4.87010E+01 0.00000E+00
 -1      1405 1.10400E+02 4.87010E+01 0.00000E+00
 -1      1406 1.08150E+02 4.74020E+01 0.00000E+00
 -1      1407 1.11900E+02 4.87010E+01 0.00000E+00
 -1      1408 1.13400E+02 4.87010E+01 0.00000E+00
 -1      1409 1.11150E+02 4.74020E+01 0.00000E+00
 -1      1410 1.14900E+02 4.87010E+01 0.00000E+00
 -1      1411 1.16400E+02 4.87010E+01 0.00000E+00
 -1      1412 1.14150E+02 4.74020E+01 0.00000E+00
 -1      1413 1.17900E+02 4.87010E+01 0.00000E+00
 -1      1414 1.19400E+02 4.87010E+01 0.00000E+00
 -1      1415 1.17150E+02 4.74020E+01 0.00000E+00
 -1      1416 1.20900E+02 4.87010E+01 0.00000E+00
 -1      1417 1.22400E+02 4.87010E+01 0.00000E+00
 -1      1418 1.20150E+02 4.74020E+01 0.00000E+00
 -1      1419 1.23900E+02 4.87010E+01 0.00000E+00
 -1      1420 1.25400E+02 4.87010E+01 0.00000E+00
 -1      1421 1.23150E+02 4.74020E+01 0.00000E+00
 -1      1422 1.26900E+02 4.87010E+01 0.00000E+00
 -1      1423 1.28400E+02 4.87010E+01 0.00000E+00
 -1      1424 1.26150E+02 4.74020E+01 0.00000E+00
 -1      1425 1.29900E+02 4.87010E+01 0.00000E+00
 -1      1426 1.31400E+02 4.87010E+01 0.00000E+00
 -1      1427 1.29150E+02 4.74020E+01 0.00000E+00
 -1      1428 1.32900E+02 4.87010E+01 0.00000E+00
 -1      1429 1.34400E+02 4.87010E+01 0.00000E+00
 -1      1430 1.32150E+02 4.74020E+01 0.00000E+00
 -1      1431 1.35900E+02 4.87010E+01 0.00000E+00
 -1      1432 1.37400E+02 4.87010E+01 0.00000E+00
 -1      1433 1.35150E+02 4.74020E+01 0.00000E+00
 -1      1434 1.38900E+02 4.87010E+01 0.00000E+00
 -1      1435 1.40400E+02 4.87010E+01 0.00000E+00
 -1      1436 1.38150E+02 4.74020E+01 0.00000E+00
 -1      1437 1.41900E+02 4.87010E+01 0.00000E+00
 -1      1438 1.43400E+02 4.87010E+01 0.00000E+00
 -1      1439 1.41150E+02 4.74020E+01 0.00000E+00
 -1      1440 1.44900E+02 4.87010E+01 0.00000E+00
 -1      1441 1.46400E+02 4.87010E+01 0.00000E+00
 -1      1442 1.44150E+02 4.74020E+01 0.00000E+00
 -1      1443 1.48575E+02 4.85500E+01 0.00000E+00
 -1      1444 1.47825E+02 4.72510E+01 0.00000E+00
 -1      1445 6.01200E+00 1.09375E+00 0.00000E+00
 -1      1446 4.51200E+00 1.09375E+00 0.00000E+00
 -1      1447 4.37400E+00 2.18750E+00 0.00000E+00
 -1      1448 9.01200E+00 1.09375E+00 0.00000E+00
 -1      1449 7.51200E+00 1.09375E+00 0.00000E+00
 -1      1450 7.37400E+00 2.18750E+00 0.00000E+00
 -1      1451 1.20120E+01 1.09375E+00 0.00000E+00
 -1      1452 1.05120E+01 1.09375E+00 0.00000E+00
 -1      1453 1.03740E+01 2.18750E+00 0.00000E+00
 -1      1454 1.50120E+01 1.09375E+00 0.00000E+00
 -1      1455 1.35120E+01 1.09375E+00 0.00000E+00
 -1      1456 1.33740E+01 2.18750E+00 0.00000E+00
 -1      1457 1.80120E+01 1.09375E+00 0.00000E+00
 -1      1458 1.65120E+01 1.09375E+00 0.00000E+00
 -1      1459 1.63740E+01 2.18750E+00 0.00000E+00
 -1      1460 2.10120E+01 1.09375E+00 0.00000E+00
 -1      1461 1.95120E+01 1.09375E+00 0.00000E+00
 -1      1462 1.93740E+01 2.18750E+00 0.00000E+00
 -1      1463 2.40120E+01 1.09375E+00 0.00000E+00
 -1      1464 2.25120E+01 1.09375E+00 0.00000E+00
 -1      1465 2.23740E+01 2.18750E+00 0.00000E+00
 -1      1466 2.70120E+01 1.09375E+00 0.00000E+00
 -1      1467 2.55120E+01 1.09375E+00 0.00000E+00
 -1      1468 2.53740E+01 2.18750E+00 0.00000E+00
 -1      1469 3.00120E+01 1.09375E+00 0.00000E+00
 -1      1470 2.85120E+01 1.09375E+00 0.00000E+00
 -1      1471 2.83740E+01 2.18750E+00 0.00000E+00
 -1      1472 3.30120E+01 1.09375E+00 0.00000E+00
 -1      1473 3.15120E+01 1.09375E+00 0.00000E+00
 -1      1474 3.13740E+01 2.18750E+00 0.00000E+00
 -1      1475 3.60120E+01 1.09375E+00 0.00000E+00
 -1      1476 3.45120E+01 1.09375E+00 0.00000E+00
 -1      1477 3.43740E+01 2.18750E+00 0.00000E+00
 -1      1478 3.90120E+01 1.09375E+00 0.00000E+00
 -1      1479 3.75120E+01 1.09375E+00 0.00000E+00
 -1      1480 3.73740E+01 2.18750E+00 0.00000E+00
 -1      1481 4.20120E+01 1.09375E+00 0.00000E+00
 -1      1482 4.05120E+01 1.09375E+00 0.00000E+00
 -1      1483 4.03740E+01 2.18750E+00 0.00000E+00
 -1      1484 4.50120E+01 1.09375E+00 0.00000E+00
 -1      1485 4.35120E+01 1.09375E+00 0.00000E+00
 -1      1486 4.33740E+01 2.18750E+00 0.00000E+00
 -1      1487 4.80120E+01 1.09375E+00 0.00000E+00
 -1      1488 4.65120E+01 1.09375E+00 0.00000E+00
 -1      1489 4.63740E+01 2.18750E+00 0.00000E+00
 -1      1490 5.10120E+01 1.09375E+00 0.00000E+00
 -1      1491 4.95120E+01 1.09375E+00 0.00000E+00
 -1      1492 4.93740E+01 2.18750E+00 0.00000E+00
 -1      1493 5.40120E+01 1.09375E+00 0.00000E+00
 -1      1494 5.25120E+01 1.09375E+00 0.00000E+00
 -1      1495 5.23740E+01 2.18750E+00 0.00000E+00
 -1      1496 5.70120E+01 1.09375E+00 0.00000E+00
 -1      1497 5.55120E+01 1.09375E+00 0.00000E+00
 -1      1498 5.53740E+01 2.18750E+00 0.00000E+00
 -1      1499 6.00120E+01 1.09375E+00 0.00000E+00
 -1      1500 5.85120E+01 1.09375E+00 0.00000E+00
 -1      1501 5.83740E+01 2.18750E+00 0.00000E+00
 -1      1502 6.30120E+01 1.09375E+00 0.00000E+00
 -1      1503 6.15120E+01 1.09375E+00 0.00000E+00
 -1      1504 6.13740E+01 2.18750E+00 0.00000E+00
 -1      1505 6.60120E+01 1.09375E+00 0.00000E+00
 -1      1506 6.45120E+01 1.09375E+00 0.00000E+00
 -1      1507 6.43740E+01 2.18750E+00 0.00000E+00
 -1      1508 6.90120E+01 1.09375E+00 0.00000E+00
 -1      1509 6.75120E+01 1.09375E+00 0.00000E+00
 -1      1510 6.73740E+01 2.18750E+00 0.00000E+00
 -1      1511 7.20120E+01 1.09375E+00 0.00000E+00
 -1      1512 7.05120E+01 1.09375E+00 0.00000E+00
 -1      1513 7.03740E+01 2.18750E+00 0.00000E+00
 -1      1514 7.50120E+01 1.09375E+00 0.00000E+00
 -1      1515 7.35120E+01 1.09375E+00 0.00000E+00
 -1      1516 7.33740E+01 2.18750E+00 0.00000E+00
 -1      1517 7.80120E+01 1.09375E+00 0.00000E+00
 -1      1518 7.65120E+01 1.09375E+00 0.00000E+00
 -1      1519 7.63740E+01 2.18750E+00 0.00000E+00
 -1      1520 8.10120E+01 1.09375E+00 0.00000E+00
 -1      1521 7.95120E+01 1.09375E+00 0.00000E+00
 -1      1522 7.93740E+01 2.18750E+00 0.00000E+00
 -1      1523 8.40120E+01 1.09375E+00 0.00000E+00
 -1      1524 8.25120E+01 1.09375E+00 0.00000E+00
 -1      1525 8.23740E+01 2.18750E+00 0.00000E+00
 -1      1526 8.70120E+01 1.09375E+00 0.00000E+00
 -1      1527 8.55120E+01 1.09375E+00 0.00000E+00
 -1      1528 8.53740E+01 2.18750E+00 0.00000E+00
 -1      1529 9.00120E+01 1.09375E+00 0.00000E+00
 -1      1530 8.85120E+01 1.09375E+00 0.00000E+00
 -1      1531 8.83740E+01 2.18750E+00 0.00000E+00
 -1      1532 9.30120E+01 1.09375E+00 0.00000E+00
 -1      1533 9.15120E+01 1.09375E+00 0.00000E+00
 -1      1534 9.13740E+01 2.18750E+00 0.00000E+00
 -1      1535 9.60120E+01 1.09375E+00 0.00000E+00
 -1      1536 9.45120E+01 1.09375E+00 0.00000E+00
 -1      1537 9.43740E+01 2.18750E+00 0.00000E+00
 -1      1538 9.90120E+01 1.09375E+00 0.00000E+00
 -1      1539 9.75120E+01 1.09375E+00 0.00000E+00
 -1      1540 9.73740E+01 2.18750E+00 0.00000E+00
 -1      1541 1.02012E+02 1.09375E+00 0.00000E+00
 -1      1542 1.00512E+02 1.09375E+00 0.00000E+00
 -1      1543 1.00374E+02 2.18750E+00 0.00000E+00
 -1      1544 1.05012E+02 1.09375E+00 0.00000E+00
 -1      1545 1.03512E+02 1.09375E+00 0.00000E+00
 -1      1546 1.03374E+02 2.18750E+00 0.00000E+00
 -1      1547 1.08012E+02 1.09375E+00 0.00000E+00
 -1      1548 1.06512E+02 1.09375E+00 0.00000E+00
 -1      1549 1.06374E+02 2.18750E+00 0.00000E+00
 -1      1550 1.11012E+02 1.09375E+00 0.00000E+00
 -1      1551 1.09512E+02 1.09375E+00 0.00000E+00
 -1      1552 1.09374E+02 2.18750E+00 0.00000E+00
 -1      1553 1.14012E+02 1.09375E+00 0.00000E+00
 -1      1554 1.12512E+02 1.09375E+00 0.00000E+00
 -1      1555 1.12374E+02 2.18750E+00 0.00000E+00
 -1      1556 1.17012E+02 1.09375E+00 0.00000E+00
 -1      1557 1.15512E+02 1.09375E+00 0.00000E+00
 -1      1558 1.15374E+02 2.18750E+00 0.00000E+00
 -1      1559 1.20012E+02 1.09375E+00 0.00000E+00
 -1      1560 1.18512E+02 1.09375E+00 0.00000E+00
 -1      1561 1.18374E+02 2.18750E+00 0.00000E+00
 -1      1562 1.23012E+02 1.09375E+00 0.00000E+00
 -1      1563 1.21512E+02 1.09375E+00 0.00000E+00
 -1      1564 1.21374E+02 2.18750E+00 0.00000E+00
 -1      1565 1.26012E+02 1.09375E+00 0.00000E+00
 -1      1566 1.24512E+02 1.09375E+00 0.00000E+00
 -1      1567 1.24374E+02 2.18750E+00 0.00000E+00
 -1      1568 1.29012E+02 1.09375E+00 0.00000E+00
 -1      1569 1.27512E+02 1.09375E+00 0.00000E+00
 -1      1570 1.27374E+02 2.18750E+00 0.00000E+00
 -1      1571 1.32012E+02 1.09375E+00 0.00000E+00
 -1      1572 1.30512E+02 1.09375E+00 0.00000E+00
 -1      1573 1.30374E+02 2.18750E+00 0.00000E+00
 -1      1574 1.35012E+02 1.09375E+00 0.00000E+00
 -1      1575 1.33512E+02 1.09375E+00 0.00000E+00
 -1      1576 1.33374E+02 2.18750E+00 0.00000E+00
 -1      1577 1.38012E+02 1.09375E+00 0.00000E+00
 -1      1578 1.36512E+02 1.09375E+00 0.00000E+00
 -1      1579 1.36374E+02 2.18750E+00 0.00000E+00
 -1      1580 1.41012E+02 1.09375E+00 0.00000E+00
 -1      1581 1.39512E+02 1.09375E+00 0.00000E+00
 -1      1582 1.39374E+02 2.18750E+00 0.00000E+00
 -1      1583 1.44012E+02 1.09375E+00 0.00000E+00
 -1      1584 1.42512E+02 1.09375E+00 0.00000E+00
 -1      1585 1.42374E+02 2.18750E+00 0.00000E+00
 -1      1586 1.47012E+02 1.09375E+00 0.00000E+00
 -1      1587 1.45512E+02 1.09375E+00 0.00000E+00
 -1      1588 1.45374E+02 2.18750E+00 0.00000E+00
 -1      1589 1.48575E+02 1.47500E+00 0.00000E+00
 -1      1590 1.48701E+02 5.16250E+00 0.00000E+00
 -1      1591 1.48701E+02 3.68750E+00 0.00000E+00
 -1      1592 1.48701E+02 8.11250E+00 0.00000E+00
 -1      1593 1.48701E+02 6.63750E+00 0.00000E+00
 -1      1594 1.47402E+02 5.90000E+00 0.00000E+00
 -1      1595 1.48701E+02 1.10625E+01 0.00000E+00
 -1      1596 1.48701E+02 9.58750E+00 0.00000E+00
 -1      1597 1.47402E+02 8.85000E+00 0.00000E+00
 -1      1598 1.48701E+02 1.40125E+01 0.00000E+00
 -1      1599 1.48701E+02 1.25375E+01 0.00000E+00
 -1      1600 1.47402E+02 1.18000E+01 0.00000E+00
 -1      1601 1.48701E+02 1.69125E+01 0.00000E+00
 -1      1602 1.48701E+02 1.54625E+01 0.00000E+00
 -1      1603 1.47402E+02 1.47250E+01 0.00000E+00
 -1      1604 1.48701E+02 1.98625E+01 0.00000E+00
 -1      1605 1.48701E+02 1.83875E+01 0.00000E+00
 -1      1606 1.47402E+02 1.76500E+01 0.00000E+00
 -1      1607 1.48701E+02 2.28125E+01 0.00000E+00
 -1      1608 1.48701E+02 2.13375E+01 0.00000E+00
 -1      1609 1.47402E+02 2.06000E+01 0.00000E+00
 -1      1610 1.48701E+02 2.57625E+01 0.00000E+00
 -1      1611 1.48701E+02 2.42875E+01 0.00000E+00
 -1      1612 1.47402E+02 2.35500E+01 0.00000E+00
 -1      1613 1.48701E+02 2.87125E+01 0.00000E+00
 -1      1614 1.48701E+02 2.72375E+01 0.00000E+00
 -1      1615 1.47402E+02 2.65000E+01 0.00000E+00
 -1      1616 1.48701E+02 3.16625E+01 0.00000E+00
 -1      1617 1.48701E+02 3.01875E+01 0.00000E+00
 -1      1618 1.47402E+02 2.94500E+01 0.00000E+00
 -1      1619 1.48701E+02 3.45625E+01 0.00000E+00
 -1      1620 1.48701E+02 3.31125E+01 0.00000E+00
 -1      1621 1.47402E+02 3.23750E+01 0.00000E+00
 -1      1622 1.48701E+02 3.75125E+01 0.00000E+00
 -1      1623 1.48701E+02 3.60375E+01 0.00000E+00
 -1      1624 1.47402E+02 3.53000E+01 0.00000E+00
 -1      1625 1.48701E+02 4.04625E+01 0.00000E+00
 -1      1626 1.48701E+02 3.89875E+01 0.00000E+00
 -1      1627 1.47402E+02 3.82500E+01 0.00000E+00
 -1      1628 1.48701E+02 4.34125E+01 0.00000E+00
 -1      1629 1.48701E+02 4.19375E+01 0.00000E+00
 -1      1630 1.47402E+02 4.12000E+01 0.00000E+00
 -1      1631 1.48263E+02 4.60692E+01 0.00000E+00
 -1      1632 1.48263E+02 4.45942E+01 0.00000E+00
 -1      1633 1.46964E+02 4.38568E+01 0.00000E+00
 -1      1634 1.46088E+02 4.62202E+01 0.00000E+00
 -1      1635 5.30206E+01 2.20519E+01 0.00000E+00
 -1      1636 5.31248E+01 2.28996E+01 0.00000E+00
 -1      1637 5.25004E+01 2.05215E+01 0.00000E+00
 -1      1638 5.27362E+01 2.11788E+01 0.00000E+00
 -1      1639 5.17943E+01 1.91267E+01 0.00000E+00
 -1      1640 5.21746E+01 1.97486E+01 0.00000E+00
 -1      1641 5.07137E+01 1.78651E+01 0.00000E+00
 -1      1642 5.12506E+01 1.84253E+01 0.00000E+00
 -1      1643 4.93483E+01 1.68896E+01 0.00000E+00
 -1      1644 4.99909E+01 1.73153E+01 0.00000E+00
 -1      1645 4.78792E+01 1.61310E+01 0.00000E+00
 -1      1646 4.85860E+01 1.64022E+01 0.00000E+00
 -1      1647 4.62400E+01 1.57036E+01 0.00000E+00
 -1      1648 4.70079E+01 1.58173E+01 0.00000E+00
 -1      1649 4.44849E+01 1.57353E+01 0.00000E+00
 -1      1650 4.52829E+01 1.56723E+01 0.00000E+00
 -1      1651 4.29018E+01 1.62434E+01 0.00000E+00
 -1      1652 4.36047E+01 1.60270E+01 0.00000E+00
 -1      1653 4.14134E+01 1.69259E+01 0.00000E+00
 -1      1654 4.20730E+01 1.65550E+01 0.00000E+00
 -1      1655 4.01951E+01 1.79906E+01 0.00000E+00
 -1      1656 4.07447E+01 1.75031E+01 0.00000E+00
 -1      1657 3.90928E+01 1.92011E+01 0.00000E+00
 -1      1658 3.95413E+01 1.85875E+01 0.00000E+00
 -1      1659 3.84313E+01 2.06575E+01 0.00000E+00
 -1      1660 3.87250E+01 1.99981E+01 0.00000E+00
 -1      1661 3.80189E+01 2.21506E+01 0.00000E+00
 -1      1662 3.81701E+01 2.14538E+01 0.00000E+00
 -1      1663 3.78442E+01 2.37840E+01 0.00000E+00
 -1      1664 3.78452E+01 2.30125E+01 0.00000E+00
 -1      1665 3.81652E+01 2.53432E+01 0.00000E+00
 -1      1666 3.80157E+01 2.46462E+01 0.00000E+00
 -1      1667 3.87161E+01 2.67995E+01 0.00000E+00
 -1      1668 3.84242E+01 2.61397E+01 0.00000E+00
 -1      1669 3.95594E+01 2.83079E+01 0.00000E+00
 -1      1670 3.90719E+01 2.76490E+01 0.00000E+00
 -1      1671 4.08083E+01 2.94157E+01 0.00000E+00
 -1      1672 4.02486E+01 2.89340E+01 0.00000E+00
 -1      1673 4.23117E+01 3.04995E+01 0.00000E+00
 -1      1674 4.15275E+01 3.00928E+01 0.00000E+00
 -1      1675 4.40161E+01 3.08382E+01 0.00000E+00
 -1      1676 4.32935E+01 3.06573E+01 0.00000E+00
 -1      1677 4.56784E+01 3.10198E+01 0.00000E+00
 -1      1678 4.48976E+01 3.09989E+01 0.00000E+00
 -1      1679 4.73103E+01 3.07612E+01 0.00000E+00
 -1      1680 4.65716E+01 3.09054E+01 0.00000E+00
 -1      1681 4.88431E+01 3.02487E+01 0.00000E+00
 -1      1682 4.81610E+01 3.05425E+01 0.00000E+00
 -1      1683 5.01598E+01 2.93770E+01 0.00000E+00
 -1      1684 4.95720E+01 2.97932E+01 0.00000E+00
 -1      1685 5.13221E+01 2.83123E+01 0.00000E+00
 -1      1686 5.08265E+01 2.88472E+01 0.00000E+00
 -1      1687 5.21759E+01 2.69765E+01 0.00000E+00
 -1      1688 5.18019E+01 2.76024E+01 0.00000E+00
 -1      1689 5.28175E+01 2.54952E+01 0.00000E+00
 -1      1690 5.25766E+01 2.62056E+01 0.00000E+00
 -1      1691 5.30526E+01 2.38552E+01 0.00000E+00
 -1      1692 5.29686E+01 2.46173E+01 0.00000E+00
 -1      1693 5.07272E+01 1.71469E+01 0.00000E+00
 -1      1694 5.19937E+01 1.83981E+01 0.00000E+00
 -1      1695 1.48437E+02 2.56875E+00 0.00000E+00
 -1      1696 1.47138E+02 3.30625E+00 0.00000E+00
 -1      1697 5.34732E+01 2.15185E+01 0.00000E+00
 -1      1698 5.28631E+01 1.98725E+01 0.00000E+00
 -1      1699 5.36853E+01 2.33471E+01 0.00000E+00
 -1      1700 4.92421E+01 1.61097E+01 0.00000E+00
 -1      1701 4.76086E+01 1.53087E+01 0.00000E+00
 -1      1702 4.57801E+01 1.49637E+01 0.00000E+00
 -1      1703 4.39428E+01 1.52241E+01 0.00000E+00
 -1      1704 4.22338E+01 1.58274E+01 0.00000E+00
 -1      1705 4.07363E+01 1.67162E+01 0.00000E+00
 -1      1706 3.94138E+01 1.78903E+01 0.00000E+00
 -1      1707 3.83922E+01 1.92842E+01 0.00000E+00
 -1      1708 3.77632E+01 2.08774E+01 0.00000E+00
 -1      1709 3.73284E+01 2.25355E+01 0.00000E+00
 -1      1710 3.73262E+01 2.42596E+01 0.00000E+00
 -1      1711 3.77567E+01 2.59183E+01 0.00000E+00
 -1      1712 3.83715E+01 2.75643E+01 0.00000E+00
 -1      1713 3.94165E+01 2.90399E+01 0.00000E+00
 -1      1714 4.08249E+01 3.03431E+01 0.00000E+00
 -1      1715 4.25258E+01 3.11780E+01 0.00000E+00
 -1      1716 4.43891E+01 3.14965E+01 0.00000E+00
 -1      1717 4.61638E+01 3.15427E+01 0.00000E+00
 -1      1718 4.79078E+01 3.12095E+01 0.00000E+00
 -1      1719 4.94873E+01 3.05353E+01 0.00000E+00
 -1      1720 5.08830E+01 2.95501E+01 0.00000E+00
 -1      1721 5.20295E+01 2.83103E+01 0.00000E+00
 -1      1722 5.29100E+01 2.68294E+01 0.00000E+00
 -1      1723 5.34620E+01 2.51805E+01 0.00000E+00
 -1      1724 2.87400E+00 4.77875E+01 0.00000E+00
 -1      1725 3.89700E+00 4.04125E+01 0.00000E+00
 -1      1726 3.89700E+00 4.18875E+01 0.00000E+00
 -1      1727 3.89700E+00 4.33625E+01 0.00000E+00
 -1      1728 3.89700E+00 4.48375E+01 0.00000E+00
 -1      1729 5.19600E+00 4.26250E+01 0.00000E+00
 -1      1730 3.89700E+00 3.45500E+01 0.00000E+00
 -1      1731 3.89700E+00 3.60000E+01 0.00000E+00
 -1      1732 3.89700E+00 3.16000E+01 0.00000E+00
 -1      1733 3.89700E+00 3.30750E+01 0.00000E+00
 -1      1734 5.19600E+00 3.38000E+01 0.00000E+00
 -1      1735 3.89700E+00 2.86500E+01 0.00000E+00
 -1      1736 3.89700E+00 3.01250E+01 0.00000E+00
 -1      1737 5.19600E+00 3.08500E+01 0.00000E+00
 -1      1738 3.89700E+00 2.57000E+01 0.00000E+00
 -1      1739 3.89700E+00 2.71750E+01 0.00000E+00
 -1      1740 5.19600E+00 2.79000E+01 0.00000E+00
 -1      1741 3.89700E+00 2.27500E+01 0.00000E+00
 -1      1742 3.89700E+00 2.42250E+01 0.00000E+00
 -1      1743 5.19600E+00 2.49500E+01 0.00000E+00
 -1      1744 3.89700E+00 1.98000E+01 0.00000E+00
 -1      1745 3.89700E+00 2.12750E+01 0.00000E+00
 -1      1746 5.19600E+00 2.20000E+01 0.00000E+00
 -1      1747 3.89700E+00 1.69000E+01 0.00000E+00
 -1      1748 3.89700E+00 1.83500E+01 0.00000E+00
 -1      1749 5.19600E+00 1.90750E+01 0.00000E+00
 -1      1750 3.89700E+00 1.39500E+01 0.00000E+00
 -1      1751 3.89700E+00 1.54250E+01 0.00000E+00
 -1      1752 5.19600E+00 1.61500E+01 0.00000E+00
 -1      1753 3.89700E+00 1.10000E+01 0.00000E+00
 -1      1754 3.89700E+00 1.24750E+01 0.00000E+00
 -1      1755 5.19600E+00 1.32000E+01 0.00000E+00
 -1      1756 3.89700E+00 8.05000E+00 0.00000E+00
 -1      1757 3.89700E+00 9.52500E+00 0.00000E+00
 -1      1758 5.19600E+00 1.02500E+01 0.00000E+00
 -1      1759 3.89700E+00 5.10000E+00 0.00000E+00
 -1      1760 3.89700E+00 6.57500E+00 0.00000E+00
 -1      1761 5.19600E+00 7.30000E+00 0.00000E+00
 -1      1762 4.20450E+00 3.09687E+00 0.00000E+00
 -1      1763 4.06650E+00 4.19063E+00 0.00000E+00
 -1      1764 5.36550E+00 4.91563E+00 0.00000E+00
 -1      1765 5.70450E+00 3.09687E+00 0.00000E+00
 -1      1766 3.62400E+00 4.64885E+01 0.00000E+00
 -1      1767 8.70450E+00 3.09687E+00 0.00000E+00
 -1      1768 7.20450E+00 3.09687E+00 0.00000E+00
 -1      1769 7.03500E+00 4.00625E+00 0.00000E+00
 -1      1770 4.92300E+00 4.57510E+01 0.00000E+00
 -1      1771 8.40000E+00 4.61030E+01 0.00000E+00
 -1      1772 9.90000E+00 4.61030E+01 0.00000E+00
 -1      1773 1.14000E+01 4.61030E+01 0.00000E+00
 -1      1774 1.29000E+01 4.61030E+01 0.00000E+00
 -1      1775 1.06500E+01 4.48040E+01 0.00000E+00
 -1      1776 1.44000E+01 4.61030E+01 0.00000E+00
 -1      1777 1.59000E+01 4.61030E+01 0.00000E+00
 -1      1778 1.36500E+01 4.48040E+01 0.00000E+00
 -1      1779 1.74000E+01 4.61030E+01 0.00000E+00
 -1      1780 1.89000E+01 4.61030E+01 0.00000E+00
 -1      1781 1.66500E+01 4.48040E+01 0.00000E+00
 -1      1782 2.04000E+01 4.61030E+01 0.00000E+00
 -1      1783 2.19000E+01 4.61030E+01 0.00000E+00
 -1      1784 1.96500E+01 4.48040E+01 0.00000E+00
 -1      1785 2.34000E+01 4.61030E+01 0.00000E+00
 -1      1786 2.49000E+01 4.61030E+01 0.00000E+00
 -1      1787 2.26500E+01 4.48040E+01 0.00000E+00
 -1      1788 2.64000E+01 4.61030E+01 0.00000E+00
 -1      1789 2.79000E+01 4.61030E+01 0.00000E+00
 -1      1790 2.56500E+01 4.48040E+01 0.00000E+00
 -1      1791 2.94000E+01 4.61030E+01 0.00000E+00
 -1      1792 3.09000E+01 4.61030E+01 0.00000E+00
 -1      1793 2.86500E+01 4.48040E+01 0.00000E+00
 -1      1794 3.24000E+01 4.61030E+01 0.00000E+00
 -1      1795 3.39000E+01 4.61030E+01 0.00000E+00
 -1      1796 3.16500E+01 4.48040E+01 0.00000E+00
 -1      1797 3.54000E+01 4.61030E+01 0.00000E+00
 -1      1798 3.69000E+01 4.61030E+01 0.00000E+00
 -1      1799 3.46500E+01 4.48040E+01 0.00000E+00
 -1      1800 3.84000E+01 4.61030E+01 0.00000E+00
 -1      1801 3.99000E+01 4.61030E+01 0.00000E+00
 -1      1802 3.76500E+01 4.48040E+01 0.00000E+00
 -1      1803 4.14000E+01 4.61030E+01 0.00000E+00
 -1      1804 4.29000E+01 4.61030E+01 0.00000E+00
 -1      1805 4.06500E+01 4.48040E+01 0.00000E+00
 -1      1806 4.44000E+01 4.61030E+01 0.00000E+00
 -1      1807 4.59000E+01 4.61030E+01 0.00000E+00
 -1      1808 4.36500E+01 4.48040E+01 0.00000E+00
 -1      1809 4.74000E+01 4.61030E+01 0.00000E+00
 -1      1810 4.89000E+01 4.61030E+01 0.00000E+00
 -1      1811 4.66500E+01 4.48040E+01 0.00000E+00
 -1      1812 5.04000E+01 4.61030E+01 0.00000E+00
 -1      1813 5.19000E+01 4.61030E+01 0.00000E+00
 -1      1814 4.96500E+01 4.48040E+01 0.00000E+00
 -1      1815 5.34000E+01 4.61030E+01 0.00000E+00
 -1      1816 5.49000E+01 4.61030E+01 0.00000E+00
 -1      1817 5.26500E+01 4.48040E+01 0.00000E+00
 -1      1818 5.64000E+01 4.61030E+01 0.00000E+00
 -1      1819 5.79000E+01 4.61030E+01 0.00000E+00
 -1      1820 5.56500E+01 4.48040E+01 0.00000E+00
 -1      1821 5.94000E+01 4.61030E+01 0.00000E+00
 -1      1822 6.09000E+01 4.61030E+01 0.00000E+00
 -1      1823 5.86500E+01 4.48040E+01 0.00000E+00
 -1      1824 6.24000E+01 4.61030E+01 0.00000E+00
 -1      1825 6.39000E+01 4.61030E+01 0.00000E+00
 -1      1826 6.16500E+01 4.48040E+01 0.00000E+00
 -1      1827 6.54000E+01 4.61030E+01 0.00000E+00
 -1      1828 6.69000E+01 4.61030E+01 0.00000E+00
 -1      1829 6.46500E+01 4.48040E+01 0.00000E+00
 -1      1830 6.84000E+01 4.61030E+01 0.00000E+00
 -1      1831 6.99000E+01 4.61030E+01 0.00000E+00
 -1      1832 6.76500E+01 4.48040E+01 0.00000E+00
 -1      1833 7.14000E+01 4.61030E+01 0.00000E+00
 -1      1834 7.29000E+01 4.61030E+01 0.00000E+00
 -1      1835 7.06500E+01 4.48040E+01 0.00000E+00
 -1      1836 7.44000E+01 4.61030E+01 0.00000E+00
 -1      1837 7.59000E+01 4.61030E+01 0.00000E+00
 -1      1838 7.36500E+01 4.48040E+01 0.00000E+00
 -1      1839 7.74000E+01 4.61030E+01 0.00000E+00
 -1      1840 7.89000E+01 4.61030E+01 0.00000E+00
 -1      1841 7.66500E+01 4.48040E+01 0.00000E+00
 -1      1842 8.04000E+01 4.61030E+01 0.00000E+00
 -1      1843 8.19000E+01 4.61030E+01 0.00000E+00
 -1      1844 7.96500E+01 4.48040E+01 0.00000E+00
 -1      1845 8.34000E+01 4.61030E+01 0.00000E+00
 -1      1846 8.49000E+01 4.61030E+01 0.00000E+00
 -1      1847 8.26500E+01 4.48040E+01 0.00000E+00
 -1      1848 8.64000E+01 4.61030E+01 0.00000E+00
 -1      1849 8.79000E+01 4.61030E+01 0.00000E+00
 -1      1850 8.56500E+01 4.48040E+01 0.00000E+00
 -1      1851 8.94000E+01 4.61030E+01 0.00000E+00
 -1      1852 9.09000E+01 4.61030E+01 0.00000E+00
 -1      1853 8.86500E+01 4.48040E+01 0.00000E+00
 -1      1854 9.24000E+01 4.61030E+01 0.00000E+00
 -1      1855 9.39000E+01 4.61030E+01 0.00000E+00
 -1      1856 9.16500E+01 4.48040E+01 0.00000E+00
 -1      1857 9.54000E+01 4.61030E+01 0.00000E+00
 -1      1858 9.69000E+01 4.61030E+01 0.00000E+00
 -1      1859 9.46500E+01 4.48040E+01 0.00000E+00
 -1      1860 9.84000E+01 4.61030E+01 0.00000E+00
 -1      1861 9.99000E+01 4.61030E+01 0.00000E+00
 -1      1862 9.76500E+01 4.48040E+01 0.00000E+00
 -1      1863 1.01400E+02 4.61030E+01 0.00000E+00
 -1      1864 1.02900E+02 4.61030E+01 0.00000E+00
 -1      1865 1.00650E+02 4.48040E+01 0.00000E+00
 -1      1866 1.04400E+02 4.61030E+01 0.00000E+00
 -1      1867 1.05900E+02 4.61030E+01 0.00000E+00
 -1      1868 1.03650E+02 4.48040E+01 0.00000E+00
 -1      1869 1.07400E+02 4.61030E+01 0.00000E+00
 -1      1870 1.08900E+02 4.61030E+01 0.00000E+00
 -1      1871 1.06650E+02 4.48040E+01 0.00000E+00
 -1      1872 1.10400E+02 4.61030E+01 0.00000E+00
 -1      1873 1.11900E+02 4.61030E+01 0.00000E+00
 -1      1874 1.09650E+02 4.48040E+01 0.00000E+00
 -1      1875 1.13400E+02 4.61030E+01 0.00000E+00
 -1      1876 1.14900E+02 4.61030E+01 0.00000E+00
 -1      1877 1.12650E+02 4.48040E+01 0.00000E+00
 -1      1878 1.16400E+02 4.61030E+01 0.00000E+00
 -1      1879 1.17900E+02 4.61030E+01 0.00000E+00
 -1      1880 1.15650E+02 4.48040E+01 0.00000E+00
 -1      1881 1.19400E+02 4.61030E+01 0.00000E+00
 -1      1882 1.20900E+02 4.61030E+01 0.00000E+00
 -1      1883 1.18650E+02 4.48040E+01 0.00000E+00
 -1      1884 1.22400E+02 4.61030E+01 0.00000E+00
 -1      1885 1.23900E+02 4.61030E+01 0.00000E+00
 -1      1886 1.21650E+02 4.48040E+01 0.00000E+00
 -1      1887 1.25400E+02 4.61030E+01 0.00000E+00
 -1      1888 1.26900E+02 4.61030E+01 0.00000E+00
 -1      1889 1.24650E+02 4.48040E+01 0.00000E+00
 -1      1890 1.28400E+02 4.61030E+01 0.00000E+00
 -1      1891 1.29900E+02 4.61030E+01 0.00000E+00
 -1      1892 1.27650E+02 4.48040E+01 0.00000E+00
 -1      1893 1.31400E+02 4.61030E+01 0.00000E+00
 -1      1894 1.32900E+02 4.61030E+01 0.00000E+00
 -1      1895 1.30650E+02 4.48040E+01 0.00000E+00
 -1      1896 1.34400E+02 4.61030E+01 0.00000E+00
 -1      1897 1.35900E+02 4.61030E+01 0.00000E+00
 -1      1898 1.33650E+02 4.48040E+01 0.00000E+00
 -1      1899 1.37400E+02 4.61030E+01 0.00000E+00
 -1      1900 1.38900E+02 4.61030E+01 0.00000E+00
 -1      1901 1.36650E+02 4.48040E+01 0.00000E+00
 -1      1902 1.40400E+02 4.61030E+01 0.00000E+00
 -1      1903 1.41900E+02 4.61030E+01 0.00000E+00
 -1      1904 1.39650E+02 4.48040E+01 0.00000E+00
 -1      1905 1.43244E+02 4.61616E+01 0.00000E+00
 -1      1906 1.44744E+02 4.61616E+01 0.00000E+00
 -1      1907 1.45182E+02 4.49799E+01 0.00000E+00
 -1      1908 1.42494E+02 4.48626E+01 0.00000E+00
 -1      1909 1.17045E+01 3.09687E+00 0.00000E+00
 -1      1910 1.02045E+01 3.09687E+00 0.00000E+00
 -1      1911 1.00350E+01 4.00625E+00 0.00000E+00
 -1      1912 1.47045E+01 3.09687E+00 0.00000E+00
 -1      1913 1.32045E+01 3.09687E+00 0.00000E+00
 -1      1914 1.30350E+01 4.00625E+00 0.00000E+00
 -1      1915 1.77045E+01 3.09687E+00 0.00000E+00
 -1      1916 1.62045E+01 3.09687E+00 0.00000E+00
 -1      1917 1.60350E+01 4.00625E+00 0.00000E+00
 -1      1918 2.07045E+01 3.09687E+00 0.00000E+00
 -1      1919 1.92045E+01 3.09687E+00 0.00000E+00
 -1      1920 1.90350E+01 4.00625E+00 0.00000E+00
 -1      1921 2.37045E+01 3.09687E+00 0.00000E+00
 -1      1922 2.22045E+01 3.09687E+00 0.00000E+00
 -1      1923 2.20350E+01 4.00625E+00 0.00000E+00
 -1      1924 2.67045E+01 3.09687E+00 0.00000E+00
 -1      1925 2.52045E+01 3.09687E+00 0.00000E+00
 -1      1926 2.50350E+01 4.00625E+00 0.00000E+00
 -1      1927 2.97045E+01 3.09687E+00 0.00000E+00
 -1      1928 2.82045E+01 3.09687E+00 0.00000E+00
 -1      1929 2.80350E+01 4.00625E+00 0.00000E+00
 -1      1930 3.27045E+01 3.09687E+00 0.00000E+00
 -1      1931 3.12045E+01 3.09687E+00 0.00000E+00
 -1      1932 3.10350E+01 4.00625E+00 0.00000E+00
 -1      1933 3.57045E+01 3.09687E+00 0.00000E+00
 -1      1934 3.42045E+01 3.09687E+00 0.00000E+00
 -1      1935 3.40350E+01 4.00625E+00 0.00000E+00
 -1      1936 3.87045E+01 3.09687E+00 0.00000E+00
 -1      1937 3.72045E+01 3.09687E+00 0.00000E+00
 -1      1938 3.70350E+01 4.00625E+00 0.00000E+00
 -1      1939 4.17045E+01 3.09687E+00 0.00000E+00
 -1      1940 4.02045E+01 3.09687E+00 0.00000E+00
 -1      1941 4.00350E+01 4.00625E+00 0.00000E+00
 -1      1942 4.47045E+01 3.09687E+00 0.00000E+00
 -1      1943 4.32045E+01 3.09687E+00 0.00000E+00
 -1      1944 4.30350E+01 4.00625E+00 0.00000E+00
 -1      1945 4.77045E+01 3.09687E+00 0.00000E+00
 -1      1946 4.62045E+01 3.09687E+00 0.00000E+00
 -1      1947 4.60350E+01 4.00625E+00 0.00000E+00
 -1      1948 5.07045E+01 3.09687E+00 0.00000E+00
 -1      1949 4.92045E+01 3.09687E+00 0.00000E+00
 -1      1950 4.90350E+01 4.00625E+00 0.00000E+00
 -1      1951 5.37045E+01 3.09687E+00 0.00000E+00
 -1      1952 5.22045E+01 3.09687E+00 0.00000E+00
 -1      1953 5.20350E+01 4.00625E+00 0.00000E+00
 -1      1954 5.67045E+01 3.09687E+00 0.00000E+00
 -1      1955 5.52045E+01 3.09687E+00 0.00000E+00
 -1      1956 5.50350E+01 4.00625E+00 0.00000E+00
 -1      1957 5.97045E+01 3.09687E+00 0.00000E+00
 -1      1958 5.82045E+01 3.09687E+00 0.00000E+00
 -1      1959 5.80350E+01 4.00625E+00 0.00000E+00
 -1      1960 6.27045E+01 3.09687E+00 0.00000E+00
 -1      1961 6.12045E+01 3.09687E+00 0.00000E+00
 -1      1962 6.10350E+01 4.00625E+00 0.00000E+00
 -1      1963 6.57045E+01 3.09687E+00 0.00000E+00
 -1      1964 6.42045E+01 3.09687E+00 0.00000E+00
 -1      1965 6.40350E+01 4.00625E+00 0.00000E+00
 -1      1966 6.87045E+01 3.09687E+00 0.00000E+00
 -1      1967 6.72045E+01 3.09687E+00 0.00000E+00
 -1      1968 6.70350E+01 4.00625E+00 0.00000E+00
 -1      1969 7.17045E+01 3.09687E+00 0.00000E+00
 -1      1970 7.02045E+01 3.09687E+00 0.00000E+00
 -1      1971 7.00350E+01 4.00625E+00 0.00000E+00
 -1      1972 7.47045E+01 3.09687E+00 0.00000E+00
 -1      1973 7.32045E+01 3.09687E+00 0.00000E+00
 -1      1974 7.30350E+01 4.00625E+00 0.00000E+00
 -1      1975 7.77045E+01 3.09687E+00 0.00000E+00
 -1      1976 7.62045E+01 3.09687E+00 0.00000E+00
 -1      1977 7.60350E+01 4.00625E+00 0.00000E+00
 -1      1978 8.07045E+01 3.09687E+00 0.00000E+00
 -1      1979 7.92045E+01 3.09687E+00 0.00000E+00
 -1      1980 7.90350E+01 4.00625E+00 0.00000E+00
 -1      1981 8.37045E+01 3.09687E+00 0.00000E+00
 -1      1982 8.22045E+01 3.09687E+00 0.00000E+00
 -1      1983 8.20350E+01 4.00625E+00 0.00000E+00
 -1      1984 8.67045E+01 3.09687E+00 0.00000E+00
 -1      1985 8.52045E+01 3.09687E+00 0.00000E+00
 -1      1986 8.50350E+01 4.00625E+00 0.00000E+00
 -1      1987 8.97045E+01 3.09687E+00 0.00000E+00
 -1      1988 8.82045E+01 3.09687E+00 0.00000E+00
 -1      1989 8.80350E+01 4.00625E+00 0.00000E+00
 -1      1990 9.27045E+01 3.09687E+00 0.00000E+00
 -1      1991 9.12045E+01 3.09687E+00 0.00000E+00
 -1      1992 9.10350E+01 4.00625E+00 0.00000E+00
 -1      1993 9.57045E+01 3.09687E+00 0.00000E+00
 -1      1994 9.42045E+01 3.09687E+00 0.00000E+00
 -1      1995 9.40350E+01 4.00625E+00 0.00000E+00
 -1      1996 9.87045E+01 3.09687E+00 0.00000E+00
 -1      1997 9.72045E+01 3.09687E+00 0.00000E+00
 -1      1998 9.70350E+01 4.00625E+00 0.00000E+00
 -1      1999 1.01704E+02 3.09687E+00 0.00000E+00
 -1      2000 1.00204E+02 3.09687E+00 0.00000E+00
 -1      2001 1.00035E+02 4.00625E+00 0.00000E+00
 -1      2002 1.04704E+02 3.09687E+00 0.00000E+00
 -1      2003 1.03204E+02 3.09687E+00 0.00000E+00
 -1      2004 1.03035E+02 4.00625E+00 0.00000E+00
 -1      2005 1.07704E+02 3.09687E+00 0.00000E+00
 -1      2006 1.06204E+02 3.09687E+00 0.00000E+00
 -1      2007 1.06035E+02 4.00625E+00 0.00000E+00
 -1      2008 1.10704E+02 3.09687E+00 0.00000E+00
 -1      2009 1.09204E+02 3.09687E+00 0.00000E+00
 -1      2010 1.09035E+02 4.00625E+00 0.00000E+00
 -1      2011 1.13704E+02 3.09687E+00 0.00000E+00
 -1      2012 1.12204E+02 3.09687E+00 0.00000E+00
 -1      2013 1.12035E+02 4.00625E+00 0.00000E+00
 -1      2014 1.16704E+02 3.09687E+00 0.00000E+00
 -1      2015 1.15204E+02 3.09687E+00 0.00000E+00
 -1      2016 1.15035E+02 4.00625E+00 0.00000E+00
 -1      2017 1.19704E+02 3.09687E+00 0.00000E+00
 -1      2018 1.18204E+02 3.09687E+00 0.00000E+00
 -1      2019 1.18035E+02 4.00625E+00 0.00000E+00
 -1      2020 1.22704E+02 3.09687E+00 0.00000E+00
 -1      2021 1.21204E+02 3.09687E+00 0.00000E+00
 -1      2022 1.21035E+02 4.00625E+00 0.00000E+00
 -1      2023 1.25704E+02 3.09687E+00 0.00000E+00
 -1      2024 1.24204E+02 3.09687E+00 0.00000E+00
 -1      2025 1.24035E+02 4.00625E+00 0.00000E+00
 -1      2026 1.28704E+02 3.09687E+00 0.00000E+00
 -1      2027 1.27204E+02 3.09687E+00 0.00000E+00
 -1      2028 1.27035E+02 4.00625E+00 0.00000E+00
 -1      2029 1.31704E+02 3.09687E+00 0.00000E+00
 -1      2030 1.30204E+02 3.09687E+00 0.00000E+00
 -1      2031 1.30035E+02 4.00625E+00 0.00000E+00
 -1      2032 1.34704E+02 3.09687E+00 0.00000E+00
 -1      2033 1.33204E+02 3.09687E+00 0.00000E+00
 -1      2034 1.33035E+02 4.00625E+00 0.00000E+00
 -1      2035 1.37704E+02 3.09687E+00 0.00000E+00
 -1      2036 1.36204E+02 3.09687E+00 0.00000E+00
 -1      2037 1.36035E+02 4.00625E+00 0.00000E+00
 -1      2038 1.40704E+02 3.09687E+00 0.00000E+00
 -1      2039 1.39204E+02 3.09687E+00 0.00000E+00
 -1      2040 1.39035E+02 4.00625E+00 0.00000E+00
 -1      2041 1.43704E+02 3.09687E+00 0.00000E+00
 -1      2042 1.42204E+02 3.09687E+00 0.00000E+00
 -1      2043 1.42035E+02 4.00625E+00 0.00000E+00
 -1      2044 1.46171E+02 3.20156E+00 0.00000E+00
 -1      2045 1.44671E+02 3.20156E+00 0.00000E+00
 -1      2046 1.44502E+02 4.11094E+00 0.00000E+00
 -1      2047 1.46435E+02 4.32031E+00 0.00000E+00
 -1      2048 1.46103E+02 1.25375E+01 0.00000E+00
 -1      2049 1.46103E+02 1.10625E+01 0.00000E+00
 -1      2050 1.46103E+02 9.58750E+00 0.00000E+00
 -1      2051 1.46103E+02 8.11250E+00 0.00000E+00
 -1      2052 1.44804E+02 1.03250E+01 0.00000E+00
 -1      2053 1.46269E+02 6.95391E+00 0.00000E+00
 -1      2054 1.46269E+02 5.47891E+00 0.00000E+00
 -1      2055 1.45302E+02 5.37422E+00 0.00000E+00
 -1      2056 1.44970E+02 7.69141E+00 0.00000E+00
 -1      2057 1.46103E+02 1.54375E+01 0.00000E+00
 -1      2058 1.46103E+02 1.39875E+01 0.00000E+00
 -1      2059 1.44804E+02 1.32500E+01 0.00000E+00
 -1      2060 1.46103E+02 1.83875E+01 0.00000E+00
 -1      2061 1.46103E+02 1.69125E+01 0.00000E+00
 -1      2062 1.44804E+02 1.61750E+01 0.00000E+00
 -1      2063 1.46103E+02 2.13375E+01 0.00000E+00
 -1      2064 1.46103E+02 1.98625E+01 0.00000E+00
 -1      2065 1.44804E+02 1.91250E+01 0.00000E+00
 -1      2066 1.46103E+02 2.42875E+01 0.00000E+00
 -1      2067 1.46103E+02 2.28125E+01 0.00000E+00
 -1      2068 1.44804E+02 2.20750E+01 0.00000E+00
 -1      2069 1.46103E+02 2.72375E+01 0.00000E+00
 -1      2070 1.46103E+02 2.57625E+01 0.00000E+00
 -1      2071 1.44804E+02 2.50250E+01 0.00000E+00
 -1      2072 1.46103E+02 3.01875E+01 0.00000E+00
 -1      2073 1.46103E+02 2.87125E+01 0.00000E+00
 -1      2074 1.44804E+02 2.79750E+01 0.00000E+00
 -1      2075 1.46103E+02 3.30875E+01 0.00000E+00
 -1      2076 1.46103E+02 3.16375E+01 0.00000E+00
 -1      2077 1.44804E+02 3.09000E+01 0.00000E+00
 -1      2078 1.46103E+02 3.60375E+01 0.00000E+00
 -1      2079 1.46103E+02 3.45625E+01 0.00000E+00
 -1      2080 1.44804E+02 3.38250E+01 0.00000E+00
 -1      2081 1.46103E+02 3.89875E+01 0.00000E+00
 -1      2082 1.46103E+02 3.75125E+01 0.00000E+00
 -1      2083 1.44804E+02 3.67750E+01 0.00000E+00
 -1      2084 1.46103E+02 4.19375E+01 0.00000E+00
 -1      2085 1.46103E+02 4.04625E+01 0.00000E+00
 -1      2086 1.44804E+02 3.97250E+01 0.00000E+00
 -1      2087 5.33361E+01 1.92180E+01 0.00000E+00
 -1      2088 5.36618E+01 1.99910E+01 0.00000E+00
 -1      2089 5.44512E+01 2.29245E+01 0.00000E+00
 -1      2090 5.43791E+01 2.38800E+01 0.00000E+00
 -1      2091 5.39461E+01 2.08641E+01 0.00000E+00
 -1      2092 5.42304E+01 2.17371E+01 0.00000E+00
 -1      2093 5.44191E+01 2.02096E+01 0.00000E+00
 -1      2094 5.23334E+01 1.75734E+01 0.00000E+00
 -1      2095 5.28771E+01 1.82748E+01 0.00000E+00
 -1      2096 5.08597E+01 1.62228E+01 0.00000E+00
 -1      2097 5.15825E+01 1.67726E+01 0.00000E+00
 -1      2098 3.89700E+00 3.74688E+01 0.00000E+00
 -1      2099 3.89700E+00 3.89437E+01 0.00000E+00
 -1      2100 5.19600E+00 3.96813E+01 0.00000E+00
 -1      2101 5.19600E+00 3.67438E+01 0.00000E+00
 -1      2102 4.74351E+01 1.44238E+01 0.00000E+00
 -1      2103 4.83063E+01 1.47375E+01 0.00000E+00
 -1      2104 4.53296E+01 1.40910E+01 0.00000E+00
 -1      2105 4.62867E+01 1.41223E+01 0.00000E+00
 -1      2106 4.32461E+01 1.45957E+01 0.00000E+00
 -1      2107 4.41264E+01 1.43040E+01 0.00000E+00
 -1      2108 4.15886E+01 1.52189E+01 0.00000E+00
 -1      2109 4.24174E+01 1.49073E+01 0.00000E+00
 -1      2110 4.26010E+01 1.39872E+01 0.00000E+00
 -1      2111 3.98964E+01 1.64190E+01 0.00000E+00
 -1      2112 4.05651E+01 1.58418E+01 0.00000E+00
 -1      2113 3.85888E+01 1.76128E+01 0.00000E+00
 -1      2114 3.92426E+01 1.70159E+01 0.00000E+00
 -1      2115 3.90714E+01 1.61416E+01 0.00000E+00
 -1      2116 3.74297E+01 1.93233E+01 0.00000E+00
 -1      2117 3.77975E+01 1.85263E+01 0.00000E+00
 -1      2118 3.69074E+01 2.09158E+01 0.00000E+00
 -1      2119 3.71685E+01 2.01196E+01 0.00000E+00
 -1      2120 3.65738E+01 1.93617E+01 0.00000E+00
 -1      2121 3.65652E+01 2.28301E+01 0.00000E+00
 -1      2122 3.67389E+01 2.19683E+01 0.00000E+00
 -1      2123 3.67763E+01 2.48171E+01 0.00000E+00
 -1      2124 3.66049E+01 2.39549E+01 0.00000E+00
 -1      2125 3.72301E+01 2.65299E+01 0.00000E+00
 -1      2126 3.69711E+01 2.57334E+01 0.00000E+00
 -1      2127 3.79417E+01 2.82289E+01 0.00000E+00
 -1      2128 3.75859E+01 2.73794E+01 0.00000E+00
 -1      2129 3.68002E+01 2.71945E+01 0.00000E+00
 -1      2130 3.92971E+01 2.98637E+01 0.00000E+00
 -1      2131 3.86079E+01 2.92376E+01 0.00000E+00
 -1      2132 4.06828E+01 3.12146E+01 0.00000E+00
 -1      2133 3.99636E+01 3.05375E+01 0.00000E+00
 -1      2134 4.29006E+01 3.19795E+01 0.00000E+00
 -1      2135 4.19188E+01 3.18217E+01 0.00000E+00
 -1      2136 4.46636E+01 3.23009E+01 0.00000E+00
 -1      2137 4.37821E+01 3.21402E+01 0.00000E+00
 -1      2138 4.31751E+01 3.27839E+01 0.00000E+00
 -1      2139 4.67035E+01 3.22115E+01 0.00000E+00
 -1      2140 4.58103E+01 3.23259E+01 0.00000E+00
 -1      2141 4.84945E+01 3.17278E+01 0.00000E+00
 -1      2142 4.76438E+01 3.19466E+01 0.00000E+00
 -1      2143 5.01952E+01 3.08572E+01 0.00000E+00
 -1      2144 4.94663E+01 3.13127E+01 0.00000E+00
 -1      2145 5.16977E+01 2.98910E+01 0.00000E+00
 -1      2146 5.10309E+01 3.04208E+01 0.00000E+00
 -1      2147 5.28411E+01 2.83417E+01 0.00000E+00
 -1      2148 5.23613E+01 2.90516E+01 0.00000E+00
 -1      2149 5.36855E+01 2.67429E+01 0.00000E+00
 -1      2150 5.32847E+01 2.75138E+01 0.00000E+00
 -1      2151 5.42176E+01 2.48587E+01 0.00000E+00
 -1      2152 5.40664E+01 2.57366E+01 0.00000E+00
 -1      2153 4.93351E+01 1.52481E+01 0.00000E+00
 -1      2154 5.00974E+01 1.57355E+01 0.00000E+00
 -1      2155 5.09526E+01 1.53612E+01 0.00000E+00
 -1      2156 6.42300E+00 4.57510E+01 0.00000E+00
 -1      2157 4.91616E+01 1.43633E+01 0.00000E+00
 -1      2158 7.17300E+00 4.44520E+01 0.00000E+00
 -1      2159 5.49242E+01 2.22700E+01 0.00000E+00
 -1      2160 5.56179E+01 2.28029E+01 0.00000E+00
 -1      2161 5.53971E+01 2.16156E+01 0.00000E+00
 -1      2162 5.36758E+01 1.83933E+01 0.00000E+00
 -1      2163 1.45665E+02 4.31193E+01 0.00000E+00
 -1      2164 5.49835E+01 2.44360E+01 0.00000E+00
 -1      2165 5.24659E+01 1.66493E+01 0.00000E+00
 -1      2166 5.44410E+01 2.64210E+01 0.00000E+00
 -1      2167 5.36165E+01 2.82551E+01 0.00000E+00
 -1      2168 5.25093E+01 2.99223E+01 0.00000E+00
 -1      2169 5.10099E+01 3.11981E+01 0.00000E+00
 -1      2170 4.92024E+01 3.20497E+01 0.00000E+00
 -1      2171 4.52033E+01 3.29697E+01 0.00000E+00
 -1      2172 4.10576E+01 3.20161E+01 0.00000E+00
 -1      2173 4.01963E+01 3.22104E+01 0.00000E+00
 -1      2174 4.14323E+01 3.28176E+01 0.00000E+00
 -1      2175 3.78223E+01 2.90526E+01 0.00000E+00
 -1      2176 3.70366E+01 2.88677E+01 0.00000E+00
 -1      2177 3.77029E+01 2.98764E+01 0.00000E+00
 -1      2178 3.62497E+01 2.54287E+01 0.00000E+00
 -1      2179 3.61441E+01 2.12104E+01 0.00000E+00
 -1      2180 3.76263E+01 1.76520E+01 0.00000E+00
 -1      2181 4.07487E+01 1.49217E+01 0.00000E+00
 -1      2182 4.69845E+01 1.35511E+01 0.00000E+00
 -1      2183 4.46329E+01 1.34625E+01 0.00000E+00
 -1      2184 3.60153E+01 2.33877E+01 0.00000E+00
 -1      2185 3.91550E+01 3.07351E+01 0.00000E+00
 -1      2186 4.72902E+01 3.27298E+01 0.00000E+00
 -1      2187 1.07850E+01 5.30525E+00 0.00000E+00
 -1      2188 9.28500E+00 5.30525E+00 0.00000E+00
 -1      2189 6.49500E+00 3.01125E+01 0.00000E+00
 -1      2190 6.49500E+00 3.15875E+01 0.00000E+00
 -1      2191 6.49500E+00 3.30625E+01 0.00000E+00
 -1      2192 6.49500E+00 3.45375E+01 0.00000E+00
 -1      2193 7.79400E+00 3.23250E+01 0.00000E+00
 -1      2194 6.49500E+00 2.42125E+01 0.00000E+00
 -1      2195 6.49500E+00 2.56875E+01 0.00000E+00
 -1      2196 6.49500E+00 2.12625E+01 0.00000E+00
 -1      2197 6.49500E+00 2.27375E+01 0.00000E+00
 -1      2198 7.79400E+00 2.34750E+01 0.00000E+00
 -1      2199 6.49500E+00 1.83625E+01 0.00000E+00
 -1      2200 6.49500E+00 1.98125E+01 0.00000E+00
 -1      2201 7.79400E+00 2.05500E+01 0.00000E+00
 -1      2202 6.49500E+00 1.54125E+01 0.00000E+00
 -1      2203 6.49500E+00 1.68875E+01 0.00000E+00
 -1      2204 7.79400E+00 1.76250E+01 0.00000E+00
 -1      2205 6.49500E+00 1.24625E+01 0.00000E+00
 -1      2206 6.49500E+00 1.39375E+01 0.00000E+00
 -1      2207 7.79400E+00 1.46750E+01 0.00000E+00
 -1      2208 6.49500E+00 9.51250E+00 0.00000E+00
 -1      2209 6.49500E+00 1.09875E+01 0.00000E+00
 -1      2210 7.79400E+00 1.17250E+01 0.00000E+00
 -1      2211 1.37850E+01 5.30525E+00 0.00000E+00
 -1      2212 1.22850E+01 5.30525E+00 0.00000E+00
 -1      2213 1.15350E+01 6.60425E+00 0.00000E+00
 -1      2214 9.90000E+00 4.35050E+01 0.00000E+00
 -1      2215 1.14000E+01 4.35050E+01 0.00000E+00
 -1      2216 4.91029E+01 1.31897E+01 0.00000E+00
 -1      2217 5.01317E+01 1.37003E+01 0.00000E+00
 -1      2218 1.29000E+01 4.35050E+01 0.00000E+00
 -1      2219 1.44000E+01 4.35050E+01 0.00000E+00
 -1      2220 1.21500E+01 4.22060E+01 0.00000E+00
 -1      2221 1.59000E+01 4.35050E+01 0.00000E+00
 -1      2222 1.74000E+01 4.35050E+01 0.00000E+00
 -1      2223 1.51500E+01 4.22060E+01 0.00000E+00
 -1      2224 1.89000E+01 4.35050E+01 0.00000E+00
 -1      2225 2.04000E+01 4.35050E+01 0.00000E+00
 -1      2226 1.81500E+01 4.22060E+01 0.00000E+00
 -1      2227 2.19000E+01 4.35050E+01 0.00000E+00
 -1      2228 2.34000E+01 4.35050E+01 0.00000E+00
 -1      2229 2.11500E+01 4.22060E+01 0.00000E+00
 -1      2230 2.49000E+01 4.35050E+01 0.00000E+00
 -1      2231 2.64000E+01 4.35050E+01 0.00000E+00
 -1      2232 2.41500E+01 4.22060E+01 0.00000E+00
 -1      2233 2.79000E+01 4.35050E+01 0.00000E+00
 -1      2234 2.94000E+01 4.35050E+01 0.00000E+00
 -1      2235 2.71500E+01 4.22060E+01 0.00000E+00
 -1      2236 3.09000E+01 4.35050E+01 0.00000E+00
 -1      2237 3.24000E+01 4.35050E+01 0.00000E+00
 -1      2238 3.01500E+01 4.22060E+01 0.00000E+00
 -1      2239 3.39000E+01 4.35050E+01 0.00000E+00
 -1      2240 3.54000E+01 4.35050E+01 0.00000E+00
 -1      2241 3.31500E+01 4.22060E+01 0.00000E+00
 -1      2242 3.69000E+01 4.35050E+01 0.00000E+00
 -1      2243 3.84000E+01 4.35050E+01 0.00000E+00
 -1      2244 3.61500E+01 4.22060E+01 0.00000E+00
 -1      2245 3.99000E+01 4.35050E+01 0.00000E+00
 -1      2246 4.14000E+01 4.35050E+01 0.00000E+00
 -1      2247 3.91500E+01 4.22060E+01 0.00000E+00
 -1      2248 4.29000E+01 4.35050E+01 0.00000E+00
 -1      2249 4.44000E+01 4.35050E+01 0.00000E+00
 -1      2250 4.21500E+01 4.22060E+01 0.00000E+00
 -1      2251 4.59000E+01 4.35050E+01 0.00000E+00
 -1      2252 4.74000E+01 4.35050E+01 0.00000E+00
 -1      2253 4.51500E+01 4.22060E+01 0.00000E+00
 -1      2254 4.89000E+01 4.35050E+01 0.00000E+00
 -1      2255 5.04000E+01 4.35050E+01 0.00000E+00
 -1      2256 4.81500E+01 4.22060E+01 0.00000E+00
 -1      2257 5.19000E+01 4.35050E+01 0.00000E+00
 -1      2258 5.34000E+01 4.35050E+01 0.00000E+00
 -1      2259 5.11500E+01 4.22060E+01 0.00000E+00
 -1      2260 5.49000E+01 4.35050E+01 0.00000E+00
 -1      2261 5.64000E+01 4.35050E+01 0.00000E+00
 -1      2262 5.41500E+01 4.22060E+01 0.00000E+00
 -1      2263 5.79000E+01 4.35050E+01 0.00000E+00
 -1      2264 5.94000E+01 4.35050E+01 0.00000E+00
 -1      2265 5.71500E+01 4.22060E+01 0.00000E+00
 -1      2266 6.09000E+01 4.35050E+01 0.00000E+00
 -1      2267 6.24000E+01 4.35050E+01 0.00000E+00
 -1      2268 6.01500E+01 4.22060E+01 0.00000E+00
 -1      2269 6.39000E+01 4.35050E+01 0.00000E+00
 -1      2270 6.54000E+01 4.35050E+01 0.00000E+00
 -1      2271 6.31500E+01 4.22060E+01 0.00000E+00
 -1      2272 6.69000E+01 4.35050E+01 0.00000E+00
 -1      2273 6.84000E+01 4.35050E+01 0.00000E+00
 -1      2274 6.61500E+01 4.22060E+01 0.00000E+00
 -1      2275 6.99000E+01 4.35050E+01 0.00000E+00
 -1      2276 7.14000E+01 4.35050E+01 0.00000E+00
 -1      2277 6.91500E+01 4.22060E+01 0.00000E+00
 -1      2278 7.29000E+01 4.35050E+01 0.00000E+00
 -1      2279 7.44000E+01 4.35050E+01 0.00000E+00
 -1      2280 7.21500E+01 4.22060E+01 0.00000E+00
 -1      2281 7.59000E+01 4.35050E+01 0.00000E+00
 -1      2282 7.74000E+01 4.35050E+01 0.00000E+00
 -1      2283 7.51500E+01 4.22060E+01 0.00000E+00
 -1      2284 7.89000E+01 4.35050E+01 0.00000E+00
 -1      2285 8.04000E+01 4.35050E+01 0.00000E+00
 -1      2286 7.81500E+01 4.22060E+01 0.00000E+00
 -1      2287 8.19000E+01 4.35050E+01 0.00000E+00
 -1      2288 8.34000E+01 4.35050E+01 0.00000E+00
 -1      2289 8.11500E+01 4.22060E+01 0.00000E+00
 -1      2290 8.49000E+01 4.35050E+01 0.00000E+00
 -1      2291 8.64000E+01 4.35050E+01 0.00000E+00
 -1      2292 8.41500E+01 4.22060E+01 0.00000E+00
 -1      2293 8.79000E+01 4.35050E+01 0.00000E+00
 -1      2294 8.94000E+01 4.35050E+01 0.00000E+00
 -1      2295 8.71500E+01 4.22060E+01 0.00000E+00
 -1      2296 9.09000E+01 4.35050E+01 0.00000E+00
 -1      2297 9.24000E+01 4.35050E+01 0.00000E+00
 -1      2298 9.01500E+01 4.22060E+01 0.00000E+00
 -1      2299 9.39000E+01 4.35050E+01 0.00000E+00
 -1      2300 9.54000E+01 4.35050E+01 0.00000E+00
 -1      2301 9.31500E+01 4.22060E+01 0.00000E+00
 -1      2302 9.69000E+01 4.35050E+01 0.00000E+00
 -1      2303 9.84000E+01 4.35050E+01 0.00000E+00
 -1      2304 9.61500E+01 4.22060E+01 0.00000E+00
 -1      2305 9.99000E+01 4.35050E+01 0.00000E+00
 -1      2306 1.01400E+02 4.35050E+01 0.00000E+00
 -1      2307 9.91500E+01 4.22060E+01 0.00000E+00
 -1      2308 1.02900E+02 4.35050E+01 0.00000E+00
 -1      2309 1.04400E+02 4.35050E+01 0.00000E+00
 -1      2310 1.02150E+02 4.22060E+01 0.00000E+00
 -1      2311 1.05900E+02 4.35050E+01 0.00000E+00
 -1      2312 1.07400E+02 4.35050E+01 0.00000E+00
 -1      2313 1.05150E+02 4.22060E+01 0.00000E+00
 -1      2314 1.08900E+02 4.35050E+01 0.00000E+00
 -1      2315 1.10400E+02 4.35050E+01 0.00000E+00
 -1      2316 1.08150E+02 4.22060E+01 0.00000E+00
 -1      2317 1.11900E+02 4.35050E+01 0.00000E+00
 -1      2318 1.13400E+02 4.35050E+01 0.00000E+00
 -1      2319 1.11150E+02 4.22060E+01 0.00000E+00
 -1      2320 1.14900E+02 4.35050E+01 0.00000E+00
 -1      2321 1.16400E+02 4.35050E+01 0.00000E+00
 -1      2322 1.14150E+02 4.22060E+01 0.00000E+00
 -1      2323 1.17900E+02 4.35050E+01 0.00000E+00
 -1      2324 1.19400E+02 4.35050E+01 0.00000E+00
 -1      2325 1.17150E+02 4.22060E+01 0.00000E+00
 -1      2326 1.20900E+02 4.35050E+01 0.00000E+00
 -1      2327 1.22400E+02 4.35050E+01 0.00000E+00
 -1      2328 1.20150E+02 4.22060E+01 0.00000E+00
 -1      2329 1.23900E+02 4.35050E+01 0.00000E+00
 -1      2330 1.25400E+02 4.35050E+01 0.00000E+00
 -1      2331 1.23150E+02 4.22060E+01 0.00000E+00
 -1      2332 1.26900E+02 4.35050E+01 0.00000E+00
 -1      2333 1.28400E+02 4.35050E+01 0.00000E+00
 -1      2334 1.26150E+02 4.22060E+01 0.00000E+00
 -1      2335 1.29900E+02 4.35050E+01 0.00000E+00
 -1      2336 1.31400E+02 4.35050E+01 0.00000E+00
 -1      2337 1.29150E+02 4.22060E+01 0.00000E+00
 -1      2338 1.32900E+02 4.35050E+01 0.00000E+00
 -1      2339 1.34400E+02 4.35050E+01 0.00000E+00
 -1      2340 1.32150E+02 4.22060E+01 0.00000E+00
 -1      2341 1.35900E+02 4.35050E+01 0.00000E+00
 -1      2342 1.37400E+02 4.35050E+01 0.00000E+00
 -1      2343 1.35150E+02 4.22060E+01 0.00000E+00
 -1      2344 1.38900E+02 4.35050E+01 0.00000E+00
 -1      2345 1.40400E+02 4.35050E+01 0.00000E+00
 -1      2346 1.38150E+02 4.22060E+01 0.00000E+00
 -1      2347 5.50127E+01 1.95335E+01 0.00000E+00
 -1      2348 5.52970E+01 2.04066E+01 0.00000E+00
 -1      2349 1.97850E+01 5.30525E+00 0.00000E+00
 -1      2350 1.82850E+01 5.30525E+00 0.00000E+00
 -1      2351 2.27850E+01 5.30525E+00 0.00000E+00
 -1      2352 2.12850E+01 5.30525E+00 0.00000E+00
 -1      2353 2.05350E+01 6.60425E+00 0.00000E+00
 -1      2354 2.57850E+01 5.30525E+00 0.00000E+00
 -1      2355 2.42850E+01 5.30525E+00 0.00000E+00
 -1      2356 2.35350E+01 6.60425E+00 0.00000E+00
 -1      2357 2.87850E+01 5.30525E+00 0.00000E+00
 -1      2358 2.72850E+01 5.30525E+00 0.00000E+00
 -1      2359 2.65350E+01 6.60425E+00 0.00000E+00
 -1      2360 3.17850E+01 5.30525E+00 0.00000E+00
 -1      2361 3.02850E+01 5.30525E+00 0.00000E+00
 -1      2362 2.95350E+01 6.60425E+00 0.00000E+00
 -1      2363 3.47850E+01 5.30525E+00 0.00000E+00
 -1      2364 3.32850E+01 5.30525E+00 0.00000E+00
 -1      2365 3.25350E+01 6.60425E+00 0.00000E+00
 -1      2366 3.77850E+01 5.30525E+00 0.00000E+00
 -1      2367 3.62850E+01 5.30525E+00 0.00000E+00
 -1      2368 3.55350E+01 6.60425E+00 0.00000E+00
 -1      2369 4.07850E+01 5.30525E+00 0.00000E+00
 -1      2370 3.92850E+01 5.30525E+00 0.00000E+00
 -1      2371 3.85350E+01 6.60425E+00 0.00000E+00
 -1      2372 4.37850E+01 5.30525E+00 0.00000E+00
 -1      2373 4.22850E+01 5.30525E+00 0.00000E+00
 -1      2374 4.15350E+01 6.60425E+00 0.00000E+00
 -1      2375 4.67850E+01 5.30525E+00 0.00000E+00
 -1      2376 4.52850E+01 5.30525E+00 0.00000E+00
 -1      2377 4.45350E+01 6.60425E+00 0.00000E+00
 -1      2378 4.97850E+01 5.30525E+00 0.00000E+00
 -1      2379 4.82850E+01 5.30525E+00 0.00000E+00
 -1      2380 4.75350E+01 6.60425E+00 0.00000E+00
 -1      2381 5.27850E+01 5.30525E+00 0.00000E+00
 -1      2382 5.12850E+01 5.30525E+00 0.00000E+00
 -1      2383 5.05350E+01 6.60425E+00 0.00000E+00
 -1      2384 5.57850E+01 5.30525E+00 0.00000E+00
 -1      2385 5.42850E+01 5.30525E+00 0.00000E+00
 -1      2386 5.35350E+01 6.60425E+00 0.00000E+00
 -1      2387 5.87850E+01 5.30525E+00 0.00000E+00
 -1      2388 5.72850E+01 5.30525E+00 0.00000E+00
 -1      2389 5.65350E+01 6.60425E+00 0.00000E+00
 -1      2390 6.17850E+01 5.30525E+00 0.00000E+00
 -1      2391 6.02850E+01 5.30525E+00 0.00000E+00
 -1      2392 5.95350E+01 6.60425E+00 0.00000E+00
 -1      2393 6.47850E+01 5.30525E+00 0.00000E+00
 -1      2394 6.32850E+01 5.30525E+00 0.00000E+00
 -1      2395 6.25350E+01 6.60425E+00 0.00000E+00
 -1      2396 6.77850E+01 5.30525E+00 0.00000E+00
 -1      2397 6.62850E+01 5.30525E+00 0.00000E+00
 -1      2398 6.55350E+01 6.60425E+00 0.00000E+00
 -1      2399 7.07850E+01 5.30525E+00 0.00000E+00
 -1      2400 6.92850E+01 5.30525E+00 0.00000E+00
 -1      2401 6.85350E+01 6.60425E+00 0.00000E+00
 -1      2402 7.37850E+01 5.30525E+00 0.00000E+00
 -1      2403 7.22850E+01 5.30525E+00 0.00000E+00
 -1      2404 7.15350E+01 6.60425E+00 0.00000E+00
 -1      2405 7.67850E+01 5.30525E+00 0.00000E+00
 -1      2406 7.52850E+01 5.30525E+00 0.00000E+00
 -1      2407 7.45350E+01 6.60425E+00 0.00000E+00
 -1      2408 7.97850E+01 5.30525E+00 0.00000E+00
 -1      2409 7.82850E+01 5.30525E+00 0.00000E+00
 -1      2410 7.75350E+01 6.60425E+00 0.00000E+00
 -1      2411 8.27850E+01 5.30525E+00 0.00000E+00
 -1      2412 8.12850E+01 5.30525E+00 0.00000E+00
 -1      2413 8.05350E+01 6.60425E+00 0.00000E+00
 -1      2414 8.57850E+01 5.30525E+00 0.00000E+00
 -1      2415 8.42850E+01 5.30525E+00 0.00000E+00
 -1      2416 8.35350E+01 6.60425E+00 0.00000E+00
 -1      2417 8.87850E+01 5.30525E+00 0.00000E+00
 -1      2418 8.72850E+01 5.30525E+00 0.00000E+00
 -1      2419 8.65350E+01 6.60425E+00 0.00000E+00
 -1      2420 9.17850E+01 5.30525E+00 0.00000E+00
 -1      2421 9.02850E+01 5.30525E+00 0.00000E+00
 -1      2422 8.95350E+01 6.60425E+00 0.00000E+00
 -1      2423 9.47850E+01 5.30525E+00 0.00000E+00
 -1      2424 9.32850E+01 5.30525E+00 0.00000E+00
 -1      2425 9.25350E+01 6.60425E+00 0.00000E+00
 -1      2426 9.77850E+01 5.30525E+00 0.00000E+00
 -1      2427 9.62850E+01 5.30525E+00 0.00000E+00
 -1      2428 9.55350E+01 6.60425E+00 0.00000E+00
 -1      2429 1.00785E+02 5.30525E+00 0.00000E+00
 -1      2430 9.92850E+01 5.30525E+00 0.00000E+00
 -1      2431 9.85350E+01 6.60425E+00 0.00000E+00
 -1      2432 1.03785E+02 5.30525E+00 0.00000E+00
 -1      2433 1.02285E+02 5.30525E+00 0.00000E+00
 -1      2434 1.01535E+02 6.60425E+00 0.00000E+00
 -1      2435 1.06785E+02 5.30525E+00 0.00000E+00
 -1      2436 1.05285E+02 5.30525E+00 0.00000E+00
 -1      2437 1.04535E+02 6.60425E+00 0.00000E+00
 -1      2438 1.09785E+02 5.30525E+00 0.00000E+00
 -1      2439 1.08285E+02 5.30525E+00 0.00000E+00
 -1      2440 1.07535E+02 6.60425E+00 0.00000E+00
 -1      2441 1.12785E+02 5.30525E+00 0.00000E+00
 -1      2442 1.11285E+02 5.30525E+00 0.00000E+00
 -1      2443 1.10535E+02 6.60425E+00 0.00000E+00
 -1      2444 1.15785E+02 5.30525E+00 0.00000E+00
 -1      2445 1.14285E+02 5.30525E+00 0.00000E+00
 -1      2446 1.13535E+02 6.60425E+00 0.00000E+00
 -1      2447 1.18785E+02 5.30525E+00 0.00000E+00
 -1      2448 1.17285E+02 5.30525E+00 0.00000E+00
 -1      2449 1.16535E+02 6.60425E+00 0.00000E+00
 -1      2450 1.21785E+02 5.30525E+00 0.00000E+00
 -1      2451 1.20285E+02 5.30525E+00 0.00000E+00
 -1      2452 1.19535E+02 6.60425E+00 0.00000E+00
 -1      2453 1.24785E+02 5.30525E+00 0.00000E+00
 -1      2454 1.23285E+02 5.30525E+00 0.00000E+00
 -1      2455 1.22535E+02 6.60425E+00 0.00000E+00
 -1      2456 1.27785E+02 5.30525E+00 0.00000E+00
 -1      2457 1.26285E+02 5.30525E+00 0.00000E+00
 -1      2458 1.25535E+02 6.60425E+00 0.00000E+00
 -1      2459 1.30785E+02 5.30525E+00 0.00000E+00
 -1      2460 1.29285E+02 5.30525E+00 0.00000E+00
 -1      2461 1.28535E+02 6.60425E+00 0.00000E+00
 -1      2462 1.33785E+02 5.30525E+00 0.00000E+00
 -1      2463 1.32285E+02 5.30525E+00 0.00000E+00
 -1      2464 1.31535E+02 6.60425E+00 0.00000E+00
 -1      2465 1.36785E+02 5.30525E+00 0.00000E+00
 -1      2466 1.35285E+02 5.30525E+00 0.00000E+00
 -1      2467 1.34535E+02 6.60425E+00 0.00000E+00
 -1      2468 1.39785E+02 5.30525E+00 0.00000E+00
 -1      2469 1.38285E+02 5.30525E+00 0.00000E+00
 -1      2470 1.37535E+02 6.60425E+00 0.00000E+00
 -1      2471 1.42785E+02 5.30525E+00 0.00000E+00
 -1      2472 1.41285E+02 5.30525E+00 0.00000E+00
 -1      2473 1.40535E+02 6.60425E+00 0.00000E+00
 -1      2474 1.44336E+02 5.26953E+00 0.00000E+00
 -1      2475 1.43505E+02 1.69125E+01 0.00000E+00
 -1      2476 1.43505E+02 1.54375E+01 0.00000E+00
 -1      2477 1.43505E+02 1.98625E+01 0.00000E+00
 -1      2478 1.43505E+02 1.83875E+01 0.00000E+00
 -1      2479 1.42206E+02 1.76500E+01 0.00000E+00
 -1      2480 1.43505E+02 1.10625E+01 0.00000E+00
 -1      2481 1.43505E+02 9.58750E+00 0.00000E+00
 -1      2482 1.43505E+02 1.39750E+01 0.00000E+00
 -1      2483 1.43505E+02 1.25250E+01 0.00000E+00
 -1      2484 1.42206E+02 1.17875E+01 0.00000E+00
 -1      2485 1.42206E+02 1.47125E+01 0.00000E+00
 -1      2486 1.43505E+02 2.28125E+01 0.00000E+00
 -1      2487 1.43505E+02 2.13375E+01 0.00000E+00
 -1      2488 1.42206E+02 2.06000E+01 0.00000E+00
 -1      2489 1.43505E+02 2.57625E+01 0.00000E+00
 -1      2490 1.43505E+02 2.42875E+01 0.00000E+00
 -1      2491 1.42206E+02 2.35500E+01 0.00000E+00
 -1      2492 1.43505E+02 2.87125E+01 0.00000E+00
 -1      2493 1.43505E+02 2.72375E+01 0.00000E+00
 -1      2494 1.42206E+02 2.65000E+01 0.00000E+00
 -1      2495 1.43505E+02 3.16125E+01 0.00000E+00
 -1      2496 1.43505E+02 3.01625E+01 0.00000E+00
 -1      2497 1.42206E+02 2.94250E+01 0.00000E+00
 -1      2498 1.43505E+02 3.45625E+01 0.00000E+00
 -1      2499 1.43505E+02 3.30875E+01 0.00000E+00
 -1      2500 1.42206E+02 3.23500E+01 0.00000E+00
 -1      2501 1.43505E+02 3.75125E+01 0.00000E+00
 -1      2502 1.43505E+02 3.60375E+01 0.00000E+00
 -1      2503 1.42206E+02 3.53000E+01 0.00000E+00
 -1      2504 1.43505E+02 4.04625E+01 0.00000E+00
 -1      2505 1.43505E+02 3.89875E+01 0.00000E+00
 -1      2506 1.42206E+02 3.82500E+01 0.00000E+00
 -1      2507 1.44321E+02 4.30606E+01 0.00000E+00
 -1      2508 5.57450E+01 2.40590E+01 0.00000E+00
 -1      2509 5.55835E+01 2.50377E+01 0.00000E+00
 -1      2510 1.67850E+01 5.30525E+00 0.00000E+00
 -1      2511 1.52850E+01 5.30525E+00 0.00000E+00
 -1      2512 1.75350E+01 6.60425E+00 0.00000E+00
 -1      2513 5.42174E+01 1.75465E+01 0.00000E+00
 -1      2514 5.46764E+01 1.84897E+01 0.00000E+00
 -1      2515 5.54335E+01 2.62215E+01 0.00000E+00
 -1      2516 5.50526E+01 2.72278E+01 0.00000E+00
 -1      2517 6.55950E+00 4.28890E+01 0.00000E+00
 -1      2518 8.53650E+00 4.32410E+01 0.00000E+00
 -1      2519 9.28650E+00 4.19420E+01 0.00000E+00
 -1      2520 6.55950E+00 4.14140E+01 0.00000E+00
 -1      2521 5.27159E+01 1.56623E+01 0.00000E+00
 -1      2522 5.34669E+01 1.64631E+01 0.00000E+00
 -1      2523 3.55082E+01 2.60651E+01 0.00000E+00
 -1      2524 3.53135E+01 2.51488E+01 0.00000E+00
 -1      2525 4.68063E+01 1.25866E+01 0.00000E+00
 -1      2526 4.79546E+01 1.28882E+01 0.00000E+00
 -1      2527 4.89247E+01 1.22252E+01 0.00000E+00
 -1      2528 6.49500E+00 2.71625E+01 0.00000E+00
 -1      2529 6.49500E+00 2.86375E+01 0.00000E+00
 -1      2530 7.79400E+00 2.93750E+01 0.00000E+00
 -1      2531 7.79400E+00 2.64250E+01 0.00000E+00
 -1      2532 4.38526E+01 1.25596E+01 0.00000E+00
 -1      2533 4.50558E+01 1.23466E+01 0.00000E+00
 -1      2534 3.51781E+01 2.39803E+01 0.00000E+00
 -1      2535 3.51384E+01 2.28555E+01 0.00000E+00
 -1      2536 4.21951E+01 1.31829E+01 0.00000E+00
 -1      2537 4.30239E+01 1.28712E+01 0.00000E+00
 -1      2538 4.34468E+01 1.17553E+01 0.00000E+00
 -1      2539 3.97475E+01 1.44291E+01 0.00000E+00
 -1      2540 4.07710E+01 1.38061E+01 0.00000E+00
 -1      2541 3.80533E+01 1.56830E+01 0.00000E+00
 -1      2542 3.87071E+01 1.50861E+01 0.00000E+00
 -1      2543 3.64706E+01 1.75100E+01 0.00000E+00
 -1      2544 3.72620E+01 1.65965E+01 0.00000E+00
 -1      2545 3.68977E+01 1.55410E+01 0.00000E+00
 -1      2546 3.57080E+01 1.95187E+01 0.00000E+00
 -1      2547 3.59691E+01 1.87225E+01 0.00000E+00
 -1      2548 3.89084E+01 3.16456E+01 0.00000E+00
 -1      2549 3.82419E+01 3.09718E+01 0.00000E+00
 -1      2550 3.53372E+01 2.16210E+01 0.00000E+00
 -1      2551 3.55057E+01 2.05685E+01 0.00000E+00
 -1      2552 3.61871E+01 2.79505E+01 0.00000E+00
 -1      2553 3.58313E+01 2.71010E+01 0.00000E+00
 -1      2554 4.79815E+01 3.33824E+01 0.00000E+00
 -1      2555 4.70412E+01 3.36473E+01 0.00000E+00
 -1      2556 4.34696E+01 3.36667E+01 0.00000E+00
 -1      2557 4.25880E+01 3.35060E+01 0.00000E+00
 -1      2558 4.57597E+01 3.37557E+01 0.00000E+00
 -1      2559 4.46131E+01 3.37307E+01 0.00000E+00
 -1      2560 4.99252E+01 3.25521E+01 0.00000E+00
 -1      2561 4.89534E+01 3.29673E+01 0.00000E+00
 -1      2562 4.87044E+01 3.38848E+01 0.00000E+00
 -1      2563 5.18248E+01 3.17401E+01 0.00000E+00
 -1      2564 5.09890E+01 3.21765E+01 0.00000E+00
 -1      2565 5.35138E+01 3.00345E+01 0.00000E+00
 -1      2566 5.28502E+01 3.08739E+01 0.00000E+00
 -1      2567 5.45942E+01 2.82463E+01 0.00000E+00
 -1      2568 5.41506E+01 2.90741E+01 0.00000E+00
 -1      2569 5.10426E+01 1.44376E+01 0.00000E+00
 -1      2570 5.18049E+01 1.49250E+01 0.00000E+00
 -1      2571 5.28059E+01 1.47387E+01 0.00000E+00
 -1      2572 5.09840E+01 1.32641E+01 0.00000E+00
 -1      2573 8.07525E+00 5.11044E+00 0.00000E+00
 -1      2574 6.57525E+00 5.11044E+00 0.00000E+00
 -1      2575 6.40575E+00 6.01981E+00 0.00000E+00
 -1      2576 8.82525E+00 6.40944E+00 0.00000E+00
 -1      2577 4.52456E+01 1.07807E+01 0.00000E+00
 -1      2578 4.60259E+01 1.16837E+01 0.00000E+00
 -1      2579 4.69961E+01 1.10207E+01 0.00000E+00
 -1      2580 7.79400E+00 3.52687E+01 0.00000E+00
 -1      2581 6.49500E+00 3.60062E+01 0.00000E+00
 -1      2582 6.49500E+00 3.74750E+01 0.00000E+00
 -1      2583 1.45350E+01 6.60425E+00 0.00000E+00
 -1      2584 6.40575E+00 7.49481E+00 0.00000E+00
 -1      2585 5.66909E+01 2.27501E+01 0.00000E+00
 -1      2586 5.62179E+01 2.34046E+01 0.00000E+00
 -1      2587 5.68180E+01 2.40063E+01 0.00000E+00
 -1      2588 5.44915E+01 3.00256E+01 0.00000E+00
 -1      2589 5.07400E+01 3.30940E+01 0.00000E+00
 -1      2590 5.59907E+01 2.09394E+01 0.00000E+00
 -1      2591 5.61950E+01 2.58445E+01 0.00000E+00
 -1      2592 5.55543E+01 1.86866E+01 0.00000E+00
 -1      2593 1.43586E+02 6.56853E+00 0.00000E+00
 -1      2594 1.43419E+02 7.72713E+00 0.00000E+00
 -1      2595 4.64510E+01 3.44084E+01 0.00000E+00
 -1      2596 1.42758E+02 4.35929E+01 0.00000E+00
 -1      2597 1.43241E+02 4.17323E+01 0.00000E+00
 -1      2598 1.41942E+02 4.09948E+01 0.00000E+00
 -1      2599 1.41414E+02 4.35342E+01 0.00000E+00
 -1      2600 4.40260E+01 3.44528E+01 0.00000E+00
 -1      2601 7.70475E+00 8.23231E+00 0.00000E+00
 -1      2602 5.44675E+01 1.65595E+01 0.00000E+00
 -1      2603 3.60677E+01 2.87743E+01 0.00000E+00
 -1      2604 5.55866E+01 2.80467E+01 0.00000E+00
 -1      2605 3.45000E+01 2.22136E+01 0.00000E+00
 -1      2606 3.48951E+01 2.68212E+01 0.00000E+00
 -1      2607 3.44366E+01 2.46167E+01 0.00000E+00
 -1      2608 3.92831E+01 3.24471E+01 0.00000E+00
 -1      2609 3.83700E+01 3.26838E+01 0.00000E+00
 -1      2610 3.96579E+01 3.32486E+01 0.00000E+00
 -1      2611 3.56048E+01 1.76669E+01 0.00000E+00
 -1      2612 4.11939E+01 1.26902E+01 0.00000E+00
 -1      2613 4.17268E+01 3.37004E+01 0.00000E+00
 -1      2614 4.08655E+01 3.38947E+01 0.00000E+00
 -1      2615 4.20212E+01 3.45832E+01 0.00000E+00
 -1      2616 3.74562E+01 3.07869E+01 0.00000E+00
 -1      2617 6.55950E+00 3.99453E+01 0.00000E+00
 -1      2618 3.87294E+01 1.39705E+01 0.00000E+00
 -1      2619 3.49010E+01 1.99292E+01 0.00000E+00
 -1      2620 5.28293E+01 3.18522E+01 0.00000E+00
 -1      2621 1.42120E+02 8.46463E+00 0.00000E+00
 -1      2622 1.40664E+02 4.22352E+01 0.00000E+00
 -1      2623 9.09300E+00 1.98250E+01 0.00000E+00
 -1      2624 9.09300E+00 2.12750E+01 0.00000E+00
 -1      2625 9.09300E+00 2.27500E+01 0.00000E+00
 -1      2626 9.09300E+00 2.42250E+01 0.00000E+00
 -1      2627 1.03920E+01 2.20250E+01 0.00000E+00
 -1      2628 9.09300E+00 1.39375E+01 0.00000E+00
 -1      2629 9.09300E+00 1.54125E+01 0.00000E+00
 -1      2630 9.09300E+00 1.09875E+01 0.00000E+00
 -1      2631 9.09300E+00 1.24625E+01 0.00000E+00
 -1      2632 1.03920E+01 1.32000E+01 0.00000E+00
 -1      2633 1.22850E+01 7.90325E+00 0.00000E+00
 -1      2634 1.07850E+01 7.90325E+00 0.00000E+00
 -1      2635 5.48660E+01 1.54817E+01 0.00000E+00
 -1      2636 5.56165E+01 1.65651E+01 0.00000E+00
 -1      2637 1.52850E+01 7.90325E+00 0.00000E+00
 -1      2638 1.37850E+01 7.90325E+00 0.00000E+00
 -1      2639 1.30350E+01 9.20225E+00 0.00000E+00
 -1      2640 8.91450E+00 8.42712E+00 0.00000E+00
 -1      2641 1.44000E+01 4.09070E+01 0.00000E+00
 -1      2642 1.59000E+01 4.09070E+01 0.00000E+00
 -1      2643 1.74000E+01 4.09070E+01 0.00000E+00
 -1      2644 1.89000E+01 4.09070E+01 0.00000E+00
 -1      2645 1.66500E+01 3.96080E+01 0.00000E+00
 -1      2646 2.04000E+01 4.09070E+01 0.00000E+00
 -1      2647 2.19000E+01 4.09070E+01 0.00000E+00
 -1      2648 1.96500E+01 3.96080E+01 0.00000E+00
 -1      2649 2.34000E+01 4.09070E+01 0.00000E+00
 -1      2650 2.49000E+01 4.09070E+01 0.00000E+00
 -1      2651 2.26500E+01 3.96080E+01 0.00000E+00
 -1      2652 2.64000E+01 4.09070E+01 0.00000E+00
 -1      2653 2.79000E+01 4.09070E+01 0.00000E+00
 -1      2654 2.56500E+01 3.96080E+01 0.00000E+00
 -1      2655 2.94000E+01 4.09070E+01 0.00000E+00
 -1      2656 3.09000E+01 4.09070E+01 0.00000E+00
 -1      2657 2.86500E+01 3.96080E+01 0.00000E+00
 -1      2658 3.24000E+01 4.09070E+01 0.00000E+00
 -1      2659 3.39000E+01 4.09070E+01 0.00000E+00
 -1      2660 3.16500E+01 3.96080E+01 0.00000E+00
 -1      2661 3.54000E+01 4.09070E+01 0.00000E+00
 -1      2662 3.69000E+01 4.09070E+01 0.00000E+00
 -1      2663 3.46500E+01 3.96080E+01 0.00000E+00
 -1      2664 3.84000E+01 4.09070E+01 0.00000E+00
 -1      2665 3.99000E+01 4.09070E+01 0.00000E+00
 -1      2666 3.76500E+01 3.96080E+01 0.00000E+00
 -1      2667 4.14000E+01 4.09070E+01 0.00000E+00
 -1      2668 4.29000E+01 4.09070E+01 0.00000E+00
 -1      2669 4.06500E+01 3.96080E+01 0.00000E+00
 -1      2670 4.44000E+01 4.09070E+01 0.00000E+00
 -1      2671 4.59000E+01 4.09070E+01 0.00000E+00
 -1      2672 4.36500E+01 3.96080E+01 0.00000E+00
 -1      2673 4.74000E+01 4.09070E+01 0.00000E+00
 -1      2674 4.89000E+01 4.09070E+01 0.00000E+00
 -1      2675 4.66500E+01 3.96080E+01 0.00000E+00
 -1      2676 5.04000E+01 4.09070E+01 0.00000E+00
 -1      2677 5.19000E+01 4.09070E+01 0.00000E+00
 -1      2678 4.96500E+01 3.96080E+01 0.00000E+00
 -1      2679 5.34000E+01 4.09070E+01 0.00000E+00
 -1      2680 5.49000E+01 4.09070E+01 0.00000E+00
 -1      2681 5.26500E+01 3.96080E+01 0.00000E+00
 -1      2682 5.64000E+01 4.09070E+01 0.00000E+00
 -1      2683 5.79000E+01 4.09070E+01 0.00000E+00
 -1      2684 5.56500E+01 3.96080E+01 0.00000E+00
 -1      2685 5.94000E+01 4.09070E+01 0.00000E+00
 -1      2686 6.09000E+01 4.09070E+01 0.00000E+00
 -1      2687 5.86500E+01 3.96080E+01 0.00000E+00
 -1      2688 6.24000E+01 4.09070E+01 0.00000E+00
 -1      2689 6.39000E+01 4.09070E+01 0.00000E+00
 -1      2690 6.16500E+01 3.96080E+01 0.00000E+00
 -1      2691 6.54000E+01 4.09070E+01 0.00000E+00
 -1      2692 6.69000E+01 4.09070E+01 0.00000E+00
 -1      2693 6.46500E+01 3.96080E+01 0.00000E+00
 -1      2694 6.84000E+01 4.09070E+01 0.00000E+00
 -1      2695 6.99000E+01 4.09070E+01 0.00000E+00
 -1      2696 6.76500E+01 3.96080E+01 0.00000E+00
 -1      2697 7.14000E+01 4.09070E+01 0.00000E+00
 -1      2698 7.29000E+01 4.09070E+01 0.00000E+00
 -1      2699 7.06500E+01 3.96080E+01 0.00000E+00
 -1      2700 7.44000E+01 4.09070E+01 0.00000E+00
 -1      2701 7.59000E+01 4.09070E+01 0.00000E+00
 -1      2702 7.36500E+01 3.96080E+01 0.00000E+00
 -1      2703 7.74000E+01 4.09070E+01 0.00000E+00
 -1      2704 7.89000E+01 4.09070E+01 0.00000E+00
 -1      2705 7.66500E+01 3.96080E+01 0.00000E+00
 -1      2706 8.04000E+01 4.09070E+01 0.00000E+00
 -1      2707 8.19000E+01 4.09070E+01 0.00000E+00
 -1      2708 7.96500E+01 3.96080E+01 0.00000E+00
 -1      2709 8.34000E+01 4.09070E+01 0.00000E+00
 -1      2710 8.49000E+01 4.09070E+01 0.00000E+00
 -1      2711 8.26500E+01 3.96080E+01 0.00000E+00
 -1      2712 8.64000E+01 4.09070E+01 0.00000E+00
 -1      2713 8.79000E+01 4.09070E+01 0.00000E+00
 -1      2714 8.56500E+01 3.96080E+01 0.00000E+00
 -1      2715 8.94000E+01 4.09070E+01 0.00000E+00
 -1      2716 9.09000E+01 4.09070E+01 0.00000E+00
 -1      2717 8.86500E+01 3.96080E+01 0.00000E+00
 -1      2718 9.24000E+01 4.09070E+01 0.00000E+00
 -1      2719 9.39000E+01 4.09070E+01 0.00000E+00
 -1      2720 9.16500E+01 3.96080E+01 0.00000E+00
 -1      2721 9.54000E+01 4.09070E+01 0.00000E+00
 -1      2722 9.69000E+01 4.09070E+01 0.00000E+00
 -1      2723 9.46500E+01 3.96080E+01 0.00000E+00
 -1      2724 9.84000E+01 4.09070E+01 0.00000E+00
 -1      2725 9.99000E+01 4.09070E+01 0.00000E+00
 -1      2726 9.76500E+01 3.96080E+01 0.00000E+00
 -1      2727 1.01400E+02 4.09070E+01 0.00000E+00
 -1      2728 1.02900E+02 4.09070E+01 0.00000E+00
 -1      2729 1.00650E+02 3.96080E+01 0.00000E+00
 -1      2730 1.04400E+02 4.09070E+01 0.00000E+00
 -1      2731 1.05900E+02 4.09070E+01 0.00000E+00
 -1      2732 1.03650E+02 3.96080E+01 0.00000E+00
 -1      2733 1.07400E+02 4.09070E+01 0.00000E+00
 -1      2734 1.08900E+02 4.09070E+01 0.00000E+00
 -1      2735 1.06650E+02 3.96080E+01 0.00000E+00
 -1      2736 1.10400E+02 4.09070E+01 0.00000E+00
 -1      2737 1.11900E+02 4.09070E+01 0.00000E+00
 -1      2738 1.09650E+02 3.96080E+01 0.00000E+00
 -1      2739 1.13400E+02 4.09070E+01 0.00000E+00
 -1      2740 1.14900E+02 4.09070E+01 0.00000E+00
 -1      2741 1.12650E+02 3.96080E+01 0.00000E+00
 -1      2742 1.16400E+02 4.09070E+01 0.00000E+00
 -1      2743 1.17900E+02 4.09070E+01 0.00000E+00
 -1      2744 1.15650E+02 3.96080E+01 0.00000E+00
 -1      2745 1.19400E+02 4.09070E+01 0.00000E+00
 -1      2746 1.20900E+02 4.09070E+01 0.00000E+00
 -1      2747 1.18650E+02 3.96080E+01 0.00000E+00
 -1      2748 1.22400E+02 4.09070E+01 0.00000E+00
 -1      2749 1.23900E+02 4.09070E+01 0.00000E+00
 -1      2750 1.21650E+02 3.96080E+01 0.00000E+00
 -1      2751 1.25400E+02 4.09070E+01 0.00000E+00
 -1      2752 1.26900E+02 4.09070E+01 0.00000E+00
 -1      2753 1.24650E+02 3.96080E+01 0.00000E+00
 -1      2754 1.28400E+02 4.09070E+01 0.00000E+00
 -1      2755 1.29900E+02 4.09070E+01 0.00000E+00
 -1      2756 1.27650E+02 3.96080E+01 0.00000E+00
 -1      2757 1.31400E+02 4.09070E+01 0.00000E+00
 -1      2758 1.32900E+02 4.09070E+01 0.00000E+00
 -1      2759 1.30650E+02 3.96080E+01 0.00000E+00
 -1      2760 1.34400E+02 4.09070E+01 0.00000E+00
 -1      2761 1.35900E+02 4.09070E+01 0.00000E+00
 -1      2762 1.33650E+02 3.96080E+01 0.00000E+00
 -1      2763 1.37400E+02 4.09070E+01 0.00000E+00
 -1      2764 1.38900E+02 4.09070E+01 0.00000E+00
 -1      2765 1.36650E+02 3.96080E+01 0.00000E+00
 -1      2766 4.45545E+01 3.52574E+01 0.00000E+00
 -1      2767 4.34110E+01 3.51934E+01 0.00000E+00
 -1      2768 4.71711E+01 3.52922E+01 0.00000E+00
 -1      2769 4.58897E+01 3.54006E+01 0.00000E+00
 -1      2770 2.12850E+01 7.90325E+00 0.00000E+00
 -1      2771 1.97850E+01 7.90325E+00 0.00000E+00
 -1      2772 3.02850E+01 7.90325E+00 0.00000E+00
 -1      2773 2.87850E+01 7.90325E+00 0.00000E+00
 -1      2774 3.32850E+01 7.90325E+00 0.00000E+00
 -1      2775 3.17850E+01 7.90325E+00 0.00000E+00
 -1      2776 3.10350E+01 9.20225E+00 0.00000E+00
 -1      2777 3.62850E+01 7.90325E+00 0.00000E+00
 -1      2778 3.47850E+01 7.90325E+00 0.00000E+00
 -1      2779 3.40350E+01 9.20225E+00 0.00000E+00
 -1      2780 3.92850E+01 7.90325E+00 0.00000E+00
 -1      2781 3.77850E+01 7.90325E+00 0.00000E+00
 -1      2782 3.70350E+01 9.20225E+00 0.00000E+00
 -1      2783 4.22850E+01 7.90325E+00 0.00000E+00
 -1      2784 4.07850E+01 7.90325E+00 0.00000E+00
 -1      2785 4.00350E+01 9.20225E+00 0.00000E+00
 -1      2786 4.61254E+01 8.36103E+00 0.00000E+00
 -1      2787 4.46254E+01 8.36103E+00 0.00000E+00
 -1      2788 4.76254E+01 8.36103E+00 0.00000E+00
 -1      2789 5.12850E+01 7.79695E+00 0.00000E+00
 -1      2790 4.97850E+01 7.79695E+00 0.00000E+00
 -1      2791 5.42850E+01 7.79695E+00 0.00000E+00
 -1      2792 5.27850E+01 7.79695E+00 0.00000E+00
 -1      2793 5.20350E+01 8.98965E+00 0.00000E+00
 -1      2794 5.72850E+01 7.79695E+00 0.00000E+00
 -1      2795 5.57850E+01 7.79695E+00 0.00000E+00
 -1      2796 5.50350E+01 8.98965E+00 0.00000E+00
 -1      2797 6.02850E+01 7.79695E+00 0.00000E+00
 -1      2798 5.87850E+01 7.79695E+00 0.00000E+00
 -1      2799 5.80350E+01 8.98965E+00 0.00000E+00
 -1      2800 6.32850E+01 7.79695E+00 0.00000E+00
 -1      2801 6.17850E+01 7.79695E+00 0.00000E+00
 -1      2802 6.10350E+01 8.98965E+00 0.00000E+00
 -1      2803 6.62850E+01 7.79695E+00 0.00000E+00
 -1      2804 6.47850E+01 7.79695E+00 0.00000E+00
 -1      2805 6.40350E+01 8.98965E+00 0.00000E+00
 -1      2806 6.92850E+01 7.79695E+00 0.00000E+00
 -1      2807 6.77850E+01 7.79695E+00 0.00000E+00
 -1      2808 6.70350E+01 8.98965E+00 0.00000E+00
 -1      2809 7.22850E+01 7.79695E+00 0.00000E+00
 -1      2810 7.07850E+01 7.79695E+00 0.00000E+00
 -1      2811 7.00350E+01 8.98965E+00 0.00000E+00
 -1      2812 7.52850E+01 7.79695E+00 0.00000E+00
 -1      2813 7.37850E+01 7.79695E+00 0.00000E+00
 -1      2814 7.30350E+01 8.98965E+00 0.00000E+00
 -1      2815 7.82850E+01 7.79695E+00 0.00000E+00
 -1      2816 7.67850E+01 7.79695E+00 0.00000E+00
 -1      2817 7.60350E+01 8.98965E+00 0.00000E+00
 -1      2818 8.12850E+01 7.79695E+00 0.00000E+00
 -1      2819 7.97850E+01 7.79695E+00 0.00000E+00
 -1      2820 7.90350E+01 8.98965E+00 0.00000E+00
 -1      2821 8.42850E+01 7.79695E+00 0.00000E+00
 -1      2822 8.27850E+01 7.79695E+00 0.00000E+00
 -1      2823 8.20350E+01 8.98965E+00 0.00000E+00
 -1      2824 8.72850E+01 7.79695E+00 0.00000E+00
 -1      2825 8.57850E+01 7.79695E+00 0.00000E+00
 -1      2826 8.50350E+01 8.98965E+00 0.00000E+00
 -1      2827 9.02850E+01 7.79695E+00 0.00000E+00
 -1      2828 8.87850E+01 7.79695E+00 0.00000E+00
 -1      2829 8.80350E+01 8.98965E+00 0.00000E+00
 -1      2830 9.32850E+01 7.79695E+00 0.00000E+00
 -1      2831 9.17850E+01 7.79695E+00 0.00000E+00
 -1      2832 9.10350E+01 8.98965E+00 0.00000E+00
 -1      2833 9.62850E+01 7.79695E+00 0.00000E+00
 -1      2834 9.47850E+01 7.79695E+00 0.00000E+00
 -1      2835 9.40350E+01 8.98965E+00 0.00000E+00
 -1      2836 9.92850E+01 7.79695E+00 0.00000E+00
 -1      2837 9.77850E+01 7.79695E+00 0.00000E+00
 -1      2838 9.70350E+01 8.98965E+00 0.00000E+00
 -1      2839 1.02285E+02 7.79695E+00 0.00000E+00
 -1      2840 1.00785E+02 7.79695E+00 0.00000E+00
 -1      2841 1.00035E+02 8.98965E+00 0.00000E+00
 -1      2842 1.05285E+02 7.79695E+00 0.00000E+00
 -1      2843 1.03785E+02 7.79695E+00 0.00000E+00
 -1      2844 1.03035E+02 8.98965E+00 0.00000E+00
 -1      2845 1.08285E+02 7.79695E+00 0.00000E+00
 -1      2846 1.06785E+02 7.79695E+00 0.00000E+00
 -1      2847 1.06035E+02 8.98965E+00 0.00000E+00
 -1      2848 1.11285E+02 7.79695E+00 0.00000E+00
 -1      2849 1.09785E+02 7.79695E+00 0.00000E+00
 -1      2850 1.09035E+02 8.98965E+00 0.00000E+00
 -1      2851 1.14285E+02 7.79695E+00 0.00000E+00
 -1      2852 1.12785E+02 7.79695E+00 0.00000E+00
 -1      2853 1.12035E+02 8.98965E+00 0.00000E+00
 -1      2854 1.17285E+02 7.79695E+00 0.00000E+00
 -1      2855 1.15785E+02 7.79695E+00 0.00000E+00
 -1      2856 1.15035E+02 8.98965E+00 0.00000E+00
 -1      2857 1.20285E+02 7.79695E+00 0.00000E+00
 -1      2858 1.18785E+02 7.79695E+00 0.00000E+00
 -1      2859 1.18035E+02 8.98965E+00 0.00000E+00
 -1      2860 1.23285E+02 7.79695E+00 0.00000E+00
 -1      2861 1.21785E+02 7.79695E+00 0.00000E+00
 -1      2862 1.21035E+02 8.98965E+00 0.00000E+00
 -1      2863 1.26285E+02 7.79695E+00 0.00000E+00
 -1      2864 1.24785E+02 7.79695E+00 0.00000E+00
 -1      2865 1.24035E+02 8.98965E+00 0.00000E+00
 -1      2866 1.29285E+02 7.79695E+00 0.00000E+00
 -1      2867 1.27785E+02 7.79695E+00 0.00000E+00
 -1      2868 1.27035E+02 8.98965E+00 0.00000E+00
 -1      2869 1.32285E+02 7.79695E+00 0.00000E+00
 -1      2870 1.30785E+02 7.79695E+00 0.00000E+00
 -1      2871 1.30035E+02 8.98965E+00 0.00000E+00
 -1      2872 1.35285E+02 7.79695E+00 0.00000E+00
 -1      2873 1.33785E+02 7.79695E+00 0.00000E+00
 -1      2874 1.33035E+02 8.98965E+00 0.00000E+00
 -1      2875 1.38285E+02 7.79695E+00 0.00000E+00
 -1      2876 1.36785E+02 7.79695E+00 0.00000E+00
 -1      2877 1.36035E+02 8.98965E+00 0.00000E+00
 -1      2878 1.40953E+02 8.13079E+00 0.00000E+00
 -1      2879 1.39453E+02 8.13079E+00 0.00000E+00
 -1      2880 1.38703E+02 9.32349E+00 0.00000E+00
 -1      2881 1.41038E+02 9.99116E+00 0.00000E+00
 -1      2882 1.40907E+02 2.42875E+01 0.00000E+00
 -1      2883 1.40907E+02 2.28125E+01 0.00000E+00
 -1      2884 1.39914E+02 4.09362E+01 0.00000E+00
 -1      2885 1.40928E+02 4.09655E+01 0.00000E+00
 -1      2886 1.39164E+02 3.96372E+01 0.00000E+00
 -1      2887 1.40907E+02 1.83875E+01 0.00000E+00
 -1      2888 1.40907E+02 1.69125E+01 0.00000E+00
 -1      2889 1.40907E+02 2.72375E+01 0.00000E+00
 -1      2890 1.40907E+02 2.57625E+01 0.00000E+00
 -1      2891 1.39608E+02 2.50250E+01 0.00000E+00
 -1      2892 1.40907E+02 2.13375E+01 0.00000E+00
 -1      2893 1.40907E+02 1.98625E+01 0.00000E+00
 -1      2894 1.39608E+02 1.91250E+01 0.00000E+00
 -1      2895 1.39608E+02 2.20750E+01 0.00000E+00
 -1      2896 5.62821E+01 1.78761E+01 0.00000E+00
 -1      2897 5.66184E+01 1.89199E+01 0.00000E+00
 -1      2898 1.40907E+02 3.01375E+01 0.00000E+00
 -1      2899 1.40907E+02 2.86875E+01 0.00000E+00
 -1      2900 1.39608E+02 2.79500E+01 0.00000E+00
 -1      2901 1.40907E+02 3.30875E+01 0.00000E+00
 -1      2902 1.40907E+02 3.16125E+01 0.00000E+00
 -1      2903 1.39608E+02 3.08750E+01 0.00000E+00
 -1      2904 1.40907E+02 3.60375E+01 0.00000E+00
 -1      2905 1.40907E+02 3.45625E+01 0.00000E+00
 -1      2906 1.39608E+02 3.38250E+01 0.00000E+00
 -1      2907 1.82850E+01 7.90325E+00 0.00000E+00
 -1      2908 1.67850E+01 7.90325E+00 0.00000E+00
 -1      2909 1.60350E+01 9.20225E+00 0.00000E+00
 -1      2910 1.90350E+01 9.20225E+00 0.00000E+00
 -1      2911 5.67118E+01 2.02711E+01 0.00000E+00
 -1      2912 5.68119E+01 2.14801E+01 0.00000E+00
 -1      2913 5.56642E+01 3.01119E+01 0.00000E+00
 -1      2914 5.50275E+01 3.10723E+01 0.00000E+00
 -1      2915 8.85168E+00 4.05347E+01 0.00000E+00
 -1      2916 1.02152E+01 4.07987E+01 0.00000E+00
 -1      2917 4.00709E+01 1.20627E+01 0.00000E+00
 -1      2918 4.14949E+01 1.14394E+01 0.00000E+00
 -1      2919 3.44068E+01 1.78814E+01 0.00000E+00
 -1      2920 3.49083E+01 1.66689E+01 0.00000E+00
 -1      2921 4.85684E+01 1.12450E+01 0.00000E+00
 -1      2922 4.97167E+01 1.15466E+01 0.00000E+00
 -1      2923 2.72850E+01 7.90325E+00 0.00000E+00
 -1      2924 2.57850E+01 7.90325E+00 0.00000E+00
 -1      2925 2.80350E+01 9.20225E+00 0.00000E+00
 -1      2926 2.42850E+01 7.90325E+00 0.00000E+00
 -1      2927 2.27850E+01 7.90325E+00 0.00000E+00
 -1      2928 2.50350E+01 9.20225E+00 0.00000E+00
 -1      2929 1.15576E+01 4.08528E+01 0.00000E+00
 -1      2930 1.30576E+01 4.08528E+01 0.00000E+00
 -1      2931 1.38076E+01 3.95538E+01 0.00000E+00
 -1      2932 1.11228E+01 3.94455E+01 0.00000E+00
 -1      2933 3.57403E+01 2.99295E+01 0.00000E+00
 -1      2934 3.48909E+01 2.90123E+01 0.00000E+00
 -1      2935 3.76172E+01 1.33613E+01 0.00000E+00
 -1      2936 3.86576E+01 1.27044E+01 0.00000E+00
 -1      2937 9.09300E+00 1.68813E+01 0.00000E+00
 -1      2938 9.09300E+00 1.83563E+01 0.00000E+00
 -1      2939 1.03920E+01 1.90812E+01 0.00000E+00
 -1      2940 1.03920E+01 1.61437E+01 0.00000E+00
 -1      2941 3.41580E+01 2.76194E+01 0.00000E+00
 -1      2942 3.38349E+01 2.65835E+01 0.00000E+00
 -1      2943 3.37933E+01 2.02602E+01 0.00000E+00
 -1      2944 3.39956E+01 1.92104E+01 0.00000E+00
 -1      2945 3.56638E+01 1.52717E+01 0.00000E+00
 -1      2946 3.64552E+01 1.43581E+01 0.00000E+00
 -1      2947 7.48818E+00 3.88019E+01 0.00000E+00
 -1      2948 9.09300E+00 3.15875E+01 0.00000E+00
 -1      2949 9.09300E+00 3.30625E+01 0.00000E+00
 -1      2950 5.39494E+01 3.21382E+01 0.00000E+00
 -1      2951 5.29240E+01 3.30044E+01 0.00000E+00
 -1      2952 3.36995E+01 2.54149E+01 0.00000E+00
 -1      2953 3.35641E+01 2.42464E+01 0.00000E+00
 -1      2954 3.29625E+01 2.62132E+01 0.00000E+00
 -1      2955 1.41192E+02 3.96958E+01 0.00000E+00
 -1      2956 3.68184E+01 3.21203E+01 0.00000E+00
 -1      2957 3.62794E+01 3.10249E+01 0.00000E+00
 -1      2958 3.51025E+01 3.12629E+01 0.00000E+00
 -1      2959 5.67506E+01 2.79582E+01 0.00000E+00
 -1      2960 5.62922E+01 2.89767E+01 0.00000E+00
 -1      2961 5.70377E+01 2.53498E+01 0.00000E+00
 -1      2962 5.68877E+01 2.65336E+01 0.00000E+00
 -1      2963 4.95272E+01 3.44658E+01 0.00000E+00
 -1      2964 4.85554E+01 3.48810E+01 0.00000E+00
 -1      2965 5.16548E+01 3.37146E+01 0.00000E+00
 -1      2966 5.05910E+01 3.40902E+01 0.00000E+00
 -1      2967 5.04420E+01 3.50864E+01 0.00000E+00
 -1      2968 3.33958E+01 2.27293E+01 0.00000E+00
 -1      2969 3.35945E+01 2.14947E+01 0.00000E+00
 -1      2970 3.26890E+01 2.07759E+01 0.00000E+00
 -1      2971 9.09300E+00 3.45313E+01 0.00000E+00
 -1      2972 9.09300E+00 3.60000E+01 0.00000E+00
 -1      2973 1.03920E+01 3.37938E+01 0.00000E+00
 -1      2974 1.03920E+01 2.49750E+01 0.00000E+00
 -1      2975 9.09300E+00 2.57000E+01 0.00000E+00
 -1      2976 9.09300E+00 2.71750E+01 0.00000E+00
 -1      2977 9.66450E+00 9.72612E+00 0.00000E+00
 -1      2978 5.66807E+01 1.67983E+01 0.00000E+00
 -1      2979 5.74119E+01 2.20818E+01 0.00000E+00
 -1      2980 5.68283E+01 3.00234E+01 0.00000E+00
 -1      2981 5.79835E+01 2.40410E+01 0.00000E+00
 -1      2982 5.75106E+01 2.46954E+01 0.00000E+00
 -1      2983 5.82032E+01 2.53845E+01 0.00000E+00
 -1      2984 1.41192E+02 3.82207E+01 0.00000E+00
 -1      2985 1.39608E+02 1.61875E+01 0.00000E+00
 -1      2986 1.40907E+02 1.54500E+01 0.00000E+00
 -1      2987 1.40907E+02 1.39875E+01 0.00000E+00
 -1      2988 4.52746E+01 3.61412E+01 0.00000E+00
 -1      2989 5.27750E+01 3.40006E+01 0.00000E+00
 -1      2990 2.20350E+01 9.20225E+00 0.00000E+00
 -1      2991 4.38754E+01 9.66003E+00 0.00000E+00
 -1      2992 4.83754E+01 9.55373E+00 0.00000E+00
 -1      2993 1.40973E+02 1.27206E+01 0.00000E+00
 -1      2994 1.40973E+02 1.12581E+01 0.00000E+00
 -1      2995 1.39805E+02 1.09242E+01 0.00000E+00
 -1      2996 1.39674E+02 1.34581E+01 0.00000E+00
 -1      2997 3.38307E+01 2.87746E+01 0.00000E+00
 -1      2998 1.39893E+02 3.74832E+01 0.00000E+00
 -1      2999 5.51222E+01 3.22245E+01 0.00000E+00
 -1      3000 3.44658E+01 1.54861E+01 0.00000E+00
 -1      3001 3.32990E+01 1.82123E+01 0.00000E+00
 -1      3002 3.89586E+01 1.14536E+01 0.00000E+00
 -1      3003 5.10681E+01 1.22289E+01 0.00000E+00
 -1      3004 5.19790E+01 1.29662E+01 0.00000E+00
 -1      3005 3.99523E+01 3.41314E+01 0.00000E+00
 -1      3006 3.90392E+01 3.43681E+01 0.00000E+00
 -1      3007 4.02468E+01 3.50142E+01 0.00000E+00
 -1      3008 4.25497E+01 3.53877E+01 0.00000E+00
 -1      3009 4.16885E+01 3.55821E+01 0.00000E+00
 -1      3010 4.30783E+01 3.61923E+01 0.00000E+00
 -1      3011 8.78718E+00 3.80644E+01 0.00000E+00
 -1      3012 5.07117E+01 1.12487E+01 0.00000E+00
 -1      3013 4.79940E+01 3.58732E+01 0.00000E+00
 -1      3014 3.63833E+01 1.30920E+01 0.00000E+00
 -1      3015 1.09635E+01 1.04636E+01 0.00000E+00
 -1      3016 3.75679E+01 3.37233E+01 0.00000E+00
 -1      3017 3.71931E+01 3.29218E+01 0.00000E+00
 -1      3018 3.60163E+01 3.31598E+01 0.00000E+00
 -1      3019 9.09300E+00 2.86437E+01 0.00000E+00
 -1      3020 9.09300E+00 3.01187E+01 0.00000E+00
 -1      3021 1.03920E+01 3.08563E+01 0.00000E+00
 -1      3022 1.03920E+01 2.79188E+01 0.00000E+00
 -1      3023 4.20765E+01 1.06346E+01 0.00000E+00
 -1      3024 4.29052E+01 1.03230E+01 0.00000E+00
 -1      3025 5.74396E+01 1.94605E+01 0.00000E+00
 -1      3026 5.42973E+01 1.42862E+01 0.00000E+00
 -1      3027 5.54464E+01 1.42918E+01 0.00000E+00
 -1      3028 5.75933E+01 2.74636E+01 0.00000E+00
 -1      3029 5.33863E+01 1.35489E+01 0.00000E+00
 -1      3030 5.74113E+01 1.56029E+01 0.00000E+00
 -1      3031 5.80769E+01 1.69139E+01 0.00000E+00
 -1      3032 1.16910E+01 1.24625E+01 0.00000E+00
 -1      3033 1.16910E+01 1.39375E+01 0.00000E+00
 -1      3034 1.59000E+01 3.83090E+01 0.00000E+00
 -1      3035 1.74000E+01 3.83090E+01 0.00000E+00
 -1      3036 1.89000E+01 3.83090E+01 0.00000E+00
 -1      3037 2.04000E+01 3.83090E+01 0.00000E+00
 -1      3038 1.81500E+01 3.70100E+01 0.00000E+00
 -1      3039 2.19000E+01 3.83090E+01 0.00000E+00
 -1      3040 2.34000E+01 3.83090E+01 0.00000E+00
 -1      3041 2.11500E+01 3.70100E+01 0.00000E+00
 -1      3042 2.49000E+01 3.83090E+01 0.00000E+00
 -1      3043 2.64000E+01 3.83090E+01 0.00000E+00
 -1      3044 2.41500E+01 3.70100E+01 0.00000E+00
 -1      3045 2.79000E+01 3.83090E+01 0.00000E+00
 -1      3046 2.94000E+01 3.83090E+01 0.00000E+00
 -1      3047 2.71500E+01 3.70100E+01 0.00000E+00
 -1      3048 3.09000E+01 3.83090E+01 0.00000E+00
 -1      3049 3.24000E+01 3.83090E+01 0.00000E+00
 -1      3050 3.01500E+01 3.70100E+01 0.00000E+00
 -1      3051 3.39000E+01 3.83090E+01 0.00000E+00
 -1      3052 3.54000E+01 3.83090E+01 0.00000E+00
 -1      3053 3.31500E+01 3.70100E+01 0.00000E+00
 -1      3054 3.99000E+01 3.84991E+01 0.00000E+00
 -1      3055 4.14000E+01 3.84991E+01 0.00000E+00
 -1      3056 4.30448E+01 3.78030E+01 0.00000E+00
 -1      3057 4.45448E+01 3.78030E+01 0.00000E+00
 -1      3058 4.58799E+01 3.79462E+01 0.00000E+00
 -1      3059 4.73799E+01 3.79462E+01 0.00000E+00
 -1      3060 4.87641E+01 3.75350E+01 0.00000E+00
 -1      3061 5.02641E+01 3.75350E+01 0.00000E+00
 -1      3062 5.49000E+01 3.83090E+01 0.00000E+00
 -1      3063 5.64000E+01 3.83090E+01 0.00000E+00
 -1      3064 5.79000E+01 3.83090E+01 0.00000E+00
 -1      3065 5.94000E+01 3.83090E+01 0.00000E+00
 -1      3066 5.71500E+01 3.70100E+01 0.00000E+00
 -1      3067 6.09000E+01 3.83090E+01 0.00000E+00
 -1      3068 6.24000E+01 3.83090E+01 0.00000E+00
 -1      3069 6.01500E+01 3.70100E+01 0.00000E+00
 -1      3070 6.39000E+01 3.83090E+01 0.00000E+00
 -1      3071 6.54000E+01 3.83090E+01 0.00000E+00
 -1      3072 6.31500E+01 3.70100E+01 0.00000E+00
 -1      3073 6.69000E+01 3.83090E+01 0.00000E+00
 -1      3074 6.84000E+01 3.83090E+01 0.00000E+00
 -1      3075 6.61500E+01 3.70100E+01 0.00000E+00
 -1      3076 6.99000E+01 3.83090E+01 0.00000E+00
 -1      3077 7.14000E+01 3.83090E+01 0.00000E+00
 -1      3078 6.91500E+01 3.70100E+01 0.00000E+00
 -1      3079 7.29000E+01 3.83090E+01 0.00000E+00
 -1      3080 7.44000E+01 3.83090E+01 0.00000E+00
 -1      3081 7.21500E+01 3.70100E+01 0.00000E+00
 -1      3082 7.59000E+01 3.83090E+01 0.00000E+00
 -1      3083 7.74000E+01 3.83090E+01 0.00000E+00
 -1      3084 7.51500E+01 3.70100E+01 0.00000E+00
 -1      3085 7.89000E+01 3.83090E+01 0.00000E+00
 -1      3086 8.04000E+01 3.83090E+01 0.00000E+00
 -1      3087 7.81500E+01 3.70100E+01 0.00000E+00
 -1      3088 8.19000E+01 3.83090E+01 0.00000E+00
 -1      3089 8.34000E+01 3.83090E+01 0.00000E+00
 -1      3090 8.11500E+01 3.70100E+01 0.00000E+00
 -1      3091 8.49000E+01 3.83090E+01 0.00000E+00
 -1      3092 8.64000E+01 3.83090E+01 0.00000E+00
 -1      3093 8.41500E+01 3.70100E+01 0.00000E+00
 -1      3094 8.79000E+01 3.83090E+01 0.00000E+00
 -1      3095 8.94000E+01 3.83090E+01 0.00000E+00
 -1      3096 8.71500E+01 3.70100E+01 0.00000E+00
 -1      3097 9.09000E+01 3.83090E+01 0.00000E+00
 -1      3098 9.24000E+01 3.83090E+01 0.00000E+00
 -1      3099 9.01500E+01 3.70100E+01 0.00000E+00
 -1      3100 9.39000E+01 3.83090E+01 0.00000E+00
 -1      3101 9.54000E+01 3.83090E+01 0.00000E+00
 -1      3102 9.31500E+01 3.70100E+01 0.00000E+00
 -1      3103 9.69000E+01 3.83090E+01 0.00000E+00
 -1      3104 9.84000E+01 3.83090E+01 0.00000E+00
 -1      3105 9.61500E+01 3.70100E+01 0.00000E+00
 -1      3106 9.99000E+01 3.83090E+01 0.00000E+00
 -1      3107 1.01400E+02 3.83090E+01 0.00000E+00
 -1      3108 9.91500E+01 3.70100E+01 0.00000E+00
 -1      3109 1.02900E+02 3.83090E+01 0.00000E+00
 -1      3110 1.04400E+02 3.83090E+01 0.00000E+00
 -1      3111 1.02150E+02 3.70100E+01 0.00000E+00
 -1      3112 1.05900E+02 3.83090E+01 0.00000E+00
 -1      3113 1.07400E+02 3.83090E+01 0.00000E+00
 -1      3114 1.05150E+02 3.70100E+01 0.00000E+00
 -1      3115 1.08900E+02 3.83090E+01 0.00000E+00
 -1      3116 1.10400E+02 3.83090E+01 0.00000E+00
 -1      3117 1.08150E+02 3.70100E+01 0.00000E+00
 -1      3118 1.11900E+02 3.83090E+01 0.00000E+00
 -1      3119 1.13400E+02 3.83090E+01 0.00000E+00
 -1      3120 1.11150E+02 3.70100E+01 0.00000E+00
 -1      3121 1.14900E+02 3.83090E+01 0.00000E+00
 -1      3122 1.16400E+02 3.83090E+01 0.00000E+00
 -1      3123 1.14150E+02 3.70100E+01 0.00000E+00
 -1      3124 1.17900E+02 3.83090E+01 0.00000E+00
 -1      3125 1.19400E+02 3.83090E+01 0.00000E+00
 -1      3126 1.17150E+02 3.70100E+01 0.00000E+00
 -1      3127 1.20900E+02 3.83090E+01 0.00000E+00
 -1      3128 1.22400E+02 3.83090E+01 0.00000E+00
 -1      3129 1.20150E+02 3.70100E+01 0.00000E+00
 -1      3130 1.23900E+02 3.83090E+01 0.00000E+00
 -1      3131 1.25400E+02 3.83090E+01 0.00000E+00
 -1      3132 1.23150E+02 3.70100E+01 0.00000E+00
 -1      3133 1.26900E+02 3.83090E+01 0.00000E+00
 -1      3134 1.28400E+02 3.83090E+01 0.00000E+00
 -1      3135 1.26150E+02 3.70100E+01 0.00000E+00
 -1      3136 1.29900E+02 3.83090E+01 0.00000E+00
 -1      3137 1.31400E+02 3.83090E+01 0.00000E+00
 -1      3138 1.29150E+02 3.70100E+01 0.00000E+00
 -1      3139 1.32900E+02 3.83090E+01 0.00000E+00
 -1      3140 1.34400E+02 3.83090E+01 0.00000E+00
 -1      3141 1.32150E+02 3.70100E+01 0.00000E+00
 -1      3142 1.35900E+02 3.83090E+01 0.00000E+00
 -1      3143 1.37400E+02 3.83090E+01 0.00000E+00
 -1      3144 1.35150E+02 3.70100E+01 0.00000E+00
 -1      3145 5.40329E+01 3.47595E+01 0.00000E+00
 -1      3146 5.27637E+01 3.54697E+01 0.00000E+00
 -1      3147 5.81126E+01 2.99926E+01 0.00000E+00
 -1      3148 5.74846E+01 3.11278E+01 0.00000E+00
 -1      3149 3.17850E+01 1.05013E+01 0.00000E+00
 -1      3150 3.02850E+01 1.05013E+01 0.00000E+00
 -1      3151 5.57063E+01 1.10430E+01 0.00000E+00
 -1      3152 5.42063E+01 1.10430E+01 0.00000E+00
 -1      3153 6.17850E+01 1.02886E+01 0.00000E+00
 -1      3154 6.02850E+01 1.02886E+01 0.00000E+00
 -1      3155 6.47850E+01 1.02886E+01 0.00000E+00
 -1      3156 6.32850E+01 1.02886E+01 0.00000E+00
 -1      3157 6.25350E+01 1.15876E+01 0.00000E+00
 -1      3158 6.77850E+01 1.02886E+01 0.00000E+00
 -1      3159 6.62850E+01 1.02886E+01 0.00000E+00
 -1      3160 6.55350E+01 1.15876E+01 0.00000E+00
 -1      3161 7.07850E+01 1.02886E+01 0.00000E+00
 -1      3162 6.92850E+01 1.02886E+01 0.00000E+00
 -1      3163 6.85350E+01 1.15876E+01 0.00000E+00
 -1      3164 7.37850E+01 1.02886E+01 0.00000E+00
 -1      3165 7.22850E+01 1.02886E+01 0.00000E+00
 -1      3166 7.15350E+01 1.15876E+01 0.00000E+00
 -1      3167 7.67850E+01 1.02886E+01 0.00000E+00
 -1      3168 7.52850E+01 1.02886E+01 0.00000E+00
 -1      3169 7.45350E+01 1.15876E+01 0.00000E+00
 -1      3170 7.97850E+01 1.02886E+01 0.00000E+00
 -1      3171 7.82850E+01 1.02886E+01 0.00000E+00
 -1      3172 7.75350E+01 1.15876E+01 0.00000E+00
 -1      3173 8.27850E+01 1.02886E+01 0.00000E+00
 -1      3174 8.12850E+01 1.02886E+01 0.00000E+00
 -1      3175 8.05350E+01 1.15876E+01 0.00000E+00
 -1      3176 8.57850E+01 1.02886E+01 0.00000E+00
 -1      3177 8.42850E+01 1.02886E+01 0.00000E+00
 -1      3178 8.35350E+01 1.15876E+01 0.00000E+00
 -1      3179 8.87850E+01 1.02886E+01 0.00000E+00
 -1      3180 8.72850E+01 1.02886E+01 0.00000E+00
 -1      3181 8.65350E+01 1.15876E+01 0.00000E+00
 -1      3182 9.17850E+01 1.02886E+01 0.00000E+00
 -1      3183 9.02850E+01 1.02886E+01 0.00000E+00
 -1      3184 8.95350E+01 1.15876E+01 0.00000E+00
 -1      3185 9.47850E+01 1.02886E+01 0.00000E+00
 -1      3186 9.32850E+01 1.02886E+01 0.00000E+00
 -1      3187 9.25350E+01 1.15876E+01 0.00000E+00
 -1      3188 9.77850E+01 1.02886E+01 0.00000E+00
 -1      3189 9.62850E+01 1.02886E+01 0.00000E+00
 -1      3190 9.55350E+01 1.15876E+01 0.00000E+00
 -1      3191 1.00785E+02 1.02886E+01 0.00000E+00
 -1      3192 9.92850E+01 1.02886E+01 0.00000E+00
 -1      3193 9.85350E+01 1.15876E+01 0.00000E+00
 -1      3194 1.03785E+02 1.02886E+01 0.00000E+00
 -1      3195 1.02285E+02 1.02886E+01 0.00000E+00
 -1      3196 1.01535E+02 1.15876E+01 0.00000E+00
 -1      3197 1.06785E+02 1.02886E+01 0.00000E+00
 -1      3198 1.05285E+02 1.02886E+01 0.00000E+00
 -1      3199 1.04535E+02 1.15876E+01 0.00000E+00
 -1      3200 1.09785E+02 1.02886E+01 0.00000E+00
 -1      3201 1.08285E+02 1.02886E+01 0.00000E+00
 -1      3202 1.07535E+02 1.15876E+01 0.00000E+00
 -1      3203 1.12785E+02 1.02886E+01 0.00000E+00
 -1      3204 1.11285E+02 1.02886E+01 0.00000E+00
 -1      3205 1.10535E+02 1.15876E+01 0.00000E+00
 -1      3206 1.15785E+02 1.02886E+01 0.00000E+00
 -1      3207 1.14285E+02 1.02886E+01 0.00000E+00
 -1      3208 1.13535E+02 1.15876E+01 0.00000E+00
 -1      3209 1.18785E+02 1.02886E+01 0.00000E+00
 -1      3210 1.17285E+02 1.02886E+01 0.00000E+00
 -1      3211 1.16535E+02 1.15876E+01 0.00000E+00
 -1      3212 1.21785E+02 1.02886E+01 0.00000E+00
 -1      3213 1.20285E+02 1.02886E+01 0.00000E+00
 -1      3214 1.19535E+02 1.15876E+01 0.00000E+00
 -1      3215 1.24785E+02 1.02886E+01 0.00000E+00
 -1      3216 1.23285E+02 1.02886E+01 0.00000E+00
 -1      3217 1.22535E+02 1.15876E+01 0.00000E+00
 -1      3218 1.27785E+02 1.02886E+01 0.00000E+00
 -1      3219 1.26285E+02 1.02886E+01 0.00000E+00
 -1      3220 1.25535E+02 1.15876E+01 0.00000E+00
 -1      3221 1.30785E+02 1.02886E+01 0.00000E+00
 -1      3222 1.29285E+02 1.02886E+01 0.00000E+00
 -1      3223 1.28535E+02 1.15876E+01 0.00000E+00
 -1      3224 1.33785E+02 1.02886E+01 0.00000E+00
 -1      3225 1.32285E+02 1.02886E+01 0.00000E+00
 -1      3226 1.31535E+02 1.15876E+01 0.00000E+00
 -1      3227 1.36785E+02 1.02886E+01 0.00000E+00
 -1      3228 1.35285E+02 1.02886E+01 0.00000E+00
 -1      3229 1.34535E+02 1.15876E+01 0.00000E+00
 -1      3230 1.38879E+02 1.07734E+01 0.00000E+00
 -1      3231 1.37711E+02 1.04395E+01 0.00000E+00
 -1      3232 1.36961E+02 1.17385E+01 0.00000E+00
 -1      3233 1.38813E+02 1.20403E+01 0.00000E+00
 -1      3234 3.17430E+01 2.12568E+01 0.00000E+00
 -1      3235 3.19418E+01 2.00223E+01 0.00000E+00
 -1      3236 1.16910E+01 2.12875E+01 0.00000E+00
 -1      3237 1.16910E+01 2.27625E+01 0.00000E+00
 -1      3238 3.45274E+01 3.22262E+01 0.00000E+00
 -1      3239 3.39884E+01 3.11308E+01 0.00000E+00
 -1      3240 5.84095E+01 2.15360E+01 0.00000E+00
 -1      3241 5.82885E+01 2.28061E+01 0.00000E+00
 -1      3242 1.38309E+02 2.57625E+01 0.00000E+00
 -1      3243 1.38309E+02 2.42875E+01 0.00000E+00
 -1      3244 1.38309E+02 3.45625E+01 0.00000E+00
 -1      3245 1.38309E+02 3.30875E+01 0.00000E+00
 -1      3246 1.38309E+02 2.86625E+01 0.00000E+00
 -1      3247 1.38309E+02 2.72125E+01 0.00000E+00
 -1      3248 1.37010E+02 2.64750E+01 0.00000E+00
 -1      3249 3.20118E+01 2.69154E+01 0.00000E+00
 -1      3250 3.18764E+01 2.57469E+01 0.00000E+00
 -1      3251 5.73253E+01 1.05025E+01 0.00000E+00
 -1      3252 5.64966E+01 1.25558E+01 0.00000E+00
 -1      3253 3.33640E+01 2.99093E+01 0.00000E+00
 -1      3254 3.26312E+01 2.85165E+01 0.00000E+00
 -1      3255 3.30389E+01 1.56174E+01 0.00000E+00
 -1      3256 3.37944E+01 1.42201E+01 0.00000E+00
 -1      3257 2.87850E+01 1.05013E+01 0.00000E+00
 -1      3258 2.72850E+01 1.05013E+01 0.00000E+00
 -1      3259 2.95350E+01 1.18003E+01 0.00000E+00
 -1      3260 4.77881E+01 1.03421E+01 0.00000E+00
 -1      3261 4.09534E+01 1.00071E+01 0.00000E+00
 -1      3262 1.38309E+02 3.16125E+01 0.00000E+00
 -1      3263 1.38309E+02 3.01375E+01 0.00000E+00
 -1      3264 1.37010E+02 2.94000E+01 0.00000E+00
 -1      3265 1.37010E+02 3.23500E+01 0.00000E+00
 -1      3266 5.88253E+01 1.05025E+01 0.00000E+00
 -1      3267 3.20340E+01 1.85490E+01 0.00000E+00
 -1      3268 3.24453E+01 1.72200E+01 0.00000E+00
 -1      3269 2.57850E+01 1.05013E+01 0.00000E+00
 -1      3270 2.42850E+01 1.05013E+01 0.00000E+00
 -1      3271 2.65350E+01 1.18003E+01 0.00000E+00
 -1      3272 5.34704E+01 1.25136E+01 0.00000E+00
 -1      3273 5.85828E+01 1.87027E+01 0.00000E+00
 -1      3274 5.86761E+01 2.00539E+01 0.00000E+00
 -1      3275 1.26488E+01 1.02017E+01 0.00000E+00
 -1      3276 1.20772E+01 1.14631E+01 0.00000E+00
 -1      3277 1.33763E+01 1.22006E+01 0.00000E+00
 -1      3278 1.41488E+01 1.02017E+01 0.00000E+00
 -1      3279 5.86822E+01 2.68494E+01 0.00000E+00
 -1      3280 5.85452E+01 2.82740E+01 0.00000E+00
 -1      3281 2.27850E+01 1.05013E+01 0.00000E+00
 -1      3282 2.12850E+01 1.05013E+01 0.00000E+00
 -1      3283 2.35350E+01 1.18003E+01 0.00000E+00
 -1      3284 3.25963E+01 2.40921E+01 0.00000E+00
 -1      3285 3.33334E+01 2.32939E+01 0.00000E+00
 -1      3286 5.64409E+01 3.24801E+01 0.00000E+00
 -1      3287 5.53629E+01 3.35460E+01 0.00000E+00
 -1      3288 1.00862E+01 3.73269E+01 0.00000E+00
 -1      3289 3.49565E+01 1.26045E+01 0.00000E+00
 -1      3290 3.61185E+01 1.16077E+01 0.00000E+00
 -1      3291 5.70653E+01 1.37513E+01 0.00000E+00
 -1      3292 3.24280E+01 2.25750E+01 0.00000E+00
 -1      3293 3.94534E+01 1.00071E+01 0.00000E+00
 -1      3294 5.27990E+01 1.04603E+01 0.00000E+00
 -1      3295 3.80402E+01 1.06487E+01 0.00000E+00
 -1      3296 3.16457E+01 2.47944E+01 0.00000E+00
 -1      3297 3.14150E+01 2.38419E+01 0.00000E+00
 -1      3298 3.06951E+01 2.54967E+01 0.00000E+00
 -1      3299 3.65402E+01 1.06487E+01 0.00000E+00
 -1      3300 1.16910E+01 2.42375E+01 0.00000E+00
 -1      3301 1.16910E+01 2.57125E+01 0.00000E+00
 -1      3302 1.29900E+01 2.35000E+01 0.00000E+00
 -1      3303 1.29900E+01 1.46687E+01 0.00000E+00
 -1      3304 1.16910E+01 1.54063E+01 0.00000E+00
 -1      3305 1.16910E+01 1.68750E+01 0.00000E+00
 -1      3306 3.69918E+01 3.61305E+01 0.00000E+00
 -1      3307 3.77418E+01 3.74295E+01 0.00000E+00
 -1      3308 3.17739E+01 1.59541E+01 0.00000E+00
 -1      3309 5.92015E+01 2.93784E+01 0.00000E+00
 -1      3310 3.27889E+01 3.08726E+01 0.00000E+00
 -1      3311 5.89812E+01 2.34952E+01 0.00000E+00
 -1      3312 1.38309E+02 1.69188E+01 0.00000E+00
 -1      3313 1.38309E+02 1.54563E+01 0.00000E+00
 -1      3314 3.92418E+01 3.74295E+01 0.00000E+00
 -1      3315 5.07638E+01 3.60957E+01 0.00000E+00
 -1      3316 5.16497E+01 3.81687E+01 0.00000E+00
 -1      3317 5.30855E+01 3.64789E+01 0.00000E+00
 -1      3318 5.18276E+01 3.57201E+01 0.00000E+00
 -1      3319 5.31497E+01 3.81687E+01 0.00000E+00
 -1      3320 5.53516E+01 3.50151E+01 0.00000E+00
 -1      3321 1.38129E+02 3.61550E+01 0.00000E+00
 -1      3322 1.36830E+02 3.54175E+01 0.00000E+00
 -1      3323 3.51134E+01 1.01612E+01 0.00000E+00
 -1      3324 5.77253E+01 3.24493E+01 0.00000E+00
 -1      3325 5.95527E+01 2.07782E+01 0.00000E+00
 -1      3326 5.12990E+01 1.04603E+01 0.00000E+00
 -1      3327 3.49021E+01 3.30277E+01 0.00000E+00
 -1      3328 3.37880E+01 3.28956E+01 0.00000E+00
 -1      3329 3.52769E+01 3.38292E+01 0.00000E+00
 -1      3330 3.10880E+01 1.90300E+01 0.00000E+00
 -1      3331 5.95753E+01 1.18015E+01 0.00000E+00
 -1      3332 1.16910E+01 1.98188E+01 0.00000E+00
 -1      3333 1.29900E+01 2.05562E+01 0.00000E+00
 -1      3334 1.16910E+01 1.83500E+01 0.00000E+00
 -1      3335 1.38309E+02 1.98687E+01 0.00000E+00
 -1      3336 1.38309E+02 1.83937E+01 0.00000E+00
 -1      3337 1.37010E+02 1.76625E+01 0.00000E+00
 -1      3338 1.38879E+02 3.74540E+01 0.00000E+00
 -1      3339 1.38309E+02 2.28156E+01 0.00000E+00
 -1      3340 1.38309E+02 2.13406E+01 0.00000E+00
 -1      3341 1.37010E+02 2.06094E+01 0.00000E+00
 -1      3342 1.37010E+02 2.35531E+01 0.00000E+00
 -1      3343 3.15452E+01 2.80502E+01 0.00000E+00
 -1      3344 3.04592E+01 2.75839E+01 0.00000E+00
 -1      3345 3.10785E+01 2.91849E+01 0.00000E+00
 -1      3346 3.15478E+01 2.28317E+01 0.00000E+00
 -1      3347 3.16102E+01 2.22671E+01 0.00000E+00
 -1      3348 3.08629E+01 2.15135E+01 0.00000E+00
 -1      3349 3.05972E+01 2.35340E+01 0.00000E+00
 -1      3350 1.71488E+01 1.02017E+01 0.00000E+00
 -1      3351 1.56488E+01 1.02017E+01 0.00000E+00
 -1      3352 1.52625E+01 1.12011E+01 0.00000E+00
 -1      3353 1.99669E+01 1.03515E+01 0.00000E+00
 -1      3354 1.84669E+01 1.03515E+01 0.00000E+00
 -1      3355 1.80806E+01 1.13509E+01 0.00000E+00
 -1      3356 2.07169E+01 1.16505E+01 0.00000E+00
 -1      3357 3.35296E+01 1.27358E+01 0.00000E+00
 -1      3358 5.96281E+01 2.55406E+01 0.00000E+00
 -1      3359 5.91551E+01 2.61950E+01 0.00000E+00
 -1      3360 6.01070E+01 2.70055E+01 0.00000E+00
 -1      3361 4.09050E+01 3.60838E+01 0.00000E+00
 -1      3362 3.99918E+01 3.63206E+01 0.00000E+00
 -1      3363 3.78623E+01 3.46061E+01 0.00000E+00
 -1      3364 3.36134E+01 1.01612E+01 0.00000E+00
 -1      3365 1.32152E+01 3.82007E+01 0.00000E+00
 -1      3366 1.45576E+01 3.82548E+01 0.00000E+00
 -1      3367 1.53076E+01 3.69558E+01 0.00000E+00
 -1      3368 1.14286E+01 3.73811E+01 0.00000E+00
 -1      3369 3.28634E+01 1.14602E+01 0.00000E+00
 -1      3370 5.93135E+01 1.75073E+01 0.00000E+00
 -1      3371 1.16910E+01 3.01219E+01 0.00000E+00
 -1      3372 1.16910E+01 3.15906E+01 0.00000E+00
 -1      3373 4.14335E+01 3.68884E+01 0.00000E+00
 -1      3374 1.29900E+01 3.23250E+01 0.00000E+00
 -1      3375 1.16910E+01 3.30594E+01 0.00000E+00
 -1      3376 1.16910E+01 3.45281E+01 0.00000E+00
 -1      3377 5.84616E+01 1.38669E+01 0.00000E+00
 -1      3378 3.55205E+01 3.54856E+01 0.00000E+00
 -1      3379 3.02590E+01 1.63042E+01 0.00000E+00
 -1      3380 3.08526E+01 1.47016E+01 0.00000E+00
 -1      3381 3.01863E+01 1.34260E+01 0.00000E+00
 -1      3382 2.86863E+01 1.34260E+01 0.00000E+00
 -1      3383 4.21835E+01 3.79973E+01 0.00000E+00
 -1      3384 6.06775E+01 2.88363E+01 0.00000E+00
 -1      3385 6.02449E+01 3.05548E+01 0.00000E+00
 -1      3386 2.04000E+01 3.57110E+01 0.00000E+00
 -1      3387 2.19000E+01 3.57110E+01 0.00000E+00
 -1      3388 2.34000E+01 3.57110E+01 0.00000E+00
 -1      3389 2.49000E+01 3.57110E+01 0.00000E+00
 -1      3390 2.26500E+01 3.44120E+01 0.00000E+00
 -1      3391 2.64000E+01 3.57110E+01 0.00000E+00
 -1      3392 2.79000E+01 3.57110E+01 0.00000E+00
 -1      3393 2.56500E+01 3.44120E+01 0.00000E+00
 -1      3394 2.94000E+01 3.57110E+01 0.00000E+00
 -1      3395 3.09000E+01 3.57110E+01 0.00000E+00
 -1      3396 2.86500E+01 3.44120E+01 0.00000E+00
 -1      3397 3.29064E+01 3.53535E+01 0.00000E+00
 -1      3398 3.44064E+01 3.53535E+01 0.00000E+00
 -1      3399 2.71863E+01 1.34260E+01 0.00000E+00
 -1      3400 2.56863E+01 1.34260E+01 0.00000E+00
 -1      3401 2.78377E+01 1.50517E+01 0.00000E+00
 -1      3402 5.40858E+01 3.79183E+01 0.00000E+00
 -1      3403 5.94000E+01 3.57110E+01 0.00000E+00
 -1      3404 6.09000E+01 3.57110E+01 0.00000E+00
 -1      3405 6.24000E+01 3.57110E+01 0.00000E+00
 -1      3406 6.39000E+01 3.57110E+01 0.00000E+00
 -1      3407 6.16500E+01 3.44120E+01 0.00000E+00
 -1      3408 6.54000E+01 3.57110E+01 0.00000E+00
 -1      3409 6.69000E+01 3.57110E+01 0.00000E+00
 -1      3410 6.46500E+01 3.44120E+01 0.00000E+00
 -1      3411 6.84000E+01 3.57110E+01 0.00000E+00
 -1      3412 6.99000E+01 3.57110E+01 0.00000E+00
 -1      3413 6.76500E+01 3.44120E+01 0.00000E+00
 -1      3414 7.14000E+01 3.57110E+01 0.00000E+00
 -1      3415 7.29000E+01 3.57110E+01 0.00000E+00
 -1      3416 7.06500E+01 3.44120E+01 0.00000E+00
 -1      3417 7.44000E+01 3.57110E+01 0.00000E+00
 -1      3418 7.59000E+01 3.57110E+01 0.00000E+00
 -1      3419 7.36500E+01 3.44120E+01 0.00000E+00
 -1      3420 7.74000E+01 3.57110E+01 0.00000E+00
 -1      3421 7.89000E+01 3.57110E+01 0.00000E+00
 -1      3422 7.66500E+01 3.44120E+01 0.00000E+00
 -1      3423 8.04000E+01 3.57110E+01 0.00000E+00
 -1      3424 8.19000E+01 3.57110E+01 0.00000E+00
 -1      3425 7.96500E+01 3.44120E+01 0.00000E+00
 -1      3426 8.34000E+01 3.57110E+01 0.00000E+00
 -1      3427 8.49000E+01 3.57110E+01 0.00000E+00
 -1      3428 8.26500E+01 3.44120E+01 0.00000E+00
 -1      3429 8.64000E+01 3.57110E+01 0.00000E+00
 -1      3430 8.79000E+01 3.57110E+01 0.00000E+00
 -1      3431 8.56500E+01 3.44120E+01 0.00000E+00
 -1      3432 8.94000E+01 3.57110E+01 0.00000E+00
 -1      3433 9.09000E+01 3.57110E+01 0.00000E+00
 -1      3434 8.86500E+01 3.44120E+01 0.00000E+00
 -1      3435 9.24000E+01 3.57110E+01 0.00000E+00
 -1      3436 9.39000E+01 3.57110E+01 0.00000E+00
 -1      3437 9.16500E+01 3.44120E+01 0.00000E+00
 -1      3438 9.54000E+01 3.57110E+01 0.00000E+00
 -1      3439 9.69000E+01 3.57110E+01 0.00000E+00
 -1      3440 9.46500E+01 3.44120E+01 0.00000E+00
 -1      3441 9.84000E+01 3.57110E+01 0.00000E+00
 -1      3442 9.99000E+01 3.57110E+01 0.00000E+00
 -1      3443 9.76500E+01 3.44120E+01 0.00000E+00
 -1      3444 1.01400E+02 3.57110E+01 0.00000E+00
 -1      3445 1.02900E+02 3.57110E+01 0.00000E+00
 -1      3446 1.00650E+02 3.44120E+01 0.00000E+00
 -1      3447 1.04400E+02 3.57110E+01 0.00000E+00
 -1      3448 1.05900E+02 3.57110E+01 0.00000E+00
 -1      3449 1.03650E+02 3.44120E+01 0.00000E+00
 -1      3450 1.07400E+02 3.57110E+01 0.00000E+00
 -1      3451 1.08900E+02 3.57110E+01 0.00000E+00
 -1      3452 1.06650E+02 3.44120E+01 0.00000E+00
 -1      3453 1.10400E+02 3.57110E+01 0.00000E+00
 -1      3454 1.11900E+02 3.57110E+01 0.00000E+00
 -1      3455 1.09650E+02 3.44120E+01 0.00000E+00
 -1      3456 1.13400E+02 3.57110E+01 0.00000E+00
 -1      3457 1.14900E+02 3.57110E+01 0.00000E+00
 -1      3458 1.12650E+02 3.44120E+01 0.00000E+00
 -1      3459 1.16400E+02 3.57110E+01 0.00000E+00
 -1      3460 1.17900E+02 3.57110E+01 0.00000E+00
 -1      3461 1.15650E+02 3.44120E+01 0.00000E+00
 -1      3462 1.19400E+02 3.57110E+01 0.00000E+00
 -1      3463 1.20900E+02 3.57110E+01 0.00000E+00
 -1      3464 1.18650E+02 3.44120E+01 0.00000E+00
 -1      3465 1.22400E+02 3.57110E+01 0.00000E+00
 -1      3466 1.23900E+02 3.57110E+01 0.00000E+00
 -1      3467 1.21650E+02 3.44120E+01 0.00000E+00
 -1      3468 1.25400E+02 3.57110E+01 0.00000E+00
 -1      3469 1.26900E+02 3.57110E+01 0.00000E+00
 -1      3470 1.24650E+02 3.44120E+01 0.00000E+00
 -1      3471 1.28400E+02 3.57110E+01 0.00000E+00
 -1      3472 1.29900E+02 3.57110E+01 0.00000E+00
 -1      3473 1.27650E+02 3.44120E+01 0.00000E+00
 -1      3474 1.31400E+02 3.57110E+01 0.00000E+00
 -1      3475 1.32900E+02 3.57110E+01 0.00000E+00
 -1      3476 1.30650E+02 3.44120E+01 0.00000E+00
 -1      3477 1.34115E+02 3.55643E+01 0.00000E+00
 -1      3478 1.35615E+02 3.55643E+01 0.00000E+00
 -1      3479 1.35795E+02 3.39717E+01 0.00000E+00
 -1      3480 1.33365E+02 3.42653E+01 0.00000E+00
 -1      3481 1.38528E+02 1.43817E+01 0.00000E+00
 -1      3482 1.38594E+02 1.31148E+01 0.00000E+00
 -1      3483 1.37668E+02 1.29639E+01 0.00000E+00
 -1      3484 1.37229E+02 1.51130E+01 0.00000E+00
 -1      3485 6.32850E+01 1.28866E+01 0.00000E+00
 -1      3486 6.17850E+01 1.28866E+01 0.00000E+00
 -1      3487 7.22850E+01 1.28866E+01 0.00000E+00
 -1      3488 7.07850E+01 1.28866E+01 0.00000E+00
 -1      3489 7.52850E+01 1.28866E+01 0.00000E+00
 -1      3490 7.37850E+01 1.28866E+01 0.00000E+00
 -1      3491 7.30350E+01 1.41856E+01 0.00000E+00
 -1      3492 7.82850E+01 1.28866E+01 0.00000E+00
 -1      3493 7.67850E+01 1.28866E+01 0.00000E+00
 -1      3494 7.60350E+01 1.41856E+01 0.00000E+00
 -1      3495 8.12850E+01 1.28866E+01 0.00000E+00
 -1      3496 7.97850E+01 1.28866E+01 0.00000E+00
 -1      3497 7.90350E+01 1.41856E+01 0.00000E+00
 -1      3498 8.42850E+01 1.28866E+01 0.00000E+00
 -1      3499 8.27850E+01 1.28866E+01 0.00000E+00
 -1      3500 8.20350E+01 1.41856E+01 0.00000E+00
 -1      3501 8.72850E+01 1.28866E+01 0.00000E+00
 -1      3502 8.57850E+01 1.28866E+01 0.00000E+00
 -1      3503 8.50350E+01 1.41856E+01 0.00000E+00
 -1      3504 9.02850E+01 1.28866E+01 0.00000E+00
 -1      3505 8.87850E+01 1.28866E+01 0.00000E+00
 -1      3506 8.80350E+01 1.41856E+01 0.00000E+00
 -1      3507 9.32850E+01 1.28866E+01 0.00000E+00
 -1      3508 9.17850E+01 1.28866E+01 0.00000E+00
 -1      3509 9.10350E+01 1.41856E+01 0.00000E+00
 -1      3510 9.62850E+01 1.28866E+01 0.00000E+00
 -1      3511 9.47850E+01 1.28866E+01 0.00000E+00
 -1      3512 9.40350E+01 1.41856E+01 0.00000E+00
 -1      3513 9.92850E+01 1.28866E+01 0.00000E+00
 -1      3514 9.77850E+01 1.28866E+01 0.00000E+00
 -1      3515 9.70350E+01 1.41856E+01 0.00000E+00
 -1      3516 1.02285E+02 1.28866E+01 0.00000E+00
 -1      3517 1.00785E+02 1.28866E+01 0.00000E+00
 -1      3518 1.00035E+02 1.41856E+01 0.00000E+00
 -1      3519 1.05285E+02 1.28866E+01 0.00000E+00
 -1      3520 1.03785E+02 1.28866E+01 0.00000E+00
 -1      3521 1.03035E+02 1.41856E+01 0.00000E+00
 -1      3522 1.08285E+02 1.28866E+01 0.00000E+00
 -1      3523 1.06785E+02 1.28866E+01 0.00000E+00
 -1      3524 1.06035E+02 1.41856E+01 0.00000E+00
 -1      3525 1.11285E+02 1.28866E+01 0.00000E+00
 -1      3526 1.09785E+02 1.28866E+01 0.00000E+00
 -1      3527 1.09035E+02 1.41856E+01 0.00000E+00
 -1      3528 1.14285E+02 1.28866E+01 0.00000E+00
 -1      3529 1.12785E+02 1.28866E+01 0.00000E+00
 -1      3530 1.12035E+02 1.41856E+01 0.00000E+00
 -1      3531 1.17285E+02 1.28866E+01 0.00000E+00
 -1      3532 1.15785E+02 1.28866E+01 0.00000E+00
 -1      3533 1.15035E+02 1.41856E+01 0.00000E+00
 -1      3534 1.20285E+02 1.28866E+01 0.00000E+00
 -1      3535 1.18785E+02 1.28866E+01 0.00000E+00
 -1      3536 1.18035E+02 1.41856E+01 0.00000E+00
 -1      3537 1.23285E+02 1.28866E+01 0.00000E+00
 -1      3538 1.21785E+02 1.28866E+01 0.00000E+00
 -1      3539 1.21035E+02 1.41856E+01 0.00000E+00
 -1      3540 1.26285E+02 1.28866E+01 0.00000E+00
 -1      3541 1.24785E+02 1.28866E+01 0.00000E+00
 -1      3542 1.24035E+02 1.41856E+01 0.00000E+00
 -1      3543 1.29285E+02 1.28866E+01 0.00000E+00
 -1      3544 1.27785E+02 1.28866E+01 0.00000E+00
 -1      3545 1.27035E+02 1.41856E+01 0.00000E+00
 -1      3546 1.32285E+02 1.28866E+01 0.00000E+00
 -1      3547 1.30785E+02 1.28866E+01 0.00000E+00
 -1      3548 1.30035E+02 1.41856E+01 0.00000E+00
 -1      3549 6.62850E+01 1.28866E+01 0.00000E+00
 -1      3550 6.47850E+01 1.28866E+01 0.00000E+00
 -1      3551 6.40350E+01 1.41856E+01 0.00000E+00
 -1      3552 6.92850E+01 1.28866E+01 0.00000E+00
 -1      3553 6.77850E+01 1.28866E+01 0.00000E+00
 -1      3554 6.70350E+01 1.41856E+01 0.00000E+00
 -1      3555 1.35711E+02 2.72000E+01 0.00000E+00
 -1      3556 1.35711E+02 2.57500E+01 0.00000E+00
 -1      3557 6.03105E+01 1.62594E+01 0.00000E+00
 -1      3558 6.08164E+01 1.80482E+01 0.00000E+00
 -1      3559 3.20391E+01 3.20262E+01 0.00000E+00
 -1      3560 3.14147E+01 3.08048E+01 0.00000E+00
 -1      3561 5.99213E+01 1.36530E+01 0.00000E+00
 -1      3562 5.48358E+01 3.66193E+01 0.00000E+00
 -1      3563 6.08599E+01 2.02483E+01 0.00000E+00
 -1      3564 6.05933E+01 2.17305E+01 0.00000E+00
 -1      3565 6.02380E+01 2.30708E+01 0.00000E+00
 -1      3566 5.99331E+01 2.43057E+01 0.00000E+00
 -1      3567 6.08850E+01 2.51161E+01 0.00000E+00
 -1      3568 2.98956E+01 2.61945E+01 0.00000E+00
 -1      3569 2.96649E+01 2.52421E+01 0.00000E+00
 -1      3570 1.74000E+01 3.57110E+01 0.00000E+00
 -1      3571 1.89000E+01 3.57110E+01 0.00000E+00
 -1      3572 1.96500E+01 3.44120E+01 0.00000E+00
 -1      3573 1.16910E+01 2.71844E+01 0.00000E+00
 -1      3574 1.16910E+01 2.86531E+01 0.00000E+00
 -1      3575 1.29900E+01 2.93875E+01 0.00000E+00
 -1      3576 1.21786E+01 3.60821E+01 0.00000E+00
 -1      3577 5.94595E+01 3.27545E+01 0.00000E+00
 -1      3578 5.84158E+01 3.41068E+01 0.00000E+00
 -1      3579 1.48763E+01 1.22006E+01 0.00000E+00
 -1      3580 1.44900E+01 1.32000E+01 0.00000E+00
 -1      3581 1.63762E+01 1.22006E+01 0.00000E+00
 -1      3582 2.41863E+01 1.34260E+01 0.00000E+00
 -1      3583 2.26863E+01 1.34260E+01 0.00000E+00
 -1      3584 2.48377E+01 1.50517E+01 0.00000E+00
 -1      3585 4.99477E+01 9.77800E+00 0.00000E+00
 -1      3586 3.17013E+01 1.30758E+01 0.00000E+00
 -1      3587 3.00187E+01 1.97025E+01 0.00000E+00
 -1      3588 3.01110E+01 1.82293E+01 0.00000E+00
 -1      3589 1.44900E+01 1.46687E+01 0.00000E+00
 -1      3590 2.91897E+01 1.69768E+01 0.00000E+00
 -1      3591 6.15452E+01 2.25409E+01 0.00000E+00
 -1      3592 2.94289E+01 2.73293E+01 0.00000E+00
 -1      3593 3.17816E+01 3.32530E+01 0.00000E+00
 -1      3594 3.04074E+01 3.31852E+01 0.00000E+00
 -1      3595 1.34776E+01 3.53477E+01 0.00000E+00
 -1      3596 5.76658E+01 3.54058E+01 0.00000E+00
 -1      3597 6.06713E+01 1.49520E+01 0.00000E+00
 -1      3598 6.21742E+01 1.54930E+01 0.00000E+00
 -1      3599 1.34580E+02 3.26435E+01 0.00000E+00
 -1      3600 1.35795E+02 3.24967E+01 0.00000E+00
 -1      3601 1.35795E+02 3.10217E+01 0.00000E+00
 -1      3602 1.47676E+01 3.55023E+01 0.00000E+00
 -1      3603 1.61100E+01 3.55564E+01 0.00000E+00
 -1      3604 1.68600E+01 3.42574E+01 0.00000E+00
 -1      3605 1.42800E+01 3.39483E+01 0.00000E+00
 -1      3606 1.29900E+01 1.76125E+01 0.00000E+00
 -1      3607 7.00350E+01 1.41856E+01 0.00000E+00
 -1      3608 1.34412E+02 2.50031E+01 0.00000E+00
 -1      3609 1.35711E+02 2.42781E+01 0.00000E+00
 -1      3610 1.35711E+02 2.28062E+01 0.00000E+00
 -1      3611 1.35285E+02 1.28866E+01 0.00000E+00
 -1      3612 1.33785E+02 1.28866E+01 0.00000E+00
 -1      3613 1.36742E+02 1.28131E+01 0.00000E+00
 -1      3614 3.03287E+01 3.03385E+01 0.00000E+00
 -1      3615 1.33035E+02 1.41856E+01 0.00000E+00
 -1      3616 1.42890E+01 1.98219E+01 0.00000E+00
 -1      3617 1.42890E+01 2.12906E+01 0.00000E+00
 -1      3618 6.28540E+01 1.77525E+01 0.00000E+00
 -1      3619 6.18569E+01 1.90004E+01 0.00000E+00
 -1      3620 6.28975E+01 1.99527E+01 0.00000E+00
 -1      3621 2.94314E+01 2.38945E+01 0.00000E+00
 -1      3622 2.95642E+01 2.28843E+01 0.00000E+00
 -1      3623 2.97250E+01 2.17985E+01 0.00000E+00
 -1      3624 2.98579E+01 2.07883E+01 0.00000E+00
 -1      3625 2.88809E+01 1.99876E+01 0.00000E+00
 -1      3626 2.85592E+01 2.21591E+01 0.00000E+00
 -1      3627 2.13682E+01 1.32762E+01 0.00000E+00
 -1      3628 2.00501E+01 1.31264E+01 0.00000E+00
 -1      3629 2.20195E+01 1.49019E+01 0.00000E+00
 -1      3630 1.55880E+01 2.20313E+01 0.00000E+00
 -1      3631 1.42890E+01 2.27656E+01 0.00000E+00
 -1      3632 1.42890E+01 2.42406E+01 0.00000E+00
 -1      3633 5.61658E+01 3.54058E+01 0.00000E+00
 -1      3634 2.86318E+01 2.45924E+01 0.00000E+00
 -1      3635 1.29900E+01 2.64469E+01 0.00000E+00
 -1      3636 1.35711E+02 1.84000E+01 0.00000E+00
 -1      3637 1.35711E+02 1.69250E+01 0.00000E+00
 -1      3638 6.09355E+01 3.22123E+01 0.00000E+00
 -1      3639 1.42890E+01 2.86531E+01 0.00000E+00
 -1      3640 1.42890E+01 3.01219E+01 0.00000E+00
 -1      3641 1.35753E+02 2.98484E+01 0.00000E+00
 -1      3642 1.35753E+02 2.83734E+01 0.00000E+00
 -1      3643 1.34454E+02 2.76484E+01 0.00000E+00
 -1      3644 1.34538E+02 2.99951E+01 0.00000E+00
 -1      3645 1.35773E+02 1.51866E+01 0.00000E+00
 -1      3646 1.35992E+02 1.41121E+01 0.00000E+00
 -1      3647 1.42845E+01 3.13007E+01 0.00000E+00
 -1      3648 1.42845E+01 3.27695E+01 0.00000E+00
 -1      3649 1.55745E+01 3.29240E+01 0.00000E+00
 -1      3650 1.55835E+01 3.05663E+01 0.00000E+00
 -1      3651 1.34473E+02 1.59241E+01 0.00000E+00
 -1      3652 3.25316E+01 3.45520E+01 0.00000E+00
 -1      3653 6.11276E+01 2.73861E+01 0.00000E+00
 -1      3654 6.21710E+01 2.85625E+01 0.00000E+00
 -1      3655 6.36367E+01 2.82225E+01 0.00000E+00
 -1      3656 6.31866E+01 2.96726E+01 0.00000E+00
 -1      3657 2.49000E+01 3.31130E+01 0.00000E+00
 -1      3658 2.64000E+01 3.31130E+01 0.00000E+00
 -1      3659 2.76537E+01 3.31491E+01 0.00000E+00
 -1      3660 2.91537E+01 3.31491E+01 0.00000E+00
 -1      3661 2.94112E+01 3.19223E+01 0.00000E+00
 -1      3662 2.69037E+01 3.18501E+01 0.00000E+00
 -1      3663 2.19000E+01 3.31130E+01 0.00000E+00
 -1      3664 2.34000E+01 3.31130E+01 0.00000E+00
 -1      3665 2.41500E+01 3.18140E+01 0.00000E+00
 -1      3666 6.24355E+01 3.22123E+01 0.00000E+00
 -1      3667 1.42890E+01 1.83469E+01 0.00000E+00
 -1      3668 1.55880E+01 1.90812E+01 0.00000E+00
 -1      3669 1.42890E+01 1.68719E+01 0.00000E+00
 -1      3670 1.32973E+02 1.59241E+01 0.00000E+00
 -1      3671 6.39011E+01 3.18723E+01 0.00000E+00
 -1      3672 6.54011E+01 3.18723E+01 0.00000E+00
 -1      3673 6.69011E+01 3.18723E+01 0.00000E+00
 -1      3674 6.84011E+01 3.18723E+01 0.00000E+00
 -1      3675 6.61522E+01 2.93326E+01 0.00000E+00
 -1      3676 6.99011E+01 3.18723E+01 0.00000E+00
 -1      3677 7.14011E+01 3.18723E+01 0.00000E+00
 -1      3678 6.91522E+01 2.93326E+01 0.00000E+00
 -1      3679 7.29011E+01 3.18723E+01 0.00000E+00
 -1      3680 7.44011E+01 3.18723E+01 0.00000E+00
 -1      3681 7.21522E+01 2.93326E+01 0.00000E+00
 -1      3682 7.59011E+01 3.18723E+01 0.00000E+00
 -1      3683 7.74011E+01 3.18723E+01 0.00000E+00
 -1      3684 7.51522E+01 2.93326E+01 0.00000E+00
 -1      3685 7.89011E+01 3.18723E+01 0.00000E+00
 -1      3686 8.04011E+01 3.18723E+01 0.00000E+00
 -1      3687 7.81522E+01 2.93326E+01 0.00000E+00
 -1      3688 8.19011E+01 3.18723E+01 0.00000E+00
 -1      3689 8.34011E+01 3.18723E+01 0.00000E+00
 -1      3690 8.11522E+01 2.93326E+01 0.00000E+00
 -1      3691 8.49011E+01 3.18723E+01 0.00000E+00
 -1      3692 8.64011E+01 3.18723E+01 0.00000E+00
 -1      3693 8.41522E+01 2.93326E+01 0.00000E+00
 -1      3694 8.79011E+01 3.18723E+01 0.00000E+00
 -1      3695 8.94011E+01 3.18723E+01 0.00000E+00
 -1      3696 8.71522E+01 2.93326E+01 0.00000E+00
 -1      3697 9.09011E+01 3.18723E+01 0.00000E+00
 -1      3698 9.24011E+01 3.18723E+01 0.00000E+00
 -1      3699 9.01522E+01 2.93326E+01 0.00000E+00
 -1      3700 9.39011E+01 3.18723E+01 0.00000E+00
 -1      3701 9.54011E+01 3.18723E+01 0.00000E+00
 -1      3702 9.31522E+01 2.93326E+01 0.00000E+00
 -1      3703 9.69011E+01 3.18723E+01 0.00000E+00
 -1      3704 9.84011E+01 3.18723E+01 0.00000E+00
 -1      3705 9.61522E+01 2.93326E+01 0.00000E+00
 -1      3706 9.99011E+01 3.18723E+01 0.00000E+00
 -1      3707 1.01401E+02 3.18723E+01 0.00000E+00
 -1      3708 9.91522E+01 2.93326E+01 0.00000E+00
 -1      3709 1.02901E+02 3.18723E+01 0.00000E+00
 -1      3710 1.04401E+02 3.18723E+01 0.00000E+00
 -1      3711 1.02152E+02 2.93326E+01 0.00000E+00
 -1      3712 1.05901E+02 3.18723E+01 0.00000E+00
 -1      3713 1.07401E+02 3.18723E+01 0.00000E+00
 -1      3714 1.05152E+02 2.93326E+01 0.00000E+00
 -1      3715 1.08901E+02 3.18723E+01 0.00000E+00
 -1      3716 1.10401E+02 3.18723E+01 0.00000E+00
 -1      3717 1.08152E+02 2.93326E+01 0.00000E+00
 -1      3718 1.11901E+02 3.18723E+01 0.00000E+00
 -1      3719 1.13401E+02 3.18723E+01 0.00000E+00
 -1      3720 1.11152E+02 2.93326E+01 0.00000E+00
 -1      3721 1.14901E+02 3.18723E+01 0.00000E+00
 -1      3722 1.16401E+02 3.18723E+01 0.00000E+00
 -1      3723 1.14152E+02 2.93326E+01 0.00000E+00
 -1      3724 1.17901E+02 3.18723E+01 0.00000E+00
 -1      3725 1.19401E+02 3.18723E+01 0.00000E+00
 -1      3726 1.17152E+02 2.93326E+01 0.00000E+00
 -1      3727 1.20901E+02 3.18723E+01 0.00000E+00
 -1      3728 1.22401E+02 3.18723E+01 0.00000E+00
 -1      3729 1.20152E+02 2.93326E+01 0.00000E+00
 -1      3730 1.23901E+02 3.18723E+01 0.00000E+00
 -1      3731 1.25401E+02 3.18723E+01 0.00000E+00
 -1      3732 1.23152E+02 2.93326E+01 0.00000E+00
 -1      3733 1.26901E+02 3.18723E+01 0.00000E+00
 -1      3734 1.28401E+02 3.18723E+01 0.00000E+00
 -1      3735 1.26152E+02 2.93326E+01 0.00000E+00
 -1      3736 1.29901E+02 3.18723E+01 0.00000E+00
 -1      3737 1.31401E+02 3.18723E+01 0.00000E+00
 -1      3738 1.29152E+02 2.93326E+01 0.00000E+00
 -1      3739 1.33365E+02 3.27902E+01 0.00000E+00
 -1      3740 7.97850E+01 1.54846E+01 0.00000E+00
 -1      3741 7.82850E+01 1.54846E+01 0.00000E+00
 -1      3742 2.76897E+01 1.69768E+01 0.00000E+00
 -1      3743 1.57890E+01 1.54031E+01 0.00000E+00
 -1      3744 1.32692E+02 1.76214E+01 0.00000E+00
 -1      3745 1.31253E+02 1.58830E+01 0.00000E+00
 -1      3746 7.67850E+01 1.54846E+01 0.00000E+00
 -1      3747 7.52850E+01 1.54846E+01 0.00000E+00
 -1      3748 7.75350E+01 1.67836E+01 0.00000E+00
 -1      3749 7.37850E+01 1.54846E+01 0.00000E+00
 -1      3750 7.22850E+01 1.54846E+01 0.00000E+00
 -1      3751 7.45350E+01 1.67836E+01 0.00000E+00
 -1      3752 8.27850E+01 1.54846E+01 0.00000E+00
 -1      3753 8.12850E+01 1.54846E+01 0.00000E+00
 -1      3754 8.05350E+01 1.67836E+01 0.00000E+00
 -1      3755 8.57850E+01 1.54846E+01 0.00000E+00
 -1      3756 8.42850E+01 1.54846E+01 0.00000E+00
 -1      3757 8.35350E+01 1.67836E+01 0.00000E+00
 -1      3758 8.87850E+01 1.54846E+01 0.00000E+00
 -1      3759 8.72850E+01 1.54846E+01 0.00000E+00
 -1      3760 8.65350E+01 1.67836E+01 0.00000E+00
 -1      3761 9.17850E+01 1.54846E+01 0.00000E+00
 -1      3762 9.02850E+01 1.54846E+01 0.00000E+00
 -1      3763 8.95350E+01 1.67836E+01 0.00000E+00
 -1      3764 9.47850E+01 1.54846E+01 0.00000E+00
 -1      3765 9.32850E+01 1.54846E+01 0.00000E+00
 -1      3766 9.25350E+01 1.67836E+01 0.00000E+00
 -1      3767 9.77850E+01 1.54846E+01 0.00000E+00
 -1      3768 9.62850E+01 1.54846E+01 0.00000E+00
 -1      3769 9.55350E+01 1.67836E+01 0.00000E+00
 -1      3770 1.00785E+02 1.54846E+01 0.00000E+00
 -1      3771 9.92850E+01 1.54846E+01 0.00000E+00
 -1      3772 9.85350E+01 1.67836E+01 0.00000E+00
 -1      3773 1.03785E+02 1.54846E+01 0.00000E+00
 -1      3774 1.02285E+02 1.54846E+01 0.00000E+00
 -1      3775 1.01535E+02 1.67836E+01 0.00000E+00
 -1      3776 1.06785E+02 1.54846E+01 0.00000E+00
 -1      3777 1.05285E+02 1.54846E+01 0.00000E+00
 -1      3778 1.04535E+02 1.67836E+01 0.00000E+00
 -1      3779 1.09785E+02 1.54846E+01 0.00000E+00
 -1      3780 1.08285E+02 1.54846E+01 0.00000E+00
 -1      3781 1.07535E+02 1.67836E+01 0.00000E+00
 -1      3782 1.12785E+02 1.54846E+01 0.00000E+00
 -1      3783 1.11285E+02 1.54846E+01 0.00000E+00
 -1      3784 1.10535E+02 1.67836E+01 0.00000E+00
 -1      3785 1.15785E+02 1.54846E+01 0.00000E+00
 -1      3786 1.14285E+02 1.54846E+01 0.00000E+00
 -1      3787 1.13535E+02 1.67836E+01 0.00000E+00
 -1      3788 1.18785E+02 1.54846E+01 0.00000E+00
 -1      3789 1.17285E+02 1.54846E+01 0.00000E+00
 -1      3790 1.16535E+02 1.67836E+01 0.00000E+00
 -1      3791 1.21785E+02 1.54846E+01 0.00000E+00
 -1      3792 1.20285E+02 1.54846E+01 0.00000E+00
 -1      3793 1.19535E+02 1.67836E+01 0.00000E+00
 -1      3794 1.24785E+02 1.54846E+01 0.00000E+00
 -1      3795 1.23285E+02 1.54846E+01 0.00000E+00
 -1      3796 1.22535E+02 1.67836E+01 0.00000E+00
 -1      3797 1.27785E+02 1.54846E+01 0.00000E+00
 -1      3798 1.26285E+02 1.54846E+01 0.00000E+00
 -1      3799 1.25535E+02 1.67836E+01 0.00000E+00
 -1      3800 1.29753E+02 1.58830E+01 0.00000E+00
 -1      3801 6.77850E+01 1.54846E+01 0.00000E+00
 -1      3802 6.62850E+01 1.54846E+01 0.00000E+00
 -1      3803 7.07850E+01 1.54846E+01 0.00000E+00
 -1      3804 6.92850E+01 1.54846E+01 0.00000E+00
 -1      3805 7.15350E+01 1.67836E+01 0.00000E+00
 -1      3806 1.42890E+01 2.57109E+01 0.00000E+00
 -1      3807 1.42890E+01 2.71828E+01 0.00000E+00
 -1      3808 1.55880E+01 2.79172E+01 0.00000E+00
 -1      3809 1.55880E+01 2.49766E+01 0.00000E+00
 -1      3810 1.35711E+02 2.13391E+01 0.00000E+00
 -1      3811 1.35711E+02 1.98672E+01 0.00000E+00
 -1      3812 1.34412E+02 1.91297E+01 0.00000E+00
 -1      3813 1.34412E+02 2.20641E+01 0.00000E+00
 -1      3814 2.90750E+01 3.03024E+01 0.00000E+00
 -1      3815 2.86055E+01 2.84723E+01 0.00000E+00
 -1      3816 2.80419E+01 2.70829E+01 0.00000E+00
 -1      3817 6.36249E+01 1.53154E+01 0.00000E+00
 -1      3818 6.32641E+01 1.66228E+01 0.00000E+00
 -1      3819 6.43047E+01 1.75750E+01 0.00000E+00
 -1      3820 6.51249E+01 1.53154E+01 0.00000E+00
 -1      3821 1.89000E+01 3.31130E+01 0.00000E+00
 -1      3822 2.04000E+01 3.31130E+01 0.00000E+00
 -1      3823 2.11500E+01 3.18140E+01 0.00000E+00
 -1      3824 1.88722E+01 1.27384E+01 0.00000E+00
 -1      3825 1.75541E+01 1.25886E+01 0.00000E+00
 -1      3826 1.71679E+01 1.35880E+01 0.00000E+00
 -1      3827 1.95236E+01 1.43641E+01 0.00000E+00
 -1      3828 6.16006E+01 2.67317E+01 0.00000E+00
 -1      3829 2.73027E+01 1.86859E+01 0.00000E+00
 -1      3830 2.59507E+01 1.67608E+01 0.00000E+00
 -1      3831 6.19055E+01 2.54968E+01 0.00000E+00
 -1      3832 6.29261E+01 2.58774E+01 0.00000E+00
 -1      3833 6.22105E+01 2.42619E+01 0.00000E+00
 -1      3834 2.44507E+01 1.67608E+01 0.00000E+00
 -1      3835 6.29210E+01 2.15812E+01 0.00000E+00
 -1      3836 6.25657E+01 2.29216E+01 0.00000E+00
 -1      3837 6.35863E+01 2.33022E+01 0.00000E+00
 -1      3838 2.77385E+01 2.54412E+01 0.00000E+00
 -1      3839 2.75050E+01 2.40936E+01 0.00000E+00
 -1      3840 2.71419E+01 1.97717E+01 0.00000E+00
 -1      3841 2.69151E+01 2.65842E+01 0.00000E+00
 -1      3842 6.58749E+01 1.66144E+01 0.00000E+00
 -1      3843 1.68870E+01 2.71820E+01 0.00000E+00
 -1      3844 1.68870E+01 2.86523E+01 0.00000E+00
 -1      3845 1.32616E+02 3.02505E+01 0.00000E+00
 -1      3846 6.42466E+01 2.57527E+01 0.00000E+00
 -1      3847 6.39417E+01 2.69876E+01 0.00000E+00
 -1      3848 6.49572E+01 2.80977E+01 0.00000E+00
 -1      3849 1.32692E+02 1.90886E+01 0.00000E+00
 -1      3850 1.30972E+02 1.90475E+01 0.00000E+00
 -1      3851 1.32692E+02 2.05558E+01 0.00000E+00
 -1      3852 1.33113E+02 2.57391E+01 0.00000E+00
 -1      3853 1.33113E+02 2.42672E+01 0.00000E+00
 -1      3854 1.29003E+02 1.71820E+01 0.00000E+00
 -1      3855 6.85350E+01 1.67836E+01 0.00000E+00
 -1      3856 2.76659E+01 2.30079E+01 0.00000E+00
 -1      3857 2.78267E+01 2.19221E+01 0.00000E+00
 -1      3858 2.67725E+01 2.38567E+01 0.00000E+00
 -1      3859 2.76880E+01 3.00560E+01 0.00000E+00
 -1      3860 1.69669E+01 1.57912E+01 0.00000E+00
 -1      3861 6.39181E+01 2.03333E+01 0.00000E+00
 -1      3862 1.68870E+01 2.12938E+01 0.00000E+00
 -1      3863 1.68870E+01 2.27687E+01 0.00000E+00
 -1      3864 2.25319E+01 1.62675E+01 0.00000E+00
 -1      3865 2.12138E+01 1.61177E+01 0.00000E+00
 -1      3866 1.65923E+01 3.29412E+01 0.00000E+00
 -1      3867 1.78822E+01 3.30958E+01 0.00000E+00
 -1      3868 1.86322E+01 3.17968E+01 0.00000E+00
 -1      3869 1.65968E+01 3.17624E+01 0.00000E+00
 -1      3870 2.36449E+01 1.79767E+01 0.00000E+00
 -1      3871 1.68870E+01 1.83438E+01 0.00000E+00
 -1      3872 1.68870E+01 1.98188E+01 0.00000E+00
 -1      3873 1.81860E+01 2.05562E+01 0.00000E+00
 -1      3874 1.33197E+02 2.80858E+01 0.00000E+00
 -1      3875 1.33155E+02 2.69124E+01 0.00000E+00
 -1      3876 1.31856E+02 2.61765E+01 0.00000E+00
 -1      3877 1.66012E+01 3.05835E+01 0.00000E+00
 -1      3878 1.79002E+01 2.98484E+01 0.00000E+00
 -1      3879 2.34000E+01 3.05150E+01 0.00000E+00
 -1      3880 2.49000E+01 3.05150E+01 0.00000E+00
 -1      3881 1.68870E+01 2.57117E+01 0.00000E+00
 -1      3882 1.81860E+01 2.64469E+01 0.00000E+00
 -1      3883 1.68870E+01 2.42414E+01 0.00000E+00
 -1      3884 1.32574E+02 2.90772E+01 0.00000E+00
 -1      3885 6.64572E+01 2.80977E+01 0.00000E+00
 -1      3886 6.84022E+01 2.80336E+01 0.00000E+00
 -1      3887 6.99022E+01 2.80336E+01 0.00000E+00
 -1      3888 7.14022E+01 2.80336E+01 0.00000E+00
 -1      3889 7.29022E+01 2.80336E+01 0.00000E+00
 -1      3890 7.06522E+01 2.67346E+01 0.00000E+00
 -1      3891 7.44022E+01 2.80336E+01 0.00000E+00
 -1      3892 7.59022E+01 2.80336E+01 0.00000E+00
 -1      3893 7.36522E+01 2.67346E+01 0.00000E+00
 -1      3894 7.74022E+01 2.80336E+01 0.00000E+00
 -1      3895 7.89022E+01 2.80336E+01 0.00000E+00
 -1      3896 7.66522E+01 2.67346E+01 0.00000E+00
 -1      3897 8.04022E+01 2.80336E+01 0.00000E+00
 -1      3898 8.19022E+01 2.80336E+01 0.00000E+00
 -1      3899 7.96522E+01 2.67346E+01 0.00000E+00
 -1      3900 8.34022E+01 2.80336E+01 0.00000E+00
 -1      3901 8.49022E+01 2.80336E+01 0.00000E+00
 -1      3902 8.26522E+01 2.67346E+01 0.00000E+00
 -1      3903 8.64022E+01 2.80336E+01 0.00000E+00
 -1      3904 8.79022E+01 2.80336E+01 0.00000E+00
 -1      3905 8.56522E+01 2.67346E+01 0.00000E+00
 -1      3906 8.94022E+01 2.80336E+01 0.00000E+00
 -1      3907 9.09022E+01 2.80336E+01 0.00000E+00
 -1      3908 8.86522E+01 2.67346E+01 0.00000E+00
 -1      3909 9.24022E+01 2.80336E+01 0.00000E+00
 -1      3910 9.39022E+01 2.80336E+01 0.00000E+00
 -1      3911 9.16522E+01 2.67346E+01 0.00000E+00
 -1      3912 9.54022E+01 2.80336E+01 0.00000E+00
 -1      3913 9.69022E+01 2.80336E+01 0.00000E+00
 -1      3914 9.46522E+01 2.67346E+01 0.00000E+00
 -1      3915 9.84022E+01 2.80336E+01 0.00000E+00
 -1      3916 9.99022E+01 2.80336E+01 0.00000E+00
 -1      3917 9.76522E+01 2.67346E+01 0.00000E+00
 -1      3918 1.01402E+02 2.80336E+01 0.00000E+00
 -1      3919 1.02902E+02 2.80336E+01 0.00000E+00
 -1      3920 1.00652E+02 2.67346E+01 0.00000E+00
 -1      3921 1.04402E+02 2.80336E+01 0.00000E+00
 -1      3922 1.05902E+02 2.80336E+01 0.00000E+00
 -1      3923 1.03652E+02 2.67346E+01 0.00000E+00
 -1      3924 1.07402E+02 2.80336E+01 0.00000E+00
 -1      3925 1.08902E+02 2.80336E+01 0.00000E+00
 -1      3926 1.06652E+02 2.67346E+01 0.00000E+00
 -1      3927 1.10402E+02 2.80336E+01 0.00000E+00
 -1      3928 1.11902E+02 2.80336E+01 0.00000E+00
 -1      3929 1.09652E+02 2.67346E+01 0.00000E+00
 -1      3930 1.13402E+02 2.80336E+01 0.00000E+00
 -1      3931 1.14902E+02 2.80336E+01 0.00000E+00
 -1      3932 1.12652E+02 2.67346E+01 0.00000E+00
 -1      3933 1.16402E+02 2.80336E+01 0.00000E+00
 -1      3934 1.17902E+02 2.80336E+01 0.00000E+00
 -1      3935 1.15652E+02 2.67346E+01 0.00000E+00
 -1      3936 1.19402E+02 2.80336E+01 0.00000E+00
 -1      3937 1.20902E+02 2.80336E+01 0.00000E+00
 -1      3938 1.18652E+02 2.67346E+01 0.00000E+00
 -1      3939 1.22402E+02 2.80336E+01 0.00000E+00
 -1      3940 1.23902E+02 2.80336E+01 0.00000E+00
 -1      3941 1.21652E+02 2.67346E+01 0.00000E+00
 -1      3942 1.25402E+02 2.80336E+01 0.00000E+00
 -1      3943 1.26902E+02 2.80336E+01 0.00000E+00
 -1      3944 1.24652E+02 2.67346E+01 0.00000E+00
 -1      3945 8.42850E+01 1.80826E+01 0.00000E+00
 -1      3946 8.27850E+01 1.80826E+01 0.00000E+00
 -1      3947 7.82850E+01 1.80826E+01 0.00000E+00
 -1      3948 7.67850E+01 1.80826E+01 0.00000E+00
 -1      3949 8.12850E+01 1.80826E+01 0.00000E+00
 -1      3950 7.97850E+01 1.80826E+01 0.00000E+00
 -1      3951 8.20350E+01 1.93816E+01 0.00000E+00
 -1      3952 7.52850E+01 1.80826E+01 0.00000E+00
 -1      3953 7.37850E+01 1.80826E+01 0.00000E+00
 -1      3954 7.60350E+01 1.93816E+01 0.00000E+00
 -1      3955 1.29003E+02 1.86492E+01 0.00000E+00
 -1      3956 1.27035E+02 1.82508E+01 0.00000E+00
 -1      3957 1.29003E+02 2.01164E+01 0.00000E+00
 -1      3958 8.72850E+01 1.80826E+01 0.00000E+00
 -1      3959 8.57850E+01 1.80826E+01 0.00000E+00
 -1      3960 8.50350E+01 1.93816E+01 0.00000E+00
 -1      3961 9.02850E+01 1.80826E+01 0.00000E+00
 -1      3962 8.87850E+01 1.80826E+01 0.00000E+00
 -1      3963 8.80350E+01 1.93816E+01 0.00000E+00
 -1      3964 9.32850E+01 1.80826E+01 0.00000E+00
 -1      3965 9.17850E+01 1.80826E+01 0.00000E+00
 -1      3966 9.10350E+01 1.93816E+01 0.00000E+00
 -1      3967 9.62850E+01 1.80826E+01 0.00000E+00
 -1      3968 9.47850E+01 1.80826E+01 0.00000E+00
 -1      3969 9.40350E+01 1.93816E+01 0.00000E+00
 -1      3970 9.92850E+01 1.80826E+01 0.00000E+00
 -1      3971 9.77850E+01 1.80826E+01 0.00000E+00
 -1      3972 9.70350E+01 1.93816E+01 0.00000E+00
 -1      3973 1.02285E+02 1.80826E+01 0.00000E+00
 -1      3974 1.00785E+02 1.80826E+01 0.00000E+00
 -1      3975 1.00035E+02 1.93816E+01 0.00000E+00
 -1      3976 1.05285E+02 1.80826E+01 0.00000E+00
 -1      3977 1.03785E+02 1.80826E+01 0.00000E+00
 -1      3978 1.03035E+02 1.93816E+01 0.00000E+00
 -1      3979 1.08285E+02 1.80826E+01 0.00000E+00
 -1      3980 1.06785E+02 1.80826E+01 0.00000E+00
 -1      3981 1.06035E+02 1.93816E+01 0.00000E+00
 -1      3982 1.11285E+02 1.80826E+01 0.00000E+00
 -1      3983 1.09785E+02 1.80826E+01 0.00000E+00
 -1      3984 1.09035E+02 1.93816E+01 0.00000E+00
 -1      3985 1.14285E+02 1.80826E+01 0.00000E+00
 -1      3986 1.12785E+02 1.80826E+01 0.00000E+00
 -1      3987 1.12035E+02 1.93816E+01 0.00000E+00
 -1      3988 1.17285E+02 1.80826E+01 0.00000E+00
 -1      3989 1.15785E+02 1.80826E+01 0.00000E+00
 -1      3990 1.15035E+02 1.93816E+01 0.00000E+00
 -1      3991 1.20285E+02 1.80826E+01 0.00000E+00
 -1      3992 1.18785E+02 1.80826E+01 0.00000E+00
 -1      3993 1.18035E+02 1.93816E+01 0.00000E+00
 -1      3994 1.23285E+02 1.80826E+01 0.00000E+00
 -1      3995 1.21785E+02 1.80826E+01 0.00000E+00
 -1      3996 1.21035E+02 1.93816E+01 0.00000E+00
 -1      3997 1.25910E+02 1.81667E+01 0.00000E+00
 -1      3998 1.24410E+02 1.81667E+01 0.00000E+00
 -1      3999 1.23660E+02 1.94657E+01 0.00000E+00
 -1      4000 1.25910E+02 1.96339E+01 0.00000E+00
 -1      4001 6.92850E+01 1.80826E+01 0.00000E+00
 -1      4002 6.77850E+01 1.80826E+01 0.00000E+00
 -1      4003 7.22850E+01 1.80826E+01 0.00000E+00
 -1      4004 7.07850E+01 1.80826E+01 0.00000E+00
 -1      4005 7.30350E+01 1.93816E+01 0.00000E+00
 -1      4006 2.04000E+01 3.05150E+01 0.00000E+00
 -1      4007 2.19000E+01 3.05150E+01 0.00000E+00
 -1      4008 2.26500E+01 2.92160E+01 0.00000E+00
 -1      4009 2.64342E+01 3.00200E+01 0.00000E+00
 -1      4010 2.58115E+01 2.76370E+01 0.00000E+00
 -1      4011 2.55081E+01 2.59953E+01 0.00000E+00
 -1      4012 1.31275E+02 2.83412E+01 0.00000E+00
 -1      4013 2.05483E+01 1.70953E+01 0.00000E+00
 -1      4014 2.00360E+01 1.57297E+01 0.00000E+00
 -1      4015 1.88581E+01 1.53417E+01 0.00000E+00
 -1      4016 6.54648E+01 1.77442E+01 0.00000E+00
 -1      4017 6.50547E+01 1.88740E+01 0.00000E+00
 -1      4018 6.66249E+01 1.79134E+01 0.00000E+00
 -1      4019 1.32902E+02 2.31451E+01 0.00000E+00
 -1      4020 1.32902E+02 2.16779E+01 0.00000E+00
 -1      4021 1.31182E+02 2.16368E+01 0.00000E+00
 -1      4022 1.31603E+02 2.38810E+01 0.00000E+00
 -1      4023 6.50782E+01 2.05025E+01 0.00000E+00
 -1      4024 1.81860E+01 2.35039E+01 0.00000E+00
 -1      4025 2.42809E+01 1.94814E+01 0.00000E+00
 -1      4026 2.23621E+01 1.89881E+01 0.00000E+00
 -1      4027 6.49571E+01 2.30720E+01 0.00000E+00
 -1      4028 6.46019E+01 2.44124E+01 0.00000E+00
 -1      4029 6.56174E+01 2.55225E+01 0.00000E+00
 -1      4030 2.62485E+01 2.06205E+01 0.00000E+00
 -1      4031 1.94850E+01 2.57117E+01 0.00000E+00
 -1      4032 1.94850E+01 2.71820E+01 0.00000E+00
 -1      4033 1.94850E+01 1.98188E+01 0.00000E+00
 -1      4034 1.94850E+01 2.12938E+01 0.00000E+00
 -1      4035 7.90350E+01 1.93816E+01 0.00000E+00
 -1      4036 6.72072E+01 2.67987E+01 0.00000E+00
 -1      4037 2.49657E+01 2.16319E+01 0.00000E+00
 -1      4038 1.28402E+02 2.80336E+01 0.00000E+00
 -1      4039 1.29902E+02 2.80336E+01 0.00000E+00
 -1      4040 6.73749E+01 1.92124E+01 0.00000E+00
 -1      4041 2.56842E+01 2.87210E+01 0.00000E+00
 -1      4042 1.74792E+01 1.71567E+01 0.00000E+00
 -1      4043 1.87782E+01 1.78942E+01 0.00000E+00
 -1      4044 7.00350E+01 1.93816E+01 0.00000E+00
 -1      4045 2.51565E+01 2.43564E+01 0.00000E+00
 -1      4046 2.53174E+01 2.32707E+01 0.00000E+00
 -1      4047 2.33497E+01 2.21316E+01 0.00000E+00
 -1      4048 2.40530E+01 2.54093E+01 0.00000E+00
 -1      4049 2.42773E+01 2.81320E+01 0.00000E+00
 -1      4050 1.30525E+02 2.70422E+01 0.00000E+00
 -1      4051 2.09670E+01 2.78314E+01 0.00000E+00
 -1      4052 1.96680E+01 2.85666E+01 0.00000E+00
 -1      4053 1.93822E+01 3.04978E+01 0.00000E+00
 -1      4054 2.12551E+01 1.90198E+01 0.00000E+00
 -1      4055 2.00772E+01 1.86318E+01 0.00000E+00
 -1      4056 1.30483E+02 2.58689E+01 0.00000E+00
 -1      4057 1.30273E+02 2.47468E+01 0.00000E+00
 -1      4058 1.30062E+02 2.36247E+01 0.00000E+00
 -1      4059 1.28942E+02 2.56125E+01 0.00000E+00
 -1      4060 1.94850E+01 2.27664E+01 0.00000E+00
 -1      4061 1.94850E+01 2.42391E+01 0.00000E+00
 -1      4062 2.07840E+01 2.49742E+01 0.00000E+00
 -1      4063 2.07840E+01 2.20289E+01 0.00000E+00
 -1      4064 6.67343E+01 2.04125E+01 0.00000E+00
 -1      4065 6.55977E+01 2.18719E+01 0.00000E+00
 -1      4066 6.66133E+01 2.29820E+01 0.00000E+00
 -1      4067 6.78944E+01 2.05818E+01 0.00000E+00
 -1      4068 2.18910E+01 2.05245E+01 0.00000E+00
 -1      4069 1.27652E+02 2.67346E+01 0.00000E+00
 -1      4070 7.97850E+01 2.06806E+01 0.00000E+00
 -1      4071 7.82850E+01 2.06806E+01 0.00000E+00
 -1      4072 6.99022E+01 2.54356E+01 0.00000E+00
 -1      4073 7.14022E+01 2.54356E+01 0.00000E+00
 -1      4074 7.29022E+01 2.54356E+01 0.00000E+00
 -1      4075 7.44022E+01 2.54356E+01 0.00000E+00
 -1      4076 7.21522E+01 2.41366E+01 0.00000E+00
 -1      4077 7.59022E+01 2.54356E+01 0.00000E+00
 -1      4078 7.74022E+01 2.54356E+01 0.00000E+00
 -1      4079 7.51522E+01 2.41366E+01 0.00000E+00
 -1      4080 7.85936E+01 2.43571E+01 0.00000E+00
 -1      4081 8.00936E+01 2.43571E+01 0.00000E+00
 -1      4082 8.49022E+01 2.54356E+01 0.00000E+00
 -1      4083 8.64022E+01 2.54356E+01 0.00000E+00
 -1      4084 8.79022E+01 2.54356E+01 0.00000E+00
 -1      4085 8.94022E+01 2.54356E+01 0.00000E+00
 -1      4086 8.71522E+01 2.41366E+01 0.00000E+00
 -1      4087 9.09022E+01 2.54356E+01 0.00000E+00
 -1      4088 9.24022E+01 2.54356E+01 0.00000E+00
 -1      4089 9.01522E+01 2.41366E+01 0.00000E+00
 -1      4090 9.39022E+01 2.54356E+01 0.00000E+00
 -1      4091 9.54022E+01 2.54356E+01 0.00000E+00
 -1      4092 9.31522E+01 2.41366E+01 0.00000E+00
 -1      4093 9.69022E+01 2.54356E+01 0.00000E+00
 -1      4094 9.84022E+01 2.54356E+01 0.00000E+00
 -1      4095 9.61522E+01 2.41366E+01 0.00000E+00
 -1      4096 9.99022E+01 2.54356E+01 0.00000E+00
 -1      4097 1.01402E+02 2.54356E+01 0.00000E+00
 -1      4098 9.91522E+01 2.41366E+01 0.00000E+00
 -1      4099 1.02902E+02 2.54356E+01 0.00000E+00
 -1      4100 1.04402E+02 2.54356E+01 0.00000E+00
 -1      4101 1.02152E+02 2.41366E+01 0.00000E+00
 -1      4102 1.05902E+02 2.54356E+01 0.00000E+00
 -1      4103 1.07402E+02 2.54356E+01 0.00000E+00
 -1      4104 1.05152E+02 2.41366E+01 0.00000E+00
 -1      4105 1.08902E+02 2.54356E+01 0.00000E+00
 -1      4106 1.10402E+02 2.54356E+01 0.00000E+00
 -1      4107 1.08152E+02 2.41366E+01 0.00000E+00
 -1      4108 1.11902E+02 2.54356E+01 0.00000E+00
 -1      4109 1.13402E+02 2.54356E+01 0.00000E+00
 -1      4110 1.11152E+02 2.41366E+01 0.00000E+00
 -1      4111 1.14902E+02 2.54356E+01 0.00000E+00
 -1      4112 1.16402E+02 2.54356E+01 0.00000E+00
 -1      4113 1.14152E+02 2.41366E+01 0.00000E+00
 -1      4114 1.17902E+02 2.54356E+01 0.00000E+00
 -1      4115 1.19402E+02 2.54356E+01 0.00000E+00
 -1      4116 1.17152E+02 2.41366E+01 0.00000E+00
 -1      4117 1.20902E+02 2.54356E+01 0.00000E+00
 -1      4118 1.22402E+02 2.54356E+01 0.00000E+00
 -1      4119 1.20152E+02 2.41366E+01 0.00000E+00
 -1      4120 1.23902E+02 2.54356E+01 0.00000E+00
 -1      4121 1.25402E+02 2.54356E+01 0.00000E+00
 -1      4122 1.23152E+02 2.41366E+01 0.00000E+00
 -1      4123 8.87850E+01 2.06806E+01 0.00000E+00
 -1      4124 8.72850E+01 2.06806E+01 0.00000E+00
 -1      4125 2.18910E+01 2.19972E+01 0.00000E+00
 -1      4126 6.75625E+01 2.54584E+01 0.00000E+00
 -1      4127 7.70936E+01 2.17591E+01 0.00000E+00
 -1      4128 7.55936E+01 2.17591E+01 0.00000E+00
 -1      4129 1.29214E+02 2.12385E+01 0.00000E+00
 -1      4130 1.27246E+02 2.08401E+01 0.00000E+00
 -1      4131 1.29424E+02 2.23606E+01 0.00000E+00
 -1      4132 7.10936E+01 2.17591E+01 0.00000E+00
 -1      4133 6.95936E+01 2.17591E+01 0.00000E+00
 -1      4134 9.20936E+01 2.17591E+01 0.00000E+00
 -1      4135 9.05936E+01 2.17591E+01 0.00000E+00
 -1      4136 9.50936E+01 2.17591E+01 0.00000E+00
 -1      4137 9.35936E+01 2.17591E+01 0.00000E+00
 -1      4138 9.80936E+01 2.17591E+01 0.00000E+00
 -1      4139 9.65936E+01 2.17591E+01 0.00000E+00
 -1      4140 1.01094E+02 2.17591E+01 0.00000E+00
 -1      4141 9.95936E+01 2.17591E+01 0.00000E+00
 -1      4142 1.04094E+02 2.17591E+01 0.00000E+00
 -1      4143 1.02594E+02 2.17591E+01 0.00000E+00
 -1      4144 1.07094E+02 2.17591E+01 0.00000E+00
 -1      4145 1.05594E+02 2.17591E+01 0.00000E+00
 -1      4146 1.10094E+02 2.17591E+01 0.00000E+00
 -1      4147 1.08594E+02 2.17591E+01 0.00000E+00
 -1      4148 1.13094E+02 2.17591E+01 0.00000E+00
 -1      4149 1.11594E+02 2.17591E+01 0.00000E+00
 -1      4150 1.16094E+02 2.17591E+01 0.00000E+00
 -1      4151 1.14594E+02 2.17591E+01 0.00000E+00
 -1      4152 1.19094E+02 2.17591E+01 0.00000E+00
 -1      4153 1.17594E+02 2.17591E+01 0.00000E+00
 -1      4154 1.22094E+02 2.17591E+01 0.00000E+00
 -1      4155 1.20594E+02 2.17591E+01 0.00000E+00
 -1      4156 7.40936E+01 2.17591E+01 0.00000E+00
 -1      4157 7.25936E+01 2.17591E+01 0.00000E+00
 -1      4158 2.25943E+01 2.67475E+01 0.00000E+00
 -1      4159 2.27773E+01 2.81320E+01 0.00000E+00
 -1      4160 1.27442E+02 2.56125E+01 0.00000E+00
 -1      4161 8.60936E+01 2.17591E+01 0.00000E+00
 -1      4162 8.45936E+01 2.17591E+01 0.00000E+00
 -1      4163 6.83125E+01 2.41594E+01 0.00000E+00
 -1      4164 2.22427E+01 2.51087E+01 0.00000E+00
 -1      4165 8.29393E+01 2.12199E+01 0.00000E+00
 -1      4166 8.14393E+01 2.12199E+01 0.00000E+00
 -1      4167 8.06893E+01 2.25189E+01 0.00000E+00
 -1      4168 8.39979E+01 2.35974E+01 0.00000E+00
 -1      4169 8.17479E+01 2.48964E+01 0.00000E+00
 -1      4170 8.32479E+01 2.48964E+01 0.00000E+00
 -1      4171 1.26692E+02 2.43135E+01 0.00000E+00
 -1      4172 2.22427E+01 2.36360E+01 0.00000E+00
 -1      4173 1.28094E+02 2.32263E+01 0.00000E+00
 -1      4174 1.26331E+02 2.18781E+01 0.00000E+00
 -1      4175 1.26121E+02 2.07560E+01 0.00000E+00
 -1      4176 1.24996E+02 2.06719E+01 0.00000E+00
 -1      4177 1.23594E+02 2.17591E+01 0.00000E+00
 -1      4178 6.89530E+01 2.29592E+01 0.00000E+00
 -1      4179 7.78436E+01 2.30581E+01 0.00000E+00
 -1      4180 8.68436E+01 2.30581E+01 0.00000E+00
 -1      4181 1.26054E+02 2.30494E+01 0.00000E+00
 -1      4182 8.98436E+01 2.30581E+01 0.00000E+00
 -1      4183 1.23871E+02 2.05878E+01 0.00000E+00
 -1      4184 8.83436E+01 2.30581E+01 0.00000E+00
 -1      4185 1.24929E+02 2.29653E+01 0.00000E+00
 -3
    3C                          2011                                     1
 -1       164    8    0    1
 -2         6         7        23      1088      1251      1105
 -1       165    8    0    1
 -2         7         8       164      1089      1252      1253
 -1       166    8    0    1
 -2         8         9       165      1090      1254      1255
 -1       167    8    0    1
 -2         8       165       164      1255      1256      1252
 -1       168    8    0    1
 -2         9        10       166      1091      1257      1258
 -1       169    8    0    1
 -2         9       166       165      1258      1259      1254
 -1       170    8    0    1
 -2        10        11       167      1092      1260      1261
 -1       171    8    0    1
 -2        10       167       166      1261      1262      1257
 -1       172    8    0    1
 -2        11        12       168      1093      1263      1264
 -1       173    8    0    1
 -2        11       168       167      1264      1265      1260
 -1       174    8    0    1
 -2        12        13       169      1094      1266      1267
 -1       175    8    0    1
 -2        12       169       168      1267      1268      1263
 -1       176    8    0    1
 -2        13        14       170      1095      1269      1270
 -1       177    8    0    1
 -2        13       170       169      1270      1271      1266
 -1       178    8    0    1
 -2        14        15       171      1096      1272      1273
 -1       179    8    0    1
 -2        14       171       170      1273      1274      1269
 -1       180    8    0    1
 -2        15        16       172      1097      1275      1276
 -1       181    8    0    1
 -2        15       172       171      1276      1277      1272
 -1       182    8    0    1
 -2        16        17       173      1098      1278      1279
 -1       183    8    0    1
 -2        16       173       172      1279      1280      1275
 -1       184    8    0    1
 -2        17        18       174      1099      1281      1282
 -1       185    8    0    1
 -2        17       174       173      1282      1283      1278
 -1       186    8    0    1
 -2        18        19       175      1100      1284      1285
 -1       187    8    0    1
 -2        18       175       174      1285      1286      1281
 -1       188    8    0    1
 -2        19        20       176      1101      1287      1288
 -1       189    8    0    1
 -2        19       176       175      1288      1289      1284
 -1       190    8    0    1
 -2        20        21       177      1102      1290      1291
 -1       191    8    0    1
 -2        20       177       176      1291      1292      1287
 -1       192    8    0    1
 -2        21        22       178      1103      1293      1294
 -1       193    8    0    1
 -2        21       178       177      1294      1295      1290
 -1       194    8    0    1
 -2        22         5       179      1104      1296      1297
 -1       195    8    0    1
 -2       178        22       179      1293      1297      1298
 -1       196    8    0    1
 -2         5        72       179      1155      1299      1296
 -1       197    8    0    1
 -2        24        23       180      1106      1300      1301
 -1       198    8    0    1
 -2        25        24       181      1107      1302      1303
 -1       199    8    0    1
 -2        24       180       181      1301      1304      1302
 -1       200    8    0    1
 -2        26        25       182      1108      1305      1306
 -1       201    8    0    1
 -2        25       181       182      1303      1307      1305
 -1       202    8    0    1
 -2        27        26       183      1109      1308      1309
 -1       203    8    0    1
 -2        26       182       183      1306      1310      1308
 -1       204    8    0    1
 -2        28        27       184      1110      1311      1312
 -1       205    8    0    1
 -2        27       183       184      1309      1313      1311
 -1       206    8    0    1
 -2        29        28       185      1111      1314      1315
 -1       207    8    0    1
 -2        28       184       185      1312      1316      1314
 -1       208    8    0    1
 -2        30        29       186      1112      1317      1318
 -1       209    8    0    1
 -2        29       185       186      1315      1319      1317
 -1       210    8    0    1
 -2        31        30       187      1113      1320      1321
 -1       211    8    0    1
 -2        30       186       187      1318      1322      1320
 -1       212    8    0    1
 -2        32        31       188      1114      1323      1324
 -1       213    8    0    1
 -2        31       187       188      1321      1325      1323
 -1       214    8    0    1
 -2        33        32       189      1115      1326      1327
 -1       215    8    0    1
 -2        32       188       189      1324      1328      1326
 -1       216    8    0    1
 -2        34        33       190      1116      1329      1330
 -1       217    8    0    1
 -2        33       189       190      1327      1331      1329
 -1       218    8    0    1
 -2        35        34       191      1117      1332      1333
 -1       219    8    0    1
 -2        34       190       191      1330      1334      1332
 -1       220    8    0    1
 -2        36        35       192      1118      1335      1336
 -1       221    8    0    1
 -2        35       191       192      1333      1337      1335
 -1       222    8    0    1
 -2        37        36       193      1119      1338      1339
 -1       223    8    0    1
 -2        36       192       193      1336      1340      1338
 -1       224    8    0    1
 -2        38        37       194      1120      1341      1342
 -1       225    8    0    1
 -2        37       193       194      1339      1343      1341
 -1       226    8    0    1
 -2        39        38       195      1121      1344      1345
 -1       227    8    0    1
 -2        38       194       195      1342      1346      1344
 -1       228    8    0    1
 -2        40        39       196      1122      1347      1348
 -1       229    8    0    1
 -2        39       195       196      1345      1349      1347
 -1       230    8    0    1
 -2        41        40       197      1123      1350      1351
 -1       231    8    0    1
 -2        40       196       197      1348      1352      1350
 -1       232    8    0    1
 -2        42        41       198      1124      1353      1354
 -1       233    8    0    1
 -2        41       197       198      1351      1355      1353
 -1       234    8    0    1
 -2        43        42       199      1125      1356      1357
 -1       235    8    0    1
 -2        42       198       199      1354      1358      1356
 -1       236    8    0    1
 -2        44        43       200      1126      1359      1360
 -1       237    8    0    1
 -2        43       199       200      1357      1361      1359
 -1       238    8    0    1
 -2        45        44       201      1127      1362      1363
 -1       239    8    0    1
 -2        44       200       201      1360      1364      1362
 -1       240    8    0    1
 -2        46        45       202      1128      1365      1366
 -1       241    8    0    1
 -2        45       201       202      1363      1367      1365
 -1       242    8    0    1
 -2        47        46       203      1129      1368      1369
 -1       243    8    0    1
 -2        46       202       203      1366      1370      1368
 -1       244    8    0    1
 -2        48        47       204      1130      1371      1372
 -1       245    8    0    1
 -2        47       203       204      1369      1373      1371
 -1       246    8    0    1
 -2        49        48       205      1131      1374      1375
 -1       247    8    0    1
 -2        48       204       205      1372      1376      1374
 -1       248    8    0    1
 -2        50        49       206      1132      1377      1378
 -1       249    8    0    1
 -2        49       205       206      1375      1379      1377
 -1       250    8    0    1
 -2        51        50       207      1133      1380      1381
 -1       251    8    0    1
 -2        50       206       207      1378      1382      1380
 -1       252    8    0    1
 -2        52        51       208      1134      1383      1384
 -1       253    8    0    1
 -2        51       207       208      1381      1385      1383
 -1       254    8    0    1
 -2        53        52       209      1135      1386      1387
 -1       255    8    0    1
 -2        52       208       209      1384      1388      1386
 -1       256    8    0    1
 -2        54        53       210      1136      1389      1390
 -1       257    8    0    1
 -2        53       209       210      1387      1391      1389
 -1       258    8    0    1
 -2        55        54       211      1137      1392      1393
 -1       259    8    0    1
 -2        54       210       211      1390      1394      1392
 -1       260    8    0    1
 -2        56        55       212      1138      1395      1396
 -1       261    8    0    1
 -2        55       211       212      1393      1397      1395
 -1       262    8    0    1
 -2        57        56       213      1139      1398      1399
 -1       263    8    0    1
 -2        56       212       213      1396      1400      1398
 -1       264    8    0    1
 -2        58        57       214      1140      1401      1402
 -1       265    8    0    1
 -2        57       213       214      1399      1403      1401
 -1       266    8    0    1
 -2        59        58       215      1141      1404      1405
 -1       267    8    0    1
 -2        58       214       215      1402      1406      1404
 -1       268    8    0    1
 -2        60        59       216      1142      1407      1408
 -1       269    8    0    1
 -2        59       215       216      1405      1409      1407
 -1       270    8    0    1
 -2        61        60       217      1143      1410      1411
 -1       271    8    0    1
 -2        60       216       217      1408      1412      1410
 -1       272    8    0    1
 -2        62        61       218      1144      1413      1414
 -1       273    8    0    1
 -2        61       217       218      1411      1415      1413
 -1       274    8    0    1
 -2        63        62       219      1145      1416      1417
 -1       275    8    0    1
 -2        62       218       219      1414      1418      1416
 -1       276    8    0    1
 -2        64        63       220      1146      1419      1420
 -1       277    8    0    1
 -2        63       219       220      1417      1421      1419
 -1       278    8    0    1
 -2        65        64       221      1147      1422      1423
 -1       279    8    0    1
 -2        64       220       221      1420      1424      1422
 -1       280    8    0    1
 -2        66        65       222      1148      1425      1426
 -1       281    8    0    1
 -2        65       221       222      1423      1427      1425
 -1       282    8    0    1
 -2        67        66       223      1149      1428      1429
 -1       283    8    0    1
 -2        66       222       223      1426      1430      1428
 -1       284    8    0    1
 -2        68        67       224      1150      1431      1432
 -1       285    8    0    1
 -2        67       223       224      1429      1433      1431
 -1       286    8    0    1
 -2        69        68       225      1151      1434      1435
 -1       287    8    0    1
 -2        68       224       225      1432      1436      1434
 -1       288    8    0    1
 -2        70        69       226      1152      1437      1438
 -1       289    8    0    1
 -2        69       225       226      1435      1439      1437
 -1       290    8    0    1
 -2        71        70       227      1153      1440      1441
 -1       291    8    0    1
 -2        70       226       227      1438      1442      1440
 -1       292    8    0    1
 -2         4        71       136      1154      1443      1221
 -1       293    8    0    1
 -2       136        71       227      1443      1441      1444
 -1       294    8    0    1
 -2        72        73       228      1156      1445      1446
 -1       295    8    0    1
 -2        72       228       179      1446      1447      1299
 -1       296    8    0    1
 -2        73        74       229      1157      1448      1449
 -1       297    8    0    1
 -2        73       229       228      1449      1450      1445
 -1       298    8    0    1
 -2        74        75       230      1158      1451      1452
 -1       299    8    0    1
 -2        74       230       229      1452      1453      1448
 -1       300    8    0    1
 -2        75        76       231      1159      1454      1455
 -1       301    8    0    1
 -2        75       231       230      1455      1456      1451
 -1       302    8    0    1
 -2        76        77       232      1160      1457      1458
 -1       303    8    0    1
 -2        76       232       231      1458      1459      1454
 -1       304    8    0    1
 -2        77        78       233      1161      1460      1461
 -1       305    8    0    1
 -2        77       233       232      1461      1462      1457
 -1       306    8    0    1
 -2        78        79       234      1162      1463      1464
 -1       307    8    0    1
 -2        78       234       233      1464      1465      1460
 -1       308    8    0    1
 -2        79        80       235      1163      1466      1467
 -1       309    8    0    1
 -2        79       235       234      1467      1468      1463
 -1       310    8    0    1
 -2        80        81       236      1164      1469      1470
 -1       311    8    0    1
 -2        80       236       235      1470      1471      1466
 -1       312    8    0    1
 -2        81        82       237      1165      1472      1473
 -1       313    8    0    1
 -2        81       237       236      1473      1474      1469
 -1       314    8    0    1
 -2        82        83       238      1166      1475      1476
 -1       315    8    0    1
 -2        82       238       237      1476      1477      1472
 -1       316    8    0    1
 -2        83        84       239      1167      1478      1479
 -1       317    8    0    1
 -2        83       239       238      1479      1480      1475
 -1       318    8    0    1
 -2        84        85       240      1168      1481      1482
 -1       319    8    0    1
 -2        84       240       239      1482      1483      1478
 -1       320    8    0    1
 -2        85        86       241      1169      1484      1485
 -1       321    8    0    1
 -2        85       241       240      1485      1486      1481
 -1       322    8    0    1
 -2        86        87       242      1170      1487      1488
 -1       323    8    0    1
 -2        86       242       241      1488      1489      1484
 -1       324    8    0    1
 -2        87        88       243      1171      1490      1491
 -1       325    8    0    1
 -2        87       243       242      1491      1492      1487
 -1       326    8    0    1
 -2        88        89       244      1172      1493      1494
 -1       327    8    0    1
 -2        88       244       243      1494      1495      1490
 -1       328    8    0    1
 -2        89        90       245      1173      1496      1497
 -1       329    8    0    1
 -2        89       245       244      1497      1498      1493
 -1       330    8    0    1
 -2        90        91       246      1174      1499      1500
 -1       331    8    0    1
 -2        90       246       245      1500      1501      1496
 -1       332    8    0    1
 -2        91        92       247      1175      1502      1503
 -1       333    8    0    1
 -2        91       247       246      1503      1504      1499
 -1       334    8    0    1
 -2        92        93       248      1176      1505      1506
 -1       335    8    0    1
 -2        92       248       247      1506      1507      1502
 -1       336    8    0    1
 -2        93        94       249      1177      1508      1509
 -1       337    8    0    1
 -2        93       249       248      1509      1510      1505
 -1       338    8    0    1
 -2        94        95       250      1178      1511      1512
 -1       339    8    0    1
 -2        94       250       249      1512      1513      1508
 -1       340    8    0    1
 -2        95        96       251      1179      1514      1515
 -1       341    8    0    1
 -2        95       251       250      1515      1516      1511
 -1       342    8    0    1
 -2        96        97       252      1180      1517      1518
 -1       343    8    0    1
 -2        96       252       251      1518      1519      1514
 -1       344    8    0    1
 -2        97        98       253      1181      1520      1521
 -1       345    8    0    1
 -2        97       253       252      1521      1522      1517
 -1       346    8    0    1
 -2        98        99       254      1182      1523      1524
 -1       347    8    0    1
 -2        98       254       253      1524      1525      1520
 -1       348    8    0    1
 -2        99       100       255      1183      1526      1527
 -1       349    8    0    1
 -2        99       255       254      1527      1528      1523
 -1       350    8    0    1
 -2       100       101       256      1184      1529      1530
 -1       351    8    0    1
 -2       100       256       255      1530      1531      1526
 -1       352    8    0    1
 -2       101       102       257      1185      1532      1533
 -1       353    8    0    1
 -2       101       257       256      1533      1534      1529
 -1       354    8    0    1
 -2       102       103       258      1186      1535      1536
 -1       355    8    0    1
 -2       102       258       257      1536      1537      1532
 -1       356    8    0    1
 -2       103       104       259      1187      1538      1539
 -1       357    8    0    1
 -2       103       259       258      1539      1540      1535
 -1       358    8    0    1
 -2       104       105       260      1188      1541      1542
 -1       359    8    0    1
 -2       104       260       259      1542      1543      1538
 -1       360    8    0    1
 -2       105       106       261      1189      1544      1545
 -1       361    8    0    1
 -2       105       261       260      1545      1546      1541
 -1       362    8    0    1
 -2       106       107       262      1190      1547      1548
 -1       363    8    0    1
 -2       106       262       261      1548      1549      1544
 -1       364    8    0    1
 -2       107       108       263      1191      1550      1551
 -1       365    8    0    1
 -2       107       263       262      1551      1552      1547
 -1       366    8    0    1
 -2       108       109       264      1192      1553      1554
 -1       367    8    0    1
 -2       108       264       263      1554      1555      1550
 -1       368    8    0    1
 -2       109       110       265      1193      1556      1557
 -1       369    8    0    1
 -2       109       265       264      1557      1558      1553
 -1       370    8    0    1
 -2       110       111       266      1194      1559      1560
 -1       371    8    0    1
 -2       110       266       265      1560      1561      1556
 -1       372    8    0    1
 -2       111       112       267      1195      1562      1563
 -1       373    8    0    1
 -2       111       267       266      1563      1564      1559
 -1       374    8    0    1
 -2       112       113       268      1196      1565      1566
 -1       375    8    0    1
 -2       112       268       267      1566      1567      1562
 -1       376    8    0    1
 -2       113       114       269      1197      1568      1569
 -1       377    8    0    1
 -2       113       269       268      1569      1570      1565
 -1       378    8    0    1
 -2       114       115       270      1198      1571      1572
 -1       379    8    0    1
 -2       114       270       269      1572      1573      1568
 -1       380    8    0    1
 -2       115       116       271      1199      1574      1575
 -1       381    8    0    1
 -2       115       271       270      1575      1576      1571
 -1       382    8    0    1
 -2       116       117       272      1200      1577      1578
 -1       383    8    0    1
 -2       116       272       271      1578      1579      1574
 -1       384    8    0    1
 -2       117       118       273      1201      1580      1581
 -1       385    8    0    1
 -2       117       273       272      1581      1582      1577
 -1       386    8    0    1
 -2       118       119       274      1202      1583      1584
 -1       387    8    0    1
 -2       118       274       273      1584      1585      1580
 -1       388    8    0    1
 -2       119       120       275      1203      1586      1587
 -1       389    8    0    1
 -2       119       275       274      1587      1588      1583
 -1       390    8    0    1
 -2       120         3       121      1204      1205      1589
 -1       391    8    0    1
 -2       121       122       276      1206      1590      1591
 -1       392    8    0    1
 -2       122       123       277      1207      1592      1593
 -1       393    8    0    1
 -2       122       277       276      1593      1594      1590
 -1       394    8    0    1
 -2       123       124       278      1208      1595      1596
 -1       395    8    0    1
 -2       123       278       277      1596      1597      1592
 -1       396    8    0    1
 -2       124       125       279      1209      1598      1599
 -1       397    8    0    1
 -2       124       279       278      1599      1600      1595
 -1       398    8    0    1
 -2       125       126       280      1210      1601      1602
 -1       399    8    0    1
 -2       125       280       279      1602      1603      1598
 -1       400    8    0    1
 -2       126       127       281      1211      1604      1605
 -1       401    8    0    1
 -2       126       281       280      1605      1606      1601
 -1       402    8    0    1
 -2       127       128       282      1212      1607      1608
 -1       403    8    0    1
 -2       127       282       281      1608      1609      1604
 -1       404    8    0    1
 -2       128       129       283      1213      1610      1611
 -1       405    8    0    1
 -2       128       283       282      1611      1612      1607
 -1       406    8    0    1
 -2       129       130       284      1214      1613      1614
 -1       407    8    0    1
 -2       129       284       283      1614      1615      1610
 -1       408    8    0    1
 -2       130       131       285      1215      1616      1617
 -1       409    8    0    1
 -2       130       285       284      1617      1618      1613
 -1       410    8    0    1
 -2       131       132       286      1216      1619      1620
 -1       411    8    0    1
 -2       131       286       285      1620      1621      1616
 -1       412    8    0    1
 -2       132       133       287      1217      1622      1623
 -1       413    8    0    1
 -2       132       287       286      1623      1624      1619
 -1       414    8    0    1
 -2       133       134       288      1218      1625      1626
 -1       415    8    0    1
 -2       133       288       287      1626      1627      1622
 -1       416    8    0    1
 -2       134       135       289      1219      1628      1629
 -1       417    8    0    1
 -2       134       289       288      1629      1630      1625
 -1       418    8    0    1
 -2       135       136       290      1220      1631      1632
 -1       419    8    0    1
 -2       289       135       290      1628      1632      1633
 -1       420    8    0    1
 -2       136       227       290      1444      1634      1631
 -1       421    8    0    1
 -2         2       137       291      1222      1635      1636
 -1       422    8    0    1
 -2       137       138       292      1223      1637      1638
 -1       423    8    0    1
 -2       138       139       293      1224      1639      1640
 -1       424    8    0    1
 -2       139       140       294      1225      1641      1642
 -1       425    8    0    1
 -2       140       141       295      1226      1643      1644
 -1       426    8    0    1
 -2       141       142       296      1227      1645      1646
 -1       427    8    0    1
 -2       142       143       297      1228      1647      1648
 -1       428    8    0    1
 -2       143       144       298      1229      1649      1650
 -1       429    8    0    1
 -2       144       145       299      1230      1651      1652
 -1       430    8    0    1
 -2       145       146       300      1231      1653      1654
 -1       431    8    0    1
 -2       146       147       301      1232      1655      1656
 -1       432    8    0    1
 -2       147       148       302      1233      1657      1658
 -1       433    8    0    1
 -2       148       149       303      1234      1659      1660
 -1       434    8    0    1
 -2       149       150       304      1235      1661      1662
 -1       435    8    0    1
 -2       150       151       305      1236      1663      1664
 -1       436    8    0    1
 -2       151       152       306      1237      1665      1666
 -1       437    8    0    1
 -2       152       153       307      1238      1667      1668
 -1       438    8    0    1
 -2       153       154       308      1239      1669      1670
 -1       439    8    0    1
 -2       154       155       309      1240      1671      1672
 -1       440    8    0    1
 -2       155         1       310      1241      1673      1674
 -1       441    8    0    1
 -2         1       156       311      1242      1675      1676
 -1       442    8    0    1
 -2       156       157       312      1243      1677      1678
 -1       443    8    0    1
 -2       157       158       313      1244      1679      1680
 -1       444    8    0    1
 -2       158       159       314      1245      1681      1682
 -1       445    8    0    1
 -2       159       160       315      1246      1683      1684
 -1       446    8    0    1
 -2       160       161       316      1247      1685      1686
 -1       447    8    0    1
 -2       161       162       317      1248      1687      1688
 -1       448    8    0    1
 -2       162       163       318      1249      1689      1690
 -1       449    8    0    1
 -2       163         2       319      1250      1691      1692
 -1       450    8    0    1
 -2       294       140       295      1641      1644      1693
 -1       451    8    0    1
 -2       293       139       294      1639      1642      1694
 -1       452    8    0    1
 -2       120       121       275      1589      1695      1586
 -1       453    8    0    1
 -2       121       276       275      1591      1696      1695
 -1       454    8    0    1
 -2       291       137       292      1635      1638      1697
 -1       455    8    0    1
 -2       292       138       293      1637      1640      1698
 -1       456    8    0    1
 -2         2       291       319      1636      1699      1691
 -1       457    8    0    1
 -2       141       296       295      1646      1700      1643
 -1       458    8    0    1
 -2       142       297       296      1648      1701      1645
 -1       459    8    0    1
 -2       143       298       297      1650      1702      1647
 -1       460    8    0    1
 -2       144       299       298      1652      1703      1649
 -1       461    8    0    1
 -2       145       300       299      1654      1704      1651
 -1       462    8    0    1
 -2       146       301       300      1656      1705      1653
 -1       463    8    0    1
 -2       147       302       301      1658      1706      1655
 -1       464    8    0    1
 -2       148       303       302      1660      1707      1657
 -1       465    8    0    1
 -2       149       304       303      1662      1708      1659
 -1       466    8    0    1
 -2       150       305       304      1664      1709      1661
 -1       467    8    0    1
 -2       151       306       305      1666      1710      1663
 -1       468    8    0    1
 -2       152       307       306      1668      1711      1665
 -1       469    8    0    1
 -2       153       308       307      1670      1712      1667
 -1       470    8    0    1
 -2       154       309       308      1672      1713      1669
 -1       471    8    0    1
 -2       155       310       309      1674      1714      1671
 -1       472    8    0    1
 -2         1       311       310      1676      1715      1673
 -1       473    8    0    1
 -2       156       312       311      1678      1716      1675
 -1       474    8    0    1
 -2       157       313       312      1680      1717      1677
 -1       475    8    0    1
 -2       158       314       313      1682      1718      1679
 -1       476    8    0    1
 -2       159       315       314      1684      1719      1681
 -1       477    8    0    1
 -2       160       316       315      1686      1720      1683
 -1       478    8    0    1
 -2       161       317       316      1688      1721      1685
 -1       479    8    0    1
 -2       162       318       317      1690      1722      1687
 -1       480    8    0    1
 -2       163       319       318      1692      1723      1689
 -1       481    8    0    1
 -2        23         7       164      1251      1253      1724
 -1       482    8    0    1
 -2       165       166       320      1259      1725      1726
 -1       483    8    0    1
 -2       164       165       321      1256      1727      1728
 -1       484    8    0    1
 -2       165       320       321      1726      1729      1727
 -1       485    8    0    1
 -2       167       168       322      1265      1730      1731
 -1       486    8    0    1
 -2       168       169       323      1268      1732      1733
 -1       487    8    0    1
 -2       168       323       322      1733      1734      1730
 -1       488    8    0    1
 -2       169       170       324      1271      1735      1736
 -1       489    8    0    1
 -2       169       324       323      1736      1737      1732
 -1       490    8    0    1
 -2       170       171       325      1274      1738      1739
 -1       491    8    0    1
 -2       170       325       324      1739      1740      1735
 -1       492    8    0    1
 -2       171       172       326      1277      1741      1742
 -1       493    8    0    1
 -2       171       326       325      1742      1743      1738
 -1       494    8    0    1
 -2       172       173       327      1280      1744      1745
 -1       495    8    0    1
 -2       172       327       326      1745      1746      1741
 -1       496    8    0    1
 -2       173       174       328      1283      1747      1748
 -1       497    8    0    1
 -2       173       328       327      1748      1749      1744
 -1       498    8    0    1
 -2       174       175       329      1286      1750      1751
 -1       499    8    0    1
 -2       174       329       328      1751      1752      1747
 -1       500    8    0    1
 -2       175       176       330      1289      1753      1754
 -1       501    8    0    1
 -2       175       330       329      1754      1755      1750
 -1       502    8    0    1
 -2       176       177       331      1292      1756      1757
 -1       503    8    0    1
 -2       176       331       330      1757      1758      1753
 -1       504    8    0    1
 -2       177       178       332      1295      1759      1760
 -1       505    8    0    1
 -2       177       332       331      1760      1761      1756
 -1       506    8    0    1
 -2       178       179       333      1298      1762      1763
 -1       507    8    0    1
 -2       332       178       333      1759      1763      1764
 -1       508    8    0    1
 -2       179       228       333      1447      1765      1762
 -1       509    8    0    1
 -2       180        23       164      1300      1724      1766
 -1       510    8    0    1
 -2       228       229       334      1450      1767      1768
 -1       511    8    0    1
 -2       228       334       333      1768      1769      1765
 -1       512    8    0    1
 -2       180       164       321      1766      1728      1770
 -1       513    8    0    1
 -2       182       181       335      1307      1771      1772
 -1       514    8    0    1
 -2       183       182       336      1310      1773      1774
 -1       515    8    0    1
 -2       182       335       336      1772      1775      1773
 -1       516    8    0    1
 -2       184       183       337      1313      1776      1777
 -1       517    8    0    1
 -2       183       336       337      1774      1778      1776
 -1       518    8    0    1
 -2       185       184       338      1316      1779      1780
 -1       519    8    0    1
 -2       184       337       338      1777      1781      1779
 -1       520    8    0    1
 -2       186       185       339      1319      1782      1783
 -1       521    8    0    1
 -2       185       338       339      1780      1784      1782
 -1       522    8    0    1
 -2       187       186       340      1322      1785      1786
 -1       523    8    0    1
 -2       186       339       340      1783      1787      1785
 -1       524    8    0    1
 -2       188       187       341      1325      1788      1789
 -1       525    8    0    1
 -2       187       340       341      1786      1790      1788
 -1       526    8    0    1
 -2       189       188       342      1328      1791      1792
 -1       527    8    0    1
 -2       188       341       342      1789      1793      1791
 -1       528    8    0    1
 -2       190       189       343      1331      1794      1795
 -1       529    8    0    1
 -2       189       342       343      1792      1796      1794
 -1       530    8    0    1
 -2       191       190       344      1334      1797      1798
 -1       531    8    0    1
 -2       190       343       344      1795      1799      1797
 -1       532    8    0    1
 -2       192       191       345      1337      1800      1801
 -1       533    8    0    1
 -2       191       344       345      1798      1802      1800
 -1       534    8    0    1
 -2       193       192       346      1340      1803      1804
 -1       535    8    0    1
 -2       192       345       346      1801      1805      1803
 -1       536    8    0    1
 -2       194       193       347      1343      1806      1807
 -1       537    8    0    1
 -2       193       346       347      1804      1808      1806
 -1       538    8    0    1
 -2       195       194       348      1346      1809      1810
 -1       539    8    0    1
 -2       194       347       348      1807      1811      1809
 -1       540    8    0    1
 -2       196       195       349      1349      1812      1813
 -1       541    8    0    1
 -2       195       348       349      1810      1814      1812
 -1       542    8    0    1
 -2       197       196       350      1352      1815      1816
 -1       543    8    0    1
 -2       196       349       350      1813      1817      1815
 -1       544    8    0    1
 -2       198       197       351      1355      1818      1819
 -1       545    8    0    1
 -2       197       350       351      1816      1820      1818
 -1       546    8    0    1
 -2       199       198       352      1358      1821      1822
 -1       547    8    0    1
 -2       198       351       352      1819      1823      1821
 -1       548    8    0    1
 -2       200       199       353      1361      1824      1825
 -1       549    8    0    1
 -2       199       352       353      1822      1826      1824
 -1       550    8    0    1
 -2       201       200       354      1364      1827      1828
 -1       551    8    0    1
 -2       200       353       354      1825      1829      1827
 -1       552    8    0    1
 -2       202       201       355      1367      1830      1831
 -1       553    8    0    1
 -2       201       354       355      1828      1832      1830
 -1       554    8    0    1
 -2       203       202       356      1370      1833      1834
 -1       555    8    0    1
 -2       202       355       356      1831      1835      1833
 -1       556    8    0    1
 -2       204       203       357      1373      1836      1837
 -1       557    8    0    1
 -2       203       356       357      1834      1838      1836
 -1       558    8    0    1
 -2       205       204       358      1376      1839      1840
 -1       559    8    0    1
 -2       204       357       358      1837      1841      1839
 -1       560    8    0    1
 -2       206       205       359      1379      1842      1843
 -1       561    8    0    1
 -2       205       358       359      1840      1844      1842
 -1       562    8    0    1
 -2       207       206       360      1382      1845      1846
 -1       563    8    0    1
 -2       206       359       360      1843      1847      1845
 -1       564    8    0    1
 -2       208       207       361      1385      1848      1849
 -1       565    8    0    1
 -2       207       360       361      1846      1850      1848
 -1       566    8    0    1
 -2       209       208       362      1388      1851      1852
 -1       567    8    0    1
 -2       208       361       362      1849      1853      1851
 -1       568    8    0    1
 -2       210       209       363      1391      1854      1855
 -1       569    8    0    1
 -2       209       362       363      1852      1856      1854
 -1       570    8    0    1
 -2       211       210       364      1394      1857      1858
 -1       571    8    0    1
 -2       210       363       364      1855      1859      1857
 -1       572    8    0    1
 -2       212       211       365      1397      1860      1861
 -1       573    8    0    1
 -2       211       364       365      1858      1862      1860
 -1       574    8    0    1
 -2       213       212       366      1400      1863      1864
 -1       575    8    0    1
 -2       212       365       366      1861      1865      1863
 -1       576    8    0    1
 -2       214       213       367      1403      1866      1867
 -1       577    8    0    1
 -2       213       366       367      1864      1868      1866
 -1       578    8    0    1
 -2       215       214       368      1406      1869      1870
 -1       579    8    0    1
 -2       214       367       368      1867      1871      1869
 -1       580    8    0    1
 -2       216       215       369      1409      1872      1873
 -1       581    8    0    1
 -2       215       368       369      1870      1874      1872
 -1       582    8    0    1
 -2       217       216       370      1412      1875      1876
 -1       583    8    0    1
 -2       216       369       370      1873      1877      1875
 -1       584    8    0    1
 -2       218       217       371      1415      1878      1879
 -1       585    8    0    1
 -2       217       370       371      1876      1880      1878
 -1       586    8    0    1
 -2       219       218       372      1418      1881      1882
 -1       587    8    0    1
 -2       218       371       372      1879      1883      1881
 -1       588    8    0    1
 -2       220       219       373      1421      1884      1885
 -1       589    8    0    1
 -2       219       372       373      1882      1886      1884
 -1       590    8    0    1
 -2       221       220       374      1424      1887      1888
 -1       591    8    0    1
 -2       220       373       374      1885      1889      1887
 -1       592    8    0    1
 -2       222       221       375      1427      1890      1891
 -1       593    8    0    1
 -2       221       374       375      1888      1892      1890
 -1       594    8    0    1
 -2       223       222       376      1430      1893      1894
 -1       595    8    0    1
 -2       222       375       376      1891      1895      1893
 -1       596    8    0    1
 -2       224       223       377      1433      1896      1897
 -1       597    8    0    1
 -2       223       376       377      1894      1898      1896
 -1       598    8    0    1
 -2       225       224       378      1436      1899      1900
 -1       599    8    0    1
 -2       224       377       378      1897      1901      1899
 -1       600    8    0    1
 -2       226       225       379      1439      1902      1903
 -1       601    8    0    1
 -2       225       378       379      1900      1904      1902
 -1       602    8    0    1
 -2       227       226       380      1442      1905      1906
 -1       603    8    0    1
 -2       290       227       380      1634      1906      1907
 -1       604    8    0    1
 -2       226       379       380      1903      1908      1905
 -1       605    8    0    1
 -2       229       230       381      1453      1909      1910
 -1       606    8    0    1
 -2       229       381       334      1910      1911      1767
 -1       607    8    0    1
 -2       230       231       382      1456      1912      1913
 -1       608    8    0    1
 -2       230       382       381      1913      1914      1909
 -1       609    8    0    1
 -2       231       232       383      1459      1915      1916
 -1       610    8    0    1
 -2       231       383       382      1916      1917      1912
 -1       611    8    0    1
 -2       232       233       384      1462      1918      1919
 -1       612    8    0    1
 -2       232       384       383      1919      1920      1915
 -1       613    8    0    1
 -2       233       234       385      1465      1921      1922
 -1       614    8    0    1
 -2       233       385       384      1922      1923      1918
 -1       615    8    0    1
 -2       234       235       386      1468      1924      1925
 -1       616    8    0    1
 -2       234       386       385      1925      1926      1921
 -1       617    8    0    1
 -2       235       236       387      1471      1927      1928
 -1       618    8    0    1
 -2       235       387       386      1928      1929      1924
 -1       619    8    0    1
 -2       236       237       388      1474      1930      1931
 -1       620    8    0    1
 -2       236       388       387      1931      1932      1927
 -1       621    8    0    1
 -2       237       238       389      1477      1933      1934
 -1       622    8    0    1
 -2       237       389       388      1934      1935      1930
 -1       623    8    0    1
 -2       238       239       390      1480      1936      1937
 -1       624    8    0    1
 -2       238       390       389      1937      1938      1933
 -1       625    8    0    1
 -2       239       240       391      1483      1939      1940
 -1       626    8    0    1
 -2       239       391       390      1940      1941      1936
 -1       627    8    0    1
 -2       240       241       392      1486      1942      1943
 -1       628    8    0    1
 -2       240       392       391      1943      1944      1939
 -1       629    8    0    1
 -2       241       242       393      1489      1945      1946
 -1       630    8    0    1
 -2       241       393       392      1946      1947      1942
 -1       631    8    0    1
 -2       242       243       394      1492      1948      1949
 -1       632    8    0    1
 -2       242       394       393      1949      1950      1945
 -1       633    8    0    1
 -2       243       244       395      1495      1951      1952
 -1       634    8    0    1
 -2       243       395       394      1952      1953      1948
 -1       635    8    0    1
 -2       244       245       396      1498      1954      1955
 -1       636    8    0    1
 -2       244       396       395      1955      1956      1951
 -1       637    8    0    1
 -2       245       246       397      1501      1957      1958
 -1       638    8    0    1
 -2       245       397       396      1958      1959      1954
 -1       639    8    0    1
 -2       246       247       398      1504      1960      1961
 -1       640    8    0    1
 -2       246       398       397      1961      1962      1957
 -1       641    8    0    1
 -2       247       248       399      1507      1963      1964
 -1       642    8    0    1
 -2       247       399       398      1964      1965      1960
 -1       643    8    0    1
 -2       248       249       400      1510      1966      1967
 -1       644    8    0    1
 -2       248       400       399      1967      1968      1963
 -1       645    8    0    1
 -2       249       250       401      1513      1969      1970
 -1       646    8    0    1
 -2       249       401       400      1970      1971      1966
 -1       647    8    0    1
 -2       250       251       402      1516      1972      1973
 -1       648    8    0    1
 -2       250       402       401      1973      1974      1969
 -1       649    8    0    1
 -2       251       252       403      1519      1975      1976
 -1       650    8    0    1
 -2       251       403       402      1976      1977      1972
 -1       651    8    0    1
 -2       252       253       404      1522      1978      1979
 -1       652    8    0    1
 -2       252       404       403      1979      1980      1975
 -1       653    8    0    1
 -2       253       254       405      1525      1981      1982
 -1       654    8    0    1
 -2       253       405       404      1982      1983      1978
 -1       655    8    0    1
 -2       254       255       406      1528      1984      1985
 -1       656    8    0    1
 -2       254       406       405      1985      1986      1981
 -1       657    8    0    1
 -2       255       256       407      1531      1987      1988
 -1       658    8    0    1
 -2       255       407       406      1988      1989      1984
 -1       659    8    0    1
 -2       256       257       408      1534      1990      1991
 -1       660    8    0    1
 -2       256       408       407      1991      1992      1987
 -1       661    8    0    1
 -2       257       258       409      1537      1993      1994
 -1       662    8    0    1
 -2       257       409       408      1994      1995      1990
 -1       663    8    0    1
 -2       258       259       410      1540      1996      1997
 -1       664    8    0    1
 -2       258       410       409      1997      1998      1993
 -1       665    8    0    1
 -2       259       260       411      1543      1999      2000
 -1       666    8    0    1
 -2       259       411       410      2000      2001      1996
 -1       667    8    0    1
 -2       260       261       412      1546      2002      2003
 -1       668    8    0    1
 -2       260       412       411      2003      2004      1999
 -1       669    8    0    1
 -2       261       262       413      1549      2005      2006
 -1       670    8    0    1
 -2       261       413       412      2006      2007      2002
 -1       671    8    0    1
 -2       262       263       414      1552      2008      2009
 -1       672    8    0    1
 -2       262       414       413      2009      2010      2005
 -1       673    8    0    1
 -2       263       264       415      1555      2011      2012
 -1       674    8    0    1
 -2       263       415       414      2012      2013      2008
 -1       675    8    0    1
 -2       264       265       416      1558      2014      2015
 -1       676    8    0    1
 -2       264       416       415      2015      2016      2011
 -1       677    8    0    1
 -2       265       266       417      1561      2017      2018
 -1       678    8    0    1
 -2       265       417       416      2018      2019      2014
 -1       679    8    0    1
 -2       266       267       418      1564      2020      2021
 -1       680    8    0    1
 -2       266       418       417      2021      2022      2017
 -1       681    8    0    1
 -2       267       268       419      1567      2023      2024
 -1       682    8    0    1
 -2       267       419       418      2024      2025      2020
 -1       683    8    0    1
 -2       268       269       420      1570      2026      2027
 -1       684    8    0    1
 -2       268       420       419      2027      2028      2023
 -1       685    8    0    1
 -2       269       270       421      1573      2029      2030
 -1       686    8    0    1
 -2       269       421       420      2030      2031      2026
 -1       687    8    0    1
 -2       270       271       422      1576      2032      2033
 -1       688    8    0    1
 -2       270       422       421      2033      2034      2029
 -1       689    8    0    1
 -2       271       272       423      1579      2035      2036
 -1       690    8    0    1
 -2       271       423       422      2036      2037      2032
 -1       691    8    0    1
 -2       272       273       424      1582      2038      2039
 -1       692    8    0    1
 -2       272       424       423      2039      2040      2035
 -1       693    8    0    1
 -2       273       274       425      1585      2041      2042
 -1       694    8    0    1
 -2       273       425       424      2042      2043      2038
 -1       695    8    0    1
 -2       274       275       426      1588      2044      2045
 -1       696    8    0    1
 -2       425       274       426      2041      2045      2046
 -1       697    8    0    1
 -2       275       276       426      1696      2047      2044
 -1       698    8    0    1
 -2       278       279       427      1600      2048      2049
 -1       699    8    0    1
 -2       277       278       428      1597      2050      2051
 -1       700    8    0    1
 -2       278       427       428      2049      2052      2050
 -1       701    8    0    1
 -2       276       277       429      1594      2053      2054
 -1       702    8    0    1
 -2       426       276       429      2047      2054      2055
 -1       703    8    0    1
 -2       277       428       429      2051      2056      2053
 -1       704    8    0    1
 -2       279       280       430      1603      2057      2058
 -1       705    8    0    1
 -2       279       430       427      2058      2059      2048
 -1       706    8    0    1
 -2       280       281       431      1606      2060      2061
 -1       707    8    0    1
 -2       280       431       430      2061      2062      2057
 -1       708    8    0    1
 -2       281       282       432      1609      2063      2064
 -1       709    8    0    1
 -2       281       432       431      2064      2065      2060
 -1       710    8    0    1
 -2       282       283       433      1612      2066      2067
 -1       711    8    0    1
 -2       282       433       432      2067      2068      2063
 -1       712    8    0    1
 -2       283       284       434      1615      2069      2070
 -1       713    8    0    1
 -2       283       434       433      2070      2071      2066
 -1       714    8    0    1
 -2       284       285       435      1618      2072      2073
 -1       715    8    0    1
 -2       284       435       434      2073      2074      2069
 -1       716    8    0    1
 -2       285       286       436      1621      2075      2076
 -1       717    8    0    1
 -2       285       436       435      2076      2077      2072
 -1       718    8    0    1
 -2       286       287       437      1624      2078      2079
 -1       719    8    0    1
 -2       286       437       436      2079      2080      2075
 -1       720    8    0    1
 -2       287       288       438      1627      2081      2082
 -1       721    8    0    1
 -2       287       438       437      2082      2083      2078
 -1       722    8    0    1
 -2       288       289       439      1630      2084      2085
 -1       723    8    0    1
 -2       288       439       438      2085      2086      2081
 -1       724    8    0    1
 -2       292       293       440      1698      2087      2088
 -1       725    8    0    1
 -2       319       291       441      1699      2089      2090
 -1       726    8    0    1
 -2       291       292       442      1697      2091      2092
 -1       727    8    0    1
 -2       292       440       442      2088      2093      2091
 -1       728    8    0    1
 -2       293       294       443      1694      2094      2095
 -1       729    8    0    1
 -2       294       295       444      1693      2096      2097
 -1       730    8    0    1
 -2       166       167       445      1262      2098      2099
 -1       731    8    0    1
 -2       320       166       445      1725      2099      2100
 -1       732    8    0    1
 -2       167       322       445      1731      2101      2098
 -1       733    8    0    1
 -2       296       297       446      1701      2102      2103
 -1       734    8    0    1
 -2       297       298       447      1702      2104      2105
 -1       735    8    0    1
 -2       298       299       448      1703      2106      2107
 -1       736    8    0    1
 -2       299       300       449      1704      2108      2109
 -1       737    8    0    1
 -2       299       449       448      2109      2110      2106
 -1       738    8    0    1
 -2       300       301       450      1705      2111      2112
 -1       739    8    0    1
 -2       301       302       451      1706      2113      2114
 -1       740    8    0    1
 -2       301       451       450      2114      2115      2111
 -1       741    8    0    1
 -2       302       303       452      1707      2116      2117
 -1       742    8    0    1
 -2       303       304       453      1708      2118      2119
 -1       743    8    0    1
 -2       303       453       452      2119      2120      2116
 -1       744    8    0    1
 -2       304       305       454      1709      2121      2122
 -1       745    8    0    1
 -2       305       306       455      1710      2123      2124
 -1       746    8    0    1
 -2       306       307       456      1711      2125      2126
 -1       747    8    0    1
 -2       307       308       457      1712      2127      2128
 -1       748    8    0    1
 -2       307       457       456      2128      2129      2125
 -1       749    8    0    1
 -2       308       309       458      1713      2130      2131
 -1       750    8    0    1
 -2       309       310       459      1714      2132      2133
 -1       751    8    0    1
 -2       310       311       460      1715      2134      2135
 -1       752    8    0    1
 -2       311       312       461      1716      2136      2137
 -1       753    8    0    1
 -2       311       461       460      2137      2138      2134
 -1       754    8    0    1
 -2       312       313       462      1717      2139      2140
 -1       755    8    0    1
 -2       313       314       463      1718      2141      2142
 -1       756    8    0    1
 -2       314       315       464      1719      2143      2144
 -1       757    8    0    1
 -2       315       316       465      1720      2145      2146
 -1       758    8    0    1
 -2       316       317       466      1721      2147      2148
 -1       759    8    0    1
 -2       317       318       467      1722      2149      2150
 -1       760    8    0    1
 -2       318       319       468      1723      2151      2152
 -1       761    8    0    1
 -2       295       296       469      1700      2153      2154
 -1       762    8    0    1
 -2       295       469       444      2154      2155      2096
 -1       763    8    0    1
 -2       180       321       181      1770      2156      1304
 -1       764    8    0    1
 -2       296       446       469      2103      2157      2153
 -1       765    8    0    1
 -2       335       181       321      1771      2156      2158
 -1       766    8    0    1
 -2       441       291       470      2089      2159      2160
 -1       767    8    0    1
 -2       291       442       470      2092      2161      2159
 -1       768    8    0    1
 -2       293       443       440      2095      2162      2087
 -1       769    8    0    1
 -2       439       289       290      2084      1633      2163
 -1       770    8    0    1
 -2       319       441       468      2090      2164      2151
 -1       771    8    0    1
 -2       443       294       444      2094      2097      2165
 -1       772    8    0    1
 -2       467       318       468      2149      2152      2166
 -1       773    8    0    1
 -2       466       317       467      2147      2150      2167
 -1       774    8    0    1
 -2       465       316       466      2145      2148      2168
 -1       775    8    0    1
 -2       464       315       465      2143      2146      2169
 -1       776    8    0    1
 -2       463       314       464      2141      2144      2170
 -1       777    8    0    1
 -2       461       312       462      2136      2140      2171
 -1       778    8    0    1
 -2       459       310       471      2132      2172      2173
 -1       779    8    0    1
 -2       310       460       471      2135      2174      2172
 -1       780    8    0    1
 -2       457       308       472      2127      2175      2176
 -1       781    8    0    1
 -2       308       458       472      2131      2177      2175
 -1       782    8    0    1
 -2       455       306       456      2123      2126      2178
 -1       783    8    0    1
 -2       453       304       454      2118      2122      2179
 -1       784    8    0    1
 -2       451       302       452      2113      2117      2180
 -1       785    8    0    1
 -2       449       300       450      2108      2112      2181
 -1       786    8    0    1
 -2       446       297       447      2102      2105      2182
 -1       787    8    0    1
 -2       447       298       448      2104      2107      2183
 -1       788    8    0    1
 -2       454       305       455      2121      2124      2184
 -1       789    8    0    1
 -2       458       309       459      2130      2133      2185
 -1       790    8    0    1
 -2       462       313       463      2139      2142      2186
 -1       791    8    0    1
 -2       334       381       473      1911      2187      2188
 -1       792    8    0    1
 -2       323       324       474      1737      2189      2190
 -1       793    8    0    1
 -2       322       323       475      1734      2191      2192
 -1       794    8    0    1
 -2       323       474       475      2190      2193      2191
 -1       795    8    0    1
 -2       325       326       476      1743      2194      2195
 -1       796    8    0    1
 -2       326       327       477      1746      2196      2197
 -1       797    8    0    1
 -2       326       477       476      2197      2198      2194
 -1       798    8    0    1
 -2       327       328       478      1749      2199      2200
 -1       799    8    0    1
 -2       327       478       477      2200      2201      2196
 -1       800    8    0    1
 -2       328       329       479      1752      2202      2203
 -1       801    8    0    1
 -2       328       479       478      2203      2204      2199
 -1       802    8    0    1
 -2       329       330       480      1755      2205      2206
 -1       803    8    0    1
 -2       329       480       479      2206      2207      2202
 -1       804    8    0    1
 -2       330       331       481      1758      2208      2209
 -1       805    8    0    1
 -2       330       481       480      2209      2210      2205
 -1       806    8    0    1
 -2       381       382       482      1914      2211      2212
 -1       807    8    0    1
 -2       381       482       473      2212      2213      2187
 -1       808    8    0    1
 -2       336       335       483      1775      2214      2215
 -1       809    8    0    1
 -2       469       446       484      2157      2216      2217
 -1       810    8    0    1
 -2       337       336       485      1778      2218      2219
 -1       811    8    0    1
 -2       336       483       485      2215      2220      2218
 -1       812    8    0    1
 -2       338       337       486      1781      2221      2222
 -1       813    8    0    1
 -2       337       485       486      2219      2223      2221
 -1       814    8    0    1
 -2       339       338       487      1784      2224      2225
 -1       815    8    0    1
 -2       338       486       487      2222      2226      2224
 -1       816    8    0    1
 -2       340       339       488      1787      2227      2228
 -1       817    8    0    1
 -2       339       487       488      2225      2229      2227
 -1       818    8    0    1
 -2       341       340       489      1790      2230      2231
 -1       819    8    0    1
 -2       340       488       489      2228      2232      2230
 -1       820    8    0    1
 -2       342       341       490      1793      2233      2234
 -1       821    8    0    1
 -2       341       489       490      2231      2235      2233
 -1       822    8    0    1
 -2       343       342       491      1796      2236      2237
 -1       823    8    0    1
 -2       342       490       491      2234      2238      2236
 -1       824    8    0    1
 -2       344       343       492      1799      2239      2240
 -1       825    8    0    1
 -2       343       491       492      2237      2241      2239
 -1       826    8    0    1
 -2       345       344       493      1802      2242      2243
 -1       827    8    0    1
 -2       344       492       493      2240      2244      2242
 -1       828    8    0    1
 -2       346       345       494      1805      2245      2246
 -1       829    8    0    1
 -2       345       493       494      2243      2247      2245
 -1       830    8    0    1
 -2       347       346       495      1808      2248      2249
 -1       831    8    0    1
 -2       346       494       495      2246      2250      2248
 -1       832    8    0    1
 -2       348       347       496      1811      2251      2252
 -1       833    8    0    1
 -2       347       495       496      2249      2253      2251
 -1       834    8    0    1
 -2       349       348       497      1814      2254      2255
 -1       835    8    0    1
 -2       348       496       497      2252      2256      2254
 -1       836    8    0    1
 -2       350       349       498      1817      2257      2258
 -1       837    8    0    1
 -2       349       497       498      2255      2259      2257
 -1       838    8    0    1
 -2       351       350       499      1820      2260      2261
 -1       839    8    0    1
 -2       350       498       499      2258      2262      2260
 -1       840    8    0    1
 -2       352       351       500      1823      2263      2264
 -1       841    8    0    1
 -2       351       499       500      2261      2265      2263
 -1       842    8    0    1
 -2       353       352       501      1826      2266      2267
 -1       843    8    0    1
 -2       352       500       501      2264      2268      2266
 -1       844    8    0    1
 -2       354       353       502      1829      2269      2270
 -1       845    8    0    1
 -2       353       501       502      2267      2271      2269
 -1       846    8    0    1
 -2       355       354       503      1832      2272      2273
 -1       847    8    0    1
 -2       354       502       503      2270      2274      2272
 -1       848    8    0    1
 -2       356       355       504      1835      2275      2276
 -1       849    8    0    1
 -2       355       503       504      2273      2277      2275
 -1       850    8    0    1
 -2       357       356       505      1838      2278      2279
 -1       851    8    0    1
 -2       356       504       505      2276      2280      2278
 -1       852    8    0    1
 -2       358       357       506      1841      2281      2282
 -1       853    8    0    1
 -2       357       505       506      2279      2283      2281
 -1       854    8    0    1
 -2       359       358       507      1844      2284      2285
 -1       855    8    0    1
 -2       358       506       507      2282      2286      2284
 -1       856    8    0    1
 -2       360       359       508      1847      2287      2288
 -1       857    8    0    1
 -2       359       507       508      2285      2289      2287
 -1       858    8    0    1
 -2       361       360       509      1850      2290      2291
 -1       859    8    0    1
 -2       360       508       509      2288      2292      2290
 -1       860    8    0    1
 -2       362       361       510      1853      2293      2294
 -1       861    8    0    1
 -2       361       509       510      2291      2295      2293
 -1       862    8    0    1
 -2       363       362       511      1856      2296      2297
 -1       863    8    0    1
 -2       362       510       511      2294      2298      2296
 -1       864    8    0    1
 -2       364       363       512      1859      2299      2300
 -1       865    8    0    1
 -2       363       511       512      2297      2301      2299
 -1       866    8    0    1
 -2       365       364       513      1862      2302      2303
 -1       867    8    0    1
 -2       364       512       513      2300      2304      2302
 -1       868    8    0    1
 -2       366       365       514      1865      2305      2306
 -1       869    8    0    1
 -2       365       513       514      2303      2307      2305
 -1       870    8    0    1
 -2       367       366       515      1868      2308      2309
 -1       871    8    0    1
 -2       366       514       515      2306      2310      2308
 -1       872    8    0    1
 -2       368       367       516      1871      2311      2312
 -1       873    8    0    1
 -2       367       515       516      2309      2313      2311
 -1       874    8    0    1
 -2       369       368       517      1874      2314      2315
 -1       875    8    0    1
 -2       368       516       517      2312      2316      2314
 -1       876    8    0    1
 -2       370       369       518      1877      2317      2318
 -1       877    8    0    1
 -2       369       517       518      2315      2319      2317
 -1       878    8    0    1
 -2       371       370       519      1880      2320      2321
 -1       879    8    0    1
 -2       370       518       519      2318      2322      2320
 -1       880    8    0    1
 -2       372       371       520      1883      2323      2324
 -1       881    8    0    1
 -2       371       519       520      2321      2325      2323
 -1       882    8    0    1
 -2       373       372       521      1886      2326      2327
 -1       883    8    0    1
 -2       372       520       521      2324      2328      2326
 -1       884    8    0    1
 -2       374       373       522      1889      2329      2330
 -1       885    8    0    1
 -2       373       521       522      2327      2331      2329
 -1       886    8    0    1
 -2       375       374       523      1892      2332      2333
 -1       887    8    0    1
 -2       374       522       523      2330      2334      2332
 -1       888    8    0    1
 -2       376       375       524      1895      2335      2336
 -1       889    8    0    1
 -2       375       523       524      2333      2337      2335
 -1       890    8    0    1
 -2       377       376       525      1898      2338      2339
 -1       891    8    0    1
 -2       376       524       525      2336      2340      2338
 -1       892    8    0    1
 -2       378       377       526      1901      2341      2342
 -1       893    8    0    1
 -2       377       525       526      2339      2343      2341
 -1       894    8    0    1
 -2       379       378       527      1904      2344      2345
 -1       895    8    0    1
 -2       378       526       527      2342      2346      2344
 -1       896    8    0    1
 -2       442       440       528      2093      2347      2348
 -1       897    8    0    1
 -2       383       384       529      1920      2349      2350
 -1       898    8    0    1
 -2       384       385       530      1923      2351      2352
 -1       899    8    0    1
 -2       384       530       529      2352      2353      2349
 -1       900    8    0    1
 -2       385       386       531      1926      2354      2355
 -1       901    8    0    1
 -2       385       531       530      2355      2356      2351
 -1       902    8    0    1
 -2       386       387       532      1929      2357      2358
 -1       903    8    0    1
 -2       386       532       531      2358      2359      2354
 -1       904    8    0    1
 -2       387       388       533      1932      2360      2361
 -1       905    8    0    1
 -2       387       533       532      2361      2362      2357
 -1       906    8    0    1
 -2       388       389       534      1935      2363      2364
 -1       907    8    0    1
 -2       388       534       533      2364      2365      2360
 -1       908    8    0    1
 -2       389       390       535      1938      2366      2367
 -1       909    8    0    1
 -2       389       535       534      2367      2368      2363
 -1       910    8    0    1
 -2       390       391       536      1941      2369      2370
 -1       911    8    0    1
 -2       390       536       535      2370      2371      2366
 -1       912    8    0    1
 -2       391       392       537      1944      2372      2373
 -1       913    8    0    1
 -2       391       537       536      2373      2374      2369
 -1       914    8    0    1
 -2       392       393       538      1947      2375      2376
 -1       915    8    0    1
 -2       392       538       537      2376      2377      2372
 -1       916    8    0    1
 -2       393       394       539      1950      2378      2379
 -1       917    8    0    1
 -2       393       539       538      2379      2380      2375
 -1       918    8    0    1
 -2       394       395       540      1953      2381      2382
 -1       919    8    0    1
 -2       394       540       539      2382      2383      2378
 -1       920    8    0    1
 -2       395       396       541      1956      2384      2385
 -1       921    8    0    1
 -2       395       541       540      2385      2386      2381
 -1       922    8    0    1
 -2       396       397       542      1959      2387      2388
 -1       923    8    0    1
 -2       396       542       541      2388      2389      2384
 -1       924    8    0    1
 -2       397       398       543      1962      2390      2391
 -1       925    8    0    1
 -2       397       543       542      2391      2392      2387
 -1       926    8    0    1
 -2       398       399       544      1965      2393      2394
 -1       927    8    0    1
 -2       398       544       543      2394      2395      2390
 -1       928    8    0    1
 -2       399       400       545      1968      2396      2397
 -1       929    8    0    1
 -2       399       545       544      2397      2398      2393
 -1       930    8    0    1
 -2       400       401       546      1971      2399      2400
 -1       931    8    0    1
 -2       400       546       545      2400      2401      2396
 -1       932    8    0    1
 -2       401       402       547      1974      2402      2403
 -1       933    8    0    1
 -2       401       547       546      2403      2404      2399
 -1       934    8    0    1
 -2       402       403       548      1977      2405      2406
 -1       935    8    0    1
 -2       402       548       547      2406      2407      2402
 -1       936    8    0    1
 -2       403       404       549      1980      2408      2409
 -1       937    8    0    1
 -2       403       549       548      2409      2410      2405
 -1       938    8    0    1
 -2       404       405       550      1983      2411      2412
 -1       939    8    0    1
 -2       404       550       549      2412      2413      2408
 -1       940    8    0    1
 -2       405       406       551      1986      2414      2415
 -1       941    8    0    1
 -2       405       551       550      2415      2416      2411
 -1       942    8    0    1
 -2       406       407       552      1989      2417      2418
 -1       943    8    0    1
 -2       406       552       551      2418      2419      2414
 -1       944    8    0    1
 -2       407       408       553      1992      2420      2421
 -1       945    8    0    1
 -2       407       553       552      2421      2422      2417
 -1       946    8    0    1
 -2       408       409       554      1995      2423      2424
 -1       947    8    0    1
 -2       408       554       553      2424      2425      2420
 -1       948    8    0    1
 -2       409       410       555      1998      2426      2427
 -1       949    8    0    1
 -2       409       555       554      2427      2428      2423
 -1       950    8    0    1
 -2       410       411       556      2001      2429      2430
 -1       951    8    0    1
 -2       410       556       555      2430      2431      2426
 -1       952    8    0    1
 -2       411       412       557      2004      2432      2433
 -1       953    8    0    1
 -2       411       557       556      2433      2434      2429
 -1       954    8    0    1
 -2       412       413       558      2007      2435      2436
 -1       955    8    0    1
 -2       412       558       557      2436      2437      2432
 -1       956    8    0    1
 -2       413       414       559      2010      2438      2439
 -1       957    8    0    1
 -2       413       559       558      2439      2440      2435
 -1       958    8    0    1
 -2       414       415       560      2013      2441      2442
 -1       959    8    0    1
 -2       414       560       559      2442      2443      2438
 -1       960    8    0    1
 -2       415       416       561      2016      2444      2445
 -1       961    8    0    1
 -2       415       561       560      2445      2446      2441
 -1       962    8    0    1
 -2       416       417       562      2019      2447      2448
 -1       963    8    0    1
 -2       416       562       561      2448      2449      2444
 -1       964    8    0    1
 -2       417       418       563      2022      2450      2451
 -1       965    8    0    1
 -2       417       563       562      2451      2452      2447
 -1       966    8    0    1
 -2       418       419       564      2025      2453      2454
 -1       967    8    0    1
 -2       418       564       563      2454      2455      2450
 -1       968    8    0    1
 -2       419       420       565      2028      2456      2457
 -1       969    8    0    1
 -2       419       565       564      2457      2458      2453
 -1       970    8    0    1
 -2       420       421       566      2031      2459      2460
 -1       971    8    0    1
 -2       420       566       565      2460      2461      2456
 -1       972    8    0    1
 -2       421       422       567      2034      2462      2463
 -1       973    8    0    1
 -2       421       567       566      2463      2464      2459
 -1       974    8    0    1
 -2       422       423       568      2037      2465      2466
 -1       975    8    0    1
 -2       422       568       567      2466      2467      2462
 -1       976    8    0    1
 -2       423       424       569      2040      2468      2469
 -1       977    8    0    1
 -2       423       569       568      2469      2470      2465
 -1       978    8    0    1
 -2       424       425       570      2043      2471      2472
 -1       979    8    0    1
 -2       424       570       569      2472      2473      2468
 -1       980    8    0    1
 -2       425       426       429      2046      2055      2474
 -1       981    8    0    1
 -2       430       431       571      2062      2475      2476
 -1       982    8    0    1
 -2       431       432       572      2065      2477      2478
 -1       983    8    0    1
 -2       431       572       571      2478      2479      2475
 -1       984    8    0    1
 -2       428       427       573      2052      2480      2481
 -1       985    8    0    1
 -2       427       430       574      2059      2482      2483
 -1       986    8    0    1
 -2       573       427       574      2480      2483      2484
 -1       987    8    0    1
 -2       430       571       574      2476      2485      2482
 -1       988    8    0    1
 -2       432       433       575      2068      2486      2487
 -1       989    8    0    1
 -2       432       575       572      2487      2488      2477
 -1       990    8    0    1
 -2       433       434       576      2071      2489      2490
 -1       991    8    0    1
 -2       433       576       575      2490      2491      2486
 -1       992    8    0    1
 -2       434       435       577      2074      2492      2493
 -1       993    8    0    1
 -2       434       577       576      2493      2494      2489
 -1       994    8    0    1
 -2       435       436       578      2077      2495      2496
 -1       995    8    0    1
 -2       435       578       577      2496      2497      2492
 -1       996    8    0    1
 -2       436       437       579      2080      2498      2499
 -1       997    8    0    1
 -2       436       579       578      2499      2500      2495
 -1       998    8    0    1
 -2       437       438       580      2083      2501      2502
 -1       999    8    0    1
 -2       437       580       579      2502      2503      2498
 -1      1000    8    0    1
 -2       438       439       581      2086      2504      2505
 -1      1001    8    0    1
 -2       438       581       580      2505      2506      2501
 -1      1002    8    0    1
 -2       439       290       380      2163      1907      2507
 -1      1003    8    0    1
 -2       468       441       582      2164      2508      2509
 -1      1004    8    0    1
 -2       382       383       583      1917      2510      2511
 -1      1005    8    0    1
 -2       383       529       583      2350      2512      2510
 -1      1006    8    0    1
 -2       440       443       584      2162      2513      2514
 -1      1007    8    0    1
 -2       467       468       585      2166      2515      2516
 -1      1008    8    0    1
 -2       335       321       586      2158      2517      2518
 -1      1009    8    0    1
 -2       483       335       586      2214      2518      2519
 -1      1010    8    0    1
 -2       321       320       586      1729      2520      2517
 -1      1011    8    0    1
 -2       443       444       587      2165      2521      2522
 -1      1012    8    0    1
 -2       455       456       588      2178      2523      2524
 -1      1013    8    0    1
 -2       446       447       589      2182      2525      2526
 -1      1014    8    0    1
 -2       446       589       484      2526      2527      2216
 -1      1015    8    0    1
 -2       324       325       590      1740      2528      2529
 -1      1016    8    0    1
 -2       474       324       590      2189      2529      2530
 -1      1017    8    0    1
 -2       325       476       590      2195      2531      2528
 -1      1018    8    0    1
 -2       447       448       591      2183      2532      2533
 -1      1019    8    0    1
 -2       454       455       592      2184      2534      2535
 -1      1020    8    0    1
 -2       448       449       593      2110      2536      2537
 -1      1021    8    0    1
 -2       448       593       591      2537      2538      2532
 -1      1022    8    0    1
 -2       449       450       594      2181      2539      2540
 -1      1023    8    0    1
 -2       450       451       595      2115      2541      2542
 -1      1024    8    0    1
 -2       451       452       596      2180      2543      2544
 -1      1025    8    0    1
 -2       451       596       595      2544      2545      2541
 -1      1026    8    0    1
 -2       452       453       597      2120      2546      2547
 -1      1027    8    0    1
 -2       458       459       598      2185      2548      2549
 -1      1028    8    0    1
 -2       453       454       599      2179      2550      2551
 -1      1029    8    0    1
 -2       456       457       600      2129      2552      2553
 -1      1030    8    0    1
 -2       462       463       601      2186      2554      2555
 -1      1031    8    0    1
 -2       460       461       602      2138      2556      2557
 -1      1032    8    0    1
 -2       461       462       603      2171      2558      2559
 -1      1033    8    0    1
 -2       463       464       604      2170      2560      2561
 -1      1034    8    0    1
 -2       463       604       601      2561      2562      2554
 -1      1035    8    0    1
 -2       464       465       605      2169      2563      2564
 -1      1036    8    0    1
 -2       465       466       606      2168      2565      2566
 -1      1037    8    0    1
 -2       466       467       607      2167      2567      2568
 -1      1038    8    0    1
 -2       444       469       608      2155      2569      2570
 -1      1039    8    0    1
 -2       587       444       608      2521      2570      2571
 -1      1040    8    0    1
 -2       469       484       608      2217      2572      2569
 -1      1041    8    0    1
 -2       333       334       609      1769      2573      2574
 -1      1042    8    0    1
 -2       332       333       609      1764      2574      2575
 -1      1043    8    0    1
 -2       334       473       609      2188      2576      2573
 -1      1044    8    0    1
 -2       447       591       610      2533      2577      2578
 -1      1045    8    0    1
 -2       447       610       589      2578      2579      2525
 -1      1046    8    0    1
 -2       322       475       611      2192      2580      2581
 -1      1047    8    0    1
 -2       322       611       445      2581      2582      2101
 -1      1048    8    0    1
 -2       482       382       583      2211      2511      2583
 -1      1049    8    0    1
 -2       331       332       609      1761      2575      2584
 -1      1050    8    0    1
 -2       441       470       612      2160      2585      2586
 -1      1051    8    0    1
 -2       441       612       582      2586      2587      2508
 -1      1052    8    0    1
 -2       606       466       607      2565      2568      2588
 -1      1053    8    0    1
 -2       604       464       605      2560      2564      2589
 -1      1054    8    0    1
 -2       470       442       528      2161      2348      2590
 -1      1055    8    0    1
 -2       468       582       585      2509      2591      2515
 -1      1056    8    0    1
 -2       528       440       584      2347      2514      2592
 -1      1057    8    0    1
 -2       425       429       570      2474      2593      2471
 -1      1058    8    0    1
 -2       429       428       570      2056      2594      2593
 -1      1059    8    0    1
 -2       603       462       601      2558      2555      2595
 -1      1060    8    0    1
 -2       439       380       613      2507      2596      2597
 -1      1061    8    0    1
 -2       581       439       613      2504      2597      2598
 -1      1062    8    0    1
 -2       380       379       613      1908      2599      2596
 -1      1063    8    0    1
 -2       602       461       603      2556      2559      2600
 -1      1064    8    0    1
 -2       331       609       481      2584      2601      2208
 -1      1065    8    0    1
 -2       584       443       587      2513      2522      2602
 -1      1066    8    0    1
 -2       600       457       472      2552      2176      2603
 -1      1067    8    0    1
 -2       467       585       607      2516      2604      2567
 -1      1068    8    0    1
 -2       599       454       592      2550      2535      2605
 -1      1069    8    0    1
 -2       588       456       600      2523      2553      2606
 -1      1070    8    0    1
 -2       455       588       592      2524      2607      2534
 -1      1071    8    0    1
 -2       598       459       614      2548      2608      2609
 -1      1072    8    0    1
 -2       459       471       614      2173      2610      2608
 -1      1073    8    0    1
 -2       596       452       597      2543      2547      2611
 -1      1074    8    0    1
 -2       593       449       594      2536      2540      2612
 -1      1075    8    0    1
 -2       471       460       615      2174      2613      2614
 -1      1076    8    0    1
 -2       460       602       615      2557      2615      2613
 -1      1077    8    0    1
 -2       472       458       598      2177      2549      2616
 -1      1078    8    0    1
 -2       586       320       445      2520      2100      2617
 -1      1079    8    0    1
 -2       594       450       595      2539      2542      2618
 -1      1080    8    0    1
 -2       597       453       599      2546      2551      2619
 -1      1081    8    0    1
 -2       605       465       606      2563      2566      2620
 -1      1082    8    0    1
 -2       570       428       573      2594      2481      2621
 -1      1083    8    0    1
 -2       613       379       527      2599      2345      2622
 -1      1084    8    0    1
 -2       477       478       616      2201      2623      2624
 -1      1085    8    0    1
 -2       476       477       617      2198      2625      2626
 -1      1086    8    0    1
 -2       477       616       617      2624      2627      2625
 -1      1087    8    0    1
 -2       479       480       618      2207      2628      2629
 -1      1088    8    0    1
 -2       480       481       619      2210      2630      2631
 -1      1089    8    0    1
 -2       480       619       618      2631      2632      2628
 -1      1090    8    0    1
 -2       473       482       620      2213      2633      2634
 -1      1091    8    0    1
 -2       584       587       621      2602      2635      2636
 -1      1092    8    0    1
 -2       482       583       622      2583      2637      2638
 -1      1093    8    0    1
 -2       482       622       620      2638      2639      2633
 -1      1094    8    0    1
 -2       609       473       481      2576      2640      2601
 -1      1095    8    0    1
 -2       486       485       623      2223      2641      2642
 -1      1096    8    0    1
 -2       487       486       624      2226      2643      2644
 -1      1097    8    0    1
 -2       486       623       624      2642      2645      2643
 -1      1098    8    0    1
 -2       488       487       625      2229      2646      2647
 -1      1099    8    0    1
 -2       487       624       625      2644      2648      2646
 -1      1100    8    0    1
 -2       489       488       626      2232      2649      2650
 -1      1101    8    0    1
 -2       488       625       626      2647      2651      2649
 -1      1102    8    0    1
 -2       490       489       627      2235      2652      2653
 -1      1103    8    0    1
 -2       489       626       627      2650      2654      2652
 -1      1104    8    0    1
 -2       491       490       628      2238      2655      2656
 -1      1105    8    0    1
 -2       490       627       628      2653      2657      2655
 -1      1106    8    0    1
 -2       492       491       629      2241      2658      2659
 -1      1107    8    0    1
 -2       491       628       629      2656      2660      2658
 -1      1108    8    0    1
 -2       493       492       630      2244      2661      2662
 -1      1109    8    0    1
 -2       492       629       630      2659      2663      2661
 -1      1110    8    0    1
 -2       494       493       631      2247      2664      2665
 -1      1111    8    0    1
 -2       493       630       631      2662      2666      2664
 -1      1112    8    0    1
 -2       495       494       632      2250      2667      2668
 -1      1113    8    0    1
 -2       494       631       632      2665      2669      2667
 -1      1114    8    0    1
 -2       496       495       633      2253      2670      2671
 -1      1115    8    0    1
 -2       495       632       633      2668      2672      2670
 -1      1116    8    0    1
 -2       497       496       634      2256      2673      2674
 -1      1117    8    0    1
 -2       496       633       634      2671      2675      2673
 -1      1118    8    0    1
 -2       498       497       635      2259      2676      2677
 -1      1119    8    0    1
 -2       497       634       635      2674      2678      2676
 -1      1120    8    0    1
 -2       499       498       636      2262      2679      2680
 -1      1121    8    0    1
 -2       498       635       636      2677      2681      2679
 -1      1122    8    0    1
 -2       500       499       637      2265      2682      2683
 -1      1123    8    0    1
 -2       499       636       637      2680      2684      2682
 -1      1124    8    0    1
 -2       501       500       638      2268      2685      2686
 -1      1125    8    0    1
 -2       500       637       638      2683      2687      2685
 -1      1126    8    0    1
 -2       502       501       639      2271      2688      2689
 -1      1127    8    0    1
 -2       501       638       639      2686      2690      2688
 -1      1128    8    0    1
 -2       503       502       640      2274      2691      2692
 -1      1129    8    0    1
 -2       502       639       640      2689      2693      2691
 -1      1130    8    0    1
 -2       504       503       641      2277      2694      2695
 -1      1131    8    0    1
 -2       503       640       641      2692      2696      2694
 -1      1132    8    0    1
 -2       505       504       642      2280      2697      2698
 -1      1133    8    0    1
 -2       504       641       642      2695      2699      2697
 -1      1134    8    0    1
 -2       506       505       643      2283      2700      2701
 -1      1135    8    0    1
 -2       505       642       643      2698      2702      2700
 -1      1136    8    0    1
 -2       507       506       644      2286      2703      2704
 -1      1137    8    0    1
 -2       506       643       644      2701      2705      2703
 -1      1138    8    0    1
 -2       508       507       645      2289      2706      2707
 -1      1139    8    0    1
 -2       507       644       645      2704      2708      2706
 -1      1140    8    0    1
 -2       509       508       646      2292      2709      2710
 -1      1141    8    0    1
 -2       508       645       646      2707      2711      2709
 -1      1142    8    0    1
 -2       510       509       647      2295      2712      2713
 -1      1143    8    0    1
 -2       509       646       647      2710      2714      2712
 -1      1144    8    0    1
 -2       511       510       648      2298      2715      2716
 -1      1145    8    0    1
 -2       510       647       648      2713      2717      2715
 -1      1146    8    0    1
 -2       512       511       649      2301      2718      2719
 -1      1147    8    0    1
 -2       511       648       649      2716      2720      2718
 -1      1148    8    0    1
 -2       513       512       650      2304      2721      2722
 -1      1149    8    0    1
 -2       512       649       650      2719      2723      2721
 -1      1150    8    0    1
 -2       514       513       651      2307      2724      2725
 -1      1151    8    0    1
 -2       513       650       651      2722      2726      2724
 -1      1152    8    0    1
 -2       515       514       652      2310      2727      2728
 -1      1153    8    0    1
 -2       514       651       652      2725      2729      2727
 -1      1154    8    0    1
 -2       516       515       653      2313      2730      2731
 -1      1155    8    0    1
 -2       515       652       653      2728      2732      2730
 -1      1156    8    0    1
 -2       517       516       654      2316      2733      2734
 -1      1157    8    0    1
 -2       516       653       654      2731      2735      2733
 -1      1158    8    0    1
 -2       518       517       655      2319      2736      2737
 -1      1159    8    0    1
 -2       517       654       655      2734      2738      2736
 -1      1160    8    0    1
 -2       519       518       656      2322      2739      2740
 -1      1161    8    0    1
 -2       518       655       656      2737      2741      2739
 -1      1162    8    0    1
 -2       520       519       657      2325      2742      2743
 -1      1163    8    0    1
 -2       519       656       657      2740      2744      2742
 -1      1164    8    0    1
 -2       521       520       658      2328      2745      2746
 -1      1165    8    0    1
 -2       520       657       658      2743      2747      2745
 -1      1166    8    0    1
 -2       522       521       659      2331      2748      2749
 -1      1167    8    0    1
 -2       521       658       659      2746      2750      2748
 -1      1168    8    0    1
 -2       523       522       660      2334      2751      2752
 -1      1169    8    0    1
 -2       522       659       660      2749      2753      2751
 -1      1170    8    0    1
 -2       524       523       661      2337      2754      2755
 -1      1171    8    0    1
 -2       523       660       661      2752      2756      2754
 -1      1172    8    0    1
 -2       525       524       662      2340      2757      2758
 -1      1173    8    0    1
 -2       524       661       662      2755      2759      2757
 -1      1174    8    0    1
 -2       526       525       663      2343      2760      2761
 -1      1175    8    0    1
 -2       525       662       663      2758      2762      2760
 -1      1176    8    0    1
 -2       527       526       664      2346      2763      2764
 -1      1177    8    0    1
 -2       526       663       664      2761      2765      2763
 -1      1178    8    0    1
 -2       602       603       665      2600      2766      2767
 -1      1179    8    0    1
 -2       603       601       666      2595      2768      2769
 -1      1180    8    0    1
 -2       529       530       667      2353      2770      2771
 -1      1181    8    0    1
 -2       532       533       668      2362      2772      2773
 -1      1182    8    0    1
 -2       533       534       669      2365      2774      2775
 -1      1183    8    0    1
 -2       533       669       668      2775      2776      2772
 -1      1184    8    0    1
 -2       534       535       670      2368      2777      2778
 -1      1185    8    0    1
 -2       534       670       669      2778      2779      2774
 -1      1186    8    0    1
 -2       535       536       671      2371      2780      2781
 -1      1187    8    0    1
 -2       535       671       670      2781      2782      2777
 -1      1188    8    0    1
 -2       536       537       672      2374      2783      2784
 -1      1189    8    0    1
 -2       536       672       671      2784      2785      2780
 -1      1190    8    0    1
 -2       537       538       610      2377      2786      2787
 -1      1191    8    0    1
 -2       538       539       610      2380      2788      2786
 -1      1192    8    0    1
 -2       539       540       673      2383      2789      2790
 -1      1193    8    0    1
 -2       540       541       674      2386      2791      2792
 -1      1194    8    0    1
 -2       540       674       673      2792      2793      2789
 -1      1195    8    0    1
 -2       541       542       675      2389      2794      2795
 -1      1196    8    0    1
 -2       541       675       674      2795      2796      2791
 -1      1197    8    0    1
 -2       542       543       676      2392      2797      2798
 -1      1198    8    0    1
 -2       542       676       675      2798      2799      2794
 -1      1199    8    0    1
 -2       543       544       677      2395      2800      2801
 -1      1200    8    0    1
 -2       543       677       676      2801      2802      2797
 -1      1201    8    0    1
 -2       544       545       678      2398      2803      2804
 -1      1202    8    0    1
 -2       544       678       677      2804      2805      2800
 -1      1203    8    0    1
 -2       545       546       679      2401      2806      2807
 -1      1204    8    0    1
 -2       545       679       678      2807      2808      2803
 -1      1205    8    0    1
 -2       546       547       680      2404      2809      2810
 -1      1206    8    0    1
 -2       546       680       679      2810      2811      2806
 -1      1207    8    0    1
 -2       547       548       681      2407      2812      2813
 -1      1208    8    0    1
 -2       547       681       680      2813      2814      2809
 -1      1209    8    0    1
 -2       548       549       682      2410      2815      2816
 -1      1210    8    0    1
 -2       548       682       681      2816      2817      2812
 -1      1211    8    0    1
 -2       549       550       683      2413      2818      2819
 -1      1212    8    0    1
 -2       549       683       682      2819      2820      2815
 -1      1213    8    0    1
 -2       550       551       684      2416      2821      2822
 -1      1214    8    0    1
 -2       550       684       683      2822      2823      2818
 -1      1215    8    0    1
 -2       551       552       685      2419      2824      2825
 -1      1216    8    0    1
 -2       551       685       684      2825      2826      2821
 -1      1217    8    0    1
 -2       552       553       686      2422      2827      2828
 -1      1218    8    0    1
 -2       552       686       685      2828      2829      2824
 -1      1219    8    0    1
 -2       553       554       687      2425      2830      2831
 -1      1220    8    0    1
 -2       553       687       686      2831      2832      2827
 -1      1221    8    0    1
 -2       554       555       688      2428      2833      2834
 -1      1222    8    0    1
 -2       554       688       687      2834      2835      2830
 -1      1223    8    0    1
 -2       555       556       689      2431      2836      2837
 -1      1224    8    0    1
 -2       555       689       688      2837      2838      2833
 -1      1225    8    0    1
 -2       556       557       690      2434      2839      2840
 -1      1226    8    0    1
 -2       556       690       689      2840      2841      2836
 -1      1227    8    0    1
 -2       557       558       691      2437      2842      2843
 -1      1228    8    0    1
 -2       557       691       690      2843      2844      2839
 -1      1229    8    0    1
 -2       558       559       692      2440      2845      2846
 -1      1230    8    0    1
 -2       558       692       691      2846      2847      2842
 -1      1231    8    0    1
 -2       559       560       693      2443      2848      2849
 -1      1232    8    0    1
 -2       559       693       692      2849      2850      2845
 -1      1233    8    0    1
 -2       560       561       694      2446      2851      2852
 -1      1234    8    0    1
 -2       560       694       693      2852      2853      2848
 -1      1235    8    0    1
 -2       561       562       695      2449      2854      2855
 -1      1236    8    0    1
 -2       561       695       694      2855      2856      2851
 -1      1237    8    0    1
 -2       562       563       696      2452      2857      2858
 -1      1238    8    0    1
 -2       562       696       695      2858      2859      2854
 -1      1239    8    0    1
 -2       563       564       697      2455      2860      2861
 -1      1240    8    0    1
 -2       563       697       696      2861      2862      2857
 -1      1241    8    0    1
 -2       564       565       698      2458      2863      2864
 -1      1242    8    0    1
 -2       564       698       697      2864      2865      2860
 -1      1243    8    0    1
 -2       565       566       699      2461      2866      2867
 -1      1244    8    0    1
 -2       565       699       698      2867      2868      2863
 -1      1245    8    0    1
 -2       566       567       700      2464      2869      2870
 -1      1246    8    0    1
 -2       566       700       699      2870      2871      2866
 -1      1247    8    0    1
 -2       567       568       701      2467      2872      2873
 -1      1248    8    0    1
 -2       567       701       700      2873      2874      2869
 -1      1249    8    0    1
 -2       568       569       702      2470      2875      2876
 -1      1250    8    0    1
 -2       568       702       701      2876      2877      2872
 -1      1251    8    0    1
 -2       569       570       703      2473      2878      2879
 -1      1252    8    0    1
 -2       702       569       703      2875      2879      2880
 -1      1253    8    0    1
 -2       570       573       703      2621      2881      2878
 -1      1254    8    0    1
 -2       575       576       704      2491      2882      2883
 -1      1255    8    0    1
 -2       613       527       705      2622      2884      2885
 -1      1256    8    0    1
 -2       527       664       705      2764      2886      2884
 -1      1257    8    0    1
 -2       571       572       706      2479      2887      2888
 -1      1258    8    0    1
 -2       576       577       707      2494      2889      2890
 -1      1259    8    0    1
 -2       576       707       704      2890      2891      2882
 -1      1260    8    0    1
 -2       572       575       708      2488      2892      2893
 -1      1261    8    0    1
 -2       706       572       708      2887      2893      2894
 -1      1262    8    0    1
 -2       575       704       708      2883      2895      2892
 -1      1263    8    0    1
 -2       528       584       709      2592      2896      2897
 -1      1264    8    0    1
 -2       577       578       710      2497      2898      2899
 -1      1265    8    0    1
 -2       577       710       707      2899      2900      2889
 -1      1266    8    0    1
 -2       578       579       711      2500      2901      2902
 -1      1267    8    0    1
 -2       578       711       710      2902      2903      2898
 -1      1268    8    0    1
 -2       579       580       712      2503      2904      2905
 -1      1269    8    0    1
 -2       579       712       711      2905      2906      2901
 -1      1270    8    0    1
 -2       583       529       713      2512      2907      2908
 -1      1271    8    0    1
 -2       622       583       713      2637      2908      2909
 -1      1272    8    0    1
 -2       529       667       713      2771      2910      2907
 -1      1273    8    0    1
 -2       470       528       714      2590      2911      2912
 -1      1274    8    0    1
 -2       606       607       715      2588      2913      2914
 -1      1275    8    0    1
 -2       483       586       716      2519      2915      2916
 -1      1276    8    0    1
 -2       593       594       717      2612      2917      2918
 -1      1277    8    0    1
 -2       596       597       718      2611      2919      2920
 -1      1278    8    0    1
 -2       484       589       719      2527      2921      2922
 -1      1279    8    0    1
 -2       531       532       720      2359      2923      2924
 -1      1280    8    0    1
 -2       532       668       720      2773      2925      2923
 -1      1281    8    0    1
 -2       530       531       721      2356      2926      2927
 -1      1282    8    0    1
 -2       531       720       721      2924      2928      2926
 -1      1283    8    0    1
 -2       485       483       722      2220      2929      2930
 -1      1284    8    0    1
 -2       623       485       722      2641      2930      2931
 -1      1285    8    0    1
 -2       483       716       722      2916      2932      2929
 -1      1286    8    0    1
 -2       600       472       723      2603      2933      2934
 -1      1287    8    0    1
 -2       594       595       724      2618      2935      2936
 -1      1288    8    0    1
 -2       478       479       725      2204      2937      2938
 -1      1289    8    0    1
 -2       616       478       725      2623      2938      2939
 -1      1290    8    0    1
 -2       479       618       725      2629      2940      2937
 -1      1291    8    0    1
 -2       588       600       726      2606      2941      2942
 -1      1292    8    0    1
 -2       597       599       727      2619      2943      2944
 -1      1293    8    0    1
 -2       595       596       728      2545      2945      2946
 -1      1294    8    0    1
 -2       586       445       716      2617      2947      2915
 -1      1295    8    0    1
 -2       475       474       729      2193      2948      2949
 -1      1296    8    0    1
 -2       605       606       730      2620      2950      2951
 -1      1297    8    0    1
 -2       592       588       731      2607      2952      2953
 -1      1298    8    0    1
 -2       588       726       731      2942      2954      2952
 -1      1299    8    0    1
 -2       581       613       705      2598      2885      2955
 -1      1300    8    0    1
 -2       472       598       732      2616      2956      2957
 -1      1301    8    0    1
 -2       472       732       723      2957      2958      2933
 -1      1302    8    0    1
 -2       607       585       733      2604      2959      2960
 -1      1303    8    0    1
 -2       585       582       734      2591      2961      2962
 -1      1304    8    0    1
 -2       601       604       735      2562      2963      2964
 -1      1305    8    0    1
 -2       604       605       736      2589      2965      2966
 -1      1306    8    0    1
 -2       604       736       735      2966      2967      2963
 -1      1307    8    0    1
 -2       599       592       737      2605      2968      2969
 -1      1308    8    0    1
 -2       599       737       727      2969      2970      2943
 -1      1309    8    0    1
 -2       611       475       738      2580      2971      2972
 -1      1310    8    0    1
 -2       475       729       738      2949      2973      2971
 -1      1311    8    0    1
 -2       476       617       739      2626      2974      2975
 -1      1312    8    0    1
 -2       476       739       590      2975      2976      2531
 -1      1313    8    0    1
 -2       481       473       620      2640      2634      2977
 -1      1314    8    0    1
 -2       584       621       709      2636      2978      2896
 -1      1315    8    0    1
 -2       612       470       714      2585      2912      2979
 -1      1316    8    0    1
 -2       607       733       715      2960      2980      2913
 -1      1317    8    0    1
 -2       582       612       740      2587      2981      2982
 -1      1318    8    0    1
 -2       582       740       734      2982      2983      2961
 -1      1319    8    0    1
 -2       581       705       580      2955      2984      2506
 -1      1320    8    0    1
 -2       571       706       741      2888      2985      2986
 -1      1321    8    0    1
 -2       571       741       574      2986      2987      2485
 -1      1322    8    0    1
 -2       665       603       666      2766      2769      2988
 -1      1323    8    0    1
 -2       736       605       730      2965      2951      2989
 -1      1324    8    0    1
 -2       530       721       667      2927      2990      2770
 -1      1325    8    0    1
 -2       537       610       672      2787      2991      2783
 -1      1326    8    0    1
 -2       539       673       610      2790      2992      2788
 -1      1327    8    0    1
 -2       573       574       742      2484      2993      2994
 -1      1328    8    0    1
 -2       703       573       742      2881      2994      2995
 -1      1329    8    0    1
 -2       574       741       742      2987      2996      2993
 -1      1330    8    0    1
 -2       726       600       723      2941      2934      2997
 -1      1331    8    0    1
 -2       712       580       705      2904      2984      2998
 -1      1332    8    0    1
 -2       730       606       715      2950      2914      2999
 -1      1333    8    0    1
 -2       728       596       718      2945      2920      3000
 -1      1334    8    0    1
 -2       718       597       727      2919      2944      3001
 -1      1335    8    0    1
 -2       717       594       724      2917      2936      3002
 -1      1336    8    0    1
 -2       608       484       743      2572      3003      3004
 -1      1337    8    0    1
 -2       614       471       744      2610      3005      3006
 -1      1338    8    0    1
 -2       471       615       744      2614      3007      3005
 -1      1339    8    0    1
 -2       615       602       745      2615      3008      3009
 -1      1340    8    0    1
 -2       602       665       745      2767      3010      3008
 -1      1341    8    0    1
 -2       445       611       716      2582      3011      2947
 -1      1342    8    0    1
 -2       484       719       743      2922      3012      3003
 -1      1343    8    0    1
 -2       666       601       735      2768      2964      3013
 -1      1344    8    0    1
 -2       724       595       728      2935      2946      3014
 -1      1345    8    0    1
 -2       481       620       619      2977      3015      2630
 -1      1346    8    0    1
 -2       598       614       746      2609      3016      3017
 -1      1347    8    0    1
 -2       598       746       732      3017      3018      2956
 -1      1348    8    0    1
 -2       474       590       747      2530      3019      3020
 -1      1349    8    0    1
 -2       729       474       747      2948      3020      3021
 -1      1350    8    0    1
 -2       590       739       747      2976      3022      3019
 -1      1351    8    0    1
 -2       591       593       672      2538      3023      3024
 -1      1352    8    0    1
 -2       714       528       709      2911      2897      3025
 -1      1353    8    0    1
 -2       621       587       748      2635      3026      3027
 -1      1354    8    0    1
 -2       733       585       734      2959      2962      3028
 -1      1355    8    0    1
 -2       587       608       748      2571      3029      3026
 -1      1356    8    0    1
 -2       709       621       749      2978      3030      3031
 -1      1357    8    0    1
 -2       618       619       750      2632      3032      3033
 -1      1358    8    0    1
 -2       624       623       751      2645      3034      3035
 -1      1359    8    0    1
 -2       625       624       752      2648      3036      3037
 -1      1360    8    0    1
 -2       624       751       752      3035      3038      3036
 -1      1361    8    0    1
 -2       626       625       753      2651      3039      3040
 -1      1362    8    0    1
 -2       625       752       753      3037      3041      3039
 -1      1363    8    0    1
 -2       627       626       754      2654      3042      3043
 -1      1364    8    0    1
 -2       626       753       754      3040      3044      3042
 -1      1365    8    0    1
 -2       628       627       755      2657      3045      3046
 -1      1366    8    0    1
 -2       627       754       755      3043      3047      3045
 -1      1367    8    0    1
 -2       629       628       756      2660      3048      3049
 -1      1368    8    0    1
 -2       628       755       756      3046      3050      3048
 -1      1369    8    0    1
 -2       630       629       757      2663      3051      3052
 -1      1370    8    0    1
 -2       629       756       757      3049      3053      3051
 -1      1371    8    0    1
 -2       632       631       758      2669      3054      3055
 -1      1372    8    0    1
 -2       633       632       665      2672      3056      3057
 -1      1373    8    0    1
 -2       634       633       666      2675      3058      3059
 -1      1374    8    0    1
 -2       635       634       735      2678      3060      3061
 -1      1375    8    0    1
 -2       637       636       759      2684      3062      3063
 -1      1376    8    0    1
 -2       638       637       760      2687      3064      3065
 -1      1377    8    0    1
 -2       637       759       760      3063      3066      3064
 -1      1378    8    0    1
 -2       639       638       761      2690      3067      3068
 -1      1379    8    0    1
 -2       638       760       761      3065      3069      3067
 -1      1380    8    0    1
 -2       640       639       762      2693      3070      3071
 -1      1381    8    0    1
 -2       639       761       762      3068      3072      3070
 -1      1382    8    0    1
 -2       641       640       763      2696      3073      3074
 -1      1383    8    0    1
 -2       640       762       763      3071      3075      3073
 -1      1384    8    0    1
 -2       642       641       764      2699      3076      3077
 -1      1385    8    0    1
 -2       641       763       764      3074      3078      3076
 -1      1386    8    0    1
 -2       643       642       765      2702      3079      3080
 -1      1387    8    0    1
 -2       642       764       765      3077      3081      3079
 -1      1388    8    0    1
 -2       644       643       766      2705      3082      3083
 -1      1389    8    0    1
 -2       643       765       766      3080      3084      3082
 -1      1390    8    0    1
 -2       645       644       767      2708      3085      3086
 -1      1391    8    0    1
 -2       644       766       767      3083      3087      3085
 -1      1392    8    0    1
 -2       646       645       768      2711      3088      3089
 -1      1393    8    0    1
 -2       645       767       768      3086      3090      3088
 -1      1394    8    0    1
 -2       647       646       769      2714      3091      3092
 -1      1395    8    0    1
 -2       646       768       769      3089      3093      3091
 -1      1396    8    0    1
 -2       648       647       770      2717      3094      3095
 -1      1397    8    0    1
 -2       647       769       770      3092      3096      3094
 -1      1398    8    0    1
 -2       649       648       771      2720      3097      3098
 -1      1399    8    0    1
 -2       648       770       771      3095      3099      3097
 -1      1400    8    0    1
 -2       650       649       772      2723      3100      3101
 -1      1401    8    0    1
 -2       649       771       772      3098      3102      3100
 -1      1402    8    0    1
 -2       651       650       773      2726      3103      3104
 -1      1403    8    0    1
 -2       650       772       773      3101      3105      3103
 -1      1404    8    0    1
 -2       652       651       774      2729      3106      3107
 -1      1405    8    0    1
 -2       651       773       774      3104      3108      3106
 -1      1406    8    0    1
 -2       653       652       775      2732      3109      3110
 -1      1407    8    0    1
 -2       652       774       775      3107      3111      3109
 -1      1408    8    0    1
 -2       654       653       776      2735      3112      3113
 -1      1409    8    0    1
 -2       653       775       776      3110      3114      3112
 -1      1410    8    0    1
 -2       655       654       777      2738      3115      3116
 -1      1411    8    0    1
 -2       654       776       777      3113      3117      3115
 -1      1412    8    0    1
 -2       656       655       778      2741      3118      3119
 -1      1413    8    0    1
 -2       655       777       778      3116      3120      3118
 -1      1414    8    0    1
 -2       657       656       779      2744      3121      3122
 -1      1415    8    0    1
 -2       656       778       779      3119      3123      3121
 -1      1416    8    0    1
 -2       658       657       780      2747      3124      3125
 -1      1417    8    0    1
 -2       657       779       780      3122      3126      3124
 -1      1418    8    0    1
 -2       659       658       781      2750      3127      3128
 -1      1419    8    0    1
 -2       658       780       781      3125      3129      3127
 -1      1420    8    0    1
 -2       660       659       782      2753      3130      3131
 -1      1421    8    0    1
 -2       659       781       782      3128      3132      3130
 -1      1422    8    0    1
 -2       661       660       783      2756      3133      3134
 -1      1423    8    0    1
 -2       660       782       783      3131      3135      3133
 -1      1424    8    0    1
 -2       662       661       784      2759      3136      3137
 -1      1425    8    0    1
 -2       661       783       784      3134      3138      3136
 -1      1426    8    0    1
 -2       663       662       785      2762      3139      3140
 -1      1427    8    0    1
 -2       662       784       785      3137      3141      3139
 -1      1428    8    0    1
 -2       664       663       786      2765      3142      3143
 -1      1429    8    0    1
 -2       663       785       786      3140      3144      3142
 -1      1430    8    0    1
 -2       736       730       787      2989      3145      3146
 -1      1431    8    0    1
 -2       715       733       788      2980      3147      3148
 -1      1432    8    0    1
 -2       668       669       789      2776      3149      3150
 -1      1433    8    0    1
 -2       674       675       748      2796      3151      3152
 -1      1434    8    0    1
 -2       676       677       790      2802      3153      3154
 -1      1435    8    0    1
 -2       677       678       791      2805      3155      3156
 -1      1436    8    0    1
 -2       677       791       790      3156      3157      3153
 -1      1437    8    0    1
 -2       678       679       792      2808      3158      3159
 -1      1438    8    0    1
 -2       678       792       791      3159      3160      3155
 -1      1439    8    0    1
 -2       679       680       793      2811      3161      3162
 -1      1440    8    0    1
 -2       679       793       792      3162      3163      3158
 -1      1441    8    0    1
 -2       680       681       794      2814      3164      3165
 -1      1442    8    0    1
 -2       680       794       793      3165      3166      3161
 -1      1443    8    0    1
 -2       681       682       795      2817      3167      3168
 -1      1444    8    0    1
 -2       681       795       794      3168      3169      3164
 -1      1445    8    0    1
 -2       682       683       796      2820      3170      3171
 -1      1446    8    0    1
 -2       682       796       795      3171      3172      3167
 -1      1447    8    0    1
 -2       683       684       797      2823      3173      3174
 -1      1448    8    0    1
 -2       683       797       796      3174      3175      3170
 -1      1449    8    0    1
 -2       684       685       798      2826      3176      3177
 -1      1450    8    0    1
 -2       684       798       797      3177      3178      3173
 -1      1451    8    0    1
 -2       685       686       799      2829      3179      3180
 -1      1452    8    0    1
 -2       685       799       798      3180      3181      3176
 -1      1453    8    0    1
 -2       686       687       800      2832      3182      3183
 -1      1454    8    0    1
 -2       686       800       799      3183      3184      3179
 -1      1455    8    0    1
 -2       687       688       801      2835      3185      3186
 -1      1456    8    0    1
 -2       687       801       800      3186      3187      3182
 -1      1457    8    0    1
 -2       688       689       802      2838      3188      3189
 -1      1458    8    0    1
 -2       688       802       801      3189      3190      3185
 -1      1459    8    0    1
 -2       689       690       803      2841      3191      3192
 -1      1460    8    0    1
 -2       689       803       802      3192      3193      3188
 -1      1461    8    0    1
 -2       690       691       804      2844      3194      3195
 -1      1462    8    0    1
 -2       690       804       803      3195      3196      3191
 -1      1463    8    0    1
 -2       691       692       805      2847      3197      3198
 -1      1464    8    0    1
 -2       691       805       804      3198      3199      3194
 -1      1465    8    0    1
 -2       692       693       806      2850      3200      3201
 -1      1466    8    0    1
 -2       692       806       805      3201      3202      3197
 -1      1467    8    0    1
 -2       693       694       807      2853      3203      3204
 -1      1468    8    0    1
 -2       693       807       806      3204      3205      3200
 -1      1469    8    0    1
 -2       694       695       808      2856      3206      3207
 -1      1470    8    0    1
 -2       694       808       807      3207      3208      3203
 -1      1471    8    0    1
 -2       695       696       809      2859      3209      3210
 -1      1472    8    0    1
 -2       695       809       808      3210      3211      3206
 -1      1473    8    0    1
 -2       696       697       810      2862      3212      3213
 -1      1474    8    0    1
 -2       696       810       809      3213      3214      3209
 -1      1475    8    0    1
 -2       697       698       811      2865      3215      3216
 -1      1476    8    0    1
 -2       697       811       810      3216      3217      3212
 -1      1477    8    0    1
 -2       698       699       812      2868      3218      3219
 -1      1478    8    0    1
 -2       698       812       811      3219      3220      3215
 -1      1479    8    0    1
 -2       699       700       813      2871      3221      3222
 -1      1480    8    0    1
 -2       699       813       812      3222      3223      3218
 -1      1481    8    0    1
 -2       700       701       814      2874      3224      3225
 -1      1482    8    0    1
 -2       700       814       813      3225      3226      3221
 -1      1483    8    0    1
 -2       701       702       815      2877      3227      3228
 -1      1484    8    0    1
 -2       701       815       814      3228      3229      3224
 -1      1485    8    0    1
 -2       702       703       816      2880      3230      3231
 -1      1486    8    0    1
 -2       815       702       816      3227      3231      3232
 -1      1487    8    0    1
 -2       703       742       816      2995      3233      3230
 -1      1488    8    0    1
 -2       727       737       817      2970      3234      3235
 -1      1489    8    0    1
 -2       617       616       818      2627      3236      3237
 -1      1490    8    0    1
 -2       723       732       819      2958      3238      3239
 -1      1491    8    0    1
 -2       612       714       820      2979      3240      3241
 -1      1492    8    0    1
 -2       704       707       821      2891      3242      3243
 -1      1493    8    0    1
 -2       711       712       822      2906      3244      3245
 -1      1494    8    0    1
 -2       707       710       823      2900      3246      3247
 -1      1495    8    0    1
 -2       707       823       821      3247      3248      3242
 -1      1496    8    0    1
 -2       731       726       824      2954      3249      3250
 -1      1497    8    0    1
 -2       748       675       825      3151      3251      3252
 -1      1498    8    0    1
 -2       726       723       826      2997      3253      3254
 -1      1499    8    0    1
 -2       728       718       827      3000      3255      3256
 -1      1500    8    0    1
 -2       720       668       828      2925      3257      3258
 -1      1501    8    0    1
 -2       668       789       828      3150      3259      3257
 -1      1502    8    0    1
 -2       719       589       610      2921      2579      3260
 -1      1503    8    0    1
 -2       666       735       634      3013      3060      3059
 -1      1504    8    0    1
 -2       593       717       672      2918      3261      3023
 -1      1505    8    0    1
 -2       710       711       829      2903      3262      3263
 -1      1506    8    0    1
 -2       823       710       829      3246      3263      3264
 -1      1507    8    0    1
 -2       711       822       829      3245      3265      3262
 -1      1508    8    0    1
 -2       675       676       825      2799      3266      3251
 -1      1509    8    0    1
 -2       718       727       830      3001      3267      3268
 -1      1510    8    0    1
 -2       666       633       665      3058      3057      2988
 -1      1511    8    0    1
 -2       721       720       831      2928      3269      3270
 -1      1512    8    0    1
 -2       720       828       831      3258      3271      3269
 -1      1513    8    0    1
 -2       608       743       748      3004      3272      3029
 -1      1514    8    0    1
 -2       714       709       832      3025      3273      3274
 -1      1515    8    0    1
 -2       619       620       833      3015      3275      3276
 -1      1516    8    0    1
 -2       750       619       833      3032      3276      3277
 -1      1517    8    0    1
 -2       620       622       833      2639      3278      3275
 -1      1518    8    0    1
 -2       733       734       834      3028      3279      3280
 -1      1519    8    0    1
 -2       667       721       835      2990      3281      3282
 -1      1520    8    0    1
 -2       721       831       835      3270      3283      3281
 -1      1521    8    0    1
 -2       592       731       836      2953      3284      3285
 -1      1522    8    0    1
 -2       730       715       837      2999      3286      3287
 -1      1523    8    0    1
 -2       716       611       738      3011      2972      3288
 -1      1524    8    0    1
 -2       724       728       838      3014      3289      3290
 -1      1525    8    0    1
 -2       621       748       825      3027      3252      3291
 -1      1526    8    0    1
 -2       737       592       836      2968      3285      3292
 -1      1527    8    0    1
 -2       672       717       671      3261      3293      2785
 -1      1528    8    0    1
 -2       674       748       743      3152      3272      3294
 -1      1529    8    0    1
 -2       671       717       724      3293      3002      3295
 -1      1530    8    0    1
 -2       836       731       839      3284      3296      3297
 -1      1531    8    0    1
 -2       731       824       839      3250      3298      3296
 -1      1532    8    0    1
 -2       671       724       670      3295      3299      2782
 -1      1533    8    0    1
 -2       739       617       840      2974      3300      3301
 -1      1534    8    0    1
 -2       617       818       840      3237      3302      3300
 -1      1535    8    0    1
 -2       618       750       841      3033      3303      3304
 -1      1536    8    0    1
 -2       618       841       725      3304      3305      2940
 -1      1537    8    0    1
 -2       630       757       744      3052      3306      3307
 -1      1538    8    0    1
 -2       827       718       830      3255      3268      3308
 -1      1539    8    0    1
 -2       733       834       788      3280      3309      3147
 -1      1540    8    0    1
 -2       826       723       819      3253      3239      3310
 -1      1541    8    0    1
 -2       610       591       672      2577      3024      2991
 -1      1542    8    0    1
 -2       740       612       820      2981      3241      3311
 -1      1543    8    0    1
 -2       741       706       842      2985      3312      3313
 -1      1544    8    0    1
 -2       631       630       744      2666      3307      3314
 -1      1545    8    0    1
 -2       635       735       843      3061      3315      3316
 -1      1546    8    0    1
 -2       736       787       843      3146      3317      3318
 -1      1547    8    0    1
 -2       636       635       843      2681      3316      3319
 -1      1548    8    0    1
 -2       787       730       837      3145      3287      3320
 -1      1549    8    0    1
 -2       822       712       786      3244      3321      3322
 -1      1550    8    0    1
 -2       670       724       838      3299      3290      3323
 -1      1551    8    0    1
 -2       715       788       837      3148      3324      3286
 -1      1552    8    0    1
 -2       820       714       832      3240      3274      3325
 -1      1553    8    0    1
 -2       674       743       673      3294      3326      2793
 -1      1554    8    0    1
 -2       819       732       844      3238      3327      3328
 -1      1555    8    0    1
 -2       732       746       844      3018      3329      3327
 -1      1556    8    0    1
 -2       727       817       830      3235      3330      3267
 -1      1557    8    0    1
 -2       676       790       825      3154      3331      3266
 -1      1558    8    0    1
 -2       818       616       845      3236      3332      3333
 -1      1559    8    0    1
 -2       616       725       845      2939      3334      3332
 -1      1560    8    0    1
 -2       706       708       846      2894      3335      3336
 -1      1561    8    0    1
 -2       706       846       842      3336      3337      3312
 -1      1562    8    0    1
 -2       705       664       712      2886      3338      2998
 -1      1563    8    0    1
 -2       708       704       847      2895      3339      3340
 -1      1564    8    0    1
 -2       846       708       847      3335      3340      3341
 -1      1565    8    0    1
 -2       704       821       847      3243      3342      3339
 -1      1566    8    0    1
 -2       824       726       848      3249      3343      3344
 -1      1567    8    0    1
 -2       726       826       848      3254      3345      3343
 -1      1568    8    0    1
 -2       737       836       849      3292      3346      3347
 -1      1569    8    0    1
 -2       817       737       849      3234      3347      3348
 -1      1570    8    0    1
 -2       836       839       849      3297      3349      3346
 -1      1571    8    0    1
 -2       622       713       850      2909      3350      3351
 -1      1572    8    0    1
 -2       622       850       833      3351      3352      3278
 -1      1573    8    0    1
 -2       713       667       851      2910      3353      3354
 -1      1574    8    0    1
 -2       850       713       851      3350      3354      3355
 -1      1575    8    0    1
 -2       667       835       851      3282      3356      3353
 -1      1576    8    0    1
 -2       728       827       838      3256      3357      3289
 -1      1577    8    0    1
 -2       734       740       852      2983      3358      3359
 -1      1578    8    0    1
 -2       734       852       834      3359      3360      3279
 -1      1579    8    0    1
 -2       744       615       758      3007      3361      3362
 -1      1580    8    0    1
 -2       614       744       746      3006      3363      3016
 -1      1581    8    0    1
 -2       669       670       838      2779      3323      3364
 -1      1582    8    0    1
 -2       623       722       853      2931      3365      3366
 -1      1583    8    0    1
 -2       623       853       751      3366      3367      3034
 -1      1584    8    0    1
 -2       722       716       738      2932      3288      3368
 -1      1585    8    0    1
 -2       669       838       789      3364      3369      3149
 -1      1586    8    0    1
 -2       832       709       749      3273      3031      3370
 -1      1587    8    0    1
 -2       729       747       854      3021      3371      3372
 -1      1588    8    0    1
 -2       615       745       758      3009      3373      3361
 -1      1589    8    0    1
 -2       712       664       786      3338      3143      3321
 -1      1590    8    0    1
 -2       843       735       736      3315      2967      3318
 -1      1591    8    0    1
 -2       729       854       855      3372      3374      3375
 -1      1592    8    0    1
 -2       729       855       738      3375      3376      2973
 -1      1593    8    0    1
 -2       621       825       749      3291      3377      3030
 -1      1594    8    0    1
 -2       744       757       746      3306      3378      3363
 -1      1595    8    0    1
 -2       827       830       856      3308      3379      3380
 -1      1596    8    0    1
 -2       828       789       856      3259      3381      3382
 -1      1597    8    0    1
 -2       632       758       745      3055      3373      3383
 -1      1598    8    0    1
 -2       788       834       857      3309      3384      3385
 -1      1599    8    0    1
 -2       753       752       858      3041      3386      3387
 -1      1600    8    0    1
 -2       754       753       859      3044      3388      3389
 -1      1601    8    0    1
 -2       753       858       859      3387      3390      3388
 -1      1602    8    0    1
 -2       755       754       860      3047      3391      3392
 -1      1603    8    0    1
 -2       754       859       860      3389      3393      3391
 -1      1604    8    0    1
 -2       756       755       861      3050      3394      3395
 -1      1605    8    0    1
 -2       755       860       861      3392      3396      3394
 -1      1606    8    0    1
 -2       757       756       844      3053      3397      3398
 -1      1607    8    0    1
 -2       831       828       862      3271      3399      3400
 -1      1608    8    0    1
 -2       828       856       862      3382      3401      3399
 -1      1609    8    0    1
 -2       636       843       787      3319      3317      3402
 -1      1610    8    0    1
 -2       761       760       863      3069      3403      3404
 -1      1611    8    0    1
 -2       762       761       864      3072      3405      3406
 -1      1612    8    0    1
 -2       761       863       864      3404      3407      3405
 -1      1613    8    0    1
 -2       763       762       865      3075      3408      3409
 -1      1614    8    0    1
 -2       762       864       865      3406      3410      3408
 -1      1615    8    0    1
 -2       764       763       866      3078      3411      3412
 -1      1616    8    0    1
 -2       763       865       866      3409      3413      3411
 -1      1617    8    0    1
 -2       765       764       867      3081      3414      3415
 -1      1618    8    0    1
 -2       764       866       867      3412      3416      3414
 -1      1619    8    0    1
 -2       766       765       868      3084      3417      3418
 -1      1620    8    0    1
 -2       765       867       868      3415      3419      3417
 -1      1621    8    0    1
 -2       767       766       869      3087      3420      3421
 -1      1622    8    0    1
 -2       766       868       869      3418      3422      3420
 -1      1623    8    0    1
 -2       768       767       870      3090      3423      3424
 -1      1624    8    0    1
 -2       767       869       870      3421      3425      3423
 -1      1625    8    0    1
 -2       769       768       871      3093      3426      3427
 -1      1626    8    0    1
 -2       768       870       871      3424      3428      3426
 -1      1627    8    0    1
 -2       770       769       872      3096      3429      3430
 -1      1628    8    0    1
 -2       769       871       872      3427      3431      3429
 -1      1629    8    0    1
 -2       771       770       873      3099      3432      3433
 -1      1630    8    0    1
 -2       770       872       873      3430      3434      3432
 -1      1631    8    0    1
 -2       772       771       874      3102      3435      3436
 -1      1632    8    0    1
 -2       771       873       874      3433      3437      3435
 -1      1633    8    0    1
 -2       773       772       875      3105      3438      3439
 -1      1634    8    0    1
 -2       772       874       875      3436      3440      3438
 -1      1635    8    0    1
 -2       774       773       876      3108      3441      3442
 -1      1636    8    0    1
 -2       773       875       876      3439      3443      3441
 -1      1637    8    0    1
 -2       775       774       877      3111      3444      3445
 -1      1638    8    0    1
 -2       774       876       877      3442      3446      3444
 -1      1639    8    0    1
 -2       776       775       878      3114      3447      3448
 -1      1640    8    0    1
 -2       775       877       878      3445      3449      3447
 -1      1641    8    0    1
 -2       777       776       879      3117      3450      3451
 -1      1642    8    0    1
 -2       776       878       879      3448      3452      3450
 -1      1643    8    0    1
 -2       778       777       880      3120      3453      3454
 -1      1644    8    0    1
 -2       777       879       880      3451      3455      3453
 -1      1645    8    0    1
 -2       779       778       881      3123      3456      3457
 -1      1646    8    0    1
 -2       778       880       881      3454      3458      3456
 -1      1647    8    0    1
 -2       780       779       882      3126      3459      3460
 -1      1648    8    0    1
 -2       779       881       882      3457      3461      3459
 -1      1649    8    0    1
 -2       781       780       883      3129      3462      3463
 -1      1650    8    0    1
 -2       780       882       883      3460      3464      3462
 -1      1651    8    0    1
 -2       782       781       884      3132      3465      3466
 -1      1652    8    0    1
 -2       781       883       884      3463      3467      3465
 -1      1653    8    0    1
 -2       783       782       885      3135      3468      3469
 -1      1654    8    0    1
 -2       782       884       885      3466      3470      3468
 -1      1655    8    0    1
 -2       784       783       886      3138      3471      3472
 -1      1656    8    0    1
 -2       783       885       886      3469      3473      3471
 -1      1657    8    0    1
 -2       785       784       887      3141      3474      3475
 -1      1658    8    0    1
 -2       784       886       887      3472      3476      3474
 -1      1659    8    0    1
 -2       786       785       888      3144      3477      3478
 -1      1660    8    0    1
 -2       822       786       888      3322      3478      3479
 -1      1661    8    0    1
 -2       785       887       888      3475      3480      3477
 -1      1662    8    0    1
 -2       742       741       889      2996      3481      3482
 -1      1663    8    0    1
 -2       816       742       889      3233      3482      3483
 -1      1664    8    0    1
 -2       741       842       889      3313      3484      3481
 -1      1665    8    0    1
 -2       790       791       890      3157      3485      3486
 -1      1666    8    0    1
 -2       793       794       891      3166      3487      3488
 -1      1667    8    0    1
 -2       794       795       892      3169      3489      3490
 -1      1668    8    0    1
 -2       794       892       891      3490      3491      3487
 -1      1669    8    0    1
 -2       795       796       893      3172      3492      3493
 -1      1670    8    0    1
 -2       795       893       892      3493      3494      3489
 -1      1671    8    0    1
 -2       796       797       894      3175      3495      3496
 -1      1672    8    0    1
 -2       796       894       893      3496      3497      3492
 -1      1673    8    0    1
 -2       797       798       895      3178      3498      3499
 -1      1674    8    0    1
 -2       797       895       894      3499      3500      3495
 -1      1675    8    0    1
 -2       798       799       896      3181      3501      3502
 -1      1676    8    0    1
 -2       798       896       895      3502      3503      3498
 -1      1677    8    0    1
 -2       799       800       897      3184      3504      3505
 -1      1678    8    0    1
 -2       799       897       896      3505      3506      3501
 -1      1679    8    0    1
 -2       800       801       898      3187      3507      3508
 -1      1680    8    0    1
 -2       800       898       897      3508      3509      3504
 -1      1681    8    0    1
 -2       801       802       899      3190      3510      3511
 -1      1682    8    0    1
 -2       801       899       898      3511      3512      3507
 -1      1683    8    0    1
 -2       802       803       900      3193      3513      3514
 -1      1684    8    0    1
 -2       802       900       899      3514      3515      3510
 -1      1685    8    0    1
 -2       803       804       901      3196      3516      3517
 -1      1686    8    0    1
 -2       803       901       900      3517      3518      3513
 -1      1687    8    0    1
 -2       804       805       902      3199      3519      3520
 -1      1688    8    0    1
 -2       804       902       901      3520      3521      3516
 -1      1689    8    0    1
 -2       805       806       903      3202      3522      3523
 -1      1690    8    0    1
 -2       805       903       902      3523      3524      3519
 -1      1691    8    0    1
 -2       806       807       904      3205      3525      3526
 -1      1692    8    0    1
 -2       806       904       903      3526      3527      3522
 -1      1693    8    0    1
 -2       807       808       905      3208      3528      3529
 -1      1694    8    0    1
 -2       807       905       904      3529      3530      3525
 -1      1695    8    0    1
 -2       808       809       906      3211      3531      3532
 -1      1696    8    0    1
 -2       808       906       905      3532      3533      3528
 -1      1697    8    0    1
 -2       809       810       907      3214      3534      3535
 -1      1698    8    0    1
 -2       809       907       906      3535      3536      3531
 -1      1699    8    0    1
 -2       810       811       908      3217      3537      3538
 -1      1700    8    0    1
 -2       810       908       907      3538      3539      3534
 -1      1701    8    0    1
 -2       811       812       909      3220      3540      3541
 -1      1702    8    0    1
 -2       811       909       908      3541      3542      3537
 -1      1703    8    0    1
 -2       812       813       910      3223      3543      3544
 -1      1704    8    0    1
 -2       812       910       909      3544      3545      3540
 -1      1705    8    0    1
 -2       813       814       911      3226      3546      3547
 -1      1706    8    0    1
 -2       813       911       910      3547      3548      3543
 -1      1707    8    0    1
 -2       791       792       912      3160      3549      3550
 -1      1708    8    0    1
 -2       791       912       890      3550      3551      3485
 -1      1709    8    0    1
 -2       792       793       913      3163      3552      3553
 -1      1710    8    0    1
 -2       792       913       912      3553      3554      3549
 -1      1711    8    0    1
 -2       821       823       914      3248      3555      3556
 -1      1712    8    0    1
 -2       832       749       915      3370      3557      3558
 -1      1713    8    0    1
 -2       826       819       916      3310      3559      3560
 -1      1714    8    0    1
 -2       825       790       749      3331      3561      3377
 -1      1715    8    0    1
 -2       759       636       787      3062      3402      3562
 -1      1716    8    0    1
 -2       820       832       917      3325      3563      3564
 -1      1717    8    0    1
 -2       740       820       918      3311      3565      3566
 -1      1718    8    0    1
 -2       740       918       852      3566      3567      3358
 -1      1719    8    0    1
 -2       665       632       745      3056      3383      3010
 -1      1720    8    0    1
 -2       839       824       919      3298      3568      3569
 -1      1721    8    0    1
 -2       752       751       920      3038      3570      3571
 -1      1722    8    0    1
 -2       752       920       858      3571      3572      3386
 -1      1723    8    0    1
 -2       747       739       921      3022      3573      3574
 -1      1724    8    0    1
 -2       747       921       854      3574      3575      3371
 -1      1725    8    0    1
 -2       722       738       853      3368      3576      3365
 -1      1726    8    0    1
 -2       837       788       863      3324      3577      3578
 -1      1727    8    0    1
 -2       750       833       922      3277      3579      3580
 -1      1728    8    0    1
 -2       833       850       922      3352      3581      3579
 -1      1729    8    0    1
 -2       835       831       923      3283      3582      3583
 -1      1730    8    0    1
 -2       831       862       923      3400      3584      3582
 -1      1731    8    0    1
 -2       743       719       673      3012      3585      3326
 -1      1732    8    0    1
 -2       838       827       789      3357      3586      3369
 -1      1733    8    0    1
 -2       789       827       856      3586      3380      3381
 -1      1734    8    0    1
 -2       830       817       924      3330      3587      3588
 -1      1735    8    0    1
 -2       746       757       844      3378      3398      3329
 -1      1736    8    0    1
 -2       841       750       922      3303      3580      3589
 -1      1737    8    0    1
 -2       856       830       924      3379      3588      3590
 -1      1738    8    0    1
 -2       820       917       918      3564      3591      3565
 -1      1739    8    0    1
 -2       919       824       848      3568      3344      3592
 -1      1740    8    0    1
 -2       916       819       861      3559      3593      3594
 -1      1741    8    0    1
 -2       631       744       758      3314      3362      3054
 -1      1742    8    0    1
 -2       673       719       610      3585      3260      2992
 -1      1743    8    0    1
 -2       738       855       853      3376      3595      3576
 -1      1744    8    0    1
 -2       863       760       837      3403      3596      3578
 -1      1745    8    0    1
 -2       915       749       890      3557      3597      3598
 -1      1746    8    0    1
 -2       822       888       925      3479      3599      3600
 -1      1747    8    0    1
 -2       822       925       829      3600      3601      3265
 -1      1748    8    0    1
 -2       751       853       926      3367      3602      3603
 -1      1749    8    0    1
 -2       920       751       926      3570      3603      3604
 -1      1750    8    0    1
 -2       853       855       926      3595      3605      3602
 -1      1751    8    0    1
 -2       845       725       841      3334      3305      3606
 -1      1752    8    0    1
 -2       793       891       913      3488      3607      3552
 -1      1753    8    0    1
 -2       821       914       927      3556      3608      3609
 -1      1754    8    0    1
 -2       821       927       847      3609      3610      3342
 -1      1755    8    0    1
 -2       814       815       928      3229      3611      3612
 -1      1756    8    0    1
 -2       815       816       889      3232      3483      3613
 -1      1757    8    0    1
 -2       848       826       916      3345      3560      3614
 -1      1758    8    0    1
 -2       814       928       911      3612      3615      3546
 -1      1759    8    0    1
 -2       790       890       749      3486      3597      3561
 -1      1760    8    0    1
 -2       818       845       929      3333      3616      3617
 -1      1761    8    0    1
 -2       832       915       930      3558      3618      3619
 -1      1762    8    0    1
 -2       832       930       917      3619      3620      3563
 -1      1763    8    0    1
 -2       849       839       931      3349      3621      3622
 -1      1764    8    0    1
 -2       817       849       932      3348      3623      3624
 -1      1765    8    0    1
 -2       924       817       932      3587      3624      3625
 -1      1766    8    0    1
 -2       849       931       932      3622      3626      3623
 -1      1767    8    0    1
 -2       851       835       933      3356      3627      3628
 -1      1768    8    0    1
 -2       835       923       933      3583      3629      3627
 -1      1769    8    0    1
 -2       818       929       934      3617      3630      3631
 -1      1770    8    0    1
 -2       818       934       840      3631      3632      3302
 -1      1771    8    0    1
 -2       760       759       837      3066      3633      3596
 -1      1772    8    0    1
 -2       787       837       759      3320      3633      3562
 -1      1773    8    0    1
 -2       839       919       931      3569      3634      3621
 -1      1774    8    0    1
 -2       739       840       921      3301      3635      3573
 -1      1775    8    0    1
 -2       842       846       935      3337      3636      3637
 -1      1776    8    0    1
 -2       863       788       857      3577      3385      3638
 -1      1777    8    0    1
 -2       854       921       936      3575      3639      3640
 -1      1778    8    0    1
 -2       823       829       937      3264      3641      3642
 -1      1779    8    0    1
 -2       914       823       937      3555      3642      3643
 -1      1780    8    0    1
 -2       829       925       937      3601      3644      3641
 -1      1781    8    0    1
 -2       889       842       928      3484      3645      3646
 -1      1782    8    0    1
 -2       855       854       938      3374      3647      3648
 -1      1783    8    0    1
 -2       926       855       938      3605      3648      3649
 -1      1784    8    0    1
 -2       854       936       938      3640      3650      3647
 -1      1785    8    0    1
 -2       928       815       889      3611      3613      3646
 -1      1786    8    0    1
 -2       928       842       935      3645      3637      3651
 -1      1787    8    0    1
 -2       861       819       756      3593      3652      3395
 -1      1788    8    0    1
 -2       857       834       939      3384      3653      3654
 -1      1789    8    0    1
 -2       857       939       940      3654      3655      3656
 -1      1790    8    0    1
 -2       860       859       941      3393      3657      3658
 -1      1791    8    0    1
 -2       861       860       942      3396      3659      3660
 -1      1792    8    0    1
 -2       916       861       942      3594      3660      3661
 -1      1793    8    0    1
 -2       860       941       942      3658      3662      3659
 -1      1794    8    0    1
 -2       859       858       943      3390      3663      3664
 -1      1795    8    0    1
 -2       859       943       941      3664      3665      3657
 -1      1796    8    0    1
 -2       864       863       857      3407      3638      3666
 -1      1797    8    0    1
 -2       929       845       944      3616      3667      3668
 -1      1798    8    0    1
 -2       845       841       944      3606      3669      3667
 -1      1799    8    0    1
 -2       928       935       911      3651      3670      3615
 -1      1800    8    0    1
 -2       865       864       940      3410      3671      3672
 -1      1801    8    0    1
 -2       866       865       945      3413      3673      3674
 -1      1802    8    0    1
 -2       865       940       945      3672      3675      3673
 -1      1803    8    0    1
 -2       867       866       946      3416      3676      3677
 -1      1804    8    0    1
 -2       866       945       946      3674      3678      3676
 -1      1805    8    0    1
 -2       868       867       947      3419      3679      3680
 -1      1806    8    0    1
 -2       867       946       947      3677      3681      3679
 -1      1807    8    0    1
 -2       869       868       948      3422      3682      3683
 -1      1808    8    0    1
 -2       868       947       948      3680      3684      3682
 -1      1809    8    0    1
 -2       870       869       949      3425      3685      3686
 -1      1810    8    0    1
 -2       869       948       949      3683      3687      3685
 -1      1811    8    0    1
 -2       871       870       950      3428      3688      3689
 -1      1812    8    0    1
 -2       870       949       950      3686      3690      3688
 -1      1813    8    0    1
 -2       872       871       951      3431      3691      3692
 -1      1814    8    0    1
 -2       871       950       951      3689      3693      3691
 -1      1815    8    0    1
 -2       873       872       952      3434      3694      3695
 -1      1816    8    0    1
 -2       872       951       952      3692      3696      3694
 -1      1817    8    0    1
 -2       874       873       953      3437      3697      3698
 -1      1818    8    0    1
 -2       873       952       953      3695      3699      3697
 -1      1819    8    0    1
 -2       875       874       954      3440      3700      3701
 -1      1820    8    0    1
 -2       874       953       954      3698      3702      3700
 -1      1821    8    0    1
 -2       876       875       955      3443      3703      3704
 -1      1822    8    0    1
 -2       875       954       955      3701      3705      3703
 -1      1823    8    0    1
 -2       877       876       956      3446      3706      3707
 -1      1824    8    0    1
 -2       876       955       956      3704      3708      3706
 -1      1825    8    0    1
 -2       878       877       957      3449      3709      3710
 -1      1826    8    0    1
 -2       877       956       957      3707      3711      3709
 -1      1827    8    0    1
 -2       879       878       958      3452      3712      3713
 -1      1828    8    0    1
 -2       878       957       958      3710      3714      3712
 -1      1829    8    0    1
 -2       880       879       959      3455      3715      3716
 -1      1830    8    0    1
 -2       879       958       959      3713      3717      3715
 -1      1831    8    0    1
 -2       881       880       960      3458      3718      3719
 -1      1832    8    0    1
 -2       880       959       960      3716      3720      3718
 -1      1833    8    0    1
 -2       882       881       961      3461      3721      3722
 -1      1834    8    0    1
 -2       881       960       961      3719      3723      3721
 -1      1835    8    0    1
 -2       883       882       962      3464      3724      3725
 -1      1836    8    0    1
 -2       882       961       962      3722      3726      3724
 -1      1837    8    0    1
 -2       884       883       963      3467      3727      3728
 -1      1838    8    0    1
 -2       883       962       963      3725      3729      3727
 -1      1839    8    0    1
 -2       885       884       964      3470      3730      3731
 -1      1840    8    0    1
 -2       884       963       964      3728      3732      3730
 -1      1841    8    0    1
 -2       886       885       965      3473      3733      3734
 -1      1842    8    0    1
 -2       885       964       965      3731      3735      3733
 -1      1843    8    0    1
 -2       887       886       966      3476      3736      3737
 -1      1844    8    0    1
 -2       886       965       966      3734      3738      3736
 -1      1845    8    0    1
 -2       888       887       925      3480      3739      3599
 -1      1846    8    0    1
 -2       893       894       967      3497      3740      3741
 -1      1847    8    0    1
 -2       862       856       924      3401      3590      3742
 -1      1848    8    0    1
 -2       841       922       944      3589      3743      3669
 -1      1849    8    0    1
 -2       911       935       968      3670      3744      3745
 -1      1850    8    0    1
 -2       892       893       969      3494      3746      3747
 -1      1851    8    0    1
 -2       893       967       969      3741      3748      3746
 -1      1852    8    0    1
 -2       891       892       970      3491      3749      3750
 -1      1853    8    0    1
 -2       892       969       970      3747      3751      3749
 -1      1854    8    0    1
 -2       894       895       971      3500      3752      3753
 -1      1855    8    0    1
 -2       894       971       967      3753      3754      3740
 -1      1856    8    0    1
 -2       895       896       972      3503      3755      3756
 -1      1857    8    0    1
 -2       895       972       971      3756      3757      3752
 -1      1858    8    0    1
 -2       896       897       973      3506      3758      3759
 -1      1859    8    0    1
 -2       896       973       972      3759      3760      3755
 -1      1860    8    0    1
 -2       897       898       974      3509      3761      3762
 -1      1861    8    0    1
 -2       897       974       973      3762      3763      3758
 -1      1862    8    0    1
 -2       898       899       975      3512      3764      3765
 -1      1863    8    0    1
 -2       898       975       974      3765      3766      3761
 -1      1864    8    0    1
 -2       899       900       976      3515      3767      3768
 -1      1865    8    0    1
 -2       899       976       975      3768      3769      3764
 -1      1866    8    0    1
 -2       900       901       977      3518      3770      3771
 -1      1867    8    0    1
 -2       900       977       976      3771      3772      3767
 -1      1868    8    0    1
 -2       901       902       978      3521      3773      3774
 -1      1869    8    0    1
 -2       901       978       977      3774      3775      3770
 -1      1870    8    0    1
 -2       902       903       979      3524      3776      3777
 -1      1871    8    0    1
 -2       902       979       978      3777      3778      3773
 -1      1872    8    0    1
 -2       903       904       980      3527      3779      3780
 -1      1873    8    0    1
 -2       903       980       979      3780      3781      3776
 -1      1874    8    0    1
 -2       904       905       981      3530      3782      3783
 -1      1875    8    0    1
 -2       904       981       980      3783      3784      3779
 -1      1876    8    0    1
 -2       905       906       982      3533      3785      3786
 -1      1877    8    0    1
 -2       905       982       981      3786      3787      3782
 -1      1878    8    0    1
 -2       906       907       983      3536      3788      3789
 -1      1879    8    0    1
 -2       906       983       982      3789      3790      3785
 -1      1880    8    0    1
 -2       907       908       984      3539      3791      3792
 -1      1881    8    0    1
 -2       907       984       983      3792      3793      3788
 -1      1882    8    0    1
 -2       908       909       985      3542      3794      3795
 -1      1883    8    0    1
 -2       908       985       984      3795      3796      3791
 -1      1884    8    0    1
 -2       909       910       986      3545      3797      3798
 -1      1885    8    0    1
 -2       909       986       985      3798      3799      3794
 -1      1886    8    0    1
 -2       910       911       968      3548      3745      3800
 -1      1887    8    0    1
 -2       912       913       987      3554      3801      3802
 -1      1888    8    0    1
 -2       913       891       988      3607      3803      3804
 -1      1889    8    0    1
 -2       891       970       988      3750      3805      3803
 -1      1890    8    0    1
 -2       921       840       989      3635      3806      3807
 -1      1891    8    0    1
 -2       936       921       989      3639      3807      3808
 -1      1892    8    0    1
 -2       840       934       989      3632      3809      3806
 -1      1893    8    0    1
 -2       846       847       990      3341      3810      3811
 -1      1894    8    0    1
 -2       935       846       990      3636      3811      3812
 -1      1895    8    0    1
 -2       847       927       990      3610      3813      3810
 -1      1896    8    0    1
 -2       848       916       942      3614      3661      3814
 -1      1897    8    0    1
 -2       919       848       991      3592      3815      3816
 -1      1898    8    0    1
 -2       915       890       992      3598      3817      3818
 -1      1899    8    0    1
 -2       930       915       992      3618      3818      3819
 -1      1900    8    0    1
 -2       890       912       992      3551      3820      3817
 -1      1901    8    0    1
 -2       858       920       993      3572      3821      3822
 -1      1902    8    0    1
 -2       858       993       943      3822      3823      3663
 -1      1903    8    0    1
 -2       850       851       994      3355      3824      3825
 -1      1904    8    0    1
 -2       922       850       994      3581      3825      3826
 -1      1905    8    0    1
 -2       851       933       994      3628      3827      3824
 -1      1906    8    0    1
 -2       939       834       852      3653      3360      3828
 -1      1907    8    0    1
 -2       862       924       995      3742      3829      3830
 -1      1908    8    0    1
 -2       939       852       996      3828      3831      3832
 -1      1909    8    0    1
 -2       852       918       996      3567      3833      3831
 -1      1910    8    0    1
 -2       923       862       995      3584      3830      3834
 -1      1911    8    0    1
 -2       918       917       997      3591      3835      3836
 -1      1912    8    0    1
 -2       918       997       996      3836      3837      3833
 -1      1913    8    0    1
 -2       931       919       998      3634      3838      3839
 -1      1914    8    0    1
 -2       995       924       932      3829      3625      3840
 -1      1915    8    0    1
 -2       857       940       864      3656      3671      3666
 -1      1916    8    0    1
 -2       919       991       998      3816      3841      3838
 -1      1917    8    0    1
 -2       912       987       992      3802      3842      3820
 -1      1918    8    0    1
 -2       936       989       999      3808      3843      3844
 -1      1919    8    0    1
 -2       925       887       966      3739      3737      3845
 -1      1920    8    0    1
 -2       939       996      1000      3832      3846      3847
 -1      1921    8    0    1
 -2       939      1000       940      3847      3848      3655
 -1      1922    8    0    1
 -2       968       935      1001      3744      3849      3850
 -1      1923    8    0    1
 -2       935       990      1001      3812      3851      3849
 -1      1924    8    0    1
 -2       927       914      1002      3608      3852      3853
 -1      1925    8    0    1
 -2       910       968       986      3800      3854      3797
 -1      1926    8    0    1
 -2       987       913       988      3801      3804      3855
 -1      1927    8    0    1
 -2       932       931      1003      3626      3856      3857
 -1      1928    8    0    1
 -2       931       998      1003      3839      3858      3856
 -1      1929    8    0    1
 -2       848       942       991      3814      3859      3815
 -1      1930    8    0    1
 -2       922       994       944      3826      3860      3743
 -1      1931    8    0    1
 -2       917       930       997      3620      3861      3835
 -1      1932    8    0    1
 -2       934       929      1004      3630      3862      3863
 -1      1933    8    0    1
 -2       933       923      1005      3629      3864      3865
 -1      1934    8    0    1
 -2       920       926      1006      3604      3866      3867
 -1      1935    8    0    1
 -2       993       920      1006      3821      3867      3868
 -1      1936    8    0    1
 -2       926       938      1006      3649      3869      3866
 -1      1937    8    0    1
 -2       923       995      1005      3834      3870      3864
 -1      1938    8    0    1
 -2       756       819       844      3652      3328      3397
 -1      1939    8    0    1
 -2       929       944      1007      3668      3871      3872
 -1      1940    8    0    1
 -2       929      1007      1004      3872      3873      3862
 -1      1941    8    0    1
 -2       914       937      1008      3643      3874      3875
 -1      1942    8    0    1
 -2       914      1008      1002      3875      3876      3852
 -1      1943    8    0    1
 -2       938       936      1006      3650      3877      3869
 -1      1944    8    0    1
 -2      1006       936       999      3877      3844      3878
 -1      1945    8    0    1
 -2       941       943      1009      3665      3879      3880
 -1      1946    8    0    1
 -2       999       989      1010      3843      3881      3882
 -1      1947    8    0    1
 -2       989       934      1010      3809      3883      3881
 -1      1948    8    0    1
 -2       925       966       937      3845      3884      3644
 -1      1949    8    0    1
 -2       945       940      1000      3675      3848      3885
 -1      1950    8    0    1
 -2       946       945      1011      3678      3886      3887
 -1      1951    8    0    1
 -2       947       946      1012      3681      3888      3889
 -1      1952    8    0    1
 -2       946      1011      1012      3887      3890      3888
 -1      1953    8    0    1
 -2       948       947      1013      3684      3891      3892
 -1      1954    8    0    1
 -2       947      1012      1013      3889      3893      3891
 -1      1955    8    0    1
 -2       949       948      1014      3687      3894      3895
 -1      1956    8    0    1
 -2       948      1013      1014      3892      3896      3894
 -1      1957    8    0    1
 -2       950       949      1015      3690      3897      3898
 -1      1958    8    0    1
 -2       949      1014      1015      3895      3899      3897
 -1      1959    8    0    1
 -2       951       950      1016      3693      3900      3901
 -1      1960    8    0    1
 -2       950      1015      1016      3898      3902      3900
 -1      1961    8    0    1
 -2       952       951      1017      3696      3903      3904
 -1      1962    8    0    1
 -2       951      1016      1017      3901      3905      3903
 -1      1963    8    0    1
 -2       953       952      1018      3699      3906      3907
 -1      1964    8    0    1
 -2       952      1017      1018      3904      3908      3906
 -1      1965    8    0    1
 -2       954       953      1019      3702      3909      3910
 -1      1966    8    0    1
 -2       953      1018      1019      3907      3911      3909
 -1      1967    8    0    1
 -2       955       954      1020      3705      3912      3913
 -1      1968    8    0    1
 -2       954      1019      1020      3910      3914      3912
 -1      1969    8    0    1
 -2       956       955      1021      3708      3915      3916
 -1      1970    8    0    1
 -2       955      1020      1021      3913      3917      3915
 -1      1971    8    0    1
 -2       957       956      1022      3711      3918      3919
 -1      1972    8    0    1
 -2       956      1021      1022      3916      3920      3918
 -1      1973    8    0    1
 -2       958       957      1023      3714      3921      3922
 -1      1974    8    0    1
 -2       957      1022      1023      3919      3923      3921
 -1      1975    8    0    1
 -2       959       958      1024      3717      3924      3925
 -1      1976    8    0    1
 -2       958      1023      1024      3922      3926      3924
 -1      1977    8    0    1
 -2       960       959      1025      3720      3927      3928
 -1      1978    8    0    1
 -2       959      1024      1025      3925      3929      3927
 -1      1979    8    0    1
 -2       961       960      1026      3723      3930      3931
 -1      1980    8    0    1
 -2       960      1025      1026      3928      3932      3930
 -1      1981    8    0    1
 -2       962       961      1027      3726      3933      3934
 -1      1982    8    0    1
 -2       961      1026      1027      3931      3935      3933
 -1      1983    8    0    1
 -2       963       962      1028      3729      3936      3937
 -1      1984    8    0    1
 -2       962      1027      1028      3934      3938      3936
 -1      1985    8    0    1
 -2       964       963      1029      3732      3939      3940
 -1      1986    8    0    1
 -2       963      1028      1029      3937      3941      3939
 -1      1987    8    0    1
 -2       965       964      1030      3735      3942      3943
 -1      1988    8    0    1
 -2       964      1029      1030      3940      3944      3942
 -1      1989    8    0    1
 -2       971       972      1031      3757      3945      3946
 -1      1990    8    0    1
 -2       969       967      1032      3748      3947      3948
 -1      1991    8    0    1
 -2       967       971      1033      3754      3949      3950
 -1      1992    8    0    1
 -2       971      1031      1033      3946      3951      3949
 -1      1993    8    0    1
 -2       970       969      1034      3751      3952      3953
 -1      1994    8    0    1
 -2       969      1032      1034      3948      3954      3952
 -1      1995    8    0    1
 -2       986       968      1035      3854      3955      3956
 -1      1996    8    0    1
 -2       968      1001      1035      3850      3957      3955
 -1      1997    8    0    1
 -2       972       973      1036      3760      3958      3959
 -1      1998    8    0    1
 -2       972      1036      1031      3959      3960      3945
 -1      1999    8    0    1
 -2       973       974      1037      3763      3961      3962
 -1      2000    8    0    1
 -2       973      1037      1036      3962      3963      3958
 -1      2001    8    0    1
 -2       974       975      1038      3766      3964      3965
 -1      2002    8    0    1
 -2       974      1038      1037      3965      3966      3961
 -1      2003    8    0    1
 -2       975       976      1039      3769      3967      3968
 -1      2004    8    0    1
 -2       975      1039      1038      3968      3969      3964
 -1      2005    8    0    1
 -2       976       977      1040      3772      3970      3971
 -1      2006    8    0    1
 -2       976      1040      1039      3971      3972      3967
 -1      2007    8    0    1
 -2       977       978      1041      3775      3973      3974
 -1      2008    8    0    1
 -2       977      1041      1040      3974      3975      3970
 -1      2009    8    0    1
 -2       978       979      1042      3778      3976      3977
 -1      2010    8    0    1
 -2       978      1042      1041      3977      3978      3973
 -1      2011    8    0    1
 -2       979       980      1043      3781      3979      3980
 -1      2012    8    0    1
 -2       979      1043      1042      3980      3981      3976
 -1      2013    8    0    1
 -2       980       981      1044      3784      3982      3983
 -1      2014    8    0    1
 -2       980      1044      1043      3983      3984      3979
 -1      2015    8    0    1
 -2       981       982      1045      3787      3985      3986
 -1      2016    8    0    1
 -2       981      1045      1044      3986      3987      3982
 -1      2017    8    0    1
 -2       982       983      1046      3790      3988      3989
 -1      2018    8    0    1
 -2       982      1046      1045      3989      3990      3985
 -1      2019    8    0    1
 -2       983       984      1047      3793      3991      3992
 -1      2020    8    0    1
 -2       983      1047      1046      3992      3993      3988
 -1      2021    8    0    1
 -2       984       985      1048      3796      3994      3995
 -1      2022    8    0    1
 -2       984      1048      1047      3995      3996      3991
 -1      2023    8    0    1
 -2       985       986      1049      3799      3997      3998
 -1      2024    8    0    1
 -2      1048       985      1049      3994      3998      3999
 -1      2025    8    0    1
 -2       986      1035      1049      3956      4000      3997
 -1      2026    8    0    1
 -2       987       988      1050      3855      4001      4002
 -1      2027    8    0    1
 -2       988       970      1051      3805      4003      4004
 -1      2028    8    0    1
 -2       970      1034      1051      3953      4005      4003
 -1      2029    8    0    1
 -2       943       993      1052      3823      4006      4007
 -1      2030    8    0    1
 -2       943      1052      1009      4007      4008      3879
 -1      2031    8    0    1
 -2       942       941       991      3662      4009      3859
 -1      2032    8    0    1
 -2       998       991      1053      3841      4010      4011
 -1      2033    8    0    1
 -2       937       966      1008      3884      4012      3874
 -1      2034    8    0    1
 -2       933      1005      1054      3865      4013      4014
 -1      2035    8    0    1
 -2       933      1054       994      4014      4015      3827
 -1      2036    8    0    1
 -2       930       992      1055      3819      4016      4017
 -1      2037    8    0    1
 -2       992       987      1055      3842      4018      4016
 -1      2038    8    0    1
 -2       990       927      1056      3813      4019      4020
 -1      2039    8    0    1
 -2      1001       990      1056      3851      4020      4021
 -1      2040    8    0    1
 -2       927      1002      1056      3853      4022      4019
 -1      2041    8    0    1
 -2       997       930      1055      3861      4017      4023
 -1      2042    8    0    1
 -2       934      1004      1010      3863      4024      3883
 -1      2043    8    0    1
 -2      1005       995      1057      3870      4025      4026
 -1      2044    8    0    1
 -2       996       997      1058      3837      4027      4028
 -1      2045    8    0    1
 -2       996      1058      1000      4028      4029      3846
 -1      2046    8    0    1
 -2       995       932      1003      3840      3857      4030
 -1      2047    8    0    1
 -2       999      1010      1059      3882      4031      4032
 -1      2048    8    0    1
 -2      1004      1007      1060      3873      4033      4034
 -1      2049    8    0    1
 -2      1032       967      1033      3947      3950      4035
 -1      2050    8    0    1
 -2      1011       945      1000      3886      3885      4036
 -1      2051    8    0    1
 -2       995      1003      1057      4030      4037      4025
 -1      2052    8    0    1
 -2       966       965      1061      3738      4038      4039
 -1      2053    8    0    1
 -2       987      1050      1055      4002      4040      4018
 -1      2054    8    0    1
 -2       991       941      1009      4009      3880      4041
 -1      2055    8    0    1
 -2      1007       944      1054      3871      4042      4043
 -1      2056    8    0    1
 -2      1050       988      1051      4001      4004      4044
 -1      2057    8    0    1
 -2      1003       998      1062      3858      4045      4046
 -1      2058    8    0    1
 -2      1057      1003      1062      4037      4046      4047
 -1      2059    8    0    1
 -2       998      1053      1062      4011      4048      4045
 -1      2060    8    0    1
 -2      1053       991      1009      4010      4041      4049
 -1      2061    8    0    1
 -2      1008       966      1061      4012      4039      4050
 -1      2062    8    0    1
 -2       999      1059      1052      4032      4051      4052
 -1      2063    8    0    1
 -2      1006       999      1052      3878      4052      4053
 -1      2064    8    0    1
 -2      1054      1005      1060      4013      4054      4055
 -1      2065    8    0    1
 -2      1002      1008      1061      3876      4050      4056
 -1      2066    8    0    1
 -2       944       994      1054      3860      4015      4042
 -1      2067    8    0    1
 -2      1056      1002      1063      4022      4057      4058
 -1      2068    8    0    1
 -2      1002      1061      1063      4056      4059      4057
 -1      2069    8    0    1
 -2      1010      1004      1064      4024      4060      4061
 -1      2070    8    0    1
 -2      1059      1010      1064      4031      4061      4062
 -1      2071    8    0    1
 -2      1004      1060      1064      4034      4063      4060
 -1      2072    8    0    1
 -2       997      1055      1065      4023      4064      4065
 -1      2073    8    0    1
 -2      1058       997      1065      4027      4065      4066
 -1      2074    8    0    1
 -2      1055      1050      1065      4040      4067      4064
 -1      2075    8    0    1
 -2      1005      1057      1060      4026      4068      4054
 -1      2076    8    0    1
 -2      1061       965      1030      4038      3943      4069
 -1      2077    8    0    1
 -2      1032      1033      1066      4035      4070      4071
 -1      2078    8    0    1
 -2      1012      1011      1067      3890      4072      4073
 -1      2079    8    0    1
 -2      1013      1012      1068      3893      4074      4075
 -1      2080    8    0    1
 -2      1012      1067      1068      4073      4076      4074
 -1      2081    8    0    1
 -2      1014      1013      1069      3896      4077      4078
 -1      2082    8    0    1
 -2      1013      1068      1069      4075      4079      4077
 -1      2083    8    0    1
 -2      1015      1014      1066      3899      4080      4081
 -1      2084    8    0    1
 -2      1017      1016      1070      3905      4082      4083
 -1      2085    8    0    1
 -2      1018      1017      1071      3908      4084      4085
 -1      2086    8    0    1
 -2      1017      1070      1071      4083      4086      4084
 -1      2087    8    0    1
 -2      1019      1018      1072      3911      4087      4088
 -1      2088    8    0    1
 -2      1018      1071      1072      4085      4089      4087
 -1      2089    8    0    1
 -2      1020      1019      1073      3914      4090      4091
 -1      2090    8    0    1
 -2      1019      1072      1073      4088      4092      4090
 -1      2091    8    0    1
 -2      1021      1020      1074      3917      4093      4094
 -1      2092    8    0    1
 -2      1020      1073      1074      4091      4095      4093
 -1      2093    8    0    1
 -2      1022      1021      1075      3920      4096      4097
 -1      2094    8    0    1
 -2      1021      1074      1075      4094      4098      4096
 -1      2095    8    0    1
 -2      1023      1022      1076      3923      4099      4100
 -1      2096    8    0    1
 -2      1022      1075      1076      4097      4101      4099
 -1      2097    8    0    1
 -2      1024      1023      1077      3926      4102      4103
 -1      2098    8    0    1
 -2      1023      1076      1077      4100      4104      4102
 -1      2099    8    0    1
 -2      1025      1024      1078      3929      4105      4106
 -1      2100    8    0    1
 -2      1024      1077      1078      4103      4107      4105
 -1      2101    8    0    1
 -2      1026      1025      1079      3932      4108      4109
 -1      2102    8    0    1
 -2      1025      1078      1079      4106      4110      4108
 -1      2103    8    0    1
 -2      1027      1026      1080      3935      4111      4112
 -1      2104    8    0    1
 -2      1026      1079      1080      4109      4113      4111
 -1      2105    8    0    1
 -2      1028      1027      1081      3938      4114      4115
 -1      2106    8    0    1
 -2      1027      1080      1081      4112      4116      4114
 -1      2107    8    0    1
 -2      1029      1028      1082      3941      4117      4118
 -1      2108    8    0    1
 -2      1028      1081      1082      4115      4119      4117
 -1      2109    8    0    1
 -2      1030      1029      1083      3944      4120      4121
 -1      2110    8    0    1
 -2      1029      1082      1083      4118      4122      4120
 -1      2111    8    0    1
 -2      1036      1037      1084      3963      4123      4124
 -1      2112    8    0    1
 -2      1060      1057      1064      4068      4125      4063
 -1      2113    8    0    1
 -2      1011      1000      1058      4036      4029      4126
 -1      2114    8    0    1
 -2      1034      1032      1069      3954      4127      4128
 -1      2115    8    0    1
 -2      1035      1001      1085      3957      4129      4130
 -1      2116    8    0    1
 -2      1001      1056      1085      4021      4131      4129
 -1      2117    8    0    1
 -2      1050      1051      1067      4044      4132      4133
 -1      2118    8    0    1
 -2      1037      1038      1072      3966      4134      4135
 -1      2119    8    0    1
 -2      1038      1039      1073      3969      4136      4137
 -1      2120    8    0    1
 -2      1039      1040      1074      3972      4138      4139
 -1      2121    8    0    1
 -2      1040      1041      1075      3975      4140      4141
 -1      2122    8    0    1
 -2      1041      1042      1076      3978      4142      4143
 -1      2123    8    0    1
 -2      1042      1043      1077      3981      4144      4145
 -1      2124    8    0    1
 -2      1043      1044      1078      3984      4146      4147
 -1      2125    8    0    1
 -2      1044      1045      1079      3987      4148      4149
 -1      2126    8    0    1
 -2      1045      1046      1080      3990      4150      4151
 -1      2127    8    0    1
 -2      1046      1047      1081      3993      4152      4153
 -1      2128    8    0    1
 -2      1047      1048      1082      3996      4154      4155
 -1      2129    8    0    1
 -2      1051      1034      1068      4005      4156      4157
 -1      2130    8    0    1
 -2      1052      1059      1053      4051      4158      4159
 -1      2131    8    0    1
 -2      1061      1030      1063      4069      4160      4059
 -1      2132    8    0    1
 -2      1031      1036      1070      3960      4161      4162
 -1      2133    8    0    1
 -2      1009      1052      1053      4008      4159      4049
 -1      2134    8    0    1
 -2       993      1006      1052      3868      4053      4006
 -1      2135    8    0    1
 -2      1011      1058      1067      4126      4163      4072
 -1      2136    8    0    1
 -2      1007      1054      1060      4043      4055      4033
 -1      2137    8    0    1
 -2      1053      1059      1062      4158      4164      4048
 -1      2138    8    0    1
 -2      1033      1031      1086      3951      4165      4166
 -1      2139    8    0    1
 -2      1066      1033      1086      4070      4166      4167
 -1      2140    8    0    1
 -2      1031      1070      1086      4162      4168      4165
 -1      2141    8    0    1
 -2      1080      1046      1081      4150      4153      4116
 -1      2142    8    0    1
 -2      1015      1066      1086      4081      4167      4169
 -1      2143    8    0    1
 -2      1079      1045      1080      4148      4151      4113
 -1      2144    8    0    1
 -2      1016      1015      1086      3902      4169      4170
 -1      2145    8    0    1
 -2      1030      1083      1063      4121      4171      4160
 -1      2146    8    0    1
 -2      1016      1086      1070      4170      4168      4082
 -1      2147    8    0    1
 -2      1064      1057      1062      4125      4047      4172
 -1      2148    8    0    1
 -2      1085      1056      1063      4131      4058      4173
 -1      2149    8    0    1
 -2      1078      1044      1079      4146      4149      4110
 -1      2150    8    0    1
 -2      1081      1047      1082      4152      4155      4119
 -1      2151    8    0    1
 -2      1035      1085      1087      4130      4174      4175
 -1      2152    8    0    1
 -2      1035      1087      1049      4175      4176      4000
 -1      2153    8    0    1
 -2      1067      1051      1068      4132      4157      4076
 -1      2154    8    0    1
 -2      1038      1073      1072      4137      4092      4134
 -1      2155    8    0    1
 -2      1039      1074      1073      4139      4095      4136
 -1      2156    8    0    1
 -2      1040      1075      1074      4141      4098      4138
 -1      2157    8    0    1
 -2      1041      1076      1075      4143      4101      4140
 -1      2158    8    0    1
 -2      1042      1077      1076      4145      4104      4142
 -1      2159    8    0    1
 -2      1043      1078      1077      4147      4107      4144
 -1      2160    8    0    1
 -2      1068      1034      1069      4156      4128      4079
 -1      2161    8    0    1
 -2      1059      1064      1062      4062      4172      4164
 -1      2162    8    0    1
 -2      1082      1048      1083      4154      4177      4122
 -1      2163    8    0    1
 -2      1058      1065      1067      4066      4178      4163
 -1      2164    8    0    1
 -2      1014      1069      1066      4078      4179      4080
 -1      2165    8    0    1
 -2      1032      1066      1069      4071      4179      4127
 -1      2166    8    0    1
 -2      1036      1084      1070      4124      4180      4161
 -1      2167    8    0    1
 -2      1063      1083      1085      4171      4181      4173
 -1      2168    8    0    1
 -2      1084      1037      1072      4123      4135      4182
 -1      2169    8    0    1
 -2      1048      1049      1087      3999      4176      4183
 -1      2170    8    0    1
 -2      1050      1067      1065      4133      4178      4067
 -1      2171    8    0    1
 -2      1072      1071      1084      4089      4184      4182
 -1      2172    8    0    1
 -2      1070      1084      1071      4180      4184      4086
 -1      2173    8    0    1
 -2      1048      1087      1083      4183      4185      4177
 -1      2174    8    0    1
 -2      1087      1085      1083      4174      4181      4185
 -3
    1PSTEP                         1           1           1          
  100CL  101 1.000000000        4185                     0    1           1
 -4  DISP        4    1
 -5  D1          1    2    1    0
 -5  D2          1    2    2    0
 -5  D3          1    2    3    0
 -5  ALL         1    2    0    0    1ALL
 -1         1 3.98085E-03-6.75196E-04-1.76361E-14
 -1         2 6.96644E-03 1.49811E-04-2.60507E-14
 -1         3 1.53944E-02 1.49810E-03-1.73496E-13
 -1         4 1.50192E-02 6.77761E-05-1.76194E-13
 -1         5 0.00000E+00 0.00000E+00 0.00000E+00
 -1         6 0.00000E+00 0.00000E+00 0.00000E+00
 -1         7 0.00000E+00 0.00000E+00 0.00000E+00
 -1         8 0.00000E+00 0.00000E+00 0.00000E+00
 -1         9 0.00000E+00 0.00000E+00 0.00000E+00
 -1        10 0.00000E+00 0.00000E+00 0.00000E+00
 -1        11 0.00000E+00 0.00000E+00 0.00000E+00
 -1        12 0.00000E+00 0.00000E+00 0.00000E+00
 -1        13 0.00000E+00 0.00000E+00 0.00000E+00
 -1        14 0.00000E+00 0.00000E+00 0.00000E+00
 -1        15 0.00000E+00 0.00000E+00 0.00000E+00
 -1        16 0.00000E+00 0.00000E+00 0.00000E+00
 -1        17 0.00000E+00 0.00000E+00 0.00000E+00
 -1        18 0.00000E+00 0.00000E+00 0.00000E+00
 -1        19 0.00000E+00 0.00000E+00 0.00000E+00
 -1        20 0.00000E+00 0.00000E+00 0.00000E+00
 -1        21 0.00000E+00 0.00000E+00 0.00000E+00
 -1        22 0.00000E+00 0.00000E+00 0.00000E+00
 -1        23 4.15117E-04-2.48318E-04 5.21942E-17
 -1        24 7.20261E-04-3.73394E-04-1.00072E-16
 -1        25 1.01132E-03-4.57990E-04-4.51601E-16
 -1        26 1.30361E-03-5.18547E-04-9.97903E-16
 -1        27 1.60192E-03-5.65965E-04-1.73383E-15
 -1        28 1.90867E-03-6.07819E-04-2.65630E-15
 -1        29 2.22467E-03-6.50526E-04-3.76205E-15
 -1        30 2.54906E-03-6.99751E-04-5.04784E-15
 -1        31 2.87899E-03-7.60026E-04-6.51546E-15
 -1        32 3.20930E-03-8.33655E-04-8.16265E-15
 -1        33 3.53277E-03-9.19044E-04-9.98428E-15
 -1        34 3.84154E-03-1.00907E-03-1.19734E-14
 -1        35 4.12991E-03-1.09071E-03-1.41360E-14
 -1        36 4.39764E-03-1.14738E-03-1.64717E-14
 -1        37 4.65179E-03-1.16432E-03-1.89815E-14
 -1        38 4.90509E-03-1.13486E-03-2.16669E-14
 -1        39 5.17093E-03-1.06362E-03-2.45248E-14
 -1        40 5.45799E-03-9.64413E-04-2.75511E-14
 -1        41 5.76773E-03-8.54412E-04-3.07397E-14
 -1        42 6.09554E-03-7.48347E-04-3.40846E-14
 -1        43 6.43395E-03-6.55462E-04-3.75868E-14
 -1        44 6.77555E-03-5.79456E-04-4.12372E-14
 -1        45 7.11473E-03-5.20037E-04-4.50325E-14
 -1        46 7.44808E-03-4.74751E-04-4.89698E-14
 -1        47 7.77405E-03-4.40396E-04-5.30332E-14
 -1        48 8.09240E-03-4.13854E-04-5.72169E-14
 -1        49 8.40367E-03-3.92487E-04-6.15158E-14
 -1        50 8.70881E-03-3.74244E-04-6.59253E-14
 -1        51 9.00885E-03-3.57632E-04-7.04263E-14
 -1        52 9.30483E-03-3.41625E-04-7.50098E-14
 -1        53 9.59765E-03-3.25558E-04-7.96618E-14
 -1        54 9.88808E-03-3.09031E-04-8.43711E-14
 -1        55 1.01768E-02-2.91836E-04-8.91472E-14
 -1        56 1.04642E-02-2.73891E-04-9.39938E-14
 -1        57 1.07507E-02-2.55196E-04-9.89021E-14
 -1        58 1.10367E-02-2.35802E-04-1.03843E-13
 -1        59 1.13223E-02-2.15783E-04-1.08821E-13
 -1        60 1.16077E-02-1.95227E-04-1.13822E-13
 -1        61 1.18930E-02-1.74220E-04-1.18857E-13
 -1        62 1.21783E-02-1.52845E-04-1.23934E-13
 -1        63 1.24636E-02-1.31177E-04-1.29061E-13
 -1        64 1.27489E-02-1.09281E-04-1.34229E-13
 -1        65 1.30343E-02-8.72131E-05-1.39433E-13
 -1        66 1.33197E-02-6.50204E-05-1.44662E-13
 -1        67 1.36052E-02-4.27436E-05-1.49909E-13
 -1        68 1.38908E-02-2.04171E-05-1.55172E-13
 -1        69 1.41764E-02 1.92967E-06-1.60462E-13
 -1        70 1.44621E-02 2.42720E-05-1.65768E-13
 -1        71 1.47478E-02 4.65928E-05-1.71098E-13
 -1        72 4.17051E-04 2.47828E-04 7.75950E-17
 -1        73 7.20820E-04 3.73355E-04-3.13131E-17
 -1        74 1.01417E-03 4.55478E-04-3.21120E-16
 -1        75 1.30943E-03 5.14294E-04-7.92667E-16
 -1        76 1.61227E-03 5.60144E-04-1.44625E-15
 -1        77 1.92608E-03 6.01010E-04-2.27909E-15
 -1        78 2.25282E-03 6.44265E-04-3.28943E-15
 -1        79 2.59284E-03 6.97271E-04-4.47399E-15
 -1        80 2.94409E-03 7.67110E-04-5.83124E-15
 -1        81 3.30111E-03 8.59212E-04-7.36466E-15
 -1        82 3.65445E-03 9.74637E-04-9.07533E-15
 -1        83 3.99177E-03 1.10640E-03-1.09619E-14
 -1        84 4.30183E-03 1.23688E-03-1.30308E-14
 -1        85 4.58100E-03 1.33992E-03-1.52904E-14
 -1        86 4.83837E-03 1.38998E-03-1.77531E-14
 -1        87 5.09401E-03 1.37494E-03-2.04117E-14
 -1        88 5.36932E-03 1.30315E-03-2.32564E-14
 -1        89 5.67640E-03 1.19870E-03-2.62806E-14
 -1        90 6.01419E-03 1.08914E-03-2.94718E-14
 -1        91 6.37259E-03 9.94927E-04-3.28105E-14
 -1        92 6.73913E-03 9.26010E-04-3.62913E-14
 -1        93 7.10363E-03 8.83733E-04-3.99185E-14
 -1        94 7.45983E-03 8.64599E-04-4.36863E-14
 -1        95 7.80497E-03 8.63378E-04-4.75749E-14
 -1        96 8.13866E-03 8.74919E-04-5.15833E-14
 -1        97 8.46181E-03 8.94938E-04-5.57130E-14
 -1        98 8.77594E-03 9.20183E-04-5.99583E-14
 -1        99 9.08269E-03 9.48337E-04-6.43180E-14
 -1       100 9.38360E-03 9.77829E-04-6.87721E-14
 -1       101 9.68000E-03 1.00764E-03-7.33162E-14
 -1       102 9.97300E-03 1.03716E-03-7.79424E-14
 -1       103 1.02635E-02 1.06605E-03-8.26506E-14
 -1       104 1.05522E-02 1.09413E-03-8.74192E-14
 -1       105 1.08396E-02 1.12137E-03-9.22599E-14
 -1       106 1.11261E-02 1.14780E-03-9.71791E-14
 -1       107 1.14120E-02 1.17350E-03-1.02165E-13
 -1       108 1.16976E-02 1.19854E-03-1.07204E-13
 -1       109 1.19830E-02 1.22303E-03-1.12270E-13
 -1       110 1.22683E-02 1.24706E-03-1.17370E-13
 -1       111 1.25535E-02 1.27072E-03-1.22488E-13
 -1       112 1.28388E-02 1.29408E-03-1.27613E-13
 -1       113 1.31241E-02 1.31721E-03-1.32735E-13
 -1       114 1.34095E-02 1.34017E-03-1.37868E-13
 -1       115 1.36949E-02 1.36300E-03-1.42994E-13
 -1       116 1.39804E-02 1.38575E-03-1.48096E-13
 -1       117 1.42660E-02 1.40845E-03-1.53206E-13
 -1       118 1.45516E-02 1.43113E-03-1.58328E-13
 -1       119 1.48373E-02 1.45381E-03-1.63462E-13
 -1       120 1.51230E-02 1.47651E-03-1.68612E-13
 -1       121 1.53721E-02 1.41382E-03-1.73662E-13
 -1       122 1.53497E-02 1.32953E-03-1.73829E-13
 -1       123 1.53273E-02 1.24521E-03-1.73976E-13
 -1       124 1.53049E-02 1.16085E-03-1.74131E-13
 -1       125 1.52825E-02 1.07644E-03-1.74290E-13
 -1       126 1.52606E-02 9.93433E-04-1.74458E-13
 -1       127 1.52383E-02 9.08962E-04-1.74645E-13
 -1       128 1.52161E-02 8.24472E-04-1.74832E-13
 -1       129 1.51940E-02 7.39976E-04-1.75022E-13
 -1       130 1.51719E-02 6.55486E-04-1.75214E-13
 -1       131 1.51499E-02 5.71015E-04-1.75375E-13
 -1       132 1.51283E-02 4.88006E-04-1.75537E-13
 -1       133 1.51064E-02 4.03604E-04-1.75704E-13
 -1       134 1.50846E-02 3.19244E-04-1.75864E-13
 -1       135 1.50627E-02 2.34924E-04-1.76005E-13
 -1       136 1.50408E-02 1.50631E-04-1.76110E-13
 -1       137 6.91234E-03 3.47393E-04-2.57979E-14
 -1       138 6.77420E-03 5.03747E-04-2.52973E-14
 -1       139 6.54479E-03 6.53803E-04-2.45165E-14
 -1       140 6.21501E-03 7.92907E-04-2.34475E-14
 -1       141 5.81335E-03 9.01356E-04-2.22137E-14
 -1       142 5.36673E-03 9.71102E-04-2.09005E-14
 -1       143 4.87914E-03 9.98511E-04-1.95311E-14
 -1       144 4.37021E-03 9.76484E-04-1.81616E-14
 -1       145 3.91821E-03 9.13197E-04-1.70034E-14
 -1       146 3.49646E-03 8.09853E-04-1.59579E-14
 -1       147 3.14473E-03 6.80179E-04-1.51189E-14
 -1       148 2.85845E-03 5.24007E-04-1.44628E-14
 -1       149 2.67038E-03 3.61312E-04-1.40537E-14
 -1       150 2.57219E-03 1.93114E-04-1.38640E-14
 -1       151 2.56814E-03 1.17695E-05-1.39052E-14
 -1       152 2.65870E-03-1.52643E-04-1.41668E-14
 -1       153 2.83871E-03-3.08041E-04-1.46436E-14
 -1       154 3.14156E-03-4.63593E-04-1.54305E-14
 -1       155 3.49199E-03-5.78087E-04-1.63388E-14
 -1       156 4.43700E-03-7.15172E-04-1.88653E-14
 -1       157 4.92810E-03-7.14108E-04-2.02255E-14
 -1       158 5.39452E-03-6.71053E-04-2.15418E-14
 -1       159 5.82419E-03-5.91005E-04-2.27840E-14
 -1       160 6.19549E-03-4.83215E-04-2.38691E-14
 -1       161 6.50912E-03-3.49694E-04-2.47935E-14
 -1       162 6.74787E-03-1.97715E-04-2.54921E-14
 -1       163 6.90517E-03-2.96265E-05-2.59271E-14
 -1       164 2.48963E-04-1.10891E-04-3.83841E-17
 -1       165 2.32106E-04-7.71085E-05-6.62719E-17
 -1       166 2.23094E-04-5.40076E-05-8.17150E-17
 -1       167 2.16500E-04-3.68650E-05-8.99210E-17
 -1       168 2.11344E-04-2.39794E-05-9.41155E-17
 -1       169 2.07346E-04-1.38173E-05-9.61281E-17
 -1       170 2.04741E-04-5.72176E-06-9.66431E-17
 -1       171 2.03712E-04 1.21453E-06-9.64466E-17
 -1       172 2.04378E-04 7.96307E-06-9.51218E-17
 -1       173 2.06752E-04 1.55522E-05-9.25062E-17
 -1       174 2.10656E-04 2.48647E-05-8.83693E-17
 -1       175 2.16112E-04 3.73251E-05-8.16574E-17
 -1       176 2.23117E-04 5.41188E-05-7.06866E-17
 -1       177 2.32526E-04 7.73030E-05-5.25838E-17
 -1       178 2.48445E-04 1.11764E-04-2.13723E-17
 -1       179 3.06953E-04 1.70824E-04 1.18314E-17
 -1       180 4.85213E-04-2.39639E-04-1.04046E-16
 -1       181 7.99070E-04-3.42594E-04-3.94578E-16
 -1       182 1.10330E-03-4.13316E-04-8.70350E-16
 -1       183 1.40620E-03-4.65250E-04-1.53126E-15
 -1       184 1.71174E-03-5.07372E-04-2.37536E-15
 -1       185 2.02211E-03-5.46928E-04-3.40012E-15
 -1       186 2.33804E-03-5.90335E-04-4.60216E-15
 -1       187 2.65891E-03-6.43234E-04-5.98031E-15
 -1       188 2.98266E-03-7.09744E-04-7.53547E-15
 -1       189 3.30577E-03-7.90950E-04-9.26532E-15
 -1       190 3.62377E-03-8.82898E-04-1.11651E-14
 -1       191 3.93236E-03-9.75072E-04-1.32354E-14
 -1       192 4.22931E-03-1.05099E-03-1.54799E-14
 -1       193 4.51622E-03-1.09242E-03-1.78985E-14
 -1       194 4.79889E-03-1.08651E-03-2.04947E-14
 -1       195 5.08521E-03-1.03199E-03-2.32671E-14
 -1       196 5.38170E-03-9.39853E-04-2.62089E-14
 -1       197 5.69103E-03-8.28189E-04-2.93168E-14
 -1       198 6.01172E-03-7.14888E-04-3.25823E-14
 -1       199 6.33981E-03-6.12637E-04-3.60025E-14
 -1       200 6.67071E-03-5.27641E-04-3.95766E-14
 -1       201 7.00055E-03-4.60922E-04-4.32929E-14
 -1       202 7.32667E-03-4.10411E-04-4.71525E-14
 -1       203 7.64760E-03-3.72748E-04-5.11442E-14
 -1       204 7.96285E-03-3.44432E-04-5.52562E-14
 -1       205 8.27253E-03-3.22400E-04-5.94838E-14
 -1       206 8.57715E-03-3.04229E-04-6.38207E-14
 -1       207 8.87741E-03-2.88133E-04-6.82586E-14
 -1       208 9.17404E-03-2.72875E-04-7.27841E-14
 -1       209 9.46773E-03-2.57642E-04-7.73905E-14
 -1       210 9.75912E-03-2.41946E-04-8.20620E-14
 -1       211 1.00487E-02-2.25522E-04-8.67946E-14
 -1       212 1.03370E-02-2.08261E-04-9.15967E-14
 -1       213 1.06244E-02-1.90152E-04-9.64635E-14
 -1       214 1.09110E-02-1.71245E-04-1.01382E-13
 -1       215 1.11972E-02-1.51623E-04-1.06340E-13
 -1       216 1.14830E-02-1.31382E-04-1.11328E-13
 -1       217 1.17686E-02-1.10621E-04-1.16344E-13
 -1       218 1.20542E-02-8.94335E-05-1.21394E-13
 -1       219 1.23397E-02-6.79047E-05-1.26488E-13
 -1       220 1.26251E-02-4.61087E-05-1.31629E-13
 -1       221 1.29106E-02-2.41092E-05-1.36804E-13
 -1       222 1.31961E-02-1.96020E-06-1.42007E-13
 -1       223 1.34817E-02 2.02931E-05-1.47235E-13
 -1       224 1.37673E-02 4.26123E-05-1.52480E-13
 -1       225 1.40529E-02 6.49647E-05-1.57749E-13
 -1       226 1.43386E-02 8.73224E-05-1.63041E-13
 -1       227 1.46243E-02 1.09663E-04-1.68358E-13
 -1       228 6.27836E-04 2.98301E-04-1.24582E-16
 -1       229 9.36339E-04 3.83879E-04-4.30869E-16
 -1       230 1.24072E-03 4.43713E-04-9.11712E-16
 -1       231 1.54740E-03 4.88862E-04-1.56952E-15
 -1       232 1.86021E-03 5.27715E-04-2.40342E-15
 -1       233 2.18142E-03 5.67932E-04-3.41248E-15
 -1       234 2.51185E-03 6.17228E-04-4.59397E-15
 -1       235 2.85070E-03 6.83264E-04-5.94648E-15
 -1       236 3.19501E-03 7.72427E-04-7.47146E-15
 -1       237 3.53944E-03 8.87110E-04-9.17033E-15
 -1       238 3.87679E-03 1.02167E-03-1.10468E-14
 -1       239 4.20009E-03 1.15893E-03-1.31045E-14
 -1       240 4.50623E-03 1.27127E-03-1.53513E-14
 -1       241 4.79937E-03 1.32976E-03-1.77947E-14
 -1       242 5.09056E-03 1.31897E-03-2.04326E-14
 -1       243 5.39223E-03 1.24625E-03-2.32595E-14
 -1       244 5.71164E-03 1.13736E-03-2.62663E-14
 -1       245 6.04835E-03 1.02242E-03-2.94402E-14
 -1       246 6.39644E-03 9.23825E-04-3.27636E-14
 -1       247 6.74847E-03 8.52235E-04-3.62329E-14
 -1       248 7.09818E-03 8.08907E-04-3.98448E-14
 -1       249 7.44154E-03 7.89914E-04-4.35961E-14
 -1       250 7.77661E-03 7.89554E-04-4.74689E-14
 -1       251 8.10297E-03 8.02306E-04-5.14616E-14
 -1       252 8.42116E-03 8.23634E-04-5.55759E-14
 -1       253 8.73215E-03 8.50136E-04-5.98066E-14
 -1       254 9.03708E-03 8.79417E-04-6.41469E-14
 -1       255 9.33709E-03 9.09876E-04-6.85857E-14
 -1       256 9.63321E-03 9.40494E-04-7.31141E-14
 -1       257 9.92631E-03 9.70663E-04-7.77270E-14
 -1       258 1.02171E-02 1.00006E-03-8.24175E-14
 -1       259 1.05062E-02 1.02854E-03-8.71737E-14
 -1       260 1.07941E-02 1.05609E-03-9.20044E-14
 -1       261 1.10811E-02 1.08276E-03-9.69093E-14
 -1       262 1.13674E-02 1.10862E-03-1.01876E-13
 -1       263 1.16534E-02 1.13378E-03-1.06891E-13
 -1       264 1.19391E-02 1.15835E-03-1.11941E-13
 -1       265 1.22246E-02 1.18244E-03-1.17025E-13
 -1       266 1.25101E-02 1.20613E-03-1.22133E-13
 -1       267 1.27956E-02 1.22952E-03-1.27255E-13
 -1       268 1.30810E-02 1.25266E-03-1.32376E-13
 -1       269 1.33665E-02 1.27562E-03-1.37504E-13
 -1       270 1.36520E-02 1.29845E-03-1.42629E-13
 -1       271 1.39375E-02 1.32119E-03-1.47742E-13
 -1       272 1.42231E-02 1.34388E-03-1.52855E-13
 -1       273 1.45088E-02 1.36655E-03-1.57979E-13
 -1       274 1.47945E-02 1.38923E-03-1.63116E-13
 -1       275 1.50802E-02 1.41192E-03-1.68258E-13
 -1       276 1.51135E-02 1.35199E-03-1.69287E-13
 -1       277 1.50911E-02 1.26768E-03-1.69444E-13
 -1       278 1.50687E-02 1.18334E-03-1.69597E-13
 -1       279 1.50463E-02 1.09898E-03-1.69758E-13
 -1       280 1.50243E-02 1.01601E-03-1.69915E-13
 -1       281 1.50020E-02 9.31599E-04-1.70081E-13
 -1       282 1.49797E-02 8.47168E-04-1.70255E-13
 -1       283 1.49575E-02 7.62728E-04-1.70425E-13
 -1       284 1.49354E-02 6.78288E-04-1.70587E-13
 -1       285 1.49134E-02 5.93857E-04-1.70746E-13
 -1       286 1.48918E-02 5.10874E-04-1.70898E-13
 -1       287 1.48699E-02 4.26483E-04-1.71042E-13
 -1       288 1.48480E-02 3.42119E-04-1.71179E-13
 -1       289 1.48262E-02 2.57783E-04-1.71309E-13
 -1       290 1.47252E-02 1.83717E-04-1.69841E-13
 -1       291 6.97788E-03 2.06685E-04-2.74273E-14
 -1       292 6.83278E-03 3.20520E-04-2.67756E-14
 -1       293 6.58697E-03 4.43273E-04-2.60622E-14
 -1       294 6.24877E-03 6.08770E-04-2.49175E-14
 -1       295 5.86297E-03 7.96022E-04-2.34571E-14
 -1       296 5.45153E-03 9.56810E-04-2.19740E-14
 -1       297 5.05670E-03 1.06583E-03-2.03575E-14
 -1       298 4.66882E-03 1.07708E-03-1.86829E-14
 -1       299 4.26843E-03 9.82096E-04-1.72348E-14
 -1       300 3.88025E-03 8.26959E-04-1.59383E-14
 -1       301 3.46997E-03 6.46385E-04-1.49493E-14
 -1       302 3.11020E-03 4.53879E-04-1.40321E-14
 -1       303 2.79919E-03 3.13659E-04-1.35446E-14
 -1       304 2.60385E-03 1.97289E-04-1.32221E-14
 -1       305 2.52736E-03 9.78325E-05-1.30396E-14
 -1       306 2.59463E-03 1.32854E-06-1.33084E-14
 -1       307 2.78038E-03-1.09695E-04-1.37114E-14
 -1       308 3.09735E-03-2.42988E-04-1.42732E-14
 -1       309 3.46675E-03-4.29763E-04-1.53116E-14
 -1       310 3.90816E-03-6.08884E-04-1.64548E-14
 -1       311 4.30172E-03-7.46156E-04-1.80393E-14
 -1       312 4.68967E-03-7.97972E-04-1.95423E-14
 -1       313 5.07911E-03-7.52991E-04-2.11189E-14
 -1       314 5.46052E-03-6.35181E-04-2.26821E-14
 -1       315 5.85220E-03-4.72610E-04-2.40538E-14
 -1       316 6.21679E-03-2.92837E-04-2.53438E-14
 -1       317 6.55653E-03-1.36794E-04-2.62726E-14
 -1       318 6.81663E-03 2.70612E-06-2.70594E-14
 -1       319 6.96906E-03 1.06579E-04-2.73216E-14
 -1       320 4.66650E-04-1.30627E-04-2.76285E-16
 -1       321 4.91794E-04-1.81400E-04-2.30593E-16
 -1       322 4.34927E-04-6.26354E-05-3.19989E-16
 -1       323 4.24042E-04-3.92422E-05-3.28415E-16
 -1       324 4.16241E-04-2.04921E-05-3.32565E-16
 -1       325 4.11919E-04-4.73615E-06-3.33067E-16
 -1       326 4.11448E-04 9.76138E-06-3.30414E-16
 -1       327 4.15002E-04 2.48549E-05-3.24309E-16
 -1       328 4.22332E-04 4.21516E-05-3.14436E-16
 -1       329 4.33458E-04 6.42125E-05-2.99321E-16
 -1       330 4.48183E-04 9.29306E-05-2.76455E-16
 -1       331 4.67219E-04 1.31032E-04-2.41547E-16
 -1       332 4.94291E-04 1.82931E-04-1.87990E-16
 -1       333 5.54196E-04 2.36278E-04-1.66164E-16
 -1       334 8.63229E-04 3.22804E-04-4.80667E-16
 -1       335 9.00434E-04-3.06571E-04-7.23437E-16
 -1       336 1.20433E-03-3.64639E-04-1.31522E-15
 -1       337 1.50842E-03-4.08968E-04-2.08600E-15
 -1       338 1.81481E-03-4.46961E-04-3.03365E-15
 -1       339 2.12509E-03-4.85330E-04-4.15600E-15
 -1       340 2.44026E-03-5.30331E-04-5.45091E-15
 -1       341 2.76049E-03-5.87426E-04-6.91719E-15
 -1       342 3.08487E-03-6.60227E-04-8.55634E-15
 -1       343 3.41101E-03-7.48566E-04-1.03666E-14
 -1       344 3.73507E-03-8.46071E-04-1.23452E-14
 -1       345 4.05276E-03-9.38567E-04-1.44957E-14
 -1       346 4.36168E-03-1.00562E-03-1.68223E-14
 -1       347 4.66386E-03-1.02736E-03-1.93262E-14
 -1       348 4.96560E-03-9.94337E-04-2.20101E-14
 -1       349 5.27366E-03-9.13007E-04-2.48691E-14
 -1       350 5.59118E-03-8.02045E-04-2.78955E-14
 -1       351 5.91662E-03-6.82976E-04-3.10830E-14
 -1       352 6.24584E-03-5.72296E-04-3.44244E-14
 -1       353 6.57468E-03-4.78806E-04-3.79224E-14
 -1       354 6.90029E-03-4.04862E-04-4.15654E-14
 -1       355 7.22118E-03-3.48857E-04-4.53489E-14
 -1       356 7.53689E-03-3.07409E-04-4.92681E-14
 -1       357 7.84751E-03-2.76764E-04-5.33117E-14
 -1       358 8.15348E-03-2.53535E-04-5.74696E-14
 -1       359 8.45534E-03-2.34980E-04-6.17383E-14
 -1       360 8.75368E-03-2.19043E-04-6.61129E-14
 -1       361 9.04910E-03-2.04271E-04-7.05810E-14
 -1       362 9.34213E-03-1.89697E-04-7.51321E-14
 -1       363 9.63323E-03-1.74721E-04-7.97587E-14
 -1       364 9.92283E-03-1.59007E-04-8.44518E-14
 -1       365 1.02113E-02-1.42405E-04-8.92117E-14
 -1       366 1.04988E-02-1.24880E-04-9.40402E-14
 -1       367 1.07858E-02-1.06475E-04-9.89301E-14
 -1       368 1.10722E-02-8.72716E-05-1.03862E-13
 -1       369 1.13583E-02-6.73722E-05-1.08829E-13
 -1       370 1.16442E-02-4.68838E-05-1.13833E-13
 -1       371 1.19300E-02-2.59095E-05-1.18862E-13
 -1       372 1.22156E-02-4.54340E-06-1.23930E-13
 -1       373 1.25013E-02 1.71315E-05-1.29041E-13
 -1       374 1.27868E-02 3.90438E-05-1.34191E-13
 -1       375 1.30724E-02 6.11334E-05-1.39372E-13
 -1       376 1.33581E-02 8.33498E-05-1.44574E-13
 -1       377 1.36437E-02 1.05651E-04-1.49799E-13
 -1       378 1.39293E-02 1.28000E-04-1.55047E-13
 -1       379 1.42150E-02 1.50368E-04-1.60318E-13
 -1       380 1.44701E-02 1.67054E-04-1.65067E-13
 -1       381 1.16952E-03 3.83815E-04-9.64554E-16
 -1       382 1.47622E-03 4.29040E-04-1.62081E-15
 -1       383 1.78649E-03 4.66720E-04-2.45048E-15
 -1       384 2.10264E-03 5.04515E-04-3.45286E-15
 -1       385 2.42613E-03 5.50205E-04-4.62626E-15
 -1       386 2.75746E-03 6.11717E-04-5.96895E-15
 -1       387 3.09585E-03 6.96175E-04-7.48073E-15
 -1       388 3.43869E-03 8.07475E-04-9.16466E-15
 -1       389 3.78109E-03 9.42166E-04-1.10233E-14
 -1       390 4.11669E-03 1.08493E-03-1.30622E-14
 -1       391 4.44045E-03 1.20766E-03-1.52893E-14
 -1       392 4.75316E-03 1.27739E-03-1.77108E-14
 -1       393 5.06300E-03 1.27349E-03-2.03276E-14
 -1       394 5.38048E-03 1.20140E-03-2.31350E-14
 -1       395 5.71116E-03 1.08891E-03-2.61231E-14
 -1       396 6.05319E-03 9.69398E-04-2.92779E-14
 -1       397 6.40052E-03 8.67144E-04-3.25860E-14
 -1       398 6.74708E-03 7.93273E-04-3.60388E-14
 -1       399 7.08878E-03 7.48815E-04-3.96343E-14
 -1       400 7.42354E-03 7.29490E-04-4.33666E-14
 -1       401 7.75071E-03 7.29302E-04-4.72256E-14
 -1       402 8.07050E-03 7.42523E-04-5.12008E-14
 -1       403 8.38359E-03 7.64470E-04-5.52984E-14
 -1       404 8.69085E-03 7.91644E-04-5.95103E-14
 -1       405 8.99318E-03 8.21586E-04-6.38335E-14
 -1       406 9.29149E-03 8.52657E-04-6.82557E-14
 -1       407 9.58655E-03 8.83817E-04-7.27709E-14
 -1       408 9.87906E-03 9.14453E-04-7.73682E-14
 -1       409 1.01696E-02 9.44239E-04-8.20449E-14
 -1       410 1.04587E-02 9.73042E-04-8.67874E-14
 -1       411 1.07466E-02 1.00085E-03-9.16048E-14
 -1       412 1.10337E-02 1.02771E-03-9.64944E-14
 -1       413 1.13203E-02 1.05373E-03-1.01447E-13
 -1       414 1.16064E-02 1.07901E-03-1.06445E-13
 -1       415 1.18923E-02 1.10367E-03-1.11482E-13
 -1       416 1.21780E-02 1.12782E-03-1.16554E-13
 -1       417 1.24636E-02 1.15156E-03-1.21654E-13
 -1       418 1.27492E-02 1.17497E-03-1.26771E-13
 -1       419 1.30347E-02 1.19813E-03-1.31890E-13
 -1       420 1.33203E-02 1.22110E-03-1.37016E-13
 -1       421 1.36058E-02 1.24394E-03-1.42139E-13
 -1       422 1.38914E-02 1.26668E-03-1.47257E-13
 -1       423 1.41771E-02 1.28937E-03-1.52374E-13
 -1       424 1.44627E-02 1.31203E-03-1.57501E-13
 -1       425 1.47484E-02 1.33470E-03-1.62633E-13
 -1       426 1.49309E-02 1.34334E-03-1.65959E-13
 -1       427 1.48100E-02 1.12152E-03-1.65219E-13
 -1       428 1.48324E-02 1.20586E-03-1.65064E-13
 -1       429 1.48817E-02 1.27460E-03-1.65512E-13
 -1       430 1.47880E-02 1.03860E-03-1.65375E-13
 -1       431 1.47657E-02 9.54221E-04-1.65532E-13
 -1       432 1.47434E-02 8.69831E-04-1.65688E-13
 -1       433 1.47211E-02 7.85433E-04-1.65844E-13
 -1       434 1.46990E-02 7.01032E-04-1.65997E-13
 -1       435 1.46770E-02 6.16634E-04-1.66142E-13
 -1       436 1.46553E-02 5.33675E-04-1.66276E-13
 -1       437 1.46334E-02 4.49299E-04-1.66406E-13
 -1       438 1.46115E-02 3.64941E-04-1.66529E-13
 -1       439 1.45897E-02 2.80604E-04-1.66644E-13
 -1       440 6.71354E-03 3.17580E-04-2.77687E-14
 -1       441 7.01203E-03 1.60329E-04-2.89837E-14
 -1       442 6.91825E-03 2.32228E-04-2.84321E-14
 -1       443 6.38011E-03 4.61350E-04-2.67404E-14
 -1       444 5.97652E-03 6.65618E-04-2.51381E-14
 -1       445 4.48786E-04-9.22116E-05-3.03922E-16
 -1       446 5.23795E-03 1.03262E-03-2.15859E-14
 -1       447 4.86355E-03 1.11866E-03-1.94932E-14
 -1       448 4.47915E-03 1.05464E-03-1.74745E-14
 -1       449 4.17654E-03 9.25085E-04-1.61757E-14
 -1       450 3.72540E-03 6.84399E-04-1.46748E-14
 -1       451 3.38145E-03 5.00829E-04-1.37782E-14
 -1       452 2.95301E-03 2.91180E-04-1.27588E-14
 -1       453 2.71881E-03 1.99602E-04-1.24562E-14
 -1       454 2.53944E-03 1.23724E-04-1.22891E-14
 -1       455 2.53378E-03 6.26355E-05-1.23936E-14
 -1       456 2.67562E-03-3.85581E-06-1.26917E-14
 -1       457 2.92244E-03-1.04552E-04-1.32069E-14
 -1       458 3.34781E-03-2.96384E-04-1.41767E-14
 -1       459 3.70498E-03-4.75530E-04-1.51715E-14
 -1       460 4.20068E-03-7.16804E-04-1.70936E-14
 -1       461 4.49807E-03-8.09849E-04-1.85409E-14
 -1       462 4.87183E-03-8.17445E-04-2.05225E-14
 -1       463 5.20503E-03-7.18756E-04-2.22263E-14
 -1       464 5.59570E-03-5.33053E-04-2.40658E-14
 -1       465 5.94829E-03-3.37380E-04-2.57100E-14
 -1       466 6.35609E-03-1.38688E-04-2.70326E-14
 -1       467 6.66974E-03-3.26435E-06-2.79217E-14
 -1       468 6.92069E-03 1.01766E-04-2.86853E-14
 -1       469 5.64052E-03 8.45558E-04-2.35856E-14
 -1       470 7.01232E-03 1.88704E-04-2.99913E-14
 -1       471 3.96864E-03-6.08148E-04-1.57684E-14
 -1       472 3.12367E-03-1.75169E-04-1.30991E-14
 -1       473 9.68141E-04 2.84474E-04-8.20792E-16
 -1       474 6.36785E-04-4.48216E-05-7.00916E-16
 -1       475 6.52741E-04-7.59594E-05-6.89380E-16
 -1       476 6.22046E-04 4.02572E-06-7.02848E-16
 -1       477 6.24548E-04 2.64085E-05-6.94435E-16
 -1       478 6.33676E-04 5.04154E-05-6.79456E-16
 -1       479 6.49409E-04 7.94764E-05-6.56318E-16
 -1       480 6.71161E-04 1.15809E-04-6.22535E-16
 -1       481 6.98883E-04 1.62038E-04-5.73516E-16
 -1       482 1.26956E-03 3.33352E-04-1.41998E-15
 -1       483 1.00844E-03-2.68678E-04-1.09006E-15
 -1       484 5.46082E-03 9.48918E-04-2.33650E-14
 -1       485 1.30700E-03-3.14658E-04-1.79053E-15
 -1       486 1.60769E-03-3.51631E-04-2.66446E-15
 -1       487 1.91157E-03-3.85478E-04-3.71061E-15
 -1       488 2.22027E-03-4.22276E-04-4.92640E-15
 -1       489 2.53547E-03-4.68072E-04-6.30897E-15
 -1       490 2.85851E-03-5.28384E-04-7.85954E-15
 -1       491 3.18945E-03-6.06939E-04-9.57881E-15
 -1       492 3.52592E-03-7.03082E-04-1.14664E-14
 -1       493 3.86250E-03-8.08115E-04-1.35224E-14
 -1       494 4.19246E-03-9.02598E-04-1.57527E-14
 -1       495 4.51256E-03-9.58948E-04-1.81616E-14
 -1       496 4.82724E-03-9.54650E-04-2.07533E-14
 -1       497 5.14578E-03-8.87228E-04-2.35261E-14
 -1       498 5.47418E-03-7.76116E-04-2.64742E-14
 -1       499 5.81080E-03-6.49409E-04-2.95858E-14
 -1       500 6.14915E-03-5.29595E-04-3.28534E-14
 -1       501 6.48315E-03-4.28276E-04-3.62748E-14
 -1       502 6.80968E-03-3.48398E-04-3.98460E-14
 -1       503 7.12819E-03-2.88109E-04-4.35566E-14
 -1       504 7.43955E-03-2.43666E-04-4.74031E-14
 -1       505 7.74509E-03-2.11032E-04-5.13793E-14
 -1       506 8.04604E-03-1.86600E-04-5.54716E-14
 -1       507 8.34347E-03-1.67451E-04-5.96747E-14
 -1       508 8.63815E-03-1.51371E-04-6.39828E-14
 -1       509 8.93071E-03-1.36768E-04-6.83924E-14
 -1       510 9.22159E-03-1.22561E-04-7.28910E-14
 -1       511 9.51118E-03-1.08060E-04-7.74688E-14
 -1       512 9.79975E-03-9.28640E-05-8.21179E-14
 -1       513 1.00875E-02-7.67740E-05-8.68362E-14
 -1       514 1.03747E-02-5.97283E-05-9.16233E-14
 -1       515 1.06615E-02-4.17515E-05-9.64786E-14
 -1       516 1.09478E-02-2.29192E-05-1.01388E-13
 -1       517 1.12340E-02-3.33246E-06-1.06335E-13
 -1       518 1.15200E-02 1.68986E-05-1.11319E-13
 -1       519 1.18058E-02 3.76658E-05-1.16332E-13
 -1       520 1.20916E-02 5.88687E-05-1.21379E-13
 -1       521 1.23773E-02 8.04181E-05-1.26464E-13
 -1       522 1.26630E-02 1.02237E-04-1.31590E-13
 -1       523 1.29487E-02 1.24259E-04-1.36745E-13
 -1       524 1.32343E-02 1.46430E-04-1.41926E-13
 -1       525 1.35200E-02 1.68704E-04-1.47130E-13
 -1       526 1.38057E-02 1.91044E-04-1.52358E-13
 -1       527 1.40914E-02 2.13416E-04-1.57605E-13
 -1       528 6.85323E-03 2.51770E-04-2.96908E-14
 -1       529 1.87893E-03 4.05200E-04-3.12391E-15
 -1       530 2.19031E-03 4.42130E-04-4.22937E-15
 -1       531 2.50893E-03 4.89820E-04-5.50133E-15
 -1       532 2.83695E-03 5.56312E-04-6.93852E-15
 -1       533 3.17591E-03 6.48939E-04-8.54339E-15
 -1       534 3.52511E-03 7.71506E-04-1.03170E-14
 -1       535 3.87964E-03 9.18510E-04-1.22652E-14
 -1       536 4.23051E-03 1.06856E-03-1.43966E-14
 -1       537 4.57012E-03 1.18316E-03-1.67218E-14
 -1       538 4.90014E-03 1.22076E-03-1.92439E-14
 -1       539 5.23341E-03 1.17178E-03-2.19613E-14
 -1       540 5.57848E-03 1.05967E-03-2.48662E-14
 -1       541 5.93344E-03 9.29070E-04-2.79435E-14
 -1       542 6.28888E-03 8.13352E-04-3.11802E-14
 -1       543 6.63696E-03 7.27749E-04-3.45653E-14
 -1       544 6.97449E-03 6.74193E-04-3.80897E-14
 -1       545 7.30168E-03 6.48217E-04-4.17506E-14
 -1       546 7.62012E-03 6.43407E-04-4.55450E-14
 -1       547 7.93158E-03 6.53639E-04-4.94597E-14
 -1       548 8.23754E-03 6.73869E-04-5.34933E-14
 -1       549 8.53912E-03 7.00266E-04-5.76427E-14
 -1       550 8.83720E-03 7.30085E-04-6.19039E-14
 -1       551 9.13245E-03 7.61453E-04-6.62696E-14
 -1       552 9.42544E-03 7.93154E-04-7.07334E-14
 -1       553 9.71661E-03 8.24446E-04-7.52861E-14
 -1       554 1.00064E-02 8.54917E-04-7.99162E-14
 -1       555 1.02950E-02 8.84379E-04-8.46191E-14
 -1       556 1.05827E-02 9.12784E-04-8.93925E-14
 -1       557 1.08699E-02 9.40174E-04-9.42366E-14
 -1       558 1.11565E-02 9.66640E-04-9.91479E-14
 -1       559 1.14428E-02 9.92295E-04-1.04112E-13
 -1       560 1.17288E-02 1.01726E-03-1.09120E-13
 -1       561 1.20147E-02 1.04165E-03-1.14167E-13
 -1       562 1.23005E-02 1.06558E-03-1.19249E-13
 -1       563 1.25862E-02 1.08914E-03-1.24349E-13
 -1       564 1.28718E-02 1.11240E-03-1.29462E-13
 -1       565 1.31575E-02 1.13545E-03-1.34582E-13
 -1       566 1.34431E-02 1.15834E-03-1.39706E-13
 -1       567 1.37288E-02 1.18112E-03-1.44826E-13
 -1       568 1.40144E-02 1.20382E-03-1.49950E-13
 -1       569 1.43001E-02 1.22648E-03-1.55072E-13
 -1       570 1.45858E-02 1.24913E-03-1.60205E-13
 -1       571 1.45294E-02 9.76831E-04-1.60992E-13
 -1       572 1.45070E-02 8.92472E-04-1.61140E-13
 -1       573 1.45738E-02 1.14408E-03-1.60689E-13
 -1       574 1.45516E-02 1.06046E-03-1.60838E-13
 -1       575 1.44848E-02 8.08106E-04-1.61283E-13
 -1       576 1.44626E-02 7.23736E-04-1.61423E-13
 -1       577 1.44405E-02 6.39366E-04-1.61555E-13
 -1       578 1.44189E-02 5.56430E-04-1.61677E-13
 -1       579 1.43969E-02 4.72072E-04-1.61791E-13
 -1       580 1.43750E-02 3.87725E-04-1.61901E-13
 -1       581 1.43532E-02 3.03393E-04-1.62010E-13
 -1       582 7.00475E-03 1.44946E-04-3.03453E-14
 -1       583 1.57266E-03 3.71332E-04-2.18740E-15
 -1       584 6.59438E-03 3.53704E-04-2.88798E-14
 -1       585 6.82538E-03 8.25013E-05-3.00727E-14
 -1       586 7.32918E-04-2.03352E-04-6.15949E-16
 -1       587 6.19378E-03 5.43316E-04-2.71873E-14
 -1       588 2.55937E-03 4.31503E-05-1.15154E-14
 -1       589 5.12448E-03 1.09094E-03-2.11685E-14
 -1       590 6.26301E-04-1.88998E-05-7.05311E-16
 -1       591 4.66052E-03 1.12199E-03-1.80741E-14
 -1       592 2.47884E-03 8.59792E-05-1.12978E-14
 -1       593 4.42506E-03 1.04533E-03-1.67508E-14
 -1       594 3.95600E-03 7.99300E-04-1.46311E-14
 -1       595 3.55055E-03 5.67251E-04-1.32158E-14
 -1       596 3.15643E-03 3.63704E-04-1.22311E-14
 -1       597 2.78941E-03 2.08394E-04-1.16705E-14
 -1       598 3.50711E-03-3.64295E-04-1.38804E-14
 -1       599 2.57935E-03 1.34908E-04-1.14778E-14
 -1       600 2.76572E-03-2.86141E-05-1.19606E-14
 -1       601 5.03971E-03-7.86034E-04-2.18008E-14
 -1       602 4.36797E-03-7.90189E-04-1.76022E-14
 -1       603 4.68370E-03-8.47896E-04-1.95181E-14
 -1       604 5.35532E-03-6.44184E-04-2.36216E-14
 -1       605 5.71799E-03-4.43251E-04-2.57110E-14
 -1       606 6.17125E-03-1.97004E-04-2.77983E-14
 -1       607 6.53705E-03-2.74708E-05-2.91189E-14
 -1       608 5.81094E-03 7.51088E-04-2.52422E-14
 -1       609 7.31493E-04 2.42049E-04-4.47030E-16
 -1       610 4.91258E-03 1.15683E-03-1.96632E-14
 -1       611 6.73488E-04-1.14218E-04-6.68163E-16
 -1       612 7.05972E-03 1.70808E-04-3.13638E-14
 -1       613 1.42841E-02 2.26872E-04-1.61166E-13
 -1       614 3.74328E-03-5.01428E-04-1.44342E-14
 -1       615 4.14503E-03-7.10257E-04-1.62444E-14
 -1       616 8.44300E-04 5.04680E-05-1.17974E-15
 -1       617 8.35778E-04 2.02260E-05-1.19838E-15
 -1       618 8.89889E-04 1.25354E-04-1.10761E-15
 -1       619 9.25185E-04 1.75854E-04-1.04719E-15
 -1       620 1.07219E-03 2.45337E-04-1.20408E-15
 -1       621 6.46605E-03 4.41679E-04-2.96413E-14
 -1       622 1.36544E-03 2.83513E-04-1.91264E-15
 -1       623 1.40695E-03-2.63792E-04-2.29678E-15
 -1       624 1.70199E-03-2.93328E-04-3.26796E-15
 -1       625 2.00150E-03-3.22165E-04-4.40716E-15
 -1       626 2.30770E-03-3.55839E-04-5.71007E-15
 -1       627 2.62350E-03-4.00466E-04-7.17578E-15
 -1       628 2.95177E-03-4.62466E-04-8.80627E-15
 -1       629 3.29367E-03-5.47226E-04-1.06023E-14
 -1       630 3.64569E-03-6.55011E-04-1.25636E-14
 -1       631 3.99922E-03-7.74074E-04-1.46950E-14
 -1       632 4.34374E-03-8.73756E-04-1.70042E-14
 -1       633 4.67563E-03-9.12884E-04-1.94992E-14
 -1       634 5.00649E-03-8.68291E-04-2.21821E-14
 -1       635 5.34730E-03-7.55944E-04-2.50495E-14
 -1       636 5.69973E-03-6.15436E-04-2.80880E-14
 -1       637 6.05311E-03-4.82046E-04-3.12847E-14
 -1       638 6.39765E-03-3.72092E-04-3.46334E-14
 -1       639 6.72881E-03-2.87808E-04-3.81332E-14
 -1       640 7.04690E-03-2.25478E-04-4.17741E-14
 -1       641 7.35449E-03-1.79999E-04-4.55492E-14
 -1       642 7.65452E-03-1.46693E-04-4.94572E-14
 -1       643 7.94945E-03-1.21746E-04-5.34851E-14
 -1       644 8.24110E-03-1.02213E-04-5.76230E-14
 -1       645 8.53067E-03-8.58959E-05-6.18709E-14
 -1       646 8.81894E-03-7.12073E-05-6.62179E-14
 -1       647 9.10639E-03-5.70485E-05-7.06630E-14
 -1       648 9.39330E-03-4.26996E-05-7.51915E-14
 -1       649 9.67987E-03-2.77247E-05-7.97957E-14
 -1       650 9.96620E-03-1.18941E-05-8.44704E-14
 -1       651 1.02524E-02 4.87989E-06-8.92169E-14
 -1       652 1.05384E-02 2.25914E-05-9.40339E-14
 -1       653 1.08244E-02 4.11774E-05-9.89128E-14
 -1       654 1.11102E-02 6.05440E-05-1.03840E-13
 -1       655 1.13961E-02 8.05845E-05-1.08808E-13
 -1       656 1.16819E-02 1.01191E-04-1.13802E-13
 -1       657 1.19676E-02 1.22261E-04-1.18829E-13
 -1       658 1.22534E-02 1.43704E-04-1.23893E-13
 -1       659 1.25391E-02 1.65439E-04-1.28994E-13
 -1       660 1.28249E-02 1.87399E-04-1.34127E-13
 -1       661 1.31106E-02 2.09525E-04-1.39289E-13
 -1       662 1.33963E-02 2.31770E-04-1.44474E-13
 -1       663 1.36820E-02 2.54095E-04-1.49679E-13
 -1       664 1.39677E-02 2.76467E-04-1.54904E-13
 -1       665 4.53155E-03-8.49382E-04-1.84899E-14
 -1       666 4.85846E-03-8.51691E-04-2.08013E-14
 -1       667 1.95917E-03 3.44611E-04-3.82641E-15
 -1       668 2.90237E-03 4.95656E-04-7.92472E-15
 -1       669 3.24681E-03 5.94172E-04-9.61627E-15
 -1       670 3.61025E-03 7.29733E-04-1.14757E-14
 -1       671 3.98560E-03 8.96127E-04-1.35108E-14
 -1       672 4.35812E-03 1.06049E-03-1.57335E-14
 -1       673 5.43080E-03 1.04402E-03-2.35887E-14
 -1       674 5.80423E-03 8.96945E-04-2.65904E-14
 -1       675 6.17606E-03 7.63709E-04-2.97577E-14
 -1       676 6.53309E-03 6.66066E-04-3.30737E-14
 -1       677 6.87163E-03 6.05399E-04-3.65326E-14
 -1       678 7.19404E-03 5.74928E-04-4.01232E-14
 -1       679 7.50462E-03 5.66889E-04-4.38504E-14
 -1       680 7.80731E-03 5.74660E-04-4.77055E-14
 -1       681 8.10491E-03 5.93075E-04-5.16802E-14
 -1       682 8.39923E-03 6.18251E-04-5.57674E-14
 -1       683 8.69137E-03 6.47367E-04-5.99672E-14
 -1       684 8.98198E-03 6.78448E-04-6.42777E-14
 -1       685 9.27145E-03 7.10167E-04-6.86882E-14
 -1       686 9.56006E-03 7.41680E-04-7.31922E-14
 -1       687 9.84798E-03 7.72492E-04-7.77780E-14
 -1       688 1.01353E-02 8.02348E-04-8.24402E-14
 -1       689 1.04223E-02 8.31159E-04-8.71751E-14
 -1       690 1.07089E-02 8.58935E-04-9.19757E-14
 -1       691 1.09952E-02 8.85751E-04-9.68452E-14
 -1       692 1.12814E-02 9.11713E-04-1.01774E-13
 -1       693 1.15674E-02 9.36938E-04-1.06752E-13
 -1       694 1.18533E-02 9.61546E-04-1.11777E-13
 -1       695 1.21391E-02 9.85648E-04-1.16837E-13
 -1       696 1.24249E-02 1.00934E-03-1.21924E-13
 -1       697 1.27106E-02 1.03272E-03-1.27023E-13
 -1       698 1.29963E-02 1.05585E-03-1.32136E-13
 -1       699 1.32820E-02 1.07879E-03-1.37256E-13
 -1       700 1.35677E-02 1.10160E-03-1.42377E-13
 -1       701 1.38534E-02 1.12433E-03-1.47504E-13
 -1       702 1.41391E-02 1.14699E-03-1.52632E-13
 -1       703 1.43564E-02 1.14554E-03-1.56656E-13
 -1       704 1.42262E-02 7.46411E-04-1.56869E-13
 -1       705 1.41605E-02 2.89930E-04-1.58450E-13
 -1       706 1.42707E-02 9.15093E-04-1.56607E-13
 -1       707 1.42041E-02 6.62068E-04-1.56990E-13
 -1       708 1.42484E-02 8.30754E-04-1.56742E-13
 -1       709 6.81405E-03 2.91545E-04-3.12325E-14
 -1       710 1.41824E-02 5.79156E-04-1.57101E-13
 -1       711 1.41604E-02 4.94817E-04-1.57208E-13
 -1       712 1.41385E-02 4.10485E-04-1.57309E-13
 -1       713 1.66073E-03 3.14730E-04-2.78700E-15
 -1       714 7.00667E-03 2.12411E-04-3.15522E-14
 -1       715 6.42085E-03-9.52597E-05-3.03154E-14
 -1       716 8.84615E-04-1.90072E-04-9.85065E-16
 -1       717 4.16751E-03 9.45823E-04-1.49499E-14
 -1       718 2.87175E-03 2.58676E-04-1.07493E-14
 -1       719 5.30822E-03 1.05327E-03-2.25687E-14
 -1       720 2.57595E-03 4.27119E-04-6.39639E-15
 -1       721 2.26307E-03 3.79612E-04-5.03038E-15
 -1       722 1.14403E-03-2.30214E-04-1.57371E-15
 -1       723 2.93755E-03-1.17844E-04-1.15876E-14
 -1       724 3.72828E-03 7.00369E-04-1.29999E-14
 -1       725 8.62642E-04 8.44894E-05-1.15024E-15
 -1       726 2.58901E-03 8.20143E-06-1.06546E-14
 -1       727 2.58958E-03 1.50186E-04-1.03520E-14
 -1       728 3.28379E-03 4.56875E-04-1.15663E-14
 -1       729 8.68391E-04-7.77560E-05-1.19414E-15
 -1       730 5.97362E-03-3.19347E-04-2.80266E-14
 -1       731 2.45656E-03 5.82444E-05-1.04545E-14
 -1       732 3.24972E-03-2.70881E-04-1.22987E-14
 -1       733 6.74888E-03 4.29824E-05-3.16695E-14
 -1       734 6.98474E-03 1.29974E-04-3.19246E-14
 -1       735 5.22362E-03-7.23660E-04-2.33584E-14
 -1       736 5.53941E-03-5.59888E-04-2.54343E-14
 -1       737 2.44307E-03 9.82715E-05-1.01902E-14
 -1       738 8.95112E-04-1.21771E-04-1.17025E-15
 -1       739 8.37452E-04-9.27471E-06-1.20678E-15
 -1       740 7.08355E-03 1.57772E-04-3.29611E-14
 -1       741 1.42929E-02 9.98711E-04-1.56461E-13
 -1       742 1.43247E-02 1.07213E-03-1.56560E-13
 -1       743 5.71022E-03 8.44513E-04-2.52984E-14
 -1       744 3.91806E-03-6.20697E-04-1.48748E-14
 -1       745 4.32201E-03-8.03767E-04-1.70843E-14
 -1       746 3.45930E-03-3.94588E-04-1.28029E-14
 -1       747 8.48715E-04-4.09916E-05-1.20548E-15
 -1       748 6.14935E-03 6.22794E-04-2.82826E-14
 -1       749 6.77255E-03 3.74068E-04-3.27427E-14
 -1       750 1.14477E-03 1.77070E-04-1.66020E-15
 -1       751 1.50202E-03-2.11818E-04-2.83272E-15
 -1       752 1.78971E-03-2.33518E-04-3.89564E-15
 -1       753 2.08282E-03-2.55880E-04-5.12099E-15
 -1       754 2.38458E-03-2.84085E-04-6.50652E-15
 -1       755 2.69965E-03-3.24902E-04-8.05126E-15
 -1       756 3.03290E-03-3.87217E-04-9.75696E-15
 -1       757 3.38851E-03-4.80300E-04-1.16251E-14
 -1       758 4.14493E-03-7.64827E-04-1.58561E-14
 -1       759 5.96724E-03-4.29390E-04-2.97166E-14
 -1       760 6.32565E-03-3.07671E-04-3.29974E-14
 -1       761 6.66259E-03-2.20095E-04-3.64283E-14
 -1       762 6.97986E-03-1.58590E-04-4.00009E-14
 -1       763 7.28251E-03-1.14904E-04-4.37091E-14
 -1       764 7.57561E-03-8.30339E-05-4.75463E-14
 -1       765 7.86305E-03-5.88654E-05-5.15080E-14
 -1       766 8.14751E-03-3.95744E-05-5.55841E-14
 -1       767 8.43063E-03-2.31781E-05-5.97731E-14
 -1       768 8.71337E-03-8.27099E-06-6.40625E-14
 -1       769 8.99626E-03 6.12826E-06-6.84475E-14
 -1       770 9.27951E-03 2.06783E-05-7.29256E-14
 -1       771 9.56322E-03 3.57914E-05-7.74848E-14
 -1       772 9.84737E-03 5.16964E-05-8.21159E-14
 -1       773 1.01319E-02 6.84907E-05-8.68224E-14
 -1       774 1.04168E-02 8.61819E-05-9.15957E-14
 -1       775 1.07019E-02 1.04721E-04-9.64402E-14
 -1       776 1.09872E-02 1.24024E-04-1.01345E-13
 -1       777 1.12727E-02 1.43995E-04-1.06292E-13
 -1       778 1.15583E-02 1.64531E-04-1.11275E-13
 -1       779 1.18439E-02 1.85536E-04-1.16285E-13
 -1       780 1.21296E-02 2.06919E-04-1.21328E-13
 -1       781 1.24153E-02 2.28604E-04-1.26402E-13
 -1       782 1.27011E-02 2.50521E-04-1.31516E-13
 -1       783 1.29868E-02 2.72615E-04-1.36662E-13
 -1       784 1.32726E-02 2.94837E-04-1.41830E-13
 -1       785 1.35583E-02 3.17150E-04-1.47012E-13
 -1       786 1.38441E-02 3.39519E-04-1.52216E-13
 -1       787 5.79672E-03-4.75004E-04-2.80060E-14
 -1       788 6.68760E-03-2.46713E-05-3.31644E-14
 -1       789 2.94682E-03 4.26028E-04-8.92502E-15
 -1       790 6.79655E-03 5.22534E-04-3.50015E-14
 -1       791 7.11126E-03 4.92437E-04-3.85292E-14
 -1       792 7.41075E-03 4.84976E-04-4.21872E-14
 -1       793 7.70137E-03 4.92579E-04-4.59791E-14
 -1       794 7.98748E-03 5.10208E-04-4.98930E-14
 -1       795 8.27166E-03 5.34346E-04-5.39217E-14
 -1       796 8.55526E-03 5.62462E-04-5.80614E-14
 -1       797 8.83895E-03 5.92734E-04-6.23138E-14
 -1       798 9.12298E-03 6.23887E-04-6.66715E-14
 -1       799 9.40739E-03 6.55061E-04-7.11232E-14
 -1       800 9.69216E-03 6.85717E-04-7.56651E-14
 -1       801 9.97722E-03 7.15553E-04-8.02840E-14
 -1       802 1.02625E-02 7.44431E-04-8.49788E-14
 -1       803 1.05479E-02 7.72328E-04-8.97428E-14
 -1       804 1.08335E-02 7.99289E-04-9.45668E-14
 -1       805 1.11191E-02 8.25402E-04-9.94571E-14
 -1       806 1.14048E-02 8.50773E-04-1.04406E-13
 -1       807 1.16905E-02 8.75513E-04-1.09401E-13
 -1       808 1.19763E-02 8.99730E-04-1.14438E-13
 -1       809 1.22620E-02 9.23522E-04-1.19507E-13
 -1       810 1.25477E-02 9.46977E-04-1.24595E-13
 -1       811 1.28335E-02 9.70170E-04-1.29697E-13
 -1       812 1.31192E-02 9.93163E-04-1.34812E-13
 -1       813 1.34050E-02 1.01601E-03-1.39932E-13
 -1       814 1.36907E-02 1.03875E-03-1.45061E-13
 -1       815 1.39764E-02 1.06143E-03-1.50196E-13
 -1       816 1.41505E-02 1.06678E-03-1.53376E-13
 -1       817 2.42367E-03 1.16984E-04-9.29370E-15
 -1       818 1.05398E-03 4.32064E-05-1.81095E-15
 -1       819 2.97389E-03-1.89516E-04-1.08820E-14
 -1       820 7.12804E-03 1.92828E-04-3.35844E-14
 -1       821 1.39676E-02 6.84744E-04-1.52448E-13
 -1       822 1.39020E-02 4.33231E-04-1.52743E-13
 -1       823 1.39459E-02 6.01859E-04-1.52551E-13
 -1       824 2.40981E-03 2.75662E-05-9.37930E-15
 -1       825 6.48646E-03 5.62945E-04-3.17274E-14
 -1       826 2.67671E-03-6.30028E-05-1.01228E-14
 -1       827 2.93707E-03 3.43257E-04-9.83540E-15
 -1       828 2.62398E-03 3.59192E-04-7.31198E-15
 -1       829 1.39239E-02 5.17545E-04-1.52650E-13
 -1       830 2.60154E-03 1.93003E-04-9.29641E-15
 -1       831 2.32007E-03 3.15508E-04-5.85538E-15
 -1       832 7.06205E-03 2.49190E-04-3.40783E-14
 -1       833 1.25130E-03 2.27005E-04-1.79204E-15
 -1       834 6.99655E-03 1.04995E-04-3.41113E-14
 -1       835 2.02697E-03 2.84704E-04-4.55741E-15
 -1       836 2.41706E-03 8.25869E-05-1.01448E-14
 -1       837 6.26616E-03-2.19457E-04-3.08533E-14
 -1       838 3.41533E-03 5.93842E-04-1.10658E-14
 -1       839 2.33509E-03 5.71545E-05-9.09200E-15
 -1       840 1.04967E-03 7.83301E-06-1.82989E-15
 -1       841 1.10323E-03 1.24759E-04-1.72852E-15
 -1       842 1.40343E-02 9.37329E-04-1.52081E-13
 -1       843 5.53901E-03-6.03089E-04-2.60823E-14
 -1       844 3.16539E-03-2.93127E-04-1.13476E-14
 -1       845 1.07217E-03 8.09045E-05-1.77776E-15
 -1       846 1.40120E-02 8.53015E-04-1.52214E-13
 -1       847 1.39898E-02 7.68879E-04-1.52336E-13
 -1       848 2.44737E-03-2.81369E-05-8.87541E-15
 -1       849 2.35035E-03 8.45083E-05-9.19853E-15
 -1       850 1.53745E-03 2.55740E-04-2.64046E-15
 -1       851 1.78236E-03 2.70378E-04-3.53482E-15
 -1       852 7.12135E-03 1.38479E-04-3.51774E-14
 -1       853 1.24605E-03-1.87214E-04-2.02309E-15
 -1       854 1.08087E-03-6.96573E-05-1.82787E-15
 -1       855 1.11261E-03-1.17739E-04-1.80511E-15
 -1       856 2.58956E-03 2.58805E-04-8.17153E-15
 -1       857 7.02057E-03 5.17364E-05-3.65525E-14
 -1       858 1.86928E-03-1.71994E-04-4.54590E-15
 -1       859 2.15247E-03-1.86173E-04-5.85287E-15
 -1       860 2.44507E-03-2.06099E-04-7.31621E-15
 -1       861 2.75420E-03-2.39700E-04-8.93500E-15
 -1       862 2.31183E-03 2.28401E-04-6.63852E-15
 -1       863 6.62151E-03-1.43756E-04-3.47288E-14
 -1       864 6.93326E-03-8.63020E-05-3.82350E-14
 -1       865 7.22656E-03-4.77372E-05-4.18772E-14
 -1       866 7.50913E-03-1.98187E-05-4.56482E-14
 -1       867 7.78647E-03 1.98538E-06-4.95433E-14
 -1       868 8.06183E-03 2.01906E-05-5.35584E-14
 -1       869 8.33706E-03 3.63511E-05-5.76823E-14
 -1       870 8.61314E-03 5.15115E-05-6.19159E-14
 -1       871 8.89051E-03 6.63950E-05-6.62460E-14
 -1       872 9.16930E-03 8.14971E-05-7.06720E-14
 -1       873 9.44946E-03 9.71382E-05-7.51823E-14
 -1       874 9.73084E-03 1.13502E-04-7.97707E-14
 -1       875 1.00133E-02 1.30670E-04-8.44361E-14
 -1       876 1.02965E-02 1.48650E-04-8.91711E-14
 -1       877 1.05805E-02 1.67403E-04-9.39762E-14
 -1       878 1.08650E-02 1.86859E-04-9.88486E-14
 -1       879 1.11499E-02 2.06932E-04-1.03775E-13
 -1       880 1.14351E-02 2.27533E-04-1.08739E-13
 -1       881 1.17205E-02 2.48575E-04-1.13736E-13
 -1       882 1.20060E-02 2.69976E-04-1.18767E-13
 -1       883 1.22917E-02 2.91666E-04-1.23820E-13
 -1       884 1.25774E-02 3.13581E-04-1.28911E-13
 -1       885 1.28631E-02 3.35669E-04-1.34036E-13
 -1       886 1.31489E-02 3.57885E-04-1.39194E-13
 -1       887 1.34347E-02 3.80194E-04-1.44360E-13
 -1       888 1.36683E-02 4.06697E-04-1.48544E-13
 -1       889 1.40924E-02 1.00206E-03-1.52730E-13
 -1       890 7.05473E-03 4.06706E-04-3.69398E-14
 -1       891 7.88234E-03 4.32040E-04-4.81144E-14
 -1       892 8.15413E-03 4.55464E-04-5.20825E-14
 -1       893 8.42747E-03 4.82366E-04-5.61652E-14
 -1       894 8.70281E-03 5.11327E-04-6.03583E-14
 -1       895 8.98015E-03 5.41293E-04-6.46598E-14
 -1       896 9.25931E-03 5.71498E-04-6.90620E-14
 -1       897 9.54001E-03 6.01408E-04-7.35554E-14
 -1       898 9.82198E-03 6.30702E-04-7.81319E-14
 -1       899 1.01049E-02 6.59208E-04-8.27859E-14
 -1       900 1.03887E-02 6.86863E-04-8.75132E-14
 -1       901 1.06730E-02 7.13678E-04-9.22995E-14
 -1       902 1.09578E-02 7.39713E-04-9.71508E-14
 -1       903 1.12429E-02 7.65051E-04-1.02064E-13
 -1       904 1.15282E-02 7.89789E-04-1.07032E-13
 -1       905 1.18137E-02 8.14021E-04-1.12042E-13
 -1       906 1.20993E-02 8.37838E-04-1.17091E-13
 -1       907 1.23850E-02 8.61322E-04-1.22163E-13
 -1       908 1.26708E-02 8.84542E-04-1.27258E-13
 -1       909 1.29565E-02 9.07560E-04-1.32363E-13
 -1       910 1.32423E-02 9.30426E-04-1.37480E-13
 -1       911 1.35280E-02 9.53183E-04-1.42607E-13
 -1       912 7.33679E-03 4.04036E-04-4.05359E-14
 -1       913 7.61081E-03 4.14000E-04-4.42623E-14
 -1       914 1.37093E-02 6.23822E-04-1.48025E-13
 -1       915 7.09964E-03 3.21664E-04-3.62569E-14
 -1       916 2.68094E-03-1.42944E-04-9.25184E-15
 -1       917 7.24978E-03 2.21189E-04-3.65694E-14
 -1       918 7.22051E-03 1.79413E-04-3.58281E-14
 -1       919 2.26844E-03 2.92208E-05-8.23963E-15
 -1       920 1.59129E-03-1.58685E-04-3.39664E-15
 -1       921 1.05916E-03-2.86847E-05-1.83582E-15
 -1       922 1.42149E-03 2.03044E-04-2.48214E-15
 -1       923 2.04204E-03 2.07518E-04-5.25887E-15
 -1       924 2.36522E-03 1.42751E-04-8.17260E-15
 -1       925 1.36902E-02 4.90985E-04-1.48459E-13
 -1       926 1.34983E-03-1.39032E-04-2.54112E-15
 -1       927 1.37314E-02 7.07923E-04-1.47925E-13
 -1       928 1.38138E-02 9.75865E-04-1.47746E-13
 -1       929 1.27782E-03 7.12060E-05-2.53484E-15
 -1       930 7.32881E-03 2.79412E-04-3.88240E-14
 -1       931 2.21451E-03 6.69940E-05-7.94995E-15
 -1       932 2.26743E-03 9.94246E-05-8.06872E-15
 -1       933 1.81482E-03 1.99268E-04-4.16265E-15
 -1       934 1.26341E-03 3.05692E-05-2.56876E-15
 -1       935 1.37757E-02 8.75595E-04-1.47688E-13
 -1       936 1.28922E-03-5.33987E-05-2.58479E-15
 -1       937 1.36997E-02 5.57405E-04-1.48246E-13
 -1       938 1.31602E-03-9.34422E-05-2.56908E-15
 -1       939 7.22276E-03 1.30923E-04-3.75823E-14
 -1       940 7.29063E-03 8.88766E-05-4.00464E-14
 -1       941 2.20678E-03-1.14331E-04-6.60068E-15
 -1       942 2.43825E-03-1.23990E-04-7.87365E-15
 -1       943 1.93961E-03-1.09650E-04-5.21577E-15
 -1       944 1.30997E-03 1.16512E-04-2.48230E-15
 -1       945 7.53261E-03 1.03626E-04-4.37527E-14
 -1       946 7.77976E-03 1.18201E-04-4.75800E-14
 -1       947 8.03233E-03 1.33248E-04-5.15235E-14
 -1       948 8.29007E-03 1.48924E-04-5.55817E-14
 -1       949 8.55255E-03 1.65243E-04-5.97485E-14
 -1       950 8.81929E-03 1.82191E-04-6.40206E-14
 -1       951 9.08975E-03 1.99758E-04-6.83922E-14
 -1       952 9.36341E-03 2.17930E-04-7.28533E-14
 -1       953 9.63975E-03 2.36697E-04-7.73948E-14
 -1       954 9.91830E-03 2.56023E-04-8.20123E-14
 -1       955 1.01986E-02 2.75870E-04-8.67077E-14
 -1       956 1.04804E-02 2.96187E-04-9.14731E-14
 -1       957 1.07633E-02 3.16920E-04-9.63079E-14
 -1       958 1.10471E-02 3.38013E-04-1.01208E-13
 -1       959 1.13315E-02 3.59410E-04-1.06150E-13
 -1       960 1.16163E-02 3.81060E-04-1.11127E-13
 -1       961 1.19015E-02 4.02918E-04-1.16143E-13
 -1       962 1.21869E-02 4.24941E-04-1.21186E-13
 -1       963 1.24725E-02 4.47096E-04-1.26263E-13
 -1       964 1.27582E-02 4.69351E-04-1.31364E-13
 -1       965 1.30440E-02 4.91683E-04-1.36499E-13
 -1       966 1.33297E-02 5.14071E-04-1.41648E-13
 -1       967 8.57144E-03 4.34879E-04-5.84100E-14
 -1       968 1.34486E-02 8.51976E-04-1.41786E-13
 -1       969 8.30543E-03 4.07735E-04-5.42730E-14
 -1       970 8.04379E-03 3.82328E-04-5.02513E-14
 -1       971 8.84136E-03 4.63042E-04-6.26547E-14
 -1       972 9.11462E-03 4.91626E-04-6.70040E-14
 -1       973 9.39069E-03 5.20168E-04-7.14520E-14
 -1       974 9.66905E-03 5.48344E-04-7.59865E-14
 -1       975 9.94926E-03 5.75975E-04-8.05971E-14
 -1       976 1.02309E-02 6.02957E-04-8.52862E-14
 -1       977 1.05137E-02 6.29268E-04-9.00405E-14
 -1       978 1.07974E-02 6.54933E-04-9.48529E-14
 -1       979 1.10817E-02 6.80006E-04-9.97316E-14
 -1       980 1.13665E-02 7.04558E-04-1.04670E-13
 -1       981 1.16516E-02 7.28664E-04-1.09655E-13
 -1       982 1.19370E-02 7.52399E-04-1.14679E-13
 -1       983 1.22225E-02 7.75831E-04-1.19734E-13
 -1       984 1.25081E-02 7.99021E-04-1.24813E-13
 -1       985 1.27939E-02 8.22024E-04-1.29910E-13
 -1       986 1.30796E-02 8.44883E-04-1.35024E-13
 -1       987 7.53404E-03 3.40354E-04-4.25519E-14
 -1       988 7.78677E-03 3.59510E-04-4.63421E-14
 -1       989 1.26767E-03-9.51209E-06-2.58510E-15
 -1       990 1.37535E-02 7.91757E-04-1.47811E-13
 -1       991 2.21686E-03-2.11310E-05-7.39504E-15
 -1       992 7.33066E-03 3.37928E-04-3.96870E-14
 -1       993 1.67490E-03-1.04994E-04-3.98568E-15
 -1       994 1.62089E-03 2.02572E-04-3.27017E-15
 -1       995 2.11910E-03 1.38628E-04-6.40247E-15
 -1       996 7.32830E-03 1.76063E-04-3.82563E-14
 -1       997 7.38610E-03 2.19800E-04-3.90222E-14
 -1       998 2.10618E-03 3.65587E-05-7.06276E-15
 -1       999 1.49216E-03-3.07396E-05-3.45900E-15
 -1      1000 7.41671E-03 1.45679E-04-4.07580E-14
 -1      1001 1.34264E-02 7.68192E-04-1.41906E-13
 -1      1002 1.34728E-02 6.46376E-04-1.43513E-13
 -1      1003 2.12529E-03 6.94141E-05-7.18796E-15
 -1      1004 1.47961E-03 5.74324E-05-3.41654E-15
 -1      1005 1.83378E-03 1.45183E-04-4.66850E-15
 -1      1006 1.49523E-03-9.99613E-05-3.24051E-15
 -1      1007 1.50937E-03 1.03211E-04-3.36371E-15
 -1      1008 1.34632E-02 5.79996E-04-1.43732E-13
 -1      1009 2.00191E-03-4.91788E-05-5.90386E-15
 -1      1010 1.47403E-03 1.45871E-05-3.44809E-15
 -1      1011 7.71220E-03 1.64762E-04-4.56130E-14
 -1      1012 7.95095E-03 1.79706E-04-4.94946E-14
 -1      1013 8.19865E-03 1.96156E-04-5.34908E-14
 -1      1014 8.45375E-03 2.13769E-04-5.75981E-14
 -1      1015 8.71462E-03 2.32371E-04-6.18136E-14
 -1      1016 8.98064E-03 2.51704E-04-6.61323E-14
 -1      1017 9.25084E-03 2.71614E-04-7.05488E-14
 -1      1018 9.52444E-03 2.92018E-04-7.50540E-14
 -1      1019 9.80087E-03 3.12827E-04-7.96319E-14
 -1      1020 1.00796E-02 3.33965E-04-8.42882E-14
 -1      1021 1.03601E-02 3.55377E-04-8.90177E-14
 -1      1022 1.06420E-02 3.77015E-04-9.38156E-14
 -1      1023 1.09251E-02 3.98839E-04-9.86826E-14
 -1      1024 1.12090E-02 4.20816E-04-1.03606E-13
 -1      1025 1.14935E-02 4.42916E-04-1.08565E-13
 -1      1026 1.17784E-02 4.65116E-04-1.13558E-13
 -1      1027 1.20637E-02 4.87394E-04-1.18589E-13
 -1      1028 1.23492E-02 5.09735E-04-1.23651E-13
 -1      1029 1.26348E-02 5.32123E-04-1.28741E-13
 -1      1030 1.29205E-02 5.54548E-04-1.33859E-13
 -1      1031 8.97155E-03 4.15789E-04-6.49538E-14
 -1      1032 8.44171E-03 3.63709E-04-5.64683E-14
 -1      1033 8.70428E-03 3.89434E-04-6.06567E-14
 -1      1034 8.18535E-03 3.38961E-04-5.23929E-14
 -1      1035 1.30574E-02 7.61190E-04-1.35134E-13
 -1      1036 9.24279E-03 4.42366E-04-6.93528E-14
 -1      1037 9.51751E-03 4.68840E-04-7.38450E-14
 -1      1038 9.79476E-03 4.95085E-04-7.84140E-14
 -1      1039 1.00742E-02 5.20934E-04-8.30604E-14
 -1      1040 1.03553E-02 5.46347E-04-8.77802E-14
 -1      1041 1.06376E-02 5.71311E-04-9.25617E-14
 -1      1042 1.09210E-02 5.95847E-04-9.74078E-14
 -1      1043 1.12051E-02 6.19993E-04-1.02316E-13
 -1      1044 1.14898E-02 6.43798E-04-1.07274E-13
 -1      1045 1.17748E-02 6.67314E-04-1.12272E-13
 -1      1046 1.20602E-02 6.90591E-04-1.17308E-13
 -1      1047 1.23457E-02 7.13673E-04-1.22369E-13
 -1      1048 1.26313E-02 7.36602E-04-1.27454E-13
 -1      1049 1.28443E-02 7.48928E-04-1.31290E-13
 -1      1050 7.69590E-03 2.94066E-04-4.45733E-14
 -1      1051 7.93609E-03 3.15651E-04-4.84272E-14
 -1      1052 1.75485E-03-5.23124E-05-4.59716E-15
 -1      1053 1.97648E-03-5.66626E-06-6.01795E-15
 -1      1054 1.65102E-03 1.50794E-04-3.72802E-15
 -1      1055 7.51136E-03 2.85658E-04-4.16606E-14
 -1      1056 1.34496E-02 7.07289E-04-1.42712E-13
 -1      1057 1.87401E-03 9.43960E-05-5.29045E-15
 -1      1058 7.51526E-03 1.95427E-04-4.15654E-14
 -1      1059 1.68867E-03-3.52707E-06-4.44482E-15
 -1      1060 1.70067E-03 8.71759E-05-4.36887E-15
 -1      1061 1.32063E-02 5.76999E-04-1.39001E-13
 -1      1062 1.89793E-03 4.50949E-05-5.66523E-15
 -1      1063 1.31830E-02 6.37867E-04-1.38210E-13
 -1      1064 1.67874E-03 4.19411E-05-4.41890E-15
 -1      1065 7.61403E-03 2.41893E-04-4.30709E-14
 -1      1066 8.56568E-03 3.20487E-04-5.86664E-14
 -1      1067 7.86213E-03 2.20787E-04-4.74738E-14
 -1      1068 8.10119E-03 2.38841E-04-5.14097E-14
 -1      1069 8.34989E-03 2.58401E-04-5.54583E-14
 -1      1070 9.13629E-03 3.22525E-04-6.82473E-14
 -1      1071 9.40775E-03 3.44921E-04-7.27125E-14
 -1      1072 9.68251E-03 3.67580E-04-7.72567E-14
 -1      1073 9.95989E-03 3.90338E-04-8.18728E-14
 -1      1074 1.02394E-02 4.13146E-04-8.65673E-14
 -1      1075 1.05206E-02 4.35958E-04-9.13315E-14
 -1      1076 1.08030E-02 4.58748E-04-9.61603E-14
 -1      1077 1.10865E-02 4.81503E-04-1.01054E-13
 -1      1078 1.13707E-02 5.04218E-04-1.05997E-13
 -1      1079 1.16554E-02 5.26895E-04-1.10977E-13
 -1      1080 1.19405E-02 5.49537E-04-1.15989E-13
 -1      1081 1.22259E-02 5.72148E-04-1.21037E-13
 -1      1082 1.25114E-02 5.94735E-04-1.26118E-13
 -1      1083 1.27971E-02 6.17301E-04-1.31220E-13
 -1      1084 9.36587E-03 3.92383E-04-7.17041E-14
 -1      1085 1.30805E-02 7.00377E-04-1.35937E-13
 -1      1086 8.84880E-03 3.22333E-04-6.33949E-14
 -1      1087 1.28675E-02 6.88188E-04-1.32088E-13
 -1      1088 0.00000E+00 0.00000E+00 0.00000E+00
 -1      1089 0.00000E+00 0.00000E+00 0.00000E+00
 -1      1090 0.00000E+00 0.00000E+00 0.00000E+00
 -1      1091 0.00000E+00 0.00000E+00 0.00000E+00
 -1      1092 0.00000E+00 0.00000E+00 0.00000E+00
 -1      1093 0.00000E+00 0.00000E+00 0.00000E+00
 -1      1094 0.00000E+00 0.00000E+00 0.00000E+00
 -1      1095 0.00000E+00 0.00000E+00 0.00000E+00
 -1      1096 0.00000E+00 0.00000E+00 0.00000E+00
 -1      1097 0.00000E+00 0.00000E+00 0.00000E+00
 -1      1098 0.00000E+00 0.00000E+00 0.00000E+00
 -1      1099 0.00000E+00 0.00000E+00 0.00000E+00
 -1      1100 0.00000E+00 0.00000E+00 0.00000E+00
 -1      1101 0.00000E+00 0.00000E+00 0.00000E+00
 -1      1102 0.00000E+00 0.00000E+00 0.00000E+00
 -1      1103 0.00000E+00 0.00000E+00 0.00000E+00
 -1      1104 0.00000E+00 0.00000E+00 0.00000E+00
 -1      1105 2.12667E-04-1.43482E-04 2.24972E-17
 -1      1106 5.62098E-04-3.17302E-04-5.10117E-17
 -1      1107 8.61440E-04-4.23652E-04-2.98576E-16
 -1      1108 1.15549E-03-4.93988E-04-7.49197E-16
 -1      1109 1.45216E-03-5.45396E-04-1.39175E-15
 -1      1110 1.75532E-03-5.87641E-04-2.22126E-15
 -1      1111 2.06688E-03-6.27858E-04-3.23506E-15
 -1      1112 2.38702E-03-6.72193E-04-4.43057E-15
 -1      1113 2.71402E-03-7.26025E-04-5.80735E-15
 -1      1114 3.04397E-03-7.93208E-04-7.36386E-15
 -1      1115 3.37080E-03-8.74545E-04-9.09850E-15
 -1      1116 3.68702E-03-9.65852E-04-1.10048E-14
 -1      1117 3.98580E-03-1.05660E-03-1.30812E-14
 -1      1118 4.26400E-03-1.13071E-03-1.53312E-14
 -1      1119 4.52489E-03-1.17082E-03-1.77536E-14
 -1      1120 4.77846E-03-1.16486E-03-2.03496E-14
 -1      1121 5.03794E-03-1.11164E-03-2.31203E-14
 -1      1122 5.31449E-03-1.02150E-03-2.60613E-14
 -1      1123 5.61310E-03-9.11616E-04-2.91674E-14
 -1      1124 5.93201E-03-7.99351E-04-3.24345E-14
 -1      1125 6.26507E-03-6.97307E-04-3.58596E-14
 -1      1126 6.60487E-03-6.11868E-04-3.94358E-14
 -1      1127 6.94500E-03-5.44290E-04-4.31566E-14
 -1      1128 7.28104E-03-4.92700E-04-4.70209E-14
 -1      1129 7.61054E-03-4.53876E-04-5.10196E-14
 -1      1130 7.93262E-03-4.24415E-04-5.51428E-14
 -1      1131 8.24743E-03-4.01316E-04-5.93833E-14
 -1      1132 8.55567E-03-3.82191E-04-6.37328E-14
 -1      1133 8.85833E-03-3.65273E-04-6.81892E-14
 -1      1134 9.15642E-03-3.49324E-04-7.27322E-14
 -1      1135 9.45089E-03-3.33529E-04-7.73464E-14
 -1      1136 9.74259E-03-3.17383E-04-8.20254E-14
 -1      1137 1.00322E-02-3.00609E-04-8.67663E-14
 -1      1138 1.03203E-02-2.83079E-04-9.15768E-14
 -1      1139 1.06073E-02-2.64770E-04-9.64576E-14
 -1      1140 1.08936E-02-2.45717E-04-1.01381E-13
 -1      1141 1.11795E-02-2.25991E-04-1.06337E-13
 -1      1142 1.14650E-02-2.05679E-04-1.11326E-13
 -1      1143 1.17503E-02-1.84871E-04-1.16343E-13
 -1      1144 1.20356E-02-1.63655E-04-1.21399E-13
 -1      1145 1.23209E-02-1.42109E-04-1.26504E-13
 -1      1146 1.26062E-02-1.20306E-04-1.31653E-13
 -1      1147 1.28916E-02-9.83050E-05-1.36840E-13
 -1      1148 1.31770E-02-7.61582E-05-1.42054E-13
 -1      1149 1.34625E-02-5.39094E-05-1.47292E-13
 -1      1150 1.37480E-02-3.15958E-05-1.52547E-13
 -1      1151 1.40336E-02-9.24912E-06-1.57824E-13
 -1      1152 1.43193E-02 1.31030E-05-1.63120E-13
 -1      1153 1.46049E-02 3.54384E-05-1.68435E-13
 -1      1154 1.48835E-02 5.71898E-05-1.73648E-13
 -1      1155 2.29049E-04 1.55121E-04 3.99935E-17
 -1      1156 5.64508E-04 3.19809E-04 2.26327E-18
 -1      1157 8.63982E-04 4.22236E-04-1.97365E-16
 -1      1158 1.16019E-03 4.90407E-04-5.79696E-16
 -1      1159 1.46047E-03 5.39979E-04-1.14398E-15
 -1      1160 1.76943E-03 5.80623E-04-1.88826E-15
 -1      1161 2.08994E-03 6.20066E-04-2.81012E-15
 -1      1162 2.42327E-03 6.65777E-04-3.90723E-15
 -1      1163 2.76869E-03 7.25346E-04-5.17795E-15
 -1      1164 3.12259E-03 8.05740E-04-6.62309E-15
 -1      1165 3.47773E-03 9.11163E-04-8.24734E-15
 -1      1166 3.82333E-03 1.03943E-03-1.00456E-14
 -1      1167 4.14747E-03 1.17804E-03-1.20234E-14
 -1      1168 4.44230E-03 1.30318E-03-1.41871E-14
 -1      1169 4.71021E-03 1.38565E-03-1.65471E-14
 -1      1170 4.96602E-03 1.40368E-03-1.91097E-14
 -1      1171 5.23102E-03 1.35501E-03-2.18619E-14
 -1      1172 5.52230E-03 1.25837E-03-2.47946E-14
 -1      1173 5.84512E-03 1.14317E-03-2.79003E-14
 -1      1174 6.19351E-03 1.03572E-03-3.11656E-14
 -1      1175 6.55597E-03 9.51703E-04-3.45723E-14
 -1      1176 6.92124E-03 8.96005E-04-3.81244E-14
 -1      1177 7.28129E-03 8.66500E-04-4.18189E-14
 -1      1178 7.63172E-03 8.57990E-04-4.56470E-14
 -1      1179 7.97101E-03 8.64787E-04-4.95964E-14
 -1      1180 8.29940E-03 8.81953E-04-5.36651E-14
 -1      1181 8.61809E-03 9.05659E-04-5.78524E-14
 -1      1182 8.92862E-03 9.33143E-04-6.21530E-14
 -1      1183 9.23256E-03 9.62512E-04-6.65584E-14
 -1      1184 9.53132E-03 9.92529E-04-7.10572E-14
 -1      1185 9.82611E-03 1.02243E-03-7.56398E-14
 -1      1186 1.01179E-02 1.05176E-03-8.03067E-14
 -1      1187 1.04076E-02 1.08031E-03-8.50456E-14
 -1      1188 1.06957E-02 1.10800E-03-8.98484E-14
 -1      1189 1.09827E-02 1.13484E-03-9.47257E-14
 -1      1190 1.12690E-02 1.16089E-03-9.96756E-14
 -1      1191 1.15547E-02 1.18623E-03-1.04687E-13
 -1      1192 1.18402E-02 1.21097E-03-1.09743E-13
 -1      1193 1.21256E-02 1.23520E-03-1.14827E-13
 -1      1194 1.24109E-02 1.25901E-03-1.19936E-13
 -1      1195 1.26961E-02 1.28250E-03-1.25053E-13
 -1      1196 1.29814E-02 1.30572E-03-1.30172E-13
 -1      1197 1.32668E-02 1.32874E-03-1.35299E-13
 -1      1198 1.35522E-02 1.35162E-03-1.40431E-13
 -1      1199 1.38377E-02 1.37440E-03-1.45543E-13
 -1      1200 1.41232E-02 1.39711E-03-1.50650E-13
 -1      1201 1.44088E-02 1.41979E-03-1.55768E-13
 -1      1202 1.46945E-02 1.44246E-03-1.60896E-13
 -1      1203 1.49802E-02 1.46515E-03-1.66037E-13
 -1      1204 1.52587E-02 1.48730E-03-1.71055E-13
 -1      1205 1.53833E-02 1.45596E-03-1.73580E-13
 -1      1206 1.53609E-02 1.37167E-03-1.73748E-13
 -1      1207 1.53385E-02 1.28737E-03-1.73903E-13
 -1      1208 1.53161E-02 1.20302E-03-1.74049E-13
 -1      1209 1.52937E-02 1.11864E-03-1.74212E-13
 -1      1210 1.52715E-02 1.03494E-03-1.74375E-13
 -1      1211 1.52494E-02 9.51196E-04-1.74554E-13
 -1      1212 1.52272E-02 8.66716E-04-1.74738E-13
 -1      1213 1.52050E-02 7.82224E-04-1.74928E-13
 -1      1214 1.51829E-02 6.97732E-04-1.75121E-13
 -1      1215 1.51609E-02 6.13252E-04-1.75294E-13
 -1      1216 1.51391E-02 5.29513E-04-1.75452E-13
 -1      1217 1.51174E-02 4.45808E-04-1.75615E-13
 -1      1218 1.50955E-02 3.61426E-04-1.75784E-13
 -1      1219 1.50736E-02 2.77086E-04-1.75936E-13
 -1      1220 1.50517E-02 1.92780E-04-1.76060E-13
 -1      1221 1.50300E-02 1.09208E-04-1.76162E-13
 -1      1222 6.99379E-03 2.34329E-04-2.59804E-14
 -1      1223 6.87580E-03 3.90453E-04-2.55945E-14
 -1      1224 6.66695E-03 5.37901E-04-2.49627E-14
 -1      1225 6.36234E-03 6.93554E-04-2.40469E-14
 -1      1226 5.98069E-03 8.42142E-04-2.29040E-14
 -1      1227 5.55752E-03 9.58798E-04-2.16367E-14
 -1      1228 5.10707E-03 1.02694E-03-2.02964E-14
 -1      1229 4.63311E-03 1.03327E-03-1.89181E-14
 -1      1230 4.17346E-03 9.75778E-04-1.76415E-14
 -1      1231 3.74325E-03 8.65999E-04-1.65239E-14
 -1      1232 3.34699E-03 7.22896E-04-1.55651E-14
 -1      1233 3.00442E-03 5.63322E-04-1.47979E-14
 -1      1234 2.74024E-03 4.03070E-04-1.42538E-14
 -1      1235 2.57618E-03 2.52358E-04-1.39455E-14
 -1      1236 2.51577E-03 1.02115E-04-1.38636E-14
 -1      1237 2.56858E-03-4.64094E-05-1.40239E-14
 -1      1238 2.72505E-03-1.91630E-04-1.44027E-14
 -1      1239 2.99255E-03-3.48461E-04-1.50429E-14
 -1      1240 3.34431E-03-5.01165E-04-1.59143E-14
 -1      1241 3.77023E-03-6.36216E-04-1.70276E-14
 -1      1242 4.23481E-03-7.30257E-04-1.83153E-14
 -1      1243 4.68558E-03-7.60565E-04-1.96221E-14
 -1      1244 5.14052E-03-7.31634E-04-2.09655E-14
 -1      1245 5.57441E-03-6.48712E-04-2.22419E-14
 -1      1246 5.97585E-03-5.28256E-04-2.34003E-14
 -1      1247 6.33455E-03-3.85465E-04-2.43979E-14
 -1      1248 6.63634E-03-2.33299E-04-2.52024E-14
 -1      1249 6.86070E-03-7.98751E-05-2.57655E-14
 -1      1250 6.98775E-03 7.31002E-05-2.60362E-14
 -1      1251 1.70630E-04-1.04571E-04-6.09864E-18
 -1      1252 1.16615E-04-4.90882E-05-3.96411E-17
 -1      1253 1.21773E-04-6.08179E-05-3.03306E-17
 -1      1254 1.11408E-04-3.37840E-05-5.49419E-17
 -1      1255 1.13869E-04-4.05682E-05-5.03070E-17
 -1      1256 2.34577E-04-9.08834E-05-1.18246E-16
 -1      1257 1.08223E-04-2.32012E-05-6.36156E-17
 -1      1258 1.09898E-04-2.80726E-05-6.11490E-17
 -1      1259 2.24554E-04-6.32203E-05-1.45934E-16
 -1      1260 1.05687E-04-1.53595E-05-6.83318E-17
 -1      1261 1.07004E-04-1.90349E-05-6.71528E-17
 -1      1262 2.17696E-04-4.34744E-05-1.62007E-16
 -1      1263 1.03656E-04-9.53825E-06-7.10559E-17
 -1      1264 1.04684E-04-1.22975E-05-7.04867E-17
 -1      1265 2.12279E-04-2.87915E-05-1.71128E-16
 -1      1266 1.02095E-04-5.05608E-06-7.24383E-17
 -1      1267 1.02847E-04-7.22012E-06-7.22485E-17
 -1      1268 2.07941E-04-1.76141E-05-1.76332E-16
 -1      1269 1.01145E-04-1.56864E-06-7.28313E-17
 -1      1270 1.01560E-04-3.31227E-06-7.28042E-17
 -1      1271 2.04769E-04-8.92765E-06-1.78677E-16
 -1      1272 1.00894E-04 1.41231E-06-7.27229E-17
 -1      1273 1.00933E-04-1.52574E-07-7.28313E-17
 -1      1274 2.03008E-04-1.92772E-06-1.79219E-16
 -1      1275 1.01384E-04 4.41866E-06-7.15302E-17
 -1      1276 1.01034E-04 2.77183E-06-7.18555E-17
 -1      1277 2.02825E-04 4.35758E-06-1.77863E-16
 -1      1278 1.02602E-04 8.01150E-06-6.96735E-17
 -1      1279 1.01876E-04 6.01055E-06-7.02699E-17
 -1      1280 2.04286E-04 1.09731E-05-1.74502E-16
 -1      1281 1.04448E-04 1.26696E-05-6.63396E-17
 -1      1282 1.03397E-04 1.00921E-05-6.73425E-17
 -1      1283 2.07304E-04 1.89323E-05-1.68851E-16
 -1      1284 1.06911E-04 1.91402E-05-6.14878E-17
 -1      1285 1.05522E-04 1.55996E-05-6.31819E-17
 -1      1286 2.11743E-04 2.93828E-05-1.60259E-16
 -1      1287 1.09970E-04 2.80665E-05-5.37222E-17
 -1      1288 1.08203E-04 2.32305E-05-5.67173E-17
 -1      1289 2.17524E-04 4.36556E-05-1.47397E-16
 -1      1290 1.14039E-04 4.06542E-05-4.12946E-17
 -1      1291 1.11531E-04 3.38153E-05-4.66342E-17
 -1      1292 2.24768E-04 6.32910E-05-1.27583E-16
 -1      1293 1.21319E-04 6.03798E-05-2.08167E-17
 -1      1294 1.16508E-04 4.92907E-05-3.07371E-17
 -1      1295 2.35005E-04 9.14313E-05-9.73343E-17
 -1      1296 1.60822E-04 1.04466E-04 1.13570E-17
 -1      1297 1.40392E-04 7.93389E-05-8.89046E-18
 -1      1298 2.66238E-04 1.36700E-04-6.08644E-17
 -1      1299 3.43449E-04 2.06920E-04-7.69784E-18
 -1      1300 4.33420E-04-2.43892E-04-7.35089E-17
 -1      1301 5.93584E-04-3.10412E-04-1.56328E-16
 -1      1302 7.49197E-04-3.63047E-04-2.92098E-16
 -1      1303 9.02158E-04-4.05186E-04-4.76480E-16
 -1      1304 6.37168E-04-2.98205E-04-2.77217E-16
 -1      1305 1.05343E-03-4.40179E-04-7.07577E-16
 -1      1306 1.20398E-03-4.69355E-04-9.86488E-16
 -1      1307 9.48568E-04-3.84103E-04-6.59940E-16
 -1      1308 1.35469E-03-4.94762E-04-1.31202E-15
 -1      1309 1.50608E-03-5.17125E-04-1.68459E-15
 -1      1310 1.25394E-03-4.43252E-04-1.22850E-15
 -1      1311 1.65863E-03-5.37781E-04-2.10257E-15
 -1      1312 1.81259E-03-5.57367E-04-2.56650E-15
 -1      1313 1.55904E-03-4.87988E-04-1.98108E-15
 -1      1314 1.96817E-03-5.76909E-04-3.07590E-15
 -1      1315 2.12539E-03-5.97038E-04-3.63007E-15
 -1      1316 1.86731E-03-5.26726E-04-2.91485E-15
 -1      1317 2.28425E-03-6.18663E-04-4.22922E-15
 -1      1318 2.44457E-03-6.42346E-04-4.87369E-15
 -1      1319 2.18045E-03-5.66392E-04-4.02795E-15
 -1      1320 2.60613E-03-6.68885E-04-5.56273E-15
 -1      1321 2.76854E-03-6.98656E-04-6.29608E-15
 -1      1322 2.49864E-03-6.13221E-04-5.31836E-15
 -1      1323 2.93133E-03-7.32198E-04-7.07418E-15
 -1      1324 3.09392E-03-7.69523E-04-7.89563E-15
 -1      1325 2.82063E-03-6.72469E-04-6.78513E-15
 -1      1326 3.25567E-03-8.10631E-04-8.76071E-15
 -1      1327 3.41585E-03-8.54942E-04-9.67051E-15
 -1      1328 3.14376E-03-7.47230E-04-8.42689E-15
 -1      1329 3.57378E-03-9.01603E-04-1.06220E-14
 -1      1330 3.72880E-03-9.49278E-04-1.16157E-14
 -1      1331 3.46416E-03-8.36482E-04-1.02413E-14
 -1      1332 3.88039E-03-9.96118E-04-1.26528E-14
 -1      1333 4.02827E-03-1.04011E-03-1.37329E-14
 -1      1334 3.77754E-03-9.32969E-04-1.22265E-14
 -1      1335 4.17239E-03-1.07871E-03-1.48570E-14
 -1      1336 4.31309E-03-1.10973E-03-1.60241E-14
 -1      1337 4.08054E-03-1.02236E-03-1.43847E-14
 -1      1338 4.45095E-03-1.13083E-03-1.72340E-14
 -1      1339 4.58696E-03-1.14047E-03-1.84880E-14
 -1      1340 4.37270E-03-1.08565E-03-1.67162E-14
 -1      1341 4.72220E-03-1.13756E-03-1.97865E-14
 -1      1342 4.85798E-03-1.12196E-03-2.11280E-14
 -1      1343 4.65763E-03-1.10545E-03-1.92229E-14
 -1      1344 4.99544E-03-1.09440E-03-2.25126E-14
 -1      1345 5.13567E-03-1.05620E-03-2.39411E-14
 -1      1346 4.94225E-03-1.07379E-03-2.19061E-14
 -1      1347 5.27942E-03-1.00954E-03-2.54118E-14
 -1      1348 5.42718E-03-9.56612E-04-2.69228E-14
 -1      1349 5.23387E-03-9.96117E-04-2.47620E-14
 -1      1350 5.57904E-03-9.00036E-04-2.84758E-14
 -1      1351 5.73485E-03-8.42002E-04-3.00700E-14
 -1      1352 5.53703E-03-8.88680E-04-2.77858E-14
 -1      1353 5.89419E-03-7.84621E-04-3.17031E-14
 -1      1354 6.05647E-03-7.29494E-04-3.33756E-14
 -1      1355 5.85216E-03-7.71224E-04-3.09726E-14
 -1      1356 6.22103E-03-6.77781E-04-3.50863E-14
 -1      1357 6.38714E-03-6.30333E-04-3.68366E-14
 -1      1358 6.17644E-03-6.60058E-04-3.43151E-14
 -1      1359 6.55414E-03-5.87431E-04-3.86238E-14
 -1      1360 6.72139E-03-5.49319E-04-4.04462E-14
 -1      1361 6.50564E-03-5.64784E-04-3.78124E-14
 -1      1362 6.88838E-03-5.15712E-04-4.23066E-14
 -1      1363 7.05467E-03-4.86475E-04-4.42018E-14
 -1      1364 6.83563E-03-4.88639E-04-4.14583E-14
 -1      1365 7.21991E-03-4.61075E-04-4.61317E-14
 -1      1366 7.38385E-03-4.39195E-04-4.80956E-14
 -1      1367 7.16328E-03-4.30572E-04-4.52452E-14
 -1      1368 7.54634E-03-4.20272E-04-5.00919E-14
 -1      1369 7.70726E-03-4.03936E-04-5.21194E-14
 -1      1370 7.48657E-03-3.87413E-04-4.91682E-14
 -1      1371 7.86659E-03-3.89706E-04-5.41784E-14
 -1      1372 8.02433E-03-3.77231E-04-5.62669E-14
 -1      1373 7.80454E-03-3.55430E-04-5.32183E-14
 -1      1374 8.18053E-03-3.66144E-04-5.83836E-14
 -1      1375 8.33525E-03-3.56149E-04-6.05268E-14
 -1      1376 8.11698E-03-3.31172E-04-5.73869E-14
 -1      1377 8.48858E-03-3.46990E-04-6.26987E-14
 -1      1378 8.64062E-03-3.38431E-04-6.48965E-14
 -1      1379 8.42417E-03-3.11827E-04-6.16681E-14
 -1      1380 8.79147E-03-3.30307E-04-6.71184E-14
 -1      1381 8.94124E-03-3.22441E-04-6.93650E-14
 -1      1382 8.72669E-03-2.95276E-04-6.60550E-14
 -1      1383 9.09004E-03-3.14735E-04-7.16316E-14
 -1      1384 9.23797E-03-3.07064E-04-7.39166E-14
 -1      1385 9.02522E-03-2.80024E-04-7.05346E-14
 -1      1386 9.38512E-03-2.99375E-04-7.62211E-14
 -1      1387 9.53159E-03-2.91584E-04-7.85423E-14
 -1      1388 9.32047E-03-2.65073E-04-7.50984E-14
 -1      1389 9.67745E-03-2.83669E-04-8.08801E-14
 -1      1390 9.82279E-03-2.75577E-04-8.32329E-14
 -1      1391 9.61309E-03-2.49801E-04-7.97365E-14
 -1      1392 9.96768E-03-2.67307E-04-8.56025E-14
 -1      1393 1.01122E-02-2.58826E-04-8.79875E-14
 -1      1394 9.90367E-03-2.33858E-04-8.44385E-14
 -1      1395 1.02563E-02-2.50146E-04-9.03900E-14
 -1      1396 1.04002E-02-2.41249E-04-9.28103E-14
 -1      1397 1.01927E-02-2.17078E-04-8.92064E-14
 -1      1398 1.05438E-02-2.32153E-04-9.52460E-14
 -1      1399 1.06873E-02-2.22851E-04-9.76960E-14
 -1      1400 1.04805E-02-1.99419E-04-9.40401E-14
 -1      1401 1.08306E-02-2.13364E-04-1.00156E-13
 -1      1402 1.09737E-02-2.03692E-04-1.02623E-13
 -1      1403 1.07676E-02-1.80913E-04-9.89327E-14
 -1      1404 1.11167E-02-1.93854E-04-1.05101E-13
 -1      1405 1.12596E-02-1.83855E-04-1.07587E-13
 -1      1406 1.10540E-02-1.61635E-04-1.03867E-13
 -1      1407 1.14025E-02-1.73714E-04-1.10081E-13
 -1      1408 1.15453E-02-1.63436E-04-1.12584E-13
 -1      1409 1.13400E-02-1.41683E-04-1.08839E-13
 -1      1410 1.16881E-02-1.53040E-04-1.15094E-13
 -1      1411 1.18308E-02-1.42532E-04-1.17608E-13
 -1      1412 1.16258E-02-1.21157E-04-1.13840E-13
 -1      1413 1.19735E-02-1.31926E-04-1.20136E-13
 -1      1414 1.21162E-02-1.21231E-04-1.22676E-13
 -1      1415 1.19114E-02-1.00158E-04-1.18876E-13
 -1      1416 1.22589E-02-1.10457E-04-1.25224E-13
 -1      1417 1.24016E-02-9.96138E-05-1.27785E-13
 -1      1418 1.21969E-02-7.87759E-05-1.23948E-13
 -1      1419 1.25443E-02-8.87095E-05-1.30359E-13
 -1      1420 1.26870E-02-7.77512E-05-1.32941E-13
 -1      1421 1.24824E-02-5.70915E-05-1.29066E-13
 -1      1422 1.28297E-02-6.67471E-05-1.35529E-13
 -1      1423 1.29725E-02-5.57030E-05-1.38126E-13
 -1      1424 1.27679E-02-3.51743E-05-1.34224E-13
 -1      1425 1.31152E-02-4.46254E-05-1.40731E-13
 -1      1426 1.32579E-02-3.35196E-05-1.43340E-13
 -1      1427 1.30534E-02-1.30830E-05-1.39411E-13
 -1      1428 1.34007E-02-2.23909E-05-1.45956E-13
 -1      1429 1.35435E-02-1.12439E-05-1.48578E-13
 -1      1430 1.33389E-02 9.13288E-06-1.44626E-13
 -1      1431 1.36863E-02-8.28664E-08-1.51204E-13
 -1      1432 1.38290E-02 1.10881E-05-1.53832E-13
 -1      1433 1.36245E-02 3.14318E-05-1.49862E-13
 -1      1434 1.39719E-02 2.22652E-05-1.56468E-13
 -1      1435 1.41147E-02 3.34450E-05-1.59112E-13
 -1      1436 1.39101E-02 5.37785E-05-1.55119E-13
 -1      1437 1.42575E-02 4.46243E-05-1.61762E-13
 -1      1438 1.44003E-02 5.58001E-05-1.64412E-13
 -1      1439 1.41957E-02 7.61425E-05-1.60400E-13
 -1      1440 1.45432E-02 6.69701E-05-1.67069E-13
 -1      1441 1.46860E-02 7.81323E-05-1.69734E-13
 -1      1442 1.44814E-02 9.84979E-05-1.65704E-13
 -1      1443 1.48943E-02 9.86188E-05-1.73608E-13
 -1      1444 1.48325E-02 1.30159E-04-1.72231E-13
 -1      1445 6.66036E-04 3.39817E-04-1.26757E-16
 -1      1446 5.07814E-04 2.80564E-04-4.42354E-17
 -1      1447 4.61666E-04 2.41887E-04-8.37275E-17
 -1      1448 9.72818E-04 4.23792E-04-4.26281E-16
 -1      1449 8.20509E-04 3.85844E-04-2.54313E-16
 -1      1450 7.78569E-04 3.48569E-04-3.01733E-16
 -1      1451 1.27593E-03 4.81586E-04-9.03479E-16
 -1      1452 1.12423E-03 4.55055E-04-6.42376E-16
 -1      1453 1.08719E-03 4.19140E-04-6.96193E-16
 -1      1454 1.58248E-03 5.25273E-04-1.56002E-15
 -1      1455 1.42840E-03 5.04639E-04-1.20939E-15
 -1      1456 1.39407E-03 4.69083E-04-1.26659E-15
 -1      1457 1.89666E-03 5.63332E-04-2.39343E-15
 -1      1458 1.73838E-03 5.44538E-04-1.95438E-15
 -1      1459 1.70446E-03 5.08532E-04-2.01293E-15
 -1      1460 2.22075E-03 6.03374E-04-3.40224E-15
 -1      1461 2.05735E-03 5.82652E-04-2.87612E-15
 -1      1462 2.02168E-03 5.45556E-04-2.93433E-15
 -1      1463 2.55531E-03 6.53121E-04-4.58475E-15
 -1      1464 2.38673E-03 6.26606E-04-3.97188E-15
 -1      1465 2.34741E-03 5.87933E-04-4.02936E-15
 -1      1466 2.89881E-03 7.20321E-04-5.93982E-15
 -1      1467 2.72610E-03 6.84213E-04-5.24091E-15
 -1      1468 2.68171E-03 6.43668E-04-5.29646E-15
 -1      1469 3.24712E-03 8.11442E-04-7.46962E-15
 -1      1470 3.07272E-03 7.62820E-04-6.68285E-15
 -1      1471 3.02281E-03 7.20429E-04-6.73531E-15
 -1      1472 3.59335E-03 9.28755E-04-9.17632E-15
 -1      1473 3.42106E-03 8.67223E-04-8.30092E-15
 -1      1474 3.36676E-03 8.23547E-04-8.34805E-15
 -1      1475 3.92868E-03 1.06609E-03-1.10571E-14
 -1      1476 3.76301E-03 9.95985E-04-1.00944E-14
 -1      1477 3.70751E-03 9.52309E-04-1.01356E-14
 -1      1478 4.24514E-03 1.20533E-03-1.31227E-14
 -1      1479 4.08969E-03 1.13715E-03-1.20661E-14
 -1      1480 4.03803E-03 1.09542E-03-1.21018E-14
 -1      1481 4.54003E-03 1.31782E-03-1.53770E-14
 -1      1482 4.39516E-03 1.26672E-03-1.42263E-14
 -1      1483 4.35310E-03 1.22887E-03-1.42548E-14
 -1      1484 4.81937E-03 1.37435E-03-1.78286E-14
 -1      1485 4.68086E-03 1.35415E-03-1.65770E-14
 -1      1486 4.65291E-03 1.32100E-03-1.65990E-14
 -1      1487 5.09694E-03 1.36013E-03-2.04769E-14
 -1      1488 4.95727E-03 1.37576E-03-1.91291E-14
 -1      1489 4.94502E-03 1.34623E-03-1.91403E-14
 -1      1490 5.38782E-03 1.28344E-03-2.33106E-14
 -1      1491 5.23988E-03 1.32798E-03-2.18709E-14
 -1      1492 5.24153E-03 1.29969E-03-2.18733E-14
 -1      1493 5.70088E-03 1.17117E-03-2.63233E-14
 -1      1494 5.54135E-03 1.22972E-03-2.47952E-14
 -1      1495 5.55240E-03 1.20032E-03-2.47891E-14
 -1      1496 6.03596E-03 1.05404E-03-2.95008E-14
 -1      1497 5.86599E-03 1.11162E-03-2.78920E-14
 -1      1498 5.88077E-03 1.07991E-03-2.78778E-14
 -1      1499 6.38627E-03 9.54583E-04-3.28315E-14
 -1      1500 6.20979E-03 1.00132E-03-3.11479E-14
 -1      1501 6.22315E-03 9.67254E-04-3.11261E-14
 -1      1502 6.74291E-03 8.83148E-04-3.63038E-14
 -1      1503 6.56437E-03 9.15248E-04-3.45500E-14
 -1      1504 6.57285E-03 8.79443E-04-3.45207E-14
 -1      1505 7.09820E-03 8.40496E-04-3.99222E-14
 -1      1506 6.92115E-03 8.58481E-04-3.80951E-14
 -1      1507 6.92319E-03 8.21707E-04-3.80606E-14
 -1      1508 7.44705E-03 8.22288E-04-4.36744E-14
 -1      1509 7.27368E-03 8.28720E-04-4.17814E-14
 -1      1510 7.26926E-03 7.91639E-04-4.17390E-14
 -1      1511 7.78691E-03 8.22586E-04-4.75558E-14
 -1      1512 7.61820E-03 8.20496E-04-4.56005E-14
 -1      1513 7.60817E-03 7.83575E-04-4.55497E-14
 -1      1514 8.11714E-03 8.35780E-04-5.15595E-14
 -1      1515 7.95323E-03 8.27876E-04-4.95430E-14
 -1      1516 7.93877E-03 7.91393E-04-4.94838E-14
 -1      1517 8.43824E-03 8.57335E-04-5.56778E-14
 -1      1518 8.27878E-03 8.45741E-04-5.36028E-14
 -1      1519 8.26105E-03 8.09826E-04-5.35376E-14
 -1      1520 8.75132E-03 8.83895E-04-5.99159E-14
 -1      1521 8.59570E-03 8.70151E-04-5.77825E-14
 -1      1522 8.57573E-03 8.34835E-04-5.77084E-14
 -1      1523 9.05768E-03 9.13118E-04-6.42601E-14
 -1      1524 8.90525E-03 8.98283E-04-6.20751E-14
 -1      1525 8.88381E-03 8.63536E-04-6.19924E-14
 -1      1526 9.35860E-03 9.43449E-04-6.87055E-14
 -1      1527 9.20874E-03 9.28216E-04-6.64707E-14
 -1      1528 9.18642E-03 8.93977E-04-6.63809E-14
 -1      1529 9.65526E-03 9.73904E-04-7.32388E-14
 -1      1530 9.50739E-03 9.58704E-04-7.09615E-14
 -1      1531 9.48462E-03 9.24901E-04-7.08626E-14
 -1      1532 9.94864E-03 1.00390E-03-7.78575E-14
 -1      1533 9.80230E-03 9.88985E-04-7.55379E-14
 -1      1534 9.77934E-03 9.55543E-04-7.54318E-14
 -1      1535 1.02396E-02 1.03313E-03-8.25519E-14
 -1      1536 1.00944E-02 1.01863E-03-8.01952E-14
 -1      1537 1.00714E-02 9.85476E-04-8.00821E-14
 -1      1538 1.05286E-02 1.06147E-03-8.73193E-14
 -1      1539 1.03843E-02 1.04742E-03-8.49278E-14
 -1      1540 1.03614E-02 1.01450E-03-8.48068E-14
 -1      1541 1.08164E-02 1.08888E-03-9.21528E-14
 -1      1542 1.06727E-02 1.07529E-03-8.97255E-14
 -1      1543 1.06500E-02 1.04255E-03-8.96000E-14
 -1      1544 1.11033E-02 1.11543E-03-9.70588E-14
 -1      1545 1.09600E-02 1.10226E-03-9.45969E-14
 -1      1546 1.09374E-02 1.06966E-03-9.44641E-14
 -1      1547 1.13896E-02 1.14120E-03-1.02031E-13
 -1      1548 1.12465E-02 1.12841E-03-9.95378E-14
 -1      1549 1.12242E-02 1.09591E-03-9.93980E-14
 -1      1550 1.16754E-02 1.16629E-03-1.07055E-13
 -1      1551 1.15325E-02 1.15383E-03-1.04537E-13
 -1      1552 1.15104E-02 1.12140E-03-1.04386E-13
 -1      1553 1.19610E-02 1.19081E-03-1.12116E-13
 -1      1554 1.18182E-02 1.17861E-03-1.09583E-13
 -1      1555 1.17962E-02 1.14625E-03-1.09421E-13
 -1      1556 1.22464E-02 1.21485E-03-1.17207E-13
 -1      1557 1.21037E-02 1.20288E-03-1.14657E-13
 -1      1558 1.20818E-02 1.17055E-03-1.14489E-13
 -1      1559 1.25318E-02 1.23850E-03-1.22317E-13
 -1      1560 1.23891E-02 1.22672E-03-1.19760E-13
 -1      1561 1.23674E-02 1.19441E-03-1.19584E-13
 -1      1562 1.28172E-02 1.26186E-03-1.27432E-13
 -1      1563 1.26745E-02 1.25022E-03-1.24875E-13
 -1      1564 1.26528E-02 1.21792E-03-1.24696E-13
 -1      1565 1.31026E-02 1.28498E-03-1.32556E-13
 -1      1566 1.29599E-02 1.27345E-03-1.29994E-13
 -1      1567 1.29383E-02 1.24116E-03-1.29815E-13
 -1      1568 1.33880E-02 1.30793E-03-1.37685E-13
 -1      1569 1.32453E-02 1.29647E-03-1.35119E-13
 -1      1570 1.32237E-02 1.26420E-03-1.34940E-13
 -1      1571 1.36735E-02 1.33075E-03-1.42807E-13
 -1      1572 1.35307E-02 1.31935E-03-1.40249E-13
 -1      1573 1.35092E-02 1.28708E-03-1.40067E-13
 -1      1574 1.39590E-02 1.35349E-03-1.47919E-13
 -1      1575 1.38162E-02 1.34213E-03-1.45364E-13
 -1      1576 1.37948E-02 1.30985E-03-1.45186E-13
 -1      1577 1.42446E-02 1.37617E-03-1.53034E-13
 -1      1578 1.41018E-02 1.36483E-03-1.50475E-13
 -1      1579 1.40804E-02 1.33255E-03-1.50299E-13
 -1      1580 1.45302E-02 1.39884E-03-1.58157E-13
 -1      1581 1.43874E-02 1.38751E-03-1.55594E-13
 -1      1582 1.43660E-02 1.35522E-03-1.55419E-13
 -1      1583 1.48159E-02 1.42151E-03-1.63289E-13
 -1      1584 1.46731E-02 1.41018E-03-1.60722E-13
 -1      1585 1.46516E-02 1.37789E-03-1.60547E-13
 -1      1586 1.51016E-02 1.44421E-03-1.68434E-13
 -1      1587 1.49587E-02 1.43286E-03-1.65862E-13
 -1      1588 1.49373E-02 1.40057E-03-1.65686E-13
 -1      1589 1.52476E-02 1.44516E-03-1.71137E-13
 -1      1590 1.52316E-02 1.34075E-03-1.71554E-13
 -1      1591 1.52428E-02 1.38290E-03-1.71475E-13
 -1      1592 1.52092E-02 1.25643E-03-1.71708E-13
 -1      1593 1.52204E-02 1.29859E-03-1.71633E-13
 -1      1594 1.51023E-02 1.30983E-03-1.69363E-13
 -1      1595 1.51868E-02 1.17208E-03-1.71863E-13
 -1      1596 1.51980E-02 1.21426E-03-1.71784E-13
 -1      1597 1.50799E-02 1.22551E-03-1.69517E-13
 -1      1598 1.51644E-02 1.08770E-03-1.72023E-13
 -1      1599 1.51756E-02 1.12989E-03-1.71944E-13
 -1      1600 1.50575E-02 1.14115E-03-1.69674E-13
 -1      1601 1.51424E-02 1.00472E-03-1.72189E-13
 -1      1602 1.51534E-02 1.04621E-03-1.72105E-13
 -1      1603 1.50353E-02 1.05749E-03-1.69835E-13
 -1      1604 1.51201E-02 9.20279E-04-1.72362E-13
 -1      1605 1.51313E-02 9.62501E-04-1.72276E-13
 -1      1606 1.50131E-02 9.73804E-04-1.70000E-13
 -1      1607 1.50979E-02 8.35824E-04-1.72540E-13
 -1      1608 1.51090E-02 8.78053E-04-1.72449E-13
 -1      1609 1.49908E-02 8.89382E-04-1.70168E-13
 -1      1610 1.50757E-02 7.51360E-04-1.72720E-13
 -1      1611 1.50868E-02 7.93592E-04-1.72631E-13
 -1      1612 1.49686E-02 8.04947E-04-1.70337E-13
 -1      1613 1.50536E-02 6.66899E-04-1.72897E-13
 -1      1614 1.50647E-02 7.09129E-04-1.72811E-13
 -1      1615 1.49465E-02 7.20509E-04-1.70508E-13
 -1      1616 1.50316E-02 5.82451E-04-1.73059E-13
 -1      1617 1.50426E-02 6.24673E-04-1.72980E-13
 -1      1618 1.49244E-02 6.36075E-04-1.70669E-13
 -1      1619 1.50101E-02 4.99457E-04-1.73210E-13
 -1      1620 1.50208E-02 5.40951E-04-1.73137E-13
 -1      1621 1.49026E-02 5.52368E-04-1.70822E-13
 -1      1622 1.49882E-02 4.15060E-04-1.73366E-13
 -1      1623 1.49991E-02 4.57254E-04-1.73288E-13
 -1      1624 1.48809E-02 4.68681E-04-1.70969E-13
 -1      1625 1.49663E-02 3.30695E-04-1.73518E-13
 -1      1626 1.49772E-02 3.72873E-04-1.73443E-13
 -1      1627 1.48590E-02 3.84304E-04-1.71111E-13
 -1      1628 1.49444E-02 2.46364E-04-1.73653E-13
 -1      1629 1.49554E-02 2.88526E-04-1.73588E-13
 -1      1630 1.48371E-02 2.99954E-04-1.71247E-13
 -1      1631 1.48830E-02 1.67183E-04-1.72974E-13
 -1      1632 1.48939E-02 2.09334E-04-1.72920E-13
 -1      1633 1.47757E-02 2.20754E-04-1.70579E-13
 -1      1634 1.46747E-02 1.46693E-04-1.69105E-13
 -1      1635 6.98509E-03 2.33923E-04-2.66198E-14
 -1      1636 7.02231E-03 1.82587E-04-2.67463E-14
 -1      1637 6.81600E-03 3.52987E-04-2.60512E-14
 -1      1638 6.90489E-03 2.99854E-04-2.63030E-14
 -1      1639 6.54593E-03 4.88539E-04-2.53124E-14
 -1      1640 6.68226E-03 4.20002E-04-2.57072E-14
 -1      1641 6.18675E-03 6.64077E-04-2.42188E-14
 -1      1642 6.36232E-03 5.79313E-04-2.47566E-14
 -1      1643 5.78946E-03 8.49640E-04-2.28898E-14
 -1      1644 5.97770E-03 7.66750E-04-2.35074E-14
 -1      1645 5.37690E-03 9.99072E-04-2.15058E-14
 -1      1646 5.55951E-03 9.35019E-04-2.21632E-14
 -1      1647 4.97349E-03 1.08717E-03-2.00203E-14
 -1      1648 5.15289E-03 1.05822E-03-2.07057E-14
 -1      1649 4.56767E-03 1.07438E-03-1.84991E-14
 -1      1650 4.75265E-03 1.09359E-03-1.91832E-14
 -1      1651 4.16090E-03 9.66718E-04-1.71923E-14
 -1      1652 4.34106E-03 1.02308E-03-1.77685E-14
 -1      1653 3.75965E-03 7.99789E-04-1.60135E-14
 -1      1654 3.94746E-03 8.82873E-04-1.65298E-14
 -1      1655 3.35328E-03 6.19335E-04-1.50859E-14
 -1      1656 3.53154E-03 7.04936E-04-1.55016E-14
 -1      1657 2.99804E-03 4.31768E-04-1.42857E-14
 -1      1658 3.16073E-03 5.12258E-04-1.46082E-14
 -1      1659 2.71182E-03 2.94411E-04-1.38247E-14
 -1      1660 2.82761E-03 3.57125E-04-1.40262E-14
 -1      1661 2.54376E-03 1.80127E-04-1.35599E-14
 -1      1662 2.60697E-03 2.29389E-04-1.36533E-14
 -1      1663 2.50050E-03 7.77619E-05-1.34857E-14
 -1      1664 2.50254E-03 1.22455E-04-1.34659E-14
 -1      1665 2.59664E-03-2.63372E-05-1.37538E-14
 -1      1666 2.53711E-03 2.14914E-05-1.36242E-14
 -1      1667 2.80896E-03-1.48001E-04-1.42008E-14
 -1      1668 2.69716E-03-8.87490E-05-1.39655E-14
 -1      1669 3.15438E-03-2.99428E-04-1.48856E-14
 -1      1670 2.98295E-03-2.17649E-04-1.44989E-14
 -1      1671 3.52892E-03-4.83957E-04-1.58733E-14
 -1      1672 3.35400E-03-4.03661E-04-1.54235E-14
 -1      1673 3.98970E-03-6.63915E-04-1.71050E-14
 -1      1674 3.77981E-03-5.77762E-04-1.64634E-14
 -1      1675 4.38252E-03-7.77377E-04-1.85242E-14
 -1      1676 4.20257E-03-7.37064E-04-1.79123E-14
 -1      1677 4.78285E-03-8.06674E-04-1.99614E-14
 -1      1678 4.59819E-03-8.04791E-04-1.92810E-14
 -1      1679 5.18107E-03-7.44573E-04-2.14056E-14
 -1      1680 4.99899E-03-7.82764E-04-2.07486E-14
 -1      1681 5.57186E-03-6.13450E-04-2.27991E-14
 -1      1682 5.39012E-03-6.81751E-04-2.21759E-14
 -1      1683 5.96485E-03-4.47410E-04-2.40158E-14
 -1      1684 5.78804E-03-5.27118E-04-2.34702E-14
 -1      1685 6.32957E-03-2.68878E-04-2.51104E-14
 -1      1686 6.16214E-03-3.49307E-04-2.46455E-14
 -1      1687 6.65547E-03-1.15954E-04-2.59120E-14
 -1      1688 6.51516E-03-1.85542E-04-2.55597E-14
 -1      1689 6.89435E-03 1.85990E-05-2.65131E-14
 -1      1690 6.79515E-03-3.77655E-05-2.62940E-14
 -1      1691 7.01654E-03 1.24891E-04-2.66922E-14
 -1      1692 6.97719E-03 7.65095E-05-2.66336E-14
 -1      1693 6.02371E-03 6.79105E-04-2.42277E-14
 -1      1694 6.40813E-03 4.82857E-04-2.55179E-14
 -1      1695 1.52261E-02 1.41286E-03-1.70962E-13
 -1      1696 1.50968E-02 1.38195E-03-1.68771E-13
 -1      1697 6.94998E-03 2.32500E-04-2.71108E-14
 -1      1698 6.72786E-03 3.37650E-04-2.64380E-14
 -1      1699 7.03019E-03 1.58430E-04-2.73814E-14
 -1      1700 5.61347E-03 8.81802E-04-2.27713E-14
 -1      1701 5.22067E-03 1.04433E-03-2.12283E-14
 -1      1702 4.85806E-03 1.11908E-03-1.95843E-14
 -1      1703 4.49703E-03 1.06993E-03-1.80235E-14
 -1      1704 4.11263E-03 9.21202E-04-1.66452E-14
 -1      1705 3.71545E-03 7.22302E-04-1.54951E-14
 -1      1706 3.30983E-03 5.12667E-04-1.45272E-14
 -1      1707 2.94706E-03 3.38226E-04-1.38164E-14
 -1      1708 2.66726E-03 2.18029E-04-1.34017E-14
 -1      1709 2.51456E-03 1.30739E-04-1.31443E-14
 -1      1710 2.50983E-03 6.59047E-05-1.31878E-14
 -1      1711 2.65340E-03-1.77031E-05-1.35287E-14
 -1      1712 2.93116E-03-1.32217E-04-1.40215E-14
 -1      1713 3.30236E-03-3.00841E-04-1.48291E-14
 -1      1714 3.73080E-03-5.09514E-04-1.59339E-14
 -1      1715 4.13460E-03-7.02783E-04-1.73024E-14
 -1      1716 4.51415E-03-8.14622E-04-1.88568E-14
 -1      1717 4.87200E-03-8.19854E-04-2.03977E-14
 -1      1718 5.23867E-03-7.22890E-04-2.19625E-14
 -1      1719 5.61395E-03-5.54875E-04-2.34206E-14
 -1      1720 6.00265E-03-3.57113E-04-2.47390E-14
 -1      1721 6.37720E-03-1.72267E-04-2.58391E-14
 -1      1722 6.70596E-03-2.29241E-05-2.66865E-14
 -1      1723 6.93711E-03 8.10797E-05-2.72028E-14
 -1      1724 2.94721E-04-1.62873E-04-6.79253E-17
 -1      1725 3.39259E-04-8.89107E-05-2.32439E-16
 -1      1726 3.46081E-04-1.06012E-04-2.17139E-16
 -1      1727 3.54322E-04-1.26382E-04-1.98639E-16
 -1      1728 3.65527E-04-1.50314E-04-1.73052E-16
 -1      1729 4.73577E-04-1.53972E-04-3.14622E-16
 -1      1730 3.19628E-04-4.04980E-05-2.64112E-16
 -1      1731 3.23694E-04-5.01058E-05-2.59016E-16
 -1      1732 3.12803E-04-2.42394E-05-2.70454E-16
 -1      1733 3.15973E-04-3.18287E-05-2.67717E-16
 -1      1734 4.27014E-04-4.93298E-05-3.92251E-16
 -1      1735 3.08086E-04-1.14061E-05-2.73138E-16
 -1      1736 3.10161E-04-1.74595E-05-2.72175E-16
 -1      1737 4.17851E-04-2.86620E-05-3.99678E-16
 -1      1738 3.05790E-04-6.52787E-07-2.73205E-16
 -1      1739 3.06616E-04-5.84236E-06-2.73531E-16
 -1      1740 4.11852E-04-1.19366E-05-4.02564E-16
 -1      1741 3.06155E-04 9.44739E-06-2.70386E-16
 -1      1742 3.05630E-04 4.39916E-06-2.72270E-16
 -1      1743 4.09457E-04 2.57969E-06-4.01507E-16
 -1      1744 3.09246E-04 2.04134E-05-2.64572E-16
 -1      1745 3.07363E-04 1.47403E-05-2.67839E-16
 -1      1746 4.10959E-04 1.67388E-05-3.96371E-16
 -1      1747 3.14831E-04 3.35667E-05-2.55181E-16
 -1      1748 3.11735E-04 2.66217E-05-2.60520E-16
 -1      1749 4.16332E-04 3.23549E-05-3.86898E-16
 -1      1750 3.22888E-04 5.09826E-05-2.41194E-16
 -1      1751 3.18568E-04 4.16975E-05-2.49001E-16
 -1      1752 4.25366E-04 5.15253E-05-3.72451E-16
 -1      1753 3.33266E-04 7.43414E-05-2.20120E-16
 -1      1754 3.27773E-04 6.18514E-05-2.32046E-16
 -1      1755 4.37912E-04 7.65650E-05-3.50943E-16
 -1      1756 3.46630E-04 1.06311E-04-1.88028E-16
 -1      1757 3.39452E-04 8.91586E-05-2.06134E-16
 -1      1758 4.53951E-04 1.09811E-04-3.18837E-16
 -1      1759 3.66841E-04 1.52012E-04-1.38859E-16
 -1      1760 3.55501E-04 1.27228E-04-1.66466E-16
 -1      1761 4.75113E-04 1.54874E-04-2.70956E-16
 -1      1762 4.24443E-04 2.09282E-04-1.05371E-16
 -1      1763 3.94095E-04 1.77323E-04-1.27665E-16
 -1      1764 5.17274E-04 2.09189E-04-2.28347E-16
 -1      1765 5.82969E-04 2.68564E-04-1.94357E-16
 -1      1766 3.53539E-04-1.71302E-04-1.23396E-16
 -1      1767 8.96278E-04 3.55914E-04-5.05956E-16
 -1      1768 7.40145E-04 3.16446E-04-3.28798E-16
 -1      1769 7.04602E-04 2.85231E-04-3.50495E-16
 -1      1770 4.77982E-04-2.08343E-04-2.24010E-16
 -1      1771 8.44339E-04-3.27543E-04-6.06665E-16
 -1      1772 9.98777E-04-3.62090E-04-8.51316E-16
 -1      1773 1.15179E-03-3.91371E-04-1.14103E-15
 -1      1774 1.30470E-03-4.16224E-04-1.47657E-15
 -1      1775 1.05042E-03-3.39498E-04-1.05042E-15
 -1      1776 1.45748E-03-4.38326E-04-1.85702E-15
 -1      1777 1.61072E-03-4.58201E-04-2.28256E-15
 -1      1778 1.35546E-03-3.88943E-04-1.73078E-15
 -1      1779 1.76468E-03-4.77156E-04-2.75280E-15
 -1      1780 1.91950E-03-4.95738E-04-3.26732E-15
 -1      1781 1.66123E-03-4.28260E-04-2.58914E-15
 -1      1782 2.07550E-03-5.15045E-04-3.82574E-15
 -1      1783 2.23252E-03-5.35650E-04-4.42825E-15
 -1      1784 1.96976E-03-4.64685E-04-3.62347E-15
 -1      1785 2.39088E-03-5.58504E-04-5.07409E-15
 -1      1786 2.55014E-03-5.84146E-04-5.76411E-15
 -1      1787 2.28248E-03-5.04887E-04-4.83107E-15
 -1      1788 2.71065E-03-6.13300E-04-6.49792E-15
 -1      1789 2.87161E-03-6.46334E-04-7.27458E-15
 -1      1790 2.60013E-03-5.55009E-04-6.21203E-15
 -1      1791 3.03343E-03-6.83530E-04-8.09483E-15
 -1      1792 3.19495E-03-7.24849E-04-8.95758E-15
 -1      1793 2.92250E-03-6.20021E-04-7.76466E-15
 -1      1794 3.35657E-03-7.69834E-04-9.86331E-15
 -1      1795 3.51695E-03-8.17706E-04-1.08118E-14
 -1      1796 3.24812E-03-7.02171E-04-9.48868E-15
 -1      1797 3.67634E-03-8.67025E-04-1.18028E-14
 -1      1798 3.83366E-03-9.16062E-04-1.28370E-14
 -1      1799 3.57388E-03-7.98565E-04-1.13823E-14
 -1      1800 3.98886E-03-9.62445E-04-1.39148E-14
 -1      1801 4.14177E-03-1.00364E-03-1.50360E-14
 -1      1802 3.89545E-03-8.98728E-04-1.34472E-14
 -1      1803 4.29199E-03-1.03694E-03-1.61996E-14
 -1      1804 4.44072E-03-1.05992E-03-1.74077E-14
 -1      1805 4.20889E-03-9.84107E-04-1.56852E-14
 -1      1806 4.58737E-03-1.07060E-03-1.86612E-14
 -1      1807 4.73425E-03-1.06784E-03-1.99590E-14
 -1      1808 4.51365E-03-1.03241E-03-1.81003E-14
 -1      1809 4.88068E-03-1.05145E-03-2.12995E-14
 -1      1810 5.02915E-03-1.02220E-03-2.26842E-14
 -1      1811 4.81426E-03-1.02713E-03-2.06939E-14
 -1      1812 5.17900E-03-9.81756E-04-2.41131E-14
 -1      1813 5.33174E-03-9.32423E-04-2.55837E-14
 -1      1814 5.11818E-03-9.66562E-04-2.34637E-14
 -1      1815 5.48692E-03-8.76895E-04-2.70960E-14
 -1      1816 5.64468E-03-8.17811E-04-2.86490E-14
 -1      1817 5.43090E-03-8.64826E-04-2.64060E-14
 -1      1818 5.80484E-03-7.57765E-04-3.02424E-14
 -1      1819 5.96652E-03-6.98776E-04-3.18749E-14
 -1      1820 5.75299E-03-7.44199E-04-2.95128E-14
 -1      1821 6.12986E-03-6.42611E-04-3.35463E-14
 -1      1822 6.29358E-03-5.90317E-04-3.52560E-14
 -1      1823 6.08101E-03-6.25172E-04-3.27782E-14
 -1      1824 6.45800E-03-5.42685E-04-3.70037E-14
 -1      1825 6.62193E-03-4.99992E-04-3.87895E-14
 -1      1826 6.41043E-03-5.20792E-04-3.61970E-14
 -1      1827 6.78572E-03-4.62271E-04-4.06118E-14
 -1      1828 6.94849E-03-4.29342E-04-4.24695E-14
 -1      1829 6.73771E-03-4.36318E-04-3.97673E-14
 -1      1830 7.11052E-03-4.00802E-04-4.43618E-14
 -1      1831 7.27129E-03-3.76283E-04-4.62878E-14
 -1      1832 7.06082E-03-3.71589E-04-4.34796E-14
 -1      1833 7.43097E-03-3.55219E-04-4.82468E-14
 -1      1834 7.58932E-03-3.37209E-04-5.02380E-14
 -1      1835 7.37891E-03-3.23627E-04-4.73291E-14
 -1      1836 7.74645E-03-3.21693E-04-5.22610E-14
 -1      1837 7.90229E-03-3.08313E-04-5.43137E-14
 -1      1838 7.69190E-03-2.88522E-04-5.13073E-14
 -1      1839 8.05691E-03-2.96598E-04-5.63958E-14
 -1      1840 8.21036E-03-2.86256E-04-5.85045E-14
 -1      1841 8.00008E-03-2.62502E-04-5.54076E-14
 -1      1842 8.36266E-03-2.76930E-04-6.06429E-14
 -1      1843 8.51394E-03-2.68395E-04-6.28071E-14
 -1      1844 8.30394E-03-2.42404E-04-5.96214E-14
 -1      1845 8.66422E-03-2.60402E-04-6.49953E-14
 -1      1846 8.81363E-03-2.52786E-04-6.72089E-14
 -1      1847 8.60405E-03-2.25796E-04-6.39408E-14
 -1      1848 8.96218E-03-2.45386E-04-6.94463E-14
 -1      1849 9.11002E-03-2.38083E-04-7.17039E-14
 -1      1850 8.90096E-03-2.10926E-04-6.83607E-14
 -1      1851 9.25715E-03-2.30784E-04-7.39814E-14
 -1      1852 9.40371E-03-2.23408E-04-7.62787E-14
 -1      1853 9.19523E-03-1.96603E-04-7.28696E-14
 -1      1854 9.54970E-03-2.15908E-04-7.85937E-14
 -1      1855 9.69524E-03-2.08231E-04-8.09263E-14
 -1      1856 9.48736E-03-1.82068E-04-7.74559E-14
 -1      1857 9.84034E-03-2.00361E-04-8.32773E-14
 -1      1858 9.98509E-03-1.92267E-04-8.56427E-14
 -1      1859 9.77777E-03-1.66880E-04-8.21167E-14
 -1      1860 1.01295E-02-1.83951E-04-8.80235E-14
 -1      1861 1.02736E-02-1.75399E-04-9.04220E-14
 -1      1862 1.00668E-02-1.50817E-04-8.68435E-14
 -1      1863 1.04175E-02-1.66623E-04-9.28363E-14
 -1      1864 1.05612E-02-1.57617E-04-9.52672E-14
 -1      1865 1.03549E-02-1.33804E-04-9.16356E-14
 -1      1866 1.07048E-02-1.48401E-04-9.77113E-14
 -1      1867 1.08481E-02-1.38975E-04-1.00167E-13
 -1      1868 1.06422E-02-1.15859E-04-9.64922E-14
 -1      1869 1.09914E-02-1.29362E-04-1.02633E-13
 -1      1870 1.11345E-02-1.19564E-04-1.05108E-13
 -1      1871 1.09289E-02-9.70551E-05-1.01401E-13
 -1      1872 1.12776E-02-1.09604E-04-1.07594E-13
 -1      1873 1.14206E-02-9.94867E-05-1.10087E-13
 -1      1874 1.12152E-02-7.74921E-05-1.06351E-13
 -1      1875 1.15635E-02-8.92336E-05-1.12589E-13
 -1      1876 1.17064E-02-7.88507E-05-1.15097E-13
 -1      1877 1.15012E-02-5.72801E-05-1.11336E-13
 -1      1878 1.18492E-02-6.83560E-05-1.17614E-13
 -1      1879 1.19921E-02-5.77563E-05-1.20140E-13
 -1      1880 1.17871E-02-3.65277E-05-1.16353E-13
 -1      1881 1.21349E-02-4.70671E-05-1.22676E-13
 -1      1882 1.22776E-02-3.62948E-05-1.25221E-13
 -1      1883 1.20728E-02-1.53361E-05-1.21403E-13
 -1      1884 1.24204E-02-2.54524E-05-1.27778E-13
 -1      1885 1.25632E-02-1.45458E-05-1.30346E-13
 -1      1886 1.23584E-02 6.20492E-06-1.26494E-13
 -1      1887 1.27060E-02-3.58571E-06-1.32922E-13
 -1      1888 1.28488E-02 7.42269E-06-1.35506E-13
 -1      1889 1.26440E-02 2.80173E-05-1.31622E-13
 -1      1890 1.29915E-02 1.84706E-05-1.38097E-13
 -1      1891 1.31343E-02 2.95534E-05-1.40695E-13
 -1      1892 1.29296E-02 5.00350E-05-1.36786E-13
 -1      1893 1.32771E-02 4.06640E-05-1.43302E-13
 -1      1894 1.34199E-02 5.17983E-05-1.45912E-13
 -1      1895 1.32152E-02 7.22027E-05-1.41978E-13
 -1      1896 1.35627E-02 6.29506E-05-1.48526E-13
 -1      1897 1.37055E-02 7.41172E-05-1.51148E-13
 -1      1898 1.35009E-02 9.44741E-05-1.47195E-13
 -1      1899 1.38483E-02 8.52933E-05-1.53773E-13
 -1      1900 1.39911E-02 9.64757E-05-1.56404E-13
 -1      1901 1.37865E-02 1.16810E-04-1.52429E-13
 -1      1902 1.41340E-02 1.07660E-04-1.59043E-13
 -1      1903 1.42768E-02 1.18844E-04-1.61688E-13
 -1      1904 1.40722E-02 1.39179E-04-1.57689E-13
 -1      1905 1.44043E-02 1.27187E-04-1.64064E-13
 -1      1906 1.45472E-02 1.38362E-04-1.66718E-13
 -1      1907 1.45977E-02 1.75392E-04-1.67455E-13
 -1      1908 1.43425E-02 1.58712E-04-1.62698E-13
 -1      1909 1.20466E-03 4.15553E-04-9.88833E-16
 -1      1910 1.05053E-03 3.88383E-04-7.25467E-16
 -1      1911 1.01446E-03 3.57807E-04-7.49644E-16
 -1      1912 1.51306E-03 4.59375E-04-1.64665E-15
 -1      1913 1.35845E-03 4.38920E-04-1.29589E-15
 -1      1914 1.32233E-03 4.08914E-04-1.32007E-15
 -1      1915 1.82546E-03 4.96133E-04-2.47839E-15
 -1      1916 1.66851E-03 4.78201E-04-2.04081E-15
 -1      1917 1.63150E-03 4.48115E-04-2.06345E-15
 -1      1918 2.14438E-03 5.33674E-04-3.48361E-15
 -1      1919 1.98396E-03 5.14379E-04-2.95947E-15
 -1      1920 1.94495E-03 4.83510E-04-2.97960E-15
 -1      1921 2.47104E-03 5.79952E-04-4.65983E-15
 -1      1922 2.30672E-03 5.55290E-04-4.05013E-15
 -1      1923 2.26471E-03 5.22951E-04-4.06673E-15
 -1      1924 2.80533E-03 6.43102E-04-6.00773E-15
 -1      1925 2.63736E-03 6.09026E-04-5.31271E-15
 -1      1926 2.59186E-03 5.74579E-04-5.32423E-15
 -1      1927 3.14551E-03 7.30378E-04-7.52630E-15
 -1      1928 2.97500E-03 6.83503E-04-6.74523E-15
 -1      1929 2.92645E-03 6.46517E-04-6.75120E-15
 -1      1930 3.48792E-03 8.45399E-04-9.21875E-15
 -1      1931 3.31697E-03 7.84589E-04-8.35061E-15
 -1      1932 3.26703E-03 7.45200E-04-8.34905E-15
 -1      1933 3.82701E-03 9.83801E-04-1.10864E-14
 -1      1934 3.65855E-03 9.12523E-04-1.01306E-14
 -1      1935 3.61016E-03 8.71898E-04-1.01203E-14
 -1      1936 4.15648E-03 1.12872E-03-1.31363E-14
 -1      1937 3.99348E-03 1.05707E-03-1.20883E-14
 -1      1938 3.95015E-03 1.01765E-03-1.20694E-14
 -1      1939 4.47229E-03 1.25064E-03-1.53748E-14
 -1      1940 4.31605E-03 1.19450E-03-1.42310E-14
 -1      1941 4.28053E-03 1.15933E-03-1.42026E-14
 -1      1942 4.77672E-03 1.31700E-03-1.78059E-14
 -1      1943 4.62520E-03 1.29217E-03-1.65659E-14
 -1      1944 4.59831E-03 1.26299E-03-1.65261E-14
 -1      1945 5.07857E-03 1.30866E-03-2.04338E-14
 -1      1946 4.92667E-03 1.32196E-03-1.90957E-14
 -1      1947 4.90785E-03 1.29786E-03-1.90463E-14
 -1      1948 5.38929E-03 1.23249E-03-2.32490E-14
 -1      1949 5.23200E-03 1.27745E-03-2.18181E-14
 -1      1950 5.22007E-03 1.25526E-03-2.17582E-14
 -1      1951 5.71450E-03 1.11685E-03-2.62429E-14
 -1      1952 5.54989E-03 1.17753E-03-2.47238E-14
 -1      1953 5.54417E-03 1.15435E-03-2.46549E-14
 -1      1954 6.05303E-03 9.95100E-04-2.94044E-14
 -1      1955 5.88248E-03 1.05515E-03-2.78045E-14
 -1      1956 5.88142E-03 1.02975E-03-2.77256E-14
 -1      1957 6.39930E-03 8.91640E-04-3.27181E-14
 -1      1958 6.22579E-03 9.40354E-04-3.10424E-14
 -1      1959 6.22694E-03 9.12884E-04-3.09569E-14
 -1      1960 6.74706E-03 8.17527E-04-3.61785E-14
 -1      1961 6.57352E-03 8.50862E-04-3.44309E-14
 -1      1962 6.57417E-03 8.22000E-04-3.43365E-14
 -1      1963 7.09156E-03 7.73499E-04-3.97810E-14
 -1      1964 6.92009E-03 7.92043E-04-3.79622E-14
 -1      1965 6.91810E-03 7.62414E-04-3.78607E-14
 -1      1966 7.42991E-03 7.54933E-04-4.35156E-14
 -1      1967 7.26172E-03 7.61424E-04-4.16321E-14
 -1      1968 7.25596E-03 7.31460E-04-4.15217E-14
 -1      1969 7.76078E-03 7.55557E-04-4.73805E-14
 -1      1970 7.59636E-03 7.53208E-04-4.54330E-14
 -1      1971 7.58659E-03 7.23187E-04-4.53146E-14
 -1      1972 8.08393E-03 7.69474E-04-5.13689E-14
 -1      1973 7.92332E-03 7.61140E-04-4.93591E-14
 -1      1974 7.90987E-03 7.31243E-04-4.92321E-14
 -1      1975 8.39984E-03 7.91937E-04-5.54706E-14
 -1      1976 8.24274E-03 7.79845E-04-5.34050E-14
 -1      1977 8.22624E-03 7.50180E-04-5.32696E-14
 -1      1978 8.70932E-03 8.19445E-04-5.96912E-14
 -1      1979 8.55531E-03 8.05203E-04-5.75662E-14
 -1      1980 8.53643E-03 7.75828E-04-5.74228E-14
 -1      1981 9.01333E-03 8.49570E-04-6.40190E-14
 -1      1982 8.86193E-03 8.34273E-04-6.18423E-14
 -1      1983 8.84131E-03 8.05207E-04-6.16891E-14
 -1      1984 9.31284E-03 8.80708E-04-6.84468E-14
 -1      1985 9.16357E-03 8.65069E-04-6.62207E-14
 -1      1986 9.14173E-03 8.36307E-04-6.60595E-14
 -1      1987 9.60874E-03 9.11860E-04-7.29654E-14
 -1      1988 9.46118E-03 8.96315E-04-7.06953E-14
 -1      1989 9.43851E-03 8.67832E-04-7.05255E-14
 -1      1990 9.90181E-03 9.42439E-04-7.75696E-14
 -1      1991 9.75558E-03 9.27237E-04-7.52565E-14
 -1      1992 9.73240E-03 8.99002E-04-7.50809E-14
 -1      1993 1.01927E-02 9.72145E-04-8.22484E-14
 -1      1994 1.00475E-02 9.57407E-04-7.99006E-14
 -1      1995 1.00240E-02 9.29384E-04-7.97166E-14
 -1      1996 1.04820E-02 1.00086E-03-8.70049E-14
 -1      1997 1.03375E-02 9.86624E-04-8.46183E-14
 -1      1998 1.03139E-02 9.58778E-04-8.44282E-14
 -1      1999 1.07700E-02 1.02857E-03-9.18241E-14
 -1      2000 1.06261E-02 1.01483E-03-8.94047E-14
 -1      2001 1.06024E-02 9.87132E-04-8.92079E-14
 -1      2002 1.10571E-02 1.05535E-03-9.67178E-14
 -1      2003 1.09137E-02 1.04207E-03-9.42622E-14
 -1      2004 1.08900E-02 1.01448E-03-9.40582E-14
 -1      2005 1.13437E-02 1.08129E-03-1.01672E-13
 -1      2006 1.12005E-02 1.06842E-03-9.91883E-14
 -1      2007 1.11769E-02 1.04092E-03-9.89767E-14
 -1      2008 1.16298E-02 1.10650E-03-1.06674E-13
 -1      2009 1.14868E-02 1.09398E-03-1.04167E-13
 -1      2010 1.14633E-02 1.06656E-03-1.03948E-13
 -1      2011 1.19156E-02 1.13111E-03-1.11722E-13
 -1      2012 1.17727E-02 1.11888E-03-1.09195E-13
 -1      2013 1.17493E-02 1.09151E-03-1.08968E-13
 -1      2014 1.22013E-02 1.15522E-03-1.16797E-13
 -1      2015 1.20585E-02 1.14322E-03-1.14255E-13
 -1      2016 1.20351E-02 1.11589E-03-1.14023E-13
 -1      2017 1.24868E-02 1.17892E-03-1.21899E-13
 -1      2018 1.23441E-02 1.16711E-03-1.19346E-13
 -1      2019 1.23208E-02 1.13981E-03-1.19108E-13
 -1      2020 1.27724E-02 1.20230E-03-1.27013E-13
 -1      2021 1.26296E-02 1.19065E-03-1.24457E-13
 -1      2022 1.26064E-02 1.16336E-03-1.24215E-13
 -1      2023 1.30579E-02 1.22544E-03-1.32134E-13
 -1      2024 1.29151E-02 1.21390E-03-1.29573E-13
 -1      2025 1.28919E-02 1.18663E-03-1.29332E-13
 -1      2026 1.33434E-02 1.24840E-03-1.37259E-13
 -1      2027 1.32006E-02 1.23694E-03-1.34695E-13
 -1      2028 1.31775E-02 1.20968E-03-1.34452E-13
 -1      2029 1.36289E-02 1.27122E-03-1.42382E-13
 -1      2030 1.34862E-02 1.25982E-03-1.39823E-13
 -1      2031 1.34631E-02 1.23256E-03-1.39578E-13
 -1      2032 1.39145E-02 1.29395E-03-1.47498E-13
 -1      2033 1.37717E-02 1.28259E-03-1.44941E-13
 -1      2034 1.37486E-02 1.25534E-03-1.44697E-13
 -1      2035 1.42001E-02 1.31664E-03-1.52616E-13
 -1      2036 1.40573E-02 1.30530E-03-1.50056E-13
 -1      2037 1.40342E-02 1.27804E-03-1.49814E-13
 -1      2038 1.44858E-02 1.33930E-03-1.57743E-13
 -1      2039 1.43429E-02 1.32797E-03-1.55179E-13
 -1      2040 1.43199E-02 1.30071E-03-1.54937E-13
 -1      2041 1.47714E-02 1.36196E-03-1.62875E-13
 -1      2042 1.46286E-02 1.35063E-03-1.60310E-13
 -1      2043 1.46055E-02 1.32337E-03-1.60068E-13
 -1      2044 1.50055E-02 1.37763E-03-1.67109E-13
 -1      2045 1.48627E-02 1.36628E-03-1.64536E-13
 -1      2046 1.48397E-02 1.33901E-03-1.64296E-13
 -1      2047 1.50222E-02 1.34766E-03-1.67621E-13
 -1      2048 1.49281E-02 1.11024E-03-1.67489E-13
 -1      2049 1.49393E-02 1.15242E-03-1.67410E-13
 -1      2050 1.49505E-02 1.19459E-03-1.67331E-13
 -1      2051 1.49618E-02 1.23676E-03-1.67254E-13
 -1      2052 1.48212E-02 1.16369E-03-1.65145E-13
 -1      2053 1.49864E-02 1.27113E-03-1.67475E-13
 -1      2054 1.49976E-02 1.31329E-03-1.67398E-13
 -1      2055 1.49063E-02 1.30897E-03-1.65734E-13
 -1      2056 1.48571E-02 1.24023E-03-1.65289E-13
 -1      2057 1.49061E-02 1.02730E-03-1.67647E-13
 -1      2058 1.49171E-02 1.06877E-03-1.67566E-13
 -1      2059 1.47990E-02 1.08006E-03-1.65301E-13
 -1      2060 1.48838E-02 9.42908E-04-1.67808E-13
 -1      2061 1.48950E-02 9.85106E-04-1.67726E-13
 -1      2062 1.47768E-02 9.96408E-04-1.65455E-13
 -1      2063 1.48615E-02 8.58501E-04-1.67968E-13
 -1      2064 1.48726E-02 9.00706E-04-1.67890E-13
 -1      2065 1.47545E-02 9.12025E-04-1.65610E-13
 -1      2066 1.48393E-02 7.74085E-04-1.68133E-13
 -1      2067 1.48504E-02 8.16293E-04-1.68050E-13
 -1      2068 1.47322E-02 8.27631E-04-1.65767E-13
 -1      2069 1.48172E-02 6.89667E-04-1.68292E-13
 -1      2070 1.48283E-02 7.31876E-04-1.68212E-13
 -1      2071 1.47101E-02 7.43232E-04-1.65922E-13
 -1      2072 1.47952E-02 6.05255E-04-1.68441E-13
 -1      2073 1.48062E-02 6.47460E-04-1.68366E-13
 -1      2074 1.46880E-02 6.58833E-04-1.66069E-13
 -1      2075 1.47736E-02 5.22285E-04-1.68584E-13
 -1      2076 1.47844E-02 5.63768E-04-1.68514E-13
 -1      2077 1.46661E-02 5.75155E-04-1.66209E-13
 -1      2078 1.47517E-02 4.37902E-04-1.68722E-13
 -1      2079 1.47626E-02 4.80091E-04-1.68655E-13
 -1      2080 1.46444E-02 4.91488E-04-1.66344E-13
 -1      2081 1.47298E-02 3.53541E-04-1.68855E-13
 -1      2082 1.47407E-02 3.95718E-04-1.68788E-13
 -1      2083 1.46225E-02 4.07121E-04-1.66473E-13
 -1      2084 1.47079E-02 2.69203E-04-1.68976E-13
 -1      2085 1.47189E-02 3.11369E-04-1.68916E-13
 -1      2086 1.46006E-02 3.22773E-04-1.66592E-13
 -1      2087 6.64932E-03 3.26285E-04-2.69366E-14
 -1      2088 6.78306E-03 2.76158E-04-2.72962E-14
 -1      2089 7.03503E-03 1.68417E-04-2.82185E-14
 -1      2090 7.02881E-03 1.49955E-04-2.81657E-14
 -1      2091 6.89746E-03 2.32080E-04-2.76192E-14
 -1      2092 6.98196E-03 2.00382E-04-2.79462E-14
 -1      2093 6.84205E-03 2.38211E-04-2.81224E-14
 -1      2094 6.28566E-03 4.87056E-04-2.58586E-14
 -1      2095 6.46215E-03 4.03356E-04-2.64350E-14
 -1      2096 5.87341E-03 7.07788E-04-2.43414E-14
 -1      2097 6.06210E-03 6.00982E-04-2.50748E-14
 -1      2098 3.28249E-04-6.13159E-05-2.52551E-16
 -1      2099 3.33374E-04-7.40694E-05-2.43674E-16
 -1      2100 4.53875E-04-1.09420E-04-3.54236E-16
 -1      2101 4.38945E-04-7.55724E-05-3.78292E-16
 -1      2102 5.12999E-03 1.08231E-03-2.10362E-14
 -1      2103 5.29062E-03 1.01451E-03-2.18482E-14
 -1      2104 4.78245E-03 1.13914E-03-1.91566E-14
 -1      2105 4.93254E-03 1.13172E-03-1.99938E-14
 -1      2106 4.42275E-03 1.04720E-03-1.74262E-14
 -1      2107 4.58093E-03 1.10435E-03-1.81436E-14
 -1      2108 4.09047E-03 8.78790E-04-1.61231E-14
 -1      2109 4.25860E-03 9.73398E-04-1.67680E-14
 -1      2110 4.35936E-03 1.01482E-03-1.68819E-14
 -1      2111 3.65539E-03 6.36855E-04-1.48693E-14
 -1      2112 3.84636E-03 7.43511E-04-1.53562E-14
 -1      2113 3.27845E-03 4.32745E-04-1.39511E-14
 -1      2114 3.46490E-03 5.33977E-04-1.44057E-14
 -1      2115 3.58462E-03 5.67503E-04-1.42714E-14
 -1      2116 2.87976E-03 2.53096E-04-1.31863E-14
 -1      2117 3.04306E-03 3.16532E-04-1.34234E-14
 -1      2118 2.63628E-03 1.67275E-04-1.28659E-14
 -1      2119 2.74773E-03 2.05139E-04-1.30248E-14
 -1      2120 2.82151E-03 2.06343E-04-1.26394E-14
 -1      2121 2.49423E-03 1.08988E-04-1.26841E-14
 -1      2122 2.53844E-03 1.30389E-04-1.27747E-14
 -1      2123 2.53059E-03 6.16084E-05-1.28702E-14
 -1      2124 2.49133E-03 8.23288E-05-1.27368E-14
 -1      2125 2.71359E-03-7.22111E-06-1.32248E-14
 -1      2126 2.60968E-03 2.90120E-05-1.30261E-14
 -1      2127 3.01875E-03-1.23301E-04-1.37705E-14
 -1      2128 2.85251E-03-6.09072E-05-1.34933E-14
 -1      2129 2.78121E-03-1.42435E-05-1.29789E-14
 -1      2130 3.44455E-03-3.26885E-04-1.47857E-14
 -1      2131 3.25377E-03-2.27549E-04-1.42705E-14
 -1      2132 3.84632E-03-5.35235E-04-1.58626E-14
 -1      2133 3.64303E-03-4.27097E-04-1.52976E-14
 -1      2134 4.28100E-03-7.58003E-04-1.76306E-14
 -1      2135 4.10891E-03-6.73592E-04-1.68377E-14
 -1      2136 4.59298E-03-8.44672E-04-1.91091E-14
 -1      2137 4.44037E-03-8.11619E-04-1.83608E-14
 -1      2138 4.37439E-03-7.93482E-04-1.78729E-14
 -1      2139 4.94132E-03-8.22208E-04-2.08914E-14
 -1      2140 4.78899E-03-8.48842E-04-2.01012E-14
 -1      2141 5.27953E-03-6.93178E-04-2.25207E-14
 -1      2142 5.11859E-03-7.66742E-04-2.17400E-14
 -1      2143 5.66477E-03-4.90139E-04-2.41150E-14
 -1      2144 5.48661E-03-5.88523E-04-2.34271E-14
 -1      2145 6.03511E-03-2.77925E-04-2.55744E-14
 -1      2146 5.85469E-03-3.79293E-04-2.49250E-14
 -1      2147 6.43734E-03-8.90728E-05-2.66875E-14
 -1      2148 6.26072E-03-1.68882E-04-2.62199E-14
 -1      2149 6.75486E-03 4.03728E-05-2.75167E-14
 -1      2150 6.61170E-03-1.63063E-05-2.71208E-14
 -1      2151 6.97840E-03 1.21763E-04-2.80204E-14
 -1      2152 6.89383E-03 9.41221E-05-2.78905E-14
 -1      2153 5.50802E-03 9.09406E-04-2.28340E-14
 -1      2154 5.68875E-03 8.09952E-04-2.35803E-14
 -1      2155 5.77141E-03 7.44718E-04-2.44060E-14
 -1      2156 6.33957E-04-2.61094E-04-3.66176E-16
 -1      2157 5.40028E-03 9.57814E-04-2.26334E-14
 -1      2158 6.90911E-04-2.49415E-04-4.96524E-16
 -1      2159 7.02226E-03 1.78696E-04-2.87234E-14
 -1      2160 7.04589E-03 1.70932E-04-2.95084E-14
 -1      2161 6.99565E-03 1.85481E-04-2.92309E-14
 -1      2162 6.54972E-03 3.46386E-04-2.72826E-14
 -1      2163 1.46575E-02 2.32163E-04-1.68246E-13
 -1      2164 7.01233E-03 1.46042E-04-2.88542E-14
 -1      2165 6.15619E-03 5.30352E-04-2.59727E-14
 -1      2166 6.82744E-03 8.63915E-05-2.83255E-14
 -1      2167 6.51508E-03-2.82449E-05-2.75056E-14
 -1      2168 6.12988E-03-2.04226E-04-2.64069E-14
 -1      2169 5.73641E-03-4.22173E-04-2.49295E-14
 -1      2170 5.36239E-03-6.41325E-04-2.31953E-14
 -1      2171 4.68811E-03-8.59442E-04-1.95837E-14
 -1      2172 3.99445E-03-6.06416E-04-1.61741E-14
 -1      2173 3.88142E-03-5.38096E-04-1.55254E-14
 -1      2174 4.11449E-03-6.71707E-04-1.64830E-14
 -1      2175 3.14153E-03-1.56376E-04-1.37250E-14
 -1      2176 3.03526E-03-1.01257E-04-1.31937E-14
 -1      2177 3.25264E-03-1.98016E-04-1.36745E-14
 -1      2178 2.56562E-03 5.50939E-05-1.25675E-14
 -1      2179 2.58741E-03 1.35429E-04-1.23984E-14
 -1      2180 3.17030E-03 3.52523E-04-1.33011E-14
 -1      2181 3.99100E-03 8.07639E-04-1.54717E-14
 -1      2182 5.02920E-03 1.11767E-03-2.05889E-14
 -1      2183 4.68436E-03 1.13298E-03-1.85329E-14
 -1      2184 2.48231E-03 9.39578E-05-1.23637E-14
 -1      2185 3.55893E-03-3.62733E-04-1.47180E-14
 -1      2186 5.01395E-03-8.03575E-04-2.14308E-14
 -1      2187 1.06591E-03 3.34589E-04-9.45085E-16
 -1      2188 9.12586E-04 3.05380E-04-6.95055E-16
 -1      2189 5.23228E-04-3.08899E-05-5.68257E-16
 -1      2190 5.28376E-04-4.25164E-05-5.64856E-16
 -1      2191 5.34598E-04-5.54847E-05-5.60058E-16
 -1      2192 5.41717E-04-6.99504E-05-5.53146E-16
 -1      2193 6.41832E-04-5.89050E-05-7.61503E-16
 -1      2194 5.14281E-04 7.76565E-06-5.67458E-16
 -1      2195 5.14620E-04-1.22271E-06-5.69613E-16
 -1      2196 5.17592E-04 2.61542E-05-5.59001E-16
 -1      2197 5.15274E-04 1.68144E-05-5.64043E-16
 -1      2198 6.20250E-04 1.49724E-05-7.65203E-16
 -1      2199 5.25982E-04 4.66427E-05-5.45056E-16
 -1      2200 5.21183E-04 3.59739E-05-5.52875E-16
 -1      2201 6.26071E-04 3.75193E-05-7.52653E-16
 -1      2202 5.39413E-04 7.23167E-05-5.23480E-16
 -1      2203 5.32136E-04 5.87457E-05-5.35365E-16
 -1      2204 6.38449E-04 6.34761E-05-7.32379E-16
 -1      2205 5.57463E-04 1.05349E-04-4.91970E-16
 -1      2206 5.47919E-04 8.77845E-05-5.09385E-16
 -1      2207 6.57085E-04 9.57888E-05-7.02156E-16
 -1      2208 5.80395E-04 1.48586E-04-4.45661E-16
 -1      2209 5.68350E-04 1.25533E-04-4.71018E-16
 -1      2210 6.81499E-04 1.36956E-04-6.58192E-16
 -1      2211 1.37200E-03 3.80932E-04-1.57239E-15
 -1      2212 1.21882E-03 3.59606E-04-1.23709E-15
 -1      2213 1.11702E-03 3.11314E-04-1.15012E-15
 -1      2214 9.51825E-04-2.89135E-04-9.56551E-16
 -1      2215 1.10325E-03-3.16664E-04-1.25762E-15
 -1      2216 5.32513E-03 1.00508E-03-2.25277E-14
 -1      2217 5.50091E-03 9.02303E-04-2.35353E-14
 -1      2218 1.25453E-03-3.40562E-04-1.60246E-15
 -1      2219 1.40618E-03-3.61404E-04-1.99157E-15
 -1      2220 1.15573E-03-2.93602E-04-1.47315E-15
 -1      2221 1.55811E-03-3.80377E-04-2.42429E-15
 -1      2222 1.71065E-03-3.98041E-04-2.90090E-15
 -1      2223 1.45605E-03-3.33793E-04-2.25922E-15
 -1      2224 1.86399E-03-4.15467E-04-3.42073E-15
 -1      2225 2.01826E-03-4.33271E-04-3.98360E-15
 -1      2226 1.75867E-03-3.67695E-04-3.21799E-15
 -1      2227 2.17382E-03-4.52403E-04-4.58883E-15
 -1      2228 2.33057E-03-4.73549E-04-5.23701E-15
 -1      2229 2.06507E-03-4.01520E-04-4.34756E-15
 -1      2230 2.48900E-03-4.97503E-04-5.92751E-15
 -1      2231 2.64875E-03-5.24959E-04-6.66142E-15
 -1      2232 2.37709E-03-4.41537E-04-5.64582E-15
 -1      2233 2.81040E-03-5.56438E-04-7.43749E-15
 -1      2234 2.97320E-03-5.92449E-04-8.25570E-15
 -1      2235 2.69647E-03-4.93853E-04-7.11226E-15
 -1      2236 3.13773E-03-6.33017E-04-9.11646E-15
 -1      2237 3.30281E-03-6.78105E-04-1.00192E-14
 -1      2238 3.02420E-03-5.63604E-04-8.74733E-15
 -1      2239 3.46882E-03-7.26984E-04-1.09644E-14
 -1      2240 3.63424E-03-7.78415E-04-1.19522E-14
 -1      2241 3.35930E-03-6.53077E-04-1.05503E-14
 -1      2242 3.79905E-03-8.30747E-04-1.29827E-14
 -1      2243 3.96205E-03-8.81205E-04-1.40566E-14
 -1      2244 3.69759E-03-7.58205E-04-1.25217E-14
 -1      2245 4.12275E-03-9.27263E-04-1.51737E-14
 -1      2246 4.28114E-03-9.65011E-04-1.63350E-14
 -1      2247 4.03203E-03-8.64628E-04-1.46644E-14
 -1      2248 4.43653E-03-9.91862E-04-1.75408E-14
 -1      2249 4.59091E-03-1.00477E-03-1.87924E-14
 -1      2250 4.35616E-03-9.46651E-04-1.69837E-14
 -1      2251 4.74352E-03-1.00247E-03-2.00897E-14
 -1      2252 4.89753E-03-9.84554E-04-2.14300E-14
 -1      2253 4.67038E-03-9.75861E-04-1.94839E-14
 -1      2254 5.05219E-03-9.51896E-04-2.28150E-14
 -1      2255 5.20988E-03-9.07218E-04-2.42443E-14
 -1      2256 4.98350E-03-9.37782E-04-2.21663E-14
 -1      2257 5.36982E-03-8.52924E-04-2.57160E-14
 -1      2258 5.53253E-03-7.92961E-04-2.72294E-14
 -1      2259 5.30547E-03-8.42218E-04-2.50253E-14
 -1      2260 5.69742E-03-7.30019E-04-2.87838E-14
 -1      2261 5.86344E-03-6.67267E-04-3.03778E-14
 -1      2262 5.63877E-03-7.16220E-04-2.80545E-14
 -1      2263 6.03042E-03-6.06717E-04-3.20117E-14
 -1      2264 6.19689E-03-5.49943E-04-3.36834E-14
 -1      2265 5.97799E-03-5.87678E-04-3.12449E-14
 -1      2266 6.36312E-03-4.97988E-04-3.53927E-14
 -1      2267 6.52783E-03-4.51204E-04-3.71403E-14
 -1      2268 6.31563E-03-4.74251E-04-3.45892E-14
 -1      2269 6.69153E-03-4.09866E-04-3.89240E-14
 -1      2270 6.85339E-03-3.73642E-04-4.07449E-14
 -1      2271 6.64668E-03-3.82668E-04-3.80843E-14
 -1      2272 7.01392E-03-3.42327E-04-4.26017E-14
 -1      2273 7.17269E-03-3.15365E-04-4.44918E-14
 -1      2274 6.96942E-03-3.12746E-04-4.17243E-14
 -1      2275 7.33011E-03-2.92318E-04-4.64149E-14
 -1      2276 7.48600E-03-2.72634E-04-4.83702E-14
 -1      2277 7.28426E-03-2.61099E-04-4.55023E-14
 -1      2278 7.64065E-03-2.55816E-04-5.03561E-14
 -1      2279 7.79404E-03-2.41399E-04-5.23746E-14
 -1      2280 7.59250E-03-2.23476E-04-4.94094E-14
 -1      2281 7.94632E-03-2.28927E-04-5.44235E-14
 -1      2282 8.09760E-03-2.18044E-04-5.64998E-14
 -1      2283 7.89555E-03-1.95854E-04-5.34417E-14
 -1      2284 8.24793E-03-2.08374E-04-5.86036E-14
 -1      2285 8.39744E-03-1.99658E-04-6.07351E-14
 -1      2286 8.19459E-03-1.74871E-04-5.75900E-14
 -1      2287 8.54615E-03-1.91616E-04-6.28916E-14
 -1      2288 8.69420E-03-1.84063E-04-6.50724E-14
 -1      2289 8.49055E-03-1.57924E-04-6.18446E-14
 -1      2290 8.84159E-03-1.76806E-04-6.72786E-14
 -1      2291 8.98846E-03-1.69719E-04-6.95097E-14
 -1      2292 8.78413E-03-1.43104E-04-6.62022E-14
 -1      2293 9.13478E-03-1.62678E-04-7.17614E-14
 -1      2294 9.28067E-03-1.55600E-04-7.40320E-14
 -1      2295 9.07584E-03-1.29089E-04-7.06553E-14
 -1      2296 9.42613E-03-1.48413E-04-7.63224E-14
 -1      2297 9.57126E-03-1.41066E-04-7.86304E-14
 -1      2298 9.36610E-03-1.15015E-04-7.51918E-14
 -1      2299 9.71603E-03-1.33525E-04-8.09576E-14
 -1      2300 9.86055E-03-1.25759E-04-8.33043E-14
 -1      2301 9.65521E-03-1.00358E-04-7.98038E-14
 -1      2302 1.00048E-02-1.17761E-04-8.56656E-14
 -1      2303 1.01488E-02-1.09516E-04-8.80423E-14
 -1      2304 9.94342E-03-8.48395E-05-8.44878E-14
 -1      2305 1.02927E-02-1.01030E-04-9.04377E-14
 -1      2306 1.04364E-02-9.22988E-05-9.28488E-14
 -1      2307 1.02309E-02-6.83463E-05-8.92406E-14
 -1      2308 1.05799E-02-8.33382E-05-9.52767E-14
 -1      2309 1.07233E-02-7.41496E-05-9.77179E-14
 -1      2310 1.05179E-02-5.08744E-05-9.40609E-14
 -1      2311 1.08666E-02-6.47535E-05-1.00170E-13
 -1      2312 1.10098E-02-5.51549E-05-1.02633E-13
 -1      2313 1.08045E-02-3.24851E-05-9.89407E-14
 -1      2314 1.11529E-02-4.53754E-05-1.05108E-13
 -1      2315 1.12960E-02-3.54220E-05-1.07592E-13
 -1      2316 1.10908E-02-1.32752E-05-1.03866E-13
 -1      2317 1.14390E-02-2.53156E-05-1.10082E-13
 -1      2318 1.15820E-02-1.50638E-05-1.12583E-13
 -1      2319 1.13769E-02 6.64369E-06-1.08831E-13
 -1      2320 1.17249E-02-4.68579E-06-1.15092E-13
 -1      2321 1.18678E-02 5.81086E-06-1.17606E-13
 -1      2322 1.16628E-02 2.71580E-05-1.13830E-13
 -1      2323 1.20107E-02 1.64093E-05-1.20131E-13
 -1      2324 1.21536E-02 2.71024E-05-1.22667E-13
 -1      2325 1.19487E-02 4.81605E-05-1.18860E-13
 -1      2326 1.22964E-02 3.78757E-05-1.25210E-13
 -1      2327 1.24393E-02 4.87230E-05-1.27763E-13
 -1      2328 1.22344E-02 6.95543E-05-1.23928E-13
 -1      2329 1.25821E-02 5.96322E-05-1.30326E-13
 -1      2330 1.27249E-02 7.05976E-05-1.32898E-13
 -1      2331 1.25201E-02 9.12552E-05-1.29032E-13
 -1      2332 1.28677E-02 8.16093E-05-1.35479E-13
 -1      2333 1.30106E-02 9.26625E-05-1.38065E-13
 -1      2334 1.28058E-02 1.13191E-04-1.34173E-13
 -1      2335 1.31534E-02 1.03749E-04-1.40655E-13
 -1      2336 1.32962E-02 1.14865E-04-1.43256E-13
 -1      2337 1.30915E-02 1.35302E-04-1.39340E-13
 -1      2338 1.34390E-02 1.26003E-04-1.45864E-13
 -1      2339 1.35819E-02 1.37160E-04-1.48472E-13
 -1      2340 1.33772E-02 1.57537E-04-1.44532E-13
 -1      2341 1.37247E-02 1.48331E-04-1.51087E-13
 -1      2342 1.38675E-02 1.59512E-04-1.53708E-13
 -1      2343 1.36628E-02 1.79855E-04-1.49748E-13
 -1      2344 1.40104E-02 1.70698E-04-1.56335E-13
 -1      2345 1.41532E-02 1.81888E-04-1.58968E-13
 -1      2346 1.39485E-02 2.02220E-04-1.54986E-13
 -1      2347 6.79518E-03 2.44778E-04-2.87522E-14
 -1      2348 6.90142E-03 2.13889E-04-2.90872E-14
 -1      2349 1.99132E-03 4.51780E-04-3.33933E-15
 -1      2350 1.83490E-03 4.34472E-04-2.83360E-15
 -1      2351 2.30882E-03 4.91697E-04-4.47690E-15
 -1      2352 2.14927E-03 4.70581E-04-3.88693E-15
 -1      2353 2.03416E-03 4.20370E-04-3.70504E-15
 -1      2354 2.63378E-03 5.45392E-04-5.78374E-15
 -1      2355 2.47040E-03 5.16317E-04-5.10936E-15
 -1      2356 2.34903E-03 4.60588E-04-4.89333E-15
 -1      2357 2.96725E-03 6.21031E-04-7.25791E-15
 -1      2358 2.79965E-03 5.79971E-04-6.49971E-15
 -1      2359 2.67225E-03 5.15935E-04-6.24758E-15
 -1      2360 3.30903E-03 7.24994E-04-8.90232E-15
 -1      2361 3.13754E-03 6.69197E-04-8.05859E-15
 -1      2362 3.00605E-03 5.94770E-04-7.76821E-15
 -1      2363 3.65636E-03 8.57904E-04-1.07188E-14
 -1      2364 3.48268E-03 7.88105E-04-9.78871E-15
 -1      2365 3.35134E-03 7.03741E-04-9.45750E-15
 -1      2366 4.00312E-03 1.00898E-03-1.27139E-14
 -1      2367 3.83063E-03 9.32496E-04-1.16936E-14
 -1      2368 3.70550E-03 8.43421E-04-1.13187E-14
 -1      2369 4.34116E-03 1.15128E-03-1.48945E-14
 -1      2370 4.17370E-03 1.08374E-03-1.37808E-14
 -1      2371 4.06073E-03 1.00106E-03-1.33593E-14
 -1      2372 4.66617E-03 1.24583E-03-1.72686E-14
 -1      2373 4.50465E-03 1.20700E-03-1.60573E-14
 -1      2374 4.40620E-03 1.14398E-03-1.55875E-14
 -1      2375 4.98387E-03 1.26208E-03-1.98380E-14
 -1      2376 4.82410E-03 1.26516E-03-1.85286E-14
 -1      2377 4.73690E-03 1.22807E-03-1.80112E-14
 -1      2378 5.30737E-03 1.19611E-03-2.25983E-14
 -1      2379 5.14339E-03 1.23750E-03-2.11943E-14
 -1      2380 5.06330E-03 1.22027E-03-2.06303E-14
 -1      2381 5.64491E-03 1.07893E-03-2.55411E-14
 -1      2382 5.47436E-03 1.14138E-03-2.40478E-14
 -1      2383 5.39972E-03 1.12952E-03-2.34400E-14
 -1      2384 5.99305E-03 9.49422E-04-2.86553E-14
 -1      2385 5.81840E-03 1.01346E-03-2.70777E-14
 -1      2386 5.75120E-03 9.97614E-04-2.64303E-14
 -1      2387 6.34365E-03 8.37194E-04-3.19241E-14
 -1      2388 6.16889E-03 8.89978E-04-3.02709E-14
 -1      2389 6.10904E-03 8.66680E-04-2.95863E-14
 -1      2390 6.68994E-03 7.55746E-04-3.53421E-14
 -1      2391 6.51792E-03 7.92422E-04-3.36145E-14
 -1      2392 6.46269E-03 7.62250E-04-3.28951E-14
 -1      2393 7.02865E-03 7.06211E-04-3.89007E-14
 -1      2394 6.86053E-03 7.27241E-04-3.71044E-14
 -1      2395 6.80624E-03 6.91936E-04-3.63493E-14
 -1      2396 7.35906E-03 6.83818E-04-4.25938E-14
 -1      2397 7.19498E-03 6.92019E-04-4.07316E-14
 -1      2398 7.13860E-03 6.52995E-04-3.99419E-14
 -1      2399 7.68169E-03 6.82009E-04-4.64182E-14
 -1      2400 7.52133E-03 6.80730E-04-4.44900E-14
 -1      2401 7.46112E-03 6.39049E-04-4.36681E-14
 -1      2402 7.99746E-03 6.94582E-04-5.03653E-14
 -1      2403 7.84037E-03 6.86821E-04-4.83762E-14
 -1      2404 7.77576E-03 6.43304E-04-4.75228E-14
 -1      2405 8.30732E-03 7.16502E-04-5.44269E-14
 -1      2406 8.15305E-03 7.04620E-04-5.23813E-14
 -1      2407 8.08423E-03 6.59930E-04-5.14956E-14
 -1      2408 8.61218E-03 7.44015E-04-5.86079E-14
 -1      2409 8.46029E-03 7.29737E-04-5.65045E-14
 -1      2410 8.38788E-03 6.84394E-04-5.55871E-14
 -1      2411 8.91285E-03 7.74488E-04-6.28976E-14
 -1      2412 8.76296E-03 7.59005E-04-6.07400E-14
 -1      2413 8.68766E-03 7.13397E-04-5.97925E-14
 -1      2414 9.21007E-03 8.06164E-04-6.72881E-14
 -1      2415 9.06183E-03 7.90257E-04-6.50803E-14
 -1      2416 8.98434E-03 7.44656E-04-6.41050E-14
 -1      2417 9.50449E-03 8.37932E-04-7.17760E-14
 -1      2418 9.35758E-03 8.22089E-04-6.95207E-14
 -1      2419 9.27850E-03 7.76667E-04-6.85178E-14
 -1      2420 9.79667E-03 8.69137E-04-7.63465E-14
 -1      2421 9.65082E-03 8.53637E-04-7.40505E-14
 -1      2422 9.57064E-03 8.08492E-04-7.30237E-14
 -1      2423 1.00871E-02 8.99432E-04-8.09973E-14
 -1      2424 9.94207E-03 8.84416E-04-7.86621E-14
 -1      2425 9.86116E-03 8.39591E-04-7.76108E-14
 -1      2426 1.03762E-02 9.28673E-04-8.57244E-14
 -1      2427 1.02318E-02 9.14192E-04-8.33507E-14
 -1      2428 1.01504E-02 8.69693E-04-8.22779E-14
 -1      2429 1.06642E-02 9.56846E-04-9.05170E-14
 -1      2430 1.05203E-02 9.42895E-04-8.81127E-14
 -1      2431 1.04387E-02 8.98705E-04-8.70174E-14
 -1      2432 1.09514E-02 9.84011E-04-9.53804E-14
 -1      2433 1.08079E-02 9.70552E-04-9.29400E-14
 -1      2434 1.07261E-02 9.26642E-04-9.18250E-14
 -1      2435 1.12381E-02 1.01027E-03-1.00308E-13
 -1      2436 1.10949E-02 9.97250E-04-9.78377E-14
 -1      2437 1.10131E-02 9.53582E-04-9.67012E-14
 -1      2438 1.15244E-02 1.03574E-03-1.05285E-13
 -1      2439 1.13813E-02 1.02310E-03-1.02790E-13
 -1      2440 1.12996E-02 9.79639E-04-1.01636E-13
 -1      2441 1.18105E-02 1.06055E-03-1.10311E-13
 -1      2442 1.16675E-02 1.04823E-03-1.07791E-13
 -1      2443 1.15857E-02 1.00494E-03-1.06622E-13
 -1      2444 1.20963E-02 1.08482E-03-1.15368E-13
 -1      2445 1.19534E-02 1.07275E-03-1.12836E-13
 -1      2446 1.18717E-02 1.02960E-03-1.11649E-13
 -1      2447 1.23820E-02 1.10864E-03-1.20455E-13
 -1      2448 1.22392E-02 1.09678E-03-1.17908E-13
 -1      2449 1.21576E-02 1.05374E-03-1.16712E-13
 -1      2450 1.26677E-02 1.13211E-03-1.25561E-13
 -1      2451 1.25248E-02 1.12042E-03-1.23005E-13
 -1      2452 1.24433E-02 1.07746E-03-1.21800E-13
 -1      2453 1.29533E-02 1.15532E-03-1.30678E-13
 -1      2454 1.28105E-02 1.14375E-03-1.28119E-13
 -1      2455 1.27290E-02 1.10085E-03-1.26906E-13
 -1      2456 1.32389E-02 1.17832E-03-1.35797E-13
 -1      2457 1.30961E-02 1.16684E-03-1.33236E-13
 -1      2458 1.30147E-02 1.12399E-03-1.32021E-13
 -1      2459 1.35245E-02 1.20117E-03-1.40921E-13
 -1      2460 1.33817E-02 1.18976E-03-1.38360E-13
 -1      2461 1.33003E-02 1.14694E-03-1.37142E-13
 -1      2462 1.38101E-02 1.22392E-03-1.46041E-13
 -1      2463 1.36673E-02 1.21255E-03-1.43482E-13
 -1      2464 1.35860E-02 1.16976E-03-1.42263E-13
 -1      2465 1.40958E-02 1.24660E-03-1.51163E-13
 -1      2466 1.39529E-02 1.23527E-03-1.48602E-13
 -1      2467 1.38716E-02 1.19249E-03-1.47388E-13
 -1      2468 1.43814E-02 1.26926E-03-1.56289E-13
 -1      2469 1.42386E-02 1.25794E-03-1.53724E-13
 -1      2470 1.41573E-02 1.21516E-03-1.52511E-13
 -1      2471 1.46671E-02 1.29191E-03-1.61420E-13
 -1      2472 1.45243E-02 1.28059E-03-1.58854E-13
 -1      2473 1.44430E-02 1.23781E-03-1.57638E-13
 -1      2474 1.48150E-02 1.30465E-03-1.64073E-13
 -1      2475 1.46475E-02 9.65526E-04-1.63262E-13
 -1      2476 1.46587E-02 1.00771E-03-1.63186E-13
 -1      2477 1.46252E-02 8.81153E-04-1.63411E-13
 -1      2478 1.46363E-02 9.23340E-04-1.63336E-13
 -1      2479 1.45182E-02 9.34652E-04-1.61068E-13
 -1      2480 1.46919E-02 1.13280E-03-1.62958E-13
 -1      2481 1.47031E-02 1.17497E-03-1.62880E-13
 -1      2482 1.46698E-02 1.04953E-03-1.63107E-13
 -1      2483 1.46808E-02 1.09099E-03-1.63031E-13
 -1      2484 1.45627E-02 1.10227E-03-1.60767E-13
 -1      2485 1.45404E-02 1.01865E-03-1.60917E-13
 -1      2486 1.46029E-02 7.96772E-04-1.63562E-13
 -1      2487 1.46141E-02 8.38963E-04-1.63488E-13
 -1      2488 1.44959E-02 8.50290E-04-1.61212E-13
 -1      2489 1.45808E-02 7.12388E-04-1.63707E-13
 -1      2490 1.45919E-02 7.54580E-04-1.63635E-13
 -1      2491 1.44737E-02 7.65921E-04-1.61355E-13
 -1      2492 1.45587E-02 6.28005E-04-1.63845E-13
 -1      2493 1.45697E-02 6.70196E-04-1.63777E-13
 -1      2494 1.44515E-02 6.81551E-04-1.61489E-13
 -1      2495 1.45371E-02 5.45058E-04-1.63974E-13
 -1      2496 1.45479E-02 5.86531E-04-1.63911E-13
 -1      2497 1.44297E-02 5.97898E-04-1.61617E-13
 -1      2498 1.45152E-02 4.60691E-04-1.64100E-13
 -1      2499 1.45261E-02 5.02873E-04-1.64039E-13
 -1      2500 1.44079E-02 5.14250E-04-1.61739E-13
 -1      2501 1.44933E-02 3.76339E-04-1.64219E-13
 -1      2502 1.45042E-02 4.18513E-04-1.64160E-13
 -1      2503 1.43859E-02 4.29897E-04-1.61855E-13
 -1      2504 1.44714E-02 2.92003E-04-1.64329E-13
 -1      2505 1.44823E-02 3.34168E-04-1.64275E-13
 -1      2506 1.43641E-02 3.45557E-04-1.61965E-13
 -1      2507 1.45299E-02 2.23826E-04-1.65865E-13
 -1      2508 7.03952E-03 1.56761E-04-2.96854E-14
 -1      2509 6.99047E-03 1.45172E-04-2.95357E-14
 -1      2510 1.67971E-03 4.17444E-04-2.37038E-15
 -1      2511 1.52547E-03 4.00021E-04-1.94977E-15
 -1      2512 1.72528E-03 3.87088E-04-2.68474E-15
 -1      2513 6.48025E-03 3.64795E-04-2.78360E-14
 -1      2514 6.64737E-03 2.97532E-04-2.83569E-14
 -1      2515 6.89084E-03 1.18400E-04-2.94065E-14
 -1      2516 6.75926E-03 8.09506E-05-2.90201E-14
 -1      2517 6.09075E-04-1.96435E-04-4.59282E-16
 -1      2518 8.10805E-04-2.53401E-04-7.29776E-16
 -1      2519 8.67081E-04-2.37554E-04-8.92935E-16
 -1      2520 5.94846E-04-1.67445E-04-4.88596E-16
 -1      2521 6.05892E-03 5.74669E-04-2.61968E-14
 -1      2522 6.25703E-03 4.69655E-04-2.70037E-14
 -1      2523 2.59567E-03 5.20331E-05-1.21291E-14
 -1      2524 2.52133E-03 6.90042E-05-1.19827E-14
 -1      2525 4.99073E-03 1.13803E-03-2.03837E-14
 -1      2526 5.15043E-03 1.08474E-03-2.14409E-14
 -1      2527 5.26941E-03 1.04353E-03-2.23090E-14
 -1      2528 5.16268E-04-1.04997E-05-5.70602E-16
 -1      2529 5.19145E-04-2.02780E-05-5.70128E-16
 -1      2530 6.28601E-04-3.08329E-05-7.69973E-16
 -1      2531 6.21174E-04-7.00741E-06-7.71017E-16
 -1      2532 4.59686E-03 1.11731E-03-1.78394E-14
 -1      2533 4.75627E-03 1.15316E-03-1.88408E-14
 -1      2534 2.47419E-03 8.55303E-05-1.18694E-14
 -1      2535 2.47591E-03 9.41342E-05-1.18184E-14
 -1      2536 4.34412E-03 1.00548E-03-1.65272E-14
 -1      2537 4.47325E-03 1.07233E-03-1.71767E-14
 -1      2538 4.55920E-03 1.11131E-03-1.74650E-14
 -1      2539 3.89096E-03 7.34492E-04-1.47133E-14
 -1      2540 4.09654E-03 8.64637E-04-1.54529E-14
 -1      2541 3.50581E-03 5.06619E-04-1.35486E-14
 -1      2542 3.67025E-03 6.02127E-04-1.39879E-14
 -1      2543 3.07049E-03 2.91336E-04-1.25384E-14
 -1      2544 3.28612E-03 3.91687E-04-1.30378E-14
 -1      2545 3.36825E-03 4.38484E-04-1.27637E-14
 -1      2546 2.74702E-03 1.71280E-04-1.20974E-14
 -1      2547 2.86594E-03 2.09994E-04-1.22453E-14
 -1      2548 3.63670E-03-3.98773E-04-1.45695E-14
 -1      2549 3.46494E-03-3.03360E-04-1.40789E-14
 -1      2550 2.53327E-03 1.13376E-04-1.19110E-14
 -1      2551 2.62562E-03 1.34901E-04-1.19933E-14
 -1      2552 2.84069E-03-2.36899E-05-1.26133E-14
 -1      2553 2.71298E-03 1.68493E-05-1.23609E-14
 -1      2554 5.08666E-03-7.76142E-04-2.20787E-14
 -1      2555 4.94671E-03-8.31368E-04-2.12218E-14
 -1      2556 4.44796E-03-8.26107E-04-1.81327E-14
 -1      2557 4.32018E-03-7.74464E-04-1.74111E-14
 -1      2558 4.76512E-03-8.66422E-04-2.00820E-14
 -1      2559 4.60954E-03-8.62090E-04-1.90914E-14
 -1      2560 5.42625E-03-5.93742E-04-2.38994E-14
 -1      2561 5.25143E-03-6.96046E-04-2.29806E-14
 -1      2562 5.16933E-03-7.38875E-04-2.27589E-14
 -1      2563 5.78855E-03-3.73907E-04-2.57613E-14
 -1      2564 5.61911E-03-4.78039E-04-2.49353E-14
 -1      2565 6.23389E-03-1.32991E-04-2.74577E-14
 -1      2566 6.03456E-03-2.35623E-04-2.67901E-14
 -1      2567 6.59678E-03 2.30318E-05-2.85532E-14
 -1      2568 6.43800E-03-3.97710E-05-2.81035E-14
 -1      2569 5.69129E-03 7.89342E-04-2.44596E-14
 -1      2570 5.84997E-03 6.92503E-04-2.52398E-14
 -1      2571 5.97751E-03 6.28981E-04-2.62495E-14
 -1      2572 5.60182E-03 8.54613E-04-2.43466E-14
 -1      2573 7.92419E-04 2.82900E-04-5.16717E-16
 -1      2574 6.38310E-04 2.42318E-04-3.43272E-16
 -1      2575 6.08574E-04 2.15342E-04-3.54209E-16
 -1      2576 8.46940E-04 2.65899E-04-6.70606E-16
 -1      2577 4.79341E-03 1.16865E-03-1.89172E-14
 -1      2578 4.88470E-03 1.16284E-03-1.96461E-14
 -1      2579 5.00296E-03 1.15121E-03-2.04684E-14
 -1      2580 6.60032E-04-9.33261E-05-7.43980E-16
 -1      2581 5.49784E-04-8.61910E-05-5.43890E-16
 -1      2582 5.58687E-04-1.04437E-04-5.31855E-16
 -1      2583 1.42020E-03 3.53137E-04-1.83299E-15
 -1      2584 5.91550E-04 1.83680E-04-3.93213E-16
 -1      2585 7.06542E-03 1.72177E-04-3.06994E-14
 -1      2586 7.05933E-03 1.66326E-04-3.01907E-14
 -1      2587 7.06216E-03 1.64214E-04-3.08779E-14
 -1      2588 6.34724E-03-7.88971E-05-2.84937E-14
 -1      2589 5.50611E-03-5.46529E-04-2.47072E-14
 -1      2590 6.96979E-03 1.97138E-04-2.98684E-14
 -1      2591 6.95057E-03 1.35915E-04-3.02372E-14
 -1      2592 6.73759E-03 2.68956E-04-2.93172E-14
 -1      2593 1.47337E-02 1.26186E-03-1.62855E-13
 -1      2594 1.47091E-02 1.22750E-03-1.62634E-13
 -1      2595 4.85251E-03-8.57106E-04-2.07021E-14
 -1      2596 1.43771E-02 1.96964E-04-1.63122E-13
 -1      2597 1.44369E-02 2.53741E-04-1.63911E-13
 -1      2598 1.43186E-02 2.65129E-04-1.61598E-13
 -1      2599 1.42495E-02 1.88616E-04-1.60753E-13
 -1      2600 4.53697E-03-8.54380E-04-1.86058E-14
 -1      2601 7.09926E-04 1.99221E-04-5.69545E-16
 -1      2602 6.38821E-03 4.14204E-04-2.80658E-14
 -1      2603 2.93396E-03-6.09620E-05-1.25605E-14
 -1      2604 6.69661E-03 6.18984E-05-2.96267E-14
 -1      2605 2.48400E-03 9.78340E-05-1.14194E-14
 -1      2606 2.63572E-03 3.60978E-05-1.17721E-14
 -1      2607 2.47669E-03 7.65212E-05-1.14385E-14
 -1      2608 3.76871E-03-4.74855E-04-1.48572E-14
 -1      2609 3.65607E-03-4.21825E-04-1.42061E-14
 -1      2610 3.88288E-03-5.49493E-04-1.51474E-14
 -1      2611 2.96640E-03 2.50870E-04-1.19899E-14
 -1      2612 4.22218E-03 9.44443E-04-1.57267E-14
 -1      2613 4.20541E-03-7.24058E-04-1.67300E-14
 -1      2614 4.09217E-03-6.68461E-04-1.60647E-14
 -1      2615 4.27538E-03-7.67483E-04-1.69740E-14
 -1      2616 3.33772E-03-2.41662E-04-1.35322E-14
 -1      2617 5.82362E-04-1.42092E-04-5.11960E-16
 -1      2618 3.78050E-03 6.73865E-04-1.39647E-14
 -1      2619 2.65908E-03 1.43582E-04-1.16088E-14
 -1      2620 5.91988E-03-3.00545E-04-2.67903E-14
 -1      2621 1.45798E-02 1.19661E-03-1.60450E-13
 -1      2622 1.41877E-02 2.20141E-04-1.59392E-13
 -1      2623 7.36711E-04 5.08584E-05-9.75768E-16
 -1      2624 7.31145E-04 3.71626E-05-9.85892E-16
 -1      2625 7.27532E-04 2.39766E-05-9.93698E-16
 -1      2626 7.26065E-04 1.11819E-05-9.99458E-16
 -1      2627 8.36239E-04 3.47432E-05-1.25200E-15
 -1      2628 7.78637E-04 1.21303E-04-9.06678E-16
 -1      2629 7.65477E-04 1.00729E-04-9.29066E-16
 -1      2630 8.10122E-04 1.70335E-04-8.48605E-16
 -1      2631 7.93629E-04 1.44401E-04-8.80345E-16
 -1      2632 9.04150E-04 1.48620E-04-1.13665E-15
 -1      2633 1.16773E-03 2.88236E-04-1.36500E-15
 -1      2634 1.01846E-03 2.65361E-04-1.05890E-15
 -1      2635 6.32086E-03 4.63300E-04-2.84424E-14
 -1      2636 6.51669E-03 3.71133E-04-2.92997E-14
 -1      2637 1.46698E-03 3.25652E-04-2.10230E-15
 -1      2638 1.31707E-03 3.08148E-04-1.71259E-15
 -1      2639 1.21699E-03 2.65264E-04-1.58986E-15
 -1      2640 8.25930E-04 2.19619E-04-7.52111E-16
 -1      2641 1.35612E-03-2.89171E-04-2.09407E-15
 -1      2642 1.50508E-03-3.06037E-04-2.53378E-15
 -1      2643 1.65471E-03-3.21790E-04-3.01572E-15
 -1      2644 1.80527E-03-3.37021E-04-3.54049E-15
 -1      2645 1.55275E-03-2.78085E-04-2.81481E-15
 -1      2646 1.95698E-03-3.52539E-04-4.10730E-15
 -1      2647 2.11006E-03-3.69072E-04-4.71575E-15
 -1      2648 1.85019E-03-3.05947E-04-3.86832E-15
 -1      2649 2.26492E-03-3.87353E-04-5.36607E-15
 -1      2650 2.42167E-03-4.08281E-04-6.05751E-15
 -1      2651 2.15311E-03-3.35774E-04-5.08830E-15
 -1      2652 2.58094E-03-4.32447E-04-6.79064E-15
 -1      2653 2.74256E-03-4.60883E-04-7.56558E-15
 -1      2654 2.46431E-03-3.73564E-04-6.47212E-15
 -1      2655 2.90728E-03-4.93954E-04-8.38193E-15
 -1      2656 3.07438E-03-5.32534E-04-9.23972E-15
 -1      2657 2.78705E-03-4.25920E-04-8.01998E-15
 -1      2658 3.24454E-03-5.76535E-04-1.01390E-14
 -1      2659 3.41628E-03-6.26110E-04-1.10802E-14
 -1      2660 3.12377E-03-4.99464E-04-9.73252E-15
 -1      2661 3.58982E-03-6.80476E-04-1.20634E-14
 -1      2662 3.76298E-03-7.37548E-04-1.30897E-14
 -1      2663 3.47358E-03-5.98520E-04-1.16103E-14
 -1      2664 3.93551E-03-7.95362E-04-1.41595E-14
 -1      2665 4.10528E-03-8.49505E-04-1.52717E-14
 -1      2666 3.82968E-03-7.18306E-04-1.36569E-14
 -1      2667 4.27171E-03-8.96659E-04-1.64293E-14
 -1      2668 4.43492E-03-9.30454E-04-1.76317E-14
 -1      2669 4.17982E-03-8.37767E-04-1.58770E-14
 -1      2670 4.59381E-03-9.48440E-04-1.88808E-14
 -1      2671 4.75307E-03-9.46988E-04-2.01764E-14
 -1      2672 4.51418E-03-9.16290E-04-1.82796E-14
 -1      2673 4.91135E-03-9.25733E-04-2.15184E-14
 -1      2674 5.07331E-03-8.87036E-04-2.29040E-14
 -1      2675 4.83824E-03-9.14566E-04-2.08688E-14
 -1      2676 5.23763E-03-8.33449E-04-2.43348E-14
 -1      2677 5.40612E-03-7.70882E-04-2.58090E-14
 -1      2678 5.16898E-03-8.28287E-04-2.36435E-14
 -1      2679 5.57775E-03-7.02451E-04-2.73242E-14
 -1      2680 5.75084E-03-6.33792E-04-2.88811E-14
 -1      2681 5.51565E-03-6.91015E-04-2.65948E-14
 -1      2682 5.92494E-03-5.67207E-04-3.04781E-14
 -1      2683 6.09762E-03-5.05085E-04-3.21135E-14
 -1      2684 5.87157E-03-5.46506E-04-2.97115E-14
 -1      2685 6.26914E-03-4.48568E-04-3.37863E-14
 -1      2686 6.43771E-03-3.98058E-04-3.54973E-14
 -1      2687 6.22360E-03-4.21342E-04-3.29844E-14
 -1      2688 6.60399E-03-3.53874E-04-3.72451E-14
 -1      2689 6.76707E-03-3.15297E-04-3.90285E-14
 -1      2690 6.56332E-03-3.23323E-04-3.64076E-14
 -1      2691 6.92772E-03-2.82242E-04-4.08494E-14
 -1      2692 7.08564E-03-2.53775E-04-4.27051E-14
 -1      2693 6.88871E-03-2.50503E-04-3.99772E-14
 -1      2694 7.24147E-03-2.29604E-04-4.45930E-14
 -1      2695 7.39523E-03-2.08915E-04-4.65127E-14
 -1      2696 7.20163E-03-1.97559E-04-4.36853E-14
 -1      2697 7.54739E-03-1.91332E-04-4.84658E-14
 -1      2698 7.69809E-03-1.76238E-04-5.04490E-14
 -1      2699 7.50523E-03-1.59204E-04-4.75235E-14
 -1      2700 7.84760E-03-1.63254E-04-5.24633E-14
 -1      2701 7.99612E-03-1.51940E-04-5.45070E-14
 -1      2702 7.80243E-03-1.31036E-04-5.14889E-14
 -1      2703 8.14378E-03-1.41962E-04-5.65790E-14
 -1      2704 8.29076E-03-1.33018E-04-5.86776E-14
 -1      2705 8.09546E-03-1.09622E-04-5.55705E-14
 -1      2706 8.43713E-03-1.24837E-04-6.08027E-14
 -1      2707 8.58304E-03-1.17217E-04-6.29530E-14
 -1      2708 8.38588E-03-9.23752E-05-5.97636E-14
 -1      2709 8.72849E-03-1.09956E-04-6.51300E-14
 -1      2710 8.87361E-03-1.02922E-04-6.73298E-14
 -1      2711 8.67468E-03-7.74091E-05-6.40609E-14
 -1      2712 9.01840E-03-9.59753E-05-6.95529E-14
 -1      2713 9.16295E-03-8.90327E-05-7.17993E-14
 -1      2714 8.96246E-03-6.33956E-05-6.84553E-14
 -1      2715 9.30725E-03-8.20048E-05-7.40657E-14
 -1      2716 9.45138E-03-7.48428E-05-7.63499E-14
 -1      2717 9.24962E-03-4.94442E-05-7.29414E-14
 -1      2718 9.59531E-03-6.74961E-05-7.86533E-14
 -1      2719 9.73911E-03-5.99387E-05-8.09755E-14
 -1      2720 9.53636E-03-3.49973E-05-7.75063E-14
 -1      2721 9.88275E-03-5.21481E-05-8.33144E-14
 -1      2722 1.00263E-02-4.41137E-05-8.56714E-14
 -1      2723 9.82282E-03-1.97409E-05-8.21441E-14
 -1      2724 1.01697E-02-3.58317E-05-8.80469E-14
 -1      2725 1.03131E-02-2.73013E-05-9.04387E-14
 -1      2726 1.01091E-02-3.53292E-06-8.68547E-14
 -1      2727 1.04564E-02-1.85307E-05-9.28480E-14
 -1      2728 1.05996E-02-9.52483E-06-9.52732E-14
 -1      2729 1.03952E-02 1.36537E-05-9.16366E-14
 -1      2730 1.07427E-02-2.98798E-07-9.77113E-14
 -1      2731 1.08858E-02 9.13946E-06-1.00161E-13
 -1      2732 1.06812E-02 3.17735E-05-9.64819E-14
 -1      2733 1.10289E-02 1.87716E-05-1.02624E-13
 -1      2734 1.11719E-02 2.85882E-05-1.05098E-13
 -1      2735 1.09672E-02 5.07392E-05-1.01383E-13
 -1      2736 1.13149E-02 3.85702E-05-1.07579E-13
 -1      2737 1.14579E-02 4.87082E-05-1.10070E-13
 -1      2738 1.12531E-02 7.04442E-05-1.06327E-13
 -1      2739 1.16008E-02 5.89837E-05-1.12568E-13
 -1      2740 1.17438E-02 6.93877E-05-1.15074E-13
 -1      2741 1.15389E-02 9.07762E-05-1.11308E-13
 -1      2742 1.18867E-02 7.99035E-05-1.17590E-13
 -1      2743 1.20296E-02 9.05229E-05-1.20115E-13
 -1      2744 1.18247E-02 1.11627E-04-1.16320E-13
 -1      2745 1.21724E-02 1.01231E-04-1.22648E-13
 -1      2746 1.23153E-02 1.12021E-04-1.25189E-13
 -1      2747 1.21105E-02 1.32898E-04-1.21368E-13
 -1      2748 1.24582E-02 1.22880E-04-1.27740E-13
 -1      2749 1.26010E-02 1.33802E-04-1.30300E-13
 -1      2750 1.23962E-02 1.54501E-04-1.26448E-13
 -1      2751 1.27439E-02 1.44777E-04-1.32867E-13
 -1      2752 1.28868E-02 1.55799E-04-1.35443E-13
 -1      2753 1.26820E-02 1.76363E-04-1.31565E-13
 -1      2754 1.30296E-02 1.66859E-04-1.38025E-13
 -1      2755 1.31725E-02 1.77953E-04-1.40612E-13
 -1      2756 1.29677E-02 1.98418E-04-1.36710E-13
 -1      2757 1.33153E-02 1.89075E-04-1.43207E-13
 -1      2758 1.34582E-02 2.00219E-04-1.45809E-13
 -1      2759 1.32534E-02 2.20615E-04-1.41887E-13
 -1      2760 1.36010E-02 2.11381E-04-1.48411E-13
 -1      2761 1.37439E-02 2.22558E-04-1.51022E-13
 -1      2762 1.35392E-02 2.42911E-04-1.47079E-13
 -1      2763 1.38867E-02 2.33743E-04-1.53638E-13
 -1      2764 1.40296E-02 2.44935E-04-1.56258E-13
 -1      2765 1.38249E-02 2.65268E-04-1.52293E-13
 -1      2766 4.60946E-03-8.73845E-04-1.90604E-14
 -1      2767 4.46865E-03-8.43971E-04-1.81032E-14
 -1      2768 4.93060E-03-8.44380E-04-2.13589E-14
 -1      2769 4.77394E-03-8.76697E-04-2.02154E-14
 -1      2770 2.07365E-03 3.89085E-04-4.07783E-15
 -1      2771 1.92038E-03 3.72568E-04-3.52173E-15
 -1      2772 3.04164E-03 5.66249E-04-8.28168E-15
 -1      2773 2.87259E-03 5.21928E-04-7.47776E-15
 -1      2774 3.39219E-03 6.79800E-04-1.00146E-14
 -1      2775 3.21538E-03 6.18467E-04-9.12713E-15
 -1      2776 3.07443E-03 5.35458E-04-8.79823E-15
 -1      2777 3.75559E-03 8.26947E-04-1.19203E-14
 -1      2778 3.57319E-03 7.49413E-04-1.09457E-14
 -1      2779 3.43164E-03 6.53910E-04-1.05744E-14
 -1      2780 4.12197E-03 9.93524E-04-1.40055E-14
 -1      2781 3.93987E-03 9.09899E-04-1.29401E-14
 -1      2782 3.80608E-03 8.11014E-04-1.25228E-14
 -1      2783 4.47593E-03 1.13993E-03-1.62814E-14
 -1      2784 4.30083E-03 1.07382E-03-1.51192E-14
 -1      2785 4.18355E-03 9.90578E-04-1.46520E-14
 -1      2786 4.90377E-03 1.20385E-03-1.95188E-14
 -1      2787 4.73380E-03 1.19522E-03-1.82288E-14
 -1      2788 5.07445E-03 1.18121E-03-2.08575E-14
 -1      2789 5.49780E-03 1.05815E-03-2.42752E-14
 -1      2790 5.31960E-03 1.12330E-03-2.28228E-14
 -1      2791 5.86253E-03 9.13648E-04-2.73127E-14
 -1      2792 5.67940E-03 9.85667E-04-2.57727E-14
 -1      2793 5.60673E-03 9.76835E-04-2.51157E-14
 -1      2794 6.22810E-03 7.85601E-04-3.05102E-14
 -1      2795 6.04698E-03 8.45897E-04-2.88917E-14
 -1      2796 5.98436E-03 8.24992E-04-2.81985E-14
 -1      2797 6.58176E-03 6.92247E-04-3.38585E-14
 -1      2798 6.40713E-03 7.34367E-04-3.21663E-14
 -1      2799 6.35327E-03 7.05065E-04-3.14391E-14
 -1      2800 6.92031E-03 6.34581E-04-3.73486E-14
 -1      2801 6.75312E-03 6.59429E-04-3.55864E-14
 -1      2802 6.70308E-03 6.25553E-04-3.48258E-14
 -1      2803 7.24529E-03 6.06492E-04-4.09757E-14
 -1      2804 7.08443E-03 6.17400E-04-3.91464E-14
 -1      2805 7.03410E-03 5.81192E-04-3.83520E-14
 -1      2806 7.55986E-03 6.00612E-04-4.47326E-14
 -1      2807 7.40372E-03 6.01262E-04-4.28376E-14
 -1      2808 7.35039E-03 5.63617E-04-4.20104E-14
 -1      2809 7.86701E-03 6.10343E-04-4.86159E-14
 -1      2810 7.71421E-03 6.03897E-04-4.66587E-14
 -1      2811 7.65659E-03 5.65115E-04-4.57994E-14
 -1      2812 8.16893E-03 6.30432E-04-5.26181E-14
 -1      2813 8.01850E-03 6.19364E-04-5.06027E-14
 -1      2814 7.95634E-03 5.79638E-04-4.97115E-14
 -1      2815 8.46710E-03 6.56929E-04-5.67357E-14
 -1      2816 8.31839E-03 6.43071E-04-5.46624E-14
 -1      2817 8.25201E-03 6.02614E-04-5.37418E-14
 -1      2818 8.76247E-03 6.87007E-04-6.09671E-14
 -1      2819 8.61506E-03 6.71652E-04-5.88378E-14
 -1      2820 8.54506E-03 6.30694E-04-5.78856E-14
 -1      2821 9.05567E-03 7.18726E-04-6.53007E-14
 -1      2822 8.90928E-03 7.02748E-04-6.31209E-14
 -1      2823 8.83635E-03 6.61504E-04-6.21404E-14
 -1      2824 9.34716E-03 7.50822E-04-6.97377E-14
 -1      2825 9.20158E-03 7.34783E-04-6.75079E-14
 -1      2826 9.12636E-03 6.93430E-04-6.65003E-14
 -1      2827 9.63730E-03 7.82515E-04-7.42598E-14
 -1      2828 9.49236E-03 7.66752E-04-7.19880E-14
 -1      2829 9.41541E-03 7.25422E-04-7.09555E-14
 -1      2830 9.92634E-03 8.13368E-04-7.88647E-14
 -1      2831 9.78193E-03 7.98065E-04-7.65527E-14
 -1      2832 9.70370E-03 7.56844E-04-7.54970E-14
 -1      2833 1.02145E-02 8.43177E-04-8.35500E-14
 -1      2834 1.00705E-02 8.28411E-04-8.11986E-14
 -1      2835 9.99139E-03 7.87351E-04-8.01211E-14
 -1      2836 1.05020E-02 8.71887E-04-8.83024E-14
 -1      2837 1.03583E-02 8.57670E-04-8.59167E-14
 -1      2838 1.02786E-02 8.16792E-04-8.48192E-14
 -1      2839 1.07890E-02 8.99537E-04-9.31222E-14
 -1      2840 1.06456E-02 8.85841E-04-9.07048E-14
 -1      2841 1.05654E-02 8.45148E-04-8.95857E-14
 -1      2842 1.10756E-02 9.26219E-04-9.80100E-14
 -1      2843 1.09323E-02 9.12994E-04-9.55582E-14
 -1      2844 1.08519E-02 8.72475E-04-9.44186E-14
 -1      2845 1.13619E-02 9.52050E-04-1.02954E-13
 -1      2846 1.12188E-02 9.39235E-04-1.00476E-13
 -1      2847 1.11382E-02 8.98874E-04-9.93169E-14
 -1      2848 1.16480E-02 9.77156E-04-1.07948E-13
 -1      2849 1.15050E-02 9.64688E-04-1.05446E-13
 -1      2850 1.14243E-02 9.24464E-04-1.04272E-13
 -1      2851 1.19339E-02 1.00166E-03-1.12981E-13
 -1      2852 1.17910E-02 9.89477E-04-1.10458E-13
 -1      2853 1.17103E-02 9.49370E-04-1.09271E-13
 -1      2854 1.22197E-02 1.02567E-03-1.18048E-13
 -1      2855 1.20768E-02 1.01372E-03-1.15511E-13
 -1      2856 1.19961E-02 9.73710E-04-1.14310E-13
 -1      2857 1.25055E-02 1.04929E-03-1.23137E-13
 -1      2858 1.23626E-02 1.03752E-03-1.20590E-13
 -1      2859 1.22819E-02 9.97591E-04-1.19381E-13
 -1      2860 1.27912E-02 1.07260E-03-1.28244E-13
 -1      2861 1.26483E-02 1.06098E-03-1.25689E-13
 -1      2862 1.25677E-02 1.02111E-03-1.24473E-13
 -1      2863 1.30769E-02 1.09569E-03-1.33358E-13
 -1      2864 1.29340E-02 1.08417E-03-1.30801E-13
 -1      2865 1.28534E-02 1.04435E-03-1.29578E-13
 -1      2866 1.33626E-02 1.11859E-03-1.38477E-13
 -1      2867 1.32197E-02 1.10716E-03-1.35917E-13
 -1      2868 1.31391E-02 1.06737E-03-1.34693E-13
 -1      2869 1.36482E-02 1.14138E-03-1.43603E-13
 -1      2870 1.35054E-02 1.13000E-03-1.41041E-13
 -1      2871 1.34248E-02 1.09023E-03-1.39814E-13
 -1      2872 1.39339E-02 1.16409E-03-1.48729E-13
 -1      2873 1.37911E-02 1.15274E-03-1.46165E-13
 -1      2874 1.37105E-02 1.11299E-03-1.44941E-13
 -1      2875 1.42196E-02 1.18674E-03-1.53852E-13
 -1      2876 1.40768E-02 1.17542E-03-1.51289E-13
 -1      2877 1.39962E-02 1.13568E-03-1.50067E-13
 -1      2878 1.44711E-02 1.19734E-03-1.58431E-13
 -1      2879 1.43283E-02 1.18602E-03-1.55867E-13
 -1      2880 1.42478E-02 1.14628E-03-1.54644E-13
 -1      2881 1.44651E-02 1.14481E-03-1.58676E-13
 -1      2882 1.43444E-02 7.35077E-04-1.59142E-13
 -1      2883 1.43555E-02 7.77255E-04-1.59078E-13
 -1      2884 1.41259E-02 2.51667E-04-1.58037E-13
 -1      2885 1.42223E-02 2.58398E-04-1.59816E-13
 -1      2886 1.40641E-02 2.83193E-04-1.56682E-13
 -1      2887 1.43889E-02 9.03786E-04-1.58871E-13
 -1      2888 1.44000E-02 9.45960E-04-1.58800E-13
 -1      2889 1.43223E-02 6.50721E-04-1.59271E-13
 -1      2890 1.43333E-02 6.92899E-04-1.59209E-13
 -1      2891 1.42151E-02 7.04240E-04-1.56932E-13
 -1      2892 1.43666E-02 8.19433E-04-1.59008E-13
 -1      2893 1.43777E-02 8.61610E-04-1.58939E-13
 -1      2894 1.42595E-02 8.72925E-04-1.56672E-13
 -1      2895 1.42373E-02 7.88584E-04-1.56804E-13
 -1      2896 6.71075E-03 2.90863E-04-3.00820E-14
 -1      2897 6.83748E-03 2.46376E-04-3.04936E-14
 -1      2898 1.43006E-02 5.67796E-04-1.59388E-13
 -1      2899 1.43114E-02 6.09258E-04-1.59330E-13
 -1      2900 1.41932E-02 6.20611E-04-1.57051E-13
 -1      2901 1.42786E-02 4.83447E-04-1.59503E-13
 -1      2902 1.42896E-02 5.25620E-04-1.59446E-13
 -1      2903 1.41714E-02 5.36985E-04-1.57160E-13
 -1      2904 1.42568E-02 3.99105E-04-1.59610E-13
 -1      2905 1.42677E-02 4.41275E-04-1.59556E-13
 -1      2906 1.41494E-02 4.52648E-04-1.57265E-13
 -1      2907 1.76837E-03 3.57050E-04-3.00687E-15
 -1      2908 1.61728E-03 3.41750E-04-2.53362E-15
 -1      2909 1.51172E-03 2.98584E-04-2.38054E-15
 -1      2910 1.80870E-03 3.27390E-04-3.33659E-15
 -1      2911 6.95204E-03 2.07227E-04-3.06460E-14
 -1      2912 7.03042E-03 1.86974E-04-3.07967E-14
 -1      2913 6.46429E-03-3.44406E-05-2.97558E-14
 -1      2914 6.28617E-03-1.16438E-04-2.90874E-14
 -1      2915 8.06513E-04-1.97907E-04-8.49838E-16
 -1      2916 9.42547E-04-2.27759E-04-1.09752E-15
 -1      2917 4.09652E-03 8.80782E-04-1.48513E-14
 -1      2918 4.31168E-03 1.00904E-03-1.58967E-14
 -1      2919 2.83445E-03 2.07409E-04-1.12503E-14
 -1      2920 3.01249E-03 2.79659E-04-1.15213E-14
 -1      2921 5.20304E-03 1.08915E-03-2.19196E-14
 -1      2922 5.35810E-03 1.01527E-03-2.30223E-14
 -1      2923 2.70682E-03 4.85261E-04-6.71606E-15
 -1      2924 2.54476E-03 4.54536E-04-5.99497E-15
 -1      2925 2.73775E-03 4.52977E-04-7.18873E-15
 -1      2926 2.38536E-03 4.29104E-04-5.31481E-15
 -1      2927 2.22855E-03 4.07583E-04-4.67564E-15
 -1      2928 2.41794E-03 3.96978E-04-5.74200E-15
 -1      2929 1.07473E-03-2.50176E-04-1.38009E-15
 -1      2930 1.22248E-03-2.71052E-04-1.73863E-15
 -1      2931 1.27336E-03-2.47278E-04-1.97344E-15
 -1      2932 1.01155E-03-2.10824E-04-1.31966E-15
 -1      2933 3.03856E-03-1.11836E-04-1.23760E-14
 -1      2934 2.85428E-03-4.51166E-05-1.18174E-14
 -1      2935 3.67126E-03 6.24823E-04-1.31632E-14
 -1      2936 3.86392E-03 7.41894E-04-1.38591E-14
 -1      2937 7.54001E-04 8.24043E-05-9.47471E-16
 -1      2938 7.44403E-04 6.58585E-05-9.62961E-16
 -1      2939 8.49782E-04 6.61961E-05-1.22702E-15
 -1      2940 8.72746E-04 1.03150E-04-1.18961E-15
 -1      2941 2.66423E-03 1.77001E-05-1.13370E-14
 -1      2942 2.56074E-03 4.49934E-05-1.11199E-14
 -1      2943 2.57278E-03 1.23070E-04-1.09467E-14
 -1      2944 2.67434E-03 1.51366E-04-1.10401E-14
 -1      2945 3.24096E-03 3.88793E-04-1.19474E-14
 -1      2946 3.43097E-03 4.88802E-04-1.24260E-14
 -1      2947 6.59800E-04-1.40654E-04-6.58653E-16
 -1      2948 7.48766E-04-5.96319E-05-9.96273E-16
 -1      2949 7.58522E-04-7.74804E-05-9.88616E-16
 -1      2950 6.04293E-03-2.40115E-04-2.79600E-14
 -1      2951 5.82420E-03-3.65129E-04-2.69062E-14
 -1      2952 2.48598E-03 6.62804E-05-1.10147E-14
 -1      2953 2.44170E-03 7.62019E-05-1.09080E-14
 -1      2954 2.49572E-03 4.96914E-05-1.05930E-14
 -1      2955 1.42568E-02 2.96660E-04-1.60237E-13
 -1      2956 3.39498E-03-2.92831E-04-1.31251E-14
 -1      2957 3.21766E-03-1.96261E-04-1.27468E-14
 -1      2958 3.10119E-03-1.70860E-04-1.19849E-14
 -1      2959 6.79022E-03 8.74913E-05-3.09051E-14
 -1      2960 6.64709E-03 3.95941E-05-3.04207E-14
 -1      2961 7.01442E-03 1.50184E-04-3.11621E-14
 -1      2962 6.92541E-03 1.29704E-04-3.10258E-14
 -1      2963 5.25786E-03-6.97025E-04-2.35477E-14
 -1      2964 5.11633E-03-7.72789E-04-2.26323E-14
 -1      2965 5.59408E-03-5.00492E-04-2.56245E-14
 -1      2966 5.42213E-03-6.04208E-04-2.45743E-14
 -1      2967 5.35883E-03-6.53423E-04-2.44373E-14
 -1      2968 2.43728E-03 8.92165E-05-1.07732E-14
 -1      2969 2.48762E-03 1.00193E-04-1.08607E-14
 -1      2970 2.48704E-03 1.08531E-04-1.03099E-14
 -1      2971 7.69764E-04-9.71477E-05-9.78140E-16
 -1      2972 7.82257E-04-1.18900E-04-9.63910E-16
 -1      2973 8.78535E-04-9.80495E-05-1.24536E-15
 -1      2974 8.32840E-04 5.62768E-06-1.26606E-15
 -1      2975 7.26710E-04-1.61382E-06-1.00319E-15
 -1      2976 7.29401E-04-1.47603E-05-1.00480E-15
 -1      2977 8.80855E-04 2.04576E-04-9.14890E-16
 -1      2978 6.64738E-03 3.37148E-04-3.04714E-14
 -1      2979 7.07039E-03 1.82154E-04-3.14865E-14
 -1      2980 6.59022E-03 8.79623E-07-3.10286E-14
 -1      2981 7.09489E-03 1.67357E-04-3.21880E-14
 -1      2982 7.06103E-03 1.60946E-04-3.16739E-14
 -1      2983 7.05676E-03 1.55191E-04-3.24735E-14
 -1      2984 1.42677E-02 3.38821E-04-1.60187E-13
 -1      2985 1.42818E-02 9.56905E-04-1.56534E-13
 -1      2986 1.44111E-02 9.87775E-04-1.58727E-13
 -1      2987 1.44222E-02 1.02959E-03-1.58651E-13
 -1      2988 4.69738E-03-8.84238E-04-1.96824E-14
 -1      2989 5.73404E-03-4.33606E-04-2.67625E-14
 -1      2990 2.10974E-03 3.57842E-04-4.45760E-15
 -1      2991 4.63738E-03 1.15743E-03-1.76926E-14
 -1      2992 5.16590E-03 1.13356E-03-2.16311E-14
 -1      2993 1.44381E-02 1.06630E-03-1.58700E-13
 -1      2994 1.44492E-02 1.10811E-03-1.58628E-13
 -1      2995 1.43405E-02 1.10884E-03-1.56611E-13
 -1      2996 1.43088E-02 1.03543E-03-1.56512E-13
 -1      2997 2.74306E-03-2.42399E-05-1.11572E-14
 -1      2998 1.41495E-02 3.50202E-04-1.57888E-13
 -1      2999 6.18713E-03-1.83909E-04-2.92035E-14
 -1      3000 3.07943E-03 3.31669E-04-1.12005E-14
 -1      3001 2.71370E-03 1.78491E-04-1.05924E-14
 -1      3002 3.96965E-03 8.27635E-04-1.40079E-14
 -1      3003 5.56482E-03 8.98867E-04-2.43752E-14
 -1      3004 5.72756E-03 7.94633E-04-2.53215E-14
 -1      3005 3.97559E-03-6.13436E-04-1.53774E-14
 -1      3006 3.85870E-03-5.61028E-04-1.47057E-14
 -1      3007 4.05077E-03-6.71014E-04-1.56050E-14
 -1      3008 4.36224E-03-8.13087E-04-1.74039E-14
 -1      3009 4.25580E-03-7.73945E-04-1.67190E-14
 -1      3010 4.43669E-03-8.47512E-04-1.78356E-14
 -1      3011 7.73732E-04-1.49076E-04-8.82175E-16
 -1      3012 5.48563E-03 9.63294E-04-2.39653E-14
 -1      3013 5.02493E-03-8.18008E-04-2.21148E-14
 -1      3014 3.52127E-03 5.64058E-04-1.23205E-14
 -1      3015 9.94766E-04 2.08681E-04-1.18146E-15
 -1      3016 3.61857E-03-4.35088E-04-1.36551E-14
 -1      3017 3.51146E-03-3.63156E-04-1.33894E-14
 -1      3018 3.37059E-03-3.19748E-04-1.25962E-14
 -1      3019 7.34063E-04-2.85674E-05-1.00419E-15
 -1      3020 7.40549E-04-4.34554E-05-1.00129E-15
 -1      3021 8.55147E-04-5.79806E-05-1.26352E-15
 -1      3022 8.39466E-04-2.42836E-05-1.26991E-15
 -1      3023 4.40793E-03 1.06693E-03-1.63042E-14
 -1      3024 4.51423E-03 1.11402E-03-1.69440E-14
 -1      3025 6.93291E-03 2.28550E-04-3.14266E-14
 -1      3026 6.14305E-03 5.65280E-04-2.77781E-14
 -1      3027 6.29395E-03 5.13600E-04-2.90006E-14
 -1      3028 6.88862E-03 1.09894E-04-3.18340E-14
 -1      3029 5.96181E-03 6.66770E-04-2.67891E-14
 -1      3030 6.62173E-03 3.83422E-04-3.12146E-14
 -1      3031 6.78887E-03 3.13872E-04-3.20244E-14
 -1      3032 1.03353E-03 1.77040E-04-1.39153E-15
 -1      3033 1.01314E-03 1.49797E-04-1.42784E-15
 -1      3034 1.45358E-03-2.37087E-04-2.61505E-15
 -1      3035 1.59907E-03-2.49914E-04-3.10230E-15
 -1      3036 1.74550E-03-2.62131E-04-3.63120E-15
 -1      3037 1.89323E-03-2.74360E-04-4.20131E-15
 -1      3038 1.64371E-03-2.21383E-04-3.39652E-15
 -1      3039 2.04248E-03-2.87166E-04-4.81258E-15
 -1      3040 2.19369E-03-3.01418E-04-5.46434E-15
 -1      3041 1.93410E-03-2.42090E-04-4.53972E-15
 -1      3042 2.34738E-03-3.17620E-04-6.15644E-15
 -1      3043 2.50395E-03-3.37024E-04-6.88921E-15
 -1      3044 2.23154E-03-2.65741E-04-5.84409E-15
 -1      3045 2.66423E-03-3.60038E-04-7.66230E-15
 -1      3046 2.82827E-03-3.88333E-04-8.47625E-15
 -1      3047 2.54032E-03-2.98339E-04-7.30888E-15
 -1      3048 2.99727E-03-4.22274E-04-9.33104E-15
 -1      3049 3.17024E-03-4.63552E-04-1.02262E-14
 -1      3050 2.86593E-03-3.48039E-04-8.93385E-15
 -1      3051 3.34886E-03-5.11678E-04-1.11617E-14
 -1      3052 3.53002E-03-5.68537E-04-1.21393E-14
 -1      3053 3.21381E-03-4.24743E-04-1.07197E-14
 -1      3054 4.08230E-03-7.75241E-04-1.53274E-14
 -1      3055 4.25883E-03-8.34616E-04-1.64793E-14
 -1      3056 4.44267E-03-8.73819E-04-1.78040E-14
 -1      3057 4.61364E-03-8.99402E-04-1.90546E-14
 -1      3058 4.75969E-03-9.00995E-04-2.02067E-14
 -1      3059 4.92872E-03-8.73919E-04-2.15484E-14
 -1      3060 5.09033E-03-8.15750E-04-2.28313E-14
 -1      3061 5.26990E-03-7.44275E-04-2.42629E-14
 -1      3062 5.81931E-03-5.24393E-04-2.89448E-14
 -1      3063 6.00132E-03-4.53910E-04-3.05460E-14
 -1      3064 6.18134E-03-3.91479E-04-3.21843E-14
 -1      3065 6.35595E-03-3.36794E-04-3.38601E-14
 -1      3066 6.14228E-03-3.59754E-04-3.13836E-14
 -1      3067 6.52656E-03-2.90329E-04-3.55727E-14
 -1      3068 6.69206E-03-2.50482E-04-3.73212E-14
 -1      3069 6.49391E-03-2.54804E-04-3.47387E-14
 -1      3070 6.85356E-03-2.17136E-04-3.91059E-14
 -1      3071 7.01103E-03-1.88619E-04-4.09267E-14
 -1      3072 6.82250E-03-1.81760E-04-3.82381E-14
 -1      3073 7.16535E-03-1.64760E-04-4.27809E-14
 -1      3074 7.31687E-03-1.44297E-04-4.46669E-14
 -1      3075 7.13275E-03-1.30860E-04-4.18775E-14
 -1      3076 7.46621E-03-1.27006E-04-4.65858E-14
 -1      3077 7.61379E-03-1.12058E-04-4.85354E-14
 -1      3078 7.43039E-03-9.45126E-05-4.56503E-14
 -1      3079 7.75999E-03-9.91988E-05-5.05158E-14
 -1      3080 7.90516E-03-8.78979E-05-5.25258E-14
 -1      3081 7.72029E-03-6.76164E-05-4.95465E-14
 -1      3082 8.04951E-03-7.79065E-05-5.45659E-14
 -1      3083 8.19330E-03-6.88921E-05-5.66337E-14
 -1      3084 8.00587E-03-4.67634E-05-5.35642E-14
 -1      3085 8.33664E-03-6.06334E-05-5.87278E-14
 -1      3086 8.47972E-03-5.29223E-05-6.08491E-14
 -1      3087 8.28937E-03-2.96060E-05-5.76949E-14
 -1      3088 8.62256E-03-4.55783E-05-6.29952E-14
 -1      3089 8.76530E-03-3.84734E-05-6.51661E-14
 -1      3090 8.57208E-03-1.44880E-05-6.19329E-14
 -1      3091 8.90793E-03-3.14711E-05-6.73609E-14
 -1      3092 9.05055E-03-2.44955E-05-6.95778E-14
 -1      3093 8.85475E-03-2.43651E-07-6.62684E-14
 -1      3094 9.19312E-03-1.74511E-05-7.18180E-14
 -1      3095 9.33572E-03-1.02962E-05-7.40799E-14
 -1      3096 9.13774E-03 1.39248E-05-7.06997E-14
 -1      3097 9.47832E-03-2.97026E-06-7.63612E-14
 -1      3098 9.62096E-03 4.54630E-06-7.86603E-14
 -1      3099 9.42118E-03 2.85335E-05-7.52176E-14
 -1      3100 9.76360E-03 1.22869E-05-8.09777E-14
 -1      3101 9.90629E-03 2.02567E-05-8.33125E-14
 -1      3102 9.70510E-03 4.38858E-05-7.98130E-14
 -1      3103 1.00490E-02 2.84693E-05-8.56670E-14
 -1      3104 1.01917E-02 3.69211E-05-8.80390E-14
 -1      3105 9.98945E-03 6.01297E-05-8.44822E-14
 -1      3106 1.03345E-02 4.56122E-05-9.04291E-14
 -1      3107 1.04773E-02 5.45340E-05-9.28359E-14
 -1      3108 1.02742E-02 7.73050E-05-8.92236E-14
 -1      3109 1.06201E-02 6.36778E-05-9.52557E-14
 -1      3110 1.07629E-02 7.30328E-05-9.76916E-14
 -1      3111 1.05592E-02 9.53806E-05-9.40306E-14
 -1      3112 1.09057E-02 8.25854E-05-1.00141E-13
 -1      3113 1.10485E-02 9.23239E-05-1.02602E-13
 -1      3114 1.08444E-02 1.14282E-04-9.89003E-14
 -1      3115 1.11914E-02 1.02233E-04-1.05077E-13
 -1      3116 1.13342E-02 1.12300E-04-1.07559E-13
 -1      3117 1.11299E-02 1.33913E-04-1.03823E-13
 -1      3118 1.14771E-02 1.22511E-04-1.10047E-13
 -1      3119 1.16200E-02 1.32853E-04-1.12546E-13
 -1      3120 1.14154E-02 1.54169E-04-1.08787E-13
 -1      3121 1.17628E-02 1.43313E-04-1.15050E-13
 -1      3122 1.19057E-02 1.53880E-04-1.17565E-13
 -1      3123 1.17010E-02 1.74947E-04-1.13781E-13
 -1      3124 1.20486E-02 1.64542E-04-1.20088E-13
 -1      3125 1.21914E-02 1.75289E-04-1.22618E-13
 -1      3126 1.19867E-02 1.96151E-04-1.18809E-13
 -1      3127 1.23343E-02 1.86110E-04-1.25159E-13
 -1      3128 1.24772E-02 1.96997E-04-1.27706E-13
 -1      3129 1.22724E-02 2.17697E-04-1.23869E-13
 -1      3130 1.26201E-02 2.07942E-04-1.30264E-13
 -1      3131 1.27629E-02 2.18937E-04-1.32829E-13
 -1      3132 1.25582E-02 2.39509E-04-1.28963E-13
 -1      3133 1.29058E-02 2.29975E-04-1.35399E-13
 -1      3134 1.30487E-02 2.41050E-04-1.37979E-13
 -1      3135 1.28439E-02 2.61525E-04-1.34091E-13
 -1      3136 1.31916E-02 2.52156E-04-1.40564E-13
 -1      3137 1.33344E-02 2.63288E-04-1.43155E-13
 -1      3138 1.31297E-02 2.83694E-04-1.39246E-13
 -1      3139 1.34773E-02 2.74441E-04-1.45752E-13
 -1      3140 1.36202E-02 2.85611E-04-1.48349E-13
 -1      3141 1.34155E-02 3.05970E-04-1.44423E-13
 -1      3142 1.37630E-02 2.96793E-04-1.50955E-13
 -1      3143 1.39059E-02 3.07986E-04-1.53564E-13
 -1      3144 1.37012E-02 3.28319E-04-1.49619E-13
 -1      3145 5.85803E-03-3.92919E-04-2.80667E-14
 -1      3146 5.65183E-03-5.11395E-04-2.67567E-14
 -1      3147 6.71460E-03 2.71055E-05-3.24545E-14
 -1      3148 6.55495E-03-3.78452E-05-3.17665E-14
 -1      3149 3.10106E-03 5.01154E-04-9.31788E-15
 -1      3150 2.92942E-03 4.55260E-04-8.47148E-15
 -1      3151 6.13915E-03 6.89022E-04-2.90689E-14
 -1      3152 5.94549E-03 7.61851E-04-2.74842E-14
 -1      3153 6.82947E-03 5.58019E-04-3.58044E-14
 -1      3154 6.66194E-03 5.84907E-04-3.40753E-14
 -1      3155 7.14983E-03 5.28188E-04-3.93656E-14
 -1      3156 6.99203E-03 5.39950E-04-3.75680E-14
 -1      3157 6.95585E-03 4.96923E-04-3.67867E-14
 -1      3158 7.45561E-03 5.21067E-04-4.30572E-14
 -1      3159 7.30416E-03 5.22421E-04-4.11962E-14
 -1      3160 7.26301E-03 4.80737E-04-4.03817E-14
 -1      3161 7.75258E-03 5.29466E-04-4.68755E-14
 -1      3162 7.60490E-03 5.23739E-04-4.49498E-14
 -1      3163 7.55755E-03 4.82804E-04-4.41048E-14
 -1      3164 8.04458E-03 5.48219E-04-5.08179E-14
 -1      3165 7.89900E-03 5.37824E-04-4.88315E-14
 -1      3166 7.84534E-03 4.96955E-04-4.79543E-14
 -1      3167 8.33393E-03 5.73566E-04-5.48743E-14
 -1      3168 8.18946E-03 5.60254E-04-5.28326E-14
 -1      3169 8.13002E-03 5.19036E-04-5.19245E-14
 -1      3170 8.62192E-03 6.02795E-04-5.90463E-14
 -1      3171 8.47801E-03 5.87822E-04-5.69463E-14
 -1      3172 8.41358E-03 5.46093E-04-5.60088E-14
 -1      3173 8.90920E-03 6.33992E-04-6.33240E-14
 -1      3174 8.76560E-03 6.18232E-04-6.11718E-14
 -1      3175 8.69702E-03 5.76001E-04-6.02051E-14
 -1      3176 9.19611E-03 6.65854E-04-6.77051E-14
 -1      3177 9.05267E-03 6.49895E-04-6.55010E-14
 -1      3178 8.98076E-03 6.07252E-04-6.45067E-14
 -1      3179 9.48278E-03 6.97535E-04-7.21803E-14
 -1      3180 9.33945E-03 6.81751E-04-6.99331E-14
 -1      3181 9.26493E-03 6.38814E-04-6.89095E-14
 -1      3182 9.76928E-03 7.28527E-04-7.67411E-14
 -1      3183 9.62604E-03 7.13136E-04-7.44504E-14
 -1      3184 9.54951E-03 6.70014E-04-7.34060E-14
 -1      3185 1.00556E-02 7.58567E-04-8.13831E-14
 -1      3186 9.91247E-03 7.43675E-04-7.90522E-14
 -1      3187 9.83443E-03 7.00456E-04-7.79857E-14
 -1      3188 1.03419E-02 7.87554E-04-8.60943E-14
 -1      3189 1.01988E-02 7.73194E-04-8.37295E-14
 -1      3190 1.01196E-02 7.29944E-04-8.26418E-14
 -1      3191 1.06280E-02 8.15491E-04-9.08748E-14
 -1      3192 1.04850E-02 8.01651E-04-8.84764E-14
 -1      3193 1.04050E-02 7.58414E-04-8.73695E-14
 -1      3194 1.09141E-02 8.42449E-04-9.57211E-14
 -1      3195 1.07710E-02 8.29087E-04-9.32906E-14
 -1      3196 1.06905E-02 7.85890E-04-9.21634E-14
 -1      3197 1.12000E-02 8.68533E-04-1.00629E-13
 -1      3198 1.10570E-02 8.55594E-04-9.81671E-14
 -1      3199 1.09762E-02 8.12451E-04-9.70210E-14
 -1      3200 1.14859E-02 8.93860E-04-1.05593E-13
 -1      3201 1.13430E-02 8.81284E-04-1.03105E-13
 -1      3202 1.12619E-02 8.38200E-04-1.01940E-13
 -1      3203 1.17718E-02 9.18551E-04-1.10598E-13
 -1      3204 1.16289E-02 9.06279E-04-1.08090E-13
 -1      3205 1.15476E-02 8.63252E-04-1.06910E-13
 -1      3206 1.20576E-02 9.42719E-04-1.15644E-13
 -1      3207 1.19147E-02 9.30695E-04-1.13116E-13
 -1      3208 1.18333E-02 8.87722E-04-1.11923E-13
 -1      3209 1.23434E-02 9.66466E-04-1.20717E-13
 -1      3210 1.22005E-02 9.54640E-04-1.18178E-13
 -1      3211 1.21191E-02 9.11714E-04-1.16974E-13
 -1      3212 1.26291E-02 9.89880E-04-1.25810E-13
 -1      3213 1.24863E-02 9.78210E-04-1.23261E-13
 -1      3214 1.24048E-02 9.35325E-04-1.22050E-13
 -1      3215 1.29149E-02 1.01304E-03-1.30917E-13
 -1      3216 1.27720E-02 1.00149E-03-1.28362E-13
 -1      3217 1.26906E-02 9.58635E-04-1.27144E-13
 -1      3218 1.32006E-02 1.03600E-03-1.36031E-13
 -1      3219 1.30577E-02 1.02454E-03-1.33474E-13
 -1      3220 1.29763E-02 9.81716E-04-1.32253E-13
 -1      3221 1.34863E-02 1.05883E-03-1.41156E-13
 -1      3222 1.33435E-02 1.04743E-03-1.38592E-13
 -1      3223 1.32621E-02 1.00462E-03-1.37371E-13
 -1      3224 1.37720E-02 1.08155E-03-1.46285E-13
 -1      3225 1.36292E-02 1.07020E-03-1.43720E-13
 -1      3226 1.35478E-02 1.02741E-03-1.42496E-13
 -1      3227 1.40578E-02 1.10422E-03-1.51411E-13
 -1      3228 1.39149E-02 1.09289E-03-1.48848E-13
 -1      3229 1.38336E-02 1.05011E-03-1.47626E-13
 -1      3230 1.42535E-02 1.10617E-03-1.55017E-13
 -1      3231 1.41448E-02 1.10690E-03-1.53002E-13
 -1      3232 1.40635E-02 1.06412E-03-1.51783E-13
 -1      3233 1.42376E-02 1.06946E-03-1.54968E-13
 -1      3234 2.41815E-03 9.90552E-05-9.77657E-15
 -1      3235 2.48977E-03 1.18742E-04-9.85575E-15
 -1      3236 9.46527E-04 4.71974E-05-1.53935E-15
 -1      3237 9.41558E-04 3.07425E-05-1.55076E-15
 -1      3238 3.11579E-03-2.09423E-04-1.16250E-14
 -1      3239 2.96529E-03-1.35299E-04-1.12802E-14
 -1      3240 7.09104E-03 1.90910E-04-3.25937E-14
 -1      3241 7.11277E-03 1.79134E-04-3.24964E-14
 -1      3242 1.40858E-02 6.73409E-04-1.54720E-13
 -1      3243 1.40969E-02 7.15574E-04-1.54660E-13
 -1      3244 1.40202E-02 4.21855E-04-1.55029E-13
 -1      3245 1.40312E-02 4.64017E-04-1.54981E-13
 -1      3246 1.40641E-02 5.90509E-04-1.54829E-13
 -1      3247 1.40750E-02 6.31959E-04-1.54776E-13
 -1      3248 1.39567E-02 6.43300E-04-1.52505E-13
 -1      3249 2.48284E-03 3.34903E-05-1.00473E-14
 -1      3250 2.42046E-03 5.23696E-05-9.95090E-15
 -1      3251 6.32063E-03 6.55561E-04-3.07822E-14
 -1      3252 6.31143E-03 5.75650E-04-3.00271E-14
 -1      3253 2.80108E-03-6.65094E-05-1.08863E-14
 -1      3254 2.62759E-03-9.30456E-06-1.04310E-14
 -1      3255 2.91343E-03 2.84132E-04-1.03378E-14
 -1      3256 3.11075E-03 3.78811E-04-1.07301E-14
 -1      3257 2.76328E-03 4.18605E-04-7.66532E-15
 -1      3258 2.60261E-03 3.88289E-04-6.89990E-15
 -1      3259 2.78313E-03 3.81478E-04-8.14671E-15
 -1      3260 5.09772E-03 1.13751E-03-2.11432E-14
 -1      3261 4.28050E-03 1.01738E-03-1.53962E-14
 -1      3262 1.40421E-02 5.06180E-04-1.54932E-13
 -1      3263 1.40531E-02 5.48344E-04-1.54880E-13
 -1      3264 1.39349E-02 5.59699E-04-1.52608E-13
 -1      3265 1.39129E-02 4.75383E-04-1.52704E-13
 -1      3266 6.50038E-03 6.08963E-04-3.24434E-14
 -1      3267 2.59132E-03 1.55496E-04-9.86184E-15
 -1      3268 2.72718E-03 2.04117E-04-1.00533E-14
 -1      3269 2.44605E-03 3.63969E-04-6.17427E-15
 -1      3270 2.29289E-03 3.43552E-04-5.48819E-15
 -1      3271 2.46944E-03 3.29637E-04-6.61184E-15
 -1      3272 5.91308E-03 7.23418E-04-2.68164E-14
 -1      3273 6.95461E-03 2.48817E-04-3.26784E-14
 -1      3274 7.04209E-03 2.16366E-04-3.28395E-14
 -1      3275 1.16093E-03 2.36566E-04-1.53775E-15
 -1      3276 1.08505E-03 2.01669E-04-1.44946E-15
 -1      3277 1.19497E-03 2.00334E-04-1.78103E-15
 -1      3278 1.30595E-03 2.53743E-04-1.90620E-15
 -1      3279 6.99838E-03 1.31739E-04-3.30477E-14
 -1      3280 6.88752E-03 9.46979E-05-3.29182E-14
 -1      3281 2.14231E-03 3.26553E-04-4.84319E-15
 -1      3282 1.99363E-03 3.11622E-04-4.23831E-15
 -1      3283 2.17118E-03 2.94971E-04-5.23544E-15
 -1      3284 2.40764E-03 7.47400E-05-1.03364E-14
 -1      3285 2.42772E-03 8.38549E-05-1.07497E-14
 -1      3286 6.32684E-03-1.41992E-04-3.06290E-14
 -1      3287 6.10991E-03-2.51648E-04-2.94706E-14
 -1      3288 8.86705E-04-1.53817E-04-1.14031E-15
 -1      3289 3.36868E-03 5.16263E-04-1.13698E-14
 -1      3290 3.58145E-03 6.34982E-04-1.20652E-14
 -1      3291 6.45391E-03 4.89090E-04-3.07250E-14
 -1      3292 2.40708E-03 8.63747E-05-1.02040E-14
 -1      3293 4.08969E-03 9.24479E-04-1.42791E-14
 -1      3294 5.73780E-03 8.70230E-04-2.59953E-14
 -1      3295 3.88184E-03 8.03131E-04-1.33107E-14
 -1      3296 2.38088E-03 6.37757E-05-9.80210E-15
 -1      3297 2.35766E-03 7.10036E-05-9.65198E-15
 -1      3298 2.35222E-03 4.97534E-05-9.27647E-15
 -1      3299 3.68529E-03 7.10264E-04-1.22868E-14
 -1      3300 9.39623E-04 1.47153E-05-1.55910E-15
 -1      3301 9.40718E-04-1.38137E-06-1.56450E-15
 -1      3302 1.04719E-03 2.53088E-05-1.88117E-15
 -1      3303 1.12037E-03 1.48778E-04-1.75256E-15
 -1      3304 9.94803E-04 1.25308E-04-1.45841E-15
 -1      3305 9.78864E-04 1.03117E-04-1.48441E-15
 -1      3306 3.66012E-03-5.35838E-04-1.32545E-14
 -1      3307 3.79744E-03-6.33099E-04-1.37650E-14
 -1      3308 2.76148E-03 2.47122E-04-9.61190E-15
 -1      3309 6.85608E-03 6.20603E-05-3.36764E-14
 -1      3310 2.82063E-03-1.05170E-04-1.05441E-14
 -1      3311 7.13663E-03 1.76265E-04-3.33056E-14
 -1      3312 1.41525E-02 9.26218E-04-1.54341E-13
 -1      3313 1.41636E-02 9.68023E-04-1.54271E-13
 -1      3314 3.98484E-03-7.06084E-04-1.48492E-14
 -1      3315 5.36751E-03-6.69215E-04-2.47553E-14
 -1      3316 5.42495E-03-6.89379E-04-2.56158E-14
 -1      3317 5.65373E-03-5.38965E-04-2.70825E-14
 -1      3318 5.51745E-03-5.83819E-04-2.58092E-14
 -1      3319 5.60803E-03-6.09289E-04-2.71297E-14
 -1      3320 6.01648E-03-3.36673E-04-2.94584E-14
 -1      3321 1.39913E-02 3.74991E-04-1.54767E-13
 -1      3322 1.38730E-02 3.86367E-04-1.52487E-13
 -1      3323 3.52359E-03 6.57811E-04-1.13210E-14
 -1      3324 6.47701E-03-1.00837E-04-3.20413E-14
 -1      3325 7.11937E-03 2.09065E-04-3.38663E-14
 -1      3326 5.54195E-03 9.57473E-04-2.44909E-14
 -1      3327 3.22008E-03-2.67325E-04-1.18665E-14
 -1      3328 3.07579E-03-2.27189E-04-1.11598E-14
 -1      3329 3.32024E-03-3.29446E-04-1.21103E-14
 -1      3330 2.49442E-03 1.38930E-04-9.33960E-15
 -1      3331 6.64092E-03 5.30038E-04-3.33875E-14
 -1      3332 9.54493E-04 6.43999E-05-1.52478E-15
 -1      3333 1.05858E-03 6.09859E-05-1.85462E-15
 -1      3334 9.65267E-04 8.28936E-05-1.50643E-15
 -1      3335 1.41302E-02 8.41891E-04-1.54473E-13
 -1      3336 1.41413E-02 8.84055E-04-1.54409E-13
 -1      3337 1.40231E-02 8.95177E-04-1.52145E-13
 -1      3338 1.40531E-02 3.43464E-04-1.56114E-13
 -1      3339 1.41080E-02 7.57650E-04-1.54599E-13
 -1      3340 1.41191E-02 7.99815E-04-1.54536E-13
 -1      3341 1.40008E-02 8.10950E-04-1.52273E-13
 -1      3342 1.39787E-02 7.26812E-04-1.52393E-13
 -1      3343 2.51706E-03 4.67531E-06-9.79153E-15
 -1      3344 2.41786E-03 1.12857E-05-9.17064E-15
 -1      3345 2.55170E-03-3.01993E-05-9.53296E-15
 -1      3346 2.36686E-03 8.13345E-05-9.70521E-15
 -1      3347 2.38001E-03 8.63004E-05-9.72714E-15
 -1      3348 2.36536E-03 9.34613E-05-9.28696E-15
 -1      3349 2.32004E-03 7.09129E-05-9.18665E-15
 -1      3350 1.59712E-03 2.82976E-04-2.76640E-15
 -1      3351 1.45124E-03 2.69022E-04-2.31569E-15
 -1      3352 1.39248E-03 2.40899E-04-2.24805E-15
 -1      3353 1.86851E-03 3.03851E-04-3.73209E-15
 -1      3354 1.72173E-03 2.90678E-04-3.20386E-15
 -1      3355 1.65849E-03 2.61392E-04-3.12261E-15
 -1      3356 1.90315E-03 2.74587E-04-4.08031E-15
 -1      3357 3.18286E-03 4.50651E-04-1.04905E-14
 -1      3358 7.11587E-03 1.56207E-04-3.40973E-14
 -1      3359 7.06186E-03 1.46155E-04-3.35717E-14
 -1      3360 7.07344E-03 1.32848E-04-3.46784E-14
 -1      3361 4.16684E-03-7.46615E-04-1.61113E-14
 -1      3362 4.05418E-03-7.04012E-04-1.54154E-14
 -1      3363 3.70706E-03-5.02583E-04-1.38654E-14
 -1      3364 3.33763E-03 5.87494E-04-1.03815E-14
 -1      3365 1.19362E-03-2.08434E-04-1.84992E-15
 -1      3366 1.32324E-03-2.23328E-04-2.21600E-15
 -1      3367 1.37173E-03-1.98996E-04-2.46622E-15
 -1      3368 1.01277E-03-1.71025E-04-1.42932E-15
 -1      3369 3.17963E-03 4.92274E-04-1.00139E-14
 -1      3370 6.93453E-03 2.88297E-04-3.34486E-14
 -1      3371 9.60919E-04-5.39151E-05-1.56259E-15
 -1      3372 9.72581E-04-7.41240E-05-1.55571E-15
 -1      3373 4.24539E-03-7.96257E-04-1.65202E-14
 -1      3374 1.09313E-03-9.19008E-05-1.87727E-15
 -1      3375 9.86428E-04-9.61767E-05-1.54552E-15
 -1      3376 1.00205E-03-1.20329E-04-1.53110E-15
 -1      3377 6.62190E-03 4.52237E-04-3.22789E-14
 -1      3378 3.44262E-03-4.31302E-04-1.22632E-14
 -1      3379 2.59701E-03 2.14628E-04-8.77464E-15
 -1      3380 2.75682E-03 2.84344E-04-9.03082E-15
 -1      3381 2.76460E-03 3.26677E-04-8.59499E-15
 -1      3382 2.61055E-03 3.01341E-04-7.78931E-15
 -1      3383 4.34573E-03-8.51358E-04-1.71057E-14
 -1      3384 7.00897E-03 9.01596E-05-3.53656E-14
 -1      3385 6.86373E-03 3.06084E-05-3.48809E-14
 -1      3386 1.82881E-03-2.00828E-04-4.26962E-15
 -1      3387 1.97247E-03-2.09279E-04-4.88261E-15
 -1      3388 2.11785E-03-2.18302E-04-5.53526E-15
 -1      3389 2.26571E-03-2.28930E-04-6.22754E-15
 -1      3390 2.00803E-03-1.75733E-04-5.23015E-15
 -1      3391 2.41657E-03-2.41419E-04-6.95895E-15
 -1      3392 2.57149E-03-2.57630E-04-7.73069E-15
 -1      3393 2.29575E-03-1.90631E-04-6.61428E-15
 -1      3394 2.73120E-03-2.77807E-04-8.54197E-15
 -1      3395 2.89696E-03-3.04751E-04-9.39261E-15
 -1      3396 2.59676E-03-2.14503E-04-8.15533E-15
 -1      3397 3.11353E-03-3.33521E-04-1.05964E-14
 -1      3398 3.29492E-03-3.80970E-04-1.15376E-14
 -1      3399 2.46195E-03 2.82165E-04-7.02300E-15
 -1      3400 2.31677E-03 2.66106E-04-6.29522E-15
 -1      3401 2.44640E-03 2.34206E-04-7.43311E-15
 -1      3402 5.73110E-03-5.48042E-04-2.80988E-14
 -1      3403 6.46868E-03-2.16281E-04-3.39052E-14
 -1      3404 6.63613E-03-1.76337E-04-3.56207E-14
 -1      3405 6.79760E-03-1.44476E-04-3.73717E-14
 -1      3406 6.95345E-03-1.17754E-04-3.91573E-14
 -1      3407 6.77936E-03-1.04621E-04-3.65064E-14
 -1      3408 7.10488E-03-9.60956E-05-4.09758E-14
 -1      3409 7.25291E-03-7.74591E-05-4.28298E-14
 -1      3410 7.08214E-03-5.99613E-05-4.00781E-14
 -1      3411 7.39817E-03-6.19219E-05-4.47154E-14
 -1      3412 7.54153E-03-4.82413E-05-4.66322E-14
 -1      3413 7.36971E-03-2.89664E-05-4.37833E-14
 -1      3414 7.68335E-03-3.64415E-05-4.85813E-14
 -1      3415 7.82426E-03-2.58126E-05-5.05581E-14
 -1      3416 7.64919E-03-5.54971E-06-4.76158E-14
 -1      3417 7.96442E-03-1.63165E-05-5.25640E-14
 -1      3418 8.10427E-03-7.53744E-06-5.46008E-14
 -1      3419 7.92509E-03 1.34827E-05-5.15690E-14
 -1      3420 8.24385E-03 5.94853E-07-5.66641E-14
 -1      3421 8.38345E-03 8.33260E-06-5.87547E-14
 -1      3422 8.20001E-03 2.99747E-05-5.56357E-14
 -1      3423 8.52306E-03 1.57535E-05-6.08718E-14
 -1      3424 8.66285E-03 2.30134E-05-6.30142E-14
 -1      3425 8.47537E-03 4.51274E-05-5.98130E-14
 -1      3426 8.80277E-03 3.01810E-05-6.51809E-14
 -1      3427 8.94296E-03 3.73532E-05-6.73709E-14
 -1      3428 8.75189E-03 5.97701E-05-6.40945E-14
 -1      3429 9.08334E-03 4.45819E-05-6.95854E-14
 -1      3430 9.22399E-03 5.19262E-05-7.18210E-14
 -1      3431 9.02984E-03 7.44800E-05-6.84721E-14
 -1      3432 9.36484E-03 5.94192E-05-7.40770E-14
 -1      3433 9.50594E-03 6.70951E-05-7.63545E-14
 -1      3434 9.30923E-03 8.96442E-05-7.29402E-14
 -1      3435 9.64723E-03 7.49702E-05-7.86499E-14
 -1      3436 9.78874E-03 8.30620E-05-8.09636E-14
 -1      3437 9.58996E-03 1.05498E-04-7.74890E-14
 -1      3438 9.93041E-03 9.13733E-05-8.32969E-14
 -1      3439 1.00723E-02 9.99110E-05-8.56496E-14
 -1      3440 9.87185E-03 1.22161E-04-8.21144E-14
 -1      3441 1.02143E-02 1.08668E-04-8.80184E-14
 -1      3442 1.03564E-02 1.17645E-04-9.04053E-14
 -1      3443 1.01547E-02 1.39666E-04-8.68160E-14
 -1      3444 1.04986E-02 1.26828E-04-9.28095E-14
 -1      3445 1.06410E-02 1.36214E-04-9.52272E-14
 -1      3446 1.04384E-02 1.57990E-04-9.15859E-14
 -1      3447 1.07834E-02 1.45786E-04-9.76608E-14
 -1      3448 1.09259E-02 1.55537E-04-1.00108E-13
 -1      3449 1.07226E-02 1.77071E-04-9.64231E-14
 -1      3450 1.10685E-02 1.65451E-04-1.02569E-13
 -1      3451 1.12111E-02 1.75519E-04-1.05043E-13
 -1      3452 1.10073E-02 1.96824E-04-1.01319E-13
 -1      3453 1.13538E-02 1.85725E-04-1.07524E-13
 -1      3454 1.14966E-02 1.96060E-04-1.10012E-13
 -1      3455 1.12924E-02 2.17159E-04-1.06261E-13
 -1      3456 1.16393E-02 2.06509E-04-1.12511E-13
 -1      3457 1.17821E-02 2.17064E-04-1.15018E-13
 -1      3458 1.15777E-02 2.37984E-04-1.11239E-13
 -1      3459 1.19249E-02 2.27712E-04-1.17531E-13
 -1      3460 1.20678E-02 2.38445E-04-1.20052E-13
 -1      3461 1.18632E-02 2.59212E-04-1.16252E-13
 -1      3462 1.22106E-02 2.49252E-04-1.22583E-13
 -1      3463 1.23535E-02 2.60126E-04-1.25120E-13
 -1      3464 1.21488E-02 2.80766E-04-1.21295E-13
 -1      3465 1.24963E-02 2.71056E-04-1.27667E-13
 -1      3466 1.26392E-02 2.82039E-04-1.30221E-13
 -1      3467 1.24345E-02 3.02577E-04-1.26371E-13
 -1      3468 1.27821E-02 2.93064E-04-1.32784E-13
 -1      3469 1.29250E-02 3.04129E-04-1.35354E-13
 -1      3470 1.27202E-02 3.24587E-04-1.31479E-13
 -1      3471 1.30678E-02 3.15225E-04-1.37929E-13
 -1      3472 1.32107E-02 3.26350E-04-1.40512E-13
 -1      3473 1.30060E-02 3.46747E-04-1.36617E-13
 -1      3474 1.33536E-02 3.37496E-04-1.43099E-13
 -1      3475 1.34965E-02 3.48662E-04-1.45690E-13
 -1      3476 1.32918E-02 3.69018E-04-1.41777E-13
 -1      3477 1.36133E-02 3.61911E-04-1.47787E-13
 -1      3478 1.37562E-02 3.73102E-04-1.50384E-13
 -1      3479 1.37851E-02 4.19955E-04-1.50649E-13
 -1      3480 1.35515E-02 3.93431E-04-1.46456E-13
 -1      3481 1.41927E-02 1.00039E-03-1.54593E-13
 -1      3482 1.42085E-02 1.03710E-03-1.54645E-13
 -1      3483 1.41215E-02 1.03443E-03-1.53050E-13
 -1      3484 1.40634E-02 9.69698E-04-1.52404E-13
 -1      3485 7.08035E-03 4.42768E-04-3.77709E-14
 -1      3486 6.92783E-03 4.52559E-04-3.60054E-14
 -1      3487 7.93440E-03 4.67456E-04-4.90345E-14
 -1      3488 7.79513E-03 4.57237E-04-4.70799E-14
 -1      3489 8.21235E-03 4.91964E-04-5.30335E-14
 -1      3490 8.07334E-03 4.79133E-04-5.10206E-14
 -1      3491 8.01924E-03 4.40524E-04-5.01175E-14
 -1      3492 8.49075E-03 5.20089E-04-5.71451E-14
 -1      3493 8.35141E-03 5.05673E-04-5.50740E-14
 -1      3494 8.29132E-03 4.66581E-04-5.41425E-14
 -1      3495 8.77023E-03 5.50225E-04-6.13644E-14
 -1      3496 8.63031E-03 5.34972E-04-5.92409E-14
 -1      3497 8.56533E-03 4.95188E-04-5.82791E-14
 -1      3498 9.05091E-03 5.81215E-04-6.56904E-14
 -1      3499 8.91040E-03 5.65658E-04-6.35156E-14
 -1      3500 8.84146E-03 5.25166E-04-6.25247E-14
 -1      3501 9.33273E-03 6.12254E-04-7.01174E-14
 -1      3502 9.19167E-03 5.96758E-04-6.78916E-14
 -1      3503 9.11959E-03 5.55640E-04-6.68754E-14
 -1      3504 9.61552E-03 6.42815E-04-7.46309E-14
 -1      3505 9.47400E-03 6.27610E-04-7.23632E-14
 -1      3506 9.39945E-03 5.85984E-04-7.13219E-14
 -1      3507 9.89910E-03 6.72595E-04-7.92280E-14
 -1      3508 9.75721E-03 6.57809E-04-7.69191E-14
 -1      3509 9.68076E-03 6.15791E-04-7.58553E-14
 -1      3510 1.01833E-02 7.01452E-04-8.39001E-14
 -1      3511 1.00411E-02 6.87140E-04-8.15556E-14
 -1      3512 9.96323E-03 6.44833E-04-8.04689E-14
 -1      3513 1.04680E-02 7.29350E-04-8.86409E-14
 -1      3514 1.03256E-02 7.15518E-04-8.62620E-14
 -1      3515 1.02466E-02 6.73008E-04-8.51572E-14
 -1      3516 1.07530E-02 7.56328E-04-9.34494E-14
 -1      3517 1.06104E-02 7.42949E-04-9.10388E-14
 -1      3518 1.05307E-02 7.00302E-04-8.99141E-14
 -1      3519 1.10382E-02 7.82465E-04-9.83190E-14
 -1      3520 1.08956E-02 7.69495E-04-9.58768E-14
 -1      3521 1.08152E-02 7.26761E-04-9.47345E-14
 -1      3522 1.13237E-02 8.07864E-04-1.03250E-13
 -1      3523 1.11809E-02 7.95250E-04-1.00777E-13
 -1      3524 1.11002E-02 7.52463E-04-9.96178E-14
 -1      3525 1.16092E-02 8.32632E-04-1.08228E-13
 -1      3526 1.14664E-02 8.20321E-04-1.05732E-13
 -1      3527 1.13855E-02 7.77506E-04-1.04557E-13
 -1      3528 1.18949E-02 8.56876E-04-1.13249E-13
 -1      3529 1.17521E-02 8.44814E-04-1.10734E-13
 -1      3530 1.16709E-02 8.01988E-04-1.09544E-13
 -1      3531 1.21806E-02 8.80692E-04-1.18303E-13
 -1      3532 1.20377E-02 8.68832E-04-1.15772E-13
 -1      3533 1.19565E-02 8.26006E-04-1.14571E-13
 -1      3534 1.24663E-02 9.04166E-04-1.23381E-13
 -1      3535 1.23235E-02 8.92467E-04-1.20841E-13
 -1      3536 1.22421E-02 8.49646E-04-1.19631E-13
 -1      3537 1.27521E-02 9.27375E-04-1.28478E-13
 -1      3538 1.26092E-02 9.15800E-04-1.25925E-13
 -1      3539 1.25279E-02 8.72988E-04-1.24710E-13
 -1      3540 1.30378E-02 9.50379E-04-1.33588E-13
 -1      3541 1.28950E-02 9.38899E-04-1.31032E-13
 -1      3542 1.28136E-02 8.96097E-04-1.29809E-13
 -1      3543 1.33236E-02 9.73234E-04-1.38709E-13
 -1      3544 1.31807E-02 9.61823E-04-1.36147E-13
 -1      3545 1.30994E-02 9.19029E-04-1.34923E-13
 -1      3546 1.36094E-02 9.95980E-04-1.43836E-13
 -1      3547 1.34665E-02 9.84618E-04-1.41268E-13
 -1      3548 1.33851E-02 9.41832E-04-1.40043E-13
 -1      3549 7.37256E-03 4.38951E-04-4.14000E-14
 -1      3550 7.22792E-03 4.38990E-04-3.95684E-14
 -1      3551 7.19924E-03 3.96709E-04-3.87579E-14
 -1      3552 7.65546E-03 4.48753E-04-4.51546E-14
 -1      3553 7.51467E-03 4.42580E-04-4.32626E-14
 -1      3554 7.47632E-03 4.02868E-04-4.24187E-14
 -1      3555 1.38276E-02 6.12842E-04-1.50291E-13
 -1      3556 1.38384E-02 6.54278E-04-1.50239E-13
 -1      3557 6.94659E-03 3.29183E-04-3.45195E-14
 -1      3558 7.08212E-03 2.73232E-04-3.51980E-14
 -1      3559 2.82476E-03-1.49460E-04-1.00973E-14
 -1      3560 2.68222E-03-8.99835E-05-9.73139E-15
 -1      3561 6.76824E-03 4.38543E-04-3.39115E-14
 -1      3562 5.87166E-03-4.47667E-04-2.89020E-14
 -1      3563 7.17519E-03 2.24098E-04-3.53502E-14
 -1      3564 7.19832E-03 2.01164E-04-3.50985E-14
 -1      3565 7.19241E-03 1.84172E-04-3.47341E-14
 -1      3566 7.16627E-03 1.72098E-04-3.44179E-14
 -1      3567 7.19325E-03 1.64561E-04-3.55396E-14
 -1      3568 2.32732E-03 3.57169E-05-8.84296E-15
 -1      3569 2.28922E-03 4.76358E-05-8.70415E-15
 -1      3570 1.54544E-03-1.84012E-04-3.16475E-15
 -1      3571 1.68664E-03-1.92613E-04-3.69708E-15
 -1      3572 1.72766E-03-1.63475E-04-4.00354E-15
 -1      3573 9.44764E-04-1.79036E-05-1.56697E-15
 -1      3574 9.51532E-04-3.52922E-05-1.56647E-15
 -1      3575 1.06592E-03-4.78142E-05-1.89288E-15
 -1      3576 1.06557E-03-1.53036E-04-1.62804E-15
 -1      3577 6.64468E-03-7.34570E-05-3.39898E-14
 -1      3578 6.44270E-03-1.65914E-04-3.28108E-14
 -1      3579 1.33558E-03 2.14483E-04-2.17743E-15
 -1      3580 1.28079E-03 1.89611E-04-2.10440E-15
 -1      3581 1.47660E-03 2.27131E-04-2.61474E-15
 -1      3582 2.17455E-03 2.53146E-04-5.60654E-15
 -1      3583 2.03382E-03 2.41778E-04-4.95680E-15
 -1      3584 2.17335E-03 2.12221E-04-5.97778E-15
 -1      3585 5.35740E-03 1.05930E-03-2.31290E-14
 -1      3586 2.94956E-03 3.75170E-04-9.42749E-15
 -1      3587 2.38747E-03 1.20524E-04-8.76813E-15
 -1      3588 2.47034E-03 1.54367E-04-8.76963E-15
 -1      3589 1.25542E-03 1.60492E-04-2.14751E-15
 -1      3590 2.46572E-03 1.85536E-04-8.22319E-15
 -1      3591 7.25628E-03 1.96822E-04-3.62356E-14
 -1      3592 2.33777E-03 1.20381E-05-8.60071E-15
 -1      3593 2.87115E-03-2.03535E-04-9.93963E-15
 -1      3594 2.72037E-03-1.82293E-04-9.14400E-15
 -1      3595 1.17516E-03-1.49711E-04-1.97303E-15
 -1      3596 6.28117E-03-2.57006E-04-3.19687E-14
 -1      3597 6.91135E-03 3.77262E-04-3.48556E-14
 -1      3598 7.07843E-03 3.53979E-04-3.66364E-14
 -1      3599 1.36793E-02 4.48834E-04-1.48509E-13
 -1      3600 1.37961E-02 4.62106E-04-1.50605E-13
 -1      3601 1.38071E-02 5.04258E-04-1.50560E-13
 -1      3602 1.29645E-03-1.62382E-04-2.33356E-15
 -1      3603 1.42202E-03-1.72521E-04-2.74287E-15
 -1      3604 1.46777E-03-1.47647E-04-3.00854E-15
 -1      3605 1.22835E-03-1.27651E-04-2.21521E-15
 -1      3606 1.08357E-03 1.01055E-04-1.81257E-15
 -1      3607 7.74826E-03 4.18571E-04-4.62079E-14
 -1      3608 1.37203E-02 6.65872E-04-1.47978E-13
 -1      3609 1.38495E-02 6.96339E-04-1.50187E-13
 -1      3610 1.38605E-02 7.38399E-04-1.50130E-13
 -1      3611 1.38951E-02 1.01866E-03-1.48968E-13
 -1      3612 1.37522E-02 1.00733E-03-1.46402E-13
 -1      3613 1.40344E-02 1.03175E-03-1.51459E-13
 -1      3614 2.55506E-03-6.93027E-05-9.11157E-15
 -1      3615 1.36709E-02 9.64543E-04-1.45173E-13
 -1      3616 1.17251E-03 7.59771E-05-2.19723E-15
 -1      3617 1.16207E-03 5.61355E-05-2.21650E-15
 -1      3618 7.22616E-03 2.89550E-04-3.75688E-14
 -1      3619 7.19783E-03 2.54422E-04-3.64565E-14
 -1      3620 7.29724E-03 2.42999E-04-3.77281E-14
 -1      3621 2.26060E-03 6.33121E-05-8.55479E-15
 -1      3622 2.27035E-03 7.41611E-05-8.60584E-15
 -1      3623 2.29665E-03 8.74752E-05-8.66744E-15
 -1      3624 2.33382E-03 1.00949E-04-8.71261E-15
 -1      3625 2.30155E-03 1.12837E-04-8.16509E-15
 -1      3626 2.22369E-03 8.01458E-05-8.05353E-15
 -1      3627 1.91581E-03 2.36620E-04-4.41204E-15
 -1      3628 1.79740E-03 2.31556E-04-3.89829E-15
 -1      3629 1.92593E-03 2.00107E-04-4.74523E-15
 -1      3630 1.26503E-03 5.01355E-05-2.60980E-15
 -1      3631 1.15557E-03 3.71873E-05-2.23175E-15
 -1      3632 1.15322E-03 1.85745E-05-2.24297E-15
 -1      3633 6.09799E-03-3.19137E-04-3.03303E-14
 -1      3634 2.22072E-03 5.14402E-05-8.13988E-15
 -1      3635 1.04995E-03-9.76663E-06-1.89391E-15
 -1      3636 1.38938E-02 8.64316E-04-1.49948E-13
 -1      3637 1.39050E-02 9.06467E-04-1.49884E-13
 -1      3638 6.82736E-03-2.64324E-05-3.56854E-14
 -1      3639 1.17012E-03-3.97384E-05-2.25379E-15
 -1      3640 1.18282E-03-6.16280E-05-2.24929E-15
 -1      3641 1.38118E-02 5.37475E-04-1.50448E-13
 -1      3642 1.38228E-02 5.79626E-04-1.50402E-13
 -1      3643 1.37045E-02 5.90612E-04-1.48138E-13
 -1      3644 1.36950E-02 5.24191E-04-1.48357E-13
 -1      3645 1.39240E-02 9.56611E-04-1.49909E-13
 -1      3646 1.39531E-02 9.88972E-04-1.50235E-13
 -1      3647 1.19489E-03-8.04396E-05-2.24138E-15
 -1      3648 1.21270E-03-1.05780E-04-2.22946E-15
 -1      3649 1.32970E-03-1.14440E-04-2.61266E-15
 -1      3650 1.29873E-03-7.18139E-05-2.63495E-15
 -1      3651 1.37947E-02 9.25738E-04-1.47717E-13
 -1      3652 3.02771E-03-2.82466E-04-1.03772E-14
 -1      3653 7.11969E-03 1.27969E-04-3.58679E-14
 -1      3654 7.13595E-03 1.03231E-04-3.71079E-14
 -1      3655 7.26042E-03 1.16223E-04-3.88465E-14
 -1      3656 7.16275E-03 7.90261E-05-3.83232E-14
 -1      3657 2.17931E-03-1.46177E-04-6.27431E-15
 -1      3658 2.32064E-03-1.51772E-04-7.00480E-15
 -1      3659 2.44233E-03-1.58764E-04-7.64418E-15
 -1      3660 2.59056E-03-1.69283E-04-8.44576E-15
 -1      3661 2.55597E-03-1.22997E-04-8.59664E-15
 -1      3662 2.31864E-03-1.12555E-04-7.27235E-15
 -1      3663 1.90302E-03-1.38127E-04-4.92907E-15
 -1      3664 2.04049E-03-1.42017E-04-5.58229E-15
 -1      3665 2.06962E-03-1.07987E-04-5.93862E-15
 -1      3666 6.97142E-03-7.40558E-06-3.74393E-14
 -1      3667 1.18689E-03 9.72331E-05-2.17332E-15
 -1      3668 1.28877E-03 9.21205E-05-2.56595E-15
 -1      3669 1.20477E-03 1.20362E-04-2.14446E-15
 -1      3670 1.36518E-02 9.14415E-04-1.45146E-13
 -1      3671 7.12234E-03 1.73132E-05-3.91875E-14
 -1      3672 7.25718E-03 2.90560E-05-4.10068E-14
 -1      3673 7.38969E-03 3.90216E-05-4.28587E-14
 -1      3674 7.52193E-03 4.82622E-05-4.47435E-14
 -1      3675 7.41536E-03 1.00672E-04-4.19200E-14
 -1      3676 7.65329E-03 5.67660E-05-4.66577E-14
 -1      3677 7.78503E-03 6.49437E-05-4.86026E-14
 -1      3678 7.65883E-03 1.13502E-04-4.56854E-14
 -1      3679 7.91670E-03 7.28541E-05-5.05777E-14
 -1      3680 8.04906E-03 8.05517E-05-5.25791E-14
 -1      3681 7.90783E-03 1.27345E-04-4.95698E-14
 -1      3682 8.18177E-03 8.81932E-05-5.46108E-14
 -1      3683 8.31528E-03 9.57284E-05-5.66689E-14
 -1      3684 8.16234E-03 1.42166E-04-5.35705E-14
 -1      3685 8.44933E-03 1.03327E-04-5.87537E-14
 -1      3686 8.58418E-03 1.10900E-04-6.08646E-14
 -1      3687 8.42200E-03 1.57817E-04-5.76818E-14
 -1      3688 8.71965E-03 1.18604E-04-6.30026E-14
 -1      3689 8.85587E-03 1.26353E-04-6.51663E-14
 -1      3690 8.68628E-03 1.74217E-04-6.19000E-14
 -1      3691 8.99268E-03 1.34280E-04-6.73537E-14
 -1      3692 9.13017E-03 1.42304E-04-6.95631E-14
 -1      3693 8.95465E-03 1.91304E-04-6.62224E-14
 -1      3694 9.26821E-03 1.50530E-04-7.17942E-14
 -1      3695 9.40682E-03 1.58888E-04-7.40456E-14
 -1      3696 9.22657E-03 2.09053E-04-7.06374E-14
 -1      3697 9.54591E-03 1.67459E-04-7.63164E-14
 -1      3698 9.68549E-03 1.76180E-04-7.86079E-14
 -1      3699 9.50147E-03 2.27436E-04-7.51381E-14
 -1      3700 9.82546E-03 1.85110E-04-8.09188E-14
 -1      3701 9.96584E-03 1.94198E-04-8.32488E-14
 -1      3702 9.77887E-03 2.46422E-04-7.97161E-14
 -1      3703 1.01065E-02 2.03482E-04-8.55969E-14
 -1      3704 1.02476E-02 2.12921E-04-8.79621E-14
 -1      3705 1.00583E-02 2.65967E-04-8.43732E-14
 -1      3706 1.03888E-02 2.22538E-04-9.03456E-14
 -1      3707 1.05304E-02 2.32299E-04-9.27481E-14
 -1      3708 1.03394E-02 2.86022E-04-8.91024E-14
 -1      3709 1.06721E-02 2.42218E-04-9.51661E-14
 -1      3710 1.08140E-02 2.52268E-04-9.75970E-14
 -1      3711 1.06217E-02 3.06531E-04-9.39007E-14
 -1      3712 1.09561E-02 2.62452E-04-1.00045E-13
 -1      3713 1.10984E-02 2.72750E-04-1.02506E-13
 -1      3714 1.09050E-02 3.27435E-04-9.87650E-14
 -1      3715 1.12407E-02 2.83162E-04-1.04976E-13
 -1      3716 1.13831E-02 2.93671E-04-1.07455E-13
 -1      3717 1.11891E-02 3.48676E-04-1.03683E-13
 -1      3718 1.15257E-02 3.04274E-04-1.09946E-13
 -1      3719 1.16683E-02 3.14958E-04-1.12443E-13
 -1      3720 1.14738E-02 3.70200E-04-1.08644E-13
 -1      3721 1.18109E-02 3.25717E-04-1.14950E-13
 -1      3722 1.19537E-02 3.36542E-04-1.17463E-13
 -1      3723 1.17588E-02 3.91956E-04-1.13639E-13
 -1      3724 1.20964E-02 3.47427E-04-1.19983E-13
 -1      3725 1.22392E-02 3.58366E-04-1.22516E-13
 -1      3726 1.20442E-02 4.13900E-04-1.18666E-13
 -1      3727 1.23820E-02 3.69351E-04-1.25053E-13
 -1      3728 1.25249E-02 3.80377E-04-1.27598E-13
 -1      3729 1.23297E-02 4.35993E-04-1.23726E-13
 -1      3730 1.26677E-02 3.91439E-04-1.30151E-13
 -1      3731 1.28106E-02 4.02532E-04-1.32710E-13
 -1      3732 1.26153E-02 4.58202E-04-1.28817E-13
 -1      3733 1.29535E-02 4.13652E-04-1.35274E-13
 -1      3734 1.30964E-02 4.24796E-04-1.37846E-13
 -1      3735 1.29011E-02 4.80500E-04-1.33933E-13
 -1      3736 1.32393E-02 4.35958E-04-1.40424E-13
 -1      3737 1.33822E-02 4.47138E-04-1.43005E-13
 -1      3738 1.31868E-02 5.02864E-04-1.39072E-13
 -1      3739 1.35624E-02 4.35569E-04-1.46415E-13
 -1      3740 8.63725E-03 4.71235E-04-5.94143E-14
 -1      3741 8.50162E-03 4.56770E-04-5.73196E-14
 -1      3742 2.34042E-03 1.76750E-04-7.44085E-15
 -1      3743 1.35920E-03 1.55511E-04-2.54294E-15
 -1      3744 1.36121E-02 8.63801E-04-1.44737E-13
 -1      3745 1.34883E-02 9.02587E-04-1.42197E-13
 -1      3746 8.36684E-03 4.42677E-04-5.52506E-14
 -1      3747 8.23280E-03 4.28974E-04-5.32105E-14
 -1      3748 8.43893E-03 4.19746E-04-5.63604E-14
 -1      3749 8.09966E-03 4.15885E-04-5.11990E-14
 -1      3750 7.96719E-03 4.03458E-04-4.92146E-14
 -1      3751 8.17555E-03 3.92873E-04-5.22804E-14
 -1      3752 8.91069E-03 5.00711E-04-6.36849E-14
 -1      3753 8.77359E-03 4.85885E-04-6.15363E-14
 -1      3754 8.70659E-03 4.47844E-04-6.05500E-14
 -1      3755 9.18678E-03 5.30443E-04-6.80589E-14
 -1      3756 9.04841E-03 5.15564E-04-6.58590E-14
 -1      3757 8.97799E-03 4.76565E-04-6.48460E-14
 -1      3758 9.46509E-03 5.59940E-04-7.25272E-14
 -1      3759 9.32567E-03 5.45233E-04-7.02825E-14
 -1      3760 9.25253E-03 5.05397E-04-6.92432E-14
 -1      3761 9.74523E-03 5.88893E-04-7.70800E-14
 -1      3762 9.60495E-03 5.74489E-04-7.47934E-14
 -1      3763 9.52968E-03 5.33945E-04-7.37335E-14
 -1      3764 1.00268E-02 6.17132E-04-8.17104E-14
 -1      3765 9.88586E-03 6.03102E-04-7.93849E-14
 -1      3766 9.80894E-03 5.61988E-04-7.83033E-14
 -1      3767 1.03095E-02 6.44583E-04-8.64136E-14
 -1      3768 1.01680E-02 6.30953E-04-8.40533E-14
 -1      3769 1.00899E-02 5.89392E-04-8.29495E-14
 -1      3770 1.05931E-02 6.71246E-04-9.11864E-14
 -1      3771 1.04512E-02 6.58008E-04-8.87913E-14
 -1      3772 1.03721E-02 6.16101E-04-8.76710E-14
 -1      3773 1.08774E-02 6.97171E-04-9.60179E-14
 -1      3774 1.07352E-02 6.84295E-04-9.35937E-14
 -1      3775 1.06554E-02 6.42128E-04-9.24547E-14
 -1      3776 1.11621E-02 7.22431E-04-1.00914E-13
 -1      3777 1.10197E-02 7.09878E-04-9.84584E-14
 -1      3778 1.09394E-02 6.67519E-04-9.73009E-14
 -1      3779 1.14472E-02 7.47115E-04-1.05863E-13
 -1      3780 1.13046E-02 7.34839E-04-1.03382E-13
 -1      3781 1.12239E-02 6.92342E-04-1.02208E-13
 -1      3782 1.17325E-02 7.71312E-04-1.10858E-13
 -1      3783 1.15899E-02 7.59269E-04-1.08356E-13
 -1      3784 1.15089E-02 7.16673E-04-1.07169E-13
 -1      3785 1.20181E-02 7.95106E-04-1.15891E-13
 -1      3786 1.18753E-02 7.83254E-04-1.13371E-13
 -1      3787 1.17942E-02 7.40591E-04-1.12171E-13
 -1      3788 1.23037E-02 8.18575E-04-1.20954E-13
 -1      3789 1.21609E-02 8.06877E-04-1.18420E-13
 -1      3790 1.20797E-02 7.64169E-04-1.17211E-13
 -1      3791 1.25894E-02 8.41787E-04-1.26037E-13
 -1      3792 1.24465E-02 8.30209E-04-1.23494E-13
 -1      3793 1.23653E-02 7.87473E-04-1.22275E-13
 -1      3794 1.28751E-02 8.64800E-04-1.31139E-13
 -1      3795 1.27323E-02 8.53316E-04-1.28586E-13
 -1      3796 1.26510E-02 8.10562E-04-1.27364E-13
 -1      3797 1.31609E-02 8.87664E-04-1.36254E-13
 -1      3798 1.30180E-02 8.76249E-04-1.33694E-13
 -1      3799 1.29367E-02 8.33485E-04-1.32466E-13
 -1      3800 1.33454E-02 8.91231E-04-1.39633E-13
 -1      3801 7.57352E-03 3.72126E-04-4.34427E-14
 -1      3802 7.44238E-03 3.64465E-04-4.15796E-14
 -1      3803 7.83555E-03 3.91925E-04-4.72600E-14
 -1      3804 7.70426E-03 3.81411E-04-4.53361E-14
 -1      3805 7.91689E-03 3.67942E-04-4.83153E-14
 -1      3806 1.15499E-03-4.51899E-08-2.25033E-15
 -1      3807 1.16068E-03-1.93763E-05-2.25396E-15
 -1      3808 1.27336E-03-3.00870E-05-2.64384E-15
 -1      3809 1.25998E-03 1.08963E-05-2.63532E-15
 -1      3810 1.38716E-02 7.80327E-04-1.50071E-13
 -1      3811 1.38827E-02 8.22388E-04-1.50010E-13
 -1      3812 1.37645E-02 8.33681E-04-1.47751E-13
 -1      3813 1.37424E-02 7.49842E-04-1.47870E-13
 -1      3814 2.44332E-03-6.63578E-05-8.41918E-15
 -1      3815 2.32360E-03-1.63401E-05-8.16465E-15
 -1      3816 2.23399E-03 1.01942E-05-7.85921E-15
 -1      3817 7.20195E-03 3.60880E-04-3.83419E-14
 -1      3818 7.21854E-03 3.20916E-04-3.79923E-14
 -1      3819 7.33510E-03 3.01652E-04-3.92917E-14
 -1      3820 7.33581E-03 3.64427E-04-4.01487E-14
 -1      3821 1.63120E-03-1.30104E-04-3.74093E-15
 -1      3822 1.76683E-03-1.34333E-04-4.31530E-15
 -1      3823 1.80408E-03-1.05131E-04-4.63244E-15
 -1      3824 1.69791E-03 2.32958E-04-3.45524E-15
 -1      3825 1.57823E-03 2.27131E-04-3.00217E-15
 -1      3826 1.51959E-03 2.01596E-04-2.91519E-15
 -1      3827 1.71609E-03 1.98877E-04-3.75470E-15
 -1      3828 7.17974E-03 1.41418E-04-3.64088E-14
 -1      3829 2.23795E-03 1.34499E-04-7.30803E-15
 -1      3830 2.20479E-03 1.74219E-04-6.57245E-15
 -1      3831 7.23993E-03 1.62698E-04-3.67413E-14
 -1      3832 7.29156E-03 1.58965E-04-3.79576E-14
 -1      3833 7.28405E-03 1.79238E-04-3.70703E-14
 -1      3834 2.07837E-03 1.68014E-04-5.87074E-15
 -1      3835 7.32777E-03 2.16557E-04-3.78230E-14
 -1      3836 7.31416E-03 1.97660E-04-3.74498E-14
 -1      3837 7.37325E-03 1.97467E-04-3.86772E-14
 -1      3838 2.17682E-03 3.60742E-05-7.68526E-15
 -1      3839 2.14895E-03 5.27573E-05-7.54565E-15
 -1      3840 2.18854E-03 1.13693E-04-7.26148E-15
 -1      3841 2.14395E-03 1.39282E-05-7.27723E-15
 -1      3842 7.43667E-03 3.33311E-04-4.11458E-14
 -1      3843 1.37551E-03-1.89660E-05-3.06303E-15
 -1      3844 1.38821E-03-4.17682E-05-3.06320E-15
 -1      3845 1.35100E-02 5.02525E-04-1.45052E-13
 -1      3846 7.38052E-03 1.64408E-04-3.95374E-14
 -1      3847 7.32620E-03 1.42628E-04-3.91945E-14
 -1      3848 7.36323E-03 1.23332E-04-4.04418E-14
 -1      3849 1.36010E-02 8.21892E-04-1.44797E-13
 -1      3850 1.34374E-02 8.10090E-04-1.41846E-13
 -1      3851 1.35899E-02 7.79985E-04-1.44856E-13
 -1      3852 1.35910E-02 6.35103E-04-1.45769E-13
 -1      3853 1.36021E-02 6.77145E-04-1.45719E-13
 -1      3854 1.32641E-02 8.48464E-04-1.38402E-13
 -1      3855 7.66293E-03 3.45721E-04-4.44664E-14
 -1      3856 2.16010E-03 6.72717E-05-7.60848E-15
 -1      3857 2.18306E-03 8.11409E-05-7.66732E-15
 -1      3858 2.10224E-03 5.33830E-05-7.17203E-15
 -1      3859 2.31515E-03-6.02180E-05-7.68403E-15
 -1      3860 1.45659E-03 1.54885E-04-2.92210E-15
 -1      3861 7.37329E-03 2.42944E-04-3.89630E-14
 -1      3862 1.37563E-03 6.40196E-05-3.01491E-15
 -1      3863 1.36750E-03 4.32320E-05-3.03404E-15
 -1      3864 1.93051E-03 1.71117E-04-5.01171E-15
 -1      3865 1.82067E-03 1.68771E-04-4.46580E-15
 -1      3866 1.42085E-03-1.18776E-04-2.93766E-15
 -1      3867 1.53927E-03-1.26529E-04-3.37447E-15
 -1      3868 1.58217E-03-1.00935E-04-3.65747E-15
 -1      3869 1.40284E-03-9.56801E-05-2.95097E-15
 -1      3870 1.97475E-03 1.38853E-04-5.55217E-15
 -1      3871 1.40737E-03 1.09092E-04-2.96100E-15
 -1      3872 1.38908E-03 8.57122E-05-2.99081E-15
 -1      3873 1.48791E-03 7.86479E-05-3.44604E-15
 -1      3874 1.35815E-02 5.68701E-04-1.45987E-13
 -1      3875 1.35862E-02 6.01903E-04-1.45879E-13
 -1      3876 1.34680E-02 6.13185E-04-1.43623E-13
 -1      3877 1.38662E-03-7.40733E-05-2.96113E-15
 -1      3878 1.48787E-03-6.26211E-05-3.40805E-15
 -1      3879 1.96753E-03-7.58572E-05-5.60760E-15
 -1      3880 2.09545E-03-7.48828E-05-6.29896E-15
 -1      3881 1.36757E-03 2.38688E-06-3.05817E-15
 -1      3882 1.47659E-03-6.82126E-06-3.51035E-15
 -1      3883 1.36484E-03 2.29758E-05-3.04855E-15
 -1      3884 1.35147E-02 5.35724E-04-1.44945E-13
 -1      3885 7.47766E-03 1.28646E-04-4.22833E-14
 -1      3886 7.63035E-03 1.37774E-04-4.47156E-14
 -1      3887 7.74976E-03 1.44056E-04-4.66279E-14
 -1      3888 7.87107E-03 1.51075E-04-4.85712E-14
 -1      3889 7.99449E-03 1.58275E-04-5.05412E-14
 -1      3890 7.83368E-03 1.73186E-04-4.75724E-14
 -1      3891 8.11961E-03 1.66003E-04-5.25391E-14
 -1      3892 8.24648E-03 1.73870E-04-5.45661E-14
 -1      3893 8.07617E-03 1.88483E-04-5.15109E-14
 -1      3894 8.37485E-03 1.82125E-04-5.66211E-14
 -1      3895 8.50465E-03 1.90545E-04-5.87018E-14
 -1      3896 8.32704E-03 2.05312E-04-5.55617E-14
 -1      3897 8.63571E-03 1.99259E-04-6.08095E-14
 -1      3898 8.76803E-03 2.08089E-04-6.29445E-14
 -1      3899 8.58464E-03 2.23245E-04-5.97221E-14
 -1      3900 8.90145E-03 2.17178E-04-6.51048E-14
 -1      3901 9.03592E-03 2.26378E-04-6.72900E-14
 -1      3902 8.84784E-03 2.42143E-04-6.39889E-14
 -1      3903 9.17131E-03 2.35784E-04-6.94966E-14
 -1      3904 9.30758E-03 2.45295E-04-7.17254E-14
 -1      3905 9.11577E-03 2.61731E-04-6.83561E-14
 -1      3906 9.44461E-03 2.54985E-04-7.39747E-14
 -1      3907 9.58236E-03 2.64777E-04-7.62441E-14
 -1      3908 9.38755E-03 2.81849E-04-7.28136E-14
 -1      3909 9.72075E-03 2.74722E-04-7.85346E-14
 -1      3910 9.85972E-03 2.84758E-04-8.08432E-14
 -1      3911 9.66251E-03 3.02439E-04-7.73534E-14
 -1      3912 9.99920E-03 2.94927E-04-8.31718E-14
 -1      3913 1.01392E-02 3.05179E-04-8.55193E-14
 -1      3914 9.94004E-03 3.23397E-04-8.19715E-14
 -1      3915 1.02795E-02 3.15544E-04-8.78836E-14
 -1      3916 1.04202E-02 3.25984E-04-9.02649E-14
 -1      3917 1.02196E-02 3.44663E-04-8.66655E-14
 -1      3918 1.05613E-02 3.36520E-04-9.26643E-14
 -1      3919 1.07026E-02 3.47121E-04-9.50798E-14
 -1      3920 1.05009E-02 3.66183E-04-9.14286E-14
 -1      3921 1.08442E-02 3.57803E-04-9.75114E-14
 -1      3922 1.09860E-02 3.68541E-04-9.99571E-14
 -1      3923 1.07834E-02 3.87912E-04-9.62586E-14
 -1      3924 1.11280E-02 3.79345E-04-1.02415E-13
 -1      3925 1.12701E-02 3.90197E-04-1.04885E-13
 -1      3926 1.10669E-02 4.09812E-04-1.01149E-13
 -1      3927 1.14124E-02 4.01103E-04-1.07365E-13
 -1      3928 1.15548E-02 4.12049E-04-1.09855E-13
 -1      3929 1.13511E-02 4.31850E-04-1.06087E-13
 -1      3930 1.16973E-02 4.23037E-04-1.12353E-13
 -1      3931 1.18399E-02 4.34059E-04-1.14858E-13
 -1      3932 1.16358E-02 4.54002E-04-1.11065E-13
 -1      3933 1.19825E-02 4.45114E-04-1.17374E-13
 -1      3934 1.21252E-02 4.56196E-04-1.19896E-13
 -1      3935 1.19210E-02 4.76242E-04-1.16080E-13
 -1      3936 1.22680E-02 4.67305E-04-1.22424E-13
 -1      3937 1.24108E-02 4.78434E-04-1.24964E-13
 -1      3938 1.22064E-02 4.98553E-04-1.21124E-13
 -1      3939 1.25536E-02 4.89583E-04-1.27509E-13
 -1      3940 1.26965E-02 5.00749E-04-1.30061E-13
 -1      3941 1.24919E-02 5.20920E-04-1.26200E-13
 -1      3942 1.28393E-02 5.11929E-04-1.32620E-13
 -1      3943 1.29822E-02 5.23122E-04-1.35181E-13
 -1      3944 1.27776E-02 5.43328E-04-1.31303E-13
 -1      3945 9.04343E-03 4.52615E-04-6.60069E-14
 -1      3946 8.90795E-03 4.38697E-04-6.38334E-14
 -1      3947 8.50770E-03 3.97560E-04-5.74705E-14
 -1      3948 8.37664E-03 3.84172E-04-5.54030E-14
 -1      3949 8.77347E-03 4.24856E-04-6.16858E-14
 -1      3950 8.63999E-03 4.11090E-04-5.95656E-14
 -1      3951 8.83806E-03 4.01969E-04-6.28228E-14
 -1      3952 8.24704E-03 3.71145E-04-5.33624E-14
 -1      3953 8.11882E-03 3.58414E-04-5.13521E-14
 -1      3954 8.31436E-03 3.50101E-04-5.44479E-14
 -1      3955 1.32529E-02 8.06588E-04-1.38461E-13
 -1      3956 1.30684E-02 8.03045E-04-1.35082E-13
 -1      3957 1.32418E-02 7.64718E-04-1.38517E-13
 -1      3958 9.31690E-03 4.80419E-04-7.04272E-14
 -1      3959 9.17975E-03 4.66518E-04-6.82044E-14
 -1      3960 9.10714E-03 4.28639E-04-6.71680E-14
 -1      3961 9.59328E-03 5.07935E-04-7.49371E-14
 -1      3962 9.45476E-03 4.94211E-04-7.26722E-14
 -1      3963 9.38004E-03 4.55295E-04-7.16112E-14
 -1      3964 9.87194E-03 5.35032E-04-7.95246E-14
 -1      3965 9.73234E-03 5.21541E-04-7.72210E-14
 -1      3966 9.65595E-03 4.81793E-04-7.61410E-14
 -1      3967 1.01524E-02 5.61575E-04-8.41898E-14
 -1      3968 1.00120E-02 5.48370E-04-8.18489E-14
 -1      3969 9.93426E-03 5.07919E-04-8.07468E-14
 -1      3970 1.04343E-02 5.87535E-04-8.89254E-14
 -1      3971 1.02932E-02 5.74624E-04-8.65483E-14
 -1      3972 1.02145E-02 5.33606E-04-8.54295E-14
 -1      3973 1.07174E-02 6.12927E-04-9.37229E-14
 -1      3974 1.05757E-02 6.00298E-04-9.13169E-14
 -1      3975 1.04963E-02 5.58830E-04-9.01780E-14
 -1      3976 1.10012E-02 6.37790E-04-9.85862E-14
 -1      3977 1.08592E-02 6.25420E-04-9.61473E-14
 -1      3978 1.07791E-02 5.83602E-04-9.49930E-14
 -1      3979 1.12857E-02 6.62183E-04-1.03506E-13
 -1      3980 1.11434E-02 6.50041E-04-1.01039E-13
 -1      3981 1.10629E-02 6.07955E-04-9.98715E-14
 -1      3982 1.15706E-02 6.86172E-04-1.08475E-13
 -1      3983 1.14281E-02 6.74224E-04-1.05984E-13
 -1      3984 1.13473E-02 6.31936E-04-1.04802E-13
 -1      3985 1.18558E-02 7.09820E-04-1.13484E-13
 -1      3986 1.17131E-02 6.98034E-04-1.10974E-13
 -1      3987 1.16322E-02 6.55597E-04-1.09778E-13
 -1      3988 1.21412E-02 7.33190E-04-1.18526E-13
 -1      3989 1.19985E-02 7.21536E-04-1.16002E-13
 -1      3990 1.19174E-02 6.78990E-04-1.14794E-13
 -1      3991 1.24268E-02 7.56338E-04-1.23597E-13
 -1      3992 1.22840E-02 7.44789E-04-1.21060E-13
 -1      3993 1.22028E-02 7.02166E-04-1.19843E-13
 -1      3994 1.27125E-02 7.79310E-04-1.28687E-13
 -1      3995 1.25697E-02 7.67843E-04-1.26140E-13
 -1      3996 1.24884E-02 7.25166E-04-1.24916E-13
 -1      3997 1.29619E-02 7.96903E-04-1.33159E-13
 -1      3998 1.28190E-02 7.85493E-04-1.30603E-13
 -1      3999 1.27378E-02 7.42785E-04-1.29376E-13
 -1      4000 1.29508E-02 7.55076E-04-1.33215E-13
 -1      4001 7.74449E-03 3.22982E-04-4.54909E-14
 -1      4002 7.62311E-03 3.12190E-04-4.35975E-14
 -1      4003 7.99233E-03 3.46163E-04-4.93703E-14
 -1      4004 7.86738E-03 3.34279E-04-4.74154E-14
 -1      4005 8.06211E-03 3.25649E-04-5.04258E-14
 -1      4006 1.71159E-03-7.65313E-05-4.34055E-15
 -1      4007 1.83989E-03-7.64069E-05-4.95484E-15
 -1      4008 1.87444E-03-4.82654E-05-5.28176E-15
 -1      4009 2.20855E-03-6.08363E-05-7.04619E-15
 -1      4010 2.08824E-03-8.92188E-06-6.73740E-15
 -1      4011 2.03444E-03 1.80311E-05-6.57960E-15
 -1      4012 1.33965E-02 5.47025E-04-1.42690E-13
 -1      4013 1.73977E-03 1.45944E-04-4.23649E-15
 -1      4014 1.72787E-03 1.71613E-04-3.99524E-15
 -1      4015 1.63300E-03 1.74009E-04-3.54981E-15
 -1      4016 7.43137E-03 3.04320E-04-4.07079E-14
 -1      4017 7.42581E-03 2.77322E-04-4.02672E-14
 -1      4018 7.52750E-03 3.07949E-04-4.21437E-14
 -1      4019 1.35904E-02 7.07613E-04-1.45316E-13
 -1      4020 1.36015E-02 7.49520E-04-1.45261E-13
 -1      4021 1.34379E-02 7.37746E-04-1.42307E-13
 -1      4022 1.34612E-02 6.76835E-04-1.43112E-13
 -1      4023 7.45607E-03 2.47712E-04-4.03722E-14
 -1      4024 1.46987E-03 3.58371E-05-3.48864E-15
 -1      4025 1.98645E-03 1.11973E-04-5.88373E-15
 -1      4026 1.84753E-03 1.16224E-04-5.02799E-15
 -1      4027 7.46138E-03 2.06925E-04-4.03238E-14
 -1      4028 7.42780E-03 1.86436E-04-3.99335E-14
 -1      4029 7.47798E-03 1.73208E-04-4.12007E-14
 -1      4030 2.10421E-03 9.79832E-05-6.84367E-15
 -1      4031 1.57641E-03 6.38574E-06-3.98485E-15
 -1      4032 1.58727E-03-1.65875E-05-3.99126E-15
 -1      4033 1.60206E-03 9.39655E-05-3.90303E-15
 -1      4034 1.58505E-03 7.09651E-05-3.93204E-15
 -1      4035 8.57346E-03 3.75610E-04-5.85816E-14
 -1      4036 7.56705E-03 1.57056E-04-4.31937E-14
 -1      4037 1.99597E-03 7.92244E-05-6.25444E-15
 -1      4038 1.31251E-02 5.34326E-04-1.37749E-13
 -1      4039 1.32680E-02 5.45539E-04-1.40323E-13
 -1      4040 7.60790E-03 2.86438E-04-4.31424E-14
 -1      4041 2.10639E-03-3.14293E-05-6.67827E-15
 -1      4042 1.47642E-03 1.31974E-04-3.12837E-15
 -1      4043 1.57408E-03 1.24262E-04-3.59809E-15
 -1      4044 7.81816E-03 3.02587E-04-4.65177E-14
 -1      4045 1.99494E-03 4.15860E-05-6.39314E-15
 -1      4046 2.00578E-03 5.68573E-05-6.45286E-15
 -1      4047 1.87423E-03 6.81079E-05-5.52908E-15
 -1      4048 1.92362E-03 2.23631E-05-5.89263E-15
 -1      4049 1.98188E-03-2.35964E-05-6.01135E-15
 -1      4050 1.33347E-02 5.78497E-04-1.41364E-13
 -1      4051 1.71428E-03-2.52510E-05-4.57472E-15
 -1      4052 1.61833E-03-3.95978E-05-4.06240E-15
 -1      4053 1.62407E-03-7.56371E-05-3.94660E-15
 -1      4054 1.75821E-03 1.12535E-04-4.57203E-15
 -1      4055 1.66918E-03 1.15900E-04-4.09872E-15
 -1      4056 1.33395E-02 6.11676E-04-1.41255E-13
 -1      4057 1.33279E-02 6.42126E-04-1.40859E-13
 -1      4058 1.33162E-02 6.72571E-04-1.40460E-13
 -1      4059 1.31946E-02 6.07435E-04-1.38605E-13
 -1      4060 1.57500E-03 4.93948E-05-3.95516E-15
 -1      4061 1.57211E-03 2.79739E-05-3.97298E-15
 -1      4062 1.67500E-03 1.99858E-05-4.48617E-15
 -1      4063 1.68079E-03 6.32684E-05-4.44821E-15
 -1      4064 7.57355E-03 2.60083E-04-4.24020E-14
 -1      4065 7.50384E-03 2.28679E-04-4.10621E-14
 -1      4066 7.57398E-03 2.17756E-04-4.23534E-14
 -1      4067 7.66108E-03 2.65107E-04-4.38570E-14
 -1      4068 1.78305E-03 8.90792E-05-4.86923E-15
 -1      4069 1.30633E-02 5.65768E-04-1.36430E-13
 -1      4070 8.63642E-03 3.53810E-04-5.96939E-14
 -1      4071 8.50652E-03 3.41406E-04-5.76002E-14
 -1      4072 7.79415E-03 1.93603E-04-4.65745E-14
 -1      4073 7.91125E-03 2.01298E-04-4.85161E-14
 -1      4074 8.03098E-03 2.09662E-04-5.04835E-14
 -1      4075 8.15331E-03 2.18272E-04-5.24796E-14
 -1      4076 7.98339E-03 2.29481E-04-4.94575E-14
 -1      4077 8.27774E-03 2.27393E-04-5.45050E-14
 -1      4078 8.40422E-03 2.36703E-04-5.65566E-14
 -1      4079 8.22664E-03 2.48333E-04-5.34500E-14
 -1      4080 8.51478E-03 2.66982E-04-5.81737E-14
 -1      4081 8.64417E-03 2.77287E-04-6.02732E-14
 -1      4082 9.05966E-03 2.86931E-04-6.72179E-14
 -1      4083 9.19438E-03 2.97425E-04-6.94247E-14
 -1      4084 9.33007E-03 3.08058E-04-7.16526E-14
 -1      4085 9.46662E-03 3.18769E-04-7.39026E-14
 -1      4086 9.27197E-03 3.33637E-04-7.04932E-14
 -1      4087 9.60397E-03 3.29597E-04-7.61725E-14
 -1      4088 9.74201E-03 3.40458E-04-7.84634E-14
 -1      4089 9.54500E-03 3.56194E-04-7.49933E-14
 -1      4090 9.88068E-03 3.51394E-04-8.07744E-14
 -1      4091 1.00199E-02 3.62363E-04-8.31020E-14
 -1      4092 9.82102E-03 3.78909E-04-7.95748E-14
 -1      4093 1.01596E-02 3.73388E-04-8.54475E-14
 -1      4094 1.02998E-02 3.84436E-04-8.78115E-14
 -1      4095 1.00995E-02 4.01712E-04-8.42320E-14
 -1      4096 1.04404E-02 3.95524E-04-9.01932E-14
 -1      4097 1.05813E-02 4.06629E-04-9.25921E-14
 -1      4098 1.03798E-02 4.24536E-04-8.89589E-14
 -1      4099 1.07226E-02 4.17762E-04-9.50081E-14
 -1      4100 1.08640E-02 4.28908E-04-9.74376E-14
 -1      4101 1.06616E-02 4.47346E-04-9.37561E-14
 -1      4102 1.10058E-02 4.40074E-04-9.98835E-14
 -1      4103 1.11477E-02 4.51249E-04-1.02341E-13
 -1      4104 1.09446E-02 4.70124E-04-9.86167E-14
 -1      4105 1.12898E-02 4.62439E-04-1.04808E-13
 -1      4106 1.14320E-02 4.73637E-04-1.07289E-13
 -1      4107 1.12284E-02 4.92863E-04-1.03532E-13
 -1      4108 1.15744E-02 4.84845E-04-1.09778E-13
 -1      4109 1.17168E-02 4.96058E-04-1.12277E-13
 -1      4110 1.15129E-02 5.15561E-04-1.08490E-13
 -1      4111 1.18594E-02 5.07279E-04-1.14784E-13
 -1      4112 1.20020E-02 5.18505E-04-1.17299E-13
 -1      4113 1.17979E-02 5.38221E-04-1.13488E-13
 -1      4114 1.21447E-02 5.29736E-04-1.19823E-13
 -1      4115 1.22875E-02 5.40970E-04-1.22353E-13
 -1      4116 1.20831E-02 5.60848E-04-1.18519E-13
 -1      4117 1.24302E-02 5.52209E-04-1.24889E-13
 -1      4118 1.25731E-02 5.63450E-04-1.27435E-13
 -1      4119 1.23686E-02 5.83446E-04-1.23581E-13
 -1      4120 1.27159E-02 5.74693E-04-1.29987E-13
 -1      4121 1.28588E-02 5.85939E-04-1.32544E-13
 -1      4122 1.26542E-02 6.06022E-04-1.28669E-13
 -1      4123 9.44201E-03 4.30004E-04-7.27960E-14
 -1      4124 9.30527E-03 4.17216E-04-7.05517E-14
 -1      4125 1.76613E-03 6.62785E-05-4.89937E-15
 -1      4126 7.61815E-03 1.81915E-04-4.36086E-14
 -1      4127 8.40179E-03 3.09594E-04-5.60028E-14
 -1      4128 8.27547E-03 2.98152E-04-5.39582E-14
 -1      4129 1.32534E-02 7.34285E-04-1.38920E-13
 -1      4130 1.30689E-02 7.30792E-04-1.35539E-13
 -1      4131 1.32650E-02 7.03851E-04-1.39322E-13
 -1      4132 7.90993E-03 2.65991E-04-4.79911E-14
 -1      4133 7.79344E-03 2.55604E-04-4.60596E-14
 -1      4134 9.73955E-03 4.30757E-04-7.78606E-14
 -1      4135 9.60140E-03 4.18467E-04-7.55744E-14
 -1      4136 1.00176E-02 4.55170E-04-8.24939E-14
 -1      4137 9.87831E-03 4.42971E-04-8.01688E-14
 -1      4138 1.02977E-02 4.79376E-04-8.71963E-14
 -1      4139 1.01574E-02 4.67291E-04-8.48361E-14
 -1      4140 1.05793E-02 5.03345E-04-9.19687E-14
 -1      4141 1.04383E-02 4.91383E-04-8.95740E-14
 -1      4142 1.08621E-02 5.27075E-04-9.68084E-14
 -1      4143 1.07206E-02 5.15234E-04-9.43801E-14
 -1      4144 1.11458E-02 5.50581E-04-1.01705E-13
 -1      4145 1.10039E-02 5.38852E-04-9.92482E-14
 -1      4146 1.14302E-02 5.73885E-04-1.06649E-13
 -1      4147 1.12879E-02 5.62255E-04-1.04170E-13
 -1      4148 1.17151E-02 5.97016E-04-1.11637E-13
 -1      4149 1.15726E-02 5.85469E-04-1.09140E-13
 -1      4150 1.20003E-02 6.20002E-04-1.16659E-13
 -1      4151 1.18576E-02 6.08525E-04-1.14145E-13
 -1      4152 1.22857E-02 6.42868E-04-1.21715E-13
 -1      4153 1.21430E-02 6.31448E-04-1.19183E-13
 -1      4154 1.25713E-02 6.65641E-04-1.26793E-13
 -1      4155 1.24285E-02 6.54265E-04-1.24250E-13
 -1      4156 8.15124E-03 2.87175E-04-5.19421E-14
 -1      4157 8.02927E-03 2.76260E-04-4.99528E-14
 -1      4158 1.82832E-03-3.21114E-06-5.25372E-15
 -1      4159 1.86352E-03-2.71251E-05-5.33745E-15
 -1      4160 1.30517E-02 5.96188E-04-1.36037E-13
 -1      4161 9.19163E-03 3.81580E-04-6.88340E-14
 -1      4162 9.05678E-03 3.69312E-04-6.66311E-14
 -1      4163 7.68899E-03 2.07536E-04-4.45166E-14
 -1      4164 1.78701E-03 2.14337E-05-5.09079E-15
 -1      4165 8.91192E-03 3.68083E-04-6.42067E-14
 -1      4166 8.77931E-03 3.55682E-04-6.20584E-14
 -1      4167 8.70767E-03 3.21315E-04-6.10478E-14
 -1      4168 8.99272E-03 3.22503E-04-6.58363E-14
 -1      4169 8.78439E-03 2.77150E-04-6.26379E-14
 -1      4170 8.91669E-03 2.87596E-04-6.47943E-14
 -1      4171 1.29900E-02 6.27593E-04-1.34711E-13
 -1      4172 1.78421E-03 4.32808E-05-5.07367E-15
 -1      4173 1.31317E-02 6.69134E-04-1.37075E-13
 -1      4174 1.29740E-02 6.94293E-04-1.34012E-13
 -1      4175 1.29624E-02 7.24685E-04-1.33613E-13
 -1      4176 1.28559E-02 7.18568E-04-1.31691E-13
 -1      4177 1.27142E-02 6.76999E-04-1.29344E-13
 -1      4178 7.74387E-03 2.31017E-04-4.52880E-14
 -1      4179 8.45947E-03 2.88631E-04-5.70873E-14
 -1      4180 9.25142E-03 3.56898E-04-6.99963E-14
 -1      4181 1.29388E-02 6.58824E-04-1.33581E-13
 -1      4182 9.52430E-03 3.80348E-04-7.44885E-14
 -1      4183 1.27494E-02 7.12437E-04-1.29773E-13
 -1      4184 9.38743E-03 3.68609E-04-7.22310E-14
 -1      4185 1.28323E-02 6.52742E-04-1.31657E-13
 -3
    1PSTEP                         2           1           1          
  100CL  101 1.000000000        4185                     0    1           1
 -4  STRESS      6    1
 -5  SXX         1    4    1    1
 -5  SYY         1    4    2    2
 -5  SZZ         1    4    3    3
 -5  SXY         1    4    1    2
 -5  SYZ         1    4    2    3
 -5  SZX         1    4    3    1
 -1         1 4.87892E+01 6.97052E+00 2.66184E+00 1.73461E+01-1.51711E-12-3.91315E-12
 -1         2-7.41826E-01-2.46432E+01-3.35475E+00-1.76723E-01 2.14795E-13 1.42067E-13
 -1         3 1.99999E+01 1.26029E-04-1.63539E-04 1.23539E-04-3.54113E-13-2.44629E-13
 -1         4 1.99999E+01 1.09539E-04-1.75717E-04-1.09557E-04 9.94540E-14 6.85513E-14
 -1         5 3.27115E+01 6.15220E+00 2.59823E+00 6.09271E+00-5.50324E-14 3.95367E-12
 -1         6 3.55434E+01 1.21353E+01 4.90730E+00-8.45015E+00-2.39531E-13 3.79574E-12
 -1         7 2.15253E+01 6.28639E+00-5.84151E-02-4.38369E+00-3.61933E-14 6.73440E-13
 -1         8 2.03088E+01 6.11656E+00 8.40906E-02-2.75309E+00-4.64004E-14-2.82379E-13
 -1         9 1.95780E+01 5.89937E+00 6.42867E-02-1.90331E+00-3.74180E-14-8.06299E-13
 -1        10 1.90611E+01 5.73944E+00 5.17747E-02-1.30181E+00-2.75023E-14-1.06993E-12
 -1        11 1.86453E+01 5.61171E+00 3.89994E-02-8.50792E-01-1.85997E-14-1.18275E-12
 -1        12 1.83168E+01 5.51120E+00 2.74505E-02-5.15536E-01-1.17701E-14-1.23392E-12
 -1        13 1.80747E+01 5.43762E+00 1.81966E-02-2.56737E-01-5.57540E-15-1.24375E-12
 -1        14 1.79413E+01 5.39714E+00 1.25453E-02-5.21492E-02 3.02276E-15-1.24516E-12
 -1        15 1.79292E+01 5.39350E+00 1.13655E-02 1.29270E-01 5.51425E-15-1.23514E-12
 -1        16 1.80431E+01 5.42804E+00 1.50429E-02 3.21190E-01 1.59829E-14-1.20648E-12
 -1        17 1.82780E+01 5.49919E+00 2.33895E-02 5.58874E-01 1.58710E-14-1.15258E-12
 -1        18 1.86143E+01 5.60190E+00 3.53243E-02 8.70928E-01 2.53495E-14-1.05139E-12
 -1        19 1.90525E+01 5.73631E+00 4.95969E-02 1.30510E+00 3.70294E-14-8.83412E-13
 -1        20 1.95964E+01 5.90505E+00 6.38170E-02 1.90209E+00 4.83329E-14-5.66247E-13
 -1        21 2.03401E+01 6.13920E+00 8.18837E-02 2.74955E+00 5.57401E-14 2.81598E-14
 -1        22 2.18665E+01 6.55054E+00 1.82924E-01 4.15833E+00 8.54872E-15 1.23917E-12
 -1        23 2.36606E+01-1.42293E+00-9.64138E-01-6.10447E-01-1.64729E-13 2.96234E-12
 -1        24 2.05907E+01-9.95057E-02-3.00945E-01 7.98732E-02-4.49406E-14 2.20991E-12
 -1        25 2.03874E+01-5.66581E-02-6.56823E-02 6.97044E-02-2.46146E-14 1.45066E-12
 -1        26 2.06616E+01-2.31312E-02-8.32354E-03 4.32299E-02 1.56255E-15 9.38083E-13
 -1        27 2.11734E+01-1.16700E-02-3.85819E-04 3.55032E-02-6.38031E-15 6.23205E-13
 -1        28 2.17991E+01-2.89781E-03 4.04336E-03 3.14539E-02-4.55927E-15 4.33806E-13
 -1        29 2.24291E+01 5.57086E-03 1.27131E-02 2.71441E-02-1.59183E-15 2.14259E-13
 -1        30 2.29358E+01 1.43664E-02 2.59602E-02 1.89029E-02 1.01108E-14-3.15581E-14
 -1        31 2.31648E+01 2.23824E-02 4.12564E-02 3.22655E-03-6.96340E-15-1.54242E-13
 -1        32 2.29554E+01 2.67435E-02 5.25124E-02-2.17913E-02-3.98082E-14-3.90496E-13
 -1        33 2.22001E+01 2.34852E-02 5.00301E-02-5.33347E-02 3.94591E-14-4.80168E-13
 -1        34 2.09379E+01 9.91210E-03 2.50786E-02-8.09127E-02-2.34192E-14-4.15761E-13
 -1        35 1.94349E+01-1.19466E-02-2.11790E-02-8.77321E-02 3.43439E-14-4.07063E-13
 -1        36 1.81647E+01-3.36745E-02-7.03695E-02-6.09843E-02 1.19566E-14-2.87794E-13
 -1        37 1.76232E+01-4.41873E-02-9.49148E-02-5.95638E-03-2.17456E-14-3.12623E-13
 -1        38 1.80556E+01-3.74999E-02-7.92446E-02 5.24088E-02-4.02050E-14-5.17444E-13
 -1        39 1.93047E+01-1.75156E-02-3.36579E-02 8.69571E-02-3.89855E-14-6.53012E-13
 -1        40 2.09117E+01 5.15433E-03 1.50275E-02 8.75856E-02 3.32480E-14-8.09328E-13
 -1        41 2.23801E+01 2.10349E-02 4.52609E-02 6.39127E-02 9.09017E-15-1.00988E-12
 -1        42 2.33908E+01 2.66978E-02 5.20632E-02 3.30627E-02-5.72749E-14-1.15488E-12
 -1        43 2.38589E+01 2.41632E-02 4.29351E-02 7.50691E-03-4.36777E-14-1.25456E-12
 -1        44 2.38648E+01 1.75054E-02 2.79318E-02-8.36114E-03 2.42965E-14-9.50250E-13
 -1        45 2.35567E+01 1.01766E-02 1.39617E-02-1.55322E-02-1.29967E-14-1.01365E-12
 -1        46 2.30804E+01 4.07595E-03 3.82646E-03-1.69030E-02 1.10453E-14-1.16419E-12
 -1        47 2.25472E+01-1.90516E-04-2.30686E-03-1.51997E-02-1.56922E-14-1.03244E-12
 -1        48 2.20290E+01-2.74843E-03-5.35570E-03-1.22976E-02 3.63389E-14-8.63384E-13
 -1        49 2.15653E+01-4.00078E-03-6.39536E-03-9.25707E-03-2.46610E-15-1.00425E-12
 -1        50 2.11724E+01-4.37496E-03-6.28807E-03-6.57278E-03-5.77847E-14-1.20850E-12
 -1        51 2.08528E+01-4.21991E-03-5.61562E-03-4.41026E-03 2.49925E-14-1.11803E-12
 -1        52 2.06011E+01-3.78522E-03-4.72978E-03-2.76975E-03-5.54435E-14-8.99608E-13
 -1        53 2.04083E+01-3.23420E-03-3.82476E-03-1.58195E-03 9.81227E-15-7.82943E-13
 -1        54 2.02646E+01-2.66578E-03-2.99703E-03-7.57764E-04-2.77678E-14-8.24600E-13
 -1        55 2.01603E+01-2.13477E-03-2.28629E-03-2.11449E-04-4.05742E-14-1.00190E-12
 -1        56 2.00867E+01-1.66760E-03-1.70114E-03 1.30439E-04 2.95934E-14-1.24117E-12
 -1        57 2.00367E+01-1.27328E-03-1.23434E-03 3.26907E-04 4.67586E-14-7.93204E-13
 -1        58 2.00041E+01-9.50813E-04-8.71591E-04 4.23459E-04-1.32598E-14-4.75380E-13
 -1        59 1.99843E+01-6.93933E-04-5.96347E-04 4.54138E-04 4.10945E-14-4.48197E-13
 -1        60 1.99735E+01-4.93992E-04-3.92373E-04 4.43759E-04-1.22074E-13-4.13749E-13
 -1        61 1.99689E+01-3.41714E-04-2.44944E-04 4.09960E-04 4.86679E-14-7.43914E-13
 -1        62 1.99684E+01-2.28153E-04-1.41321E-04 3.64934E-04-8.66997E-14-9.83749E-13
 -1        63 1.99705E+01-1.45175E-04-7.08061E-05 3.16831E-04 3.69884E-14-1.09028E-12
 -1        64 1.99741E+01-8.56325E-05-2.45473E-05 2.70841E-04-4.87518E-14-7.84662E-13
 -1        65 1.99785E+01-4.33474E-05 4.82425E-06 2.29979E-04-1.18667E-13-4.69914E-13
 -1        66 1.99832E+01-1.29938E-05 2.37612E-05 1.95566E-04 7.06800E-14-4.64087E-13
 -1        67 1.99878E+01 1.00645E-05 3.86899E-05 1.67331E-04 4.58180E-14-1.43364E-13
 -1        68 1.99921E+01 2.98426E-05 5.70845E-05 1.42835E-04 1.10038E-13 1.71087E-13
 -1        69 1.99957E+01 4.86440E-05 8.63619E-05 1.14832E-04 2.51889E-14 3.80088E-13
 -1        70 1.99985E+01 5.60170E-05 1.15260E-04 5.84326E-05 3.02298E-14 7.83853E-13
 -1        71 1.99999E+01-1.10776E-05 5.46075E-05-3.08579E-05-9.99665E-15 7.31678E-13
 -1        72 2.17390E+01-4.08909E-01-9.95998E-01-3.49843E-01 5.17086E-14 3.58848E-12
 -1        73 2.06512E+01-6.66915E-02-2.83003E-01-6.32160E-02 3.66304E-14 2.67689E-12
 -1        74 2.05481E+01-2.30021E-02-6.41407E-02-2.52727E-02 2.30013E-14 1.96427E-12
 -1        75 2.09184E+01-1.27831E-02-1.56592E-02-2.13464E-02 1.23973E-14 1.46256E-12
 -1        76 2.15808E+01-6.88177E-03-7.56184E-03-2.25669E-02-1.37433E-15 1.18845E-12
 -1        77 2.24287E+01-1.08002E-03-3.39287E-03-2.71732E-02 1.06378E-14 1.02971E-12
 -1        78 2.33638E+01 6.17241E-03 6.40479E-03-3.38474E-02 9.27345E-16 8.92439E-13
 -1        79 2.42487E+01 1.51535E-02 2.48694E-02-3.96766E-02-9.46964E-15 8.06596E-13
 -1        80 2.48780E+01 2.41271E-02 5.16539E-02-3.86817E-02 3.83374E-16 7.19773E-13
 -1        81 2.49796E+01 2.85184E-02 7.92925E-02-2.15887E-02 3.56804E-14 5.36722E-13
 -1        82 2.42846E+01 2.20551E-02 8.94445E-02 1.97303E-02-2.28585E-14 5.41844E-13
 -1        83 2.26988E+01 1.64075E-03 5.85499E-02 8.07447E-02 1.55663E-14 5.22221E-13
 -1        84 2.05249E+01-2.56672E-02-2.10346E-02 1.33125E-01 1.06615E-14 4.01387E-13
 -1        85 1.85377E+01-4.35057E-02-1.16812E-01 1.33644E-01 1.84930E-14-1.12375E-14
 -1        86 1.76755E+01-4.03623E-02-1.63799E-01 6.29242E-02-1.65796E-15-6.04513E-13
 -1        87 1.84133E+01-1.93357E-02-1.24924E-01-4.05681E-02-3.39605E-14-7.78901E-13
 -1        88 2.03985E+01 4.85353E-03-3.23688E-02-1.14588E-01-4.07267E-14-6.61401E-13
 -1        89 2.27264E+01 2.11702E-02 5.17218E-02-1.26632E-01 7.69256E-14-7.12971E-13
 -1        90 2.45635E+01 2.58913E-02 8.81417E-02-9.32424E-02-6.44361E-14-6.97522E-13
 -1        91 2.55324E+01 2.20102E-02 8.10736E-02-4.72813E-02 6.34779E-14-2.63132E-13
 -1        92 2.56810E+01 1.44860E-02 5.41699E-02-1.06491E-02-2.05363E-14-3.36413E-13
 -1        93 2.52618E+01 7.06118E-03 2.65756E-02 1.07564E-02 3.21385E-14-4.95853E-13
 -1        94 2.45462E+01 1.50748E-03 6.70976E-03 1.97756E-02-6.54278E-15-8.15908E-13
 -1        95 2.37381E+01-1.91551E-03-4.58223E-03 2.12534E-02 3.07394E-14-8.27237E-13
 -1        96 2.29612E+01-3.63134E-03-9.55486E-03 1.90907E-02 4.90383E-14-6.61542E-13
 -1        97 2.22767E+01-4.20915E-03-1.07701E-02 1.56541E-02-3.17397E-14-5.58141E-13
 -1        98 2.17057E+01-4.12578E-03-1.01034E-02 1.21452E-02-5.83395E-14-5.64550E-13
 -1        99 2.12470E+01-3.71063E-03-8.67918E-03 9.06920E-03-8.27687E-14-6.35711E-13
 -1       100 2.08888E+01-3.16641E-03-7.08715E-03 6.57015E-03 8.48226E-16-3.62318E-13
 -1       101 2.06158E+01-2.60683E-03-5.59873E-03 4.62894E-03 3.88965E-14-4.95880E-13
 -1       102 2.04120E+01-2.08937E-03-4.31666E-03 3.16619E-03 1.33510E-14-7.35971E-13
 -1       103 2.02632E+01-1.63846E-03-3.26188E-03 2.08976E-03-1.28062E-13-6.33318E-13
 -1       104 2.01570E+01-1.26035E-03-2.41923E-03 1.31428E-03 8.73956E-14-1.53328E-13
 -1       105 2.00831E+01-9.51943E-04-1.76026E-03 7.67819E-04 4.50561E-14-4.68804E-13
 -1       106 2.00335E+01-7.05881E-04-1.25401E-03 3.92522E-04-5.17802E-14-5.28371E-13
 -1       107 2.00016E+01-5.13271E-04-8.71552E-04 1.43028E-04 7.19036E-14-8.64867E-13
 -1       108 1.99825E+01-3.65161E-04-5.87572E-04-1.56668E-05-7.74304E-15-1.21290E-12
 -1       109 1.99722E+01-2.53251E-04-3.80678E-04-1.10213E-04 5.49837E-14-5.93628E-13
 -1       110 1.99681E+01-1.70192E-04-2.33205E-04-1.60662E-04-3.39032E-14-6.70104E-13
 -1       111 1.99679E+01-1.09662E-04-1.30792E-04-1.81928E-04 1.55901E-14 8.14912E-14
 -1       112 1.99702E+01-6.63190E-05-6.18795E-05-1.84984E-04-7.87510E-14 4.99809E-13
 -1       113 1.99740E+01-3.56840E-05-1.71925E-05-1.77805E-04 1.48162E-13 9.44258E-14
 -1       114 1.99785E+01-1.39781E-05 1.08112E-05-1.66125E-04-1.25249E-13-3.03077E-13
 -1       115 1.99832E+01 2.04912E-06 2.86803E-05-1.54009E-04 4.77441E-14-1.55984E-13
 -1       116 1.99879E+01 1.51775E-05 4.30241E-05-1.44006E-04-1.44449E-14-6.55442E-14
 -1       117 1.99921E+01 2.77939E-05 6.17202E-05-1.36781E-04 2.51418E-14-6.94701E-13
 -1       118 1.99958E+01 4.06551E-05 9.22386E-05-1.29349E-04-8.90168E-15-4.62464E-13
 -1       119 1.99985E+01 4.78841E-05 1.23910E-04-1.02761E-04-9.76872E-14-5.82014E-13
 -1       120 1.99998E+01-4.00869E-05 3.77372E-05-2.11607E-06 1.56072E-13-5.40676E-13
 -1       121 1.99998E+01-4.77444E-05 3.71156E-05 2.65292E-05-4.58507E-13-2.98071E-14
 -1       122 1.99999E+01-1.34949E-03 1.02923E-04-7.35252E-05 2.75596E-13 1.18657E-13
 -1       123 1.99998E+01-3.87619E-03 4.78560E-05-1.15336E-04 9.32099E-13 4.37379E-14
 -1       124 1.99998E+01-6.86849E-03-5.96864E-06-1.17877E-04-1.24763E-13 1.44347E-13
 -1       125 1.99998E+01-9.78216E-03-4.22367E-05-1.00683E-04 2.42584E-14-3.53312E-13
 -1       126 1.99998E+01-1.22067E-02-6.45536E-05-7.62539E-05-8.26830E-13 4.04365E-13
 -1       127 1.99997E+01-1.39703E-02-7.65278E-05-4.66253E-05-8.73762E-13 8.10819E-14
 -1       128 1.99997E+01-1.48795E-02-8.18637E-05-1.53511E-05-1.05706E-12-2.63357E-14
 -1       129 1.99997E+01-1.48662E-02-8.16971E-05 1.62799E-05-1.32566E-12-3.32693E-13
 -1       130 1.99997E+01-1.39322E-02-7.60692E-05 4.73472E-05-6.44109E-13 1.80106E-13
 -1       131 1.99998E+01-1.21499E-02-6.32982E-05 7.76077E-05-5.05220E-13-3.07416E-13
 -1       132 1.99998E+01-9.71624E-03-4.16349E-05 1.00974E-04-1.08595E-12 1.47000E-13
 -1       133 1.99998E+01-6.80175E-03-5.45549E-06 1.17368E-04-1.62598E-12-1.38203E-14
 -1       134 1.99998E+01-3.81182E-03 5.27881E-05 1.22688E-04-1.44710E-12 1.67811E-13
 -1       135 1.99998E+01-1.35581E-03 8.86490E-05 1.02049E-04-1.10768E-12-1.59057E-13
 -1       136 1.99998E+01-8.85778E-05 3.16667E-05-7.49143E-05-7.90260E-13-1.32661E-13
 -1       137-1.51259E+00-1.90201E+01-3.02569E+00-4.03572E+00 2.64183E-12 7.24365E-13
 -1       138-1.53754E+00-7.78482E+00-2.24514E+00-2.90854E+00 3.58824E-12 1.76797E-12
 -1       139 3.40754E+00 3.81620E+00-1.06583E+00 3.92635E+00 3.67278E-12 2.73942E-12
 -1       140 1.69984E+01 1.05538E+01 4.38555E-01 1.33154E+01 3.19911E-12 3.86169E-12
 -1       141 3.76394E+01 9.42931E+00 1.98221E+00 1.81748E+01 1.86531E-12 3.51796E-12
 -1       142 5.68814E+01 4.45333E+00 3.13621E+00 1.39270E+01 6.36408E-13 2.14723E-12
 -1       143 6.65207E+01 1.31538E+00 3.66939E+00 2.20143E+00 8.22883E-14-2.20629E-13
 -1       144 6.14942E+01 3.02156E+00 3.40125E+00-1.10752E+01 5.31424E-13-2.66531E-12
 -1       145 4.47221E+01 8.10217E+00 2.44157E+00-1.81517E+01 1.73772E-12-4.01640E-12
 -1       146 2.41068E+01 1.10696E+01 1.06721E+00-1.60270E+01 3.33056E-12-4.52588E-12
 -1       147 7.88575E+00 7.50827E+00-4.65629E-01-7.83785E+00 4.24411E-12-3.92297E-12
 -1       148-4.08265E-01-2.96097E+00-1.82961E+00 7.86339E-01 4.22168E-12-2.42889E-12
 -1       149-1.83727E+00-1.53427E+01-2.82861E+00 4.38730E+00 3.16469E-12-1.05634E-12
 -1       150-9.51227E-01-2.36496E+01-3.35615E+00 2.25648E+00 9.58802E-13-2.04215E-13
 -1       151-9.18023E-01-2.35341E+01-3.33378E+00-2.16599E+00-1.57546E-12-2.20933E-13
 -1       152-1.74433E+00-1.50672E+01-2.77783E+00-4.25260E+00-3.45157E-12-1.13962E-12
 -1       153-2.82523E-01-2.58306E+00-1.74995E+00-5.60564E-01-4.37589E-12-2.53306E-12
 -1       154 9.09411E+00 8.18349E+00-2.72808E-01 8.71100E+00-4.12032E-12-3.86652E-12
 -1       155 2.60224E+01 1.08817E+01 1.22434E+00 1.64339E+01-2.96863E-12-4.35280E-12
 -1       156 6.34733E+01 1.87461E+00 3.43740E+00 8.39851E+00-4.13863E-13-2.34357E-12
 -1       157 6.51498E+01 1.21704E+00 3.51757E+00-5.22676E+00-1.19755E-13 2.63609E-13
 -1       158 5.31383E+01 5.40771E+00 2.87935E+00-1.58286E+01-6.96151E-13 2.29611E-12
 -1       159 3.39081E+01 1.01505E+01 1.74608E+00-1.80672E+01-1.83717E-12 3.25590E-12
 -1       160 1.55341E+01 1.05054E+01 3.73052E-01-1.26945E+01-3.06377E-12 3.48044E-12
 -1       161 3.32045E+00 3.95232E+00-9.99507E-01-3.86275E+00-3.36725E-12 2.59354E-12
 -1       162-1.42961E+00-7.83083E+00-2.20612E+00 2.77768E+00-2.95924E-12 1.43269E-12
 -1       163-1.40944E+00-1.94709E+01-3.03014E+00 3.91198E+00-2.04237E-12 5.62661E-13
 -1       164 2.18250E+01 3.65644E+00-5.15345E-02-3.10439E+00-5.69602E-13 1.64081E-13
 -1       165 2.06183E+01 4.23243E+00-4.23816E-02-2.22046E+00-5.14567E-13-4.31537E-13
 -1       166 1.98319E+01 4.54371E+00-3.01426E-02-1.56636E+00-4.17394E-13-7.76806E-13
 -1       167 1.92457E+01 4.71068E+00-2.22395E-02-1.06365E+00-3.14766E-13-9.39863E-13
 -1       168 1.87807E+01 4.81843E+00-1.72181E-02-6.82355E-01-2.07672E-13-1.00726E-12
 -1       169 1.84186E+01 4.89185E+00-1.43331E-02-3.84584E-01-1.17517E-13-1.04518E-12
 -1       170 1.81819E+01 4.93890E+00-1.27343E-02-1.52376E-01-2.09676E-14-1.05398E-12
 -1       171 1.80878E+01 4.96069E+00-1.21747E-02 4.18433E-02 6.03544E-14-1.04865E-12
 -1       172 1.81476E+01 4.95556E+00-1.25938E-02 2.28948E-01 1.38516E-13-1.03064E-12
 -1       173 1.83624E+01 4.92050E+00-1.40733E-02 4.41949E-01 2.19033E-13-9.96194E-13
 -1       174 1.87158E+01 4.85215E+00-1.69126E-02 7.08994E-01 3.04284E-13-9.18047E-13
 -1       175 1.92079E+01 4.73808E+00-2.18560E-02 1.07183E+00 4.12087E-13-7.82961E-13
 -1       176 1.98357E+01 4.55285E+00-3.06335E-02 1.56158E+00 5.06761E-13-5.76345E-13
 -1       177 2.06637E+01 4.22268E+00-4.31025E-02 2.21359E+00 5.81927E-13-1.81861E-13
 -1       178 2.19823E+01 3.43488E+00-5.32441E-02 3.00351E+00 5.56994E-13 5.41157E-13
 -1       179 2.32747E+01 1.08354E+00-3.28998E-01 2.62405E+00 4.14649E-13 1.50936E-12
 -1       180 2.29160E+01 8.23008E-01 1.45814E-03-1.57875E+00-4.98157E-13 8.69818E-13
 -1       181 2.17029E+01 1.82542E-01-8.37987E-03-3.93983E-01-4.35030E-13 6.33864E-13
 -1       182 2.12764E+01 1.07539E-01 1.40188E-02 8.80904E-02-3.17828E-13 4.22669E-13
 -1       183 2.13058E+01 5.46352E-02 9.57125E-03 3.23639E-01-2.21693E-13 2.18873E-13
 -1       184 2.15583E+01 2.05993E-02 3.98812E-03 4.37316E-01-1.40277E-13 1.02003E-13
 -1       185 2.19149E+01-1.41400E-02 3.55333E-04 4.56982E-01-1.26140E-13 1.00790E-14
 -1       186 2.22760E+01-5.62800E-02-1.88323E-03 3.76547E-01-8.68539E-14-3.14748E-14
 -1       187 2.25434E+01-1.04971E-01-3.10783E-03 1.81540E-01-3.56581E-14-2.73071E-14
 -1       188 2.26186E+01-1.49297E-01-3.24075E-03-1.29024E-01-1.12351E-13 1.10769E-14
 -1       189 2.24206E+01-1.65941E-01-2.08798E-03-5.15409E-01-6.81386E-14-1.61932E-14
 -1       190 2.19232E+01-1.25262E-01-3.91189E-05-8.74149E-01-3.59667E-14-1.94587E-13
 -1       191 2.12014E+01-1.16575E-02 1.95179E-03-1.04632E+00-2.18356E-14-2.39519E-13
 -1       192 2.04552E+01 1.46656E-01 2.71669E-03-8.85881E-01-3.13985E-16-3.14576E-13
 -1       193 1.99622E+01 2.71790E-01 2.48242E-03-3.75741E-01-6.32411E-14-3.72427E-13
 -1       194 1.99421E+01 2.86567E-01 2.35289E-03 3.07839E-01-1.68016E-13-4.25275E-13
 -1       195 2.04210E+01 1.81992E-01 2.52620E-03 8.79927E-01-7.50996E-14-5.10425E-13
 -1       196 2.12148E+01 2.45873E-02 1.99843E-03 1.12839E+00-1.05702E-13-5.88571E-13
 -1       197 2.20468E+01-1.02991E-01 3.39547E-04 1.02718E+00-4.88795E-14-6.89969E-13
 -1       198 2.26915E+01-1.59774E-01-1.77855E-03 7.01779E-01-1.69417E-13-7.27462E-13
 -1       199 2.30439E+01-1.53918E-01-3.27786E-03 3.15410E-01-8.32836E-14-7.78234E-13
 -1       200 2.31070E+01-1.15010E-01-3.71677E-03-1.60241E-02 1.12715E-13-8.05579E-13
 -1       201 2.29448E+01-6.91430E-02-3.19838E-03-2.43932E-01-3.76459E-14-7.94749E-13
 -1       202 2.26390E+01-3.06393E-02-2.18930E-03-3.68367E-01 2.50901E-14-6.10753E-13
 -1       203 2.22631E+01-3.91930E-03-1.11666E-03-4.12126E-01 6.10883E-14-5.67037E-13
 -1       204 2.18724E+01 1.19207E-02-2.31874E-04-4.02603E-01 4.19027E-14-5.52211E-13
 -1       205 2.15027E+01 1.96422E-02 3.79149E-04-3.63075E-01-7.28532E-14-4.85822E-13
 -1       206 2.11737E+01 2.20593E-02 7.31605E-04-3.10235E-01 3.81943E-15-5.07337E-13
 -1       207 2.08938E+01 2.13798E-02 8.83986E-04-2.54707E-01 2.44666E-14-4.60087E-13
 -1       208 2.06637E+01 1.91203E-02 9.01430E-04-2.02537E-01 5.10808E-14-4.85213E-13
 -1       209 2.04800E+01 1.62341E-02 8.38795E-04-1.56670E-01-4.77567E-14-4.06534E-13
 -1       210 2.03370E+01 1.32752E-02 7.36003E-04-1.18130E-01-8.51400E-14-5.34545E-13
 -1       211 2.02283E+01 1.05372E-02 6.19315E-04-8.68271E-02-1.11911E-13-4.52141E-13
 -1       212 2.01477E+01 8.15289E-03 5.04507E-04-6.20994E-02-4.30903E-15-3.85264E-13
 -1       213 2.00893E+01 6.16092E-03 4.00073E-04-4.30368E-02 1.62096E-13-4.42189E-13
 -1       214 2.00483E+01 4.54836E-03 3.09793E-04-2.86752E-02 1.80183E-13-5.98812E-13
 -1       215 2.00205E+01 3.27669E-03 2.34573E-04-1.81015E-02 5.31842E-14-3.77120E-13
 -1       216 2.00025E+01 2.29715E-03 1.73698E-04-1.05041E-02-1.25891E-13-5.77981E-13
 -1       217 1.99916E+01 1.55946E-03 1.25623E-04-5.19272E-03-1.75969E-13-3.22289E-13
 -1       218 1.99857E+01 1.01645E-03 8.84666E-05-1.59851E-03-1.35205E-13-4.70274E-13
 -1       219 1.99834E+01 6.26135E-04 6.02954E-05 7.34093E-04-4.37087E-14-3.55692E-13
 -1       220 1.99833E+01 3.52368E-04 3.92726E-05 2.16052E-03 6.29893E-14-4.44613E-13
 -1       221 1.99847E+01 1.64485E-04 2.37324E-05 2.94976E-03 2.62812E-13-3.13274E-13
 -1       222 1.99870E+01 3.64050E-05 1.22225E-05 3.29711E-03 7.93543E-14-5.05001E-14
 -1       223 1.99896E+01-5.46746E-05 3.59619E-06 3.33440E-03 2.24260E-13 7.63931E-14
 -1       224 1.99923E+01-1.29890E-04-2.74545E-06 3.13736E-03 2.63402E-13 1.65476E-13
 -1       225 1.99949E+01-2.11301E-04-6.39380E-06 2.72966E-03 2.66871E-13 4.40946E-13
 -1       226 1.99970E+01-3.22761E-04-7.75554E-06 2.08840E-03 2.37006E-13 6.37409E-13
 -1       227 1.99987E+01-4.66926E-04-4.53993E-06 1.18758E-03-1.14575E-13 5.13032E-13
 -1       228 2.21330E+01 2.66148E-01-4.65837E-02 8.04242E-01 4.47111E-13 1.28045E-12
 -1       229 2.14427E+01 1.33383E-01 9.89625E-03 8.06638E-02 3.43526E-13 9.66024E-13
 -1       230 2.13890E+01 7.45635E-02 1.26484E-02-2.49770E-01 2.43003E-13 6.97380E-13
 -1       231 2.16882E+01 4.70044E-02 6.78276E-03-4.42427E-01 1.30015E-13 5.12283E-13
 -1       232 2.21993E+01 2.60346E-02 2.43805E-03-5.57440E-01 8.98787E-14 4.18717E-13
 -1       233 2.28178E+01-9.30320E-04 1.85452E-04-5.96469E-01 4.88546E-14 3.53871E-13
 -1       234 2.34355E+01-4.14757E-02-3.65921E-04-5.32829E-01 4.68269E-14 3.32870E-13
 -1       235 2.39189E+01-9.79569E-02 9.42492E-04-3.26028E-01 5.28306E-14 2.76604E-13
 -1       236 2.41092E+01-1.60216E-01 3.92550E-03 5.27419E-02 5.84433E-14 2.50913E-13
 -1       237 2.38566E+01-1.96156E-01 6.79828E-03 5.71900E-01-2.21646E-14 2.54134E-13
 -1       238 2.31020E+01-1.55335E-01 6.13938E-03 1.08203E+00 8.27892E-14 2.81901E-13
 -1       239 2.19880E+01-5.75190E-03-1.77106E-03 1.31328E+00 1.52320E-13 1.62807E-13
 -1       240 2.09134E+01 2.06351E-01-1.39751E-02 1.01311E+00 2.90430E-13-8.89002E-14
 -1       241 2.03963E+01 3.43409E-01-2.02936E-02 1.96661E-01 2.52089E-13-2.64798E-13
 -1       242 2.07400E+01 2.98153E-01-1.35197E-02-7.40946E-01 8.39840E-14-4.45557E-13
 -1       243 2.17836E+01 1.08633E-01-7.65292E-04-1.31793E+00-8.06770E-14-6.31198E-13
 -1       244 2.30389E+01-8.36388E-02 8.45880E-03-1.32530E+00 8.18503E-14-6.16462E-13
 -1       245 2.40357E+01-1.80736E-01 8.74669E-03-9.16881E-01-1.03292E-13-5.02965E-13
 -1       246 2.45465E+01-1.80629E-01 3.99706E-03-3.80314E-01-1.59166E-13-5.17515E-13
 -1       247 2.45777E+01-1.29910E-01-4.08059E-04 7.27100E-02-3.91592E-14-2.64281E-13
 -1       248 2.42571E+01-7.13141E-02-2.54431E-03 3.62866E-01 2.86479E-14-1.14007E-13
 -1       249 2.37356E+01-2.55217E-02-2.75583E-03 5.00316E-01 1.79086E-13-2.71154E-13
 -1       250 2.31375E+01 3.18932E-03-1.99115E-03 5.29325E-01 8.47452E-15-5.54846E-13
 -1       251 2.25463E+01 1.80134E-02-1.01958E-03 4.94947E-01-1.30592E-13-3.79157E-13
 -1       252 2.20093E+01 2.36961E-02-2.25364E-04 4.30623E-01-6.96102E-14-2.16965E-13
 -1       253 2.15474E+01 2.41522E-02 2.90076E-04 3.57336E-01-5.33139E-14-1.41081E-13
 -1       254 2.11652E+01 2.20130E-02 5.61544E-04 2.86614E-01-2.75988E-14 1.44811E-14
 -1       255 2.08583E+01 1.88461E-02 6.62117E-04 2.23874E-01-2.08741E-14-1.19643E-13
 -1       256 2.06178E+01 1.54993E-02 6.59151E-04 1.70971E-01 1.47739E-13-1.47799E-13
 -1       257 2.04331E+01 1.23862E-02 6.01530E-04 1.27872E-01 9.64317E-14-1.03318E-13
 -1       258 2.02942E+01 9.67744E-03 5.20456E-04 9.36551E-02-1.41010E-13 8.36407E-15
 -1       259 2.01919E+01 7.41517E-03 4.34189E-04 6.70564E-02 2.54106E-14-2.31206E-13
 -1       260 2.01181E+01 5.57844E-03 3.52501E-04 4.67668E-02 1.24682E-13-6.78892E-14
 -1       261 2.00662E+01 4.11947E-03 2.79951E-04 3.15700E-02-6.63422E-14-5.56568E-14
 -1       262 2.00308E+01 2.98216E-03 2.18097E-04 2.03997E-02 2.83011E-13-2.00086E-13
 -1       263 2.00077E+01 2.11103E-03 1.66876E-04 1.23554E-02 4.11334E-14-2.93461E-13
 -1       264 1.99934E+01 1.45540E-03 1.25411E-04 6.69537E-03-1.96258E-13-3.10465E-13
 -1       265 1.99854E+01 9.71003E-04 9.24683E-05 2.82225E-03-8.63027E-14-7.97478E-14
 -1       266 1.99818E+01 6.20240E-04 6.67118E-05 2.63413E-04-3.63455E-13 4.61929E-14
 -1       267 1.99810E+01 3.71754E-04 4.68399E-05-1.34795E-03 6.93803E-15 1.96694E-13
 -1       268 1.99822E+01 1.99663E-04 3.16499E-05-2.29040E-03 3.36980E-13-2.55957E-13
 -1       269 1.99844E+01 8.26357E-05 2.00762E-05-2.76945E-03-1.25013E-13-2.42870E-13
 -1       270 1.99872E+01 2.68838E-06 1.12657E-05-2.92980E-03 1.65175E-13-8.36733E-14
 -1       271 1.99902E+01-5.63090E-05 4.80073E-06-2.86385E-03-6.77713E-14-2.50308E-13
 -1       272 1.99931E+01-1.09744E-04 1.32266E-06-2.61647E-03 2.02232E-13 1.04640E-13
 -1       273 1.99957E+01-1.73187E-04 2.64320E-06-2.18857E-03-8.74615E-14 2.24223E-13
 -1       274 1.99978E+01-2.70995E-04 3.52685E-06-1.54025E-03 1.04602E-13 3.31897E-14
 -1       275 1.99992E+01-3.49084E-04-2.48289E-06-6.67003E-04 8.71805E-14-1.31584E-13
 -1       276 1.99994E+01-1.20822E-03-5.76186E-06-1.20249E-03 1.57756E-13 6.10275E-13
 -1       277 1.99996E+01-2.74658E-03-2.77277E-06-1.94206E-03 3.24595E-13 3.24994E-13
 -1       278 1.99998E+01-4.62385E-03-1.35879E-06-2.26671E-03 1.82652E-13-5.88207E-13
 -1       279 1.99999E+01-6.57644E-03 1.57574E-06-2.20957E-03 6.99131E-14-8.83946E-14
 -1       280 2.00000E+01-8.32460E-03 5.45836E-06-1.87550E-03-1.77295E-13-7.53759E-13
 -1       281 2.00000E+01-9.73206E-03 8.60890E-06-1.34382E-03-3.77717E-13-1.47431E-13
 -1       282 2.00001E+01-1.06247E-02 1.06408E-05-6.93960E-04-3.44937E-13-5.54982E-14
 -1       283 2.00001E+01-1.09245E-02 1.13085E-05 1.02739E-05-1.83112E-13-3.21242E-14
 -1       284 2.00001E+01-1.06066E-02 1.06244E-05 7.12991E-04 1.14666E-13 1.88320E-13
 -1       285 2.00000E+01-9.69840E-03 8.57038E-06 1.35886E-03-3.62022E-13-3.73035E-14
 -1       286 2.00000E+01-8.30910E-03 5.19522E-06 1.87709E-03-3.55910E-13-1.79589E-13
 -1       287 1.99999E+01-6.52810E-03 1.46449E-06 2.20954E-03-2.36429E-13-1.82065E-13
 -1       288 1.99998E+01-4.57959E-03-2.04259E-06 2.25997E-03-5.57857E-13 5.92662E-14
 -1       289 1.99995E+01-2.71282E-03-6.68197E-06 1.90556E-03-7.33828E-13 5.47489E-14
 -1       290 1.99992E+01-1.48448E-03-9.47391E-06 1.78205E-03-4.58706E-13 2.06780E-13
 -1       291-6.08984E-01-9.86112E+00-8.09562E-01 1.37827E+00 3.71300E-13 1.15702E-12
 -1       292 3.01964E+00-8.46149E+00-8.09193E-01 3.32778E+00 1.13928E-12 1.04762E-12
 -1       293 1.00941E+01-5.02322E+00-4.73082E-01 5.66006E+00 1.26654E-12 1.13767E-12
 -1       294 1.96391E+01-1.27873E+00-1.03013E-01 6.99723E+00 1.31692E-12 1.47793E-12
 -1       295 3.02842E+01 2.60480E+00 3.56909E-01 7.41119E+00 1.43739E-12 1.31317E-12
 -1       296 3.92564E+01 4.86941E+00 6.33603E-01 4.80984E+00 1.27428E-12 8.56842E-13
 -1       297 4.30734E+01 6.91146E+00 6.55036E-01 1.50655E+00 1.28697E-12 5.43038E-14
 -1       298 4.37855E+01 7.34256E+00 6.97256E-01-9.71684E-01 1.23168E-12-4.79228E-13
 -1       299 4.19445E+01 5.65635E+00 7.70547E-01-4.55246E+00 1.19572E-12-1.18866E-12
 -1       300 3.39554E+01 3.12783E+00 4.41484E-01-6.25954E+00 1.39711E-12-1.39178E-12
 -1       301 2.35255E+01 5.73130E-01 7.95299E-02-7.54576E+00 1.66700E-12-1.75185E-12
 -1       302 1.41886E+01-3.81089E+00-3.04070E-01-6.52444E+00 1.38586E-12-1.56622E-12
 -1       303 5.31563E+00-7.21929E+00-6.98222E-01-4.33100E+00 1.29499E-12-1.40400E-12
 -1       304 3.31228E-01-1.01537E+01-9.48859E-01-2.08076E+00 6.55781E-13-1.33388E-12
 -1       305-1.18147E+00-1.02319E+01-8.57344E-01 8.67006E-02-1.89535E-13-1.27448E-12
 -1       306 4.20541E-01-1.01226E+01-9.41497E-01 2.21070E+00-9.93400E-13-1.25260E-12
 -1       307 5.28625E+00-7.07559E+00-7.03340E-01 4.42124E+00-1.55673E-12-1.42947E-12
 -1       308 1.50706E+01-3.73593E+00-2.24660E-01 6.78217E+00-1.42242E-12-1.46871E-12
 -1       309 2.45384E+01 6.87686E-01 1.23146E-01 7.45312E+00-1.70788E-12-1.73925E-12
 -1       310 3.45729E+01 3.11851E+00 3.43012E-01 4.80856E+00-1.25778E-12-1.28292E-12
 -1       311 4.36091E+01 6.06782E+00 9.04784E-01 4.40577E+00-1.23315E-12-1.37904E-12
 -1       312 4.62710E+01 6.87726E+00 9.98909E-01 5.49665E-01-1.21519E-12-8.44155E-13
 -1       313 4.50041E+01 6.23475E+00 9.89991E-01-3.51223E+00-9.20611E-13-8.91787E-14
 -1       314 3.78658E+01 4.75477E+00 6.43841E-01-5.99215E+00-9.67302E-13 5.33823E-13
 -1       315 2.86223E+01 2.52613E+00 3.13824E-01-7.65860E+00-1.19363E-12 9.37972E-13
 -1       316 1.89194E+01-1.17044E+00-9.39168E-02-7.12873E+00-9.31005E-13 1.12521E-12
 -1       317 9.40150E+00-4.73182E+00-4.99046E-01-5.53678E+00-9.52405E-13 1.10098E-12
 -1       318 2.97592E+00-8.26500E+00-7.45386E-01-3.65641E+00-6.15147E-13 8.86555E-13
 -1       319-8.57136E-01-1.09450E+01-9.89417E-01-1.18851E+00-1.65201E-13 9.47950E-13
 -1       320 2.06636E+01 3.06590E+00-1.83419E-02-1.43884E+00-5.44995E-13-4.09132E-13
 -1       321 2.15843E+01 2.19031E+00-1.67081E-02-1.76442E+00-6.03650E-13-5.29212E-14
 -1       322 1.93205E+01 3.92326E+00-1.38410E-02-6.85269E-01-3.15425E-13-7.53729E-13
 -1       323 1.88299E+01 4.17084E+00-1.06997E-02-3.98880E-01-1.99665E-13-8.11112E-13
 -1       324 1.84724E+01 4.33981E+00-8.77268E-03-1.81874E-01-7.67311E-14-8.38063E-13
 -1       325 1.82718E+01 4.43476E+00-7.78625E-03-1.63115E-02 2.61196E-14-8.25500E-13
 -1       326 1.82477E+01 4.45281E+00-7.68487E-03 1.23879E-01 1.27389E-13-8.18956E-13
 -1       327 1.84087E+01 4.38875E+00-8.49358E-03 2.69784E-01 2.24238E-13-7.99746E-13
 -1       328 1.87420E+01 4.24013E+00-1.03153E-02 4.49638E-01 3.24392E-13-7.52671E-13
 -1       329 1.92439E+01 3.99161E+00-1.33198E-02 6.95329E-01 4.44703E-13-6.35220E-13
 -1       330 1.98952E+01 3.61716E+00-1.76633E-02 1.01737E+00 5.46565E-13-4.85552E-13
 -1       331 2.07016E+01 3.05074E+00-2.16919E-02 1.39682E+00 6.31836E-13-2.31163E-13
 -1       332 2.16226E+01 2.13390E+00-2.86105E-02 1.67013E+00 6.45668E-13 2.07001E-13
 -1       333 2.21375E+01 1.16840E+00-2.15840E-02 1.37790E+00 5.84149E-13 6.43928E-13
 -1       334 2.17033E+01 5.14729E-01 9.65320E-03 3.44124E-01 4.71959E-13 4.74898E-13
 -1       335 2.15776E+01 6.95870E-01 1.29535E-02-4.12296E-01-4.67446E-13 8.31133E-15
 -1       336 2.13992E+01 3.71049E-01 7.21599E-03 1.97108E-01-3.63961E-13-2.46391E-14
 -1       337 2.14226E+01 1.91319E-01 3.74449E-03 5.40193E-01-2.35559E-13-4.28296E-14
 -1       338 2.15909E+01 4.63323E-02 7.35547E-04 7.04642E-01-1.72052E-13-7.59446E-14
 -1       339 2.18520E+01-1.07372E-01-1.50003E-03 7.07264E-01-1.18444E-13-1.80392E-14
 -1       340 2.21527E+01-2.83405E-01-3.31610E-03 5.35737E-01-3.76459E-14-1.17827E-14
 -1       341 2.24341E+01-4.64385E-01-4.58886E-03 1.75404E-01-3.25341E-14-1.38681E-14
 -1       342 2.26239E+01-5.91293E-01-4.90881E-03-3.55870E-01-8.41261E-14 4.81693E-14
 -1       343 2.26410E+01-5.65382E-01-3.38504E-03-9.63282E-01-1.38080E-13 3.03570E-14
 -1       344 2.24269E+01-2.92188E-01-3.25837E-04-1.44554E+00-9.08123E-14-6.89531E-15
 -1       345 2.20098E+01 2.24664E-01 2.79626E-03-1.53161E+00-1.27487E-13-6.70755E-14
 -1       346 2.15648E+01 7.86152E-01 3.26615E-03-1.03232E+00-9.22027E-14-1.48431E-13
 -1       347 2.13563E+01 1.06905E+00 2.81768E-03-5.46156E-02-1.90199E-13-2.98857E-13
 -1       348 2.15352E+01 8.85932E-01 2.87315E-03 9.80099E-01-2.17303E-13-4.34616E-13
 -1       349 2.19999E+01 3.63902E-01 2.04240E-03 1.61224E+00-1.75594E-13-5.34105E-13
 -1       350 2.24956E+01-1.84739E-01-1.07078E-04 1.65619E+00-9.06282E-14-5.78320E-13
 -1       351 2.28133E+01-5.19608E-01-2.88021E-03 1.24524E+00-1.09532E-13-5.26093E-13
 -1       352 2.28913E+01-5.96490E-01-4.57058E-03 6.48237E-01-1.09374E-13-5.03702E-13
 -1       353 2.27716E+01-5.00991E-01-4.89452E-03 8.52933E-02 3.04815E-14-4.29689E-13
 -1       354 2.25270E+01-3.38723E-01-3.99628E-03-3.33416E-01 5.69123E-14-4.45996E-13
 -1       355 2.22204E+01-1.81398E-01-2.61799E-03-5.86514E-01 3.62769E-14-3.14078E-13
 -1       356 2.18953E+01-6.05218E-02-1.30689E-03-6.99543E-01 4.09045E-14-3.96658E-13
 -1       357 2.15788E+01 1.86928E-02-3.08634E-04-7.12868E-01 1.01659E-13-3.75897E-13
 -1       358 2.12867E+01 6.30854E-02 3.39960E-04-6.64642E-01 1.20250E-13-4.24572E-13
 -1       359 2.10273E+01 8.26458E-02 6.94680E-04-5.84429E-01-1.30826E-14-2.67897E-13
 -1       360 2.08042E+01 8.63938E-02 8.38051E-04-4.92503E-01-2.44691E-15-2.71381E-13
 -1       361 2.06171E+01 8.11134E-02 8.46492E-04-4.01437E-01 7.08215E-14-2.44267E-13
 -1       362 2.04640E+01 7.13984E-02 7.78896E-04-3.18199E-01 5.52378E-14-2.58848E-13
 -1       363 2.03413E+01 6.01260E-02 6.75643E-04-2.46002E-01-2.33719E-13-2.47035E-13
 -1       364 2.02450E+01 4.89677E-02 5.62057E-04-1.85717E-01-3.12623E-14-2.02021E-13
 -1       365 2.01710E+01 3.88027E-02 4.52661E-04-1.36867E-01-3.32472E-14-9.29776E-14
 -1       366 2.01152E+01 3.00156E-02 3.54820E-04-9.82717E-02-4.29098E-14-2.39895E-13
 -1       367 2.00741E+01 2.26990E-02 2.71461E-04-6.84683E-02 4.15007E-14-4.26559E-13
 -1       368 2.00445E+01 1.67830E-02 2.02921E-04-4.59507E-02 2.41072E-13-4.97540E-13
 -1       369 2.00238E+01 1.21175E-02 1.48148E-04-2.93077E-02-1.28560E-13-4.04845E-13
 -1       370 2.00099E+01 8.52083E-03 1.05439E-04-1.72905E-02 3.15518E-14-1.67979E-13
 -1       371 2.00010E+01 5.80790E-03 7.28789E-05-8.83666E-03-2.63409E-13 4.52686E-14
 -1       372 1.99957E+01 3.80567E-03 4.85830E-05-3.07075E-03 7.48192E-14 1.50943E-13
 -1       373 1.99930E+01 2.35994E-03 3.08159E-05 7.08985E-04 4.95605E-14 1.25537E-13
 -1       374 1.99920E+01 1.33724E-03 1.80360E-05 3.04974E-03 1.34802E-13 2.99662E-13
 -1       375 1.99921E+01 6.23473E-04 8.90587E-06 4.36464E-03 2.51306E-13 1.67948E-13
 -1       376 1.99930E+01 1.20764E-04 2.28300E-06 4.95189E-03 3.12386E-13 3.88972E-13
 -1       377 1.99943E+01-2.56458E-04-2.76516E-06 5.01136E-03 2.74056E-13 4.93780E-13
 -1       378 1.99957E+01-5.84277E-04-6.53271E-06 4.65959E-03 1.55631E-13 6.23095E-13
 -1       379 1.99970E+01-9.34003E-04-1.14915E-05 3.95088E-03 1.48073E-13 4.49172E-13
 -1       380 1.99981E+01-1.22014E-03-1.33918E-05 2.98203E-03-7.77911E-14 3.50081E-13
 -1       381 2.15364E+01 2.82215E-01 1.12971E-02-2.53809E-01 3.61586E-13 3.41995E-13
 -1       382 2.16395E+01 1.76459E-01 6.43318E-03-6.18223E-01 2.09976E-13 2.31747E-13
 -1       383 2.19459E+01 9.76994E-02 2.36353E-03-8.40714E-01 1.31982E-13 1.50246E-13
 -1       384 2.23824E+01 5.42886E-03-5.81446E-04-9.35430E-01 6.97472E-14 1.08337E-13
 -1       385 2.28800E+01-1.24745E-01-3.11687E-03-8.72971E-01 3.56554E-14 7.87126E-14
 -1       386 2.33614E+01-3.00479E-01-5.22991E-03-6.00690E-01 7.76577E-14 1.04990E-13
 -1       387 2.37303E+01-4.92899E-01-5.97994E-03-7.56302E-02 7.52835E-14 1.46669E-13
 -1       388 2.38672E+01-6.10009E-01-5.44703E-03 6.71026E-01-1.79995E-14 1.84673E-13
 -1       389 2.36612E+01-5.02211E-01-3.50192E-03 1.44774E+00 6.43183E-14 1.43786E-13
 -1       390 2.30965E+01-6.11237E-02-1.96572E-03 1.87558E+00 2.49061E-13 1.45449E-13
 -1       391 2.23737E+01 5.95179E-01-6.06909E-03 1.54636E+00 4.61055E-13 3.07046E-15
 -1       392 2.19282E+01 1.06462E+00-4.67951E-03 4.00765E-01 3.22017E-13-9.93068E-14
 -1       393 2.20976E+01 9.58606E-01-2.00279E-03-9.91613E-01 1.99637E-13-3.30433E-13
 -1       394 2.27862E+01 3.75885E-01-1.85511E-04-1.89244E+00 6.06615E-14-5.24166E-13
 -1       395 2.35662E+01-2.41195E-01 1.53573E-03-1.92667E+00 5.03642E-14-7.05362E-13
 -1       396 2.40695E+01-5.68817E-01-2.53733E-03-1.32476E+00-7.62814E-14-5.94543E-13
 -1       397 2.41895E+01-5.84258E-01-6.88989E-03-5.23756E-01-1.34281E-13-5.40997E-13
 -1       398 2.39971E+01-4.29218E-01-7.52640E-03 1.57711E-01-2.06429E-13-4.39526E-13
 -1       399 2.36111E+01-2.41624E-01-5.80477E-03 6.00010E-01 2.42540E-14-2.45045E-13
 -1       400 2.31325E+01-9.08805E-02-3.42007E-03 8.14837E-01 2.84121E-13-2.87908E-13
 -1       401 2.26322E+01 6.13431E-03-1.31731E-03 8.64796E-01 2.81176E-14-2.51303E-13
 -1       402 2.21541E+01 5.78972E-02 1.42666E-04 8.15438E-01-1.62545E-13-1.77848E-13
 -1       403 2.17226E+01 7.90002E-02 9.73994E-04 7.16769E-01-2.09211E-13-5.65151E-14
 -1       404 2.13491E+01 8.20433E-02 1.33383E-03 6.01279E-01-7.01576E-14 9.93246E-15
 -1       405 2.10359E+01 7.57754E-02 1.39635E-03 4.87617E-01-1.09375E-14 2.15299E-14
 -1       406 2.07800E+01 6.55655E-02 1.29745E-03 3.85108E-01 8.05751E-14 6.96074E-14
 -1       407 2.05755E+01 5.44104E-02 1.12677E-03 2.97413E-01 1.21524E-13 1.59850E-13
 -1       408 2.04154E+01 4.38309E-02 9.36762E-04 2.25035E-01 6.17576E-14 2.04160E-13
 -1       409 2.02924E+01 3.44988E-02 7.54919E-04 1.66874E-01 1.28932E-14-2.86103E-14
 -1       410 2.01996E+01 2.66213E-02 5.93804E-04 1.21143E-01 1.47353E-13-3.89922E-14
 -1       411 2.01311E+01 2.01686E-02 4.57584E-04 8.58663E-02-1.05967E-13 9.52000E-15
 -1       412 2.00815E+01 1.50031E-02 3.46015E-04 5.91420E-02 2.04355E-14 2.56917E-13
 -1       413 2.00464E+01 1.09475E-02 2.56807E-04 3.92621E-02 3.87254E-13 2.71247E-13
 -1       414 2.00225E+01 7.81966E-03 1.86894E-04 2.47563E-02 1.32596E-13 1.56064E-13
 -1       415 2.00067E+01 5.44903E-03 1.33086E-04 1.43957E-02-2.05646E-13 1.21638E-13
 -1       416 1.99970E+01 3.68437E-03 9.23878E-05 7.17721E-03-2.18532E-13-1.13873E-13
 -1       417 1.99914E+01 2.39571E-03 6.21296E-05 2.29826E-03-4.48191E-13-8.20724E-14
 -1       418 1.99889E+01 1.47366E-03 4.00107E-05-8.70871E-04 6.06527E-14-1.10303E-13
 -1       419 1.99883E+01 8.27286E-04 2.40746E-05-2.81371E-03 2.84174E-13 8.47833E-14
 -1       420 1.99891E+01 3.81332E-04 1.26716E-05-3.89153E-03-4.34359E-14 2.75288E-13
 -1       421 1.99905E+01 7.27086E-05 4.43152E-06-4.36376E-03 1.65471E-13 2.89195E-14
 -1       422 1.99924E+01-1.53694E-04-1.73989E-06-4.40353E-03 4.79854E-14-1.20244E-13
 -1       423 1.99943E+01-3.48560E-04-6.21595E-06-4.10905E-03-6.50746E-14-9.05975E-14
 -1       424 1.99962E+01-5.54173E-04-8.56173E-06-3.51484E-03-1.64909E-13 2.07238E-13
 -1       425 1.99978E+01-8.04349E-04-8.71753E-06-2.61671E-03 2.51812E-13 6.36819E-13
 -1       426 1.99987E+01-1.03699E-03-8.48616E-06-1.96324E-03 2.68000E-13 6.46974E-13
 -1       427 1.99999E+01-4.41680E-03-4.25113E-07-3.71734E-03 1.76537E-14-3.03744E-13
 -1       428 1.99993E+01-3.05018E-03-7.88052E-06-3.57980E-03-9.44535E-14-3.34413E-13
 -1       429 1.99989E+01-2.03214E-03-1.19507E-05-2.93163E-03 1.86684E-13 6.21094E-13
 -1       430 2.00003E+01-5.65227E-03 4.46557E-06-3.36431E-03-2.16230E-13-9.02651E-13
 -1       431 2.00006E+01-6.69447E-03 7.83859E-06-2.63981E-03 5.05332E-15-2.51626E-13
 -1       432 2.00008E+01-7.43298E-03 1.01407E-05-1.66840E-03 8.29095E-14-7.51696E-14
 -1       433 2.00009E+01-7.81211E-03 1.12863E-05-5.58905E-04-2.74950E-13 9.44054E-14
 -1       434 2.00009E+01-7.80489E-03 1.12852E-05 5.93067E-04-9.52912E-14-8.07973E-15
 -1       435 2.00008E+01-7.41238E-03 1.01576E-05 1.69767E-03-2.80431E-14 1.46079E-13
 -1       436 2.00006E+01-6.67916E-03 7.78616E-06 2.64616E-03-1.35755E-13-4.18747E-13
 -1       437 2.00003E+01-5.63486E-03 4.08797E-06 3.36393E-03-6.85054E-14 1.50069E-13
 -1       438 1.99999E+01-4.37833E-03-7.30213E-08 3.71313E-03 1.88099E-14-3.99986E-13
 -1       439 1.99993E+01-3.02297E-03-8.19521E-06 3.59394E-03-2.61503E-13-1.69228E-13
 -1       440 1.06293E+01-5.72392E+00-6.69743E-02 6.74533E+00 1.23304E-13 6.10199E-13
 -1       441 1.33327E+00-4.14111E+00-9.56601E-03-3.30679E-01 1.15078E-13 1.26171E-12
 -1       442 4.19835E+00-5.13891E+00-7.83158E-02 4.62407E+00 5.97994E-14 9.65339E-13
 -1       443 1.98452E+01-5.57436E+00-1.34221E-02 6.37123E+00 1.47368E-13 4.95340E-13
 -1       444 2.78594E+01-3.34227E+00 2.84439E-03 3.55064E+00 3.62453E-13 6.55864E-14
 -1       445 1.99379E+01 3.57043E+00-1.68276E-02-1.05458E+00-4.41231E-13-6.31973E-13
 -1       446 3.43436E+01 5.16812E+00-2.98857E-02-8.18494E-01 1.19428E-12-2.42029E-13
 -1       447 3.36864E+01 7.84291E+00-8.74429E-02-3.39838E-01 1.28025E-12-9.05751E-14
 -1       448 3.44174E+01 6.28770E+00-5.21872E-02 7.14573E-01 1.08069E-12 1.31076E-13
 -1       449 3.38245E+01 2.96111E+00 1.95776E-02 3.73960E-02 8.65932E-13-3.33067E-14
 -1       450 2.95575E+01-2.26380E+00-2.57284E-02-2.86501E+00 5.22124E-13-2.42362E-13
 -1       451 2.38383E+01-4.85614E+00 1.04937E-02-5.47952E+00 3.16747E-13-3.28931E-13
 -1       452 1.44857E+01-5.79307E+00-8.14462E-03-7.17475E+00-7.96169E-14-8.29170E-13
 -1       453 7.65524E+00-5.07432E+00 1.05988E-02-6.22534E+00-6.71546E-14-1.18169E-12
 -1       454 1.89963E+00-4.63368E+00-6.72062E-02-2.49078E+00-9.28146E-14-1.53091E-12
 -1       455 1.75135E+00-4.86357E+00-9.69664E-02 2.60149E+00-1.38924E-13-1.40554E-12
 -1       456 6.35191E+00-5.38382E+00-7.73630E-02 5.92492E+00-2.34660E-13-1.21242E-12
 -1       457 1.33163E+01-5.57315E+00-6.43144E-02 7.13986E+00-3.75588E-13-8.88165E-13
 -1       458 2.36135E+01-4.33009E+00-3.07281E-03 5.51040E+00-5.73805E-13-6.75002E-13
 -1       459 2.96122E+01-1.72193E+00-6.49558E-03 2.75211E+00-6.88880E-13-3.68247E-13
 -1       460 3.39220E+01 4.36933E+00 1.32711E-03 5.11606E-02-1.00679E-12-2.98789E-13
 -1       461 3.55674E+01 7.33390E+00 4.78653E-02-1.15108E-01-1.14084E-12-4.26673E-13
 -1       462 3.58560E+01 7.85002E+00 7.15898E-02 2.15265E-01-1.30143E-12-7.11854E-13
 -1       463 3.54989E+01 5.22896E+00 1.05597E-01-3.89864E-01-9.51475E-13-5.39124E-13
 -1       464 3.19652E+01 7.61122E-01 4.47720E-02-2.18907E+00-5.60156E-13-2.66148E-13
 -1       465 2.68785E+01-3.23461E+00 5.05205E-03-4.19099E+00-1.43843E-14-2.25236E-13
 -1       466 1.86002E+01-5.29869E+00-3.63547E-02-6.72998E+00 2.22877E-13 3.24740E-13
 -1       467 1.04479E+01-5.65320E+00-7.11081E-02-6.86919E+00 1.58512E-13 4.98511E-13
 -1       468 3.51447E+00-4.99784E+00-8.53795E-02-4.39422E+00 2.32148E-13 9.08607E-13
 -1       469 3.21787E+01 3.27523E-01-2.03687E-02 1.05591E+00 6.63572E-13-1.20959E-13
 -1       470 4.24849E+00-2.34093E+00 1.31007E-01 2.61865E+00-9.71341E-14 1.12510E-12
 -1       471 3.07600E+01 3.91515E-01-9.30394E-02-4.80331E-01-6.24081E-13-2.02199E-14
 -1       472 2.06144E+01-5.83934E+00 4.74593E-02 6.37606E+00 2.58127E-15-5.66137E-13
 -1       473 2.13998E+01 9.53054E-01 4.34437E-03 1.23542E-01 4.58395E-13 6.16423E-15
 -1       474 1.87923E+01 3.63600E+00-3.79114E-03-9.54283E-02-1.18843E-13-7.41161E-13
 -1       475 1.92767E+01 3.33052E+00-4.63233E-03-2.61673E-01-2.40803E-13-6.90317E-13
 -1       476 1.83244E+01 3.92417E+00-2.97330E-03 7.56628E-02 6.46089E-14-7.56116E-13
 -1       477 1.83956E+01 3.89163E+00-3.12673E-03 1.23131E-01 1.64010E-13-7.33999E-13
 -1       478 1.86724E+01 3.73573E+00-3.70998E-03 1.86350E-01 2.69768E-13-7.05051E-13
 -1       479 1.91453E+01 3.44730E+00-4.71013E-03 2.93989E-01 3.87639E-13-6.17901E-13
 -1       480 1.97775E+01 3.01906E+00-5.85082E-03 4.53678E-01 4.68494E-13-4.89374E-13
 -1       481 2.05350E+01 2.42180E+00-5.51799E-03 6.45936E-01 5.36677E-13-3.36019E-13
 -1       482 2.13550E+01 6.07127E-01 5.45182E-03-5.08968E-01 3.36952E-13-3.55401E-16
 -1       483 2.11740E+01 1.05850E+00 2.66665E-03-1.41521E-01-4.01312E-13-2.26649E-13
 -1       484 2.99175E+01 1.23981E+00-1.28390E-01-2.23206E+00 5.81271E-13-5.55021E-13
 -1       485 2.11725E+01 6.19658E-01 2.32434E-03 4.11367E-01-2.84862E-13-1.93727E-13
 -1       486 2.12473E+01 3.03370E-01 8.32901E-04 7.66851E-01-2.01396E-13-1.75851E-13
 -1       487 2.14301E+01 6.63450E-03-2.71844E-04 9.40791E-01-1.26993E-13-1.52824E-13
 -1       488 2.17261E+01-3.22945E-01-1.23600E-03 9.25674E-01-6.48433E-14-1.29859E-13
 -1       489 2.21285E+01-6.90625E-01-2.05701E-03 6.94263E-01-2.87706E-14-1.11621E-13
 -1       490 2.26044E+01-1.03693E+00-2.56616E-03 2.19682E-01-2.85602E-14-1.33697E-13
 -1       491 2.30661E+01-1.21092E+00-3.19093E-03-4.79052E-01-9.11124E-14-1.15892E-13
 -1       492 2.33675E+01-9.93639E-01-2.32409E-03-1.26382E+00-9.41584E-14-2.06264E-15
 -1       493 2.33552E+01-2.23316E-01-1.72362E-03-1.82271E+00-6.63203E-14 1.20241E-13
 -1       494 2.30145E+01 9.76965E-01-4.65737E-03-1.72861E+00-2.02795E-13 9.31078E-14
 -1       495 2.26406E+01 1.97784E+00-1.15389E-02-7.77340E-01-3.22583E-13-1.59896E-13
 -1       496 2.26000E+01 2.10350E+00-1.14164E-02 6.44479E-01-3.34376E-13-2.74676E-13
 -1       497 2.29557E+01 1.24914E+00-8.61068E-03 1.75399E+00-3.21544E-13-3.96912E-13
 -1       498 2.33580E+01 3.95268E-02-4.90691E-03 2.04959E+00-1.85300E-13-5.20864E-13
 -1       499 2.34787E+01-8.59244E-01-2.77835E-03 1.60576E+00-8.26442E-14-4.89767E-13
 -1       500 2.32533E+01-1.19561E+00-2.14507E-03 8.36936E-01-8.64847E-14-3.93882E-13
 -1       501 2.28216E+01-1.10094E+00-2.79156E-03 9.48564E-02 1.62087E-14-2.62260E-13
 -1       502 2.23361E+01-8.02090E-01-2.52299E-03-4.57186E-01 3.22092E-14-2.95258E-13
 -1       503 2.18889E+01-4.73801E-01-1.73886E-03-7.92044E-01 7.72721E-14-2.88689E-13
 -1       504 2.15127E+01-2.02891E-01-9.38411E-04-9.46026E-01 3.45888E-14-1.34609E-13
 -1       505 2.12075E+01-1.37436E-02-3.43308E-04-9.71429E-01 1.21964E-13-1.74091E-13
 -1       506 2.09618E+01 1.00811E-01 3.89204E-05-9.15998E-01 7.24973E-14-2.71878E-13
 -1       507 2.07631E+01 1.58819E-01 2.53049E-04-8.16510E-01 2.94399E-14-3.31067E-13
 -1       508 2.06014E+01 1.78695E-01 3.50256E-04-6.98600E-01 7.15032E-14-3.22854E-13
 -1       509 2.04695E+01 1.75285E-01 3.72909E-04-5.78767E-01 3.44672E-14-2.35569E-13
 -1       510 2.03622E+01 1.59204E-01 3.52705E-04-4.66729E-01 2.65570E-14-1.05547E-13
 -1       511 2.02754E+01 1.37462E-01 3.11152E-04-3.67488E-01-6.15651E-14-1.03455E-13
 -1       512 2.02060E+01 1.14382E-01 2.61828E-04-2.82953E-01-1.62212E-13-8.81430E-14
 -1       513 2.01512E+01 9.24259E-02 2.12670E-04-2.13113E-01-2.91219E-15-2.60233E-13
 -1       514 2.01086E+01 7.28437E-02 1.67841E-04-1.56872E-01-1.06526E-13-1.79892E-13
 -1       515 2.00760E+01 5.61253E-02 1.29173E-04-1.12595E-01-1.37700E-13-2.02462E-13
 -1       516 2.00515E+01 4.23136E-02 9.70929E-05-7.84671E-02 1.70310E-14-3.45411E-13
 -1       517 2.00335E+01 3.12053E-02 7.12756E-05-5.26987E-02 1.75032E-13-3.59157E-13
 -1       518 2.00205E+01 2.24786E-02 5.10263E-05-3.36492E-02 2.53120E-13-6.42290E-14
 -1       519 2.00114E+01 1.57705E-02 3.55101E-05-1.98820E-02-1.05896E-13 9.42934E-16
 -1       520 2.00052E+01 1.07213E-02 2.38817E-05-1.01827E-02 9.43866E-14 2.74665E-13
 -1       521 2.00013E+01 6.99916E-03 1.53532E-05-3.55470E-03 1.68532E-13 3.65238E-13
 -1       522 1.99989E+01 4.30978E-03 9.22107E-06 7.98194E-04 1.78208E-13 5.13353E-13
 -1       523 1.99976E+01 2.39884E-03 4.85996E-06 3.49467E-03-1.19917E-14 3.56454E-13
 -1       524 1.99972E+01 1.04875E-03 1.75033E-06 4.99991E-03 3.95739E-13 3.68750E-13
 -1       525 1.99972E+01 7.28976E-05-5.60720E-07 5.64863E-03 2.12632E-13 3.07806E-13
 -1       526 1.99975E+01-6.88893E-04-1.95962E-06 5.66420E-03 2.10769E-13 2.69138E-13
 -1       527 1.99980E+01-1.37294E-03-4.16315E-06 5.18193E-03 9.45639E-14 9.62390E-14
 -1       528 1.01418E+01-3.67479E+00 1.33704E-01 6.18419E+00-4.08965E-13 4.82718E-13
 -1       529 2.16539E+01 1.74603E-01 5.47050E-04-1.21649E+00 1.43846E-13-8.05139E-14
 -1       530 2.20002E+01-8.69104E-02-1.31027E-03-1.31924E+00 7.97405E-14-9.89835E-14
 -1       531 2.24767E+01-4.43548E-01-3.22187E-03-1.20449E+00 4.31677E-14-1.48679E-13
 -1       532 2.30751E+01-8.86538E-01-4.89792E-03-8.01023E-01-6.34242E-15-3.19299E-14
 -1       533 2.37471E+01-1.30035E+00-4.36155E-03-5.26062E-02-1.72880E-14 8.36515E-14
 -1       534 2.43344E+01-1.40030E+00-5.55944E-03 9.85572E-01 6.37152E-14 9.35483E-14
 -1       535 2.46005E+01-8.33691E-01-9.01505E-03 1.98682E+00 1.77203E-13 9.21197E-14
 -1       536 2.43637E+01 5.32452E-01-1.61324E-02 2.31807E+00 3.34718E-13 1.54789E-13
 -1       537 2.38204E+01 2.11105E+00-3.13112E-02 1.42216E+00 4.91303E-13 1.42044E-13
 -1       538 2.37402E+01 2.42465E+00-2.56737E-02-4.69572E-01 4.92425E-13-1.32385E-13
 -1       539 2.40620E+01 1.56465E+00-2.11198E-02-2.07804E+00 2.92565E-13-3.39468E-13
 -1       540 2.45982E+01-4.85822E-02-1.25941E-02-2.48735E+00 1.24956E-13-4.73180E-13
 -1       541 2.46841E+01-1.14794E+00-4.18026E-03-1.81737E+00-4.10730E-14-3.79180E-13
 -1       542 2.42930E+01-1.42458E+00-6.09925E-03-7.44879E-01-2.45485E-13-3.31391E-13
 -1       543 2.36713E+01-1.16313E+00-5.94364E-03 2.06619E-01-3.19964E-13-2.07993E-13
 -1       544 2.30319E+01-7.30318E-01-4.40391E-03 8.37986E-01-1.58887E-13-1.61292E-13
 -1       545 2.24696E+01-3.38142E-01-2.63871E-03 1.16010E+00 1.27657E-13-5.18142E-14
 -1       546 2.20040E+01-6.28102E-02-1.11637E-03 1.25400E+00 1.12442E-13 8.15952E-14
 -1       547 2.16216E+01 9.91891E-02-4.64367E-05 1.20576E+00-1.50170E-14 9.48342E-14
 -1       548 2.13050E+01 1.77392E-01 5.83417E-04 1.08151E+00-2.49606E-13-1.56650E-14
 -1       549 2.10409E+01 2.02166E-01 8.70252E-04 9.25879E-01-6.08873E-14-7.22473E-14
 -1       550 2.08207E+01 1.96712E-01 9.37828E-04 7.66157E-01-8.63645E-14 5.69701E-14
 -1       551 2.06381E+01 1.76401E-01 8.84019E-04 6.17322E-01-9.43855E-14 2.04886E-13
 -1       552 2.04886E+01 1.50461E-01 7.74157E-04 4.86396E-01 6.06463E-14 2.07775E-13
 -1       553 2.03677E+01 1.23989E-01 6.47087E-04 3.75632E-01 1.13429E-13 3.72071E-13
 -1       554 2.02716E+01 9.95563E-02 5.23352E-04 2.84596E-01 1.85226E-13 1.64688E-13
 -1       555 2.01964E+01 7.82572E-02 4.12632E-04 2.11485E-01-9.07544E-15 2.14188E-13
 -1       556 2.01385E+01 6.03648E-02 3.18494E-04 1.53922E-01-6.06797E-14 6.57994E-13
 -1       557 2.00948E+01 4.57336E-02 2.41133E-04 1.09418E-01-4.68026E-14 5.45620E-13
 -1       558 2.00625E+01 3.40257E-02 1.79152E-04 7.56138E-02 1.88771E-13 2.28351E-13
 -1       559 2.00390E+01 2.48324E-02 1.30508E-04 5.03920E-02 1.95530E-13 4.41359E-13
 -1       560 2.00224E+01 1.77399E-02 9.30267E-05 3.19287E-02 2.81214E-14 2.68840E-13
 -1       561 2.00111E+01 1.23626E-02 6.46498E-05 1.86945E-02-1.71595E-13 1.33412E-13
 -1       562 2.00036E+01 8.35794E-03 4.35442E-05 9.43708E-03-3.69980E-13 1.71667E-13
 -1       563 1.99990E+01 5.43060E-03 2.81219E-05 3.15158E-03-3.10386E-13 3.20543E-14
 -1       564 1.99965E+01 3.33078E-03 1.70560E-05-9.51588E-04 1.67909E-13 2.31186E-13
 -1       565 1.99953E+01 1.84958E-03 9.21659E-06-3.47824E-03 8.37290E-14 3.16963E-13
 -1       566 1.99951E+01 8.13380E-04 3.67608E-06-4.88003E-03 2.82338E-13 2.06140E-13
 -1       567 1.99955E+01 7.50054E-05-3.27836E-07-5.48041E-03 2.52317E-13 3.20305E-13
 -1       568 1.99962E+01-4.92239E-04-3.59904E-06-5.49495E-03-2.45812E-13 3.29215E-13
 -1       569 1.99971E+01-1.00234E-03-8.47043E-06-5.06217E-03-2.15426E-13 4.51450E-13
 -1       570 1.99980E+01-1.52577E-03-9.80314E-06-4.23355E-03-1.23784E-13 3.82334E-13
 -1       571 2.00012E+01-4.40956E-03 2.89662E-06-3.76821E-03 7.45088E-14-4.55591E-13
 -1       572 2.00017E+01-4.93089E-03 3.96269E-06-2.68392E-03 3.28688E-13 5.16489E-14
 -1       573 1.99996E+01-2.82656E-03-1.79474E-06-4.75160E-03-1.56091E-13-5.30592E-13
 -1       574 2.00005E+01-3.70004E-03 1.62202E-06-4.49850E-03-4.13363E-13-5.54478E-13
 -1       575 2.00020E+01-5.24346E-03 4.82356E-06-1.38091E-03 1.02682E-13-3.88971E-13
 -1       576 2.00021E+01-5.34330E-03 5.14709E-06 2.34120E-05 1.44431E-13 2.56030E-13
 -1       577 2.00020E+01-5.23038E-03 4.90514E-06 1.42433E-03 1.53080E-13 3.75443E-13
 -1       578 2.00017E+01-4.91399E-03 4.24886E-06 2.69703E-03 7.45007E-14-2.89351E-13
 -1       579 2.00012E+01-4.39242E-03 2.58662E-06 3.77406E-03 1.23774E-13-5.07588E-14
 -1       580 2.00005E+01-3.65853E-03 9.51158E-07 4.48434E-03 1.35982E-13-1.48917E-13
 -1       581 1.99995E+01-2.77625E-03-3.24584E-06 4.72383E-03 2.69196E-14-4.79639E-13
 -1       582 4.85972E+00-2.01584E+00 1.61165E-01-2.81496E+00 2.84384E-13 8.74106E-13
 -1       583 2.14380E+01 3.82682E-01 2.60979E-03-9.43344E-01 2.18313E-13-6.15029E-14
 -1       584 1.74740E+01-5.29442E+00 8.01795E-02 6.52067E+00-4.34187E-13 2.28460E-13
 -1       585 1.01366E+01-3.47201E+00 1.36758E-01-6.32073E+00 5.30062E-13 4.26020E-13
 -1       586 2.10430E+01 1.82739E+00-6.29530E-03-7.96723E-01-5.10392E-13-3.20710E-13
 -1       587 2.51467E+01-5.47636E+00 6.19979E-03 3.70441E+00-2.50563E-13-2.58391E-13
 -1       588 7.18480E+00-2.34908E+00 1.70875E-01 4.74913E+00 1.89980E-13-1.19917E-12
 -1       589 2.95656E+01 5.19093E+00-1.74989E-01-1.98956E+00 9.85920E-13-4.01727E-13
 -1       590 1.84638E+01 3.83590E+00-3.20843E-03 1.21934E-02-1.44295E-14-7.60219E-13
 -1       591 2.86295E+01 6.19831E+00-1.47600E-01 9.93561E-01 8.99308E-13 1.57192E-13
 -1       592 4.61006E+00-1.32700E+00 1.82898E-01 1.94106E-01-3.20534E-14-1.38005E-12
 -1       593 2.99148E+01 4.15468E+00-1.93524E-01 2.08071E+00 8.72039E-13 3.22513E-13
 -1       594 2.99138E+01-1.19111E+00-1.11456E-01 9.63333E-01 3.59820E-13 3.39243E-13
 -1       595 2.71212E+01-4.78636E+00-2.59956E-02-2.24948E+00-9.81923E-14 1.73778E-13
 -1       596 2.15853E+01-5.62370E+00 7.15061E-02-5.58868E+00-3.77316E-13-1.43698E-13
 -1       597 1.32799E+01-4.20760E+00 1.16746E-01-6.71988E+00-4.25146E-13-7.44689E-13
 -1       598 2.69826E+01-4.44750E+00-1.50068E-02 2.78636E+00-2.04246E-13-1.27676E-15
 -1       599 7.02341E+00-2.53313E+00 1.48317E-01-4.66021E+00-3.73715E-13-1.30100E-12
 -1       600 1.29640E+01-4.29488E+00 1.14274E-01 6.93691E+00 2.43749E-13-7.76337E-13
 -1       601 3.05763E+01 5.84072E+00-1.50110E-01 1.57751E+00-9.71237E-13-8.26922E-13
 -1       602 3.02009E+01 5.17782E+00-1.74180E-01-1.58026E+00-8.97171E-13-2.08764E-13
 -1       603 3.04364E+01 7.45281E+00-1.59206E-01-1.61718E-01-1.06853E-12-3.81011E-13
 -1       604 3.09986E+01 2.13029E+00-1.15483E-01 1.26260E+00-5.37077E-13-8.44200E-13
 -1       605 2.90751E+01-2.44233E+00-5.94563E-02-6.16265E-01 3.01564E-14-7.47048E-13
 -1       606 2.40949E+01-5.42916E+00 7.09672E-03-4.46537E+00 5.70190E-13-3.00468E-13
 -1       607 1.72019E+01-5.24114E+00 8.43237E-02-6.77332E+00 5.77621E-13-2.61249E-14
 -1       608 2.92084E+01-2.82552E+00-6.58706E-02 2.85082E-01 1.55697E-13-4.50320E-13
 -1       609 2.15333E+01 1.36393E+00-7.30699E-04 8.08074E-01 5.66901E-13 7.49505E-14
 -1       610 2.66919E+01 5.24038E+00-1.09878E-01-8.05255E-01 8.31418E-13 9.14113E-15
 -1       611 1.98705E+01 2.91311E+00-7.98996E-03-4.74644E-01-3.56273E-13-6.22098E-13
 -1       612 5.75507E+00-7.89074E-01 1.69039E-01-1.47714E-02 1.26474E-14 1.00207E-12
 -1       613 1.99984E+01-1.83159E-03-5.76312E-06 4.60421E-03-6.12731E-14 1.72433E-13
 -1       614 2.83836E+01-2.45482E+00-6.88479E-02 6.70726E-02-2.80418E-13 8.39814E-14
 -1       615 2.89400E+01 2.10238E+00-1.31133E-01-2.01272E+00-5.95357E-13-6.31648E-14
 -1       616 1.85110E+01 3.30569E+00-1.01718E-03-4.37614E-03 1.94970E-13-6.32918E-13
 -1       617 1.83207E+01 3.41774E+00-8.60900E-04 7.01904E-02 1.05070E-13-6.67636E-13
 -1       618 1.95301E+01 2.62725E+00-1.42398E-03-3.72053E-02 3.75964E-13-4.86973E-13
 -1       619 2.02447E+01 2.07512E+00-1.64154E-03 8.32004E-03 4.28939E-13-3.74768E-13
 -1       620 2.08771E+01 1.31086E+00 2.59314E-03-2.04354E-01 4.00111E-13-2.42801E-13
 -1       621 2.21760E+01-5.01857E+00 5.46005E-02 4.39518E+00-5.44842E-13-1.87037E-13
 -1       622 2.08760E+01 9.02636E-01 1.38679E-03-7.90596E-01 2.84462E-13-2.47093E-13
 -1       623 2.07811E+01 7.92640E-01 6.67780E-04 6.80226E-01-2.28011E-13-3.25581E-13
 -1       624 2.09036E+01 3.51192E-01 1.31557E-04 1.03048E+00-1.43998E-13-2.78026E-13
 -1       625 2.11439E+01-1.14277E-01-2.73059E-04 1.22530E+00-6.50136E-14-2.36810E-13
 -1       626 2.15521E+01-6.52047E-01-6.96528E-04 1.23584E+00-4.50588E-14-2.32430E-13
 -1       627 2.21639E+01-1.24840E+00-1.07511E-03 1.00791E+00 5.44470E-15-1.44569E-13
 -1       628 2.29730E+01-1.78328E+00-1.37828E-03 4.69046E-01-2.96257E-14-1.04421E-13
 -1       629 2.38462E+01-1.95414E+00-5.07738E-03-4.06208E-01 8.81380E-15 2.53005E-14
 -1       630 2.44904E+01-1.39868E+00-3.02369E-03-1.44551E+00 4.74503E-14 1.13639E-13
 -1       631 2.45522E+01 3.17757E-01-3.09504E-02-2.16254E+00-1.91727E-13 1.80673E-13
 -1       632 2.41836E+01 2.40052E+00-3.99319E-02-1.72519E+00-4.52281E-13 1.06737E-13
 -1       633 2.38474E+01 3.59855E+00-5.91576E-02-1.21926E-01-4.82347E-13-1.42965E-13
 -1       634 2.40462E+01 2.84541E+00-5.55524E-02 1.64931E+00-5.40125E-13-3.72911E-13
 -1       635 2.45603E+01 7.61279E-01-1.59149E-02 2.33903E+00-3.50346E-13-5.12965E-13
 -1       636 2.45734E+01-1.04003E+00-1.21378E-02 1.84927E+00-7.12247E-14-4.61361E-13
 -1       637 2.40187E+01-1.88851E+00-1.27347E-03 8.14999E-01-4.46952E-15-3.74547E-13
 -1       638 2.31526E+01-1.86730E+00-1.57722E-03-1.23914E-01 8.47606E-14-2.31059E-13
 -1       639 2.22995E+01-1.42018E+00-1.68927E-03-7.61980E-01-6.44477E-15-2.10303E-13
 -1       640 2.16096E+01-8.82020E-01-1.16326E-03-1.10502E+00 9.93608E-14-1.87959E-13
 -1       641 2.11103E+01-4.20266E-01-5.77015E-04-1.23336E+00 1.78789E-13-1.98371E-13
 -1       642 2.07714E+01-8.67079E-02-2.26039E-04-1.22464E+00 8.80742E-14-9.51430E-14
 -1       643 2.05481E+01 1.24262E-01-4.54134E-05-1.13655E+00-7.68312E-14-1.43009E-13
 -1       644 2.04010E+01 2.39199E-01 3.93553E-05-1.00804E+00 8.03087E-14-1.63676E-13
 -1       645 2.03020E+01 2.87078E-01 7.57799E-05-8.64193E-01 1.37831E-13-1.34906E-13
 -1       646 2.02326E+01 2.92173E-01 8.67011E-05-7.20710E-01 1.35287E-13-2.50061E-14
 -1       647 2.01817E+01 2.72484E-01 8.46976E-05-5.86908E-01 7.41787E-14 8.49435E-14
 -1       648 2.01428E+01 2.40355E-01 7.61850E-05-4.67750E-01-3.04359E-14-3.21349E-14
 -1       649 2.01121E+01 2.03743E-01 6.50426E-05-3.65265E-01-1.12002E-13 1.10863E-13
 -1       650 2.00875E+01 1.67448E-01 5.35210E-05-2.79572E-01-1.51422E-13 7.86476E-14
 -1       651 2.00676E+01 1.34119E-01 4.27403E-05-2.09626E-01-3.38136E-14 1.81618E-14
 -1       652 2.00516E+01 1.05000E-01 3.33089E-05-1.53752E-01-1.99940E-13-1.18361E-13
 -1       653 2.00388E+01 8.04661E-02 2.53795E-05-1.10008E-01-1.40615E-13 1.02980E-13
 -1       654 2.00287E+01 6.03812E-02 1.89191E-05-7.64225E-02-5.36391E-15 5.91634E-14
 -1       655 2.00208E+01 4.43363E-02 1.37899E-05-5.11365E-02 1.37960E-13-1.90027E-13
 -1       656 2.00147E+01 3.17983E-02 9.80929E-06-3.24844E-02 3.22453E-13-3.21526E-13
 -1       657 2.00101E+01 2.22025E-02 6.78463E-06-1.90284E-02 1.73650E-13 8.88582E-14
 -1       658 2.00067E+01 1.50056E-02 4.53069E-06-9.56436E-03 5.71723E-14 3.09868E-13
 -1       659 2.00042E+01 9.71339E-03 2.88215E-06-3.11080E-03-9.38160E-14-1.63647E-14
 -1       660 2.00025E+01 5.89145E-03 1.68662E-06 1.11206E-03-8.27596E-16-3.81487E-13
 -1       661 2.00012E+01 3.16582E-03 7.50490E-07 3.70695E-03 3.21483E-13-8.33342E-14
 -1       662 2.00004E+01 1.21738E-03 3.12989E-08 5.12497E-03 2.34728E-13-8.27906E-14
 -1       663 1.99999E+01-2.23636E-04-1.08406E-06 5.69075E-03 6.68124E-14-1.55994E-13
 -1       664 1.99997E+01-1.38950E-03-5.87521E-06 5.62924E-03-1.61808E-13-7.63182E-13
 -1       665 2.73578E+01 5.59132E+00-1.61127E-01-1.14269E+00-8.52221E-13-2.38589E-13
 -1       666 2.69968E+01 5.70859E+00-1.57619E-01 1.02298E+00-8.12336E-13-5.78806E-13
 -1       667 2.11133E+01 2.01952E-01 4.26806E-05-1.54879E+00 9.94426E-14-2.58677E-13
 -1       668 2.29588E+01-1.71241E+00-2.93959E-03-1.23053E+00-9.84718E-14-8.21715E-14
 -1       669 2.41681E+01-2.39082E+00-3.17817E-03-3.83297E-01-7.22842E-14 2.34195E-14
 -1       670 2.54102E+01-2.30984E+00-1.03685E-02 9.50121E-01-4.12105E-15 2.70177E-13
 -1       671 2.61482E+01-7.91514E-01-5.69329E-02 2.26835E+00 2.13654E-13 4.90235E-13
 -1       672 2.60431E+01 2.05555E+00-1.07982E-01 2.53467E+00 5.36644E-13 3.58349E-13
 -1       673 2.60159E+01 9.51919E-01-9.90314E-02-2.84080E+00 3.28912E-13-4.05146E-13
 -1       674 2.59373E+01-1.45376E+00-3.65140E-02-2.12219E+00-3.68976E-15-4.83646E-13
 -1       675 2.50403E+01-2.36339E+00-6.94127E-03-7.27590E-01-2.20459E-13-3.84134E-13
 -1       676 2.37759E+01-2.10129E+00-4.55509E-03 4.81165E-01-2.97615E-13-3.02479E-13
 -1       677 2.26921E+01-1.41267E+00-1.94796E-03 1.19937E+00-2.74246E-13-3.34592E-13
 -1       678 2.18902E+01-7.23432E-01-1.37740E-03 1.52302E+00-7.96248E-14-1.98110E-13
 -1       679 2.13572E+01-2.16420E-01-6.25146E-04 1.58837E+00 8.95193E-14 1.28924E-14
 -1       680 2.10092E+01 9.93959E-02-1.60897E-04 1.50793E+00-3.44453E-14 1.35161E-13
 -1       681 2.07773E+01 2.66242E-01 1.57373E-04 1.35228E+00-8.97369E-14 2.99412E-13
 -1       682 2.06140E+01 3.33181E-01 3.12834E-04 1.16595E+00-6.98568E-14 2.42576E-13
 -1       683 2.04913E+01 3.40126E-01 3.62942E-04 9.75827E-01-1.08434E-13 2.08923E-13
 -1       684 2.03938E+01 3.14961E-01 3.55392E-04 7.97211E-01-9.13863E-14 1.65214E-13
 -1       685 2.03136E+01 2.75344E-01 3.19024E-04 6.37820E-01 1.09952E-14 1.55363E-13
 -1       686 2.02470E+01 2.31578E-01 2.71754E-04 5.00674E-01 1.14386E-13 1.80174E-13
 -1       687 2.01918E+01 1.89289E-01 2.23326E-04 3.85959E-01 8.81361E-14 2.67331E-13
 -1       688 2.01465E+01 1.51247E-01 1.78333E-04 2.92192E-01 8.54318E-14 2.44516E-13
 -1       689 2.01099E+01 1.18506E-01 1.39090E-04 2.17058E-01-1.67790E-13 4.48537E-13
 -1       690 2.00807E+01 9.11884E-02 1.06287E-04 1.57945E-01 5.12247E-14 3.59114E-13
 -1       691 2.00580E+01 6.89390E-02 7.97303E-05 1.12240E-01 3.02430E-13 3.46475E-13
 -1       692 2.00406E+01 5.11823E-02 5.87042E-05 7.75077E-02 2.83711E-13 2.03583E-13
 -1       693 2.00275E+01 3.72680E-02 4.23602E-05 5.15791E-02 1.91512E-13 2.75060E-13
 -1       694 2.00178E+01 2.65527E-02 2.98730E-05 3.25876E-02-6.11706E-15 5.40092E-13
 -1       695 2.00109E+01 1.84428E-02 2.04929E-05 1.89687E-02-2.67003E-13 4.26190E-13
 -1       696 2.00061E+01 1.24131E-02 1.35760E-05 9.43989E-03-2.87298E-13 3.80003E-13
 -1       697 2.00028E+01 8.01047E-03 8.55116E-06 2.97199E-03 1.07501E-13 6.81903E-14
 -1       698 2.00007E+01 4.85062E-03 4.99864E-06-1.24297E-03 1.27023E-13 1.25041E-13
 -1       699 1.99995E+01 2.61159E-03 2.39876E-06-3.82251E-03 2.59275E-13-5.11406E-14
 -1       700 1.99989E+01 1.02760E-03 6.39167E-07-5.22782E-03 3.07296E-13-3.32279E-13
 -1       701 1.99986E+01-1.32646E-04-4.35157E-07-5.78665E-03 6.59813E-14-2.43221E-13
 -1       702 1.99987E+01-1.06510E-03-9.88402E-08-5.71732E-03-2.03429E-13-2.37661E-13
 -1       703 1.99992E+01-1.88589E-03-1.57506E-06-5.36422E-03-4.79156E-14-6.74126E-13
 -1       704 2.00033E+01-3.02666E-03 1.63073E-06-7.37763E-04 6.15361E-13 3.81717E-14
 -1       705 1.99996E+01-2.10264E-03-1.65838E-06 5.29200E-03 1.15302E-14-7.84358E-13
 -1       706 2.00025E+01-2.83705E-03 5.17244E-07-3.57232E-03 1.61557E-13 1.52148E-14
 -1       707 2.00033E+01-3.01983E-03 1.79594E-06 7.95325E-04 2.49036E-13 9.30045E-15
 -1       708 2.00031E+01-2.97397E-03 1.22248E-06-2.22871E-03 3.96367E-13-1.64880E-13
 -1       709 1.52879E+01-3.29831E+00 1.04562E-01 5.83359E+00-5.73236E-13 3.30673E-13
 -1       710 2.00031E+01-2.95567E-03 1.49635E-06 2.25454E-03 8.07340E-14 1.59987E-13
 -1       711 2.00025E+01-2.81197E-03 1.48512E-06 3.58889E-03 2.48994E-13-3.49215E-13
 -1       712 2.00016E+01-2.55601E-03 2.20806E-06 4.67778E-03 1.69572E-13-8.92321E-14
 -1       713 2.09388E+01 5.68881E-01 8.05805E-04-1.23685E+00 1.88078E-13-2.43570E-13
 -1       714 8.88216E+00-1.41176E+00 1.54633E-01 4.14763E+00-3.50237E-13 6.00527E-13
 -1       715 2.15265E+01-4.95647E+00 3.71558E-02-4.79253E+00 4.16882E-13-1.02627E-13
 -1       716 2.06060E+01 1.85704E+00-5.66358E-04-2.81066E-01-3.88014E-13-4.05487E-13
 -1       717 2.77496E+01 7.97357E-01-9.35242E-02 2.48307E+00 4.76494E-13 4.36203E-13
 -1       718 1.84768E+01-4.00836E+00 6.81714E-02-5.59130E+00-4.90975E-13-3.03308E-13
 -1       719 2.76643E+01 2.29450E+00-1.59470E-01-2.65234E+00 6.09748E-13-4.97352E-13
 -1       720 2.20550E+01-9.35728E-01-1.69621E-03-1.63175E+00-5.52919E-14-1.06080E-13
 -1       721 2.14601E+01-2.83114E-01-8.61836E-04-1.70193E+00 5.86917E-14-2.00214E-13
 -1       722 2.07009E+01 1.25431E+00 5.48041E-05 2.48766E-01-3.11804E-13-3.61697E-13
 -1       723 1.94919E+01-4.67286E+00 8.60888E-02 5.86913E+00 3.39145E-13-3.85719E-13
 -1       724 2.74538E+01-3.11372E+00-3.78754E-02 5.45910E-01-3.09535E-14 2.63525E-13
 -1       725 1.89298E+01 3.03889E+00-1.20880E-03-4.66019E-02 2.95148E-13-5.67617E-13
 -1       726 1.24852E+01-2.07460E+00 1.28251E-01 5.46742E+00 3.86035E-13-8.03704E-13
 -1       727 1.22877E+01-1.79295E+00 1.17274E-01-5.08713E+00-4.74818E-13-8.81656E-13
 -1       728 2.45091E+01-4.85070E+00 1.50639E-02-2.94393E+00-3.29323E-13 1.52651E-13
 -1       729 1.91235E+01 2.87429E+00-1.13892E-03 1.27373E-01-1.46678E-13-6.08281E-13
 -1       730 2.64448E+01-4.30691E+00-2.43564E-02-1.41941E+00 2.93678E-13-4.97463E-13
 -1       731 8.45194E+00-4.97897E-01 1.50291E-01 2.80936E+00 1.70197E-13-1.10946E-12
 -1       732 2.43599E+01-4.95140E+00 6.73346E-03 3.33743E+00 1.53532E-13-2.19850E-14
 -1       733 1.57141E+01-3.35001E+00 1.01882E-01-5.95168E+00 4.51531E-13 8.12891E-15
 -1       734 9.35235E+00-1.36504E+00 1.43312E-01-4.33461E+00 4.81025E-13 5.09030E-13
 -1       735 2.80601E+01 2.86396E+00-1.34227E-01 2.38336E+00-6.04322E-13-7.89094E-13
 -1       736 2.83222E+01-8.15110E-01-8.73683E-02 1.53117E+00-2.08472E-13-8.28851E-13
 -1       737 8.65369E+00-1.74353E-01 1.51885E-01-2.14232E+00-2.34316E-13-1.06384E-12
 -1       738 1.97153E+01 2.45863E+00-9.49451E-04 2.39369E-02-2.48176E-13-5.61988E-13
 -1       739 1.83765E+01 3.37324E+00-8.60998E-04 1.39479E-01 3.31814E-14-7.02660E-13
 -1       740 8.72985E+00-1.51498E-01 1.36505E-01-2.11516E+00 2.73612E-13 3.88307E-13
 -1       741 2.00016E+01-2.58813E-03 1.05026E-06-4.63385E-03-1.19338E-13-7.57802E-14
 -1       742 2.00005E+01-2.31734E-03-5.62394E-08-5.20761E-03-3.29758E-13-6.52986E-13
 -1       743 2.82709E+01-1.61339E+00-5.99327E-02-1.77176E+00 1.68317E-13-6.04218E-13
 -1       744 2.78136E+01-7.75656E-01-5.88871E-02-1.65901E+00-2.57610E-13 1.34733E-13
 -1       745 2.70361E+01 3.49506E+00-1.28510E-01-2.04419E+00-6.56315E-13-4.19317E-14
 -1       746 2.61533E+01-4.17990E+00-4.38596E-02 1.11524E+00 2.03119E-14 1.10766E-13
 -1       747 1.86587E+01 3.18545E+00-1.01004E-03 1.65797E-01-5.41540E-14-6.62515E-13
 -1       748 2.60433E+01-4.39921E+00-1.81144E-03 1.15339E+00-2.97288E-13-5.51558E-13
 -1       749 1.95939E+01-3.23314E+00 5.02553E-02 4.32982E+00-5.61391E-13-3.71786E-14
 -1       750 1.98837E+01 1.85927E+00 1.50297E-04-4.94085E-01 3.28844E-13-3.94125E-13
 -1       751 2.02742E+01 9.03788E-01 2.44482E-04 9.70207E-01-1.38301E-13-3.72578E-13
 -1       752 2.04122E+01 3.50857E-01 3.85386E-05 1.34268E+00-5.76810E-14-3.26296E-13
 -1       753 2.07010E+01-2.81780E-01-7.18886E-05 1.61163E+00-4.65355E-14-2.64158E-13
 -1       754 2.12386E+01-1.04471E+00-1.24375E-04 1.73199E+00 9.33910E-15-2.02540E-13
 -1       755 2.21166E+01-1.90513E+00 8.81190E-04 1.60410E+00 9.59452E-14-1.32141E-13
 -1       756 2.34326E+01-2.70119E+00-1.67781E-02 1.01808E+00 1.00519E-13 9.37080E-14
 -1       757 2.48175E+01-2.84865E+00-5.14097E-03-3.25749E-02 9.86034E-14 1.69665E-13
 -1       758 2.60813E+01 1.51832E+00-8.46918E-02-2.19027E+00-3.42847E-13 9.23794E-14
 -1       759 2.50548E+01-2.66445E+00-3.22943E-02 4.74185E-01 6.55110E-14-4.60311E-13
 -1       760 2.36331E+01-2.80319E+00-8.18853E-04-6.87026E-01 1.77433E-13-2.30492E-13
 -1       761 2.22525E+01-2.14780E+00 1.20549E-04-1.37713E+00 1.64355E-13-1.42177E-13
 -1       762 2.12516E+01-1.34722E+00 5.74409E-05-1.62701E+00 9.65111E-14-6.56718E-14
 -1       763 2.06064E+01-6.63855E-01 3.04929E-04-1.62977E+00 1.23733E-13 6.56669E-15
 -1       764 2.02299E+01-1.68787E-01 2.78153E-04-1.51232E+00 1.88283E-13-1.32334E-14
 -1       765 2.00331E+01 1.48521E-01 2.03492E-04-1.34501E+00 4.03471E-14-1.05033E-13
 -1       766 1.99444E+01 3.27391E-01 9.90447E-05-1.16334E+00 3.57305E-14 1.65817E-13
 -1       767 1.99158E+01 4.08612E-01 1.97872E-05-9.84490E-01 1.95055E-14 1.21174E-13
 -1       768 1.99177E+01 4.25985E-01-2.82104E-05-8.17334E-01 1.13239E-13-3.47153E-14
 -1       769 1.99326E+01 4.04862E-01-5.01625E-05-6.66484E-01 2.16495E-13-1.06667E-13
 -1       770 1.99511E+01 3.63046E-01-5.66476E-05-5.34077E-01 3.04613E-15-2.03138E-14
 -1       771 1.99685E+01 3.12403E-01-5.46485E-05-4.20631E-01-4.06431E-14 1.42143E-13
 -1       772 1.99828E+01 2.60419E-01-4.83451E-05-3.25521E-01-2.43742E-13 9.48287E-14
 -1       773 1.99935E+01 2.11472E-01-4.06874E-05-2.47368E-01-6.71290E-14 2.48205E-14
 -1       774 2.00010E+01 1.67835E-01-3.29138E-05-1.84354E-01-1.62097E-13 9.56919E-14
 -1       775 2.00058E+01 1.30422E-01-2.58070E-05-1.34468E-01-7.83008E-14 2.17581E-13
 -1       776 2.00084E+01 9.93057E-02-1.96636E-05-9.56794E-02-1.02501E-13-3.18415E-15
 -1       777 2.00096E+01 7.40764E-02-1.45704E-05-6.60611E-02-5.55593E-14 3.41761E-13
 -1       778 2.00097E+01 5.40745E-02-1.04902E-05-4.38647E-02 7.03711E-14 2.58214E-13
 -1       779 2.00091E+01 3.85433E-02-7.31679E-06-2.75591E-02 4.58169E-13 2.06719E-14
 -1       780 2.00081E+01 2.67215E-02-4.91594E-06-1.58433E-02 3.20487E-13-6.16979E-14
 -1       781 2.00070E+01 1.78965E-02-3.15161E-06-7.63951E-03 1.97786E-15 5.38525E-14
 -1       782 2.00058E+01 1.14297E-02-1.87781E-06-2.07672E-03-2.64844E-13 3.99444E-13
 -1       783 2.00046E+01 6.76464E-03-1.00207E-06 1.53194E-03 2.26222E-13-2.07187E-14
 -1       784 2.00035E+01 3.42530E-03-3.28020E-07 3.71374E-03 3.49339E-13-2.42306E-13
 -1       785 2.00025E+01 1.01380E-03 1.07108E-06 4.86158E-03 6.58147E-14-4.38007E-13
 -1       786 2.00016E+01-8.35755E-04 3.95355E-06 5.25529E-03-2.99139E-13-5.16280E-13
 -1       787 2.61612E+01-2.39044E+00-1.58743E-02 9.92107E-01 1.07189E-14-6.84917E-13
 -1       788 1.94147E+01-3.38593E+00 3.51168E-02-4.54583E+00 2.85319E-13-1.20457E-13
 -1       789 2.27404E+01-2.68731E+00 1.44967E-02-2.13471E+00-2.23481E-13-8.96735E-14
 -1       790 2.22049E+01-2.25240E+00-8.57861E-03 1.97677E+00-3.48883E-13-3.76863E-13
 -1       791 2.10782E+01-1.17754E+00 1.62244E-03 2.12110E+00-3.00191E-13-2.07434E-13
 -1       792 2.04717E+01-4.01478E-01 4.46040E-04 2.00843E+00-2.49698E-13-1.42762E-15
 -1       793 2.01692E+01 9.46751E-02 2.27126E-05 1.80377E+00-1.48765E-13 2.80835E-13
 -1       794 2.00417E+01 3.68008E-01 8.73120E-05 1.57150E+00-1.11791E-13 2.56675E-13
 -1       795 2.00022E+01 4.89499E-01 1.19810E-04 1.33941E+00-5.46448E-14 7.36742E-14
 -1       796 2.00013E+01 5.16577E-01 1.18053E-04 1.12045E+00-1.69673E-13 9.55590E-14
 -1       797 2.00129E+01 4.90219E-01 1.08795E-04 9.21296E-01-3.20833E-14 2.43029E-13
 -1       798 2.00252E+01 4.37476E-01 9.62846E-05 7.45031E-01 6.75732E-14-1.28394E-14
 -1       799 2.00339E+01 3.74725E-01 8.13695E-05 5.92586E-01 6.83541E-14-6.65704E-14
 -1       800 2.00382E+01 3.11389E-01 6.70040E-05 4.63656E-01 3.98906E-14-6.67903E-14
 -1       801 2.00388E+01 2.52672E-01 5.38243E-05 3.56786E-01 6.62492E-14 1.39280E-13
 -1       802 2.00367E+01 2.00933E-01 4.17758E-05 2.69796E-01-1.16126E-13 7.62472E-14
 -1       803 2.00330E+01 1.56882E-01 3.14340E-05 2.00228E-01 5.48713E-14-2.09455E-14
 -1       804 2.00286E+01 1.20363E-01 2.33488E-05 1.45544E-01 1.54341E-13-2.73248E-13
 -1       805 2.00240E+01 9.07455E-02 1.71249E-05 1.03276E-01 3.67639E-13-1.12947E-13
 -1       806 2.00197E+01 6.71812E-02 1.23502E-05 7.11579E-02 2.07763E-13-1.18204E-13
 -1       807 2.00157E+01 4.87630E-02 8.71806E-06 4.71836E-02-1.17728E-13 1.56827E-13
 -1       808 2.00123E+01 3.46129E-02 5.99019E-06 2.96288E-02-2.97872E-14 3.18089E-13
 -1       809 2.00094E+01 2.39281E-02 3.95550E-06 1.70484E-02 8.09826E-14 8.59891E-14
 -1       810 2.00071E+01 1.60014E-02 2.49395E-06 8.25727E-03 1.78116E-13-2.56537E-13
 -1       811 2.00051E+01 1.02222E-02 1.49780E-06 2.30291E-03 5.82838E-14-1.73872E-13
 -1       812 2.00036E+01 6.07034E-03 1.10689E-06-1.55996E-03 4.51158E-13-4.14290E-13
 -1       813 2.00024E+01 3.11538E-03 2.16031E-07-3.89192E-03 3.81747E-13-6.64185E-13
 -1       814 2.00015E+01 9.95126E-04-4.83673E-07-5.13307E-03 1.74253E-13-6.47878E-13
 -1       815 2.00008E+01-5.93403E-04 6.27834E-07-5.56123E-03-2.33681E-14-4.49642E-13
 -1       816 2.00007E+01-1.45069E-03-2.61264E-06-5.47672E-03-6.93142E-16-8.44683E-13
 -1       817 1.20839E+01-1.82431E-01 7.77559E-02-3.24215E+00-2.41876E-13-9.00183E-13
 -1       818 1.82532E+01 2.92455E+00-2.01267E-04-7.13463E-02 1.23906E-13-5.93901E-13
 -1       819 2.18399E+01-4.15021E+00 2.75190E-02 3.97837E+00 3.64168E-13-1.99097E-13
 -1       820 9.32387E+00 1.88890E-01 1.19836E-01 1.49434E+00-1.79549E-13 6.90163E-13
 -1       821 2.00047E+01-6.02903E-04 6.95102E-07 3.48764E-05 4.86010E-13-1.91500E-13
 -1       822 2.00031E+01-9.34765E-04-1.37621E-06 4.21386E-03 2.28563E-13-1.83408E-13
 -1       823 2.00045E+01-6.51206E-04-9.06885E-07 1.50959E-03 3.40534E-13-2.07359E-13
 -1       824 1.23105E+01-2.63876E-01 7.27683E-02 3.43632E+00 2.64945E-13-7.54147E-13
 -1       825 2.37309E+01-3.41647E+00 3.47042E-03 1.66838E+00-4.05977E-13-3.75614E-13
 -1       826 1.71744E+01-2.76040E+00 4.20426E-02 5.13374E+00 4.51814E-13-4.21441E-13
 -1       827 2.16484E+01-3.57648E+00 2.22224E-02-3.68457E+00-4.00727E-13-5.18110E-14
 -1       828 2.14130E+01-1.51276E+00-1.62986E-03-2.34078E+00-1.31807E-13-2.16142E-13
 -1       829 2.00040E+01-7.84882E-04-3.30329E-06 2.94165E-03-9.95623E-14 5.57589E-14
 -1       830 1.65148E+01-1.86978E+00 4.71354E-02-4.63547E+00-4.17499E-13-4.50072E-13
 -1       831 2.06808E+01-5.27805E-01-5.20942E-04-2.19620E+00-6.31256E-14-2.61138E-13
 -1       832 1.34840E+01-9.32953E-01 7.70995E-02 4.10427E+00-3.59093E-13 2.83275E-13
 -1       833 2.03907E+01 1.36469E+00 2.25378E-04-6.53050E-01 3.07354E-13-3.45098E-13
 -1       834 1.36128E+01-1.26765E+00 5.67351E-02-4.43104E+00 3.34947E-13 2.51923E-13
 -1       835 2.03373E+01 1.90467E-01 8.58850E-05-1.89729E+00 3.08595E-14-2.96267E-13
 -1       836 8.32437E+00 2.63778E-02 1.46617E-01-2.88063E-01-8.92515E-14-1.15900E-12
 -1       837 2.41100E+01-4.23857E+00 1.97088E-02-2.23884E+00 3.37785E-13-2.86766E-13
 -1       838 2.52805E+01-3.40789E+00 2.65431E-03-5.55645E-01-1.98899E-13 1.34193E-13
 -1       839 1.10706E+01 6.00935E-01 8.12512E-02 1.41040E+00 1.10363E-13-9.07576E-13
 -1       840 1.81930E+01 2.95160E+00-1.34956E-04 1.56110E-01 6.80688E-14-6.18655E-13
 -1       841 1.91672E+01 2.34935E+00 5.66649E-04-4.22166E-01 2.70141E-13-4.91004E-13
 -1       842 2.00031E+01-9.68701E-04-1.54366E-06-4.18938E-03-1.47967E-14 8.38688E-14
 -1       843 2.64001E+01-5.91953E-01-4.62666E-02 2.05391E+00-1.57001E-13-6.48488E-13
 -1       844 2.40723E+01-4.15730E+00 4.38714E-02 2.46756E+00 1.68472E-13 7.30509E-14
 -1       845 1.85937E+01 2.71756E+00-3.11931E-04-2.79758E-01 2.04798E-13-5.28301E-13
 -1       846 2.00041E+01-8.10390E-04-1.83250E-07-2.91322E-03 1.69959E-13 3.28378E-13
 -1       847 2.00046E+01-6.63905E-04 4.24245E-07-1.46676E-03 3.62352E-13 7.03131E-14
 -1       848 1.58449E+01-1.06177E+00 3.93635E-02 4.10888E+00 3.45820E-13-4.79277E-13
 -1       849 1.06924E+01 5.69828E-01 8.76141E-02-9.99301E-01-1.02739E-13-9.54830E-13
 -1       850 2.03831E+01 9.49047E-01-8.02627E-06-1.16450E+00 1.96576E-13-3.43137E-13
 -1       851 2.03271E+01 6.16881E-01-1.10329E-04-1.55042E+00 1.23205E-13-3.13511E-13
 -1       852 1.24228E+01-1.08946E-01 7.53159E-02-3.07551E+00 1.94720E-13 2.75335E-13
 -1       853 2.01822E+01 1.41295E+00-5.61167E-05 5.66382E-01-2.21694E-13-3.95924E-13
 -1       854 1.88624E+01 2.50449E+00-5.74644E-04 4.51975E-01-7.31268E-14-5.89006E-13
 -1       855 1.94626E+01 2.10115E+00-7.07402E-04 4.67226E-01-1.55087E-13-4.69694E-13
 -1       856 1.94477E+01-1.73757E+00 1.95811E-02-3.55379E+00-2.79432E-13-2.32914E-13
 -1       857 1.72004E+01-1.45193E+00 1.51642E-02-3.84223E+00 2.99186E-13 1.75840E-14
 -1       858 1.97161E+01 3.56749E-01 8.39938E-05 1.68906E+00-9.77059E-15-3.58754E-13
 -1       859 1.99762E+01-4.19560E-01 3.10456E-04 2.11163E+00 4.57898E-14-3.26539E-13
 -1       860 2.05634E+01-1.40737E+00 4.48476E-04 2.47360E+00 1.43787E-13-2.40396E-13
 -1       861 2.17320E+01-2.59233E+00 1.17939E-02 2.64474E+00 2.65108E-13-1.58085E-13
 -1       862 1.89720E+01-4.88460E-01-4.84738E-04-2.84326E+00-1.38929E-13-3.06588E-13
 -1       863 2.19340E+01-2.94184E+00 1.82968E-02-2.51612E+00 1.94966E-13-2.50724E-13
 -1       864 2.06049E+01-1.81157E+00 5.34219E-03-2.48980E+00 1.62531E-13-2.03049E-13
 -1       865 1.98493E+01-8.73897E-01 1.03481E-03-2.20479E+00 2.59793E-13-2.14583E-13
 -1       866 1.94904E+01-2.13579E-01 8.69649E-04-1.86913E+00 1.39158E-13-9.62438E-14
 -1       867 1.93690E+01 2.01326E-01 8.83335E-04-1.55936E+00 1.18012E-13-4.25881E-14
 -1       868 1.93730E+01 4.36454E-01 6.14352E-04-1.29095E+00 1.31764E-13-8.26126E-14
 -1       869 1.94383E+01 5.46862E-01 3.95679E-04-1.06186E+00 9.12026E-14-1.58807E-13
 -1       870 1.95277E+01 5.74956E-01 2.53906E-04-8.66899E-01-2.52547E-14-7.04606E-14
 -1       871 1.96206E+01 5.52221E-01 1.59008E-04-7.01133E-01 1.16611E-13-8.03475E-14
 -1       872 1.97064E+01 5.00823E-01 1.13422E-04-5.60713E-01 1.57870E-13-1.89053E-13
 -1       873 1.97804E+01 4.35996E-01 9.20685E-05-4.42762E-01 1.02935E-13-9.83369E-14
 -1       874 1.98411E+01 3.67728E-01 7.77239E-05-3.44738E-01-5.90993E-14-1.19614E-14
 -1       875 1.98891E+01 3.02151E-01 6.52630E-05-2.64328E-01-2.02274E-13 1.53962E-13
 -1       876 1.99260E+01 2.42680E-01 5.41488E-05-1.99288E-01-3.15829E-13 9.59505E-14
 -1       877 1.99534E+01 1.90900E-01 4.42434E-05-1.47469E-01-2.37139E-14 1.45009E-13
 -1       878 1.99731E+01 1.47217E-01 3.56586E-05-1.06827E-01-6.66883E-14 3.35177E-13
 -1       879 1.99869E+01 1.11318E-01 2.83018E-05-7.54648E-02 2.19242E-13 4.08498E-13
 -1       880 1.99960E+01 8.24826E-02 2.20919E-05-5.16705E-02-9.23263E-14 4.79324E-13
 -1       881 2.00018E+01 5.97987E-02 1.69437E-05-3.39401E-02 6.86370E-14 3.62998E-13
 -1       882 2.00051E+01 4.23033E-02 1.27587E-05-2.09856E-02 2.26863E-13 6.86626E-14
 -1       883 2.00066E+01 2.90660E-02 9.39005E-06-1.17294E-02 2.89064E-13-7.55070E-14
 -1       884 2.00070E+01 1.92351E-02 6.72218E-06-5.28867E-03 1.00612E-13-5.47956E-14
 -1       885 2.00066E+01 1.20575E-02 4.72723E-06-9.57023E-04-7.03899E-14 3.33495E-14
 -1       886 2.00058E+01 6.88537E-03 3.90128E-06 1.81774E-03 5.83908E-15 1.14346E-13
 -1       887 2.00047E+01 3.13344E-03-7.70295E-08 3.46287E-03-1.15026E-13-3.81128E-13
 -1       888 2.00039E+01 9.61961E-04 2.40288E-06 4.05508E-03-2.43515E-13-4.26925E-13
 -1       889 2.00020E+01-1.29369E-03 6.48100E-07-4.96362E-03-7.38612E-14-5.78235E-14
 -1       890 1.97802E+01-1.53110E+00 9.87683E-03 2.99573E+00-4.29206E-13-1.83167E-14
 -1       891 1.91315E+01 4.98129E-01-1.42187E-04 1.70407E+00-1.92442E-13-2.85170E-13
 -1       892 1.92584E+01 6.62449E-01-4.00257E-05 1.41053E+00-5.00681E-14-6.21737E-14
 -1       893 1.94049E+01 7.06449E-01-5.96416E-06 1.16513E+00-9.55896E-14 3.32937E-15
 -1       894 1.95429E+01 6.79317E-01-8.06282E-06 9.56632E-01-1.20755E-13-2.09033E-13
 -1       895 1.96608E+01 6.15000E-01-3.53622E-06 7.78040E-01 8.87188E-14-3.51272E-13
 -1       896 1.97560E+01 5.34862E-01 4.29540E-06 6.24976E-01 1.97663E-14-1.88296E-13
 -1       897 1.98301E+01 4.50866E-01-4.17262E-06 4.95004E-01 1.12326E-14-5.13645E-14
 -1       898 1.98858E+01 3.70960E-01-3.52725E-06 3.86344E-01-2.25955E-14-4.97306E-15
 -1       899 1.99266E+01 2.99072E-01-5.42652E-06 2.96691E-01 1.25379E-13-9.98293E-14
 -1       900 1.99557E+01 2.36652E-01-6.22339E-06 2.23910E-01 5.54547E-14-3.14266E-13
 -1       901 1.99759E+01 1.84009E-01-5.71967E-06 1.65828E-01 1.56683E-13-3.73270E-13
 -1       902 1.99895E+01 1.40647E-01-4.67899E-06 1.20225E-01 1.87223E-13-2.02363E-13
 -1       903 1.99982E+01 1.05642E-01-3.61354E-06 8.50095E-02 1.28216E-13-2.78103E-14
 -1       904 2.00035E+01 7.78949E-02-2.70536E-06 5.82796E-02-1.60829E-13 2.72678E-13
 -1       905 2.00063E+01 5.62814E-02-1.97663E-06 3.83557E-02-9.70832E-15 1.65499E-13
 -1       906 2.00076E+01 3.97314E-02-1.41690E-06 2.37947E-02 1.02500E-13 1.79260E-13
 -1       907 2.00077E+01 2.72751E-02-1.00210E-06 1.33882E-02 4.21106E-13 5.43595E-14
 -1       908 2.00072E+01 1.80651E-02-8.12195E-07 6.14565E-03 1.66661E-13-1.26703E-13
 -1       909 2.00063E+01 1.13565E-02-9.15426E-07 1.26568E-03 3.47607E-13-3.20242E-13
 -1       910 2.00053E+01 6.52340E-03-6.33731E-06-1.87119E-03 6.16419E-13 4.80125E-14
 -1       911 2.00042E+01 3.12625E-03 2.27473E-06-3.74435E-03 1.75807E-13 1.85882E-13
 -1       912 1.92161E+01-5.01477E-01 8.43142E-04 2.49721E+00-3.27376E-13-2.10386E-13
 -1       913 1.90827E+01 1.42128E-01-9.37709E-05 2.06087E+00-3.17826E-13-2.69501E-13
 -1       914 2.00059E+01 2.20419E-03-7.65017E-07 6.97648E-04 1.99150E-13-2.96587E-13
 -1       915 1.72050E+01-1.14625E+00 1.59570E-02 3.55573E+00-4.20211E-13 8.04305E-14
 -1       916 1.99241E+01-2.60948E+00 2.52568E-02 3.83881E+00 3.64794E-13-3.06129E-13
 -1       917 1.27567E+01 5.43660E-01 4.65665E-02 1.86694E+00-4.88563E-14 3.53067E-13
 -1       918 1.12994E+01 7.37366E-01 6.52857E-02-5.68644E-01 8.75927E-14 3.11941E-13
 -1       919 1.33434E+01 5.82562E-01 3.95387E-02 2.24044E+00 1.88037E-13-7.20290E-13
 -1       920 1.96370E+01 9.90056E-01 2.60854E-04 1.24786E+00-6.15434E-14-3.56260E-13
 -1       921 1.84134E+01 2.80120E+00-1.73846E-04 3.44580E-01-1.24214E-14-6.19203E-13
 -1       922 1.98174E+01 1.38485E+00 7.03472E-04-1.01583E+00 2.24880E-13-3.66537E-13
 -1       923 1.88902E+01 3.96823E-01-5.87790E-04-2.20709E+00 1.03736E-15-3.44663E-13
 -1       924 1.52376E+01-2.14290E-01 3.72126E-02-3.33856E+00-2.40026E-13-5.49076E-13
 -1       925 2.00051E+01 1.46846E-03 5.31725E-06 2.81357E-03 1.10718E-14 1.48448E-13
 -1       926 1.95455E+01 1.54068E+00 2.00799E-04 8.56649E-01-1.36034E-13-3.84058E-13
 -1       927 2.00059E+01 2.18661E-03-3.67201E-06-6.41706E-04 1.41576E-13 9.50088E-15
 -1       928 2.00031E+01 6.15304E-04 2.40056E-06-4.67448E-03 1.06611E-13-3.55954E-14
 -1       929 1.81347E+01 2.44213E+00-2.36795E-04-3.71874E-01 1.23045E-13-4.90067E-13
 -1       930 1.57468E+01 1.85478E-01 1.51938E-02 2.58230E+00-1.52772E-13-1.59664E-13
 -1       931 1.28455E+01 1.10331E+00 4.20551E-02-7.10909E-02 1.71601E-14-7.73925E-13
 -1       932 1.33521E+01 7.17197E-01 2.70272E-02-1.91126E+00-1.25217E-13-7.56657E-13
 -1       933 1.91344E+01 8.81665E-01 4.44021E-04-1.73491E+00 3.65229E-14-3.53190E-13
 -1       934 1.79082E+01 2.56404E+00 3.19607E-05 2.54694E-02 8.66951E-14-6.01248E-13
 -1       935 2.00048E+01 1.34110E-03-6.15808E-06-3.27361E-03 2.10030E-13 1.20242E-13
 -1       936 1.84701E+01 2.19712E+00 1.36828E-04 6.90803E-01-1.71792E-14-5.65531E-13
 -1       937 2.00056E+01 1.88984E-03 2.74463E-06 1.77484E-03 2.15285E-13-4.45160E-13
 -1       938 1.89783E+01 1.88702E+00 6.70899E-04 8.21548E-01-5.14234E-14-4.96076E-13
 -1       939 1.43669E+01 1.10069E-01 3.30123E-02-2.73354E+00 2.22257E-13 1.29667E-13
 -1       940 1.67658E+01-2.19089E-01 4.73955E-03-2.77321E+00 2.17263E-13 1.00160E-13
 -1       941 1.87494E+01-4.20120E-01-9.73139E-04 2.66327E+00 1.27207E-13-3.22019E-13
 -1       942 1.91164E+01-1.40097E+00 5.24530E-03 3.29238E+00 2.21864E-13-3.41947E-13
 -1       943 1.87155E+01 4.36966E-01 1.58338E-04 2.00229E+00 3.72107E-14-3.33790E-13
 -1       944 1.86622E+01 2.13334E+00-1.27819E-03-7.00624E-01 1.72471E-13-4.69849E-13
 -1       945 1.72180E+01 3.66902E-01-2.57303E-03-1.99908E+00 2.31322E-13 1.88084E-14
 -1       946 1.76747E+01 6.89100E-01-1.95924E-03-1.46681E+00 1.50650E-13-1.34490E-13
 -1       947 1.80955E+01 8.47711E-01-1.35382E-03-1.09495E+00-4.15364E-14-8.48387E-14
 -1       948 1.84613E+01 9.01265E-01-9.64289E-04-8.31698E-01-3.50526E-14-1.95820E-14
 -1       949 1.87754E+01 8.82682E-01-8.01741E-04-6.38731E-01 4.48758E-14-1.24388E-13
 -1       950 1.90389E+01 8.21752E-01-4.95667E-04-4.94290E-01 5.43925E-14-3.50338E-13
 -1       951 1.92585E+01 7.34792E-01-2.90532E-04-3.83402E-01 1.82824E-14-3.18979E-13
 -1       952 1.94372E+01 6.37433E-01-1.95887E-04-2.96689E-01 2.23859E-13-1.91180E-13
 -1       953 1.95808E+01 5.38634E-01-1.55103E-04-2.28134E-01 2.02580E-13-1.61690E-13
 -1       954 1.96944E+01 4.44996E-01-1.14733E-04-1.73919E-01 3.70504E-14-8.86687E-14
 -1       955 1.97826E+01 3.60164E-01-8.40748E-05-1.31052E-01 1.15838E-13 8.06361E-14
 -1       956 1.98499E+01 2.85933E-01-6.14009E-05-9.73826E-02 9.05557E-14 1.71235E-13
 -1       957 1.99001E+01 2.22831E-01-4.38090E-05-7.11777E-02-4.77244E-15-1.91362E-14
 -1       958 1.99369E+01 1.70494E-01-3.04386E-05-5.09976E-02 3.67089E-14-1.85325E-13
 -1       959 1.99631E+01 1.28022E-01-2.04756E-05-3.56486E-02 1.24492E-13-3.63960E-13
 -1       960 1.99811E+01 9.42391E-02-1.31972E-05-2.41385E-02 1.06707E-13-2.43574E-13
 -1       961 1.99932E+01 6.78730E-02-7.97620E-06-1.56446E-02-1.01816E-13-1.49196E-13
 -1       962 2.00007E+01 4.76713E-02-4.27723E-06-9.49084E-03-1.91156E-13-3.80074E-13
 -1       963 2.00050E+01 3.24707E-02-1.96086E-06-5.13048E-03-3.10503E-14-6.33174E-13
 -1       964 2.00070E+01 2.12361E-02-1.61119E-07-2.11920E-03 1.15921E-13-3.82104E-13
 -1       965 2.00075E+01 1.30439E-02-4.14104E-07-1.18317E-04 6.11532E-14-4.46208E-13
 -1       966 2.00070E+01 7.06516E-03-4.13356E-06 1.15540E-03 3.36412E-14-5.79907E-13
 -1       967 1.90140E+01 8.69632E-01-9.28149E-05 8.83326E-01 3.95172E-14-3.33279E-13
 -1       968 2.00062E+01 5.28475E-03 1.54322E-06-2.23003E-03 7.91008E-14 3.30247E-14
 -1       969 1.87296E+01 9.01998E-01-2.06258E-04 1.08369E+00-1.53450E-13-2.59691E-13
 -1       970 1.83920E+01 8.60347E-01-6.08386E-04 1.34018E+00-2.57986E-13-4.21328E-13
 -1       971 1.92483E+01 7.93765E-01-4.36687E-05 7.20748E-01 6.66751E-14-2.68366E-13
 -1       972 1.94371E+01 6.97635E-01-7.44403E-05 5.83838E-01-2.39170E-14-4.50791E-13
 -1       973 1.95856E+01 5.96513E-01-3.92777E-05 4.67179E-01-8.16130E-14-4.56371E-13
 -1       974 1.97018E+01 4.96296E-01-5.33689E-05 3.69819E-01-7.02329E-14-4.17969E-13
 -1       975 1.97895E+01 4.05534E-01-7.91596E-05 2.88088E-01 1.23413E-13-3.92527E-13
 -1       976 1.98559E+01 3.24877E-01-5.71825E-05 2.20746E-01 1.41768E-13-4.51422E-13
 -1       977 1.99048E+01 2.55733E-01-4.64078E-05 1.66238E-01 1.80910E-13-5.93415E-13
 -1       978 1.99400E+01 1.97926E-01-3.65767E-05 1.22757E-01 8.87978E-14-5.96520E-13
 -1       979 1.99649E+01 1.50596E-01-2.81908E-05 8.86398E-02-6.65696E-14-5.16836E-13
 -1       980 1.99820E+01 1.12572E-01-2.13549E-05 6.23276E-02-7.68411E-14-4.22866E-13
 -1       981 1.99933E+01 8.25653E-02-1.59028E-05 4.23938E-02-1.07745E-13-4.65792E-13
 -1       982 2.00004E+01 5.92912E-02-1.16281E-05 2.75743E-02-5.89272E-15-3.80251E-13
 -1       983 2.00046E+01 4.15464E-02-8.56903E-06 1.67792E-02 2.68975E-13-1.20484E-13
 -1       984 2.00066E+01 2.82394E-02-5.41349E-06 9.09853E-03 3.91603E-13-2.62702E-14
 -1       985 2.00073E+01 1.84766E-02 1.80036E-06 3.81095E-03 3.43502E-13 8.09196E-14
 -1       986 2.00070E+01 1.13345E-02 7.82709E-06 2.48202E-04 2.21853E-13 7.91949E-14
 -1       987 1.76283E+01 3.18448E-01-1.08359E-05 2.17704E+00-2.44399E-13-3.17056E-13
 -1       988 1.80196E+01 6.88960E-01-4.95124E-04 1.68754E+00-1.95291E-13-4.17117E-13
 -1       989 1.80339E+01 2.47422E+00 1.77636E-04 4.08930E-01 4.41706E-14-5.81530E-13
 -1       990 2.00056E+01 1.88158E-03-1.64997E-06-1.95874E-03 1.37661E-13 1.46915E-13
 -1       991 1.59714E+01 1.83539E-01 1.19543E-02 2.81564E+00 1.79249E-13-4.82247E-13
 -1       992 1.76256E+01-2.60353E-01 3.37787E-03 2.73361E+00-1.92960E-13-1.02378E-13
 -1       993 1.88178E+01 1.09783E+00-2.51813E-03 1.45199E+00-1.10042E-14-3.66358E-13
 -1       994 1.95097E+01 1.15465E+00 1.05243E-03-1.37815E+00 1.31585E-13-3.65568E-13
 -1       995 1.66482E+01 6.81047E-01 1.04756E-02-2.31536E+00-1.08539E-13-4.45836E-13
 -1       996 1.32463E+01 8.80718E-01 2.35343E-02-9.98530E-01 5.36284E-14 1.99396E-13
 -1       997 1.38128E+01 9.62962E-01 1.41231E-02 9.40925E-01-5.90410E-14 3.72623E-13
 -1       998 1.43783E+01 1.19148E+00 1.28770E-02 1.04505E+00 9.53100E-14-6.67269E-13
 -1       999 1.78999E+01 1.94733E+00-1.04158E-04 8.43609E-01 3.83503E-14-5.09427E-13
 -1      1000 1.53716E+01 6.23574E-01 9.56149E-03-1.83306E+00 1.52458E-13-6.14234E-14
 -1      1001 2.00069E+01 6.37580E-03 1.21185E-06-1.24197E-03 7.66330E-14 2.43864E-13
 -1      1002 2.00070E+01 5.83059E-03 3.00455E-06 3.91257E-05 1.36955E-13-1.91005E-13
 -1      1003 1.40317E+01 1.25575E+00 1.83880E-02-4.44055E-01-5.73601E-15-6.84073E-13
 -1      1004 1.75320E+01 2.19414E+00-5.26094E-04-2.87094E-01 8.79460E-14-5.32777E-13
 -1      1005 1.79268E+01 1.18391E+00-6.83453E-04-1.64304E+00-5.97859E-15-4.07298E-13
 -1      1006 1.89075E+01 1.49950E+00-7.01542E-04 1.13095E+00-3.99034E-14-4.42505E-13
 -1      1007 1.80252E+01 1.94205E+00 1.00190E-03-8.29170E-01 8.33386E-14-4.45912E-13
 -1      1008 2.00068E+01 5.55748E-03 1.71879E-06 7.91176E-04 2.06537E-13-2.57385E-13
 -1      1009 1.73495E+01 6.57572E-01 5.84198E-03 2.10403E+00 6.60598E-14-4.66712E-13
 -1      1010 1.75001E+01 2.18902E+00-1.53335E-04 3.21417E-01 6.44355E-14-5.69433E-13
 -1      1011 1.66133E+01 9.78257E-01 1.11534E-03-1.08737E+00 5.36837E-14-2.56544E-13
 -1      1012 1.73407E+01 1.06521E+00 5.57726E-05-7.66151E-01 9.21180E-14-3.44414E-13
 -1      1013 1.79152E+01 1.07765E+00-4.34864E-04-5.48930E-01 1.14257E-13-1.44540E-13
 -1      1014 1.83639E+01 1.03913E+00 5.87600E-05-4.01742E-01-6.14829E-15-8.84996E-14
 -1      1015 1.87255E+01 9.60220E-01 2.92229E-04-2.99285E-01-1.29150E-13-2.57010E-13
 -1      1016 1.90225E+01 8.55419E-01 1.55336E-04-2.23001E-01-1.07480E-13-4.54725E-13
 -1      1017 1.92571E+01 7.43293E-01-1.72143E-04-1.65410E-01 1.90510E-13-3.82615E-13
 -1      1018 1.94434E+01 6.31265E-01-1.20486E-04-1.22495E-01 2.61254E-13-4.50615E-13
 -1      1019 1.95900E+01 5.24576E-01-1.46034E-04-9.13135E-02 3.42830E-13-4.39703E-13
 -1      1020 1.97042E+01 4.27478E-01-1.30780E-04-6.74584E-02 5.68999E-14-3.39735E-13
 -1      1021 1.97919E+01 3.41799E-01-1.04871E-04-4.94323E-02 1.37555E-13-3.82755E-13
 -1      1022 1.98580E+01 2.68424E-01-8.40089E-05-3.58393E-02 7.54528E-14-3.20644E-13
 -1      1023 1.99068E+01 2.07096E-01-6.57516E-05-2.56034E-02-1.48063E-13-4.09165E-13
 -1      1024 1.99422E+01 1.56926E-01-5.04052E-05-1.79400E-02-2.54744E-14-5.22172E-13
 -1      1025 1.99671E+01 1.16688E-01-3.78929E-05-1.22528E-02 1.44973E-13-6.76401E-13
 -1      1026 1.99841E+01 8.50171E-02-2.78932E-05-8.07959E-03 6.68438E-14-7.07218E-13
 -1      1027 1.99952E+01 6.05385E-02-2.00077E-05-5.05964E-03-2.21488E-13-5.37540E-13
 -1      1028 2.00020E+01 4.19528E-02-1.41139E-05-2.90889E-03-7.57430E-14-3.54571E-13
 -1      1029 2.00058E+01 2.80781E-02-7.64239E-06-1.42462E-03 1.90035E-13-1.33199E-13
 -1      1030 2.00074E+01 1.78955E-02-4.90759E-06-3.82058E-04 8.45421E-14-1.93628E-13
 -1      1031 1.91001E+01 8.51702E-01 4.27686E-06 4.56624E-01 1.56564E-13-2.89015E-13
 -1      1032 1.84680E+01 1.04124E+00 1.56908E-03 6.87409E-01-8.95360E-14-3.23660E-13
 -1      1033 1.88219E+01 9.55115E-01-3.39280E-04 5.59864E-01-3.66270E-14-1.93978E-13
 -1      1034 1.79983E+01 1.09392E+00-1.51436E-04 8.43793E-01-3.37428E-13-2.93789E-13
 -1      1035 2.00075E+01 1.36699E-02-1.80718E-06 5.64094E-04 2.76383E-13 2.08357E-13
 -1      1036 1.93309E+01 7.33029E-01 8.30493E-04 3.72459E-01 1.14904E-13-3.86876E-13
 -1      1037 1.95040E+01 6.18453E-01 2.12554E-04 2.98523E-01 2.88886E-16-6.00242E-13
 -1      1038 1.96366E+01 5.12924E-01 3.40551E-05 2.36470E-01 2.02117E-14-7.11655E-13
 -1      1039 1.97415E+01 4.15592E-01-7.67450E-06 1.84881E-01 1.63840E-13-7.13477E-13
 -1      1040 1.98206E+01 3.31089E-01-6.54870E-07 1.41788E-01 1.59296E-13-7.03394E-13
 -1      1041 1.98794E+01 2.59333E-01 5.54625E-06 1.06618E-01 1.73390E-13-6.64698E-13
 -1      1042 1.99223E+01 1.99721E-01 8.67021E-06 7.84799E-02-4.28579E-14-7.10114E-13
 -1      1043 1.99529E+01 1.51176E-01 9.83567E-06 5.63892E-02-2.43549E-13-5.45375E-13
 -1      1044 1.99742E+01 1.12371E-01 9.85917E-06 3.93668E-02-2.06479E-13-3.29273E-13
 -1      1045 1.99886E+01 8.18951E-02 9.20902E-06 2.64975E-02-2.20878E-14-1.38882E-13
 -1      1046 1.99978E+01 5.83735E-02 8.14408E-06 1.69619E-02 1.74836E-13-2.56086E-13
 -1      1047 2.00034E+01 4.05349E-02 7.49086E-06 1.00542E-02 1.58077E-13-1.16742E-13
 -1      1048 2.00063E+01 2.72540E-02 1.63218E-05 5.12131E-03 2.77077E-13 2.96145E-13
 -1      1049 2.00073E+01 1.97296E-02 2.52442E-05 2.47262E-03 2.21528E-13 3.17425E-13
 -1      1050 1.67122E+01 9.53422E-01 4.18708E-03 1.37824E+00-1.50322E-13-3.20809E-14
 -1      1051 1.74200E+01 1.07924E+00-2.19833E-04 1.05630E+00-1.58729E-13-1.17326E-13
 -1      1052 1.78228E+01 1.26101E+00 1.24401E-04 1.47481E+00 7.10935E-14-4.90626E-13
 -1      1053 1.62162E+01 1.11849E+00 1.48289E-03 1.60072E+00 8.77286E-14-5.12148E-13
 -1      1054 1.85104E+01 1.43651E+00-2.27381E-03-1.35484E+00 6.97633E-14-4.03711E-13
 -1      1055 1.62071E+01 6.63836E-01 4.63641E-03 1.88267E+00-5.33110E-14-1.30499E-13
 -1      1056 2.00071E+01 6.28379E-03 8.92554E-06-6.43275E-04 4.26524E-16 1.79763E-13
 -1      1057 1.64759E+01 1.50875E+00-3.70521E-03-1.10074E+00-5.94230E-15-5.21175E-13
 -1      1058 1.48877E+01 1.10649E+00 8.84929E-03-4.52276E-01-4.21522E-14 1.40447E-13
 -1      1059 1.71039E+01 1.74644E+00 3.33089E-04 8.62042E-01 6.21397E-14-5.18065E-13
 -1      1060 1.71409E+01 1.78162E+00 1.87228E-03-8.35617E-01 2.52033E-14-4.74586E-13
 -1      1061 2.00076E+01 1.05453E-02 2.45365E-06 2.68319E-04 2.68557E-14-7.57010E-14
 -1      1062 1.57449E+01 1.63525E+00 1.61452E-03 1.75919E-01 5.27148E-14-5.92679E-13
 -1      1063 2.00077E+01 1.14771E-02-5.86365E-06 4.43214E-05-1.14030E-13-1.61311E-13
 -1      1064 1.68021E+01 1.92815E+00 1.04799E-03 3.89167E-02 6.53184E-14-5.84508E-13
 -1      1065 1.55653E+01 1.13692E+00-7.62577E-03 7.01104E-01-1.54481E-13 2.81017E-13
 -1      1066 1.84137E+01 1.08502E+00-1.47695E-03 2.73092E-01-1.46848E-13-4.62596E-13
 -1      1067 1.66471E+01 1.24379E+00 2.90581E-04-1.98180E-01 2.59388E-14-5.65748E-15
 -1      1068 1.74139E+01 1.22047E+00 8.17260E-05-1.06263E-01 1.48147E-13-5.22961E-14
 -1      1069 1.79960E+01 1.16150E+00-4.48904E-04-5.15698E-02 7.41297E-14-2.88568E-13
 -1      1070 1.91012E+01 8.33027E-01 1.13366E-04 2.18553E-02 1.25545E-13-7.09545E-14
 -1      1071 1.93367E+01 7.05583E-01 9.68838E-04 2.40955E-02 1.71781E-13-1.62568E-14
 -1      1072 1.95010E+01 5.92938E-01 4.16504E-05 2.34954E-02 3.28127E-13-1.75341E-13
 -1      1073 1.96366E+01 4.86059E-01-1.65140E-05 2.29721E-02 2.12821E-13-3.66326E-13
 -1      1074 1.97415E+01 3.91157E-01-8.40390E-06 1.95201E-02 1.68317E-13-3.45547E-13
 -1      1075 1.98208E+01 3.09361E-01-4.82045E-06 1.59219E-02 3.85074E-14-2.84148E-13
 -1      1076 1.98799E+01 2.40483E-01-3.23676E-06 1.25031E-02-7.34992E-14-2.88437E-13
 -1      1077 1.99231E+01 1.83710E-01-2.29343E-06 9.47038E-03-1.60303E-13-1.95830E-13
 -1      1078 1.99539E+01 1.37828E-01-1.59047E-06 6.91671E-03-2.10356E-13-3.42426E-13
 -1      1079 1.99753E+01 1.01432E-01-1.04173E-06 4.85380E-03 2.05805E-14-5.59380E-13
 -1      1080 1.99896E+01 7.30753E-02-6.04923E-07 3.24435E-03 7.77099E-14-5.43575E-13
 -1      1081 1.99987E+01 5.13704E-02-1.40659E-08 2.02580E-03-1.53229E-14-1.79156E-13
 -1      1082 2.00041E+01 3.50450E-02-1.06417E-08 1.12842E-03 5.28635E-14-2.34651E-13
 -1      1083 2.00069E+01 2.28212E-02 1.02204E-05 4.87646E-04 2.22780E-13-3.63966E-13
 -1      1084 1.93138E+01 7.19102E-01-2.04851E-03 1.69176E-01 1.52854E-13-2.02726E-13
 -1      1085 2.00076E+01 1.39041E-02-1.01756E-05 3.15606E-04 1.34746E-13-2.74629E-14
 -1      1086 1.88005E+01 9.64024E-01 1.73637E-04 1.21289E-01-6.95173E-14-3.41550E-13
 -1      1087 2.00070E+01 2.01361E-02-3.72390E-05 1.39241E-03 3.17782E-13 5.33915E-14
 -1      1088 2.82595E+01 9.16284E+00 2.28315E+00-6.45470E+00-6.68354E-14 2.19116E-12
 -1      1089 2.12015E+01 6.43739E+00 2.56459E-01-3.46313E+00-3.80251E-14 2.96367E-13
 -1      1090 1.99790E+01 6.02514E+00 1.04733E-01-2.31023E+00-2.58960E-14-5.20623E-13
 -1      1091 1.93320E+01 5.82081E+00 7.06376E-02-1.59427E+00-1.66187E-14-9.15713E-13
 -1      1092 1.88585E+01 5.67313E+00 5.19687E-02-1.07016E+00-1.18100E-14-1.10325E-12
 -1      1093 1.84834E+01 5.55608E+00 3.68330E-02-6.78336E-01-6.98053E-15-1.19047E-12
 -1      1094 1.81967E+01 5.46644E+00 2.47353E-02-3.82598E-01-3.64986E-15-1.21810E-12
 -1      1095 1.80082E+01 5.40729E+00 1.61328E-02-1.52391E-01-7.18176E-16-1.22267E-12
 -1      1096 1.79352E+01 5.38425E+00 1.22920E-02 3.89271E-02 1.72648E-15-1.22070E-12
 -1      1097 1.79864E+01 5.40009E+00 1.38483E-02 2.23790E-01 5.22499E-15-1.19833E-12
 -1      1098 1.81616E+01 5.45475E+00 2.09136E-02 4.36702E-01 6.92502E-15-1.16235E-12
 -1      1099 1.84496E+01 5.54485E+00 3.32035E-02 7.10094E-01 1.07830E-14-1.07889E-12
 -1      1100 1.88396E+01 5.66667E+00 4.93259E-02 1.08131E+00 1.50921E-14-9.45796E-13
 -1      1101 1.93373E+01 5.82199E+00 6.93557E-02 1.59471E+00 2.08583E-14-7.01559E-13
 -1      1102 2.00009E+01 6.03050E+00 1.00732E-01 2.31151E+00 2.76029E-14-2.46215E-13
 -1      1103 2.11412E+01 6.40408E+00 2.05699E-01 3.40973E+00 3.24740E-14 6.40661E-13
 -1      1104 2.56226E+01 8.11234E+00 1.41843E+00 5.57210E+00 6.96665E-14 2.48562E-12
 -1      1105 2.89925E+01 3.49960E+00 1.13902E+00-4.05985E+00-2.75030E-13 3.40161E-12
 -1      1106 2.11453E+01-1.86067E-01-6.25837E-01-6.35036E-02-9.40914E-14 2.75525E-12
 -1      1107 2.03041E+01-9.78179E-02-2.30286E-01 7.51654E-02-3.95083E-14 1.82040E-12
 -1      1108 2.04436E+01-5.06612E-02-6.04815E-02 5.05228E-02-1.88486E-14 1.19187E-12
 -1      1109 2.08767E+01-2.68341E-02-1.84186E-02 3.85665E-02-1.02540E-14 7.78384E-13
 -1      1110 2.14708E+01-1.16582E-02-4.12928E-03 3.30737E-02-1.27953E-14 5.41185E-13
 -1      1111 2.21226E+01 2.22169E-03 1.00732E-02 2.89247E-02-8.59572E-15 3.33844E-13
 -1      1112 2.27181E+01 1.73566E-02 2.95387E-02 2.25003E-02-9.95666E-15 1.02706E-13
 -1      1113 2.31157E+01 3.35747E-02 5.30836E-02 1.03700E-02-1.83274E-15-9.93025E-14
 -1      1114 2.31508E+01 4.74624E-02 7.44297E-02-1.00443E-02-1.50444E-14-2.71356E-13
 -1      1115 2.26756E+01 5.20445E-02 8.15695E-02-3.82166E-02-1.91644E-15-4.96943E-13
 -1      1116 2.16397E+01 3.86943E-02 6.01388E-02-6.75588E-02 1.71781E-14-4.08312E-13
 -1      1117 2.01891E+01 3.36263E-03 3.86536E-03-8.45824E-02-4.14863E-15-4.36387E-13
 -1      1118 1.87119E+01-4.51401E-02-7.22949E-02-7.45257E-02 1.42061E-14-3.23783E-13
 -1      1119 1.77362E+01-8.32618E-02-1.31510E-01-3.35182E-02-3.40526E-15-3.08583E-13
 -1      1120 1.76734E+01-8.77898E-02-1.38606E-01 2.33373E-02-2.55681E-14-4.00676E-13
 -1      1121 1.85723E+01-5.59332E-02-8.93039E-02 6.99084E-02-3.43926E-14-5.81049E-13
 -1      1122 2.00898E+01-7.74319E-03-1.39209E-02 8.75977E-02 8.60022E-15-7.32719E-13
 -1      1123 2.17029E+01 3.18830E-02 4.87084E-02 7.62372E-02-1.33483E-14-9.21527E-13
 -1      1124 2.29791E+01 5.03007E-02 7.78897E-02 4.91915E-02 2.82630E-15-1.09526E-12
 -1      1125 2.37183E+01 4.94913E-02 7.61061E-02 2.11251E-02-5.72749E-14-1.23803E-12
 -1      1126 2.39339E+01 3.79462E-02 5.72172E-02 3.70973E-04-6.72335E-15-1.07126E-12
 -1      1127 2.37556E+01 2.35892E-02 3.43738E-02-1.13465E-02 1.55707E-14-9.46992E-13
 -1      1128 2.33395E+01 1.10321E-02 1.50991E-02-1.58747E-02-2.31830E-14-1.12836E-12
 -1      1129 2.28176E+01 1.94973E-03 1.80090E-03-1.59418E-02 3.17650E-15-1.08748E-12
 -1      1130 2.22815E+01-3.69955E-03-5.96175E-03-1.38074E-02-3.75763E-15-9.50833E-13
 -1      1131 2.17852E+01-6.65062E-03-9.63467E-03-1.09347E-02 8.35909E-15-9.14055E-13
 -1      1132 2.13550E+01-7.74942E-03-1.06844E-02-8.11496E-03-1.78850E-15-1.20198E-12
 -1      1133 2.09990E+01-7.70669E-03-1.02431E-02-5.69654E-03-1.81095E-14-1.24281E-12
 -1      1134 2.07146E+01-7.03870E-03-9.07073E-03-3.77831E-03 4.15520E-14-9.73665E-13
 -1      1135 2.04941E+01-6.08731E-03-7.63196E-03-2.33728E-03-5.73450E-14-8.53250E-13
 -1      1136 2.03277E+01-5.06255E-03-6.18812E-03-1.30162E-03-1.68980E-14-7.71453E-13
 -1      1137 2.02054E+01-4.08341E-03-4.87191E-03-5.88085E-04 9.34018E-15-9.42735E-13
 -1      1138 2.01180E+01-3.20974E-03-3.73915E-03-1.19115E-04-1.02797E-14-1.11139E-12
 -1      1139 2.00576E+01-2.46495E-03-2.80219E-03 1.70800E-04 4.68089E-14-1.12228E-12
 -1      1140 2.00173E+01-1.85117E-03-2.05040E-03 3.33942E-04 3.06313E-14-4.88742E-13
 -1      1141 1.99920E+01-1.35904E-03-1.46245E-03 4.10481E-04-1.50492E-14-5.81124E-13
 -1      1142 1.99773E+01-9.73778E-04-1.01323E-03 4.30400E-04-3.10556E-15-3.44426E-13
 -1      1143 1.99701E+01-6.78776E-04-6.77784E-04 4.15500E-04-3.74992E-14-6.27194E-13
 -1      1144 1.99679E+01-4.57695E-04-4.33135E-04 3.81231E-04-3.27186E-14-8.50355E-13
 -1      1145 1.99690E+01-2.95516E-04-2.59168E-04 3.38229E-04-9.98647E-15-1.04926E-12
 -1      1146 1.99721E+01-1.78982E-04-1.38747E-04 2.93544E-04 1.91159E-14-9.04406E-13
 -1      1147 1.99762E+01-9.66511E-05-5.74389E-05 2.51575E-04-7.85710E-14-6.18085E-13
 -1      1148 1.99808E+01-3.87199E-05-2.93207E-06 2.14707E-04-3.23863E-14-3.85458E-13
 -1      1149 1.99855E+01 3.27916E-06 3.58786E-05 1.83611E-04 5.48041E-14-2.61127E-13
 -1      1150 1.99900E+01 3.67609E-05 7.00737E-05 1.57029E-04 4.38102E-14 1.06349E-13
 -1      1151 1.99940E+01 6.80798E-05 1.10903E-04 1.30432E-04 3.57287E-14 1.37796E-13
 -1      1152 1.99973E+01 9.97625E-05 1.60908E-04 9.08290E-05 1.19268E-14 6.64666E-13
 -1      1153 1.99994E+01 1.36988E-04 1.76362E-04 1.14871E-05 4.32855E-14 8.28865E-13
 -1      1154 1.99999E+01-4.03405E-05-6.91007E-05-4.75755E-05 5.81987E-14 4.64620E-13
 -1      1155 2.79746E+01 5.14699E-01 2.58129E-01 1.91740E+00-4.77882E-14 4.01101E-12
 -1      1156 2.10920E+01-7.34133E-02-5.78693E-01 1.11469E-01 2.57190E-14 3.17681E-12
 -1      1157 2.04858E+01-4.84413E-02-1.94064E-01 1.35378E-02 2.53998E-14 2.33792E-12
 -1      1158 2.06562E+01-3.07832E-02-6.00608E-02-1.30528E-03 1.97299E-14 1.73066E-12
 -1      1159 2.11929E+01-2.14549E-02-2.77161E-02-8.16696E-03 7.83922E-15 1.33984E-12
 -1      1160 2.19622E+01-1.27120E-02-1.73495E-02-1.44633E-02 3.84328E-15 1.11901E-12
 -1      1161 2.28711E+01-7.48923E-04-4.42787E-03-2.26547E-02 1.02443E-14 9.76809E-13
 -1      1162 2.38089E+01 1.66804E-02 1.90041E-02-3.25211E-02 3.86236E-15 8.66994E-13
 -1      1163 2.46090E+01 3.93107E-02 5.51725E-02-4.10594E-02-1.65111E-14 7.96252E-13
 -1      1164 2.50299E+01 6.14593E-02 9.86106E-02-4.13818E-02 1.71963E-14 6.49363E-13
 -1      1165 2.47839E+01 7.01006E-02 1.30362E-01-2.35780E-02 4.39232E-15 5.00981E-13
 -1      1166 2.36557E+01 4.95022E-02 1.19275E-01 1.88764E-02-1.40990E-14 5.60357E-13
 -1      1167 2.17150E+01-4.54789E-03 4.12904E-02 7.69616E-02 1.13236E-14 4.33570E-13
 -1      1168 1.95035E+01-6.81115E-02-8.65067E-02 1.19912E-01-2.47753E-14 2.72754E-13
 -1      1169 1.79415E+01-9.90181E-02-1.93585E-01 1.11825E-01 2.58370E-14-3.30909E-13
 -1      1170 1.78231E+01-7.80184E-02-2.05574E-01 4.71995E-02-1.84401E-15-7.15025E-13
 -1      1171 1.92360E+01-2.61347E-02-1.18932E-01-3.71343E-02-3.59764E-14-7.22644E-13
 -1      1172 2.15010E+01 1.90888E-02 3.34374E-04-9.35238E-02 3.06621E-14-7.00287E-13
 -1      1173 2.36756E+01 3.97659E-02 8.27256E-02-1.02712E-01 5.08053E-14-7.41768E-13
 -1      1174 2.51220E+01 3.95884E-02 1.05537E-01-7.79415E-02-9.26689E-15-5.01744E-13
 -1      1175 2.56826E+01 2.93884E-02 8.70178E-02-4.27978E-02 7.03994E-15-2.40145E-13
 -1      1176 2.55292E+01 1.74613E-02 5.43671E-02-1.33335E-02 3.09835E-14-4.10403E-13
 -1      1177 2.49399E+01 7.73621E-03 2.49968E-02 5.31264E-03 2.46780E-14-6.64694E-13
 -1      1178 2.41601E+01 1.18066E-03 5.01449E-03 1.43987E-02-6.66795E-15-7.90749E-13
 -1      1179 2.33554E+01-2.63429E-03-6.05657E-03 1.71325E-02 4.01726E-14-8.67098E-13
 -1      1180 2.26174E+01-4.49133E-03-1.08895E-02 1.64076E-02-1.59321E-14-6.23418E-13
 -1      1181 2.19859E+01-5.10610E-03-1.20590E-02 1.41655E-02-1.50668E-14-5.47255E-13
 -1      1182 2.14695E+01-5.00747E-03-1.13691E-02 1.15093E-02-3.34612E-14-6.09915E-13
 -1      1183 2.10608E+01-4.54432E-03-9.89733E-03 8.98173E-03-4.77513E-14-5.26927E-13
 -1      1184 2.07457E+01-3.92974E-03-8.22046E-03 6.80255E-03 1.79422E-14-4.50360E-13
 -1      1185 2.05080E+01-3.28610E-03-6.61702E-03 5.02482E-03 5.75820E-16-5.98928E-13
 -1      1186 2.03326E+01-2.67866E-03-5.20344E-03 3.62526E-03 1.63688E-14-7.78010E-13
 -1      1187 2.02059E+01-2.13816E-03-4.01350E-03 2.55145E-03-6.26175E-14-3.92435E-13
 -1      1188 2.01167E+01-1.67542E-03-3.04145E-03 1.74472E-03 2.07715E-14-3.42087E-13
 -1      1189 2.00557E+01-1.29033E-03-2.26484E-03 1.15033E-03-3.07008E-15-5.21365E-13
 -1      1190 2.00155E+01-9.77111E-04-1.65575E-03 7.21095E-04-3.42405E-15-6.49629E-13
 -1      1191 1.99905E+01-7.27349E-04-1.18617E-03 4.18003E-04 1.27279E-13-1.24189E-12
 -1      1192 1.99762E+01-5.31810E-04-8.30271E-04 2.09600E-04-4.93563E-15-7.73805E-13
 -1      1193 1.99693E+01-3.81416E-04-5.65359E-04 7.09895E-05 4.19941E-14-6.78654E-13
 -1      1194 1.99673E+01-2.67760E-04-3.72030E-04-1.72598E-05-2.59529E-14-3.26584E-13
 -1      1195 1.99686E+01-1.83296E-04-2.33993E-04-7.01469E-05-2.80247E-14 2.66201E-13
 -1      1196 1.99718E+01-1.21375E-04-1.37693E-04-9.91459E-05-4.41962E-15 4.25276E-13
 -1      1197 1.99760E+01-7.61168E-05-7.17977E-05-1.12987E-04 1.10003E-14-2.00075E-13
 -1      1198 1.99807E+01-4.21577E-05-2.64750E-05-1.18325E-04-1.32420E-14-3.00423E-13
 -1      1199 1.99854E+01-1.43265E-05 7.68007E-06-1.20189E-04-5.56903E-14 2.98225E-14
 -1      1200 1.99900E+01 1.25065E-05 4.09083E-05-1.22037E-04 6.27162E-14-4.51531E-13
 -1      1201 1.99940E+01 4.36804E-05 8.45271E-05-1.25040E-04-1.01987E-14-5.34285E-13
 -1      1202 1.99973E+01 8.00854E-05 1.41265E-04-1.22688E-04-4.75380E-14-4.13292E-13
 -1      1203 1.99994E+01 9.36278E-05 1.58124E-04-8.38896E-05 2.94437E-14-6.00756E-13
 -1      1204 1.99999E+01-3.83055E-05-7.29304E-05 4.07526E-05-2.39276E-15-4.31214E-13
 -1      1205 1.99998E+01 1.12070E-04-7.00960E-05 3.40770E-05-5.38481E-13-2.87811E-15
 -1      1206 1.99999E+01-4.34078E-04 1.52632E-04-1.01223E-05-2.55345E-13-6.21874E-14
 -1      1207 1.99999E+01-2.47255E-03 1.16235E-04-9.52388E-05 8.02974E-13 1.27373E-13
 -1      1208 1.99998E+01-5.33902E-03 2.98863E-05-1.16846E-04 4.22650E-13-9.76873E-14
 -1      1209 1.99998E+01-8.37911E-03-4.14070E-05-1.09611E-04 7.54456E-14-1.19701E-13
 -1      1210 1.99997E+01-1.11079E-02-8.96572E-05-8.79462E-05-4.99492E-13-1.92395E-14
 -1      1211 1.99997E+01-1.32409E-02-1.18291E-04-6.18463E-05-8.74025E-13 1.22680E-13
 -1      1212 1.99997E+01-1.45993E-02-1.33964E-04-3.12017E-05-9.43328E-13-8.65874E-14
 -1      1213 1.99997E+01-1.50539E-02-1.38637E-04 4.60674E-07-1.16375E-12-1.34985E-13
 -1      1214 1.99997E+01-1.45729E-02-1.33386E-04 3.20798E-05-1.34259E-12 4.77523E-14
 -1      1215 1.99997E+01-1.31920E-02-1.17023E-04 6.25190E-05-2.19172E-13-1.40284E-13
 -1      1216 1.99997E+01-1.10428E-02-8.76205E-05 8.97634E-05-7.92392E-13-3.81309E-14
 -1      1217 1.99998E+01-8.31046E-03-4.01662E-05 1.09589E-04-1.43137E-12-1.85700E-13
 -1      1218 1.99998E+01-5.27242E-03 3.22549E-05 1.18129E-04-1.56470E-12 1.56709E-13
 -1      1219 1.99999E+01-2.37972E-03 1.31930E-04 1.12918E-04-1.45555E-12-1.01815E-14
 -1      1220 1.99999E+01-4.61324E-04 1.48864E-04-9.79881E-06-7.55324E-13-1.60556E-13
 -1      1221 1.99997E+01 1.19848E-04-7.59404E-05-3.43742E-05-4.03246E-13-6.82090E-14
 -1      1222-1.13608E+00-2.35724E+01-3.62964E+00-2.47148E+00 1.51545E-12 4.48010E-13
 -1      1223-1.88723E+00-1.44537E+01-3.03294E+00-4.16821E+00 3.28937E-12 1.31695E-12
 -1      1224 3.73080E-01-2.17816E+00-1.84986E+00-5.24147E-02 3.72835E-12 2.40374E-12
 -1      1225 9.69279E+00 7.73457E+00-2.94573E-01 8.56436E+00 3.45635E-12 3.38485E-12
 -1      1226 2.76430E+01 1.08094E+01 1.53057E+00 1.65030E+01 2.71205E-12 3.92086E-12
 -1      1227 4.90051E+01 7.61698E+00 3.24408E+00 1.70087E+01 1.21880E-12 2.90989E-12
 -1      1228 6.45305E+01 3.31847E+00 4.31498E+00 8.60947E+00 3.18842E-13 1.13065E-12
 -1      1229 6.69619E+01 2.47541E+00 4.43451E+00-4.71530E+00 2.70749E-13-1.55265E-12
 -1      1230 5.52640E+01 6.02764E+00 3.66186E+00-1.55899E+01 1.14142E-12-3.49498E-12
 -1      1231 3.51214E+01 1.04361E+01 2.19142E+00-1.78475E+01 2.58238E-12-4.42135E-12
 -1      1232 1.57500E+01 1.00466E+01 4.49575E-01-1.22333E+01 3.93019E-12-4.46176E-12
 -1      1233 3.12790E+00 2.44265E+00-1.25834E+00-3.15761E+00 4.35540E-12-3.27782E-12
 -1      1234-1.54835E+00-9.86757E+00-2.62937E+00 3.29875E+00 3.81850E-12-1.82154E-12
 -1      1235-1.53962E+00-2.10642E+01-3.56404E+00 3.85882E+00 2.17437E-12-6.62914E-13
 -1      1236-9.95425E-01-2.53655E+01-3.82940E+00 4.10632E-02-3.42448E-13-2.03407E-13
 -1      1237-1.47456E+00-2.08351E+01-3.51702E+00-3.74056E+00-2.62346E-12-7.01189E-13
 -1      1238-1.41546E+00-9.53380E+00-2.55401E+00-3.11271E+00-4.03477E-12-1.91402E-12
 -1      1239 3.80321E+00 3.07100E+00-1.08363E+00 3.72470E+00-4.42624E-12-3.33067E-12
 -1      1240 1.74518E+01 1.04712E+01 7.27407E-01 1.29890E+01-3.68061E-12-4.30544E-12
 -1      1241 3.82309E+01 9.78470E+00 2.38847E+00 1.77496E+01-2.26053E-12-4.26037E-12
 -1      1242 5.83663E+01 4.61603E+00 3.72172E+00 1.37151E+01-9.31116E-13-3.33278E-12
 -1      1243 6.66996E+01 1.65501E+00 4.15900E+00 1.68262E+00-2.11768E-13-1.05707E-12
 -1      1244 6.13157E+01 3.47010E+00 3.84269E+00-1.11711E+01-4.15501E-13 1.43952E-12
 -1      1245 4.46289E+01 8.41254E+00 2.79612E+00-1.77392E+01-1.27320E-12 2.86571E-12
 -1      1246 2.49055E+01 1.11006E+01 1.33087E+00-1.59572E+01-2.52165E-12 3.59135E-12
 -1      1247 9.01673E+00 7.75798E+00-2.72929E-01-8.24190E+00-3.34910E-12 3.18678E-12
 -1      1248 4.01434E-01-2.10962E+00-1.79228E+00 9.60289E-03-3.18079E-12 2.04714E-12
 -1      1249-1.75346E+00-1.46431E+01-2.97302E+00 3.97426E+00-2.68519E-12 1.06104E-12
 -1      1250-1.01396E+00-2.38795E+01-3.66678E+00 2.22373E+00-1.02285E-12 2.99687E-13
 -1      1251 2.29074E+01 1.87864E+00-7.12258E-01-2.56876E+00-1.04305E-13 1.78230E-12
 -1      1252 2.10658E+01 4.74616E+00-3.85017E-02-2.81148E+00-2.90754E-13-8.72427E-14
 -1      1253 2.16178E+01 4.85755E+00-8.80942E-02-3.72256E+00-3.73312E-13 3.38979E-13
 -1      1254 2.00550E+01 5.05827E+00-1.65965E-02-2.05365E+00-2.82517E-13-6.95045E-13
 -1      1255 2.04673E+01 5.18470E+00 1.75471E-02-2.48687E+00-3.25850E-13-4.32911E-13
 -1      1256 2.12482E+01 3.96337E+00-1.79700E-02-2.53505E+00-5.07528E-13-8.41410E-14
 -1      1257 1.94204E+01 5.13521E+00-6.60506E-03-1.43381E+00-2.28817E-13-1.00386E-12
 -1      1258 1.97224E+01 5.23422E+00 2.06778E-02-1.73635E+00-2.59563E-13-8.66970E-13
 -1      1259 2.02320E+01 4.41905E+00-2.00244E-02-1.87871E+00-4.41971E-13-5.92693E-13
 -1      1260 1.89266E+01 5.15713E+00-3.96927E-03-9.56936E-01-1.69122E-13-1.14144E-12
 -1      1261 1.91667E+01 5.23440E+00 1.73585E-02-1.18470E+00-1.97266E-13-1.08024E-12
 -1      1262 1.95431E+01 4.63811E+00-1.81013E-02-1.30962E+00-3.52440E-13-8.48297E-13
 -1      1263 1.85355E+01 5.16325E+00-3.63837E-03-5.98240E-01-1.08642E-13-1.20492E-12
 -1      1264 1.87243E+01 5.22325E+00 1.31868E-02-7.69033E-01-1.30406E-13-1.17298E-12
 -1      1265 1.90153E+01 4.76841E+00-1.50174E-02-8.68249E-01-2.49162E-13-9.61699E-13
 -1      1266 1.82381E+01 5.16579E+00-3.84489E-03-3.19209E-01-5.98254E-14-1.23031E-12
 -1      1267 1.83765E+01 5.20920E+00 8.49511E-03-4.52756E-01-7.64042E-14-1.22336E-12
 -1      1268 1.86002E+01 4.85485E+00-1.29684E-02-5.30042E-01-1.52944E-13-1.02500E-12
 -1      1269 1.80577E+01 5.17171E+00-3.19391E-03-1.00198E-01-2.51361E-15-1.23278E-12
 -1      1270 1.81342E+01 5.19557E+00 3.94016E-03-2.07453E-01-2.25861E-14-1.22801E-12
 -1      1271 1.82998E+01 4.91280E+00-1.17607E-02-2.66211E-01-6.99766E-14-1.03768E-12
 -1      1272 1.80091E+01 5.18295E+00-1.23637E-03 8.80779E-02 4.08345E-14-1.22560E-12
 -1      1273 1.80168E+01 5.18527E+00 2.99454E-05-7.97554E-03 2.78493E-14-1.23178E-12
 -1      1274 1.81339E+01 4.94610E+00-1.11489E-02-5.42902E-02 2.04455E-14-1.04676E-12
 -1      1275 1.81001E+01 5.19917E+00 2.15078E-03 2.77826E-01 8.96713E-14-1.20071E-12
 -1      1276 1.80362E+01 5.17912E+00-2.84243E-03 1.76661E-01 7.18843E-14-1.21817E-12
 -1      1277 1.81167E+01 4.95442E+00-1.10586E-02 1.34951E-01 9.38249E-14-1.03433E-12
 -1      1278 1.83286E+01 5.21790E+00 6.66145E-03 5.03053E-01 1.32738E-13-1.15264E-12
 -1      1279 1.81954E+01 5.17637E+00-4.48447E-03 3.79741E-01 1.22222E-13-1.18346E-12
 -1      1280 1.82543E+01 4.93552E+00-1.15166E-02 3.33514E-01 1.71365E-13-1.00699E-12
 -1      1281 1.86768E+01 5.23570E+00 1.19740E-02 7.92375E-01 1.86833E-13-1.06256E-12
 -1      1282 1.84842E+01 5.17446E+00-5.14795E-03 6.33066E-01 1.65725E-13-1.11767E-12
 -1      1283 1.85401E+01 4.88633E+00-1.24479E-02 5.72266E-01 2.49164E-13-9.48965E-13
 -1      1284 1.91455E+01 5.24742E+00 1.73522E-02 1.19053E+00 2.53984E-13-9.07354E-13
 -1      1285 1.88914E+01 5.16577E+00-5.85747E-03 9.71209E-01 2.25216E-13-9.98233E-13
 -1      1286 1.89640E+01 4.79954E+00-1.43777E-02 8.85485E-01 3.39949E-13-8.40682E-13
 -1      1287 1.97347E+01 5.24362E+00 2.12344E-02 1.73342E+00 3.16594E-13-6.37865E-13
 -1      1288 1.94149E+01 5.13811E+00-8.79551E-03 1.43309E+00 2.81664E-13-8.03104E-13
 -1      1289 1.95270E+01 4.65816E+00-1.72831E-02 1.30969E+00 4.36335E-13-6.69690E-13
 -1      1290 2.05223E+01 5.20352E+00 2.49508E-02 2.48372E+00 3.64792E-13-1.45967E-13
 -1      1291 2.00833E+01 5.05676E+00-1.78924E-02 2.05456E+00 3.28383E-13-4.44731E-13
 -1      1292 2.02579E+01 4.42072E+00-1.95473E-02 1.87635E+00 5.22884E-13-3.66596E-13
 -1      1293 2.18674E+01 4.95201E+00 2.75683E-02 3.59835E+00 3.12916E-13 8.04606E-13
 -1      1294 2.10837E+01 4.78982E+00-3.62894E-02 2.87910E+00 3.09211E-13 2.22378E-13
 -1      1295 2.13213E+01 3.93710E+00-1.28167E-02 2.59299E+00 5.46414E-13 1.95038E-13
 -1      1296 2.76401E+01 3.17303E+00 8.72497E-01 4.32224E+00 1.53336E-13 2.61685E-12
 -1      1297 2.27532E+01 3.54168E+00-1.70255E-01 3.52063E+00 1.59539E-13 1.35866E-12
 -1      1298 2.29658E+01 2.54040E+00-1.96762E-02 2.98205E+00 5.11738E-13 1.05685E-12
 -1      1299 2.22239E+01 3.36119E-01-7.57017E-01 9.54434E-01 2.72789E-13 2.50877E-12
 -1      1300 2.28407E+01 1.14438E-01-3.97463E-01-1.05537E+00-3.09835E-13 1.88052E-12
 -1      1301 2.17702E+01 2.90412E-01-1.55133E-01-6.08246E-01-2.85626E-13 1.52259E-12
 -1      1302 2.13226E+01 1.50808E-01-6.98152E-02-2.09717E-01-2.35312E-13 1.37986E-12
 -1      1303 2.10907E+01 8.98314E-02-1.13017E-02-1.41613E-01-2.25611E-13 1.03769E-12
 -1      1304 2.20676E+01 3.49091E-01-1.03047E-01-8.97423E-01-4.99559E-13 7.68868E-13
 -1      1305 2.09118E+01 6.73246E-02 3.89458E-03 5.49536E-02-1.76675E-13 9.15934E-13
 -1      1306 2.09929E+01 4.40251E-02 1.38609E-02 7.47582E-02-1.55159E-13 6.78266E-13
 -1      1307 2.13467E+01 1.31089E-01-3.62988E-02-1.33398E-01-3.81688E-13 5.43166E-13
 -1      1308 2.10219E+01 3.59414E-02 1.21839E-02 1.71443E-01-1.08700E-13 5.63449E-13
 -1      1309 2.12463E+01 2.12782E-02 1.02896E-02 1.83345E-01-1.08810E-13 4.03948E-13
 -1      1310 2.12295E+01 5.99531E-02-1.00947E-02 2.12662E-01-2.70398E-13 3.34812E-13
 -1      1311 2.13863E+01 1.72312E-02 7.10286E-03 2.29402E-01-7.47787E-14 3.52284E-13
 -1      1312 2.16742E+01 5.02300E-03 5.17250E-03 2.34284E-01-7.23172E-14 2.64809E-13
 -1      1313 2.13995E+01 2.60164E-02-4.75814E-03 3.84897E-01-1.84192E-13 1.59345E-13
 -1      1314 2.18645E+01 2.56701E-04 3.33134E-03 2.41326E-01-6.00321E-14 1.99445E-13
 -1      1315 2.21560E+01-1.21678E-02 2.57817E-03 2.38039E-01-5.97100E-14 1.10037E-13
 -1      1316 2.17259E+01-1.00531E-03-1.67035E-03 4.51653E-01-1.36231E-13 5.67133E-14
 -1      1317 2.23463E+01-1.94815E-02 2.52226E-03 2.03316E-01-4.23368E-14 7.69905E-14
 -1      1318 2.25775E+01-3.24477E-02 2.26053E-03 1.89433E-01-3.69960E-14-2.41855E-14
 -1      1319 2.21048E+01-3.18256E-02 2.69406E-03 4.22018E-01-1.10946E-13-7.04818E-15
 -1      1320 2.27171E+01-4.26937E-02 4.17209E-03 1.06794E-01-1.01308E-14-4.18571E-14
 -1      1321 2.28149E+01-5.42350E-02 3.68556E-03 8.00515E-02-2.49497E-14-8.80426E-14
 -1      1322 2.24392E+01-6.86951E-02 8.62627E-03 2.84897E-01-6.29861E-14-2.96668E-14
 -1      1323 2.28521E+01-6.56699E-02 7.42161E-03-5.07883E-02-6.26495E-14-8.00013E-14
 -1      1324 2.27439E+01-7.10639E-02 6.07139E-03-8.99529E-02-7.69844E-14-1.79814E-13
 -1      1325 2.26291E+01-1.06310E-01 1.53657E-02 3.13815E-02-7.77373E-14-1.15958E-14
 -1      1326 2.26356E+01-7.88724E-02 1.06253E-02-2.51977E-01-6.39775E-14-1.97176E-13
 -1      1327 2.22774E+01-7.14022E-02 7.71821E-03-2.96848E-01-1.87697E-14-2.59310E-13
 -1      1328 2.25789E+01-1.30073E-01 2.07975E-02-3.20640E-01-9.58808E-14-1.08121E-14
 -1      1329 2.20089E+01-6.85499E-02 1.09717E-02-4.46336E-01 6.68389E-15-3.13811E-13
 -1      1330 2.14259E+01-4.30782E-02 6.12586E-03-4.81651E-01-2.89335E-14-3.13999E-13
 -1      1331 2.22262E+01-1.17967E-01 2.12259E-02-7.00380E-01-4.44766E-14-1.08667E-13
 -1      1332 2.10366E+01-2.45095E-02 5.85474E-03-5.52123E-01-3.44465E-14-3.12646E-13
 -1      1333 2.03544E+01 1.61609E-02-4.52835E-04-5.57266E-01-2.14336E-15-3.32616E-13
 -1      1334 2.15883E+01-5.23911E-02 1.25315E-02-9.75029E-01-3.99442E-14-2.26786E-13
 -1      1335 1.99516E+01 4.61182E-02-4.45536E-03-4.88649E-01 4.14052E-14-3.49012E-13
 -1      1336 1.93826E+01 8.69382E-02-1.02395E-02-4.50020E-01 1.70385E-14-2.97873E-13
 -1      1337 2.08051E+01 5.93405E-02-6.05696E-03-9.86658E-01 4.87544E-15-3.04303E-13
 -1      1338 1.91157E+01 1.12051E-01-1.46684E-02-2.36306E-01-2.81129E-14-3.20854E-13
 -1      1339 1.88761E+01 1.31820E-01-1.73364E-02-1.62380E-01-5.36984E-14-3.55950E-13
 -1      1340 2.01341E+01 1.72914E-01-2.75940E-02-6.47102E-01-4.57672E-14-3.26478E-13
 -1      1341 1.88642E+01 1.34951E-01-1.80516E-02 1.23006E-01-8.93504E-14-3.88078E-13
 -1      1342 1.90597E+01 1.22001E-01-1.61642E-02 2.01096E-01-1.23280E-13-4.85213E-13
 -1      1343 1.98521E+01 2.28255E-01-3.87948E-02-3.58400E-02-9.67941E-14-4.29936E-13
 -1      1344 1.93168E+01 1.01196E-01-1.26467E-02 4.40471E-01-5.21224E-14-5.21364E-13
 -1      1345 1.98799E+01 6.33042E-02-7.11212E-03 4.88993E-01-3.56052E-14-5.75900E-13
 -1      1346 2.00979E+01 1.92925E-01-3.16294E-02 6.07571E-01-1.54732E-13-4.56994E-13
 -1      1347 2.03064E+01 3.33763E-02-3.01077E-03 5.94252E-01-8.14758E-14-6.12087E-13
 -1      1348 2.10378E+01-9.19417E-03 3.62796E-03 5.99004E-01-4.06738E-14-6.79359E-13
 -1      1349 2.07818E+01 8.82416E-02-1.15574E-02 1.02467E+00-7.24741E-14-5.56765E-13
 -1      1350 2.14845E+01-3.06644E-02 4.53338E-03 5.58377E-01 2.53443E-15-7.60787E-13
 -1      1351 2.21633E+01-6.06118E-02 1.00907E-02 5.28830E-01-2.41200E-14-8.08950E-13
 -1      1352 2.16465E+01-2.79024E-02 8.65918E-03 1.09446E+00-7.63859E-14-6.62914E-13
 -1      1353 2.25092E+01-6.63062E-02 7.08530E-03 3.93655E-01-5.90535E-14-8.90850E-13
 -1      1354 2.29870E+01-7.81742E-02 1.06756E-02 3.50098E-01-1.10035E-13-9.45188E-13
 -1      1355 2.24189E+01-1.05406E-01 1.98906E-02 8.72202E-01-1.15444E-13-7.03040E-13
 -1      1356 2.31768E+01-7.16241E-02 5.70666E-03 1.88408E-01-8.97737E-14-9.78120E-13
 -1      1357 2.34074E+01-6.95001E-02 7.58449E-03 1.47820E-01-6.49272E-14-1.03174E-12
 -1      1358 2.29278E+01-1.28518E-01 2.13874E-02 5.08482E-01-1.50881E-13-7.61376E-13
 -1      1359 2.34436E+01-5.79990E-02 2.92045E-03 8.55640E-03 4.93477E-14-1.01005E-12
 -1      1360 2.34573E+01-4.88753E-02 3.66926E-03-2.08199E-02 9.73648E-14-8.70396E-13
 -1      1361 2.31286E+01-1.11370E-01 1.69650E-02 1.45405E-01 1.61537E-14-8.16102E-13
 -1      1362 2.33748E+01-3.79320E-02 5.64293E-04-1.16861E-01-1.16860E-14-8.85814E-13
 -1      1363 2.32367E+01-2.73202E-02 6.89235E-04-1.33857E-01-3.01404E-14-9.27328E-13
 -1      1364 2.30639E+01-7.68000E-02 1.07340E-02-1.35283E-01 4.72643E-14-7.87992E-13
 -1      1365 2.30791E+01-1.94048E-02-7.09887E-04-1.86458E-01-2.95857E-14-8.32411E-13
 -1      1366 2.28564E+01-1.02452E-02-9.32965E-04-1.93474E-01-6.49589E-15-8.82277E-13
 -1      1367 2.28137E+01-4.19504E-02 5.16607E-03-3.10739E-01-1.39207E-14-7.13873E-13
 -1      1368 2.26627E+01-5.63826E-03-1.05050E-03-2.12136E-01 4.00421E-14-8.44089E-13
 -1      1369 2.24087E+01 1.10345E-03-1.48092E-03-2.12457E-01 3.68280E-14-7.97820E-13
 -1      1370 2.24595E+01-1.49191E-02 1.14758E-03-3.93553E-01 2.27038E-14-5.87167E-13
 -1      1371 2.22077E+01 3.10128E-03-8.53867E-04-2.08692E-01 1.44975E-14-8.06804E-13
 -1      1372 2.19578E+01 7.51797E-03-1.40614E-03-2.05181E-01 4.44462E-14-7.02594E-13
 -1      1373 2.20669E+01 2.70052E-03-1.33222E-03-4.09443E-01 4.56054E-14-5.89004E-13
 -1      1374 2.17682E+01 7.80615E-03-4.63464E-04-1.88790E-01 2.48087E-15-6.72099E-13
 -1      1375 2.15424E+01 1.03896E-02-1.07005E-03-1.83507E-01-4.79149E-14-7.30311E-13
 -1      1376 2.16810E+01 1.24167E-02-2.62340E-03-3.83973E-01 1.57536E-14-4.96429E-13
 -1      1377 2.13741E+01 9.72231E-03-8.36540E-05-1.61516E-01-2.08722E-14-7.48830E-13
 -1      1378 2.11814E+01 1.10144E-02-6.88617E-04-1.55764E-01-4.04507E-14-8.36011E-13
 -1      1379 2.13288E+01 1.65682E-02-3.11623E-03-3.37148E-01-7.00989E-14-4.90931E-13
 -1      1380 2.10386E+01 9.91550E-03 1.99850E-04-1.32642E-01-2.96938E-14-8.13939E-13
 -1      1381 2.08808E+01 1.03694E-02-3.61854E-04-1.27159E-01 1.81994E-14-8.00286E-13
 -1      1382 2.10235E+01 1.72615E-02-3.12620E-03-2.82568E-01 2.40433E-14-5.58163E-13
 -1      1383 2.07638E+01 9.15982E-03 3.72827E-04-1.05441E-01 7.28996E-15-7.52543E-13
 -1      1384 2.06388E+01 9.10980E-03-1.20017E-04-1.00590E-01 6.37370E-15-7.29081E-13
 -1      1385 2.07688E+01 1.60504E-02-2.87421E-03-2.28498E-01 1.80979E-14-4.50264E-13
 -1      1386 2.05456E+01 7.96444E-03 4.53299E-04-8.15095E-02-5.29948E-14-6.69751E-13
 -1      1387 2.04494E+01 7.63932E-03 4.04525E-05-7.74220E-02-1.40814E-14-6.16304E-13
 -1      1388 2.05629E+01 1.39565E-02-2.50229E-03-1.79371E-01 2.58519E-14-5.14621E-13
 -1      1389 2.03771E+01 6.63954E-03 4.68066E-04-6.14024E-02-5.78400E-15-6.28254E-13
 -1      1390 2.03049E+01 6.18759E-03 1.35525E-04-5.80793E-02-6.45194E-14-6.37817E-13
 -1      1391 2.04008E+01 1.15963E-02-2.09619E-03-1.37129E-01-8.91336E-14-4.67663E-13
 -1      1392 2.02502E+01 5.35965E-03 4.41793E-04-4.50805E-02-5.37503E-14-6.29032E-13
 -1      1393 2.01975E+01 4.87217E-03 1.83043E-04-4.24553E-02-6.11220E-14-7.57015E-13
 -1      1394 2.02762E+01 9.31117E-03-1.70434E-03-1.02209E-01-1.15052E-13-4.74492E-13
 -1      1395 2.01570E+01 4.21246E-03 3.93423E-04-3.21973E-02-3.24883E-14-6.98610E-13
 -1      1396 2.01196E+01 3.74230E-03 1.98483E-04-3.01744E-02 9.46368E-15-8.45348E-13
 -1      1397 2.01828E+01 7.26924E-03-1.35150E-03-7.42171E-02-4.69731E-14-4.54151E-13
 -1      1398 2.00904E+01 3.23288E-03 3.36017E-04-2.22752E-02 6.21456E-14-8.44155E-13
 -1      1399 2.00647E+01 2.80785E-03 1.93810E-04-2.07524E-02 1.21917E-13-7.05813E-13
 -1      1400 2.01144E+01 5.53499E-03-1.04794E-03-5.23543E-02 2.82946E-14-4.44762E-13
 -1      1401 2.00443E+01 2.42540E-03 2.77828E-04-1.48084E-02 1.09582E-13-6.59783E-13
 -1      1402 2.00275E+01 2.05755E-03 1.77649E-04-1.36884E-02 6.42966E-14-5.06275E-13
 -1      1403 2.00657E+01 4.11479E-03-7.95422E-04-3.56770E-02 2.49264E-13-5.25674E-13
 -1      1404 2.00137E+01 1.77829E-03 2.23598E-04-9.31798E-03 4.68930E-14-4.64911E-13
 -1      1405 2.00033E+01 1.47007E-03 1.55890E-04-8.51435E-03 5.37414E-14-4.39056E-13
 -1      1406 2.00321E+01 2.98490E-03-5.90978E-04-2.32427E-02 8.42730E-14-5.31820E-13
 -1      1407 1.99944E+01 1.27219E-03 1.75680E-04-5.37901E-03 3.14063E-14-5.04430E-13
 -1      1408 1.99886E+01 1.02057E-03 1.32353E-04-4.81819E-03-8.49735E-14-5.70210E-13
 -1      1409 2.00097E+01 2.10815E-03-4.29301E-04-1.41872E-02-2.34312E-14-4.21402E-13
 -1      1410 1.99833E+01 8.85231E-04 1.34896E-04-2.63027E-03-1.86727E-13-3.83483E-13
 -1      1411 1.99806E+01 6.84269E-04 1.09370E-04-2.25164E-03-5.24301E-14-5.51467E-13
 -1      1412 1.99958E+01 1.44349E-03-3.04182E-04-7.75855E-03-1.89697E-13-5.01726E-13
 -1      1413 1.99778E+01 5.95844E-04 1.01144E-04-7.74535E-04-5.16076E-14-5.62676E-13
 -1      1414 1.99773E+01 4.38355E-04 8.82285E-05-5.29522E-04-1.59854E-13-7.50038E-13
 -1      1415 1.99878E+01 9.51139E-04-2.09360E-04-3.32717E-03-8.87982E-14-4.18038E-13
 -1      1416 1.99763E+01 3.84243E-04 7.38083E-05 4.26126E-04-7.65975E-14-6.48180E-13
 -1      1417 1.99771E+01 2.62773E-04 6.95141E-05 5.75515E-04-4.47015E-14-8.17354E-13
 -1      1418 1.99840E+01 5.95109E-04-1.38988E-04-3.81083E-04-9.87356E-14-4.12805E-13
 -1      1419 1.99772E+01 2.33010E-04 5.20250E-05 1.15723E-03 6.94425E-14-8.83212E-13
 -1      1420 1.99788E+01 1.40371E-04 5.33558E-05 1.23991E-03 5.01306E-14-7.30048E-13
 -1      1421 1.99830E+01 3.44123E-04-8.78525E-05 1.48483E-03-2.65653E-14-4.63973E-13
 -1      1422 1.99796E+01 1.27149E-04 3.48684E-05 1.55923E-03 7.71249E-14-5.56496E-13
 -1      1423 1.99816E+01 5.66692E-05 3.96255E-05 1.59646E-03 7.91206E-14-4.77415E-13
 -1      1424 1.99838E+01 1.71604E-04-5.14396E-05 2.58236E-03 1.39496E-13-3.44291E-13
 -1      1425 1.99828E+01 5.38075E-05 2.15045E-05 1.73418E-03-4.27780E-14-2.31455E-13
 -1      1426 1.99850E+01-6.21245E-07 2.81560E-05 1.74076E-03 5.96290E-14-2.65853E-13
 -1      1427 1.99857E+01 5.50668E-05-2.58853E-05 3.14323E-03 2.05947E-13-1.30346E-13
 -1      1428 1.99864E+01 1.75651E-06 1.14167E-05 1.75126E-03 1.58038E-13-2.18581E-13
 -1      1429 1.99886E+01-4.22102E-05 1.91023E-05 1.73629E-03 1.38211E-13-9.54171E-14
 -1      1430 1.99882E+01-2.48850E-05-7.83547E-06 3.33069E-03 1.65535E-13 2.55661E-14
 -1      1431 1.99901E+01-3.92648E-05 4.85092E-06 1.65051E-03 1.40113E-13-3.93051E-14
 -1      1432 1.99921E+01-7.79733E-05 1.34363E-05 1.61780E-03 1.81619E-13 2.27606E-13
 -1      1433 1.99910E+01-8.58509E-05 5.79943E-06 3.24832E-03 2.26110E-13 3.60897E-14
 -1      1434 1.99934E+01-7.94242E-05 3.44939E-06 1.44471E-03 1.77108E-13 2.82368E-13
 -1      1435 1.99952E+01-1.17325E-04 1.31558E-05 1.39219E-03 1.12772E-13 3.38001E-13
 -1      1436 1.99936E+01-1.45586E-04 1.80083E-05 2.94598E-03 2.65062E-13 3.18869E-13
 -1      1437 1.99963E+01-1.28639E-04 9.60138E-06 1.12166E-03 1.62749E-13 4.88012E-13
 -1      1438 1.99976E+01-1.67103E-04 1.60565E-05 1.04000E-03 1.45694E-13 7.05182E-13
 -1      1439 1.99960E+01-2.23058E-04 3.02960E-05 2.42251E-03 2.35855E-13 5.03687E-13
 -1      1440 1.99985E+01-2.02335E-04 1.65391E-05 6.49958E-04-1.68903E-14 6.94059E-13
 -1      1441 1.99992E+01-2.05373E-04 7.29244E-06 5.39037E-04-8.81549E-14 5.81916E-13
 -1      1442 1.99979E+01-3.37777E-04 3.98900E-05 1.65200E-03 7.40065E-14 6.85572E-13
 -1      1443 1.99998E+01-9.61095E-05 6.62692E-06 1.19748E-05-3.91227E-13 3.08187E-13
 -1      1444 1.99994E+01-3.84506E-04 2.38547E-05 5.36641E-04-4.21977E-13 1.96779E-13
 -1      1445 2.15093E+01 7.24931E-02-1.42622E-01 2.95009E-01 2.62391E-13 1.95325E-12
 -1      1446 2.24906E+01 2.19058E-01-2.26444E-01 5.21277E-01 2.22808E-13 2.35187E-12
 -1      1447 2.26977E+01 8.38183E-01-9.41710E-02 1.69362E+00 4.29962E-13 1.50667E-12
 -1      1448 2.10529E+01 3.56996E-02-1.79869E-02-2.38686E-03 1.91056E-13 1.44355E-12
 -1      1449 2.12078E+01 1.19102E-01-5.67219E-02 5.23759E-02 1.85633E-13 1.76172E-12
 -1      1450 2.16588E+01 1.78662E-01-5.80120E-02 4.29026E-01 3.90930E-13 1.14653E-12
 -1      1451 2.11855E+01 2.13674E-02 5.03074E-03-1.54907E-01 1.35541E-13 1.06509E-12
 -1      1452 2.10419E+01 6.26375E-02 3.69659E-03-1.20227E-01 1.40087E-13 1.30376E-12
 -1      1453 2.13430E+01 7.79745E-02-1.63191E-02-7.89470E-02 2.96768E-13 8.62456E-13
 -1      1454 2.16549E+01 1.35821E-02 4.87540E-03-2.46117E-01 7.34989E-14 8.43457E-13
 -1      1455 2.13516E+01 3.95324E-02 1.15830E-02-2.20779E-01 6.87549E-14 9.69003E-13
 -1      1456 2.14874E+01 4.36144E-02-7.95275E-03-3.40363E-01 1.77693E-13 6.11863E-13
 -1      1457 2.23258E+01 6.35929E-03 3.16760E-03-3.00770E-01 5.27152E-14 7.10980E-13
 -1      1458 2.19270E+01 2.54707E-02 8.06925E-03-2.82423E-01 4.09052E-14 7.86950E-13
 -1      1459 2.19067E+01 2.49735E-02-7.16447E-03-4.95912E-01 1.10240E-13 4.82149E-13
 -1      1460 2.30924E+01-3.91347E-03 4.41893E-03-3.16835E-01 2.44759E-14 6.19976E-13
 -1      1461 2.26513E+01 9.95202E-03 4.84367E-03-3.07756E-01 3.04504E-14 6.72452E-13
 -1      1462 2.24856E+01 6.39540E-03-5.31125E-03-5.75531E-01 7.15947E-14 3.83873E-13
 -1      1463 2.38295E+01-1.93767E-02 9.53783E-03-2.78117E-01 3.33585E-14 5.53595E-13
 -1      1464 2.34152E+01-1.26480E-02 3.92933E-03-2.84213E-01 2.72182E-14 5.87395E-13
 -1      1465 2.31221E+01-2.01124E-02-1.81532E-04-5.67099E-01 4.31864E-14 3.60956E-13
 -1      1466 2.43677E+01-3.99379E-02 1.85739E-02-1.61509E-01 3.88118E-14 4.82898E-13
 -1      1467 2.40787E+01-4.49897E-02 5.59349E-03-1.91116E-01 1.34857E-14 5.34591E-13
 -1      1468 2.36985E+01-5.87992E-02 9.08353E-03-4.37048E-01 3.74345E-14 3.32233E-13
 -1      1469 2.44960E+01-6.03622E-02 2.91072E-02 4.88776E-02 4.75332E-14 3.97134E-13
 -1      1470 2.44577E+01-8.35423E-02 9.58509E-03-1.09955E-02 2.96135E-14 4.63738E-13
 -1      1471 2.40676E+01-1.07020E-01 2.18755E-02-1.49454E-01 7.09138E-14 2.64296E-13
 -1      1472 2.40148E+01-6.76549E-02 3.38528E-02 3.34302E-01 2.61510E-15 4.02893E-13
 -1      1473 2.43454E+01-1.13419E-01 1.37738E-02 2.47681E-01 1.88217E-14 3.86562E-13
 -1      1474 2.40665E+01-1.48491E-01 3.37917E-02 2.97396E-01 1.73177E-14 2.44554E-13
 -1      1475 2.28594E+01-4.44649E-02 2.20189E-02 6.09713E-01 5.91489E-14 3.98209E-13
 -1      1476 2.35924E+01-1.08153E-01 1.31791E-02 5.20785E-01 2.56531E-14 4.19484E-13
 -1      1477 2.35740E+01-1.48686E-01 3.64483E-02 8.17162E-01 2.25635E-14 2.80186E-13
 -1      1478 2.12558E+01 1.53289E-02-1.24358E-02 7.24795E-01 9.40117E-14 2.67480E-13
 -1      1479 2.22452E+01-4.50312E-02 1.77562E-03 6.79093E-01 6.94165E-14 3.16039E-13
 -1      1480 2.26147E+01-6.96954E-02 2.13816E-02 1.20112E+00 1.09304E-13 2.30087E-13
 -1      1481 1.97745E+01 8.69917E-02-5.70646E-02 5.43975E-01 1.44953E-13-3.67761E-14
 -1      1482 2.06691E+01 6.48788E-02-2.02546E-02 5.82969E-01 1.33671E-13 1.50505E-13
 -1      1483 2.14587E+01 8.78646E-02-1.05279E-02 1.18023E+00 2.09851E-13 4.76078E-14
 -1      1484 1.91148E+01 1.21005E-01-7.95517E-02 8.41836E-02 1.12273E-13-4.48621E-13
 -1      1485 1.94969E+01 1.61557E-01-4.01126E-02 2.04374E-01 1.57659E-13-1.97564E-13
 -1      1486 2.05941E+01 2.51856E-01-3.96990E-02 6.24499E-01 2.96662E-13-1.64462E-13
 -1      1487 1.96459E+01 9.05740E-02-5.84995E-02-4.30512E-01 5.99867E-15-6.26672E-13
 -1      1488 1.93073E+01 1.77361E-01-4.02528E-02-2.90664E-01 5.41511E-14-5.37910E-13
 -1      1489 2.04706E+01 2.99129E-01-4.78150E-02-2.64817E-01 1.74714E-13-3.43549E-13
 -1      1490 2.11225E+01 1.99957E-02-9.69174E-03-7.36038E-01-7.24811E-14-6.35991E-13
 -1      1491 2.02197E+01 1.06505E-01-1.79955E-02-6.47391E-01-5.68053E-14-6.82426E-13
 -1      1492 2.11728E+01 1.91270E-01-3.25237E-02-1.03504E+00 3.07913E-15-5.50605E-13
 -1      1493 2.28739E+01-4.05696E-02 3.33616E-02-7.25373E-01 5.69596E-14-6.61554E-13
 -1      1494 2.18099E+01 4.41141E-03 9.81039E-03-7.15089E-01 2.20267E-14-6.35797E-13
 -1      1495 2.23595E+01 4.82424E-03-1.01708E-02-1.33039E+00 9.70578E-16-6.41862E-13
 -1      1496 2.42671E+01-6.51600E-02 4.90524E-02-4.91957E-01-1.11016E-13-5.97231E-13
 -1      1497 2.34186E+01-6.71863E-02 2.62122E-02-5.37504E-01 1.82146E-15-6.15806E-13
 -1      1498 2.35254E+01-1.36522E-01 5.81163E-03-1.12587E+00 2.89959E-14-5.68968E-13
 -1      1499 2.50021E+01-5.90327E-02 4.13656E-02-1.96998E-01-4.69026E-14-3.91125E-13
 -1      1500 2.45471E+01-8.91290E-02 2.64477E-02-2.60099E-01-1.32569E-13-5.59094E-13
 -1      1501 2.43069E+01-1.80539E-01 1.16232E-02-6.48910E-01-1.44209E-13-5.04749E-13
 -1      1502 2.50990E+01-3.94616E-02 2.47570E-02 4.57311E-02-4.32926E-14-2.98211E-13
 -1      1503 2.50235E+01-7.59146E-02 1.74518E-02-8.18246E-03 2.02702E-14-2.45668E-13
 -1      1504 2.45902E+01-1.51078E-01 1.09026E-02-1.52282E-01-8.48904E-14-3.74269E-13
 -1      1505 2.47400E+01-1.97708E-02 9.68734E-03 1.97066E-01 5.63364E-14-2.79715E-13
 -1      1506 2.49330E+01-4.96489E-02 7.38149E-03 1.61819E-01 1.94315E-14-2.45666E-13
 -1      1507 2.44460E+01-9.46047E-02 7.83867E-03 2.19116E-01-2.60104E-14-2.07470E-13
 -1      1508 2.41314E+01-5.44024E-03-5.77427E-05 2.65833E-01 6.14435E-14-5.37110E-13
 -1      1509 2.44688E+01-2.48250E-02 3.04827E-04 2.47967E-01 6.94956E-14-3.78409E-13
 -1      1510 2.40190E+01-4.27635E-02 4.70562E-03 4.32179E-01 1.02117E-13-1.38819E-13
 -1      1511 2.34354E+01 3.02970E-03-4.81114E-03 2.77604E-01 3.53939E-14-6.37905E-13
 -1      1512 2.38212E+01-6.95724E-03-3.18966E-03 2.72032E-01 1.92397E-14-6.33283E-13
 -1      1513 2.34515E+01-6.98536E-03 2.37255E-03 5.14842E-01 1.05649E-13-3.94268E-13
 -1      1514 2.27558E+01 7.08875E-03-6.28527E-03 2.57036E-01-7.66804E-14-5.06697E-13
 -1      1515 2.31301E+01 3.75546E-03-4.12266E-03 2.58728E-01-4.76985E-14-6.08191E-13
 -1      1516 2.28500E+01 1.30708E-02 8.91181E-04 5.11930E-01-3.23157E-14-5.09711E-13
 -1      1517 2.21472E+01 8.38982E-03-6.05495E-03 2.21837E-01-6.02606E-14-4.07938E-13
 -1      1518 2.24794E+01 9.08728E-03-3.72547E-03 2.27125E-01-1.61043E-14-3.97522E-13
 -1      1519 2.22806E+01 2.18845E-02 4.10083E-05 4.62587E-01-1.30337E-13-2.82050E-13
 -1      1520 2.16316E+01 8.18759E-03-5.13825E-03 1.82812E-01-6.54054E-14-3.29944E-13
 -1      1521 2.19104E+01 1.09773E-02-2.86019E-03 1.89405E-01-3.18445E-14-3.62543E-13
 -1      1522 2.17777E+01 2.39377E-02-4.09828E-04 3.93890E-01-5.52418E-14-2.33988E-13
 -1      1523 2.12111E+01 7.28485E-03-4.07215E-03 1.45725E-01-5.56913E-14-3.02112E-13
 -1      1524 2.14363E+01 1.09181E-02-1.97774E-03 1.52349E-01-1.78206E-14-2.77727E-13
 -1      1525 2.13537E+01 2.24720E-02-6.24984E-04 3.22009E-01-7.95154E-15-2.50110E-14
 -1      1526 2.08782E+01 6.14130E-03-3.09312E-03 1.13172E-01-2.78282E-14-2.62584E-13
 -1      1527 2.10548E+01 9.89253E-03-1.25329E-03 1.19201E-01-1.02155E-13-3.60759E-13
 -1      1528 2.10083E+01 1.94944E-02-7.03535E-04 2.55376E-01-7.68866E-14-2.00664E-14
 -1      1529 2.06207E+01 4.99584E-03-2.27973E-03 8.59462E-02 8.85705E-14-2.46178E-13
 -1      1530 2.07560E+01 8.48570E-03-7.20307E-04 9.11323E-02 6.96795E-14-2.00847E-13
 -1      1531 2.07343E+01 1.61174E-02-7.03099E-04 1.97616E-01 6.98454E-14-2.12449E-13
 -1      1532 2.04259E+01 3.95902E-03-1.63882E-03 6.39162E-02 5.29203E-14-3.93666E-13
 -1      1533 2.05272E+01 7.01850E-03-3.54907E-04 6.82158E-02 8.73177E-14-2.74941E-13
 -1      1534 2.05218E+01 1.28945E-02-6.58060E-04 1.49644E-01 1.46739E-13-1.57325E-13
 -1      1535 2.02814E+01 3.07164E-03-1.14991E-03 4.65292E-02-1.24007E-13-2.99773E-13
 -1      1536 2.03557E+01 5.65165E-03-1.18265E-04 4.99997E-02-4.82878E-14-3.56195E-13
 -1      1537 2.03603E+01 1.00624E-02-5.89846E-04 1.10991E-01-1.86940E-14-5.93717E-14
 -1      1538 2.01765E+01 2.33875E-03-7.85332E-04 3.30872E-02 3.24064E-14-1.79265E-13
 -1      1539 2.02299E+01 4.45412E-03 2.61389E-05 3.58295E-02-1.31365E-13-3.63571E-13
 -1      1540 2.02401E+01 7.69062E-03-5.12057E-04 8.05712E-02-9.87150E-14-1.15698E-13
 -1      1541 2.01023E+01 1.74866E-03-5.18487E-04 2.28878E-02 8.21566E-14-2.97977E-13
 -1      1542 2.01395E+01 3.44493E-03 1.07437E-04 2.50149E-02 1.08128E-13-1.57249E-13
 -1      1543 2.01525E+01 5.76643E-03-4.33280E-04 5.71060E-02 8.46214E-14-1.86784E-13
 -1      1544 2.00511E+01 1.28312E-03-3.26705E-04 1.52895E-02-9.98812E-14-3.18892E-13
 -1      1545 2.00763E+01 2.61763E-03 1.47096E-04 1.69110E-02-2.26989E-14-2.39172E-13
 -1      1546 2.00901E+01 4.24154E-03-3.58783E-04 3.93376E-02 3.00423E-14-5.96496E-15
 -1      1547 2.00172E+01 9.22417E-04-1.91675E-04 9.73647E-03 1.18668E-13-5.07463E-13
 -1      1548 2.00336E+01 1.95417E-03 1.60239E-04 1.09513E-02 9.63405E-14-3.16076E-13
 -1      1549 2.00469E+01 3.05635E-03-2.91538E-04 2.61281E-02 1.15578E-13-1.46571E-13
 -1      1550 1.99958E+01 6.47751E-04-9.89646E-05 5.76285E-03 2.39857E-14-7.68549E-13
 -1      1551 2.00058E+01 1.43211E-03 1.57247E-04 6.65693E-03 1.29608E-13-5.85418E-13
 -1      1552 2.00179E+01 2.15144E-03-2.32935E-04 1.64960E-02 2.28093E-13-2.65863E-13
 -1      1553 1.99833E+01 4.42264E-04-3.73685E-05 2.98787E-03-6.29192E-14-4.14163E-13
 -1      1554 1.99888E+01 1.02856E-03 1.45103E-04 3.63332E-03-1.27979E-13-6.76680E-13
 -1      1555 1.99995E+01 1.47262E-03-1.83303E-04 9.62154E-03-1.39929E-13-3.43508E-13
 -1      1556 1.99771E+01 2.91408E-04 1.71654E-06 1.10637E-03-5.26131E-14-3.74295E-13
 -1      1557 1.99795E+01 7.22067E-04 1.28413E-04 1.56248E-03 1.28365E-14-3.57866E-13
 -1      1558 1.99886E+01 9.72748E-04-1.42301E-04 4.83565E-03-7.91927E-14-1.99202E-13
 -1      1559 1.99751E+01 1.82923E-04 2.48283E-05-1.21789E-04-1.48252E-13 9.51979E-14
 -1      1560 1.99755E+01 4.93473E-04 1.10123E-04 1.92769E-04-1.93340E-13-2.85595E-13
 -1      1561 1.99830E+01 6.12089E-04-1.09184E-04 1.60338E-03-2.73595E-13-7.05306E-14
 -1      1562 1.99758E+01 1.06629E-04 3.68928E-05-8.82047E-04-4.83860E-14 3.43122E-13
 -1      1563 1.99749E+01 3.26179E-04 9.20388E-05-6.71278E-04-2.46656E-14 1.85969E-13
 -1      1564 1.99810E+01 3.57799E-04-8.29864E-05-4.95129E-04-1.87940E-13 2.16748E-13
 -1      1565 1.99782E+01 5.41418E-05 4.15944E-05-1.31451E-03 2.48017E-13-3.03497E-14
 -1      1566 1.99765E+01 2.06027E-04 7.51807E-05-1.17837E-03 1.13763E-13 1.62454E-13
 -1      1567 1.99813E+01 1.83077E-04-6.26408E-05-1.78291E-03 1.65593E-13-7.75028E-14
 -1      1568 1.99815E+01 1.85327E-05 4.17074E-05-1.52192E-03-1.24384E-13-2.44067E-13
 -1      1569 1.99794E+01 1.21010E-04 6.00463E-05-1.43855E-03 4.09470E-14-1.02714E-13
 -1      1570 1.99830E+01 6.61897E-05-4.70289E-05-2.50247E-03 1.48102E-13-1.72053E-13
 -1      1571 1.99853E+01-6.10096E-06 3.94901E-05-1.57589E-03 7.73650E-14-8.81780E-14
 -1      1572 1.99830E+01 6.07711E-05 4.68389E-05-1.52988E-03 2.04385E-15-9.41878E-14
 -1      1573 1.99856E+01-1.05971E-05-3.49383E-05-2.82950E-03 2.63275E-14-1.95127E-13
 -1      1574 1.99890E+01-2.51389E-05 3.72851E-05-1.52115E-03-4.87180E-14-1.59629E-13
 -1      1575 1.99868E+01 1.58695E-05 3.57861E-05-1.50305E-03-1.69012E-14-2.17942E-13
 -1      1576 1.99886E+01-6.23183E-05-2.48682E-05-2.88327E-03 4.15368E-14-1.59914E-13
 -1      1577 1.99926E+01-4.36686E-05 3.82833E-05-1.37765E-03 1.17825E-13-3.24899E-13
 -1      1578 1.99906E+01-2.29074E-05 2.77081E-05-1.38416E-03 1.14931E-13-6.05760E-14
 -1      1579 1.99916E+01-1.02644E-04-1.46201E-05-2.73334E-03 7.17285E-14-7.82119E-14
 -1      1580 1.99957E+01-6.69758E-05 4.55089E-05-1.14166E-03-3.22778E-14-1.48666E-13
 -1      1581 1.99940E+01-6.51109E-05 2.43666E-05-1.17636E-03-2.61724E-14-2.14780E-13
 -1      1582 1.99944E+01-1.45220E-04-1.17886E-06-2.40362E-03 3.07742E-14 1.97868E-13
 -1      1583 1.99981E+01-1.00316E-04 5.26369E-05-7.84731E-04-7.52843E-14-3.05690E-13
 -1      1584 1.99968E+01-1.20992E-04 2.57501E-05-8.62356E-04 1.98120E-14-1.78015E-13
 -1      1585 1.99968E+01-2.06361E-04 1.61652E-05-1.87674E-03 2.31321E-14 1.57562E-13
 -1      1586 1.99994E+01-1.41199E-04 1.10584E-05-3.11137E-04 5.79269E-14-3.00005E-13
 -1      1587 1.99988E+01-1.78254E-04 2.20693E-05-4.25716E-04 2.62813E-14-3.82529E-13
 -1      1588 1.99986E+01-2.89887E-04 2.96082E-05-1.11670E-03 9.55476E-14-1.55337E-13
 -1      1589 1.99997E+01-1.09831E-04-7.53538E-07-3.41529E-05-1.72637E-13-2.19547E-13
 -1      1590 1.99996E+01-1.35364E-03 2.50031E-05-6.63698E-04 1.58157E-13 3.60367E-13
 -1      1591 1.99996E+01-6.82520E-04-4.04460E-07-5.38088E-04-9.60450E-14 1.91529E-13
 -1      1592 1.99997E+01-3.33783E-03 9.32924E-06-1.03751E-03 5.37364E-13 2.34120E-13
 -1      1593 1.99997E+01-2.15087E-03 1.57872E-05-9.80683E-04 3.88247E-13 2.89987E-13
 -1      1594 1.99995E+01-1.88787E-03 2.81649E-05-1.58786E-03 2.75318E-13 5.55545E-13
 -1      1595 1.99998E+01-5.72053E-03-2.04542E-06-1.18407E-03-6.41681E-15-3.14784E-13
 -1      1596 1.99998E+01-4.31304E-03 7.00791E-06-1.17409E-03 5.14877E-13-3.20714E-13
 -1      1597 1.99997E+01-3.64060E-03 1.53358E-05-2.12631E-03 2.71132E-13-1.72327E-13
 -1      1598 1.99999E+01-8.11901E-03-6.63084E-06-1.13679E-03 9.71781E-14-1.64321E-13
 -1      1599 1.99998E+01-6.73872E-03 3.20739E-07-1.16157E-03-8.82677E-15 1.00002E-13
 -1      1600 1.99998E+01-5.60972E-03-4.37925E-06-2.25594E-03 9.06627E-14-3.60306E-13
 -1      1601 1.99999E+01-1.01835E-02-6.88930E-06-9.50782E-04-4.62785E-13-1.12149E-13
 -1      1602 1.99999E+01-9.02848E-03-1.63943E-06-9.97229E-04-1.35253E-13-5.64285E-13
 -1      1603 1.99999E+01-7.50963E-03-1.98909E-05-2.05429E-03-7.03703E-14-5.79780E-13
 -1      1604 1.99999E+01-1.17599E-02-5.56192E-06-6.66552E-04-6.56202E-13-5.77015E-14
 -1      1605 1.99999E+01-1.09168E-02-2.29921E-06-7.28421E-04-5.98449E-13 1.59003E-13
 -1      1606 2.00000E+01-9.12380E-03-2.95532E-05-1.61813E-03-2.48318E-13-2.96648E-13
 -1      1607 1.99999E+01-1.26596E-02-3.90464E-06-3.25184E-04-6.61178E-13-1.31215E-13
 -1      1608 1.99999E+01-1.22240E-02-2.24607E-06-3.94718E-04-6.44580E-13 6.82995E-14
 -1      1609 2.00000E+01-1.02967E-02-3.55676E-05-1.02351E-03-4.41576E-13-2.35908E-14
 -1      1610 1.99999E+01-1.28091E-02-2.72013E-06 4.12388E-05-7.13994E-13-2.13486E-13
 -1      1611 1.99999E+01-1.28154E-02-2.73483E-06-3.06078E-05-6.25000E-13 6.59834E-14
 -1      1612 2.00000E+01-1.09040E-02-3.82548E-05-3.43268E-04-2.45778E-13-4.43008E-14
 -1      1613 1.99999E+01-1.21965E-02-2.14355E-06 4.04400E-04-4.62184E-13 2.69882E-13
 -1      1614 1.99999E+01-1.26440E-02-3.90897E-06 3.35201E-04-5.35801E-13-1.24581E-13
 -1      1615 2.00000E+01-1.08947E-02-3.81563E-05 3.63239E-04 2.64819E-14-6.99563E-14
 -1      1616 1.99999E+01-1.08724E-02-2.01524E-06 7.35700E-04-4.50561E-13-2.83572E-13
 -1      1617 1.99999E+01-1.17246E-02-5.72573E-06 6.74571E-04-3.32734E-13 9.26691E-14
 -1      1618 2.00000E+01-1.02702E-02-3.52143E-05 1.04071E-03-1.88851E-13 2.97750E-13
 -1      1619 1.99999E+01-8.99074E-03-1.88947E-06 9.98220E-04-6.86518E-13 7.57259E-14
 -1      1620 1.99999E+01-1.01494E-02-7.05854E-06 9.52882E-04-3.92618E-13-3.13577E-13
 -1      1621 2.00000E+01-9.09643E-03-2.93552E-05 1.62614E-03-3.74587E-13-3.81033E-13
 -1      1622 1.99998E+01-6.68165E-03 2.90149E-07 1.16096E-03-9.06667E-13-1.49205E-13
 -1      1623 1.99999E+01-8.06282E-03-6.78434E-06 1.13707E-03-6.59547E-13-2.79940E-14
 -1      1624 1.99999E+01-7.47633E-03-1.91847E-05 2.05590E-03-3.43756E-13-2.82164E-14
 -1      1625 1.99998E+01-4.26435E-03 6.39621E-06 1.17340E-03-1.02079E-12 1.45432E-13
 -1      1626 1.99998E+01-5.66617E-03-2.29302E-06 1.18092E-03-1.03372E-12 4.65439E-14
 -1      1627 1.99998E+01-5.56201E-03-4.14067E-06 2.25202E-03-3.94405E-13-1.98645E-13
 -1      1628 1.99997E+01-2.14948E-03 3.09776E-06 9.72539E-04-9.90964E-13 1.80379E-14
 -1      1629 1.99997E+01-3.30071E-03 8.11007E-06 1.02953E-03-1.07871E-12 7.24132E-15
 -1      1630 1.99997E+01-3.59697E-03 1.44369E-05 2.11553E-03-7.70643E-13 2.96714E-14
 -1      1631 1.99995E+01-8.67558E-04-1.65640E-05 7.71377E-04-6.21907E-13-2.38624E-14
 -1      1632 1.99995E+01-1.53662E-03 6.60451E-06 9.54686E-04-6.93247E-13 3.67956E-14
 -1      1633 1.99994E+01-2.01260E-03 3.50864E-05 1.84433E-03-5.72121E-13 3.26588E-13
 -1      1634 1.99989E+01-9.32247E-04 4.79528E-06 1.48921E-03-2.61543E-13 2.39090E-13
 -1      1635-5.48313E-01-1.40385E+01-1.59981E+00-9.98459E-01 1.39710E-12 8.43103E-13
 -1      1636-5.67425E-01-1.64667E+01-1.79876E+00 2.53494E-01 3.34274E-13 6.56086E-13
 -1      1637 1.35144E+00-7.86723E+00-1.23684E+00 3.04892E-01 2.35467E-12 1.30876E-12
 -1      1638 6.12864E-01-1.28537E+01-1.72368E+00-3.49946E-01 1.85119E-12 9.26897E-13
 -1      1639 7.24776E+00-5.90115E-01-5.61448E-01 4.58682E+00 2.45670E-12 1.90070E-12
 -1      1640 4.11641E+00-5.91331E+00-1.30063E+00 1.72022E+00 2.33902E-12 1.52456E-12
 -1      1641 1.83000E+01 4.75348E+00 2.56615E-01 9.71629E+00 2.24198E-12 2.57261E-12
 -1      1642 1.14037E+01 1.26167E+00-6.75504E-01 5.89281E+00 2.40752E-12 2.06080E-12
 -1      1643 3.31450E+01 6.24493E+00 1.03256E+00 1.25247E+01 1.71685E-12 2.41140E-12
 -1      1644 2.34393E+01 6.07243E+00 1.31477E-01 1.06193E+01 2.25764E-12 2.57350E-12
 -1      1645 4.65993E+01 4.60198E+00 1.46250E+00 9.33214E+00 9.95343E-13 1.49558E-12
 -1      1646 3.81778E+01 6.20018E+00 8.93463E-01 1.12767E+01 1.47904E-12 2.11209E-12
 -1      1647 5.31647E+01 3.81623E+00 1.59545E+00 2.24993E+00 7.03715E-13-6.13398E-15
 -1      1648 4.90808E+01 4.87296E+00 1.35137E+00 7.14877E+00 9.26620E-13 9.98202E-13
 -1      1649 5.16145E+01 4.51695E+00 1.51621E+00-5.44253E+00 8.53706E-13-1.45473E-12
 -1      1650 5.36733E+01 3.87090E+00 1.59912E+00 9.29541E-02 6.96332E-13-4.47708E-13
 -1      1651 4.28385E+01 6.04471E+00 1.16864E+00-1.10956E+01 1.39078E-12-2.53508E-12
 -1      1652 5.02876E+01 4.30223E+00 1.66844E+00-7.96384E+00 8.98503E-13-1.94122E-12
 -1      1653 2.90067E+01 6.24846E+00 4.35658E-01-1.12211E+01 2.24487E-12-2.88680E-12
 -1      1654 3.83425E+01 5.68649E+00 1.21625E+00-1.18783E+01 1.64235E-12-2.65143E-12
 -1      1655 1.54596E+01 3.89897E+00-3.56592E-01-8.04750E+00 2.87925E-12-2.84794E-12
 -1      1656 2.33856E+01 6.02823E+00 5.54118E-01-1.13927E+01 2.53930E-12-3.06866E-12
 -1      1657 6.80641E+00-3.09882E+00-1.06158E+00-3.32208E+00 2.70672E-12-2.00795E-12
 -1      1658 1.14461E+01 1.77079E+00-2.24160E-01-6.82900E+00 2.79665E-12-2.62479E-12
 -1      1659 1.46267E+00-1.06073E+01-1.66630E+00-2.76992E-02 2.19724E-12-1.25180E-12
 -1      1660 3.00430E+00-4.94312E+00-1.00734E+00-1.70635E+00 2.72893E-12-1.82637E-12
 -1      1661-2.42955E-01-1.60314E+01-1.88439E+00 2.68748E-01 8.39384E-13-7.90062E-13
 -1      1662-1.25949E-01-1.23666E+01-1.56086E+00 8.94290E-01 1.87095E-12-1.12171E-12
 -1      1663-7.16302E-01-1.61254E+01-1.75919E+00-6.85995E-01-8.11295E-13-7.21201E-13
 -1      1664-7.32530E-01-1.61725E+01-1.76782E+00 8.05909E-01 3.28182E-13-7.22089E-13
 -1      1665-9.08053E-02-1.22211E+01-1.55179E+00-7.75644E-01-2.19336E-12-1.12579E-12
 -1      1666-2.15326E-01-1.59302E+01-1.87344E+00-1.41857E-01-1.30190E-12-7.46014E-13
 -1      1667 3.01926E+00-4.72286E+00-9.97648E-01 1.85873E+00-2.92211E-12-1.87189E-12
 -1      1668 1.53301E+00-1.03704E+01-1.62932E+00 1.85499E-01-2.47191E-12-1.31853E-12
 -1      1669 1.22963E+01 2.10554E+00-1.46047E-01 7.32055E+00-2.77067E-12-2.53497E-12
 -1      1670 7.27719E+00-2.77740E+00-9.63066E-01 3.62430E+00-2.81009E-12-2.01217E-12
 -1      1671 2.46365E+01 5.89490E+00 5.69508E-01 1.14772E+01-2.38565E-12-2.96940E-12
 -1      1672 1.65645E+01 4.20891E+00-2.66825E-01 8.40969E+00-2.80020E-12-2.78555E-12
 -1      1673 4.05021E+01 5.18517E+00 1.23978E+00 1.06793E+01-1.46669E-12-2.54585E-12
 -1      1674 3.04694E+01 6.08066E+00 4.73243E-01 1.06470E+01-1.98597E-12-2.76157E-12
 -1      1675 5.24214E+01 4.02139E+00 1.86222E+00 6.68377E+00-8.69915E-13-1.89992E-12
 -1      1676 4.56620E+01 5.72265E+00 1.35284E+00 1.06245E+01-1.29629E-12-2.58715E-12
 -1      1677 5.47748E+01 3.61258E+00 1.84106E+00-1.83339E+00-6.58806E-13-3.66568E-13
 -1      1678 5.40248E+01 3.83592E+00 1.79073E+00 3.95226E+00-8.02330E-13-1.49497E-12
 -1      1679 4.85382E+01 5.07740E+00 1.52639E+00-9.31382E+00-7.58171E-13 1.03817E-12
 -1      1680 5.39201E+01 3.62505E+00 1.88920E+00-4.71761E+00-5.40679E-13 1.49880E-13
 -1      1681 3.57449E+01 6.59333E+00 8.50808E-01-1.18946E+01-1.32849E-12 1.79901E-12
 -1      1682 4.44207E+01 5.20781E+00 1.51317E+00-1.07732E+01-8.71581E-13 1.34803E-12
 -1      1683 2.19250E+01 6.02823E+00 1.02932E-01-1.03988E+01-2.05935E-12 2.19269E-12
 -1      1684 3.06366E+01 6.51132E+00 9.35464E-01-1.25157E+01-1.56308E-12 2.06390E-12
 -1      1685 1.10567E+01 1.32861E+00-6.36493E-01-5.92613E+00-2.08467E-12 1.89881E-12
 -1      1686 1.72521E+01 4.67435E+00 2.05523E-01-9.48732E+00-2.01239E-12 2.17737E-12
 -1      1687 3.75695E+00-5.74679E+00-1.29896E+00-1.64661E+00-1.90026E-12 1.26488E-12
 -1      1688 6.75932E+00-3.21213E-01-5.64028E-01-4.49267E+00-2.13785E-12 1.72695E-12
 -1      1689 6.66118E-01-1.30113E+01-1.69652E+00 8.98211E-02-1.28209E-12 7.97175E-13
 -1      1690 1.44673E+00-7.89179E+00-1.18979E+00-5.73976E-01-1.76781E-12 1.08030E-12
 -1      1691-6.37604E-01-1.69910E+01-1.88932E+00-3.51641E-01-2.63678E-15 5.04791E-13
 -1      1692-6.48840E-01-1.47283E+01-1.70316E+00 1.06103E+00-1.04922E-12 6.92085E-13
 -1      1693 2.51965E+01 8.90768E-01 2.67639E-01 7.24979E+00 1.40443E-12 1.50480E-12
 -1      1694 1.47641E+01-3.29789E+00-3.44778E-01 6.31102E+00 1.36025E-12 1.33610E-12
 -1      1695 1.99996E+01-2.74004E-04 2.66370E-05-3.09048E-04-1.37988E-13-5.45079E-14
 -1      1696 1.99993E+01-7.45768E-04 1.51365E-05-9.24841E-04 8.52985E-14 2.58501E-13
 -1      1697 7.41434E-01-1.01077E+01-1.16144E+00 2.24098E+00 7.33524E-13 1.13343E-12
 -1      1698 6.21829E+00-7.13969E+00-8.43537E-01 4.44278E+00 1.28431E-12 1.12073E-12
 -1      1699-1.27156E+00-1.13484E+01-1.26929E+00 6.25036E-02 1.76269E-13 1.09363E-12
 -1      1700 3.58507E+01 4.31915E+00 9.45160E-01 6.42370E+00 1.39386E-12 1.17772E-12
 -1      1701 4.26551E+01 6.63354E+00 1.26185E+00 3.26889E+00 1.27584E-12 4.82392E-13
 -1      1702 4.49691E+01 8.01661E+00 1.35372E+00 2.79420E-01 1.29446E-12-1.95483E-13
 -1      1703 4.44958E+01 7.25863E+00 1.38727E+00-2.84683E+00 1.20043E-12-8.79186E-13
 -1      1704 3.89159E+01 5.03438E+00 1.06493E+00-5.54555E+00 1.33874E-12-1.37490E-12
 -1      1705 2.94289E+01 2.25313E+00 5.52382E-01-7.19488E+00 1.57341E-12-1.64246E-12
 -1      1706 1.87792E+01-1.69283E+00-1.29161E-01-6.91608E+00 1.60072E-12-1.78035E-12
 -1      1707 9.51918E+00-5.73161E+00-6.25890E-01-5.48812E+00 1.40887E-12-1.54926E-12
 -1      1708 2.32911E+00-9.42227E+00-1.15304E+00-3.04751E+00 1.03451E-12-1.39604E-12
 -1      1709-8.98559E-01-1.11496E+01-1.28245E+00-9.50738E-01 2.20407E-13-1.37762E-12
 -1      1710-8.52502E-01-1.10974E+01-1.26848E+00 1.11919E+00-5.77927E-13-1.29330E-12
 -1      1711 2.42343E+00-9.26641E+00-1.11413E+00 3.20546E+00-1.34337E-12-1.39283E-12
 -1      1712 9.93181E+00-5.39167E+00-5.30822E-01 5.74063E+00-1.57052E-12-1.53466E-12
 -1      1713 1.96686E+01-1.59614E+00-7.42020E-02 6.99261E+00-1.63980E-12-1.67844E-12
 -1      1714 3.05261E+01 2.34551E+00 5.83169E-01 6.55693E+00-1.52295E-12-1.63869E-12
 -1      1715 3.95899E+01 5.20789E+00 9.42348E-01 4.68895E+00-1.27830E-12-1.42730E-12
 -1      1716 4.63533E+01 7.13255E+00 1.51554E+00 2.56996E+00-1.24439E-12-1.14880E-12
 -1      1717 4.70081E+01 7.23881E+00 1.55637E+00-1.50603E+00-1.07248E-12-4.53415E-13
 -1      1718 4.24404E+01 6.08894E+00 1.26511E+00-4.89008E+00-9.51739E-13 2.78555E-13
 -1      1719 3.40095E+01 4.08035E+00 8.05949E-01-7.05555E+00-1.08910E-12 8.32889E-13
 -1      1720 2.39508E+01 8.56689E-01 2.23433E-01-7.39751E+00-1.12976E-12 1.05316E-12
 -1      1721 1.41082E+01-2.99145E+00-3.21333E-01-6.39286E+00-9.56124E-13 1.24650E-12
 -1      1722 5.86053E+00-7.04460E+00-8.46714E-01-4.46785E+00-8.46989E-13 9.81527E-13
 -1      1723 6.05840E-01-1.03268E+01-1.18427E+00-2.37395E+00-4.30822E-13 1.00941E-12
 -1      1724 2.35999E+01 1.95393E+00-2.72454E-02-2.40026E+00-3.74503E-13 1.44446E-12
 -1      1725 2.02373E+01 3.76796E+00-3.81556E-02-1.50609E+00-4.68097E-13-5.26593E-13
 -1      1726 2.06387E+01 3.60174E+00-3.55212E-02-1.81453E+00-5.39149E-13-3.60545E-13
 -1      1727 2.10826E+01 3.17761E+00-4.72194E-02-1.99922E+00-5.43325E-13-1.55341E-13
 -1      1728 2.14238E+01 2.78742E+00-1.32414E-01-2.30604E+00-5.84626E-13 1.22430E-13
 -1      1729 2.11064E+01 2.71203E+00-2.35183E-03-1.59135E+00-5.76355E-13-2.23252E-13
 -1      1730 1.90382E+01 4.36314E+00-2.17249E-02-6.87191E-01-2.61920E-13-8.01161E-13
 -1      1731 1.92929E+01 4.31658E+00-1.24884E-02-8.75412E-01-3.19351E-13-7.70968E-13
 -1      1732 1.86149E+01 4.52655E+00-1.69565E-02-3.93994E-01-1.55220E-13-8.41211E-13
 -1      1733 1.88148E+01 4.49717E+00-8.57737E-03-5.42503E-01-2.10219E-13-8.26813E-13
 -1      1734 1.90792E+01 4.05722E+00-7.34275E-03-5.38579E-01-2.59123E-13-7.87819E-13
 -1      1735 1.83214E+01 4.63690E+00-1.34157E-02-1.68176E-01-5.00407E-14-8.63039E-13
 -1      1736 1.84528E+01 4.61891E+00-7.46719E-03-2.85111E-01-9.80366E-14-8.56072E-13
 -1      1737 1.86535E+01 4.26141E+00-6.17538E-03-2.87641E-01-1.28204E-13-8.27487E-13
 -1      1738 1.81780E+01 4.69731E+00-1.07166E-02 1.27763E-02 4.42581E-14-8.52065E-13
 -1      1739 1.82308E+01 4.68909E+00-7.99567E-03-8.56239E-02 3.26800E-15-8.61213E-13
 -1      1740 1.83740E+01 4.39167E+00-5.11547E-03-9.73652E-02-2.48911E-14-8.36203E-13
 -1      1741 1.81999E+01 4.70545E+00-8.82273E-03 1.77331E-01 1.35991E-13-8.41861E-13
 -1      1742 1.81676E+01 4.70730E+00-9.80471E-03 8.25911E-02 9.59575E-14-8.54884E-13
 -1      1743 1.82617E+01 4.44804E+00-4.48728E-03 5.42076E-02 7.50114E-14-8.27509E-13
 -1      1744 1.83916E+01 4.65679E+00-8.02783E-03 3.57430E-01 2.24619E-13-8.18253E-13
 -1      1745 1.82735E+01 4.67043E+00-1.26661E-02 2.50395E-01 1.80932E-13-8.32717E-13
 -1      1746 1.83303E+01 4.42607E+00-4.51283E-03 1.95828E-01 1.69620E-13-8.13643E-13
 -1      1747 1.87381E+01 4.54823E+00-8.67722E-03 5.80958E-01 3.16814E-13-7.52030E-13
 -1      1748 1.85434E+01 4.57546E+00-1.65963E-02 4.48324E-01 2.68243E-13-7.93976E-13
 -1      1749 1.85788E+01 4.32187E+00-5.04657E-03 3.57489E-01 2.69085E-13-7.81378E-13
 -1      1750 1.92371E+01 4.36416E+00-1.17191E-02 8.84618E-01 4.34644E-13-6.34090E-13
 -1      1751 1.89663E+01 4.41342E+00-2.19822E-02 7.06383E-01 3.70253E-13-7.01732E-13
 -1      1752 1.89971E+01 4.12813E+00-6.12127E-03 5.69081E-01 3.75976E-13-6.95707E-13
 -1      1753 1.98750E+01 4.07415E+00-1.97757E-02 1.28787E+00 5.33067E-13-4.65319E-13
 -1      1754 1.95339E+01 4.16269E+00-2.98099E-02 1.05116E+00 4.76468E-13-5.61108E-13
 -1      1755 1.95765E+01 3.82629E+00-6.70631E-03 8.52504E-01 4.87124E-13-5.60755E-13
 -1      1756 2.06704E+01 3.59112E+00-3.92331E-02 1.79153E+00 6.16108E-13-1.47594E-13
 -1      1757 2.02434E+01 3.77106E+00-4.24032E-02 1.48902E+00 5.63524E-13-3.34923E-13
 -1      1758 2.03084E+01 3.37613E+00-4.20761E-03 1.20499E+00 5.81242E-13-3.53965E-13
 -1      1759 2.17867E+01 2.67247E+00-5.15388E-02 2.26726E+00 6.02983E-13 4.16535E-13
 -1      1760 2.11657E+01 3.11167E+00-5.09386E-02 1.97611E+00 5.96798E-13 7.31706E-14
 -1      1761 2.12112E+01 2.66236E+00 3.45328E-03 1.55084E+00 6.29293E-13-1.10606E-14
 -1      1762 2.26793E+01 1.18445E+00-1.17557E-01 1.87057E+00 5.10030E-13 1.13078E-12
 -1      1763 2.21958E+01 2.23294E+00-1.02353E-03 2.20690E+00 5.59049E-13 6.67896E-13
 -1      1764 2.19040E+01 1.68323E+00-1.64080E-02 1.53820E+00 6.17100E-13 4.27935E-13
 -1      1765 2.20697E+01 7.66469E-01-5.39093E-02 1.06295E+00 5.22631E-13 9.71230E-13
 -1      1766 2.26497E+01 2.41093E+00 8.51306E-02-2.59655E+00-5.07925E-13 5.99035E-13
 -1      1767 2.15553E+01 3.16960E-01-3.02556E-03 1.78968E-01 4.08180E-13 7.31130E-13
 -1      1768 2.19020E+01 4.48040E-01-9.13792E-03 5.68906E-01 4.39641E-13 8.73847E-13
 -1      1769 2.19041E+01 8.43644E-01-1.34455E-03 8.54816E-01 5.26246E-13 5.68531E-13
 -1      1770 2.23903E+01 1.71561E+00 7.71907E-02-1.83833E+00-5.40065E-13 4.06362E-13
 -1      1771 2.17140E+01 5.05971E-01 3.31971E-02-4.32732E-01-4.32331E-13 3.19031E-13
 -1      1772 2.14580E+01 3.67903E-01 1.15066E-02-1.36089E-01-3.82241E-13 2.05991E-13
 -1      1773 2.13817E+01 2.77725E-01 2.71274E-02 1.21937E-01-3.37179E-13 2.01787E-13
 -1      1774 2.13743E+01 1.98665E-01 1.20194E-02 2.70860E-01-2.87789E-13 1.02226E-13
 -1      1775 2.14338E+01 5.08125E-01-8.61576E-03-8.96703E-02-4.26525E-13 5.63785E-17
 -1      1776 2.13910E+01 1.47174E-01 1.62366E-02 4.19418E-01-2.32375E-13 9.68288E-14
 -1      1777 2.15008E+01 9.48657E-02 6.05343E-03 4.94033E-01-1.77204E-13 2.96143E-14
 -1      1778 2.13708E+01 2.66401E-01-7.80743E-03 3.77323E-01-3.04351E-13-3.54499E-14
 -1      1779 2.15897E+01 5.21128E-02 8.30708E-03 5.64007E-01-1.52924E-13 2.39734E-14
 -1      1780 2.17537E+01 2.43513E-03-3.97684E-04 5.81517E-01-1.40767E-13-2.02056E-14
 -1      1781 2.14816E+01 1.09431E-01-6.39680E-03 6.29459E-01-2.10297E-13-6.23351E-14
 -1      1782 2.18900E+01-4.36256E-02 3.69510E-03 5.79236E-01-1.30168E-13 6.49350E-15
 -1      1783 2.20556E+01-1.00397E-01-6.77606E-03 5.37997E-01-1.00957E-13-2.70999E-14
 -1      1784 2.17091E+01-3.50769E-02-4.69142E-03 7.13309E-01-1.51072E-13-4.91547E-14
 -1      1785 2.22136E+01-1.53412E-01 9.02211E-04 4.57051E-01-6.64239E-14-9.16975E-15
 -1      1786 2.23311E+01-2.17047E-01-1.27777E-02 3.50095E-01-1.97273E-14-1.45747E-14
 -1      1787 2.20018E+01-1.95343E-01-2.48197E-03 6.29935E-01-8.68739E-14-1.02401E-14
 -1      1788 2.24808E+01-2.71484E-01-1.20986E-03 1.83460E-01-3.31263E-14 3.14158E-15
 -1      1789 2.25033E+01-3.29035E-01-1.68389E-02 1.07400E-02-6.62127E-14 1.26903E-14
 -1      1790 2.23044E+01-3.69043E-01 5.18175E-04 3.64569E-01-3.01321E-14-1.42158E-14
 -1      1791 2.26063E+01-3.66753E-01-3.53742E-03-2.32990E-01-1.10921E-13 4.55187E-14
 -1      1792 2.24991E+01-3.89922E-01-1.62119E-02-4.49587E-01-7.64909E-14 2.04880E-14
 -1      1793 2.25514E+01-5.17699E-01 4.66041E-03-8.31730E-02-6.74920E-14 2.31142E-14
 -1      1794 2.25103E+01-3.80471E-01-6.28125E-03-7.25929E-01-1.01068E-13 5.46048E-15
 -1      1795 2.22682E+01-3.32916E-01-8.46489E-03-9.29298E-01-8.46901E-14-6.27762E-14
 -1      1796 2.26636E+01-5.63444E-01 9.46230E-03-6.59316E-01-1.13924E-13 2.60605E-14
 -1      1797 2.21536E+01-2.47140E-01-8.75346E-03-1.14542E+00-6.31053E-14-8.95516E-14
 -1      1798 2.18196E+01-1.09058E-01 5.46882E-03-1.24677E+00-5.22167E-14-1.19563E-13
 -1      1799 2.25656E+01-4.12069E-01 1.26554E-02-1.21660E+00-1.08772E-13 2.50143E-14
 -1      1800 2.15923E+01 5.22212E-02-8.33547E-03-1.28020E+00-5.51373E-14-1.56538E-13
 -1      1801 2.12598E+01 2.47014E-01 1.85266E-02-1.19485E+00-6.94549E-14-1.97222E-13
 -1      1802 2.22350E+01-2.28955E-02 9.41975E-03-1.51520E+00-1.16912E-13-6.07314E-14
 -1      1803 2.10153E+01 4.22021E-01-2.24256E-03-9.64301E-01-6.41024E-14-2.72058E-13
 -1      1804 2.08023E+01 5.77060E-01 2.13435E-02-6.79223E-01-7.20413E-14-2.74256E-13
 -1      1805 2.17722E+01 4.98816E-01-3.78104E-03-1.31322E+00-1.03488E-13-1.23874E-13
 -1      1806 2.06866E+01 6.65186E-01 9.50774E-03-2.35583E-01-1.14918E-13-3.34745E-13
 -1      1807 2.06805E+01 6.83585E-01 1.26465E-02 1.49527E-01-1.64677E-13-3.30590E-13
 -1      1808 2.14156E+01 9.02188E-01-1.87440E-02-5.59789E-01-1.36629E-13-2.07859E-13
 -1      1809 2.07773E+01 6.26422E-01 1.96181E-02 6.18373E-01-1.82552E-13-3.99343E-13
 -1      1810 2.09887E+01 4.96882E-01 3.09236E-04 9.38972E-01-1.53749E-13-4.53021E-13
 -1      1811 2.13969E+01 9.49710E-01-2.07498E-02 4.73510E-01-2.11055E-13-3.79779E-13
 -1      1812 2.12417E+01 3.33971E-01 1.92174E-02 1.22905E+00-1.33399E-13-5.27580E-13
 -1      1813 2.15977E+01 1.39969E-01-7.60868E-03 1.36428E+00-1.20223E-13-5.63889E-13
 -1      1814 2.17447E+01 6.13626E-01-8.22049E-03 1.32549E+00-1.95729E-13-5.00163E-13
 -1      1815 2.18656E+01-3.13256E-02 7.98093E-03 1.38997E+00-9.84670E-14-6.01139E-13
 -1      1816 2.22508E+01-1.87047E-01-8.87589E-03 1.32787E+00-6.32684E-14-6.36702E-13
 -1      1817 2.22584E+01 9.73109E-02 6.31135E-03 1.66314E+00-1.50250E-13-5.63729E-13
 -1      1818 2.24196E+01-2.92162E-01-6.32322E-03 1.14530E+00-8.41237E-14-6.32410E-13
 -1      1819 2.27308E+01-3.59843E-01-6.64260E-03 9.59408E-01-1.30951E-13-6.06681E-13
 -1      1820 2.26850E+01-3.35673E-01 1.25539E-02 1.46644E+00-8.30750E-14-5.38189E-13
 -1      1821 2.27688E+01-3.85146E-01-1.57672E-02 6.88853E-01-1.64774E-13-5.85180E-13
 -1      1822 2.29501E+01-3.75782E-01-4.00164E-03 4.71035E-01-1.08413E-13-6.16163E-13
 -1      1823 2.28859E+01-5.41932E-01 1.09467E-02 9.48921E-01-1.24813E-13-4.87563E-13
 -1      1824 2.28830E+01-3.47874E-01-1.81392E-02 2.13857E-01-1.57548E-14-5.79654E-13
 -1      1825 2.29275E+01-2.98046E-01-2.27326E-03 2.77710E-02 6.85485E-14-6.32794E-13
 -1      1826 2.28587E+01-5.36674E-01 6.52661E-03 3.61143E-01-5.44326E-14-5.08897E-13
 -1      1827 2.27964E+01-2.49407E-01-1.53830E-02-1.64275E-01 5.46906E-14-6.16630E-13
 -1      1828 2.27293E+01-1.91095E-01-1.21868E-03-2.92228E-01 1.21205E-14-6.03078E-13
 -1      1829 2.26677E+01-4.12216E-01 2.64823E-03-1.32150E-01 5.30478E-14-4.42506E-13
 -1      1830 2.25686E+01-1.43678E-01-1.04239E-02-4.08574E-01-7.58074E-15-5.00767E-13
 -1      1831 2.24272E+01-9.45195E-02-5.03179E-04-4.78557E-01 8.05992E-14-4.57766E-13
 -1      1832 2.23839E+01-2.56161E-01 2.38732E-04-4.67381E-01 3.08555E-14-3.73564E-13
 -1      1833 2.22597E+01-5.79289E-02-5.45302E-03-5.30731E-01 3.59257E-14-5.09546E-13
 -1      1834 2.20797E+01-2.35427E-02 6.10159E-05-5.55303E-01 3.84304E-14-4.84441E-13
 -1      1835 2.20615E+01-1.19915E-01-1.04560E-03-6.48593E-01 4.31042E-14-3.67987E-13
 -1      1836 2.19187E+01 6.12312E-04-1.52243E-03-5.61870E-01 7.91640E-14-4.44376E-13
 -1      1837 2.17280E+01 2.11734E-02 5.16101E-04-5.56197E-01 6.59245E-14-4.13025E-13
 -1      1838 2.17358E+01-2.18759E-02-1.67886E-03-7.09829E-01 8.72435E-14-3.97578E-13
 -1      1839 2.15809E+01 3.49203E-02 1.11755E-03-5.34709E-01 9.04831E-14-4.52919E-13
 -1      1840 2.13981E+01 4.49998E-02 8.51834E-04-5.11798E-01 2.76502E-14-4.34500E-13
 -1      1841 2.14283E+01 3.86579E-02-1.96151E-03-6.90799E-01 1.08931E-13-3.94448E-13
 -1      1842 2.12685E+01 5.13079E-02 2.62262E-03-4.75808E-01-5.77842E-14-4.09316E-13
 -1      1843 2.11045E+01 5.44191E-02 1.05885E-03-4.45091E-01 1.70252E-14-3.46778E-13
 -1      1844 2.11507E+01 6.99519E-02-2.04659E-03-6.25460E-01 4.07614E-14-3.54943E-13
 -1      1845 2.09935E+01 5.59662E-02 3.28451E-03-4.03845E-01 2.32884E-14-4.02440E-13
 -1      1846 2.08529E+01 5.49332E-02 1.14675E-03-3.71411E-01 2.54488E-14-3.26045E-13
 -1      1847 2.09086E+01 8.13602E-02-2.00786E-03-5.38672E-01-1.35785E-15-2.65508E-13
 -1      1848 2.07602E+01 5.37322E-02 3.39091E-03-3.30606E-01 4.22822E-14-3.39006E-13
 -1      1849 2.06441E+01 5.05406E-02 1.13963E-03-2.99974E-01 1.10456E-13-3.12385E-13
 -1      1850 2.07034E+01 8.06470E-02-1.88626E-03-4.46759E-01-3.33154E-15-2.99413E-13
 -1      1851 2.05684E+01 4.79565E-02 3.17138E-03-2.62741E-01 5.86894E-14-3.19003E-13
 -1      1852 2.04752E+01 4.38831E-02 1.06663E-03-2.35670E-01 1.49292E-14-2.84922E-13
 -1      1853 2.05337E+01 7.33873E-02-1.71088E-03-3.59394E-01 6.37477E-14-2.23341E-13
 -1      1854 2.04148E+01 4.07745E-02 2.78842E-03-2.03436E-01-1.82353E-13-3.20542E-13
 -1      1855 2.03419E+01 3.65792E-02 9.54629E-04-1.80572E-01-1.93449E-13-3.87167E-13
 -1      1856 2.03965E+01 6.32296E-02-1.50563E-03-2.81595E-01-5.19480E-14-2.90748E-13
 -1      1857 2.02946E+01 3.34491E-02 2.34737E-03-1.53708E-01-6.38053E-14-4.21119E-13
 -1      1858 2.02390E+01 2.95452E-02 8.24954E-04-1.35044E-01-7.21153E-14-2.66573E-13
 -1      1859 2.02879E+01 5.23869E-02-1.29017E-03-2.15351E-01-1.51258E-13-2.07488E-13
 -1      1860 2.02026E+01 2.66630E-02 1.91112E-03-1.13316E-01-7.50763E-14-2.35791E-13
 -1      1861 2.01612E+01 2.32442E-02 6.92748E-04-9.84968E-02 4.26915E-15-1.59652E-13
 -1      1862 2.02036E+01 4.20942E-02-1.07946E-03-1.60822E-01-3.25933E-14-1.75142E-13
 -1      1863 2.01338E+01 2.07327E-02 1.51343E-03-8.13641E-02-2.48202E-14-2.36142E-13
 -1      1864 2.01037E+01 1.78610E-02 5.67731E-04-6.98797E-02 7.04877E-14-2.65425E-13
 -1      1865 2.01395E+01 3.29597E-02-8.83683E-04-1.17158E-01-2.66165E-14-1.81288E-13
 -1      1866 2.00836E+01 1.57557E-02 1.16939E-03-5.66761E-02 1.07935E-13-3.80769E-13
 -1      1867 2.00623E+01 1.34192E-02 4.55414E-04-4.79760E-02 1.59693E-13-4.93045E-13
 -1      1868 2.00917E+01 2.52095E-02-7.08884E-04-8.30241E-02-1.11594E-14-3.62916E-13
 -1      1869 2.00479E+01 1.17065E-02 8.82745E-04-3.80212E-02 2.10655E-13-5.28634E-13
 -1      1870 2.00334E+01 9.85477E-03 3.58283E-04-3.15770E-02 1.34072E-13-4.05565E-13
 -1      1871 2.00570E+01 1.88503E-02-5.57778E-04-5.69269E-02 1.91572E-13-4.57399E-13
 -1      1872 2.00233E+01 8.49625E-03 6.50888E-04-2.42363E-02-7.72708E-14-3.34279E-13
 -1      1873 2.00138E+01 7.06286E-03 2.76789E-04-1.95744E-02-2.21790E-13-4.25171E-13
 -1      1874 2.00324E+01 1.37728E-02-4.30670E-04-3.74041E-02 5.53506E-14-4.61603E-13
 -1      1875 2.00070E+01 6.00933E-03 4.67982E-04-1.42878E-02-4.66154E-14-3.57296E-13
 -1      1876 2.00012E+01 4.92438E-03 2.10120E-04-1.10024E-02-4.96139E-14-1.69489E-13
 -1      1877 2.00156E+01 9.81415E-03-3.26258E-04-2.31237E-02-6.61264E-14-3.41015E-13
 -1      1878 1.99969E+01 4.12471E-03 3.26907E-04-7.29470E-03-2.27402E-13-8.47762E-14
 -1      1879 1.99937E+01 3.32170E-03 1.56734E-04-5.04925E-03-1.66953E-13-9.35287E-14
 -1      1880 2.00045E+01 6.79591E-03-2.42287E-04-1.29298E-02-1.45579E-13-6.07773E-14
 -1      1881 1.99911E+01 2.72735E-03 2.20399E-04-2.52998E-03 1.15650E-14-8.41189E-14
 -1      1882 1.99898E+01 2.14660E-03 1.14735E-04-1.05353E-03 7.84402E-14 5.30959E-14
 -1      1883 1.99977E+01 4.54439E-03-1.76048E-04-5.85379E-03-4.92868E-14 6.00422E-14
 -1      1884 1.99885E+01 1.71391E-03 1.41664E-04 5.89811E-04 2.52456E-14-5.88562E-15
 -1      1885 1.99883E+01 1.30364E-03 8.20876E-05 1.50980E-03 3.31370E-14 6.32152E-14
 -1      1886 1.99939E+01 2.90127E-03-1.24716E-04-1.10773E-03 4.04776E-14 1.08227E-13
 -1      1887 1.99878E+01 9.94475E-04 8.46810E-05 2.52033E-03 5.99220E-14 7.28610E-14
 -1      1888 1.99884E+01 7.10635E-04 5.67444E-05 3.04559E-03 1.57468E-13 9.43261E-14
 -1      1889 1.99921E+01 1.72770E-03-8.55764E-05 1.93196E-03 1.32916E-13 1.88062E-13
 -1      1890 1.99885E+01 4.92163E-04 4.43214E-05 3.60645E-03 2.98082E-13-8.08559E-14
 -1      1891 1.99896E+01 2.97372E-04 3.67134E-05 3.85524E-03 2.40468E-13 1.12179E-14
 -1      1892 1.99918E+01 9.04358E-04-5.61601E-05 3.74458E-03 1.24280E-13 2.51519E-13
 -1      1893 1.99901E+01 1.41197E-04 1.63802E-05 4.09817E-03 2.07059E-13 1.76782E-13
 -1      1894 1.99913E+01 3.26776E-06 2.01406E-05 4.15132E-03 2.74061E-13 4.06237E-13
 -1      1895 1.99925E+01 3.29137E-04-3.43210E-05 4.68504E-03 3.20637E-13 3.10748E-13
 -1      1896 1.99920E+01-1.15719E-04-2.36715E-06 4.16404E-03 1.91255E-13 3.64162E-13
 -1      1897 1.99933E+01-2.25257E-04 5.56098E-06 4.06962E-03 2.45029E-13 3.48785E-13
 -1      1898 1.99936E+01-8.64332E-05-1.82695E-05 5.00177E-03 2.57863E-13 4.94666E-13
 -1      1899 1.99940E+01-3.29767E-04-1.39502E-05 3.90241E-03 2.30129E-13 4.54245E-13
 -1      1900 1.99952E+01-4.35975E-04-6.86577E-06 3.67913E-03 2.57928E-13 4.73247E-13
 -1      1901 1.99950E+01-4.20403E-04-6.49232E-06 4.85262E-03 2.16424E-13 5.55143E-13
 -1      1902 1.99959E+01-5.50261E-04-1.99221E-05 3.35532E-03 2.54135E-13 4.64630E-13
 -1      1903 1.99970E+01-6.70350E-04-1.67468E-05 2.99524E-03 2.15173E-13 4.95923E-13
 -1      1904 1.99964E+01-7.39311E-04 1.30261E-06 4.32097E-03 1.55829E-13 5.28432E-13
 -1      1905 1.99975E+01-7.65594E-04-1.90348E-05 2.54377E-03 5.68023E-14 4.41421E-13
 -1      1906 1.99984E+01-8.95745E-04-2.62191E-05 2.05509E-03-1.16379E-13 3.83670E-13
 -1      1907 1.99986E+01-1.30271E-03 6.76812E-06 2.39333E-03-3.04750E-13 2.79160E-13
 -1      1908 1.99976E+01-1.06277E-03 9.65545E-06 3.47158E-03 8.90124E-14 3.05693E-13
 -1      1909 2.14649E+01 1.79282E-01 1.15787E-02-2.71394E-01 3.03287E-13 5.13971E-13
 -1      1910 2.15085E+01 2.36108E-01 1.84101E-02-6.91044E-02 3.45940E-13 6.57753E-13
 -1      1911 2.15697E+01 3.85300E-01-4.91535E-03 3.93863E-02 4.21193E-13 4.26497E-13
 -1      1912 2.16709E+01 1.12500E-01 9.11027E-03-5.43976E-01 1.77355E-13 3.59007E-13
 -1      1913 2.15316E+01 1.44131E-01 1.54384E-02-4.18295E-01 2.15625E-13 4.58423E-13
 -1      1914 2.15420E+01 2.17670E-01-5.55704E-03-4.37722E-01 2.85912E-13 2.97493E-13
 -1      1915 2.20779E+01 6.03947E-02 4.48022E-03-7.08364E-01 1.13189E-13 2.86254E-13
 -1      1916 2.18312E+01 8.71248E-02 8.80338E-03-6.29004E-01 1.21849E-13 3.32761E-13
 -1      1917 2.17599E+01 1.26644E-01-6.47781E-03-7.30926E-01 1.74994E-13 1.92610E-13
 -1      1918 2.25995E+01-2.97690E-03-3.61374E-04-7.70533E-01 5.73344E-14 2.19626E-13
 -1      1919 2.23011E+01 2.88962E-02 3.44941E-03-7.37488E-01 7.84289E-14 2.64485E-13
 -1      1920 2.21431E+01 4.38769E-02-6.46522E-03-8.91092E-01 1.10802E-13 1.29675E-13
 -1      1921 2.31472E+01-9.28149E-02-5.53406E-03-7.01095E-01 3.91098E-14 2.16378E-13
 -1      1922 2.28530E+01-5.05241E-02-8.27267E-04-7.30918E-01 3.54330E-14 2.41219E-13
 -1      1923 2.26224E+01-6.34755E-02-5.36986E-03-9.10540E-01 4.69297E-14 9.78119E-14
 -1      1924 2.36174E+01-2.12050E-01-1.00632E-02-4.52842E-01 4.69208E-14 1.93147E-13
 -1      1925 2.33928E+01-1.60934E-01-4.49151E-03-5.70766E-01 4.50664E-14 2.21477E-13
 -1      1926 2.31262E+01-2.10899E-01-2.89283E-03-7.47755E-01 6.09296E-14 8.50409E-14
 -1      1927 2.38875E+01-3.37144E-01-1.13941E-02 9.22837E-03 6.23807E-14 1.95517E-13
 -1      1928 2.38058E+01-2.92547E-01-7.24485E-03-2.15736E-01 6.76507E-14 2.02975E-13
 -1      1929 2.35680E+01-3.87617E-01 1.73377E-03-3.53094E-01 8.76729E-14 1.42390E-13
 -1      1930 2.38314E+01-4.02037E-01-7.31595E-03 6.49772E-01-3.46433E-14 1.99549E-13
 -1      1931 2.39556E+01-3.97991E-01-8.94821E-03 3.34825E-01 1.83239E-14 1.98598E-13
 -1      1932 2.38376E+01-5.32711E-01 8.76913E-03 2.83809E-01 3.06352E-14 1.61305E-13
 -1      1933 2.33693E+01-3.08032E-01 1.50946E-03 1.29175E+00 7.59202E-14 2.10248E-13
 -1      1934 2.37183E+01-3.85582E-01-9.08009E-03 9.75802E-01-2.14932E-15 1.85777E-13
 -1      1935 2.38129E+01-5.30254E-01 1.48759E-02 1.05721E+00 1.78642E-14 1.84091E-13
 -1      1936 2.25565E+01 2.28946E-03 7.06380E-03 1.60514E+00 2.09614E-13 1.98858E-13
 -1      1937 2.30649E+01-1.64026E-01-7.07065E-03 1.45179E+00 1.40487E-13 2.22891E-13
 -1      1938 2.34204E+01-2.57492E-01 1.46086E-02 1.68230E+00 1.43111E-13 1.36269E-13
 -1      1939 2.16714E+01 4.27022E-01-1.63126E-03 1.26530E+00 3.80055E-13-3.59643E-14
 -1      1940 2.21708E+01 2.46138E-01-3.82449E-03 1.42710E+00 3.10902E-13 7.44439E-14
 -1      1941 2.27465E+01 2.72342E-01 1.59095E-04 1.75142E+00 3.74830E-13 9.97067E-14
 -1      1942 2.11746E+01 6.96102E-01-1.68467E-02 2.69945E-01 2.74464E-13-1.72677E-13
 -1      1943 2.14436E+01 6.31107E-01 4.22115E-03 7.34552E-01 3.14283E-13-1.04817E-13
 -1      1944 2.21227E+01 7.98144E-01-2.28793E-02 1.00531E+00 3.76237E-13-3.51056E-14
 -1      1945 2.14110E+01 5.91805E-01-2.28966E-02-8.95464E-01 1.25620E-13-3.60358E-13
 -1      1946 2.12898E+01 6.98244E-01 1.00212E-02-3.67064E-01 2.13492E-13-2.72775E-13
 -1      1947 2.19758E+01 9.88490E-01-1.89391E-02-3.01733E-01 2.65708E-13-2.37903E-13
 -1      1948 2.22709E+01 2.06023E-01-1.27920E-02-1.61898E+00-2.94036E-14-5.81084E-13
 -1      1949 2.18057E+01 4.08174E-01 9.67343E-03-1.29792E+00 6.89830E-14-4.69985E-13
 -1      1950 2.24153E+01 6.49009E-01-1.30629E-02-1.47837E+00 1.48258E-13-4.53524E-13
 -1      1951 2.33043E+01-1.79338E-01 5.92257E-03-1.62855E+00 5.03898E-14-7.05460E-13
 -1      1952 2.27005E+01-2.17763E-02 1.50741E-03-1.61860E+00-2.44776E-14-6.61769E-13
 -1      1953 2.31750E+01 7.94178E-02 5.13001E-03-1.94171E+00 5.02541E-14-5.89494E-13
 -1      1954 2.40710E+01-3.71705E-01 1.56144E-02-1.11602E+00-9.67976E-14-5.61115E-13
 -1      1955 2.35613E+01-3.19371E-01-7.90475E-03-1.32655E+00 1.93821E-14-6.12673E-13
 -1      1956 2.38291E+01-3.86891E-01 8.64769E-03-1.63731E+00 1.46948E-14-6.56407E-13
 -1      1957 2.43917E+01-3.69791E-01 1.43221E-02-4.43606E-01-1.54871E-13-5.95912E-13
 -1      1958 2.41077E+01-3.99856E-01-1.37294E-02-7.21783E-01-1.20733E-13-5.15366E-13
 -1      1959 2.41414E+01-5.65563E-01 1.64112E-03-9.19166E-01-9.81420E-14-5.43394E-13
 -1      1960 2.43062E+01-2.66690E-01 8.42424E-03 1.24109E-01-1.00965E-13-3.89053E-13
 -1      1961 2.42619E+01-3.29242E-01-1.40758E-02-1.12615E-01-1.73018E-13-5.08267E-13
 -1      1962 2.41034E+01-5.02597E-01-3.86250E-03-1.71885E-01-1.76527E-13-5.26660E-13
 -1      1963 2.39443E+01-1.47281E-01 2.71623E-03 4.88717E-01-3.96384E-15-2.44519E-13
 -1      1964 2.40842E+01-2.06507E-01-1.07888E-02 3.34283E-01-3.25399E-14-2.70098E-13
 -1      1965 2.38127E+01-3.34932E-01-4.93051E-03 3.88869E-01-9.59476E-14-3.22545E-13
 -1      1966 2.34367E+01-5.29819E-02-8.97296E-04 6.62424E-01 2.47907E-13-3.33872E-13
 -1      1967 2.36864E+01-9.49198E-02-6.45076E-03 5.86268E-01 1.33877E-13-2.15262E-13
 -1      1968 2.33784E+01-1.67326E-01-3.78056E-03 7.14120E-01 1.74962E-13-2.29509E-13
 -1      1969 2.28827E+01 7.02900E-03-2.43628E-03 6.99549E-01-2.18716E-15-4.35379E-13
 -1      1970 2.31779E+01-1.70392E-02-2.56550E-03 6.80053E-01 1.44643E-13-3.22169E-13
 -1      1971 2.28862E+01-4.38697E-02-2.18636E-03 8.43363E-01 1.54550E-13-3.23813E-13
 -1      1972 2.23458E+01 3.86753E-02-2.65207E-03 6.55842E-01-1.39533E-13-3.11667E-13
 -1      1973 2.26420E+01 2.79072E-02 2.62944E-04 6.70458E-01-1.14198E-13-4.29982E-13
 -1      1974 2.23940E+01 3.03539E-02-1.03748E-03 8.41501E-01-8.35470E-14-2.18884E-13
 -1      1975 2.18610E+01 5.12738E-02-2.25407E-03 5.73125E-01-1.58191E-13-1.19949E-13
 -1      1976 2.21324E+01 4.88223E-02 1.99587E-03 6.04699E-01-1.71278E-13-2.06264E-13
 -1      1977 2.19367E+01 6.66788E-02-4.49256E-04 7.66235E-01-1.69251E-13-9.37581E-14
 -1      1978 2.14436E+01 5.27272E-02-1.68128E-03 4.78042E-01-4.94140E-14-8.23373E-14
 -1      1979 2.16784E+01 5.47913E-02 2.84386E-03 5.15500E-01-4.75388E-14-6.36971E-14
 -1      1980 2.15324E+01 7.86862E-02-2.53956E-04 6.58538E-01-1.38679E-13 3.57667E-15
 -1      1981 2.10967E+01 4.84780E-02-1.14236E-03 3.85542E-01-3.89101E-14 1.95185E-14
 -1      1982 2.12916E+01 5.25895E-02 3.08175E-03 4.22569E-01-4.61009E-14-6.09293E-14
 -1      1983 2.11880E+01 7.70730E-02-2.59628E-04 5.43728E-01-4.40589E-14-2.23390E-14
 -1      1984 2.08161E+01 4.18484E-02-7.10843E-04 3.02860E-01 6.58106E-14-8.34378E-15
 -1      1985 2.09731E+01 4.65717E-02 2.95291E-03 3.36315E-01-1.22914E-14 3.58768E-14
 -1      1986 2.09030E+01 6.89040E-02-3.33146E-04 4.35616E-01 8.35768E-15 2.88129E-14
 -1      1987 2.05943E+01 3.46856E-02-3.94990E-04 2.32650E-01 9.15377E-14-5.93562E-14
 -1      1988 2.07177E+01 3.92654E-02 2.63572E-03 2.61299E-01 8.44682E-14-2.64158E-14
 -1      1989 2.06729E+01 5.83519E-02-4.03582E-04 3.40583E-01 1.30845E-13 1.00236E-13
 -1      1990 2.04226E+01 2.79237E-02-1.77919E-04 1.75076E-01 8.86162E-14 2.53185E-14
 -1      1991 2.05174E+01 3.20113E-02 2.24569E-03 1.98741E-01 9.81589E-14 5.38168E-15
 -1      1992 2.04910E+01 4.76563E-02-4.43467E-04 2.60650E-01 4.04319E-14 2.23961E-13
 -1      1993 2.02921E+01 2.19718E-02-3.70214E-05 1.29081E-01-1.03520E-13-5.01036E-14
 -1      1994 2.03636E+01 2.54449E-02 1.85059E-03 1.48114E-01 3.71491E-15-1.25843E-14
 -1      1995 2.03499E+01 3.78924E-02-4.49746E-04 1.95489E-01 8.43304E-14 9.19723E-14
 -1      1996 2.01950E+01 1.69527E-02 4.85808E-05 9.31121E-02 1.33138E-13-1.93202E-13
 -1      1997 2.02477E+01 1.98080E-02 1.48610E-03 1.08093E-01-2.54306E-14-3.75894E-14
 -1      1998 2.02426E+01 2.94821E-02-4.29212E-04 1.43643E-01 5.39640E-14-5.73825E-14
 -1      1999 2.01240E+01 1.28433E-02 9.58217E-05 6.55112E-02 1.26900E-14 1.09255E-14
 -1      2000 2.01622E+01 1.51339E-02 1.16800E-03 7.70811E-02 2.76894E-14-1.00926E-13
 -1      2001 2.01625E+01 2.25022E-02-3.90930E-04 1.03224E-01 4.82079E-14 8.98985E-15
 -1      2002 2.00735E+01 9.55439E-03 1.17466E-04 4.47123E-02 1.08587E-14 1.24846E-13
 -1      2003 2.01004E+01 1.13551E-02 9.00482E-04 5.34896E-02 6.52717E-14 1.74376E-13
 -1      2004 2.01040E+01 1.68612E-02-3.43268E-04 7.22930E-02-6.68134E-14 1.56132E-13
 -1      2005 2.00385E+01 6.97238E-03 1.22724E-04 2.93257E-02 2.96194E-13-6.32883E-15
 -1      2006 2.00568E+01 8.36250E-03 6.81609E-04 3.58660E-02 1.57883E-13 6.02683E-14
 -1      2007 2.00621E+01 1.23979E-02-2.92681E-04 4.90464E-02 2.36368E-13 2.32865E-13
 -1      2008 2.00150E+01 4.98106E-03 1.18057E-04 1.81658E-02 8.51927E-14-8.49664E-14
 -1      2009 2.00271E+01 6.03553E-03 5.06459E-04 2.29481E-02 2.50172E-13-6.45729E-15
 -1      2010 2.00330E+01 8.93147E-03-2.43525E-04 3.18969E-02 2.65344E-13 2.28773E-13
 -1      2011 2.00000E+01 3.47186E-03 1.07891E-04 1.02493E-02-2.05628E-13-1.28234E-13
 -1      2012 2.00075E+01 4.25751E-03 3.68967E-04 1.36742E-02-1.16699E-13-1.28273E-13
 -1      2013 2.00135E+01 6.28618E-03-1.98413E-04 1.94970E-02-4.23674E-14 1.09059E-13
 -1      2014 1.99912E+01 2.34848E-03 9.51648E-05 4.77832E-03-1.05264E-13-5.64700E-14
 -1      2015 1.99954E+01 2.92273E-03 2.62931E-04 7.17336E-03-2.17593E-13-1.51100E-13
 -1      2016 2.00010E+01 4.30300E-03-1.58675E-04 1.07326E-02-2.53957E-13-3.40805E-14
 -1      2017 1.99867E+01 1.52813E-03 8.17318E-05 1.11809E-03-4.21779E-13-1.29361E-13
 -1      2018 1.99886E+01 1.93911E-03 1.82538E-04 2.74569E-03-3.06623E-13-7.19196E-14
 -1      2019 1.99936E+01 2.84366E-03-1.24758E-04 4.70251E-03-3.04402E-13-8.33632E-14
 -1      2020 1.99850E+01 9.41060E-04 6.86654E-05-1.22694E-03 5.82420E-14 3.41234E-14
 -1      2021 1.99855E+01 1.22844E-03 1.22600E-04-1.60618E-04-2.06852E-13-8.07201E-14
 -1      2022 1.99897E+01 1.79104E-03-9.65384E-05 6.91989E-04-2.52185E-13-1.75490E-13
 -1      2023 1.99853E+01 5.29193E-04 5.64694E-05-2.63520E-03 2.96829E-13-2.01659E-13
 -1      2024 1.99848E+01 7.25256E-04 7.86142E-05-1.97176E-03 2.37213E-13-3.48857E-14
 -1      2025 1.99883E+01 1.04751E-03-7.35375E-05-1.85452E-03 2.80205E-13-2.84797E-14
 -1      2026 1.99868E+01 2.44329E-04 4.52131E-05-3.38770E-03-7.62680E-14 7.11735E-15
 -1      2027 1.99857E+01 3.75259E-04 4.67525E-05-3.00894E-03 1.30291E-13 4.82318E-16
 -1      2028 1.99885E+01 5.32416E-04-5.50961E-05-3.35858E-03 3.96635E-14 1.86244E-13
 -1      2029 1.99889E+01 4.57651E-05 3.46463E-05-3.68426E-03 1.44446E-13-1.45637E-13
 -1      2030 1.99875E+01 1.33086E-04 2.38215E-05-3.50601E-03-4.07639E-14-1.49595E-13
 -1      2031 1.99896E+01 1.78777E-04-4.05040E-05-4.13000E-03 9.30851E-14 1.86820E-13
 -1      2032 1.99913E+01-1.02455E-04 2.43994E-05-3.65552E-03-6.28110E-15-2.04469E-13
 -1      2033 1.99898E+01-4.03635E-05 7.24794E-06-3.62335E-03 2.01408E-13-1.11845E-13
 -1      2034 1.99914E+01-7.03717E-05-2.89764E-05-4.38477E-03 1.57516E-13-4.86334E-14
 -1      2035 1.99938E+01-2.33374E-04 1.47955E-05-3.37086E-03 9.40688E-14-2.52148E-14
 -1      2036 1.99923E+01-1.80590E-04-4.72862E-06-3.45783E-03-1.07781E-13-1.28831E-13
 -1      2037 1.99933E+01-2.65858E-04-1.95629E-05-4.25865E-03-8.85258E-14-1.42098E-13
 -1      2038 1.99960E+01-3.76611E-04 6.89069E-06-2.84699E-03-1.99847E-13 2.25119E-13
 -1      2039 1.99947E+01-3.19103E-04-1.23411E-05-3.05085E-03-9.41459E-15 1.29645E-13
 -1      2040 1.99952E+01-4.52104E-04-1.04339E-05-3.81691E-03-6.60075E-14-8.37696E-15
 -1      2041 1.99978E+01-5.57724E-04-3.66084E-06-2.05999E-03 2.03967E-13 4.39799E-13
 -1      2042 1.99968E+01-4.79915E-04-1.36298E-05-2.40351E-03 6.30637E-14 4.50901E-13
 -1      2043 1.99970E+01-6.70204E-04-2.47418E-06-3.07913E-03 1.26168E-14 3.95561E-13
 -1      2044 1.99989E+01-7.25092E-04-1.55617E-05-1.28557E-03 1.19665E-13 2.48692E-13
 -1      2045 1.99982E+01-6.53077E-04-1.20466E-05-1.75246E-03 2.19891E-13 3.55742E-13
 -1      2046 1.99982E+01-8.93563E-04 5.92521E-06-2.29026E-03 3.01563E-13 6.34156E-13
 -1      2047 1.99990E+01-1.10952E-03 4.43634E-06-1.57926E-03 1.88687E-13 6.34692E-13
 -1      2048 1.99999E+01-5.47432E-03 8.26097E-06-2.95198E-03 9.34515E-14-2.09781E-13
 -1      2049 1.99998E+01-4.53313E-03-6.30743E-06-2.98666E-03 1.40881E-13-3.48573E-13
 -1      2050 1.99996E+01-3.82493E-03 2.81147E-06-2.92645E-03 6.50866E-14-4.66910E-13
 -1      2051 1.99994E+01-2.92383E-03-1.50367E-05-2.74066E-03 1.12907E-13-7.01567E-14
 -1      2052 1.99996E+01-3.73262E-03-4.22805E-06-3.68268E-03-3.48676E-14-3.33498E-13
 -1      2053 1.99993E+01-2.40118E-03-1.57498E-06-2.43437E-03 2.50527E-13 4.75076E-13
 -1      2054 1.99991E+01-1.63601E-03-1.70915E-05-2.03290E-03 2.19982E-13 6.80347E-13
 -1      2055 1.99988E+01-1.53873E-03-1.35645E-05-2.43859E-03 2.84729E-13 6.44833E-13
 -1      2056 1.99992E+01-2.54397E-03-7.31671E-07-3.26445E-03-1.62952E-15 1.32417E-13
 -1      2057 2.00002E+01-6.95325E-03 1.47065E-05-2.60084E-03-1.90595E-13-9.08153E-13
 -1      2058 2.00001E+01-6.10366E-03 7.77471E-06-2.79280E-03-8.23895E-14-4.50801E-13
 -1      2059 2.00001E+01-5.06111E-03-8.93118E-06-3.56009E-03-1.32829E-13-5.33762E-13
 -1      2060 2.00004E+01-8.16786E-03 2.08106E-05-1.96728E-03-1.75004E-13-2.46593E-13
 -1      2061 2.00003E+01-7.48233E-03 1.81207E-05-2.27405E-03-8.86751E-14-3.79496E-13
 -1      2062 2.00005E+01-6.22365E-03-1.37191E-05-3.01651E-03-6.13275E-14-6.26726E-13
 -1      2063 2.00005E+01-8.97754E-03 2.54001E-05-1.15360E-03-1.70683E-13-5.20379E-14
 -1      2064 2.00004E+01-8.54092E-03 2.50482E-05-1.52914E-03-7.81334E-14-7.41953E-14
 -1      2065 2.00007E+01-7.13132E-03-1.73049E-05-2.16289E-03 1.01707E-13-1.54401E-13
 -1      2066 2.00005E+01-9.31558E-03 2.79857E-05-2.45957E-04-2.30681E-13 1.36160E-14
 -1      2067 2.00005E+01-9.16861E-03 2.81724E-05-6.53431E-04-2.52201E-13-9.34357E-14
 -1      2068 2.00008E+01-7.70055E-03-1.92487E-05-1.11772E-03-8.70736E-14-6.55353E-14
 -1      2069 2.00005E+01-9.15626E-03 2.80566E-05 6.79880E-04 5.04779E-14 7.83490E-15
 -1      2070 2.00005E+01-9.31191E-03 2.80399E-05 2.73295E-04-7.45776E-14-6.13192E-15
 -1      2071 2.00009E+01-7.88978E-03-1.98035E-05 1.72279E-05-1.92528E-13 1.46221E-13
 -1      2072 2.00004E+01-8.51430E-03 2.50753E-05 1.55084E-03-2.00491E-13 1.36748E-13
 -1      2073 2.00005E+01-8.95855E-03 2.51950E-05 1.17792E-03-2.47294E-14 2.26833E-13
 -1      2074 2.00008E+01-7.68637E-03-1.90224E-05 1.14974E-03-1.05464E-13 1.99264E-14
 -1      2075 2.00003E+01-7.46656E-03 1.79092E-05 2.27722E-03-2.51671E-13-3.61367E-13
 -1      2076 2.00004E+01-8.14426E-03 2.05558E-05 1.97875E-03-2.77677E-13-2.10376E-13
 -1      2077 2.00007E+01-7.11178E-03-1.70680E-05 2.18047E-03-5.75230E-14-6.63922E-14
 -1      2078 2.00001E+01-6.07246E-03 7.06205E-06 2.79234E-03-1.12413E-13 5.94614E-14
 -1      2079 2.00002E+01-6.93658E-03 1.44386E-05 2.60116E-03-2.26298E-13 1.36559E-13
 -1      2080 2.00005E+01-6.20632E-03-1.37802E-05 3.01936E-03-1.03740E-13-1.76089E-13
 -1      2081 1.99998E+01-4.49057E-03-6.68219E-06 2.97982E-03-1.78535E-13-1.64390E-13
 -1      2082 1.99999E+01-5.43117E-03 8.10354E-06 2.94912E-03-1.43494E-13-2.27572E-13
 -1      2083 2.00001E+01-5.03111E-03-8.00455E-06 3.55816E-03-8.02578E-14-1.37206E-13
 -1      2084 1.99994E+01-2.86923E-03-1.24077E-05 2.74942E-03-5.50161E-13-4.77756E-14
 -1      2085 1.99996E+01-3.78676E-03 5.91324E-06 2.91601E-03-3.96537E-13-5.28313E-14
 -1      2086 1.99996E+01-3.69545E-03-1.15602E-06 3.66829E-03-3.44713E-15-3.57523E-13
 -1      2087 1.04875E+01-5.30713E+00-1.79545E-01 6.28082E+00 7.22977E-13 8.10255E-13
 -1      2088 6.79694E+00-6.91598E+00-4.47963E-01 5.00497E+00 5.89195E-13 8.32140E-13
 -1      2089 3.82387E-01-6.75801E+00-3.37851E-01 6.97951E-01 2.17021E-13 1.16812E-12
 -1      2090 2.72643E-01-7.37385E+00-4.35736E-01-1.03260E+00-2.86993E-14 1.07542E-12
 -1      2091 3.77408E+00-6.78863E+00-3.73340E-01 4.19863E+00 5.78204E-13 9.73999E-13
 -1      2092 1.75917E+00-7.16432E+00-3.95846E-01 2.94294E+00 2.62762E-13 1.03512E-12
 -1      2093 7.28442E+00-5.68360E+00-1.51514E-01 5.70663E+00 6.49480E-14 8.32390E-13
 -1      2094 1.98014E+01-3.48736E+00-3.95229E-03 6.68705E+00 7.61613E-13 9.22373E-13
 -1      2095 1.49850E+01-5.29969E+00-3.02855E-01 6.02668E+00 7.01883E-13 7.81319E-13
 -1      2096 2.88897E+01-4.94370E-01 1.62664E-01 5.34429E+00 9.07385E-13 6.28941E-13
 -1      2097 2.38054E+01-2.54736E+00-1.77084E-01 5.22143E+00 7.84928E-13 7.80154E-13
 -1      2098 1.95742E+01 4.13070E+00-2.75019E-02-1.05564E+00-3.75369E-13-7.10945E-13
 -1      2099 1.98868E+01 4.04720E+00-2.05098E-02-1.30228E+00-4.42211E-13-6.25142E-13
 -1      2100 2.02928E+01 3.33366E+00-1.75914E-02-1.24667E+00-4.75734E-13-5.29670E-13
 -1      2101 1.96319E+01 3.77291E+00-6.02694E-03-8.60359E-01-3.67454E-13-6.94854E-13
 -1      2102 3.81186E+01 5.88173E+00 1.35249E-01 5.44526E-01 1.22918E-12-3.99125E-14
 -1      2103 3.66546E+01 4.75695E+00 1.70540E-01 1.56955E+00 1.18400E-12 2.52243E-13
 -1      2104 3.83229E+01 7.42494E+00 1.50078E-01-2.87374E-01 1.24051E-12-2.50522E-13
 -1      2105 3.80171E+01 7.17904E+00 1.22079E-01 2.11723E-01 1.28880E-12-7.31082E-14
 -1      2106 3.79567E+01 5.69657E+00 2.15097E-01-1.49067E+00 1.10417E-12-4.90274E-13
 -1      2107 3.84453E+01 6.66079E+00 1.16398E-01-3.41866E-01 1.12321E-12-2.15106E-13
 -1      2108 3.37428E+01 2.71444E+00 4.39318E-02-2.83795E+00 1.07729E-12-7.08433E-13
 -1      2109 3.72806E+01 4.18015E+00 2.50715E-01-2.33159E+00 1.06432E-12-5.73597E-13
 -1      2110 3.47463E+01 5.07255E+00 2.91877E-01 4.60280E-01 9.68836E-13 1.63203E-14
 -1      2111 2.66211E+01-1.22850E+00-1.11942E-01-5.08782E+00 1.00986E-12-9.32698E-13
 -1      2112 3.13266E+01 4.13296E-01 1.39873E-01-4.56832E+00 9.83325E-13-7.74714E-13
 -1      2113 1.89397E+01-4.30080E+00-2.24267E-01-6.00302E+00 7.94365E-13-9.52127E-13
 -1      2114 2.37554E+01-2.21398E+00 9.44166E-02-6.46722E+00 1.00397E-12-9.75053E-13
 -1      2115 2.69835E+01-3.45997E+00 1.01721E-01-4.18097E+00 4.56191E-13-3.34510E-13
 -1      2116 1.00136E+01-6.35431E+00-3.46249E-01-5.86979E+00 5.24414E-13-1.11274E-12
 -1      2117 1.44294E+01-4.78406E+00-6.32418E-02-6.94745E+00 6.49480E-13-1.13955E-12
 -1      2118 3.95995E+00-7.19413E+00-4.05394E-01-4.16403E+00 2.71005E-13-1.23826E-12
 -1      2119 6.83107E+00-5.97988E+00-1.90392E-01-5.50375E+00 5.96190E-13-1.23647E-12
 -1      2120 1.10396E+01-5.60349E+00-6.63644E-02-6.72161E+00-3.59712E-14-1.02496E-12
 -1      2121 4.30608E-01-7.13386E+00-3.76908E-01-1.02228E+00-1.41748E-13-1.38090E-12
 -1      2122 1.31307E+00-7.19071E+00-4.03735E-01-2.54345E+00 2.83606E-13-1.39766E-12
 -1      2123 1.29260E+00-7.33478E+00-4.21595E-01 2.65134E+00-5.63549E-13-1.29308E-12
 -1      2124 3.47082E-01-7.28790E+00-4.01341E-01 1.16965E+00-1.66894E-13-1.28031E-12
 -1      2125 6.05590E+00-6.17281E+00-2.78713E-01 5.33858E+00-8.91620E-13-1.27151E-12
 -1      2126 3.36290E+00-7.46671E+00-4.76315E-01 3.97768E+00-5.81590E-13-1.23479E-12
 -1      2127 1.40796E+01-4.73772E+00-1.57701E-01 6.85458E+00-8.86402E-13-1.14547E-12
 -1      2128 9.32183E+00-6.37817E+00-4.48478E-01 5.71811E+00-9.23484E-13-1.17403E-12
 -1      2129 9.84175E+00-5.73446E+00-1.23130E-01 6.56436E+00-3.50553E-13-1.09121E-12
 -1      2130 2.40385E+01-1.85113E+00 1.09502E-01 6.53274E+00-1.17695E-12-1.15236E-12
 -1      2131 1.93748E+01-3.92172E+00-1.31045E-01 6.24268E+00-9.85156E-13-1.06043E-12
 -1      2132 3.14601E+01 6.50609E-01 3.37497E-02 3.79381E+00-9.89708E-13-8.35776E-13
 -1      2133 2.73143E+01-7.91561E-01-1.33750E-02 4.95746E+00-1.14939E-12-1.06715E-12
 -1      2134 3.85764E+01 5.34143E+00 4.77023E-01 2.38687E+00-1.15802E-12-8.18290E-13
 -1      2135 3.42178E+01 3.65687E+00 8.35582E-02 2.39275E+00-1.10244E-12-7.04603E-13
 -1      2136 4.03087E+01 7.05356E+00 3.51908E-01 5.07589E-01-1.18000E-12-6.62775E-13
 -1      2137 3.92442E+01 6.34083E+00 2.75790E-01 1.73316E+00-1.15258E-12-8.52152E-13
 -1      2138 3.52729E+01 6.16676E+00 2.52961E-01-3.69062E-02-1.08524E-12-4.11032E-13
 -1      2139 4.00476E+01 6.79329E+00 3.55801E-01-1.22138E+00-1.08041E-12-4.91829E-13
 -1      2140 4.04579E+01 7.21805E+00 3.38126E-01 5.14360E-02-1.22719E-12-7.47107E-13
 -1      2141 3.64567E+01 4.69711E+00 1.98690E-01-2.94173E+00-9.17294E-13-8.65974E-15
 -1      2142 3.97057E+01 5.70140E+00 4.24521E-01-2.12506E+00-9.42024E-13-3.10474E-13
 -1      2143 3.02163E+01 1.31096E+00 2.55763E-02-4.77431E+00-8.18123E-13 3.24962E-13
 -1      2144 3.45356E+01 2.82616E+00 3.01492E-01-4.18256E+00-7.98344E-13 1.59650E-13
 -1      2145 2.29587E+01-2.41869E+00-1.54935E-01-5.61856E+00-4.10005E-13 3.88134E-13
 -1      2146 2.76818E+01-4.31543E-01 1.82930E-01-5.83917E+00-6.33604E-13 3.20299E-13
 -1      2147 1.39888E+01-5.04255E+00-3.35842E-01-6.14210E+00-3.31180E-13 7.72132E-13
 -1      2148 1.87252E+01-3.20711E+00-1.90770E-02-6.92957E+00-3.72369E-13 7.28195E-13
 -1      2149 6.63552E+00-6.74725E+00-4.13494E-01-5.18090E+00-2.26152E-13 6.64760E-13
 -1      2150 1.01434E+01-5.16737E+00-1.86356E-01-6.30224E+00-4.06231E-13 7.60614E-13
 -1      2151 1.36568E+00-7.63044E+00-4.72126E-01-2.65223E+00 1.67644E-14 9.50517E-13
 -1      2152 3.40864E+00-6.44993E+00-2.99440E-01-4.21970E+00-1.99951E-13 9.07274E-13
 -1      2153 3.50659E+01 2.53611E+00 1.61325E-01 3.00022E+00 9.76941E-13 3.84470E-13
 -1      2154 3.11786E+01 1.02066E+00-4.70151E-03 3.96497E+00 1.00397E-12 5.75984E-13
 -1      2155 3.04194E+01-1.29446E+00 1.76388E-01 2.31316E+00 5.41969E-13 3.55271E-15
 -1      2156 2.17718E+01 1.09313E+00-1.81556E-02-1.11803E+00-5.13530E-13 2.81303E-13
 -1      2157 3.39665E+01 3.08574E+00 2.30390E-01 1.37390E-01 9.17544E-13-1.81521E-13
 -1      2158 2.15796E+01 1.33074E+00-2.10674E-02-1.06909E+00-5.44157E-13 1.97585E-15
 -1      2159 2.08360E+00-5.54873E+00-1.98877E-01 2.09639E+00 1.32006E-13 1.16535E-12
 -1      2160 2.80715E+00-3.17493E+00 5.92704E-02 1.22753E+00 5.21735E-14 1.22186E-12
 -1      2161 3.99591E+00-3.84026E+00-6.27594E-02 3.61068E+00-3.60545E-14 1.03084E-12
 -1      2162 1.52762E+01-5.75399E+00-4.65885E-02 6.68396E+00 2.10942E-13 6.03630E-13
 -1      2163 1.99992E+01-2.27319E-03-1.35282E-05 2.69933E-03-4.27719E-13 1.55082E-13
 -1      2164 2.11824E+00-4.93803E+00-1.89500E-01-2.36330E+00 1.88349E-13 1.11544E-12
 -1      2165 2.41197E+01-4.52188E+00 5.08462E-02 5.01776E+00 2.62568E-13 3.49221E-13
 -1      2166 6.79187E+00-5.63409E+00-1.70866E-01-5.67486E+00 1.91069E-13 7.26752E-13
 -1      2167 1.45454E+01-5.59120E+00-7.16617E-02-6.85435E+00 1.62925E-13 4.68674E-13
 -1      2168 2.30095E+01-4.30109E+00 4.22369E-02-5.59510E+00 1.27787E-13 4.51583E-14
 -1      2169 2.96359E+01-1.14355E+00 1.31731E-01-3.10671E+00-3.41033E-13-1.86851E-13
 -1      2170 3.42990E+01 3.23112E+00 2.67655E-01-1.33273E+00-7.81653E-13-3.54050E-13
 -1      2171 3.64522E+01 7.98538E+00 3.21121E-01 5.32657E-02-1.24079E-12-5.34545E-13
 -1      2172 3.26578E+01 1.61031E+00 1.24852E-01 1.90973E+00-8.91072E-13-5.52225E-13
 -1      2173 3.06010E+01-4.16300E-01 1.04150E-01 1.19127E+00-6.67202E-13-1.82798E-13
 -1      2174 3.21257E+01 2.16053E+00-1.52176E-01-3.00726E-01-7.98750E-13-1.50435E-13
 -1      2175 1.82180E+01-4.94338E+00-4.27507E-02 6.57189E+00-6.27831E-13-9.70307E-13
 -1      2176 1.72291E+01-5.44080E+00 1.28821E-01 6.84307E+00-1.85074E-13-7.13662E-13
 -1      2177 2.16920E+01-5.43814E+00-1.80553E-01 5.91827E+00-2.63706E-13-6.22419E-13
 -1      2178 3.85578E+00-5.44483E+00-2.12997E-01 4.28554E+00-2.00506E-13-1.35614E-12
 -1      2179 4.50910E+00-5.16817E+00-1.58383E-01-4.41022E+00-7.98250E-14-1.38844E-12
 -1      2180 1.92122E+01-5.56801E+00-5.86948E-03-6.38799E+00 1.25122E-13-6.66495E-13
 -1      2181 3.23206E+01 4.59488E-01 1.68152E-01-1.50124E+00 7.48811E-13-2.07445E-13
 -1      2182 3.46776E+01 6.90420E+00 1.73703E-01-5.65471E-01 1.27826E-12-1.43219E-13
 -1      2183 3.47966E+01 7.48357E+00 1.88485E-01 1.75277E-01 1.18983E-12 3.15026E-14
 -1      2184 1.50763E+00-5.09162E+00-2.05870E-01 5.20301E-02-9.70196E-14-1.50624E-12
 -1      2185 2.70403E+01-2.92610E+00 1.37401E-01 4.20688E+00-6.86950E-13-5.81535E-13
 -1      2186 3.62882E+01 6.92282E+00 3.52100E-01-7.13256E-02-1.12238E-12-6.55198E-13
 -1      2187 2.14883E+01 5.98154E-01 8.20198E-03-7.75688E-02 4.08923E-13 1.82803E-13
 -1      2188 2.15881E+01 7.72691E-01 2.05703E-02 2.54752E-01 4.63971E-13 2.36306E-13
 -1      2189 1.86238E+01 3.98026E+00-1.15437E-02-1.41797E-01-9.35970E-14-7.89954E-13
 -1      2190 1.88177E+01 3.90163E+00-5.30504E-03-2.46443E-01-1.63393E-13-7.79859E-13
 -1      2191 1.90431E+01 3.74040E+00-1.41357E-02-3.34297E-01-2.13710E-13-7.60668E-13
 -1      2192 1.93043E+01 3.62120E+00-7.88252E-03-4.71599E-01-2.83780E-13-7.27052E-13
 -1      2193 1.90390E+01 3.49644E+00 1.31602E-03-1.75705E-01-1.77344E-13-7.13685E-13
 -1      2194 1.82842E+01 4.18408E+00-7.48094E-03 9.77856E-02 1.01509E-13-7.84978E-13
 -1      2195 1.82996E+01 4.17670E+00-6.07412E-03 3.09886E-02 3.98280E-14-7.93714E-13
 -1      2196 1.84041E+01 4.13675E+00-6.29016E-03 1.94877E-01 1.98715E-13-7.71950E-13
 -1      2197 1.83188E+01 4.16720E+00-8.20154E-03 1.25823E-01 1.40189E-13-7.82658E-13
 -1      2198 1.83650E+01 3.91963E+00 2.94026E-03 9.94111E-02 1.16754E-13-7.46050E-13
 -1      2199 1.87120E+01 3.98446E+00-6.19425E-03 3.16367E-01 3.05432E-13-7.35135E-13
 -1      2200 1.85338E+01 4.05420E+00-1.09890E-02 2.31291E-01 2.46748E-13-7.56757E-13
 -1      2201 1.85401E+01 3.82671E+00 3.06207E-03 1.53299E-01 2.12284E-13-7.24030E-13
 -1      2202 1.92001E+01 3.71340E+00-8.03620E-03 4.92073E-01 4.22724E-13-6.30863E-13
 -1      2203 1.89335E+01 3.83258E+00-1.42804E-02 3.76400E-01 3.48665E-13-6.94446E-13
 -1      2204 1.89147E+01 3.60780E+00 2.83500E-03 2.37644E-01 3.22688E-13-6.61795E-13
 -1      2205 1.98372E+01 3.30416E+00-1.32274E-02 7.29912E-01 5.13733E-13-4.94068E-13
 -1      2206 1.94999E+01 3.48943E+00-1.78502E-02 5.80943E-01 4.53198E-13-5.65131E-13
 -1      2207 1.94694E+01 3.25509E+00 3.28950E-03 3.71441E-01 4.27233E-13-5.55484E-13
 -1      2208 2.05943E+01 2.71278E+00-2.34589E-02 1.00396E+00 5.93754E-13-2.93711E-13
 -1      2209 2.02018E+01 2.99929E+00-2.06088E-02 8.36744E-01 5.35493E-13-4.12925E-13
 -1      2210 2.01609E+01 2.75646E+00 5.77417E-03 5.45959E-01 4.98583E-13-4.10864E-13
 -1      2211 2.15147E+01 3.76784E-01 8.52261E-03-5.74614E-01 2.64693E-13 1.20918E-13
 -1      2212 2.14798E+01 4.72088E-01 2.02463E-02-3.69653E-01 3.40014E-13 1.81443E-13
 -1      2213 2.13368E+01 7.67967E-01-5.58611E-03-2.05260E-01 4.02636E-13 1.58228E-14
 -1      2214 2.13840E+01 9.11133E-01 1.50564E-02-2.95514E-01-4.26200E-13-1.11887E-13
 -1      2215 2.12902E+01 6.87509E-01-1.93946E-03 3.62448E-02-3.80339E-13-1.27579E-13
 -1      2216 3.17260E+01 3.00861E+00-1.82652E-01-1.45226E+00 8.90926E-13-4.29462E-13
 -1      2217 3.11349E+01 7.99011E-01-7.56716E-02-7.78009E-01 6.05266E-13-3.56937E-13
 -1      2218 2.13092E+01 5.26980E-01 1.68840E-02 2.90341E-01-3.24928E-13-1.01327E-13
 -1      2219 2.13054E+01 3.86259E-01 9.62087E-04 4.81135E-01-2.56737E-13-1.22664E-13
 -1      2220 2.11523E+01 8.26586E-01-3.99861E-03 1.45289E-01-3.54483E-13-1.97909E-13
 -1      2221 2.13556E+01 2.73808E-01 1.26000E-02 6.42873E-01-2.20866E-13-9.98099E-14
 -1      2222 2.14241E+01 1.57839E-01-9.37972E-04 7.38571E-01-1.87943E-13-1.30104E-13
 -1      2223 2.11852E+01 4.50531E-01-6.77345E-03 5.97378E-01-2.42671E-13-1.82917E-13
 -1      2224 2.15275E+01 5.13174E-02 9.65794E-03 8.14310E-01-1.48466E-13-1.07192E-13
 -1      2225 2.16417E+01-7.01327E-02-4.57008E-03 8.24742E-01-1.11987E-13-8.21357E-14
 -1      2226 2.13163E+01 1.46347E-01-7.60270E-03 8.61673E-01-1.69018E-13-1.68353E-13
 -1      2227 2.18037E+01-1.89109E-01 8.54736E-03 8.09377E-01-8.15168E-14-6.45293E-14
 -1      2228 2.19353E+01-3.27468E-01-9.23167E-03 7.29463E-01-4.23110E-14-7.48043E-14
 -1      2229 2.15579E+01-1.65955E-01-8.08997E-03 9.42036E-01-1.02567E-13-1.39967E-13
 -1      2230 2.21530E+01-4.59730E-01 8.11236E-03 6.09037E-01-4.13922E-14-5.93137E-14
 -1      2231 2.22721E+01-6.04684E-01-1.39641E-02 4.31740E-01-2.39028E-14-7.96879E-14
 -1      2232 2.19092E+01-5.14145E-01-8.13888E-03 8.20431E-01-5.70081E-14-1.09369E-13
 -1      2233 2.25270E+01-7.26965E-01 6.53406E-03 1.93958E-01-2.39184E-14-7.49261E-14
 -1      2234 2.26008E+01-8.36374E-01-1.65376E-02-7.30699E-02-3.61646E-14-4.77952E-14
 -1      2235 2.23528E+01-8.70251E-01-6.60981E-03 4.68679E-01-1.62296E-14-1.38669E-13
 -1      2236 2.28433E+01-8.93019E-01 1.15333E-03-4.15508E-01-8.83308E-14-3.55910E-14
 -1      2237 2.28410E+01-8.90489E-01-1.32169E-02-7.27454E-01-1.12234E-13-3.92078E-14
 -1      2238 2.28331E+01-1.12616E+00-1.72390E-03-1.20367E-01-7.46638E-14-1.18289E-13
 -1      2239 2.29870E+01-8.02365E-01-8.49244E-03-1.10229E+00-1.07908E-13 1.66412E-14
 -1      2240 2.28934E+01-6.07291E-01-8.38771E-04-1.35908E+00-9.19490E-14 1.90837E-14
 -1      2241 2.32329E+01-1.09514E+00 6.68342E-03-8.71728E-01-8.25667E-14-6.93948E-14
 -1      2242 2.28588E+01-3.20760E-01-2.02899E-02-1.61341E+00-7.83219E-14 4.04832E-14
 -1      2243 2.26971E+01 7.86253E-02 1.70920E-02-1.67442E+00-1.09826E-13 4.31779E-14
 -1      2244 2.33934E+01-5.90005E-01 1.46787E-02-1.56349E+00-8.91307E-14 4.24761E-14
 -1      2245 2.24812E+01 5.12389E-01-2.59112E-02-1.61201E+00-1.46400E-13 3.79154E-14
 -1      2246 2.23191E+01 9.63591E-01 2.40330E-02-1.36576E+00-1.39751E-13 1.17016E-14
 -1      2247 2.32168E+01 3.91744E-01 9.16870E-03-1.82127E+00-1.29463E-13 1.38425E-13
 -1      2248 2.20924E+01 1.32242E+00-1.72396E-02-9.03376E-01-2.21377E-13-1.30434E-13
 -1      2249 2.20210E+01 1.55388E+00 1.02400E-02-3.98387E-01-2.68792E-13-2.29452E-13
 -1      2250 2.28361E+01 1.47969E+00-9.98772E-03-1.29455E+00-2.62395E-13-4.71906E-14
 -1      2251 2.19974E+01 1.59762E+00 5.07956E-03 2.78715E-01-2.71384E-13-3.17902E-13
 -1      2252 2.20648E+01 1.44673E+00-1.27982E-02 8.15820E-01-2.80952E-13-3.59131E-13
 -1      2253 2.26111E+01 2.02950E+00-2.43063E-02-7.31998E-02-3.37320E-13-2.32984E-13
 -1      2254 2.22751E+01 1.14334E+00 2.12335E-02 1.35090E+00-3.05140E-13-4.09827E-13
 -1      2255 2.24485E+01 7.21612E-01-2.67528E-02 1.66784E+00-2.50079E-13-4.70080E-13
 -1      2256 2.27815E+01 1.67377E+00-1.52346E-02 1.23868E+00-3.39870E-13-3.05863E-13
 -1      2257 2.26974E+01 2.84411E-01 1.76621E-02 1.82551E+00-1.97693E-13-5.18194E-13
 -1      2258 2.28941E+01-1.44486E-01-2.33776E-02 1.83108E+00-1.40088E-13-5.31192E-13
 -1      2259 2.31839E+01 6.62021E-01 4.13080E-03 1.94792E+00-2.40646E-13-5.13445E-13
 -1      2260 2.29862E+01-4.75916E-01 1.95531E-03 1.63458E+00-7.28464E-14-5.55501E-13
 -1      2261 2.31245E+01-7.21492E-01-1.12156E-02 1.41118E+00-7.84971E-14-5.14739E-13
 -1      2262 2.34546E+01-3.91526E-01 1.31589E-02 1.85416E+00-1.35656E-13-5.19669E-13
 -1      2263 2.30207E+01-8.52973E-01-1.16298E-02 1.04735E+00-1.02487E-13-4.83511E-13
 -1      2264 2.30661E+01-8.94495E-01-2.99310E-04 7.38184E-01-6.25949E-14-4.05223E-13
 -1      2265 2.33880E+01-1.01773E+00 9.55000E-03 1.22500E+00-9.16097E-14-4.77246E-13
 -1      2266 2.28417E+01-8.67365E-01-1.68882E-02 3.77307E-01-2.60113E-14-3.89028E-13
 -1      2267 2.28002E+01-7.81884E-01 4.91919E-03 9.14879E-02 2.07599E-14-3.48493E-13
 -1      2268 2.30414E+01-1.14838E+00 9.57714E-04 4.58354E-01-4.48810E-14-2.99816E-13
 -1      2269 2.25418E+01-6.77012E-01-1.55747E-02-1.81651E-01 3.60354E-14-3.22679E-13
 -1      2270 2.24390E+01-5.47389E-01 6.12693E-03-3.91772E-01 7.15138E-14-3.50456E-13
 -1      2271 2.25715E+01-9.55741E-01-4.67547E-03-1.91825E-01 2.00972E-14-2.68655E-13
 -1      2272 2.22000E+01-4.28995E-01-1.11868E-02-5.59813E-01 7.15920E-14-3.66535E-13
 -1      2273 2.20622E+01-3.07673E-01 5.28813E-03-6.85639E-01 5.84656E-14-3.37055E-13
 -1      2274 2.21018E+01-6.42777E-01-6.17549E-03-6.34019E-01 5.53556E-14-3.12344E-13
 -1      2275 2.18623E+01-2.08716E-01-6.47217E-03-7.64594E-01 1.23794E-14-2.56998E-13
 -1      2276 2.17102E+01-1.17090E-01 3.84250E-03-8.19682E-01 3.56250E-14-2.82103E-13
 -1      2277 2.16908E+01-3.42482E-01-5.47928E-03-8.75983E-01 5.64289E-14-1.83995E-13
 -1      2278 2.15500E+01-4.74165E-02-2.63347E-03-8.34896E-01 8.74191E-14-2.38946E-13
 -1      2279 2.13979E+01 1.20023E-02 2.50767E-03-8.39626E-01 1.10622E-13-3.02490E-13
 -1      2280 2.13518E+01-1.11622E-01-4.19960E-03-9.63287E-01 8.06881E-14-1.39654E-13
 -1      2281 2.12710E+01 5.45580E-02 5.04890E-05-8.14725E-01 7.33987E-14-3.44765E-13
 -1      2282 2.11279E+01 8.74949E-02 1.52752E-03-7.88247E-01 1.26106E-13-3.42951E-13
 -1      2283 2.10779E+01 4.08375E-02-3.07144E-03-9.46369E-01 6.81229E-14-2.31734E-13
 -1      2284 2.10271E+01 1.09370E-01 1.70149E-03-7.41514E-01 1.03145E-13-3.94529E-13
 -1      2285 2.08981E+01 1.23503E-01 8.95132E-04-6.98720E-01 4.18153E-14-3.00905E-13
 -1      2286 2.08568E+01 1.27482E-01-2.28078E-03-8.67549E-01 6.98234E-14-2.88116E-13
 -1      2287 2.08174E+01 1.31396E-01 2.56213E-03-6.42860E-01 1.44058E-14-2.83412E-13
 -1      2288 2.07052E+01 1.33535E-01 5.21231E-04-5.94047E-01 4.44005E-14-3.00427E-13
 -1      2289 2.06772E+01 1.66643E-01-1.77959E-03-7.57949E-01 4.25155E-14-3.20535E-13
 -1      2290 2.06403E+01 1.32872E-01 2.87474E-03-5.37181E-01 9.76113E-15-3.12475E-13
 -1      2291 2.05453E+01 1.28138E-01 3.13721E-04-4.88802E-01 6.04785E-14-2.63396E-13
 -1      2292 2.05309E+01 1.75042E-01-1.46634E-03-6.38526E-01 3.39235E-14-2.90332E-13
 -1      2293 2.04931E+01 1.22799E-01 2.83905E-03-4.35667E-01 4.80513E-14-2.08396E-13
 -1      2294 2.04148E+01 1.14679E-01 2.03761E-04-3.91347E-01 3.10048E-14-2.26446E-13
 -1      2295 2.04116E+01 1.65458E-01-1.25586E-03-5.22286E-01 4.45986E-14-1.48860E-13
 -1      2296 2.03729E+01 1.07223E-01 2.60384E-03-3.44355E-01 1.15232E-14-2.59370E-13
 -1      2297 2.03098E+01 9.79242E-02 1.46843E-04-3.05797E-01-9.97683E-14-2.22199E-13
 -1      2298 2.03149E+01 1.46723E-01-1.09417E-03-4.16507E-01-2.61635E-14-7.51997E-14
 -1      2299 2.02766E+01 8.99248E-02 2.27212E-03-2.65847E-01-1.96888E-13-2.16025E-13
 -1      2300 2.02268E+01 8.07447E-02 1.16754E-04-2.33544E-01-1.07766E-13-9.38859E-14
 -1      2301 2.02373E+01 1.24503E-01-9.53531E-04-3.24585E-01-1.04745E-13-1.45140E-13
 -1      2302 2.02007E+01 7.30990E-02 1.91076E-03-2.00610E-01-4.01271E-14-2.36121E-13
 -1      2303 2.01621E+01 6.47294E-02 9.91695E-05-1.74341E-01-2.50714E-14-1.76759E-13
 -1      2304 2.01756E+01 1.02181E-01-8.22768E-04-2.47426E-01-1.01498E-13-1.63598E-13
 -1      2305 2.01419E+01 5.78930E-02 1.56013E-03-1.47880E-01-7.31668E-14-1.35539E-13
 -1      2306 2.01128E+01 5.06420E-02 8.68715E-05-1.27049E-01-9.48838E-14-2.26163E-13
 -1      2307 2.01274E+01 8.16037E-02-6.99294E-04-1.84447E-01-2.54316E-14-2.22900E-13
 -1      2308 2.00974E+01 4.47967E-02 1.24214E-03-1.06266E-01-1.15352E-13-2.58645E-13
 -1      2309 2.00757E+01 3.87418E-02 7.66164E-05-9.01186E-02-4.34409E-14-3.47672E-13
 -1      2310 2.00902E+01 6.36334E-02-5.84145E-04-1.34264E-01-1.58250E-13-2.09451E-13
 -1      2311 2.00642E+01 3.39079E-02 9.66669E-04-7.41382E-02 5.50084E-15-3.66637E-13
 -1      2312 2.00486E+01 2.89967E-02 6.71758E-05-6.18876E-02 1.48583E-13-4.56190E-13
 -1      2313 2.00620E+01 4.85306E-02-4.79272E-04-9.51391E-02-8.26035E-14-2.45096E-13
 -1      2314 2.00401E+01 2.51059E-02 7.36043E-04-4.98535E-02 1.36470E-13-4.95016E-13
 -1      2315 2.00291E+01 2.12198E-02 5.82464E-05-4.07580E-02 2.10354E-14-3.80793E-13
 -1      2316 2.00411E+01 3.62124E-02-3.86245E-04-6.52642E-02 1.59157E-13-3.74874E-13
 -1      2317 2.00230E+01 1.81612E-02 5.48220E-04-3.18873E-02 8.31191E-14-2.32159E-13
 -1      2318 2.00155E+01 1.51546E-02 4.98698E-05-2.52861E-02 6.35998E-14-8.31229E-14
 -1      2319 2.00259E+01 2.64155E-02-3.05792E-04-4.29208E-02 2.02227E-13-1.88280E-13
 -1      2320 2.00113E+01 1.28020E-02 3.98851E-04-1.88961E-02-3.47734E-14-6.37854E-14
 -1      2321 2.00064E+01 1.05254E-02 4.21517E-05-1.42245E-02-1.65771E-13 1.53302E-14
 -1      2322 2.00151E+01 1.87981E-02-2.37810E-04-2.65688E-02 4.24070E-14-2.56522E-14
 -1      2323 2.00036E+01 8.75339E-03 2.82610E-04-9.73982E-03-5.44427E-14 5.29900E-14
 -1      2324 2.00006E+01 7.06597E-03 3.51374E-05-6.53016E-03 1.02397E-13 1.41761E-13
 -1      2325 2.00077E+01 1.30008E-02-1.81557E-04-1.48823E-02-3.88948E-14 6.32683E-14
 -1      2326 1.99988E+01 5.75863E-03 1.94018E-04-3.47989E-03 5.35046E-14 1.88671E-13
 -1      2327 1.99972E+01 4.53433E-03 2.87630E-05-1.35581E-03 9.85999E-14 1.50080E-13
 -1      2328 2.00028E+01 8.68009E-03-1.35878E-04-6.75660E-03 1.25573E-13 3.58256E-13
 -1      2329 1.99962E+01 3.58872E-03 1.27919E-04 6.35252E-04 1.39430E-13 2.43598E-13
 -1      2330 1.99955E+01 2.71801E-03 2.28401E-05 1.96845E-03 2.23164E-13 3.28176E-13
 -1      2331 1.99997E+01 5.52532E-03-9.94095E-05-1.29601E-03 2.06870E-13 4.59598E-13
 -1      2332 1.99950E+01 2.04500E-03 7.97255E-05 3.19105E-03 1.06170E-13 2.68786E-13
 -1      2333 1.99950E+01 1.43425E-03 1.70680E-05 3.95692E-03 9.58464E-14 2.37684E-13
 -1      2334 1.99980E+01 3.26465E-03-7.07541E-05 2.20587E-03 7.76205E-14 4.13746E-13
 -1      2335 1.99948E+01 9.57311E-04 4.55574E-05 4.62892E-03 3.14395E-13 2.83950E-13
 -1      2336 1.99951E+01 5.26605E-04 1.10743E-05 4.98992E-03 3.80892E-13 2.24748E-13
 -1      2337 1.99972E+01 1.66438E-03-4.86125E-05 4.28994E-03 1.67735E-13 4.18616E-13
 -1      2338 1.99952E+01 1.79681E-04 2.22622E-05 5.26718E-03 2.24988E-13 1.48037E-13
 -1      2339 1.99957E+01-1.39902E-04 4.41980E-06 5.33372E-03 2.64749E-13 3.02853E-13
 -1      2340 1.99971E+01 5.24320E-04-3.18866E-05 5.35521E-03 2.76151E-13 2.76150E-13
 -1      2341 1.99959E+01-4.14267E-04 7.34204E-06 5.31924E-03 3.09240E-13 3.27388E-13
 -1      2342 1.99966E+01-6.80034E-04-1.85220E-06 5.15764E-03 1.58707E-13 4.17568E-13
 -1      2343 1.99973E+01-3.27644E-04-1.95703E-05 5.68051E-03 2.38902E-13 3.02047E-13
 -1      2344 1.99969E+01-9.37942E-04-3.06555E-06 4.91542E-03 1.67345E-13 3.93904E-13
 -1      2345 1.99975E+01-1.18667E-03-8.28898E-06 4.55445E-03 8.61335E-14 4.11733E-13
 -1      2346 1.99978E+01-1.03055E-03-1.00718E-05 5.44444E-03 1.37249E-13 2.04840E-13
 -1      2347 1.02365E+01-4.75217E+00-1.65305E-02 6.51338E+00-1.44884E-13 5.22665E-13
 -1      2348 7.32354E+00-4.31407E+00 7.19137E-02 5.30979E+00-2.00007E-13 7.12486E-13
 -1      2349 2.20203E+01 7.32158E-02-3.57508E-05-1.08008E+00 1.07548E-13 1.04517E-14
 -1      2350 2.18160E+01 1.56432E-01 8.52774E-03-1.02283E+00 1.39353E-13 3.21798E-14
 -1      2351 2.24348E+01-1.30438E-01-6.60347E-03-1.09532E+00 5.08504E-14-4.05776E-14
 -1      2352 2.22018E+01-1.69353E-02 6.41977E-03-1.12196E+00 7.28307E-14 8.97698E-15
 -1      2353 2.18056E+01 3.57076E-02-8.41208E-03-1.27604E+00 1.17741E-13-8.64881E-14
 -1      2354 2.29062E+01-4.05287E-01-1.45566E-02-8.95667E-01 6.21690E-14-2.93127E-14
 -1      2355 2.26844E+01-2.54123E-01 5.93077E-03-1.03240E+00 3.72354E-14-4.11594E-14
 -1      2356 2.22190E+01-2.72757E-01-9.72031E-03-1.27309E+00 6.51344E-14-1.21931E-13
 -1      2357 2.33833E+01-7.25838E-01-2.17631E-02-4.24503E-01 5.38718E-14 4.50271E-14
 -1      2358 2.32196E+01-5.58889E-01 5.81075E-03-6.93013E-01 5.37461E-14 3.78044E-14
 -1      2359 2.27580E+01-6.72443E-01-1.05799E-02-1.01769E+00 2.24913E-14-9.66524E-14
 -1      2360 2.37851E+01-9.75012E-01-2.33033E-02 3.29653E-01-1.14500E-14 1.22847E-13
 -1      2361 2.37320E+01-8.67671E-01 4.20219E-03-5.63623E-02 2.47979E-14 9.83554E-14
 -1      2362 2.33990E+01-1.10059E+00-8.13857E-03-4.44033E-01-3.40743E-15 2.72066E-14
 -1      2363 2.39852E+01-9.25030E-01-1.43705E-02 1.23650E+00 7.72238E-14 1.24585E-13
 -1      2364 2.40820E+01-1.00578E+00-4.60889E-03 8.28745E-01 1.51502E-14 1.60287E-13
 -1      2365 2.40486E+01-1.34614E+00 2.33625E-03 4.57105E-01 1.50062E-14 1.08080E-13
 -1      2366 2.38610E+01-3.51989E-01 5.87988E-03 1.93971E+00 2.22106E-13 5.80577E-14
 -1      2367 2.40993E+01-7.20676E-01-2.04619E-02 1.70318E+00 1.30518E-13 1.13453E-13
 -1      2368 2.45010E+01-1.10134E+00 1.07468E-02 1.49859E+00 1.36226E-13 1.19606E-13
 -1      2369 2.34104E+01 6.85644E-01 1.74952E-02 1.91510E+00 4.40536E-13 5.67602E-14
 -1      2370 2.37032E+01 1.27206E-01-3.57868E-02 2.07431E+00 3.29938E-13 1.16848E-13
 -1      2371 2.45313E+01-1.26543E-01 8.60756E-03 2.20811E+00 2.44851E-13 1.10623E-13
 -1      2372 2.29115E+01 1.62558E+00-4.88893E-03 8.80126E-01 3.85074E-13 2.60209E-14
 -1      2373 2.31183E+01 1.22861E+00-3.74677E-02 1.47477E+00 4.56017E-13 7.62116E-14
 -1      2374 2.41498E+01 1.30834E+00-1.50173E-02 1.94392E+00 4.20313E-13 1.71731E-13
 -1      2375 2.29251E+01 1.65635E+00-2.01655E-02-7.35934E-01 3.36932E-13-2.35811E-13
 -1      2376 2.28669E+01 1.77141E+00-4.31480E-03-4.05990E-02 4.21127E-13-8.59694E-14
 -1      2377 2.37536E+01 2.30562E+00-3.56562E-02 4.54824E-01 4.86857E-13 1.38535E-14
 -1      2378 2.34036E+01 8.38159E-01-4.13907E-02-1.97118E+00 1.61791E-13-4.23795E-13
 -1      2379 2.31251E+01 1.34973E+00 1.08372E-02-1.51832E+00 2.63178E-13-3.26158E-13
 -1      2380 2.38819E+01 1.96755E+00-3.82161E-02-1.27733E+00 3.94621E-13-2.74258E-13
 -1      2381 2.40317E+01-2.41450E-01-2.86932E-02-2.18199E+00 6.56109E-14-5.77821E-13
 -1      2382 2.37097E+01 2.68646E-01 1.49169E-02-2.18977E+00 1.01134E-13-4.83945E-13
 -1      2383 2.43843E+01 7.80128E-01-4.05270E-03-2.36195E+00 2.00652E-13-4.19918E-13
 -1      2384 2.43352E+01-8.83165E-01-8.79664E-03-1.55800E+00-8.40101E-14-5.04140E-13
 -1      2385 2.41047E+01-6.34410E-01-2.05464E-03-1.88086E+00 1.09951E-14-5.56324E-13
 -1      2386 2.46875E+01-5.74765E-01 1.40299E-02-2.19087E+00 4.35420E-14-4.44220E-13
 -1      2387 2.42188E+01-9.82362E-01 1.53913E-03-6.35250E-01-1.69368E-13-3.86271E-13
 -1      2388 2.41452E+01-9.90216E-01-1.92128E-02-1.04319E+00-1.43728E-13-4.75247E-13
 -1      2389 2.45094E+01-1.27965E+00 6.77384E-03-1.28121E+00-1.46504E-13-3.63608E-13
 -1      2390 2.38266E+01-7.58826E-01 5.21600E-03 1.74897E-01-2.77117E-13-2.81604E-13
 -1      2391 2.38979E+01-8.95798E-01-2.36199E-02-1.64917E-01-2.18947E-13-3.75051E-13
 -1      2392 2.39818E+01-1.29618E+00-4.00969E-03-2.54279E-01-2.67080E-13-3.15257E-13
 -1      2393 2.33224E+01-4.51865E-01 4.99344E-03 7.12180E-01-7.64150E-14-1.99245E-13
 -1      2394 2.34927E+01-6.07315E-01-1.87725E-02 4.93250E-01-2.17139E-13-2.68715E-13
 -1      2395 2.33412E+01-9.50894E-01-8.20338E-03 5.37383E-01-2.53999E-13-1.52472E-13
 -1      2396 2.28062E+01-1.90391E-01 3.46329E-03 9.82989E-01 1.80951E-13-1.14472E-13
 -1      2397 2.30292E+01-3.12916E-01-1.15412E-02 8.77539E-01 6.92480E-14-1.69315E-13
 -1      2398 2.27389E+01-5.38768E-01-8.17127E-03 1.01093E+00-1.30907E-14-1.44418E-13
 -1      2399 2.23252E+01-1.39273E-02 2.14516E-03 1.05692E+00 5.42808E-14-1.65842E-14
 -1      2400 2.25653E+01-9.23471E-02-5.05981E-03 1.03362E+00 1.90099E-13-9.30495E-14
 -1      2401 2.22269E+01-2.04056E-01-6.12299E-03 1.21471E+00 1.47145E-13 1.43386E-14
 -1      2402 2.18956E+01 8.58189E-02 1.37298E-03 1.00923E+00-9.72572E-14-2.71723E-14
 -1      2403 2.21294E+01 4.38633E-02-4.57309E-04 1.03588E+00-1.37364E-14-3.95287E-14
 -1      2404 2.18047E+01 1.50395E-02-4.17771E-03 1.23428E+00 7.08480E-14 1.22599E-13
 -1      2405 2.15216E+01 1.30932E-01 1.00959E-03 8.98221E-01-2.32083E-13-2.01627E-14
 -1      2406 2.17352E+01 1.13781E-01 2.34877E-03 9.50033E-01-1.93925E-13-9.35992E-16
 -1      2407 2.14561E+01 1.35288E-01-2.85520E-03 1.14577E+00-1.42823E-13 1.60765E-14
 -1      2408 2.12024E+01 1.42262E-01 8.58423E-04 7.62772E-01-1.04538E-13-2.78444E-14
 -1      2409 2.13890E+01 1.39929E-01 3.76438E-03 8.23408E-01-1.26824E-13-8.02862E-14
 -1      2410 2.11661E+01 1.86816E-01-2.10106E-03 1.00440E+00-1.39808E-13-5.25331E-14
 -1      2411 2.09349E+01 1.35115E-01 7.91978E-04 6.26065E-01-5.33098E-14 6.00651E-14
 -1      2412 2.10926E+01 1.40585E-01 4.23826E-03 6.85981E-01-9.36647E-14-1.07713E-14
 -1      2413 2.09242E+01 1.96548E-01-1.70445E-03 8.45904E-01-7.87959E-14-6.51376E-14
 -1      2414 2.07148E+01 1.19337E-01 7.44026E-04 5.00364E-01-9.06176E-15 1.14830E-13
 -1      2415 2.08444E+01 1.28222E-01 4.14478E-03 5.54678E-01-5.17240E-15 1.36098E-13
 -1      2416 2.07231E+01 1.83817E-01-1.48570E-03 6.91202E-01-8.59344E-14 1.55433E-13
 -1      2417 2.05369E+01 1.00693E-01 6.88502E-04 3.91055E-01 1.04246E-13 1.68554E-13
 -1      2418 2.06410E+01 1.10483E-01 3.75233E-03 4.37771E-01 8.68173E-14 1.74671E-13
 -1      2419 2.05575E+01 1.60919E-01-1.33531E-03 5.51143E-01-1.77541E-14 1.88089E-13
 -1      2420 2.03956E+01 8.22820E-02 6.20925E-04 2.99524E-01 2.63956E-14 3.01932E-13
 -1      2421 2.04774E+01 9.16581E-02 3.23376E-03 3.38285E-01 9.82651E-14 3.41102E-13
 -1      2422 2.04228E+01 1.34996E-01-1.19876E-03 4.30262E-01 9.06564E-14 2.95888E-13
 -1      2423 2.02853E+01 6.56047E-02 5.44953E-04 2.24995E-01 1.42601E-13 6.99127E-14
 -1      2424 2.03484E+01 7.39552E-02 2.69127E-03 2.56302E-01 1.17264E-13 1.53163E-13
 -1      2425 2.03150E+01 1.09851E-01-1.05911E-03 3.29403E-01 1.11200E-13 2.23689E-13
 -1      2426 2.02006E+01 5.12458E-02 4.66101E-04 1.65660E-01 5.48502E-14 7.22041E-14
 -1      2427 2.02484E+01 5.83585E-02 2.18074E-03 1.90401E-01 3.54637E-14 7.20660E-14
 -1      2428 2.02300E+01 8.72897E-02-9.16625E-04 2.47407E-01 1.18141E-13 2.13591E-13
 -1      2429 2.01368E+01 3.92941E-02 3.89482E-04 1.19334E-01-7.45645E-14 3.16263E-13
 -1      2430 2.01723E+01 4.51691E-02 1.72869E-03 1.38514E-01 8.27625E-14 2.82390E-13
 -1      2431 2.01642E+01 6.79803E-02-7.76095E-04 1.82160E-01-4.32982E-14 3.79132E-13
 -1      2432 2.00897E+01 2.95934E-02 3.18781E-04 8.38118E-02-7.08410E-14 3.36454E-13
 -1      2433 2.01155E+01 3.43328E-02 1.34398E-03 9.84156E-02-9.67821E-14 2.30658E-13
 -1      2434 2.01140E+01 5.19759E-02-6.43208E-04 1.31218E-01-4.98772E-14 6.70215E-13
 -1      2435 2.00556E+01 2.18810E-02 2.56103E-04 5.70547E-02 2.91460E-13 3.09341E-13
 -1      2436 2.00739E+01 2.56290E-02 1.02591E-03 6.79759E-02 7.26821E-14 2.50961E-13
 -1      2437 2.00765E+01 3.90298E-02-5.22525E-04 9.21482E-02 4.91814E-14 3.16029E-13
 -1      2438 2.00316E+01 1.58611E-02 2.02274E-04 3.72665E-02 1.44262E-13 3.38440E-13
 -1      2439 2.00442E+01 1.87721E-02 7.68920E-04 4.52814E-02 3.33399E-13 4.28568E-13
 -1      2440 2.00491E+01 2.87679E-02-4.16581E-04 6.27093E-02 2.01322E-13 3.08430E-13
 -1      2441 2.00152E+01 1.12439E-02 1.57244E-04 2.29195E-02-1.10311E-13 2.55446E-13
 -1      2442 2.00236E+01 1.34657E-02 5.65323E-04 2.86812E-02 3.56835E-14 2.90798E-13
 -1      2443 2.00294E+01 2.07807E-02-3.26175E-04 4.09302E-02 1.00958E-13 3.90107E-13
 -1      2444 2.00045E+01 7.76393E-03 1.20401E-04 1.27475E-02-2.30927E-13 2.62041E-14
 -1      2445 2.00097E+01 9.42990E-03 4.06882E-04 1.67927E-02-1.76990E-13 1.80676E-13
 -1      2446 2.00158E+01 1.46717E-02-2.50873E-04 2.51343E-02-4.66093E-14 1.06560E-13
 -1      2447 1.99978E+01 5.18833E-03 9.07992E-05 5.72370E-03-4.34788E-13 9.92263E-14
 -1      2448 2.00009E+01 6.41464E-03 2.85677E-04 8.48406E-03-3.13132E-13 3.48765E-14
 -1      2449 2.00066E+01 1.00807E-02-1.89461E-04 1.39315E-02-2.64793E-13 1.79647E-13
 -1      2450 1.99942E+01 3.31787E-03 6.73066E-05 1.03211E-03-9.61397E-14 2.04664E-14
 -1      2451 1.99956E+01 4.20333E-03 1.94542E-04 2.84791E-03-3.64492E-13 2.28474E-14
 -1      2452 2.00008E+01 6.69266E-03-1.40317E-04 6.19438E-03-3.94055E-13 8.64089E-14
 -1      2453 1.99925E+01 1.98491E-03 4.87100E-05-1.96246E-03 2.25951E-13 3.40002E-13
 -1      2454 1.99930E+01 2.61235E-03 1.27243E-04-8.28671E-04 1.37140E-13 1.39519E-13
 -1      2455 1.99974E+01 4.23900E-03-1.01658E-04 1.02681E-03-5.99683E-14 4.82737E-14
 -1      2456 1.99923E+01 1.04971E-03 3.38012E-05-3.74209E-03-2.51805E-14 3.23036E-13
 -1      2457 1.99920E+01 1.48804E-03 7.84751E-05-3.09323E-03 1.05111E-13 3.42793E-13
 -1      2458 1.99956E+01 2.49393E-03-7.16763E-05-2.26780E-03 1.62878E-13 3.56797E-13
 -1      2459 1.99928E+01 3.95679E-04 2.13676E-05-4.66095E-03 2.65555E-13 1.75876E-13
 -1      2460 1.99922E+01 7.02615E-04 4.38587E-05-4.35465E-03 1.27778E-13 2.40949E-13
 -1      2461 1.99950E+01 1.26941E-03-4.87213E-05-4.21708E-03 1.56386E-13 1.69797E-13
 -1      2462 1.99939E+01-7.69715E-05 1.03041E-05-4.96581E-03 1.42126E-13 8.80918E-14
 -1      2463 1.99931E+01 1.48249E-04 1.99219E-05-4.90616E-03 2.64446E-13 1.45281E-13
 -1      2464 1.99952E+01 4.07448E-04-3.15265E-05-5.20785E-03 2.54130E-13 2.85596E-13
 -1      2465 1.99952E+01-4.55026E-04 3.64635E-07-4.81214E-03-1.87291E-13 8.29703E-14
 -1      2466 1.99943E+01-2.68795E-04 3.79205E-06-4.94350E-03-1.53441E-13 8.63206E-14
 -1      2467 1.99958E+01-2.25998E-04-1.87003E-05-5.50883E-03-5.01898E-15 2.96541E-13
 -1      2468 1.99966E+01-8.16307E-04-8.03857E-06-4.28033E-03-1.04925E-13 3.46777E-13
 -1      2469 1.99957E+01-6.34802E-04-7.52212E-06-4.58210E-03-1.17658E-13 2.66645E-13
 -1      2470 1.99966E+01-7.41825E-04-7.78286E-06-5.29369E-03-2.58700E-13 3.73210E-13
 -1      2471 1.99979E+01-1.20341E-03-1.67027E-05-3.40531E-03-3.97604E-14 4.74119E-13
 -1      2472 1.99971E+01-9.99524E-04-1.09878E-05-3.86309E-03-1.59343E-13 3.69198E-13
 -1      2473 1.99976E+01-1.25639E-03 1.82825E-06-4.66025E-03-1.20127E-13 4.49619E-13
 -1      2474 1.99983E+01-1.38575E-03-1.10599E-05-2.77973E-03 2.70436E-13 5.45950E-13
 -1      2475 2.00010E+01-5.52296E-03 1.73372E-05-3.18788E-03 1.70694E-14-3.17523E-13
 -1      2476 2.00008E+01-5.02733E-03 3.88803E-06-3.56778E-03-1.06157E-13-7.80635E-13
 -1      2477 2.00013E+01-6.15224E-03 1.80680E-05-2.15977E-03 2.10156E-13-2.55151E-14
 -1      2478 2.00012E+01-5.79853E-03 1.10066E-05-2.66891E-03 1.66034E-13-4.10451E-14
 -1      2479 2.00015E+01-4.69913E-03-9.20768E-06-3.23906E-03 1.97681E-13-7.63864E-14
 -1      2480 1.99998E+01-3.59770E-03 1.53559E-05-4.21501E-03-8.89751E-14-3.90176E-13
 -1      2481 1.99994E+01-2.95049E-03-1.97531E-05-4.16536E-03-1.42856E-13-3.46259E-13
 -1      2482 2.00005E+01-4.64974E-03 1.59535E-05-3.91608E-03-3.80646E-13-7.97879E-13
 -1      2483 2.00002E+01-4.06343E-03-5.62648E-06-4.10285E-03-2.16458E-13-4.19456E-13
 -1      2484 2.00000E+01-3.27974E-03-8.05282E-06-4.63960E-03-1.75048E-13-5.03093E-13
 -1      2485 2.00009E+01-4.07788E-03-8.00362E-06-4.15113E-03-2.36788E-13-5.90892E-13
 -1      2486 2.00015E+01-6.49899E-03 1.84149E-05-9.54319E-04-8.55868E-14-5.51304E-14
 -1      2487 2.00014E+01-6.31648E-03 1.57674E-05-1.53592E-03 2.36678E-14-3.08672E-13
 -1      2488 2.00018E+01-5.12034E-03-9.61408E-06-2.03945E-03 2.23461E-13-2.68450E-13
 -1      2489 2.00015E+01-6.54787E-03 1.78584E-05 3.22135E-04 1.30478E-14 1.36512E-13
 -1      2490 2.00015E+01-6.55121E-03 1.80547E-05-2.81751E-04-1.10021E-13 2.48787E-13
 -1      2491 2.00020E+01-5.32856E-03-9.54695E-06-6.80843E-04 1.24758E-13-2.00018E-15
 -1      2492 2.00014E+01-6.30005E-03 1.57776E-05 1.57196E-03 8.45172E-14 2.45612E-13
 -1      2493 2.00015E+01-6.48887E-03 1.84624E-05 9.93126E-04-1.04993E-14 1.31663E-13
 -1      2494 2.00020E+01-5.32198E-03-9.40700E-06 7.26391E-04 1.38465E-13 2.15557E-13
 -1      2495 2.00011E+01-5.78252E-03 1.11938E-05 2.67814E-03-8.68454E-15-2.94563E-13
 -1      2496 2.00013E+01-6.13421E-03 1.80330E-05 2.18154E-03 6.60234E-14-2.23994E-14
 -1      2497 2.00018E+01-5.10429E-03-9.26210E-06 2.06768E-03 1.16625E-13 1.24456E-13
 -1      2498 2.00007E+01-5.01196E-03 2.06224E-06 3.57162E-03 2.86432E-14 2.18132E-14
 -1      2499 2.00010E+01-5.50581E-03 1.74074E-05 3.19421E-03 1.60886E-14-3.22003E-13
 -1      2500 2.00015E+01-4.68107E-03-8.78564E-06 3.24750E-03 1.16509E-13-2.88031E-13
 -1      2501 2.00001E+01-4.03737E-03-8.84686E-06 4.09066E-03 1.66184E-14-3.49539E-13
 -1      2502 2.00005E+01-4.62111E-03 1.59221E-05 3.91283E-03 1.36557E-14-1.07877E-14
 -1      2503 2.00008E+01-4.04943E-03-1.10484E-05 4.15922E-03 1.09594E-13-7.63497E-15
 -1      2504 1.99994E+01-2.91384E-03-1.59286E-05 4.13038E-03-7.27094E-14-3.64984E-13
 -1      2505 1.99998E+01-3.56229E-03 1.22144E-05 4.21238E-03 2.58145E-14-3.92535E-13
 -1      2506 2.00001E+01-3.23654E-03 3.24446E-06 4.62194E-03 7.37000E-14-2.96103E-13
 -1      2507 1.99987E+01-2.08134E-03-7.13637E-06 3.31986E-03-1.83633E-13 2.19349E-13
 -1      2508 3.09689E+00-3.03215E+00 8.40039E-02-1.49414E+00 1.97037E-13 1.05932E-12
 -1      2509 4.12515E+00-3.48636E+00 3.06914E-02-3.68119E+00 2.53658E-13 8.71914E-13
 -1      2510 2.17016E+01 2.27241E-01 4.93409E-03-8.99994E-01 1.75028E-13 3.93550E-14
 -1      2511 2.15625E+01 3.00707E-01 1.31365E-02-7.73116E-01 2.05950E-13 8.89588E-14
 -1      2512 2.15202E+01 2.68788E-01-7.56737E-03-1.08669E+00 1.83600E-13-7.97242E-14
 -1      2513 1.83464E+01-5.56737E+00-5.47081E-02 6.51455E+00-1.39555E-13 3.06033E-13
 -1      2514 1.42707E+01-5.38418E+00 5.40150E-02 6.56141E+00-1.60510E-13 4.14994E-13
 -1      2515 6.93800E+00-4.05841E+00 6.62238E-02-5.34015E+00 4.10894E-13 6.02685E-13
 -1      2516 1.01984E+01-4.60571E+00 1.23706E-02-6.68195E+00 3.30402E-13 4.64490E-13
 -1      2517 2.12962E+01 1.98681E+00-1.05119E-02-1.23401E+00-5.48827E-13-2.01717E-13
 -1      2518 2.12974E+01 1.25481E+00-6.48177E-03-6.05753E-01-4.95000E-13-1.60957E-13
 -1      2519 2.11075E+01 1.45670E+00 3.85630E-03-4.67978E-01-4.55548E-13-2.61687E-13
 -1      2520 2.08688E+01 2.45782E+00-2.07483E-03-1.13132E+00-5.28694E-13-3.53132E-13
 -1      2521 2.61810E+01-4.55689E+00-8.48473E-02 3.72959E+00 6.50036E-14-9.55902E-14
 -1      2522 2.27082E+01-5.40268E+00 3.95509E-02 4.90807E+00-1.11966E-13 1.20098E-13
 -1      2523 6.73144E+00-3.80955E+00 5.43876E-02 5.41998E+00-3.34732E-14-1.17190E-12
 -1      2524 4.54014E+00-3.42976E+00 6.48081E-02 3.61841E+00 4.67820E-14-1.30795E-12
 -1      2525 3.14486E+01 6.52629E+00-1.59144E-01-1.15562E+00 1.14220E-12-2.35034E-13
 -1      2526 3.19301E+01 5.16460E+00-1.00237E-01-1.55567E+00 1.10037E-12-3.22853E-13
 -1      2527 3.00278E+01 3.28157E+00-6.57239E-02-2.11898E+00 7.90812E-13-4.90274E-13
 -1      2528 1.83621E+01 4.12945E+00-9.33779E-03-4.56924E-03 8.09869E-15-8.00144E-13
 -1      2529 1.84730E+01 4.08645E+00-4.94063E-03-8.41752E-02-5.04997E-14-8.04845E-13
 -1      2530 1.86323E+01 3.74684E+00 1.72180E-03-3.91003E-02-6.07263E-14-7.52938E-13
 -1      2531 1.83986E+01 3.89080E+00 2.42620E-03 4.54220E-02 1.83990E-14-7.68789E-13
 -1      2532 3.14202E+01 6.20589E+00-1.39697E-01 9.72422E-01 1.00142E-12 1.70933E-13
 -1      2533 3.08938E+01 6.98335E+00-1.83705E-01 3.04208E-01 1.05854E-12 6.43530E-14
 -1      2534 3.17591E+00-2.95976E+00 7.33938E-02 1.48395E+00-6.94306E-14-1.39588E-12
 -1      2535 3.19250E+00-2.88270E+00 6.52883E-02-1.20542E+00-5.02376E-14-1.42930E-12
 -1      2536 3.18487E+01 3.76988E+00-7.45361E-02 1.27607E+00 8.47711E-13 1.58512E-13
 -1      2537 3.17962E+01 5.02267E+00-2.43416E-01 1.21439E+00 9.93927E-13 2.64302E-13
 -1      2538 2.95247E+01 5.29708E+00-5.62683E-02 1.45449E+00 8.93313E-13 2.34625E-13
 -1      2539 2.98433E+01-1.63813E+00-5.06140E-02-8.00766E-01 4.16035E-13 6.83897E-14
 -1      2540 3.14959E+01 6.45181E-01-1.73584E-01 4.05719E-01 6.24265E-13 1.79190E-13
 -1      2541 2.56098E+01-4.76809E+00-5.12282E-03-3.70574E+00 9.84213E-14-4.66849E-14
 -1      2542 2.80334E+01-3.71325E+00-1.09488E-01-2.63684E+00 2.03948E-13-2.38698E-14
 -1      2543 1.82405E+01-5.55192E+00 8.11860E-02-6.31053E+00-2.38753E-13-4.80837E-13
 -1      2544 2.24447E+01-5.44998E+00-3.76041E-02-5.59067E+00-2.60347E-14-1.95982E-13
 -1      2545 2.45874E+01-5.28631E+00 7.06645E-02-3.95766E+00-2.23682E-13 3.89966E-15
 -1      2546 1.06648E+01-4.58070E+00 9.93241E-02-6.32184E+00-2.56545E-13-9.62203E-13
 -1      2547 1.36548E+01-5.04145E+00-1.51278E-02-6.99330E+00-2.25570E-13-7.52814E-13
 -1      2548 2.78821E+01-3.23344E+00-1.25670E-01 2.80673E+00-4.60826E-13-1.64729E-13
 -1      2549 2.56046E+01-4.41872E+00 3.02408E-02 4.01375E+00-3.70703E-13-3.47333E-13
 -1      2550 4.54043E+00-3.48082E+00 6.16150E-02-3.48806E+00-2.72574E-13-1.39372E-12
 -1      2551 7.19886E+00-3.87403E+00 3.87714E-02-5.47766E+00-2.02866E-13-1.21061E-12
 -1      2552 1.31174E+01-4.97727E+00 3.10176E-02 7.17036E+00-8.06022E-14-8.20288E-13
 -1      2553 9.81482E+00-4.67963E+00 5.30796E-02 6.39210E+00 2.96430E-14-9.83158E-13
 -1      2554 3.29220E+01 5.47841E+00-6.09831E-02 7.92810E-01-9.57623E-13-7.46542E-13
 -1      2555 3.28955E+01 6.71910E+00-1.32370E-01 7.68325E-01-1.16651E-12-7.93615E-13
 -1      2556 3.27035E+01 6.16281E+00-1.02387E-01-7.34349E-01-1.02029E-12-3.08364E-13
 -1      2557 3.19895E+01 4.72387E+00-1.32409E-01-8.95438E-01-9.26814E-13-2.56961E-13
 -1      2558 3.29880E+01 7.61733E+00-9.02421E-02 1.88639E-01-1.18688E-12-5.03646E-13
 -1      2559 3.28695E+01 7.32587E+00-1.10923E-01-2.82986E-01-1.09357E-12-4.02248E-13
 -1      2560 3.15194E+01 1.47947E+00-5.72565E-02-3.36346E-01-5.45203E-13-5.87308E-13
 -1      2561 3.29457E+01 3.54633E+00-9.50313E-02 3.49317E-01-7.62029E-13-6.85452E-13
 -1      2562 3.11064E+01 4.09661E+00-3.36626E-02 1.41660E+00-7.46098E-13-8.11601E-13
 -1      2563 2.80679E+01-2.72276E+00-9.47348E-03-2.26075E+00 2.01922E-14-5.09370E-13
 -1      2564 3.03075E+01-1.02440E+00-7.08919E-02-1.46229E+00-2.56378E-13-5.37570E-13
 -1      2565 2.15568E+01-5.27560E+00 2.09579E-02-5.50087E+00 4.31238E-13-9.77968E-14
 -1      2566 2.51595E+01-4.50207E+00-9.12301E-02-4.41551E+00 3.11723E-13-2.97096E-13
 -1      2567 1.39878E+01-5.32750E+00 3.37133E-02-6.75966E+00 3.80584E-13 2.60167E-13
 -1      2568 1.76964E+01-5.36687E+00-2.75019E-02-6.81650E+00 3.98237E-13 1.55102E-13
 -1      2569 3.03921E+01-1.39790E+00-1.31502E-01 7.44514E-01 4.17746E-13-2.98095E-13
 -1      2570 2.85405E+01-2.98401E+00-3.49687E-02 1.74795E+00 2.40377E-13-2.41696E-13
 -1      2571 2.73706E+01-4.22281E+00 7.17305E-03 2.01088E+00-1.44329E-14-3.67373E-13
 -1      2572 2.98917E+01-7.22558E-01-2.95243E-02-9.87940E-01 3.65680E-13-4.35568E-13
 -1      2573 2.16298E+01 9.21947E-01-1.72245E-03 5.63678E-01 5.25276E-13 2.66541E-13
 -1      2574 2.18423E+01 1.27864E+00-4.17716E-03 1.09119E+00 5.68719E-13 3.45687E-13
 -1      2575 2.15534E+01 1.74864E+00-1.55864E-02 1.22816E+00 6.07233E-13 1.44100E-13
 -1      2576 2.14337E+01 1.14765E+00-1.00471E-02 4.49361E-01 5.23897E-13 4.56464E-14
 -1      2577 2.77326E+01 5.84709E+00-8.55960E-02 1.53789E-01 8.46406E-13 9.93762E-14
 -1      2578 2.98160E+01 6.21142E+00-1.84793E-01-5.42184E-01 1.00198E-12-6.78381E-14
 -1      2579 2.80811E+01 5.29708E+00-1.40000E-01-1.43756E+00 8.82461E-13-2.40669E-13
 -1      2580 1.95830E+01 3.13984E+00 1.43633E-03-3.66859E-01-3.00136E-13-6.56812E-13
 -1      2581 1.95895E+01 3.40071E+00-1.79782E-02-5.87571E-01-3.31103E-13-6.90755E-13
 -1      2582 1.99030E+01 3.21700E+00-1.56397E-02-7.57832E-01-3.99326E-13-6.30121E-13
 -1      2583 2.13653E+01 4.82041E-01-6.65058E-03-7.33547E-01 2.83311E-13-2.39062E-14
 -1      2584 2.11476E+01 2.19189E+00-1.33765E-02 1.13497E+00 5.87658E-13-8.00020E-14
 -1      2585 4.81990E+00-1.62586E+00 7.89653E-02 1.20633E+00-4.46587E-14 1.07658E-12
 -1      2586 3.84539E+00-2.40716E+00 1.20745E-01-1.68775E-01 6.53288E-14 1.14270E-12
 -1      2587 5.29433E+00-1.41781E+00 1.49942E-01-1.31813E+00 1.59303E-13 9.45521E-13
 -1      2588 2.08210E+01-5.38074E+00 9.10561E-02-5.70638E+00 5.69350E-13-1.65243E-13
 -1      2589 3.02082E+01-1.02229E-01-2.72176E-02 4.05924E-01-2.75044E-13-7.98778E-13
 -1      2590 7.07227E+00-3.05916E+00 1.39052E-01 4.52113E+00-2.69840E-13 7.79765E-13
 -1      2591 7.30924E+00-2.81617E+00 1.23149E-01-4.67336E+00 4.39093E-13 6.71935E-13
 -1      2592 1.39145E+01-4.53131E+00 1.29847E-01 6.43289E+00-4.03733E-13 4.28088E-13
 -1      2593 1.99985E+01-1.76321E-03-1.01515E-05-3.58613E-03-2.05987E-14 4.67635E-13
 -1      2594 1.99988E+01-2.24479E-03 5.47051E-06-3.90097E-03-6.71829E-14 2.52249E-14
 -1      2595 3.08060E+01 6.86760E+00-5.48265E-02 7.47857E-01-1.03173E-12-5.76948E-13
 -1      2596 1.99982E+01-1.55832E-03-1.93015E-05 3.78271E-03-3.76781E-14 3.47691E-13
 -1      2597 1.99989E+01-2.40363E-03 4.10499E-06 4.11269E-03-1.48525E-13-5.07663E-14
 -1      2598 1.99990E+01-2.28464E-03-2.91642E-07 4.67106E-03-1.72532E-14-3.26966E-13
 -1      2599 1.99977E+01-1.36517E-03-1.40797E-05 4.26884E-03-2.69854E-14 4.13151E-13
 -1      2600 3.05976E+01 6.46241E+00-8.14333E-02-9.33652E-01-1.00536E-12-3.13194E-13
 -1      2601 2.10632E+01 1.95008E+00 1.13082E-02 7.54690E-01 5.43364E-13-1.32925E-13
 -1      2602 2.15275E+01-5.46042E+00 9.42643E-02 5.22127E+00-3.64514E-13-4.80171E-15
 -1      2603 1.66773E+01-5.21470E+00 8.09183E-02 6.66086E+00 9.77274E-14-6.89906E-13
 -1      2604 1.37458E+01-4.45670E+00 1.25604E-01-6.61274E+00 5.06206E-13 2.41071E-13
 -1      2605 5.61491E+00-2.00209E+00 1.46272E-01-2.28428E+00-2.14898E-13-1.35980E-12
 -1      2606 1.00882E+01-3.40205E+00 1.41786E-01 5.90804E+00 2.14773E-13-1.01383E-12
 -1      2607 5.72936E+00-1.92292E+00 1.51076E-01 2.53562E+00 8.32667E-14-1.35703E-12
 -1      2608 2.91565E+01-2.14602E+00-5.87011E-03 1.30712E+00-4.46572E-13-1.12410E-13
 -1      2609 2.78695E+01-3.36914E+00 1.75365E-02 1.45560E+00-2.49717E-13 2.03448E-14
 -1      2610 2.92815E+01-1.15603E+00-1.79316E-01-2.74696E-01-4.47115E-13 2.96707E-14
 -1      2611 1.75626E+01-4.99443E+00 1.15003E-01-6.31721E+00-4.00763E-13-4.97047E-13
 -1      2612 3.03082E+01 1.71679E+00-4.98879E-02 1.65830E+00 6.36768E-13 2.99150E-13
 -1      2613 3.13498E+01 3.06993E+00-7.45540E-02-1.07915E+00-7.76545E-13-1.84908E-13
 -1      2614 2.98863E+01 1.37177E+00-8.55461E-02-1.15550E+00-6.19477E-13-5.04319E-14
 -1      2615 2.96007E+01 3.62062E+00-1.36075E-01-1.83955E+00-7.36577E-13-1.58679E-13
 -1      2616 2.41462E+01-5.04978E+00 9.63166E-02 4.68699E+00-1.26454E-13-3.04382E-13
 -1      2617 2.05044E+01 2.72122E+00-9.03143E-03-9.58400E-01-4.73554E-13-4.82748E-13
 -1      2618 2.88041E+01-2.99798E+00 1.59968E-02-6.25528E-01 1.19467E-13 2.14995E-13
 -1      2619 1.01580E+01-3.41196E+00 1.42388E-01-5.79293E+00-3.72036E-13-1.05913E-12
 -1      2620 2.68665E+01-4.02914E+00 2.21560E-02-2.56801E+00 3.26503E-13-4.74065E-13
 -1      2621 1.99988E+01-2.17828E-03-9.83957E-06-4.53881E-03-1.25059E-13-1.97464E-13
 -1      2622 1.99982E+01-1.60421E-03-3.86910E-06 4.89076E-03 1.41319E-14 1.98346E-13
 -1      2623 1.85937E+01 3.51443E+00-3.91159E-03 8.80522E-02 2.32818E-13-6.71581E-13
 -1      2624 1.84476E+01 3.58942E+00-6.95825E-03 6.36422E-02 1.76515E-13-6.83915E-13
 -1      2625 1.83559E+01 3.64754E+00-5.16365E-03 9.30148E-02 1.36565E-13-7.00378E-13
 -1      2626 1.83217E+01 3.66437E+00-4.66784E-03 7.60453E-02 8.37759E-14-7.10098E-13
 -1      2627 1.84231E+01 3.37874E+00 7.22177E-03 3.22242E-02 1.45800E-13-6.59663E-13
 -1      2628 1.96541E+01 2.81303E+00-5.84880E-03 2.03364E-01 4.26510E-13-4.89883E-13
 -1      2629 1.93283E+01 3.02338E+00-1.00122E-02 1.34709E-01 3.81914E-13-5.50965E-13
 -1      2630 2.03821E+01 2.23203E+00-6.97639E-03 3.15361E-01 4.84800E-13-3.63220E-13
 -1      2631 2.00080E+01 2.53398E+00-8.61405E-03 2.40849E-01 4.46406E-13-4.26909E-13
 -1      2632 1.98948E+01 2.37376E+00 5.91344E-03-1.48250E-02 4.00110E-13-4.24670E-13
 -1      2633 2.11198E+01 9.43390E-01 6.95294E-04-3.62673E-01 3.70580E-13-1.30099E-13
 -1      2634 2.11513E+01 1.14942E+00 9.60713E-03-3.31105E-02 4.19999E-13-1.17882E-13
 -1      2635 2.32488E+01-5.39392E+00-9.50465E-02 4.10741E+00-3.79322E-13-2.21875E-13
 -1      2636 2.00794E+01-5.00446E+00 1.52390E-01 5.38486E+00-4.79575E-13 3.06057E-14
 -1      2637 2.11646E+01 6.27499E-01 1.61124E-03-8.70739E-01 2.59938E-13-1.47146E-13
 -1      2638 2.11317E+01 7.75948E-01 1.08493E-02-6.40529E-01 3.15547E-13-1.18154E-13
 -1      2639 2.08618E+01 1.10042E+00-2.32499E-03-5.05001E-01 3.44516E-13-2.40243E-13
 -1      2640 2.09960E+01 1.67823E+00-6.74560E-04 4.04678E-01 4.93636E-13-1.66975E-13
 -1      2641 2.09919E+01 7.27932E-01 9.77463E-03 5.36790E-01-2.46632E-13-2.68665E-13
 -1      2642 2.10176E+01 5.31504E-01-1.88624E-03 7.26807E-01-2.05514E-13-2.62533E-13
 -1      2643 2.10938E+01 3.51769E-01 1.04420E-02 8.89370E-01-1.73451E-13-2.33301E-13
 -1      2644 2.11719E+01 1.61861E-01-2.17649E-03 9.88574E-01-1.36719E-13-2.36018E-13
 -1      2645 2.08228E+01 5.63720E-01-6.34363E-03 8.62305E-01-1.91629E-13-2.86162E-13
 -1      2646 2.13079E+01-2.63947E-02 1.14521E-02 1.07279E+00-9.07989E-14-2.10013E-13
 -1      2647 2.14401E+01-2.39028E-01-3.99784E-03 1.07876E+00-6.05157E-14-1.96824E-13
 -1      2648 2.09977E+01 1.08587E-01-9.52277E-03 1.13503E+00-1.06406E-13-2.61901E-13
 -1      2649 2.16634E+01-4.54593E-01 1.36852E-02 1.06860E+00-5.13424E-14-1.70644E-13
 -1      2650 2.18441E+01-6.97200E-01-7.47493E-03 9.68781E-01-3.19977E-14-1.64162E-13
 -1      2651 2.13139E+01-3.96361E-01-1.29265E-02 1.23952E+00-5.99226E-14-2.30473E-13
 -1      2652 2.21731E+01-9.30704E-01 1.61459E-02 8.36980E-01-1.36798E-14-1.23238E-13
 -1      2653 2.23841E+01-1.17364E+00-1.23649E-02 6.17576E-01-1.45775E-14-1.39125E-13
 -1      2654 2.18160E+01-9.67552E-01-1.59198E-02 1.13393E+00-2.62465E-14-1.88301E-13
 -1      2655 2.28104E+01-1.37018E+00 1.57620E-02 3.31642E-01-3.32275E-14-1.13634E-13
 -1      2656 2.30112E+01-1.52166E+00-1.66892E-02-3.40177E-03-5.34798E-14-1.05954E-13
 -1      2657 2.25223E+01-1.53629E+00-1.64554E-02 7.55791E-01-8.67752E-15-1.33453E-13
 -1      2658 2.34596E+01-1.56274E+00 5.46105E-03-4.45441E-01-3.60621E-14-7.22720E-14
 -1      2659 2.35963E+01-1.46705E+00-1.34123E-02-8.38580E-01-4.15608E-14-1.28278E-14
 -1      2660 2.33767E+01-1.88602E+00-1.14391E-02 4.75787E-02-1.50768E-14-2.67533E-14
 -1      2661 2.38975E+01-1.19962E+00-1.81348E-02-1.33126E+00-3.98310E-14 4.54198E-14
 -1      2662 2.39361E+01-7.15818E-01 5.84062E-03-1.62809E+00-3.09203E-14 9.75877E-14
 -1      2663 2.41596E+01-1.64967E+00-6.04755E-03-9.33541E-01 1.87966E-14 7.91381E-14
 -1      2664 2.39204E+01-7.18313E-02-4.79889E-02-1.93783E+00-1.02294E-13 1.66045E-13
 -1      2665 2.38381E+01 7.61920E-01 1.85552E-02-1.91729E+00-2.21288E-13 1.53602E-13
 -1      2666 2.45901E+01-5.62761E-01 8.98816E-03-1.86083E+00-4.70175E-14 1.39810E-13
 -1      2667 2.35825E+01 1.56819E+00-5.77030E-02-1.69744E+00-3.55892E-13 5.34989E-14
 -1      2668 2.34504E+01 2.29623E+00-7.75181E-04-1.24639E+00-3.73493E-13-1.04170E-14
 -1      2669 2.45207E+01 1.37840E+00-4.27130E-03-1.99748E+00-3.53863E-13 1.53716E-13
 -1      2670 2.32595E+01 2.73414E+00-4.52847E-02-4.37738E-01-3.86476E-13-1.45355E-13
 -1      2671 2.32488E+01 2.82369E+00-3.65592E-02 2.57864E-01-4.03712E-13-1.79992E-13
 -1      2672 2.41021E+01 3.05332E+00-2.73857E-02-9.63976E-01-4.47576E-13-1.00146E-14
 -1      2673 2.33899E+01 2.53851E+00-3.82957E-03 1.12434E+00-4.53741E-13-3.09197E-13
 -1      2674 2.34815E+01 1.90534E+00-6.93422E-02 1.65395E+00-4.07658E-13-3.59257E-13
 -1      2675 2.40979E+01 3.27033E+00-1.78528E-02 7.97130E-01-5.30121E-13-2.53480E-13
 -1      2676 2.37826E+01 1.15282E+00 1.49265E-02 2.04170E+00-3.23401E-13-4.63484E-13
 -1      2677 2.39067E+01 2.98651E-01-5.16147E-02 2.15933E+00-2.32542E-13-5.07659E-13
 -1      2678 2.43901E+01 1.84980E+00-7.11063E-03 2.08002E+00-4.41779E-13-4.58487E-13
 -1      2679 2.39713E+01-4.25875E-01 2.29682E-03 1.94322E+00-1.35984E-13-4.92998E-13
 -1      2680 2.39955E+01-1.00083E+00-2.21034E-02 1.69948E+00-1.00469E-13-4.61763E-13
 -1      2681 2.46347E+01-1.39131E-01 2.15810E-03 2.13571E+00-1.72059E-13-5.06890E-13
 -1      2682 2.37362E+01-1.35994E+00-1.16785E-02 1.21412E+00-5.74081E-14-3.87503E-13
 -1      2683 2.36331E+01-1.53134E+00 4.10278E-03 8.26268E-01-4.69397E-14-3.70944E-13
 -1      2684 2.43103E+01-1.47296E+00 9.61123E-04 1.34017E+00-5.10503E-14-4.40209E-13
 -1      2685 2.31942E+01-1.55244E+00-1.62225E-02 3.56687E-01-1.70521E-14-2.90520E-13
 -1      2686 2.30052E+01-1.45038E+00 1.37844E-02-3.78933E-03 5.71625E-14-2.69242E-13
 -1      2687 2.35627E+01-1.89093E+00-5.72734E-03 3.31360E-01 3.80159E-14-3.21810E-13
 -1      2688 2.25580E+01-1.28955E+00-1.37859E-02-3.36237E-01 3.68195E-15-2.18252E-13
 -1      2689 2.23407E+01-1.07567E+00 1.45112E-02-5.97149E-01 5.80092E-15-3.01242E-13
 -1      2690 2.26869E+01-1.66311E+00-1.45814E-02-4.58974E-01 3.42570E-14-1.98631E-13
 -1      2691 2.19744E+01-8.66255E-01-8.68721E-03-7.84038E-01 5.45120E-14-2.76285E-13
 -1      2692 2.17689E+01-6.49768E-01 1.14801E-02-9.38537E-01 1.09206E-13-2.91123E-13
 -1      2693 2.19162E+01-1.16767E+00-1.52844E-02-9.45149E-01 3.87289E-14-2.15475E-13
 -1      2694 2.15026E+01-4.63821E-01-4.26612E-03-1.01493E+00 1.00791E-13-2.09025E-13
 -1      2695 2.13256E+01-2.92239E-01 7.74060E-03-1.08282E+00 1.12742E-13-1.43778E-13
 -1      2696 2.13304E+01-6.62793E-01-1.20739E-02-1.17669E+00 1.34636E-13-2.03925E-13
 -1      2697 2.11452E+01-1.55063E-01-1.26456E-03-1.08683E+00 7.78557E-14-1.21213E-13
 -1      2698 2.09985E+01-3.82878E-02 4.53525E-03-1.09371E+00 1.24002E-13-1.45049E-13
 -1      2699 2.09211E+01-2.60908E-01-8.27055E-03-1.23346E+00 1.53093E-13-2.17930E-13
 -1      2700 2.08806E+01 4.98993E-02 5.55276E-04-1.05503E+00 3.86143E-14-2.40433E-13
 -1      2701 2.07603E+01 1.19098E-01 2.23622E-03-1.02368E+00 7.69773E-15-2.59600E-13
 -1      2702 2.06475E+01 1.43719E-02-5.20060E-03-1.18301E+00-1.73489E-14-1.14515E-13
 -1      2703 2.06840E+01 1.68043E-01 1.58140E-03-9.62882E-01 4.58001E-14-3.12434E-13
 -1      2704 2.05851E+01 2.01973E-01 7.68652E-04-9.10725E-01 1.65227E-14-2.84020E-13
 -1      2705 2.04674E+01 1.79156E-01-3.12868E-03-1.07340E+00 4.90371E-16-1.58250E-13
 -1      2706 2.05351E+01 2.23212E-01 2.10259E-03-8.41205E-01 3.34010E-14-2.39923E-13
 -1      2707 2.04533E+01 2.33593E-01-7.64406E-05-7.80445E-01 1.33948E-13-2.56783E-13
 -1      2708 2.03473E+01 2.61582E-01-1.86536E-03-9.36387E-01 8.29735E-14-1.63848E-13
 -1      2709 2.04195E+01 2.37053E-01 2.29735E-03-7.10557E-01 9.25726E-14-2.14833E-13
 -1      2710 2.03519E+01 2.33118E-01-5.04892E-04-6.49116E-01 3.79365E-14-1.68227E-13
 -1      2711 2.02646E+01 2.88593E-01-1.14897E-03-7.92208E-01 1.60449E-13-9.29358E-14
 -1      2712 2.03281E+01 2.26230E-01 2.28001E-03-5.83781E-01 6.89038E-14-1.00900E-13
 -1      2713 2.02724E+01 2.14544E-01-6.75196E-04-5.26375E-01 7.57025E-14-4.25448E-14
 -1      2714 2.02052E+01 2.81552E-01-7.64129E-04-6.53273E-01 9.82371E-14 3.31352E-14
 -1      2715 2.02548E+01 2.02417E-01 2.13013E-03-4.68188E-01 2.01157E-14-9.44905E-15
 -1      2716 2.02094E+01 1.87325E-01-6.97025E-04-4.17278E-01-4.82341E-14 7.53968E-15
 -1      2717 2.01607E+01 2.55767E-01-5.63162E-04-5.26651E-01 2.62104E-14 5.11338E-15
 -1      2718 2.01959E+01 1.73243E-01 1.90528E-03-3.67290E-01-9.55407E-14 3.39848E-14
 -1      2719 2.01592E+01 1.57442E-01-6.41183E-04-3.23831E-01-1.33394E-13 2.39184E-14
 -1      2720 2.01260E+01 2.21465E-01-4.56163E-04-4.15789E-01-7.60325E-14 9.75573E-15
 -1      2721 2.01487E+01 1.43382E-01 1.64713E-03-2.82107E-01-2.04411E-13 3.66057E-14
 -1      2722 2.01195E+01 1.28421E-01-5.51175E-04-2.46109E-01-8.71678E-14-9.49542E-14
 -1      2723 2.00985E+01 1.85064E-01-3.92648E-04-3.21724E-01-1.54992E-13 1.40517E-13
 -1      2724 2.01111E+01 1.15472E-01 1.38448E-03-2.12124E-01-9.79726E-16-9.97895E-14
 -1      2725 2.00883E+01 1.02139E-01-4.52293E-04-1.83051E-01-5.01881E-14-8.59577E-14
 -1      2726 2.00764E+01 1.50301E-01-3.46774E-04-2.43966E-01-6.07733E-14-6.10476E-15
 -1      2727 2.00816E+01 9.08132E-02 1.13575E-03-1.55967E-01-1.11777E-13-1.38252E-13
 -1      2728 2.00639E+01 7.94208E-02-3.58046E-04-1.33007E-01-1.24755E-13-1.22736E-13
 -1      2729 2.00585E+01 1.19130E-01-3.06712E-04-1.81134E-01-1.21799E-13-8.38167E-14
 -1      2730 2.00586E+01 6.98760E-02 9.11470E-04-1.11855E-01-2.00252E-13-4.48681E-14
 -1      2731 2.00453E+01 6.04475E-02-2.74843E-04-9.40983E-02-1.20487E-13-1.17174E-13
 -1      2732 2.00442E+01 9.23582E-02-2.68239E-04-1.31409E-01-1.56371E-13-1.61129E-14
 -1      2733 2.00411E+01 5.26359E-02 7.16562E-04-7.79017E-02 2.24679E-14-1.15249E-13
 -1      2734 2.00312E+01 4.50354E-02-2.04944E-04-6.44460E-02 1.37157E-13-1.81071E-13
 -1      2735 2.00329E+01 7.01033E-02-2.30705E-04-9.28262E-02-8.96193E-14 1.44655E-13
 -1      2736 2.00279E+01 3.87986E-02 5.52134E-04-5.22871E-02 2.03758E-13-3.00865E-13
 -1      2737 2.00207E+01 3.28118E-02-1.48342E-04-4.23001E-02 2.60942E-13-1.70621E-13
 -1      2738 2.00240E+01 5.20908E-02-1.94769E-04-6.34654E-02 7.97940E-14-1.45580E-13
 -1      2739 2.00182E+01 2.79418E-02 4.16867E-04-3.33597E-02 2.62314E-13-1.94873E-13
 -1      2740 2.00131E+01 2.33260E-02-1.03882E-04-2.61095E-02 3.98682E-14-1.40696E-13
 -1      2741 2.00172E+01 3.78476E-02-1.61336E-04-4.15622E-02 2.47596E-13-2.15720E-13
 -1      2742 2.00112E+01 1.96021E-02 3.08050E-04-1.96830E-02 4.46282E-15 2.96117E-14
 -1      2743 2.00077E+01 1.61163E-02-6.99379E-05-1.45480E-02 1.17968E-13 1.74650E-13
 -1      2744 2.00119E+01 2.68237E-02-1.31122E-04-2.55640E-02 2.11974E-13-9.67583E-14
 -1      2745 2.00063E+01 1.33260E-02 2.22320E-04-1.00473E-02 5.87099E-14 3.55217E-13
 -1      2746 2.00040E+01 1.07468E-02-4.47938E-05-6.51567E-03 1.07453E-13 3.28908E-13
 -1      2747 2.00080E+01 1.84647E-02-1.04532E-04-1.41501E-02 1.22845E-13 2.21060E-13
 -1      2748 2.00030E+01 8.69718E-03 1.56166E-04-3.46266E-03 1.40771E-13 2.26643E-13
 -1      2749 2.00016E+01 6.82585E-03-2.68571E-05-1.12392E-03 1.14672E-13 2.01234E-13
 -1      2750 2.00052E+01 1.22519E-02-8.16841E-05-6.22832E-03 5.10369E-15 2.22182E-13
 -1      2751 2.00009E+01 5.34713E-03 1.06234E-04 8.60125E-04-9.12617E-16 5.53071E-14
 -1      2752 2.00001E+01 4.01178E-03-1.47605E-05 2.32614E-03-6.52165E-14-2.94491E-15
 -1      2753 2.00031E+01 7.72121E-03-6.24671E-05-9.19128E-04-6.43724E-14-2.92418E-13
 -1      2754 1.99996E+01 2.95770E-03 6.94856E-05 3.53301E-03 7.22142E-14 1.85421E-13
 -1      2755 1.99992E+01 2.01149E-03-7.34964E-06 4.36812E-03 3.18446E-13 2.15956E-13
 -1      2756 2.00017E+01 4.46902E-03-4.66685E-05 2.46767E-03 1.63945E-13-2.74827E-13
 -1      2757 1.99989E+01 1.25697E-03 4.33612E-05 5.01543E-03 3.14976E-13 2.21970E-13
 -1      2758 1.99988E+01 5.74859E-04-3.62184E-06 5.39487E-03 2.13507E-13 2.14048E-13
 -1      2759 2.00007E+01 2.14970E-03-3.40008E-05 4.45804E-03 3.05480E-13-2.16283E-14
 -1      2760 1.99986E+01 1.22015E-05 2.56108E-05 5.63794E-03 1.71941E-13 1.57860E-13
 -1      2761 1.99987E+01-5.10934E-04-2.26414E-06 5.68012E-03 1.33208E-13 1.74244E-14
 -1      2762 2.00001E+01 4.67694E-04-2.45808E-05 5.43848E-03 1.52279E-13-1.87589E-13
 -1      2763 1.99986E+01-9.83176E-04 1.26028E-05 5.62409E-03 4.12172E-14-2.13112E-13
 -1      2764 1.99989E+01-1.42188E-03-6.45167E-07 5.39785E-03-7.42329E-14-3.70648E-13
 -1      2765 1.99997E+01-8.18475E-04-1.53396E-05 5.68742E-03-5.54510E-14-4.39607E-13
 -1      2766 2.88441E+01 6.47651E+00-1.83906E-01-5.82572E-01-9.77052E-13-3.27079E-13
 -1      2767 2.88133E+01 5.42770E+00-1.74637E-01-1.39904E+00-9.04526E-13-2.48940E-13
 -1      2768 2.88147E+01 5.85204E+00-1.33951E-01 1.41461E+00-8.83127E-13-6.71074E-13
 -1      2769 2.86165E+01 6.52118E+00-1.94101E-01 3.44915E-01-9.40914E-13-4.65847E-13
 -1      2770 2.15643E+01 3.80486E-02-1.08529E-03-1.43794E+00 8.13143E-14-1.69283E-13
 -1      2771 2.14028E+01 2.11553E-01 9.42604E-03-1.37455E+00 1.19454E-13-1.60452E-13
 -1      2772 2.33539E+01-1.55074E+00-1.90113E-02-6.48038E-01-5.23210E-14-7.11811E-15
 -1      2773 2.30548E+01-1.24523E+00 2.13527E-02-9.96313E-01-7.49132E-14-3.69769E-14
 -1      2774 2.42564E+01-1.91199E+00-2.01015E-02 3.14417E-01 3.17975E-15 6.26057E-14
 -1      2775 2.39894E+01-1.79267E+00 1.90130E-02-1.96357E-01-4.12873E-14 6.82174E-14
 -1      2776 2.34959E+01-2.07793E+00-2.52221E-02-8.38047E-01-7.87283E-14-4.04707E-14
 -1      2777 2.50140E+01-1.51934E+00-1.32548E-02 1.47378E+00 9.65855E-14 2.15681E-13
 -1      2778 2.48587E+01-1.84702E+00-7.88742E-03 9.60707E-01 2.90610E-14 1.65658E-13
 -1      2779 2.47600E+01-2.34383E+00-4.67287E-03 2.77452E-01-2.57524E-14 1.34847E-13
 -1      2780 2.52864E+01 2.63564E-02-3.10129E-03 2.29397E+00 2.45182E-13 3.38859E-13
 -1      2781 2.53274E+01-9.15272E-01-5.68817E-02 2.08510E+00 1.82524E-13 2.93566E-13
 -1      2782 2.58371E+01-1.54052E+00-3.33345E-03 1.64935E+00 1.02245E-13 3.94677E-13
 -1      2783 2.49374E+01 2.28469E+00-3.72469E-02 1.96757E+00 5.44086E-13 2.61898E-13
 -1      2784 2.51644E+01 1.10610E+00-1.00215E-01 2.32376E+00 4.00010E-13 2.78058E-13
 -1      2785 2.62359E+01 5.96517E-01-4.82115E-02 2.41295E+00 3.50907E-13 4.44679E-13
 -1      2786 2.51188E+01 3.78861E+00-3.86169E-02-5.84060E-01 6.61859E-13-2.61006E-14
 -1      2787 2.51348E+01 3.63361E+00-1.01415E-01 4.74688E-01 6.73905E-13 9.10192E-14
 -1      2788 2.52539E+01 3.17559E+00-9.55957E-02-1.56044E+00 5.61898E-13-1.44735E-13
 -1      2789 2.52701E+01 2.34741E-01-9.68170E-02-2.56773E+00 2.07716E-13-4.12837E-13
 -1      2790 2.50652E+01 1.41853E+00-1.23547E-02-2.46139E+00 3.27030E-13-3.56005E-13
 -1      2791 2.52840E+01-1.36979E+00-2.42310E-02-1.92546E+00-4.45958E-14-4.07723E-13
 -1      2792 2.52598E+01-6.37216E-01-3.75094E-03-2.29177E+00 6.90455E-14-4.61003E-13
 -1      2793 2.60835E+01-2.10682E-01-7.22369E-03-2.50286E+00 1.70752E-13-4.78397E-13
 -1      2794 2.46507E+01-1.85373E+00 1.19801E-02-7.18937E-01-2.49800E-13-3.51444E-13
 -1      2795 2.48183E+01-1.73262E+00-1.70083E-02-1.23571E+00-1.04825E-13-3.36501E-13
 -1      2796 2.54717E+01-1.93089E+00-2.58224E-02-1.42585E+00-1.34703E-13-4.19807E-13
 -1      2797 2.37469E+01-1.57656E+00 2.01306E-02 3.34883E-01-2.73667E-13-3.05072E-13
 -1      2798 2.40151E+01-1.79880E+00-2.56023E-02-1.14642E-01-2.37442E-13-2.70746E-13
 -1      2799 2.43121E+01-2.29047E+00-3.87033E-02-9.52851E-02-2.45163E-13-3.16563E-13
 -1      2800 2.28893E+01-1.02126E+00 1.84593E-02 1.00487E+00-2.07741E-13-2.45982E-13
 -1      2801 2.31742E+01-1.32540E+00-1.84250E-02 7.10677E-01-3.04195E-13-2.36577E-13
 -1      2802 2.31635E+01-1.78700E+00-2.66927E-02 8.59173E-01-2.96825E-13-3.21272E-13
 -1      2803 2.22015E+01-4.96282E-01 1.25238E-02 1.33091E+00 5.29289E-14-1.25578E-13
 -1      2804 2.24605E+01-7.57679E-01-1.08925E-02 1.18534E+00-7.62073E-14-1.45626E-13
 -1      2805 2.22406E+01-1.08806E+00-2.01380E-02 1.37652E+00-1.80687E-13-2.78005E-13
 -1      2806 2.16937E+01-1.18418E-01 7.08963E-03 1.41425E+00 8.52001E-14-3.04344E-14
 -1      2807 2.19152E+01-2.96446E-01-4.54407E-03 1.37619E+00 1.40579E-13-1.72307E-14
 -1      2808 2.15926E+01-4.81331E-01-1.31289E-02 1.56349E+00 1.90672E-14-9.35640E-14
 -1      2809 2.13225E+01 1.10865E-01 3.34474E-03 1.35237E+00 1.03832E-14 1.25859E-13
 -1      2810 2.15092E+01 7.73238E-03-6.24600E-04 1.38154E+00 6.99390E-14 8.24568E-14
 -1      2811 2.11655E+01-6.47527E-02-7.73124E-03 1.55249E+00 1.34734E-14 4.64270E-14
 -1      2812 2.10446E+01 2.27122E-01 1.12689E-03 1.21386E+00-1.40931E-13 1.31699E-13
 -1      2813 2.12024E+01 1.78153E-01 1.72769E-03 1.27920E+00-4.45992E-14 1.81448E-13
 -1      2814 2.08837E+01 1.79574E-01-4.16872E-03 1.43219E+00-6.48009E-14 1.86953E-13
 -1      2815 2.08290E+01 2.69219E-01-5.04842E-05 1.04369E+00-5.81563E-14 6.69545E-14
 -1      2816 2.09628E+01 2.54618E-01 2.97968E-03 1.12401E+00-1.28693E-13 7.14729E-14
 -1      2817 2.06904E+01 2.97896E-01-2.15076E-03 1.25981E+00-6.69517E-14 3.34565E-13
 -1      2818 2.06566E+01 2.67897E-01-5.84215E-04 8.69239E-01-1.17575E-13 1.37072E-13
 -1      2819 2.07697E+01 2.72813E-01 3.49497E-03 9.51398E-01-7.23464E-14 8.00159E-14
 -1      2820 2.05494E+01 3.35433E-01-1.15370E-03 1.07075E+00-8.73293E-14 2.06082E-13
 -1      2821 2.05162E+01 2.44153E-01-7.55496E-04 7.05815E-01-1.03530E-13 1.61307E-13
 -1      2822 2.06108E+01 2.58739E-01 3.54438E-03 7.82480E-01-5.43160E-14 1.73548E-13
 -1      2823 2.04400E+01 3.26526E-01-7.25845E-04 8.85922E-01-1.18651E-13 1.93342E-13
 -1      2824 2.04012E+01 2.10988E-01-7.45506E-04 5.60883E-01 1.89901E-14 1.91632E-13
 -1      2825 2.04793E+01 2.29283E-01 3.32206E-03 6.28533E-01-5.64036E-14 1.82643E-13
 -1      2826 2.03513E+01 2.94184E-01-5.76617E-04 7.16704E-01-4.00871E-14 1.04021E-13
 -1      2827 2.03075E+01 1.75830E-01-6.56367E-04 4.37121E-01 1.47080E-13 2.45595E-13
 -1      2828 2.03710E+01 1.94485E-01 2.96035E-03 4.94564E-01 7.49669E-14 1.93237E-13
 -1      2829 2.02780E+01 2.52515E-01-5.35049E-04 5.68365E-01 6.76406E-14 1.70541E-13
 -1      2830 2.02318E+01 1.42611E-01-5.41626E-04 3.34418E-01 1.21785E-13 1.85632E-13
 -1      2831 2.02826E+01 1.59893E-01 2.54271E-03 3.81810E-01 1.60775E-13 3.14830E-13
 -1      2832 2.02172E+01 2.09533E-01-5.18019E-04 4.42457E-01 1.18264E-13 2.69177E-13
 -1      2833 2.01716E+01 1.13162E-01-4.28907E-04 2.51134E-01 5.12784E-14 2.73533E-13
 -1      2834 2.02115E+01 1.28305E-01 2.12237E-03 2.89340E-01 1.42400E-13 2.70504E-13
 -1      2835 2.01670E+01 1.69434E-01-4.97780E-04 3.38290E-01 6.02579E-14 1.96684E-13
 -1      2836 2.01243E+01 8.80890E-02-3.29870E-04 1.84922E-01-1.52990E-13 5.18434E-13
 -1      2837 2.01552E+01 1.00882E-01 1.73090E-03 2.15117E-01-5.42172E-14 4.00828E-13
 -1      2838 2.01263E+01 1.34129E-01-4.64394E-04 2.53936E-01-3.00138E-15 3.75889E-13
 -1      2839 2.00879E+01 6.73511E-02-2.47591E-04 1.33232E-01 3.87345E-14 5.49464E-13
 -1      2840 2.01114E+01 7.78708E-02 1.38339E-03 1.56664E-01 1.55704E-14 6.10834E-13
 -1      2841 2.00936E+01 1.04198E-01-4.18539E-04 1.86915E-01-6.36569E-14 3.57211E-13
 -1      2842 2.00604E+01 5.05873E-02-1.81582E-04 9.35770E-02 2.30071E-13 2.95782E-13
 -1      2843 2.00778E+01 5.90507E-02 1.08526E-03 1.11444E-01 1.55132E-13 4.33768E-13
 -1      2844 2.00679E+01 7.95139E-02-3.65714E-04 1.34606E-01 1.65239E-13 3.19922E-13
 -1      2845 2.00399E+01 3.72992E-02-1.30012E-04 6.36827E-02 2.24158E-13 2.89537E-13
 -1      2846 2.00526E+01 4.39797E-02 8.36373E-04 7.70659E-02 2.81484E-13 2.32009E-13
 -1      2847 2.00481E+01 5.96059E-02-3.10940E-04 9.44787E-02 3.04453E-13 2.88045E-13
 -1      2848 2.00251E+01 2.69534E-02-9.05744E-05 4.15537E-02 1.41805E-13 3.19257E-13
 -1      2849 2.00341E+01 3.21341E-02 6.33174E-04 5.13926E-02 2.26191E-13 3.79084E-13
 -1      2850 2.00330E+01 4.38568E-02-2.58019E-04 6.42285E-02 2.26453E-13 2.00875E-13
 -1      2851 2.00145E+01 1.90369E-02-6.09884E-05 2.54941E-02-1.19617E-13 3.28008E-13
 -1      2852 2.00208E+01 2.29854E-02 4.70462E-04 3.25801E-02 1.60752E-14 3.51431E-13
 -1      2853 2.00219E+01 3.16178E-02-2.09442E-04 4.18368E-02 8.20782E-14 3.96464E-13
 -1      2854 2.00073E+01 1.30842E-02-3.92311E-05 1.40977E-02-3.00873E-13 3.43163E-13
 -1      2855 2.00115E+01 1.60412E-02 3.42471E-04 1.90818E-02-2.26180E-13 2.51192E-13
 -1      2856 2.00137E+01 2.22698E-02-1.66555E-04 2.55883E-02-1.37713E-13 4.32877E-13
 -1      2857 2.00026E+01 8.68821E-03-2.36413E-05 6.22264E-03-3.78922E-13 2.12444E-13
 -1      2858 2.00052E+01 1.08627E-02 2.43526E-04 9.62949E-03-2.91833E-13 2.50193E-13
 -1      2859 2.00080E+01 1.52537E-02-1.29821E-04 1.40606E-02-2.35299E-13 4.68221E-13
 -1      2860 1.99997E+01 5.50048E-03-1.29518E-05 9.61571E-04 1.11942E-13 8.83108E-14
 -1      2861 2.00012E+01 7.07082E-03 1.68401E-04 3.20501E-03-1.40956E-13 7.93830E-14
 -1      2862 2.00041E+01 1.00813E-02-9.91598E-05 6.09905E-03-1.22807E-13 2.71590E-13
 -1      2863 1.99981E+01 3.22722E-03-6.20289E-06-2.39072E-03 1.16725E-13 2.04606E-13
 -1      2864 1.99988E+01 4.34333E-03 1.12518E-04-9.91925E-04 1.33677E-13 1.36503E-13
 -1      2865 2.00015E+01 6.33502E-03-7.41261E-05 7.86156E-04 1.01153E-13 2.42511E-14
 -1      2866 1.99973E+01 1.62364E-03-2.58075E-06-4.36736E-03 2.55940E-13 1.66144E-14
 -1      2867 1.99975E+01 2.40998E-03 7.18219E-05-3.57470E-03 1.90799E-13 8.86494E-14
 -1      2868 1.99999E+01 3.66338E-03-5.39718E-05-2.58966E-03 1.94320E-13 1.10378E-13
 -1      2869 1.99972E+01 4.84627E-04-1.70130E-06-5.35987E-03 2.86795E-13-2.96799E-14
 -1      2870 1.99971E+01 1.04651E-03 4.31224E-05-5.00081E-03 3.12211E-13-5.07772E-14
 -1      2871 1.99990E+01 1.77339E-03-3.82130E-05-4.56591E-03 2.84178E-13-2.38001E-13
 -1      2872 1.99974E+01-3.65311E-04-3.09701E-06-5.63839E-03-1.06357E-13 3.34039E-14
 -1      2873 1.99971E+01 6.04635E-05 2.37908E-05-5.59735E-03 1.46261E-13 7.36980E-14
 -1      2874 1.99987E+01 4.18000E-04-2.59506E-05-5.53759E-03 2.14985E-13-2.47365E-13
 -1      2875 1.99979E+01-1.06332E-03-5.44358E-06-5.36773E-03-2.15622E-13 9.45603E-14
 -1      2876 1.99974E+01-7.18717E-04 7.61345E-06-5.57984E-03-1.63679E-13 1.72655E-13
 -1      2877 1.99986E+01-6.05862E-04-1.34003E-05-5.77770E-03-9.00335E-14-2.70254E-13
 -1      2878 1.99985E+01-1.75389E-03-1.27827E-05-4.80588E-03-5.83599E-14-1.70601E-13
 -1      2879 1.99981E+01-1.41513E-03-8.61278E-06-5.22139E-03-1.56687E-13-3.43560E-14
 -1      2880 1.99990E+01-1.46634E-03 4.97469E-06-5.54257E-03-1.20241E-13-4.27298E-13
 -1      2881 1.99994E+01-2.33784E-03 1.55718E-05-5.05757E-03-1.29040E-13-6.94327E-13
 -1      2882 2.00027E+01-4.17736E-03 7.00838E-06-3.53554E-04 3.74437E-13 1.81196E-13
 -1      2883 2.00027E+01-4.13038E-03 5.86869E-06-1.06111E-03 4.06778E-13-1.51617E-13
 -1      2884 1.99988E+01-1.71028E-03 3.32024E-06 5.20901E-03 4.00642E-14-5.28674E-13
 -1      2885 1.99990E+01-1.98910E-03-3.19751E-06 4.93496E-03 1.40073E-14-4.27322E-13
 -1      2886 1.99996E+01-1.76793E-03-1.53173E-05 5.46943E-03-1.04655E-13-8.15841E-13
 -1      2887 2.00022E+01-3.86827E-03 1.03741E-05-3.12000E-03 2.53006E-13 5.85864E-14
 -1      2888 2.00019E+01-3.62741E-03-2.81945E-07-3.66737E-03 1.79577E-13-2.19288E-13
 -1      2889 2.00026E+01-4.12084E-03 5.83584E-06 1.11148E-03 1.78170E-13 1.72683E-13
 -1      2890 2.00027E+01-4.17371E-03 7.25922E-06 4.05658E-04 1.97845E-13 1.21509E-13
 -1      2891 2.00033E+01-3.01753E-03 1.46903E-06 2.90643E-05 3.87162E-13 5.20415E-14
 -1      2892 2.00025E+01-4.09742E-03 8.33656E-06-1.79892E-03 2.54365E-13-3.29731E-13
 -1      2893 2.00024E+01-3.95170E-03 3.25668E-06-2.45615E-03 3.82424E-13-1.15728E-13
 -1      2894 2.00028E+01-2.90471E-03-1.85177E-06-2.91020E-03 3.32515E-13 7.34684E-14
 -1      2895 2.00032E+01-2.99589E-03 6.32626E-07-1.48705E-03 4.86048E-13-1.44544E-13
 -1      2896 1.60003E+01-4.43384E+00-4.00875E-02 6.21054E+00-5.03347E-13 3.09405E-13
 -1      2897 1.30489E+01-3.34985E+00 2.13997E-01 5.91636E+00-5.09037E-13 4.14377E-13
 -1      2898 2.00024E+01-3.93375E-03 3.55073E-06 2.47496E-03 6.25228E-14-1.29148E-13
 -1      2899 2.00025E+01-4.08217E-03 8.42730E-06 1.83351E-03 1.34277E-13 4.07564E-13
 -1      2900 2.00032E+01-2.98282E-03 1.10217E-06 1.52871E-03 1.61881E-13 2.10162E-13
 -1      2901 2.00018E+01-3.60572E-03-1.01797E-06 3.67728E-03 1.77147E-13-2.06171E-13
 -1      2902 2.00021E+01-3.84663E-03 1.08473E-05 3.13338E-03 9.88137E-14-3.95284E-13
 -1      2903 2.00028E+01-2.88148E-03-2.81897E-07 2.92951E-03 1.13406E-13-2.62798E-13
 -1      2904 2.00010E+01-3.13695E-03-1.72707E-05 4.59259E-03 1.42166E-13-8.90745E-14
 -1      2905 2.00015E+01-3.45236E-03 2.05054E-05 4.19739E-03 1.47523E-13-1.53002E-14
 -1      2906 2.00021E+01-2.68109E-03-2.72546E-07 4.12927E-03 3.04831E-13-2.09031E-13
 -1      2907 2.13037E+01 3.55945E-01 1.05148E-03-1.23069E+00 1.55468E-13-1.55886E-13
 -1      2908 2.12058E+01 4.95890E-01 9.41550E-03-1.08247E+00 1.93008E-13-1.37105E-13
 -1      2909 2.08903E+01 7.29454E-01-4.36958E-03-1.01845E+00 2.45886E-13-2.38929E-13
 -1      2910 2.10038E+01 3.78849E-01-7.03955E-03-1.39801E+00 1.45511E-13-2.60068E-13
 -1      2911 9.17196E+00-2.66817E+00 2.50994E-02 5.17232E+00-3.94282E-13 5.12507E-13
 -1      2912 6.77463E+00-1.78245E+00 2.21882E-01 3.32070E+00-2.43652E-13 8.36858E-13
 -1      2913 1.95688E+01-4.94567E+00 1.20831E-01-5.67267E+00 5.14325E-13-1.21174E-13
 -1      2914 2.24550E+01-5.36682E+00-9.85737E-02-4.73288E+00 4.81087E-13-1.48118E-13
 -1      2915 2.08127E+01 1.83778E+00-8.17007E-03-5.36640E-01-4.40478E-13-3.71944E-13
 -1      2916 2.08759E+01 1.46003E+00-4.07439E-03-2.05499E-01-4.02537E-13-3.29892E-13
 -1      2917 2.89255E+01 3.23048E-02-4.55167E-02 1.86912E+00 4.11143E-13 3.84651E-13
 -1      2918 2.86146E+01 2.32607E+00-2.15243E-01 2.27769E+00 6.78874E-13 3.66610E-13
 -1      2919 1.61724E+01-3.96671E+00 1.78405E-01-6.07335E+00-4.79158E-13-4.95548E-13
 -1      2920 1.96118E+01-4.99077E+00-7.25244E-02-5.65259E+00-4.31849E-13-2.36873E-13
 -1      2921 2.85149E+01 3.62894E+00-2.05388E-01-2.15828E+00 7.82263E-13-4.38580E-13
 -1      2922 2.88761E+01 1.93668E+00-7.37249E-02-2.51719E+00 5.93720E-13-5.61357E-13
 -1      2923 2.25706E+01-9.48324E-01-1.18462E-02-1.22195E+00-4.76600E-14-7.11666E-14
 -1      2924 2.22969E+01-6.45738E-01 1.66816E-02-1.40217E+00-7.81493E-16-1.24900E-13
 -1      2925 2.24444E+01-1.35128E+00-2.49262E-02-1.44916E+00-8.22450E-14-7.40781E-14
 -1      2926 2.19758E+01-3.89881E-01-5.26877E-03-1.45723E+00 4.95292E-14-1.54900E-13
 -1      2927 2.17544E+01-1.53062E-01 1.20326E-02-1.49902E+00 6.78295E-14-1.30990E-13
 -1      2928 2.17105E+01-6.26650E-01-1.85339E-02-1.67845E+00 1.70334E-14-1.51148E-13
 -1      2929 2.09448E+01 1.17171E+00 6.15237E-03 4.78466E-02-3.37829E-13-2.99520E-13
 -1      2930 2.09357E+01 9.24568E-01-2.99145E-03 3.32258E-01-2.83486E-13-2.89109E-13
 -1      2931 2.07277E+01 1.02092E+00-2.69002E-03 4.69763E-01-2.75172E-13-3.35395E-13
 -1      2932 2.06443E+01 1.56126E+00-1.35591E-04-5.17344E-03-3.59524E-13-3.75848E-13
 -1      2933 1.97915E+01-5.34362E+00-1.37956E-02 6.13337E+00 1.58790E-13-4.63091E-13
 -1      2934 1.63275E+01-4.40486E+00 1.19366E-01 6.37473E+00 2.85411E-13-5.52891E-13
 -1      2935 2.74271E+01-3.71910E+00 3.92074E-02-7.25580E-01-6.74261E-14 2.40363E-13
 -1      2936 2.83735E+01-2.42920E+00-1.91249E-01 5.89793E-01 1.61907E-13 3.13347E-13
 -1      2937 1.90409E+01 3.23619E+00-3.93220E-03 1.20493E-01 3.47984E-13-5.89581E-13
 -1      2938 1.87917E+01 3.37569E+00-8.94822E-03 7.52614E-02 2.78950E-13-6.32651E-13
 -1      2939 1.87279E+01 3.19005E+00 7.00477E-03-2.77743E-02 2.41675E-13-6.00909E-13
 -1      2940 1.92374E+01 2.85217E+00 6.55801E-03-4.44733E-02 3.37317E-13-5.28187E-13
 -1      2941 1.25168E+01-3.24457E+00 5.37143E-02 6.24911E+00 3.06727E-13-7.81430E-13
 -1      2942 9.93351E+00-2.13887E+00 1.65942E-01 5.04742E+00 3.06893E-13-9.66588E-13
 -1      2943 9.86520E+00-2.05775E+00 1.74700E-01-4.81571E+00-4.53818E-13-1.08730E-12
 -1      2944 1.24677E+01-3.06573E+00 1.80226E-02-5.92381E+00-4.45255E-13-7.77489E-13
 -1      2945 2.33082E+01-5.04354E+00 1.35846E-01-4.10748E+00-3.55355E-13 3.75359E-14
 -1      2946 2.54523E+01-4.98993E+00-1.25010E-01-2.70098E+00-1.92867E-13 1.83853E-13
 -1      2947 2.03024E+01 2.69002E+00-3.66827E-03-6.87830E-01-4.16106E-13-5.07419E-13
 -1      2948 1.89477E+01 3.24465E+00-8.80462E-03 1.14213E-02-1.29051E-13-6.82893E-13
 -1      2949 1.92045E+01 3.09788E+00-2.72141E-03-6.48618E-02-1.99915E-13-6.51124E-13
 -1      2950 2.54871E+01-4.65432E+00 7.71081E-02-2.82014E+00 4.17874E-13-3.87176E-13
 -1      2951 2.74393E+01-3.61290E+00-1.64200E-01-1.14201E+00 1.69184E-13-6.10151E-13
 -1      2952 7.74920E+00-1.44668E+00 1.34705E-01 3.78821E+00 1.74499E-13-1.14964E-12
 -1      2953 6.46698E+00-9.20700E-01 1.36158E-01 1.55594E+00 5.79502E-14-1.25319E-12
 -1      2954 1.04282E+01-1.25820E+00 1.62968E-01 4.18731E+00 2.86944E-13-9.64784E-13
 -1      2955 1.99995E+01-2.44341E-03-1.69066E-05 5.01229E-03 3.18189E-14-5.99677E-13
 -1      2956 2.54017E+01-4.85883E+00-9.21399E-02 3.07033E+00-1.67436E-14-6.62664E-15
 -1      2957 2.27493E+01-5.24431E+00 6.35266E-02 4.72849E+00 1.11453E-13-2.35367E-13
 -1      2958 2.21839E+01-4.86973E+00 8.19788E-02 4.59340E+00 2.42362E-13-2.02081E-13
 -1      2959 1.31955E+01-3.28885E+00 1.87635E-01-6.06785E+00 5.24067E-13 1.96398E-13
 -1      2960 1.61792E+01-4.38586E+00 1.27713E-03-6.39302E+00 5.08982E-13-1.85685E-14
 -1      2961 7.20253E+00-1.63869E+00 1.84603E-01-3.55132E+00 3.81306E-13 6.44484E-13
 -1      2962 9.47306E+00-2.48953E+00 6.56577E-02-5.34793E+00 5.05262E-13 4.60382E-13
 -1      2963 2.95715E+01 2.55930E+00-1.10723E-01 1.87707E+00-5.75262E-13-8.17180E-13
 -1      2964 2.91256E+01 4.23842E+00-2.21180E-01 1.88067E+00-7.83124E-13-7.79085E-13
 -1      2965 2.87601E+01-1.39669E+00-1.71742E-02 5.99982E-01-9.28979E-14-8.38551E-13
 -1      2966 2.94459E+01 4.89090E-01-1.72285E-01 1.30326E+00-3.36856E-13-8.59146E-13
 -1      2967 2.83745E+01 1.03157E+00-8.15494E-02 1.93867E+00-4.01013E-13-7.70869E-13
 -1      2968 6.71840E+00-7.11161E-01 1.79842E-01-1.03471E+00-1.36731E-13-1.20076E-12
 -1      2969 7.70298E+00-1.30774E+00 1.24616E-01-3.38501E+00-2.99483E-13-1.18183E-12
 -1      2970 1.04189E+01-9.53680E-01 1.61744E-01-3.67312E+00-3.63619E-13-1.02500E-12
 -1      2971 1.94854E+01 2.88470E+00-8.58865E-03-1.22626E-01-2.43701E-13-6.25412E-13
 -1      2972 1.97923E+01 2.69214E+00-2.81450E-03-2.18661E-01-3.06833E-13-6.01202E-13
 -1      2973 1.94234E+01 2.68180E+00 4.86020E-03 7.87579E-02-1.97639E-13-5.77123E-13
 -1      2974 1.83555E+01 3.41129E+00 6.89883E-03 1.06084E-01 7.27701E-14-6.81386E-13
 -1      2975 1.83440E+01 3.64025E+00-6.73849E-03 1.03480E-01 4.97630E-14-7.29482E-13
 -1      2976 1.84235E+01 3.60023E+00-2.80295E-03 7.78533E-02 4.54081E-15-7.29522E-13
 -1      2977 2.07043E+01 1.84122E+00-4.44710E-03 2.20075E-01 4.71738E-13-2.73428E-13
 -1      2978 1.88906E+01-4.23206E+00 1.25538E-01 5.24439E+00-5.55334E-13 1.12785E-13
 -1      2979 7.20385E+00-1.06462E+00 1.87441E-01 2.14314E+00-1.46244E-13 8.65474E-13
 -1      2980 1.87664E+01-4.19541E+00 1.11343E-01-5.42029E+00 3.80057E-13-2.87062E-14
 -1      2981 7.11645E+00-4.88080E-01 1.05263E-01-1.13659E+00 1.45207E-13 6.84675E-13
 -1      2982 7.00473E+00-1.05716E+00 1.69772E-01-2.48492E+00 2.62221E-13 6.43263E-13
 -1      2983 9.04472E+00-7.74006E-01 1.37978E-01-3.11136E+00 3.66665E-13 4.21829E-13
 -1      2984 2.00001E+01-2.83925E-03 1.90584E-05 4.87997E-03 9.98064E-14-3.53553E-13
 -1      2985 2.00021E+01-2.71791E-03-4.42415E-06-4.12031E-03 1.95463E-15-1.21981E-13
 -1      2986 2.00015E+01-3.47829E-03 1.24586E-05-4.19347E-03 4.86193E-14-3.87799E-13
 -1      2987 2.00010E+01-3.14991E-03-1.91159E-06-4.55981E-03-2.65300E-13-3.17358E-13
 -1      2988 2.73433E+01 5.80019E+00-1.17253E-01-8.93165E-02-8.20982E-13-4.10717E-13
 -1      2989 2.75809E+01-2.59078E+00-1.92072E-02 1.43573E-01 4.93368E-14-6.91197E-13
 -1      2990 2.12556E+01-5.15317E-02-1.17717E-02-1.63297E+00 7.64036E-14-2.42198E-13
 -1      2991 2.64104E+01 3.95084E+00-1.07845E-01 1.10698E+00 7.06352E-13 1.86295E-13
 -1      2992 2.64248E+01 3.10624E+00-9.81899E-02-2.07858E+00 5.91333E-13-2.10380E-13
 -1      2993 2.00006E+01-2.98907E-03 1.36033E-05-4.84501E-03-3.57846E-13-5.30542E-13
 -1      2994 2.00000E+01-2.58584E-03-6.20652E-06-4.96414E-03-2.39998E-13-5.48953E-13
 -1      2995 1.99998E+01-2.10719E-03-1.29607E-05-5.29325E-03-1.74252E-13-6.52115E-13
 -1      2996 2.00011E+01-2.46207E-03-7.57497E-06-4.93454E-03-2.14564E-13-3.32172E-13
 -1      2997 1.58890E+01-3.45043E+00 1.11980E-01 5.84172E+00 3.68566E-13-6.08943E-13
 -1      2998 2.00006E+01-2.36729E-03-1.47562E-06 5.03037E-03 4.99635E-14-3.14713E-13
 -1      2999 2.42116E+01-4.70684E+00 6.15998E-02-3.16077E+00 3.67602E-13-2.57808E-13
 -1      3000 2.16623E+01-4.52341E+00 6.62244E-02-4.39191E+00-4.19623E-13-8.29666E-14
 -1      3001 1.54487E+01-2.89181E+00 1.34200E-01-5.45915E+00-4.62533E-13-5.91201E-13
 -1      3002 2.78323E+01-1.17884E+00-2.95444E-02 1.62966E+00 2.04219E-13 3.37383E-13
 -1      3003 2.88756E+01-3.88221E-01-1.88868E-01-1.87409E+00 3.68011E-13-5.51253E-13
 -1      3004 2.88027E+01-2.11788E+00-1.52628E-02-8.36805E-01 1.43226E-13-4.81726E-13
 -1      3005 2.92383E+01-2.27190E-01-8.87382E-02-1.05868E+00-4.65850E-13 5.33740E-14
 -1      3006 2.83173E+01-1.40874E+00 2.68294E-02-7.68251E-01-3.19078E-13 1.15949E-13
 -1      3007 2.82207E+01 6.44501E-01-1.59679E-01-1.88221E+00-4.29073E-13 9.47159E-14
 -1      3008 2.86539E+01 4.22733E+00-1.43027E-01-1.76860E+00-7.74658E-13-1.56278E-13
 -1      3009 2.80422E+01 2.86467E+00-1.24291E-01-1.99452E+00-6.50036E-13-9.16212E-14
 -1      3010 2.72943E+01 4.53015E+00-1.18154E-01-1.65043E+00-7.49636E-13-1.42122E-13
 -1      3011 2.02496E+01 2.39551E+00 6.71195E-04-3.92422E-01-3.64122E-13-5.09140E-13
 -1      3012 2.81473E+01 4.31025E-01-6.82532E-02-2.32192E+00 4.01852E-13-6.01991E-13
 -1      3013 2.77641E+01 4.48397E+00-8.38057E-02 1.81334E+00-7.31692E-13-7.00648E-13
 -1      3014 2.62043E+01-4.03836E+00 3.19638E-02-1.17780E+00-1.86493E-13 1.80446E-13
 -1      3015 2.05621E+01 1.70037E+00 2.80787E-03-9.44800E-02 4.16257E-13-3.15996E-13
 -1      3016 2.70844E+01-3.52265E+00-1.46630E-01 6.55055E-01-1.34731E-13 7.36772E-14
 -1      3017 2.65991E+01-4.25867E+00 4.43422E-04 1.84260E+00-8.46823E-14 4.35624E-14
 -1      3018 2.52811E+01-4.47575E+00 1.11270E-02 2.29379E+00 6.00214E-14 8.78464E-15
 -1      3019 1.85517E+01 3.50111E+00-8.07088E-03 8.46750E-02-2.55479E-14-7.01966E-13
 -1      3020 1.87310E+01 3.40736E+00-1.99988E-03 3.67581E-02-8.88586E-14-7.03004E-13
 -1      3021 1.88964E+01 3.04341E+00 4.94595E-03 1.49746E-01-1.04383E-13-6.42301E-13
 -1      3022 1.85236E+01 3.29360E+00 5.91202E-03 1.55351E-01-8.08560E-15-6.86614E-13
 -1      3023 2.78402E+01 2.94855E+00-1.52663E-01 2.35147E+00 6.77236E-13 3.33095E-13
 -1      3024 2.72160E+01 3.89099E+00-2.01833E-01 1.77492E+00 7.15580E-13 2.27748E-13
 -1      3025 1.21094E+01-2.36950E+00 1.43659E-01 5.14618E+00-4.66294E-13 4.74051E-13
 -1      3026 2.57594E+01-4.78696E+00 7.88086E-02 2.31138E+00-2.66454E-13-4.12254E-13
 -1      3027 2.43559E+01-4.73685E+00 7.17547E-02 2.83948E+00-4.23918E-13-3.99819E-13
 -1      3028 1.24377E+01-2.37200E+00 1.20231E-01-5.33509E+00 5.14117E-13 3.06533E-13
 -1      3029 2.72766E+01-3.88676E+00-1.21413E-01 8.76736E-01-6.85320E-14-4.88824E-13
 -1      3030 2.05042E+01-4.27943E+00-7.45270E-02 4.41483E+00-5.71765E-13-1.24428E-13
 -1      3031 1.77168E+01-3.15974E+00 1.67804E-01 5.02710E+00-5.87606E-13 7.45931E-14
 -1      3032 2.00642E+01 1.96342E+00-2.11439E-03-2.46575E-01 3.75864E-13-3.85880E-13
 -1      3033 1.96991E+01 2.23315E+00-5.35180E-03-2.60736E-01 3.44166E-13-4.34254E-13
 -1      3034 2.05389E+01 8.63062E-01 6.22224E-03 8.18889E-01-1.79927E-13-3.45448E-13
 -1      3035 2.05933E+01 6.16578E-01-3.95397E-04 1.00283E+00-1.34827E-13-3.28385E-13
 -1      3036 2.06759E+01 3.71220E-01 8.90115E-03 1.17786E+00-1.02324E-13-2.84870E-13
 -1      3037 2.07877E+01 1.06066E-01 5.94993E-04 1.28876E+00-6.88387E-14-2.73923E-13
 -1      3038 2.03234E+01 6.20443E-01-6.79029E-03 1.16068E+00-1.00290E-13-3.34386E-13
 -1      3039 2.09483E+01-1.71210E-01 1.25497E-02 1.40580E+00-6.90320E-14-2.33126E-13
 -1      3040 2.11408E+01-4.83603E-01 9.80327E-05 1.43140E+00-6.24877E-14-2.49361E-13
 -1      3041 2.05234E+01 2.25630E-02-1.22080E-02 1.48203E+00-5.27715E-14-3.05312E-13
 -1      3042 2.14311E+01-8.09936E-01 1.82298E-02 1.46531E+00-1.29907E-14-2.13172E-13
 -1      3043 2.17180E+01-1.17256E+00-3.11785E-03 1.38054E+00 2.70183E-14-1.75794E-13
 -1      3044 2.09172E+01-6.82502E-01-1.91013E-02 1.67950E+00-2.63301E-14-2.27673E-13
 -1      3045 2.21860E+01-1.52380E+00 2.54661E-02 1.28062E+00 5.34492E-14-1.53765E-13
 -1      3046 2.25612E+01-1.88396E+00-8.82843E-03 1.05115E+00 2.73531E-14-1.30697E-13
 -1      3047 2.16041E+01-1.50655E+00-2.62953E-02 1.68093E+00 4.95080E-14-1.76959E-13
 -1      3048 2.32166E+01-2.16214E+00 2.85048E-02 7.46031E-01 2.11515E-14-2.45467E-14
 -1      3049 2.36410E+01-2.34567E+00-9.64321E-03 3.54506E-01 5.37209E-14 2.50607E-14
 -1      3050 2.26326E+01-2.33854E+00-3.92564E-02 1.35089E+00 9.00799E-14-2.45706E-14
 -1      3051 2.43941E+01-2.36994E+00 9.45212E-03-2.26310E-01 5.83492E-14 8.91357E-14
 -1      3052 2.46660E+01-2.14996E+00-9.21180E-03-7.10320E-01 7.29325E-14 1.13826E-13
 -1      3053 2.40837E+01-2.78078E+00-1.83365E-02 5.04022E-01 1.16310E-13 1.29872E-13
 -1      3054 2.51668E+01 8.39578E-01-1.17726E-01-2.15093E+00-3.02258E-13 1.37162E-13
 -1      3055 2.51545E+01 2.09971E+00-3.46593E-02-1.95149E+00-4.32959E-13 1.01716E-13
 -1      3056 2.55767E+01 3.84156E+00-1.18899E-01-1.42567E+00-6.17117E-13-4.60673E-14
 -1      3057 2.54396E+01 4.60411E+00-1.18316E-01-6.65919E-01-6.44540E-13-1.78236E-13
 -1      3058 2.52167E+01 4.66371E+00-1.23758E-01 4.44254E-01-6.49661E-13-3.89333E-13
 -1      3059 2.52910E+01 4.14000E+00-1.57133E-01 1.29881E+00-6.70283E-13-4.88589E-13
 -1      3060 2.59170E+01 3.05796E+00-7.94921E-02 2.06080E+00-5.72958E-13-6.27998E-13
 -1      3061 2.60944E+01 1.61815E+00-1.03761E-01 2.32918E+00-4.59924E-13-6.55032E-13
 -1      3062 2.48892E+01-1.83745E+00-1.68403E-02 1.19146E+00-5.38588E-15-4.60181E-13
 -1      3063 2.45783E+01-2.26396E+00 7.55500E-03 6.53212E-01 2.48261E-14-4.48091E-13
 -1      3064 2.38272E+01-2.36585E+00-1.31314E-02 4.98045E-02 6.51970E-14-3.11853E-13
 -1      3065 2.34235E+01-2.26691E+00 2.73154E-02-3.87991E-01 1.30417E-13-2.57100E-13
 -1      3066 2.42957E+01-2.73581E+00-1.76044E-02-1.03427E-01 1.11183E-13-3.72684E-13
 -1      3067 2.27127E+01-2.04704E+00-1.23780E-02-7.63917E-01 1.36097E-13-1.60535E-13
 -1      3068 2.23201E+01-1.72994E+00 2.52030E-02-1.04525E+00 1.00238E-13-1.75843E-13
 -1      3069 2.28376E+01-2.52182E+00-3.47748E-02-1.06433E+00 1.61988E-13-1.86832E-13
 -1      3070 2.17918E+01-1.40997E+00-4.08531E-03-1.20589E+00 2.88533E-14-1.14089E-13
 -1      3071 2.14647E+01-1.07860E+00 1.75461E-02-1.34824E+00 8.79696E-14-5.62742E-14
 -1      3072 2.16759E+01-1.78160E+00-2.75078E-02-1.51689E+00 1.22703E-13-1.44655E-13
 -1      3073 2.11230E+01-7.86723E-01 8.76035E-04-1.37542E+00 1.10353E-13-5.39632E-14
 -1      3074 2.08806E+01-5.20620E-01 1.06278E-02-1.42043E+00 1.86290E-13-6.05005E-14
 -1      3075 2.08758E+01-1.02571E+00-1.93825E-02-1.63454E+00 1.01075E-13-4.55671E-14
 -1      3076 2.06815E+01-3.01011E-01 2.77131E-03-1.37780E+00 2.16248E-13-7.17042E-14
 -1      3077 2.05137E+01-1.16479E-01 5.53509E-03-1.36221E+00 1.62460E-13-4.62678E-14
 -1      3078 2.03854E+01-4.27463E-01-1.21193E-02-1.57355E+00 1.48751E-13 2.93866E-14
 -1      3079 2.04098E+01 2.85227E-02 3.11785E-03-1.28757E+00 4.32307E-14-5.22200E-14
 -1      3080 2.02973E+01 1.41472E-01 2.24096E-03-1.23760E+00-3.85674E-14-3.80352E-14
 -1      3081 2.01138E+01-1.56706E-02-6.80100E-03-1.42925E+00 1.28770E-13-1.13562E-13
 -1      3082 2.02510E+01 2.25643E-01 2.87803E-03-1.15137E+00-5.42022E-14 6.89403E-14
 -1      3083 2.01756E+01 2.84759E-01 2.75246E-04-1.08427E+00 6.71929E-14 8.39831E-14
 -1      3084 1.99803E+01 2.35574E-01-3.45704E-03-1.25394E+00 2.74009E-14 2.47837E-14
 -1      3085 2.01615E+01 3.24990E-01 2.54171E-03-9.97018E-01 8.92972E-14 1.14182E-14
 -1      3086 2.01096E+01 3.47246E-01-7.98227E-04-9.23879E-01 1.03081E-13 1.31622E-14
 -1      3087 1.99269E+01 3.67311E-01-1.52876E-03-1.07329E+00 3.70056E-14 1.31669E-13
 -1      3088 2.01120E+01 3.58375E-01 2.24344E-03-8.41225E-01 1.50471E-13-5.12014E-14
 -1      3089 2.00747E+01 3.57366E-01-1.30725E-03-7.69031E-01 1.75983E-13 2.04780E-14
 -1      3090 1.99162E+01 4.17426E-01-4.91519E-04-9.00091E-01 5.20809E-14 1.71113E-14
 -1      3091 2.00843E+01 3.50789E-01 1.99227E-03-6.93969E-01 1.85110E-13-8.01781E-16
 -1      3092 2.00563E+01 3.36439E-01-1.47355E-03-6.26905E-01 1.29695E-13 6.52715E-14
 -1      3093 1.99258E+01 4.15868E-01 1.08714E-05-7.40999E-01 1.86277E-13-8.44369E-14
 -1      3094 2.00679E+01 3.20224E-01 1.76910E-03-5.60861E-01-1.57311E-14 7.74738E-14
 -1      3095 2.00459E+01 2.99315E-01-1.44333E-03-5.01181E-01-5.79256E-14-1.93591E-14
 -1      3096 1.99428E+01 3.84457E-01 2.13139E-04-5.99350E-01 1.22125E-13-5.01149E-14
 -1      3097 2.00570E+01 2.78844E-01 1.55767E-03-4.44578E-01-4.77995E-14 3.96390E-14
 -1      3098 2.00393E+01 2.55761E-01-1.30937E-03-3.93204E-01-5.28701E-14 1.37469E-13
 -1      3099 1.99607E+01 3.38164E-01 2.56936E-04-4.76453E-01-4.57764E-14 3.59684E-14
 -1      3100 2.00487E+01 2.34420E-01 1.35242E-03-3.45795E-01-1.92185E-13 1.54898E-13
 -1      3101 2.00343E+01 2.11823E-01-1.12963E-03-3.02763E-01-1.87958E-13 1.18116E-13
 -1      3102 1.99763E+01 2.86745E-01 2.27299E-04-3.72241E-01-1.01446E-13 1.74201E-13
 -1      3103 2.00416E+01 1.91590E-01 1.15462E-03-2.63870E-01-5.71897E-14 3.75921E-14
 -1      3104 2.00299E+01 1.70948E-01-9.39517E-04-2.28665E-01-2.92679E-14 1.83695E-14
 -1      3105 1.99886E+01 2.36171E-01 1.70726E-04-2.85697E-01-1.89794E-13 1.20579E-14
 -1      3106 2.00353E+01 1.52853E-01 9.68185E-04-1.97371E-01-1.21614E-13 7.96766E-14
 -1      3107 2.00258E+01 1.34852E-01-7.58715E-04-1.69176E-01-2.48380E-13-8.54125E-15
 -1      3108 1.99975E+01 1.89786E-01 1.11502E-04-2.15211E-01-8.20388E-14 5.57597E-14
 -1      3109 2.00296E+01 1.19317E-01 7.97114E-04-1.44460E-01-2.13882E-13 4.75406E-14
 -1      3110 2.00219E+01 1.04151E-01-5.97263E-04-1.22322E-01-3.67525E-14 1.86479E-13
 -1      3111 2.00035E+01 1.49190E-01 6.05290E-05-1.58859E-01-1.80689E-13 2.01294E-13
 -1      3112 2.00244E+01 9.12271E-02 6.44356E-04-1.03154E-01-9.76366E-14 6.66561E-14
 -1      3113 2.00183E+01 7.88008E-02-4.59170E-04-8.61053E-02-6.89652E-14 9.47654E-14
 -1      3114 2.00071E+01 1.14873E-01 2.12686E-05-1.14616E-01-6.07265E-14 8.18761E-14
 -1      3115 2.00198E+01 6.83247E-02 5.11474E-04-7.15097E-02 2.90611E-14 1.55163E-13
 -1      3116 2.00150E+01 5.83832E-02-3.44900E-04-5.86307E-02 5.69732E-14 1.25729E-13
 -1      3117 2.00089E+01 8.66664E-02-6.36297E-06-8.04989E-02-7.28174E-14 1.30392E-13
 -1      3118 2.00157E+01 5.00829E-02 3.98634E-04-4.77262E-02 8.14999E-14 5.33612E-14
 -1      3119 2.00121E+01 4.22996E-02-2.52914E-04-3.81904E-02 2.73462E-13-6.14649E-14
 -1      3120 2.00095E+01 6.40306E-02-2.39942E-05-5.46673E-02-8.43752E-15 3.34132E-13
 -1      3121 2.00123E+01 3.58599E-02 3.04910E-04-3.02075E-02 4.24925E-13-2.40433E-13
 -1      3122 2.00095E+01 2.98897E-02-1.80667E-04-2.32989E-02 3.46475E-13-5.26951E-14
 -1      3123 2.00092E+01 4.62543E-02-3.37421E-05-3.54810E-02 2.72849E-13 1.31646E-13
 -1      3124 2.00095E+01 2.49932E-02 2.28661E-04-1.75856E-02 2.55759E-13-3.27879E-14
 -1      3125 2.00074E+01 2.05040E-02-1.25259E-04-1.27023E-02 1.82237E-13 8.27995E-14
 -1      3126 2.00085E+01 3.25753E-02-3.76797E-05-2.15241E-02 3.95694E-13-2.72471E-14
 -1      3127 2.00071E+01 1.68532E-02 1.67870E-04-8.72029E-03 6.59977E-14 1.37770E-13
 -1      3128 2.00056E+01 1.35424E-02-8.38191E-05-5.36999E-03-1.21959E-13 9.47113E-14
 -1      3129 2.00074E+01 2.22543E-02-3.76114E-05-1.16081E-02 1.87115E-13-5.45840E-14
 -1      3130 2.00052E+01 1.08705E-02 1.20422E-04-2.68549E-03-3.04784E-13 1.12653E-13
 -1      3131 2.00041E+01 8.47200E-03-5.37076E-05-4.75829E-04-7.22912E-14 5.72118E-14
 -1      3132 2.00062E+01 1.46136E-02-3.50053E-05-4.75949E-03-1.76222E-13 2.33621E-13
 -1      3133 2.00037E+01 6.54677E-03 8.42447E-05 1.25227E-03 1.43958E-13-2.19819E-13
 -1      3134 2.00029E+01 4.83141E-03-3.27142E-05 2.62571E-03 3.24173E-13-2.02288E-13
 -1      3135 2.00050E+01 9.05449E-03-3.09479E-05-2.00632E-04-4.96646E-14 2.51333E-13
 -1      3136 2.00025E+01 3.45346E-03 5.72710E-05 3.65808E-03 3.31866E-13-1.57174E-13
 -1      3137 2.00020E+01 2.22719E-03-1.81248E-05 4.42376E-03 2.51022E-13-1.90710E-13
 -1      3138 2.00039E+01 5.05967E-03-2.62577E-05 2.67457E-03 3.39120E-13-1.58905E-13
 -1      3139 2.00015E+01 1.22773E-03 3.74309E-05 4.95554E-03 1.36248E-13-2.50675E-13
 -1      3140 2.00012E+01 3.23268E-04-1.08212E-05 5.28216E-03 6.49602E-14-2.64281E-13
 -1      3141 2.00029E+01 2.19588E-03-2.05832E-05 4.32184E-03 2.06607E-13-3.45183E-13
 -1      3142 2.00008E+01-4.44605E-04 2.25457E-05 5.43331E-03-1.05440E-13-2.63879E-13
 -1      3143 2.00006E+01-1.13869E-03-6.62271E-06 5.42830E-03-2.20431E-13-5.34863E-13
 -1      3144 2.00020E+01 5.35378E-05-1.82771E-05 5.08958E-03-1.22925E-13-5.44182E-13
 -1      3145 2.64493E+01-3.15195E+00 4.65611E-02-8.06879E-02 1.07529E-13-5.73472E-13
 -1      3146 2.70241E+01-1.78465E+00-1.20119E-01 1.17241E+00-1.51911E-13-7.42774E-13
 -1      3147 1.78354E+01-3.22356E+00 1.63747E-01-5.16256E+00 3.18544E-13-7.73270E-14
 -1      3148 2.01193E+01-4.30886E+00-9.22621E-02-4.72518E+00 3.53537E-13-1.33872E-13
 -1      3149 2.34243E+01-2.59162E+00-2.04778E-02-1.28813E+00-1.53006E-13-4.38950E-14
 -1      3150 2.29118E+01-2.09954E+00 4.44770E-02-1.61816E+00-1.51262E-13-9.74837E-14
 -1      3151 2.55842E+01-3.26410E+00 8.27992E-03 5.68514E-02-2.62842E-13-5.03538E-13
 -1      3152 2.61873E+01-2.83159E+00-2.01738E-02-6.22413E-01-1.16813E-13-5.08505E-13
 -1      3153 2.24976E+01-1.75935E+00 3.29830E-02 1.57261E+00-3.09243E-13-3.61315E-13
 -1      3154 2.30626E+01-2.20197E+00 1.05304E-02 1.26544E+00-3.47951E-13-3.46005E-13
 -1      3155 2.15267E+01-9.13034E-01 1.97046E-02 1.80085E+00-2.15548E-13-2.65256E-13
 -1      3156 2.19184E+01-1.32467E+00 2.08884E-03 1.67654E+00-2.74145E-13-3.17875E-13
 -1      3157 2.15019E+01-1.75132E+00-4.25962E-02 2.06985E+00-3.18979E-13-2.98575E-13
 -1      3158 2.09381E+01-2.88756E-01 9.82046E-03 1.78747E+00-7.03514E-14 6.12979E-14
 -1      3159 2.12012E+01-5.75883E-01 3.90508E-03 1.77375E+00-1.81296E-13-1.20366E-13
 -1      3160 2.07176E+01-8.10941E-01-2.08965E-02 2.06910E+00-2.83386E-13-1.56409E-13
 -1      3161 2.06011E+01 1.06289E-01 3.85481E-03 1.65115E+00-1.00634E-13 1.97430E-13
 -1      3162 2.07753E+01-6.65397E-02 4.31709E-03 1.70044E+00 7.81352E-15 1.56782E-13
 -1      3163 2.02901E+01-1.62878E-01-1.17572E-02 1.90793E+00-1.86780E-13 1.73638E-13
 -1      3164 2.04145E+01 3.20246E-01 6.42203E-04 1.46038E+00-1.11599E-13 1.97179E-13
 -1      3165 2.05320E+01 2.32063E-01 3.97457E-03 1.54184E+00-8.77454E-14 2.05181E-13
 -1      3166 2.00925E+01 2.27724E-01-5.57275E-03 1.68799E+00-1.44406E-13 3.21062E-13
 -1      3167 2.03095E+01 4.11112E-01-9.70398E-04 1.25264E+00-5.91526E-14 1.95069E-13
 -1      3168 2.03933E+01 3.78463E-01 3.53502E-03 1.34692E+00-8.25081E-14 2.49024E-13
 -1      3169 2.00180E+01 4.27994E-01-2.04526E-03 1.45515E+00-7.19897E-14 1.61899E-13
 -1      3170 2.02461E+01 4.26389E-01-1.65735E-03 1.04866E+00-1.24929E-13 1.81218E-13
 -1      3171 2.03099E+01 4.26821E-01 3.16374E-03 1.14391E+00-1.00242E-13 2.06743E-13
 -1      3172 2.00019E+01 5.03455E-01-3.34505E-04 1.22927E+00-9.73473E-14 1.62911E-14
 -1      3173 2.02026E+01 3.99860E-01-1.82395E-03 8.59892E-01-7.58817E-14 2.13630E-13
 -1      3174 2.02539E+01 4.17896E-01 2.85743E-03 9.49223E-01-6.69913E-14 2.22817E-13
 -1      3175 2.00086E+01 5.04136E-01 3.56962E-04 1.02001E+00-1.25510E-13 1.81317E-13
 -1      3176 2.01686E+01 3.53456E-01-1.73047E-03 6.91989E-01 1.03197E-14 6.13234E-15
 -1      3177 2.02112E+01 3.79312E-01 2.57844E-03 7.71846E-01-1.98905E-14 6.71171E-14
 -1      3178 2.00206E+01 4.64504E-01 5.20231E-04 8.32214E-01 2.65017E-14 1.36596E-13
 -1      3179 2.01397E+01 3.00268E-01-1.52615E-03 5.47069E-01 8.99349E-14 2.36844E-14
 -1      3180 2.01755E+01 3.28222E-01 2.30595E-03 6.15995E-01 9.19289E-14 1.36171E-14
 -1      3181 2.00307E+01 4.06540E-01 4.49903E-04 6.67838E-01 8.13888E-14-1.06639E-13
 -1      3182 2.01145E+01 2.47705E-01-1.28278E-03 4.25119E-01 7.27779E-14 9.80529E-14
 -1      3183 2.01443E+01 2.74562E-01 2.02659E-03 4.82973E-01 8.33964E-14 8.18485E-14
 -1      3184 2.00367E+01 3.43300E-01 3.21183E-04 5.27175E-01 2.35776E-14-4.89016E-14
 -1      3185 2.00923E+01 1.99652E-01-1.04329E-03 3.24691E-01 6.87132E-14 1.42218E-13
 -1      3186 2.01169E+01 2.23808E-01 1.74288E-03 3.72158E-01 8.76661E-14 1.49913E-13
 -1      3187 2.00387E+01 2.82099E-01 1.83114E-04 4.09351E-01 7.91214E-14 3.46268E-14
 -1      3188 2.00730E+01 1.57757E-01-8.28882E-04 2.43548E-01-1.46433E-13 2.62249E-13
 -1      3189 2.00931E+01 1.78595E-01 1.46958E-03 2.81724E-01-9.98132E-15 1.60489E-13
 -1      3190 2.00376E+01 2.26746E-01 6.90707E-05 3.12517E-01-4.53973E-14 1.08600E-13
 -1      3191 2.00567E+01 1.22406E-01-6.45331E-04 1.79150E-01 1.08636E-14 1.28047E-13
 -1      3192 2.00728E+01 1.39851E-01 1.21529E-03 2.09295E-01-7.70936E-14 2.19188E-13
 -1      3193 2.00345E+01 1.78780E-01-9.87490E-06 2.34340E-01-8.91085E-15 2.90159E-14
 -1      3194 2.00432E+01 9.33272E-02-4.92849E-04 1.28916E-01 1.98019E-13 6.55817E-14
 -1      3195 2.00559E+01 1.07587E-01 9.85884E-04 1.52308E-01 4.75722E-14 3.63278E-14
 -1      3196 2.00304E+01 1.38456E-01-6.00717E-05 1.72319E-01 9.38252E-14-1.21647E-13
 -1      3197 2.00323E+01 6.99081E-02-3.69434E-04 9.03910E-02 3.13179E-13 6.04183E-14
 -1      3198 2.00420E+01 8.13301E-02 7.85532E-04 1.08233E-01 3.46406E-13 1.01874E-13
 -1      3199 2.00258E+01 1.05375E-01-8.74067E-05 1.23941E-01 2.36769E-13-2.06993E-13
 -1      3200 2.00236E+01 5.13971E-02-2.71645E-04 6.13531E-02 1.66744E-13 6.28293E-14
 -1      3201 2.00309E+01 6.03805E-02 6.15033E-04 7.47244E-02 2.51129E-13 1.73022E-14
 -1      3202 2.00214E+01 7.87879E-02-9.81705E-05 8.68373E-02 3.35158E-13-1.38955E-13
 -1      3203 2.00168E+01 3.70202E-02-1.95565E-04 3.98627E-02-1.66106E-14 3.41842E-13
 -1      3204 2.00223E+01 4.39638E-02 4.73118E-04 4.96972E-02 3.39268E-14 2.03693E-13
 -1      3205 2.00173E+01 5.78109E-02-9.79503E-05 5.88688E-02-3.26864E-15 2.56123E-14
 -1      3206 2.00116E+01 2.60448E-02-1.37408E-04 2.42732E-02-1.48724E-13 3.13098E-13
 -1      3207 2.00156E+01 3.13199E-02 3.57342E-04 3.13580E-02 2.13957E-14 4.64143E-13
 -1      3208 2.00136E+01 4.15461E-02-9.10898E-05 3.81701E-02-6.06834E-14 3.20255E-13
 -1      3209 2.00078E+01 1.78109E-02-9.37333E-05 1.32189E-02-8.14383E-14 2.00514E-13
 -1      3210 2.00106E+01 2.17485E-02 2.64638E-04 1.82024E-02-7.54627E-14 2.67453E-13
 -1      3211 2.00105E+01 2.91499E-02-8.07045E-05 2.31572E-02 1.80379E-14 1.42709E-13
 -1      3212 2.00050E+01 1.17426E-02-6.16250E-05 5.59156E-03 1.60180E-13-1.38098E-13
 -1      3213 2.00069E+01 1.46297E-02 1.91773E-04 8.99607E-03-4.47343E-14-2.58740E-14
 -1      3214 2.00080E+01 1.98652E-02-6.88263E-05 1.25158E-02 1.29979E-13-8.45967E-14
 -1      3215 2.00030E+01 7.34632E-03-3.87497E-05 5.10188E-04 9.55075E-14-2.13846E-14
 -1      3216 2.00042E+01 9.42784E-03 1.35659E-04 2.74759E-03 1.12227E-13-1.21257E-13
 -1      3217 2.00059E+01 1.30315E-02-5.69907E-05 5.17839E-03 1.32810E-13-2.57424E-13
 -1      3218 2.00016E+01 4.20459E-03-2.30831E-05-2.70677E-03 3.30149E-13-2.29254E-13
 -1      3219 2.00024E+01 5.68660E-03 9.34612E-05-1.32056E-03 2.84151E-13-1.37249E-13
 -1      3220 2.00042E+01 8.08362E-03-4.55848E-05 2.97020E-04 2.37815E-13-3.21020E-13
 -1      3221 2.00007E+01 1.97532E-03-1.27996E-05-4.57242E-03 3.12088E-13-5.15396E-13
 -1      3222 2.00011E+01 3.02513E-03 6.19911E-05-3.80067E-03 3.66160E-13-4.31433E-13
 -1      3223 2.00029E+01 4.54729E-03-3.45664E-05-2.78015E-03 4.51169E-13-5.13506E-13
 -1      3224 2.00001E+01 3.61238E-04-6.96639E-06-5.46800E-03 1.68087E-13-3.30474E-13
 -1      3225 2.00003E+01 1.12760E-03 3.99516E-05-5.14082E-03 2.17840E-13-5.11296E-13
 -1      3226 2.00019E+01 2.02040E-03-2.80781E-05-4.55129E-03 2.26281E-13-7.99158E-13
 -1      3227 1.99997E+01-8.70394E-04-1.71630E-06-5.64573E-03-2.21315E-13-3.68836E-13
 -1      3228 1.99998E+01-2.87271E-04 2.25172E-05-5.65049E-03-1.71137E-14-3.63967E-13
 -1      3229 2.00011E+01 1.74306E-04-2.06149E-05-5.38255E-03 1.12363E-13-4.24148E-13
 -1      3230 1.99999E+01-1.68318E-03-1.51096E-06-5.41115E-03-1.70088E-14-8.02911E-13
 -1      3231 1.99997E+01-1.23958E-03-1.21781E-06-5.60478E-03-9.41324E-14-5.79760E-13
 -1      3232 2.00007E+01-1.01961E-03-7.63702E-06-5.51940E-03 1.60029E-14-5.55963E-13
 -1      3233 2.00006E+01-1.88074E-03 7.62357E-06-5.33448E-03-1.86234E-13-7.78845E-13
 -1      3234 1.04460E+01-1.71994E-01 1.33327E-01-2.68171E+00-2.52590E-13-9.71001E-13
 -1      3235 1.19812E+01-1.06426E+00 2.35852E-02-4.16204E+00-3.46487E-13-8.95159E-13
 -1      3236 1.83818E+01 3.10711E+00-3.72820E-03-4.19091E-02 1.67847E-13-6.12049E-13
 -1      3237 1.82829E+01 3.16168E+00-5.06396E-03 4.31333E-03 1.11371E-13-6.33518E-13
 -1      3238 2.27728E+01-4.63101E+00-6.52404E-02 3.70791E+00 2.38587E-13-1.24557E-13
 -1      3239 2.08270E+01-4.31595E+00 1.09940E-01 4.86122E+00 3.69517E-13-2.73642E-13
 -1      3240 8.81088E+00-6.80092E-01 3.77192E-02 2.77664E+00-2.66495E-13 6.92141E-13
 -1      3241 7.69644E+00-2.18756E-01 2.04170E-01 7.37856E-01-9.55538E-14 8.37302E-13
 -1      3242 2.00040E+01-1.82504E-03-2.11937E-06 4.07465E-04 3.63565E-13-1.70997E-13
 -1      3243 2.00040E+01-1.82808E-03-2.03935E-06-3.43419E-04 5.59483E-13-8.14095E-14
 -1      3244 2.00023E+01-1.75638E-03-1.11948E-05 4.41661E-03 2.59962E-13-1.97156E-13
 -1      3245 2.00028E+01-1.87448E-03 1.62337E-06 3.90203E-03 3.62419E-13-1.74013E-13
 -1      3246 2.00038E+01-1.81454E-03-1.49278E-06 1.87365E-03 1.83101E-13 6.42025E-14
 -1      3247 2.00039E+01-1.84495E-03-1.57552E-06 1.15933E-03 3.55654E-13-5.17032E-14
 -1      3248 2.00047E+01-5.80430E-04 1.40087E-05 7.73612E-04 4.26258E-13-2.17660E-13
 -1      3249 1.22387E+01-1.14215E+00 6.29857E-02 4.37686E+00 3.25455E-13-7.93754E-13
 -1      3250 1.04765E+01-3.87432E-01 1.13787E-01 3.13606E+00 2.37813E-13-9.20652E-13
 -1      3251 2.44913E+01-2.93637E+00 7.86468E-03 4.75104E-01-3.09934E-13-3.96330E-13
 -1      3252 2.45261E+01-3.97026E+00-8.81739E-02 1.46490E+00-3.52263E-13-4.94667E-13
 -1      3253 1.80593E+01-3.78209E+00-4.58198E-03 5.54089E+00 3.96044E-13-4.24848E-13
 -1      3254 1.49720E+01-2.39066E+00 1.13698E-01 5.33899E+00 4.16590E-13-6.02796E-13
 -1      3255 2.03736E+01-3.60558E+00 1.56964E-01-4.51115E+00-4.54792E-13-1.51249E-13
 -1      3256 2.27314E+01-4.40879E+00-1.15223E-01-3.40344E+00-3.56191E-13 4.31391E-14
 -1      3257 2.22135E+01-1.65008E+00-4.11241E-03-1.80175E+00-1.22118E-13-1.57221E-13
 -1      3258 2.17828E+01-1.16621E+00 2.51299E-02-1.95244E+00-1.06934E-13-1.57778E-13
 -1      3259 2.19471E+01-2.17409E+00-4.79660E-02-2.25821E+00-1.64486E-13-1.61032E-13
 -1      3260 2.73127E+01 4.05450E+00-6.74253E-02-1.83338E+00 7.52523E-13-2.38996E-13
 -1      3261 2.69711E+01 1.63575E+00-7.93361E-03 2.39436E+00 5.20681E-13 3.86430E-13
 -1      3262 2.00032E+01-1.80657E-03-2.49934E-06 3.25394E-03 1.13309E-13-1.69898E-13
 -1      3263 2.00036E+01-1.87486E-03-1.92035E-06 2.60322E-03 1.23491E-14 1.62076E-14
 -1      3264 2.00043E+01-6.73605E-04 1.23781E-05 2.22715E-03 7.07079E-14-1.14082E-13
 -1      3265 2.00036E+01-8.21877E-04 1.03227E-05 3.57482E-03 9.55791E-14 8.69047E-14
 -1      3266 2.38278E+01-2.66590E+00 4.50643E-02 1.01961E+00-3.79735E-13-3.69831E-13
 -1      3267 1.46424E+01-1.72229E+00 1.55949E-01-4.80173E+00-4.40026E-13-6.54130E-13
 -1      3268 1.71252E+01-3.04958E+00-6.69742E-02-5.13686E+00-4.38143E-13-3.79960E-13
 -1      3269 2.13937E+01-7.46976E-01 4.40367E-03-1.92333E+00-6.38760E-14-2.01403E-13
 -1      3270 2.11003E+01-3.71238E-01 1.40466E-02-1.93034E+00-2.36096E-15-2.33127E-13
 -1      3271 2.09539E+01-1.05057E+00-3.38890E-02-2.27419E+00-9.61926E-14-2.49888E-13
 -1      3272 2.72846E+01-3.13020E+00 5.03585E-03-3.36233E-01-7.64536E-14-5.19529E-13
 -1      3273 1.39754E+01-2.22421E+00-3.73845E-02 4.99486E+00-4.65683E-13 2.66898E-13
 -1      3274 1.15323E+01-1.05070E+00 2.12683E-01 4.06732E+00-3.66804E-13 3.39562E-13
 -1      3275 2.06333E+01 1.34166E+00 1.07047E-03-4.26904E-01 3.50680E-13-2.99313E-13
 -1      3276 2.03174E+01 1.71674E+00 4.22869E-04-3.22415E-01 3.62063E-13-3.48003E-13
 -1      3277 2.01409E+01 1.61231E+00 1.28913E-03-5.71621E-01 3.22472E-13-3.73935E-13
 -1      3278 2.06295E+01 1.12877E+00-1.57193E-03-7.24171E-01 2.90224E-13-3.10131E-13
 -1      3279 1.17034E+01-1.22207E+00 1.62466E-01-4.37787E+00 4.09561E-13 4.27408E-13
 -1      3280 1.43171E+01-2.42185E+00-2.80465E-02-5.23783E+00 3.97522E-13 9.63674E-14
 -1      3281 2.09142E+01-5.66394E-02 4.22543E-03-1.80614E+00 4.30899E-14-2.70289E-13
 -1      3282 2.07428E+01 2.15594E-01 7.43517E-03-1.71292E+00 7.02624E-14-2.86525E-13
 -1      3283 2.04591E+01-1.81733E-01-1.71962E-02-2.05164E+00-1.35462E-14-2.71742E-13
 -1      3284 8.32811E+00-2.04809E-01 1.60634E-01 1.17527E+00 3.67536E-14-1.16707E-12
 -1      3285 6.66055E+00-6.39833E-01 1.73534E-01-8.28857E-02-6.44736E-14-1.26418E-12
 -1      3286 2.30139E+01-4.42952E+00 1.09137E-01-3.42058E+00 3.65506E-13-2.01919E-13
 -1      3287 2.49598E+01-4.48011E+00-1.22958E-01-1.95235E+00 2.95073E-13-3.90354E-13
 -1      3288 2.01609E+01 2.17276E+00 6.34607E-04-1.30449E-01-3.12713E-13-4.97028E-13
 -1      3289 2.51270E+01-3.94104E+00 9.84334E-02-1.58219E+00-2.72752E-13 1.28182E-13
 -1      3290 2.61199E+01-3.36615E+00-7.90864E-02-7.91321E-02-1.18393E-13 1.88560E-13
 -1      3291 2.32233E+01-4.08265E+00 1.03034E-01 2.86240E+00-4.81733E-13-2.97920E-13
 -1      3292 8.53525E+00-1.10961E-01 1.47450E-01-1.16104E+00-1.59473E-13-1.10187E-12
 -1      3293 2.68490E+01-2.36699E-01-1.52828E-01 2.30551E+00 3.47847E-13 4.60978E-13
 -1      3294 2.70240E+01-1.66524E+00-9.16910E-02-1.90916E+00 1.05901E-13-5.76365E-13
 -1      3295 2.68842E+01-1.72714E+00-3.20369E-03 1.47548E+00 1.26319E-13 3.52197E-13
 -1      3296 9.82250E+00 7.38474E-02 1.14607E-01 2.09179E+00 1.30101E-13-1.00341E-12
 -1      3297 9.62309E+00 3.16548E-01 8.64432E-02 5.90906E-01 1.42521E-14-1.01986E-12
 -1      3298 1.17798E+01 1.72650E-01 1.15870E-01 2.40189E+00 1.97731E-13-8.43742E-13
 -1      3299 2.63367E+01-2.73528E+00-3.60066E-02 7.53030E-01-2.90527E-14 2.71665E-13
 -1      3300 1.82509E+01 3.17459E+00-5.75013E-03 1.08167E-01 9.36477E-14-6.34180E-13
 -1      3301 1.82868E+01 3.15609E+00-2.47262E-03 1.51255E-01 4.61177E-14-6.55332E-13
 -1      3302 1.82319E+01 2.95738E+00 9.39912E-03 4.27843E-02 9.61754E-14-6.10166E-13
 -1      3303 1.95207E+01 2.11722E+00 3.22675E-03-4.61548E-01 3.01779E-13-4.35378E-13
 -1      3304 1.93537E+01 2.48338E+00-1.23931E-03-2.32717E-01 3.31230E-13-4.88734E-13
 -1      3305 1.90390E+01 2.68006E+00-7.60068E-03-2.29133E-01 2.77123E-13-5.26710E-13
 -1      3306 2.61520E+01-2.10077E+00-5.15532E-02-7.88080E-01-5.76865E-14 1.51157E-13
 -1      3307 2.59589E+01-1.21375E+00-3.75902E-02-1.53583E+00-4.54159E-14 1.19375E-13
 -1      3308 1.91918E+01-2.74278E+00 6.82205E-02-4.25083E+00-4.24428E-13-2.43305E-13
 -1      3309 1.64978E+01-2.32710E+00 6.61017E-02-4.68289E+00 2.97096E-13 4.37983E-14
 -1      3310 1.96529E+01-3.51481E+00 8.08458E-02 4.69617E+00 4.19151E-13-3.35263E-13
 -1      3311 8.95430E+00 4.69862E-02 1.52939E-01-2.88177E-01 7.71119E-14 5.27675E-13
 -1      3312 2.00029E+01-1.89434E-03 4.20272E-06-3.88384E-03-1.38875E-15-1.40290E-14
 -1      3313 2.00023E+01-1.79624E-03-3.17575E-06-4.40972E-03-1.63308E-13 4.53690E-14
 -1      3314 2.60859E+01-1.66156E-02-3.43747E-02-1.94018E+00-2.02421E-13 9.98993E-14
 -1      3315 2.72087E+01 1.01154E+00-8.87714E-02 2.26575E+00-3.60996E-13-7.02979E-13
 -1      3316 2.54468E+01 1.78279E-01-2.29054E-02 2.16575E+00-2.71734E-13-6.01338E-13
 -1      3317 2.63193E+01-1.51091E+00-1.54184E-02 1.50161E+00-5.79814E-14-6.91905E-13
 -1      3318 2.73250E+01-6.35667E-01-5.15514E-02 1.83862E+00-2.10651E-13-6.92585E-13
 -1      3319 2.54062E+01-9.26997E-01-6.64006E-02 1.88682E+00-8.95117E-14-5.38456E-13
 -1      3320 2.53547E+01-3.42078E+00 1.70539E-02-6.06186E-01 1.86655E-13-4.51767E-13
 -1      3321 2.00017E+01-1.68411E-03 1.55749E-06 4.98165E-03-8.75448E-14-2.71615E-13
 -1      3322 2.00024E+01-8.30347E-04 1.45676E-05 4.74532E-03-5.81034E-14-4.89224E-13
 -1      3323 2.52842E+01-2.83235E+00-1.76450E-02 1.67738E-01-8.46363E-14 1.71622E-13
 -1      3324 2.19207E+01-3.86576E+00 7.05733E-02-3.43077E+00 3.32494E-13-1.81022E-13
 -1      3325 1.13622E+01-3.64273E-01 1.04644E-01 2.90547E+00-2.68258E-13 4.78062E-13
 -1      3326 2.71805E+01-6.58421E-02-4.65406E-02-2.30720E+00 3.07143E-13-5.55292E-13
 -1      3327 2.42130E+01-4.48924E+00 6.12321E-02 2.87977E+00 1.63643E-13-1.09739E-14
 -1      3328 2.30050E+01-4.14146E+00 5.07273E-02 3.20113E+00 2.51285E-13-6.75432E-14
 -1      3329 2.49894E+01-4.11386E+00-4.47019E-03 1.82511E+00 9.23463E-14 8.70970E-14
 -1      3330 1.42926E+01-9.90938E-01 8.39849E-02-4.03431E+00-3.20168E-13-6.95236E-13
 -1      3331 2.27650E+01-2.93362E+00-8.07409E-02 1.84935E+00-3.61862E-13-3.85660E-13
 -1      3332 1.85432E+01 2.99957E+00-7.12020E-03-1.36410E-01 1.94078E-13-5.69614E-13
 -1      3333 1.84320E+01 2.83991E+00 8.90639E-03-1.77508E-01 1.62143E-13-5.55498E-13
 -1      3334 1.87659E+01 2.87238E+00-1.88584E-03-1.66778E-01 2.54292E-13-5.52740E-13
 -1      3335 2.00036E+01-1.89657E-03 1.84076E-07-2.57276E-03 2.78921E-13 1.58772E-13
 -1      3336 2.00033E+01-1.83782E-03-4.01523E-06-3.23507E-03 1.62377E-13 2.22178E-13
 -1      3337 2.00036E+01-8.58990E-04 4.59633E-06-3.56648E-03 1.30410E-13 1.61619E-13
 -1      3338 2.00008E+01-1.90815E-03 1.39597E-05 5.17048E-03-3.54335E-14-4.28537E-13
 -1      3339 2.00040E+01-1.85562E-03-1.71855E-06-1.10821E-03 4.94798E-13 3.40371E-14
 -1      3340 2.00038E+01-1.83267E-03-2.07986E-06-1.83872E-03 4.06461E-13-9.40781E-14
 -1      3341 2.00043E+01-6.96654E-04 1.21271E-05-2.19265E-03 2.67322E-13 1.50100E-13
 -1      3342 2.00047E+01-5.87133E-04 1.44255E-05-7.17144E-04 4.19542E-13-5.20132E-14
 -1      3343 1.43727E+01-1.56181E+00 8.55396E-02 4.69735E+00 3.64955E-13-6.45643E-13
 -1      3344 1.40795E+01-6.67817E-01 4.84528E-02 3.83562E+00 2.98022E-13-6.11171E-13
 -1      3345 1.63518E+01-1.93823E+00-1.50837E-02 4.57269E+00 4.05548E-13-4.43159E-13
 -1      3346 9.50661E+00 2.86510E-01 1.03657E-01-6.09121E-01-1.02438E-13-1.04636E-12
 -1      3347 9.69116E+00 1.64731E-01 1.00960E-01-1.56299E+00-1.58425E-13-9.96273E-13
 -1      3348 1.14052E+01 2.32542E-01 1.14521E-01-2.10081E+00-1.72917E-13-9.24684E-13
 -1      3349 1.08573E+01 6.06948E-01 1.00275E-01 2.24135E-01-1.19609E-15-9.44356E-13
 -1      3350 2.06638E+01 7.50718E-01-4.10301E-04-1.20114E+00 1.96369E-13-3.02829E-13
 -1      3351 2.06366E+01 9.38065E-01 4.34226E-03-9.71193E-01 2.27772E-13-3.10098E-13
 -1      3352 2.03800E+01 1.15861E+00-4.16047E-04-9.11349E-01 2.54581E-13-3.47835E-13
 -1      3353 2.07304E+01 4.01591E-01 2.52129E-03-1.54967E+00 1.09094E-13-2.97873E-13
 -1      3354 2.06445E+01 6.08518E-01 5.37538E-03-1.38484E+00 1.54187E-13-2.92029E-13
 -1      3355 2.03461E+01 7.84750E-01-2.05138E-03-1.35926E+00 1.62484E-13-3.18338E-13
 -1      3356 2.03138E+01 3.98517E-01-7.05827E-03-1.72511E+00 8.30289E-14-3.17718E-13
 -1      3357 2.36423E+01-3.63182E+00 1.20104E-02-2.13740E+00-2.96190E-13 2.99769E-14
 -1      3358 1.05706E+01-1.22743E-01 8.62143E-02-2.65422E+00 2.25236E-13 3.63057E-13
 -1      3359 1.10133E+01-7.30117E-01 1.02999E-01-3.70973E+00 3.15720E-13 3.98848E-13
 -1      3360 1.30861E+01-6.94029E-01 8.36421E-02-3.67795E+00 2.49608E-13 2.87027E-13
 -1      3361 2.75893E+01 1.76963E+00-8.46433E-02-2.13972E+00-4.43534E-13 1.96371E-14
 -1      3362 2.70901E+01 5.35233E-01-3.82827E-02-1.98133E+00-2.78180E-13 9.67837E-14
 -1      3363 2.71805E+01-2.68667E+00-6.13237E-02-2.26921E-01-1.37725E-13 1.22083E-13
 -1      3364 2.47494E+01-2.83725E+00 3.59572E-02-4.57833E-01-1.43769E-13 7.69890E-14
 -1      3365 2.04463E+01 1.34038E+00 2.32904E-03 4.03531E-01-2.72876E-13-3.86668E-13
 -1      3366 2.04834E+01 1.09544E+00-1.13913E-03 6.24123E-01-2.23811E-13-3.67414E-13
 -1      3367 2.02182E+01 1.15486E+00-3.31516E-03 7.71565E-01-1.76584E-13-3.75818E-13
 -1      3368 2.02116E+01 1.85376E+00-1.34594E-03 1.29006E-01-2.94987E-13-4.60985E-13
 -1      3369 2.38527E+01-3.18541E+00-5.14426E-02-1.41129E+00-2.10817E-13 5.02983E-14
 -1      3370 1.64971E+01-2.12491E+00 8.08526E-02 4.40654E+00-5.14970E-13 1.67082E-13
 -1      3371 1.87481E+01 2.83444E+00-7.43399E-03 3.03808E-01-5.99122E-14-6.23485E-13
 -1      3372 1.89997E+01 2.68603E+00-2.61587E-04 2.90779E-01-1.10069E-13-5.96192E-13
 -1      3373 2.64796E+01 2.52375E+00-1.16435E-01-2.14627E+00-4.90802E-13 3.95170E-14
 -1      3374 1.91678E+01 2.31518E+00 4.76543E-03 4.63206E-01-1.19462E-13-5.24802E-13
 -1      3375 1.92826E+01 2.47818E+00-6.32903E-03 2.91874E-01-1.47495E-13-5.32168E-13
 -1      3376 1.95923E+01 2.27295E+00-1.03044E-03 2.47200E-01-2.01440E-13-5.21693E-13
 -1      3377 2.19181E+01-3.38683E+00 5.60664E-02 3.03503E+00-4.68407E-13-1.87737E-13
 -1      3378 2.55387E+01-3.38991E+00 2.83898E-02 4.89762E-01 6.80792E-14 1.66374E-13
 -1      3379 1.82350E+01-1.70442E+00 1.16537E-01-4.05191E+00-3.61300E-13-3.16072E-13
 -1      3380 2.01923E+01-2.73190E+00-8.52592E-02-3.66065E+00-3.41685E-13-1.36221E-13
 -1      3381 2.11595E+01-2.26742E+00 2.53170E-02-2.89325E+00-2.69998E-13-1.76519E-13
 -1      3382 2.05291E+01-1.58295E+00 3.64076E-02-2.89351E+00-2.05559E-13-2.11172E-13
 -1      3383 2.54630E+01 2.92753E+00-1.01381E-01-1.90156E+00-5.36064E-13 5.86822E-14
 -1      3384 1.55836E+01-1.26152E+00 9.46140E-02-4.11574E+00 3.60557E-13 9.09654E-14
 -1      3385 1.79528E+01-2.53767E+00-9.46289E-02-4.24506E+00 2.73493E-13-4.33924E-14
 -1      3386 2.00814E+01 3.65744E-01 6.01711E-03 1.50789E+00-2.77923E-14-3.59617E-13
 -1      3387 2.02259E+01 3.44026E-02 6.18275E-03 1.65771E+00-1.27425E-14-3.25143E-13
 -1      3388 2.03689E+01-3.29027E-01 1.16560E-02 1.84758E+00 7.75389E-15-2.90432E-13
 -1      3389 2.06360E+01-7.39036E-01 8.34594E-03 1.93494E+00 2.43014E-14-2.58103E-13
 -1      3390 1.98080E+01-4.29689E-02-1.34866E-02 1.90178E+00 1.02021E-14-3.52210E-13
 -1      3391 2.09533E+01-1.18861E+00 2.06430E-02 2.07711E+00 6.75601E-14-2.02652E-13
 -1      3392 2.13833E+01-1.68160E+00 6.07467E-03 2.05447E+00 1.25471E-13-1.78170E-13
 -1      3393 2.01992E+01-9.33475E-01-2.40446E-02 2.29587E+00 9.26838E-14-2.62227E-13
 -1      3394 2.20014E+01-2.18810E+00 4.03018E-02 2.07252E+00 1.86689E-13-1.13336E-13
 -1      3395 2.26971E+01-2.67132E+00 1.41427E-02 1.81937E+00 1.96092E-13-1.50852E-14
 -1      3396 2.10301E+01-2.03926E+00-2.96406E-02 2.57518E+00 1.93612E-13-2.03609E-13
 -1      3397 2.37328E+01-3.43241E+00-1.77149E-02 1.68226E+00 1.25947E-13 1.36295E-13
 -1      3398 2.44771E+01-3.50656E+00-1.57967E-02 1.21997E+00 1.10802E-13 1.44268E-13
 -1      3399 2.02610E+01-9.81682E-01 3.37074E-02-2.62290E+00-1.29482E-13-2.67853E-13
 -1      3400 1.98684E+01-4.90553E-01 1.38708E-02-2.50458E+00-8.64661E-14-2.72867E-13
 -1      3401 1.90706E+01-1.19142E+00-5.55742E-02-3.19335E+00-2.02468E-13-2.86635E-13
 -1      3402 2.53286E+01-1.55962E+00 8.48325E-03 1.45440E+00 4.58314E-15-5.87347E-13
 -1      3403 2.28021E+01-2.90921E+00 2.51581E-03-1.60122E+00 1.99573E-13-2.29116E-13
 -1      3404 2.21569E+01-2.44125E+00 5.17341E-02-1.86243E+00 1.78124E-13-1.66348E-13
 -1      3405 2.14511E+01-1.99196E+00 8.54359E-03-1.93118E+00 1.48126E-13-1.63005E-13
 -1      3406 2.09537E+01-1.52015E+00 2.40429E-02-2.00173E+00 1.50308E-13-1.42961E-13
 -1      3407 2.10713E+01-2.48610E+00-7.06130E-02-2.52022E+00 1.74436E-13-2.29023E-13
 -1      3408 2.05867E+01-1.10288E+00 1.58023E-02-1.91230E+00 1.70964E-13-1.29437E-13
 -1      3409 2.02395E+01-7.43087E-01 8.50272E-03-1.88564E+00 1.82347E-13-9.17390E-14
 -1      3410 2.01050E+01-1.39367E+00-4.28709E-02-2.34193E+00 2.08465E-13-2.07654E-13
 -1      3411 2.00792E+01-4.27933E-01 1.41253E-02-1.74387E+00 9.46344E-14-4.79081E-14
 -1      3412 1.98663E+01-1.83699E-01 1.37172E-03-1.67233E+00 1.10420E-13-6.93162E-14
 -1      3413 1.96062E+01-5.60503E-01-2.13048E-02-2.02711E+00 2.20696E-13-1.42874E-13
 -1      3414 1.98219E+01 2.51110E-02 1.04813E-02-1.52903E+00 1.31797E-13-7.31010E-14
 -1      3415 1.97036E+01 1.74097E-01-1.87821E-03-1.44125E+00 8.17825E-14-4.76932E-14
 -1      3416 1.94080E+01-8.78656E-03-7.00275E-03-1.70582E+00 1.18958E-13-5.34581E-14
 -1      3417 1.97190E+01 2.98685E-01 7.32919E-03-1.31125E+00 1.14066E-13-8.78656E-14
 -1      3418 1.96591E+01 3.77545E-01-3.26885E-03-1.22058E+00 1.33205E-13 8.42063E-14
 -1      3419 1.93703E+01 3.22563E-01 2.15500E-04-1.41881E+00 1.11332E-13-4.18285E-15
 -1      3420 1.97027E+01 4.41358E-01 5.07989E-03-1.10652E+00 6.06555E-14 2.10491E-14
 -1      3421 1.96764E+01 4.72010E-01-3.71736E-03-1.01917E+00 1.62222E-14 3.50627E-14
 -1      3422 1.94145E+01 4.97896E-01 3.48382E-03-1.17169E+00 1.13902E-13-1.10189E-13
 -1      3423 1.97300E+01 4.94782E-01 3.60766E-03-9.20477E-01-3.96869E-14 2.11854E-14
 -1      3424 1.97214E+01 4.94437E-01-3.68074E-03-8.39571E-01 3.40858E-14-2.58749E-14
 -1      3425 1.94954E+01 5.67708E-01 4.68613E-03-9.60788E-01 2.65643E-14-9.77201E-14
 -1      3426 1.97753E+01 4.91377E-01 2.67477E-03-7.54913E-01 1.19247E-13-7.24193E-15
 -1      3427 1.97751E+01 4.72684E-01-3.40120E-03-6.82101E-01 1.76619E-13-9.97420E-14
 -1      3428 1.95871E+01 5.70029E-01 4.85924E-03-7.81189E-01 4.90581E-14-1.16903E-14
 -1      3429 1.98243E+01 4.54749E-01 2.08423E-03-6.10126E-01 1.76360E-13-2.17072E-13
 -1      3430 1.98272E+01 4.26532E-01-3.00749E-03-5.46175E-01 1.32311E-13-1.29049E-13
 -1      3431 1.96754E+01 5.32218E-01 4.51912E-03-6.28609E-01 1.37817E-13-1.93462E-13
 -1      3432 1.98695E+01 4.01227E-01 1.69048E-03-4.85700E-01 5.36287E-14-9.03211E-14
 -1      3433 1.98729E+01 3.69393E-01-2.57932E-03-4.30767E-01 1.28757E-14 6.07273E-14
 -1      3434 1.97535E+01 4.73133E-01 3.92144E-03-4.99795E-01 1.23996E-13-1.09863E-13
 -1      3435 1.99078E+01 3.41632E-01 1.40500E-03-3.80605E-01-8.91921E-14 1.23683E-13
 -1      3436 1.99106E+01 3.09914E-01-2.15498E-03-3.34390E-01-1.63601E-13 6.60478E-14
 -1      3437 1.98190E+01 4.05672E-01 3.25983E-03-3.92092E-01 1.98822E-14-4.20725E-15
 -1      3438 1.99384E+01 2.82723E-01 1.17878E-03-2.93373E-01-2.10233E-13 1.33376E-13
 -1      3439 1.99401E+01 2.53298E-01-1.76112E-03-2.55243E-01-1.57028E-13 1.70182E-13
 -1      3440 1.98716E+01 3.37914E-01 2.61797E-03-3.03119E-01-1.17407E-13 3.68030E-14
 -1      3441 1.99617E+01 2.28380E-01 9.88207E-04-2.22200E-01-1.84381E-13 6.03229E-14
 -1      3442 1.99625E+01 2.02354E-01-1.41009E-03-1.91323E-01-2.01564E-13 4.06646E-15
 -1      3443 1.99125E+01 2.74679E-01 2.04137E-03-2.30608E-01-2.79027E-13 2.09516E-13
 -1      3444 1.99787E+01 1.80527E-01 8.21870E-04-1.65115E-01-8.14325E-14 3.00548E-15
 -1      3445 1.99787E+01 1.58309E-01-1.10685E-03-1.40558E-01-2.58745E-14 1.25176E-13
 -1      3446 1.99433E+01 2.18467E-01 1.54892E-03-1.72372E-01-1.78061E-13 8.00962E-14
 -1      3447 1.99907E+01 1.39829E-01 6.75195E-04-1.20105E-01-1.16545E-13 1.90349E-13
 -1      3448 1.99901E+01 1.21393E-01-8.51817E-04-1.00919E-01-1.10548E-13 1.22231E-13
 -1      3449 1.99658E+01 1.70266E-01 1.14325E-03-1.26316E-01-4.32979E-14 2.69691E-13
 -1      3450 1.99986E+01 1.06171E-01 5.46775E-04-8.52195E-02 6.46854E-14 1.65487E-13
 -1      3451 1.99977E+01 9.12419E-02-6.42434E-04-7.04943E-02 6.17372E-14 3.14583E-13
 -1      3452 1.99817E+01 1.30109E-01 8.19420E-04-9.04694E-02 9.87678E-14 3.67865E-13
 -1      3453 2.00035E+01 7.89966E-02 4.35907E-04-5.86514E-02-1.14776E-13 4.12071E-13
 -1      3454 2.00024E+01 6.71662E-02-4.74287E-04-4.75549E-02-5.58449E-14 3.53050E-13
 -1      3455 1.99926E+01 9.74643E-02 5.68205E-04-6.30262E-02 7.27448E-14 4.35191E-13
 -1      3456 2.00063E+01 5.75234E-02 3.41781E-04-3.87858E-02 2.79498E-14 3.29586E-13
 -1      3457 2.00051E+01 4.83372E-02-3.42046E-04-3.05844E-02 2.50165E-13 1.83156E-13
 -1      3458 1.99996E+01 7.14997E-02 3.78557E-04-4.23788E-02-5.68016E-14 4.94858E-13
 -1      3459 2.00075E+01 4.08944E-02 2.63275E-04-2.42226E-02 3.58163E-13 1.27487E-13
 -1      3460 2.00064E+01 3.39001E-02-2.40159E-04-1.82890E-02 3.05654E-13-3.34411E-15
 -1      3461 2.00038E+01 5.12632E-02 2.39294E-04-2.71324E-02 1.99025E-13 1.26550E-13
 -1      3462 2.00077E+01 2.82652E-02 1.98964E-04-1.37802E-02 2.77623E-13-3.98095E-14
 -1      3463 2.00066E+01 2.30413E-02-1.63293E-04-9.59187E-03 1.41877E-13-5.94969E-15
 -1      3464 2.00060E+01 3.57951E-02 1.40088E-04-1.61058E-02 2.48506E-13-4.93130E-14
 -1      3465 2.00072E+01 1.88536E-02 1.47241E-04-6.48482E-03 4.54650E-14 5.82173E-14
 -1      3466 2.00063E+01 1.50237E-02-1.06658E-04-3.61692E-03-3.24467E-14 2.42564E-13
 -1      3467 2.00069E+01 2.41939E-02 7.18843E-05-8.32062E-03 2.12503E-13-1.19234E-13
 -1      3468 2.00064E+01 1.19631E-02 1.06589E-04-1.55254E-03-1.81431E-13 2.76755E-13
 -1      3469 2.00055E+01 9.19983E-03-6.60604E-05 3.31428E-04 3.64677E-14 1.93593E-13
 -1      3470 2.00068E+01 1.56473E-02 2.69582E-05-2.98410E-03-1.23878E-14-4.41212E-14
 -1      3471 2.00053E+01 6.98991E-03 7.53753E-05 1.63226E-03 2.09896E-13 1.08218E-13
 -1      3472 2.00046E+01 5.01549E-03-3.73059E-05 2.79183E-03 2.61882E-13-1.24232E-14
 -1      3473 2.00061E+01 9.44879E-03-3.31460E-07 5.31275E-04 2.03952E-14 9.16535E-14
 -1      3474 2.00042E+01 3.40343E-03 4.84012E-05 3.54180E-03 1.63722E-13-4.05021E-13
 -1      3475 2.00036E+01 2.01214E-03-9.08973E-06 4.14881E-03 2.73629E-14-5.09252E-13
 -1      3476 2.00052E+01 4.99559E-03-1.27457E-05 2.71548E-03-8.98218E-14-8.87924E-14
 -1      3477 2.00032E+01 1.06203E-03 2.58826E-05 4.42590E-03-8.49827E-14-5.14344E-13
 -1      3478 2.00028E+01-1.53641E-05-4.39142E-06 4.66277E-03-2.88787E-13-6.29762E-13
 -1      3479 2.00035E+01-3.82841E-05-1.22298E-05 4.15495E-03-6.68821E-14-3.75825E-13
 -1      3480 2.00042E+01 2.05998E-03-1.17479E-05 3.76750E-03-1.64358E-13-3.97156E-13
 -1      3481 2.00018E+01-1.94091E-03 7.53360E-06-4.78896E-03-1.88391E-13 8.61561E-14
 -1      3482 2.00012E+01-1.82840E-03 1.07198E-06-5.07960E-03-1.87302E-13-3.79600E-13
 -1      3483 2.00013E+01-1.38653E-03-4.70179E-06-5.21168E-03-1.69629E-14-4.42809E-13
 -1      3484 2.00025E+01-1.14185E-03-6.31731E-06-4.59479E-03-1.24841E-13 6.05527E-14
 -1      3485 2.04938E+01-1.33171E+00 2.53679E-02 2.52306E+00-3.71032E-13-9.51279E-14
 -1      3486 2.11059E+01-1.90020E+00 2.75960E-02 2.47535E+00-3.98019E-13-1.86905E-13
 -1      3487 1.95889E+01 4.29975E-01-2.07954E-03 1.63739E+00-1.63665E-13 3.33329E-14
 -1      3488 1.96605E+01 3.02680E-01 7.76271E-03 1.75650E+00-1.87547E-13-1.21973E-15
 -1      3489 1.96285E+01 5.71737E-01-3.09839E-03 1.37618E+00-4.70744E-14 3.14442E-14
 -1      3490 1.96541E+01 5.19929E-01 5.07452E-03 1.49130E+00-7.77290E-14 4.87811E-14
 -1      3491 1.91966E+01 5.82001E-01-4.38262E-04 1.55493E+00-1.27792E-13-2.12701E-13
 -1      3492 1.96997E+01 6.07005E-01-3.30629E-03 1.14448E+00-1.73883E-13-8.03069E-16
 -1      3493 1.97047E+01 6.01547E-01 3.41421E-03 1.25166E+00-8.85078E-14 4.99882E-15
 -1      3494 1.93376E+01 6.87363E-01 1.46949E-03 1.28617E+00-5.17412E-14-2.00044E-14
 -1      3495 1.97742E+01 5.80432E-01-3.13428E-03 9.40632E-01-1.02960E-13-1.51439E-14
 -1      3496 1.97720E+01 6.00996E-01 2.46854E-03 1.03771E+00-1.61463E-13-3.40258E-14
 -1      3497 1.94809E+01 6.95870E-01 2.08381E-03 1.05955E+00-1.15064E-13-6.89198E-14
 -1      3498 1.98396E+01 5.22257E-01-2.79217E-03 7.62996E-01 1.08959E-13-1.07844E-13
 -1      3499 1.98366E+01 5.55417E-01 1.94306E-03 8.48995E-01 2.55647E-14-1.89810E-14
 -1      3500 1.96082E+01 6.49686E-01 2.02899E-03 8.66216E-01-6.12067E-14-3.24774E-13
 -1      3501 1.98921E+01 4.51125E-01-2.41312E-03 6.09957E-01-6.92975E-15-6.98961E-14
 -1      3502 1.98905E+01 4.88830E-01 1.64654E-03 6.84583E-01 5.84432E-14-6.20104E-14
 -1      3503 1.97137E+01 5.77020E-01 1.77898E-03 7.00561E-01 8.96057E-14-3.12665E-13
 -1      3504 1.99318E+01 3.77867E-01-2.03160E-03 4.80266E-01 3.44606E-14-4.20878E-14
 -1      3505 1.99321E+01 4.15399E-01 1.44825E-03 5.43590E-01 6.94770E-14 2.09295E-14
 -1      3506 1.97971E+01 4.94476E-01 1.44882E-03 5.59057E-01 2.44673E-14-1.31329E-13
 -1      3507 1.99605E+01 3.08998E-01-1.66788E-03 3.72268E-01 4.78448E-14 8.62116E-14
 -1      3508 1.99624E+01 3.43615E-01 1.26820E-03 4.24976E-01 3.79682E-14-1.67337E-14
 -1      3509 1.98610E+01 4.12102E-01 1.11810E-03 4.39836E-01-2.26086E-14-2.16925E-14
 -1      3510 1.99802E+01 2.47598E-01-1.34762E-03 2.83765E-01-8.96391E-16-5.52356E-14
 -1      3511 1.99832E+01 2.78095E-01 1.10499E-03 3.26848E-01 1.09937E-13 4.49296E-14
 -1      3512 1.99083E+01 3.35840E-01 8.18395E-04 3.40776E-01 6.49993E-14-5.31950E-14
 -1      3513 1.99933E+01 1.94757E-01-1.07048E-03 2.12448E-01 8.52226E-14-2.45596E-13
 -1      3514 1.99968E+01 2.20777E-01 9.49824E-04 2.47034E-01-1.62125E-14-1.18216E-13
 -1      3515 1.99426E+01 2.68439E-01 5.91447E-04 2.59638E-01 6.39648E-14-2.36762E-13
 -1      3516 2.00015E+01 1.50540E-01-8.35330E-04 1.55954E-01 2.10745E-13-3.63612E-13
 -1      3517 2.00051E+01 1.72164E-01 7.98774E-04 1.83245E-01 1.60923E-13-2.05185E-13
 -1      3518 1.99668E+01 2.10707E-01 4.10952E-04 1.94300E-01 1.36946E-13-3.50366E-13
 -1      3519 2.00062E+01 1.14371E-01-6.40900E-04 1.11936E-01 2.43908E-13-2.02122E-13
 -1      3520 2.00096E+01 1.31958E-01 6.59543E-04 1.33111E-01 1.88497E-13-2.69590E-13
 -1      3521 1.99833E+01 1.62560E-01 2.75091E-04 1.42548E-01 1.41844E-13-2.83327E-13
 -1      3522 2.00085E+01 8.53626E-02-4.83449E-04 7.82076E-02 2.05263E-13-2.60836E-14
 -1      3523 2.00116E+01 9.93958E-02 5.34718E-04 9.43603E-02 2.75238E-13-7.50830E-14
 -1      3524 1.99942E+01 1.23275E-01 1.76346E-04 1.02223E-01 1.35892E-13-1.50116E-13
 -1      3525 2.00093E+01 6.25125E-02-3.58166E-04 5.28113E-02-1.54474E-13 1.62353E-13
 -1      3526 2.00120E+01 7.35135E-02 4.25591E-04 6.49167E-02 2.11974E-14 1.78730E-13
 -1      3527 2.00010E+01 9.18314E-02 1.06445E-04 7.13257E-02-1.00197E-14 1.63315E-13
 -1      3528 2.00091E+01 4.48222E-02-2.60121E-04 3.40407E-02-2.88334E-14 2.52784E-13
 -1      3529 2.00114E+01 5.32989E-02 3.32517E-04 4.29427E-02-6.12440E-14 2.19416E-13
 -1      3530 2.00049E+01 6.71072E-02 5.83028E-05 4.80643E-02-9.11415E-14 2.17951E-13
 -1      3531 2.00084E+01 3.13594E-02-1.84769E-04 2.04485E-02 8.43411E-14 1.88582E-13
 -1      3532 2.00103E+01 3.77796E-02 2.54959E-04 2.68585E-02 4.93917E-14 2.65856E-13
 -1      3533 2.00069E+01 4.79984E-02 2.62065E-05 3.08774E-02 6.49971E-14 1.29644E-13
 -1      3534 2.00073E+01 2.12907E-02-1.27696E-04 1.08357E-02 2.84910E-13 2.67572E-14
 -1      3535 2.00088E+01 2.60684E-02 1.91665E-04 1.53394E-02 2.34842E-13 1.37206E-13
 -1      3536 2.00076E+01 3.34798E-02 5.64258E-06 1.84395E-02 2.27468E-13 1.32833E-13
 -1      3537 2.00061E+01 1.38915E-02-8.55573E-05 4.22736E-03 4.45439E-14-7.21302E-14
 -1      3538 2.00073E+01 1.73857E-02 1.41177E-04 7.29819E-03 1.61678E-13-1.30469E-13
 -1      3539 2.00074E+01 2.26401E-02-6.34397E-06 9.65242E-03 3.54437E-13-7.55387E-14
 -1      3540 2.00050E+01 8.53702E-03-5.44813E-05-1.48248E-04 4.35082E-13-2.80121E-13
 -1      3541 2.00059E+01 1.10542E-02 1.02150E-04 1.85942E-03 2.04161E-13-1.76104E-13
 -1      3542 2.00067E+01 1.46755E-02-1.55324E-05 3.61767E-03 1.81260E-13-2.47007E-13
 -1      3543 2.00039E+01 4.69394E-03-3.29031E-05-2.87887E-03 5.42188E-13-2.21433E-13
 -1      3544 2.00046E+01 6.48866E-03 6.98709E-05-1.65974E-03 5.76539E-13-1.81108E-13
 -1      3545 2.00057E+01 8.91181E-03-1.89976E-05-3.71312E-04 4.77367E-13-1.82228E-13
 -1      3546 2.00028E+01 1.96531E-03-1.28365E-05-4.44061E-03 1.75412E-13-3.64911E-13
 -1      3547 2.00034E+01 3.25032E-03 4.72067E-05-3.76710E-03 3.05962E-13-3.06811E-13
 -1      3548 2.00046E+01 4.83576E-03-9.42999E-06-2.83074E-03 4.39724E-13 1.65108E-13
 -1      3549 1.98764E+01-4.44213E-01 7.22983E-03 2.24031E+00-2.83973E-13-1.00782E-13
 -1      3550 2.01902E+01-8.38165E-01 1.67629E-02 2.31846E+00-3.29002E-13-1.47150E-13
 -1      3551 1.94363E+01-1.01961E+00-9.67417E-03 2.74230E+00-3.79730E-13-1.43703E-13
 -1      3552 1.96371E+01 1.19019E-01 7.97208E-04 1.92846E+00-2.88281E-13 2.01015E-15
 -1      3553 1.97986E+01-1.21758E-01 1.22814E-02 2.04180E+00-2.96185E-13-1.23608E-13
 -1      3554 1.91203E+01-1.85395E-01-1.14243E-02 2.27540E+00-3.14741E-13-2.26489E-13
 -1      3555 2.00052E+01 7.45356E-04-8.88163E-06 1.08773E-03 3.07288E-13-3.19928E-13
 -1      3556 2.00053E+01 7.72549E-04-9.98967E-06 3.85099E-04 3.62667E-13-1.98519E-13
 -1      3557 1.81779E+01-2.20514E+00-8.07919E-04 3.98085E+00-4.86309E-13 7.69072E-14
 -1      3558 1.55199E+01-1.04262E+00 6.98140E-02 3.85186E+00-4.13101E-13 1.70974E-13
 -1      3559 2.07480E+01-3.40310E+00 6.95514E-03 3.91951E+00 3.88065E-13-2.73524E-13
 -1      3560 1.87721E+01-2.63397E+00 9.42069E-02 4.46735E+00 4.15390E-13-3.45887E-13
 -1      3561 2.11534E+01-2.68906E+00 5.31190E-02 3.03804E+00-4.26848E-13-1.82931E-13
 -1      3562 2.55341E+01-2.58246E+00-6.28036E-02 7.17130E-01 6.58276E-14-5.30724E-13
 -1      3563 1.29164E+01-1.81382E-01 1.98055E-02 2.88243E+00-1.78695E-13 3.74610E-13
 -1      3564 1.12432E+01 4.35067E-01 1.35271E-01 1.68453E+00-1.25854E-13 5.06636E-13
 -1      3565 1.01634E+01 4.19586E-01 3.15568E-02 3.76486E-01-1.65232E-16 4.55497E-13
 -1      3566 1.00618E+01 3.10156E-01 1.09635E-01-1.34471E+00 1.89503E-13 3.19078E-13
 -1      3567 1.18092E+01 3.28179E-01 8.43189E-02-1.85300E+00 1.42298E-13 3.30097E-13
 -1      3568 1.28326E+01 1.63584E-01 5.73832E-02 2.83063E+00 2.17742E-13-7.28917E-13
 -1      3569 1.21961E+01 5.53930E-01 4.04219E-02 1.81803E+00 1.60843E-13-8.09582E-13
 -1      3570 1.99641E+01 9.54690E-01 3.37205E-03 1.10450E+00-9.80332E-14-3.66219E-13
 -1      3571 2.00321E+01 6.67841E-01 3.38178E-03 1.29782E+00-4.50358E-14-3.64647E-13
 -1      3572 1.96578E+01 6.67790E-01-6.55020E-03 1.46824E+00-3.58862E-14-3.59161E-13
 -1      3573 1.83843E+01 3.07584E+00-7.29114E-03 2.36691E-01 1.25912E-14-6.65512E-13
 -1      3574 1.85421E+01 2.98937E+00-6.68517E-04 2.56858E-01-3.33514E-14-6.44175E-13
 -1      3575 1.86415E+01 2.66704E+00 5.79898E-03 4.02370E-01-3.91827E-14-5.98499E-13
 -1      3576 1.99450E+01 1.92619E+00-2.34214E-03 2.92566E-01-2.39479E-13-4.60273E-13
 -1      3577 2.09681E+01-3.07777E+00 1.09133E-01-3.43999E+00 2.50839E-13-1.77881E-13
 -1      3578 2.26791E+01-3.65659E+00-7.12285E-02-2.44431E+00 2.45782E-13-2.83077E-13
 -1      3579 2.01118E+01 1.37918E+00 8.88096E-04-8.31352E-01 2.59835E-13-3.68709E-13
 -1      3580 1.98588E+01 1.62289E+00 3.01092E-03-7.55050E-01 2.79339E-13-3.82745E-13
 -1      3581 2.01003E+01 1.16311E+00-1.26129E-03-1.08662E+00 2.08118E-13-3.58721E-13
 -1      3582 1.98217E+01-5.95587E-02 1.84366E-02-2.22273E+00-3.13697E-14-2.92014E-13
 -1      3583 1.96407E+01 2.90486E-01 3.77575E-03-2.05278E+00 5.68735E-15-2.88148E-13
 -1      3584 1.88557E+01-6.80330E-02-2.52833E-02-2.51872E+00-5.43628E-14-3.31199E-13
 -1      3585 2.66874E+01 1.45923E+00-2.17916E-01-2.77139E+00 4.70499E-13-4.41008E-13
 -1      3586 2.23895E+01-3.01053E+00 9.69108E-02-2.84341E+00-3.20090E-13-6.41457E-14
 -1      3587 1.37803E+01-1.52812E-01 9.43671E-02-3.25984E+00-2.38705E-13-7.38763E-13
 -1      3588 1.55715E+01-1.12000E+00-5.19315E-02-3.98406E+00-3.19638E-13-5.16719E-13
 -1      3589 1.94667E+01 1.85639E+00-5.99512E-03-7.16802E-01 2.49604E-13-4.21280E-13
 -1      3590 1.74022E+01-9.55483E-01 5.94546E-02-3.54676E+00-2.59777E-13-3.99724E-13
 -1      3591 1.20365E+01 6.76512E-01 8.29004E-02 7.17215E-01 2.13492E-14 3.23429E-13
 -1      3592 1.45364E+01-1.98160E-01 6.37986E-02 3.20249E+00 2.65116E-13-6.03288E-13
 -1      3593 2.17563E+01-3.37966E+00-7.62818E-03 3.21809E+00 3.17205E-13-1.63545E-13
 -1      3594 2.07846E+01-2.58281E+00 7.93649E-03 3.21810E+00 2.96155E-13-2.41657E-13
 -1      3595 1.98264E+01 1.76269E+00 2.81052E-03 5.16437E-01-1.95417E-13-4.40209E-13
 -1      3596 2.38972E+01-3.42736E+00 2.92062E-02-1.36746E+00 2.78186E-13-2.52163E-13
 -1      3597 1.96398E+01-2.37547E+00 3.61156E-03 3.57248E+00-4.55054E-13 1.86830E-15
 -1      3598 1.84322E+01-1.37562E+00-1.71260E-02 3.31813E+00-4.16357E-13 7.44838E-14
 -1      3599 2.00045E+01 1.26398E-03 1.02700E-05 3.44112E-03-1.72290E-13 3.50734E-14
 -1      3600 2.00041E+01 2.07879E-04-8.24912E-06 3.51238E-03 2.71638E-15 9.03837E-14
 -1      3601 2.00045E+01 2.89502E-04-2.12459E-05 2.89782E-03-5.36759E-14 9.29998E-14
 -1      3602 1.98671E+01 1.48012E+00 5.61401E-04 7.11172E-01-1.79454E-13-3.93445E-13
 -1      3603 1.99124E+01 1.22087E+00 1.57974E-03 9.15276E-01-1.42007E-13-3.88369E-13
 -1      3604 1.95791E+01 1.26120E+00-4.09315E-03 1.05252E+00-1.02836E-13-3.58412E-13
 -1      3605 1.94984E+01 1.81763E+00-2.83269E-03 6.60259E-01-1.40400E-13-4.16523E-13
 -1      3606 1.88919E+01 2.54971E+00 8.24191E-03-3.56252E-01 2.39266E-13-5.14524E-13
 -1      3607 1.90979E+01 3.18932E-01-4.49478E-03 1.87955E+00-2.37028E-13-2.86879E-13
 -1      3608 2.00060E+01 2.30021E-03 3.02478E-05 2.85593E-05 2.06369E-13-7.24214E-14
 -1      3609 2.00053E+01 7.69653E-04-9.37823E-06-3.17086E-04 3.09584E-13 3.03779E-14
 -1      3610 2.00052E+01 7.35929E-04-8.86776E-06-1.03058E-03 2.17846E-13 7.12821E-14
 -1      3611 2.00019E+01-5.47811E-05-5.46154E-06-5.12636E-03 7.49916E-14-3.74416E-13
 -1      3612 2.00023E+01 8.91288E-04 2.90114E-05-4.86132E-03 1.39029E-13-3.70576E-13
 -1      3613 2.00014E+01-8.88485E-04 1.35579E-05-5.23999E-03 7.20344E-14-4.15001E-13
 -1      3614 1.80033E+01-1.84756E+00 7.26232E-02 4.04862E+00 3.58963E-13-3.92283E-13
 -1      3615 2.00035E+01 1.84517E-03-1.37232E-05-4.22458E-03 1.09182E-13 5.59932E-14
 -1      3616 1.83689E+01 2.57372E+00-1.80318E-03-3.28409E-01 1.61144E-13-5.11860E-13
 -1      3617 1.81851E+01 2.67130E+00-6.70366E-03-2.15158E-01 1.19715E-13-5.44039E-13
 -1      3618 1.65099E+01-4.43914E-01 4.01049E-02 3.01733E+00-2.90223E-13-7.68725E-14
 -1      3619 1.47405E+01-3.47621E-01 4.80671E-02 3.27484E+00-2.54047E-13 4.45720E-14
 -1      3620 1.42059E+01 3.32804E-01-1.73304E-03 2.25682E+00-1.05774E-13 9.11372E-14
 -1      3621 1.19254E+01 8.42576E-01 4.62557E-02 6.39256E-01 5.08876E-14-8.42250E-13
 -1      3622 1.17958E+01 8.07885E-01 4.97848E-02-5.44734E-01-3.67891E-14-8.60291E-13
 -1      3623 1.20172E+01 6.53093E-01 4.97112E-02-1.47398E+00-1.12817E-13-8.50965E-13
 -1      3624 1.26468E+01 2.38255E-01 1.27042E-02-2.53369E+00-1.70907E-13-8.36789E-13
 -1      3625 1.44005E+01 2.74839E-01 7.65873E-02-2.59201E+00-1.78711E-13-6.87811E-13
 -1      3626 1.30879E+01 9.43247E-01 5.30512E-02-9.99785E-01-4.82795E-14-7.67549E-13
 -1      3627 1.97503E+01 5.40796E-01 9.00115E-03-1.82027E+00 3.07922E-14-3.10492E-13
 -1      3628 1.97435E+01 7.46776E-01 3.87613E-04-1.64654E+00 8.54144E-14-3.12674E-13
 -1      3629 1.90096E+01 6.42844E-01 9.53951E-06-1.96403E+00 1.44401E-14-3.52937E-13
 -1      3630 1.80320E+01 2.52406E+00 1.07904E-02-1.74927E-01 1.00570E-13-5.51936E-13
 -1      3631 1.80775E+01 2.73466E+00-4.74427E-03-2.83826E-02 9.92185E-14-5.94841E-13
 -1      3632 1.80504E+01 2.74936E+00-3.45219E-03 9.54471E-02 7.90843E-14-6.14554E-13
 -1      3633 2.47482E+01-3.39908E+00 1.96698E-02-7.98280E-01 2.23557E-13-3.47115E-13
 -1      3634 1.30653E+01 8.93860E-01 6.30258E-02 1.08078E+00 9.65686E-14-7.69058E-13
 -1      3635 1.83112E+01 2.89364E+00 8.44053E-03 2.53553E-01 2.17892E-14-6.20534E-13
 -1      3636 2.00044E+01 2.54372E-04-1.40149E-05-3.10965E-03 2.19472E-13 2.72552E-13
 -1      3637 2.00039E+01 1.85599E-04-1.17304E-05-3.71700E-03 1.78158E-13 1.81762E-13
 -1      3638 1.97321E+01-2.24064E+00 5.62536E-02-3.28933E+00 2.23504E-13-9.00764E-14
 -1      3639 1.84282E+01 2.48591E+00-8.01623E-03 5.12680E-01-1.19483E-14-5.78559E-13
 -1      3640 1.86759E+01 2.34939E+00 8.63606E-04 5.69380E-01-4.89320E-14-5.77928E-13
 -1      3641 2.00048E+01 5.21828E-04-7.38183E-06 2.32940E-03 2.60450E-14-2.22822E-13
 -1      3642 2.00051E+01 6.00851E-04-1.13604E-05 1.64433E-03 2.67767E-13-3.93689E-13
 -1      3643 2.00058E+01 2.16641E-03 3.88858E-05 1.23213E-03 1.79812E-13-3.81901E-13
 -1      3644 2.00054E+01 1.75685E-03 3.75722E-05 2.28303E-03 1.84061E-13-2.01028E-13
 -1      3645 2.00031E+01-1.64661E-04 5.93424E-06-4.42162E-03 9.21998E-14 1.26238E-13
 -1      3646 2.00025E+01-3.62419E-04-9.46038E-06-4.83409E-03 6.21632E-14-1.56743E-13
 -1      3647 1.89094E+01 2.18631E+00-5.91659E-03 6.34879E-01-5.73602E-14-5.48719E-13
 -1      3648 1.92268E+01 1.99302E+00 5.22823E-06 6.45978E-01-1.03560E-13-4.75631E-13
 -1      3649 1.92701E+01 1.71863E+00 4.07941E-03 8.38544E-01-9.72898E-14-4.33867E-13
 -1      3650 1.87152E+01 2.04796E+00 7.70134E-04 7.58985E-01-3.04110E-14-5.46880E-13
 -1      3651 2.00040E+01 1.03235E-03 2.37673E-06-3.99449E-03 1.21019E-13 2.01181E-13
 -1      3652 2.28761E+01-3.38101E+00 1.56288E-02 2.37456E+00 2.02189E-13 9.11164E-16
 -1      3653 1.38739E+01-5.67365E-01 4.63976E-03-3.53782E+00 2.69330E-13 2.32162E-13
 -1      3654 1.58166E+01-6.06172E-01 6.66228E-02-3.31635E+00 2.79954E-13 7.82863E-14
 -1      3655 1.55965E+01-4.76256E-02 2.19379E-02-2.71948E+00 2.20767E-13 1.02515E-13
 -1      3656 1.67806E+01-8.97649E-01-6.33260E-02-3.29516E+00 2.29845E-13 3.39936E-14
 -1      3657 1.93917E+01-4.14188E-01 5.09160E-03 2.37135E+00 9.67683E-14-3.11233E-13
 -1      3658 1.97032E+01-8.98822E-01 2.26732E-02 2.58271E+00 1.49881E-13-3.05084E-13
 -1      3659 1.98663E+01-1.37855E+00 1.36992E-02 2.85063E+00 1.75515E-13-3.01161E-13
 -1      3660 2.04184E+01-1.99849E+00 2.24035E-02 3.01199E+00 2.33065E-13-2.87594E-13
 -1      3661 1.93971E+01-2.08733E+00-4.15226E-02 3.56899E+00 2.88526E-13-3.21966E-13
 -1      3662 1.88582E+01-9.42946E-01-2.68234E-02 2.97278E+00 1.65673E-13-3.30127E-13
 -1      3663 1.92277E+01 3.97088E-01 5.46849E-04 1.84185E+00 4.53836E-15-3.50763E-13
 -1      3664 1.93697E+01 2.15270E-02 1.44550E-02 2.06490E+00 4.35545E-14-3.53393E-13
 -1      3665 1.87015E+01 8.57149E-03-8.75124E-03 2.32476E+00 8.73909E-14-3.06200E-13
 -1      3666 1.91232E+01-1.59986E+00 5.83816E-02-3.16754E+00 2.18161E-13-7.88434E-14
 -1      3667 1.86163E+01 2.41116E+00-9.16944E-03-4.82721E-01 1.88221E-13-5.05254E-13
 -1      3668 1.84090E+01 2.30272E+00 7.10405E-03-5.39165E-01 1.47314E-13-4.75601E-13
 -1      3669 1.89326E+01 2.24210E+00 3.34961E-03-5.64506E-01 2.22286E-13-4.92770E-13
 -1      3670 2.00046E+01 2.32108E-03 1.54159E-05-3.49802E-03 1.41567E-13 1.84969E-13
 -1      3671 1.87886E+01-9.93545E-01 5.10538E-02-2.74840E+00 1.87720E-13-4.35737E-14
 -1      3672 1.84206E+01-5.68680E-01 1.70612E-02-2.54685E+00 2.45377E-13-8.13813E-14
 -1      3673 1.85803E+01-2.26693E-01 3.02340E-02-2.17446E+00 2.55053E-13-1.50225E-13
 -1      3674 1.83983E+01 4.79521E-02 7.72073E-04-1.98181E+00 2.31774E-13-1.17996E-13
 -1      3675 1.69355E+01 4.14376E-02-2.95509E-02-2.36163E+00 2.36620E-13 1.05804E-13
 -1      3676 1.85886E+01 2.56683E-01 1.50086E-02-1.71091E+00 1.92233E-13-1.14179E-13
 -1      3677 1.85298E+01 4.20064E-01-5.59976E-03-1.54758E+00 1.56774E-13-1.07580E-13
 -1      3678 1.74518E+01 5.28648E-01-3.28882E-03-1.71608E+00 1.86541E-13-7.25161E-14
 -1      3679 1.87173E+01 5.37400E-01 6.63806E-03-1.35487E+00 5.25468E-14-1.26077E-13
 -1      3680 1.87238E+01 6.23345E-01-7.41615E-03-1.21875E+00 1.86138E-14-1.17622E-13
 -1      3681 1.79077E+01 7.75174E-01 3.64860E-03-1.26866E+00 4.82841E-14-7.15363E-14
 -1      3682 1.88948E+01 6.76961E-01 1.99708E-03-1.07943E+00 2.46124E-14-1.96433E-13
 -1      3683 1.89326E+01 7.09742E-01-7.61424E-03-9.66124E-01 8.19994E-14-2.00045E-13
 -1      3684 1.83047E+01 8.83141E-01 6.33369E-03-9.55392E-01-5.80134E-14-7.07062E-14
 -1      3685 1.90829E+01 7.20712E-01-3.36934E-04-8.62555E-01 1.00048E-13-2.51018E-13
 -1      3686 1.91327E+01 7.18432E-01-7.08213E-03-7.67785E-01 3.09812E-14-2.13192E-13
 -1      3687 1.86432E+01 9.01121E-01 6.90291E-03-7.29068E-01 2.82198E-14 6.90919E-15
 -1      3688 1.92613E+01 7.02276E-01-1.35956E-03-6.89097E-01 3.11920E-14-3.05034E-13
 -1      3689 1.93124E+01 6.78719E-01-6.22125E-03-6.09403E-01 8.09694E-14-2.90047E-13
 -1      3690 1.89293E+01 8.61082E-01 6.77948E-03-5.62734E-01 5.78576E-14-2.59931E-13
 -1      3691 1.94203E+01 6.46733E-01-1.64772E-03-5.48303E-01 1.03185E-13-2.70206E-13
 -1      3692 1.94672E+01 6.11536E-01-5.27341E-03-4.81316E-01 1.34526E-13-2.80656E-13
 -1      3693 1.91681E+01 7.85744E-01 6.22367E-03-4.35752E-01 9.63899E-15-3.54485E-13
 -1      3694 1.95558E+01 5.71851E-01-1.62062E-03-4.33204E-01 1.56588E-13-1.87305E-13
 -1      3695 1.95961E+01 5.31821E-01-4.39526E-03-3.77104E-01 1.88134E-13-1.58434E-13
 -1      3696 1.93638E+01 6.92224E-01 5.28964E-03-3.37739E-01 1.22088E-13-2.97438E-13
 -1      3697 1.96678E+01 4.89755E-01-1.40513E-03-3.38888E-01 1.61063E-13-2.02221E-13
 -1      3698 1.97009E+01 4.49348E-01-3.58653E-03-2.92334E-01 1.07042E-13-1.26502E-13
 -1      3699 1.95218E+01 5.93090E-01 4.40026E-03-2.60577E-01 2.20737E-13-1.65615E-13
 -1      3700 1.97577E+01 4.08526E-01-1.14847E-03-2.62007E-01 2.44359E-14-1.70773E-13
 -1      3701 1.97839E+01 3.70551E-01-2.87505E-03-2.23796E-01-7.39764E-14-1.44324E-13
 -1      3702 1.96478E+01 4.95795E-01 3.55571E-03-1.99582E-01 1.10273E-13-4.00540E-14
 -1      3703 1.98282E+01 3.33080E-01-8.90487E-04-1.99794E-01-8.91745E-14 1.39975E-14
 -1      3704 1.98483E+01 2.99044E-01-2.26249E-03-1.68841E-01-1.33642E-13 4.69175E-14
 -1      3705 1.97464E+01 4.05667E-01 2.82038E-03-1.51321E-01 8.51147E-14-3.14822E-14
 -1      3706 1.98823E+01 2.65995E-01-6.61668E-04-1.49989E-01-8.21119E-14 1.90379E-13
 -1      3707 1.98972E+01 2.36562E-01-1.74742E-03-1.25274E-01 1.04134E-14 2.08994E-13
 -1      3708 1.98222E+01 3.25386E-01 2.19090E-03-1.13277E-01 8.91108E-14 1.52355E-13
 -1      3709 1.99227E+01 2.08321E-01-4.71601E-04-1.10617E-01-2.71225E-14 1.94933E-13
 -1      3710 1.99335E+01 1.83594E-01-1.32340E-03-9.11785E-02 1.88210E-14 1.93909E-13
 -1      3711 1.98795E+01 2.56104E-01 1.66369E-03-8.35276E-02 2.63459E-14 8.41656E-14
 -1      3712 1.99522E+01 1.60088E-01-3.20166E-04-7.99158E-02 1.53614E-14 1.74508E-13
 -1      3713 1.99597E+01 1.39817E-01-9.81568E-04-6.48670E-02 1.10535E-13 1.76400E-13
 -1      3714 1.99218E+01 1.97897E-01 1.23477E-03-6.04910E-02 1.15116E-14-1.13463E-13
 -1      3715 1.99730E+01 1.20694E-01-2.04433E-04-5.63266E-02 1.21243E-13 1.64440E-13
 -1      3716 1.99781E+01 1.04435E-01-7.11669E-04-4.48665E-02 1.23242E-14 1.11656E-13
 -1      3717 1.99523E+01 1.50117E-01 8.94362E-04-4.28553E-02 5.77300E-14-2.75605E-13
 -1      3718 1.99874E+01 8.91965E-02-1.19493E-04-3.84867E-02-2.07199E-15 1.79509E-13
 -1      3719 1.99906E+01 7.64151E-02-5.02890E-04-2.99109E-02 6.58965E-14 2.06662E-13
 -1      3720 1.99737E+01 1.11705E-01 6.30341E-04-2.95314E-02 1.15046E-13-3.36566E-13
 -1      3721 1.99967E+01 6.45059E-02-5.97161E-05-2.52249E-02 1.43463E-14 1.58092E-13
 -1      3722 1.99986E+01 5.46504E-02-3.44728E-04-1.89289E-02 1.83313E-14 1.10812E-13
 -1      3723 1.99882E+01 8.14220E-02 4.30178E-04-1.96152E-02 1.43128E-15-2.15730E-13
 -1      3724 2.00025E+01 4.55152E-02-1.96620E-05-1.55530E-02-1.57903E-14-8.33577E-14
 -1      3725 2.00034E+01 3.80576E-02-2.27625E-04-1.10292E-02 8.32288E-14-1.76491E-13
 -1      3726 1.99976E+01 5.79890E-02 2.81972E-04-1.23602E-02-1.67704E-13-2.10880E-13
 -1      3727 2.00056E+01 3.11769E-02 5.46573E-06-8.65282E-03 1.65472E-13-3.35662E-13
 -1      3728 2.00059E+01 2.56377E-02-1.42735E-04-5.48443E-03 9.18679E-14-3.66555E-13
 -1      3729 2.00032E+01 4.01844E-02 1.74979E-04-7.15717E-03-1.30092E-13-5.74625E-13
 -1      3730 2.00070E+01 2.05449E-02 1.94411E-05-3.85684E-03 5.74639E-14-2.68388E-13
 -1      3731 2.00068E+01 1.64997E-02-8.33731E-05-1.70771E-03 4.62073E-14-3.04062E-13
 -1      3732 2.00062E+01 2.69020E-02 1.01099E-04-3.51508E-03 7.74982E-14-5.14081E-13
 -1      3733 2.00072E+01 1.27826E-02 2.59177E-05-6.36029E-04 7.73242E-14-2.51561E-13
 -1      3734 2.00067E+01 9.86790E-03-4.32787E-05 7.56089E-04 3.24915E-14-2.10360E-13
 -1      3735 2.00073E+01 1.71453E-02 4.97447E-05-1.03997E-03 1.19240E-13-3.59624E-13
 -1      3736 2.00065E+01 7.17722E-03 2.46850E-05 1.41930E-03-8.43501E-14-2.47780E-13
 -1      3737 2.00060E+01 5.07734E-03-1.19995E-05 2.28511E-03-8.51747E-14-3.25792E-13
 -1      3738 2.00073E+01 1.00633E-02 1.16227E-05 5.64745E-04 2.86716E-14-5.44238E-13
 -1      3739 2.00050E+01 2.32290E-03-2.60381E-06 3.13157E-03-8.55953E-14-5.94483E-14
 -1      3740 1.92719E+01 7.67668E-01-4.51923E-03 9.23282E-01-2.87664E-14-2.65276E-13
 -1      3741 1.92068E+01 7.91024E-01 1.76327E-03 1.02188E+00-1.06856E-14-1.13732E-13
 -1      3742 1.72167E+01-3.35307E-01 2.61648E-02-3.11415E+00-2.08602E-13-3.83783E-13
 -1      3743 1.92222E+01 1.76669E+00-2.38414E-04-8.72123E-01 2.02022E-13-4.17155E-13
 -1      3744 2.00054E+01 3.23882E-03-4.44732E-05-2.79710E-03 1.74203E-13-6.80518E-14
 -1      3745 2.00052E+01 4.23242E-03-1.38530E-05-3.00886E-03 1.37126E-13 3.08236E-13
 -1      3746 1.90592E+01 7.96079E-01-5.61231E-03 1.12815E+00-8.11467E-14-1.38101E-13
 -1      3747 1.89922E+01 7.87873E-01 3.25405E-03 1.24477E+00-8.92825E-14-1.31610E-13
 -1      3748 1.88870E+01 8.92351E-01 4.88985E-03 9.82107E-01-2.83088E-14-3.08899E-13
 -1      3749 1.88175E+01 7.49650E-01-7.05590E-03 1.37929E+00-1.64317E-13-2.61098E-13
 -1      3750 1.87637E+01 6.88382E-01 5.90083E-03 1.52084E+00-2.25725E-13-3.56944E-13
 -1      3751 1.85782E+01 8.88653E-01 5.12751E-03 1.20830E+00-2.05829E-13-3.32514E-13
 -1      3752 1.94487E+01 6.99107E-01-3.77221E-03 7.51990E-01 3.84823E-14-3.58417E-13
 -1      3753 1.93928E+01 7.38620E-01 1.05350E-03 8.36790E-01-1.62305E-14-2.90870E-13
 -1      3754 1.91442E+01 8.35978E-01 4.07415E-03 8.00684E-01 4.09906E-14-3.07610E-13
 -1      3755 1.95916E+01 6.12166E-01-3.09456E-03 6.06532E-01 1.03432E-14-3.66481E-13
 -1      3756 1.95466E+01 6.58212E-01 7.72755E-04 6.79367E-01 4.55750E-14-3.92730E-13
 -1      3757 1.93523E+01 7.49692E-01 3.31252E-03 6.51059E-01 1.80963E-14-3.31695E-13
 -1      3758 1.97042E+01 5.19709E-01-2.56696E-03 4.82825E-01-8.40718E-14-2.63588E-13
 -1      3759 1.96692E+01 5.67176E-01 6.66151E-04 5.44939E-01 2.04781E-15-3.26184E-13
 -1      3760 1.95192E+01 6.50443E-01 2.76766E-03 5.25015E-01-3.93064E-14-5.27705E-13
 -1      3761 1.97906E+01 4.30583E-01-2.11554E-03 3.79383E-01-5.91379E-14-1.63190E-13
 -1      3762 1.97647E+01 4.75263E-01 5.93866E-04 4.31593E-01-6.60751E-14-2.09120E-13
 -1      3763 1.96500E+01 5.48605E-01 2.17878E-03 4.17529E-01-9.98796E-14-4.44137E-13
 -1      3764 1.98557E+01 3.49607E-01-1.72817E-03 2.93397E-01 1.18403E-13-2.61264E-13
 -1      3765 1.98370E+01 3.89734E-01 5.43373E-04 3.36713E-01 4.16373E-14-2.14861E-13
 -1      3766 1.97501E+01 4.52786E-01 1.61672E-03 3.28391E-01 5.71917E-14-3.56813E-13
 -1      3767 1.99040E+01 2.78514E-01-1.38742E-03 2.23094E-01 7.31643E-14-3.09816E-13
 -1      3768 1.98909E+01 3.13418E-01 5.19237E-04 2.58397E-01 1.23447E-13-2.57099E-13
 -1      3769 1.98262E+01 3.66595E-01 1.26170E-03 2.53806E-01 1.22873E-13-4.65873E-13
 -1      3770 1.99389E+01 2.18025E-01-1.09629E-03 1.66602E-01 1.41021E-13-4.75590E-13
 -1      3771 1.99301E+01 2.47505E-01 4.66840E-04 1.94903E-01 1.11428E-13-4.23184E-13
 -1      3772 1.98829E+01 2.91309E-01 9.42153E-04 1.92974E-01 1.68597E-13-5.21652E-13
 -1      3773 1.99637E+01 1.67793E-01-8.53539E-04 1.21908E-01 1.70258E-13-3.97073E-13
 -1      3774 1.99580E+01 1.92129E-01 4.12934E-04 1.44224E-01 9.33097E-14-4.31379E-13
 -1      3775 1.99242E+01 2.27548E-01 6.88880E-04 1.44055E-01 1.43507E-13-5.42322E-13
 -1      3776 1.99808E+01 1.26929E-01-6.54451E-04 8.71252E-02 1.95821E-14-2.78132E-13
 -1      3777 1.99773E+01 1.46624E-01 3.56231E-04 1.04430E-01 1.05061E-13-3.27025E-13
 -1      3778 1.99537E+01 1.74763E-01 4.94615E-04 1.05327E-01 2.21710E-14-5.94771E-13
 -1      3779 1.99922E+01 9.43008E-02-4.93607E-04 6.05157E-02-1.25216E-13-1.43909E-13
 -1      3780 1.99902E+01 1.09951E-01 2.99588E-04 7.37054E-02 3.43736E-14-2.12527E-13
 -1      3781 1.99743E+01 1.31925E-01 3.47580E-04 7.51791E-02-9.52676E-14-4.70481E-13
 -1      3782 1.99994E+01 6.87043E-02-3.65643E-04 4.05207E-02-7.16519E-14-2.56657E-13
 -1      3783 1.99986E+01 8.09252E-02 2.46022E-04 5.03943E-02-1.31846E-13-1.93705E-13
 -1      3784 1.99882E+01 9.77925E-02 2.37914E-04 5.21154E-02-8.28389E-14-4.54436E-13
 -1      3785 2.00037E+01 4.89665E-02-2.65405E-04 2.57818E-02 4.12183E-14-1.48573E-13
 -1      3786 2.00035E+01 5.83469E-02 1.97589E-04 3.30309E-02 9.93118E-15-1.14449E-13
 -1      3787 1.99972E+01 7.10678E-02 1.57510E-04 3.47902E-02-4.88901E-14-4.47207E-13
 -1      3788 2.00060E+01 3.40042E-02-1.88709E-04 1.51456E-02 3.55415E-13-3.11265E-15
 -1      3789 2.00062E+01 4.10825E-02 1.55400E-04 2.03533E-02 1.82265E-13 3.99830E-14
 -1      3790 2.00027E+01 5.04997E-02 9.96072E-05 2.20266E-02 1.03129E-13-2.63409E-13
 -1      3791 2.00068E+01 2.28556E-02-1.30443E-04 7.66049E-03 3.14380E-13-4.61288E-14
 -1      3792 2.00073E+01 2.81044E-02 1.19942E-04 1.13064E-02 4.15468E-13-9.32782E-14
 -1      3793 2.00057E+01 3.49339E-02 5.81442E-05 1.28232E-02 3.53136E-13-9.51565E-14
 -1      3794 2.00067E+01 1.46968E-02-8.78430E-05 2.53264E-03 3.75783E-13-1.67234E-13
 -1      3795 2.00074E+01 1.85413E-02 9.62018E-05 5.02814E-03 3.54002E-13-2.61379E-14
 -1      3796 2.00070E+01 2.33611E-02 3.04296E-05 6.37696E-03 3.68506E-13 1.31474E-13
 -1      3797 2.00061E+01 8.78588E-03-5.69912E-05-8.51643E-04 3.94723E-13 2.28484E-14
 -1      3798 2.00068E+01 1.15797E-02 8.03933E-05 8.14566E-04 3.18182E-13-1.65564E-13
 -1      3799 2.00071E+01 1.48180E-02-2.11547E-05 1.96762E-03 2.58145E-13 1.20382E-13
 -1      3800 2.00058E+01 6.09870E-03 4.61084E-05-2.01255E-03 3.30290E-13 2.10599E-13
 -1      3801 1.83596E+01 2.11958E-01-8.33616E-03 2.12198E+00-2.92847E-13-2.95652E-13
 -1      3802 1.84377E+01-6.68177E-02 1.77791E-02 2.34982E+00-3.07268E-13-2.61551E-13
 -1      3803 1.85686E+01 5.79215E-01-8.21080E-03 1.69957E+00-2.01666E-13-3.66635E-13
 -1      3804 1.85598E+01 4.32442E-01 1.11944E-02 1.87603E+00-2.21139E-13-3.54570E-13
 -1      3805 1.82228E+01 7.83119E-01 4.67896E-03 1.50935E+00-2.33626E-13-4.24352E-13
 -1      3806 1.81018E+01 2.70003E+00-7.62197E-03 2.76177E-01 5.95370E-14-6.03159E-13
 -1      3807 1.82323E+01 2.63435E+00 3.90888E-04 3.79499E-01 1.16749E-14-6.01843E-13
 -1      3808 1.82625E+01 2.35045E+00 8.59381E-03 5.59200E-01 1.09548E-14-5.60953E-13
 -1      3809 1.79808E+01 2.53910E+00 1.05411E-02 2.19822E-01 6.94858E-14-5.86073E-13
 -1      3810 2.00051E+01 5.92288E-04-1.15898E-05-1.72669E-03 2.20532E-13 1.89016E-13
 -1      3811 2.00048E+01 5.23706E-04-3.53013E-06-2.40836E-03 1.46288E-13 2.10856E-13
 -1      3812 2.00053E+01 1.72118E-03 4.23442E-05-2.59589E-03 2.02149E-13 1.22995E-13
 -1      3813 2.00058E+01 2.14810E-03 3.55792E-05-1.29653E-03 1.24422E-13 5.69750E-14
 -1      3814 1.75938E+01-1.20893E+00 4.23934E-02 3.69281E+00 2.91977E-13-3.91071E-13
 -1      3815 1.57876E+01-4.62086E-01-1.03608E-02 3.44891E+00 2.53115E-13-4.63626E-13
 -1      3816 1.46395E+01 3.62770E-01 1.01106E-02 2.53107E+00 1.89400E-13-5.95850E-13
 -1      3817 1.86827E+01-8.61485E-01 2.29533E-02 2.88492E+00-3.33662E-13-2.85636E-14
 -1      3818 1.74565E+01-6.81609E-01 2.29797E-02 3.12829E+00-3.10933E-13 8.23300E-15
 -1      3819 1.66192E+01-8.71200E-02-2.06268E-02 2.65797E+00-1.55344E-13-1.04926E-13
 -1      3820 1.84071E+01-4.04802E-01-1.07219E-02 2.61104E+00-2.73887E-13-1.96601E-13
 -1      3821 1.92327E+01 1.04058E+00-1.82305E-03 1.34716E+00-4.01898E-14-3.56099E-13
 -1      3822 1.92753E+01 7.36804E-01 7.08511E-03 1.57239E+00-1.34815E-14-3.59254E-13
 -1      3823 1.87586E+01 7.72350E-01-2.44840E-03 1.72535E+00 8.32342E-16-3.56190E-13
 -1      3824 1.99231E+01 8.81079E-01 1.64046E-03-1.46421E+00 1.29492E-13-3.25146E-13
 -1      3825 1.99536E+01 1.05356E+00-2.37418E-04-1.27286E+00 1.64430E-13-3.36089E-13
 -1      3826 1.96722E+01 1.27937E+00 5.11889E-03-1.19924E+00 1.82044E-13-3.56356E-13
 -1      3827 1.93427E+01 1.02070E+00 5.35283E-03-1.55333E+00 9.27069E-14-3.61514E-13
 -1      3828 1.34170E+01 4.25528E-03 5.80159E-02-2.82080E+00 2.09262E-13 1.59130E-13
 -1      3829 1.59014E+01 1.99856E-01-1.55643E-02-2.79347E+00-1.68175E-13-4.88199E-13
 -1      3830 1.78468E+01 1.11663E-01 2.76043E-02-2.57795E+00-1.34435E-13-3.66624E-13
 -1      3831 1.27017E+01 4.03445E-01 2.87359E-02-1.98894E+00 1.27156E-13 1.89487E-13
 -1      3832 1.37617E+01 5.12595E-01 3.45207E-02-1.88567E+00 1.52728E-13 1.06691E-13
 -1      3833 1.23079E+01 7.70413E-01 3.56169E-02-7.55289E-01 3.62080E-14 3.01634E-13
 -1      3834 1.78050E+01 5.11034E-01 8.11450E-04-2.25516E+00-4.70442E-14-3.74717E-13
 -1      3835 1.32567E+01 6.95232E-01 4.42517E-03 1.41016E+00-3.93195E-14 3.31232E-13
 -1      3836 1.25682E+01 8.80087E-01 4.10930E-02 2.26547E-01-4.94505E-16 3.30149E-13
 -1      3837 1.35332E+01 9.33242E-01 3.32599E-02-1.53758E-02-2.99383E-14 3.22764E-13
 -1      3838 1.38470E+01 8.67621E-01 1.32792E-02 1.62762E+00 1.40328E-13-7.04988E-13
 -1      3839 1.35684E+01 1.13006E+00 8.98622E-03 5.05648E-01 5.78992E-14-7.21269E-13
 -1      3840 1.51203E+01 7.22473E-01 4.27796E-02-2.14728E+00-1.25064E-13-6.06835E-13
 -1      3841 1.51388E+01 7.56986E-01 3.99432E-02 1.93966E+00 1.48012E-13-5.93876E-13
 -1      3842 1.76317E+01 3.36436E-02 3.67529E-03 2.44708E+00-2.13135E-13-2.30553E-13
 -1      3843 1.79422E+01 2.19493E+00-1.17996E-02 6.16204E-01 4.40244E-14-5.43771E-13
 -1      3844 1.82082E+01 2.07942E+00 7.08307E-03 7.72114E-01 6.73932E-15-5.45402E-13
 -1      3845 2.00060E+01 4.13655E-03-1.06280E-05 1.98302E-03 7.53975E-14-2.22816E-13
 -1      3846 1.42667E+01 7.31188E-01-6.15836E-03-1.45034E+00 1.09238E-13 4.84213E-14
 -1      3847 1.48715E+01 3.29079E-01 6.23187E-03-2.28409E+00 1.68567E-13 2.36890E-14
 -1      3848 1.61192E+01 2.57415E-01 4.50211E-02-2.26431E+00 2.14784E-13 1.79548E-14
 -1      3849 2.00059E+01 3.76153E-03-1.01493E-05-2.21168E-03 1.30219E-13 7.38826E-14
 -1      3850 2.00067E+01 6.05726E-03 9.31211E-05-1.68467E-03 5.60458E-14 3.97004E-14
 -1      3851 2.00062E+01 4.04064E-03-3.26035E-05-1.63412E-03 1.08058E-13 1.47275E-13
 -1      3852 2.00065E+01 3.95667E-03-1.89817E-05 3.46826E-04 1.56950E-13-2.82036E-13
 -1      3853 2.00065E+01 3.91963E-03-3.09078E-05-2.76560E-04 1.71814E-13-9.15691E-14
 -1      3854 2.00065E+01 8.12518E-03-5.47043E-05-1.10890E-03 1.18304E-13 5.97332E-14
 -1      3855 1.78380E+01 5.10105E-01 1.85541E-03 1.92253E+00-2.13839E-13-3.50856E-13
 -1      3856 1.34975E+01 1.15853E+00 4.37227E-02-2.18678E-01 1.14123E-14-7.13912E-13
 -1      3857 1.35745E+01 9.51958E-01-1.12427E-02-1.17537E+00-7.34794E-14-7.08114E-13
 -1      3858 1.42529E+01 1.23281E+00 3.78966E-02 3.34165E-01 4.83962E-14-6.73175E-13
 -1      3859 1.76091E+01-5.84680E-01 4.31980E-02 3.12533E+00 2.08821E-13-4.00320E-13
 -1      3860 1.90506E+01 1.64365E+00-3.91808E-03-1.03951E+00 1.51730E-13-4.18976E-13
 -1      3861 1.47476E+01 5.93428E-01 3.02414E-02 1.81069E+00-9.36317E-14 1.37865E-13
 -1      3862 1.78404E+01 2.31230E+00-1.66645E-03-3.34758E-01 1.17539E-13-5.11073E-13
 -1      3863 1.77155E+01 2.36679E+00-6.07160E-03-1.23824E-01 8.56102E-14-5.75919E-13
 -1      3864 1.84030E+01 8.10363E-01 6.03127E-03-1.90952E+00-3.04314E-15-3.92287E-13
 -1      3865 1.85058E+01 1.02152E+00-9.90857E-03-1.69142E+00 1.41818E-14-3.94835E-13
 -1      3866 1.92339E+01 1.52236E+00 1.48475E-03 9.89869E-01-8.93948E-14-4.07512E-13
 -1      3867 1.92792E+01 1.25020E+00 4.69182E-03 1.18947E+00-6.18274E-14-3.86252E-13
 -1      3868 1.88538E+01 1.28688E+00-9.70108E-03 1.28737E+00-2.22381E-14-3.90724E-13
 -1      3869 1.89446E+01 1.69665E+00 2.53229E-03 9.69776E-01-5.01666E-14-4.62004E-13
 -1      3870 1.73694E+01 9.25685E-01 1.76934E-02-1.93668E+00-5.13558E-14-4.08414E-13
 -1      3871 1.83495E+01 2.03320E+00-2.74997E-03-7.58678E-01 1.25563E-13-4.57250E-13
 -1      3872 1.80610E+01 2.17737E+00-9.28641E-03-5.96756E-01 9.99750E-14-4.61892E-13
 -1      3873 1.77875E+01 2.08597E+00 1.02727E-02-5.71370E-01 9.15139E-14-4.73937E-13
 -1      3874 2.00062E+01 3.60899E-03-3.01277E-05 1.29617E-03 1.86238E-13-2.90600E-13
 -1      3875 2.00064E+01 3.78825E-03-2.66111E-05 7.74994E-04 1.26808E-13-3.00528E-13
 -1      3876 2.00070E+01 5.81947E-03 4.12250E-05 4.16821E-04 1.52545E-13-3.96180E-13
 -1      3877 1.86553E+01 1.83926E+00-9.14028E-03 9.08183E-01-2.08543E-14-5.28104E-13
 -1      3878 1.84049E+01 1.73266E+00 3.84611E-03 1.00858E+00 3.95799E-15-5.06067E-13
 -1      3879 1.80102E+01 5.29550E-01-9.40521E-03 2.04624E+00 6.72804E-14-3.87193E-13
 -1      3880 1.80373E+01 1.50874E-01 1.41683E-02 2.38682E+00 9.40751E-14-3.97702E-13
 -1      3881 1.77761E+01 2.32650E+00-3.02688E-04 3.68698E-01 5.15628E-14-5.82174E-13
 -1      3882 1.77098E+01 2.08402E+00 9.81337E-03 5.86428E-01 5.56636E-14-5.38111E-13
 -1      3883 1.76951E+01 2.36378E+00-7.37426E-03 1.66432E-01 7.96234E-14-5.85225E-13
 -1      3884 2.00063E+01 4.33442E-03-1.74749E-05 1.51178E-03 1.39066E-13-4.90118E-13
 -1      3885 1.62746E+01 4.75191E-01-1.51769E-02-1.89539E+00 2.13569E-13 2.38745E-14
 -1      3886 1.69221E+01 7.07581E-01 1.70607E-02-1.50595E+00 1.02680E-13-9.75268E-14
 -1      3887 1.70994E+01 8.00700E-01-2.17725E-02-1.27320E+00 8.32673E-14-2.26881E-13
 -1      3888 1.75068E+01 8.96623E-01 6.50061E-03-1.09161E+00 1.21560E-13-2.71188E-13
 -1      3889 1.76926E+01 9.34302E-01-1.59607E-02-9.29109E-01 3.33668E-14-1.84012E-13
 -1      3890 1.70211E+01 1.03835E+00 1.74949E-02-9.20078E-01 6.85710E-14-3.26165E-13
 -1      3891 1.80057E+01 9.72645E-01 2.89742E-03-8.05236E-01 9.38580E-15-1.17640E-13
 -1      3892 1.81709E+01 9.72383E-01-1.19805E-02-6.90916E-01 1.84145E-14-6.09618E-14
 -1      3893 1.76622E+01 1.08446E+00 1.11322E-02-6.53864E-01 7.44174E-14-2.16895E-13
 -1      3894 1.84187E+01 9.74562E-01 2.18689E-03-6.06973E-01-1.34903E-14 7.79915E-14
 -1      3895 1.85566E+01 9.47453E-01-9.78382E-03-5.23849E-01-1.18153E-14-1.07241E-14
 -1      3896 1.81751E+01 1.06542E+00 9.88825E-03-4.72384E-01 1.00163E-13-5.55145E-14
 -1      3897 1.87534E+01 9.21532E-01-2.25727E-04-4.56470E-01-6.73607E-14-1.16268E-13
 -1      3898 1.88774E+01 8.79506E-01-6.41859E-03-3.95930E-01-4.81178E-14-2.43355E-13
 -1      3899 1.85633E+01 1.01229E+00 8.03745E-03-3.48142E-01-9.93696E-14-1.63997E-13
 -1      3900 1.90312E+01 8.37821E-01-6.63625E-04-3.49250E-01-3.98277E-14-3.80981E-13
 -1      3901 1.91360E+01 7.86671E-01-4.65046E-03-3.02647E-01-7.86144E-14-4.05238E-13
 -1      3902 1.88968E+01 9.16905E-01 8.23620E-03-2.61248E-01-1.10598E-13-3.97987E-13
 -1      3903 1.92581E+01 7.38552E-01-4.18357E-04-2.69036E-01 3.25887E-14-3.39970E-13
 -1      3904 1.93425E+01 6.84672E-01-3.66969E-03-2.31943E-01 2.18122E-13-3.25379E-13
 -1      3905 1.91545E+01 8.03145E-01 4.62836E-03-1.93420E-01-4.85292E-15-4.36712E-13
 -1      3906 1.94405E+01 6.33979E-01-3.28852E-04-2.05617E-01 2.31667E-13-2.85899E-13
 -1      3907 1.95084E+01 5.80351E-01-2.89562E-03-1.76201E-01 2.14215E-13-3.11364E-13
 -1      3908 1.93593E+01 6.91113E-01 3.13560E-03-1.43275E-01 2.44918E-13-4.58244E-13
 -1      3909 1.95855E+01 5.31009E-01-3.83800E-04-1.56706E-01 2.66555E-13-2.53291E-13
 -1      3910 1.96392E+01 4.81151E-01-2.30156E-03-1.33254E-01 1.76309E-13-1.40644E-13
 -1      3911 1.95239E+01 5.80583E-01 2.43706E-03-1.06539E-01 3.12745E-13-4.35820E-13
 -1      3912 1.96994E+01 4.35686E-01-3.21418E-04-1.18391E-01 4.28574E-14-1.22010E-13
 -1      3913 1.97410E+01 3.90901E-01-1.81051E-03-9.97459E-02 1.10178E-13-5.79820E-14
 -1      3914 1.96527E+01 4.78259E-01 1.94304E-03-7.90775E-02 2.15495E-13-3.63672E-13
 -1      3915 1.97873E+01 3.50542E-01-2.53158E-04-8.85147E-02 1.36092E-13-1.60803E-13
 -1      3916 1.98190E+01 3.11575E-01-1.40825E-03-7.37741E-02 1.21857E-13-1.32900E-13
 -1      3917 1.97524E+01 3.86355E-01 1.53125E-03-5.81858E-02 6.10668E-14-3.99130E-13
 -1      3918 1.98539E+01 2.76845E-01-1.91276E-04-6.53393E-02 4.60167E-14-1.57737E-13
 -1      3919 1.98776E+01 2.43851E-01-1.08241E-03-5.37730E-02 2.25328E-14-1.85906E-13
 -1      3920 1.98282E+01 3.06413E-01 1.18104E-03-4.24407E-02 1.16677E-13-3.09093E-13
 -1      3921 1.99035E+01 2.14728E-01-1.35287E-04-4.74730E-02-8.29761E-14-2.95908E-13
 -1      3922 1.99207E+01 1.87434E-01-8.21141E-04-3.84852E-02-1.95290E-14-3.29739E-13
 -1      3923 1.98849E+01 2.38732E-01 8.96602E-04-3.05712E-02-4.94330E-14-3.55850E-13
 -1      3924 1.99395E+01 1.63559E-01-8.93695E-05-3.38221E-02 9.50961E-15-4.52022E-13
 -1      3925 1.99517E+01 1.41446E-01-6.13691E-04-2.69185E-02 7.25735E-14-5.24521E-13
 -1      3926 1.99263E+01 1.82722E-01 6.69462E-04-2.16560E-02-6.92639E-14-4.64747E-13
 -1      3927 1.99651E+01 1.22269E-01-5.40504E-05-2.35080E-02 1.69744E-13-6.27274E-13
 -1      3928 1.99734E+01 1.04700E-01-4.50860E-04-1.82752E-02 1.36669E-13-4.74699E-13
 -1      3929 1.99559E+01 1.37316E-01 4.90495E-04-1.50075E-02 8.65705E-14-6.01302E-13
 -1      3930 1.99826E+01 8.95897E-02-2.82690E-05-1.58174E-02 1.04803E-13-5.20952E-13
 -1      3931 1.99881E+01 7.58871E-02-3.24707E-04-1.19100E-02-4.00254E-14-5.21282E-13
 -1      3932 1.99765E+01 1.01208E-01 3.51679E-04-1.00983E-02 1.19518E-13-6.02289E-13
 -1      3933 1.99942E+01 6.42001E-02-1.03833E-05-1.01698E-02-1.25117E-13-4.64114E-13
 -1      3934 1.99976E+01 5.37057E-02-2.28330E-04-7.30143E-03-1.92052E-13-4.21279E-13
 -1      3935 1.99903E+01 7.30182E-02 2.45912E-04-6.51829E-03-9.86075E-14-6.73735E-13
 -1      3936 2.00013E+01 4.48278E-02 1.39047E-06-6.09535E-03-1.40097E-13-4.81922E-13
 -1      3937 2.00032E+01 3.69308E-02-1.56985E-04-4.03137E-03-1.13908E-13-5.42686E-13
 -1      3938 1.99990E+01 5.14023E-02 1.66734E-04-3.94624E-03-1.54422E-13-4.28924E-13
 -1      3939 2.00054E+01 3.03038E-02 7.88727E-06-3.22491E-03 6.37429E-14-3.20203E-13
 -1      3940 2.00062E+01 2.44796E-02-9.86718E-05-1.78036E-03 1.63843E-13-2.92887E-13
 -1      3941 2.00042E+01 3.51098E-02 1.08106E-04-2.13261E-03 6.38147E-14-1.60221E-13
 -1      3942 2.00072E+01 1.96051E-02 5.86179E-06-1.23620E-03 8.78083E-14-2.56537E-13
 -1      3943 2.00074E+01 1.53552E-02-5.73649E-05-2.55411E-04 2.93077E-14-3.60827E-13
 -1      3944 2.00067E+01 2.31006E-02 7.91807E-05-9.00485E-04 1.30094E-13-2.26074E-13
 -1      3945 1.92629E+01 7.67147E-01-4.69071E-03 5.24949E-01 4.74014E-14-3.10863E-13
 -1      3946 1.91740E+01 8.21925E-01 6.54895E-05 5.86181E-01 1.32600E-13-2.30565E-13
 -1      3947 1.87362E+01 9.45955E-01-4.88144E-03 7.84274E-01 2.99874E-14-3.31961E-13
 -1      3948 1.85920E+01 9.73495E-01-2.79882E-04 8.73193E-01-1.14909E-13-3.08737E-13
 -1      3949 1.90266E+01 8.66782E-01-5.49077E-03 6.46163E-01 2.25346E-14-1.82919E-13
 -1      3950 1.89141E+01 9.10779E-01-7.84231E-04 7.19124E-01-9.95449E-15-2.89636E-13
 -1      3951 1.89827E+01 9.14320E-01 8.13201E-03 5.05912E-01 8.48100E-14-2.53476E-13
 -1      3952 1.83586E+01 9.78901E-01-1.03321E-02 9.68440E-01-2.97306E-13-3.02668E-13
 -1      3953 1.81995E+01 9.78478E-01 9.21871E-04 1.08004E+00-2.79329E-13-3.50613E-13
 -1      3954 1.82719E+01 1.08866E+00 1.54781E-02 7.63841E-01-2.41631E-13-3.69131E-13
 -1      3955 2.00069E+01 9.22187E-03-2.48036E-05-7.97930E-04 1.81495E-13-4.57894E-14
 -1      3956 2.00074E+01 1.27594E-02 1.01824E-04 4.67639E-04 3.11609E-13 1.41836E-13
 -1      3957 2.00071E+01 9.78671E-03-7.41050E-05-4.39057E-04 1.26055E-13 2.14145E-13
 -1      3958 1.94546E+01 6.60603E-01-2.45138E-03 4.20589E-01 8.23973E-16-4.50700E-13
 -1      3959 1.93798E+01 7.15836E-01-3.85351E-04 4.73707E-01 5.19078E-14-3.98414E-13
 -1      3960 1.92271E+01 8.01064E-01 5.66414E-03 4.14069E-01 1.18034E-13-3.20204E-13
 -1      3961 1.95982E+01 5.52749E-01-3.05958E-03 3.37714E-01-7.75719E-14-5.34009E-13
 -1      3962 1.95434E+01 6.06461E-01-2.99528E-04 3.82274E-01-2.86842E-14-5.52050E-13
 -1      3963 1.94340E+01 6.77095E-01 4.83280E-03 3.35250E-01 7.14974E-14-5.73739E-13
 -1      3964 1.97113E+01 4.55098E-01-2.24274E-03 2.64025E-01 9.19334E-14-5.17808E-13
 -1      3965 1.96693E+01 5.04263E-01-6.67698E-05 3.01699E-01-2.47344E-14-5.74289E-13
 -1      3966 1.95792E+01 5.71799E-01 4.14606E-03 2.66619E-01-3.67373E-14-6.03702E-13
 -1      3967 1.97975E+01 3.66755E-01-1.80381E-03 2.03892E-01 1.30738E-13-6.14361E-13
 -1      3968 1.97657E+01 4.10219E-01-1.14117E-04 2.35073E-01 1.21465E-13-5.47617E-13
 -1      3969 1.97000E+01 4.68660E-01 4.09738E-03 2.10062E-01 1.01652E-13-6.88880E-13
 -1      3970 1.98617E+01 2.90561E-01-1.42168E-03 1.54770E-01 1.77031E-13-6.02854E-13
 -1      3971 1.98385E+01 3.27853E-01-6.19042E-06 1.80231E-01 1.51437E-13-5.83457E-13
 -1      3972 1.97895E+01 3.76871E-01 3.24356E-03 1.62768E-01 1.72041E-13-6.58275E-13
 -1      3973 1.99089E+01 2.26335E-01-1.10639E-03 1.15221E-01 1.14428E-13-5.59391E-13
 -1      3974 1.98924E+01 2.57569E-01 5.94360E-05 1.35695E-01 2.01673E-13-5.72653E-13
 -1      3975 1.98563E+01 2.97865E-01 2.47719E-03 1.23727E-01 1.96048E-13-6.75043E-13
 -1      3976 1.99430E+01 1.73341E-01-8.48560E-04 8.39291E-02-8.58186E-14-5.66804E-13
 -1      3977 1.99314E+01 1.98961E-01 9.38470E-05 1.00117E-01 1.00991E-15-6.87921E-13
 -1      3978 1.99055E+01 2.31475E-01 1.85516E-03 9.21597E-02 5.81167E-14-6.94991E-13
 -1      3979 1.99670E+01 1.30458E-01-6.40182E-04 5.96072E-02-1.99209E-13-4.77949E-13
 -1      3980 1.99591E+01 1.51076E-01 1.07511E-04 7.21854E-02-1.80858E-13-5.28623E-13
 -1      3981 1.99409E+01 1.76847E-01 1.36406E-03 6.71231E-02-1.32200E-13-6.20264E-13
 -1      3982 1.99834E+01 9.63833E-02-4.74208E-04 4.10419E-02-1.36251E-13-3.48430E-13
 -1      3983 1.99783E+01 1.12680E-01 1.07878E-04 5.06427E-02-1.00297E-13-4.09722E-13
 -1      3984 1.99659E+01 1.32754E-01 9.83101E-04 4.76335E-02-2.19102E-13-4.39944E-13
 -1      3985 1.99943E+01 6.97769E-02-3.44160E-04 2.71356E-02-2.46080E-15-2.42704E-13
 -1      3986 1.99911E+01 8.24357E-02 1.00283E-04 3.43290E-02-5.18325E-14-3.02912E-13
 -1      3987 1.99830E+01 9.77999E-02 6.92317E-04 3.27440E-02-1.31889E-13-2.61157E-13
 -1      3988 2.00010E+01 4.93578E-02-2.44111E-04 1.69274E-02 1.44623E-13-2.97718E-13
 -1      3989 1.99993E+01 5.90219E-02 8.84684E-05 2.22113E-02 3.33313E-14-3.48098E-13
 -1      3990 1.99943E+01 7.05706E-02 4.73903E-04 2.15878E-02 9.26195E-14-1.40924E-13
 -1      3991 2.00049E+01 3.39586E-02-1.64421E-04 9.59964E-03 2.95910E-13-4.74204E-14
 -1      3992 2.00041E+01 4.12089E-02 7.52344E-05 1.33953E-02 2.18281E-13-2.33754E-13
 -1      3993 2.00013E+01 4.97216E-02 3.11728E-04 1.34023E-02 1.71046E-13-2.86657E-13
 -1      3994 2.00068E+01 2.25732E-02-7.61361E-05 4.51827E-03 3.13094E-13 1.28135E-13
 -1      3995 2.00065E+01 2.78523E-02 5.53331E-05 7.10953E-03 4.38461E-13 8.47697E-14
 -1      3996 2.00052E+01 3.40280E-02 1.82454E-04 7.52596E-03 2.36133E-13 1.22560E-13
 -1      3997 2.00072E+01 1.53324E-02-3.44859E-05 1.46119E-03 2.22570E-13 2.05355E-13
 -1      3998 2.00073E+01 1.92906E-02 6.81190E-05 3.20983E-03 2.39125E-13 1.26632E-13
 -1      3999 2.00068E+01 2.33653E-02 2.20357E-05 3.72904E-03 2.59985E-13 3.49924E-13
 -1      4000 2.00073E+01 1.65498E-02-5.29842E-05 1.46875E-03 2.88703E-13 3.00885E-13
 -1      4001 1.73402E+01 7.81130E-01-2.16089E-02 1.56088E+00-1.80131E-13-2.66747E-13
 -1      4002 1.71789E+01 6.47328E-01 1.13620E-02 1.78444E+00-1.60236E-13-2.21908E-13
 -1      4003 1.78989E+01 9.40548E-01-1.53392E-02 1.20878E+00-2.29183E-13-2.75710E-13
 -1      4004 1.77313E+01 8.91124E-01 4.88313E-03 1.36118E+00-2.01259E-13-2.58239E-13
 -1      4005 1.77851E+01 1.11769E+00 2.63292E-02 9.43613E-01-2.36082E-13-2.25974E-13
 -1      4006 1.83396E+01 1.18202E+00 4.62195E-03 1.46994E+00 2.53280E-14-4.42696E-13
 -1      4007 1.82588E+01 8.64424E-01 7.66276E-03 1.74227E+00 5.76815E-14-4.19901E-13
 -1      4008 1.75656E+01 9.38794E-01-1.09949E-02 1.78188E+00 7.56209E-14-4.66915E-13
 -1      4009 1.74382E+01-1.51046E-01 7.05602E-03 2.78493E+00 1.37903E-13-4.08804E-13
 -1      4010 1.60303E+01 6.57317E-01-6.28173E-03 2.15899E+00 1.34250E-13-4.99263E-13
 -1      4011 1.52923E+01 1.13696E+00-1.42925E-03 1.33929E+00 9.22222E-14-5.84850E-13
 -1      4012 2.00069E+01 6.38593E-03 2.51465E-05 9.56968E-04 1.70712E-13-3.52014E-13
 -1      4013 1.82564E+01 1.33084E+00 1.49373E-02-1.49854E+00 3.62313E-14-4.04117E-13
 -1      4014 1.88034E+01 1.16168E+00-4.09946E-03-1.52930E+00 4.05228E-14-3.96979E-13
 -1      4015 1.89968E+01 1.28958E+00-6.53139E-03-1.36056E+00 8.71703E-14-4.01790E-13
 -1      4016 1.69074E+01 2.21785E-01 1.58235E-02 2.31404E+00-7.18737E-14-1.28818E-13
 -1      4017 1.59784E+01 4.24390E-01 1.41878E-02 2.21993E+00-7.01930E-14-1.36763E-13
 -1      4018 1.68811E+01 4.54936E-01-1.85665E-02 2.03741E+00-1.33991E-13-2.82714E-13
 -1      4019 2.00065E+01 4.17645E-03-2.08175E-05-6.55614E-04 9.04205E-14-2.48197E-14
 -1      4020 2.00063E+01 3.95571E-03-3.75774E-05-1.26315E-03 8.30196E-14 6.88812E-14
 -1      4021 2.00071E+01 6.56643E-03 9.91272E-05-9.34537E-04 4.81564E-14 2.41769E-13
 -1      4022 2.00071E+01 6.26106E-03 7.09719E-05-2.91222E-04 1.00949E-13 5.38159E-14
 -1      4023 1.50091E+01 7.88477E-01-4.63856E-03 1.47011E+00-7.98428E-14 1.32217E-13
 -1      4024 1.75263E+01 2.21245E+00 1.12171E-02 1.83868E-02 6.68789E-14-5.59882E-13
 -1      4025 1.64567E+01 1.07991E+00-2.32168E-02-1.69285E+00-5.92356E-14-4.94939E-13
 -1      4026 1.71565E+01 1.32880E+00-1.95437E-02-1.40072E+00-4.18502E-15-4.51462E-13
 -1      4027 1.42748E+01 1.01739E+00-9.31942E-03 1.88612E-01-3.07905E-14 3.18232E-13
 -1      4028 1.41405E+01 1.00753E+00 3.58715E-02-7.19720E-01 1.33114E-14 1.87643E-13
 -1      4029 1.51109E+01 8.92650E-01 2.23247E-02-1.12538E+00 4.09951E-14 1.14513E-14
 -1      4030 1.52611E+01 1.01743E+00 2.09481E-02-1.47587E+00-6.30954E-14-5.98521E-13
 -1      4031 1.72797E+01 1.95794E+00-8.64987E-03 5.82373E-01 7.01647E-14-5.40626E-13
 -1      4032 1.75221E+01 1.83907E+00 2.39254E-03 8.45071E-01 4.52705E-14-5.02425E-13
 -1      4033 1.76202E+01 1.86516E+00 8.98605E-03-8.37287E-01 5.68460E-14-4.70153E-13
 -1      4034 1.73126E+01 1.96871E+00-1.31210E-02-5.51524E-01 5.81782E-14-5.06893E-13
 -1      4035 1.86804E+01 1.00229E+00 9.83728E-03 6.22550E-01-5.08499E-14-2.35949E-13
 -1      4036 1.60326E+01 8.13765E-01 1.18121E-02-1.44895E+00 1.03552E-13-1.17992E-13
 -1      4037 1.53519E+01 1.42509E+00 2.85005E-02-8.16488E-01-7.52697E-15-6.12044E-13
 -1      4038 2.00075E+01 1.18345E-02 8.92713E-06 5.33958E-05-2.55399E-14-3.27247E-13
 -1      4039 2.00072E+01 8.77629E-03-2.67586E-05 7.06479E-04 8.87340E-14-4.42179E-13
 -1      4040 1.65366E+01 8.27613E-01 2.95188E-02 1.61817E+00-1.12488E-13-1.16947E-13
 -1      4041 1.67135E+01 4.09982E-01 7.45542E-03 2.42711E+00 1.09069E-13-4.78525E-13
 -1      4042 1.86031E+01 1.78825E+00 3.71672E-03-1.02054E+00 1.25381E-13-4.19955E-13
 -1      4043 1.82480E+01 1.68557E+00-5.50260E-03-1.09445E+00 8.86630E-14-4.27295E-13
 -1      4044 1.71291E+01 1.05639E+00 2.69412E-02 1.20501E+00-1.77382E-13-8.41354E-14
 -1      4045 1.50633E+01 1.39610E+00-5.32502E-03 5.98177E-01 7.12856E-14-6.07774E-13
 -1      4046 1.48785E+01 1.41035E+00-1.77870E-02-1.21935E-01 2.71493E-14-6.23543E-13
 -1      4047 1.61366E+01 1.58329E+00 1.34919E-02-4.95193E-01 1.96570E-14-5.71985E-13
 -1      4048 1.59622E+01 1.42173E+00 2.14256E-02 8.98358E-01 7.62402E-14-5.55520E-13
 -1      4049 1.68084E+01 8.92943E-01 1.27973E-02 1.87441E+00 6.40876E-14-4.92281E-13
 -1      4050 2.00072E+01 8.01095E-03 7.91907E-07 5.25113E-04 1.96297E-13-2.17365E-13
 -1      4051 1.74834E+01 1.51981E+00 1.41190E-02 1.17537E+00 6.23931E-14-4.93613E-13
 -1      4052 1.78264E+01 1.59156E+00-1.20237E-02 1.15049E+00 6.00325E-14-4.95320E-13
 -1      4053 1.84018E+01 1.37688E+00 3.39435E-03 1.29934E+00 1.22844E-14-4.75839E-13
 -1      4054 1.74869E+01 1.48619E+00-5.60083E-03-1.24289E+00 2.16418E-15-4.37576E-13
 -1      4055 1.78143E+01 1.60168E+00-5.48454E-03-1.12306E+00 5.18513E-14-4.36570E-13
 -1      4056 2.00073E+01 8.07964E-03-3.31399E-05 1.89694E-04 6.20516E-14-1.20471E-13
 -1      4057 2.00073E+01 8.59558E-03-1.52885E-05 4.45737E-06-1.51545E-14-1.02732E-13
 -1      4058 2.00073E+01 8.70111E-03-7.72227E-05-2.96359E-04-1.09635E-13 7.80287E-14
 -1      4059 2.00076E+01 1.11687E-02 3.75650E-05 1.74047E-04-5.11067E-14-8.24145E-14
 -1      4060 1.71755E+01 2.05688E+00-9.06122E-04-1.26440E-01 6.95299E-14-5.64954E-13
 -1      4061 1.71621E+01 2.04199E+00-3.94364E-03 1.78374E-01 6.06742E-14-5.71836E-13
 -1      4062 1.69578E+01 1.85760E+00 1.09207E-02 4.45113E-01 6.36058E-14-5.57484E-13
 -1      4063 1.69345E+01 1.86286E+00-1.94662E-03-3.97070E-01 4.67863E-14-5.31069E-13
 -1      4064 1.58651E+01 9.16879E-01 2.62351E-03 1.26744E+00-1.06767E-13 1.03878E-13
 -1      4065 1.48058E+01 1.06679E+00 2.70256E-02 8.07149E-01-1.15520E-13 3.04375E-13
 -1      4066 1.52155E+01 1.11869E+00-2.18392E-03 1.70559E-01-1.16778E-13 2.34846E-13
 -1      4067 1.60720E+01 1.01094E+00-2.63935E-02 1.02937E+00-1.32351E-13 1.65136E-13
 -1      4068 1.68524E+01 1.67030E+00 2.03645E-02-9.52016E-01 1.30098E-14-4.76740E-13
 -1      4069 2.00075E+01 1.42063E-02 2.39323E-05-6.75374E-05 3.30330E-16-4.82959E-14
 -1      4070 1.85999E+01 1.00941E+00-1.03585E-02 4.24182E-01-5.38419E-14-3.02565E-13
 -1      4071 1.84163E+01 1.05189E+00-9.23276E-03 4.87200E-01-1.10688E-13-3.36583E-13
 -1      4072 1.66382E+01 1.10449E+00 3.21516E-04-6.19768E-01 5.56157E-14-2.28091E-13
 -1      4073 1.69696E+01 1.11389E+00-1.90048E-02-4.98598E-01 6.54639E-14-2.36259E-13
 -1      4074 1.73708E+01 1.13579E+00-5.13894E-03-4.22662E-01 1.00131E-13-2.48594E-13
 -1      4075 1.76558E+01 1.12700E+00-1.15859E-02-3.37961E-01 1.28466E-13-1.65857E-13
 -1      4076 1.71165E+01 1.26713E+00 3.29096E-02-1.49680E-01 8.58113E-14-1.73160E-14
 -1      4077 1.79514E+01 1.11140E+00-5.47323E-03-2.86095E-01 1.54532E-13-2.32834E-13
 -1      4078 1.81695E+01 1.07848E+00-1.10034E-02-2.26098E-01 6.79236E-14-2.15139E-13
 -1      4079 1.77749E+01 1.21703E+00 2.33238E-02-8.29513E-02 1.29168E-13-1.88470E-13
 -1      4080 1.83673E+01 1.06720E+00-1.27001E-03-5.93783E-02-1.13757E-13-3.66795E-13
 -1      4081 1.85522E+01 1.01945E+00-3.86611E-03-2.86419E-02-1.52505E-13-3.52767E-13
 -1      4082 1.90510E+01 8.38251E-01-4.77247E-03-9.94790E-02-3.27680E-14-2.28542E-13
 -1      4083 1.91751E+01 7.81325E-01-3.49750E-03-7.51649E-02 1.70093E-13-1.52853E-13
 -1      4084 1.92905E+01 7.24723E-01-9.99057E-04-6.83008E-02 1.96997E-13-1.68737E-13
 -1      4085 1.93832E+01 6.66468E-01-1.86171E-03-5.11328E-02 2.07444E-13-2.30817E-13
 -1      4086 1.92322E+01 7.69065E-01 2.92294E-03 2.48205E-02 1.89296E-13-6.94484E-14
 -1      4087 1.94706E+01 6.09325E-01-1.39271E-03-4.74935E-02 3.35227E-13-2.99920E-13
 -1      4088 1.95433E+01 5.55095E-01-1.96310E-03-3.57137E-02 3.55912E-13-3.08964E-13
 -1      4089 1.94267E+01 6.48279E-01 1.74243E-03 2.21902E-02 2.68120E-13-7.67617E-14
 -1      4090 1.96122E+01 5.03442E-01-1.12929E-03-3.24299E-02 2.91865E-13-3.99156E-13
 -1      4091 1.96692E+01 4.53840E-01-1.53237E-03-2.38281E-02 1.94606E-13-3.99012E-13
 -1      4092 1.95805E+01 5.44645E-01 4.51896E-03 2.38694E-02 2.63021E-13-2.28024E-13
 -1      4093 1.97220E+01 4.07693E-01-9.51557E-04-2.25005E-02 9.25153E-14-3.22794E-13
 -1      4094 1.97657E+01 3.64180E-01-1.18123E-03-1.60373E-02 1.56094E-13-2.68515E-13
 -1      4095 1.96993E+01 4.42838E-01 3.87897E-03 2.09260E-02 1.69129E-13-3.92679E-13
 -1      4096 1.98057E+01 3.24281E-01-7.44997E-04-1.56360E-02 1.10727E-13-2.55921E-13
 -1      4097 1.98387E+01 2.87134E-01-8.96754E-04-1.07297E-02 1.06602E-13-2.90591E-13
 -1      4098 1.97890E+01 3.53540E-01 3.02725E-03 1.74855E-02 1.61459E-13-2.34841E-13
 -1      4099 1.98684E+01 2.53444E-01-5.73319E-04-1.08353E-02 2.24254E-14-2.78385E-13
 -1      4100 1.98928E+01 2.22464E-01-6.72984E-04-7.09384E-03-1.08509E-13-3.09698E-13
 -1      4101 1.98562E+01 2.77385E-01 2.30254E-03 1.40399E-02-3.43460E-14-2.52977E-13
 -1      4102 1.99145E+01 1.94636E-01-4.32925E-04-7.45909E-03-1.51318E-13-2.80507E-13
 -1      4103 1.99322E+01 1.69332E-01-4.98293E-04-4.60810E-03-8.94285E-14-2.97780E-13
 -1      4104 1.99058E+01 2.13907E-01 1.71974E-03 1.08636E-02-8.88091E-14-2.53722E-13
 -1      4105 1.99477E+01 1.46807E-01-3.19846E-04-5.07805E-03-1.14394E-13-4.35742E-13
 -1      4106 1.99601E+01 1.26537E-01-3.63164E-04-2.91468E-03-2.60425E-14-5.48458E-13
 -1      4107 1.99416E+01 1.62072E-01 1.26095E-03 8.10919E-03-2.06631E-13-2.08390E-13
 -1      4108 1.99709E+01 1.08648E-01-2.30514E-04-3.39751E-03 1.20512E-13-6.26468E-13
 -1      4109 1.99794E+01 9.27055E-02-2.59834E-04-1.76727E-03 1.20531E-13-6.38709E-13
 -1      4110 1.99668E+01 1.20546E-01 9.05598E-04 5.83075E-03-6.67708E-14-4.83593E-13
 -1      4111 1.99867E+01 7.87559E-02-1.61425E-04-2.21342E-03 4.88233E-14-6.52223E-13
 -1      4112 1.99922E+01 6.64411E-02-1.81883E-04-9.96431E-04-1.00934E-13-5.55959E-13
 -1      4113 1.99839E+01 8.78786E-02 6.34754E-04 4.01690E-03 4.52803E-14-5.50834E-13
 -1      4114 1.99968E+01 5.57574E-02-1.09099E-04-1.38312E-03-1.44018E-13-3.11285E-13
 -1      4115 2.00002E+01 4.64116E-02-1.23722E-04-4.84587E-04-4.37140E-14-2.17725E-13
 -1      4116 1.99951E+01 6.26328E-02 4.31621E-04 2.61917E-03 5.87424E-14-3.51959E-13
 -1      4117 2.00030E+01 3.83743E-02-7.04518E-05-8.00892E-04 8.03864E-14-2.01921E-13
 -1      4118 2.00048E+01 3.13986E-02-7.93212E-05-1.46768E-04 1.57028E-13-1.87858E-13
 -1      4119 2.00020E+01 4.34614E-02 2.79868E-04 1.57273E-03 1.66573E-14-2.29627E-13
 -1      4120 2.00062E+01 2.53926E-02-5.99543E-05-3.99837E-04 1.40579E-13-3.06624E-13
 -1      4121 2.00071E+01 2.03780E-02 3.19630E-06 5.13097E-05 1.71567E-13-2.90538E-13
 -1      4122 2.00057E+01 2.91055E-02 1.41501E-04 8.09486E-04 6.35592E-14-2.91167E-13
 -1      4123 1.94003E+01 6.67323E-01-3.65577E-03 2.34490E-01 1.23271E-13-4.17416E-13
 -1      4124 1.93120E+01 7.24309E-01-3.25836E-03 2.71885E-01 1.64094E-13-2.77211E-13
 -1      4125 1.65783E+01 1.70217E+00-1.61582E-02-4.91770E-01 2.69298E-14-5.45966E-13
 -1      4126 1.57354E+01 1.01659E+00-1.46513E-02-8.05666E-01 2.71443E-14-5.69380E-14
 -1      4127 1.81829E+01 1.10190E+00-7.50954E-03 3.29111E-01-8.66833E-14-3.01240E-13
 -1      4128 1.79315E+01 1.12375E+00-1.28742E-02 3.84858E-01-1.46207E-13-1.82918E-13
 -1      4129 2.00072E+01 9.91144E-03-6.80315E-05-4.55121E-04 1.11314E-13 1.20711E-13
 -1      4130 2.00077E+01 1.41156E-02 1.14148E-04 4.81377E-04 1.58559E-13 1.39922E-13
 -1      4131 2.00073E+01 9.95943E-03-1.87285E-05-2.57746E-04 1.00988E-14 1.20709E-13
 -1      4132 1.69160E+01 1.14675E+00-2.33489E-02 4.68230E-01-4.49189E-14 4.77955E-14
 -1      4133 1.65499E+01 1.12425E+00-1.03163E-02 5.75191E-01-6.07084E-14 1.45356E-13
 -1      4134 1.95554E+01 5.52070E-01-3.02537E-03 1.34417E-01 1.49241E-13-4.86407E-13
 -1      4135 1.94890E+01 6.08351E-01-1.43152E-03 1.58596E-01 1.56580E-13-3.37404E-13
 -1      4136 1.96777E+01 4.49887E-01-2.85543E-03 1.06299E-01 1.49929E-13-5.81985E-13
 -1      4137 1.96239E+01 4.98454E-01-2.84946E-03 1.28233E-01 1.01176E-13-5.39387E-13
 -1      4138 1.97722E+01 3.60449E-01-2.29175E-03 8.24599E-02 1.91567E-13-6.24273E-13
 -1      4139 1.97311E+01 4.02706E-01-2.40361E-03 1.01113E-01 1.80538E-13-6.25220E-13
 -1      4140 1.98434E+01 2.83875E-01-1.76762E-03 6.26450E-02 7.11013E-14-6.01133E-13
 -1      4141 1.98128E+01 3.19825E-01-1.85952E-03 7.80401E-02 1.08005E-13-6.26505E-13
 -1      4142 1.98962E+01 2.19782E-01-1.33526E-03 4.65232E-02-5.70958E-14-5.58388E-13
 -1      4143 1.98738E+01 2.49699E-01-1.39761E-03 5.89513E-02 1.93013E-14-5.75839E-13
 -1      4144 1.99345E+01 1.67237E-01-9.89979E-04 3.36883E-02-1.97503E-13-4.46112E-13
 -1      4145 1.99185E+01 1.91634E-01-1.03036E-03 4.35236E-02-7.95508E-14-4.97997E-13
 -1      4146 1.99616E+01 1.24977E-01-7.19318E-04 2.36862E-02-2.26440E-13-3.14653E-13
 -1      4147 1.99504E+01 1.44502E-01-7.45302E-04 3.13215E-02-2.46568E-13-4.02610E-13
 -1      4148 1.99803E+01 9.16005E-02-5.10640E-04 1.60554E-02-7.81699E-14-3.40376E-13
 -1      4149 1.99727E+01 1.06947E-01-5.27643E-04 2.18694E-02-1.90108E-13-3.98528E-13
 -1      4150 1.99926E+01 6.57018E-02-3.52240E-04 1.03589E-02 2.03494E-13-3.16986E-13
 -1      4151 1.99878E+01 7.75543E-02-3.63922E-04 1.46978E-02 4.44898E-14-3.01090E-13
 -1      4152 2.00004E+01 4.59549E-02-2.32378E-04 6.20448E-03 7.73427E-14-1.14365E-13
 -1      4153 1.99975E+01 5.49496E-02-2.41942E-04 9.37093E-03 1.66790E-13-1.39014E-13
 -1      4154 2.00048E+01 3.11941E-02-1.24843E-04 3.26699E-03 5.56189E-14 1.83354E-14
 -1      4155 2.00033E+01 3.78672E-02-1.48567E-04 5.50518E-03 4.49530E-14-1.15603E-13
 -1      4156 1.76233E+01 1.14509E+00-1.89884E-02 3.85209E-01-8.50000E-14-5.99152E-14
 -1      4157 1.73159E+01 1.14258E+00-2.02904E-02 4.67757E-01 2.52319E-14 2.34177E-14
 -1      4158 1.66658E+01 1.42723E+00-3.95947E-03 1.21706E+00 8.35615E-14-5.10398E-13
 -1      4159 1.70421E+01 1.18541E+00-4.49417E-03 1.53907E+00 7.85873E-14-4.90755E-13
 -1      4160 2.00075E+01 1.45584E-02-6.11989E-05-1.14918E-04 4.35620E-14-1.82967E-13
 -1      4161 1.91960E+01 7.83889E-01-2.88708E-03 2.02414E-01 1.26604E-13-2.35916E-13
 -1      4162 1.90813E+01 8.44306E-01-2.19046E-03 2.32458E-01 1.15290E-13-1.85077E-13
 -1      4163 1.58925E+01 1.17775E+00 1.96556E-02-3.38979E-01-3.62979E-14-8.37178E-15
 -1      4164 1.64015E+01 1.67726E+00-1.07636E-02 5.58167E-01 5.88962E-14-5.60957E-13
 -1      4165 1.89294E+01 9.00321E-01-7.30206E-03 2.94431E-01 7.79935E-14-3.14187E-13
 -1      4166 1.87979E+01 9.62402E-01-1.41558E-03 3.34678E-01-1.94657E-14-2.77890E-13
 -1      4167 1.86399E+01 1.03573E+00 9.74190E-03 1.93267E-01-8.17341E-14-4.11965E-13
 -1      4168 1.89748E+01 9.07828E-01 8.55465E-03 6.85714E-02-1.57576E-14-2.18208E-13
 -1      4169 1.87411E+01 9.56645E-01-6.13360E-03-8.69625E-02-1.03925E-13-3.39673E-13
 -1      4170 1.89002E+01 9.06612E-01-3.19149E-03-5.79730E-02-1.15443E-13-3.62014E-13
 -1      4171 2.00074E+01 1.69913E-02 4.45443E-05 2.48142E-04 1.34105E-13-2.37481E-13
 -1      4172 1.63274E+01 1.78546E+00 1.48797E-02 1.09082E-01 5.87993E-14-5.91303E-13
 -1      4173 2.00077E+01 1.29056E-02 6.90446E-05 1.46188E-04-4.13921E-14-6.83956E-14
 -1      4174 2.00073E+01 1.69067E-02-6.75947E-05 8.60285E-04 2.63280E-13-2.70950E-14
 -1      4175 2.00072E+01 1.67946E-02-6.69777E-05 1.06743E-03 2.74848E-13 2.26748E-13
 -1      4176 2.00072E+01 2.01120E-02 5.80731E-05 1.94565E-03 2.50047E-13 2.71139E-13
 -1      4177 2.00063E+01 2.52780E-02-6.05736E-05 2.71552E-03 1.78183E-13 1.37665E-14
 -1      4178 1.61301E+01 1.20481E+00 3.41443E-03 2.21936E-01-7.99525E-14 1.60889E-13
 -1      4179 1.82392E+01 1.13971E+00 1.28214E-02 1.17464E-01-6.83383E-14-4.02927E-13
 -1      4180 1.92167E+01 7.79751E-01 2.29011E-03 1.00863E-01 1.68230E-13-1.48128E-13
 -1      4181 2.00072E+01 1.81896E-02-5.04659E-05 4.73251E-04 2.27471E-13-2.24254E-13
 -1      4182 1.94153E+01 6.59230E-01 1.80479E-03 9.23814E-02 2.02325E-13-1.88760E-13
 -1      4183 2.00067E+01 2.38605E-02 4.62338E-05 3.09841E-03 2.57084E-13 2.49281E-13
 -1      4184 1.93325E+01 7.10542E-01 8.77183E-04 9.55492E-02 1.53685E-13-1.34575E-13
 -1      4185 2.00069E+01 2.15933E-02-2.49630E-05 9.24882E-04 2.71108E-13-2.50624E-13
 -3
    1PSTEP                         3           1           1          
  100CL  101 1.000000000        4185                     0    1           1
 -4  TOSTRAIN    6    1
 -5  EXX         1    4    1    1
 -5  EYY         1    4    2    2
 -5  EZZ         1    4    3    3
 -5  EXY         1    4    1    2
 -5  EYZ         1    4    2    3
 -5  EZX         1    4    3    1
 -1         1 2.18569E-04-4.03084E-05-6.69813E-05 1.07381E-04-9.39148E-18-2.42239E-17
 -1         2 3.64645E-05-1.11496E-04 2.02893E-05-1.09400E-06 1.32972E-18 8.79379E-19
 -1         3 9.52378E-05-2.85705E-05-2.85723E-05 7.64767E-10-2.19213E-18-1.51437E-18
 -1         4 9.52377E-05-2.85705E-05-2.85723E-05-6.78211E-10 6.15668E-19 4.24365E-19
 -1         5 1.43268E-04-2.11463E-05-4.31471E-05 3.77168E-05-3.40243E-19 2.44755E-17
 -1         6 1.44908E-04 2.63804E-10-4.47443E-05-5.23104E-05-1.48210E-18 2.34975E-17
 -1         7 9.36043E-05-7.31798E-07-4.00092E-05-2.71372E-05-2.23934E-19 4.16886E-18
 -1         8 8.78507E-05-6.29792E-09-3.73501E-05-1.70429E-05-2.87409E-19-1.74807E-18
 -1         9 8.47088E-05 3.19052E-08-3.60900E-05-1.17824E-05-2.31637E-19-4.99137E-18
 -1        10 8.24938E-05 2.65882E-08-3.51828E-05-8.05883E-06-1.70307E-19-6.62338E-18
 -1        11 8.07146E-05 3.06135E-08-3.44671E-05-5.26681E-06-1.15077E-19-7.32180E-18
 -1        12 7.93105E-05 3.77443E-08-3.39093E-05-3.19141E-06-7.28713E-20-7.63854E-18
 -1        13 7.82760E-05 4.64017E-08-3.35024E-05-1.58933E-06-3.44901E-20-7.69939E-18
 -1        14 7.77066E-05 5.23418E-08-3.32809E-05-3.22828E-07 1.87141E-20-7.70816E-18
 -1        15 7.76560E-05 5.39282E-08-3.32640E-05 8.00244E-07 3.41278E-20-7.64610E-18
 -1        16 7.81435E-05 5.05269E-08-3.34585E-05 1.98832E-06 9.89109E-20-7.46871E-18
 -1        17 7.91488E-05 4.17326E-08-3.38561E-05 3.45970E-06 9.82955E-20-7.13499E-18
 -1        18 8.05862E-05 3.34274E-08-3.44263E-05 5.39146E-06 1.56847E-19-6.50861E-18
 -1        19 8.24606E-05 2.70521E-08-3.51764E-05 8.07916E-06 2.29162E-19-5.46874E-18
 -1        20 8.47894E-05 3.32208E-08-3.61268E-05 1.17748E-05 2.99214E-19-3.50534E-18
 -1        21 8.79704E-05 6.00263E-08-3.74377E-05 1.70210E-05 3.45034E-19 1.74300E-19
 -1        22 9.45071E-05-3.06173E-07-3.97247E-05 2.57421E-05 5.27278E-20 7.67114E-18
 -1        23 1.16080E-04-3.91993E-05-3.63592E-05-3.77896E-06-1.01988E-18 1.83384E-17
 -1        24 9.86232E-05-2.94592E-05-3.07062E-05 4.94453E-07-2.78221E-19 1.36804E-17
 -1        25 9.72575E-05-2.93008E-05-2.93567E-05 4.31503E-07-1.52373E-19 8.98030E-18
 -1        26 9.84336E-05-2.96149E-05-2.95232E-05 2.67613E-07 9.68711E-21 5.80722E-18
 -1        27 1.00843E-04-3.03027E-05-3.02329E-05 2.19782E-07-3.95016E-20 3.85804E-18
 -1        28 1.03804E-04-3.11611E-05-3.11182E-05 1.94714E-07-2.82244E-20 2.68544E-18
 -1        29 1.06779E-04-3.20333E-05-3.19890E-05 1.68035E-07-9.85358E-21 1.32633E-18
 -1        30 1.09161E-04-3.27341E-05-3.26624E-05 1.17018E-07 6.25936E-20-1.95354E-19
 -1        31 1.10218E-04-3.30449E-05-3.29281E-05 1.99739E-08-4.31118E-20-9.54833E-19
 -1        32 1.09198E-04-3.27410E-05-3.25815E-05-1.34898E-07-2.46420E-19-2.41735E-18
 -1        33 1.05610E-04-3.16741E-05-3.15097E-05-3.30167E-07 2.44271E-19-2.97246E-18
 -1        34 9.96545E-05-2.99000E-05-2.98061E-05-5.00888E-07-1.44977E-19-2.57371E-18
 -1        35 9.25946E-05-2.77908E-05-2.78480E-05-5.43103E-07 2.12609E-19-2.52000E-18
 -1        36 8.66473E-05-2.60094E-05-2.62366E-05-3.77522E-07 7.40161E-20-1.78161E-18
 -1        37 8.41187E-05-2.52508E-05-2.55648E-05-3.68728E-08-1.34610E-19-1.93527E-18
 -1        38 8.61461E-05-2.58591E-05-2.61176E-05 3.24436E-07-2.48897E-19-3.20324E-18
 -1        39 9.20000E-05-2.76134E-05-2.77133E-05 5.38306E-07-2.41337E-19-4.04241E-18
 -1        40 9.95509E-05-2.98708E-05-2.98097E-05 5.42197E-07 2.05821E-19-5.01012E-18
 -1        41 1.06477E-04-3.19360E-05-3.17861E-05 3.95650E-07 5.62739E-20-6.25159E-18
 -1        42 1.11272E-04-3.33627E-05-3.32057E-05 2.04674E-07-3.54553E-19-7.14926E-18
 -1        43 1.13518E-04-3.40304E-05-3.39142E-05 4.64713E-08-2.70390E-19-7.76630E-18
 -1        44 1.13577E-04-3.40491E-05-3.39846E-05-5.17594E-08 1.50405E-19-5.88249E-18
 -1        45 1.12140E-04-3.36240E-05-3.36005E-05-9.61516E-08-8.04578E-20-6.27499E-18
 -1        46 1.09895E-04-3.29580E-05-3.29596E-05-1.04638E-07 6.83752E-20-7.20691E-18
 -1        47 1.07371E-04-3.22078E-05-3.22209E-05-9.40932E-08-9.71424E-20-6.39133E-18
 -1        48 1.04912E-04-3.14755E-05-3.14916E-05-7.61277E-08 2.24956E-19-5.34476E-18
 -1        49 1.02707E-04-3.08175E-05-3.08323E-05-5.73057E-08-1.52671E-20-6.21678E-18
 -1        50 1.00836E-04-3.02582E-05-3.02700E-05-4.06887E-08-3.57715E-19-7.48119E-18
 -1        51 9.93132E-05-2.98018E-05-2.98105E-05-2.73016E-08 1.54714E-19-6.92114E-18
 -1        52 9.81126E-05-2.94414E-05-2.94472E-05-1.71461E-08-3.43221E-19-5.56900E-18
 -1        53 9.71926E-05-2.91647E-05-2.91684E-05-9.79301E-09 6.07431E-20-4.84679E-18
 -1        54 9.65062E-05-2.89578E-05-2.89599E-05-4.69092E-09-1.71896E-19-5.10467E-18
 -1        55 9.60075E-05-2.88073E-05-2.88082E-05-1.30897E-09-2.51174E-19-6.20226E-18
 -1        56 9.56558E-05-2.87008E-05-2.87010E-05 8.07479E-10 1.83197E-19-7.68341E-18
 -1        57 9.54162E-05-2.86281E-05-2.86279E-05 2.02371E-09 2.89458E-19-4.91031E-18
 -1        58 9.52603E-05-2.85806E-05-2.85801E-05 2.62141E-09-8.20844E-20-2.94283E-18
 -1        59 9.51652E-05-2.85514E-05-2.85508E-05 2.81133E-09 2.54395E-19-2.77455E-18
 -1        60 9.51132E-05-2.85354E-05-2.85347E-05 2.74708E-09-7.55699E-19-2.56130E-18
 -1        61 9.50909E-05-2.85283E-05-2.85277E-05 2.53785E-09 3.01277E-19-4.60518E-18
 -1        62 9.50882E-05-2.85272E-05-2.85267E-05 2.25911E-09-5.36712E-19-6.08987E-18
 -1        63 9.50980E-05-2.85299E-05-2.85294E-05 1.96133E-09 2.28976E-19-6.74938E-18
 -1        64 9.51151E-05-2.85349E-05-2.85345E-05 1.67664E-09-3.01797E-19-4.85743E-18
 -1        65 9.51360E-05-2.85410E-05-2.85407E-05 1.42368E-09-7.34606E-19-2.90899E-18
 -1        66 9.51581E-05-2.85475E-05-2.85473E-05 1.21065E-09 4.37543E-19-2.87292E-18
 -1        67 9.51799E-05-2.85540E-05-2.85538E-05 1.03586E-09 2.83635E-19-8.87492E-19
 -1        68 9.52001E-05-2.85600E-05-2.85598E-05 8.84217E-10 6.81189E-19 1.05911E-18
 -1        69 9.52175E-05-2.85652E-05-2.85650E-05 7.10863E-10 1.55931E-19 2.35293E-18
 -1        70 9.52306E-05-2.85691E-05-2.85688E-05 3.61726E-10 1.87137E-19 4.85243E-18
 -1        71 9.52373E-05-2.85713E-05-2.85709E-05-1.91025E-10-6.18840E-20 4.52943E-18
 -1        72 1.05526E-04-3.15800E-05-3.52144E-05-2.16570E-06 3.20126E-19 2.22143E-17
 -1        73 9.88387E-05-2.94150E-05-3.07541E-05-3.91337E-07 2.26763E-19 1.65713E-17
 -1        74 9.79727E-05-2.93724E-05-2.96270E-05-1.56450E-07 1.42393E-19 1.21598E-17
 -1        75 9.96521E-05-2.99219E-05-2.99397E-05-1.32145E-07 7.67483E-20 9.05391E-18
 -1        76 1.02786E-04-3.08517E-05-3.08559E-05-1.39700E-07-8.50383E-21 7.35712E-18
 -1        77 1.06810E-04-3.20413E-05-3.20556E-05-1.68215E-07 6.58508E-20 6.37437E-18
 -1        78 1.11238E-04-3.33566E-05-3.33551E-05-2.09532E-07 5.74120E-21 5.52465E-18
 -1        79 1.15413E-04-3.46044E-05-3.45442E-05-2.45617E-07-5.86268E-20 4.99323E-18
 -1        80 1.18358E-04-3.54989E-05-3.53285E-05-2.39458E-07 2.37153E-21 4.45573E-18
 -1        81 1.18796E-04-3.56625E-05-3.53482E-05-1.33644E-07 2.20872E-19 3.32255E-18
 -1        82 1.15482E-04-3.47150E-05-3.42978E-05 1.22140E-07-1.41496E-19 3.35428E-18
 -1        83 1.08004E-04-3.25027E-05-3.21504E-05 4.99848E-07 9.63624E-20 3.23297E-18
 -1        84 9.78042E-05-2.94134E-05-2.93847E-05 8.24109E-07 6.59970E-20 2.48477E-18
 -1        85 8.85038E-05-2.65227E-05-2.69765E-05 8.27321E-07 1.14467E-19-6.95096E-20
 -1        86 8.44608E-05-2.52090E-05-2.59731E-05 3.89531E-07-1.02637E-20-3.74225E-18
 -1        87 8.78883E-05-2.62183E-05-2.68719E-05-2.51136E-07-2.10235E-19-4.82181E-18
 -1        88 9.71751E-05-2.90714E-05-2.93018E-05-7.09355E-07-2.52117E-19-4.09445E-18
 -1        89 1.08117E-04-3.24394E-05-3.22502E-05-7.83915E-07 4.76210E-19-4.41365E-18
 -1        90 1.16806E-04-3.50934E-05-3.47080E-05-5.77215E-07-3.98890E-19-4.31807E-18
 -1        91 1.21436E-04-3.64859E-05-3.61203E-05-2.92694E-07 3.92952E-19-1.62890E-18
 -1        92 1.22192E-04-3.66955E-05-3.64498E-05-6.59229E-08-1.27129E-19-2.08256E-18
 -1        93 1.20246E-04-3.60927E-05-3.59719E-05 6.65874E-08 1.98952E-19-3.06953E-18
 -1        94 1.16875E-04-3.50684E-05-3.50362E-05 1.22420E-07-4.05031E-20-5.05088E-18
 -1        95 1.13048E-04-3.39141E-05-3.39306E-05 1.31569E-07 1.90291E-19-5.12100E-18
 -1        96 1.09358E-04-3.28054E-05-3.28420E-05 1.18181E-07 3.03571E-19-4.09526E-18
 -1        97 1.06101E-04-3.18286E-05-3.18692E-05 9.69065E-08-1.96484E-19-3.45515E-18
 -1        98 1.03381E-04-3.10134E-05-3.10504E-05 7.51847E-08-3.61150E-19-3.49484E-18
 -1        99 1.01194E-04-3.03581E-05-3.03888E-05 5.61426E-08-5.12377E-19-3.93534E-18
 -1       100 9.94853E-05-2.98461E-05-2.98704E-05 4.06723E-08 5.25074E-21-2.24292E-18
 -1       101 9.81821E-05-2.94555E-05-2.94740E-05 2.86553E-08 2.40788E-19-3.06974E-18
 -1       102 9.72092E-05-2.91638E-05-2.91776E-05 1.96002E-08 8.26496E-20-4.55601E-18
 -1       103 9.64984E-05-2.89505E-05-2.89606E-05 1.29366E-08-7.92762E-19-3.92054E-18
 -1       104 9.59907E-05-2.87982E-05-2.88054E-05 8.13604E-09 5.41020E-19-9.49175E-19
 -1       105 9.56378E-05-2.86922E-05-2.86972E-05 4.75317E-09 2.78919E-19-2.90212E-18
 -1       106 9.54005E-05-2.86209E-05-2.86243E-05 2.42990E-09-3.20544E-19-3.27087E-18
 -1       107 9.52478E-05-2.85749E-05-2.85772E-05 8.85409E-10 4.45117E-19-5.35394E-18
 -1       108 9.51560E-05-2.85473E-05-2.85487E-05-9.69852E-11-4.79332E-20-7.50843E-18
 -1       109 9.51068E-05-2.85324E-05-2.85332E-05-6.82274E-10 3.40375E-19-3.67484E-18
 -1       110 9.50867E-05-2.85263E-05-2.85267E-05-9.94575E-10-2.09877E-19-4.14826E-18
 -1       111 9.50857E-05-2.85259E-05-2.85261E-05-1.12622E-09 9.65100E-20 5.04469E-19
 -1       112 9.50966E-05-2.85291E-05-2.85291E-05-1.14514E-09-4.87506E-19 3.09406E-18
 -1       113 9.51144E-05-2.85345E-05-2.85343E-05-1.10070E-09 9.17195E-19 5.84540E-19
 -1       114 9.51357E-05-2.85408E-05-2.85406E-05-1.02839E-09-7.75351E-19-1.87619E-18
 -1       115 9.51582E-05-2.85475E-05-2.85473E-05-9.53392E-10 2.95559E-19-9.65614E-19
 -1       116 9.51802E-05-2.85541E-05-2.85539E-05-8.91469E-10-8.94209E-20-4.05750E-19
 -1       117 9.52005E-05-2.85601E-05-2.85599E-05-8.46742E-10 1.55640E-19-4.30053E-18
 -1       118 9.52179E-05-2.85654E-05-2.85651E-05-8.00734E-10-5.51056E-20-2.86287E-18
 -1       119 9.52309E-05-2.85693E-05-2.85688E-05-6.36137E-10-6.04730E-19-3.60294E-18
 -1       120 9.52373E-05-2.85714E-05-2.85710E-05-1.30995E-11 9.66161E-19-3.34704E-18
 -1       121 9.52372E-05-2.85714E-05-2.85709E-05 1.64228E-10-2.83838E-18-1.84520E-19
 -1       122 9.52392E-05-2.85778E-05-2.85688E-05-4.55156E-10 1.70607E-18 7.34541E-19
 -1       123 9.52427E-05-2.85897E-05-2.85654E-05-7.13985E-10 5.77013E-18 2.70758E-19
 -1       124 9.52469E-05-2.86038E-05-2.85614E-05-7.29714E-10-7.72341E-19 8.93574E-19
 -1       125 9.52511E-05-2.86176E-05-2.85573E-05-6.23275E-10 1.50171E-19-2.18717E-18
 -1       126 9.52545E-05-2.86291E-05-2.85540E-05-4.72048E-10-5.11847E-18 2.50321E-18
 -1       127 9.52570E-05-2.86375E-05-2.85515E-05-2.88633E-10-5.40900E-18 5.01935E-19
 -1       128 9.52582E-05-2.86418E-05-2.85502E-05-9.50309E-11-6.54372E-18-1.63031E-19
 -1       129 9.52582E-05-2.86417E-05-2.85502E-05 1.00780E-10-8.20649E-18-2.05953E-18
 -1       130 9.52569E-05-2.86373E-05-2.85515E-05 2.93102E-10-3.98734E-18 1.11494E-18
 -1       131 9.52544E-05-2.86289E-05-2.85540E-05 4.80428E-10-3.12755E-18-1.90305E-18
 -1       132 9.52510E-05-2.86173E-05-2.85574E-05 6.25079E-10-6.72252E-18 9.09998E-19
 -1       133 9.52469E-05-2.86035E-05-2.85614E-05 7.26564E-10-1.00656E-17-8.55543E-20
 -1       134 9.52427E-05-2.85894E-05-2.85655E-05 7.59497E-10-8.95824E-18 1.03883E-18
 -1       135 9.52392E-05-2.85778E-05-2.85688E-05 6.31731E-10-6.85708E-18-9.84640E-19
 -1       136 9.52375E-05-2.85717E-05-2.85709E-05-4.63755E-10-4.89209E-18-8.21238E-19
 -1       137 2.42911E-05-8.40885E-05 1.49243E-05-2.49831E-05 1.63545E-17 4.48419E-18
 -1       138 7.00690E-06-3.16668E-05 2.62650E-06-1.80052E-05 2.22117E-17 1.09441E-17
 -1       139 1.22973E-05 1.48271E-05-1.53950E-05 2.43060E-05 2.27386E-17 1.69563E-17
 -1       140 6.52413E-05 2.53461E-05-3.72718E-05 8.24285E-05 1.98045E-17 2.39050E-17
 -1       141 1.62933E-04-1.17007E-05-5.78018E-05 1.12511E-04 1.15474E-17 2.17768E-17
 -1       142 2.60022E-04-6.45332E-05-7.26868E-05 8.62149E-05 3.93966E-18 1.32925E-17
 -1       143 3.09644E-04-9.40078E-05-7.94354E-05 1.36279E-05 5.09331E-19-1.36558E-18
 -1       144 2.83654E-04-7.83195E-05-7.59690E-05-6.85608E-05 3.28982E-18-1.64996E-17
 -1       145 1.97900E-04-2.87949E-05-6.38367E-05-1.12367E-04 1.07577E-17-2.48638E-17
 -1       146 9.74561E-05 1.67494E-05-4.51700E-05-9.92147E-05 2.06176E-17-2.80177E-17
 -1       147 2.74903E-05 2.51535E-05-2.42087E-05-4.85200E-05 2.62720E-17-2.42849E-17
 -1       148 4.89956E-06-1.09029E-05-3.89923E-06 4.86781E-06 2.61344E-17-1.50372E-17
 -1       149 1.72102E-05-6.63952E-05 1.10733E-05 2.71595E-05 1.95893E-17-6.53962E-18
 -1       150 3.40500E-05-1.06464E-04 1.91624E-05 1.39687E-05 5.93590E-18-1.26413E-18
 -1       151 3.40111E-05-1.05993E-04 1.90564E-05-1.34085E-05-9.75337E-18-1.36764E-18
 -1       152 1.71866E-05-6.52884E-05 1.07887E-05-2.63256E-05-2.13681E-17-7.05473E-18
 -1       153 4.84468E-06-9.39677E-06-4.23941E-06-3.47015E-06-2.70890E-17-1.56815E-17
 -1       154 3.20043E-05 2.63671E-05-2.59814E-05 5.39252E-05-2.55063E-17-2.39342E-17
 -1       155 1.06622E-04 1.28938E-05-4.68899E-05 1.01734E-04-1.83768E-17-2.69454E-17
 -1       156 2.94665E-04-8.66599E-05-7.69855E-05 5.19908E-05-2.56204E-18-1.45080E-17
 -1       157 3.03473E-04-9.23008E-05-7.80594E-05-3.23562E-05-7.41445E-19 1.63213E-18
 -1       158 2.41201E-04-5.42742E-05-6.99259E-05-9.79868E-05-4.30917E-18 1.42136E-17
 -1       159 1.44472E-04-2.59898E-06-5.46262E-05-1.11845E-04-1.13712E-17 2.01573E-17
 -1       160 5.84314E-05 2.73010E-05-3.54228E-05-7.85853E-05-1.89672E-17 2.15451E-17
 -1       161 1.15934E-05 1.55049E-05-1.51492E-05-2.39122E-05-2.08472E-17 1.60538E-17
 -1       162 7.53084E-06-3.20958E-05 2.72388E-06 1.71952E-05-1.83188E-17 8.86865E-18
 -1       163 2.54327E-05-8.63763E-05 1.53998E-05 2.42170E-05-1.26441E-17 3.48308E-18
 -1       164 9.87785E-05-1.36932E-05-3.66474E-05-1.92176E-05-3.52611E-18 1.01572E-18
 -1       165 9.21965E-05-9.23972E-06-3.57028E-05-1.37457E-05-3.18543E-18-2.67142E-18
 -1       166 8.79898E-05-6.65156E-06-3.49659E-05-9.69651E-06-2.58386E-18-4.80880E-18
 -1       167 8.49482E-05-5.03021E-06-3.43292E-05-6.58452E-06-1.94854E-18-5.81817E-18
 -1       168 8.25729E-05-3.86003E-06-3.37950E-05-4.22410E-06-1.28559E-18-6.23540E-18
 -1       169 8.07398E-05-2.99733E-06-3.33689E-05-2.38076E-06-7.27494E-19-6.47020E-18
 -1       170 7.95432E-05-2.43739E-06-3.30904E-05-9.43279E-07-1.29804E-19-6.52465E-18
 -1       171 7.90630E-05-2.19998E-06-3.29844E-05 2.59030E-07 3.73622E-19-6.49164E-18
 -1       172 7.93557E-05-2.30922E-06-3.30645E-05 1.41729E-06 8.57481E-19-6.38014E-18
 -1       173 8.04310E-05-2.78101E-06-3.33283E-05 2.73587E-06 1.35592E-18-6.16691E-18
 -1       174 8.22153E-05-3.60720E-06-3.37490E-05 4.38901E-06 1.88365E-18-5.68314E-18
 -1       175 8.47288E-05-4.84636E-06-3.43126E-05 6.63516E-06 2.55101E-18-4.84689E-18
 -1       176 8.79952E-05-6.61267E-06-3.49866E-05 9.66689E-06 3.13708E-18-3.56785E-18
 -1       177 9.24278E-05-9.35002E-06-3.57572E-05 1.37032E-05 3.60241E-18-1.12583E-18
 -1       178 9.98465E-05-1.49706E-05-3.65637E-05 1.85931E-05 3.44809E-18 3.35007E-18
 -1       179 1.09754E-04-2.76198E-05-3.63641E-05 1.62441E-05 2.56689E-18 9.34383E-18
 -1       180 1.07946E-04-2.88202E-05-3.39060E-05-9.77320E-06-3.08384E-18 5.38461E-18
 -1       181 1.03098E-04-3.01229E-05-3.13048E-05-2.43894E-06-2.69305E-18 3.92392E-18
 -1       182 1.01142E-04-2.99027E-05-3.04817E-05 5.45322E-07-1.96751E-18 2.61654E-18
 -1       183 1.01365E-04-3.01904E-05-3.04694E-05 2.00348E-06-1.37239E-18 1.35494E-18
 -1       184 1.02623E-04-3.07051E-05-3.08080E-05 2.70719E-06-8.68382E-19 6.31447E-19
 -1       185 1.04377E-04-3.13749E-05-3.12852E-05 2.82894E-06-7.80868E-19 6.23893E-20
 -1       186 1.06159E-04-3.20882E-05-3.17515E-05 2.33100E-06-5.37668E-19-1.94849E-19
 -1       187 1.07504E-04-3.27003E-05-3.20697E-05 1.12382E-06-2.20740E-19-1.69044E-19
 -1       188 1.07925E-04-3.30186E-05-3.21144E-05-7.98717E-07-6.95517E-19 6.85749E-20
 -1       189 1.07005E-04-3.28167E-05-3.18023E-05-3.19063E-06-4.21806E-19-1.00244E-19
 -1       190 1.04575E-04-3.19153E-05-3.11401E-05-5.41140E-06-2.22651E-19-1.20457E-18
 -1       191 1.00973E-04-3.03460E-05-3.02618E-05-6.47724E-06-1.35172E-19-1.48273E-18
 -1       192 9.71925E-05-2.85273E-05-2.94184E-05-5.48402E-06-1.94222E-21-1.94738E-18
 -1       193 9.46664E-05-2.72268E-05-2.88939E-05-2.32601E-06-3.91508E-19-2.30551E-18
 -1       194 9.45498E-05-2.71275E-05-2.88869E-05 1.90567E-06-1.04010E-18-2.63266E-18
 -1       195 9.69794E-05-2.83099E-05-2.94208E-05 5.44717E-06-4.64905E-19-3.15977E-18
 -1       196 1.00985E-04-3.01926E-05-3.03324E-05 6.98524E-06-6.54345E-19-3.64354E-18
 -1       197 1.05131E-04-3.19864E-05-3.13467E-05 6.35872E-06-3.02589E-19-4.27123E-18
 -1       198 1.08285E-04-3.31747E-05-3.21966E-05 4.34434E-06-1.04878E-18-4.50334E-18
 -1       199 1.09957E-04-3.36481E-05-3.27155E-05 1.95254E-06-5.15565E-19-4.81764E-18
 -1       200 1.10203E-04-3.35524E-05-3.28634E-05-9.91967E-08 6.97763E-19-4.98692E-18
 -1       201 1.09364E-04-3.31030E-05-3.26948E-05-1.51005E-06-2.33042E-19-4.91988E-18
 -1       202 1.07852E-04-3.24842E-05-3.23081E-05-2.28037E-06 1.55319E-19-3.78085E-18
 -1       203 1.06022E-04-3.18215E-05-3.18042E-05-2.55126E-06 3.78165E-19-3.51023E-18
 -1       204 1.04138E-04-3.11892E-05-3.12645E-05-2.49230E-06 2.59398E-19-3.41845E-18
 -1       205 1.02365E-04-3.06251E-05-3.07444E-05-2.24761E-06-4.50996E-19-3.00747E-18
 -1       206 1.00795E-04-3.01442E-05-3.02762E-05-1.92050E-06 2.36445E-20-3.14066E-18
 -1       207 9.94625E-05-2.97477E-05-2.98746E-05-1.57676E-06 1.51462E-19-2.84816E-18
 -1       208 9.83701E-05-2.94299E-05-2.95426E-05-1.25380E-06 3.16213E-19-3.00370E-18
 -1       209 9.74995E-05-2.91811E-05-2.92764E-05-9.69864E-07-2.95636E-19-2.51664E-18
 -1       210 9.68230E-05-2.89907E-05-2.90683E-05-7.31279E-07-5.27058E-19-3.30909E-18
 -1       211 9.63095E-05-2.88483E-05-2.89097E-05-5.37501E-07-6.92779E-19-2.79897E-18
 -1       212 9.59290E-05-2.87443E-05-2.87917E-05-3.84425E-07-2.66747E-20-2.38497E-18
 -1       213 9.56542E-05-2.86703E-05-2.87060E-05-2.66418E-07 1.00345E-18-2.73736E-18
 -1       214 9.54613E-05-2.86193E-05-2.86455E-05-1.77513E-07 1.11542E-18-3.70693E-18
 -1       215 9.53307E-05-2.85855E-05-2.86043E-05-1.12057E-07 3.29236E-19-2.33455E-18
 -1       216 9.52464E-05-2.85643E-05-2.85774E-05-6.50256E-08-7.79327E-19-3.57798E-18
 -1       217 9.51956E-05-2.85522E-05-2.85610E-05-3.21454E-08-1.08933E-18-1.99512E-18
 -1       218 9.51686E-05-2.85463E-05-2.85521E-05-9.89556E-09-8.36982E-19-2.91122E-18
 -1       219 9.51580E-05-2.85448E-05-2.85483E-05 4.54439E-09-2.70578E-19-2.20191E-18
 -1       220 9.51581E-05-2.85460E-05-2.85479E-05 1.33746E-08 3.89934E-19-2.75237E-18
 -1       221 9.51651E-05-2.85489E-05-2.85497E-05 1.82604E-08 1.62693E-18-1.93931E-18
 -1       222 9.51760E-05-2.85527E-05-2.85528E-05 2.04107E-08 4.91241E-19-3.12619E-19
 -1       223 9.51887E-05-2.85568E-05-2.85565E-05 2.06415E-08 1.38827E-18 4.72910E-19
 -1       224 9.52017E-05-2.85611E-05-2.85603E-05 1.94218E-08 1.63058E-18 1.02437E-18
 -1       225 9.52139E-05-2.85651E-05-2.85638E-05 1.68979E-08 1.65206E-18 2.72967E-18
 -1       226 9.52243E-05-2.85687E-05-2.85667E-05 1.29282E-08 1.46718E-18 3.94587E-18
 -1       227 9.52324E-05-2.85717E-05-2.85689E-05 7.35169E-09-7.09274E-19 3.17591E-18
 -1       228 1.05082E-04-3.02847E-05-3.22206E-05 4.97864E-06 2.76785E-18 7.92656E-18
 -1       229 1.01903E-04-3.00114E-05-3.07759E-05 4.99347E-07 2.12657E-18 5.98017E-18
 -1       230 1.01728E-04-3.02187E-05-3.06020E-05-1.54620E-06 1.50429E-18 4.31709E-18
 -1       231 1.03200E-04-3.07690E-05-3.10180E-05-2.73884E-06 8.04857E-19 3.17128E-18
 -1       232 1.05670E-04-3.15928E-05-3.17388E-05-3.45082E-06 5.56395E-19 2.59207E-18
 -1       233 1.08657E-04-3.26016E-05-3.25947E-05-3.69243E-06 3.02433E-19 2.19064E-18
 -1       234 1.11657E-04-3.36762E-05-3.34217E-05-3.29847E-06 2.89877E-19 2.06064E-18
 -1       235 1.14038E-04-3.46376E-05-3.40254E-05-2.01827E-06 3.27054E-19 1.71232E-18
 -1       236 1.15029E-04-3.52102E-05-3.41941E-05 3.26498E-07 3.61792E-19 1.55327E-18
 -1       237 1.13873E-04-3.50246E-05-3.37682E-05 3.54033E-06-1.37223E-19 1.57321E-18
 -1       238 1.10222E-04-3.37513E-05-3.27517E-05 6.69830E-06 5.12511E-19 1.74510E-18
 -1       239 1.04715E-04-3.14363E-05-3.14116E-05 8.12985E-06 9.42937E-19 1.00784E-18
 -1       240 9.93130E-05-2.88738E-05-3.02377E-05 6.27166E-06 1.79790E-18-5.50313E-19
 -1       241 9.66638E-05-2.74733E-05-2.97248E-05 1.21743E-06 1.56056E-18-1.63923E-18
 -1       242 9.83553E-05-2.81895E-05-3.01189E-05-4.58681E-06 5.19913E-19-2.75821E-18
 -1       243 1.03577E-04-3.06010E-05-3.12782E-05-8.15861E-06-4.99430E-19-3.90736E-18
 -1       244 1.09817E-04-3.33231E-05-3.27530E-05-8.20422E-06 5.06694E-19-3.81621E-18
 -1       245 1.14701E-04-3.52099E-05-3.40369E-05-5.67593E-06-6.39430E-19-3.11358E-18
 -1       246 1.17141E-04-3.59323E-05-3.47894E-05-2.35432E-06-9.85318E-19-3.20368E-18
 -1       247 1.17223E-04-3.57291E-05-3.49274E-05 4.50110E-07-2.42420E-19-1.63603E-18
 -1       248 1.15615E-04-3.49889E-05-3.45632E-05 2.24632E-06 1.77348E-19-7.05759E-19
 -1       249 1.13067E-04-3.40256E-05-3.38846E-05 3.09720E-06 1.10862E-18-1.67858E-18
 -1       250 1.10177E-04-3.30356E-05-3.30676E-05 3.27677E-06 5.24610E-20-3.43476E-18
 -1       251 1.07339E-04-3.21218E-05-3.22396E-05 3.06395E-06-8.08429E-19-2.34716E-18
 -1       252 1.04772E-04-3.13286E-05-3.14767E-05 2.66576E-06-4.30919E-19-1.34312E-18
 -1       253 1.02572E-04-3.06674E-05-3.08151E-05 2.21208E-06-3.30037E-19-8.73355E-19
 -1       254 1.00755E-04-3.01320E-05-3.02648E-05 1.77428E-06-1.70849E-19 8.96434E-20
 -1       255 9.92976E-05-2.97088E-05-2.98214E-05 1.38589E-06-1.29221E-19-7.40647E-19
 -1       256 9.81567E-05-2.93811E-05-2.94729E-05 1.05839E-06 9.14577E-19-9.14944E-19
 -1       257 9.72820E-05-2.91320E-05-2.92050E-05 7.91592E-07 5.96957E-19-6.39588E-19
 -1       258 9.66246E-05-2.89464E-05-2.90031E-05 5.79770E-07-8.72918E-19 5.17775E-20
 -1       259 9.61405E-05-2.88108E-05-2.88540E-05 4.15111E-07 1.57304E-19-1.43128E-18
 -1       260 9.57918E-05-2.87140E-05-2.87464E-05 2.89509E-07 7.71842E-19-4.20266E-19
 -1       261 9.55469E-05-2.86467E-05-2.86705E-05 1.95433E-07-4.10690E-19-3.44542E-19
 -1       262 9.53802E-05-2.86016E-05-2.86187E-05 1.26284E-07 1.75197E-18-1.23863E-18
 -1       263 9.52713E-05-2.85726E-05-2.85846E-05 7.64855E-08 2.54636E-19-1.81666E-18
 -1       264 9.52043E-05-2.85552E-05-2.85635E-05 4.14475E-08-1.21493E-18-1.92192E-18
 -1       265 9.51671E-05-2.85461E-05-2.85515E-05 1.74711E-08-5.34255E-19-4.93676E-19
 -1       266 9.51503E-05-2.85425E-05-2.85459E-05 1.63065E-09-2.24996E-18 2.85956E-19
 -1       267 9.51472E-05-2.85426E-05-2.85446E-05-8.34446E-09 4.29497E-20 1.21763E-18
 -1       268 9.51528E-05-2.85450E-05-2.85461E-05-1.41787E-08 2.08606E-18-1.58450E-18
 -1       269 9.51636E-05-2.85488E-05-2.85492E-05-1.71442E-08-7.73891E-19-1.50348E-18
 -1       270 9.51772E-05-2.85532E-05-2.85531E-05-1.81369E-08 1.02251E-18-5.17978E-19
 -1       271 9.51916E-05-2.85577E-05-2.85573E-05-1.77286E-08-4.19536E-19-1.54953E-18
 -1       272 9.52056E-05-2.85621E-05-2.85615E-05-1.61972E-08 1.25191E-18 6.47772E-19
 -1       273 9.52180E-05-2.85662E-05-2.85651E-05-1.35483E-08-5.41428E-19 1.38805E-18
 -1       274 9.52279E-05-2.85696E-05-2.85679E-05-9.53487E-09 6.47536E-19 2.05460E-19
 -1       275 9.52346E-05-2.85719E-05-2.85698E-05-4.12907E-09 5.39689E-19-8.14566E-19
 -1       276 9.52368E-05-2.85763E-05-2.85688E-05-7.44399E-09 9.76583E-19 3.77789E-18
 -1       277 9.52399E-05-2.85839E-05-2.85669E-05-1.20222E-08 2.00940E-18 2.01187E-18
 -1       278 9.52435E-05-2.85931E-05-2.85645E-05-1.40320E-08 1.13070E-18-3.64128E-18
 -1       279 9.52470E-05-2.86026E-05-2.85619E-05-1.36783E-08 4.32796E-19-5.47205E-19
 -1       280 9.52499E-05-2.86111E-05-2.85595E-05-1.16102E-08-1.09754E-18-4.66613E-18
 -1       281 9.52522E-05-2.86178E-05-2.85575E-05-8.31887E-09-2.33825E-18-9.12668E-19
 -1       282 9.52536E-05-2.86221E-05-2.85563E-05-4.29594E-09-2.13533E-18-3.43561E-19
 -1       283 9.52541E-05-2.86236E-05-2.85559E-05 6.36002E-11-1.13355E-18-1.98864E-19
 -1       284 9.52536E-05-2.86221E-05-2.85563E-05 4.41375E-09 7.09835E-19 1.16579E-18
 -1       285 9.52521E-05-2.86177E-05-2.85576E-05 8.41198E-09-2.24109E-18-2.30927E-19
 -1       286 9.52499E-05-2.86110E-05-2.85595E-05 1.16201E-08-2.20325E-18-1.11174E-18
 -1       287 9.52469E-05-2.86024E-05-2.85619E-05 1.36781E-08-1.46361E-18-1.12707E-18
 -1       288 9.52435E-05-2.85929E-05-2.85645E-05 1.39903E-08-3.45340E-18 3.66886E-19
 -1       289 9.52398E-05-2.85837E-05-2.85669E-05 1.17963E-08-4.54275E-18 3.38922E-19
 -1       290 9.52362E-05-2.85773E-05-2.85682E-05 1.10317E-08-2.83961E-18 1.28007E-18
 -1       291 1.23439E-05-4.49312E-05 1.11022E-05 8.53216E-06 2.29874E-18 7.16272E-18
 -1       292 2.76231E-05-4.34506E-05 3.92077E-06 2.06006E-05 7.05261E-18 6.48523E-18
 -1       293 5.59188E-05-3.76643E-05-9.49683E-06 3.50384E-05 7.84077E-18 7.04281E-18
 -1       294 9.54936E-05-3.39980E-05-2.67197E-05 4.33162E-05 8.15290E-18 9.14923E-18
 -1       295 1.39980E-04-3.13692E-05-4.52847E-05 4.58788E-05 8.89798E-18 8.13067E-18
 -1       296 1.79074E-04-3.37980E-05-6.00197E-05 2.97752E-05 7.88855E-18 5.30433E-18
 -1       297 1.94302E-04-2.95575E-05-6.82878E-05 9.32629E-06 7.96709E-18 3.36272E-19
 -1       298 1.97017E-04-2.85822E-05-6.97198E-05-6.01519E-06 7.62510E-18-2.96652E-18
 -1       299 1.90555E-04-3.40865E-05-6.43320E-05-2.81819E-05 7.40190E-18-7.35775E-18
 -1       300 1.56593E-04-3.42440E-05-5.08737E-05-3.87495E-05 8.64868E-18-8.61602E-18
 -1       301 1.11094E-04-3.09922E-05-3.40478E-05-4.67119E-05 1.03192E-17-1.08448E-17
 -1       302 7.34431E-05-3.79821E-05-1.62732E-05-4.03894E-05 8.57917E-18-9.69599E-18
 -1       303 3.66233E-05-4.09738E-05-6.05360E-07-2.68109E-05 8.01653E-18-8.69147E-18
 -1       304 1.74381E-05-4.74688E-05 9.51377E-06-1.28809E-05 4.06025E-18-8.25762E-18
 -1       305 1.02158E-05-4.58109E-05 1.22223E-05 5.36718E-07-1.17329E-18-7.89054E-18
 -1       306 1.78084E-05-4.74586E-05 9.37675E-06 1.36853E-05-6.14967E-18-7.75427E-18
 -1       307 3.62853E-05-4.02403E-05-7.93041E-07 2.73696E-05-9.63627E-18-8.84902E-18
 -1       308 7.74226E-05-3.89986E-05-1.72621E-05 4.19848E-05-8.80491E-18-9.09248E-18
 -1       309 1.15691E-04-3.19561E-05-3.54509E-05 4.61384E-05-1.05722E-17-1.07668E-17
 -1       310 1.59688E-04-3.50299E-05-5.22115E-05 2.97672E-05-7.78632E-18-7.94242E-18
 -1       311 1.97702E-04-3.46969E-05-6.66586E-05 2.72738E-05-7.63367E-18-8.53725E-18
 -1       312 2.09086E-04-3.47796E-05-7.11694E-05 3.40269E-06-7.52218E-18-5.22565E-18
 -1       313 2.03984E-04-3.60166E-05-6.84842E-05-2.17424E-05-5.69937E-18-5.51313E-19
 -1       314 1.72601E-04-3.23721E-05-5.78207E-05-3.70943E-05-5.98808E-18 3.30491E-18
 -1       315 1.32240E-04-2.93082E-05-4.30034E-05-4.74104E-05-7.38941E-18 5.80641E-18
 -1       316 9.18987E-05-3.24671E-05-2.58029E-05-4.41302E-05-5.76321E-18 6.96558E-18
 -1       317 5.22417E-05-3.52503E-05-9.04737E-06-3.42753E-05-5.89662E-18 6.81586E-18
 -1       318 2.70430E-05-4.25436E-05 4.00637E-06-2.26349E-05-3.80762E-18 5.48814E-18
 -1       319 1.29676E-05-4.94812E-05 1.21487E-05-7.35747E-06-1.02279E-18 5.86824E-18
 -1       320 9.40446E-05-1.48937E-05-3.39867E-05-8.90710E-06-3.37377E-18-2.53271E-18
 -1       321 9.96775E-05-2.03809E-05-3.40434E-05-1.09226E-05-3.73689E-18-3.27590E-19
 -1       322 8.64176E-05-8.89878E-06-3.32713E-05-4.24214E-06-1.95263E-18-4.66594E-18
 -1       323 8.37232E-05-7.02348E-06-3.29092E-05-2.46925E-06-1.23602E-18-5.02117E-18
 -1       324 8.17767E-05-5.71087E-06-3.26307E-05-1.12589E-06-4.75003E-19-5.18801E-18
 -1       325 8.06844E-05-4.97356E-06-3.24750E-05-1.00976E-07 1.61693E-19-5.11023E-18
 -1       326 8.05435E-05-4.85325E-06-3.24658E-05 7.66870E-07 7.88597E-19-5.06973E-18
 -1       327 8.14027E-05-5.38715E-06-3.26082E-05 1.67009E-06 1.38814E-18-4.95081E-18
 -1       328 8.32051E-05-6.56846E-06-3.28808E-05 2.78347E-06 2.00814E-18-4.65939E-18
 -1       329 8.59545E-05-8.46464E-06-3.32571E-05 4.30442E-06 2.75292E-18-3.93231E-18
 -1       330 8.95969E-05-1.11719E-05-3.36732E-05 6.29800E-06 3.38350E-18-3.00580E-18
 -1       331 9.42516E-05-1.50153E-05-3.40351E-05 8.64696E-06 3.91136E-18-1.43102E-18
 -1       332 9.99571E-05-2.06871E-05-3.40741E-05 1.03389E-05 3.99699E-18 1.28140E-18
 -1       333 1.03779E-04-2.60304E-05-3.33970E-05 8.52987E-06 3.61618E-18 3.98622E-18
 -1       334 1.02600E-04-2.85674E-05-3.16941E-05 2.13029E-06 2.92169E-18 2.93984E-18
 -1       335 1.01738E-04-2.75300E-05-3.17575E-05-2.55231E-06-2.89372E-18 5.14494E-20
 -1       336 1.01361E-04-2.88137E-05-3.10660E-05 1.22019E-06-2.25309E-18-1.52528E-19
 -1       337 1.01734E-04-2.96980E-05-3.08591E-05 3.34405E-06-1.45822E-18-2.65135E-19
 -1       338 1.02747E-04-3.06246E-05-3.09068E-05 4.36207E-06-1.06508E-18-4.70133E-19
 -1       339 1.04212E-04-3.17262E-05-3.10708E-05 4.37830E-06-7.33224E-19-1.11671E-19
 -1       340 1.05899E-04-3.29915E-05-3.12577E-05 3.31647E-06-2.33044E-19-7.29383E-20
 -1       341 1.07499E-04-3.42536E-05-3.14072E-05 1.08584E-06-2.01399E-19-8.58502E-20
 -1       342 1.08585E-04-3.51285E-05-3.14985E-05-2.20301E-06-5.20780E-19 2.98191E-19
 -1       343 1.08627E-04-3.50317E-05-3.15527E-05-5.96317E-06-8.54782E-19 1.87924E-19
 -1       344 1.07213E-04-3.34294E-05-3.16226E-05-8.94859E-06-5.62170E-19-4.26825E-20
 -1       345 1.04484E-04-3.03768E-05-3.17502E-05-9.48141E-06-7.89206E-19-4.15230E-19
 -1       346 1.01562E-04-2.70680E-05-3.19144E-05-6.39055E-06-5.70768E-19-9.18859E-19
 -1       347 1.00166E-04-2.54223E-05-3.20228E-05-3.38097E-07-1.17742E-18-1.85006E-18
 -1       348 1.01279E-04-2.65499E-05-3.20165E-05 6.06728E-06-1.34521E-18-2.69048E-18
 -1       349 1.04239E-04-2.96985E-05-3.19386E-05 9.98051E-06-1.08701E-18-3.30637E-18
 -1       350 1.07386E-04-3.30161E-05-3.18731E-05 1.02526E-05-5.61029E-19-3.58008E-18
 -1       351 1.09381E-04-3.50607E-05-3.18619E-05 7.70860E-06-6.78048E-19-3.25677E-18
 -1       352 1.09865E-04-3.55357E-05-3.18714E-05 4.01289E-06-6.77079E-19-3.11816E-18
 -1       353 1.09159E-04-3.49095E-05-3.18384E-05 5.28006E-07 1.88695E-19-2.65998E-18
 -1       354 1.07761E-04-3.37887E-05-3.17166E-05-2.06401E-06 3.52314E-19-2.76092E-18
 -1       355 1.06074E-04-3.26035E-05-3.14968E-05-3.63080E-06 2.24571E-19-1.94429E-18
 -1       356 1.04352E-04-3.15653E-05-3.11988E-05-4.33050E-06 2.53218E-19-2.45550E-18
 -1       357 1.02730E-04-3.07374E-05-3.08550E-05-4.41299E-06 6.29317E-19-2.32698E-18
 -1       358 1.01274E-04-3.01096E-05-3.04980E-05-4.11445E-06 7.44404E-19-2.62831E-18
 -1       359 1.00011E-04-2.96465E-05-3.01538E-05-3.61789E-06-8.09870E-20-1.65841E-18
 -1       360 9.89429E-05-2.93100E-05-2.98397E-05-3.04883E-06-1.51473E-20-1.67998E-18
 -1       361 9.80597E-05-2.90680E-05-2.95649E-05-2.48509E-06 4.38419E-19-1.51213E-18
 -1       362 9.73444E-05-2.88954E-05-2.93325E-05-1.96980E-06 3.41949E-19-1.60239E-18
 -1       363 9.67764E-05-2.87736E-05-2.91417E-05-1.52287E-06-1.44683E-18-1.52927E-18
 -1       364 9.63340E-05-2.86891E-05-2.89887E-05-1.14968E-06-1.93528E-19-1.25061E-18
 -1       365 9.59961E-05-2.86315E-05-2.88689E-05-8.47269E-07-2.05816E-19-5.75576E-19
 -1       366 9.57431E-05-2.85935E-05-2.87771E-05-6.08349E-07-2.65632E-19-1.48507E-18
 -1       367 9.55579E-05-2.85695E-05-2.87084E-05-4.23852E-07 2.56909E-19-2.64060E-18
 -1       368 9.54257E-05-2.85554E-05-2.86580E-05-2.84457E-07 1.49235E-18-3.08001E-18
 -1       369 9.53341E-05-2.85480E-05-2.86221E-05-1.81429E-07-7.95848E-19-2.50618E-18
 -1       370 9.52730E-05-2.85452E-05-2.85973E-05-1.07036E-07 1.95320E-19-1.03987E-18
 -1       371 9.52345E-05-2.85453E-05-2.85808E-05-5.47031E-08-1.63063E-18 2.80234E-19
 -1       372 9.52121E-05-2.85472E-05-2.85705E-05-1.90094E-08 4.63166E-19 9.34411E-19
 -1       373 9.52012E-05-2.85502E-05-2.85646E-05 4.38895E-09 3.06803E-19 7.77131E-19
 -1       374 9.51980E-05-2.85536E-05-2.85618E-05 1.88793E-08 8.34486E-19 1.85505E-18
 -1       375 9.51998E-05-2.85572E-05-2.85610E-05 2.70192E-08 1.55571E-18 1.03968E-18
 -1       376 9.52046E-05-2.85609E-05-2.85616E-05 3.06546E-08 1.93382E-18 2.40792E-18
 -1       377 9.52112E-05-2.85645E-05-2.85629E-05 3.10227E-08 1.69654E-18 3.05674E-18
 -1       378 9.52183E-05-2.85680E-05-2.85644E-05 2.88451E-08 9.63431E-19 3.85726E-18
 -1       379 9.52253E-05-2.85716E-05-2.85659E-05 2.44579E-08 9.16642E-19 2.78059E-18
 -1       380 9.52309E-05-2.85745E-05-2.85671E-05 1.84602E-08-4.81564E-19 2.16717E-18
 -1       381 1.02135E-04-2.94386E-05-3.11157E-05-1.57120E-06 2.23839E-18 2.11711E-18
 -1       382 1.02784E-04-3.00825E-05-3.11351E-05-3.82709E-06 1.29985E-18 1.43462E-18
 -1       383 1.04361E-04-3.08894E-05-3.14796E-05-5.20442E-06 8.17034E-19 9.30094E-19
 -1       384 1.06576E-04-3.19481E-05-3.19853E-05-5.79076E-06 4.31769E-19 6.70657E-19
 -1       385 1.09135E-04-3.32753E-05-3.25223E-05-5.40410E-06 2.20728E-19 4.87271E-19
 -1       386 1.11682E-04-3.47969E-05-3.29691E-05-3.71856E-06 4.80739E-19 6.49941E-19
 -1       387 1.13714E-04-3.62390E-05-3.32247E-05-4.68187E-07 4.66034E-19 9.07954E-19
 -1       388 1.14532E-04-3.69930E-05-3.32505E-05 4.15397E-06-1.11434E-19 1.14321E-18
 -1       389 1.13395E-04-3.61882E-05-3.31009E-05 8.96219E-06 3.98158E-19 8.90113E-19
 -1       390 1.10074E-04-3.32833E-05-3.29171E-05 1.16108E-05 1.54181E-18 9.00406E-19
 -1       391 1.05700E-04-2.91195E-05-3.28415E-05 9.57268E-06 2.85415E-18 1.89987E-20
 -1       392 1.02906E-04-2.62497E-05-3.28692E-05 2.48093E-06 1.99345E-18-6.14751E-19
 -1       393 1.03860E-04-2.70004E-05-3.29470E-05-6.13856E-06 1.23587E-18-2.04553E-18
 -1       394 1.07969E-04-3.07615E-05-3.30895E-05-1.17151E-05 3.75514E-19-3.24482E-18
 -1       395 1.12562E-04-3.48167E-05-3.33141E-05-1.19270E-05 3.11774E-19-4.36652E-18
 -1       396 1.15433E-04-3.70901E-05-3.35846E-05-8.20091E-06-4.72218E-19-3.68049E-18
 -1       397 1.16033E-04-3.73288E-05-3.37546E-05-3.24230E-06-8.31260E-19-3.34903E-18
 -1       398 1.14896E-04-3.63147E-05-3.37042E-05 9.76304E-07-1.27790E-18-2.72087E-18
 -1       399 1.12787E-04-3.48724E-05-3.34126E-05 3.71435E-06 1.50153E-19-1.51694E-18
 -1       400 1.10290E-04-3.34743E-05-3.29329E-05 5.04423E-06 1.75885E-18-1.78229E-18
 -1       401 1.07766E-04-3.23006E-05-3.23468E-05 5.35350E-06 1.74061E-19-1.55569E-18
 -1       402 1.05413E-04-3.13732E-05-3.17307E-05 5.04795E-06-1.00623E-18-1.10096E-18
 -1       403 1.03327E-04-3.06576E-05-3.11406E-05 4.43714E-06-1.29512E-18-3.49855E-19
 -1       404 1.01543E-04-3.01100E-05-3.06096E-05 3.72220E-06-4.34309E-19 6.14866E-20
 -1       405 1.00061E-04-2.96925E-05-3.01529E-05 3.01858E-06-6.77093E-20 1.33280E-19
 -1       406 9.88568E-05-2.93753E-05-2.97732E-05 2.38400E-06 4.98798E-19 4.30903E-19
 -1       407 9.78993E-05-2.91361E-05-2.94660E-05 1.84113E-06 7.52291E-19 9.89546E-19
 -1       408 9.71523E-05-2.89575E-05-2.92230E-05 1.39307E-06 3.82309E-19 1.26385E-18
 -1       409 9.65801E-05-2.88259E-05-2.90348E-05 1.03303E-06 7.98142E-20-1.77111E-19
 -1       410 9.61499E-05-2.87307E-05-2.88918E-05 7.49935E-07 9.12187E-19-2.41380E-19
 -1       411 9.58327E-05-2.86633E-05-2.87853E-05 5.31554E-07-6.55989E-19 5.89334E-20
 -1       412 9.56040E-05-2.86168E-05-2.87076E-05 3.66117E-07 1.26505E-19 1.59044E-18
 -1       413 9.54432E-05-2.85860E-05-2.86522E-05 2.43051E-07 2.39729E-18 1.67915E-18
 -1       414 9.53337E-05-2.85666E-05-2.86138E-05 1.53253E-07 8.20835E-19 9.66108E-19
 -1       415 9.52621E-05-2.85553E-05-2.85882E-05 8.91162E-08-1.27305E-18 7.52999E-19
 -1       416 9.52182E-05-2.85497E-05-2.85719E-05 4.44304E-08-1.35282E-18-7.04926E-19
 -1       417 9.51938E-05-2.85479E-05-2.85623E-05 1.42273E-08-2.77451E-18-5.08067E-19
 -1       418 9.51831E-05-2.85486E-05-2.85575E-05-5.39111E-09 3.75469E-19-6.82829E-19
 -1       419 9.51813E-05-2.85509E-05-2.85558E-05-1.74182E-08 1.75917E-18 5.24849E-19
 -1       420 9.51854E-05-2.85540E-05-2.85563E-05-2.40904E-08-2.68889E-19 1.70416E-18
 -1       421 9.51929E-05-2.85575E-05-2.85580E-05-2.70138E-08 1.02434E-18 1.79026E-19
 -1       422 9.52020E-05-2.85613E-05-2.85603E-05-2.72599E-08 2.97052E-19-7.44370E-19
 -1       423 9.52116E-05-2.85650E-05-2.85629E-05-2.54370E-08-4.02843E-19-5.60842E-19
 -1       424 9.52207E-05-2.85686E-05-2.85652E-05-2.17585E-08-1.02086E-18 1.28291E-18
 -1       425 9.52287E-05-2.85721E-05-2.85672E-05-1.61987E-08 1.55883E-18 3.94221E-18
 -1       426 9.52332E-05-2.85744E-05-2.85681E-05-1.21534E-08 1.65905E-18 4.00508E-18
 -1       427 9.52440E-05-2.85923E-05-2.85650E-05-2.30121E-08 1.09285E-19-1.88032E-18
 -1       428 9.52393E-05-2.85850E-05-2.85662E-05-2.21607E-08-5.84712E-19-2.07017E-18
 -1       429 9.52359E-05-2.85796E-05-2.85670E-05-1.81482E-08 1.15566E-18 3.84487E-18
 -1       430 9.52478E-05-2.85988E-05-2.85638E-05-2.08267E-08-1.33857E-18-5.58784E-18
 -1       431 9.52507E-05-2.86042E-05-2.85627E-05-1.63417E-08 3.12824E-20-1.55769E-18
 -1       432 9.52526E-05-2.86080E-05-2.85619E-05-1.03282E-08 5.13250E-19-4.65335E-19
 -1       433 9.52535E-05-2.86099E-05-2.85615E-05-3.45989E-09-1.70207E-18 5.84414E-19
 -1       434 9.52535E-05-2.86099E-05-2.85615E-05 3.67137E-09-5.89898E-19-5.00174E-20
 -1       435 9.52525E-05-2.86079E-05-2.85620E-05 1.05094E-08-1.73600E-19 9.04296E-19
 -1       436 9.52506E-05-2.86041E-05-2.85628E-05 1.63810E-08-8.40389E-19-2.59224E-18
 -1       437 9.52477E-05-2.85987E-05-2.85638E-05 2.08243E-08-4.24081E-19 9.28999E-19
 -1       438 9.52439E-05-2.85921E-05-2.85650E-05 2.29860E-08 1.16442E-19-2.47610E-18
 -1       439 9.52392E-05-2.85848E-05-2.85662E-05 2.22482E-08-1.61883E-18-1.04760E-18
 -1       440 5.88886E-05-4.23459E-05-7.32665E-06 4.17568E-05 7.63706E-19 3.77734E-18
 -1       441 1.22785E-05-2.16106E-05 3.96564E-06-2.04706E-06 7.12375E-19 7.81091E-18
 -1       442 2.74453E-05-3.03568E-05 9.70727E-07 2.86252E-05 3.69942E-19 5.97603E-18
 -1       443 1.02484E-04-5.48757E-05-2.04509E-05 3.94409E-05 9.12254E-19 3.06647E-18
 -1       444 1.37434E-04-5.57187E-05-3.50109E-05 2.19802E-05 2.24374E-18 4.06046E-19
 -1       445 8.98658E-05-1.14566E-05-3.36635E-05-6.52838E-06-2.73143E-18-3.91222E-18
 -1       446 1.56201E-04-2.44095E-05-5.65876E-05-5.06687E-06 7.39322E-18-1.49840E-18
 -1       447 1.49332E-04-1.06513E-05-5.97439E-05-2.10376E-06 7.92516E-18-5.60683E-19
 -1       448 1.54985E-04-1.91517E-05-5.83987E-05 4.42355E-06 6.69008E-18 8.11405E-19
 -1       449 1.56811E-04-3.42482E-05-5.24577E-05 2.31499E-07 5.36050E-18-2.05723E-19
 -1       450 1.44021E-04-5.29682E-05-3.91135E-05-1.77358E-05 3.23217E-18-1.50041E-18
 -1       451 1.20438E-04-5.71943E-05-2.70675E-05-3.39208E-05 1.96109E-18-2.03643E-18
 -1       452 7.72670E-05-4.82683E-05-1.24568E-05-4.44151E-05-4.92973E-19-5.13289E-18
 -1       453 4.36874E-05-3.51146E-05-3.63656E-06-3.85378E-05-4.15681E-19-7.31514E-18
 -1       454 1.57614E-05-2.46829E-05 3.58576E-06-1.54191E-05-5.74606E-19-9.47682E-18
 -1       455 1.54263E-05-2.55233E-05 3.98428E-06 1.61045E-05-8.59950E-19-8.70125E-18
 -1       456 3.80489E-05-3.46009E-05-1.75138E-06 3.66781E-05-1.45277E-18-7.50556E-18
 -1       457 7.14644E-05-4.54702E-05-1.13679E-05 4.41992E-05-2.32542E-18-5.49814E-18
 -1       458 1.18635E-04-5.43486E-05-2.75623E-05 3.41120E-05-3.55224E-18-4.17863E-18
 -1       459 1.43479E-04-5.04935E-05-3.98741E-05 1.70369E-05-4.26441E-18-2.27915E-18
 -1       460 1.55289E-04-2.76555E-05-5.46955E-05 3.16709E-07-6.23268E-18-1.84992E-18
 -1       461 1.58823E-04-1.59555E-05-6.10596E-05-7.12571E-07-7.06224E-18-2.64105E-18
 -1       462 1.59426E-04-1.39441E-05-6.20963E-05 1.33259E-06-8.05624E-18-4.40656E-18
 -1       463 1.61422E-04-2.59638E-05-5.76798E-05-2.41344E-06-5.89037E-18-3.33752E-18
 -1       464 1.51064E-04-4.21041E-05-4.65387E-05-1.35514E-05-3.46772E-18-1.64727E-18
 -1       465 1.32606E-04-5.38080E-05-3.37529E-05-2.59442E-05-8.88326E-20-1.39411E-18
 -1       466 9.61937E-05-5.17516E-05-1.91752E-05-4.16618E-05 1.37982E-18 2.01038E-18
 -1       467 5.79293E-05-4.17439E-05-7.18812E-06-4.25236E-05 9.80864E-19 3.08587E-18
 -1       468 2.39973E-05-2.86979E-05 1.71253E-06-2.72023E-05 1.43741E-18 5.62493E-18
 -1       469 1.52793E-04-4.43809E-05-4.65345E-05 6.53659E-06 4.10778E-18-7.48989E-19
 -1       470 2.33880E-05-1.74037E-05-2.10125E-06 1.62107E-05-6.01314E-19 6.96536E-18
 -1       471 1.46050E-04-4.19455E-05-4.49452E-05-2.97348E-06-3.86340E-18-1.25202E-19
 -1       472 1.06438E-04-5.73233E-05-2.08812E-05 3.94708E-05 1.57760E-20-3.50469E-18
 -1       473 1.00536E-04-2.60389E-05-3.19119E-05 7.64786E-07 2.83768E-18 3.81628E-20
 -1       474 8.42985E-05-9.52648E-06-3.20585E-05-5.90747E-07-7.35695E-19-4.58814E-18
 -1       475 8.70424E-05-1.16719E-05-3.23181E-05-1.61988E-06-1.49068E-18-4.27339E-18
 -1       476 8.16575E-05-7.48698E-06-3.17979E-05 4.68389E-07 3.99960E-19-4.68071E-18
 -1       477 8.20433E-05-7.74344E-06-3.18538E-05 7.62239E-07 1.01530E-18-4.54380E-18
 -1       478 8.35846E-05-8.88033E-06-3.20292E-05 1.15360E-06 1.66999E-18-4.36460E-18
 -1       479 8.62502E-05-1.09280E-05-3.22976E-05 1.81993E-06 2.39967E-18-3.82510E-18
 -1       480 8.98742E-05-1.38688E-05-3.25944E-05 2.80848E-06 2.90020E-18-3.02946E-18
 -1       481 9.43338E-05-1.77954E-05-3.28217E-05 3.99865E-06 3.32229E-18-2.08012E-18
 -1       482 1.00815E-04-2.76239E-05-3.13485E-05-3.15075E-06 2.08589E-18-2.19947E-21
 -1       483 9.93126E-05-2.52119E-05-3.17480E-05-8.76084E-07-2.48432E-18-1.40306E-18
 -1       484 1.40876E-04-3.66520E-05-4.51218E-05-1.38175E-05 3.59841E-18-3.43604E-18
 -1       485 9.99330E-05-2.72990E-05-3.11206E-05 2.54656E-06-1.76344E-18-1.19926E-18
 -1       486 1.00743E-04-2.89098E-05-3.07826E-05 4.74717E-06-1.24674E-18-1.08860E-18
 -1       487 1.02039E-04-3.05824E-05-3.06251E-05 5.82395E-06-7.86148E-19-9.46051E-19
 -1       488 1.03921E-04-3.25734E-05-3.05819E-05 5.73037E-06-4.01410E-19-8.03892E-19
 -1       489 1.06363E-04-3.48979E-05-3.06354E-05 4.29782E-06-1.78104E-19-6.90986E-19
 -1       490 1.09125E-04-3.72260E-05-3.08228E-05 1.35994E-06-1.76801E-19-8.27647E-19
 -1       491 1.11573E-04-3.87133E-05-3.12369E-05-2.96556E-06-5.64029E-19-7.17428E-19
 -1       492 1.12696E-04-3.81104E-05-3.19737E-05-7.82362E-06-5.82885E-19-1.27700E-20
 -1       493 1.11537E-04-3.44256E-05-3.30538E-05-1.12835E-05-4.10553E-19 7.44346E-19
 -1       494 1.08204E-04-2.82190E-05-3.42957E-05-1.07009E-05-1.25540E-18 5.76376E-19
 -1       495 1.05004E-04-2.29090E-05-3.52242E-05-4.81211E-06-1.99693E-18-9.89835E-19
 -1       496 1.04631E-04-2.22528E-05-3.53451E-05 3.98963E-06-2.06995E-18-1.70038E-18
 -1       497 1.07541E-04-2.68332E-05-3.46193E-05 1.08580E-05-1.99051E-18-2.45707E-18
 -1       498 1.11179E-04-3.31733E-05-3.34484E-05 1.26879E-05-1.14710E-18-3.22439E-18
 -1       499 1.13035E-04-3.76287E-05-3.23268E-05 9.94041E-06-5.11603E-19-3.03189E-18
 -1       500 1.12441E-04-3.89093E-05-3.15212E-05 5.18103E-06-5.35381E-19-2.43832E-18
 -1       501 1.10251E-04-3.78409E-05-3.10428E-05 5.87206E-07 1.00339E-19-1.62352E-18
 -1       502 1.07512E-04-3.57245E-05-3.07748E-05-2.83020E-06 1.99390E-19-1.82779E-18
 -1       503 1.04912E-04-3.35236E-05-3.06013E-05-4.90313E-06 4.78350E-19-1.78712E-18
 -1       504 1.02732E-04-3.16972E-05-3.04470E-05-5.85635E-06 2.14121E-19-8.33293E-19
 -1       505 1.01008E-04-3.03613E-05-3.02784E-05-6.01361E-06 7.55015E-19-1.07771E-18
 -1       506 9.96739E-05-2.94654E-05-3.00892E-05-5.67046E-06 4.48793E-19-1.68305E-18
 -1       507 9.86447E-05-2.89057E-05-2.98873E-05-5.05458E-06 1.82247E-19-2.04946E-18
 -1       508 9.78464E-05-2.85802E-05-2.96843E-05-4.32467E-06 4.42639E-19-1.99862E-18
 -1       509 9.72230E-05-2.84080E-05-2.94908E-05-3.58285E-06 2.13368E-19-1.45828E-18
 -1       510 9.67348E-05-2.83312E-05-2.93146E-05-2.88927E-06 1.64400E-19-6.53384E-19
 -1       511 9.63527E-05-2.83107E-05-2.91597E-05-2.27493E-06-3.81118E-19-6.40434E-19
 -1       512 9.60553E-05-2.83214E-05-2.90279E-05-1.75161E-06-1.00417E-18-5.45647E-19
 -1       513 9.58259E-05-2.83477E-05-2.89185E-05-1.31927E-06-1.80279E-20-1.61096E-18
 -1       514 9.56511E-05-2.83800E-05-2.88299E-05-9.71111E-07-6.59444E-19-1.11361E-18
 -1       515 9.55198E-05-2.84130E-05-2.87596E-05-6.97020E-07-8.52426E-19-1.25333E-18
 -1       516 9.54229E-05-2.84437E-05-2.87050E-05-4.85749E-07 1.05430E-19-2.13826E-18
 -1       517 9.53528E-05-2.84707E-05-2.86635E-05-3.26230E-07 1.08353E-18-2.22335E-18
 -1       518 9.53034E-05-2.84937E-05-2.86326E-05-2.08305E-07 1.56693E-18-3.97608E-19
 -1       519 9.52697E-05-2.85126E-05-2.86100E-05-1.23079E-07-6.55544E-19 5.83721E-21
 -1       520 9.52476E-05-2.85279E-05-2.85941E-05-6.30356E-08 5.84298E-19 1.70031E-18
 -1       521 9.52341E-05-2.85399E-05-2.85832E-05-2.20053E-08 1.04330E-18 2.26100E-18
 -1       522 9.52266E-05-2.85493E-05-2.85760E-05 4.94120E-09 1.10319E-18 3.17790E-18
 -1       523 9.52234E-05-2.85566E-05-2.85715E-05 2.16337E-08-7.42345E-20 2.20662E-18
 -1       524 9.52231E-05-2.85624E-05-2.85689E-05 3.09518E-08 2.44981E-18 2.28274E-18
 -1       525 9.52246E-05-2.85671E-05-2.85675E-05 3.49677E-08 1.31629E-18 1.90546E-18
 -1       526 9.52273E-05-2.85712E-05-2.85669E-05 3.50641E-08 1.30476E-18 1.66609E-18
 -1       527 9.52307E-05-2.85751E-05-2.85667E-05 3.20786E-08 5.85395E-19 5.95765E-19
 -1       528 5.33531E-05-3.21783E-05-8.60192E-06 3.82831E-05-2.53189E-18 2.98817E-18
 -1       529 1.02864E-04-3.01035E-05-3.11810E-05-7.53066E-06 8.90474E-19-4.98420E-19
 -1       530 1.04889E-04-3.18409E-05-3.13110E-05-8.16673E-06 4.93632E-19-6.12754E-19
 -1       531 1.07670E-04-3.42171E-05-3.14912E-05-7.45637E-06 2.67228E-19-9.20396E-19
 -1       532 1.11155E-04-3.71791E-05-3.17213E-05-4.95871E-06-3.92642E-20-1.97663E-19
 -1       533 1.14945E-04-4.01103E-05-3.20876E-05-3.25657E-07-1.07017E-19 5.17843E-19
 -1       534 1.17887E-04-4.14236E-05-3.27895E-05 6.10116E-06 3.94425E-19 5.79107E-19
 -1       535 1.18349E-04-3.91007E-05-3.39955E-05 1.22993E-05 1.09697E-18 5.70262E-19
 -1       536 1.15280E-04-3.22468E-05-3.56428E-05 1.43499E-05 2.07204E-18 9.58216E-19
 -1       537 1.10459E-04-2.39318E-05-3.71940E-05 8.80387E-06 3.04147E-18 8.79318E-19
 -1       538 1.09621E-04-2.23319E-05-3.75005E-05-2.90688E-06 3.04835E-18-8.19514E-19
 -1       539 1.12376E-04-2.68934E-05-3.67100E-05-1.28640E-05 1.81112E-18-2.10147E-18
 -1       540 1.17222E-04-3.53536E-05-3.51308E-05-1.53979E-05 7.73540E-19-2.92921E-18
 -1       541 1.19189E-04-4.07234E-05-3.36430E-05-1.12504E-05-2.54255E-19-2.34730E-18
 -1       542 1.17725E-04-4.14793E-05-3.26982E-05-4.61116E-06-1.51967E-18-2.05147E-18
 -1       543 1.14391E-04-3.93464E-05-3.21828E-05 1.27907E-06-1.98073E-18-1.28758E-18
 -1       544 1.10726E-04-3.63742E-05-3.18804E-05 5.18753E-06-9.83591E-19-9.98475E-19
 -1       545 1.07485E-04-3.37058E-05-3.16289E-05 7.18156E-06 7.90255E-19-3.20756E-19
 -1       546 1.04872E-04-3.17318E-05-3.13499E-05 7.76284E-06 6.96069E-19 5.05114E-19
 -1       547 1.02818E-04-3.04156E-05-3.10299E-05 7.46424E-06-9.29626E-20 5.87069E-19
 -1       548 1.01198E-04-2.95918E-05-3.06863E-05 6.69504E-06-1.54518E-18-9.69737E-20
 -1       549 9.99048E-05-2.90970E-05-3.03431E-05 5.73163E-06-3.76921E-19-4.47245E-19
 -1       550 9.88637E-05-2.88084E-05-3.00204E-05 4.74288E-06-5.34638E-19 3.52672E-19
 -1       551 9.80236E-05-2.86443E-05-2.97308E-05 3.82152E-06-5.84291E-19 1.26834E-18
 -1       552 9.73485E-05-2.85540E-05-2.94806E-05 3.01103E-06 3.75429E-19 1.28623E-18
 -1       553 9.68110E-05-2.85072E-05-2.92708E-05 2.32534E-06 7.02178E-19 2.30329E-18
 -1       554 9.63884E-05-2.84861E-05-2.90991E-05 1.76179E-06 1.14664E-18 1.01950E-18
 -1       555 9.60608E-05-2.84799E-05-2.89618E-05 1.30919E-06-5.61812E-20 1.32592E-18
 -1       556 9.58110E-05-2.84823E-05-2.88540E-05 9.52849E-07-3.75636E-19 4.07329E-18
 -1       557 9.56240E-05-2.84895E-05-2.87711E-05 6.77352E-07-2.89730E-19 3.37765E-18
 -1       558 9.54867E-05-2.84989E-05-2.87084E-05 4.68085E-07 1.16858E-18 1.41360E-18
 -1       559 9.53882E-05-2.85091E-05-2.86620E-05 3.11951E-07 1.21042E-18 2.73222E-18
 -1       560 9.53195E-05-2.85191E-05-2.86284E-05 1.97654E-07 1.74085E-19 1.66425E-18
 -1       561 9.52732E-05-2.85285E-05-2.86046E-05 1.15728E-07-1.06226E-18 8.25887E-19
 -1       562 9.52435E-05-2.85369E-05-2.85884E-05 5.84200E-08-2.29035E-18 1.06270E-18
 -1       563 9.52257E-05-2.85442E-05-2.85777E-05 1.95098E-08-1.92144E-18 1.98431E-19
 -1       564 9.52165E-05-2.85506E-05-2.85711E-05-5.89078E-09 1.03944E-18 1.43115E-18
 -1       565 9.52131E-05-2.85559E-05-2.85673E-05-2.15319E-08 5.18322E-19 1.96215E-18
 -1       566 9.52136E-05-2.85606E-05-2.85656E-05-3.02097E-08 1.74781E-18 1.27611E-18
 -1       567 9.52164E-05-2.85646E-05-2.85651E-05-3.39263E-08 1.56196E-18 1.98284E-18
 -1       568 9.52207E-05-2.85683E-05-2.85653E-05-3.40163E-08-1.52169E-18 2.03800E-18
 -1       569 9.52256E-05-2.85720E-05-2.85658E-05-3.13372E-08-1.33359E-18 2.79469E-18
 -1       570 9.52308E-05-2.85758E-05-2.85665E-05-2.62077E-08-7.66280E-19 2.36683E-18
 -1       571 9.52503E-05-2.85942E-05-2.85669E-05-2.33270E-08 4.61245E-19-2.82032E-18
 -1       572 9.52533E-05-2.85974E-05-2.85668E-05-1.66147E-08 2.03474E-18 3.19731E-19
 -1       573 9.52400E-05-2.85843E-05-2.85668E-05-2.94146E-08-9.66277E-19-3.28462E-18
 -1       574 9.52459E-05-2.85898E-05-2.85669E-05-2.78478E-08-2.55892E-18-3.43249E-18
 -1       575 9.52550E-05-2.85992E-05-2.85667E-05-8.54849E-09 6.35649E-19-2.40792E-18
 -1       576 9.52555E-05-2.85998E-05-2.85667E-05 1.44931E-10 8.94099E-19 1.58495E-18
 -1       577 9.52549E-05-2.85991E-05-2.85667E-05 8.81726E-09 9.47640E-19 2.32417E-18
 -1       578 9.52532E-05-2.85973E-05-2.85668E-05 1.66959E-08 4.61195E-19-1.79122E-18
 -1       579 9.52502E-05-2.85941E-05-2.85669E-05 2.33632E-08 7.66219E-19-3.14221E-19
 -1       580 9.52458E-05-2.85896E-05-2.85669E-05 2.77602E-08 8.41793E-19-9.21867E-19
 -1       581 9.52398E-05-2.85840E-05-2.85668E-05 2.92428E-08 1.66645E-19-2.96919E-18
 -1       582 2.57910E-05-1.67719E-05-3.29523E-06-1.74259E-05 1.76048E-18 5.41095E-18
 -1       583 1.01535E-04-2.88071E-05-3.11599E-05-5.83975E-06 1.35146E-18-3.80733E-19
 -1       584 9.06585E-05-5.02889E-05-1.70176E-05 4.03660E-05-2.68801E-18 1.41428E-18
 -1       585 5.30340E-05-3.12096E-05-8.86958E-06-3.91283E-05 3.28125E-18 2.63724E-18
 -1       586 9.76032E-05-2.13506E-05-3.27019E-05-4.93210E-06-3.15957E-18-1.98535E-18
 -1       587 1.27561E-04-6.20106E-05-2.80709E-05 2.29320E-05-1.55113E-18-1.59954E-18
 -1       588 3.73251E-05-2.16942E-05-6.09448E-06 2.93994E-05 1.17603E-18-7.42356E-18
 -1       589 1.33623E-04-1.72679E-05-5.04855E-05-1.23163E-05 6.10345E-18-2.48689E-18
 -1       590 8.24474E-05-8.10602E-06-3.18720E-05 7.54831E-08-8.93255E-20-4.70612E-18
 -1       591 1.27687E-04-1.11726E-05-5.04568E-05 6.15062E-06 5.56691E-18 9.73102E-19
 -1       592 2.35871E-05-1.31661E-05-3.81915E-06 1.20161E-06-1.98398E-19-8.54349E-18
 -1       593 1.36793E-04-2.26748E-05-4.95923E-05 1.28806E-05 5.39841E-18 1.99654E-18
 -1       594 1.44308E-04-4.82468E-05-4.15632E-05 5.96349E-06 2.22754E-18 2.10006E-18
 -1       595 1.36023E-04-6.14996E-05-3.20307E-05-1.39254E-05-6.07852E-19 1.07565E-18
 -1       596 1.10719E-04-5.77179E-05-2.24618E-05-3.45966E-05-2.33569E-18-8.89587E-19
 -1       597 6.90818E-05-3.91743E-05-1.24045E-05-4.15992E-05-2.63163E-18-4.60992E-18
 -1       598 1.34864E-04-5.97037E-05-3.22645E-05 1.72489E-05-1.26430E-18-7.88799E-21
 -1       599 3.68517E-05-2.23079E-05-5.70841E-06-2.88489E-05-2.31349E-18-8.05391E-18
 -1       600 6.77057E-05-3.91351E-05-1.18403E-05 4.29428E-05 1.50910E-18-4.80591E-18
 -1       601 1.37472E-04-1.56531E-05-5.27392E-05 9.76554E-06-6.01213E-18-5.11894E-18
 -1       602 1.36666E-04-1.82390E-05-5.13704E-05-9.78259E-06-5.55400E-18-1.29220E-18
 -1       603 1.34516E-04-7.76356E-06-5.48855E-05-1.00111E-06-6.61501E-18-2.35865E-18
 -1       604 1.44734E-04-3.39744E-05-4.78768E-05 7.81607E-06-3.32476E-18-5.22609E-18
 -1       605 1.42027E-04-5.30811E-05-3.83300E-05-3.81497E-06 1.86713E-19-4.62464E-18
 -1       606 1.22483E-04-6.02845E-05-2.66315E-05-2.76428E-05 3.52959E-18-1.86008E-18
 -1       607 8.92809E-05-4.96525E-05-1.66853E-05-4.19301E-05 3.57575E-18-1.61770E-19
 -1       608 1.43218E-04-5.50871E-05-3.80035E-05 1.76479E-06 9.63887E-19-2.78774E-18
 -1       609 1.00592E-04-2.42660E-05-3.27139E-05 5.00236E-06 3.50938E-18 4.63979E-19
 -1       610 1.19775E-04-1.30202E-05-4.61408E-05-4.98491E-06 5.14684E-18 5.66155E-20
 -1       611 9.04714E-05-1.45031E-05-3.25861E-05-2.93827E-06-2.20550E-18-3.85108E-18
 -1       612 2.82908E-05-1.22205E-05-6.28932E-06-9.14421E-08 7.82893E-20 6.20325E-18
 -1       613 9.52332E-05-2.85779E-05-2.85666E-05 2.85023E-08-3.79310E-19 1.06744E-18
 -1       614 1.38765E-04-5.21392E-05-3.73689E-05 4.15211E-07-1.73586E-18 5.19893E-19
 -1       615 1.34993E-04-3.11442E-05-4.49706E-05-1.24597E-05-3.68547E-18-3.90985E-19
 -1       616 8.34265E-05-1.07014E-05-3.11715E-05-2.70904E-08 1.20696E-18-3.91806E-18
 -1       617 8.23602E-05-9.89626E-06-3.10590E-05 4.34512E-07 6.50435E-19-4.13299E-18
 -1       618 8.92494E-05-1.53874E-05-3.16602E-05-2.30318E-07 2.32740E-18-3.01459E-18
 -1       619 9.34412E-05-1.90372E-05-3.18933E-05 5.15050E-08 2.65534E-18-2.31999E-18
 -1       620 9.75382E-05-2.35859E-05-3.16847E-05-1.26505E-06 2.47688E-18-1.50305E-18
 -1       621 1.12691E-04-5.56560E-05-2.42506E-05 2.72083E-05-3.37285E-18-1.15785E-18
 -1       622 9.81181E-05-2.55266E-05-3.11057E-05-4.89417E-06 1.76096E-18-1.52962E-18
 -1       623 9.78243E-05-2.59138E-05-3.08164E-05 4.21092E-06-1.41150E-18-2.01550E-18
 -1       624 9.90393E-05-2.81902E-05-3.03634E-05 6.37918E-06-8.91417E-19-1.72112E-18
 -1       625 1.00849E-04-3.07493E-05-3.00435E-05 7.58520E-06-4.02465E-19-1.46597E-18
 -1       626 1.03561E-04-3.38927E-05-2.98605E-05 7.65041E-06-2.78936E-19-1.43885E-18
 -1       627 1.07328E-04-3.76060E-05-2.98845E-05 6.23943E-06 3.37060E-20-8.94951E-19
 -1       628 1.11945E-04-4.13084E-05-3.02776E-05 2.90362E-06-1.83395E-19-6.46416E-19
 -1       629 1.16352E-04-4.33643E-05-3.12986E-05-2.51462E-06 5.45617E-20 1.56602E-19
 -1       630 1.18623E-04-4.16423E-05-3.30025E-05-8.94837E-06 2.93758E-19 7.03484E-19
 -1       631 1.16506E-04-3.35173E-05-3.56759E-05-1.33871E-05-1.18687E-18 1.11845E-18
 -1       632 1.11788E-04-2.30600E-05-3.81675E-05-1.06797E-05-2.79983E-18 6.60755E-19
 -1       633 1.08503E-04-1.68472E-05-3.94902E-05-7.54780E-07-2.98598E-18-8.85022E-19
 -1       634 1.10520E-04-2.07228E-05-3.86811E-05 1.02100E-05-3.34361E-18-2.30849E-18
 -1       635 1.15889E-04-3.14382E-05-3.62494E-05 1.44797E-05-2.16880E-18-3.17550E-18
 -1       636 1.18520E-04-4.00401E-05-3.36770E-05 1.14479E-05-4.40917E-19-2.85603E-18
 -1       637 1.17074E-04-4.33035E-05-3.16206E-05 5.04523E-06-2.76659E-20-2.31862E-18
 -1       638 1.12921E-04-4.19649E-05-3.04151E-05-7.67086E-07 5.24710E-19-1.43036E-18
 -1       639 1.08219E-04-3.86168E-05-2.98357E-05-4.71702E-06-3.98937E-20-1.30188E-18
 -1       640 1.04164E-04-3.50692E-05-2.96163E-05-6.84062E-06 6.15091E-19-1.16356E-18
 -1       641 1.01127E-04-3.21581E-05-2.95600E-05-7.63508E-06 1.10679E-18-1.22801E-18
 -1       642 9.90356E-05-3.00860E-05-2.95506E-05-7.58108E-06 5.45221E-19-5.88980E-19
 -1       643 9.76704E-05-2.87626E-05-2.95321E-05-7.03581E-06-4.75622E-19-8.85292E-19
 -1       644 9.68060E-05-2.80053E-05-2.94859E-05-6.24025E-06 4.97149E-19-1.01323E-18
 -1       645 9.62660E-05-2.76359E-05-2.94126E-05-5.34976E-06 8.53236E-19-8.35133E-19
 -1       646 9.59283E-05-2.75126E-05-2.93207E-05-4.46154E-06 8.37490E-19-1.54799E-19
 -1       647 9.57141E-05-2.75336E-05-2.92199E-05-3.63324E-06 4.59202E-19 5.25841E-19
 -1       648 9.55746E-05-2.76310E-05-2.91184E-05-2.89559E-06-1.88413E-19-1.98930E-19
 -1       649 9.54808E-05-2.77615E-05-2.90223E-05-2.26117E-06-6.93347E-19 6.86294E-19
 -1       650 9.54154E-05-2.78991E-05-2.89354E-05-1.73069E-06-9.37372E-19 4.86866E-19
 -1       651 9.53683E-05-2.80294E-05-2.88594E-05-1.29769E-06-2.09323E-19 1.12430E-19
 -1       652 9.53337E-05-2.81452E-05-2.87950E-05-9.51799E-07-1.23772E-18-7.32712E-19
 -1       653 9.53078E-05-2.82437E-05-2.87417E-05-6.81003E-07-8.70474E-19 6.37494E-19
 -1       654 9.52883E-05-2.83249E-05-2.86985E-05-4.73091E-07-3.32051E-20 3.66249E-19
 -1       655 9.52736E-05-2.83900E-05-2.86644E-05-3.16559E-07 8.54035E-19-1.17636E-18
 -1       656 9.52626E-05-2.84410E-05-2.86378E-05-2.01094E-07 1.99614E-18-1.99040E-18
 -1       657 9.52545E-05-2.84801E-05-2.86175E-05-1.17795E-07 1.07498E-18 5.50074E-19
 -1       658 9.52485E-05-2.85095E-05-2.86024E-05-5.92080E-08 3.53924E-19 1.91823E-18
 -1       659 9.52443E-05-2.85312E-05-2.85913E-05-1.92573E-08-5.80766E-19-1.01305E-19
 -1       660 9.52414E-05-2.85469E-05-2.85834E-05 6.88417E-09-5.12321E-21-2.36159E-18
 -1       661 9.52395E-05-2.85581E-05-2.85777E-05 2.29478E-08 1.99013E-18-5.15878E-19
 -1       662 9.52385E-05-2.85663E-05-2.85738E-05 3.17260E-08 1.45308E-18-5.12513E-19
 -1       663 9.52381E-05-2.85724E-05-2.85710E-05 3.52285E-08 4.13600E-19-9.65678E-19
 -1       664 9.52385E-05-2.85776E-05-2.85690E-05 3.48477E-08-1.00167E-18-4.72446E-18
 -1       665 1.22518E-04-1.22271E-05-4.78374E-05-7.07379E-06-5.27569E-18-1.47700E-18
 -1       666 1.20626E-04-1.11579E-05-4.74726E-05 6.33273E-06-5.02862E-18-3.58306E-18
 -1       667 1.00251E-04-2.92003E-05-3.04502E-05-9.58775E-06 6.15598E-19-1.60133E-18
 -1       668 1.11778E-04-4.09485E-05-3.03660E-05-7.61758E-06-6.09587E-19-5.08684E-19
 -1       669 1.18506E-04-4.59061E-05-3.11255E-05-2.37279E-06-4.47485E-19 1.44979E-19
 -1       670 1.24315E-04-4.72847E-05-3.30498E-05 5.88170E-06-2.55169E-20 1.67252E-18
 -1       671 1.25727E-04-4.10424E-05-3.64950E-05 1.40422E-05 1.32263E-18 3.03481E-18
 -1       672 1.21233E-04-2.72619E-05-4.06552E-05 1.56908E-05 3.32213E-18 2.21837E-18
 -1       673 1.22667E-04-3.24912E-05-3.89970E-05-1.75859E-05 2.03611E-18-2.50806E-18
 -1       674 1.25640E-04-4.39239E-05-3.51504E-05-1.31374E-05-2.28368E-20-2.99402E-18
 -1       675 1.22626E-04-4.70162E-05-3.24286E-05-4.50413E-06-1.36474E-18-2.37797E-18
 -1       676 1.16227E-04-4.39652E-05-3.09854E-05 2.97864E-06-1.84238E-18-1.87250E-18
 -1       677 1.10079E-04-3.91416E-05-3.04085E-05 7.42470E-06-1.69772E-18-2.07128E-18
 -1       678 1.05275E-04-3.47147E-05-3.02448E-05 9.42820E-06-4.92916E-19-1.22639E-18
 -1       679 1.02011E-04-3.15400E-05-3.02042E-05 9.83274E-06 5.54167E-19 7.98102E-20
 -1       680 9.99019E-05-2.95396E-05-3.01559E-05 9.33478E-06-2.13232E-19 8.36712E-19
 -1       681 9.85587E-05-2.84142E-05-3.00614E-05 8.37126E-06-5.55514E-19 1.85350E-18
 -1       682 9.76857E-05-2.78625E-05-2.99231E-05 7.21778E-06-4.32446E-19 1.50166E-18
 -1       683 9.70914E-05-2.76542E-05-2.97575E-05 6.04083E-06-6.71261E-19 1.29334E-18
 -1       684 9.66628E-05-2.76347E-05-2.95822E-05 4.93512E-06-5.65725E-19 1.02275E-18
 -1       685 9.63378E-05-2.77088E-05-2.94113E-05 3.94841E-06 6.80656E-20 9.61769E-19
 -1       686 9.60832E-05-2.78220E-05-2.92539E-05 3.09941E-06 7.08107E-19 1.11536E-18
 -1       687 9.58807E-05-2.79444E-05-2.91148E-05 2.38927E-06 5.45604E-19 1.65491E-18
 -1       688 9.57193E-05-2.80607E-05-2.89959E-05 1.80881E-06 5.28864E-19 1.51367E-18
 -1       689 9.55917E-05-2.81643E-05-2.88970E-05 1.34369E-06-1.03870E-18 2.77666E-18
 -1       690 9.54921E-05-2.82527E-05-2.88165E-05 9.77753E-07 3.17105E-19 2.22309E-18
 -1       691 9.54157E-05-2.83261E-05-2.87524E-05 6.94819E-07 1.87219E-18 2.14485E-18
 -1       692 9.53581E-05-2.83857E-05-2.87022E-05 4.79809E-07 1.75631E-18 1.26028E-18
 -1       693 9.53156E-05-2.84333E-05-2.86637E-05 3.19299E-07 1.18555E-18 1.70275E-18
 -1       694 9.52850E-05-2.84705E-05-2.86347E-05 2.01733E-07-3.78675E-20 3.34343E-18
 -1       695 9.52636E-05-2.84992E-05-2.86132E-05 1.17425E-07-1.65287E-18 2.63832E-18
 -1       696 9.52492E-05-2.85210E-05-2.85978E-05 5.84374E-08-1.77851E-18 2.35240E-18
 -1       697 9.52401E-05-2.85373E-05-2.85869E-05 1.83980E-08 6.65482E-19 4.22130E-19
 -1       698 9.52347E-05-2.85494E-05-2.85794E-05-7.69460E-09 7.86333E-19 7.74065E-19
 -1       699 9.52320E-05-2.85583E-05-2.85744E-05-2.36632E-08 1.60503E-18-3.16585E-19
 -1       700 9.52312E-05-2.85649E-05-2.85713E-05-3.23627E-08 1.90231E-18-2.05696E-18
 -1       701 9.52317E-05-2.85701E-05-2.85693E-05-3.58221E-08 4.08456E-19-1.50566E-18
 -1       702 9.52332E-05-2.85746E-05-2.85680E-05-3.53929E-08-1.25933E-18-1.47124E-18
 -1       703 9.52369E-05-2.85793E-05-2.85676E-05-3.32071E-08-2.96621E-19-4.17316E-18
 -1       704 9.52583E-05-2.85906E-05-2.85719E-05-4.56711E-09 3.80938E-18 2.36301E-19
 -1       705 9.52391E-05-2.85808E-05-2.85678E-05 3.27600E-08 7.13775E-20-4.85555E-18
 -1       706 9.52542E-05-2.85886E-05-2.85710E-05-2.21144E-08 1.00012E-18 9.41871E-20
 -1       707 9.52583E-05-2.85906E-05-2.85719E-05 4.92344E-09 1.54165E-18 5.75742E-20
 -1       708 9.52570E-05-2.85900E-05-2.85716E-05-1.37968E-08 2.45370E-18-1.02069E-18
 -1       709 7.73619E-05-3.76954E-05-1.66300E-05 3.61127E-05-3.54875E-18 2.04707E-18
 -1       710 9.52569E-05-2.85899E-05-2.85716E-05 1.39567E-08 4.99782E-19 9.90394E-19
 -1       711 9.52541E-05-2.85884E-05-2.85710E-05 2.22169E-08 1.54139E-18-2.16180E-18
 -1       712 9.52496E-05-2.85860E-05-2.85701E-05 2.89577E-08 1.04973E-18-5.52389E-19
 -1       713 9.88950E-05-2.72048E-05-3.07215E-05-7.65669E-06 1.16429E-18-1.50781E-18
 -1       714 4.40919E-05-1.96324E-05-9.93565E-06 2.56758E-05-2.16817E-18 3.71763E-18
 -1       715 1.09535E-04-5.44074E-05-2.34945E-05-2.96680E-05 2.58067E-18-6.35261E-19
 -1       716 9.54715E-05-2.05932E-05-3.20927E-05-1.73993E-06-2.40199E-18-2.51016E-18
 -1       717 1.31135E-04-3.57117E-05-4.12267E-05 1.53714E-05 2.94977E-18 2.70037E-18
 -1       718 9.36136E-05-4.55803E-05-2.03446E-05-3.46128E-05-3.03934E-18-1.87757E-18
 -1       719 1.28685E-04-2.83664E-05-4.35576E-05-1.64192E-05 3.77459E-18-3.07881E-18
 -1       720 1.06363E-04-3.59605E-05-3.01784E-05-1.01013E-05-3.42282E-19-6.56686E-19
 -1       721 1.02597E-04-3.20043E-05-3.02570E-05-1.05358E-05 3.63329E-19-1.23942E-18
 -1       722 9.67840E-05-2.36000E-05-3.13644E-05 1.53998E-06-1.93021E-18-2.23908E-18
 -1       723 9.93712E-05-5.02203E-05-2.07601E-05 3.63327E-05 2.09958E-18-2.38775E-18
 -1       724 1.35235E-04-5.39928E-05-3.49519E-05 3.37944E-06-1.91640E-19 1.63139E-18
 -1       725 8.58023E-05-1.25699E-05-3.13896E-05-2.88488E-07 1.82711E-18-3.51382E-18
 -1       726 6.22340E-05-2.78983E-05-1.42616E-05 3.38460E-05 2.38977E-18-4.97531E-18
 -1       727 6.09068E-05-2.62593E-05-1.44341E-05-3.14917E-05-2.93942E-18-5.45780E-18
 -1       728 1.23618E-04-5.81331E-05-2.80117E-05-1.82243E-05-2.03868E-18 9.44998E-19
 -1       729 8.69597E-05-1.36305E-05-3.14308E-05 7.88502E-07-9.08009E-19-3.76555E-18
 -1       730 1.32115E-04-5.82526E-05-3.17415E-05-8.78680E-06 1.81802E-18-3.07963E-18
 -1       731 4.07439E-05-1.46598E-05-1.06472E-05 1.73913E-05 1.05360E-18-6.86801E-18
 -1       732 1.23063E-04-5.83875E-05-2.76943E-05 2.06603E-05 9.50437E-19-1.36071E-19
 -1       733 7.94691E-05-3.85466E-05-1.71778E-05-3.68437E-05 2.79526E-18 5.02661E-20
 -1       734 4.62803E-05-2.00654E-05-1.07280E-05-2.68333E-05 2.97777E-18 3.15112E-18
 -1       735 1.29720E-04-2.62561E-05-4.48164E-05 1.47542E-05-3.74116E-18-4.88476E-18
 -1       736 1.36157E-04-4.42169E-05-3.97118E-05 9.47868E-06-1.29055E-18-5.13096E-18
 -1       737 4.12401E-05-1.34096E-05-1.13901E-05-1.32620E-05-1.45056E-18-6.58563E-18
 -1       738 9.03715E-05-1.64556E-05-3.16816E-05 1.48181E-07-1.53633E-18-3.47897E-18
 -1       739 8.26895E-05-1.01879E-05-3.10752E-05 8.63441E-07 2.05409E-19-4.34980E-18
 -1       740 4.15921E-05-1.33876E-05-1.16048E-05-1.30938E-05 1.69380E-18 2.40385E-18
 -1       741 9.52496E-05-2.85861E-05-2.85701E-05-2.86857E-08-7.38757E-19-4.69116E-19
 -1       742 9.52439E-05-2.85832E-05-2.85689E-05-3.22376E-08-2.04136E-18-4.04229E-18
 -1       743 1.37014E-04-4.79841E-05-3.83675E-05-1.09681E-05 1.04198E-18-3.74039E-18
 -1       744 1.33638E-04-4.33432E-05-3.89060E-05-1.02700E-05-1.59474E-18 8.34010E-19
 -1       745 1.23934E-04-2.17962E-05-4.42279E-05-1.26545E-05-4.06287E-18-2.59576E-19
 -1       746 1.30574E-04-5.72035E-05-3.15994E-05 6.90386E-06 1.25692E-19 6.85726E-19
 -1       747 8.43016E-05-1.14850E-05-3.12107E-05 1.02636E-06-3.35239E-19-4.10128E-18
 -1       748 1.30303E-04-5.81508E-05-3.09288E-05 7.14005E-06-1.84035E-18-3.41438E-18
 -1       749 9.78511E-05-4.34589E-05-2.31331E-05 2.68036E-05-3.47528E-18-2.30155E-19
 -1       750 9.20280E-05-1.95518E-05-3.10607E-05-3.05862E-06 2.03570E-18-2.43982E-18
 -1       751 9.52522E-05-2.46597E-05-3.02531E-05 6.00604E-06-8.56151E-19-2.30644E-18
 -1       752 9.66997E-05-2.74896E-05-2.96613E-05 8.31186E-06-3.57073E-19-2.01993E-18
 -1       753 9.89790E-05-3.09146E-05-2.91707E-05 9.97675E-06-2.88077E-19-1.63526E-18
 -1       754 1.02629E-04-3.53155E-05-2.88490E-05 1.07219E-05 5.78129E-20-1.25381E-18
 -1       755 1.08037E-04-4.06684E-05-2.88693E-05 9.93014E-06 5.93940E-19-8.18022E-19
 -1       756 1.15466E-04-4.63139E-05-2.96961E-05 6.30241E-06 6.22245E-19 5.80091E-19
 -1       757 1.22256E-04-4.90113E-05-3.14086E-05-2.01654E-07 6.10387E-19 1.05030E-18
 -1       758 1.22149E-04-2.99080E-05-3.98313E-05-1.35588E-05-2.12231E-18 5.71886E-19
 -1       759 1.23161E-04-4.84343E-05-3.21400E-05 2.93543E-06 4.05547E-19-2.84954E-18
 -1       760 1.16544E-04-4.71089E-05-2.97609E-05-4.25302E-06 1.09840E-18-1.42686E-18
 -1       761 1.09032E-04-4.20170E-05-2.87204E-05-8.52507E-06 1.01743E-18-8.80143E-19
 -1       762 1.03123E-04-3.67748E-05-2.84345E-05-1.00720E-05 5.97446E-19-4.06538E-19
 -1       763 9.90737E-05-3.25994E-05-2.84879E-05-1.00891E-05 7.65966E-19 4.06518E-20
 -1       764 9.65738E-05-2.97041E-05-2.86575E-05-9.36196E-06 1.16556E-18-8.19211E-20
 -1       765 9.51833E-05-2.79118E-05-2.88299E-05-8.32627E-06 2.49768E-19-6.50207E-19
 -1       766 9.45054E-05-2.69331E-05-2.89592E-05-7.20162E-06 2.21189E-19 1.02648E-18
 -1       767 9.42535E-05-2.65054E-05-2.90348E-05-6.09446E-06 1.20749E-19 7.50127E-19
 -1       768 9.42376E-05-2.64253E-05-2.90625E-05-5.05969E-06 7.01000E-19-2.14904E-19
 -1       769 9.43389E-05-2.65472E-05-2.90538E-05-4.12585E-06 1.34021E-18-6.60322E-19
 -1       770 9.44866E-05-2.67727E-05-2.90205E-05-3.30619E-06 1.88571E-20-1.25752E-19
 -1       771 9.46417E-05-2.70387E-05-2.89729E-05-2.60390E-06-2.51600E-19 8.79933E-19
 -1       772 9.47840E-05-2.73066E-05-2.89190E-05-2.01513E-06-1.50888E-18 5.87035E-19
 -1       773 9.49052E-05-2.75551E-05-2.88645E-05-1.53133E-06-4.15561E-19 1.53651E-19
 -1       774 9.50031E-05-2.77736E-05-2.88128E-05-1.14124E-06-1.00346E-18 5.92379E-19
 -1       775 9.50793E-05-2.79586E-05-2.87661E-05-8.32421E-07-4.84719E-19 1.34693E-18
 -1       776 9.51365E-05-2.81106E-05-2.87255E-05-5.92301E-07-6.34530E-19-1.97114E-20
 -1       777 9.51780E-05-2.82324E-05-2.86910E-05-4.08950E-07-3.43939E-19 2.11566E-18
 -1       778 9.52070E-05-2.83278E-05-2.86626E-05-2.71543E-07 4.35631E-19 1.59847E-18
 -1       779 9.52265E-05-2.84009E-05-2.86395E-05-1.70604E-07 2.83629E-18 1.27969E-19
 -1       780 9.52387E-05-2.84558E-05-2.86213E-05-9.80775E-08 1.98396E-18-3.81939E-19
 -1       781 9.52458E-05-2.84962E-05-2.86070E-05-4.72922E-08 1.22439E-20 3.33373E-19
 -1       782 9.52492E-05-2.85252E-05-2.85960E-05-1.28559E-08-1.63951E-18 2.47275E-18
 -1       783 9.52502E-05-2.85457E-05-2.85876E-05 9.48342E-09 1.40042E-18-1.28259E-19
 -1       784 9.52497E-05-2.85601E-05-2.85813E-05 2.29898E-08 2.16257E-18-1.49999E-18
 -1       785 9.52484E-05-2.85701E-05-2.85764E-05 3.00955E-08 4.07424E-19-2.71147E-18
 -1       786 9.52471E-05-2.85778E-05-2.85726E-05 3.25327E-08-1.85181E-18-3.19602E-18
 -1       787 1.28015E-04-4.87335E-05-3.40338E-05 6.14161E-06 6.63531E-20-4.23998E-18
 -1       788 9.72381E-05-4.39090E-05-2.27311E-05-2.81409E-05 1.76626E-18-7.45683E-19
 -1       789 1.12106E-04-4.53037E-05-2.85782E-05-1.32149E-05-1.38346E-18-5.55128E-19
 -1       790 1.08968E-04-4.24347E-05-2.85444E-05 1.22371E-05-2.15976E-18-2.33297E-18
 -1       791 1.02052E-04-3.57213E-05-2.84218E-05 1.31306E-05-1.85832E-18-1.28411E-18
 -1       792 9.80574E-05-3.11578E-05-2.86697E-05 1.24331E-05-1.54575E-18-8.83842E-21
 -1       793 9.59087E-05-2.83624E-05-2.89483E-05 1.11662E-05-9.20923E-19 1.73850E-18
 -1       794 9.49110E-05-2.68787E-05-2.91564E-05 9.72835E-06-6.92042E-19 1.58894E-18
 -1       795 9.45493E-05-2.62439E-05-2.92733E-05 8.29161E-06-3.38277E-19 4.56078E-19
 -1       796 9.45059E-05-2.61135E-05-2.93106E-05 6.93613E-06-1.05036E-18 5.91556E-19
 -1       797 9.45991E-05-2.62556E-05-2.92897E-05 5.70326E-06-1.98611E-19 1.50446E-18
 -1       798 9.47331E-05-2.65244E-05-2.92320E-05 4.61210E-06 4.18311E-19-7.94819E-20
 -1       799 9.48640E-05-2.68356E-05-2.91548E-05 3.66839E-06 4.23144E-19-4.12103E-19
 -1       800 9.49751E-05-2.71433E-05-2.90705E-05 2.87025E-06 2.46942E-19-4.13464E-19
 -1       801 9.50616E-05-2.74237E-05-2.89875E-05 2.20867E-06 4.10114E-19 8.62207E-19
 -1       802 9.51255E-05-2.76670E-05-2.89106E-05 1.67016E-06-7.18873E-19 4.72007E-19
 -1       803 9.51710E-05-2.78715E-05-2.88425E-05 1.23951E-06 3.39679E-19-1.29662E-19
 -1       804 9.52022E-05-2.80391E-05-2.87841E-05 9.00985E-07 9.55445E-19-1.69154E-18
 -1       805 9.52228E-05-2.81736E-05-2.87353E-05 6.39327E-07 2.27586E-18-6.99196E-19
 -1       806 9.52357E-05-2.82796E-05-2.86954E-05 4.40501E-07 1.28615E-18-7.31738E-19
 -1       807 9.52433E-05-2.83617E-05-2.86635E-05 2.92089E-07-7.28793E-19 9.70833E-19
 -1       808 9.52472E-05-2.84242E-05-2.86384E-05 1.83416E-07-1.84397E-19 1.96913E-18
 -1       809 9.52488E-05-2.84710E-05-2.86191E-05 1.05538E-07 5.01321E-19 5.32314E-19
 -1       810 9.52488E-05-2.85053E-05-2.86044E-05 5.11164E-08 1.10262E-18-1.58809E-18
 -1       811 9.52480E-05-2.85301E-05-2.85934E-05 1.42561E-08 3.60805E-19-1.07635E-18
 -1       812 9.52467E-05-2.85477E-05-2.85853E-05-9.65688E-09 2.79288E-18-2.56465E-18
 -1       813 9.52452E-05-2.85601E-05-2.85793E-05-2.40928E-08 2.36319E-18-4.11162E-18
 -1       814 9.52439E-05-2.85688E-05-2.85750E-05-3.17762E-08 1.07871E-18-4.01068E-18
 -1       815 9.52429E-05-2.85754E-05-2.85718E-05-3.44267E-08-1.44660E-19-2.78350E-18
 -1       816 9.52433E-05-2.85793E-05-2.85703E-05-3.39035E-08-4.29088E-21-5.22899E-18
 -1       817 5.76921E-05-1.82426E-05-1.66319E-05-2.00705E-05-1.49733E-18-5.57258E-18
 -1       818 8.27425E-05-1.21493E-05-3.02549E-05-4.41667E-07 7.67038E-19-3.67653E-18
 -1       819 1.09889E-04-5.10021E-05-2.51400E-05 2.46280E-05 2.25438E-18-1.23249E-18
 -1       820 4.39584E-05-1.25915E-05-1.30190E-05 9.25067E-06-1.11148E-18 4.27246E-18
 -1       821 9.52614E-05-2.85810E-05-2.85773E-05 2.15902E-10 3.00863E-18-1.18547E-18
 -1       822 9.52541E-05-2.85803E-05-2.85745E-05 2.60858E-08 1.41492E-18-1.13539E-18
 -1       823 9.52607E-05-2.85810E-05-2.85770E-05 9.34511E-09 2.10807E-18-1.28365E-18
 -1       824 5.88942E-05-1.89469E-05-1.68629E-05 2.12725E-05 1.64014E-18-4.66858E-18
 -1       825 1.17880E-04-5.01752E-05-2.90041E-05 1.03281E-05-2.51319E-18-2.32526E-18
 -1       826 8.56664E-05-3.77397E-05-2.03913E-05 3.17803E-05 2.79696E-18-2.60901E-18
 -1       827 1.08165E-04-4.79889E-05-2.57112E-05-2.28092E-05-2.48070E-18-3.20736E-19
 -1       828 1.04130E-04-3.77913E-05-2.84367E-05-1.44905E-05-8.15952E-19-1.33802E-18
 -1       829 9.52583E-05-2.85809E-05-2.85761E-05 1.82102E-08-6.16338E-19 3.45174E-19
 -1       830 8.12456E-05-3.25636E-05-2.06970E-05-2.86958E-05-2.58455E-18-2.78617E-18
 -1       831 9.92347E-05-3.20566E-05-2.87924E-05-1.35955E-05-3.90777E-19-1.61657E-18
 -1       832 6.54321E-05-2.38156E-05-1.75629E-05 2.54074E-05-2.22297E-18 1.75364E-18
 -1       833 9.51486E-05-2.26313E-05-3.10780E-05-4.04269E-06 1.90267E-18-2.13632E-18
 -1       834 6.65527E-05-2.55643E-05-1.73657E-05-2.74302E-05 2.07346E-18 1.55956E-18
 -1       835 9.65722E-05-2.81465E-05-2.93250E-05-1.17451E-05 1.91036E-19-1.83403E-18
 -1       836 3.93927E-05-1.19758E-05-1.12315E-05-1.78325E-06-5.52517E-19-7.17463E-18
 -1       837 1.20836E-04-5.46547E-05-2.82939E-05-1.38595E-05 2.09108E-18-1.77523E-18
 -1       838 1.25248E-04-5.23469E-05-3.12340E-05-3.43971E-06-1.23127E-18 8.30700E-19
 -1       839 5.17425E-05-1.30696E-05-1.62867E-05 8.73106E-06 6.83198E-19-5.61829E-18
 -1       840 8.24168E-05-1.19345E-05-3.02072E-05 9.66397E-07 4.21378E-19-3.82977E-18
 -1       841 8.79155E-05-1.61952E-05-3.07353E-05-2.61341E-06 1.67230E-18-3.03955E-18
 -1       842 9.52544E-05-2.85805E-05-2.85745E-05-2.59342E-08-9.15989E-20 5.19188E-19
 -1       843 1.26626E-04-4.04672E-05-3.70891E-05 1.27147E-05-9.71891E-19-4.01441E-18
 -1       844 1.20506E-04-5.42483E-05-2.82411E-05 1.52754E-05 1.04293E-18 4.52223E-19
 -1       845 8.46595E-05-1.36212E-05-3.04461E-05-1.73183E-06 1.26780E-18-3.27044E-18
 -1       846 9.52586E-05-2.85811E-05-2.85761E-05-1.80342E-08 1.05213E-18 2.03281E-18
 -1       847 9.52608E-05-2.85811E-05-2.85770E-05-9.07997E-09 2.24313E-18 4.35271E-19
 -1       848 7.69127E-05-2.77479E-05-2.09314E-05 2.54360E-05 2.14080E-18-2.96696E-18
 -1       849 4.99772E-05-1.26866E-05-1.56718E-05-6.18615E-06-6.36002E-19-5.91085E-18
 -1       850 9.57068E-05-2.45995E-05-3.04746E-05-7.20880E-06 1.21690E-18-2.12418E-18
 -1       851 9.59145E-05-2.61010E-05-2.99205E-05-9.59786E-06 7.62695E-19-1.94078E-18
 -1       852 5.92040E-05-1.83732E-05-1.72325E-05-1.90389E-05 1.20541E-18 1.70440E-18
 -1       853 9.40872E-05-2.21033E-05-3.08505E-05 3.50617E-06-1.37239E-18-2.45096E-18
 -1       854 8.62439E-05-1.50193E-05-3.05269E-05 2.79794E-06-4.52689E-19-3.64623E-18
 -1       855 8.96786E-05-1.77973E-05-3.08088E-05 2.89235E-06-9.60060E-19-2.90763E-18
 -1       856 9.50624E-05-3.60845E-05-2.52070E-05-2.19996E-05-1.72981E-18-1.44185E-18
 -1       857 8.39590E-05-3.15075E-05-2.24256E-05-2.37852E-05 1.85208E-18 1.08817E-19
 -1       858 9.33763E-05-2.64671E-05-2.86751E-05 1.04561E-05-6.04841E-20-2.22086E-18
 -1       859 9.57238E-05-3.05358E-05-2.79366E-05 1.30720E-05 2.83459E-19-2.02143E-18
 -1       860 9.99310E-05-3.60787E-05-2.73637E-05 1.53128E-05 8.90110E-19-1.48816E-18
 -1       861 1.07172E-04-4.34070E-05-2.72862E-05 1.63722E-05 1.64115E-18-9.78621E-19
 -1       862 9.10416E-05-2.94282E-05-2.64074E-05-1.76012E-05-8.60038E-19-1.89792E-18
 -1       863 1.08624E-04-4.53692E-05-2.70445E-05-1.55760E-05 1.20694E-18-1.55210E-18
 -1       864 1.00699E-04-3.80697E-05-2.68221E-05-1.54131E-05 1.00614E-18-1.25697E-18
 -1       865 9.57672E-05-3.25190E-05-2.71027E-05-1.36487E-05 1.60825E-18-1.32837E-18
 -1       866 9.31153E-05-2.88617E-05-2.75342E-05-1.15708E-05 8.61454E-19-5.95798E-19
 -1       867 9.19445E-05-2.67126E-05-2.79534E-05-9.65317E-06 7.30550E-19-2.63639E-19
 -1       868 9.16279E-05-2.55982E-05-2.82963E-05-7.99159E-06 8.15680E-19-5.11411E-19
 -1       869 9.17814E-05-2.51654E-05-2.85483E-05-6.57344E-06 5.64588E-19-9.83093E-19
 -1       870 9.21675E-05-2.51592E-05-2.87169E-05-5.36652E-06-1.56339E-19-4.36185E-19
 -1       871 9.26424E-05-2.54000E-05-2.88176E-05-4.34035E-06 7.21875E-19-4.97389E-19
 -1       872 9.31245E-05-2.57673E-05-2.88669E-05-3.47108E-06 9.77291E-19-1.17033E-18
 -1       873 9.35692E-05-2.61816E-05-2.88801E-05-2.74091E-06 6.37218E-19-6.08752E-19
 -1       874 9.39559E-05-2.65934E-05-2.88694E-05-2.13409E-06-3.65853E-19-7.40468E-20
 -1       875 9.42784E-05-2.69743E-05-2.88444E-05-1.63631E-06-1.25217E-18 9.53100E-19
 -1       876 9.45388E-05-2.73101E-05-2.88121E-05-1.23369E-06-1.95513E-18 5.93980E-19
 -1       877 9.47432E-05-2.75958E-05-2.87773E-05-9.12901E-07-1.46800E-19 8.97677E-19
 -1       878 9.48997E-05-2.78320E-05-2.87432E-05-6.61308E-07-4.12833E-19 2.07491E-18
 -1       879 9.50164E-05-2.80226E-05-2.87115E-05-4.67163E-07 1.35722E-18 2.52880E-18
 -1       880 9.51013E-05-2.81730E-05-2.86835E-05-3.19865E-07-5.71544E-19 2.96724E-18
 -1       881 9.51611E-05-2.82892E-05-2.86593E-05-2.10105E-07 4.24896E-19 2.24713E-18
 -1       882 9.52018E-05-2.83772E-05-2.86390E-05-1.29911E-07 1.40439E-18 4.25054E-19
 -1       883 9.52281E-05-2.84425E-05-2.86224E-05-7.26106E-08 1.78944E-18-4.67424E-19
 -1       884 9.52440E-05-2.84899E-05-2.86089E-05-3.27394E-08 6.22836E-19-3.39211E-19
 -1       885 9.52525E-05-2.85235E-05-2.85981E-05-5.92443E-09-4.35747E-19 2.06449E-19
 -1       886 9.52560E-05-2.85470E-05-2.85896E-05 1.12527E-08 3.61467E-20 7.07854E-19
 -1       887 9.52562E-05-2.85633E-05-2.85827E-05 2.14368E-08-7.12065E-19-2.35936E-18
 -1       888 9.52553E-05-2.85724E-05-2.85783E-05 2.51029E-08-1.50747E-18-2.64287E-18
 -1       889 9.52494E-05-2.85804E-05-2.85724E-05-3.07272E-08-4.57236E-19-3.57955E-19
 -1       890 9.63647E-05-3.55625E-05-2.60231E-05 1.85450E-05-2.65700E-18-1.13391E-19
 -1       891 9.03910E-05-2.49585E-05-2.80430E-05 1.05490E-05-1.19131E-18-1.76534E-18
 -1       892 9.07606E-05-2.43575E-05-2.84586E-05 8.73183E-06-3.09945E-19-3.84885E-19
 -1       893 9.13950E-05-2.43572E-05-2.87305E-05 7.21274E-06-5.91745E-19 2.06103E-20
 -1       894 9.20910E-05-2.46836E-05-2.88889E-05 5.92201E-06-7.47530E-19-1.29401E-18
 -1       895 9.27444E-05-2.51583E-05-2.89655E-05 4.81644E-06 5.49212E-19-2.17454E-18
 -1       896 9.33119E-05-2.56758E-05-2.89869E-05 3.86890E-06 1.22363E-19-1.16564E-18
 -1       897 9.37848E-05-2.61817E-05-2.89728E-05 3.06431E-06 6.95349E-20-3.17970E-19
 -1       898 9.41644E-05-2.66418E-05-2.89383E-05 2.39166E-06-1.39877E-19-3.07857E-20
 -1       899 9.44612E-05-2.70424E-05-2.88938E-05 1.83666E-06 7.76154E-19-6.17991E-19
 -1       900 9.46892E-05-2.73813E-05-2.88463E-05 1.38611E-06 3.43291E-19-1.94545E-18
 -1       901 9.48607E-05-2.76608E-05-2.88000E-05 1.02655E-06 9.69940E-19-2.31072E-18
 -1       902 9.49872E-05-2.78867E-05-2.87574E-05 7.44248E-07 1.15900E-18-1.25272E-18
 -1       903 9.50787E-05-2.80658E-05-2.87198E-05 5.26249E-07 7.93716E-19-1.72159E-19
 -1       904 9.51434E-05-2.82055E-05-2.86877E-05 3.60779E-07-9.95606E-19 1.68800E-18
 -1       905 9.51878E-05-2.83125E-05-2.86609E-05 2.37440E-07-6.00991E-20 1.02452E-18
 -1       906 9.52173E-05-2.83930E-05-2.86390E-05 1.47300E-07 6.34523E-19 1.10970E-18
 -1       907 9.52359E-05-2.84526E-05-2.86214E-05 8.28794E-08 2.60685E-18 3.36511E-19
 -1       908 9.52467E-05-2.84957E-05-2.86076E-05 3.80445E-08 1.03171E-18-7.84355E-19
 -1       909 9.52521E-05-2.85264E-05-2.85967E-05 7.83514E-09 2.15185E-18-1.98245E-18
 -1       910 9.52539E-05-2.85479E-05-2.85883E-05-1.15835E-08 3.81593E-18 2.97220E-19
 -1       911 9.52535E-05-2.85625E-05-2.85818E-05-2.31793E-08 1.08833E-18 1.15070E-18
 -1       912 9.22205E-05-2.98408E-05-2.67312E-05 1.54589E-05-2.02661E-18-1.30239E-18
 -1       913 9.06670E-05-2.65840E-05-2.74645E-05 1.27578E-05-1.96749E-18-1.66834E-18
 -1       914 9.52632E-05-2.85694E-05-2.85831E-05 4.31877E-09 1.23283E-18-1.83601E-18
 -1       915 8.35433E-05-3.00597E-05-2.28651E-05 2.20116E-05-2.60129E-18 4.97890E-19
 -1       916 9.85682E-05-4.09251E-05-2.46148E-05 2.37641E-05 2.25825E-18-1.89506E-18
 -1       917 5.99032E-05-1.57016E-05-1.87788E-05 1.15572E-05-3.02444E-19 2.18563E-18
 -1       918 5.26599E-05-1.27239E-05-1.68844E-05-3.52018E-06 5.42243E-19 1.93102E-18
 -1       919 6.26514E-05-1.63444E-05-1.97060E-05 1.38694E-05 1.16404E-18-4.45894E-18
 -1       920 9.20946E-05-2.33386E-05-2.94659E-05 7.72484E-06-3.80983E-19-2.20542E-18
 -1       921 8.36816E-05-1.29656E-05-3.03074E-05 2.13311E-06-7.68937E-20-3.83316E-18
 -1       922 9.23890E-05-2.17170E-05-3.02855E-05-6.28850E-06 1.39212E-18-2.26904E-18
 -1       923 8.93874E-05-2.50955E-05-2.75557E-05-1.36629E-05 6.41975E-21-2.13363E-18
 -1       924 7.28131E-05-2.28416E-05-2.12847E-05-2.06672E-05-1.48586E-18-3.39906E-18
 -1       925 9.52602E-05-2.85717E-05-2.85808E-05 1.74173E-08 6.85399E-20 9.18962E-19
 -1       926 9.08724E-05-2.05858E-05-3.01221E-05 5.30306E-06-8.42115E-19-2.37750E-18
 -1       927 9.52633E-05-2.85695E-05-2.85831E-05-3.97247E-09 8.76421E-19 5.88150E-20
 -1       928 9.52517E-05-2.85729E-05-2.85767E-05-2.89373E-08 6.59976E-19-2.20353E-19
 -1       929 8.28672E-05-1.42772E-05-2.93966E-05-2.30208E-06 7.61705E-19-3.03375E-18
 -1       930 7.46982E-05-2.16340E-05-2.26881E-05 1.59857E-05-9.45732E-19-9.88397E-19
 -1       931 5.95329E-05-1.31570E-05-1.97266E-05-4.40087E-07 1.06228E-19-4.79096E-18
 -1       932 6.25182E-05-1.56978E-05-1.99703E-05-1.18316E-05-7.75154E-19-4.68405E-18
 -1       933 8.98559E-05-2.31370E-05-2.85922E-05-1.07399E-05 2.26094E-19-2.18642E-18
 -1       934 8.16144E-05-1.33736E-05-2.92460E-05 1.57668E-07 5.36684E-19-3.72201E-18
 -1       935 9.52592E-05-2.85719E-05-2.85803E-05-2.02652E-08 1.30019E-18 7.44356E-19
 -1       936 8.48137E-05-1.59235E-05-2.95239E-05 4.27640E-06-1.06347E-19-3.50091E-18
 -1       937 9.52621E-05-2.85705E-05-2.85821E-05 1.09871E-08 1.33272E-18-2.75575E-18
 -1       938 8.76762E-05-1.81270E-05-2.98044E-05 5.08577E-06-3.18335E-19-3.07095E-18
 -1       939 6.82095E-05-2.00472E-05-2.05242E-05-1.69219E-05 1.37588E-18 8.02713E-19
 -1       940 8.01432E-05-2.50012E-05-2.36156E-05-1.71675E-05 1.34497E-18 6.20048E-19
 -1       941 8.98846E-05-2.87841E-05-2.61894E-05 1.64869E-05 7.87469E-19-1.99345E-18
 -1       942 9.30244E-05-3.39879E-05-2.52828E-05 2.03814E-05 1.37345E-18-2.11681E-18
 -1       943 8.84971E-05-2.46559E-05-2.73599E-05 1.23952E-05 2.30350E-19-2.06632E-18
 -1       944 8.58220E-05-1.64997E-05-2.97140E-05-4.33719E-06 1.06768E-18-2.90859E-18
 -1       945 8.14700E-05-2.28463E-05-2.51335E-05-1.23753E-05 1.43199E-18 1.16434E-19
 -1       946 8.31836E-05-2.19654E-05-2.62433E-05-9.08027E-06 9.32594E-19-8.32560E-19
 -1       947 8.49598E-05-2.18120E-05-2.70681E-05-6.77826E-06-2.57130E-19-5.25191E-19
 -1       948 8.66247E-05-2.20801E-05-2.76654E-05-5.14861E-06-2.16992E-19-1.21222E-19
 -1       949 8.81466E-05-2.26175E-05-2.80867E-05-3.95405E-06 2.77803E-19-7.70018E-19
 -1       950 8.94883E-05-2.32846E-05-2.83747E-05-3.05989E-06 3.36716E-19-2.16876E-18
 -1       951 9.06577E-05-2.40127E-05-2.85632E-05-2.37344E-06 1.13177E-19-1.97463E-18
 -1       952 9.16477E-05-2.47317E-05-2.86790E-05-1.83665E-06 1.38580E-18-1.18349E-18
 -1       953 9.24728E-05-2.54075E-05-2.87428E-05-1.41226E-06 1.25407E-18-1.00094E-18
 -1       954 9.31472E-05-2.60156E-05-2.87711E-05-1.07664E-06 2.29360E-19-5.48901E-19
 -1       955 9.36884E-05-2.65457E-05-2.87758E-05-8.11273E-07 7.17094E-19 4.99176E-19
 -1       956 9.41148E-05-2.69953E-05-2.87657E-05-6.02845E-07 5.60583E-19 1.06003E-18
 -1       957 9.44443E-05-2.73676E-05-2.87473E-05-4.40624E-07-2.95436E-20-1.18462E-19
 -1       958 9.46940E-05-2.76693E-05-2.87250E-05-3.15699E-07 2.27246E-19-1.14725E-18
 -1       959 9.48794E-05-2.79090E-05-2.87017E-05-2.20682E-07 7.70665E-19-2.25309E-18
 -1       960 9.50137E-05-2.80957E-05-2.86792E-05-1.49429E-07 6.60567E-19-1.50784E-18
 -1       961 9.51085E-05-2.82384E-05-2.86586E-05-9.68473E-08-6.30287E-19-9.23597E-19
 -1       962 9.51732E-05-2.83454E-05-2.86405E-05-5.87528E-08-1.18334E-18-2.35284E-18
 -1       963 9.52154E-05-2.84239E-05-2.86249E-05-3.17601E-08-1.92216E-19-3.91965E-18
 -1       964 9.52411E-05-2.84803E-05-2.86118E-05-1.31189E-08 7.17605E-19-2.36540E-18
 -1       965 9.52553E-05-2.85201E-05-2.86008E-05-7.32437E-10 3.78568E-19-2.76224E-18
 -1       966 9.52615E-05-2.85478E-05-2.85916E-05 7.15247E-09 2.08255E-19-3.58990E-18
 -1       967 8.93008E-05-2.30217E-05-2.84057E-05 5.46821E-06 2.44630E-19-2.06316E-18
 -1       968 9.52600E-05-2.85551E-05-2.85878E-05-1.38050E-08 4.89672E-19 2.04438E-19
 -1       969 8.79004E-05-2.24611E-05-2.80461E-05 6.70859E-06-9.49926E-19-1.60761E-18
 -1       970 8.63527E-05-2.21765E-05-2.75062E-05 8.29635E-06-1.59705E-18-2.60822E-18
 -1       971 9.05247E-05-2.37177E-05-2.86317E-05 4.46177E-06 4.12750E-19-1.66131E-18
 -1       972 9.15609E-05-2.44450E-05-2.87642E-05 3.61424E-06-1.48058E-19-2.79061E-18
 -1       973 9.24125E-05-2.51388E-05-2.88317E-05 2.89206E-06-5.05223E-19-2.82515E-18
 -1       974 9.31093E-05-2.57821E-05-2.88547E-05 2.28935E-06-4.34775E-19-2.58743E-18
 -1       975 9.36567E-05-2.63396E-05-2.88505E-05 1.78340E-06 7.63985E-19-2.42993E-18
 -1       976 9.40880E-05-2.68185E-05-2.88300E-05 1.36652E-06 8.77612E-19-2.79452E-18
 -1       977 9.44193E-05-2.72175E-05-2.88009E-05 1.02909E-06 1.11992E-18-3.67352E-18
 -1       978 9.46697E-05-2.75432E-05-2.87686E-05 7.59922E-07 5.49700E-19-3.69274E-18
 -1       979 9.48558E-05-2.78041E-05-2.87365E-05 5.48722E-07-4.12097E-19-3.19946E-18
 -1       980 9.49915E-05-2.80096E-05-2.87066E-05 3.85837E-07-4.75683E-19-2.61774E-18
 -1       981 9.50883E-05-2.81687E-05-2.86799E-05 2.62438E-07-6.66990E-19-2.88348E-18
 -1       982 9.51555E-05-2.82897E-05-2.86568E-05 1.70698E-07-3.64787E-20-2.35393E-18
 -1       983 9.52005E-05-2.83801E-05-2.86374E-05 1.03872E-07 1.66508E-18-7.45856E-19
 -1       984 9.52293E-05-2.84464E-05-2.86213E-05 5.63242E-08 2.42421E-18-1.62625E-19
 -1       985 9.52463E-05-2.84938E-05-2.86082E-05 2.35916E-08 2.12644E-18 5.00931E-19
 -1       986 9.52553E-05-2.85275E-05-2.85976E-05 1.53649E-09 1.37337E-18 4.90254E-19
 -1       987 8.34895E-05-2.36669E-05-2.56383E-05 1.34769E-05-1.51294E-18-1.96272E-18
 -1       988 8.48240E-05-2.24608E-05-2.67288E-05 1.04467E-05-1.20895E-18-2.58215E-18
 -1       989 8.23408E-05-1.39810E-05-2.92965E-05 2.53147E-06 2.73437E-19-3.59995E-18
 -1       990 9.52620E-05-2.85704E-05-2.85821E-05-1.21255E-08 8.52189E-19 9.09476E-19
 -1       991 7.57749E-05-2.19593E-05-2.30215E-05 1.74302E-05 1.10963E-18-2.98534E-18
 -1       992 8.42985E-05-2.64240E-05-2.47914E-05 1.69224E-05-1.19452E-18-6.33767E-19
 -1       993 8.80440E-05-2.16512E-05-2.84629E-05 8.98851E-06-6.81208E-20-2.26793E-18
 -1       994 9.12525E-05-2.23742E-05-2.95155E-05-8.53138E-06 8.14576E-19-2.26304E-18
 -1       995 7.82893E-05-2.05550E-05-2.47062E-05-1.43332E-05-6.71906E-19-2.75994E-18
 -1       996 6.17858E-05-1.47630E-05-2.00694E-05-6.18138E-06 3.31983E-19 1.23435E-18
 -1       997 6.43795E-05-1.51672E-05-2.10410E-05 5.82477E-06-3.65497E-19 2.30672E-18
 -1       998 6.67478E-05-1.48852E-05-2.21813E-05 6.46933E-06 5.90015E-19-4.13072E-18
 -1       999 8.24556E-05-1.62981E-05-2.83536E-05 5.22234E-06 2.37408E-19-3.15360E-18
 -1      1000 7.22938E-05-1.90038E-05-2.28048E-05-1.13475E-05 9.43786E-19-3.80239E-19
 -1      1001 9.52621E-05-2.85510E-05-2.85905E-05-7.68840E-09 4.74395E-19 1.50964E-18
 -1      1002 9.52632E-05-2.85537E-05-2.85898E-05 2.42207E-10 8.47818E-19-1.18241E-18
 -1      1003 6.49973E-05-1.40917E-05-2.17516E-05-2.74891E-06-3.55096E-20-4.23472E-18
 -1      1004 8.03518E-05-1.45966E-05-2.81826E-05-1.77725E-06 5.44427E-19-3.29814E-18
 -1      1005 8.36755E-05-1.99711E-05-2.73043E-05-1.01712E-05-3.70126E-20-2.52137E-18
 -1      1006 8.78944E-05-1.98692E-05-2.91562E-05 7.00112E-06-2.47022E-19-2.73932E-18
 -1      1007 8.30587E-05-1.65039E-05-2.85199E-05-5.13295E-06 5.15905E-19-2.76041E-18
 -1      1008 9.52628E-05-2.85547E-05-2.85891E-05 4.89776E-09 1.27856E-18-1.59334E-18
 -1      1009 8.16689E-05-2.16620E-05-2.56966E-05 1.30249E-05 4.08942E-19-2.88917E-18
 -1      1010 8.02067E-05-1.45760E-05-2.81280E-05 1.98972E-06 3.98886E-19-3.52506E-18
 -1      1011 7.77120E-05-1.90766E-05-2.51255E-05-6.73134E-06 3.32329E-19-1.58813E-18
 -1      1012 8.10531E-05-1.97001E-05-2.62939E-05-4.74284E-06 5.70255E-19-2.13208E-18
 -1      1013 8.37717E-05-2.04609E-05-2.71347E-05-3.39814E-06 7.07306E-19-8.94771E-19
 -1      1014 8.59628E-05-2.12860E-05-2.77184E-05-2.48697E-06-3.80611E-20-5.47855E-19
 -1      1015 8.77970E-05-2.21787E-05-2.81211E-05-1.85272E-06-7.99502E-19-1.59101E-18
 -1      1016 8.93610E-05-2.31018E-05-2.83962E-05-1.38048E-06-6.65350E-19-2.81497E-18
 -1      1017 9.06387E-05-2.39704E-05-2.85728E-05-1.02397E-06 1.17935E-18-2.36857E-18
 -1      1018 9.16858E-05-2.47700E-05-2.86786E-05-7.58304E-07 1.61729E-18-2.78952E-18
 -1      1019 9.25365E-05-2.54875E-05-2.87358E-05-5.65274E-07 2.12228E-18-2.72197E-18
 -1      1020 9.32190E-05-2.61130E-05-2.87601E-05-4.17599E-07 3.52237E-19-2.10312E-18
 -1      1021 9.37589E-05-2.66464E-05-2.87629E-05-3.06010E-07 8.51533E-19-2.36943E-18
 -1      1022 9.41784E-05-2.70902E-05-2.87524E-05-2.21863E-07 4.67089E-19-1.98494E-18
 -1      1023 9.44986E-05-2.74520E-05-2.87345E-05-1.58497E-07-9.16581E-19-2.53292E-18
 -1      1024 9.47386E-05-2.77415E-05-2.87132E-05-1.11057E-07-1.57699E-19-3.23249E-18
 -1      1025 9.49147E-05-2.79687E-05-2.86913E-05-7.58506E-08 8.97451E-19-4.18724E-18
 -1      1026 9.50410E-05-2.81438E-05-2.86703E-05-5.00165E-08 4.13795E-19-4.37801E-18
 -1      1027 9.51289E-05-2.82763E-05-2.86512E-05-3.13216E-08-1.37112E-18-3.32763E-18
 -1      1028 9.51879E-05-2.83745E-05-2.86343E-05-1.80074E-08-4.68885E-19-2.19497E-18
 -1      1029 9.52256E-05-2.84460E-05-2.86199E-05-8.81908E-09 1.17641E-18-8.24565E-19
 -1      1030 9.52478E-05-2.84968E-05-2.86076E-05-2.36512E-09 5.23356E-19-1.19865E-18
 -1      1031 8.97360E-05-2.32301E-05-2.85025E-05 2.82672E-06 9.69208E-19-1.78914E-18
 -1      1032 8.64532E-05-2.14268E-05-2.78629E-05 4.25539E-06-5.54274E-19-2.00361E-18
 -1      1033 8.82642E-05-2.23398E-05-2.82545E-05 3.46583E-06-2.26738E-19-1.20082E-18
 -1      1034 8.41438E-05-2.05025E-05-2.72754E-05 5.22348E-06-2.08884E-18-1.81870E-18
 -1      1035 9.52544E-05-2.85171E-05-2.86017E-05 3.49201E-09 1.71094E-18 1.28983E-18
 -1      1036 9.10036E-05-2.41262E-05-2.86588E-05 2.30570E-06 7.11312E-19-2.39495E-18
 -1      1037 9.19922E-05-2.49181E-05-2.87453E-05 1.84800E-06 1.78811E-21-3.71579E-18
 -1      1038 9.27748E-05-2.56098E-05-2.87849E-05 1.46386E-06 1.25120E-19-4.40548E-18
 -1      1039 9.34136E-05-2.62232E-05-2.87959E-05 1.14450E-06 1.01425E-18-4.41676E-18
 -1      1040 9.39108E-05-2.67385E-05-2.87881E-05 8.77734E-07 9.86121E-19-4.35434E-18
 -1      1041 9.42932E-05-2.71642E-05-2.87695E-05 6.60013E-07 1.07336E-18-4.11480E-18
 -1      1042 9.45826E-05-2.75093E-05-2.87457E-05 4.85828E-07-2.65311E-19-4.39594E-18
 -1      1043 9.47979E-05-2.77843E-05-2.87201E-05 3.49076E-07-1.50769E-18-3.37613E-18
 -1      1044 9.49549E-05-2.79996E-05-2.86951E-05 2.43699E-07-1.27821E-18-2.03836E-18
 -1      1045 9.50668E-05-2.81652E-05-2.86721E-05 1.64032E-07-1.36734E-19-8.59746E-19
 -1      1046 9.51444E-05-2.82904E-05-2.86517E-05 1.05003E-07 1.08232E-18-1.58529E-18
 -1      1047 9.51962E-05-2.83832E-05-2.86341E-05 6.22404E-08 9.78571E-19-7.22690E-19
 -1      1048 9.52290E-05-2.84506E-05-2.86192E-05 3.17033E-08 1.71524E-18 1.83328E-18
 -1      1049 9.52444E-05-2.84879E-05-2.86099E-05 1.53067E-08 1.37137E-18 1.96501E-18
 -1      1050 7.82138E-05-1.93404E-05-2.52166E-05 8.53195E-06-9.30562E-19-1.98597E-19
 -1      1051 8.14107E-05-1.97461E-05-2.64285E-05 6.53901E-06-9.82612E-19-7.26302E-19
 -1      1052 8.30689E-05-1.94565E-05-2.72620E-05 9.12977E-06 4.40102E-19-3.03721E-18
 -1      1053 7.56202E-05-1.78420E-05-2.47568E-05 9.90922E-06 5.43082E-19-3.17044E-18
 -1      1054 8.60958E-05-1.95996E-05-2.85064E-05-8.38709E-06 4.31867E-19-2.49917E-18
 -1      1055 7.62219E-05-1.99986E-05-2.40793E-05 1.16546E-05-3.30020E-19-8.07853E-19
 -1      1056 9.52629E-05-2.85517E-05-2.85905E-05-3.98218E-09 2.64038E-21 1.11282E-18
 -1      1057 7.63066E-05-1.63472E-05-2.57100E-05-6.81408E-06-3.67880E-20-3.22632E-18
 -1      1058 6.93005E-05-1.60118E-05-2.28067E-05-2.79980E-06-2.60941E-19 8.69431E-19
 -1      1059 7.89518E-05-1.61183E-05-2.69275E-05 5.33645E-06 3.84675E-19-3.20707E-18
 -1      1060 7.90757E-05-1.60059E-05-2.70233E-05-5.17287E-06 1.56020E-19-2.93791E-18
 -1      1061 9.52591E-05-2.85320E-05-2.85973E-05 1.66102E-09 1.66249E-19-4.68625E-19
 -1      1062 7.26372E-05-1.47081E-05-2.48210E-05 1.08902E-06 3.26329E-19-3.66896E-18
 -1      1063 9.52583E-05-2.85278E-05-2.85988E-05 2.74371E-10-7.05899E-19-9.98594E-19
 -1      1064 7.72539E-05-1.48228E-05-2.67525E-05 2.40913E-07 4.04355E-19-3.61839E-18
 -1      1065 7.25071E-05-1.68113E-05-2.38966E-05 4.34017E-06-9.56311E-19 1.73963E-18
 -1      1066 8.61366E-05-2.11365E-05-2.78624E-05 1.69057E-06-9.09060E-19-2.86369E-18
 -1      1067 7.74946E-05-1.78592E-05-2.55570E-05-1.22683E-06 1.60573E-19-3.50228E-20
 -1      1068 8.11799E-05-1.90654E-05-2.66202E-05-6.57817E-07 9.17103E-19-3.23737E-19
 -1      1069 8.40367E-05-2.01770E-05-2.73700E-05-3.19242E-07 4.58899E-19-1.78638E-18
 -1      1070 8.97677E-05-2.33207E-05-2.84769E-05 1.35295E-07 7.77185E-19-4.39242E-19
 -1      1071 9.10702E-05-2.42653E-05-2.86272E-05 1.49163E-07 1.06340E-18-1.00637E-19
 -1      1072 9.20148E-05-2.50351E-05-2.87054E-05 1.45447E-07 2.03126E-18-1.08545E-18
 -1      1073 9.28134E-05-2.57378E-05-2.87468E-05 1.42208E-07 1.31746E-18-2.26773E-18
 -1      1074 9.34484E-05-2.63395E-05-2.87610E-05 1.20839E-07 1.04196E-18-2.13910E-18
 -1      1075 9.39430E-05-2.68423E-05-2.87574E-05 9.85643E-08 2.38379E-19-1.75901E-18
 -1      1076 9.43227E-05-2.72547E-05-2.87434E-05 7.74003E-08-4.54995E-19-1.78556E-18
 -1      1077 9.46093E-05-2.75867E-05-2.87240E-05 5.86262E-08-9.92353E-19-1.21228E-18
 -1      1078 9.48216E-05-2.78492E-05-2.87025E-05 4.28177E-08-1.30220E-18-2.11978E-18
 -1      1079 9.49755E-05-2.80531E-05-2.86810E-05 3.00473E-08 1.27403E-19-3.46283E-18
 -1      1080 9.50842E-05-2.82086E-05-2.86610E-05 2.00841E-08 4.81061E-19-3.36499E-18
 -1      1081 9.51586E-05-2.83250E-05-2.86430E-05 1.25407E-08-9.48558E-20-1.10906E-18
 -1      1082 9.52074E-05-2.84104E-05-2.86273E-05 6.98545E-09 3.27250E-19-1.45260E-18
 -1      1083 9.52382E-05-2.84726E-05-2.86138E-05 3.01876E-09 1.37911E-18-2.25312E-18
 -1      1084 9.09463E-05-2.41640E-05-2.86282E-05 1.04728E-06 9.46241E-19-1.25497E-18
 -1      1085 9.52544E-05-2.85161E-05-2.86022E-05 1.95375E-09 8.34140E-19-1.70009E-19
 -1      1086 8.81489E-05-2.22676E-05-2.82342E-05 7.50840E-07-4.30345E-19-2.11435E-18
 -1      1087 9.52429E-05-2.84855E-05-2.86104E-05 8.61971E-09 1.96722E-18 3.30519E-19
 -1      1088 1.18217E-04 2.63804E-10-4.25883E-05-3.99577E-05-4.13352E-19 1.35642E-17
 -1      1089 9.13967E-05 7.95231E-11-3.82628E-05-2.14384E-05-2.35687E-19 1.83462E-18
 -1      1090 8.63813E-05 4.59949E-11-3.66501E-05-1.43014E-05-1.60407E-19-3.22291E-18
 -1      1091 8.36409E-05 3.30263E-11-3.55963E-05-9.86931E-06-1.02915E-19-5.66869E-18
 -1      1092 8.16235E-05 2.49184E-11-3.47977E-05-6.62479E-06-7.30566E-20-6.82961E-18
 -1      1093 8.00265E-05 1.90293E-11-3.41668E-05-4.19923E-06-4.31987E-20-7.36961E-18
 -1      1094 7.88066E-05 1.46714E-11-3.36868E-05-2.36846E-06-2.26317E-20-7.54061E-18
 -1      1095 7.80055E-05 1.18212E-11-3.33738E-05-9.43373E-07-4.42045E-21-7.56889E-18
 -1      1096 7.76964E-05 1.06094E-11-3.32550E-05 2.40977E-07 1.06872E-20-7.55670E-18
 -1      1097 7.79155E-05 1.11650E-11-3.33434E-05 1.38536E-06 3.23461E-20-7.41821E-18
 -1      1098 7.86613E-05 1.35657E-11-3.36380E-05 2.70339E-06 4.28810E-20-7.19551E-18
 -1      1099 7.98866E-05 1.77756E-11-3.41197E-05 4.39582E-06 6.67568E-20-6.67882E-18
 -1      1100 8.15465E-05 2.40039E-11-3.47740E-05 6.69382E-06 9.34913E-20-5.85492E-18
 -1      1101 8.36659E-05 3.27866E-11-3.56115E-05 9.87203E-06 1.29120E-19-4.34300E-18
 -1      1102 8.64834E-05 4.63658E-11-3.67080E-05 1.43093E-05 1.70889E-19-1.52418E-18
 -1      1103 9.12297E-05 7.51802E-11-3.83708E-05 2.11079E-05 2.00853E-19 3.96599E-18
 -1      1104 1.08397E-04 1.73293E-10-4.14383E-05 3.44939E-05 4.31563E-19 1.53872E-17
 -1      1105 1.31433E-04-2.63802E-05-4.09933E-05-2.51324E-05-1.70232E-18 2.10572E-17
 -1      1106 1.01852E-04-3.01995E-05-3.29219E-05-3.93118E-07-5.82441E-19 1.70562E-17
 -1      1107 9.71548E-05-2.91427E-05-2.99627E-05 4.65310E-07-2.44581E-19 1.12691E-17
 -1      1108 9.75092E-05-2.93600E-05-2.94208E-05 3.12760E-07-1.16659E-19 7.37829E-18
 -1      1109 9.94775E-05-2.99253E-05-2.98732E-05 2.38745E-07-6.34811E-20 4.81861E-18
 -1      1110 1.02265E-04-3.07222E-05-3.06756E-05 2.04742E-07-7.92100E-20 3.35023E-18
 -1      1111 1.05328E-04-3.16075E-05-3.15589E-05 1.79057E-07-5.32117E-20 2.06663E-18
 -1      1112 1.08114E-04-3.24140E-05-3.23385E-05 1.39287E-07-6.16382E-20 6.35751E-19
 -1      1113 1.09951E-04-3.29384E-05-3.28176E-05 6.41950E-08-1.13390E-20-6.14721E-19
 -1      1114 1.10068E-04-3.29529E-05-3.27860E-05-6.21792E-08-9.31273E-20-1.67984E-18
 -1      1115 1.07788E-04-3.22625E-05-3.20797E-05-2.36579E-07-1.18618E-20-3.07634E-18
 -1      1116 1.02905E-04-3.08155E-05-3.06827E-05-4.18221E-07 1.06336E-19-2.52760E-18
 -1      1117 9.61281E-05-2.88310E-05-2.88279E-05-5.23605E-07-2.56821E-20-2.70135E-18
 -1      1118 8.92722E-05-2.68430E-05-2.70111E-05-4.61349E-07 8.79492E-20-2.00456E-18
 -1      1119 8.47650E-05-2.55461E-05-2.58447E-05-2.07494E-07-2.10699E-20-1.91024E-18
 -1      1120 8.44825E-05-2.54678E-05-2.57823E-05 1.44469E-07-1.58276E-19-2.48039E-18
 -1      1121 8.86469E-05-2.66706E-05-2.68772E-05 4.32767E-07-2.12906E-19-3.59703E-18
 -1      1122 9.56966E-05-2.87167E-05-2.87549E-05 5.42271E-07 5.32382E-20-4.53581E-18
 -1      1123 1.03232E-04-3.09220E-05-3.08178E-05 4.71944E-07-8.26287E-20-5.70461E-18
 -1      1124 1.09241E-04-3.26990E-05-3.25282E-05 3.04519E-07 1.74998E-20-6.78013E-18
 -1      1125 1.12765E-04-3.37563E-05-3.35916E-05 1.30774E-07-3.54566E-19-7.66401E-18
 -1      1126 1.13835E-04-3.40923E-05-3.39730E-05 2.29650E-09-4.16237E-20-6.63161E-18
 -1      1127 1.13039E-04-3.38733E-05-3.38065E-05-7.02405E-08 9.63897E-20-5.86230E-18
 -1      1128 1.11103E-04-3.33112E-05-3.32860E-05-9.82722E-08-1.43515E-19-6.98512E-18
 -1      1129 1.08650E-04-3.25899E-05-3.25908E-05-9.86873E-08 1.96637E-20-6.73202E-18
 -1      1130 1.06116E-04-3.18398E-05-3.18538E-05-8.54741E-08-2.32620E-20-5.88614E-18
 -1      1131 1.03762E-04-3.11397E-05-3.11581E-05-6.76909E-08 5.17464E-20-5.65844E-18
 -1      1132 1.01717E-04-3.05288E-05-3.05470E-05-5.02355E-08-1.10726E-20-7.44085E-18
 -1      1133 1.00021E-04-3.00206E-05-3.00363E-05-3.52643E-08-1.12107E-19-7.69359E-18
 -1      1134 9.86640E-05-2.96128E-05-2.96254E-05-2.33895E-08 2.57228E-19-6.02745E-18
 -1      1135 9.76106E-05-2.92954E-05-2.93050E-05-1.44689E-08-3.54992E-19-5.28203E-18
 -1      1136 9.68148E-05-2.90549E-05-2.90619E-05-8.05763E-09-1.04608E-19-4.77566E-18
 -1      1137 9.62292E-05-2.88774E-05-2.88823E-05-3.64053E-09 5.78199E-20-5.83598E-18
 -1      1138 9.58101E-05-2.87500E-05-2.87533E-05-7.37377E-10-6.36358E-20-6.88005E-18
 -1      1139 9.55197E-05-2.86614E-05-2.86635E-05 1.05734E-09 2.89769E-19-6.94748E-18
 -1      1140 9.53261E-05-2.86020E-05-2.86033E-05 2.06726E-09 1.89623E-19-3.02555E-18
 -1      1141 9.52039E-05-2.85643E-05-2.85650E-05 2.54108E-09-9.31616E-20-3.59743E-18
 -1      1142 9.51329E-05-2.85422E-05-2.85425E-05 2.66438E-09-1.92248E-20-2.13216E-18
 -1      1143 9.50978E-05-2.85310E-05-2.85310E-05 2.57214E-09-2.32138E-19-3.88263E-18
 -1      1144 9.50867E-05-2.85272E-05-2.85271E-05 2.36000E-09-2.02543E-19-5.26410E-18
 -1      1145 9.50914E-05-2.85282E-05-2.85280E-05 2.09380E-09-6.18210E-20-6.49544E-18
 -1      1146 9.51056E-05-2.85322E-05-2.85319E-05 1.81718E-09 1.18337E-19-5.59870E-18
 -1      1147 9.51250E-05-2.85378E-05-2.85376E-05 1.55737E-09-4.86392E-19-3.82624E-18
 -1      1148 9.51469E-05-2.85442E-05-2.85440E-05 1.32914E-09-2.00487E-19-2.38617E-18
 -1      1149 9.51691E-05-2.85508E-05-2.85506E-05 1.13664E-09 3.39264E-19-1.61650E-18
 -1      1150 9.51903E-05-2.85571E-05-2.85569E-05 9.72083E-10 2.71206E-19 6.58353E-19
 -1      1151 9.52094E-05-2.85627E-05-2.85625E-05 8.07436E-10 2.21177E-19 8.53024E-19
 -1      1152 9.52249E-05-2.85673E-05-2.85669E-05 5.62275E-10 7.38327E-20 4.11460E-18
 -1      1153 9.52348E-05-2.85702E-05-2.85699E-05 7.11103E-11 2.67958E-19 5.13107E-18
 -1      1154 9.52379E-05-2.85714E-05-2.85716E-05-2.94515E-10 3.60278E-19 2.87622E-18
 -1      1155 1.32108E-04-3.78815E-05-3.94698E-05 1.18696E-05-2.95773E-19 2.48303E-17
 -1      1156 1.01370E-04-2.96544E-05-3.27823E-05 6.90049E-07 1.59269E-19 1.96659E-17
 -1      1157 9.78980E-05-2.92189E-05-3.01204E-05 8.38054E-08 1.57237E-19 1.44728E-17
 -1      1158 9.84927E-05-2.95696E-05-2.97509E-05-8.08028E-09 1.22141E-19 1.07136E-17
 -1      1159 1.00989E-04-3.03382E-05-3.03769E-05-5.05574E-08 4.85307E-20 8.29425E-18
 -1      1160 1.04625E-04-3.14103E-05-3.14390E-05-8.95350E-08 2.37914E-20 6.92719E-18
 -1      1161 1.08917E-04-3.26702E-05-3.26930E-05-1.40243E-07 6.34166E-20 6.04702E-18
 -1      1162 1.13325E-04-3.39605E-05-3.39461E-05-2.01321E-07 2.39105E-20 5.36712E-18
 -1      1163 1.17051E-04-3.50473E-05-3.49491E-05-2.54178E-07-1.02216E-19 4.92915E-18
 -1      1164 1.18961E-04-3.56052E-05-3.53752E-05-2.56173E-07 1.06448E-19 4.01985E-18
 -1      1165 1.17732E-04-3.52580E-05-3.48850E-05-1.45959E-07 2.71911E-20 3.10125E-18
 -1      1166 1.12405E-04-3.37285E-05-3.32966E-05 1.16854E-07-8.72775E-20 3.46871E-18
 -1      1167 1.03352E-04-3.11021E-05-3.08183E-05 4.76429E-07 7.01002E-20 2.68435E-18
 -1      1168 9.30946E-05-2.80629E-05-2.81767E-05 7.42309E-07-1.53373E-19 1.68856E-18
 -1      1169 8.58538E-05-2.58257E-05-2.64111E-05 6.92252E-07 1.59944E-19-2.04844E-18
 -1      1170 8.52770E-05-2.55394E-05-2.63290E-05 2.92188E-07-1.14283E-20-4.42636E-18
 -1      1171 9.18071E-05-2.74345E-05-2.80090E-05-2.29879E-07-2.22710E-19-4.47360E-18
 -1      1172 1.02358E-04-3.06252E-05-3.07413E-05-5.78957E-07 1.89812E-19-4.33490E-18
 -1      1173 1.12566E-04-3.37511E-05-3.34852E-05-6.35836E-07 3.14507E-19-4.59187E-18
 -1      1174 1.19421E-04-3.58507E-05-3.54425E-05-4.82495E-07-5.73699E-20-3.10612E-18
 -1      1175 1.22132E-04-3.66738E-05-3.63171E-05-2.64939E-07 4.35759E-20-1.48662E-18
 -1      1176 1.21465E-04-3.64648E-05-3.62363E-05-8.25406E-08 1.91803E-19-2.54057E-18
 -1      1177 1.18715E-04-3.56273E-05-3.55205E-05 3.28878E-08 1.52767E-19-4.11478E-18
 -1      1178 1.15039E-04-3.45159E-05-3.44922E-05 8.91347E-08-4.12780E-20-4.89508E-18
 -1      1179 1.11228E-04-3.33687E-05-3.33899E-05 1.06059E-07 2.48688E-19-5.36775E-18
 -1      1180 1.07724E-04-3.23164E-05-3.23560E-05 1.01571E-07-9.86264E-20-3.85925E-18
 -1      1181 1.04719E-04-3.14155E-05-3.14585E-05 8.76913E-08-9.32716E-20-3.38779E-18
 -1      1182 1.02259E-04-3.06783E-05-3.07177E-05 7.12479E-08-2.07140E-19-3.77565E-18
 -1      1183 1.00310E-04-3.00944E-05-3.01275E-05 5.56012E-08-2.95604E-19-3.26192E-18
 -1      1184 9.88063E-05-2.96436E-05-2.96702E-05 4.21110E-08 1.11072E-19-2.78794E-18
 -1      1185 9.76715E-05-2.93034E-05-2.93240E-05 3.11060E-08 3.56515E-21-3.70766E-18
 -1      1186 9.68332E-05-2.90519E-05-2.90675E-05 2.24421E-08 1.01331E-19-4.81625E-18
 -1      1187 9.62276E-05-2.88701E-05-2.88817E-05 1.57947E-08-3.87633E-19-2.42936E-18
 -1      1188 9.58006E-05-2.87418E-05-2.87502E-05 1.08006E-08 1.28585E-19-2.11768E-18
 -1      1189 9.55083E-05-2.86539E-05-2.86599E-05 7.12108E-09-1.90053E-20-3.22750E-18
 -1      1190 9.53157E-05-2.85959E-05-2.86001E-05 4.46392E-09-2.11965E-20-4.02152E-18
 -1      1191 9.51954E-05-2.85596E-05-2.85624E-05 2.58764E-09 7.87915E-19-7.68788E-18
 -1      1192 9.51265E-05-2.85387E-05-2.85406E-05 1.29752E-09-3.05539E-20-4.79022E-18
 -1      1193 9.50931E-05-2.85285E-05-2.85297E-05 4.39459E-10 2.59964E-19-4.20119E-18
 -1      1194 9.50835E-05-2.85255E-05-2.85262E-05-1.06846E-10-1.60661E-19-2.02171E-18
 -1      1195 9.50892E-05-2.85271E-05-2.85274E-05-4.34243E-10-1.73487E-19 1.64791E-18
 -1      1196 9.51042E-05-2.85315E-05-2.85316E-05-6.13760E-10-2.73596E-20 2.63266E-18
 -1      1197 9.51241E-05-2.85374E-05-2.85374E-05-6.99445E-10 6.80971E-20-1.23856E-18
 -1      1198 9.51463E-05-2.85440E-05-2.85439E-05-7.32485E-10-8.19744E-20-1.85976E-18
 -1      1199 9.51688E-05-2.85507E-05-2.85506E-05-7.44027E-10-3.44750E-19 1.84616E-19
 -1      1200 9.51902E-05-2.85571E-05-2.85569E-05-7.55465E-10 3.88243E-19-2.79519E-18
 -1      1201 9.52093E-05-2.85628E-05-2.85625E-05-7.74060E-10-6.31347E-20-3.30748E-18
 -1      1202 9.52248E-05-2.85674E-05-2.85670E-05-7.59497E-10-2.94283E-19-2.55847E-18
 -1      1203 9.52349E-05-2.85704E-05-2.85700E-05-5.19317E-10 1.82271E-19-3.71897E-18
 -1      1204 9.52378E-05-2.85714E-05-2.85716E-05 2.52278E-10-1.48123E-20-2.66942E-18
 -1      1205 9.52369E-05-2.85704E-05-2.85716E-05 2.10953E-10-3.33346E-18-1.78169E-20
 -1      1206 9.52380E-05-2.85736E-05-2.85699E-05-6.26621E-11-1.58071E-18-3.84969E-19
 -1      1207 9.52408E-05-2.85832E-05-2.85672E-05-5.89574E-10 4.97079E-18 7.88501E-19
 -1      1208 9.52448E-05-2.85966E-05-2.85634E-05-7.23330E-10 2.61640E-18-6.04731E-19
 -1      1209 9.52490E-05-2.86109E-05-2.85593E-05-6.78545E-10 4.67044E-19-7.41005E-19
 -1      1210 9.52528E-05-2.86238E-05-2.85556E-05-5.44429E-10-3.09210E-18-1.19102E-19
 -1      1211 9.52558E-05-2.86339E-05-2.85527E-05-3.82858E-10-5.41063E-18 7.59448E-19
 -1      1212 9.52577E-05-2.86403E-05-2.85508E-05-1.93153E-10-5.83965E-18-5.36017E-19
 -1      1213 9.52584E-05-2.86425E-05-2.85502E-05 2.85179E-12-7.20414E-18-8.35622E-19
 -1      1214 9.52577E-05-2.86402E-05-2.85508E-05 1.98589E-10-8.31129E-18 2.95610E-19
 -1      1215 9.52558E-05-2.86337E-05-2.85527E-05 3.87022E-10-1.35678E-18-8.68427E-19
 -1      1216 9.52527E-05-2.86235E-05-2.85557E-05 5.55678E-10-4.90528E-18-2.36048E-19
 -1      1217 9.52489E-05-2.86106E-05-2.85594E-05 6.78406E-10-8.86088E-18-1.14957E-18
 -1      1218 9.52447E-05-2.85963E-05-2.85635E-05 7.31277E-10-9.68623E-18 9.70103E-19
 -1      1219 9.52407E-05-2.85828E-05-2.85672E-05 6.99014E-10-9.01057E-18-6.30284E-20
 -1      1220 9.52382E-05-2.85737E-05-2.85700E-05-6.06593E-11-4.67582E-18-9.93917E-19
 -1      1221 9.52368E-05-2.85704E-05-2.85716E-05-2.12793E-10-2.49629E-18-4.22246E-19
 -1      1222 3.34501E-05-1.05441E-04 1.80138E-05-1.52997E-05 9.38131E-18 2.77337E-18
 -1      1223 1.59941E-05-6.17984E-05 8.90163E-06-2.58032E-05 2.03601E-17 8.15227E-18
 -1      1224 7.53088E-06-8.26249E-06-6.23016E-06-3.24472E-07 2.30833E-17 1.48807E-17
 -1      1225 3.55276E-05 2.34053E-05-2.62990E-05 5.30175E-05 2.13961E-17 2.09522E-17
 -1      1226 1.14005E-04 9.79668E-06-4.76436E-05 1.02161E-04 1.67882E-17 2.42709E-17
 -1      1227 2.17842E-04-3.83703E-05-6.54407E-05 1.05292E-04 7.54452E-18 1.80138E-17
 -1      1228 2.96383E-04-8.25485E-05-7.63796E-05 5.32967E-05 1.97380E-18 6.99903E-18
 -1      1229 3.08995E-04-9.02073E-05-7.80795E-05-2.91900E-05 1.67623E-18-9.61149E-18
 -1      1230 2.49320E-04-5.54768E-05-7.01221E-05-9.65088E-05 7.06637E-18-2.16349E-17
 -1      1231 1.49205E-04-3.60820E-06-5.46468E-05-1.10485E-04 1.59877E-17-2.73693E-17
 -1      1232 6.00056E-05 2.46985E-05-3.47114E-05-7.57297E-05 2.43293E-17-2.76201E-17
 -1      1233 1.32029E-05 8.96087E-06-1.39500E-05-1.95471E-05 2.69594E-17-2.02915E-17
 -1      1234 1.04797E-05-4.10203E-05 3.78763E-06 2.04209E-05 2.36373E-17-1.12774E-17
 -1      1235 2.78517E-05-9.30149E-05 1.53196E-05 2.38879E-05 1.34602E-17-4.10366E-18
 -1      1236 3.69669E-05-1.13896E-04 1.94232E-05 2.54201E-07-2.11949E-18-1.25911E-18
 -1      1237 2.77671E-05-9.20840E-05 1.51232E-05-2.31558E-05-1.62410E-17-4.34073E-18
 -1      1238 1.05280E-05-3.97284E-05 3.47984E-06-1.92692E-05-2.49773E-17-1.18487E-17
 -1      1239 1.52714E-05 1.07387E-05-1.49804E-05 2.30577E-05-2.73998E-17-2.06176E-17
 -1      1240 6.71058E-05 2.38926E-05-3.64262E-05 8.04081E-05-2.27852E-17-2.66544E-17
 -1      1241 1.64662E-04-1.14339E-05-5.72201E-05 1.09878E-04-1.39930E-17-2.63732E-17
 -1      1242 2.66024E-04-6.67161E-05-7.22523E-05 8.49029E-05-5.76427E-18-2.06312E-17
 -1      1243 3.09311E-04-9.33455E-05-7.78446E-05 1.04162E-05-1.31121E-18-6.54365E-18
 -1      1244 2.81533E-04-7.65591E-05-7.42526E-05-6.91546E-05-2.57191E-18 8.91163E-18
 -1      1245 1.96506E-04-2.76903E-05-6.24587E-05-1.09814E-04-7.88079E-18 1.77386E-17
 -1      1246 1.00838E-04 1.53794E-05-4.50998E-05-9.87824E-05-1.56108E-17 2.22329E-17
 -1      1247 3.22439E-05 2.44516E-05-2.52635E-05-5.10213E-05-2.07337E-17 1.97274E-17
 -1      1248 7.48574E-06-8.05890E-06-6.09439E-06 5.94465E-08-1.96918E-17 1.26716E-17
 -1      1249 1.68160E-05-6.29767E-05 9.26637E-06 2.46026E-05-1.66239E-17 6.56874E-18
 -1      1250 3.45235E-05-1.07025E-04 1.81013E-05 1.37660E-05-6.33284E-18 1.85519E-18
 -1      1251 1.07416E-04-2.27614E-05-3.88003E-05-1.59019E-05-6.45333E-19 1.10330E-17
 -1      1252 9.35883E-05-7.43832E-06-3.70576E-05-1.74044E-05-1.79995E-18-5.40089E-19
 -1      1253 9.61283E-05-7.62553E-06-3.82414E-05-2.30444E-05-2.31102E-18 2.09842E-18
 -1      1254 8.82978E-05-4.53935E-06-3.59552E-05-1.27131E-05-1.74891E-18-4.30264E-18
 -1      1255 9.00314E-05-4.57496E-06-3.65621E-05-1.53949E-05-2.01721E-18-2.67991E-18
 -1      1256 9.55458E-05-1.14558E-05-3.61021E-05-1.56931E-05-3.14183E-18-5.20978E-19
 -1      1257 8.51517E-05-3.28064E-06-3.51110E-05-8.87599E-06-1.41650E-18-6.21434E-18
 -1      1258 8.64090E-05-3.27948E-06-3.55538E-05-1.07488E-05-1.60677E-18-5.36696E-18
 -1      1259 9.00587E-05-7.83120E-06-3.53112E-05-1.16301E-05-2.73601E-18-3.66906E-18
 -1      1260 8.27651E-05-2.47460E-06-3.44242E-05-5.92389E-06-1.04691E-18-7.06607E-18
 -1      1261 8.37675E-05-2.48008E-06-3.47760E-05-7.33387E-06-1.22116E-18-6.68717E-18
 -1      1262 8.64626E-05-5.80669E-06-3.46309E-05-8.10720E-06-2.18177E-18-5.25134E-18
 -1      1263 8.08936E-05-1.88727E-06-3.38727E-05-3.70339E-06-6.72544E-19-7.45905E-18
 -1      1264 8.16825E-05-1.89515E-06-3.41479E-05-4.76068E-06-8.07275E-19-7.26132E-18
 -1      1265 8.37584E-05-4.43652E-06-3.40482E-05-5.37488E-06-1.54243E-18-5.95336E-18
 -1      1266 7.94740E-05-1.44999E-06-3.34525E-05-1.97606E-06-3.70339E-19-7.61618E-18
 -1      1267 8.00533E-05-1.45858E-06-3.36534E-05-2.80278E-06-4.72988E-19-7.57316E-18
 -1      1268 8.16552E-05-3.43481E-06-3.35689E-05-3.28121E-06-9.46811E-19-6.34528E-18
 -1      1269 7.86053E-05-1.16491E-06-3.32000E-05-6.20276E-07-1.55642E-20-7.63147E-18
 -1      1270 7.89256E-05-1.17084E-06-3.33095E-05-1.28423E-06-1.39800E-19-7.60194E-18
 -1      1271 8.01406E-05-2.73157E-06-3.32169E-05-1.64797E-06-4.33191E-19-6.42371E-18
 -1      1272 7.83550E-05-1.04475E-06-3.31373E-05 5.45244E-07 2.52776E-19-7.58703E-18
 -1      1273 7.83866E-05-1.04654E-06-3.31456E-05-4.93724E-08 1.72401E-19-7.62531E-18
 -1      1274 7.93021E-05-2.33683E-06-3.30245E-05-3.36082E-07 1.26567E-19-6.47995E-18
 -1      1275 7.87606E-05-1.10244E-06-3.32744E-05 1.71988E-06 5.55098E-19-7.43297E-18
 -1      1276 7.84919E-05-1.09946E-06-3.31783E-05 1.09361E-06 4.45000E-19-7.54107E-18
 -1      1277 7.92082E-05-2.27275E-06-3.30114E-05 8.35414E-07 5.80820E-19-6.40300E-18
 -1      1278 7.98152E-05-1.34603E-06-3.36061E-05 3.11413E-06 8.21728E-19-7.13537E-18
 -1      1279 7.92564E-05-1.33768E-06-3.34096E-05 2.35078E-06 7.56586E-19-7.32618E-18
 -1      1280 7.98912E-05-2.55873E-06-3.31832E-05 2.06461E-06 1.06083E-18-6.23377E-18
 -1      1281 8.14405E-05-1.76634E-06-3.41037E-05 4.90518E-06 1.15657E-18-6.57774E-18
 -1      1282 8.06352E-05-1.75836E-06-3.38226E-05 3.91898E-06 1.02592E-18-6.91891E-18
 -1      1283 8.13234E-05-3.19981E-06-3.35256E-05 3.54260E-06 1.54244E-18-5.87452E-18
 -1      1284 8.36477E-05-2.38774E-06-3.47643E-05 7.36993E-06 1.57225E-18-5.61693E-18
 -1      1285 8.25879E-05-2.38047E-06-3.43953E-05 6.01224E-06 1.39419E-18-6.17953E-18
 -1      1286 8.34687E-05-4.21589E-06-3.40164E-05 5.48157E-06 2.10445E-18-5.20424E-18
 -1      1287 8.64538E-05-3.25321E-06-3.55823E-05 1.07307E-05 1.95988E-18-3.94866E-18
 -1      1288 8.51245E-05-3.25588E-06-3.51177E-05 8.87149E-06 1.74359E-18-4.97158E-18
 -1      1289 8.63557E-05-5.68927E-06-3.46325E-05 8.10757E-06 2.70111E-18-4.14570E-18
 -1      1290 9.02558E-05-4.57448E-06-3.66323E-05 1.53754E-05 2.25814E-18-9.03652E-19
 -1      1291 8.84363E-05-4.58504E-06-3.59995E-05 1.27187E-05 2.03277E-18-2.75312E-18
 -1      1292 9.01786E-05-7.86084E-06-3.53482E-05 1.16155E-05 3.23691E-18-2.26941E-18
 -1      1293 9.70168E-05-7.69754E-06-3.81822E-05 2.22755E-05 1.93706E-18 4.98103E-18
 -1      1294 9.36079E-05-7.25909E-06-3.71350E-05 1.78230E-05 1.91408E-18 1.37664E-18
 -1      1295 9.59236E-05-1.16925E-05-3.61444E-05 1.60518E-05 3.38255E-18 1.20734E-18
 -1      1296 1.25840E-04-2.56226E-05-3.98640E-05 2.67567E-05 9.49312E-19 1.62001E-17
 -1      1297 1.03532E-04-1.53962E-05-3.83748E-05 2.17944E-05 9.87535E-19 8.41083E-18
 -1      1298 1.05760E-04-2.06831E-05-3.65312E-05 1.84603E-05 3.16790E-18 6.54227E-18
 -1      1299 1.06429E-04-2.90664E-05-3.58334E-05 5.90840E-06 1.68872E-18 1.55306E-17
 -1      1300 1.09169E-04-3.15168E-05-3.46857E-05-6.53326E-06-1.91800E-18 1.16415E-17
 -1      1301 1.03475E-04-2.94958E-05-3.22539E-05-3.76533E-06-1.76808E-18 9.42557E-18
 -1      1302 1.01421E-04-2.96430E-05-3.10088E-05-1.29825E-06-1.45674E-18 8.54202E-18
 -1      1303 1.00319E-04-2.96856E-05-3.03117E-05-8.76651E-07-1.39665E-18 6.42377E-18
 -1      1304 1.04732E-04-2.97155E-05-3.25145E-05-5.55547E-06-3.09252E-18 4.75964E-18
 -1      1305 9.94783E-05-2.95590E-05-2.99516E-05 3.40189E-07-1.09370E-18 5.67009E-18
 -1      1306 9.98835E-05-2.98000E-05-2.99867E-05 4.62789E-07-9.60489E-19 4.19885E-18
 -1      1307 1.01515E-04-2.98192E-05-3.08554E-05-8.25797E-07-2.36288E-18 3.36246E-18
 -1      1308 1.00035E-04-2.98775E-05-3.00246E-05 1.06131E-06-6.72902E-19 3.48806E-18
 -1      1309 1.01128E-04-3.02653E-05-3.03333E-05 1.13499E-06-6.73586E-19 2.50065E-18
 -1      1310 1.01022E-04-3.00279E-05-3.04616E-05 1.31648E-06-1.67390E-18 2.07266E-18
 -1      1311 1.01805E-04-3.04800E-05-3.05427E-05 1.42011E-06-4.62918E-19 2.18085E-18
 -1      1312 1.03196E-04-3.09466E-05-3.09456E-05 1.45033E-06-4.47683E-19 1.63929E-18
 -1      1313 1.01872E-04-3.04400E-05-3.06305E-05 2.38269E-06-1.14024E-18 9.86403E-19
 -1      1314 1.04112E-04-3.12385E-05-3.12195E-05 1.49392E-06-3.71626E-19 1.23464E-18
 -1      1315 1.05518E-04-3.17131E-05-3.16218E-05 1.47357E-06-3.69633E-19 6.81187E-19
 -1      1316 1.03460E-04-3.10393E-05-3.10435E-05 2.79595E-06-8.43337E-19 3.51075E-19
 -1      1317 1.06435E-04-3.20196E-05-3.18834E-05 1.25862E-06-2.62089E-19 4.76588E-19
 -1      1318 1.07555E-04-3.24114E-05-3.21965E-05 1.17268E-06-2.29023E-19-1.49713E-19
 -1      1319 1.05302E-04-3.17336E-05-3.15199E-05 2.61250E-06-6.86815E-19-4.36354E-20
 -1      1320 1.08232E-04-3.26623E-05-3.23722E-05 6.61108E-07-6.27069E-20-2.59119E-19
 -1      1321 1.08714E-04-3.28562E-05-3.24976E-05 4.95557E-07-1.54458E-19-5.45026E-19
 -1      1322 1.06939E-04-3.23955E-05-3.19168E-05 1.76365E-06-3.89913E-19-1.83657E-19
 -1      1323 1.08903E-04-3.29692E-05-3.25167E-05-3.14404E-07-3.87829E-19-4.95242E-19
 -1      1324 1.08397E-04-3.28384E-05-3.23609E-05-5.56851E-07-4.76569E-19-1.11311E-18
 -1      1325 1.07887E-04-3.28554E-05-3.21022E-05 1.94266E-07-4.81240E-19-7.17827E-20
 -1      1326 1.07886E-04-3.27273E-05-3.21733E-05-1.55986E-06-3.96047E-19-1.22061E-18
 -1      1327 1.06174E-04-3.21759E-05-3.16861E-05-1.83763E-06-1.16189E-19-1.60529E-18
 -1      1328 1.07674E-04-3.29046E-05-3.19707E-05-1.98491E-06-5.93538E-19-6.69288E-20
 -1      1329 1.04886E-04-3.17833E-05-3.12911E-05-2.76303E-06 4.13822E-20-1.94264E-18
 -1      1330 1.02081E-04-3.08223E-05-3.05177E-05-2.98165E-06-1.79114E-19-1.94373E-18
 -1      1331 1.05977E-04-3.23438E-05-3.14821E-05-4.33568E-06-2.75332E-19-6.72703E-19
 -1      1332 1.00201E-04-3.01773E-05-2.99894E-05-3.41790E-06-2.13241E-19-1.93542E-18
 -1      1333 9.69035E-05-2.90002E-05-2.91030E-05-3.44974E-06-1.32692E-20-2.05903E-18
 -1      1334 1.02858E-04-3.11078E-05-3.07059E-05-6.03589E-06-2.47267E-19-1.40392E-18
 -1      1335 9.49479E-05-2.82763E-05-2.85893E-05-3.02497E-06 2.56313E-19-2.16062E-18
 -1      1336 9.21884E-05-2.72608E-05-2.78624E-05-2.78584E-06 1.05475E-19-1.84404E-18
 -1      1337 9.89957E-05-2.94303E-05-2.98351E-05-6.10788E-06 3.01755E-20-1.88379E-18
 -1      1338 9.08879E-05-2.67536E-05-2.75380E-05-1.46285E-06-1.74026E-19-1.98624E-18
 -1      1339 8.97226E-05-2.63134E-05-2.72367E-05-1.00521E-06-3.32407E-19-2.20350E-18
 -1      1340 9.56691E-05-2.79002E-05-2.91414E-05-4.00587E-06-2.83346E-19-2.02107E-18
 -1      1341 8.96624E-05-2.62804E-05-2.72276E-05 7.61467E-07-5.53113E-19-2.40239E-18
 -1      1342 9.06092E-05-2.66241E-05-2.74794E-05 1.24488E-06-7.63163E-19-3.00366E-18
 -1      1343 9.42632E-05-2.72178E-05-2.88710E-05-2.21867E-07-5.99210E-19-2.66151E-18
 -1      1344 9.18583E-05-2.70955E-05-2.78002E-05 2.72672E-06-3.22667E-19-3.22751E-18
 -1      1345 9.45857E-05-2.80882E-05-2.85241E-05 3.02710E-06-2.20414E-19-3.56511E-18
 -1      1346 9.54738E-05-2.77474E-05-2.91375E-05 3.76115E-06-9.57835E-19-2.82900E-18
 -1      1347 9.66537E-05-2.88459E-05-2.90712E-05 3.67870E-06-5.04377E-19-3.78910E-18
 -1      1348 1.00188E-04-3.01029E-05-3.00236E-05 3.70812E-06-2.51790E-19-4.20552E-18
 -1      1349 9.88513E-05-2.92515E-05-2.98693E-05 6.34323E-06-4.48650E-19-3.44663E-18
 -1      1350 1.02345E-04-3.08447E-05-3.06268E-05 3.45662E-06 1.56867E-20-4.70961E-18
 -1      1351 1.05612E-04-3.19649E-05-3.15272E-05 3.27371E-06-1.49316E-19-5.00782E-18
 -1      1352 1.03106E-04-3.10688E-05-3.08424E-05 6.77525E-06-4.72869E-19-4.10374E-18
 -1      1353 1.07271E-04-3.24819E-05-3.20276E-05 2.43691E-06-3.65568E-19-5.51474E-18
 -1      1354 1.09558E-04-3.32261E-05-3.26761E-05 2.16728E-06-6.81167E-19-5.85114E-18
 -1      1355 1.06879E-04-3.25573E-05-3.17817E-05 5.39934E-06-7.14658E-19-4.35215E-18
 -1      1356 1.10460E-04-3.34590E-05-3.29803E-05 1.16634E-06-5.55753E-19-6.05502E-18
 -1      1357 1.11552E-04-3.37809E-05-3.33037E-05 9.15074E-07-4.01924E-19-6.38697E-18
 -1      1358 1.09333E-04-3.33966E-05-3.24686E-05 3.14774E-06-9.34026E-19-4.71328E-18
 -1      1359 1.11715E-04-3.37713E-05-3.33941E-05 5.29682E-08 3.05478E-19-6.25267E-18
 -1      1360 1.11766E-04-3.37484E-05-3.34231E-05-1.28885E-07 6.02723E-19-5.38816E-18
 -1      1361 1.10271E-04-3.35954E-05-3.28009E-05 9.00124E-07 1.00023E-19-5.05206E-18
 -1      1362 1.11362E-04-3.35740E-05-3.33357E-05-7.23422E-07-7.23419E-20-5.48361E-18
 -1      1363 1.10689E-04-3.33263E-05-3.31530E-05-8.28641E-07-1.86585E-19-5.74058E-18
 -1      1364 1.09922E-04-3.33295E-05-3.27876E-05-8.37466E-07 2.92590E-19-4.87804E-18
 -1      1365 1.09929E-04-3.30615E-05-3.29458E-05-1.15426E-06-1.83151E-19-5.15303E-18
 -1      1366 1.08856E-04-3.26995E-05-3.26418E-05-1.19770E-06-4.02159E-20-5.46172E-18
 -1      1367 1.08689E-04-3.27982E-05-3.25065E-05-1.92362E-06-8.61790E-20-4.41921E-18
 -1      1368 1.07927E-04-3.24006E-05-3.23722E-05-1.31322E-06 2.47880E-19-5.22531E-18
 -1      1369 1.06709E-04-3.20051E-05-3.20211E-05-1.31521E-06 2.27983E-19-4.93888E-18
 -1      1370 1.06970E-04-3.21577E-05-3.20583E-05-2.43628E-06 1.40546E-19-3.63485E-18
 -1      1371 1.05748E-04-3.17093E-05-3.17338E-05-1.29190E-06 8.97466E-20-4.99451E-18
 -1      1372 1.04552E-04-3.13305E-05-3.13858E-05-1.27017E-06 2.75143E-19-4.34940E-18
 -1      1373 1.05078E-04-3.15093E-05-3.15343E-05-2.53465E-06 2.82319E-19-3.64621E-18
 -1      1374 1.03647E-04-3.10595E-05-3.11107E-05-1.16870E-06 1.53591E-20-4.16062E-18
 -1      1375 1.02569E-04-3.07238E-05-3.07948E-05-1.13599E-06-2.96616E-19-4.52097E-18
 -1      1376 1.03229E-04-3.09099E-05-3.10030E-05-2.37698E-06 9.75229E-20-3.07313E-18
 -1      1377 1.01768E-04-3.04880E-05-3.05487E-05-9.99861E-07-1.29208E-19-4.63562E-18
 -1      1378 1.00849E-04-3.02057E-05-3.02781E-05-9.64251E-07-2.50409E-19-5.17530E-18
 -1      1379 1.01546E-04-3.03863E-05-3.05082E-05-2.08711E-06-4.33945E-19-3.03910E-18
 -1      1380 1.00169E-04-3.00082E-05-3.00684E-05-8.21115E-07-1.83819E-19-5.03867E-18
 -1      1381 9.94180E-05-2.97798E-05-2.98462E-05-7.87174E-07 1.12663E-19-4.95415E-18
 -1      1382 1.00091E-04-2.99468E-05-3.00730E-05-1.74923E-06 1.48838E-19-3.45529E-18
 -1      1383 9.88616E-05-2.96195E-05-2.96739E-05-6.52731E-07 4.51277E-20-4.65860E-18
 -1      1384 9.82671E-05-2.94404E-05-2.94976E-05-6.22701E-07 3.94549E-20-4.51336E-18
 -1      1385 9.88801E-05-2.95891E-05-2.97063E-05-1.41451E-06 1.12037E-19-2.78735E-18
 -1      1386 9.78244E-05-2.93136E-05-2.93601E-05-5.04583E-07-3.28063E-19-4.14608E-18
 -1      1387 9.73670E-05-2.91771E-05-2.92241E-05-4.79279E-07-8.71708E-20-3.81522E-18
 -1      1388 9.79020E-05-2.93055E-05-2.94074E-05-1.11039E-06 1.60036E-19-3.18575E-18
 -1      1389 9.70237E-05-2.90792E-05-2.91174E-05-3.80110E-07-3.58062E-20-3.88919E-18
 -1      1390 9.66811E-05-2.89778E-05-2.90152E-05-3.59539E-07-3.99406E-19-3.94839E-18
 -1      1391 9.71329E-05-2.90857E-05-2.91705E-05-8.48894E-07-5.51779E-19-2.89505E-18
 -1      1392 9.64211E-05-2.89039E-05-2.89344E-05-2.79070E-07-3.32740E-19-3.89401E-18
 -1      1393 9.61712E-05-2.88306E-05-2.88596E-05-2.62818E-07-3.78375E-19-4.68628E-18
 -1      1394 9.65427E-05-2.89193E-05-2.89875E-05-6.32724E-07-7.12228E-19-2.93733E-18
 -1      1395 9.59790E-05-2.87762E-05-2.87998E-05-1.99317E-07-2.01118E-19-4.32473E-18
 -1      1396 9.58019E-05-2.87247E-05-2.87467E-05-1.86794E-07 5.85842E-20-5.23311E-18
 -1      1397 9.61002E-05-2.87961E-05-2.88494E-05-4.59439E-07-2.90785E-19-2.81141E-18
 -1      1398 9.56635E-05-2.86857E-05-2.87036E-05-1.37894E-07 3.84711E-19-5.22572E-18
 -1      1399 9.55421E-05-2.86508E-05-2.86670E-05-1.28467E-07 7.54725E-19-4.36932E-18
 -1      1400 9.57766E-05-2.87070E-05-2.87478E-05-3.24098E-07 1.75158E-19-2.75329E-18
 -1      1401 9.54453E-05-2.86236E-05-2.86369E-05-9.16711E-08 6.78365E-19-4.08437E-18
 -1      1402 9.53657E-05-2.86011E-05-2.86128E-05-8.47377E-08 3.98026E-19-3.13408E-18
 -1      1403 9.55462E-05-2.86445E-05-2.86749E-05-2.20858E-07 1.54307E-18-3.25417E-18
 -1      1404 9.53004E-05-2.85828E-05-2.85925E-05-5.76827E-08 2.90290E-19-2.87802E-18
 -1      1405 9.52513E-05-2.85693E-05-2.85774E-05-5.27079E-08 3.32685E-19-2.71796E-18
 -1      1406 9.53873E-05-2.86022E-05-2.86243E-05-1.43884E-07 5.21690E-19-3.29222E-18
 -1      1407 9.52094E-05-2.85576E-05-2.85644E-05-3.32986E-08 1.94420E-19-3.12266E-18
 -1      1408 9.51820E-05-2.85504E-05-2.85559E-05-2.98269E-08-5.26026E-19-3.52987E-18
 -1      1409 9.52821E-05-2.85747E-05-2.85904E-05-8.78252E-08-1.45050E-19-2.60868E-18
 -1      1410 9.51570E-05-2.85435E-05-2.85482E-05-1.62826E-08-1.15593E-18-2.37395E-18
 -1      1411 9.51446E-05-2.85406E-05-2.85442E-05-1.39388E-08-3.24568E-19-3.41384E-18
 -1      1412 9.52163E-05-2.85581E-05-2.85689E-05-4.80291E-08-1.17432E-18-3.10592E-18
 -1      1413 9.51316E-05-2.85371E-05-2.85401E-05-4.79474E-09-3.19476E-19-3.48323E-18
 -1      1414 9.51292E-05-2.85370E-05-2.85392E-05-3.27799E-09-9.89574E-19-4.64309E-18
 -1      1415 9.51789E-05-2.85491E-05-2.85563E-05-2.05968E-08-5.49703E-19-2.58785E-18
 -1      1416 9.51244E-05-2.85358E-05-2.85377E-05 2.63793E-09-4.74175E-19-4.01254E-18
 -1      1417 9.51284E-05-2.85375E-05-2.85387E-05 3.56271E-09-2.76723E-19-5.05981E-18
 -1      1418 9.51611E-05-2.85455E-05-2.85500E-05-2.35909E-09-6.11220E-19-2.55546E-18
 -1      1419 9.51289E-05-2.85378E-05-2.85389E-05 7.16383E-09 4.29882E-19-5.46750E-18
 -1      1420 9.51367E-05-2.85405E-05-2.85411E-05 7.67566E-09 3.10333E-19-4.51934E-18
 -1      1421 9.51566E-05-2.85453E-05-2.85480E-05 9.19183E-09-1.64452E-19-2.87222E-18
 -1      1422 9.51407E-05-2.85417E-05-2.85423E-05 9.65236E-09 4.77440E-19-3.44497E-18
 -1      1423 9.51505E-05-2.85450E-05-2.85451E-05 9.88287E-09 4.89794E-19-2.95543E-18
 -1      1424 9.51608E-05-2.85474E-05-2.85488E-05 1.59860E-08 8.63550E-19-2.13132E-18
 -1      1425 9.51563E-05-2.85467E-05-2.85469E-05 1.07354E-08-2.64816E-19-1.43282E-18
 -1      1426 9.51669E-05-2.85501E-05-2.85499E-05 1.07761E-08 3.69132E-19-1.64576E-18
 -1      1427 9.51701E-05-2.85507E-05-2.85512E-05 1.94581E-08 1.27491E-18-8.06902E-19
 -1      1428 9.51735E-05-2.85521E-05-2.85520E-05 1.08411E-08 9.78333E-19-1.35312E-18
 -1      1429 9.51840E-05-2.85554E-05-2.85551E-05 1.07485E-08 8.55590E-19-5.90677E-19
 -1      1430 9.51821E-05-2.85547E-05-2.85546E-05 2.06186E-08 1.02474E-18 1.58266E-19
 -1      1431 9.51908E-05-2.85574E-05-2.85572E-05 1.02175E-08 8.67368E-19-2.43317E-19
 -1      1432 9.52006E-05-2.85605E-05-2.85600E-05 1.00150E-08 1.12431E-18 1.40899E-18
 -1      1433 9.51952E-05-2.85590E-05-2.85584E-05 2.01087E-08 1.39973E-18 2.23413E-19
 -1      1434 9.52069E-05-2.85624E-05-2.85619E-05 8.94342E-09 1.09638E-18 1.74799E-18
 -1      1435 9.52153E-05-2.85651E-05-2.85643E-05 8.61831E-09 6.98110E-19 2.09239E-18
 -1      1436 9.52080E-05-2.85631E-05-2.85621E-05 1.82370E-08 1.64086E-18 1.97395E-18
 -1      1437 9.52207E-05-2.85668E-05-2.85659E-05 6.94361E-09 1.00749E-18 3.02103E-18
 -1      1438 9.52270E-05-2.85688E-05-2.85677E-05 6.43808E-09 9.01917E-19 4.36541E-18
 -1      1439 9.52194E-05-2.85669E-05-2.85653E-05 1.49965E-08 1.46005E-18 3.11806E-18
 -1      1440 9.52310E-05-2.85702E-05-2.85689E-05 4.02355E-09-1.04559E-19 4.29655E-18
 -1      1441 9.52344E-05-2.85712E-05-2.85699E-05 3.33690E-09-5.45721E-19 3.60234E-18
 -1      1442 9.52287E-05-2.85702E-05-2.85678E-05 1.02267E-08 4.58136E-19 4.24401E-18
 -1      1443 9.52371E-05-2.85716E-05-2.85709E-05 7.41298E-11-2.42188E-18 1.90782E-18
 -1      1444 9.52357E-05-2.85724E-05-2.85699E-05 3.32207E-09-2.61224E-18 1.21815E-18
 -1      1445 1.02526E-04-3.01787E-05-3.15104E-05 1.82625E-06 1.62434E-18 1.20916E-17
 -1      1446 1.07109E-04-3.07628E-05-3.35207E-05 3.22695E-06 1.37929E-18 1.45591E-17
 -1      1447 1.07022E-04-2.82995E-05-3.40712E-05 1.04843E-05 2.66175E-18 9.32700E-18
 -1      1448 1.00227E-04-2.98799E-05-3.02123E-05-1.47758E-08 1.18272E-18 8.93630E-18
 -1      1449 1.00901E-04-2.96487E-05-3.07371E-05 3.24232E-07 1.14915E-18 1.09059E-17
 -1      1450 1.02965E-04-3.00075E-05-3.14726E-05 2.65588E-06 2.42011E-18 7.09755E-18
 -1      1451 1.00845E-04-3.01704E-05-3.02715E-05-9.58945E-07 8.39066E-19 6.59330E-18
 -1      1452 1.00105E-04-2.97669E-05-3.01318E-05-7.44261E-07 8.67203E-19 8.07087E-18
 -1      1453 1.01545E-04-3.00953E-05-3.06790E-05-4.88719E-07 1.83711E-18 5.33901E-18
 -1      1454 1.03092E-04-3.08779E-05-3.09318E-05-1.52358E-06 4.54999E-19 5.22140E-18
 -1      1455 1.01601E-04-3.03305E-05-3.05036E-05-1.36673E-06 4.25627E-19 5.99858E-18
 -1      1456 1.02270E-04-3.04772E-05-3.07964E-05-2.10701E-06 1.10000E-18 3.78773E-18
 -1      1457 1.06300E-04-3.18683E-05-3.18880E-05-1.86191E-06 3.26334E-19 4.40129E-18
 -1      1458 1.04366E-04-3.12145E-05-3.13222E-05-1.74834E-06 2.53226E-19 4.87160E-18
 -1      1459 1.04292E-04-3.11662E-05-3.13652E-05-3.06993E-06 6.82437E-19 2.98473E-18
 -1      1460 1.09963E-04-3.30141E-05-3.29625E-05-1.96136E-06 1.51517E-19 3.83796E-18
 -1      1461 1.07842E-04-3.23186E-05-3.23502E-05-1.90516E-06 1.88502E-19 4.16282E-18
 -1      1462 1.07073E-04-3.20842E-05-3.21566E-05-3.56281E-06 4.43207E-19 2.37635E-18
 -1      1463 1.13488E-04-3.41480E-05-3.39690E-05-1.72168E-06 2.06502E-19 3.42702E-18
 -1      1464 1.11513E-04-3.35161E-05-3.34135E-05-1.75941E-06 1.68492E-19 3.63626E-18
 -1      1465 1.10134E-04-3.31271E-05-3.30037E-05-3.51061E-06 2.67345E-19 2.23450E-18
 -1      1466 1.16067E-04-3.50277E-05-3.46655E-05-9.99815E-07 2.40266E-19 2.98938E-18
 -1      1467 1.14717E-04-3.46203E-05-3.43072E-05-1.18310E-06 8.34923E-20 3.30938E-18
 -1      1468 1.12921E-04-3.41480E-05-3.37278E-05-2.70553E-06 2.31730E-19 2.05668E-18
 -1      1469 1.16692E-04-3.53233E-05-3.47694E-05 3.02576E-07 2.94258E-19 2.45843E-18
 -1      1470 1.16571E-04-3.53511E-05-3.47745E-05-6.80672E-08 1.83310E-19 2.87075E-18
 -1      1471 1.14729E-04-3.49232E-05-3.41252E-05-9.25189E-07 4.39001E-19 1.63612E-18
 -1      1472 1.14405E-04-3.46774E-05-3.40490E-05 2.06949E-06 1.61863E-20 2.49411E-18
 -1      1473 1.16073E-04-3.53389E-05-3.45515E-05 1.53326E-06 1.16520E-19 2.39299E-18
 -1      1474 1.14766E-04-3.51361E-05-3.40077E-05 1.84102E-06 1.07203E-19 1.51391E-18
 -1      1475 1.08886E-04-3.28995E-05-3.24879E-05 3.77441E-06 3.66170E-19 2.46518E-18
 -1      1476 1.12481E-04-3.42373E-05-3.34862E-05 3.22391E-06 1.58812E-19 2.59679E-18
 -1      1477 1.12418E-04-3.44372E-05-3.32912E-05 5.05862E-06 1.39681E-19 1.73449E-18
 -1      1478 1.01214E-04-3.02747E-05-3.04466E-05 4.48682E-06 5.81979E-19 1.65584E-18
 -1      1479 1.05992E-04-3.19959E-05-3.17061E-05 4.20391E-06 4.29720E-19 1.95654E-18
 -1      1480 1.07758E-04-3.26691E-05-3.21053E-05 7.43548E-06 6.76644E-19 1.42431E-18
 -1      1481 9.41218E-05-2.77536E-05-2.86454E-05 3.36746E-06 8.97319E-19-2.27640E-19
 -1      1482 9.83604E-05-2.91894E-05-2.97164E-05 3.60885E-06 8.27472E-19 9.31577E-19
 -1      1483 1.02074E-04-3.02219E-05-3.08310E-05 7.30618E-06 1.29908E-18 2.94715E-19
 -1      1484 9.09634E-05-2.66169E-05-2.78585E-05 5.21137E-07 6.95017E-19-2.77720E-18
 -1      1485 9.26689E-05-2.70261E-05-2.82745E-05 1.26517E-06 9.75980E-19-1.22296E-18
 -1      1486 9.77642E-05-2.81642E-05-2.99690E-05 3.86594E-06 1.83650E-18-1.01809E-18
 -1      1487 9.35059E-05-2.75506E-05-2.84735E-05-2.66507E-06 3.71503E-20-3.87931E-18
 -1      1488 9.17436E-05-2.66797E-05-2.80269E-05-1.79935E-06 3.35213E-19-3.32992E-18
 -1      1489 9.71198E-05-2.77509E-05-2.98987E-05-1.63935E-06 1.08158E-18-2.12675E-18
 -1      1490 1.00569E-04-3.00659E-05-3.02497E-05-4.55642E-06-4.48696E-19-3.93712E-18
 -1      1491 9.61580E-05-2.83525E-05-2.91232E-05-4.00766E-06-3.51651E-19-4.22452E-18
 -1      1492 1.00596E-04-2.92896E-05-3.06750E-05-6.40740E-06 1.90715E-20-3.40846E-18
 -1      1493 1.08934E-04-3.29178E-05-3.24602E-05-4.49041E-06 3.52607E-19-4.09535E-18
 -1      1494 1.03836E-04-3.11500E-05-3.11166E-05-4.42674E-06 1.36356E-19-3.93574E-18
 -1      1495 1.06481E-04-3.19046E-05-3.19975E-05-8.23573E-06 6.00864E-21-3.97335E-18
 -1      1496 1.15581E-04-3.50476E-05-3.43406E-05-3.04545E-06-6.87242E-19-3.69709E-18
 -1      1497 1.11576E-04-3.38125E-05-3.32344E-05-3.32741E-06 1.12695E-20-3.81218E-18
 -1      1498 1.12213E-04-3.42662E-05-3.33851E-05-6.96969E-06 1.79478E-19-3.52220E-18
 -1      1499 1.19083E-04-3.60576E-05-3.54360E-05-1.21951E-06-2.90354E-19-2.42122E-18
 -1      1500 1.16980E-04-3.55294E-05-3.48140E-05-1.61014E-06-8.20669E-19-3.46108E-18
 -1      1501 1.15989E-04-3.56005E-05-3.44109E-05-4.01706E-06-8.92720E-19-3.12465E-18
 -1      1502 1.19540E-04-3.60790E-05-3.56814E-05 2.83098E-07-2.68000E-19-1.84608E-18
 -1      1503 1.19243E-04-3.61342E-05-3.55563E-05-5.06533E-08 1.25480E-19-1.52079E-18
 -1      1504 1.17296E-04-3.58639E-05-3.48611E-05-9.42699E-07-5.25478E-19-2.31690E-18
 -1      1505 1.17824E-04-3.54508E-05-3.52685E-05 1.21993E-06 3.48753E-19-1.73156E-18
 -1      1506 1.18789E-04-3.58655E-05-3.55125E-05 1.00173E-06 1.20289E-19-1.52079E-18
 -1      1507 1.16533E-04-3.53845E-05-3.47503E-05 1.35643E-06-1.61029E-19-1.28435E-18
 -1      1508 1.14919E-04-3.44992E-05-3.44659E-05 1.64563E-06 3.80362E-19-3.32499E-18
 -1      1509 1.16553E-04-3.50741E-05-3.49185E-05 1.53503E-06 4.30210E-19-2.34251E-18
 -1      1510 1.14431E-04-3.45233E-05-3.42294E-05 2.67539E-06 6.32155E-19-8.59361E-19
 -1      1511 1.11600E-04-3.34579E-05-3.35064E-05 1.71850E-06 2.19105E-19-3.94892E-18
 -1      1512 1.13449E-04-3.40589E-05-3.40356E-05 1.68401E-06 1.19103E-19-3.92032E-18
 -1      1513 1.11681E-04-3.35389E-05-3.34809E-05 3.18712E-06 6.54016E-19-2.44071E-18
 -1      1514 1.08360E-04-3.24655E-05-3.25483E-05 1.59118E-06-4.74688E-19-3.13668E-18
 -1      1515 1.10144E-04-3.30192E-05-3.30679E-05 1.60165E-06-2.95275E-19-3.76498E-18
 -1      1516 1.08789E-04-3.25818E-05-3.26572E-05 3.16909E-06-2.00049E-19-3.15536E-18
 -1      1517 1.05460E-04-3.15903E-05-3.16797E-05 1.37328E-06-3.73040E-19-2.52532E-18
 -1      1518 1.07037E-04-3.20649E-05-3.21442E-05 1.40601E-06-9.96918E-20-2.46086E-18
 -1      1519 1.06067E-04-3.17253E-05-3.18605E-05 2.86363E-06-8.06845E-19-1.74602E-18
 -1      1520 1.03003E-04-3.08559E-05-3.09384E-05 1.13169E-06-4.04891E-19-2.04251E-18
 -1      1521 1.04324E-04-3.12442E-05-3.13299E-05 1.17251E-06-1.97134E-19-2.24431E-18
 -1      1522 1.03670E-04-3.09965E-05-3.11472E-05 2.43837E-06-3.41970E-19-1.44849E-18
 -1      1523 1.01001E-04-3.02611E-05-3.03314E-05 9.02110E-07-3.44755E-19-1.87021E-18
 -1      1524 1.02065E-04-3.05685E-05-3.06483E-05 9.43115E-07-1.10318E-19-1.71926E-18
 -1      1525 1.01653E-04-3.03974E-05-3.05404E-05 1.99339E-06-4.92255E-20-1.54830E-19
 -1      1526 9.94155E-05-2.97923E-05-2.98495E-05 7.00589E-07-1.72269E-19-1.62553E-18
 -1      1527 1.00249E-04-3.00294E-05-3.00984E-05 7.37910E-07-6.32386E-19-2.23326E-18
 -1      1528 1.00013E-04-2.99180E-05-3.00430E-05 1.58090E-06-4.75963E-19-1.24221E-19
 -1      1529 9.81901E-05-2.94311E-05-2.94762E-05 5.32048E-07 5.48293E-19-1.52396E-18
 -1      1530 9.88268E-05-2.96099E-05-2.96669E-05 5.64152E-07 4.31350E-19-1.24334E-18
 -1      1531 9.87126E-05-2.95426E-05-2.96467E-05 1.22334E-06 4.32376E-19-1.31516E-18
 -1      1532 9.72627E-05-2.91586E-05-2.91933E-05 3.95672E-07 3.27603E-19-2.43698E-18
 -1      1533 9.77391E-05-2.92907E-05-2.93363E-05 4.22288E-07 5.40538E-19-1.70202E-18
 -1      1534 9.77052E-05-2.92545E-05-2.93384E-05 9.26369E-07 9.08388E-19-9.73916E-19
 -1      1535 9.65753E-05-2.89571E-05-2.89833E-05 2.88038E-07-7.67664E-19-1.85574E-18
 -1      1536 9.69242E-05-2.90526E-05-2.90883E-05 3.09522E-07-2.98923E-19-2.20502E-18
 -1      1537 9.69405E-05-2.90374E-05-2.91034E-05 6.87086E-07-1.15725E-19-3.67539E-19
 -1      1538 9.60765E-05-2.88114E-05-2.88307E-05 2.04826E-07 2.00611E-19-1.10974E-18
 -1      1539 9.63263E-05-2.88786E-05-2.89061E-05 2.21802E-07-8.13209E-19-2.25068E-18
 -1      1540 9.63714E-05-2.88771E-05-2.89279E-05 4.98774E-07-6.11092E-19-7.16223E-19
 -1      1541 9.57233E-05-2.87084E-05-2.87225E-05 1.41687E-07 5.08589E-19-1.84462E-18
 -1      1542 9.58975E-05-2.87545E-05-2.87752E-05 1.54854E-07 6.69361E-19-9.73449E-19
 -1      1543 9.59567E-05-2.87612E-05-2.87996E-05 3.53514E-07 5.23846E-19-1.15628E-18
 -1      1544 9.54801E-05-2.86379E-05-2.86478E-05 9.46495E-08-6.18313E-19-1.97409E-18
 -1      1545 9.55977E-05-2.86682E-05-2.86835E-05 1.04687E-07-1.40516E-19-1.48059E-18
 -1      1546 9.56616E-05-2.86794E-05-2.87079E-05 2.43519E-07 1.85977E-19-3.69260E-20
 -1      1547 9.53188E-05-2.85913E-05-2.85982E-05 6.02734E-08 7.34609E-19-3.14144E-18
 -1      1548 9.53948E-05-2.86103E-05-2.86214E-05 6.77940E-08 5.96393E-19-1.95666E-18
 -1      1549 9.54573E-05-2.86234E-05-2.86441E-05 1.61745E-07 7.15481E-19-9.07343E-19
 -1      1550 9.52172E-05-2.85622E-05-2.85668E-05 3.56748E-08 1.48483E-19-4.75768E-18
 -1      1551 9.52633E-05-2.85731E-05-2.85810E-05 4.12096E-08 8.02333E-19-3.62402E-18
 -1      1552 9.53208E-05-2.85865E-05-2.86012E-05 1.02118E-07 1.41201E-18-1.64582E-18
 -1      1553 9.51581E-05-2.85454E-05-2.85484E-05 1.84964E-08-3.89500E-19-2.56386E-18
 -1      1554 9.51831E-05-2.85508E-05-2.85562E-05 2.24920E-08-7.92254E-19-4.18897E-18
 -1      1555 9.52340E-05-2.85635E-05-2.85737E-05 5.95619E-08-8.66230E-19-2.12648E-18
 -1      1556 9.51287E-05-2.85373E-05-2.85391E-05 6.84894E-09-3.25700E-19-2.31707E-18
 -1      1557 9.51393E-05-2.85389E-05-2.85426E-05 9.67247E-09 7.94638E-20-2.21536E-18
 -1      1558 9.51827E-05-2.85503E-05-2.85572E-05 2.99349E-08-4.90241E-19-1.23316E-18
 -1      1559 9.51192E-05-2.85350E-05-2.85360E-05-7.53929E-10-9.17750E-19 5.89320E-19
 -1      1560 9.51203E-05-2.85342E-05-2.85365E-05 1.19333E-09-1.19687E-18-1.76797E-18
 -1      1561 9.51564E-05-2.85441E-05-2.85485E-05 9.92569E-09-1.69368E-18-4.36618E-19
 -1      1562 9.51227E-05-2.85364E-05-2.85368E-05-5.46029E-09-2.99532E-19 2.12409E-18
 -1      1563 9.51179E-05-2.85341E-05-2.85356E-05-4.15553E-09-1.52692E-19 1.15124E-18
 -1      1564 9.51470E-05-2.85424E-05-2.85451E-05-3.06509E-09-1.16344E-18 1.34177E-18
 -1      1565 9.51341E-05-2.85401E-05-2.85402E-05-8.13747E-09 1.53534E-18-1.87879E-19
 -1      1566 9.51258E-05-2.85370E-05-2.85378E-05-7.29464E-09 7.04247E-19 1.00566E-18
 -1      1567 9.51487E-05-2.85437E-05-2.85452E-05-1.10371E-08 1.02510E-18-4.79779E-19
 -1      1568 9.51500E-05-2.85450E-05-2.85449E-05-9.42141E-09-7.69993E-19-1.51089E-18
 -1      1569 9.51399E-05-2.85415E-05-2.85419E-05-8.90533E-09 2.53482E-19-6.35848E-19
 -1      1570 9.51573E-05-2.85468E-05-2.85475E-05-1.54915E-08 9.16820E-19-1.06509E-18
 -1      1571 9.51678E-05-2.85504E-05-2.85502E-05-9.75553E-09 4.78926E-19-5.45864E-19
 -1      1572 9.51571E-05-2.85470E-05-2.85470E-05-9.47067E-09 1.26524E-20-5.83067E-19
 -1      1573 9.51698E-05-2.85509E-05-2.85511E-05-1.75159E-08 1.62980E-19-1.20793E-18
 -1      1574 9.51859E-05-2.85560E-05-2.85556E-05-9.41662E-09-3.01588E-19-9.88177E-19
 -1      1575 9.51754E-05-2.85526E-05-2.85525E-05-9.30459E-09-1.04627E-19-1.34916E-18
 -1      1576 9.51839E-05-2.85554E-05-2.85552E-05-1.78488E-08 2.57132E-19-9.89946E-19
 -1      1577 9.52030E-05-2.85611E-05-2.85606E-05-8.52828E-09 7.29391E-19-2.01128E-18
 -1      1578 9.51932E-05-2.85581E-05-2.85578E-05-8.56864E-09 7.11476E-19-3.74994E-19
 -1      1579 9.51983E-05-2.85599E-05-2.85594E-05-1.69207E-08 4.44034E-19-4.84169E-19
 -1      1580 9.52178E-05-2.85657E-05-2.85650E-05-7.06740E-09-1.99815E-19-9.20314E-19
 -1      1581 9.52095E-05-2.85632E-05-2.85626E-05-7.28223E-09-1.62019E-19-1.32959E-18
 -1      1582 9.52117E-05-2.85641E-05-2.85632E-05-1.48796E-08 1.90507E-19 1.22490E-18
 -1      1583 9.52291E-05-2.85693E-05-2.85683E-05-4.85786E-09-4.66045E-19-1.89237E-18
 -1      1584 9.52230E-05-2.85675E-05-2.85666E-05-5.33840E-09 1.22646E-19-1.10200E-18
 -1      1585 9.52231E-05-2.85678E-05-2.85665E-05-1.16179E-08 1.43199E-19 9.75385E-19
 -1      1586 9.52356E-05-2.85713E-05-2.85704E-05-1.92609E-09 3.58595E-19-1.85717E-18
 -1      1587 9.52326E-05-2.85706E-05-2.85693E-05-2.63538E-09 1.62694E-19-2.36803E-18
 -1      1588 9.52316E-05-2.85708E-05-2.85688E-05-6.91290E-09 5.91485E-19-9.61611E-19
 -1      1589 9.52370E-05-2.85716E-05-2.85709E-05-2.11423E-10-1.06870E-18-1.35910E-18
 -1      1590 9.52383E-05-2.85774E-05-2.85689E-05-4.10860E-09 9.79069E-19 2.23085E-18
 -1      1591 9.52372E-05-2.85741E-05-2.85699E-05-3.33102E-09-5.94564E-19 1.18566E-18
 -1      1592 9.52415E-05-2.85869E-05-2.85662E-05-6.42267E-09 3.32654E-18 1.44931E-18
 -1      1593 9.52396E-05-2.85812E-05-2.85678E-05-6.07090E-09 2.40343E-18 1.79516E-18
 -1      1594 9.52384E-05-2.85797E-05-2.85679E-05-9.82958E-09 1.70435E-18 3.43909E-18
 -1      1595 9.52453E-05-2.85984E-05-2.85630E-05-7.32996E-09-3.97230E-20-1.94866E-18
 -1      1596 9.52431E-05-2.85916E-05-2.85649E-05-7.26816E-09 3.18734E-18-1.98537E-18
 -1      1597 9.52418E-05-2.85883E-05-2.85657E-05-1.31629E-08 1.67844E-18-1.06678E-18
 -1      1598 9.52490E-05-2.86099E-05-2.85597E-05-7.03725E-09 6.01579E-19-1.01722E-18
 -1      1599 9.52469E-05-2.86033E-05-2.85615E-05-7.19067E-09-5.46418E-20 6.19059E-19
 -1      1600 9.52452E-05-2.85979E-05-2.85632E-05-1.39653E-08 5.61245E-19-2.23047E-18
 -1      1601 9.52522E-05-2.86198E-05-2.85568E-05-5.88579E-09-2.86486E-18-6.94258E-19
 -1      1602 9.52504E-05-2.86142E-05-2.85584E-05-6.17333E-09-8.37280E-19-3.49319E-18
 -1      1603 9.52484E-05-2.86070E-05-2.85607E-05-1.27171E-08-4.35626E-19-3.58912E-18
 -1      1604 9.52545E-05-2.86273E-05-2.85545E-05-4.12628E-09-4.06220E-18-3.57200E-19
 -1      1605 9.52533E-05-2.86233E-05-2.85557E-05-4.50927E-09-3.70468E-18 9.84306E-19
 -1      1606 9.52510E-05-2.86148E-05-2.85585E-05-1.00170E-08-1.53721E-18-1.83639E-18
 -1      1607 9.52559E-05-2.86316E-05-2.85533E-05-2.01304E-09-4.09301E-18-8.12281E-19
 -1      1608 9.52552E-05-2.86295E-05-2.85539E-05-2.44349E-09-3.99026E-18 4.22806E-19
 -1      1609 9.52529E-05-2.86204E-05-2.85569E-05-6.33604E-09-2.73357E-18-1.46038E-19
 -1      1610 9.52561E-05-2.86323E-05-2.85531E-05 2.55288E-10-4.41996E-18-1.32158E-18
 -1      1611 9.52561E-05-2.86324E-05-2.85530E-05-1.89477E-10-3.86905E-18 4.08469E-19
 -1      1612 9.52539E-05-2.86233E-05-2.85561E-05-2.12499E-09-1.52148E-18-2.74243E-19
 -1      1613 9.52552E-05-2.86294E-05-2.85539E-05 2.50343E-09-2.86114E-18 1.67070E-18
 -1      1614 9.52559E-05-2.86315E-05-2.85533E-05 2.07505E-09-3.31686E-18-7.71218E-19
 -1      1615 9.52538E-05-2.86233E-05-2.85561E-05 2.24862E-09 1.63935E-19-4.33063E-19
 -1      1616 9.52532E-05-2.86231E-05-2.85558E-05 4.55433E-09-2.78918E-18-1.75545E-18
 -1      1617 9.52545E-05-2.86271E-05-2.85546E-05 4.17592E-09-2.05978E-18 5.73666E-19
 -1      1618 9.52529E-05-2.86203E-05-2.85569E-05 6.44248E-09-1.16908E-18 1.84321E-18
 -1      1619 9.52503E-05-2.86141E-05-2.85584E-05 6.17946E-09-4.24988E-18 4.68780E-19
 -1      1620 9.52521E-05-2.86196E-05-2.85568E-05 5.89879E-09-2.43049E-18-1.94119E-18
 -1      1621 9.52510E-05-2.86147E-05-2.85585E-05 1.00666E-08-2.31887E-18-2.35877E-18
 -1      1622 9.52468E-05-2.86030E-05-2.85616E-05 7.18691E-09-5.61270E-18-9.23651E-19
 -1      1623 9.52489E-05-2.86096E-05-2.85597E-05 7.03903E-09-4.08291E-18-1.73296E-19
 -1      1624 9.52484E-05-2.86069E-05-2.85607E-05 1.27270E-08-2.12801E-18-1.74673E-19
 -1      1625 9.52430E-05-2.85914E-05-2.85650E-05 7.26388E-09-6.31918E-18 9.00293E-19
 -1      1626 9.52452E-05-2.85981E-05-2.85631E-05 7.31043E-09-6.39920E-18 2.88129E-19
 -1      1627 9.52452E-05-2.85976E-05-2.85632E-05 1.39411E-08-2.44156E-18-1.22971E-18
 -1      1628 9.52396E-05-2.85812E-05-2.85679E-05 6.02048E-09-6.13454E-18 1.11663E-19
 -1      1629 9.52415E-05-2.85868E-05-2.85663E-05 6.37326E-09-6.67773E-18 4.48272E-20
 -1      1630 9.52417E-05-2.85881E-05-2.85658E-05 1.30961E-08-4.77065E-18 1.83680E-19
 -1      1631 9.52370E-05-2.85748E-05-2.85695E-05 4.77519E-09-3.84990E-18-1.47720E-19
 -1      1632 9.52381E-05-2.85781E-05-2.85685E-05 5.90996E-09-4.29153E-18 2.27782E-19
 -1      1633 9.52382E-05-2.85802E-05-2.85676E-05 1.14173E-08-3.54170E-18 2.02174E-18
 -1      1634 9.52342E-05-2.85743E-05-2.85685E-05 9.21891E-09-1.61907E-18 1.48008E-18
 -1      1635 1.97294E-05-6.37813E-05 1.32202E-05-6.18094E-06 8.64948E-18 5.21942E-18
 -1      1636 2.33915E-05-7.50328E-05 1.57690E-05 1.56925E-06 2.06930E-18 4.06152E-18
 -1      1637 1.94412E-05-3.76267E-05 3.41857E-06 1.88743E-06 1.45740E-17 8.10145E-18
 -1      1638 2.37433E-05-5.96214E-05 9.27897E-06-2.16633E-06 1.14604E-17 5.73796E-18
 -1      1639 3.61582E-05-1.23619E-05-1.21845E-05 2.83946E-05 1.52093E-17 1.17670E-17
 -1      1640 2.99076E-05-3.21812E-05-3.62645E-06 1.06490E-05 1.44809E-17 9.43722E-18
 -1      1641 7.99857E-05-3.87388E-06-3.17116E-05 6.01485E-05 1.38803E-17 1.59259E-17
 -1      1642 5.34657E-05-9.31797E-06-2.13100E-05 3.64793E-05 1.49052E-17 1.27572E-17
 -1      1643 1.47437E-04-1.90873E-05-5.13543E-05 7.75340E-05 1.06281E-17 1.49273E-17
 -1      1644 1.02753E-04-4.75619E-06-4.15335E-05 6.57387E-05 1.39752E-17 1.59310E-17
 -1      1645 2.13238E-04-4.67455E-05-6.61803E-05 5.77704E-05 6.16158E-18 9.25892E-18
 -1      1646 1.71665E-04-2.62914E-05-5.91425E-05 6.98079E-05 9.15579E-18 1.30748E-17
 -1      1647 2.45434E-04-6.00563E-05-7.38040E-05 1.39281E-05 4.35650E-18-3.81165E-20
 -1      1648 2.24826E-04-4.88415E-05-7.06417E-05 4.42543E-05 5.73621E-18 6.17911E-18
 -1      1649 2.37165E-04-5.43918E-05-7.29678E-05-3.36918E-05 5.28464E-18-9.00523E-18
 -1      1650 2.47773E-04-6.05278E-05-7.45912E-05 5.75430E-07 4.31097E-18-2.77157E-18
 -1      1651 1.93688E-04-3.40830E-05-6.42682E-05-6.86873E-05 8.60967E-18-1.56921E-17
 -1      1652 2.30935E-04-5.37361E-05-7.00405E-05-4.93000E-05 5.56199E-18-1.20160E-17
 -1      1653 1.28579E-04-1.23060E-05-4.82900E-05-6.94637E-05 1.38964E-17-1.78707E-17
 -1      1654 1.72722E-04-2.94340E-05-5.71069E-05-7.35325E-05 1.01669E-17-1.64138E-17
 -1      1655 6.85564E-05-3.00913E-06-2.93531E-05-4.98178E-05 1.78250E-17-1.76301E-17
 -1      1656 1.01957E-04-5.49369E-06-3.93811E-05-7.05262E-05 1.57192E-17-1.89964E-17
 -1      1657 3.83549E-05-2.29632E-05-1.03517E-05-2.05652E-05 1.67560E-17-1.24306E-17
 -1      1658 5.22958E-05-7.59903E-06-1.99487E-05-4.22748E-05 1.73125E-17-1.62495E-17
 -1      1659 2.44988E-05-5.02200E-05 5.12897E-06-1.71471E-07 1.36017E-17-7.74950E-18
 -1      1660 2.28068E-05-2.63915E-05-2.02712E-06-1.05631E-05 1.68932E-17-1.13070E-17
 -1      1661 2.44371E-05-7.33011E-05 1.42758E-05 1.66368E-06 5.19697E-18-4.89077E-18
 -1      1662 1.92966E-05-5.64787E-05 1.04138E-05 5.53608E-06 1.15806E-17-6.94419E-18
 -1      1663 2.21384E-05-7.32511E-05 1.56825E-05-4.24664E-06-5.02206E-18-4.46429E-18
 -1      1664 2.21408E-05-7.34401E-05 1.57319E-05 4.98896E-06 2.03161E-18-4.46979E-18
 -1      1665 1.92432E-05-5.58492E-05 1.01990E-05-4.80161E-06-1.35779E-17-6.96907E-18
 -1      1666 2.44084E-05-7.28741E-05 1.41439E-05-8.78164E-07-8.05994E-18-4.61824E-18
 -1      1667 2.25496E-05-2.53778E-05-2.31699E-06 1.15064E-05-1.80875E-17-1.15883E-17
 -1      1668 2.44425E-05-4.92454E-05 4.86620E-06 1.14832E-06-1.53017E-17-8.16243E-18
 -1      1669 5.57546E-05-7.33114E-06-2.12695E-05 4.53177E-05-1.71516E-17-1.56921E-17
 -1      1670 3.99968E-05-2.22459E-05-1.10143E-05 2.24361E-05-1.73955E-17-1.24569E-17
 -1      1671 1.08082E-04-7.93756E-06-4.09043E-05 7.10493E-05-1.47689E-17-1.83815E-17
 -1      1672 7.32468E-05-3.23992E-06-3.09468E-05 5.20600E-05-1.73345E-17-1.72439E-17
 -1      1673 1.83689E-04-3.49400E-05-5.93639E-05 6.61101E-05-9.07977E-18-1.57599E-17
 -1      1674 1.35730E-04-1.52483E-05-4.99608E-05 6.59099E-05-1.22938E-17-1.70948E-17
 -1      1675 2.41221E-04-5.83985E-05-7.17649E-05 4.13757E-05-5.38533E-18-1.17611E-17
 -1      1676 2.07330E-04-3.99134E-05-6.69646E-05 6.57710E-05-8.02495E-18-1.60149E-17
 -1      1677 2.53041E-04-6.36770E-05-7.46435E-05-1.13496E-05-4.07804E-18-2.26920E-18
 -1      1678 2.49223E-04-6.14701E-05-7.41308E-05 2.44664E-05-4.96637E-18-9.25447E-18
 -1      1679 2.21700E-04-4.73427E-05-6.93251E-05-5.76570E-05-4.69325E-18 6.42729E-18
 -1      1680 2.48885E-04-6.24653E-05-7.32111E-05-2.92042E-05-3.34705E-18 9.27501E-19
 -1      1681 1.59579E-04-2.08827E-05-5.64317E-05-7.36333E-05-8.22342E-18 1.11385E-17
 -1      1682 2.01926E-04-4.08207E-05-6.36923E-05-6.66911E-05-5.39528E-18 8.34497E-18
 -1      1683 9.56460E-05-2.76264E-06-3.94430E-05-6.43736E-05-1.27487E-17 1.35746E-17
 -1      1684 1.35250E-04-1.40966E-05-4.86138E-05-7.74779E-05-9.67608E-18 1.27766E-17
 -1      1685 5.16620E-05-8.55923E-06-2.07242E-05-3.66856E-05-1.29054E-17 1.17543E-17
 -1      1686 7.51815E-05-2.68065E-06-3.03448E-05-5.87310E-05-1.24582E-17 1.34771E-17
 -1      1687 2.79556E-05-3.08771E-05-3.34287E-06-1.01933E-05-1.17636E-17 7.83040E-18
 -1      1688 3.34519E-05-1.03800E-05-1.18831E-05-2.78118E-05-1.32349E-17 1.06908E-17
 -1      1689 2.41832E-05-6.04866E-05 9.55729E-06 5.56035E-07-7.93585E-18 4.93492E-18
 -1      1690 1.98629E-05-3.79470E-05 3.54157E-06-3.55318E-06-1.09437E-17 6.68796E-18
 -1      1691 2.39357E-05-7.72998E-05 1.61870E-05-2.17682E-06-1.66230E-20 3.12470E-18
 -1      1692 2.03838E-05-6.67747E-05 1.38570E-05 6.56830E-06-6.49505E-18 4.28408E-18
 -1      1693 1.18328E-04-3.21356E-05-3.59930E-05 4.48796E-05 8.69352E-18 9.31652E-18
 -1      1694 7.55092E-05-3.63033E-05-1.80222E-05 3.90682E-05 8.42120E-18 8.27085E-18
 -1      1695 9.52364E-05-2.85722E-05-2.85703E-05-1.91315E-09-8.54209E-19-3.37430E-19
 -1      1696 9.52357E-05-2.85740E-05-2.85693E-05-5.72521E-09 5.28038E-19 1.60024E-18
 -1      1697 1.96295E-05-4.75321E-05 7.84976E-06 1.38728E-05 4.54179E-18 7.01640E-18
 -1      1698 4.10155E-05-4.16767E-05-2.70055E-06 2.75029E-05 7.95195E-18 6.93794E-18
 -1      1699 1.19702E-05-5.04101E-05 1.19842E-05 3.86927E-07 1.09108E-18 6.76991E-18
 -1      1700 1.63197E-04-3.19981E-05-5.28847E-05 3.97658E-05 8.62894E-18 7.29126E-18
 -1      1701 1.91841E-04-3.11503E-05-6.44036E-05 2.02360E-05 7.89858E-18 2.98621E-18
 -1      1702 2.00752E-04-2.80011E-05-6.92475E-05 1.72974E-06 8.01336E-18-1.20999E-18
 -1      1703 1.99534E-04-3.09823E-05-6.73289E-05-1.76233E-05 7.43102E-18-5.44261E-18
 -1      1704 1.76600E-04-3.31422E-05-5.77150E-05-3.43296E-05 8.28757E-18-8.51183E-18
 -1      1705 1.36130E-04-3.21013E-05-4.26297E-05-4.45397E-05 9.73961E-18-1.01678E-17
 -1      1706 9.20276E-05-3.47040E-05-2.50241E-05-4.28138E-05 9.90944E-18-1.10220E-17
 -1      1707 5.44116E-05-3.99981E-05-8.39124E-06-3.39741E-05 8.72190E-18-9.59053E-18
 -1      1708 2.61986E-05-4.65481E-05 4.64243E-06-1.88656E-05 6.40442E-18-8.64259E-18
 -1      1709 1.34812E-05-4.99774E-05 1.11047E-05-5.88552E-06 1.36457E-18-8.52793E-18
 -1      1710 1.36060E-05-4.98148E-05 1.10309E-05 6.92831E-06-3.57744E-18-8.00700E-18
 -1      1711 2.63695E-05-4.59962E-05 4.47032E-06 1.98434E-05-8.31575E-18-8.62205E-18
 -1      1712 5.57550E-05-3.91046E-05-9.01364E-06 3.55372E-05-9.72309E-18-9.50011E-18
 -1      1713 9.60462E-05-3.55927E-05-2.61711E-05 4.32876E-05-1.01508E-17-1.03906E-17
 -1      1714 1.41179E-04-3.32727E-05-4.41824E-05 4.05905E-05-9.42790E-18-1.01458E-17
 -1      1715 1.79737E-04-3.31038E-05-5.95095E-05 2.90268E-05-7.91341E-18-8.83667E-18
 -1      1716 2.08376E-04-3.44196E-05-6.91915E-05 1.59093E-05-7.70334E-18-7.11169E-18
 -1      1717 2.11283E-04-3.49073E-05-7.00843E-05-9.32303E-06-6.63862E-18-2.80686E-18
 -1      1718 1.91591E-04-3.34415E-05-6.33032E-05-3.02719E-05-5.89186E-18 1.72498E-18
 -1      1719 1.54969E-04-3.03061E-05-5.05762E-05-4.36772E-05-6.74217E-18 5.15589E-18
 -1      1720 1.12508E-04-3.04552E-05-3.43753E-05-4.57941E-05-6.99310E-18 6.51877E-18
 -1      1721 7.19143E-05-3.39405E-05-1.74112E-05-3.95749E-05-5.91822E-18 7.71689E-18
 -1      1722 3.91806E-05-4.07083E-05-2.34045E-06-2.76581E-05-5.24398E-18 6.07624E-18
 -1      1723 1.93294E-05-4.83490E-05 8.24776E-06-1.46959E-05-2.66604E-18 6.24856E-18
 -1      1724 1.09628E-04-2.43708E-05-3.66352E-05-1.48588E-05-2.31854E-18 8.94213E-18
 -1      1725 9.10399E-05-1.09133E-05-3.44750E-05-9.32343E-06-2.89773E-18-3.25989E-18
 -1      1726 9.31851E-05-1.22820E-05-3.47984E-05-1.12328E-05-3.33756E-18-2.23193E-18
 -1      1727 9.59211E-05-1.49190E-05-3.48822E-05-1.23761E-05-3.36343E-18-9.61647E-19
 -1      1728 9.82254E-05-1.71429E-05-3.52181E-05-1.42755E-05-3.61913E-18 7.57883E-19
 -1      1729 9.66358E-05-1.72342E-05-3.40376E-05-9.85124E-06-3.56791E-18-1.38201E-18
 -1      1730 8.44559E-05-6.38947E-06-3.35339E-05-4.25404E-06-1.62141E-18-4.95958E-18
 -1      1731 8.57223E-05-6.98832E-06-3.37873E-05-5.41922E-06-1.97694E-18-4.77267E-18
 -1      1732 8.22001E-05-5.01350E-06-3.31399E-05-2.43901E-06-9.60889E-19-5.20752E-18
 -1      1733 8.31820E-05-5.45094E-06-3.33437E-05-3.35835E-06-1.30136E-18-5.11838E-18
 -1      1734 8.50678E-05-7.92541E-06-3.30870E-05-3.33406E-06-1.60409E-18-4.87698E-18
 -1      1735 8.06396E-05-4.07371E-06-3.28614E-05-1.04109E-06-3.09779E-19-5.34264E-18
 -1      1736 8.12828E-05-4.35569E-06-3.29952E-05-1.76497E-06-6.06899E-19-5.29951E-18
 -1      1737 8.27473E-05-6.34662E-06-3.27650E-05-1.78064E-06-7.93643E-19-5.12254E-18
 -1      1738 7.98666E-05-3.58506E-06-3.27300E-05 7.90916E-08 2.73978E-19-5.27468E-18
 -1      1739 8.01262E-05-3.70360E-06-3.27808E-05-5.30053E-07 2.02295E-20-5.33132E-18
 -1      1740 8.12288E-05-5.32855E-06-3.25468E-05-6.02737E-07-1.54089E-19-5.17650E-18
 -1      1741 7.99568E-05-3.58036E-06-3.27640E-05 1.09776E-06 8.41846E-19-5.21152E-18
 -1      1742 7.98016E-05-3.52396E-06-3.27251E-05 5.11278E-07 5.94023E-19-5.29214E-18
 -1      1743 8.06125E-05-4.90058E-06-3.24639E-05 3.35571E-07 4.64356E-19-5.12268E-18
 -1      1744 8.09379E-05-4.08704E-06-3.29645E-05 2.21266E-06 1.39049E-18-5.06538E-18
 -1      1745 8.03626E-05-3.84672E-06-3.28373E-05 1.55006E-06 1.12006E-18-5.15491E-18
 -1      1746 8.09705E-05-5.10313E-06-3.25306E-05 1.21227E-06 1.05003E-18-5.03684E-18
 -1      1747 8.27438E-05-5.09803E-06-3.33075E-05 3.59641E-06 1.96122E-18-4.65543E-18
 -1      1748 8.17892E-05-4.67894E-06-3.31060E-05 2.77534E-06 1.66056E-18-4.91508E-18
 -1      1749 8.23035E-05-5.95359E-06-3.27392E-05 2.21303E-06 1.66577E-18-4.83710E-18
 -1      1750 8.53874E-05-6.68310E-06-3.37719E-05 5.47621E-06 2.69065E-18-3.92535E-18
 -1      1751 8.40422E-05-6.04699E-06-3.35043E-05 4.37285E-06 2.29204E-18-4.34403E-18
 -1      1752 8.45738E-05-7.47221E-06-3.30652E-05 3.52288E-06 2.32747E-18-4.30675E-18
 -1      1753 8.88509E-05-8.96392E-06-3.43072E-05 7.97253E-06 3.29993E-18-2.88055E-18
 -1      1754 8.71144E-05-8.04066E-06-3.39942E-05 6.50720E-06 2.94955E-18-3.47354E-18
 -1      1755 8.77649E-05-9.73645E-06-3.34645E-05 5.27741E-06 3.01553E-18-3.47135E-18
 -1      1756 9.33564E-05-1.23725E-05-3.48461E-05 1.10904E-05 3.81400E-18-9.13737E-19
 -1      1757 9.10706E-05-1.09012E-05-3.45083E-05 9.21775E-06 3.48847E-18-2.07338E-18
 -1      1758 9.18897E-05-1.29292E-05-3.38551E-05 7.45944E-06 3.59816E-18-2.19122E-18
 -1      1759 1.00002E-04-1.83242E-05-3.51872E-05 1.40354E-05 3.73277E-18 2.57853E-18
 -1      1760 9.64167E-05-1.53465E-05-3.49246E-05 1.22331E-05 3.69445E-18 4.53004E-19
 -1      1761 9.71974E-05-1.76287E-05-3.40887E-05 9.60041E-06 3.89562E-18-6.85038E-20
 -1      1762 1.06472E-04-2.65907E-05-3.46508E-05 1.15797E-05 3.15737E-18 7.00009E-18
 -1      1763 1.02506E-04-2.10738E-05-3.49031E-05 1.36618E-05 3.46079E-18 4.13453E-18
 -1      1764 1.01924E-04-2.32526E-05-3.37742E-05 9.52220E-06 3.82017E-18 2.64907E-18
 -1      1765 1.04076E-04-2.78012E-05-3.28798E-05 6.58018E-06 3.23532E-18 6.01239E-18
 -1      1766 1.04290E-04-2.09977E-05-3.53955E-05-1.60739E-05-3.14442E-18 3.70831E-18
 -1      1767 1.02196E-04-2.92797E-05-3.12605E-05 1.10790E-06 2.52684E-18 4.52607E-18
 -1      1768 1.03668E-04-2.91420E-05-3.19721E-05 3.52180E-06 2.72160E-18 5.40953E-18
 -1      1769 1.03102E-04-2.72723E-05-3.25032E-05 5.29172E-06 3.25777E-18 3.51949E-18
 -1      1770 1.04059E-04-2.39268E-05-3.40694E-05-1.13801E-05-3.34329E-18 2.51569E-18
 -1      1771 1.02630E-04-2.86580E-05-3.15847E-05-2.67882E-06-2.67633E-18 1.97495E-18
 -1      1772 1.01639E-04-2.89188E-05-3.11251E-05-8.42456E-07-2.36627E-18 1.27519E-18
 -1      1773 1.01382E-04-2.92616E-05-3.08129E-05 7.54846E-07-2.08730E-18 1.24915E-18
 -1      1774 1.01482E-04-2.96059E-05-3.07613E-05 1.67675E-06-1.78155E-18 6.32826E-19
 -1      1775 1.01352E-04-2.81877E-05-3.13866E-05-5.55102E-07-2.64041E-18 3.54033E-22
 -1      1776 1.01628E-04-2.98809E-05-3.06915E-05 2.59640E-06-1.43851E-18 5.99421E-19
 -1      1777 1.02241E-04-3.02724E-05-3.08222E-05 3.05830E-06-1.09698E-18 1.83323E-19
 -1      1778 1.01397E-04-2.92501E-05-3.09475E-05 2.33581E-06-1.88407E-18-2.19454E-19
 -1      1779 1.02722E-04-3.06061E-05-3.08773E-05 3.49147E-06-9.46671E-19 1.48403E-19
 -1      1780 1.03586E-04-3.10645E-05-3.10821E-05 3.59987E-06-8.71417E-19-1.25083E-19
 -1      1781 1.02146E-04-3.01577E-05-3.08748E-05 3.89665E-06-1.30184E-18-3.85885E-19
 -1      1782 1.04295E-04-3.14844E-05-3.11915E-05 3.58575E-06-8.05806E-19 4.02010E-20
 -1      1783 1.05180E-04-3.19764E-05-3.13968E-05 3.33045E-06-6.24975E-19-1.67764E-19
 -1      1784 1.03434E-04-3.11734E-05-3.09853E-05 4.41572E-06-9.35210E-19-3.04288E-19
 -1      1785 1.05997E-04-3.24655E-05-3.15102E-05 2.82936E-06-4.11195E-19-5.67711E-20
 -1      1786 1.06667E-04-3.29169E-05-3.16523E-05 2.16726E-06-1.22125E-19-9.02239E-20
 -1      1787 1.05053E-04-3.23578E-05-3.11639E-05 3.89960E-06-5.37793E-19-6.33902E-20
 -1      1788 1.07441E-04-3.34064E-05-3.17333E-05 1.13571E-06-2.05071E-19 1.94503E-20
 -1      1789 1.07653E-04-3.36904E-05-3.17577E-05 6.64859E-08-4.09891E-19 7.85586E-20
 -1      1790 1.06738E-04-3.36216E-05-3.13338E-05 2.25686E-06-1.86533E-19-8.80021E-20
 -1      1791 1.08178E-04-3.40361E-05-3.17876E-05-1.44232E-06-6.86646E-19 2.81784E-19
 -1      1792 1.07719E-04-3.39751E-05-3.16617E-05-2.78316E-06-4.73505E-19 1.26828E-19
 -1      1793 1.08120E-04-3.46881E-05-3.14545E-05-5.14880E-07-4.17806E-19 1.43087E-19
 -1      1794 1.07744E-04-3.39604E-05-3.16440E-05-4.49385E-06-6.25653E-19 3.38052E-20
 -1      1795 1.06527E-04-3.33849E-05-3.13764E-05-5.75280E-06-5.24260E-19-3.88603E-19
 -1      1796 1.08713E-04-3.50731E-05-3.15266E-05-4.08148E-06-7.05241E-19 1.61328E-19
 -1      1797 1.05859E-04-3.28124E-05-3.13367E-05-7.09069E-06-3.90648E-19-5.54370E-19
 -1      1798 1.04051E-04-3.16980E-05-3.09890E-05-7.71811E-06-3.23246E-19-7.40148E-19
 -1      1799 1.08026E-04-3.42168E-05-3.15876E-05-7.53135E-06-6.73351E-19 1.54853E-19
 -1      1800 1.02758E-04-3.05855E-05-3.09604E-05-7.92506E-06-3.41325E-19-9.69045E-19
 -1      1801 1.00858E-04-2.92214E-05-3.06359E-05-7.39667E-06-4.29962E-19-1.22089E-18
 -1      1802 1.05900E-04-3.18867E-05-3.16867E-05-9.37980E-06-7.23747E-19-3.75954E-19
 -1      1803 9.94732E-05-2.80090E-05-3.06354E-05-5.96948E-06-3.96828E-19-1.68417E-18
 -1      1804 9.82038E-05-2.70002E-05-3.04403E-05-4.20471E-06-4.45983E-19-1.69778E-18
 -1      1805 1.02970E-04-2.87225E-05-3.18338E-05-8.12945E-06-6.40641E-19-7.66843E-19
 -1      1806 9.75437E-05-2.63983E-05-3.04573E-05-1.45837E-06-7.11402E-19-2.07223E-18
 -1      1807 9.74841E-05-2.63065E-05-3.04600E-05 9.25644E-07-1.01943E-18-2.04651E-18
 -1      1808 1.00717E-04-2.62708E-05-3.19718E-05-3.46536E-06-8.45802E-19-1.28674E-18
 -1      1809 9.80164E-05-2.67269E-05-3.04833E-05 3.82802E-06-1.13009E-18-2.47212E-18
 -1      1810 9.92361E-05-2.76182E-05-3.06923E-05 5.81268E-06-9.51787E-19-2.80442E-18
 -1      1811 1.00563E-04-2.60150E-05-3.20226E-05 2.93125E-06-1.30654E-18-2.35101E-18
 -1      1812 1.00646E-04-2.87824E-05-3.07308E-05 7.60840E-06-8.25804E-19-3.26597E-18
 -1      1813 1.02657E-04-3.01765E-05-3.10900E-05 8.44552E-06-7.44238E-19-3.49073E-18
 -1      1814 1.02681E-04-2.81301E-05-3.19796E-05 8.20543E-06-1.21165E-18-3.09625E-18
 -1      1815 1.04155E-04-3.13972E-05-3.11538E-05 8.60457E-06-6.09558E-19-3.72135E-18
 -1      1816 1.06236E-04-3.26648E-05-3.15618E-05 8.22014E-06-3.91658E-19-3.94150E-18
 -1      1817 1.05844E-04-3.13433E-05-3.19066E-05 1.02956E-05-9.30121E-19-3.48975E-18
 -1      1818 1.07186E-04-3.34102E-05-3.16407E-05 7.08997E-06-5.20760E-19-3.91492E-18
 -1      1819 1.08766E-04-3.41767E-05-3.19902E-05 5.93920E-06-8.10650E-19-3.75564E-18
 -1      1820 1.08485E-04-3.40235E-05-3.18678E-05 9.07799E-06-5.14268E-19-3.33164E-18
 -1      1821 1.08996E-04-3.43383E-05-3.20517E-05 4.26433E-06-1.02003E-18-3.62255E-18
 -1      1822 1.09829E-04-3.45696E-05-3.22681E-05 2.91593E-06-6.71128E-19-3.81434E-18
 -1      1823 1.09739E-04-3.52904E-05-3.18678E-05 5.87427E-06-7.72659E-19-3.01825E-18
 -1      1824 1.09489E-04-3.43206E-05-3.22794E-05 1.32388E-06-9.75345E-20-3.58834E-18
 -1      1825 1.09608E-04-3.41696E-05-3.23386E-05 1.71916E-07 4.24357E-19-3.91730E-18
 -1      1826 1.09608E-04-3.52202E-05-3.18576E-05 2.23564E-06-3.36957E-19-3.15032E-18
 -1      1827 1.08932E-04-3.37319E-05-3.22832E-05-1.01694E-06 3.38558E-19-3.81724E-18
 -1      1828 1.08509E-04-3.33787E-05-3.22032E-05-1.80903E-06 7.50286E-20-3.73334E-18
 -1      1829 1.08527E-04-3.43491E-05-3.17809E-05-8.18073E-07 3.28391E-19-2.73932E-18
 -1      1830 1.07690E-04-3.29102E-05-3.20853E-05-2.52927E-06-4.69243E-20-3.09999E-18
 -1      1831 1.06932E-04-3.24883E-05-3.19063E-05-2.96249E-06 4.98945E-19-2.83379E-18
 -1      1832 1.06956E-04-3.31971E-05-3.16099E-05-2.89331E-06 1.91009E-19-2.31254E-18
 -1      1833 1.06089E-04-3.20676E-05-3.17427E-05-3.28548E-06 2.22397E-19-3.15433E-18
 -1      1834 1.05175E-04-3.16546E-05-3.15085E-05-3.43759E-06 2.37902E-19-2.99892E-18
 -1      1835 1.05227E-04-3.20859E-05-3.13501E-05-4.01510E-06 2.66834E-19-2.27802E-18
 -1      1836 1.04376E-04-3.13073E-05-3.13205E-05-3.47824E-06 4.90063E-19-2.75090E-18
 -1      1837 1.03436E-04-3.09399E-05-3.10678E-05-3.44313E-06 4.08104E-19-2.55682E-18
 -1      1838 1.03538E-04-3.11530E-05-3.10279E-05-4.39418E-06 5.40079E-19-2.46120E-18
 -1      1839 1.02715E-04-3.06651E-05-3.08744E-05-3.31010E-06 5.60134E-19-2.80378E-18
 -1      1840 1.01830E-04-3.03557E-05-3.06290E-05-3.16827E-06 1.71167E-19-2.68976E-18
 -1      1841 1.01987E-04-3.04249E-05-3.06764E-05-4.27638E-06 6.74333E-19-2.44182E-18
 -1      1842 1.01201E-04-3.01430E-05-3.04444E-05-2.94548E-06-3.57712E-19-2.53386E-18
 -1      1843 1.00418E-04-2.98916E-05-3.02219E-05-2.75533E-06 1.05394E-19-2.14672E-18
 -1      1844 1.00621E-04-2.98792E-05-3.03250E-05-3.87190E-06 2.52332E-19-2.19726E-18
 -1      1845 9.98842E-05-2.97288E-05-3.00550E-05-2.49999E-06 1.44166E-19-2.49129E-18
 -1      1846 9.92194E-05-2.95299E-05-2.98629E-05-2.29921E-06 1.57542E-19-2.01837E-18
 -1      1847 9.94515E-05-2.94792E-05-2.99953E-05-3.33464E-06-8.40581E-21-1.64362E-18
 -1      1848 9.87767E-05-2.94065E-05-2.97181E-05-2.04661E-06 2.61748E-19-2.09861E-18
 -1      1849 9.82313E-05-2.92525E-05-2.95583E-05-1.85698E-06 6.83777E-19-1.93381E-18
 -1      1850 9.84752E-05-2.91896E-05-2.97005E-05-2.76565E-06-2.06233E-20-1.85351E-18
 -1      1851 9.78719E-05-2.91596E-05-2.94369E-05-1.62649E-06 3.63314E-19-1.97478E-18
 -1      1852 9.74369E-05-2.90429E-05-2.93080E-05-1.45891E-06 9.24201E-20-1.76380E-18
 -1      1853 9.76773E-05-2.89820E-05-2.94469E-05-2.22482E-06 3.94630E-19-1.38259E-18
 -1      1854 9.71510E-05-2.89738E-05-2.92089E-05-1.25937E-06-1.12885E-18-1.98431E-18
 -1      1855 9.68127E-05-2.88871E-05-2.91076E-05-1.11783E-06-1.19754E-18-2.39675E-18
 -1      1856 9.70382E-05-2.88347E-05-2.92354E-05-1.74321E-06-3.21583E-19-1.79987E-18
 -1      1857 9.65896E-05-2.88363E-05-2.90288E-05-9.51527E-07-3.94985E-19-2.60693E-18
 -1      1858 9.63326E-05-2.87733E-05-2.89511E-05-8.35985E-07-4.46427E-19-1.65021E-18
 -1      1859 9.65359E-05-2.87314E-05-2.90637E-05-1.33312E-06-9.36358E-19-1.28445E-18
 -1      1860 9.61620E-05-2.87366E-05-2.88898E-05-7.01482E-07-4.64758E-19-1.45966E-18
 -1      1861 9.59714E-05-2.86920E-05-2.88316E-05-6.09742E-07 2.64280E-20-9.88319E-19
 -1      1862 9.61488E-05-2.86602E-05-2.89275E-05-9.95565E-07-2.01768E-19-1.08421E-18
 -1      1863 9.58435E-05-2.86660E-05-2.87850E-05-5.03682E-07-1.53648E-19-1.46183E-18
 -1      1864 9.57057E-05-2.86354E-05-2.87424E-05-4.32589E-07 4.36351E-19-1.64311E-18
 -1      1865 9.58563E-05-2.86124E-05-2.88219E-05-7.25265E-07-1.64769E-19-1.12226E-18
 -1      1866 9.56119E-05-2.86175E-05-2.87078E-05-3.50852E-07 6.68170E-19-2.35714E-18
 -1      1867 9.55151E-05-2.85972E-05-2.86775E-05-2.96994E-07 9.88575E-19-3.05218E-18
 -1      1868 9.56399E-05-2.85814E-05-2.87419E-05-5.13959E-07-6.90824E-20-2.24663E-18
 -1      1869 9.54481E-05-2.85853E-05-2.86523E-05-2.35369E-07 1.30405E-18-3.27250E-18
 -1      1870 9.53824E-05-2.85727E-05-2.86315E-05-1.95477E-07 8.29969E-19-2.51064E-18
 -1      1871 9.54835E-05-2.85623E-05-2.86825E-05-3.52405E-07 1.18592E-18-2.83152E-18
 -1      1872 9.53358E-05-2.85651E-05-2.86137E-05-1.50034E-07-4.78343E-19-2.06935E-18
 -1      1873 9.52933E-05-2.85579E-05-2.85999E-05-1.21175E-07-1.37298E-18-2.63201E-18
 -1      1874 9.53735E-05-2.85516E-05-2.86395E-05-2.31549E-07 3.42647E-19-2.85754E-18
 -1      1875 9.52622E-05-2.85535E-05-2.85878E-05-8.84483E-08-2.88572E-19-2.21183E-18
 -1      1876 9.52365E-05-2.85500E-05-2.85792E-05-6.81098E-08-3.07134E-19-1.04922E-18
 -1      1877 9.52987E-05-2.85465E-05-2.86093E-05-1.43147E-07-4.09354E-19-2.11104E-18
 -1      1878 9.52169E-05-2.85478E-05-2.85713E-05-4.51577E-08-1.40773E-18-5.24805E-19
 -1      1879 9.52031E-05-2.85468E-05-2.85664E-05-3.12573E-08-1.03352E-18-5.78987E-19
 -1      1880 9.52502E-05-2.85452E-05-2.85887E-05-8.00418E-08-9.01203E-19-3.76241E-19
 -1      1881 9.51917E-05-2.85461E-05-2.85616E-05-1.56618E-08 7.15932E-20-5.20736E-19
 -1      1882 9.51861E-05-2.85468E-05-2.85593E-05-6.52184E-09 4.85582E-19 3.28689E-19
 -1      1883 9.52207E-05-2.85462E-05-2.85754E-05-3.62378E-08-3.05109E-19 3.71690E-19
 -1      1884 9.51805E-05-2.85470E-05-2.85567E-05 3.65121E-09 1.56282E-19-3.64348E-20
 -1      1885 9.51804E-05-2.85486E-05-2.85562E-05 9.34636E-09 2.05134E-19 3.91332E-19
 -1      1886 9.52049E-05-2.85487E-05-2.85674E-05-6.85737E-09 2.50576E-19 6.69979E-19
 -1      1887 9.51786E-05-2.85494E-05-2.85551E-05 1.56020E-08 3.70946E-19 4.51044E-19
 -1      1888 9.51820E-05-2.85516E-05-2.85557E-05 1.88537E-08 9.74802E-19 5.83923E-19
 -1      1889 9.51983E-05-2.85519E-05-2.85631E-05 1.19597E-08 8.22815E-19 1.16420E-18
 -1      1890 9.51828E-05-2.85528E-05-2.85556E-05 2.23256E-08 1.84527E-18-5.00536E-19
 -1      1891 9.51881E-05-2.85552E-05-2.85568E-05 2.38658E-08 1.48861E-18 6.94440E-20
 -1      1892 9.51981E-05-2.85554E-05-2.85613E-05 2.31807E-08 7.69350E-19 1.55703E-18
 -1      1893 9.51905E-05-2.85566E-05-2.85573E-05 2.53696E-08 1.28179E-18 1.09437E-18
 -1      1894 9.51968E-05-2.85591E-05-2.85589E-05 2.56987E-08 1.69657E-18 2.51480E-18
 -1      1895 9.52017E-05-2.85590E-05-2.85613E-05 2.90027E-08 1.98490E-18 1.92368E-18
 -1      1896 9.52000E-05-2.85605E-05-2.85598E-05 2.57774E-08 1.18396E-18 2.25434E-18
 -1      1897 9.52064E-05-2.85629E-05-2.85615E-05 2.51929E-08 1.51685E-18 2.15914E-18
 -1      1898 9.52077E-05-2.85626E-05-2.85622E-05 3.09633E-08 1.59629E-18 3.06222E-18
 -1      1899 9.52100E-05-2.85644E-05-2.85624E-05 2.41578E-08 1.42461E-18 2.81199E-18
 -1      1900 9.52160E-05-2.85667E-05-2.85640E-05 2.27756E-08 1.59670E-18 2.92962E-18
 -1      1901 9.52147E-05-2.85662E-05-2.85636E-05 3.00400E-08 1.33977E-18 3.43660E-18
 -1      1902 9.52195E-05-2.85682E-05-2.85649E-05 2.07710E-08 1.57322E-18 2.87628E-18
 -1      1903 9.52247E-05-2.85703E-05-2.85662E-05 1.85420E-08 1.33203E-18 3.07000E-18
 -1      1904 9.52219E-05-2.85698E-05-2.85652E-05 2.67489E-08 9.64656E-19 3.27125E-18
 -1      1905 9.52275E-05-2.85715E-05-2.85669E-05 1.57472E-08 3.51634E-19 2.73261E-18
 -1      1906 9.52316E-05-2.85733E-05-2.85679E-05 1.27220E-08-7.20439E-19 2.37510E-18
 -1      1907 9.52335E-05-2.85757E-05-2.85676E-05 1.48158E-08-1.88655E-18 1.72813E-18
 -1      1908 9.52283E-05-2.85731E-05-2.85665E-05 2.14907E-08 5.51029E-19 1.89239E-18
 -1      1909 1.01941E-04-2.98269E-05-3.08651E-05-1.68006E-06 1.87748E-18 3.18172E-18
 -1      1910 1.02058E-04-2.96284E-05-3.09760E-05-4.27789E-07 2.14151E-18 4.07178E-18
 -1      1911 1.02169E-04-2.89720E-05-3.13876E-05 2.43820E-07 2.60739E-18 2.64021E-18
 -1      1912 1.03021E-04-3.04357E-05-3.10757E-05-3.36747E-06 1.09792E-18 2.22242E-18
 -1      1913 1.02303E-04-3.00951E-05-3.08918E-05-2.58944E-06 1.33483E-18 2.83785E-18
 -1      1914 1.02278E-04-2.97298E-05-3.11117E-05-2.70971E-06 1.76993E-18 1.84162E-18
 -1      1915 1.05040E-04-3.12587E-05-3.16048E-05-4.38511E-06 7.00691E-19 1.77205E-18
 -1      1916 1.03821E-04-3.07851E-05-3.12700E-05-3.89383E-06 7.54299E-19 2.05994E-18
 -1      1917 1.03447E-04-3.04732E-05-3.12973E-05-4.52478E-06 1.08330E-18 1.19234E-18
 -1      1918 1.07621E-04-3.22986E-05-3.22825E-05-4.76997E-06 3.54928E-19 1.35959E-18
 -1      1919 1.06149E-04-3.17260E-05-3.18835E-05-4.56540E-06 4.85512E-19 1.63729E-18
 -1      1920 1.05390E-04-3.14148E-05-3.17264E-05-5.51629E-06 6.85916E-19 8.02752E-19
 -1      1921 1.10365E-04-3.35015E-05-3.29612E-05-4.34011E-06 2.42116E-19 1.33949E-18
 -1      1922 1.08897E-04-3.28865E-05-3.25789E-05-4.52473E-06 2.19347E-19 1.49327E-18
 -1      1923 1.07824E-04-3.26123E-05-3.22526E-05-5.63667E-06 2.90519E-19 6.05500E-19
 -1      1924 1.12781E-04-3.47345E-05-3.34841E-05-2.80331E-06 2.90450E-19 1.19567E-18
 -1      1925 1.11631E-04-3.41783E-05-3.32098E-05-3.53331E-06 2.78978E-19 1.37106E-18
 -1      1926 1.10430E-04-3.40376E-05-3.27500E-05-4.62896E-06 3.77181E-19 5.26444E-19
 -1      1927 1.14248E-04-3.57141E-05-3.36976E-05 5.71280E-08 3.86174E-19 1.21034E-18
 -1      1928 1.13789E-04-3.53911E-05-3.36249E-05-1.33551E-06 4.18792E-19 1.25651E-18
 -1      1929 1.12780E-04-3.55168E-05-3.31066E-05-2.18582E-06 5.42736E-19 8.81468E-19
 -1      1930 1.14068E-04-3.59488E-05-3.35053E-05 4.02240E-06-2.14465E-19 1.23529E-18
 -1      1931 1.14656E-04-3.61047E-05-3.36964E-05 2.07273E-06 1.13423E-19 1.22942E-18
 -1      1932 1.14261E-04-3.66030E-05-3.32510E-05 1.75691E-06 1.89630E-19 9.98556E-19
 -1      1933 1.11720E-04-3.48537E-05-3.29375E-05 7.99653E-06 4.69984E-19 1.30151E-18
 -1      1934 1.13508E-04-3.57064E-05-3.33757E-05 6.04068E-06-1.33143E-20 1.15005E-18
 -1      1935 1.14131E-04-3.65647E-05-3.31901E-05 6.54466E-06 1.10591E-19 1.13962E-18
 -1      1936 1.07399E-04-3.22228E-05-3.21932E-05 9.93659E-06 1.29761E-18 1.23098E-18
 -1      1937 1.10077E-04-3.37208E-05-3.27491E-05 8.98729E-06 8.69694E-19 1.37978E-18
 -1      1938 1.11873E-04-3.47047E-05-3.30203E-05 1.04142E-05 8.85924E-19 8.43552E-19
 -1      1939 1.02589E-04-2.89234E-05-3.15769E-05 7.83279E-06 2.35274E-18-2.22624E-19
 -1      1940 1.05229E-04-3.04950E-05-3.20424E-05 8.83445E-06 1.92467E-18 4.60812E-19
 -1      1941 1.07928E-04-3.11984E-05-3.28833E-05 1.08421E-05 2.32037E-18 6.17222E-19
 -1      1942 9.98609E-05-2.69105E-05-3.13240E-05 1.67109E-06 1.69907E-18-1.06895E-18
 -1      1943 1.01205E-04-2.76344E-05-3.15151E-05 4.54723E-06 1.94553E-18-6.48840E-19
 -1      1944 1.04239E-04-2.77705E-05-3.28531E-05 6.22337E-06 2.32909E-18-2.17330E-19
 -1      1945 1.01145E-04-2.77364E-05-3.15417E-05-5.54335E-06 7.77642E-19-2.23079E-18
 -1      1946 1.00368E-04-2.71033E-05-3.13637E-05-2.27230E-06 1.32164E-18-1.68860E-18
 -1      1947 1.03262E-04-2.66599E-05-3.28964E-05-1.86787E-06 1.64483E-18-1.47272E-18
 -1      1948 1.05776E-04-3.08162E-05-3.21708E-05-1.00222E-05-1.82019E-19-3.59719E-18
 -1      1949 1.03240E-04-2.92211E-05-3.16880E-05-8.03474E-06 4.27037E-19-2.90943E-18
 -1      1950 1.05831E-04-2.89127E-05-3.30113E-05-9.15181E-06 9.17773E-19-2.80753E-18
 -1      1951 1.11220E-04-3.41543E-05-3.30074E-05-1.00815E-05 3.11940E-19-4.36714E-18
 -1      1952 1.08127E-04-3.25351E-05-3.23910E-05-1.00199E-05-1.51529E-19-4.09667E-18
 -1      1953 1.10236E-04-3.27362E-05-3.31961E-05-1.20201E-05 3.11093E-19-3.64924E-18
 -1      1954 1.15133E-04-3.61795E-05-3.37818E-05-6.90867E-06-5.99229E-19-3.47356E-18
 -1      1955 1.12664E-04-3.51685E-05-3.32404E-05-8.21195E-06 1.19974E-19-3.79275E-18
 -1      1956 1.14012E-04-3.58963E-05-3.34477E-05-1.01357E-05 9.09634E-20-4.06348E-18
 -1      1957 1.16659E-04-3.66266E-05-3.42487E-05-2.74613E-06-9.58716E-19-3.68898E-18
 -1      1958 1.15389E-04-3.63240E-05-3.39337E-05-4.46818E-06-7.47414E-19-3.19037E-18
 -1      1959 1.15765E-04-3.71832E-05-3.36720E-05-5.69007E-06-6.07561E-19-3.36386E-18
 -1      1960 1.16113E-04-3.60051E-05-3.43020E-05 7.68293E-07-6.25024E-19-2.40843E-18
 -1      1961 1.16023E-04-3.62076E-05-3.42566E-05-6.97141E-07-1.07105E-18-3.14641E-18
 -1      1962 1.15501E-04-3.68212E-05-3.37338E-05-1.06405E-06-1.09279E-18-3.26027E-18
 -1      1963 1.14227E-04-3.49113E-05-3.39827E-05 3.02539E-06-2.45375E-20-1.51369E-18
 -1      1964 1.14997E-04-3.53740E-05-3.41624E-05 2.06937E-06-2.01442E-19-1.67204E-18
 -1      1965 1.13879E-04-3.56060E-05-3.35631E-05 2.40728E-06-5.93969E-19-1.99670E-18
 -1      1966 1.11680E-04-3.37320E-05-3.34096E-05 4.10072E-06 1.53466E-18-2.06683E-18
 -1      1967 1.12937E-04-3.42805E-05-3.37329E-05 3.62928E-06 8.28762E-19-1.33257E-18
 -1      1968 1.11570E-04-3.41891E-05-3.31767E-05 4.42075E-06 1.08310E-18-1.42078E-18
 -1      1969 1.08959E-04-3.26527E-05-3.27113E-05 4.33054E-06-1.35397E-20-2.69520E-18
 -1      1970 1.10399E-04-3.31888E-05-3.30992E-05 4.20985E-06 8.95413E-19-1.99438E-18
 -1      1971 1.09048E-04-3.29004E-05-3.26423E-05 5.22082E-06 9.56740E-19-2.00456E-18
 -1      1972 1.06357E-04-3.17347E-05-3.19905E-05 4.05998E-06-8.63778E-19-1.92937E-18
 -1      1973 1.07779E-04-3.22132E-05-3.23843E-05 4.15045E-06-7.06942E-19-2.66180E-18
 -1      1974 1.06596E-04-3.18455E-05-3.20398E-05 5.20929E-06-5.17195E-19-1.35500E-18
 -1      1975 1.04030E-04-3.09826E-05-3.13140E-05 3.54791E-06-9.79275E-19-7.42540E-19
 -1      1976 1.05320E-04-3.13881E-05-3.16780E-05 3.74337E-06-1.06029E-18-1.27687E-18
 -1      1977 1.04366E-04-3.10200E-05-3.14355E-05 4.74336E-06-1.04775E-18-5.80407E-19
 -1      1978 1.02040E-04-3.03803E-05-3.07171E-05 2.95931E-06-3.05896E-19-5.09708E-19
 -1      1979 1.03148E-04-3.07122E-05-3.10338E-05 3.19119E-06-2.94286E-19-3.94315E-19
 -1      1980 1.02423E-04-3.03855E-05-3.08742E-05 4.07666E-06-8.58489E-19 2.21420E-20
 -1      1981 1.00393E-04-2.99057E-05-3.02128E-05 2.38669E-06-2.40872E-19 1.20829E-19
 -1      1982 1.01309E-04-3.01706E-05-3.04770E-05 2.61590E-06-2.85386E-19-3.77182E-19
 -1      1983 1.00785E-04-2.99011E-05-3.03799E-05 3.36594E-06-2.72745E-19-1.38290E-19
 -1      1984 9.90656E-05-2.95370E-05-2.98005E-05 1.87485E-06 4.07400E-19-5.16522E-20
 -1      1985 9.98011E-05-2.97440E-05-3.00140E-05 2.08195E-06-7.60907E-20 2.22094E-19
 -1      1986 9.94401E-05-2.95328E-05-2.99615E-05 2.69667E-06 5.17352E-20 1.78365E-19
 -1      1987 9.80192E-05-2.92547E-05-2.94719E-05 1.44022E-06 5.66660E-19-3.67443E-19
 -1      1988 9.85957E-05-2.94135E-05-2.96402E-05 1.61757E-06 5.22899E-19-1.63527E-19
 -1      1989 9.83595E-05-2.92543E-05-2.96180E-05 2.10837E-06 8.09993E-19 6.20511E-19
 -1      1990 9.72107E-05-2.90419E-05-2.92159E-05 1.08381E-06 5.48578E-19 1.56734E-19
 -1      1991 9.76530E-05-2.91614E-05-2.93456E-05 1.23030E-06 6.07649E-19 3.33153E-20
 -1      1992 9.75086E-05-2.90452E-05-2.93430E-05 1.61355E-06 2.50293E-19 1.38642E-18
 -1      1993 9.65978E-05-2.88841E-05-2.90203E-05 7.99074E-07-6.40840E-19-3.10165E-19
 -1      1994 9.69305E-05-2.89723E-05-2.91184E-05 9.16895E-07 2.29964E-20-7.79027E-20
 -1      1995 9.68509E-05-2.88902E-05-2.91276E-05 1.21017E-06 5.22045E-19 5.69352E-19
 -1      1996 9.61421E-05-2.87693E-05-2.88739E-05 5.76408E-07 8.24187E-19-1.19602E-18
 -1      1997 9.63873E-05-2.88331E-05-2.89465E-05 6.69145E-07-1.57427E-19-2.32696E-19
 -1      1998 9.63519E-05-2.87770E-05-2.89622E-05 8.89220E-07 3.34063E-19-3.55225E-19
 -1      1999 9.58103E-05-2.86876E-05-2.87665E-05 4.05546E-07 7.85573E-20 6.76342E-20
 -1      2000 9.59870E-05-2.87327E-05-2.88191E-05 4.77169E-07 1.71410E-19-6.24782E-19
 -1      2001 9.59804E-05-2.86959E-05-2.88376E-05 6.39007E-07 2.98429E-19 5.56515E-20
 -1      2002 9.55743E-05-2.86311E-05-2.86895E-05 2.76791E-07 6.72208E-20 7.72858E-19
 -1      2003 9.56985E-05-2.86620E-05-2.87267E-05 3.31126E-07 4.04063E-19 1.07947E-18
 -1      2004 9.57095E-05-2.86392E-05-2.87457E-05 4.47528E-07-4.13606E-19 9.66534E-19
 -1      2005 9.54111E-05-2.85933E-05-2.86357E-05 1.81540E-07 1.83358E-18-3.91784E-20
 -1      2006 9.54957E-05-2.86137E-05-2.86613E-05 2.22028E-07 9.77373E-19 3.73089E-19
 -1      2007 9.55166E-05-2.86007E-05-2.86793E-05 3.03620E-07 1.46323E-18 1.44154E-18
 -1      2008 9.53022E-05-2.85693E-05-2.85994E-05 1.12455E-07 5.27383E-19-5.25983E-19
 -1      2009 9.53576E-05-2.85821E-05-2.86163E-05 1.42060E-07 1.54868E-18-3.99737E-20
 -1      2010 9.53829E-05-2.85757E-05-2.86325E-05 1.97457E-07 1.64261E-18 1.41622E-18
 -1      2011 9.52332E-05-2.85551E-05-2.85759E-05 6.34478E-08-1.27294E-18-7.93827E-19
 -1      2012 9.52673E-05-2.85624E-05-2.85865E-05 8.46497E-08-7.22421E-19-7.94072E-19
 -1      2013 9.52937E-05-2.85605E-05-2.86006E-05 1.20696E-07-2.62274E-19 6.75129E-19
 -1      2014 9.51927E-05-2.85478E-05-2.85618E-05 2.95801E-08-6.51635E-19-3.49576E-19
 -1      2015 9.52118E-05-2.85514E-05-2.85678E-05 4.44065E-08-1.34700E-18-9.35383E-19
 -1      2016 9.52369E-05-2.85521E-05-2.85798E-05 6.64398E-08-1.57211E-18-2.10974E-19
 -1      2017 9.51722E-05-2.85452E-05-2.85542E-05 6.92153E-09-2.61101E-18-8.00809E-19
 -1      2018 9.51809E-05-2.85462E-05-2.85571E-05 1.69971E-08-1.89814E-18-4.45217E-19
 -1      2019 9.52036E-05-2.85485E-05-2.85669E-05 2.91108E-08-1.88439E-18-5.16058E-19
 -1      2020 9.51653E-05-2.85456E-05-2.85511E-05-7.59535E-09 3.60546E-19 2.11240E-19
 -1      2021 9.51671E-05-2.85450E-05-2.85519E-05-9.94305E-10-1.28051E-18-4.99696E-19
 -1      2022 9.51867E-05-2.85481E-05-2.85598E-05 4.28374E-09-1.56114E-18-1.08636E-18
 -1      2023 9.51673E-05-2.85480E-05-2.85509E-05-1.63132E-08 1.83751E-18-1.24837E-18
 -1      2024 9.51646E-05-2.85464E-05-2.85504E-05-1.22061E-08 1.46846E-18-2.15959E-19
 -1      2025 9.51809E-05-2.85496E-05-2.85565E-05-1.14803E-08 1.73460E-18-1.76303E-19
 -1      2026 9.51748E-05-2.85515E-05-2.85527E-05-2.09715E-08-4.72135E-19 4.40598E-20
 -1      2027 9.51694E-05-2.85493E-05-2.85513E-05-1.86268E-08 8.06565E-19 2.98581E-21
 -1      2028 9.51825E-05-2.85523E-05-2.85560E-05-2.07912E-08 2.45536E-19 1.15294E-18
 -1      2029 9.51852E-05-2.85554E-05-2.85555E-05-2.28073E-08 8.94189E-19-9.01561E-19
 -1      2030 9.51785E-05-2.85530E-05-2.85537E-05-2.17039E-08-2.52348E-19-9.26063E-19
 -1      2031 9.51885E-05-2.85557E-05-2.85571E-05-2.55667E-08 5.76241E-19 1.15651E-18
 -1      2032 9.51970E-05-2.85596E-05-2.85588E-05-2.26294E-08-3.88830E-20-1.26576E-18
 -1      2033 9.51898E-05-2.85571E-05-2.85568E-05-2.24303E-08 1.24681E-18-6.92376E-19
 -1      2034 9.51971E-05-2.85594E-05-2.85591E-05-2.71438E-08 9.75097E-19-3.01064E-19
 -1      2035 9.52087E-05-2.85637E-05-2.85621E-05-2.08672E-08 5.82331E-19-1.56092E-19
 -1      2036 9.52017E-05-2.85613E-05-2.85602E-05-2.14056E-08-6.67218E-19-7.97524E-19
 -1      2037 9.52066E-05-2.85631E-05-2.85616E-05-2.63631E-08-5.48017E-19-8.79657E-19
 -1      2038 9.52194E-05-2.85675E-05-2.85651E-05-1.76242E-08-1.23715E-18 1.39359E-18
 -1      2039 9.52132E-05-2.85653E-05-2.85634E-05-1.88862E-08-5.82808E-20 8.02562E-19
 -1      2040 9.52161E-05-2.85668E-05-2.85640E-05-2.36285E-08-4.08618E-19-5.18574E-20
 -1      2041 9.52283E-05-2.85709E-05-2.85675E-05-1.27523E-08 1.26265E-18 2.72257E-18
 -1      2042 9.52234E-05-2.85691E-05-2.85662E-05-1.48788E-08 3.90394E-19 2.79129E-18
 -1      2043 9.52248E-05-2.85703E-05-2.85662E-05-1.90613E-08 7.81043E-20 2.44871E-18
 -1      2044 9.52339E-05-2.85733E-05-2.85689E-05-7.95827E-09 7.40786E-19 1.53952E-18
 -1      2045 9.52304E-05-2.85719E-05-2.85680E-05-1.08486E-08 1.36123E-18 2.20221E-18
 -1      2046 9.52310E-05-2.85732E-05-2.85676E-05-1.41778E-08 1.86682E-18 3.92573E-18
 -1      2047 9.52350E-05-2.85753E-05-2.85684E-05-9.77638E-09 1.16806E-18 3.92905E-18
 -1      2048 9.52457E-05-2.85974E-05-2.85635E-05-1.82741E-08 5.78509E-19-1.29864E-18
 -1      2049 9.52435E-05-2.85927E-05-2.85647E-05-1.84888E-08 8.72122E-19-2.15783E-18
 -1      2050 9.52416E-05-2.85891E-05-2.85654E-05-1.81161E-08 4.02917E-19-2.89039E-18
 -1      2051 9.52394E-05-2.85845E-05-2.85665E-05-1.69660E-08 6.98950E-19-4.34303E-19
 -1      2052 9.52416E-05-2.85887E-05-2.85656E-05-2.27976E-08-2.15847E-19-2.06451E-18
 -1      2053 9.52381E-05-2.85818E-05-2.85670E-05-1.50699E-08 1.55088E-18 2.94095E-18
 -1      2054 9.52361E-05-2.85779E-05-2.85679E-05-1.25846E-08 1.36180E-18 4.21167E-18
 -1      2055 9.52345E-05-2.85770E-05-2.85675E-05-1.50960E-08 1.76261E-18 3.99182E-18
 -1      2056 9.52378E-05-2.85823E-05-2.85666E-05-2.02085E-08-1.00875E-20 8.19726E-19
 -1      2057 9.52490E-05-2.86048E-05-2.85617E-05-1.61005E-08-1.17987E-18-5.62190E-18
 -1      2058 9.52472E-05-2.86006E-05-2.85628E-05-1.72888E-08-5.10030E-19-2.79067E-18
 -1      2059 9.52459E-05-2.85957E-05-2.85644E-05-2.20387E-08-8.22274E-19-3.30424E-18
 -1      2060 9.52515E-05-2.86109E-05-2.85602E-05-1.21784E-08-1.08336E-18-1.52653E-18
 -1      2061 9.52502E-05-2.86075E-05-2.85611E-05-1.40775E-08-5.48941E-19-2.34926E-18
 -1      2062 9.52492E-05-2.86017E-05-2.85633E-05-1.86736E-08-3.79646E-19-3.87973E-18
 -1      2063 9.52531E-05-2.86149E-05-2.85592E-05-7.14131E-09-1.05661E-18-3.22139E-19
 -1      2064 9.52523E-05-2.86128E-05-2.85597E-05-9.46614E-09-4.83683E-19-4.59304E-19
 -1      2065 9.52516E-05-2.86064E-05-2.85623E-05-1.33893E-08 6.29614E-19-9.55814E-19
 -1      2066 9.52538E-05-2.86166E-05-2.85587E-05-1.52259E-09-1.42803E-18 8.42893E-20
 -1      2067 9.52535E-05-2.86158E-05-2.85589E-05-4.04505E-09-1.56124E-18-5.78411E-19
 -1      2068 9.52531E-05-2.86093E-05-2.85617E-05-6.91922E-09-5.39027E-19-4.05694E-19
 -1      2069 9.52535E-05-2.86158E-05-2.85589E-05 4.20878E-09 3.12482E-19 4.85018E-20
 -1      2070 9.52538E-05-2.86165E-05-2.85587E-05 1.69183E-09-4.61671E-19-3.79595E-20
 -1      2071 9.52535E-05-2.86102E-05-2.85615E-05 1.06649E-10-1.19184E-18 9.05178E-19
 -1      2072 9.52523E-05-2.86126E-05-2.85598E-05 9.60043E-09-1.24114E-18 8.46535E-19
 -1      2073 9.52531E-05-2.86148E-05-2.85592E-05 7.29190E-09-1.53087E-19 1.40421E-18
 -1      2074 9.52530E-05-2.86092E-05-2.85617E-05 7.11742E-09-6.52873E-19 1.23354E-19
 -1      2075 9.52501E-05-2.86074E-05-2.85611E-05 1.40971E-08-1.55796E-18-2.23704E-18
 -1      2076 9.52515E-05-2.86108E-05-2.85602E-05 1.22494E-08-1.71896E-18-1.30233E-18
 -1      2077 9.52516E-05-2.86063E-05-2.85623E-05 1.34982E-08-3.56095E-19-4.11000E-19
 -1      2078 9.52471E-05-2.86005E-05-2.85628E-05 1.72859E-08-6.95888E-19 3.68094E-19
 -1      2079 9.52489E-05-2.86048E-05-2.85617E-05 1.61024E-08-1.40089E-18 8.45362E-19
 -1      2080 9.52492E-05-2.86016E-05-2.85633E-05 1.86912E-08-6.42198E-19-1.09008E-18
 -1      2081 9.52434E-05-2.85925E-05-2.85647E-05 1.84465E-08-1.10521E-18-1.01765E-18
 -1      2082 9.52456E-05-2.85972E-05-2.85635E-05 1.82564E-08-8.88293E-19-1.40878E-18
 -1      2083 9.52458E-05-2.85955E-05-2.85644E-05 2.20267E-08-4.96834E-19-8.49373E-19
 -1      2084 9.52392E-05-2.85842E-05-2.85665E-05 1.70202E-08-3.40576E-18-2.95754E-19
 -1      2085 9.52416E-05-2.85889E-05-2.85654E-05 1.80515E-08-2.45475E-18-3.27051E-19
 -1      2086 9.52416E-05-2.85885E-05-2.85656E-05 2.27085E-08-2.13394E-20-2.21324E-18
 -1      2087 5.77784E-05-3.99976E-05-8.25544E-06 3.88813E-05 4.47699E-18 5.01586E-18
 -1      2088 4.28863E-05-4.20032E-05-1.96310E-06 3.09831E-05 3.64732E-18 5.15123E-18
 -1      2089 1.19578E-05-3.22446E-05 7.49922E-06 4.32065E-06 1.34350E-18 7.23112E-18
 -1      2090 1.24548E-05-3.48806E-05 8.06965E-06-6.39228E-06-1.77559E-19 6.65726E-18
 -1      2091 2.82032E-05-3.71850E-05 2.52869E-06 2.59915E-05 3.57956E-18 6.02939E-18
 -1      2092 1.91772E-05-3.60634E-05 5.83665E-06 1.82182E-05 1.62673E-18 6.40865E-18
 -1      2093 4.30236E-05-3.72546E-05-3.00838E-06 3.53267E-05 4.02341E-19 5.15271E-18
 -1      2094 9.92798E-05-4.48885E-05-2.33245E-05 4.13960E-05 4.71459E-18 5.70964E-18
 -1      2095 7.93607E-05-4.62111E-05-1.52783E-05 3.73080E-05 4.34486E-18 4.83677E-18
 -1      2096 1.38044E-04-4.38575E-05-3.97901E-05 3.30837E-05 5.61689E-18 3.89296E-18
 -1      2097 1.17251E-04-4.58850E-05-3.12119E-05 3.23231E-05 4.85816E-18 4.83021E-18
 -1      2098 8.73489E-05-8.25391E-06-3.39951E-05-6.53493E-06-2.32372E-18-4.40109E-18
 -1      2099 8.89466E-05-9.10803E-06-3.42891E-05-8.06174E-06-2.73749E-18-3.86995E-18
 -1      2100 9.18951E-05-1.30900E-05-3.38358E-05-7.71750E-06-2.94501E-18-3.27892E-18
 -1      2101 8.81040E-05-1.00707E-05-3.34642E-05-5.32603E-06-2.27471E-18-4.30147E-18
 -1      2102 1.72922E-04-2.66402E-05-6.22136E-05 3.37088E-06 7.60974E-18-2.46698E-19
 -1      2103 1.67507E-04-2.99552E-05-5.83473E-05 9.71629E-06 7.32980E-18 1.56193E-18
 -1      2104 1.71668E-04-1.96045E-05-6.46394E-05-1.77899E-06 7.67920E-18-1.55086E-18
 -1      2105 1.70603E-04-2.02986E-05-6.39845E-05 1.31066E-06 7.97820E-18-4.52527E-19
 -1      2106 1.72301E-04-2.74046E-05-6.13375E-05-9.22799E-06 6.83471E-18-3.03534E-18
 -1      2107 1.73391E-04-2.33701E-05-6.38829E-05-2.11631E-06 6.95329E-18-1.33175E-18
 -1      2108 1.56739E-04-3.53408E-05-5.18725E-05-1.75682E-05 6.66890E-18-4.38467E-18
 -1      2109 1.71197E-04-3.37107E-05-5.80357E-05-1.44336E-05 6.58822E-18-3.55034E-18
 -1      2110 1.57795E-04-2.58995E-05-5.54942E-05 2.84935E-06 5.99742E-18 1.01644E-19
 -1      2111 1.28682E-04-4.37202E-05-3.68082E-05-3.14960E-05 6.25153E-18-5.77380E-18
 -1      2112 1.48384E-04-4.29840E-05-4.46766E-05-2.82801E-05 6.08741E-18-4.79632E-18
 -1      2113 9.66533E-05-4.72163E-05-2.19806E-05-3.71615E-05 4.91703E-18-5.89387E-18
 -1      2114 1.16149E-04-4.46140E-05-3.03239E-05-4.00352E-05 6.21637E-18-6.03553E-18
 -1      2115 1.33290E-04-5.51692E-05-3.31207E-05-2.58822E-05 2.82464E-18-2.07057E-18
 -1      2116 5.72562E-05-4.40692E-05-6.87641E-06-3.63368E-05 3.24668E-18-6.88839E-18
 -1      2117 7.56362E-05-4.33043E-05-1.40802E-05-4.30081E-05 4.02087E-18-7.05441E-18
 -1      2118 2.97134E-05-3.93357E-05 2.68981E-06-2.57773E-05 1.67797E-18-7.66565E-18
 -1      2119 4.13436E-05-3.79623E-05-2.12261E-06-3.40709E-05 3.69095E-18-7.65442E-18
 -1      2120 6.06693E-05-4.23593E-05-8.08188E-06-4.16100E-05-2.23193E-19-6.34502E-18
 -1      2121 1.27802E-05-3.40475E-05 7.78128E-06-6.32837E-06-8.77632E-19-8.54868E-18
 -1      2122 1.71019E-05-3.55405E-05 6.47409E-06-1.57452E-05 1.75611E-18-8.65159E-18
 -1      2123 1.72358E-05-3.61718E-05 6.62409E-06 1.64131E-05-3.48893E-18-8.00531E-18
 -1      2124 1.26374E-05-3.46268E-05 8.00430E-06 7.24070E-06-1.03333E-18-7.92611E-18
 -1      2125 3.80541E-05-3.76475E-05-1.16018E-06 3.30484E-05-5.51969E-18-7.87127E-18
 -1      2126 2.73610E-05-3.96795E-05 3.59442E-06 2.46237E-05-3.60116E-18-7.64426E-18
 -1      2127 7.40393E-05-4.24490E-05-1.40965E-05 4.24331E-05-5.48708E-18-7.09104E-18
 -1      2128 5.41420E-05-4.30485E-05-6.34083E-06 3.53978E-05-5.71747E-18-7.26782E-18
 -1      2129 5.52335E-05-4.11907E-05-6.45390E-06 4.06365E-05-2.16967E-18-6.75509E-18
 -1      2130 1.16957E-04-4.33120E-05-3.11747E-05 4.04408E-05-7.28575E-18-7.13371E-18
 -1      2131 9.80506E-05-4.61659E-05-2.26999E-05 3.86452E-05-6.09864E-18-6.56472E-18
 -1      2132 1.48832E-04-4.18930E-05-4.57117E-05 2.34855E-05-6.12675E-18-5.17410E-18
 -1      2133 1.31218E-04-4.27707E-05-3.79533E-05 3.06890E-05-7.11529E-18-6.60601E-18
 -1      2134 1.75385E-04-3.03552E-05-6.04682E-05 1.47758E-05-7.16886E-18-5.06610E-18
 -1      2135 1.57598E-04-3.15882E-05-5.37088E-05 1.48122E-05-6.82476E-18-4.36222E-18
 -1      2136 1.81367E-04-2.44982E-05-6.59847E-05 3.14222E-06-7.30439E-18-4.10303E-18
 -1      2137 1.77425E-04-2.62626E-05-6.38081E-05 1.07291E-05-7.13498E-18-5.27490E-18
 -1      2138 1.58795E-04-2.13857E-05-5.79949E-05-2.28467E-07-6.71867E-18-2.54449E-18
 -1      2139 1.80490E-04-2.53702E-05-6.52213E-05-7.56090E-06-6.68860E-18-3.04466E-18
 -1      2140 1.81862E-04-2.39083E-05-6.64983E-05 3.18414E-07-7.59704E-18-4.62485E-18
 -1      2141 1.66609E-04-2.99976E-05-5.78450E-05-1.82107E-05-5.67872E-18-5.29396E-20
 -1      2142 1.80323E-04-3.01793E-05-6.28457E-05-1.31551E-05-5.83203E-18-1.92192E-18
 -1      2143 1.41978E-04-3.69601E-05-4.49172E-05-2.95552E-05-5.06505E-18 2.01255E-18
 -1      2144 1.59987E-04-3.63094E-05-5.19383E-05-2.58920E-05-4.94227E-18 9.88911E-19
 -1      2145 1.13004E-04-4.40944E-05-3.00807E-05-3.47815E-05-2.53813E-18 2.40346E-18
 -1      2146 1.32173E-04-4.18617E-05-3.80578E-05-3.61472E-05-3.92219E-18 1.98333E-18
 -1      2147 7.42968E-05-4.35164E-05-1.43796E-05-3.80225E-05-2.05067E-18 4.77981E-18
 -1      2148 9.37766E-05-4.19950E-05-2.22596E-05-4.28973E-05-2.30478E-18 4.50770E-18
 -1      2149 4.18274E-05-4.10184E-05-1.80940E-06-3.20723E-05-1.39930E-18 4.11510E-18
 -1      2150 5.59503E-05-3.88309E-05-7.99608E-06-3.90138E-05-2.51526E-18 4.70863E-18
 -1      2151 1.80783E-05-3.76119E-05 6.70142E-06-1.64186E-05 1.03762E-19 5.88434E-18
 -1      2152 2.58736E-05-3.51557E-05 2.91879E-06-2.61219E-05-1.23794E-18 5.61646E-18
 -1      2153 1.63127E-04-3.82479E-05-5.29489E-05 1.85728E-05 6.04782E-18 2.38016E-18
 -1      2154 1.47018E-04-3.96739E-05-4.60213E-05 2.45450E-05 6.21479E-18 3.56516E-18
 -1      2155 1.46452E-04-4.98724E-05-4.07672E-05 1.43196E-05 3.35489E-18 2.11758E-20
 -1      2156 1.02139E-04-2.58712E-05-3.27506E-05-6.92113E-06-3.17902E-18 1.74139E-18
 -1      2157 1.57008E-04-3.41587E-05-5.18347E-05 8.50511E-07 5.67999E-18-1.12444E-18
 -1      2158 1.00889E-04-2.44611E-05-3.28294E-05-6.61820E-06-3.36860E-18 1.22555E-20
 -1      2159 1.81328E-05-2.91150E-05 4.00316E-06 1.29777E-05 8.17387E-19 7.21418E-18
 -1      2160 1.78183E-05-1.92136E-05 8.07644E-07 7.59899E-06 3.22931E-19 7.56485E-18
 -1      2161 2.46039E-05-2.39057E-05-5.21204E-07 2.23519E-05-2.23299E-19 6.38197E-18
 -1      2162 8.10302E-05-4.91565E-05-1.38250E-05 4.13769E-05 1.30570E-18 3.73678E-18
 -1      2163 9.52375E-05-2.85811E-05-2.85671E-05 1.67101E-08-2.64778E-18 9.60028E-19
 -1      2164 1.74119E-05-2.62698E-05 3.12589E-06-1.46300E-05 1.16615E-18 6.90501E-18
 -1      2165 1.21243E-04-5.60621E-05-2.77548E-05 3.10623E-05 1.62524E-18 2.16163E-18
 -1      2166 4.06351E-05-3.62876E-05-2.46762E-06-3.51301E-05 1.18246E-18 4.49923E-18
 -1      2167 7.73535E-05-4.73015E-05-1.31329E-05-4.24317E-05 1.00882E-18 2.90125E-18
 -1      2168 1.15653E-04-5.34125E-05-2.65252E-05-3.46363E-05 7.91129E-19 2.79521E-19
 -1      2169 1.42569E-04-4.79707E-05-4.00761E-05-1.92320E-05-2.11134E-18-1.15620E-18
 -1      2170 1.58331E-04-3.39947E-05-5.23400E-05-8.25022E-06-4.83899E-18-2.19127E-18
 -1      2171 1.61716E-04-1.45078E-05-6.19532E-05 3.29740E-07-7.68089E-18-3.30904E-18
 -1      2172 1.53035E-04-3.91642E-05-4.83599E-05 1.18222E-05-5.51617E-18-3.41905E-18
 -1      2173 1.46165E-04-4.58468E-05-4.26250E-05 7.37454E-06-4.13033E-18-1.13206E-18
 -1      2174 1.50110E-04-3.53882E-05-4.97049E-05-1.86164E-06-4.94455E-18-9.31313E-19
 -1      2175 9.38754E-05-4.95045E-05-1.91673E-05 4.06831E-05-3.88661E-18-6.00716E-18
 -1      2176 8.96320E-05-5.07056E-05-1.62270E-05 4.23619E-05-1.14582E-18-4.41789E-18
 -1      2177 1.11322E-04-5.66265E-05-2.40796E-05 3.66369E-05-1.63266E-18-3.85294E-18
 -1      2178 2.64435E-05-3.11317E-05 1.25580E-06 2.65295E-05-1.24133E-18-8.39494E-18
 -1      2179 2.90813E-05-3.08256E-05 1.87321E-07-2.73013E-05-4.93820E-19-8.59506E-18
 -1      2180 9.94495E-05-5.39520E-05-1.95197E-05-3.95447E-05 7.74188E-19-4.12579E-18
 -1      2181 1.53011E-04-4.42245E-05-4.60280E-05-9.29338E-06 4.63541E-18-1.28410E-18
 -1      2182 1.55020E-04-1.69104E-05-5.85754E-05-3.50054E-06 7.91341E-18-8.86632E-19
 -1      2183 1.54738E-04-1.43427E-05-5.95027E-05 1.08505E-06 7.36495E-18 1.95029E-19
 -1      2184 1.47470E-05-2.61055E-05 4.13966E-06 3.22091E-07-6.00679E-19-9.32499E-18
 -1      2185 1.32747E-04-5.27591E-05-3.37946E-05 2.60426E-05-4.25253E-18-3.59947E-18
 -1      2186 1.62408E-04-1.93775E-05-6.00533E-05-4.41539E-07-6.94779E-18-4.05559E-18
 -1      2187 1.01459E-04-2.78610E-05-3.15130E-05-4.80188E-07 2.53143E-18 1.13164E-18
 -1      2188 1.01667E-04-2.71900E-05-3.18460E-05 1.57703E-06 2.87221E-18 1.46285E-18
 -1      2189 8.30151E-05-7.63529E-06-3.23465E-05-8.77793E-07-5.79409E-19-4.89019E-18
 -1      2190 8.40419E-05-8.29567E-06-3.24815E-05-1.52560E-06-1.01148E-18-4.82770E-18
 -1      2191 8.53584E-05-9.37290E-06-3.26152E-05-2.06946E-06-1.32297E-18-4.70890E-18
 -1      2192 8.67636E-05-1.03225E-05-3.27883E-05-2.91943E-06-1.75673E-18-4.50080E-18
 -1      2193 8.56652E-05-1.05508E-05-3.21872E-05-1.08770E-06-1.09784E-18-4.41806E-18
 -1      2194 8.11011E-05-6.18542E-06-3.21332E-05 6.05339E-07 6.28389E-19-4.85939E-18
 -1      2195 8.11827E-05-6.24453E-06-3.21379E-05 1.91834E-07 2.46555E-19-4.91347E-18
 -1      2196 8.17377E-05-6.58372E-06-3.22311E-05 1.20638E-06 1.23014E-18-4.77874E-18
 -1      2197 8.12909E-05-6.31416E-06-3.21619E-05 7.78903E-07 8.67838E-19-4.84501E-18
 -1      2198 8.18487E-05-7.57500E-06-3.18212E-05 6.15402E-07 7.22760E-19-4.61840E-18
 -1      2199 8.34215E-05-7.74895E-06-3.24530E-05 1.95846E-06 1.89077E-18-4.55083E-18
 -1      2200 8.24804E-05-7.15551E-06-3.23209E-05 1.43180E-06 1.52749E-18-4.68468E-18
 -1      2201 8.28149E-05-8.26775E-06-3.19379E-05 9.48997E-07 1.31414E-18-4.48209E-18
 -1      2202 8.61355E-05-9.73432E-06-3.27718E-05 3.04617E-06 2.61686E-18-3.90534E-18
 -1      2203 8.47049E-05-8.77707E-06-3.25910E-05 2.33010E-06 2.15840E-18-4.29895E-18
 -1      2204 8.49122E-05-9.84513E-06-3.21616E-05 1.47113E-06 1.99759E-18-4.09683E-18
 -1      2205 8.97617E-05-1.25859E-05-3.31221E-05 4.51850E-06 3.18025E-18-3.05853E-18
 -1      2206 8.78975E-05-1.12152E-05-3.29270E-05 3.59631E-06 2.80551E-18-3.49843E-18
 -1      2207 8.80565E-05-1.23177E-05-3.24479E-05 2.29940E-06 2.64477E-18-3.43871E-18
 -1      2208 9.42264E-05-1.64690E-05-3.34076E-05 6.21498E-06 3.67562E-18-1.81822E-18
 -1      2209 9.19440E-05-1.45480E-05-3.32426E-05 5.17984E-06 3.31496E-18-2.55619E-18
 -1      2210 9.20582E-05-1.56835E-05-3.27116E-05 3.37975E-06 3.08647E-18-2.54345E-18
 -1      2211 1.01901E-04-2.89533E-05-3.12330E-05-3.55713E-06 1.63858E-18 7.48542E-19
 -1      2212 1.01581E-04-2.84663E-05-3.12634E-05-2.28833E-06 2.10484E-18 1.12323E-18
 -1      2213 1.00515E-04-2.68161E-05-3.16048E-05-1.27066E-06 2.49251E-18 9.79580E-20
 -1      2214 1.00505E-04-2.62313E-05-3.17785E-05-1.82937E-06-2.63839E-18-6.92636E-19
 -1      2215 1.00403E-04-2.71380E-05-3.14060E-05 2.24373E-07-2.35449E-18-7.89775E-19
 -1      2216 1.47039E-04-3.07352E-05-5.04906E-05-8.99020E-06 5.51546E-18-2.65862E-18
 -1      2217 1.47228E-04-4.05655E-05-4.59802E-05-4.81625E-06 3.74674E-18-2.20970E-18
 -1      2218 1.00696E-04-2.79565E-05-3.11142E-05 1.79735E-06-2.01146E-18-6.27260E-19
 -1      2219 1.00901E-04-2.85983E-05-3.09835E-05 2.97845E-06-1.58932E-18-7.59350E-19
 -1      2220 9.95502E-05-2.62758E-05-3.14175E-05 8.99407E-07-2.19442E-18-1.22515E-18
 -1      2221 1.01284E-04-2.92221E-05-3.08391E-05 3.97969E-06-1.36727E-18-6.17870E-19
 -1      2222 1.01795E-04-2.98529E-05-3.08358E-05 4.57210E-06-1.16346E-18-8.05408E-19
 -1      2223 1.00248E-04-2.81095E-05-3.09404E-05 3.69805E-06-1.50225E-18-1.13235E-18
 -1      2224 1.02425E-04-3.05230E-05-3.07809E-05 5.04097E-06-9.19078E-19-6.63566E-19
 -1      2225 1.03162E-04-3.12442E-05-3.08383E-05 5.10554E-06-6.93255E-19-5.08460E-19
 -1      2226 1.01308E-04-2.97441E-05-3.06971E-05 5.33417E-06-1.04630E-18-1.04218E-18
 -1      2227 1.04085E-04-3.20609E-05-3.08373E-05 5.01043E-06-5.04628E-19-3.99467E-19
 -1      2228 1.04935E-04-3.28823E-05-3.09123E-05 4.51572E-06-2.61925E-19-4.63073E-19
 -1      2229 1.02905E-04-3.15757E-05-3.05984E-05 5.83165E-06-6.34936E-19-8.66463E-19
 -1      2230 1.06136E-04-3.38479E-05-3.09518E-05 3.77023E-06-2.56237E-19-3.67177E-19
 -1      2231 1.06941E-04-3.46768E-05-3.10200E-05 2.67268E-06-1.47966E-19-4.93305E-19
 -1      2232 1.05076E-04-3.37355E-05-3.06031E-05 5.07886E-06-3.52908E-19-6.77049E-19
 -1      2233 1.08301E-04-3.56525E-05-3.11118E-05 1.20069E-06-1.48064E-19-4.63827E-19
 -1      2234 1.08842E-04-3.62460E-05-3.11708E-05-4.52338E-07-2.23875E-19-2.95875E-19
 -1      2235 1.07695E-04-3.60672E-05-3.07209E-05 2.90135E-06-1.00470E-19-8.58424E-19
 -1      2236 1.10052E-04-3.68874E-05-3.13521E-05-2.57219E-06-5.46811E-19-2.20325E-19
 -1      2237 1.10058E-04-3.68516E-05-3.14209E-05-4.50329E-06-6.94789E-19-2.42715E-19
 -1      2238 1.10340E-04-3.79789E-05-3.10182E-05-7.45127E-07-4.62205E-19-7.32267E-19
 -1      2239 1.10620E-04-3.66473E-05-3.17328E-05-6.82368E-06-6.68008E-19 1.03019E-19
 -1      2240 1.09885E-04-3.55955E-05-3.18412E-05-8.41337E-06-5.69206E-19 1.18136E-19
 -1      2241 1.12188E-04-3.84143E-05-3.15935E-05-5.39641E-06-5.11128E-19-4.29588E-19
 -1      2242 1.09339E-04-3.41539E-05-3.22938E-05-9.98776E-06-4.84850E-19 2.50609E-19
 -1      2243 1.07945E-04-3.20745E-05-3.24554E-05-1.03654E-05-6.79878E-19 2.67292E-19
 -1      2244 1.12219E-04-3.62496E-05-3.25064E-05-9.67874E-06-5.51761E-19 2.62947E-19
 -1      2245 1.06359E-04-2.96391E-05-3.29714E-05-9.97910E-06-9.06282E-19 2.34717E-19
 -1      2246 1.04871E-04-2.73303E-05-3.31466E-05-8.45470E-06-8.65125E-19 7.24346E-20
 -1      2247 1.09984E-04-3.13146E-05-3.36829E-05-1.12745E-05-8.01429E-19 8.56916E-19
 -1      2248 1.03337E-04-2.52387E-05-3.35318E-05-5.59233E-06-1.37042E-18-8.07451E-19
 -1      2249 1.02627E-04-2.40738E-05-3.36296E-05-2.46620E-06-1.66396E-18-1.42041E-18
 -1      2250 1.06644E-04-2.55626E-05-3.47844E-05-8.01386E-06-1.62436E-18-2.92134E-19
 -1      2251 1.02460E-04-2.38244E-05-3.36830E-05 1.72538E-06-1.67998E-18-1.96796E-18
 -1      2252 1.03022E-04-2.46137E-05-3.36489E-05 5.05031E-06-1.73922E-18-2.22320E-18
 -1      2253 1.04807E-04-2.26026E-05-3.53166E-05-4.53141E-07-2.08817E-18-1.44228E-18
 -1      2254 1.04408E-04-2.64075E-05-3.33539E-05 8.36274E-06-1.88897E-18-2.53702E-18
 -1      2255 1.05905E-04-2.85948E-05-3.32275E-05 1.03247E-05-1.54811E-18-2.91003E-18
 -1      2256 1.06114E-04-2.45529E-05-3.50087E-05 7.66800E-06-2.10396E-18-1.89344E-18
 -1      2257 1.07651E-04-3.10957E-05-3.27470E-05 1.13008E-05-1.22382E-18-3.20787E-18
 -1      2258 1.09259E-04-3.33605E-05-3.26107E-05 1.13352E-05-8.67210E-19-3.28833E-18
 -1      2259 1.09448E-04-2.99733E-05-3.40460E-05 1.20585E-05-1.48972E-18-3.17847E-18
 -1      2260 1.10135E-04-3.51064E-05-3.21482E-05 1.01188E-05-4.50950E-19-3.43882E-18
 -1      2261 1.11164E-04-3.64547E-05-3.20578E-05 8.73586E-06-4.85929E-19-3.18648E-18
 -1      2262 1.12229E-04-3.53898E-05-3.28847E-05 1.14781E-05-8.39773E-19-3.21700E-18
 -1      2263 1.10857E-04-3.69318E-05-3.17235E-05 6.48359E-06-6.34441E-19-2.99316E-18
 -1      2264 1.11117E-04-3.72107E-05-3.16752E-05 4.56971E-06-3.87494E-19-2.50852E-18
 -1      2265 1.12812E-04-3.82714E-05-3.19121E-05 7.58336E-06-5.67104E-19-2.95438E-18
 -1      2266 1.10033E-04-3.67372E-05-3.14723E-05 2.33571E-06-1.61019E-19-2.40827E-18
 -1      2267 1.09682E-04-3.63020E-05-3.14313E-05 5.66353E-07 1.28514E-19-2.15734E-18
 -1      2268 1.11360E-04-3.83861E-05-3.12711E-05 2.83743E-06-2.77837E-19-1.85600E-18
 -1      2269 1.08331E-04-3.54042E-05-3.13096E-05-1.12451E-06 2.23077E-19-1.99754E-18
 -1      2270 1.07625E-04-3.46710E-05-3.12445E-05-2.42525E-06 4.42705E-19-2.16949E-18
 -1      2271 1.08856E-04-3.67895E-05-3.09020E-05-1.18749E-06 1.24410E-19-1.66310E-18
 -1      2272 1.06343E-04-3.37411E-05-3.11547E-05-3.46551E-06 4.43190E-19-2.26903E-18
 -1      2273 1.05490E-04-3.29901E-05-3.10527E-05-4.24443E-06 3.61927E-19-2.08653E-18
 -1      2274 1.06174E-04-3.46260E-05-3.06851E-05-3.92488E-06 3.42677E-19-1.93356E-18
 -1      2275 1.04413E-04-3.22164E-05-3.09644E-05-4.73320E-06 7.66350E-20-1.59094E-18
 -1      2276 1.03544E-04-3.15776E-05-3.08290E-05-5.07422E-06 2.20535E-19-1.74635E-18
 -1      2277 1.03786E-04-3.26098E-05-3.05236E-05-5.42275E-06 3.49321E-19-1.13902E-18
 -1      2278 1.02691E-04-3.10078E-05-3.07305E-05-5.16840E-06 5.41166E-19-1.47919E-18
 -1      2279 1.01874E-04-3.05149E-05-3.05736E-05-5.19768E-06 6.84804E-19-1.87256E-18
 -1      2280 1.01841E-04-3.10281E-05-3.03631E-05-5.96321E-06 4.99498E-19-8.64525E-19
 -1      2281 1.01213E-04-3.01275E-05-3.04649E-05-5.04354E-06 4.54373E-19-2.13426E-18
 -1      2282 1.00482E-04-2.97682E-05-3.03004E-05-4.87963E-06 7.80654E-19-2.12303E-18
 -1      2283 1.00317E-04-2.99125E-05-3.01843E-05-5.85848E-06 4.21713E-19-1.43454E-18
 -1      2284 9.99702E-05-2.95203E-05-3.01868E-05-4.59032E-06 6.38515E-19-2.44232E-18
 -1      2285 9.93372E-05-2.92677E-05-3.00266E-05-4.32541E-06 2.58857E-19-1.86274E-18
 -1      2286 9.91392E-05-2.91851E-05-2.99884E-05-5.37054E-06 4.32240E-19-1.78358E-18
 -1      2287 9.89392E-05-2.91171E-05-2.99147E-05-3.97961E-06 8.91792E-20-1.75446E-18
 -1      2288 9.84047E-05-2.89437E-05-2.97671E-05-3.67744E-06 2.74861E-19-1.85978E-18
 -1      2289 9.82276E-05-2.87428E-05-2.97855E-05-4.69207E-06 2.63191E-19-1.98426E-18
 -1      2290 9.80930E-05-2.88575E-05-2.96622E-05-3.32541E-06 6.04264E-20-1.93437E-18
 -1      2291 9.76515E-05-2.87408E-05-2.95321E-05-3.02592E-06 3.74390E-19-1.63055E-18
 -1      2292 9.75181E-05-2.84942E-05-2.95869E-05-3.95278E-06 2.10003E-19-1.79729E-18
 -1      2293 9.74067E-05-2.86951E-05-2.94377E-05-2.69699E-06 2.97460E-19-1.29007E-18
 -1      2294 9.70492E-05-2.86182E-05-2.93269E-05-2.42262E-06 1.91934E-19-1.40181E-18
 -1      2295 9.69635E-05-2.83697E-05-2.94018E-05-3.23320E-06 2.76087E-19-9.21515E-19
 -1      2296 9.68571E-05-2.85973E-05-2.92450E-05-2.13172E-06 7.13344E-20-1.60563E-18
 -1      2297 9.65733E-05-2.85479E-05-2.91532E-05-1.89303E-06-6.17613E-19-1.37552E-18
 -1      2298 9.65297E-05-2.83211E-05-2.92361E-05-2.57838E-06-1.61965E-19-4.65522E-19
 -1      2299 9.64235E-05-2.85416E-05-2.90842E-05-1.64572E-06-1.21883E-18-1.33730E-18
 -1      2300 9.62024E-05-2.85110E-05-2.90102E-05-1.44575E-06-6.67121E-19-5.81198E-19
 -1      2301 9.61914E-05-2.83161E-05-2.90928E-05-2.00934E-06-6.48423E-19-8.98489E-19
 -1      2302 9.60865E-05-2.85127E-05-2.89534E-05-1.24187E-06-2.48406E-19-1.46170E-18
 -1      2303 9.59176E-05-2.84950E-05-2.88950E-05-1.07926E-06-1.55204E-19-1.09422E-18
 -1      2304 9.59296E-05-2.83346E-05-2.89722E-05-1.53169E-06-6.28320E-19-1.01275E-18
 -1      2305 9.58291E-05-2.85008E-05-2.88495E-05-9.15445E-07-4.52938E-19-8.39052E-19
 -1      2306 9.57025E-05-2.84915E-05-2.88044E-05-7.86496E-07-5.87376E-19-1.40006E-18
 -1      2307 9.57291E-05-2.83638E-05-2.88733E-05-1.14182E-06-1.57434E-19-1.37986E-18
 -1      2308 9.56360E-05-2.84990E-05-2.87686E-05-6.57838E-07-7.14082E-19-1.60113E-18
 -1      2309 9.55433E-05-2.84952E-05-2.87346E-05-5.57877E-07-2.68920E-19-2.15226E-18
 -1      2310 9.55775E-05-2.83964E-05-2.87940E-05-8.31156E-07-9.79641E-19-1.29660E-18
 -1      2311 9.54940E-05-2.85031E-05-2.87070E-05-4.58951E-07 3.40528E-20-2.26966E-18
 -1      2312 9.54278E-05-2.85028E-05-2.86819E-05-3.83114E-07 9.19801E-19-2.82403E-18
 -1      2313 9.54649E-05-2.84283E-05-2.87317E-05-5.88956E-07-5.11355E-19-1.51726E-18
 -1      2314 9.53921E-05-2.85102E-05-2.86611E-05-3.08617E-07 8.44811E-19-3.06438E-18
 -1      2315 9.53462E-05-2.85120E-05-2.86430E-05-2.52311E-07 1.30220E-19-2.35729E-18
 -1      2316 9.53827E-05-2.84572E-05-2.86837E-05-4.04016E-07 9.85255E-19-2.32065E-18
 -1      2317 9.53210E-05-2.85186E-05-2.86276E-05-1.97398E-07 5.14547E-19-1.43718E-18
 -1      2318 9.52903E-05-2.85215E-05-2.86150E-05-1.56533E-07 3.93713E-19-5.14570E-19
 -1      2319 9.53240E-05-2.84822E-05-2.86476E-05-2.65700E-07 1.25188E-18-1.16554E-18
 -1      2320 9.52731E-05-2.85272E-05-2.86040E-05-1.16976E-07-2.15264E-19-3.94862E-19
 -1      2321 9.52536E-05-2.85306E-05-2.85955E-05-8.80566E-08-1.02620E-18 9.49010E-20
 -1      2322 9.52834E-05-2.85031E-05-2.86210E-05-1.64473E-07 2.62519E-19-1.58800E-19
 -1      2323 9.52423E-05-2.85353E-05-2.85877E-05-6.02941E-08-3.37026E-19 3.28034E-19
 -1      2324 9.52310E-05-2.85388E-05-2.85823E-05-4.04248E-08 6.33888E-19 8.77570E-19
 -1      2325 9.52563E-05-2.85202E-05-2.86018E-05-9.21288E-08-2.40777E-19 3.91661E-19
 -1      2326 9.52240E-05-2.85426E-05-2.85771E-05-2.15422E-08 3.31219E-19 1.16796E-18
 -1      2327 9.52185E-05-2.85459E-05-2.85738E-05-8.39311E-09 6.10380E-19 9.29067E-19
 -1      2328 9.52391E-05-2.85339E-05-2.85884E-05-4.18266E-08 7.77357E-19 2.21778E-18
 -1      2329 9.52146E-05-2.85491E-05-2.85705E-05 3.93251E-09 8.63139E-19 1.50799E-18
 -1      2330 9.52129E-05-2.85521E-05-2.85688E-05 1.21857E-08 1.38149E-18 2.03157E-18
 -1      2331 9.52291E-05-2.85446E-05-2.85794E-05-8.02292E-09 1.28063E-18 2.84513E-18
 -1      2332 9.52111E-05-2.85546E-05-2.85668E-05 1.97541E-08 6.57241E-19 1.66391E-18
 -1      2333 9.52120E-05-2.85574E-05-2.85662E-05 2.44952E-08 5.93335E-19 1.47138E-18
 -1      2334 9.52241E-05-2.85530E-05-2.85736E-05 1.36554E-08 4.80508E-19 2.56129E-18
 -1      2335 9.52117E-05-2.85595E-05-2.85651E-05 2.86552E-08 1.94625E-18 1.75778E-18
 -1      2336 9.52141E-05-2.85620E-05-2.85652E-05 3.08900E-08 2.35790E-18 1.39130E-18
 -1      2337 9.52226E-05-2.85595E-05-2.85701E-05 2.65568E-08 1.03836E-18 2.59143E-18
 -1      2338 9.52148E-05-2.85637E-05-2.85647E-05 3.26063E-08 1.39278E-18 9.16422E-19
 -1      2339 9.52180E-05-2.85660E-05-2.85651E-05 3.30183E-08 1.63892E-18 1.87480E-18
 -1      2340 9.52234E-05-2.85647E-05-2.85681E-05 3.31513E-08 1.70951E-18 1.70950E-18
 -1      2341 9.52193E-05-2.85676E-05-2.85650E-05 3.29286E-08 1.91434E-18 2.02668E-18
 -1      2342 9.52228E-05-2.85698E-05-2.85656E-05 3.19282E-08 9.82469E-19 2.58495E-18
 -1      2343 9.52257E-05-2.85691E-05-2.85672E-05 3.51651E-08 1.47892E-18 1.86982E-18
 -1      2344 9.52245E-05-2.85714E-05-2.85656E-05 3.04288E-08 1.03594E-18 2.43845E-18
 -1      2345 9.52280E-05-2.85735E-05-2.85662E-05 2.81942E-08 5.33207E-19 2.54882E-18
 -1      2346 9.52289E-05-2.85731E-05-2.85668E-05 3.37037E-08 8.49636E-19 1.26805E-18
 -1      2347 5.55576E-05-3.72293E-05-7.91346E-06 4.03209E-05-8.97008E-19 3.23545E-18
 -1      2348 4.09342E-05-3.11081E-05-3.95681E-06 3.28702E-05-1.23836E-18 4.41050E-18
 -1      2349 1.04754E-04-3.11089E-05-3.15624E-05-6.68623E-06 6.65771E-19 6.47004E-20
 -1      2350 1.03650E-04-3.04329E-05-3.13485E-05-6.33181E-06 8.62663E-19 1.99208E-19
 -1      2351 1.07028E-04-3.26614E-05-3.18949E-05-6.78053E-06 3.14789E-19-2.51192E-19
 -1      2352 1.05738E-04-3.18067E-05-3.16621E-05-6.94546E-06 4.50857E-19 5.55716E-20
 -1      2353 1.03797E-04-3.09688E-05-3.12420E-05-7.89932E-06 7.28874E-19-5.35401E-19
 -1      2354 1.09677E-04-3.46323E-05-3.22135E-05-5.54461E-06 3.84861E-19-1.81460E-19
 -1      2355 1.08375E-04-3.36248E-05-3.20150E-05-6.39104E-06 2.30504E-19-2.54796E-19
 -1      2356 1.06209E-04-3.30264E-05-3.13981E-05-7.88103E-06 4.03214E-19-7.54813E-19
 -1      2357 1.12417E-04-3.68300E-05-3.24714E-05-2.62788E-06 3.33493E-19 2.78740E-19
 -1      2358 1.11359E-04-3.58405E-05-3.23447E-05-4.29008E-06 3.32712E-19 2.34029E-19
 -1      2359 1.09347E-04-3.56984E-05-3.16011E-05-6.30000E-06 1.39233E-19-5.98325E-19
 -1      2360 1.14689E-04-3.85884E-05-3.26968E-05 2.04071E-06-7.08795E-20 7.60482E-19
 -1      2361 1.14243E-04-3.80407E-05-3.26433E-05-3.48910E-07 1.53505E-19 6.08866E-19
 -1      2362 1.13008E-04-3.86564E-05-3.18936E-05-2.74877E-06-2.10898E-20 1.68423E-19
 -1      2363 1.15557E-04-3.86490E-05-3.30116E-05 7.65449E-06 4.78051E-19 7.71247E-19
 -1      2364 1.16119E-04-3.91857E-05-3.29879E-05 5.13033E-06 9.37890E-20 9.92255E-19
 -1      2365 1.16437E-04-4.07687E-05-3.24210E-05 2.82970E-06 9.28907E-20 6.69066E-19
 -1      2366 1.14118E-04-3.57716E-05-3.35562E-05 1.20077E-05 1.37494E-18 3.59420E-19
 -1      2367 1.15817E-04-3.78302E-05-3.34955E-05 1.05435E-05 8.07964E-19 7.02329E-19
 -1      2368 1.18230E-04-4.02613E-05-3.33769E-05 9.27701E-06 8.43304E-19 7.40417E-19
 -1      2369 1.10473E-04-3.02034E-05-3.43396E-05 1.18554E-05 2.72712E-18 3.51373E-19
 -1      2370 1.12742E-04-3.32048E-05-3.42138E-05 1.28410E-05 2.04247E-18 7.23353E-19
 -1      2371 1.16984E-04-3.56596E-05-3.48229E-05 1.36692E-05 1.51573E-18 6.84806E-19
 -1      2372 1.06787E-04-2.49828E-05-3.50762E-05 5.44840E-06 2.38382E-18 1.61069E-19
 -1      2373 1.08385E-04-2.71220E-05-3.49597E-05 9.12951E-06 2.82295E-18 4.71777E-19
 -1      2374 1.13151E-04-2.82481E-05-3.64403E-05 1.20338E-05 2.60195E-18 1.06309E-18
 -1      2375 1.06830E-04-2.48340E-05-3.52124E-05-4.55578E-06 2.08577E-18-1.45978E-18
 -1      2376 1.06366E-04-2.42256E-05-3.52182E-05-2.51327E-07 2.60698E-18-5.32201E-19
 -1      2377 1.09870E-04-2.29037E-05-3.73973E-05 2.81557E-06 3.01390E-18 8.57753E-20
 -1      2378 1.10308E-04-2.93834E-05-3.48282E-05-1.22025E-05 1.00159E-18-2.62347E-18
 -1      2379 1.08176E-04-2.66241E-05-3.49125E-05-9.39911E-06 1.62927E-18-2.01906E-18
 -1      2380 1.10967E-04-2.46931E-05-3.71097E-05-7.90725E-06 2.44290E-18-1.69780E-18
 -1      2381 1.14823E-04-3.54398E-05-3.41228E-05-1.35076E-05 4.06164E-19-3.57698E-18
 -1      2382 1.12498E-04-3.26130E-05-3.41837E-05-1.35557E-05 6.26090E-19-2.99584E-18
 -1      2383 1.15007E-04-3.11141E-05-3.59685E-05-1.46216E-05 1.24215E-18-2.59948E-18
 -1      2384 1.17156E-04-3.89576E-05-3.35448E-05-9.64478E-06-5.20065E-19-3.12087E-18
 -1      2385 1.15693E-04-3.74533E-05-3.35388E-05-1.16434E-05 6.80604E-20-3.44390E-18
 -1      2386 1.18361E-04-3.80249E-05-3.43800E-05-1.35625E-05 2.69542E-19-2.74993E-18
 -1      2387 1.16729E-04-3.92785E-05-3.31876E-05-3.93250E-06-1.04847E-18-2.39120E-18
 -1      2388 1.16419E-04-3.91810E-05-3.31701E-05-6.45782E-06-8.89742E-19-2.94200E-18
 -1      2389 1.18530E-04-4.11167E-05-3.31531E-05-7.93129E-06-9.06918E-19-2.25091E-18
 -1      2390 1.14536E-04-3.76589E-05-3.29291E-05 1.08269E-06-1.71549E-18-1.74326E-18
 -1      2391 1.15113E-04-3.83719E-05-3.29726E-05-1.02091E-06-1.35537E-18-2.32175E-18
 -1      2392 1.16056E-04-4.04262E-05-3.24271E-05-1.57411E-06-1.65335E-18-1.95159E-18
 -1      2393 1.11698E-04-3.54766E-05-3.26484E-05 4.40873E-06-4.73041E-19-1.23342E-18
 -1      2394 1.12764E-04-3.64262E-05-3.27828E-05 3.05345E-06-1.34419E-18-1.66347E-18
 -1      2395 1.12519E-04-3.78610E-05-3.20253E-05 3.32666E-06-1.57238E-18-9.43873E-19
 -1      2396 1.08868E-04-3.34919E-05-3.22918E-05 6.08517E-06 1.12017E-18-7.08641E-19
 -1      2397 1.10126E-04-3.43724E-05-3.25067E-05 5.43238E-06 4.28678E-19-1.04814E-18
 -1      2398 1.09062E-04-3.50380E-05-3.17534E-05 6.25816E-06-8.10405E-20-8.94016E-19
 -1      2399 1.06327E-04-3.19625E-05-3.18630E-05 6.54284E-06 3.36023E-19-1.02662E-19
 -1      2400 1.07593E-04-3.26686E-05-3.21283E-05 6.39859E-06 1.17680E-18-5.76019E-19
 -1      2401 1.06143E-04-3.27156E-05-3.14903E-05 7.51964E-06 9.10895E-19 8.87627E-20
 -1      2402 1.04140E-04-3.08727E-05-3.13955E-05 6.24762E-06-6.02068E-19-1.68208E-19
 -1      2403 1.05316E-04-3.14039E-05-3.16782E-05 6.41260E-06-8.50353E-20-2.44702E-19
 -1      2404 1.03816E-04-3.10720E-05-3.11910E-05 7.64077E-06 4.38583E-19 7.58943E-19
 -1      2405 1.02295E-04-3.01231E-05-3.09273E-05 5.56042E-06-1.43670E-18-1.24817E-19
 -1      2406 1.03335E-04-3.05118E-05-3.12017E-05 5.88116E-06-1.20049E-18-5.79357E-21
 -1      2407 1.01983E-04-3.00033E-05-3.08584E-05 7.09288E-06-8.84142E-19 9.95214E-20
 -1      2408 1.00759E-04-2.96129E-05-3.04882E-05 4.72192E-06-6.47138E-19-1.72370E-19
 -1      2409 1.01647E-04-2.98948E-05-3.07377E-05 5.09729E-06-7.85105E-19-4.97010E-19
 -1      2410 1.00527E-04-2.93447E-05-3.05142E-05 6.21773E-06-8.65482E-19-3.25205E-19
 -1      2411 9.94959E-05-2.92647E-05-3.00963E-05 3.87564E-06-3.30012E-19 3.71831E-19
 -1      2412 1.00234E-04-2.94689E-05-3.03129E-05 4.24655E-06-5.79829E-19-6.66793E-20
 -1      2413 9.93606E-05-2.89533E-05-3.01806E-05 5.23655E-06-4.87784E-19-4.03233E-19
 -1      2414 9.84706E-05-2.90254E-05-2.97596E-05 3.09749E-06-5.60994E-20 7.10854E-19
 -1      2415 9.90699E-05-2.91731E-05-2.99412E-05 3.43372E-06-3.20202E-20 8.42513E-19
 -1      2416 9.84208E-05-2.87269E-05-2.98741E-05 4.27887E-06-5.31976E-19 9.62205E-19
 -1      2417 9.76501E-05-2.88600E-05-2.94791E-05 2.42082E-06 6.45332E-19 1.04343E-18
 -1      2418 9.81270E-05-2.89663E-05-2.96270E-05 2.71001E-06 5.37440E-19 1.08130E-18
 -1      2419 9.76647E-05-2.85996E-05-2.96040E-05 3.41184E-06-1.09907E-19 1.16436E-18
 -1      2420 9.70035E-05-2.87457E-05-2.92512E-05 1.85419E-06 1.63400E-19 1.86910E-18
 -1      2421 9.73759E-05-2.88216E-05-2.93690E-05 2.09414E-06 6.08309E-19 2.11158E-18
 -1      2422 9.70604E-05-2.85309E-05-2.93740E-05 2.66352E-06 5.61206E-19 1.83169E-18
 -1      2423 9.65020E-05-2.86673E-05-2.90701E-05 1.39283E-06 8.82769E-19 4.32793E-19
 -1      2424 9.67875E-05-2.87208E-05-2.91619E-05 1.58663E-06 7.25919E-19 9.48150E-19
 -1      2425 9.65827E-05-2.84968E-05-2.91834E-05 2.03916E-06 6.88379E-19 1.38474E-18
 -1      2426 9.61195E-05-2.86147E-05-2.89290E-05 1.02552E-06 3.39549E-19 4.46978E-19
 -1      2427 9.63344E-05-2.86515E-05-2.89992E-05 1.17867E-06 2.19537E-19 4.46123E-19
 -1      2428 9.62101E-05-2.84831E-05-2.90291E-05 1.53157E-06 7.31350E-19 1.32223E-18
 -1      2429 9.58330E-05-2.85803E-05-2.88212E-05 7.38733E-07-4.61590E-19 1.95782E-18
 -1      2430 9.59915E-05-2.86049E-05-2.88738E-05 8.57468E-07 5.12339E-19 1.74813E-18
 -1      2431 9.59238E-05-2.84811E-05-2.89068E-05 1.12766E-06-2.68036E-19 2.34701E-18
 -1      2432 9.56225E-05-2.85591E-05-2.87403E-05 5.18835E-07-4.38540E-19 2.08281E-18
 -1      2433 9.57370E-05-2.85748E-05-2.87790E-05 6.09239E-07-5.99127E-19 1.42788E-18
 -1      2434 9.57076E-05-2.84859E-05-2.88116E-05 8.12302E-07-3.08764E-19 4.14895E-18
 -1      2435 9.54714E-05-2.85471E-05-2.86809E-05 3.53196E-07 1.80427E-18 1.91497E-18
 -1      2436 9.55520E-05-2.85564E-05-2.87087E-05 4.20803E-07 4.49937E-19 1.55357E-18
 -1      2437 9.55474E-05-2.84941E-05-2.87390E-05 5.70441E-07 3.04456E-19 1.95637E-18
 -1      2438 9.53657E-05-2.85413E-05-2.86383E-05 2.30698E-07 8.93052E-19 2.09510E-18
 -1      2439 9.54207E-05-2.85463E-05-2.86577E-05 2.80313E-07 2.06390E-18 2.65304E-18
 -1      2440 9.54312E-05-2.85039E-05-2.86846E-05 3.88200E-07 1.24628E-18 1.90933E-18
 -1      2441 9.52942E-05-2.85398E-05-2.86085E-05 1.41882E-07-6.82880E-19 1.58133E-18
 -1      2442 9.53303E-05-2.85418E-05-2.86216E-05 1.77551E-07 2.20898E-19 1.80018E-18
 -1      2443 9.53490E-05-2.85141E-05-2.86447E-05 2.53378E-07 6.24975E-19 2.41495E-18
 -1      2444 9.52481E-05-2.85410E-05-2.85883E-05 7.89128E-08-1.42955E-18 1.62216E-19
 -1      2445 9.52703E-05-2.85410E-05-2.85968E-05 1.03955E-07-1.09565E-18 1.11847E-18
 -1      2446 9.52927E-05-2.85238E-05-2.86161E-05 1.55593E-07-2.88534E-19 6.59658E-19
 -1      2447 9.52203E-05-2.85438E-05-2.85753E-05 3.54324E-08-2.69154E-18 6.14258E-19
 -1      2448 9.52327E-05-2.85425E-05-2.85805E-05 5.25204E-08-1.93844E-18 2.15902E-19
 -1      2449 9.52556E-05-2.85326E-05-2.85962E-05 8.62428E-08-1.63920E-18 1.11210E-18
 -1      2450 9.52055E-05-2.85474E-05-2.85675E-05 6.38926E-09-5.95150E-19 1.26697E-19
 -1      2451 9.52111E-05-2.85455E-05-2.85703E-05 1.76299E-08-2.25638E-18 1.41437E-19
 -1      2452 9.52326E-05-2.85405E-05-2.85828E-05 3.83462E-08-2.43939E-18 5.34912E-19
 -1      2453 9.51996E-05-2.85514E-05-2.85634E-05-1.21486E-08 1.39874E-18 2.10478E-18
 -1      2454 9.52006E-05-2.85491E-05-2.85645E-05-5.12987E-09 8.48962E-19 8.63690E-19
 -1      2455 9.52197E-05-2.85474E-05-2.85742E-05 6.35642E-09-3.71232E-19 2.98837E-19
 -1      2456 9.51997E-05-2.85554E-05-2.85617E-05-2.31653E-08-1.55879E-19 1.99975E-18
 -1      2457 9.51978E-05-2.85530E-05-2.85618E-05-1.91486E-08 6.50688E-19 2.12205E-18
 -1      2458 9.52139E-05-2.85532E-05-2.85691E-05-1.40388E-08 1.00829E-18 2.20874E-18
 -1      2459 9.52034E-05-2.85593E-05-2.85617E-05-2.88535E-08 1.64391E-18 1.08876E-18
 -1      2460 9.51998E-05-2.85570E-05-2.85611E-05-2.69574E-08 7.91010E-19 1.49159E-18
 -1      2461 9.52127E-05-2.85582E-05-2.85664E-05-2.61058E-08 9.68101E-19 1.05112E-18
 -1      2462 9.52092E-05-2.85631E-05-2.85626E-05-3.07407E-08 8.79825E-19 5.45330E-19
 -1      2463 9.52048E-05-2.85608E-05-2.85616E-05-3.03714E-08 1.63705E-18 8.99359E-19
 -1      2464 9.52146E-05-2.85626E-05-2.85653E-05-3.22391E-08 1.57319E-18 1.76798E-18
 -1      2465 9.52161E-05-2.85668E-05-2.85640E-05-2.97894E-08-1.15942E-18 5.13626E-19
 -1      2466 9.52113E-05-2.85646E-05-2.85629E-05-3.06026E-08-9.49871E-19 5.34366E-19
 -1      2467 9.52183E-05-2.85664E-05-2.85652E-05-3.41023E-08-3.10698E-20 1.83573E-18
 -1      2468 9.52231E-05-2.85704E-05-2.85654E-05-2.64973E-08-6.49534E-19 2.14671E-18
 -1      2469 9.52185E-05-2.85683E-05-2.85644E-05-2.83654E-08-7.28357E-19 1.65066E-18
 -1      2470 9.52230E-05-2.85701E-05-2.85656E-05-3.27704E-08-1.60148E-18 2.31035E-18
 -1      2471 9.52296E-05-2.85741E-05-2.85667E-05-2.10805E-08-2.46136E-19 2.93502E-18
 -1      2472 9.52256E-05-2.85720E-05-2.85659E-05-2.39143E-08-9.86410E-19 2.28551E-18
 -1      2473 9.52282E-05-2.85739E-05-2.85661E-05-2.88492E-08-7.43643E-19 2.78336E-18
 -1      2474 9.52322E-05-2.85756E-05-2.85671E-05-1.72078E-08 1.67413E-18 3.37969E-18
 -1      2475 9.52506E-05-2.85992E-05-2.85649E-05-1.97345E-08 1.05668E-19-1.96562E-18
 -1      2476 9.52489E-05-2.85965E-05-2.85653E-05-2.20862E-08-6.57160E-19-4.83250E-18
 -1      2477 9.52530E-05-2.86026E-05-2.85644E-05-1.33700E-08 1.30096E-18-1.57950E-19
 -1      2478 9.52519E-05-2.86007E-05-2.85647E-05-1.65219E-08 1.02783E-18-2.54089E-19
 -1      2479 9.52518E-05-2.85959E-05-2.85668E-05-2.00513E-08 1.22374E-18-4.72868E-19
 -1      2480 9.52423E-05-2.85883E-05-2.85659E-05-2.60929E-08-5.50798E-19-2.41538E-18
 -1      2481 9.52394E-05-2.85846E-05-2.85664E-05-2.57855E-08-8.84349E-19-2.14351E-18
 -1      2482 9.52470E-05-2.85943E-05-2.85654E-05-2.42424E-08-2.35638E-18-4.93925E-18
 -1      2483 9.52447E-05-2.85910E-05-2.85659E-05-2.53986E-08-1.33998E-18-2.59663E-18
 -1      2484 9.52430E-05-2.85871E-05-2.85668E-05-2.87213E-08-1.08363E-18-3.11439E-18
 -1      2485 9.52481E-05-2.85921E-05-2.85669E-05-2.56975E-08-1.46583E-18-3.65790E-18
 -1      2486 9.52543E-05-2.86045E-05-2.85641E-05-5.90769E-09-5.29823E-19-3.41283E-19
 -1      2487 9.52537E-05-2.86035E-05-2.85643E-05-9.50806E-09 1.46515E-19-1.91082E-18
 -1      2488 9.52541E-05-2.85984E-05-2.85668E-05-1.26252E-08 1.38333E-18-1.66183E-18
 -1      2489 9.52545E-05-2.86048E-05-2.85641E-05 1.99417E-09 8.07718E-20 8.45075E-19
 -1      2490 9.52545E-05-2.86048E-05-2.85641E-05-1.74417E-09-6.81084E-19 1.54011E-18
 -1      2491 9.52552E-05-2.85996E-05-2.85667E-05-4.21474E-09 7.72312E-19-1.23821E-20
 -1      2492 9.52537E-05-2.86034E-05-2.85643E-05 9.73121E-09 5.23202E-19 1.52045E-18
 -1      2493 9.52543E-05-2.86044E-05-2.85641E-05 6.14792E-09-6.49958E-20 8.15054E-19
 -1      2494 9.52552E-05-2.85996E-05-2.85667E-05 4.49671E-09 8.57165E-19 1.33440E-18
 -1      2495 9.52518E-05-2.86006E-05-2.85648E-05 1.65790E-08-5.37614E-20-1.82349E-18
 -1      2496 9.52530E-05-2.86025E-05-2.85644E-05 1.35047E-08 4.08716E-19-1.38663E-19
 -1      2497 9.52541E-05-2.85983E-05-2.85668E-05 1.27999E-08 7.21963E-19 7.70443E-19
 -1      2498 9.52488E-05-2.85964E-05-2.85653E-05 2.21100E-08 1.77315E-19 1.35034E-19
 -1      2499 9.52506E-05-2.85991E-05-2.85649E-05 1.97737E-08 9.95959E-20-1.99335E-18
 -1      2500 9.52517E-05-2.85958E-05-2.85669E-05 2.01036E-08 7.21247E-19-1.78305E-18
 -1      2501 9.52446E-05-2.85909E-05-2.85659E-05 2.53232E-08 1.02876E-19-2.16381E-18
 -1      2502 9.52469E-05-2.85941E-05-2.85654E-05 2.42223E-08 8.45351E-20-6.67810E-20
 -1      2503 9.52479E-05-2.85919E-05-2.85669E-05 2.57476E-08 6.78440E-19-4.72641E-20
 -1      2504 9.52393E-05-2.85844E-05-2.85664E-05 2.55690E-08-4.50106E-19-2.25942E-18
 -1      2505 9.52421E-05-2.85881E-05-2.85660E-05 2.60766E-08 1.59804E-19-2.42998E-18
 -1      2506 9.52431E-05-2.85869E-05-2.85669E-05 2.86120E-08 4.56238E-19-1.83302E-18
 -1      2507 9.52351E-05-2.85795E-05-2.85667E-05 2.05515E-08-1.13677E-18 1.35788E-18
 -1      2508 1.89587E-05-1.89829E-05 3.07524E-07-9.24942E-06 1.21973E-18 6.55773E-18
 -1      2509 2.45803E-05-2.25386E-05-7.66414E-07-2.27883E-05 1.57061E-18 5.39772E-18
 -1      2510 1.03009E-04-2.99272E-05-3.13034E-05-5.57139E-06 1.08351E-18 2.43623E-19
 -1      2511 1.02230E-04-2.93904E-05-3.11706E-05-4.78596E-06 1.27493E-18 5.50695E-19
 -1      2512 1.02104E-04-2.94524E-05-3.11632E-05-6.72713E-06 1.13657E-18-4.93534E-19
 -1      2513 9.53954E-05-5.26423E-05-1.85163E-05 4.03282E-05-8.64185E-19 1.89446E-18
 -1      2514 7.55704E-05-4.61029E-05-1.24379E-05 4.06183E-05-9.93570E-19 2.56900E-18
 -1      2515 3.87412E-05-2.93318E-05-3.79834E-06-3.30581E-05 2.54364E-18 3.73097E-18
 -1      2516 5.51258E-05-3.65188E-05-7.93067E-06-4.13644E-05 2.04474E-18 2.87547E-18
 -1      2517 9.85873E-05-2.09471E-05-3.33115E-05-7.63910E-06-3.39750E-18-1.24873E-18
 -1      2518 9.96330E-05-2.44403E-05-3.22484E-05-3.74990E-06-3.06429E-18-9.96404E-19
 -1      2519 9.84255E-05-2.32224E-05-3.22162E-05-2.89701E-06-2.82006E-18-1.61997E-18
 -1      2520 9.58670E-05-1.81057E-05-3.33336E-05-7.00340E-06-3.27287E-18-2.18606E-18
 -1      2521 1.31302E-04-5.89797E-05-3.12956E-05 2.30879E-05 4.02235E-19-5.91441E-19
 -1      2522 1.15796E-04-5.82238E-05-2.45338E-05 3.03833E-05-6.93296E-19 7.43483E-19
 -1      2523 3.74190E-05-2.78348E-05-3.91514E-06 3.35523E-05-2.07100E-19-7.25484E-18
 -1      2524 2.64268E-05-2.29107E-05-1.27764E-06 2.23997E-05 2.89791E-19-8.09721E-18
 -1      2525 1.40659E-04-1.36217E-05-5.50077E-05-7.15387E-06 7.07040E-18-1.45488E-18
 -1      2526 1.44813E-04-2.08779E-05-5.34697E-05-9.63033E-06 6.81205E-18-1.99857E-18
 -1      2527 1.38396E-04-2.71765E-05-4.78978E-05-1.31175E-05 4.89564E-18-3.03513E-18
 -1      2528 8.15529E-05-6.55423E-06-3.21753E-05-2.82858E-08 5.01348E-20-4.95328E-18
 -1      2529 8.21358E-05-6.92363E-06-3.22513E-05-5.21085E-07-3.12618E-19-4.98237E-18
 -1      2530 8.33700E-05-8.77791E-06-3.19619E-05-2.42049E-07-3.75925E-19-4.66105E-18
 -1      2531 8.20506E-05-7.75953E-06-3.18304E-05 2.81184E-07 1.13899E-19-4.75917E-18
 -1      2532 1.40954E-04-1.51345E-05-5.44168E-05 6.01976E-06 6.19859E-18 1.05826E-18
 -1      2533 1.37399E-04-1.06175E-05-5.49850E-05 1.88319E-06 6.55307E-18 3.98357E-19
 -1      2534 1.92468E-05-1.87360E-05 4.07073E-08 9.18638E-06-4.29763E-19-8.64101E-18
 -1      2535 1.92273E-05-1.83811E-05-1.31682E-07-7.46210E-06-3.11020E-19-8.84811E-18
 -1      2536 1.46381E-04-2.74398E-05-5.12386E-05 7.89949E-06 5.24779E-18 9.81499E-19
 -1      2537 1.44583E-04-2.11579E-05-5.37574E-05 7.51767E-06 6.15264E-18 1.63615E-18
 -1      2538 1.33107E-04-1.68736E-05-5.00134E-05 9.00400E-06 5.52985E-18 1.45250E-18
 -1      2539 1.44524E-04-5.03616E-05-4.05342E-05-4.95712E-06 2.57562E-18 4.23728E-19
 -1      2540 1.49307E-04-4.16739E-05-4.67425E-05 2.51159E-06 3.86459E-18 1.10940E-18
 -1      2541 1.28770E-04-5.92833E-05-2.97982E-05-2.29403E-05 6.09334E-19-2.89474E-19
 -1      2542 1.38953E-04-5.75734E-05-3.52644E-05-1.63233E-05 1.26261E-18-1.48019E-19
 -1      2543 9.46751E-05-5.26116E-05-1.77400E-05-3.90652E-05-1.47807E-18-2.97667E-18
 -1      2544 1.14719E-04-5.79624E-05-2.44573E-05-3.46089E-05-1.61148E-19-1.21306E-18
 -1      2545 1.24534E-04-6.03987E-05-2.72365E-05-2.44998E-05-1.38469E-18 2.41934E-20
 -1      2546 5.71867E-05-3.71902E-05-8.21860E-06-3.91352E-05-1.58840E-18-5.95623E-18
 -1      2547 7.22465E-05-4.34921E-05-1.23768E-05-4.32918E-05-1.39676E-18-4.66038E-18
 -1      2548 1.37571E-04-5.50493E-05-3.58108E-05 1.73750E-05-2.85270E-18-1.01962E-18
 -1      2549 1.28196E-04-5.76627E-05-3.01216E-05 2.48470E-05-2.29461E-18-2.15040E-18
 -1      2550 2.65057E-05-2.31497E-05-1.22032E-06-2.15928E-05-1.68761E-18-8.62788E-18
 -1      2551 3.97592E-05-2.87873E-05-4.56513E-06-3.39094E-05-1.25594E-18-7.49412E-18
 -1      2552 6.95299E-05-4.24847E-05-1.14811E-05 4.43879E-05-4.99114E-19-5.07807E-18
 -1      2553 5.33466E-05-3.63809E-05-7.08323E-06 3.95701E-05 1.84018E-19-6.08636E-18
 -1      2554 1.49032E-04-2.08566E-05-5.51481E-05 4.90787E-06-5.92817E-18-4.62184E-18
 -1      2555 1.47236E-04-1.48088E-05-5.72226E-05 4.75629E-06-7.22138E-18-4.91279E-18
 -1      2556 1.47073E-04-1.72264E-05-5.60109E-05-4.54597E-06-6.31632E-18-1.90879E-18
 -1      2557 1.45772E-04-2.30155E-05-5.30782E-05-5.54319E-06-5.73780E-18-1.59073E-18
 -1      2558 1.46333E-04-1.07238E-05-5.84374E-05 1.16777E-06-7.34801E-18-3.11772E-18
 -1      2559 1.46214E-04-1.19129E-05-5.79502E-05-1.75182E-06-6.77033E-18-2.49017E-18
 -1      2560 1.48061E-04-3.79009E-05-4.74139E-05-2.08214E-06-3.37521E-18-3.63589E-18
 -1      2561 1.51954E-04-3.00423E-05-5.25841E-05 2.16244E-06-4.71713E-18-4.24342E-18
 -1      2562 1.42321E-04-2.48819E-05-5.04503E-05 8.76945E-06-4.61887E-18-5.02418E-18
 -1      2563 1.37560E-04-5.30490E-05-3.62524E-05-1.39951E-05 1.25043E-19-3.15329E-18
 -1      2564 1.45886E-04-4.80732E-05-4.21706E-05-9.05228E-06-1.58713E-18-3.32842E-18
 -1      2565 1.10158E-04-5.59473E-05-2.31591E-05-3.40530E-05 2.66964E-18-6.05417E-19
 -1      2566 1.26369E-04-5.72502E-05-2.99450E-05-2.73341E-05 1.92954E-18-1.83944E-18
 -1      2567 7.41710E-05-4.53997E-05-1.22113E-05-4.18455E-05 2.35581E-18 1.61042E-18
 -1      2568 9.19750E-05-5.07979E-05-1.77446E-05-4.21974E-05 2.46571E-18 9.60112E-19
 -1      2569 1.46909E-04-4.98861E-05-4.20465E-05 4.60889E-06 2.58604E-18-1.84568E-18
 -1      2570 1.40220E-04-5.49318E-05-3.66758E-05 1.08206E-05 1.48808E-18-1.49607E-18
 -1      2571 1.36359E-04-5.92198E-05-3.30342E-05 1.24483E-05-8.94679E-20-2.27428E-18
 -1      2572 1.43416E-04-4.61010E-05-4.18108E-05-6.11582E-06 2.26370E-18-2.69664E-18
 -1      2573 1.01685E-04-2.65070E-05-3.22250E-05 3.48944E-06 3.25173E-18 1.65001E-18
 -1      2574 1.02191E-04-2.51086E-05-3.30499E-05 6.75500E-06 3.52067E-18 2.13995E-18
 -1      2575 1.00159E-04-2.24414E-05-3.33628E-05 7.60287E-06 3.75905E-18 8.92032E-19
 -1      2576 1.00440E-04-2.51402E-05-3.23069E-05 2.78176E-06 3.24318E-18 2.82574E-19
 -1      2577 1.23829E-04-1.16525E-05-4.83786E-05 9.52029E-07 5.23975E-18 6.15204E-19
 -1      2578 1.33372E-04-1.27522E-05-5.23478E-05-3.35638E-06 6.20282E-18-4.19943E-19
 -1      2579 1.26352E-04-1.46917E-05-4.83498E-05-8.89918E-06 5.46273E-18-1.48988E-18
 -1      2580 8.87650E-05-1.30262E-05-3.24544E-05-2.27103E-06-1.85798E-18-4.06598E-18
 -1      2581 8.84507E-05-1.17654E-05-3.29287E-05-3.63735E-06-2.04969E-18-4.27611E-18
 -1      2582 9.02026E-05-1.30914E-05-3.31030E-05-4.69134E-06-2.47202E-18-3.90076E-18
 -1      2583 1.01060E-04-2.82169E-05-3.12422E-05-4.54100E-06 1.75383E-18-1.47988E-19
 -1      2584 9.75909E-05-1.97543E-05-3.34059E-05 7.02601E-06 3.63788E-18-4.95250E-19
 -1      2585 2.51618E-05-1.47406E-05-4.18689E-06 7.46778E-06-2.76450E-19 6.66488E-18
 -1      2586 2.15777E-05-1.71286E-05-1.47964E-06-1.04480E-06 4.04432E-19 7.07421E-18
 -1      2587 2.70223E-05-1.45290E-05-4.82388E-06-8.15986E-06 9.86158E-19 5.85342E-18
 -1      2588 1.06704E-04-5.54970E-05-2.16239E-05-3.53252E-05 3.52450E-18-1.02285E-18
 -1      2589 1.44034E-04-4.36025E-05-4.31382E-05 2.51286E-06-1.70275E-18-4.94477E-18
 -1      2590 3.78490E-05-2.48693E-05-5.07086E-06 2.79880E-05-1.67056E-18 4.82724E-18
 -1      2591 3.86531E-05-2.40280E-05-5.83226E-06-2.89303E-05 2.71813E-18 4.15957E-18
 -1      2592 7.25473E-05-4.16410E-05-1.27862E-05 3.98227E-05-2.49938E-18 2.65015E-18
 -1      2593 9.52333E-05-2.85776E-05-2.85668E-05-2.21998E-08-1.27516E-19 2.89488E-18
 -1      2594 9.52354E-05-2.85804E-05-2.85664E-05-2.41488E-08-4.15894E-19 1.56154E-19
 -1      2595 1.36963E-04-1.12274E-05-5.40806E-05 4.62959E-06-6.38705E-18-3.57162E-18
 -1      2596 9.52319E-05-2.85763E-05-2.85668E-05 2.34168E-08-2.33245E-19 2.15237E-18
 -1      2597 9.52365E-05-2.85814E-05-2.85665E-05 2.54595E-08-9.19443E-19-3.14267E-19
 -1      2598 9.52365E-05-2.85809E-05-2.85667E-05 2.89161E-08-1.06805E-19-2.02408E-18
 -1      2599 9.52291E-05-2.85746E-05-2.85662E-05 2.64261E-08-1.67053E-19 2.55760E-18
 -1      2600 1.36587E-04-1.28211E-05-5.33306E-05-5.77975E-06-6.22357E-18-1.93875E-18
 -1      2601 9.74989E-05-2.08203E-05-3.28223E-05 4.67189E-06 3.36368E-18-8.22866E-19
 -1      2602 1.10178E-04-5.68902E-05-2.25041E-05 3.23221E-05-2.25671E-18-2.96991E-20
 -1      2603 8.67497E-05-4.87722E-05-1.59898E-05 4.12339E-05 6.04782E-19-4.27095E-18
 -1      2604 7.16436E-05-4.10387E-05-1.26720E-05-4.09360E-05 3.13381E-18 1.49226E-18
 -1      2605 2.93889E-05-1.77640E-05-4.46464E-06-1.41408E-05-1.33037E-18-8.41760E-18
 -1      2606 5.26966E-05-3.08145E-05-8.87649E-06 3.65736E-05 1.32963E-18-6.27609E-18
 -1      2607 2.98139E-05-1.75574E-05-4.71837E-06 1.56967E-05 5.15525E-19-8.40045E-18
 -1      2608 1.41915E-04-5.18629E-05-3.86143E-05 8.09167E-06-2.76446E-18-6.95414E-19
 -1      2609 1.37500E-04-5.58821E-05-3.49169E-05 9.01087E-06-1.54584E-18 1.25890E-19
 -1      2610 1.41343E-04-4.70794E-05-4.10331E-05-1.70050E-06-2.76784E-18 1.83806E-19
 -1      2611 9.06022E-05-4.90368E-05-1.74069E-05-3.91066E-05-2.48075E-18-3.07690E-18
 -1      2612 1.41944E-04-3.50510E-05-4.59876E-05 1.02656E-05 3.94209E-18 1.85161E-18
 -1      2613 1.45006E-04-3.00602E-05-4.95261E-05-6.68047E-06-4.80723E-18-1.14455E-18
 -1      2614 1.40478E-04-3.60403E-05-4.50618E-05-7.15310E-06-3.83484E-18-3.12343E-19
 -1      2615 1.35978E-04-2.48513E-05-4.81070E-05-1.13877E-05-4.55979E-18-9.82346E-19
 -1      2616 1.22058E-04-5.86787E-05-2.68219E-05 2.90147E-05-7.83082E-19-1.88444E-18
 -1      2617 9.37654E-05-1.63209E-05-3.32225E-05-5.93295E-06-2.93152E-18-2.98843E-18
 -1      2618 1.41422E-04-5.54476E-05-3.67897E-05-3.87232E-06 7.39552E-19 1.33079E-18
 -1      2619 5.30421E-05-3.09622E-05-8.95911E-06-3.58610E-05-2.30308E-18-6.55625E-18
 -1      2620 1.33660E-04-5.75987E-05-3.25192E-05-1.58972E-05 2.02113E-18-2.93486E-18
 -1      2621 9.52354E-05-2.85800E-05-2.85666E-05-2.80974E-08-7.74172E-19-1.22240E-18
 -1      2622 9.52319E-05-2.85765E-05-2.85666E-05 3.02761E-08 8.74829E-20 1.22786E-18
 -1      2623 8.35262E-05-9.82139E-06-3.16016E-05 5.45085E-07 1.44125E-18-4.15741E-18
 -1      2624 8.27281E-05-9.25133E-06-3.15146E-05 3.93976E-07 1.09271E-18-4.23376E-18
 -1      2625 8.22058E-05-8.84613E-06-3.14581E-05 5.75806E-07 8.45402E-19-4.33567E-18
 -1      2626 8.20180E-05-8.71779E-06-3.14309E-05 4.70757E-07 5.18612E-19-4.39585E-18
 -1      2627 8.28918E-05-1.02397E-05-3.11111E-05 1.99483E-07 9.02574E-19-4.08363E-18
 -1      2628 8.95805E-05-1.46735E-05-3.21237E-05 1.25892E-06 2.64030E-18-3.03260E-18
 -1      2629 8.77347E-05-1.32005E-05-3.19787E-05 8.33911E-07 2.36423E-18-3.41073E-18
 -1      2630 9.38791E-05-1.84787E-05-3.23392E-05 1.95224E-06 3.00114E-18-2.24850E-18
 -1      2631 9.16686E-05-1.65040E-05-3.22439E-05 1.49097E-06 2.76347E-18-2.64277E-18
 -1      2632 9.13377E-05-1.71260E-05-3.17841E-05-9.17735E-08 2.47687E-18-2.62891E-18
 -1      2633 9.92217E-05-2.56798E-05-3.15155E-05-2.24512E-06 2.29407E-18-8.05374E-19
 -1      2634 9.90649E-05-2.47565E-05-3.18125E-05-2.04970E-07 2.59999E-18-7.29744E-19
 -1      2635 1.18550E-04-5.87621E-05-2.59595E-05 2.54268E-05-2.34829E-18-1.37346E-18
 -1      2636 1.02548E-04-5.27333E-05-2.08099E-05 3.33349E-05-2.96885E-18 1.89484E-19
 -1      2637 9.98850E-05-2.72493E-05-3.11239E-05-5.39029E-06 1.60914E-18-9.10900E-19
 -1      2638 9.95029E-05-2.65086E-05-3.12449E-05-3.96518E-06 1.95339E-18-7.31431E-19
 -1      2639 9.77734E-05-2.45592E-05-3.13857E-05-3.12620E-06 2.13272E-18-1.48722E-18
 -1      2640 9.75843E-05-2.20017E-05-3.23949E-05 2.50515E-06 3.05584E-18-1.03366E-18
 -1      2641 9.89076E-05-2.65361E-05-3.09818E-05 3.32299E-06-1.52677E-18-1.66317E-18
 -1      2642 9.93273E-05-2.74915E-05-3.07934E-05 4.49928E-06-1.27223E-18-1.62520E-18
 -1      2643 9.99293E-05-2.84738E-05-3.05868E-05 5.50562E-06-1.07375E-18-1.44425E-18
 -1      2644 1.00590E-04-2.94716E-05-3.04871E-05 6.11974E-06-8.46358E-19-1.46106E-18
 -1      2645 9.83599E-05-2.70534E-05-3.05824E-05 5.33808E-06-1.18627E-18-1.77148E-18
 -1      2646 1.01487E-04-3.05819E-05-3.03476E-05 6.64106E-06-5.62088E-19-1.30008E-18
 -1      2647 1.02443E-04-3.17612E-05-3.03062E-05 6.67803E-06-3.74621E-19-1.21843E-18
 -1      2648 9.98474E-05-2.94660E-05-3.01971E-05 7.02637E-06-6.58701E-19-1.62129E-18
 -1      2649 1.03789E-04-3.31320E-05-3.02331E-05 6.61514E-06-3.17834E-19-1.05636E-18
 -1      2650 1.05026E-04-3.45151E-05-3.02454E-05 5.99722E-06-1.98082E-19-1.01624E-18
 -1      2651 1.02080E-04-3.23174E-05-2.99438E-05 7.67321E-06-3.70950E-19-1.42674E-18
 -1      2652 1.06893E-04-3.61308E-05-3.02694E-05 5.18130E-06-8.46845E-20-7.62900E-19
 -1      2653 1.08285E-04-3.75485E-05-3.03596E-05 3.82309E-06-9.02421E-20-8.61247E-19
 -1      2654 1.05291E-04-3.57503E-05-2.98593E-05 7.01955E-06-1.62478E-19-1.16567E-18
 -1      2655 1.10556E-04-3.91335E-05-3.05539E-05 2.05302E-06-2.05694E-19-7.03448E-19
 -1      2656 1.11775E-04-4.00953E-05-3.07789E-05-2.10586E-08-3.31064E-19-6.55903E-19
 -1      2657 1.09467E-04-3.94669E-05-3.00584E-05 4.67871E-06-5.37171E-20-8.26136E-19
 -1      2658 1.13937E-04-4.09631E-05-3.12552E-05-2.75749E-06-2.23240E-19-4.47402E-19
 -1      2659 1.14478E-04-4.06757E-05-3.16770E-05-5.19121E-06-2.57284E-19-7.94193E-20
 -1      2660 1.14028E-04-4.23600E-05-3.07555E-05 2.94535E-07-9.33341E-20-1.65621E-19
 -1      2661 1.15537E-04-3.98259E-05-3.25119E-05-8.24115E-06-2.46573E-19 2.81172E-19
 -1      2662 1.14996E-04-3.76115E-05-3.31441E-05-1.00787E-05-1.91410E-19 6.04107E-19
 -1      2663 1.17411E-04-4.23606E-05-3.21858E-05-5.77906E-06 1.16358E-19 4.89903E-19
 -1      2664 1.14078E-04-3.44455E-05-3.42979E-05-1.19961E-05-6.33250E-19 1.02789E-18
 -1      2665 1.12400E-04-3.04528E-05-3.50546E-05-1.18690E-05-1.36986E-18 9.50871E-19
 -1      2666 1.17887E-04-3.78214E-05-3.42820E-05-1.15195E-05-2.91052E-19 8.65482E-19
 -1      2667 1.10140E-04-2.61393E-05-3.62044E-05-1.05080E-05-2.20313E-18 3.31173E-19
 -1      2668 1.08390E-04-2.25651E-05-3.67846E-05-7.71574E-06-2.31203E-18-6.44920E-20
 -1      2669 1.14802E-04-2.84597E-05-3.70191E-05-1.23654E-05-2.19059E-18 9.51589E-19
 -1      2670 1.06918E-04-2.01434E-05-3.73494E-05-2.70981E-06-2.39250E-18-8.99817E-19
 -1      2671 1.06727E-04-1.97142E-05-3.74205E-05 1.59630E-06-2.49917E-18-1.11423E-18
 -1      2672 1.10449E-04-1.98528E-05-3.89238E-05-5.96747E-06-2.77072E-18-6.20021E-20
 -1      2673 1.07759E-04-2.13205E-05-3.70588E-05 6.96022E-06-2.80887E-18-1.91409E-18
 -1      2674 1.09194E-04-2.43729E-05-3.65971E-05 1.02387E-05-2.52359E-18-2.22397E-18
 -1      2675 1.10106E-04-1.88271E-05-3.91825E-05 4.93461E-06-3.28164E-18-1.56916E-18
 -1      2676 1.11582E-04-2.85068E-05-3.55509E-05 1.26391E-05-2.00200E-18-2.86919E-18
 -1      2677 1.13489E-04-3.26566E-05-3.48249E-05 1.33673E-05-1.43953E-18-3.14265E-18
 -1      2678 1.13511E-04-2.60243E-05-3.75194E-05 1.28763E-05-2.73482E-18-2.83825E-18
 -1      2679 1.14754E-04-3.62760E-05-3.36255E-05 1.20295E-05-8.41812E-19-3.05190E-18
 -1      2680 1.15726E-04-3.90136E-05-3.29548E-05 1.05206E-05-6.21944E-19-2.85853E-18
 -1      2681 1.17504E-04-3.58581E-05-3.49835E-05 1.32211E-05-1.06510E-18-3.13790E-18
 -1      2682 1.14989E-04-4.03681E-05-3.20217E-05 7.51598E-06-3.55383E-19-2.39883E-18
 -1      2683 1.14720E-04-4.10596E-05-3.15544E-05 5.11499E-06-2.90579E-19-2.29632E-18
 -1      2684 1.17866E-04-4.17444E-05-3.26201E-05 8.29628E-06-3.16023E-19-2.72510E-18
 -1      2685 1.12689E-04-4.05039E-05-3.09940E-05 2.20806E-06-1.05561E-19-1.79846E-18
 -1      2686 1.11601E-04-3.97908E-05-3.07270E-05-2.34578E-08 3.53863E-19-1.66673E-18
 -1      2687 1.14913E-04-4.26572E-05-3.09869E-05 2.05127E-06 2.35343E-19-1.99216E-18
 -1      2688 1.09281E-04-3.83467E-05-3.04492E-05-2.08146E-06 2.27921E-20-1.35108E-18
 -1      2689 1.07900E-04-3.70582E-05-3.03095E-05-3.69663E-06 3.59104E-20-1.86483E-18
 -1      2690 1.10429E-04-4.03086E-05-3.01034E-05-2.84127E-06 2.12069E-19-1.22962E-18
 -1      2691 1.05890E-04-3.55046E-05-3.01958E-05-4.85357E-06 3.37455E-19-1.71033E-18
 -1      2692 1.04573E-04-3.42089E-05-3.01155E-05-5.80999E-06 6.76039E-19-1.80219E-18
 -1      2693 1.06053E-04-3.68473E-05-2.97135E-05-5.85092E-06 2.39749E-19-1.33389E-18
 -1      2694 1.03062E-04-3.29206E-05-3.00758E-05-6.28292E-06 6.23942E-19-1.29396E-18
 -1      2695 1.01957E-04-3.18678E-05-3.00108E-05-6.70319E-06 6.97925E-19-8.90054E-19
 -1      2696 1.02538E-04-3.36110E-05-2.95827E-05-7.28424E-06 8.33459E-19-1.26239E-18
 -1      2697 1.00915E-04-3.09439E-05-2.99919E-05-6.72798E-06 4.81964E-19-7.50366E-19
 -1      2698 1.00041E-04-3.01866E-05-2.99215E-05-6.77059E-06 7.67632E-19-8.97923E-19
 -1      2699 1.00009E-04-3.11178E-05-2.95539E-05-7.63572E-06 9.47716E-19-1.34909E-18
 -1      2700 9.93593E-05-2.95926E-05-2.98981E-05-6.53113E-06 2.39041E-19-1.48839E-18
 -1      2701 9.86851E-05-2.90936E-05-2.98170E-05-6.33705E-06 4.76530E-20-1.60705E-18
 -1      2702 9.83085E-05-2.94206E-05-2.95418E-05-7.32343E-06-1.07398E-19-7.08903E-19
 -1      2703 9.82531E-05-2.87507E-05-2.97811E-05-5.96070E-06 2.83524E-19-1.93411E-18
 -1      2704 9.77344E-05-2.84465E-05-2.96921E-05-5.63782E-06 1.02284E-19-1.75822E-18
 -1      2705 9.72122E-05-2.83815E-05-2.95099E-05-6.64487E-06 3.03565E-21-9.79642E-19
 -1      2706 9.74643E-05-2.82759E-05-2.96447E-05-5.20746E-06 2.06768E-19-1.48524E-18
 -1      2707 9.70632E-05-2.81066E-05-2.95531E-05-4.83132E-06 8.29204E-19-1.58961E-18
 -1      2708 9.65207E-05-2.78192E-05-2.94501E-05-5.79668E-06 5.13646E-19-1.01430E-18
 -1      2709 9.68939E-05-2.80452E-05-2.94985E-05-4.39869E-06 5.73068E-19-1.32992E-18
 -1      2710 9.65816E-05-2.79634E-05-2.94096E-05-4.01834E-06 2.34845E-19-1.04140E-18
 -1      2711 9.60875E-05-2.75735E-05-2.93672E-05-4.90415E-06 9.93254E-19-5.75317E-19
 -1      2712 9.64739E-05-2.79661E-05-2.93524E-05-3.61388E-06 4.26548E-19-6.24616E-19
 -1      2713 9.62297E-05-2.79380E-05-2.92703E-05-3.25851E-06 4.68635E-19-2.63373E-19
 -1      2714 9.58142E-05-2.75228E-05-2.92705E-05-4.04407E-06 6.08135E-19 2.05123E-19
 -1      2715 9.61593E-05-2.79746E-05-2.92145E-05-2.89831E-06 1.24526E-19-5.84941E-20
 -1      2716 9.59685E-05-2.79775E-05-2.91414E-05-2.58315E-06-2.98592E-19 4.66741E-20
 -1      2717 9.56386E-05-2.75822E-05-2.91690E-05-3.26022E-06 1.62255E-19 3.16543E-20
 -1      2718 9.59208E-05-2.80291E-05-2.90897E-05-2.27370E-06-5.91442E-19 2.10382E-19
 -1      2719 9.57724E-05-2.80483E-05-2.90269E-05-2.00467E-06-8.25773E-19 1.48066E-19
 -1      2720 9.55225E-05-2.76962E-05-2.90700E-05-2.57393E-06-4.70677E-19 6.03927E-20
 -1      2721 9.57390E-05-2.81034E-05-2.89808E-05-1.74638E-06-1.26540E-18 2.26607E-19
 -1      2722 9.56246E-05-2.81299E-05-2.89283E-05-1.52353E-06-5.39610E-19-5.87811E-19
 -1      2723 9.54433E-05-2.78303E-05-2.89784E-05-1.99163E-06-9.59475E-19 8.69866E-19
 -1      2724 9.56004E-05-2.81823E-05-2.88886E-05-1.31315E-06-6.06510E-21-6.17745E-19
 -1      2725 9.55131E-05-2.82105E-05-2.88456E-05-1.13317E-06-3.10688E-19-5.32119E-19
 -1      2726 9.53874E-05-2.79643E-05-2.88969E-05-1.51026E-06-3.76216E-19-3.77914E-20
 -1      2727 9.54952E-05-2.82571E-05-2.88123E-05-9.65508E-07-6.91951E-19-8.55846E-19
 -1      2728 9.54297E-05-2.82841E-05-2.87779E-05-8.23375E-07-7.72293E-19-7.59792E-19
 -1      2729 9.53470E-05-2.80873E-05-2.88267E-05-1.12131E-06-7.53995E-19-5.18866E-19
 -1      2730 9.54162E-05-2.83237E-05-2.87507E-05-6.92436E-07-1.23965E-18-2.77755E-19
 -1      2731 9.53678E-05-2.83479E-05-2.87238E-05-5.82514E-07-7.45870E-19-7.25363E-19
 -1      2732 9.53172E-05-2.81944E-05-2.87678E-05-8.13485E-07-9.68014E-19-9.97468E-20
 -1      2733 9.53576E-05-2.83805E-05-2.87019E-05-4.82249E-07 1.39087E-19-7.13449E-19
 -1      2734 9.53226E-05-2.84012E-05-2.86813E-05-3.98952E-07 8.49069E-19-1.12092E-18
 -1      2735 9.52950E-05-2.82843E-05-2.87197E-05-5.74638E-07-5.54786E-19 8.95482E-19
 -1      2736 9.53148E-05-2.84273E-05-2.86641E-05-3.23682E-07 1.26136E-18-1.86250E-18
 -1      2737 9.52901E-05-2.84446E-05-2.86486E-05-2.61858E-07 1.61536E-18-1.05622E-18
 -1      2738 9.52783E-05-2.83574E-05-2.86811E-05-3.92881E-07 4.93963E-19-9.01209E-19
 -1      2739 9.52843E-05-2.84650E-05-2.86354E-05-2.06513E-07 1.62385E-18-1.20636E-18
 -1      2740 9.52674E-05-2.84790E-05-2.86240E-05-1.61630E-07 2.46803E-19-8.70974E-19
 -1      2741 9.52659E-05-2.84155E-05-2.86508E-05-2.57290E-07 1.53274E-18-1.33541E-18
 -1      2742 9.52631E-05-2.84946E-05-2.86140E-05-1.21847E-07 2.76270E-20 1.83310E-19
 -1      2743 9.52520E-05-2.85056E-05-2.86058E-05-9.00590E-08 7.30279E-19 1.08117E-18
 -1      2744 9.52568E-05-2.84606E-05-2.86274E-05-1.58253E-07 1.31222E-18-5.98980E-19
 -1      2745 9.52489E-05-2.85173E-05-2.85984E-05-6.21976E-08 3.63442E-19 2.19897E-18
 -1      2746 9.52421E-05-2.85260E-05-2.85928E-05-4.03351E-08 6.65183E-19 2.03610E-18
 -1      2747 9.52501E-05-2.84948E-05-2.86098E-05-8.75956E-08 7.60470E-19 1.36847E-18
 -1      2748 9.52398E-05-2.85345E-05-2.85874E-05-2.14355E-08 8.71441E-19 1.40303E-18
 -1      2749 9.52360E-05-2.85412E-05-2.85836E-05-6.95757E-09 7.09874E-19 1.24573E-18
 -1      2750 9.52453E-05-2.85204E-05-2.85967E-05-3.85562E-08 3.15943E-20 1.37541E-18
 -1      2751 9.52345E-05-2.85474E-05-2.85798E-05 5.32459E-09-5.64953E-21 3.42377E-19
 -1      2752 9.52328E-05-2.85524E-05-2.85774E-05 1.43999E-08-4.03721E-19-1.82304E-20
 -1      2753 9.52420E-05-2.85390E-05-2.85872E-05-5.68984E-09-3.98496E-19-1.81021E-18
 -1      2754 9.52318E-05-2.85569E-05-2.85747E-05 2.18710E-08 4.47040E-19 1.14784E-18
 -1      2755 9.52316E-05-2.85607E-05-2.85732E-05 2.70407E-08 1.97133E-18 1.33687E-18
 -1      2756 9.52398E-05-2.85525E-05-2.85805E-05 1.52760E-08 1.01490E-18-1.70131E-18
 -1      2757 9.52310E-05-2.85639E-05-2.85714E-05 3.10479E-08 1.94985E-18 1.37410E-18
 -1      2758 9.52317E-05-2.85670E-05-2.85706E-05 3.33968E-08 1.32171E-18 1.32506E-18
 -1      2759 9.52385E-05-2.85622E-05-2.85757E-05 2.75974E-08 1.89107E-18-1.33890E-19
 -1      2760 9.52315E-05-2.85694E-05-2.85694E-05 3.49015E-08 1.06440E-18 9.77229E-19
 -1      2761 9.52328E-05-2.85721E-05-2.85689E-05 3.51627E-08 8.24621E-19 1.07865E-19
 -1      2762 9.52380E-05-2.85693E-05-2.85724E-05 3.36668E-08 9.42681E-19-1.16126E-18
 -1      2763 9.52330E-05-2.85742E-05-2.85680E-05 3.48158E-08 2.55154E-19-1.31926E-18
 -1      2764 9.52347E-05-2.85766E-05-2.85678E-05 3.34152E-08-4.59537E-19-2.29449E-18
 -1      2765 9.52381E-05-2.85749E-05-2.85700E-05 3.52078E-08-3.43268E-19-2.72138E-18
 -1      2766 1.28363E-04-1.01026E-05-5.13338E-05-3.60640E-06-6.04845E-18-2.02486E-18
 -1      2767 1.29702E-04-1.50661E-05-4.97473E-05-8.66074E-06-5.59973E-18-1.54096E-18
 -1      2768 1.29044E-04-1.31056E-05-5.01617E-05 8.75713E-06-5.46675E-18-4.15417E-18
 -1      2769 1.27230E-04-9.55021E-06-5.11210E-05 2.13519E-06-5.82505E-18-2.88382E-18
 -1      2770 1.02634E-04-3.06235E-05-3.08657E-05-8.90151E-06 5.03375E-19-1.04794E-18
 -1      2771 1.01602E-04-2.95815E-05-3.08328E-05-8.50914E-06 7.39477E-19-9.93276E-19
 -1      2772 1.13451E-04-4.07200E-05-3.12378E-05-4.01166E-06-3.23884E-19-4.40656E-20
 -1      2773 1.11533E-04-3.88956E-05-3.10549E-05-6.16765E-06-4.63750E-19-2.28909E-19
 -1      2774 1.18267E-04-4.37281E-05-3.20163E-05 1.94639E-06 1.96803E-20 3.87557E-19
 -1      2775 1.16769E-04-4.28342E-05-3.16190E-05-1.21554E-06-2.55586E-19 4.22297E-19
 -1      2776 1.14890E-04-4.34245E-05-3.07172E-05-5.18791E-06-4.87378E-19-2.50536E-19
 -1      2777 1.21304E-04-4.29503E-05-3.36270E-05 9.12340E-06 5.97899E-19 1.33516E-18
 -1      2778 1.21025E-04-4.42965E-05-3.29114E-05 5.94723E-06 1.79900E-19 1.02549E-18
 -1      2779 1.21260E-04-4.65259E-05-3.20454E-05 1.71756E-06-1.59421E-19 8.34764E-19
 -1      2780 1.20378E-04-3.59935E-05-3.61759E-05 1.42008E-05 1.51778E-18 2.09770E-18
 -1      2781 1.21995E-04-4.04592E-05-3.51453E-05 1.29078E-05 1.12990E-18 1.81732E-18
 -1      2782 1.25239E-04-4.42412E-05-3.47252E-05 1.02103E-05 6.32945E-19 2.44324E-18
 -1      2783 1.15539E-04-2.46922E-05-3.90660E-05 1.21802E-05 3.36817E-18 1.62130E-18
 -1      2784 1.18393E-04-3.05388E-05-3.80065E-05 1.43851E-05 2.47627E-18 1.72131E-18
 -1      2785 1.24149E-04-3.45704E-05-3.85616E-05 1.49373E-05 2.17232E-18 2.75278E-18
 -1      2786 1.14256E-04-1.77879E-05-4.14802E-05-3.61561E-06 4.09715E-18-1.61532E-19
 -1      2787 1.14643E-04-1.84590E-05-4.15806E-05 2.93854E-06 4.17174E-18 5.63462E-19
 -1      2788 1.15857E-04-2.08186E-05-4.10688E-05-9.65985E-06 3.47839E-18-8.95949E-19
 -1      2789 1.20137E-04-3.48440E-05-3.68965E-05-1.58955E-05 1.28586E-18-2.55566E-18
 -1      2790 1.17349E-04-2.90348E-05-3.78927E-05-1.52372E-05 2.02451E-18-2.20384E-18
 -1      2791 1.22392E-04-4.26083E-05-3.42786E-05-1.19195E-05-2.76075E-19-2.52400E-18
 -1      2792 1.21200E-04-3.91144E-05-3.51929E-05-1.41871E-05 4.27434E-19-2.85384E-18
 -1      2793 1.24518E-04-3.82550E-05-3.69955E-05-1.54939E-05 1.05702E-18-2.96152E-18
 -1      2794 1.20015E-04-4.40597E-05-3.25100E-05-4.45056E-06-1.54638E-18-2.17560E-18
 -1      2795 1.20682E-04-4.36809E-05-3.30605E-05-7.64962E-06-6.48910E-19-2.08310E-18
 -1      2796 1.24089E-04-4.55460E-05-3.37527E-05-8.82666E-06-8.33864E-19-2.59880E-18
 -1      2797 1.15304E-04-4.14603E-05-3.15760E-05 2.07309E-06-1.69413E-18-1.88854E-18
 -1      2798 1.16964E-04-4.28363E-05-3.18594E-05-7.09687E-07-1.46988E-18-1.67605E-18
 -1      2799 1.19099E-04-4.55832E-05-3.16437E-05-5.89860E-07-1.51767E-18-1.95966E-18
 -1      2800 1.10429E-04-3.75886E-05-3.11522E-05 6.22060E-06-1.28601E-18-1.52275E-18
 -1      2801 1.12273E-04-3.93911E-05-3.13003E-05 4.39943E-06-1.88311E-18-1.46452E-18
 -1      2802 1.12894E-04-4.15622E-05-3.06650E-05 5.31869E-06-1.83749E-18-1.98883E-18
 -1      2803 1.06412E-04-3.40975E-05-3.09478E-05 8.23896E-06 3.27655E-19-7.77388E-19
 -1      2804 1.08052E-04-3.56788E-05-3.10558E-05 7.33782E-06-4.71764E-19-9.01493E-19
 -1      2805 1.07491E-04-3.69247E-05-3.03138E-05 8.52133E-06-1.11854E-18-1.72098E-18
 -1      2806 1.03463E-04-3.15651E-05-3.07881E-05 8.75490E-06 5.27429E-19-1.88404E-19
 -1      2807 1.04788E-04-3.27126E-05-3.09056E-05 8.51925E-06 8.70248E-19-1.06667E-19
 -1      2808 1.03528E-04-3.31199E-05-3.02215E-05 9.67875E-06 1.18034E-19-5.79207E-19
 -1      2809 1.01373E-04-2.99376E-05-3.06032E-05 8.37181E-06 6.42774E-20 7.79125E-19
 -1      2810 1.02414E-04-3.06897E-05-3.07414E-05 8.55242E-06 4.32955E-19 5.10446E-19
 -1      2811 1.00891E-04-3.05337E-05-3.01807E-05 9.61063E-06 8.34071E-20 2.87405E-19
 -1      2812 9.98863E-05-2.89838E-05-3.03828E-05 7.51439E-06-8.72428E-19 8.15282E-19
 -1      2813 1.00707E-04-2.94433E-05-3.05355E-05 7.91885E-06-2.76090E-19 1.12325E-18
 -1      2814 9.91955E-05-2.89728E-05-3.01102E-05 8.86595E-06-4.01148E-19 1.15733E-18
 -1      2815 9.88013E-05-2.84737E-05-3.01406E-05 6.46095E-06-3.60015E-19 4.14480E-19
 -1      2816 9.94550E-05-2.87387E-05-3.02965E-05 6.95814E-06-7.96670E-19 4.42451E-19
 -1      2817 9.81033E-05-2.81361E-05-2.99936E-05 7.79883E-06-4.14463E-19 2.07111E-18
 -1      2818 9.79829E-05-2.82329E-05-2.98949E-05 5.38101E-06-7.27844E-19 8.48540E-19
 -1      2819 9.85084E-05-2.83768E-05-3.00440E-05 5.88961E-06-4.47859E-19 4.95336E-19
 -1      2820 9.73767E-05-2.77573E-05-2.98410E-05 6.62845E-06-5.40610E-19 1.27575E-18
 -1      2821 9.73484E-05-2.81451E-05-2.96612E-05 4.36933E-06-6.40900E-19 9.98566E-19
 -1      2822 9.77720E-05-2.82170E-05-2.97968E-05 4.84392E-06-3.36243E-19 1.07435E-18
 -1      2823 9.68678E-05-2.76440E-05-2.96699E-05 5.48428E-06-7.34505E-19 1.19688E-18
 -1      2824 9.68482E-05-2.81388E-05-2.94495E-05 3.47213E-06 1.17558E-19 1.18629E-18
 -1      2825 9.71884E-05-2.81691E-05-2.95679E-05 3.89092E-06-3.49165E-19 1.13065E-18
 -1      2826 9.64916E-05-2.76716E-05-2.94963E-05 4.43674E-06-2.48158E-19 6.43940E-19
 -1      2827 9.64519E-05-2.81724E-05-2.92650E-05 2.70599E-06 9.10495E-19 1.52035E-18
 -1      2828 9.67227E-05-2.81795E-05-2.93652E-05 3.06159E-06 4.64081E-19 1.19623E-18
 -1      2829 9.62020E-05-2.77654E-05-2.93319E-05 3.51845E-06 4.18727E-19 1.05573E-18
 -1      2830 9.61390E-05-2.82227E-05-2.91089E-05 2.07021E-06 7.53906E-19 1.14915E-18
 -1      2831 9.63518E-05-2.82174E-05-2.91915E-05 2.36358E-06 9.95277E-19 1.94895E-18
 -1      2832 9.59736E-05-2.78832E-05-2.91835E-05 2.73902E-06 7.32109E-19 1.66634E-18
 -1      2833 9.58940E-05-2.82770E-05-2.89802E-05 1.55464E-06 3.17437E-19 1.69330E-18
 -1      2834 9.60590E-05-2.82657E-05-2.90468E-05 1.79115E-06 8.81523E-19 1.67455E-18
 -1      2835 9.57922E-05-2.80025E-05-2.90545E-05 2.09418E-06 3.73025E-19 1.21757E-18
 -1      2836 9.57048E-05-2.83291E-05-2.88765E-05 1.14475E-06-9.47080E-19 3.20936E-18
 -1      2837 9.58306E-05-2.83152E-05-2.89290E-05 1.33168E-06-3.35631E-19 2.48131E-18
 -1      2838 9.56484E-05-2.81124E-05-2.89456E-05 1.57199E-06-1.85801E-20 2.32693E-18
 -1      2839 9.55609E-05-2.83760E-05-2.87944E-05 8.24768E-07 2.39785E-19 3.40145E-18
 -1      2840 9.56552E-05-2.83617E-05-2.88352E-05 9.69822E-07 9.63882E-20 3.78135E-18
 -1      2841 9.55357E-05-2.82084E-05-2.88560E-05 1.15709E-06-3.94066E-19 2.21131E-18
 -1      2842 9.54535E-05-2.84165E-05-2.87308E-05 5.79286E-07 1.42425E-18 1.83103E-18
 -1      2843 9.55228E-05-2.84030E-05-2.87618E-05 6.89889E-07 9.60343E-19 2.68523E-18
 -1      2844 9.54485E-05-2.82893E-05-2.87838E-05 8.33275E-07 1.02291E-18 1.98047E-18
 -1      2845 9.53750E-05-2.84506E-05-2.86823E-05 3.94226E-07 1.38765E-18 1.79237E-18
 -1      2846 9.54247E-05-2.84384E-05-2.87055E-05 4.77074E-07 1.74252E-18 1.43625E-18
 -1      2847 9.53824E-05-2.83558E-05-2.87268E-05 5.84868E-07 1.88471E-18 1.78314E-18
 -1      2848 9.53190E-05-2.84787E-05-2.86462E-05 2.57237E-07 8.77841E-19 1.97635E-18
 -1      2849 9.53537E-05-2.84680E-05-2.86630E-05 3.18145E-07 1.40023E-18 2.34671E-18
 -1      2850 9.53331E-05-2.84094E-05-2.86825E-05 3.97605E-07 1.40185E-18 1.24351E-18
 -1      2851 9.52802E-05-2.85015E-05-2.86197E-05 1.57821E-07-7.40488E-19 2.03053E-18
 -1      2852 9.53036E-05-2.84924E-05-2.86317E-05 2.01686E-07 9.95131E-20 2.17553E-18
 -1      2853 9.52973E-05-2.84518E-05-2.86488E-05 2.58990E-07 5.08103E-19 2.45430E-18
 -1      2854 9.52544E-05-2.85196E-05-2.86008E-05 8.72712E-08-1.86254E-18 2.12434E-18
 -1      2855 9.52694E-05-2.85120E-05-2.86091E-05 1.18125E-07-1.40016E-18 1.55500E-18
 -1      2856 9.52720E-05-2.84848E-05-2.86237E-05 1.58404E-07-8.52510E-19 2.67972E-18
 -1      2857 9.52382E-05-2.85338E-05-2.85877E-05 3.85211E-08-2.34571E-18 1.31513E-18
 -1      2858 9.52471E-05-2.85275E-05-2.85933E-05 5.96111E-08-1.80659E-18 1.54882E-18
 -1      2859 9.52546E-05-2.85101E-05-2.86053E-05 8.70420E-08-1.45661E-18 2.89851E-18
 -1      2860 9.52288E-05-2.85448E-05-2.85789E-05 5.95258E-09 6.92972E-19 5.46686E-19
 -1      2861 9.52335E-05-2.85397E-05-2.85824E-05 1.98405E-08-8.72586E-19 4.91418E-19
 -1      2862 9.52433E-05-2.85291E-05-2.85921E-05 3.77560E-08-7.60235E-19 1.68127E-18
 -1      2863 9.52242E-05-2.85533E-05-2.85733E-05-1.47997E-08 7.22584E-19 1.26661E-18
 -1      2864 9.52260E-05-2.85492E-05-2.85754E-05-6.14049E-09 8.27523E-19 8.45017E-19
 -1      2865 9.52364E-05-2.85433E-05-2.85830E-05 4.86668E-09 6.26185E-19 1.50126E-19
 -1      2866 9.52230E-05-2.85599E-05-2.85699E-05-2.70360E-08 1.58439E-18 1.02851E-19
 -1      2867 9.52228E-05-2.85565E-05-2.85710E-05-2.21291E-08 1.18114E-18 5.48782E-19
 -1      2868 9.52326E-05-2.85538E-05-2.85768E-05-1.60312E-08 1.20293E-18 6.83290E-19
 -1      2869 9.52240E-05-2.85651E-05-2.85681E-05-3.31801E-08 1.77540E-18-1.83733E-19
 -1      2870 9.52225E-05-2.85623E-05-2.85685E-05-3.09574E-08 1.93274E-18-3.14335E-19
 -1      2871 9.52311E-05-2.85616E-05-2.85728E-05-2.82651E-08 1.75920E-18-1.47334E-18
 -1      2872 9.52263E-05-2.85695E-05-2.85672E-05-3.49043E-08-6.58401E-19 2.06786E-19
 -1      2873 9.52242E-05-2.85670E-05-2.85673E-05-3.46503E-08 9.05428E-19 4.56226E-19
 -1      2874 9.52311E-05-2.85675E-05-2.85702E-05-3.42803E-08 1.33086E-18-1.53131E-18
 -1      2875 9.52294E-05-2.85734E-05-2.85669E-05-3.32288E-08-1.33480E-18 5.85373E-19
 -1      2876 9.52270E-05-2.85712E-05-2.85667E-05-3.45419E-08-1.01325E-18 1.06882E-18
 -1      2877 9.52323E-05-2.85723E-05-2.85686E-05-3.57667E-08-5.57350E-19-1.67300E-18
 -1      2878 9.52336E-05-2.85777E-05-2.85669E-05-2.97507E-08-3.61275E-19-1.05610E-18
 -1      2879 9.52312E-05-2.85755E-05-2.85668E-05-3.23229E-08-9.69968E-19-2.12680E-19
 -1      2880 9.52352E-05-2.85769E-05-2.85678E-05-3.43112E-08-7.44350E-19-2.64518E-18
 -1      2881 9.52386E-05-2.85818E-05-2.85672E-05-3.13088E-08-7.98819E-19-4.29822E-18
 -1      2882 9.52569E-05-2.85952E-05-2.85693E-05-2.18867E-09 2.31794E-18 1.12169E-18
 -1      2883 9.52566E-05-2.85949E-05-2.85693E-05-6.56875E-09 2.51815E-18-9.38580E-19
 -1      2884 9.52348E-05-2.85779E-05-2.85673E-05 3.22463E-08 2.48017E-19-3.27274E-18
 -1      2885 9.52360E-05-2.85794E-05-2.85671E-05 3.05498E-08 8.67117E-20-2.64532E-18
 -1      2886 9.52387E-05-2.85793E-05-2.85684E-05 3.38584E-08-6.47865E-19-5.05044E-18
 -1      2887 9.52539E-05-2.85929E-05-2.85689E-05-1.93143E-08 1.56623E-18 3.62678E-19
 -1      2888 9.52521E-05-2.85913E-05-2.85689E-05-2.27028E-08 1.11167E-18-1.35750E-18
 -1      2889 9.52566E-05-2.85948E-05-2.85693E-05 6.88057E-09 1.10296E-18 1.06899E-18
 -1      2890 9.52569E-05-2.85952E-05-2.85693E-05 2.51121E-09 1.22476E-18 7.52198E-19
 -1      2891 9.52583E-05-2.85906E-05-2.85719E-05 1.79922E-10 2.39672E-18 3.22161E-19
 -1      2892 9.52561E-05-2.85946E-05-2.85692E-05-1.11361E-08 1.57464E-18-2.04119E-18
 -1      2893 9.52551E-05-2.85937E-05-2.85692E-05-1.52047E-08 2.36738E-18-7.16412E-19
 -1      2894 9.52556E-05-2.85893E-05-2.85713E-05-1.80155E-08 2.05843E-18 4.54805E-19
 -1      2895 9.52577E-05-2.85903E-05-2.85717E-05-9.20555E-09 3.00887E-18-8.94798E-19
 -1      2896 8.25833E-05-4.39139E-05-1.67144E-05 3.84462E-05-3.11581E-18 1.91535E-18
 -1      2897 6.66175E-05-3.48987E-05-1.28368E-05 3.66251E-05-3.15139E-18 2.56524E-18
 -1      2898 9.52550E-05-2.85935E-05-2.85692E-05 1.53212E-08 3.87046E-19-7.99487E-19
 -1      2899 9.52560E-05-2.85945E-05-2.85692E-05 1.13503E-08 8.31239E-19 2.52302E-18
 -1      2900 9.52576E-05-2.85902E-05-2.85717E-05 9.46342E-09 1.00212E-18 1.30100E-18
 -1      2901 9.52520E-05-2.85912E-05-2.85689E-05 2.27641E-08 1.09663E-18-1.27630E-18
 -1      2902 9.52537E-05-2.85928E-05-2.85689E-05 1.93971E-08 6.11704E-19-2.44699E-18
 -1      2903 9.52555E-05-2.85891E-05-2.85713E-05 1.81350E-08 7.02035E-19-1.62684E-18
 -1      2904 9.52473E-05-2.85878E-05-2.85684E-05 2.84303E-08 8.80077E-19-5.51413E-19
 -1      2905 9.52501E-05-2.85900E-05-2.85685E-05 2.59839E-08 9.13239E-19-9.47153E-20
 -1      2906 9.52517E-05-2.85871E-05-2.85705E-05 2.55621E-08 1.88705E-18-1.29400E-18
 -1      2907 1.00936E-04-2.87403E-05-3.09373E-05-7.61857E-06 9.62424E-19-9.65014E-19
 -1      2908 1.00258E-04-2.79460E-05-3.09575E-05-6.70098E-06 1.19481E-18-8.48747E-19
 -1      2909 9.84418E-05-2.63635E-05-3.09062E-05-6.30469E-06 1.52215E-18-1.47909E-18
 -1      2910 9.94870E-05-2.81913E-05-3.05802E-05-8.65436E-06 9.00785E-19-1.60994E-18
 -1      2911 4.74518E-05-2.58442E-05-9.17160E-06 3.20191E-05-2.44094E-18 3.17256E-18
 -1      2912 3.44895E-05-1.84829E-05-6.07511E-06 2.05567E-05-1.50846E-18 5.18067E-18
 -1      2913 1.00077E-04-5.16788E-05-2.03147E-05-3.51165E-05 3.18389E-18-7.50154E-19
 -1      2914 1.14736E-04-5.74940E-05-2.48811E-05-2.92988E-05 2.97827E-18-9.16940E-19
 -1      2915 9.64946E-05-2.09695E-05-3.23968E-05-3.32206E-06-2.72677E-18-2.30252E-18
 -1      2916 9.73289E-05-2.28643E-05-3.19278E-05-1.27214E-06-2.49189E-18-2.04219E-18
 -1      2917 1.37759E-04-4.11033E-05-4.15850E-05 1.15708E-05 2.54512E-18 2.38133E-18
 -1      2918 1.33244E-04-2.94940E-05-4.52259E-05 1.41000E-05 4.20255E-18 2.26957E-18
 -1      2919 8.24234E-05-4.22474E-05-1.65872E-05-3.75970E-05-2.96610E-18-3.06764E-18
 -1      2920 1.00623E-04-5.16788E-05-2.12325E-05-3.49922E-05-2.67334E-18-1.46637E-18
 -1      2921 1.30895E-04-2.31615E-05-4.68978E-05-1.33608E-05 4.84249E-18-2.71495E-18
 -1      2922 1.34844E-04-3.19240E-05-4.43694E-05-1.55826E-05 3.67559E-18-3.47516E-18
 -1      2923 1.08851E-04-3.67426E-05-3.09454E-05-7.56444E-06-2.95035E-19-4.40558E-19
 -1      2924 1.07074E-04-3.49514E-05-3.08507E-05-8.68013E-06-4.83756E-21-7.73190E-19
 -1      2925 1.08844E-04-3.84624E-05-3.02517E-05-8.97099E-06-5.09135E-19-4.58577E-19
 -1      2926 1.05211E-04-3.32431E-05-3.08621E-05-9.02095E-06 3.06608E-19-9.58903E-19
 -1      2927 1.03794E-04-3.18237E-05-3.08017E-05-9.27965E-06 4.19897E-19-8.10888E-19
 -1      2928 1.04305E-04-3.39725E-05-3.02080E-05-1.03904E-05 1.05444E-19-9.35676E-19
 -1      2929 9.80547E-05-2.43504E-05-3.15658E-05 2.96193E-07-2.09132E-18-1.85417E-18
 -1      2930 9.83771E-05-2.55011E-05-3.12432E-05 2.05683E-06-1.75492E-18-1.78972E-18
 -1      2931 9.72486E-05-2.47456E-05-3.10822E-05 2.90806E-06-1.70345E-18-2.07626E-18
 -1      2932 9.60760E-05-2.20571E-05-3.17229E-05-3.20260E-08-2.22562E-18-2.32668E-18
 -1      2933 1.01899E-04-5.36996E-05-2.07055E-05 3.79685E-05 9.82982E-19-2.86673E-18
 -1      2934 8.38724E-05-4.44711E-05-1.64640E-05 3.94626E-05 1.76691E-18-3.42244E-18
 -1      2935 1.35862E-04-5.69477E-05-3.36819E-05-4.49169E-06-4.17395E-19 1.48797E-18
 -1      2936 1.38856E-04-5.18281E-05-3.79740E-05 3.65110E-06 1.00226E-18 1.93971E-18
 -1      2937 8.60532E-05-1.17852E-05-3.18431E-05 7.45906E-07 2.15419E-18-3.64979E-18
 -1      2938 8.46747E-05-1.07578E-05-3.17103E-05 4.65904E-07 1.72683E-18-3.91641E-18
 -1      2939 8.46133E-05-1.15735E-05-3.12780E-05-1.71936E-07 1.49609E-18-3.71992E-18
 -1      2940 8.75230E-05-1.39096E-05-3.15254E-05-2.75311E-07 2.08815E-18-3.26973E-18
 -1      2941 6.41620E-05-3.34082E-05-1.29902E-05 3.86849E-05 1.89884E-18-4.83741E-18
 -1      2942 5.01209E-05-2.46129E-05-1.03450E-05 3.12459E-05 1.89984E-18-5.98376E-18
 -1      2943 4.96672E-05-2.41415E-05-1.03216E-05-2.98115E-05-2.80940E-18-6.73095E-18
 -1      2944 6.37239E-05-3.24355E-05-1.33456E-05-3.66712E-05-2.75625E-18-4.81295E-18
 -1      2945 1.18002E-04-5.75084E-05-2.54455E-05-2.54273E-05-2.19985E-18 2.32352E-19
 -1      2946 1.28509E-04-5.99435E-05-2.98273E-05-1.67204E-05-1.19389E-18 1.13812E-18
 -1      2947 9.28404E-05-1.61885E-05-3.28638E-05-4.25800E-06-2.57590E-18-3.14117E-18
 -1      2948 8.56044E-05-1.16049E-05-3.17453E-05 7.07034E-08-7.98890E-19-4.22744E-18
 -1      2949 8.70281E-05-1.26792E-05-3.18734E-05-4.01526E-07-1.23757E-18-4.03077E-18
 -1      2950 1.27906E-04-5.86837E-05-2.93940E-05-1.74580E-05 2.58668E-18-2.39689E-18
 -1      2951 1.36059E-04-5.61687E-05-3.48196E-05-7.06959E-06 1.04733E-18-3.77734E-18
 -1      2952 3.87752E-05-1.81517E-05-8.36214E-06 2.34508E-05 1.08023E-18-7.11677E-18
 -1      2953 3.19159E-05-1.38173E-05-7.27489E-06 9.63198E-06 3.58771E-19-7.75776E-18
 -1      2954 5.12227E-05-2.11217E-05-1.23240E-05 2.59215E-05 1.77633E-18-5.97254E-18
 -1      2955 9.52393E-05-2.85823E-05-2.85673E-05 3.10285E-08 1.96974E-19-3.71229E-18
 -1      2956 1.28033E-04-5.92938E-05-2.97858E-05 1.90068E-05-1.03656E-19-4.10282E-20
 -1      2957 1.15731E-04-5.75626E-05-2.47046E-05 2.92716E-05 6.89802E-19-1.45700E-18
 -1      2958 1.12477E-04-5.49976E-05-2.43442E-05 2.84353E-05 1.50036E-18-1.25096E-18
 -1      2959 6.72661E-05-3.47800E-05-1.32589E-05-3.75629E-05 3.24435E-18 1.21581E-18
 -1      2960 8.33077E-05-4.40001E-05-1.68416E-05-3.95758E-05 3.15075E-18-1.14985E-19
 -1      2961 3.63750E-05-1.83563E-05-7.06928E-06-2.19844E-05 2.36052E-18 3.98974E-18
 -1      2962 4.85725E-05-2.54817E-05-9.66382E-06-3.31062E-05 3.12788E-18 2.84984E-18
 -1      2963 1.37319E-04-2.98997E-05-4.64284E-05 1.16200E-05-3.56103E-18-5.05880E-18
 -1      2964 1.32955E-04-2.11091E-05-4.87162E-05 1.16422E-05-4.84778E-18-4.82258E-18
 -1      2965 1.38973E-04-4.77122E-05-3.91723E-05 3.71418E-06-5.75029E-19-5.19104E-18
 -1      2966 1.39766E-04-3.94904E-05-4.35846E-05 8.06780E-06-2.08518E-18-5.31873E-18
 -1      2967 1.33759E-04-3.55062E-05-4.23969E-05 1.20013E-05-2.48255E-18-4.77197E-18
 -1      2968 3.27514E-05-1.32411E-05-7.72538E-06-6.40534E-06-8.46451E-19-7.43335E-18
 -1      2969 3.83710E-05-1.74096E-05-8.54264E-06-2.09548E-05-1.85400E-18-7.31604E-18
 -1      2970 5.07452E-05-1.96566E-05-1.27516E-05-2.27384E-05-2.25104E-18-6.34502E-18
 -1      2971 8.86791E-05-1.40874E-05-3.19982E-05-7.59111E-07-1.50862E-18-3.87160E-18
 -1      2972 9.04074E-05-1.54510E-05-3.21341E-05-1.35362E-06-1.89944E-18-3.72173E-18
 -1      2973 8.86543E-05-1.49842E-05-3.15557E-05 4.87549E-07-1.22348E-18-3.57267E-18
 -1      2974 8.25242E-05-9.98784E-06-3.10626E-05 6.56713E-07 4.50481E-19-4.21811E-18
 -1      2975 8.21617E-05-8.86157E-06-3.14382E-05 6.40592E-07 3.08057E-19-4.51584E-18
 -1      2976 8.25916E-05-9.17128E-06-3.14758E-05 4.81949E-07 2.81102E-20-4.51609E-18
 -1      2977 9.59678E-05-2.08034E-05-3.22290E-05 1.36237E-06 2.92028E-18-1.69265E-18
 -1      2978 9.58215E-05-4.73185E-05-2.03429E-05 3.24653E-05-3.43789E-18 6.98167E-19
 -1      2979 3.55571E-05-1.56286E-05-7.87774E-06 1.32671E-05-9.05372E-19 5.35748E-18
 -1      2980 9.51981E-05-4.69463E-05-2.02855E-05-3.35542E-05 2.35279E-18-1.77612E-19
 -1      2981 3.44348E-05-1.26409E-05-8.96786E-06-7.03606E-06 8.98874E-19 4.23876E-18
 -1      2982 3.46235E-05-1.52834E-05-7.68809E-06-1.53828E-05 1.62334E-18 3.98211E-18
 -1      2983 4.39787E-05-1.68039E-05-1.11583E-05-1.92608E-05 2.26984E-18 2.61140E-18
 -1      2984 9.52428E-05-2.85852E-05-2.85675E-05 3.02093E-08 6.17849E-19-2.18866E-18
 -1      2985 9.52519E-05-2.85873E-05-2.85705E-05-2.55067E-08 1.21001E-20-7.55122E-19
 -1      2986 9.52501E-05-2.85901E-05-2.85685E-05-2.59596E-08 3.00976E-19-2.40066E-18
 -1      2987 9.52475E-05-2.85879E-05-2.85684E-05-2.82274E-08-1.64233E-18-1.96460E-18
 -1      2988 1.22088E-04-1.12744E-05-4.79062E-05-5.52912E-07-5.08199E-18-2.54255E-18
 -1      2989 1.35066E-04-5.17109E-05-3.57916E-05 8.88786E-07 3.05460E-19-4.27900E-18
 -1      2990 1.01308E-04-3.05937E-05-3.03476E-05-1.01088E-05 4.72974E-19-1.49932E-18
 -1      2991 1.20274E-04-1.87615E-05-4.38867E-05 6.85275E-06 4.37281E-18 1.15324E-18
 -1      2992 1.21535E-04-2.28177E-05-4.26547E-05-1.28674E-05 3.66045E-18-1.30237E-18
 -1      2993 9.52451E-05-2.85865E-05-2.85679E-05-2.99929E-08-2.21524E-18-3.28431E-18
 -1      2994 9.52417E-05-2.85837E-05-2.85677E-05-3.07304E-08-1.48570E-18-3.39828E-18
 -1      2995 9.52403E-05-2.85812E-05-2.85682E-05-3.27677E-08-1.07870E-18-4.03690E-18
 -1      2996 9.52467E-05-2.85847E-05-2.85695E-05-3.05471E-08-1.32826E-18-2.05630E-18
 -1      2997 8.04311E-05-3.92892E-05-1.72361E-05 3.61630E-05 2.28170E-18-3.76967E-18
 -1      2998 9.52446E-05-2.85836E-05-2.85690E-05 3.11404E-08 3.09298E-19-1.94822E-18
 -1      2999 1.21930E-04-5.70896E-05-2.75707E-05-1.95667E-05 2.27577E-18-1.59597E-18
 -1      3000 1.09521E-04-5.25808E-05-2.41688E-05-2.71880E-05-2.59774E-18-5.13560E-19
 -1      3001 7.75048E-05-3.60319E-05-1.72994E-05-3.37947E-05-2.86345E-18-3.65976E-18
 -1      3002 1.34261E-04-4.53317E-05-3.82171E-05 1.00884E-05 1.26420E-18 2.08873E-18
 -1      3003 1.38327E-04-4.28298E-05-4.15957E-05-1.16015E-05 2.27820E-18-3.41248E-18
 -1      3004 1.40203E-04-5.12100E-05-3.81938E-05-5.18022E-06 8.86658E-19-2.98219E-18
 -1      3005 1.39681E-04-4.27240E-05-4.18670E-05-6.55372E-06-2.88399E-18 3.30343E-19
 -1      3006 1.36818E-04-4.71999E-05-3.83130E-05-4.75584E-06-1.97523E-18 7.17649E-19
 -1      3007 1.33692E-04-3.70181E-05-4.19964E-05-1.16518E-05-2.65619E-18 5.86253E-19
 -1      3008 1.30612E-04-2.05996E-05-4.76542E-05-1.09485E-05-4.79569E-18-9.67418E-19
 -1      3009 1.29619E-04-2.62414E-05-4.47445E-05-1.23471E-05-4.02383E-18-5.67194E-19
 -1      3010 1.23670E-04-1.72509E-05-4.60262E-05-1.02170E-05-4.64068E-18-8.79855E-19
 -1      3011 9.30036E-05-1.75218E-05-3.23470E-05-2.42928E-06-2.25409E-18-3.15183E-18
 -1      3012 1.33516E-04-3.80604E-05-4.11512E-05-1.43738E-05 2.48768E-18-3.72652E-18
 -1      3013 1.25924E-04-1.81910E-05-4.64677E-05 1.12254E-05-4.52951E-18-4.33718E-18
 -1      3014 1.30506E-04-5.67107E-05-3.15135E-05-7.29113E-06-1.15451E-18 1.11713E-18
 -1      3015 9.54818E-05-2.12815E-05-3.17902E-05-5.84876E-07 2.57683E-18-1.95617E-18
 -1      3016 1.34215E-04-5.52570E-05-3.43578E-05 4.05510E-06-8.34096E-19 4.56127E-19
 -1      3017 1.32746E-04-5.82787E-05-3.19128E-05 1.14066E-05-5.24208E-19 2.69780E-19
 -1      3018 1.26764E-04-5.74448E-05-2.96689E-05 1.41996E-05 3.71583E-19 5.44219E-20
 -1      3019 8.33516E-05-9.81904E-06-3.15425E-05 5.24178E-07-1.58153E-19-4.34550E-18
 -1      3020 8.43303E-05-1.05302E-05-3.16357E-05 2.27550E-07-5.50077E-19-4.35193E-18
 -1      3021 8.56283E-05-1.25096E-05-3.13191E-05 9.26996E-07-6.46178E-19-3.97615E-18
 -1      3022 8.34942E-05-1.07870E-05-3.11393E-05 9.61697E-07-5.00535E-20-4.25047E-18
 -1      3023 1.28578E-04-2.55130E-05-4.47109E-05 1.45567E-05 4.19250E-18 2.06215E-18
 -1      3024 1.24330E-04-2.00631E-05-4.53996E-05 1.09876E-05 4.42998E-18 1.40983E-18
 -1      3025 6.08434E-05-2.87876E-05-1.32300E-05 3.18573E-05-2.88658E-18 2.93455E-18
 -1      3026 1.29390E-04-5.97068E-05-2.95854E-05 1.43086E-05-1.64944E-18-2.55200E-18
 -1      3027 1.22645E-04-5.74530E-05-2.76855E-05 1.75777E-05-2.62432E-18-2.47506E-18
 -1      3028 6.24441E-05-2.92352E-05-1.38071E-05-3.30268E-05 3.18283E-18 1.89746E-18
 -1      3029 1.35615E-04-5.73016E-05-3.39922E-05 5.42741E-06-4.24178E-19-3.02603E-18
 -1      3030 1.03859E-04-4.95634E-05-2.35331E-05 2.73299E-05-3.53951E-18-7.70244E-19
 -1      3031 8.86397E-05-4.05957E-05-1.99967E-05 3.11201E-05-3.63766E-18 4.61818E-19
 -1      3032 9.27422E-05-1.93106E-05-3.14782E-05-1.52642E-06 2.32678E-18-2.38878E-18
 -1      3033 9.06226E-05-1.74999E-05-3.13573E-05-1.61408E-06 2.13055E-18-2.68824E-18
 -1      3034 9.65626E-05-2.52404E-05-3.05447E-05 5.06932E-06-1.11383E-18-2.13849E-18
 -1      3035 9.71831E-05-2.64824E-05-3.03017E-05 6.20798E-06-8.34643E-19-2.03286E-18
 -1      3036 9.79137E-05-2.77820E-05-3.00249E-05 7.29152E-06-6.33434E-19-1.76348E-18
 -1      3037 9.88369E-05-2.91925E-05-2.98455E-05 7.97807E-06-4.26145E-19-1.69572E-18
 -1      3038 9.59016E-05-2.60693E-05-2.99521E-05 7.18516E-06-6.20846E-19-2.07001E-18
 -1      3039 9.99806E-05-3.07594E-05-2.96218E-05 8.70257E-06-4.27341E-19-1.44316E-18
 -1      3040 1.01361E-04-3.25042E-05-2.95098E-05 8.86103E-06-3.86828E-19-1.54366E-18
 -1      3041 9.77156E-05-2.91942E-05-2.94095E-05 9.17448E-06-3.26681E-19-1.89003E-18
 -1      3042 1.03184E-04-3.44987E-05-2.93719E-05 9.07094E-06-8.04177E-20-1.31964E-18
 -1      3043 1.05099E-04-3.66049E-05-2.93655E-05 8.54623E-06 1.67254E-19-1.08825E-18
 -1      3044 1.00608E-04-3.31044E-05-2.89976E-05 1.03969E-05-1.62996E-19-1.40940E-18
 -1      3045 1.07788E-04-3.89868E-05-2.93961E-05 7.92764E-06 3.30877E-19-9.51876E-19
 -1      3046 1.10138E-04-4.11888E-05-2.95809E-05 6.50714E-06 1.69330E-19-8.09079E-19
 -1      3047 1.05066E-04-3.79994E-05-2.88360E-05 1.04058E-05 3.06479E-19-1.09547E-18
 -1      3048 1.13603E-04-4.35032E-05-2.99421E-05 4.61829E-06 1.30941E-19-1.51956E-19
 -1      3049 1.15941E-04-4.49290E-05-3.04678E-05 2.19456E-06 3.32556E-19 1.55126E-19
 -1      3050 1.11171E-04-4.34121E-05-2.91785E-05 8.36268E-06 5.57629E-19-1.52109E-19
 -1      3051 1.19535E-04-4.61477E-05-3.14181E-05-1.40096E-06 3.61213E-19 5.51789E-19
 -1      3052 1.20542E-04-4.54619E-05-3.22096E-05-4.39722E-06 4.51502E-19 7.04652E-19
 -1      3053 1.18683E-04-4.76209E-05-3.05201E-05 3.12014E-06 7.20018E-19 8.03967E-19
 -1      3054 1.18811E-04-3.17865E-05-3.77126E-05-1.33153E-05-1.87115E-18 8.49111E-19
 -1      3055 1.16833E-04-2.58868E-05-3.90996E-05-1.20807E-05-2.68017E-18 6.29656E-19
 -1      3056 1.16476E-04-1.80751E-05-4.25922E-05-8.82556E-06-3.82033E-18-2.85185E-19
 -1      3057 1.14733E-04-1.42489E-05-4.34830E-05-4.12236E-06-3.99005E-18-1.10337E-18
 -1      3058 1.13594E-04-1.36389E-05-4.32756E-05 2.75014E-06-4.02171E-18-2.41015E-18
 -1      3059 1.14743E-04-1.61912E-05-4.27925E-05 8.04027E-06-4.14935E-18-3.02458E-18
 -1      3060 1.19159E-04-2.23490E-05-4.17713E-05 1.27573E-05-3.54674E-18-3.88748E-18
 -1      3061 1.22096E-04-2.94240E-05-4.00835E-05 1.44187E-05-2.84720E-18-4.05496E-18
 -1      3062 1.21169E-04-4.42818E-05-3.30113E-05 7.37570E-06-3.33387E-20-2.84874E-18
 -1      3063 1.20263E-04-4.59035E-05-3.18417E-05 4.04369E-06 1.53685E-19-2.77389E-18
 -1      3064 1.16861E-04-4.52860E-05-3.07215E-05 3.08314E-07 4.03598E-19-1.93052E-18
 -1      3065 1.14740E-04-4.42959E-05-3.00936E-05-2.40185E-06 8.07345E-19-1.59157E-18
 -1      3066 1.19627E-04-4.77107E-05-3.08837E-05-6.40265E-07 6.88280E-19-2.30709E-18
 -1      3067 1.11098E-04-4.21769E-05-2.95813E-05-4.72901E-06 8.42503E-19-9.93783E-19
 -1      3068 1.08721E-04-4.01596E-05-2.92944E-05-6.47058E-06 6.20524E-19-1.08855E-18
 -1      3069 1.12403E-04-4.45841E-05-2.91881E-05-6.58870E-06 1.00279E-18-1.15658E-18
 -1      3070 1.05791E-04-3.78395E-05-2.91364E-05-7.46504E-06 1.78616E-19-7.06264E-19
 -1      3071 1.03729E-04-3.58251E-05-2.90394E-05-8.34624E-06 5.44574E-19-3.48365E-19
 -1      3072 1.05803E-04-3.94100E-05-2.85514E-05-9.39030E-06 7.59588E-19-8.95481E-19
 -1      3073 1.01708E-04-3.39233E-05-2.90476E-05-8.51448E-06 6.83140E-19-3.34059E-19
 -1      3074 1.00160E-04-3.23237E-05-2.90351E-05-8.79312E-06 1.15322E-18-3.74527E-19
 -1      3075 1.00901E-04-3.46792E-05-2.84495E-05-1.01186E-05 6.25703E-19-2.82082E-19
 -1      3076 9.89092E-05-3.09823E-05-2.91017E-05-8.52924E-06 1.33868E-18-4.43883E-19
 -1      3077 9.78429E-05-2.98679E-05-2.91126E-05-8.43275E-06 1.00571E-18-2.86420E-19
 -1      3078 9.77011E-05-3.11402E-05-2.85690E-05-9.74101E-06 9.20839E-19 1.81917E-19
 -1      3079 9.71444E-05-2.90255E-05-2.91828E-05-7.97065E-06 2.67619E-19-3.23267E-19
 -1      3080 9.64486E-05-2.83257E-05-2.91876E-05-7.66133E-06-2.38750E-19-2.35456E-19
 -1      3081 9.58122E-05-2.87989E-05-2.87440E-05-8.84771E-06 7.97150E-19-7.03002E-19
 -1      3082 9.61070E-05-2.78596E-05-2.92387E-05-7.12754E-06-3.35538E-19 4.26773E-19
 -1      3083 9.56669E-05-2.74666E-05-2.92277E-05-6.71217E-06 4.15956E-19 5.19895E-19
 -1      3084 9.48129E-05-2.74166E-05-2.88963E-05-7.76248E-06 1.69625E-19 1.53423E-19
 -1      3085 9.55394E-05-2.72583E-05-2.92544E-05-6.17201E-06 5.52792E-19 7.06843E-20
 -1      3086 9.52651E-05-2.70733E-05-2.92279E-05-5.71925E-06 6.38120E-19 8.14803E-20
 -1      3087 9.43675E-05-2.67157E-05-2.89990E-05-6.64416E-06 2.29082E-19 8.15094E-19
 -1      3088 9.52565E-05-2.70281E-05-2.92328E-05-5.20758E-06 9.31487E-19-3.16961E-19
 -1      3089 9.50853E-05-2.69746E-05-2.91949E-05-4.76067E-06 1.08942E-18 1.26769E-19
 -1      3090 9.42435E-05-2.64633E-05-2.90504E-05-5.57199E-06 3.22406E-19 1.05927E-19
 -1      3091 9.51357E-05-2.70243E-05-2.91836E-05-4.29600E-06 1.14592E-18-4.96355E-21
 -1      3092 9.50275E-05-2.70476E-05-2.91395E-05-3.88084E-06 8.02875E-19 4.04062E-19
 -1      3093 9.42905E-05-2.64851E-05-2.90594E-05-4.58713E-06 1.15315E-18-5.22705E-19
 -1      3094 9.51014E-05-2.71461E-05-2.91175E-05-3.47200E-06-9.73832E-20 4.79600E-19
 -1      3095 9.50313E-05-2.72097E-05-2.90715E-05-3.10255E-06-3.58587E-19-1.19842E-19
 -1      3096 9.44162E-05-2.66593E-05-2.90379E-05-3.71026E-06 7.56010E-19-3.10235E-19
 -1      3097 9.51089E-05-2.73272E-05-2.90438E-05-2.75215E-06-2.95902E-19 2.45384E-19
 -1      3098 9.50619E-05-2.74078E-05-2.89992E-05-2.43412E-06-3.27291E-19 8.51000E-19
 -1      3099 9.45675E-05-2.69053E-05-2.89971E-05-2.94947E-06-2.83378E-19 2.22661E-19
 -1      3100 9.51330E-05-2.75266E-05-2.89694E-05-2.14064E-06-1.18972E-18 9.58890E-19
 -1      3101 9.51004E-05-2.76101E-05-2.89284E-05-1.87424E-06-1.16355E-18 7.31194E-19
 -1      3102 9.47153E-05-2.71725E-05-2.89461E-05-2.30435E-06-6.28001E-19 1.07839E-18
 -1      3103 9.51610E-05-2.77202E-05-2.88991E-05-1.63348E-06-3.54032E-19 2.32713E-19
 -1      3104 9.51376E-05-2.77988E-05-2.88628E-05-1.41554E-06-1.81183E-19 1.13716E-19
 -1      3105 9.48462E-05-2.74308E-05-2.88917E-05-1.76860E-06-1.17491E-18 7.46443E-20
 -1      3106 9.51865E-05-2.78954E-05-2.88356E-05-1.22182E-06-7.52847E-19 4.93236E-19
 -1      3107 9.51693E-05-2.79650E-05-2.88045E-05-1.04728E-06-1.53759E-18-5.28744E-20
 -1      3108 9.49549E-05-2.76643E-05-2.88385E-05-1.33226E-06-5.07859E-19 3.45179E-19
 -1      3109 9.52073E-05-2.80466E-05-2.87803E-05-8.94273E-07-1.32403E-18 2.94299E-19
 -1      3110 9.51944E-05-2.81059E-05-2.87543E-05-7.57234E-07-2.27515E-19 1.15439E-18
 -1      3111 9.50414E-05-2.78660E-05-2.87892E-05-9.83415E-07-1.11855E-18 1.24611E-18
 -1      3112 9.52229E-05-2.81728E-05-2.87335E-05-6.38573E-07-6.04417E-19 4.12633E-19
 -1      3113 9.52132E-05-2.82216E-05-2.87123E-05-5.33033E-07-4.26928E-19 5.86643E-19
 -1      3114 9.51076E-05-2.80345E-05-2.87455E-05-7.09529E-07-3.75926E-19 5.06852E-19
 -1      3115 9.52339E-05-2.82750E-05-2.86948E-05-4.42679E-07 1.79902E-19 9.60534E-19
 -1      3116 9.52266E-05-2.83143E-05-2.86779E-05-3.62952E-07 3.52691E-19 7.78323E-19
 -1      3117 9.51567E-05-2.81714E-05-2.87080E-05-4.98326E-07-4.50774E-19 8.07190E-19
 -1      3118 9.52410E-05-2.83560E-05-2.86636E-05-2.95448E-07 5.04523E-19 3.30331E-19
 -1      3119 9.52355E-05-2.83869E-05-2.86503E-05-2.36417E-07 1.69286E-18-3.80497E-19
 -1      3120 9.51918E-05-2.82800E-05-2.86766E-05-3.38417E-07-5.22323E-20 2.06843E-18
 -1      3121 9.52451E-05-2.84187E-05-2.86388E-05-1.86999E-07 2.63049E-18-1.48840E-18
 -1      3122 9.52410E-05-2.84425E-05-2.86286E-05-1.44231E-07 2.14484E-18-3.26208E-19
 -1      3123 9.52160E-05-2.83643E-05-2.86508E-05-2.19644E-07 1.68907E-18 8.14952E-19
 -1      3124 9.52471E-05-2.84662E-05-2.86196E-05-1.08863E-07 1.58327E-18-2.02973E-19
 -1      3125 9.52441E-05-2.84842E-05-2.86119E-05-7.86331E-08 1.12813E-18 5.12568E-19
 -1      3126 9.52319E-05-2.84283E-05-2.86302E-05-1.33245E-07 2.44954E-18-1.68672E-19
 -1      3127 9.52476E-05-2.85016E-05-2.86048E-05-5.39828E-08 4.08557E-19 8.52863E-19
 -1      3128 9.52455E-05-2.85148E-05-2.85991E-05-3.32428E-08-7.54987E-19 5.86308E-19
 -1      3129 9.52416E-05-2.84760E-05-2.86140E-05-7.18595E-08 1.15833E-18-3.37901E-19
 -1      3130 9.52471E-05-2.85272E-05-2.85938E-05-1.66245E-08-1.88676E-18 6.97375E-19
 -1      3131 9.52456E-05-2.85369E-05-2.85897E-05-2.94561E-09-4.47517E-19 3.54168E-19
 -1      3132 9.52469E-05-2.85107E-05-2.86014E-05-2.94635E-08-1.09090E-18 1.44622E-18
 -1      3133 9.52461E-05-2.85456E-05-2.85856E-05 7.75213E-09 8.91169E-19-1.36079E-18
 -1      3134 9.52451E-05-2.85525E-05-2.85826E-05 1.62544E-08 2.00679E-18-1.25226E-18
 -1      3135 9.52492E-05-2.85355E-05-2.85917E-05-1.24201E-09-3.07448E-19 1.55587E-18
 -1      3136 9.52448E-05-2.85586E-05-2.85796E-05 2.26453E-08 2.05441E-18-9.72982E-19
 -1      3137 9.52443E-05-2.85636E-05-2.85775E-05 2.73852E-08 1.55394E-18-1.18058E-18
 -1      3138 9.52495E-05-2.85529E-05-2.85844E-05 1.65569E-08 2.09931E-18-9.83699E-19
 -1      3139 9.52436E-05-2.85678E-05-2.85752E-05 3.06771E-08 8.43438E-19-1.55180E-18
 -1      3140 9.52434E-05-2.85716E-05-2.85737E-05 3.26991E-08 4.02135E-19-1.63602E-18
 -1      3141 9.52487E-05-2.85651E-05-2.85788E-05 2.67542E-08 1.27899E-18-2.13685E-18
 -1      3142 9.52426E-05-2.85748E-05-2.85719E-05 3.36348E-08-6.52724E-19-1.63353E-18
 -1      3143 9.52428E-05-2.85778E-05-2.85708E-05 3.36038E-08-1.36457E-18-3.31106E-18
 -1      3144 9.52475E-05-2.85740E-05-2.85744E-05 3.15069E-08-7.60966E-19-3.36874E-18
 -1      3145 1.30385E-04-5.28605E-05-3.30602E-05-4.99496E-07 6.65662E-19-3.55007E-18
 -1      3146 1.31407E-04-4.69326E-05-3.66284E-05 7.25778E-06-9.40418E-19-4.59807E-18
 -1      3147 8.93015E-05-4.10633E-05-2.00943E-05-3.19587E-05 1.97192E-18-4.78627E-19
 -1      3148 1.02093E-04-4.91284E-05-2.30257E-05-2.92511E-05 2.18863E-18-8.28716E-19
 -1      3149 1.15276E-04-4.57750E-05-2.98585E-05-7.97412E-06-9.47195E-19-2.71732E-19
 -1      3150 1.12040E-04-4.27925E-05-2.95200E-05-1.00172E-05-9.36382E-19-6.03475E-19
 -1      3151 1.26481E-04-5.21040E-05-3.18464E-05 3.51937E-07-1.62710E-18-3.11713E-18
 -1      3152 1.28776E-04-5.08654E-05-3.34614E-05-3.85303E-06-7.23141E-19-3.14791E-18
 -1      3153 1.09598E-04-4.05644E-05-2.94690E-05 9.73521E-06-1.91436E-18-2.23671E-18
 -1      3154 1.12952E-04-4.34472E-05-2.97507E-05 7.83367E-06-2.15397E-18-2.14194E-18
 -1      3155 1.03784E-04-3.51283E-05-2.93542E-05 1.11481E-05-1.33434E-18-1.64206E-18
 -1      3156 1.06263E-04-3.76229E-05-2.94097E-05 1.03786E-05-1.69709E-18-1.96779E-18
 -1      3157 1.04953E-04-3.89958E-05-2.84180E-05 1.28134E-05-1.97463E-18-1.84832E-18
 -1      3158 1.00104E-04-3.13006E-05-2.94523E-05 1.10653E-05-4.35509E-19 3.79464E-19
 -1      3159 1.01775E-04-3.30353E-05-2.94461E-05 1.09803E-05-1.12231E-18-7.45123E-19
 -1      3160 9.98436E-05-3.34284E-05-2.85376E-05 1.28087E-05-1.75430E-18-9.68245E-19
 -1      3161 9.79431E-05-2.89295E-05-2.95636E-05 1.02214E-05-6.22975E-19 1.22218E-18
 -1      3162 9.90189E-05-3.00020E-05-2.95634E-05 1.05265E-05 4.83694E-20 9.70558E-19
 -1      3163 9.68692E-05-2.97447E-05-2.88092E-05 1.18110E-05-1.15626E-18 1.07490E-18
 -1      3164 9.67533E-05-2.76395E-05-2.96180E-05 9.04042E-06-6.90853E-19 1.22063E-18
 -1      3165 9.74343E-05-2.82321E-05-2.96440E-05 9.54470E-06-5.43186E-19 1.27017E-18
 -1      3166 9.53612E-05-2.76112E-05-2.90554E-05 1.04495E-05-8.93941E-19 1.98753E-18
 -1      3167 9.61262E-05-2.70546E-05-2.96055E-05 7.75441E-06-3.66182E-19 1.20757E-18
 -1      3168 9.65652E-05-2.73361E-05-2.96571E-05 8.33806E-06-5.10765E-19 1.54158E-18
 -1      3169 9.47155E-05-2.65562E-05-2.92184E-05 9.00809E-06-4.45650E-19 1.00223E-18
 -1      3170 9.58031E-05-2.68902E-05-2.95400E-05 6.49171E-06-7.73370E-19 1.12183E-18
 -1      3171 9.60993E-05-2.69861E-05-2.96088E-05 7.08136E-06-6.20548E-19 1.27984E-18
 -1      3172 9.45282E-05-2.61762E-05-2.92949E-05 7.60975E-06-6.02626E-19 1.00850E-19
 -1      3173 9.56340E-05-2.69541E-05-2.94407E-05 5.32314E-06-4.69744E-19 1.32247E-18
 -1      3174 9.58459E-05-2.69482E-05-2.95175E-05 5.87615E-06-4.14709E-19 1.37934E-18
 -1      3175 9.45582E-05-2.61835E-05-2.93022E-05 6.31432E-06-7.76969E-19 1.12244E-18
 -1      3176 9.55383E-05-2.71266E-05-2.93254E-05 4.28374E-06 6.38838E-20 3.79623E-20
 -1      3177 9.56981E-05-2.70705E-05-2.94027E-05 4.77809E-06-1.23132E-19 4.15487E-19
 -1      3178 9.46721E-05-2.63897E-05-2.92620E-05 5.15180E-06 1.64058E-19 8.45596E-19
 -1      3179 9.54767E-05-2.73390E-05-2.92073E-05 3.38662E-06 5.56740E-19 1.46617E-19
 -1      3180 9.56014E-05-2.72624E-05-2.92800E-05 3.81330E-06 5.69083E-19 8.42965E-20
 -1      3181 9.48030E-05-2.66801E-05-2.91939E-05 4.13424E-06 5.03835E-19-6.60146E-19
 -1      3182 9.54311E-05-2.75536E-05-2.90949E-05 2.63169E-06 4.50530E-19 6.06994E-19
 -1      3183 9.55302E-05-2.74731E-05-2.91602E-05 2.98983E-06 5.16263E-19 5.06681E-19
 -1      3184 9.49221E-05-2.69896E-05-2.91128E-05 3.26346E-06 1.45957E-19-3.02724E-19
 -1      3185 9.53937E-05-2.77510E-05-2.89934E-05 2.00999E-06 4.25367E-19 8.80400E-19
 -1      3186 9.54727E-05-2.76752E-05-2.90499E-05 2.30383E-06 5.42695E-19 9.28034E-19
 -1      3187 9.50192E-05-2.72837E-05-2.90289E-05 2.53408E-06 4.89799E-19 2.14357E-19
 -1      3188 9.53617E-05-2.79234E-05-2.89051E-05 1.50768E-06-9.06493E-19 1.62345E-18
 -1      3189 9.54242E-05-2.78561E-05-2.89526E-05 1.74401E-06-6.17892E-20 9.93505E-19
 -1      3190 9.50932E-05-2.75455E-05-2.89488E-05 1.93463E-06-2.81031E-19 6.72283E-19
 -1      3191 9.53344E-05-2.80687E-05-2.88304E-05 1.10902E-06 6.72506E-20 7.92670E-19
 -1      3192 9.53832E-05-2.80112E-05-2.88694E-05 1.29564E-06-4.77246E-19 1.35688E-18
 -1      3193 9.51471E-05-2.77694E-05-2.88762E-05 1.45068E-06-5.51624E-20 1.79623E-19
 -1      3194 9.53114E-05-2.81881E-05-2.87689E-05 7.98051E-07 1.22583E-18 4.05982E-19
 -1      3195 9.53490E-05-2.81403E-05-2.88002E-05 9.42861E-07 2.94495E-19 2.24886E-19
 -1      3196 9.51850E-05-2.79554E-05-2.88129E-05 1.06673E-06 5.80822E-19-7.53053E-19
 -1      3197 9.52925E-05-2.82841E-05-2.87192E-05 5.59563E-07 1.93873E-18 3.74018E-19
 -1      3198 9.53209E-05-2.82453E-05-2.87439E-05 6.70016E-07 2.14442E-18 6.30646E-19
 -1      3199 9.52107E-05-2.81064E-05-2.87593E-05 7.67255E-07 1.46571E-18-1.28138E-18
 -1      3200 9.52774E-05-2.83600E-05-2.86798E-05 3.79805E-07 1.03222E-18 3.88943E-19
 -1      3201 9.52983E-05-2.83290E-05-2.86990E-05 4.62579E-07 1.55461E-18 1.07109E-19
 -1      3202 9.52275E-05-2.82266E-05-2.87150E-05 5.37564E-07 2.07479E-18-8.60199E-19
 -1      3203 9.52655E-05-2.84189E-05-2.86493E-05 2.46769E-07-1.02828E-19 2.11616E-18
 -1      3204 9.52807E-05-2.83946E-05-2.86638E-05 3.07649E-07 2.10023E-19 1.26096E-18
 -1      3205 9.52378E-05-2.83207E-05-2.86791E-05 3.64426E-07-2.02345E-20 1.58552E-19
 -1      3206 9.52565E-05-2.84638E-05-2.86259E-05 1.50262E-07-9.20671E-19 1.93823E-18
 -1      3207 9.52671E-05-2.84451E-05-2.86368E-05 1.94121E-07 1.32450E-19 2.87327E-18
 -1      3208 9.52438E-05-2.83929E-05-2.86507E-05 2.36291E-07-3.75659E-19 1.98253E-18
 -1      3209 9.52499E-05-2.84976E-05-2.86084E-05 8.18316E-08-5.04142E-19 1.24127E-18
 -1      3210 9.52570E-05-2.84834E-05-2.86164E-05 1.12681E-07-4.67150E-19 1.65566E-18
 -1      3211 9.52468E-05-2.84476E-05-2.86285E-05 1.43354E-07 1.11663E-19 8.83438E-19
 -1      3212 9.52451E-05-2.85225E-05-2.85956E-05 3.46144E-08 9.91589E-19-8.54891E-19
 -1      3213 9.52497E-05-2.85119E-05-2.86012E-05 5.56899E-08-2.76927E-19-1.60173E-19
 -1      3214 9.52478E-05-2.84881E-05-2.86115E-05 7.74789E-08 8.04630E-19-5.23694E-19
 -1      3215 9.52418E-05-2.85406E-05-2.85864E-05 3.15830E-09 5.91237E-19-1.32381E-19
 -1      3216 9.52445E-05-2.85328E-05-2.85903E-05 1.70089E-08 6.94737E-19-7.50637E-19
 -1      3217 9.52476E-05-2.85177E-05-2.85987E-05 3.20567E-08 8.22157E-19-1.59358E-18
 -1      3218 9.52397E-05-2.85536E-05-2.85798E-05-1.67562E-08 2.04378E-18-1.41919E-18
 -1      3219 9.52411E-05-2.85478E-05-2.85825E-05-8.17492E-09 1.75903E-18-8.49636E-19
 -1      3220 9.52467E-05-2.85389E-05-2.85892E-05 1.83870E-09 1.47219E-18-1.98727E-18
 -1      3221 9.52384E-05-2.85629E-05-2.85753E-05-2.83054E-08 1.93197E-18-3.19054E-18
 -1      3222 9.52389E-05-2.85587E-05-2.85770E-05-2.35279E-08 2.26671E-18-2.67077E-18
 -1      3223 9.52454E-05-2.85539E-05-2.85822E-05-1.72104E-08 2.79295E-18-3.17885E-18
 -1      3224 9.52379E-05-2.85698E-05-2.85721E-05-3.38495E-08 1.04054E-18-2.04579E-18
 -1      3225 9.52377E-05-2.85665E-05-2.85732E-05-3.18241E-08 1.34853E-18-3.16517E-18
 -1      3226 9.52441E-05-2.85644E-05-2.85771E-05-2.81747E-08 1.40079E-18-4.94717E-18
 -1      3227 9.52381E-05-2.85752E-05-2.85698E-05-3.49498E-08-1.37004E-18-2.28327E-18
 -1      3228 9.52374E-05-2.85725E-05-2.85706E-05-3.49792E-08-1.05942E-19-2.25313E-18
 -1      3229 9.52431E-05-2.85721E-05-2.85733E-05-3.33205E-08 6.95581E-19-2.62568E-18
 -1      3230 9.52400E-05-2.85793E-05-2.85689E-05-3.34976E-08-1.05292E-19-4.97040E-18
 -1      3231 9.52383E-05-2.85769E-05-2.85692E-05-3.46962E-08-5.82725E-19-3.58899E-18
 -1      3232 9.52430E-05-2.85773E-05-2.85711E-05-3.41677E-08 9.90658E-20-3.44168E-18
 -1      3233 9.52437E-05-2.85813E-05-2.85696E-05-3.30229E-08-1.15287E-18-4.82142E-18
 -1      3234 4.97983E-05-1.59324E-05-1.40423E-05-1.66010E-05-1.56365E-18-6.01118E-18
 -1      3235 5.85402E-05-2.22177E-05-1.54834E-05-2.57650E-05-2.14487E-18-5.54140E-18
 -1      3236 8.30988E-05-1.14586E-05-3.07161E-05-2.59437E-07 1.03906E-18-3.78887E-18
 -1      3237 8.25518E-05-1.10555E-05-3.06592E-05 2.67016E-08 6.89441E-19-3.92178E-18
 -1      3238 1.15151E-04-5.44918E-05-2.62275E-05 2.29537E-05 1.47696E-18-7.71071E-19
 -1      3239 1.05185E-04-5.04621E-05-2.30637E-05 3.00933E-05 2.28752E-18-1.69393E-18
 -1      3240 4.28743E-05-1.58794E-05-1.14358E-05 1.71887E-05-1.64965E-18 4.28493E-18
 -1      3241 3.66706E-05-1.23283E-05-9.71018E-06 4.56768E-06-5.91507E-19 5.18352E-18
 -1      3242 9.52598E-05-2.85859E-05-2.85746E-05 2.52240E-09 2.25064E-18-1.05855E-18
 -1      3243 9.52599E-05-2.85859E-05-2.85746E-05-2.12592E-09 3.46347E-18-5.03964E-19
 -1      3244 9.52515E-05-2.85831E-05-2.85722E-05 2.73409E-08 1.60929E-18-1.22049E-18
 -1      3245 9.52542E-05-2.85844E-05-2.85728E-05 2.41554E-08 2.24355E-18-1.07723E-18
 -1      3246 9.52588E-05-2.85855E-05-2.85743E-05 1.15988E-08 1.13348E-18 3.97444E-19
 -1      3247 9.52595E-05-2.85858E-05-2.85744E-05 7.17680E-09 2.20167E-18-3.20067E-19
 -1      3248 9.52611E-05-2.85809E-05-2.85772E-05 4.78903E-09 2.63874E-18-1.34742E-18
 -1      3249 5.98214E-05-2.30127E-05-1.55524E-05 2.70949E-05 2.01467E-18-4.91385E-18
 -1      3250 5.02790E-05-1.69739E-05-1.38711E-05 1.94137E-05 1.47220E-18-5.69926E-18
 -1      3251 1.20809E-04-4.89815E-05-3.07553E-05 2.94112E-06-1.91864E-18-2.45346E-18
 -1      3252 1.22589E-04-5.38174E-05-2.97854E-05 9.06841E-06-2.18066E-18-3.06225E-18
 -1      3253 9.14061E-05-4.38024E-05-2.04178E-05 3.43008E-05 2.45158E-18-2.63004E-18
 -1      3254 7.45481E-05-3.29351E-05-1.74320E-05 3.30509E-05 2.57890E-18-3.73139E-18
 -1      3255 1.01944E-04-4.64988E-05-2.32069E-05-2.79262E-05-2.81541E-18-9.36302E-19
 -1      3256 1.14707E-04-5.33030E-05-2.67238E-05-2.10689E-05-2.20499E-18 2.67054E-19
 -1      3257 1.08142E-04-3.95852E-05-2.93959E-05-1.11537E-05-7.55964E-19-9.73276E-19
 -1      3258 1.05358E-04-3.67076E-05-2.93327E-05-1.20866E-05-6.61974E-19-9.76725E-19
 -1      3259 1.07684E-04-4.16373E-05-2.84755E-05-1.39794E-05-1.01825E-18-9.96862E-19
 -1      3260 1.24365E-04-1.96147E-05-4.51313E-05-1.13495E-05 4.65826E-18-1.47945E-18
 -1      3261 1.26109E-04-3.07296E-05-4.09048E-05 1.48222E-05 3.22328E-18 2.39221E-18
 -1      3262 9.52561E-05-2.85847E-05-2.85735E-05 2.01434E-08 7.01439E-19-1.05175E-18
 -1      3263 9.52577E-05-2.85854E-05-2.85738E-05 1.61152E-08 7.64467E-20 1.00333E-19
 -1      3264 9.52596E-05-2.85808E-05-2.85766E-05 1.37871E-08 4.37716E-19-7.06223E-19
 -1      3265 9.52563E-05-2.85805E-05-2.85753E-05 2.21298E-08 5.91680E-19 5.37981E-19
 -1      3266 1.17210E-04-4.67989E-05-3.00167E-05 6.31190E-06-2.35074E-18-2.28944E-18
 -1      3267 7.19634E-05-2.93419E-05-1.77147E-05-2.97250E-05-2.72398E-18-4.04929E-18
 -1      3268 8.60009E-05-3.88908E-05-2.04270E-05-3.17996E-05-2.71236E-18-2.35205E-18
 -1      3269 1.02936E-04-3.41257E-05-2.94743E-05-1.19063E-05-3.95422E-19-1.24678E-18
 -1      3270 1.00988E-04-3.19312E-05-2.95461E-05-1.19497E-05-1.46155E-20-1.44316E-18
 -1      3271 1.01330E-04-3.48884E-05-2.85947E-05-1.40783E-05-5.95478E-19-1.54692E-18
 -1      3272 1.34391E-04-5.38908E-05-3.44823E-05-2.08144E-06-4.73256E-19-3.21618E-18
 -1      3273 6.97801E-05-3.05029E-05-1.69654E-05 3.09206E-05-2.88282E-18 1.65214E-18
 -1      3274 5.61128E-05-2.17818E-05-1.39609E-05 2.51786E-05-2.27068E-18 2.10212E-18
 -1      3275 9.63358E-05-2.30889E-05-3.13878E-05-2.64274E-06 2.17088E-18-1.85289E-18
 -1      3276 9.42965E-05-2.08505E-05-3.14754E-05-1.99590E-06 2.24134E-18-2.15430E-18
 -1      3277 9.36038E-05-2.10969E-05-3.10698E-05-3.53861E-06 1.99626E-18-2.31484E-18
 -1      3278 9.66256E-05-2.40934E-05-3.10908E-05-4.48296E-06 1.79662E-18-1.91986E-18
 -1      3279 5.72442E-05-2.27706E-05-1.41997E-05-2.71011E-05 2.53533E-18 2.64603E-18
 -1      3280 7.16763E-05-3.19455E-05-1.71267E-05-3.24247E-05 2.46084E-18 5.96735E-19
 -1      3281 9.96663E-05-3.01532E-05-2.97764E-05-1.11809E-05 2.66747E-19-1.67322E-18
 -1      3282 9.84568E-05-2.86166E-05-2.99052E-05-1.06038E-05 4.34959E-19-1.77372E-18
 -1      3283 9.77085E-05-3.00681E-05-2.90495E-05-1.27006E-05-8.38587E-20-1.68221E-18
 -1      3284 3.97208E-05-1.31021E-05-1.08398E-05 7.27548E-06 2.27508E-19-7.22466E-18
 -1      3285 3.23830E-05-1.28098E-05-7.77467E-06-5.13102E-07-3.99113E-19-7.82616E-18
 -1      3286 1.15762E-04-5.41259E-05-2.60294E-05-2.11750E-05 2.26272E-18-1.24997E-18
 -1      3287 1.25432E-04-5.68150E-05-2.98422E-05-1.20860E-05 1.82663E-18-2.41648E-18
 -1      3288 9.28996E-05-1.84558E-05-3.19023E-05-8.07544E-07-1.93584E-18-3.07684E-18
 -1      3289 1.25142E-04-5.48032E-05-2.97969E-05-9.79451E-06-1.68847E-18 7.93485E-19
 -1      3290 1.29302E-04-5.32305E-05-3.28820E-05-4.89866E-07-7.32942E-19 1.16728E-18
 -1      3291 1.16272E-04-5.27645E-05-2.68532E-05 1.77196E-05-2.98214E-18-1.84432E-18
 -1      3292 4.05919E-05-1.29322E-05-1.13326E-05-7.18738E-06-9.87243E-19-6.82116E-18
 -1      3293 1.28409E-04-3.92645E-05-3.87453E-05 1.42722E-05 2.15340E-18 2.85371E-18
 -1      3294 1.31195E-04-4.64044E-05-3.66634E-05-1.18186E-05 6.55590E-19-3.56802E-18
 -1      3295 1.30492E-04-4.66258E-05-3.59538E-05 9.13391E-06 7.81970E-19 2.18029E-18
 -1      3296 4.65046E-05-1.38442E-05-1.35919E-05 1.29492E-05 8.05396E-19-6.21129E-18
 -1      3297 4.52485E-05-1.23634E-05-1.37878E-05 3.65799E-06 8.82172E-20-6.31336E-18
 -1      3298 5.56823E-05-1.61717E-05-1.65232E-05 1.48688E-05 1.22406E-18-5.22318E-18
 -1      3299 1.29372E-04-5.05976E-05-3.38878E-05 4.66161E-06-1.79860E-19 1.68173E-18
 -1      3300 8.23820E-05-1.09473E-05-3.06352E-05 6.69607E-07 5.79724E-19-3.92588E-18
 -1      3301 8.25749E-05-1.10915E-05-3.06445E-05 9.36338E-07 2.85490E-19-4.05681E-18
 -1      3302 8.25805E-05-1.19763E-05-3.02257E-05 2.64855E-07 5.95371E-19-3.77722E-18
 -1      3303 8.99266E-05-1.78094E-05-3.08960E-05-2.85720E-06 1.86816E-18-2.69520E-18
 -1      3304 8.86144E-05-1.58207E-05-3.12017E-05-1.44063E-06 2.05047E-18-3.02549E-18
 -1      3305 8.68440E-05-1.44255E-05-3.10634E-05-1.41844E-06 1.71552E-18-3.26059E-18
 -1      3306 1.27608E-04-4.72900E-05-3.46044E-05-4.87859E-06-3.57117E-19 9.35760E-19
 -1      3307 1.25402E-04-4.28103E-05-3.55293E-05-9.50752E-06-2.81096E-19 7.39010E-19
 -1      3308 9.52102E-05-4.05751E-05-2.31737E-05-2.63147E-05-2.62744E-18-1.50616E-18
 -1      3309 8.17907E-05-3.47441E-05-1.99290E-05-2.89893E-05 1.83912E-18 2.71130E-19
 -1      3310 9.84910E-05-4.49283E-05-2.26695E-05 2.90715E-05 2.59473E-18-2.07544E-18
 -1      3311 4.23539E-05-1.27866E-05-1.21307E-05-1.78396E-06 4.77363E-19 3.26669E-18
 -1      3312 9.52544E-05-2.85845E-05-2.85728E-05-2.40428E-08-8.59704E-21-8.68463E-20
 -1      3313 9.52518E-05-2.85833E-05-2.85722E-05-2.72983E-08-1.01095E-18 2.80855E-19
 -1      3314 1.24291E-04-3.72955E-05-3.74055E-05-1.20107E-05-1.25308E-18 6.18413E-19
 -1      3315 1.28247E-04-3.39259E-05-4.07374E-05 1.40261E-05-2.23479E-18-4.35168E-18
 -1      3316 1.20953E-04-3.54709E-05-3.67164E-05 1.34070E-05-1.68215E-18-3.72257E-18
 -1      3317 1.27510E-04-4.47717E-05-3.55139E-05 9.29571E-06-3.58917E-19-4.28318E-18
 -1      3318 1.31101E-04-4.19890E-05-3.83731E-05 1.13819E-05-1.30401E-18-4.28731E-18
 -1      3319 1.22401E-04-4.06140E-05-3.52865E-05 1.16803E-05-5.54105E-19-3.33328E-18
 -1      3320 1.25599E-04-5.25349E-05-3.12530E-05-3.75258E-06 1.15549E-18-2.79666E-18
 -1      3321 9.52485E-05-2.85819E-05-2.85714E-05 3.08388E-08-5.41944E-19-1.68143E-18
 -1      3322 9.52506E-05-2.85788E-05-2.85736E-05 2.93758E-08-3.59688E-19-3.02853E-18
 -1      3323 1.24472E-04-4.95824E-05-3.21580E-05 1.03838E-06-5.23938E-19 1.06241E-18
 -1      3324 1.09806E-04-4.98244E-05-2.54566E-05-2.12381E-05 2.05829E-18-1.12064E-18
 -1      3325 5.44767E-05-1.81159E-05-1.52130E-05 1.79863E-05-1.66061E-18 2.95948E-18
 -1      3326 1.29592E-04-3.90764E-05-3.89569E-05-1.42827E-05 1.90132E-18-3.43747E-18
 -1      3327 1.21626E-04-5.60548E-05-2.78852E-05 1.78271E-05 1.01300E-18-6.79479E-20
 -1      3328 1.15392E-04-5.26580E-05-2.67064E-05 1.98165E-05 1.55558E-18-4.18117E-19
 -1      3329 1.24880E-04-5.52825E-05-2.98434E-05 1.12983E-05 5.71668E-19 5.39189E-19
 -1      3330 6.93554E-05-2.52567E-05-1.86024E-05-2.49743E-05-1.98195E-18-4.30383E-18
 -1      3331 1.12711E-04-4.63757E-05-2.87150E-05 1.14483E-05-2.24010E-18-2.38743E-18
 -1      3332 8.40259E-05-1.21964E-05-3.08092E-05-8.44443E-07 1.20144E-18-3.52618E-18
 -1      3333 8.37019E-05-1.28208E-05-3.03461E-05-1.09886E-06 1.00374E-18-3.43880E-18
 -1      3334 8.52609E-05-1.31278E-05-3.09209E-05-1.03243E-06 1.57419E-18-3.42172E-18
 -1      3335 9.52579E-05-2.85856E-05-2.85738E-05-1.59266E-08 1.72665E-18 9.82876E-19
 -1      3336 9.52563E-05-2.85848E-05-2.85735E-05-2.00266E-08 1.00519E-18 1.37539E-18
 -1      3337 9.52565E-05-2.85807E-05-2.85753E-05-2.20782E-08 8.07301E-19 1.00050E-18
 -1      3338 9.52444E-05-2.85816E-05-2.85697E-05 3.20078E-08-2.19350E-19-2.65285E-18
 -1      3339 9.52596E-05-2.85859E-05-2.85744E-05-6.86037E-09 3.06303E-18 2.10706E-19
 -1      3340 9.52589E-05-2.85856E-05-2.85743E-05-1.13826E-08 2.51619E-18-5.82388E-19
 -1      3341 9.52597E-05-2.85810E-05-2.85766E-05-1.35735E-08 1.65485E-18 9.29193E-19
 -1      3342 9.52611E-05-2.85809E-05-2.85772E-05-4.43947E-09 2.59717E-18-3.21986E-19
 -1      3343 7.05505E-05-2.80919E-05-1.78940E-05 2.90789E-05 2.25930E-18-3.99680E-18
 -1      3344 6.79302E-05-2.33629E-05-1.89289E-05 2.37443E-05 1.84490E-18-3.78343E-18
 -1      3345 8.06560E-05-3.25678E-05-2.06626E-05 2.83071E-05 2.51055E-18-2.74343E-18
 -1      3346 4.47122E-05-1.23646E-05-1.34966E-05-3.77075E-06-6.34143E-19-6.47737E-18
 -1      3347 4.57688E-05-1.32043E-05-1.35991E-05-9.67564E-06-9.80705E-19-6.16746E-18
 -1      3348 5.38145E-05-1.53493E-05-1.60799E-05-1.30050E-05-1.07044E-18-5.72420E-18
 -1      3349 5.06909E-05-1.27634E-05-1.58999E-05 1.38750E-06-7.39830E-21-5.84590E-18
 -1      3350 9.73274E-05-2.59443E-05-3.05942E-05-7.43562E-06 1.21562E-18-1.87465E-18
 -1      3351 9.69232E-05-2.50201E-05-3.08003E-05-6.01215E-06 1.41002E-18-1.91966E-18
 -1      3352 9.53928E-05-2.35964E-05-3.07714E-05-5.64169E-06 1.57598E-18-2.15327E-18
 -1      3353 9.81389E-05-2.77061E-05-3.01765E-05-9.59317E-06 6.75346E-19-1.84398E-18
 -1      3354 9.74302E-05-2.66021E-05-3.03359E-05-8.57281E-06 9.54491E-19-1.80780E-18
 -1      3355 9.57683E-05-2.53261E-05-3.01968E-05-8.41446E-06 1.00585E-18-1.97066E-18
 -1      3356 9.61731E-05-2.71119E-05-2.96226E-05-1.06792E-05 5.13989E-19-1.96682E-18
 -1      3357 1.17754E-04-5.10863E-05-2.85292E-05-1.32315E-05-1.83361E-18 1.85560E-19
 -1      3358 5.03884E-05-1.58085E-05-1.45150E-05-1.64309E-05 1.39432E-18 2.24750E-18
 -1      3359 5.33400E-05-1.93571E-05-1.41997E-05-2.29650E-05 1.95445E-18 2.46910E-18
 -1      3360 6.31867E-05-2.21188E-05-1.73047E-05-2.27682E-05 1.54518E-18 1.77692E-18
 -1      3361 1.28970E-04-3.08655E-05-4.23443E-05-1.32459E-05-2.74560E-18 1.21602E-19
 -1      3362 1.28290E-04-3.60967E-05-3.96470E-05-1.22654E-05-1.72202E-18 5.99117E-19
 -1      3363 1.33356E-04-5.15353E-05-3.52832E-05-1.40475E-06-8.52618E-19 7.55553E-19
 -1      3364 1.21856E-04-4.89183E-05-3.11318E-05-2.83420E-06-8.90007E-19 4.76598E-19
 -1      3365 9.54454E-05-2.28296E-05-3.11128E-05 2.49805E-06-1.68923E-18-2.39366E-18
 -1      3366 9.59766E-05-2.40440E-05-3.08323E-05 3.86362E-06-1.38550E-18-2.27447E-18
 -1      3367 9.46322E-05-2.33791E-05-3.05488E-05 4.77636E-06-1.09314E-18-2.32649E-18
 -1      3368 9.35993E-05-2.00443E-05-3.15283E-05 7.98611E-07-1.82611E-18-2.85372E-18
 -1      3369 1.18208E-04-4.91704E-05-2.97697E-05-8.73658E-06-1.30506E-18 3.11364E-19
 -1      3370 8.14778E-05-3.38014E-05-2.01467E-05 2.72786E-05-3.18797E-18 1.03428E-18
 -1      3371 8.52381E-05-1.32750E-05-3.08676E-05 1.88072E-06-3.70886E-19-3.85967E-18
 -1      3372 8.66381E-05-1.43515E-05-3.09809E-05 1.80006E-06-6.81381E-19-3.69071E-18
 -1      3373 1.22654E-04-2.56439E-05-4.19879E-05-1.32864E-05-3.03820E-18 2.44660E-19
 -1      3374 8.79612E-05-1.63648E-05-3.06673E-05 2.86747E-06-7.39527E-19-3.24878E-18
 -1      3375 8.82906E-05-1.57366E-05-3.11169E-05 1.80684E-06-9.13064E-19-3.29437E-18
 -1      3376 9.00509E-05-1.71639E-05-3.12409E-05 1.53029E-06-1.24701E-18-3.22953E-18
 -1      3377 1.09130E-04-4.75194E-05-2.62062E-05 1.87883E-05-2.89971E-18-1.16219E-18
 -1      3378 1.26415E-04-5.26668E-05-3.15059E-05 3.03186E-06 4.21439E-19 1.02997E-18
 -1      3379 8.91016E-05-3.43327E-05-2.30601E-05-2.50832E-05-2.23664E-18-1.95663E-18
 -1      3380 1.00178E-04-4.17334E-05-2.53495E-05-2.26611E-05-2.11517E-18-8.43274E-19
 -1      3381 1.03962E-04-4.10612E-05-2.68681E-05-1.79106E-05-1.67141E-18-1.09275E-18
 -1      3382 9.99669E-05-3.69171E-05-2.68925E-05-1.79122E-05-1.27251E-18-1.30725E-18
 -1      3383 1.17215E-04-2.22903E-05-4.10407E-05-1.17716E-05-3.31846E-18 3.63298E-19
 -1      3384 7.58747E-05-2.84047E-05-2.00096E-05-2.54784E-05 2.23202E-18 5.63118E-19
 -1      3385 8.92501E-05-3.75958E-05-2.24723E-05-2.62789E-05 1.69303E-18-2.68668E-19
 -1      3386 9.50946E-05-2.69547E-05-2.91816E-05 9.33456E-06-1.72048E-19-2.22620E-18
 -1      3387 9.62559E-05-2.87392E-05-2.89139E-05 1.02620E-05-7.88816E-20-2.01279E-18
 -1      3388 9.74481E-05-3.06818E-05-2.85729E-05 1.14374E-05 4.80005E-20-1.79791E-18
 -1      3389 9.93106E-05-3.30112E-05-2.83845E-05 1.19782E-05 1.50437E-19-1.59778E-18
 -1      3390 9.44046E-05-2.84825E-05-2.83000E-05 1.17729E-05 6.31569E-20-2.18035E-18
 -1      3391 1.01446E-04-3.56228E-05-2.81369E-05 1.28583E-05 4.18229E-19-1.25451E-18
 -1      3392 1.04219E-04-3.85638E-05-2.81163E-05 1.27182E-05 7.76724E-19-1.10296E-18
 -1      3393 9.75547E-05-3.32668E-05-2.76370E-05 1.42126E-05 5.73753E-19-1.62331E-18
 -1      3394 1.07837E-04-4.19077E-05-2.81128E-05 1.28299E-05 1.15569E-18-7.01615E-19
 -1      3395 1.11877E-04-4.51652E-05-2.85409E-05 1.12628E-05 1.21391E-18-9.33854E-20
 -1      3396 1.03099E-04-3.97115E-05-2.72710E-05 1.59416E-05 1.19854E-18-1.26043E-18
 -1      3397 1.17942E-04-5.02235E-05-2.90849E-05 1.04140E-05 7.79648E-19 8.43716E-19
 -1      3398 1.21590E-04-5.16427E-05-3.00331E-05 7.55223E-06 6.85911E-19 8.93085E-19
 -1      3399 9.78352E-05-3.36671E-05-2.73814E-05-1.62370E-05-8.01555E-19-1.65814E-18
 -1      3400 9.52925E-05-3.07392E-05-2.76166E-05-1.55045E-05-5.35265E-19-1.68918E-18
 -1      3401 9.25937E-05-3.28377E-05-2.58063E-05-1.97684E-05-1.25337E-18-1.77441E-18
 -1      3402 1.22828E-04-4.36226E-05-3.39153E-05 9.00342E-06 2.83227E-20-3.63594E-18
 -1      3403 1.12734E-04-4.64314E-05-2.84064E-05-9.91232E-06 1.23546E-18-1.41833E-18
 -1      3404 1.08923E-04-4.33517E-05-2.79189E-05-1.15293E-05 1.10267E-18-1.02977E-18
 -1      3405 1.04982E-04-4.01422E-05-2.77582E-05-1.19549E-05 9.16973E-19-1.00907E-18
 -1      3406 1.01917E-04-3.72070E-05-2.76477E-05-1.23917E-05 9.30474E-19-8.84992E-19
 -1      3407 1.03992E-04-4.18396E-05-2.68866E-05-1.56014E-05 1.07983E-18-1.41777E-18
 -1      3408 9.95850E-05-3.46840E-05-2.77588E-05-1.18381E-05 1.05835E-18-8.01274E-19
 -1      3409 9.74282E-05-3.24643E-05-2.78116E-05-1.16730E-05 1.12882E-18-5.67906E-19
 -1      3410 9.77905E-05-3.52968E-05-2.69347E-05-1.44976E-05 1.29050E-18-1.28548E-18
 -1      3411 9.62062E-05-3.07425E-05-2.80059E-05-1.07954E-05 5.85831E-19-2.96574E-19
 -1      3412 9.48621E-05-2.92572E-05-2.81115E-05-1.03525E-05 6.83550E-19-4.29102E-19
 -1      3413 9.41942E-05-3.06475E-05-2.73096E-05-1.25488E-05 1.36621E-18-8.84455E-19
 -1      3414 9.43393E-05-2.82124E-05-2.83030E-05-9.46544E-06 8.15885E-19-4.52529E-19
 -1      3415 9.35804E-05-2.73162E-05-2.84056E-05-8.92200E-06 5.06273E-19-2.95244E-19
 -1      3416 9.24416E-05-2.77575E-05-2.77465E-05-1.05599E-05 7.36407E-19-3.30930E-19
 -1      3417 9.34630E-05-2.67582E-05-2.85618E-05-8.11724E-06 7.06125E-19-5.43930E-19
 -1      3418 9.30803E-05-2.62820E-05-2.86394E-05-7.55598E-06 8.24601E-19 5.21277E-19
 -1      3419 9.17782E-05-2.61361E-05-2.81316E-05-8.78313E-06 6.89201E-19-2.58941E-20
 -1      3420 9.31846E-05-2.60523E-05-2.87530E-05-6.84991E-06 3.75487E-19 1.30304E-19
 -1      3421 9.30279E-05-2.58561E-05-2.88011E-05-6.30913E-06 1.00423E-19 2.17054E-19
 -1      3422 9.17336E-05-2.53690E-05-2.84297E-05-7.25329E-06 7.05108E-19-6.82123E-19
 -1      3423 9.32406E-05-2.58348E-05-2.88754E-05-5.69819E-06-2.45681E-19 1.31148E-19
 -1      3424 9.32105E-05-2.58137E-05-2.88973E-05-5.19734E-06 2.11008E-19-1.60178E-19
 -1      3425 9.20175E-05-2.51539E-05-2.86393E-05-5.94774E-06 1.64445E-19-6.04934E-19
 -1      3426 9.34625E-05-2.59144E-05-2.89397E-05-4.67327E-06 7.38197E-19-4.48314E-20
 -1      3427 9.34967E-05-2.59944E-05-2.89416E-05-4.22253E-06 1.09336E-18-6.17451E-19
 -1      3428 9.24504E-05-2.52740E-05-2.87727E-05-4.83593E-06 3.03694E-19-7.23690E-20
 -1      3429 9.37487E-05-2.61579E-05-2.89601E-05-3.77697E-06 1.09175E-18-1.34378E-18
 -1      3430 9.38102E-05-2.62892E-05-2.89482E-05-3.38109E-06 8.19068E-19-7.98872E-19
 -1      3431 9.29254E-05-2.55797E-05-2.88464E-05-3.89139E-06 8.53154E-19-1.19762E-18
 -1      3432 9.40410E-05-2.64768E-05-2.89501E-05-3.00671E-06 3.31987E-19-5.59131E-19
 -1      3433 9.41089E-05-2.66272E-05-2.89299E-05-2.66665E-06 7.97068E-20 3.75931E-19
 -1      3434 9.33829E-05-2.59719E-05-2.88765E-05-3.09397E-06 7.67598E-19-6.80101E-19
 -1      3435 9.43089E-05-2.68149E-05-2.89210E-05-2.35613E-06-5.52142E-19 7.65659E-19
 -1      3436 9.43726E-05-2.69648E-05-2.88967E-05-2.07003E-06-1.01277E-18 4.08867E-19
 -1      3437 9.37918E-05-2.63857E-05-2.88768E-05-2.42724E-06 1.23080E-19-2.60446E-20
 -1      3438 9.45390E-05-2.71388E-05-2.88817E-05-1.81612E-06-1.30144E-18 8.25662E-19
 -1      3439 9.45937E-05-2.72772E-05-2.88562E-05-1.58008E-06-9.72077E-19 1.05351E-18
 -1      3440 9.41401E-05-2.67826E-05-2.88582E-05-1.87645E-06-7.26808E-19 2.27828E-19
 -1      3441 9.47280E-05-2.74306E-05-2.88382E-05-1.37552E-06-1.14141E-18 3.73428E-19
 -1      3442 9.47724E-05-2.75522E-05-2.88136E-05-1.18438E-06-1.24778E-18 2.51734E-20
 -1      3443 9.44260E-05-2.71413E-05-2.88291E-05-1.42758E-06-1.72731E-18 1.29700E-18
 -1      3444 9.48777E-05-2.76826E-05-2.87950E-05-1.02214E-06-5.04106E-19 1.86054E-20
 -1      3445 9.49123E-05-2.77856E-05-2.87725E-05-8.70124E-07-1.60175E-19 7.74901E-19
 -1      3446 9.46537E-05-2.74523E-05-2.87951E-05-1.06707E-06-1.10228E-18 4.95833E-19
 -1      3447 9.49929E-05-2.78932E-05-2.87546E-05-7.43507E-07-7.21471E-19 1.17835E-18
 -1      3448 9.50188E-05-2.79780E-05-2.87348E-05-6.24737E-07-6.84342E-19 7.56671E-19
 -1      3449 9.48304E-05-2.77134E-05-2.87604E-05-7.81958E-07-2.68035E-19 1.66952E-18
 -1      3450 9.50790E-05-2.80646E-05-2.87185E-05-5.27549E-07 4.00433E-19 1.02444E-18
 -1      3451 9.50977E-05-2.81327E-05-2.87015E-05-4.36393E-07 3.82183E-19 1.94742E-18
 -1      3452 9.49641E-05-2.79270E-05-2.87273E-05-5.60049E-07 6.11420E-19 2.27726E-18
 -1      3453 9.51415E-05-2.82009E-05-2.86873E-05-3.63080E-07-7.10518E-19 2.55092E-18
 -1      3454 9.51545E-05-2.82544E-05-2.86731E-05-2.94388E-07-3.45707E-19 2.18555E-18
 -1      3455 9.50628E-05-2.80975E-05-2.86974E-05-3.90162E-07 4.50325E-19 2.69404E-18
 -1      3456 9.51854E-05-2.83070E-05-2.86610E-05-2.40102E-07 1.73022E-19 2.04029E-18
 -1      3457 9.51940E-05-2.83481E-05-2.86494E-05-1.89332E-07 1.54864E-18 1.13382E-18
 -1      3458 9.51335E-05-2.82309E-05-2.86712E-05-2.62345E-07-3.51629E-19 3.06341E-18
 -1      3459 9.52150E-05-2.83878E-05-2.86393E-05-1.49949E-07 2.21720E-18 7.89206E-19
 -1      3460 9.52204E-05-2.84188E-05-2.86301E-05-1.13217E-07 1.89214E-18-2.07016E-20
 -1      3461 9.51827E-05-2.83331E-05-2.86490E-05-1.67962E-07 1.23206E-18 7.83404E-19
 -1      3462 9.52340E-05-2.84481E-05-2.86218E-05-8.53063E-08 1.71862E-18-2.46439E-19
 -1      3463 9.52370E-05-2.84710E-05-2.86146E-05-5.93782E-08 8.78284E-19-3.68314E-20
 -1      3464 9.52155E-05-2.84098E-05-2.86305E-05-9.97023E-08 1.53837E-18-3.05271E-19
 -1      3465 9.52453E-05-2.84922E-05-2.86080E-05-4.01441E-08 2.81450E-19 3.60393E-19
 -1      3466 9.52466E-05-2.85087E-05-2.86024E-05-2.23905E-08-2.00861E-19 1.50159E-18
 -1      3467 9.52361E-05-2.84661E-05-2.86155E-05-5.15086E-08 1.31550E-18-7.38112E-19
 -1      3468 9.52511E-05-2.85237E-05-2.85971E-05-9.61095E-09-1.12315E-18 1.71325E-18
 -1      3469 9.52514E-05-2.85354E-05-2.85928E-05 2.05170E-09 2.25752E-19 1.19844E-18
 -1      3470 9.52480E-05-2.85067E-05-2.86034E-05-1.84730E-08-7.66866E-20-2.73131E-19
 -1      3471 9.52532E-05-2.85458E-05-2.85886E-05 1.01045E-08 1.29936E-18 6.69921E-19
 -1      3472 9.52528E-05-2.85540E-05-2.85853E-05 1.72828E-08 1.62117E-18-7.69056E-20
 -1      3473 9.52539E-05-2.85352E-05-2.85937E-05 3.28884E-09 1.26256E-19 5.67379E-19
 -1      3474 9.52530E-05-2.85613E-05-2.85820E-05 2.19254E-08 1.01352E-18-2.50727E-18
 -1      3475 9.52523E-05-2.85670E-05-2.85795E-05 2.56831E-08 1.69389E-19-3.15251E-18
 -1      3476 9.52557E-05-2.85550E-05-2.85860E-05 1.68101E-08-5.56040E-19-5.49667E-19
 -1      3477 9.52519E-05-2.85710E-05-2.85774E-05 2.73984E-08-5.26083E-19-3.18403E-18
 -1      3478 9.52512E-05-2.85754E-05-2.85754E-05 2.88647E-08-1.78773E-18-3.89853E-18
 -1      3479 9.52547E-05-2.85766E-05-2.85764E-05 2.57211E-08-4.14032E-19-2.32654E-18
 -1      3480 9.52554E-05-2.85677E-05-2.85805E-05 2.33226E-08-1.01745E-18-2.45858E-18
 -1      3481 9.52496E-05-2.85833E-05-2.85712E-05-2.96460E-08-1.16623E-18 5.33347E-19
 -1      3482 9.52466E-05-2.85819E-05-2.85706E-05-3.14451E-08-1.15949E-18-2.34990E-18
 -1      3483 9.52464E-05-2.85799E-05-2.85714E-05-3.22628E-08-1.05009E-19-2.74120E-18
 -1      3484 9.52519E-05-2.85805E-05-2.85735E-05-2.84439E-08-7.72827E-19 3.74850E-19
 -1      3485 9.94559E-05-3.56546E-05-2.72537E-05 1.56189E-05-2.29686E-18-5.88883E-19
 -1      3486 1.03179E-04-3.92393E-05-2.73053E-05 1.53236E-05-2.46393E-18-1.15704E-18
 -1      3487 9.26692E-05-2.59337E-05-2.86083E-05 1.01362E-05-1.01316E-18 2.06346E-19
 -1      3488 9.31777E-05-2.66561E-05-2.84818E-05 1.08736E-05-1.16100E-18-7.55092E-21
 -1      3489 9.26566E-05-2.53137E-05-2.88722E-05 8.51920E-06-2.91413E-19 1.94655E-19
 -1      3490 9.28410E-05-2.56087E-05-2.87959E-05 9.23188E-06-4.81180E-19 3.01978E-19
 -1      3491 9.05818E-05-2.46517E-05-2.82573E-05 9.62578E-06-7.91091E-19-1.31672E-18
 -1      3492 9.29455E-05-2.52472E-05-2.90253E-05 7.08488E-06-1.07642E-18-4.97136E-21
 -1      3493 9.29674E-05-2.52899E-05-2.89926E-05 7.74834E-06-5.47905E-19 3.09454E-20
 -1      3494 9.10999E-05-2.43541E-05-2.86001E-05 7.96200E-06-3.20303E-19-1.23837E-19
 -1      3495 9.33383E-05-2.54805E-05-2.90930E-05 5.82296E-06-6.37374E-19-9.37482E-20
 -1      3496 9.32905E-05-2.53874E-05-2.90926E-05 6.42394E-06-9.99535E-19-2.10636E-19
 -1      3497 9.17690E-05-2.45191E-05-2.88140E-05 6.55912E-06-7.12303E-19-4.26646E-19
 -1      3498 9.37324E-05-2.58514E-05-2.91017E-05 4.72331E-06 6.74508E-19-6.67608E-19
 -1      3499 9.36637E-05-2.56959E-05-2.91222E-05 5.25568E-06 1.58258E-19-1.17501E-19
 -1      3500 9.24415E-05-2.49209E-05-2.89302E-05 5.36229E-06-3.78899E-19-2.01051E-18
 -1      3501 9.40831E-05-2.62656E-05-2.90732E-05 3.77592E-06-4.28987E-20-4.32690E-19
 -1      3502 9.40158E-05-2.60895E-05-2.91054E-05 4.23789E-06 3.61791E-19-3.83874E-19
 -1      3503 9.30477E-05-2.54172E-05-2.89782E-05 4.33681E-06 5.54702E-19-1.93554E-18
 -1      3504 9.43765E-05-2.66718E-05-2.90235E-05 2.97308E-06 2.13327E-19-2.60544E-19
 -1      3505 9.43194E-05-2.64984E-05-2.90610E-05 3.36508E-06 4.30096E-19 1.29564E-19
 -1      3506 9.35636E-05-2.59290E-05-2.89811E-05 3.46083E-06 1.51464E-19-8.12990E-19
 -1      3507 9.46108E-05-2.70411E-05-2.89643E-05 2.30452E-06 2.96182E-19 5.33691E-19
 -1      3508 9.45661E-05-2.68832E-05-2.90025E-05 2.63081E-06 2.35041E-19-1.03590E-19
 -1      3509 9.39859E-05-2.64121E-05-2.89562E-05 2.72279E-06-1.39958E-19-1.34287E-19
 -1      3510 9.47922E-05-2.73622E-05-2.89033E-05 1.75664E-06-5.54905E-21-3.41935E-19
 -1      3511 9.47591E-05-2.72247E-05-2.89394E-05 2.02334E-06 6.80565E-19 2.78136E-19
 -1      3512 9.43207E-05-2.68424E-05-2.89164E-05 2.10957E-06 4.02377E-19-3.29303E-19
 -1      3513 9.49296E-05-2.76329E-05-2.88452E-05 1.31516E-06 5.27569E-19-1.52036E-18
 -1      3514 9.49060E-05-2.75169E-05-2.88777E-05 1.52926E-06-1.00363E-19-7.31813E-19
 -1      3515 9.45806E-05-2.72120E-05-2.88701E-05 1.60728E-06 3.95972E-19-1.46567E-18
 -1      3516 9.50314E-05-2.78555E-05-2.87926E-05 9.65431E-07 1.30461E-18-2.25093E-18
 -1      3517 9.50151E-05-2.77600E-05-2.88208E-05 1.13438E-06 9.96190E-19-1.27019E-18
 -1      3518 9.47784E-05-2.75212E-05-2.88230E-05 1.20281E-06 8.47758E-19-2.16893E-18
 -1      3519 9.51052E-05-2.80348E-05-2.87467E-05 6.92934E-07 1.50991E-18-1.25123E-18
 -1      3520 9.50944E-05-2.79577E-05-2.87705E-05 8.24020E-07 1.16689E-18-1.66889E-18
 -1      3521 9.49260E-05-2.77739E-05-2.87785E-05 8.82442E-07 8.78084E-19-1.75393E-18
 -1      3522 9.51575E-05-2.81765E-05-2.87079E-05 4.84142E-07 1.27068E-18-1.61470E-19
 -1      3523 9.51508E-05-2.81155E-05-2.87275E-05 5.84135E-07 1.70386E-18-4.64799E-19
 -1      3524 9.50340E-05-2.79763E-05-2.87384E-05 6.32810E-07 8.41233E-19-9.29292E-19
 -1      3525 9.51937E-05-2.82866E-05-2.86758E-05 3.26927E-07-9.56268E-19 1.00504E-18
 -1      3526 9.51897E-05-2.82392E-05-2.86916E-05 4.01865E-07 1.31222E-19 1.10642E-18
 -1      3527 9.51115E-05-2.81357E-05-2.87035E-05 4.41540E-07-6.20270E-20 1.01100E-18
 -1      3528 9.52180E-05-2.83707E-05-2.86498E-05 2.10728E-07-1.78492E-19 1.56485E-18
 -1      3529 9.52158E-05-2.83344E-05-2.86623E-05 2.65836E-07-3.79129E-19 1.35829E-18
 -1      3530 9.51657E-05-2.82590E-05-2.86741E-05 2.97541E-07-5.64209E-19 1.34922E-18
 -1      3531 9.52335E-05-2.84338E-05-2.86291E-05 1.26586E-07 5.22111E-19 1.16741E-18
 -1      3532 9.52326E-05-2.84065E-05-2.86388E-05 1.66267E-07 3.05758E-19 1.64577E-18
 -1      3533 9.52024E-05-2.83528E-05-2.86497E-05 1.91146E-07 4.02363E-19 8.02560E-19
 -1      3534 9.52427E-05-2.84803E-05-2.86129E-05 6.70784E-08 1.76373E-18 1.65640E-19
 -1      3535 9.52426E-05-2.84602E-05-2.86204E-05 9.49582E-08 1.45378E-18 8.49372E-19
 -1      3536 9.52263E-05-2.84228E-05-2.86300E-05 1.14149E-07 1.40814E-18 8.22303E-19
 -1      3537 9.52476E-05-2.85139E-05-2.86005E-05 2.61693E-08 2.75748E-19-4.46521E-19
 -1      3538 9.52480E-05-2.84993E-05-2.86061E-05 4.51793E-08 1.00086E-18-8.07665E-19
 -1      3539 9.52409E-05-2.84742E-05-2.86143E-05 5.97530E-08 2.19413E-18-4.67621E-19
 -1      3540 9.52496E-05-2.85378E-05-2.85910E-05-9.17726E-10 2.69336E-18-1.73408E-18
 -1      3541 9.52503E-05-2.85274E-05-2.85952E-05 1.15107E-08 1.26386E-18-1.09017E-18
 -1      3542 9.52490E-05-2.85111E-05-2.86020E-05 2.23951E-08 1.12209E-18-1.52909E-18
 -1      3543 9.52498E-05-2.85545E-05-2.85838E-05-1.78216E-08 3.35640E-18-1.37078E-18
 -1      3544 9.52505E-05-2.85472E-05-2.85869E-05-1.02746E-08 3.56905E-18-1.12114E-18
 -1      3545 9.52526E-05-2.85371E-05-2.85924E-05-2.29860E-09 2.95513E-18-1.12808E-18
 -1      3546 9.52488E-05-2.85661E-05-2.85784E-05-2.74895E-08 1.08588E-18-2.25897E-18
 -1      3547 9.52494E-05-2.85608E-05-2.85807E-05-2.33201E-08 1.89405E-18-1.89931E-18
 -1      3548 9.52533E-05-2.85550E-05-2.85850E-05-1.75236E-08 2.72210E-18 1.02210E-18
 -1      3549 9.52739E-05-3.05205E-05-2.77259E-05 1.38686E-05-1.75793E-18-6.23885E-19
 -1      3550 9.73172E-05-3.28583E-05-2.75659E-05 1.43524E-05-2.03668E-18-9.10928E-19
 -1      3551 9.40240E-05-3.26075E-05-2.63556E-05 1.69761E-05-2.35071E-18-8.89591E-19
 -1      3552 9.33387E-05-2.74873E-05-2.82192E-05 1.19381E-05-1.78460E-18 1.24445E-20
 -1      3553 9.44353E-05-2.88810E-05-2.80512E-05 1.26397E-05-1.83353E-18-7.65193E-19
 -1      3554 9.13303E-05-2.81813E-05-2.71043E-05 1.40858E-05-1.94840E-18-1.40207E-18
 -1      3555 9.52619E-05-2.85753E-05-2.85800E-05 6.73357E-09 1.90226E-18-1.98051E-18
 -1      3556 9.52623E-05-2.85753E-05-2.85802E-05 2.38395E-09 2.24508E-18-1.22893E-18
 -1      3557 8.97130E-05-3.64680E-05-2.28221E-05 2.46434E-05-3.01050E-18 4.76085E-19
 -1      3558 7.52939E-05-2.72358E-05-2.03493E-05 2.38448E-05-2.55730E-18 1.05839E-18
 -1      3559 1.03652E-04-4.58551E-05-2.47453E-05 2.42636E-05 2.40230E-18-1.69322E-18
 -1      3560 9.30192E-05-3.94946E-05-2.26059E-05 2.76550E-05 2.57146E-18-2.14122E-18
 -1      3561 1.04496E-04-4.31001E-05-2.61247E-05 1.88069E-05-2.64241E-18-1.13245E-18
 -1      3562 1.25370E-04-4.86850E-05-3.30872E-05 4.43938E-06 4.07502E-19-3.28542E-18
 -1      3563 6.17373E-05-1.93440E-05-1.80985E-05 1.78436E-05-1.10620E-18 2.31899E-18
 -1      3564 5.27241E-05-1.41832E-05-1.60390E-05 1.04281E-05-7.79078E-19 3.13625E-18
 -1      3565 4.77527E-05-1.25662E-05-1.49683E-05 2.33063E-06-1.01578E-21 2.81977E-18
 -1      3566 4.73135E-05-1.30537E-05-1.42950E-05-8.32439E-06 1.17314E-18 1.97523E-18
 -1      3567 5.56451E-05-1.54280E-05-1.69376E-05-1.14710E-05 8.80901E-19 2.04341E-18
 -1      3568 6.07922E-05-1.76354E-05-1.82928E-05 1.75229E-05 1.34792E-18-4.51230E-18
 -1      3569 5.72274E-05-1.48429E-05-1.80218E-05 1.12545E-05 9.95684E-19-5.01179E-18
 -1      3570 9.36985E-05-2.39788E-05-2.98679E-05 6.83738E-06-6.06873E-19-2.26707E-18
 -1      3571 9.44319E-05-2.54419E-05-2.95552E-05 8.03414E-06-2.78793E-19-2.25734E-18
 -1      3572 9.26639E-05-2.48933E-05-2.90677E-05 9.08913E-06-2.22152E-19-2.22338E-18
 -1      3573 8.31607E-05-1.16060E-05-3.06921E-05 1.46523E-06 7.79451E-20-4.11984E-18
 -1      3574 8.40263E-05-1.22527E-05-3.07625E-05 1.59007E-06-2.06461E-19-3.98775E-18
 -1      3575 8.49508E-05-1.39388E-05-3.04132E-05 2.49086E-06-2.42560E-19-3.70499E-18
 -1      3576 9.22277E-05-1.93171E-05-3.12557E-05 1.81112E-06-1.48249E-18-2.84931E-18
 -1      3577 1.04089E-04-4.47664E-05-2.50380E-05-2.12952E-05 1.55282E-18-1.10117E-18
 -1      3578 1.13321E-04-4.97094E-05-2.75143E-05-1.51314E-05 1.52151E-18-1.75238E-18
 -1      3579 9.37991E-05-2.21650E-05-3.06972E-05-5.14647E-06 1.60850E-18-2.28248E-18
 -1      3580 9.22431E-05-2.06460E-05-3.06738E-05-4.67412E-06 1.72924E-18-2.36937E-18
 -1      3581 9.40560E-05-2.31743E-05-3.03823E-05-6.72670E-06 1.28835E-18-2.22065E-18
 -1      3582 9.44479E-05-2.86267E-05-2.81439E-05-1.37597E-05-1.94192E-19-1.80770E-18
 -1      3583 9.31070E-05-2.66803E-05-2.84552E-05-1.27077E-05 3.52083E-20-1.78377E-18
 -1      3584 8.99225E-05-2.72246E-05-2.69600E-05-1.55921E-05-3.36537E-19-2.05027E-18
 -1      3585 1.25310E-04-3.08649E-05-4.12472E-05-1.71562E-05 2.91258E-18-2.73009E-18
 -1      3586 1.10779E-04-4.64593E-05-2.72228E-05-1.76021E-05-1.98153E-18-3.97086E-19
 -1      3587 6.57042E-05-2.05487E-05-1.90185E-05-2.01800E-05-1.47769E-18-4.57334E-18
 -1      3588 7.58240E-05-2.75041E-05-2.08923E-05-2.46632E-05-1.97868E-18-3.19877E-18
 -1      3589 9.00551E-05-1.89610E-05-3.04901E-05-4.43735E-06 1.54517E-18-2.60792E-18
 -1      3590 8.41478E-05-2.94952E-05-2.32122E-05-2.19561E-05-1.60812E-18-2.47448E-18
 -1      3591 5.62320E-05-1.40920E-05-1.77668E-05 4.43990E-06 1.32157E-19 2.00212E-18
 -1      3592 6.94129E-05-2.18011E-05-2.01794E-05 1.98249E-05 1.64121E-18-3.73459E-18
 -1      3593 1.08441E-04-4.71632E-05-2.62887E-05 1.99215E-05 1.96364E-18-1.01242E-18
 -1      3594 1.02653E-04-4.20028E-05-2.59648E-05 1.99216E-05 1.83334E-18-1.49598E-18
 -1      3595 9.18894E-05-1.99337E-05-3.08282E-05 3.19699E-06-1.20973E-18-2.72510E-18
 -1      3596 1.18650E-04-5.05013E-05-2.91035E-05-8.46522E-06 1.72211E-18-1.56102E-18
 -1      3597 9.69113E-05-3.93738E-05-2.46461E-05 2.21153E-05-2.81702E-18 1.15408E-20
 -1      3598 8.97620E-05-3.28578E-05-2.44481E-05 2.05408E-05-2.57746E-18 4.61090E-19
 -1      3599 9.52577E-05-2.85719E-05-2.85796E-05 2.13022E-08-1.06656E-18 2.17121E-19
 -1      3600 9.52571E-05-2.85762E-05-2.85776E-05 2.17433E-08 1.68157E-20 5.59518E-19
 -1      3601 9.52592E-05-2.85765E-05-2.85784E-05 1.79389E-08-3.32279E-19 5.75713E-19
 -1      3602 9.24899E-05-2.13341E-05-3.04933E-05 4.40249E-06-1.11091E-18-2.43561E-18
 -1      3603 9.30746E-05-2.26349E-05-3.01829E-05 5.66599E-06-8.79090E-19-2.40419E-18
 -1      3604 9.14379E-05-2.19586E-05-2.97914E-05 6.51561E-06-6.36601E-19-2.21874E-18
 -1      3605 9.02568E-05-1.91954E-05-3.04649E-05 4.08732E-06-8.69144E-19-2.57847E-18
 -1      3606 8.63070E-05-1.48587E-05-3.05916E-05-2.20537E-06 1.48117E-18-3.18515E-18
 -1      3607 9.04934E-05-2.57576E-05-2.77598E-05 1.16353E-05-1.46731E-18-1.77592E-18
 -1      3608 9.52632E-05-2.85691E-05-2.85831E-05 1.76796E-10 1.27752E-18-4.48323E-19
 -1      3609 9.52624E-05-2.85754E-05-2.85802E-05-1.96292E-09 1.91647E-18 1.88054E-19
 -1      3610 9.52620E-05-2.85754E-05-2.85800E-05-6.37978E-09 1.34857E-18 4.41270E-19
 -1      3611 9.52474E-05-2.85744E-05-2.85741E-05-3.17346E-08 4.64234E-19-2.31781E-18
 -1      3612 9.52479E-05-2.85706E-05-2.85759E-05-3.00939E-08 8.60654E-19-2.29404E-18
 -1      3613 9.52462E-05-2.85777E-05-2.85722E-05-3.24380E-08 4.45927E-19-2.56905E-18
 -1      3614 8.82658E-05-3.46207E-05-2.27338E-05 2.50629E-05 2.22216E-18-2.42843E-18
 -1      3615 9.52524E-05-2.85677E-05-2.85792E-05-2.61521E-08 6.75887E-19 3.46625E-19
 -1      3616 8.37969E-05-1.39829E-05-2.99266E-05-2.03301E-06 9.97559E-19-3.16866E-18
 -1      3617 8.27892E-05-1.32487E-05-2.98268E-05-1.33193E-06 7.41095E-19-3.36786E-18
 -1      3618 7.91954E-05-2.57567E-05-2.27604E-05 1.86787E-05-1.79662E-18-4.75854E-19
 -1      3619 7.06210E-05-2.27819E-05-2.03324E-05 2.02728E-05-1.57269E-18 2.75908E-19
 -1      3620 6.71741E-05-1.87069E-05-2.07778E-05 1.39708E-05-6.54796E-19 5.64190E-19
 -1      3621 5.55178E-05-1.30901E-05-1.80197E-05 3.95730E-06 3.15019E-19-5.21391E-18
 -1      3622 5.49452E-05-1.30752E-05-1.77682E-05-3.37216E-06-2.27743E-19-5.32567E-18
 -1      3623 5.62209E-05-1.41285E-05-1.78638E-05-9.12461E-06-6.98383E-19-5.26791E-18
 -1      3624 5.98641E-05-1.69504E-05-1.83467E-05-1.56847E-05-1.05800E-18-5.18014E-18
 -1      3625 6.80720E-05-1.93729E-05-2.06001E-05-1.60458E-05-1.10630E-18-4.25788E-18
 -1      3626 6.08999E-05-1.42811E-05-1.97918E-05-6.18915E-06-2.98870E-19-4.75151E-18
 -1      3627 9.32636E-05-2.56524E-05-2.89444E-05-1.12683E-05 1.90619E-19-1.92209E-18
 -1      3628 9.29492E-05-2.46495E-05-2.92700E-05-1.01929E-05 5.28755E-19-1.93560E-18
 -1      3629 8.96035E-05-2.40954E-05-2.80749E-05-1.21583E-05 8.93901E-20-2.18485E-18
 -1      3630 8.22455E-05-1.37561E-05-2.93144E-05-1.08288E-06 6.22579E-19-3.41675E-18
 -1      3631 8.21835E-05-1.27961E-05-2.97543E-05-1.75702E-07 6.14209E-19-3.68235E-18
 -1      3632 8.20314E-05-1.26891E-05-2.97303E-05 5.90863E-07 4.89569E-19-3.80439E-18
 -1      3633 1.22676E-04-5.15688E-05-3.04051E-05-4.94173E-06 1.38393E-18-2.14882E-18
 -1      3634 6.08488E-05-1.44983E-05-1.96415E-05 6.69055E-06 5.97803E-19-4.76085E-18
 -1      3635 8.30506E-05-1.23917E-05-3.02525E-05 1.56962E-06 1.34885E-19-3.84140E-18
 -1      3636 9.52588E-05-2.85765E-05-2.85782E-05-1.92502E-08 1.35863E-18 1.68723E-18
 -1      3637 9.52565E-05-2.85761E-05-2.85774E-05-2.30100E-08 1.10288E-18 1.12519E-18
 -1      3638 9.70828E-05-3.89387E-05-2.47199E-05-2.03625E-05 1.38358E-18-5.57636E-19
 -1      3639 8.42133E-05-1.44768E-05-2.99154E-05 3.17373E-06-7.39657E-20-3.58156E-18
 -1      3640 8.55752E-05-1.54935E-05-3.00320E-05 3.52473E-06-3.02911E-19-3.57765E-18
 -1      3641 9.52603E-05-2.85758E-05-2.85791E-05 1.44201E-08 1.61231E-19-1.37938E-18
 -1      3642 9.52614E-05-2.85758E-05-2.85796E-05 1.01792E-08 1.65760E-18-2.43712E-18
 -1      3643 9.52626E-05-2.85695E-05-2.85826E-05 7.62745E-09 1.11312E-18-2.36415E-18
 -1      3644 9.52611E-05-2.85708E-05-2.85814E-05 1.41330E-08 1.13942E-18-1.24446E-18
 -1      3645 9.52533E-05-2.85767E-05-2.85756E-05-2.73719E-08 5.70760E-19 7.81475E-19
 -1      3646 9.52504E-05-2.85767E-05-2.85745E-05-2.99253E-08 3.84820E-19-9.70313E-19
 -1      3647 8.69299E-05-1.65940E-05-3.01649E-05 3.93020E-06-3.55087E-19-3.39683E-18
 -1      3648 8.87090E-05-1.79763E-05-3.03140E-05 3.99891E-06-6.41083E-19-2.94438E-18
 -1      3649 8.93012E-05-1.93506E-05-2.99644E-05 5.19099E-06-6.02270E-19-2.68584E-18
 -1      3650 8.61931E-05-1.69848E-05-2.96579E-05 4.69848E-06-1.88258E-19-3.38545E-18
 -1      3651 9.52555E-05-2.85722E-05-2.85786E-05-2.47278E-08 7.49165E-19 1.24541E-18
 -1      3652 1.13742E-04-4.88026E-05-2.77758E-05 1.46997E-05 1.25162E-18 5.62483E-21
 -1      3653 6.68700E-05-2.25282E-05-1.89872E-05-2.19008E-05 1.66727E-18 1.43723E-18
 -1      3654 7.60878E-05-2.55768E-05-2.14119E-05-2.05298E-05 1.73305E-18 4.84615E-19
 -1      3655 7.43055E-05-2.25388E-05-2.21081E-05-1.68348E-05 1.36665E-18 6.34620E-19
 -1      3656 8.12804E-05-2.81563E-05-2.29915E-05-2.03986E-05 1.42286E-18 2.10422E-19
 -1      3657 9.29257E-05-2.96820E-05-2.70864E-05 1.46798E-05 5.99040E-19-1.92668E-18
 -1      3658 9.50763E-05-3.24599E-05-2.67554E-05 1.59882E-05 9.27830E-19-1.88862E-18
 -1      3659 9.65512E-05-3.49645E-05-2.63458E-05 1.76467E-05 1.08652E-18-1.86433E-18
 -1      3660 1.00053E-04-3.87178E-05-2.62075E-05 1.86457E-05 1.44278E-18-1.78034E-18
 -1      3661 9.54084E-05-3.75905E-05-2.49260E-05 2.20938E-05 1.78610E-18-1.99311E-18
 -1      3662 9.11863E-05-3.13922E-05-2.57209E-05 1.84029E-05 1.02559E-18-2.04365E-18
 -1      3663 9.09923E-05-2.55780E-05-2.80328E-05 1.14019E-05 2.80944E-20-2.17139E-18
 -1      3664 9.21855E-05-2.75892E-05-2.76330E-05 1.27827E-05 2.69620E-19-2.18767E-18
 -1      3665 8.90550E-05-2.66631E-05-2.67703E-05 1.43913E-05 5.40990E-19-1.89553E-18
 -1      3666 9.32650E-05-3.50206E-05-2.47553E-05-1.96086E-05 1.35051E-18-4.88101E-19
 -1      3667 8.52178E-05-1.51000E-05-3.00829E-05-2.98827E-06 1.16518E-18-3.12776E-18
 -1      3668 8.43623E-05-1.53434E-05-2.95544E-05-3.33769E-06 9.11942E-19-2.94420E-18
 -1      3669 8.69476E-05-1.63747E-05-3.02337E-05-3.49456E-06 1.37606E-18-3.05048E-18
 -1      3670 9.52566E-05-2.85670E-05-2.85812E-05-2.16544E-08 8.76368E-19 1.14505E-18
 -1      3671 9.08158E-05-3.16449E-05-2.51783E-05-1.70139E-05 1.16209E-18-2.69740E-19
 -1      3672 8.85051E-05-2.90475E-05-2.54215E-05-1.57662E-05 1.51900E-18-5.03794E-19
 -1      3673 8.87583E-05-2.76660E-05-2.60755E-05-1.34610E-05 1.57890E-18-9.29964E-19
 -1      3674 8.75413E-05-2.60560E-05-2.63481E-05-1.22683E-05 1.43479E-18-7.30454E-19
 -1      3675 8.06284E-05-2.39541E-05-2.43935E-05-1.46196E-05 1.46479E-18 6.54978E-19
 -1      3676 8.81291E-05-2.53543E-05-2.68504E-05-1.05914E-05 1.19001E-18-7.06821E-19
 -1      3677 8.76450E-05-2.44628E-05-2.70979E-05-9.58025E-06 9.70504E-19-6.65970E-19
 -1      3678 8.23535E-05-2.24091E-05-2.57021E-05-1.06233E-05 1.15478E-18-4.48908E-19
 -1      3679 8.83530E-05-2.41895E-05-2.74752E-05-8.38727E-06 3.25290E-19-7.80480E-19
 -1      3680 8.82810E-05-2.37694E-05-2.76741E-05-7.54466E-06 1.15228E-19-7.28139E-19
 -1      3681 8.41623E-05-2.18964E-05-2.66725E-05-7.85363E-06 2.98901E-19-4.42844E-19
 -1      3682 8.90052E-05-2.37718E-05-2.79501E-05-6.68219E-06 1.52362E-19-1.21601E-18
 -1      3683 8.91522E-05-2.36560E-05-2.80968E-05-5.98077E-06 5.07616E-19-1.23837E-18
 -1      3684 8.58944E-05-2.19531E-05-2.73810E-05-5.91433E-06-3.59130E-19-4.37704E-19
 -1      3685 8.98417E-05-2.38288E-05-2.82924E-05-5.33963E-06 6.19343E-19-1.55392E-18
 -1      3686 9.00917E-05-2.39012E-05-2.83924E-05-4.75295E-06 1.91789E-19-1.31976E-18
 -1      3687 8.74799E-05-2.23519E-05-2.78876E-05-4.51327E-06 1.74694E-19 4.27710E-20
 -1      3688 9.07193E-05-2.41701E-05-2.85259E-05-4.26584E-06 1.93094E-19-1.88831E-18
 -1      3689 9.10030E-05-2.43482E-05-2.85883E-05-3.77250E-06 5.01240E-19-1.79553E-18
 -1      3690 8.88999E-05-2.29512E-05-2.82398E-05-3.48359E-06 3.58167E-19-1.60910E-18
 -1      3691 9.15562E-05-2.46613E-05-2.86751E-05-3.39426E-06 6.38764E-19-1.67270E-18
 -1      3692 9.18350E-05-2.48907E-05-2.87091E-05-2.97957E-06 8.32783E-19-1.73740E-18
 -1      3693 9.01455E-05-2.36503E-05-2.84759E-05-2.69751E-06 5.96697E-20-2.19443E-18
 -1      3694 9.23083E-05-2.52115E-05-2.87615E-05-2.68174E-06 9.69351E-19-1.15951E-18
 -1      3695 9.25614E-05-2.54557E-05-2.87751E-05-2.33445E-06 1.16464E-18-9.80780E-19
 -1      3696 9.12120E-05-2.43738E-05-2.86262E-05-2.09076E-06 7.55780E-19-1.84128E-18
 -1      3697 9.29584E-05-2.57627E-05-2.88032E-05-2.09788E-06 9.97057E-19-1.25184E-18
 -1      3698 9.31768E-05-2.59992E-05-2.88031E-05-1.80969E-06 6.62638E-19-7.83110E-19
 -1      3699 9.21076E-05-2.50704E-05-2.87147E-05-1.61310E-06 1.36647E-18-1.02524E-18
 -1      3700 9.35024E-05-2.62783E-05-2.88144E-05-1.62195E-06 1.51270E-19-1.05717E-18
 -1      3701 9.36838E-05-2.64941E-05-2.88058E-05-1.38541E-06-4.57949E-19-8.93433E-19
 -1      3702 9.28475E-05-2.57124E-05-2.87596E-05-1.23551E-06 6.82643E-19-2.47954E-19
 -1      3703 9.39457E-05-2.67387E-05-2.88061E-05-1.23682E-06-5.52032E-19 8.66512E-20
 -1      3704 9.40919E-05-2.69275E-05-2.87928E-05-1.04521E-06-8.27307E-19 2.90442E-19
 -1      3705 9.34468E-05-2.62814E-05-2.87752E-05-9.36748E-07 5.26901E-19-1.94890E-19
 -1      3706 9.42984E-05-2.71356E-05-2.87864E-05-9.28501E-07-5.08312E-19 1.17854E-18
 -1      3707 9.44133E-05-2.72957E-05-2.87709E-05-7.75504E-07 6.44640E-20 1.29377E-18
 -1      3708 9.39237E-05-2.67712E-05-2.87719E-05-7.01236E-07 5.51638E-19 9.43147E-19
 -1      3709 9.45729E-05-2.74683E-05-2.87608E-05-6.84769E-07-1.67901E-19 1.20673E-18
 -1      3710 9.46611E-05-2.76003E-05-2.87450E-05-5.64439E-07 1.16511E-19 1.20039E-18
 -1      3711 9.42960E-05-2.71821E-05-2.87572E-05-5.17076E-07 1.63093E-19 5.21025E-19
 -1      3712 9.47820E-05-2.77403E-05-2.87333E-05-4.94717E-07 9.50943E-20 1.08029E-18
 -1      3713 9.48479E-05-2.78467E-05-2.87183E-05-4.01557E-07 6.84263E-19 1.09200E-18
 -1      3714 9.45811E-05-2.75191E-05-2.87365E-05-3.74468E-07 7.12619E-20-7.02390E-19
 -1      3715 9.49376E-05-2.79579E-05-2.87063E-05-3.48689E-07 7.50550E-19 1.01796E-18
 -1      3716 9.49857E-05-2.80418E-05-2.86927E-05-2.77745E-07 7.62929E-20 6.91201E-19
 -1      3717 9.47951E-05-2.77897E-05-2.87135E-05-2.65294E-07 3.57376E-19-1.70613E-18
 -1      3718 9.50507E-05-2.81285E-05-2.86814E-05-2.38251E-07-1.28267E-20 1.11124E-18
 -1      3719 9.50848E-05-2.81934E-05-2.86695E-05-1.85163E-07 4.07931E-19 1.27934E-18
 -1      3720 9.49523E-05-2.80028E-05-2.86904E-05-1.82813E-07 7.12188E-19-2.08350E-18
 -1      3721 9.51305E-05-2.82595E-05-2.86592E-05-1.56154E-07 8.88106E-20 9.78664E-19
 -1      3722 9.51538E-05-2.83087E-05-2.86491E-05-1.17179E-07 1.13479E-19 6.85977E-19
 -1      3723 9.50649E-05-2.81674E-05-2.86688E-05-1.21427E-07 8.86037E-21-1.33547E-18
 -1      3724 9.51850E-05-2.83582E-05-2.86401E-05-9.62802E-08-9.77493E-20-5.16024E-19
 -1      3725 9.52002E-05-2.83947E-05-2.86317E-05-6.82762E-08 5.15226E-19-1.09257E-18
 -1      3726 9.51432E-05-2.82922E-05-2.86494E-05-7.65153E-08-1.03817E-18-1.30545E-18
 -1      3727 9.52205E-05-2.84310E-05-2.86240E-05-5.35651E-08 1.02435E-18-2.07791E-18
 -1      3728 9.52298E-05-2.84576E-05-2.86172E-05-3.39513E-08 5.68706E-19-2.26915E-18
 -1      3729 9.51957E-05-2.83849E-05-2.86326E-05-4.43063E-08-8.05332E-19-3.55720E-18
 -1      3730 9.52421E-05-2.84836E-05-2.86107E-05-2.38756E-08 3.55729E-19-1.66145E-18
 -1      3731 9.52472E-05-2.85025E-05-2.86052E-05-1.05716E-08 2.86045E-19-1.88229E-18
 -1      3732 9.52289E-05-2.84523E-05-2.86182E-05-2.17600E-08 4.79751E-19-3.18241E-18
 -1      3733 9.52539E-05-2.85208E-05-2.85998E-05-3.93732E-09 4.78673E-19-1.55728E-18
 -1      3734 9.52561E-05-2.85340E-05-2.85954E-05 4.68055E-09 2.01138E-19-1.30223E-18
 -1      3735 9.52484E-05-2.85003E-05-2.86062E-05-6.43793E-09 7.38151E-19-2.22624E-18
 -1      3736 9.52589E-05-2.85466E-05-2.85909E-05 8.78617E-09-5.22168E-19-1.53388E-18
 -1      3737 9.52593E-05-2.85558E-05-2.85873E-05 1.41459E-08-5.27272E-19-2.01681E-18
 -1      3738 9.52583E-05-2.85339E-05-2.85961E-05 3.49604E-09 1.77491E-19-3.36909E-18
 -1      3739 9.52584E-05-2.85675E-05-2.85818E-05 1.93859E-08-5.29876E-19-3.68013E-19
 -1      3740 9.06808E-05-2.38693E-05-2.86495E-05 5.71556E-06-1.78077E-19-1.64219E-18
 -1      3741 9.03283E-05-2.36740E-05-2.85599E-05 6.32593E-06-6.61492E-20-7.04058E-19
 -1      3742 8.24260E-05-2.62294E-05-2.39917E-05-1.92781E-05-1.29134E-18-2.37580E-18
 -1      3743 8.90109E-05-1.90472E-05-2.99853E-05-5.39885E-06 1.25061E-18-2.58239E-18
 -1      3744 9.52593E-05-2.85637E-05-2.85840E-05-1.73154E-08 1.07840E-18-4.21273E-19
 -1      3745 9.52567E-05-2.85586E-05-2.85849E-05-1.86263E-08 8.48876E-19 1.90813E-18
 -1      3746 8.96288E-05-2.34286E-05-2.83914E-05 6.98379E-06-5.02337E-19-8.54910E-19
 -1      3747 8.93087E-05-2.33845E-05-2.82417E-05 7.70570E-06-5.52701E-19-8.14731E-19
 -1      3748 8.86565E-05-2.27392E-05-2.82330E-05 6.07971E-06-1.75245E-19-1.91223E-18
 -1      3749 8.85464E-05-2.33023E-05-2.79867E-05 8.53848E-06-1.01720E-18-1.61632E-18
 -1      3750 8.83593E-05-2.35358E-05-2.77607E-05 9.41475E-06-1.39734E-18-2.20965E-18
 -1      3751 8.71908E-05-2.23159E-05-2.77854E-05 7.47995E-06-1.27418E-18-2.05842E-18
 -1      3752 9.16193E-05-2.44493E-05-2.88005E-05 4.65517E-06 2.38224E-19-2.21877E-18
 -1      3753 9.12901E-05-2.41883E-05-2.87542E-05 5.18013E-06-1.00474E-19-1.80062E-18
 -1      3754 8.99626E-05-2.33738E-05-2.85237E-05 4.95661E-06 2.53752E-19-1.90425E-18
 -1      3755 9.24231E-05-2.50685E-05-2.88772E-05 3.75472E-06 6.40293E-20-2.26869E-18
 -1      3756 9.21374E-05-2.47904E-05-2.88603E-05 4.20560E-06 2.82131E-19-2.43118E-18
 -1      3757 9.10782E-05-2.40810E-05-2.87014E-05 4.03037E-06 1.12024E-19-2.05335E-18
 -1      3758 9.30906E-05-2.56703E-05-2.89035E-05 2.98892E-06-5.20445E-19-1.63174E-18
 -1      3759 9.28516E-05-2.53990E-05-2.89059E-05 3.37343E-06 1.26769E-20-2.01924E-18
 -1      3760 9.20153E-05-2.47911E-05-2.88005E-05 3.25009E-06-2.43325E-19-3.26674E-18
 -1      3761 9.36290E-05-2.62189E-05-2.88975E-05 2.34856E-06-3.66092E-19-1.01022E-18
 -1      3762 9.34378E-05-2.59730E-05-2.89114E-05 2.67177E-06-4.09036E-19-1.29455E-18
 -1      3763 9.27848E-05-2.54622E-05-2.88448E-05 2.58470E-06-6.18302E-19-2.74942E-18
 -1      3764 9.40540E-05-2.66980E-05-2.88730E-05 1.81627E-06 7.32972E-19-1.61735E-18
 -1      3765 9.39043E-05-2.64835E-05-2.88927E-05 2.08442E-06 2.57754E-19-1.33009E-18
 -1      3766 9.33991E-05-2.60607E-05-2.88536E-05 2.03290E-06 3.54044E-19-2.20884E-18
 -1      3767 9.43850E-05-2.71060E-05-2.88387E-05 1.38106E-06 4.52922E-19-1.91791E-18
 -1      3768 9.42700E-05-2.69238E-05-2.88608E-05 1.59960E-06 7.64194E-19-1.59156E-18
 -1      3769 9.38851E-05-2.65793E-05-2.88409E-05 1.57118E-06 7.60643E-19-2.88397E-18
 -1      3770 9.46375E-05-2.74444E-05-2.88009E-05 1.03135E-06 8.72989E-19-2.94413E-18
 -1      3771 9.45509E-05-2.72936E-05-2.88229E-05 1.20654E-06 6.89796E-19-2.61971E-18
 -1      3772 9.42628E-05-2.70183E-05-2.88158E-05 1.19460E-06 1.04369E-18-3.22927E-18
 -1      3773 9.48268E-05-2.77194E-05-2.87634E-05 7.54668E-07 1.05398E-18-2.45807E-18
 -1      3774 9.47629E-05-2.75971E-05-2.87839E-05 8.92814E-07 5.77631E-19-2.67044E-18
 -1      3775 9.45510E-05-2.73805E-05-2.87849E-05 8.91769E-07 8.88374E-19-3.35723E-18
 -1      3776 9.49662E-05-2.79386E-05-2.87284E-05 5.39347E-07 1.21223E-19-1.72177E-18
 -1      3777 9.49200E-05-2.78413E-05-2.87468E-05 6.46470E-07 6.50375E-19-2.02444E-18
 -1      3778 9.47672E-05-2.76738E-05-2.87526E-05 6.52027E-07 1.37249E-19-3.68192E-18
 -1      3779 9.50668E-05-2.81105E-05-2.86973E-05 3.74621E-07-7.75149E-19-8.90868E-19
 -1      3780 9.50342E-05-2.80343E-05-2.87131E-05 4.56271E-07 2.12789E-19-1.31564E-18
 -1      3781 9.49267E-05-2.79070E-05-2.87215E-05 4.65394E-07-5.89752E-19-2.91250E-18
 -1      3782 9.51378E-05-2.82429E-05-2.86705E-05 2.50843E-07-4.43559E-19-1.58883E-18
 -1      3783 9.51153E-05-2.81844E-05-2.86838E-05 3.11965E-07-8.16191E-19-1.19913E-18
 -1      3784 9.50418E-05-2.80892E-05-2.86931E-05 3.22619E-07-5.12812E-19-2.81317E-18
 -1      3785 9.51863E-05-2.83432E-05-2.86480E-05 1.59602E-07 2.55161E-19-9.19738E-19
 -1      3786 9.51714E-05-2.82989E-05-2.86589E-05 2.04477E-07 6.14787E-20-7.08492E-19
 -1      3787 9.51231E-05-2.82293E-05-2.86682E-05 2.15368E-07-3.02653E-19-2.76842E-18
 -1      3788 9.52182E-05-2.84178E-05-2.86294E-05 9.37584E-08 2.20019E-18-1.92688E-20
 -1      3789 9.52088E-05-2.83849E-05-2.86383E-05 1.25997E-07 1.12831E-18 2.47514E-19
 -1      3790 9.51786E-05-2.83349E-05-2.86469E-05 1.36355E-07 6.38416E-19-1.63063E-18
 -1      3791 9.52381E-05-2.84721E-05-2.86144E-05 4.74221E-08 1.94616E-18-2.85559E-19
 -1      3792 9.52326E-05-2.84482E-05-2.86214E-05 6.99923E-08 2.57195E-18-5.77437E-19
 -1      3793 9.52152E-05-2.84133E-05-2.86292E-05 7.93815E-08 2.18608E-18-5.89064E-19
 -1      3794 9.52493E-05-2.85109E-05-2.86025E-05 1.56782E-08 2.32627E-18-1.03526E-18
 -1      3795 9.52465E-05-2.84938E-05-2.86080E-05 3.11266E-08 2.19144E-18-1.61806E-19
 -1      3796 9.52379E-05-2.84702E-05-2.86146E-05 3.94764E-08 2.28123E-18 8.13888E-19
 -1      3797 9.52546E-05-2.85382E-05-2.85930E-05-5.27208E-09 2.44352E-18 1.41442E-19
 -1      3798 9.52537E-05-2.85261E-05-2.85973E-05 5.04255E-09 1.96970E-18-1.02492E-18
 -1      3799 9.52506E-05-2.85109E-05-2.86028E-05 1.21805E-08 1.59804E-18 7.45221E-19
 -1      3800 9.52571E-05-2.85508E-05-2.85882E-05-1.24587E-08 2.04465E-18 1.30371E-18
 -1      3801 8.71357E-05-2.52067E-05-2.65705E-05 1.31360E-05-1.81286E-18-1.83023E-18
 -1      3802 8.78686E-05-2.66831E-05-2.61594E-05 1.45465E-05-1.90213E-18-1.61912E-18
 -1      3803 8.76062E-05-2.37567E-05-2.73931E-05 1.05211E-05-1.24841E-18-2.26964E-18
 -1      3804 8.77460E-05-2.44707E-05-2.70784E-05 1.16135E-05-1.36896E-18-2.19495E-18
 -1      3805 8.56500E-05-2.23102E-05-2.71291E-05 9.34357E-06-1.44625E-18-2.62694E-18
 -1      3806 8.23526E-05-1.29915E-05-2.97531E-05 1.70966E-06 3.68562E-19-3.73384E-18
 -1      3807 8.30565E-05-1.35022E-05-2.98076E-05 2.34928E-06 7.22741E-20-3.72569E-18
 -1      3808 8.35944E-05-1.49090E-05-2.94062E-05 3.46172E-06 6.78152E-20-3.47257E-18
 -1      3809 8.19807E-05-1.36110E-05-2.92640E-05 1.36080E-06 4.30150E-19-3.62807E-18
 -1      3810 9.52614E-05-2.85758E-05-2.85796E-05-1.06890E-08 1.36520E-18 1.17010E-18
 -1      3811 9.52603E-05-2.85758E-05-2.85791E-05-1.49089E-08 9.05592E-19 1.30530E-18
 -1      3812 9.52607E-05-2.85708E-05-2.85812E-05-1.60698E-08 1.25140E-18 7.61399E-19
 -1      3813 9.52627E-05-2.85696E-05-2.85826E-05-8.02615E-09 7.70231E-19 3.52702E-19
 -1      3814 8.54465E-05-3.09514E-05-2.32051E-05 2.28602E-05 1.80750E-18-2.42091E-18
 -1      3815 7.58541E-05-2.47394E-05-2.19430E-05 2.13504E-05 1.56692E-18-2.87005E-18
 -1      3816 6.91792E-05-1.92005E-05-2.13837E-05 1.56685E-05 1.17248E-18-3.68859E-18
 -1      3817 9.01632E-05-3.08247E-05-2.53496E-05 1.78590E-05-2.06552E-18-1.76819E-19
 -1      3818 8.40673E-05-2.82165E-05-2.38548E-05 1.93656E-05-1.92483E-18 5.10073E-20
 -1      3819 7.92928E-05-2.41271E-05-2.37154E-05 1.64541E-05-9.61654E-19-6.49549E-19
 -1      3820 8.82462E-05-2.82081E-05-2.57686E-05 1.61636E-05-1.69549E-18-1.21705E-18
 -1      3821 9.01003E-05-2.25175E-05-2.89705E-05 8.33955E-06-2.48794E-19-2.20442E-18
 -1      3822 9.07247E-05-2.40377E-05-2.85550E-05 9.73382E-06-8.34561E-20-2.22395E-18
 -1      3823 8.82270E-05-2.31167E-05-2.79131E-05 1.06807E-05 5.15189E-21-2.20498E-18
 -1      3824 9.36108E-05-2.42683E-05-2.97124E-05-9.06415E-06 8.01618E-19-2.01281E-18
 -1      3825 9.35126E-05-2.34879E-05-3.00114E-05-7.87962E-06 1.01790E-18-2.08055E-18
 -1      3826 9.18420E-05-2.20182E-05-2.99064E-05-7.42384E-06 1.12694E-18-2.20601E-18
 -1      3827 9.06425E-05-2.27797E-05-2.90651E-05-9.61585E-06 5.73899E-19-2.23795E-18
 -1      3828 6.38016E-05-1.92298E-05-1.88970E-05-1.74621E-05 1.29544E-18 9.85099E-19
 -1      3829 7.54574E-05-2.17423E-05-2.30758E-05-1.72929E-05-1.04108E-18-3.02219E-18
 -1      3830 8.47859E-05-2.50032E-05-2.55235E-05-1.59587E-05-8.32214E-19-2.26958E-18
 -1      3831 5.98670E-05-1.62652E-05-1.85848E-05-1.23125E-05 7.87153E-19 1.17296E-18
 -1      3832 6.47502E-05-1.72679E-05-2.02274E-05-1.16732E-05 9.45454E-19 6.60447E-19
 -1      3833 5.74574E-05-1.39649E-05-1.85136E-05-4.67560E-06 2.24149E-19 1.86723E-18
 -1      3834 8.40544E-05-2.30033E-05-2.61619E-05-1.39605E-05-2.91226E-19-2.31968E-18
 -1      3835 6.21275E-05-1.56338E-05-1.99102E-05 8.72953E-06-2.43408E-19 2.05046E-18
 -1      3836 5.85324E-05-1.38223E-05-1.90161E-05 1.40244E-06-3.06636E-21 2.04376E-18
 -1      3837 6.30633E-05-1.49367E-05-2.05080E-05-9.51837E-08-1.85331E-19 1.99804E-18
 -1      3838 6.46794E-05-1.56688E-05-2.09576E-05 1.00758E-05 8.68702E-19-4.36419E-18
 -1      3839 6.29842E-05-1.40150E-05-2.09550E-05 3.13020E-06 3.58424E-19-4.46502E-18
 -1      3840 7.09080E-05-1.82211E-05-2.24288E-05-1.32927E-05-7.74208E-19-3.75660E-18
 -1      3841 7.09512E-05-1.80793E-05-2.25181E-05 1.20074E-05 9.16265E-19-3.67638E-18
 -1      3842 8.39071E-05-2.50332E-05-2.52187E-05 1.51486E-05-1.31941E-18-1.42723E-18
 -1      3843 8.23205E-05-1.51628E-05-2.88236E-05 3.81460E-06 2.72532E-19-3.36620E-18
 -1      3844 8.37251E-05-1.61199E-05-2.89486E-05 4.77975E-06 4.17207E-20-3.37629E-18
 -1      3845 9.52609E-05-2.85603E-05-2.85860E-05 1.22759E-08 4.66746E-19-1.37934E-18
 -1      3846 6.69010E-05-1.68904E-05-2.14549E-05-8.97827E-06 6.76237E-19 2.99744E-19
 -1      3847 7.03377E-05-1.96869E-05-2.16854E-05-1.41396E-05 1.04350E-18 1.46646E-19
 -1      3848 7.63259E-05-2.18659E-05-2.31807E-05-1.40172E-05 1.32961E-18 1.11147E-19
 -1      3849 9.52608E-05-2.85619E-05-2.85853E-05-1.36914E-08 8.06118E-19 4.57368E-19
 -1      3850 9.52611E-05-2.85523E-05-2.85892E-05-1.04289E-08 3.46950E-19 2.45764E-19
 -1      3851 9.52620E-05-2.85610E-05-2.85862E-05-1.01160E-08 6.68928E-19 9.11703E-19
 -1      3852 9.52632E-05-2.85618E-05-2.85864E-05 2.14702E-09 9.71598E-19-1.74594E-18
 -1      3853 9.52633E-05-2.85619E-05-2.85864E-05-1.71204E-09 1.06361E-18-5.66856E-19
 -1      3854 9.52575E-05-2.85419E-05-2.85926E-05-6.86464E-09 7.32358E-19 3.69777E-19
 -1      3855 8.42116E-05-2.30565E-05-2.62028E-05 1.19014E-05-1.32376E-18-2.17197E-18
 -1      3856 6.25564E-05-1.38278E-05-2.07290E-05-1.35372E-06 7.06512E-20-4.41945E-18
 -1      3857 6.32965E-05-1.48429E-05-2.08056E-05-7.27607E-06-4.54877E-19-4.38353E-18
 -1      3858 6.60558E-05-1.45449E-05-2.19420E-05 2.06864E-06 2.99595E-19-4.16726E-18
 -1      3859 8.46265E-05-2.80018E-05-2.41149E-05 1.93473E-05 1.29270E-18-2.47817E-18
 -1      3860 8.83747E-05-1.93826E-05-2.95819E-05-6.43509E-06 9.39283E-19-2.59367E-18
 -1      3861 6.93355E-05-1.82853E-05-2.17717E-05 1.12091E-05-5.79622E-19 8.53465E-19
 -1      3862 8.16532E-05-1.44729E-05-2.87974E-05-2.07231E-06 7.27623E-19-3.16379E-18
 -1      3863 8.09870E-05-1.40288E-05-2.87179E-05-7.66528E-07 5.29968E-19-3.56521E-18
 -1      3864 8.64669E-05-2.24397E-05-2.74189E-05-1.18208E-05-1.88399E-20-2.42845E-18
 -1      3865 8.66779E-05-2.15584E-05-2.79434E-05-1.04707E-05 8.77916E-20-2.44422E-18
 -1      3866 8.94133E-05-2.02299E-05-2.96448E-05 6.12776E-06-5.53397E-19-2.52270E-18
 -1      3867 9.00130E-05-2.15951E-05-2.93054E-05 7.36340E-06-3.82741E-19-2.39108E-18
 -1      3868 8.79555E-05-2.07922E-05-2.88186E-05 7.96944E-06-1.37665E-19-2.41877E-18
 -1      3869 8.77851E-05-1.89881E-05-2.94755E-05 6.00338E-06-3.10556E-19-2.86003E-18
 -1      3870 8.13637E-05-2.04307E-05-2.60516E-05-1.19890E-05-3.17919E-19-2.52828E-18
 -1      3871 8.44779E-05-1.65277E-05-2.91312E-05-4.69658E-06 7.77295E-19-2.83060E-18
 -1      3872 8.29075E-05-1.54197E-05-2.89562E-05-3.69421E-06 6.18892E-19-2.85933E-18
 -1      3873 8.17078E-05-1.54922E-05-2.83418E-05-3.53705E-06 5.66514E-19-2.93390E-18
 -1      3874 9.52625E-05-2.85631E-05-2.85856E-05 8.02389E-09 1.15290E-18-1.79895E-18
 -1      3875 9.52631E-05-2.85625E-05-2.85861E-05 4.79758E-09 7.85005E-19-1.86041E-18
 -1      3876 9.52629E-05-2.85537E-05-2.85895E-05 2.58032E-09 9.44326E-19-2.45254E-18
 -1      3877 8.62204E-05-1.78790E-05-2.93215E-05 5.62208E-06-1.29098E-19-3.26921E-18
 -1      3878 8.51614E-05-1.80474E-05-2.87496E-05 6.24356E-06 2.45027E-20-3.13280E-18
 -1      3879 8.50197E-05-2.31937E-05-2.65301E-05 1.26672E-05 4.16497E-19-2.39691E-18
 -1      3880 8.56562E-05-2.50694E-05-2.59156E-05 1.47755E-05 5.82368E-19-2.46196E-18
 -1      3881 8.13248E-05-1.43154E-05-2.87194E-05 2.28241E-06 3.19198E-19-3.60394E-18
 -1      3882 8.13412E-05-1.53898E-05-2.82301E-05 3.63027E-06 3.44584E-19-3.33116E-18
 -1      3883 8.08959E-05-1.40120E-05-2.86906E-05 1.03029E-06 4.92906E-19-3.62282E-18
 -1      3884 9.52619E-05-2.85598E-05-2.85867E-05 9.35862E-09 8.60882E-19-3.03406E-18
 -1      3885 7.68408E-05-2.09649E-05-2.40005E-05-1.17333E-05 1.32209E-18 1.47795E-19
 -1      3886 7.95463E-05-2.08294E-05-2.51040E-05-9.32253E-06 6.35639E-19-6.03736E-19
 -1      3887 8.03132E-05-2.05838E-05-2.56753E-05-7.88169E-06 5.15465E-19-1.40450E-18
 -1      3888 8.20753E-05-2.07493E-05-2.62596E-05-6.75761E-06 7.52514E-19-1.67878E-18
 -1      3889 8.29383E-05-2.08032E-05-2.66858E-05-5.75162E-06 2.06557E-19-1.13912E-18
 -1      3890 7.95447E-05-1.93964E-05-2.57160E-05-5.69572E-06 4.24490E-19-2.01912E-18
 -1      3891 8.43477E-05-2.10949E-05-2.70981E-05-4.98480E-06 5.81024E-20-7.28246E-19
 -1      3892 8.51561E-05-2.13109E-05-2.74046E-05-4.27710E-06 1.13995E-19-3.77383E-19
 -1      3893 8.25404E-05-2.00835E-05-2.67279E-05-4.04773E-06 4.60680E-19-1.34269E-18
 -1      3894 8.63126E-05-2.16747E-05-2.76942E-05-3.75745E-06-8.35115E-20 4.82804E-19
 -1      3895 8.70251E-05-2.19837E-05-2.79095E-05-3.24287E-06-7.31420E-20-6.63870E-20
 -1      3896 8.50121E-05-2.09052E-05-2.74394E-05-2.92428E-06 6.20056E-19-3.43661E-19
 -1      3897 8.79858E-05-2.24020E-05-2.81081E-05-2.82577E-06-4.16995E-19-7.19752E-19
 -1      3898 8.86452E-05-2.27705E-05-2.82548E-05-2.45100E-06-2.97872E-19-1.50648E-18
 -1      3899 8.69391E-05-2.17101E-05-2.79269E-05-2.15517E-06-6.15145E-19-1.01522E-18
 -1      3900 8.94286E-05-2.31968E-05-2.83874E-05-2.16202E-06-2.46552E-19-2.35845E-18
 -1      3901 9.00064E-05-2.35844E-05-2.84830E-05-1.87353E-06-4.86660E-19-2.50862E-18
 -1      3902 8.86629E-05-2.26409E-05-2.82660E-05-1.61725E-06-6.84651E-19-2.46373E-18
 -1      3903 9.06510E-05-2.39941E-05-2.85687E-05-1.66546E-06 2.01739E-19-2.10457E-18
 -1      3904 9.11342E-05-2.43665E-05-2.86277E-05-1.43584E-06 1.35028E-18-2.01425E-18
 -1      3905 9.00577E-05-2.35456E-05-2.84888E-05-1.19736E-06-3.00420E-20-2.70346E-18
 -1      3906 9.16687E-05-2.47528E-05-2.86794E-05-1.27287E-06 1.43413E-18-1.76985E-18
 -1      3907 9.20721E-05-2.51014E-05-2.87120E-05-1.09077E-06 1.32609E-18-1.92749E-18
 -1      3908 9.11953E-05-2.43696E-05-2.86285E-05-8.86942E-07 1.51616E-18-2.83675E-18
 -1      3909 9.25064E-05-2.54502E-05-2.87397E-05-9.70084E-07 1.65010E-18-1.56799E-18
 -1      3910 9.28359E-05-2.57615E-05-2.87543E-05-8.24906E-07 1.09144E-18-8.70654E-19
 -1      3911 9.21380E-05-2.51301E-05-2.87091E-05-6.59525E-07 1.93604E-18-2.69793E-18
 -1      3912 9.31846E-05-2.60668E-05-2.87659E-05-7.32897E-07 2.65308E-19-7.55303E-19
 -1      3913 9.34491E-05-2.63375E-05-2.87685E-05-6.17475E-07 6.82053E-19-3.58936E-19
 -1      3914 9.28983E-05-2.58006E-05-2.87493E-05-4.89528E-07 1.33401E-18-2.25130E-18
 -1      3915 9.37247E-05-2.65979E-05-2.87695E-05-5.47948E-07 8.42476E-19-9.95450E-19
 -1      3916 9.39331E-05-2.68271E-05-2.87647E-05-4.56697E-07 7.54353E-19-8.22712E-19
 -1      3917 9.35050E-05-2.63801E-05-2.87624E-05-3.60198E-07 3.78033E-19-2.47080E-18
 -1      3918 9.41472E-05-2.70441E-05-2.87591E-05-4.04481E-07 2.84865E-19-9.76465E-19
 -1      3919 9.43083E-05-2.72338E-05-2.87500E-05-3.32880E-07 1.39489E-19-1.15085E-18
 -1      3920 9.39808E-05-2.68686E-05-2.87582E-05-2.62728E-07 7.22285E-19-1.91344E-18
 -1      3921 9.44718E-05-2.74108E-05-2.87409E-05-2.93880E-07-5.13662E-19-1.83181E-18
 -1      3922 9.45939E-05-2.75644E-05-2.87298E-05-2.38242E-07-1.20894E-19-2.04124E-18
 -1      3923 9.43475E-05-2.72714E-05-2.87437E-05-1.89251E-07-3.06014E-19-2.20288E-18
 -1      3924 9.47165E-05-2.77060E-05-2.87191E-05-2.09375E-07 5.88690E-20-2.79823E-18
 -1      3925 9.48070E-05-2.78280E-05-2.87075E-05-1.66639E-07 4.49265E-19-3.24703E-18
 -1      3926 9.46252E-05-2.75970E-05-2.87240E-05-1.34061E-07-4.28776E-19-2.87701E-18
 -1      3927 9.48971E-05-2.79392E-05-2.86964E-05-1.45526E-07 1.05080E-18-3.88313E-18
 -1      3928 9.49627E-05-2.80343E-05-2.86852E-05-1.13132E-07 8.46046E-19-2.93861E-18
 -1      3929 9.48313E-05-2.78553E-05-2.87023E-05-9.29037E-08 5.35913E-19-3.72235E-18
 -1      3930 9.50273E-05-2.81199E-05-2.86747E-05-9.79171E-08 6.48779E-19-3.22494E-18
 -1      3931 9.50736E-05-2.81926E-05-2.86644E-05-7.37285E-08-2.47776E-19-3.22698E-18
 -1      3932 9.49811E-05-2.80564E-05-2.86808E-05-6.25134E-08 7.39875E-19-3.72845E-18
 -1      3933 9.51186E-05-2.82574E-05-2.86549E-05-6.29562E-08-7.74531E-19-2.87308E-18
 -1      3934 9.51502E-05-2.83119E-05-2.86458E-05-4.51993E-08-1.18889E-18-2.60792E-18
 -1      3935 9.50871E-05-2.82102E-05-2.86607E-05-4.03513E-08-6.10427E-19-4.17074E-18
 -1      3936 9.51804E-05-2.83599E-05-2.86374E-05-3.77331E-08-8.67265E-19-2.98333E-18
 -1      3937 9.52010E-05-2.84000E-05-2.86296E-05-2.49561E-08-7.05148E-19-3.35948E-18
 -1      3938 9.51598E-05-2.83255E-05-2.86427E-05-2.44291E-08-9.55947E-19-2.65525E-18
 -1      3939 9.52203E-05-2.84348E-05-2.86223E-05-1.99637E-08 3.94599E-19-1.98221E-18
 -1      3940 9.52329E-05-2.84636E-05-2.86158E-05-1.10213E-08 1.01426E-18-1.81311E-18
 -1      3941 9.52076E-05-2.84103E-05-2.86270E-05-1.32019E-08 3.95043E-19-9.91842E-19
 -1      3942 9.52442E-05-2.84883E-05-2.86097E-05-7.65264E-09 5.43575E-19-1.58808E-18
 -1      3943 9.52513E-05-2.85087E-05-2.86041E-05-1.58112E-09 1.81429E-19-2.23369E-18
 -1      3944 9.52370E-05-2.84711E-05-2.86137E-05-5.57443E-09 8.05345E-19-1.39951E-18
 -1      3945 9.06389E-05-2.38587E-05-2.86367E-05 3.24968E-06 2.93437E-19-1.92439E-18
 -1      3946 9.01304E-05-2.34776E-05-2.85653E-05 3.62874E-06 8.20859E-19-1.42731E-18
 -1      3947 8.78756E-05-2.22545E-05-2.81406E-05 4.85503E-06 1.85637E-19-2.05500E-18
 -1      3948 8.71431E-05-2.19239E-05-2.79521E-05 5.40548E-06-7.11342E-19-1.91123E-18
 -1      3949 8.93725E-05-2.30455E-05-2.84453E-05 4.00006E-06 1.39500E-19-1.13236E-18
 -1      3950 8.87670E-05-2.26819E-05-2.83249E-05 4.45172E-06-6.16233E-20-1.79298E-18
 -1      3951 8.90758E-05-2.27758E-05-2.83855E-05 3.13183E-06 5.25014E-19-1.56914E-18
 -1      3952 8.60382E-05-2.15504E-05-2.76742E-05 5.99511E-06-1.84047E-18-1.87366E-18
 -1      3953 8.52651E-05-2.13412E-05-2.73927E-05 6.68598E-06-1.72918E-18-2.17046E-18
 -1      3954 8.54316E-05-2.09407E-05-2.75842E-05 4.72854E-06-1.49581E-18-2.28509E-18
 -1      3955 9.52577E-05-2.85373E-05-2.85946E-05-4.93957E-09 1.12354E-18-2.83458E-19
 -1      3956 9.52550E-05-2.85214E-05-2.85998E-05 2.89491E-09 1.92901E-18 8.78033E-19
 -1      3957 9.52582E-05-2.85349E-05-2.85960E-05-2.71797E-09 7.80338E-19 1.32566E-18
 -1      3958 9.17010E-05-2.46431E-05-2.87477E-05 2.60364E-06 5.10078E-21-2.79005E-18
 -1      3959 9.12629E-05-2.42762E-05-2.87100E-05 2.93248E-06 3.21333E-19-2.46637E-18
 -1      3960 9.04053E-05-2.36608E-05-2.85847E-05 2.56329E-06 7.30689E-19-1.98221E-18
 -1      3961 9.25395E-05-2.53609E-05-2.88016E-05 2.09061E-06-4.80207E-19-3.30577E-18
 -1      3962 9.21981E-05-2.50309E-05-2.87870E-05 2.36646E-06-1.77569E-19-3.41745E-18
 -1      3963 9.15688E-05-2.45455E-05-2.87072E-05 2.07536E-06 4.42603E-19-3.55172E-18
 -1      3964 9.32166E-05-2.59887E-05-2.88199E-05 1.63444E-06 5.69112E-19-3.20548E-18
 -1      3965 9.29430E-05-2.56976E-05-2.88197E-05 1.86766E-06-1.53118E-19-3.55512E-18
 -1      3966 9.24114E-05-2.52533E-05-2.87674E-05 1.65050E-06-2.27421E-19-3.73720E-18
 -1      3967 9.37524E-05-2.65331E-05-2.88146E-05 1.26219E-06 8.09333E-19-3.80319E-18
 -1      3968 9.35366E-05-2.62832E-05-2.88233E-05 1.45521E-06 7.51927E-19-3.39001E-18
 -1      3969 9.31341E-05-2.59170E-05-2.87928E-05 1.30039E-06 6.29276E-19-4.26450E-18
 -1      3970 9.41666E-05-2.69882E-05-2.87957E-05 9.58102E-07 1.09591E-18-3.73195E-18
 -1      3971 9.40009E-05-2.67796E-05-2.88092E-05 1.11571E-06 9.37470E-19-3.61188E-18
 -1      3972 9.36927E-05-2.64807E-05-2.87937E-05 1.00761E-06 1.06501E-18-4.07503E-18
 -1      3973 9.44827E-05-2.73620E-05-2.87699E-05 7.13271E-07 7.08364E-19-3.46290E-18
 -1      3974 9.43575E-05-2.71912E-05-2.87853E-05 8.40015E-07 1.24845E-18-3.54499E-18
 -1      3975 9.41248E-05-2.69513E-05-2.87799E-05 7.65929E-07 1.21363E-18-4.17884E-18
 -1      3976 9.47202E-05-2.76633E-05-2.87417E-05 5.19561E-07-5.31258E-19-3.50879E-18
 -1      3977 9.46271E-05-2.75261E-05-2.87572E-05 6.19772E-07 6.25199E-21-4.25856E-18
 -1      3978 9.44545E-05-2.73368E-05-2.87582E-05 5.70512E-07 3.59770E-19-4.30233E-18
 -1      3979 9.48955E-05-2.79021E-05-2.87137E-05 3.68997E-07-1.23320E-18-2.95873E-18
 -1      3980 9.48276E-05-2.77938E-05-2.87284E-05 4.46862E-07-1.11960E-18-3.27243E-18
 -1      3981 9.47022E-05-2.76469E-05-2.87332E-05 4.15524E-07-8.18382E-19-3.83973E-18
 -1      3982 9.50222E-05-2.80881E-05-2.86877E-05 2.54069E-07-8.43456E-19-2.15695E-18
 -1      3983 9.49737E-05-2.80040E-05-2.87009E-05 3.13502E-07-6.20889E-19-2.53638E-18
 -1      3984 9.48848E-05-2.78920E-05-2.87077E-05 2.94874E-07-1.35635E-18-2.72347E-18
 -1      3985 9.51116E-05-2.82305E-05-2.86646E-05 1.67982E-07-1.52335E-20-1.50246E-18
 -1      3986 9.50779E-05-2.81663E-05-2.86760E-05 2.12513E-07-3.20868E-19-1.87517E-18
 -1      3987 9.50166E-05-2.80825E-05-2.86836E-05 2.02701E-07-8.16458E-19-1.61669E-18
 -1      3988 9.51727E-05-2.83375E-05-2.86445E-05 1.04789E-07 8.95284E-19-1.84302E-18
 -1      3989 9.51502E-05-2.82895E-05-2.86543E-05 1.37498E-07 2.06337E-19-2.15489E-18
 -1      3990 9.51093E-05-2.82279E-05-2.86618E-05 1.33639E-07 5.73359E-19-8.72387E-19
 -1      3991 9.52129E-05-2.84164E-05-2.86277E-05 5.94263E-08 1.83183E-18-2.93555E-19
 -1      3992 9.51985E-05-2.83811E-05-2.86357E-05 8.29232E-08 1.35126E-18-1.44705E-18
 -1      3993 9.51726E-05-2.83369E-05-2.86428E-05 8.29663E-08 1.05886E-18-1.77454E-18
 -1      3994 9.52381E-05-2.84735E-05-2.86137E-05 2.79702E-08 1.93820E-18 7.93218E-19
 -1      3995 9.52293E-05-2.84482E-05-2.86203E-05 4.40114E-08 2.71428E-18 5.24765E-19
 -1      3996 9.52137E-05-2.84170E-05-2.86265E-05 4.65893E-08 1.46178E-18 7.58706E-19
 -1      3997 9.52503E-05-2.85086E-05-2.86037E-05 9.04548E-09 1.37781E-18 1.27125E-18
 -1      3998 9.52453E-05-2.84901E-05-2.86091E-05 1.98704E-08 1.48030E-18 7.83913E-19
 -1      3999 9.52371E-05-2.84699E-05-2.86144E-05 2.30845E-08 1.60943E-18 2.16619E-18
 -1      4000 9.52494E-05-2.85030E-05-2.86058E-05 9.09228E-09 1.78721E-18 1.86262E-18
 -1      4001 8.14874E-05-2.10212E-05-2.59905E-05 9.66256E-06-1.11510E-18-1.65129E-18
 -1      4002 8.08631E-05-2.14749E-05-2.54119E-05 1.10465E-05-9.91935E-19-1.37372E-18
 -1      4003 8.39110E-05-2.10691E-05-2.69865E-05 7.48290E-06-1.41875E-18-1.70677E-18
 -1      4004 8.31546E-05-2.10939E-05-2.65802E-05 8.42635E-06-1.24589E-18-1.59862E-18
 -1      4005 8.30567E-05-2.01226E-05-2.68786E-05 5.84141E-06-1.46146E-18-1.39889E-18
 -1      4006 8.56361E-05-2.05773E-05-2.78660E-05 9.09961E-06 1.56793E-19-2.74050E-18
 -1      4007 8.57008E-05-2.19786E-05-2.72824E-05 1.07855E-05 3.57076E-19-2.59938E-18
 -1      4008 8.23205E-05-2.06076E-05-2.64873E-05 1.10307E-05 4.68127E-19-2.89043E-18
 -1      4009 8.32447E-05-2.56411E-05-2.46623E-05 1.72401E-05 8.53677E-19-2.53069E-18
 -1      4010 7.54046E-05-1.97613E-05-2.38693E-05 1.33652E-05 8.31074E-19-3.09068E-18
 -1      4011 7.11984E-05-1.64300E-05-2.34772E-05 8.29082E-06 5.70902E-19-3.62050E-18
 -1      4012 9.52620E-05-2.85510E-05-2.85903E-05 5.92409E-09 1.05679E-18-2.17913E-18
 -1      4013 8.50127E-05-1.97646E-05-2.79107E-05-9.27667E-06 2.24288E-19-2.50168E-18
 -1      4014 8.78861E-05-2.13243E-05-2.85410E-05-9.46712E-06 2.50855E-19-2.45749E-18
 -1      4015 8.86281E-05-2.09881E-05-2.90116E-05-8.42249E-06 5.39625E-19-2.48728E-18
 -1      4016 8.01718E-05-2.31199E-05-2.43949E-05 1.43250E-05-4.44935E-19-7.97445E-19
 -1      4017 7.54610E-05-2.08256E-05-2.33650E-05 1.37425E-05-4.34530E-19-8.46633E-19
 -1      4018 7.97630E-05-2.19230E-05-2.48542E-05 1.26126E-05-8.29468E-19-1.75013E-18
 -1      4019 9.52630E-05-2.85608E-05-2.85868E-05-4.05856E-09 5.59746E-19-1.53646E-19
 -1      4020 9.52625E-05-2.85615E-05-2.85863E-05-7.81949E-09 5.13931E-19 4.26407E-19
 -1      4021 9.52626E-05-2.85505E-05-2.85905E-05-5.78523E-09 2.98111E-19 1.49667E-18
 -1      4022 9.52629E-05-2.85519E-05-2.85902E-05-1.80280E-09 6.24921E-19 3.33146E-19
 -1      4023 7.03521E-05-1.76803E-05-2.25901E-05 9.10071E-06-4.94267E-19 8.18489E-19
 -1      4024 8.02821E-05-1.45182E-05-2.81449E-05 1.13823E-07 4.14013E-19-3.46593E-18
 -1      4025 7.68555E-05-1.83339E-05-2.51628E-05-1.04795E-05-3.66699E-19-3.06391E-18
 -1      4026 7.98275E-05-1.81538E-05-2.65007E-05-8.67113E-06-2.59090E-20-2.79478E-18
 -1      4027 6.65352E-05-1.55346E-05-2.18904E-05 1.16760E-06-1.90616E-19 1.97000E-18
 -1      4028 6.58449E-05-1.54541E-05-2.14692E-05-4.45541E-06 8.24037E-20 1.16161E-18
 -1      4029 7.06494E-05-1.73681E-05-2.27558E-05-6.96664E-06 2.53780E-19 7.08894E-20
 -1      4030 7.11884E-05-1.69866E-05-2.31553E-05-9.13633E-06-3.90588E-19-3.70512E-18
 -1      4031 7.94996E-05-1.53494E-05-2.75235E-05 3.60517E-06 4.34352E-19-3.34673E-18
 -1      4032 8.08078E-05-1.62775E-05-2.76474E-05 5.23139E-06 2.80247E-19-3.11025E-18
 -1      4033 8.12284E-05-1.63029E-05-2.77934E-05-5.18321E-06 3.51903E-19-2.91047E-18
 -1      4034 7.96474E-05-1.53388E-05-2.76073E-05-3.41420E-06 3.60151E-19-3.13791E-18
 -1      4035 8.75085E-05-2.19276E-05-2.80713E-05 3.85388E-06-3.14784E-19-1.46064E-18
 -1      4036 7.51662E-05-1.90455E-05-2.40100E-05-8.96968E-06 6.41041E-19-7.30425E-19
 -1      4037 7.10276E-05-1.51858E-05-2.38314E-05-5.05445E-06-4.66009E-20-3.78884E-18
 -1      4038 9.52570E-05-2.85258E-05-2.85990E-05 3.30546E-10-1.58104E-19-2.02582E-18
 -1      4039 9.52601E-05-2.85400E-05-2.85944E-05 4.37344E-09 5.49305E-19-2.73730E-18
 -1      4040 7.75215E-05-1.97249E-05-2.46655E-05 1.00172E-05-6.96354E-19-7.23959E-19
 -1      4041 7.89920E-05-2.19348E-05-2.44267E-05 1.50250E-05 6.75185E-19-2.96230E-18
 -1      4042 8.60262E-05-1.80656E-05-2.91128E-05-6.31761E-06 7.76164E-19-2.59972E-18
 -1      4043 8.44950E-05-1.80341E-05-2.85027E-05-6.77514E-06 5.48865E-19-2.64516E-18
 -1      4044 8.00196E-05-1.94782E-05-2.58510E-05 7.45956E-06-1.09808E-18-5.20834E-19
 -1      4045 6.97431E-05-1.48633E-05-2.35388E-05 3.70300E-06 4.41293E-19-3.76241E-18
 -1      4046 6.88607E-05-1.45137E-05-2.33545E-05-7.54834E-07 1.68063E-19-3.86003E-18
 -1      4047 7.45598E-05-1.55321E-05-2.52499E-05-3.06548E-06 1.21690E-19-3.54086E-18
 -1      4048 7.39490E-05-1.60637E-05-2.47322E-05 5.56126E-06 4.71963E-19-3.43893E-18
 -1      4049 7.87460E-05-1.97781E-05-2.52267E-05 1.16035E-05 3.96732E-19-3.04745E-18
 -1      4050 9.52610E-05-2.85436E-05-2.85932E-05 3.25070E-09 1.21517E-18-1.34559E-18
 -1      4051 8.10629E-05-1.77592E-05-2.70802E-05 7.27613E-06 3.86244E-19-3.05570E-18
 -1      4052 8.26311E-05-1.78703E-05-2.77972E-05 7.12210E-06 3.71631E-19-3.06626E-18
 -1      4053 8.56559E-05-1.97366E-05-2.82391E-05 8.04355E-06 7.60460E-20-2.94567E-18
 -1      4054 8.11559E-05-1.78962E-05-2.71311E-05-7.69410E-06 1.33962E-20-2.70880E-18
 -1      4055 8.25499E-05-1.78142E-05-2.77633E-05-6.95228E-06 3.20982E-19-2.70258E-18
 -1      4056 9.52612E-05-2.85433E-05-2.85935E-05 1.17430E-09 3.84129E-19-7.45773E-19
 -1      4057 9.52608E-05-2.85409E-05-2.85943E-05 2.75933E-11-9.38137E-20-6.35962E-19
 -1      4058 9.52605E-05-2.85403E-05-2.85947E-05-1.83460E-09-6.78692E-19 4.83035E-19
 -1      4059 9.52585E-05-2.85292E-05-2.85981E-05 1.07743E-09-3.16375E-19-5.10185E-19
 -1      4060 7.88508E-05-1.47404E-05-2.74791E-05-7.82724E-07 4.30425E-19-3.49734E-18
 -1      4061 7.88128E-05-1.47879E-05-2.74532E-05 1.10422E-06 3.75602E-19-3.53994E-18
 -1      4062 7.80819E-05-1.53953E-05-2.68271E-05 2.75546E-06 3.93749E-19-3.45109E-18
 -1      4063 7.79820E-05-1.53186E-05-2.68626E-05-2.45805E-06 2.89632E-19-3.28757E-18
 -1      4064 7.42344E-05-1.83021E-05-2.39617E-05 7.84603E-06-6.60938E-19 6.43056E-19
 -1      4065 6.89411E-05-1.61098E-05-2.25464E-05 4.99663E-06-7.15132E-19 1.88424E-18
 -1      4066 7.08599E-05-1.64063E-05-2.33450E-05 1.05584E-06-7.22913E-19 1.45380E-18
 -1      4067 7.51270E-05-1.81084E-05-2.45299E-05 6.37228E-06-8.19312E-19 1.02227E-18
 -1      4068 7.78345E-05-1.61502E-05-2.63641E-05-5.89344E-06 8.05368E-20-2.95125E-18
 -1      4069 9.52537E-05-2.85146E-05-2.86024E-05-4.18088E-10 2.04490E-21-2.98974E-19
 -1      4070 8.71439E-05-2.17498E-05-2.80627E-05 2.62589E-06-3.33306E-19-1.87302E-18
 -1      4071 8.62072E-05-2.12868E-05-2.78557E-05 3.01600E-06-6.85217E-19-2.08361E-18
 -1      4072 7.76513E-05-1.85099E-05-2.53452E-05-3.83666E-06 3.44289E-19-1.41199E-18
 -1      4073 7.92433E-05-1.89108E-05-2.59240E-05-3.08656E-06 4.05253E-19-1.46255E-18
 -1      4074 8.11028E-05-1.93996E-05-2.64624E-05-2.61648E-06 6.19858E-19-1.53892E-18
 -1      4075 8.24818E-05-1.98394E-05-2.68878E-05-2.09214E-06 7.95266E-19-1.02674E-18
 -1      4076 7.96500E-05-1.84652E-05-2.61056E-05-9.26589E-07 5.31212E-19-1.07193E-19
 -1      4077 8.39032E-05-2.03447E-05-2.72587E-05-1.77106E-06 9.56631E-19-1.44135E-18
 -1      4078 8.49963E-05-2.08051E-05-2.75495E-05-1.39965E-06 4.20479E-19-1.33181E-18
 -1      4079 8.28703E-05-1.96306E-05-2.70202E-05-5.13508E-07 7.99616E-19-1.16672E-18
 -1      4080 8.59408E-05-2.11553E-05-2.77697E-05-3.67580E-07-7.04209E-19-2.27064E-18
 -1      4081 8.68930E-05-2.16431E-05-2.79779E-05-1.77307E-07-9.44080E-19-2.18379E-18
 -1      4082 8.95286E-05-2.32173E-05-2.84360E-05-6.15822E-07-2.02849E-19-1.41478E-18
 -1      4083 9.01990E-05-2.36675E-05-2.85259E-05-4.65306E-07 1.05295E-18-9.46234E-19
 -1      4084 9.08255E-05-2.41053E-05-2.85979E-05-4.22815E-07 1.21951E-18-1.04456E-18
 -1      4085 9.13515E-05-2.45140E-05-2.86512E-05-3.16536E-07 1.28418E-18-1.42887E-18
 -1      4086 9.04789E-05-2.38165E-05-2.85593E-05 1.53650E-07 1.17183E-18-4.29919E-19
 -1      4087 9.18485E-05-2.49116E-05-2.86922E-05-2.94007E-07 2.07521E-18-1.85665E-18
 -1      4088 9.22733E-05-2.52729E-05-2.87214E-05-2.21085E-07 2.20326E-18-1.91263E-18
 -1      4089 9.15794E-05-2.46679E-05-2.86702E-05 1.37368E-07 1.65979E-18-4.75191E-19
 -1      4090 9.26741E-05-2.56185E-05-2.87421E-05-2.00757E-07 1.80678E-18-2.47096E-18
 -1      4091 9.30165E-05-2.59355E-05-2.87544E-05-1.47508E-07 1.20471E-18-2.47008E-18
 -1      4092 9.24561E-05-2.53851E-05-2.87287E-05 1.47763E-07 1.62823E-18-1.41158E-18
 -1      4093 9.33331E-05-2.62315E-05-2.87612E-05-1.39289E-07 5.72714E-19-1.99825E-18
 -1      4094 9.36040E-05-2.65009E-05-2.87627E-05-9.92783E-08 9.66294E-19-1.66223E-18
 -1      4095 9.31682E-05-2.60387E-05-2.87561E-05 1.29542E-07 1.04699E-18-2.43087E-18
 -1      4096 9.38505E-05-2.67486E-05-2.87606E-05-9.67941E-08 6.85452E-19-1.58428E-18
 -1      4097 9.40609E-05-2.69724E-05-2.87554E-05-6.64221E-08 6.59915E-19-1.79890E-18
 -1      4098 9.37240E-05-2.65908E-05-2.87607E-05 1.08243E-07 9.99507E-19-1.45378E-18
 -1      4099 9.42501E-05-2.71757E-05-2.87482E-05-6.70755E-08 1.38824E-19-1.72334E-18
 -1      4100 9.44107E-05-2.73580E-05-2.87393E-05-4.39143E-08-6.71722E-19-1.91718E-18
 -1      4101 9.41540E-05-2.70485E-05-2.87514E-05 8.69135E-08-2.12618E-19-1.56605E-18
 -1      4102 9.45536E-05-2.75218E-05-2.87294E-05-4.61753E-08-9.36731E-19-1.73647E-18
 -1      4103 9.46739E-05-2.76675E-05-2.87188E-05-2.85263E-08-5.53605E-19-1.84340E-18
 -1      4104 9.44815E-05-2.74207E-05-2.87343E-05 6.72508E-08-5.49770E-19-1.57066E-18
 -1      4105 9.47798E-05-2.77972E-05-2.87080E-05-3.14355E-08-7.08152E-19-2.69745E-18
 -1      4106 9.48681E-05-2.79114E-05-2.86970E-05-1.80432E-08-1.61215E-19-3.39522E-18
 -1      4107 9.47266E-05-2.77180E-05-2.87135E-05 5.01998E-08-1.27914E-18-1.29003E-18
 -1      4108 9.49448E-05-2.80122E-05-2.86862E-05-2.10322E-08 7.46026E-19-3.87813E-18
 -1      4109 9.50081E-05-2.81002E-05-2.86757E-05-1.09402E-08 7.46145E-19-3.95392E-18
 -1      4110 9.49064E-05-2.79512E-05-2.86919E-05 3.60951E-08-4.13343E-19-2.99367E-18
 -1      4111 9.50624E-05-2.81771E-05-2.86657E-05-1.37021E-08 3.02239E-19-4.03757E-18
 -1      4112 9.51064E-05-2.82437E-05-2.86561E-05-6.16838E-09-6.24827E-19-3.44165E-18
 -1      4113 9.50352E-05-2.81309E-05-2.86710E-05 2.48665E-08 2.80307E-19-3.40993E-18
 -1      4114 9.51435E-05-2.83012E-05-2.86471E-05-8.56219E-09-8.91541E-19-1.92700E-18
 -1      4115 9.51731E-05-2.83506E-05-2.86387E-05-2.99982E-09-2.70611E-19-1.34782E-18
 -1      4116 9.51249E-05-2.82669E-05-2.86519E-05 1.62139E-08 3.63643E-19-2.17879E-18
 -1      4117 9.51974E-05-2.83928E-05-2.86308E-05-4.95791E-09 4.97630E-19-1.24999E-18
 -1      4118 9.52163E-05-2.84287E-05-2.86236E-05-9.08564E-10 9.72080E-19-1.16293E-18
 -1      4119 9.51851E-05-2.83677E-05-2.86350E-05 9.73594E-09 1.03117E-19-1.42150E-18
 -1      4120 9.52315E-05-2.84593E-05-2.86169E-05-2.47518E-09 8.70252E-19-1.89815E-18
 -1      4121 9.52429E-05-2.84846E-05-2.86107E-05 3.17632E-10 1.06208E-18-1.79857E-18
 -1      4122 9.52235E-05-2.84412E-05-2.86205E-05 5.01111E-09 3.93462E-19-1.80246E-18
 -1      4123 9.14344E-05-2.45318E-05-2.86855E-05 1.45161E-06 7.63106E-19-2.58400E-18
 -1      4124 9.09318E-05-2.41348E-05-2.86388E-05 1.68310E-06 1.01582E-18-1.71607E-18
 -1      4125 7.65359E-05-1.55547E-05-2.61920E-05-3.04429E-06 1.66713E-19-3.37979E-18
 -1      4126 7.34993E-05-1.76174E-05-2.40012E-05-4.98745E-06 1.68037E-19-3.52472E-19
 -1      4127 8.50218E-05-2.07177E-05-2.75855E-05 2.03735E-06-5.36614E-19-1.86482E-18
 -1      4128 8.38012E-05-2.02469E-05-2.72831E-05 2.38245E-06-9.05087E-19-1.13236E-18
 -1      4129 9.52584E-05-2.85344E-05-2.85962E-05-2.81742E-09 6.89089E-19 7.47256E-19
 -1      4130 9.52544E-05-2.85154E-05-2.86021E-05 2.97995E-09 9.81556E-19 8.66182E-19
 -1      4131 9.52589E-05-2.85345E-05-2.85962E-05-1.59557E-09 6.25167E-20 7.47245E-19
 -1      4132 7.89474E-05-1.86716E-05-2.59151E-05 2.89857E-06-2.78075E-19 2.95878E-19
 -1      4133 7.72179E-05-1.82745E-05-2.52980E-05 3.56070E-06-3.75815E-19 8.99822E-19
 -1      4134 9.23365E-05-2.53030E-05-2.87393E-05 8.32103E-07 9.23871E-19-3.01109E-18
 -1      4135 9.19377E-05-2.49425E-05-2.87173E-05 9.81782E-07 9.69306E-19-2.08869E-18
 -1      4136 9.30648E-05-2.59646E-05-2.87673E-05 6.58039E-07 9.28133E-19-3.60276E-18
 -1      4137 9.27391E-05-2.56565E-05-2.87598E-05 7.93822E-07 6.26325E-19-3.33907E-18
 -1      4138 9.36415E-05-2.65262E-05-2.87718E-05 5.10466E-07 1.18589E-18-3.86455E-18
 -1      4139 9.33858E-05-2.62662E-05-2.87740E-05 6.25939E-07 1.11762E-18-3.87041E-18
 -1      4140 9.40895E-05-2.69934E-05-2.87617E-05 3.87802E-07 4.40151E-19-3.72130E-18
 -1      4141 9.38925E-05-2.67784E-05-2.87698E-05 4.83105E-07 6.68600E-19-3.87836E-18
 -1      4142 9.44318E-05-2.73747E-05-2.87435E-05 2.88001E-07-3.53450E-19-3.45669E-18
 -1      4143 9.42825E-05-2.72001E-05-2.87545E-05 3.64936E-07 1.19484E-19-3.56472E-18
 -1      4144 9.46887E-05-2.76801E-05-2.87215E-05 2.08547E-07-1.22263E-18-2.76165E-18
 -1      4145 9.45776E-05-2.75409E-05-2.87336E-05 2.69432E-07-4.92457E-19-3.08284E-18
 -1      4146 9.48778E-05-2.79205E-05-2.86986E-05 1.46629E-07-1.40177E-18-1.94785E-18
 -1      4147 9.47968E-05-2.78115E-05-2.87106E-05 1.93895E-07-1.52638E-18-2.49235E-18
 -1      4148 9.50141E-05-2.81063E-05-2.86766E-05 9.93905E-08-4.83909E-19-2.10709E-18
 -1      4149 9.49563E-05-2.80225E-05-2.86878E-05 1.35382E-07-1.17686E-18-2.46708E-18
 -1      4150 9.51097E-05-2.82476E-05-2.86565E-05 6.41265E-08 1.25972E-18-1.96230E-18
 -1      4151 9.50696E-05-2.81841E-05-2.86665E-05 9.09863E-08 2.75413E-19-1.86389E-18
 -1      4152 9.51746E-05-2.83528E-05-2.86387E-05 3.84087E-08 4.78788E-19-7.07976E-19
 -1      4153 9.51478E-05-2.83058E-05-2.86474E-05 5.80105E-08 1.03251E-18-8.60561E-19
 -1      4154 9.52168E-05-2.84296E-05-2.86235E-05 2.02242E-08 3.44307E-19 1.13505E-19
 -1      4155 9.51997E-05-2.83956E-05-2.86309E-05 3.40797E-08 2.78281E-19-7.15638E-19
 -1      4156 8.23117E-05-1.96962E-05-2.69024E-05 2.38463E-06-5.26184E-19-3.70906E-19
 -1      4157 8.08535E-05-1.92672E-05-2.64659E-05 2.89564E-06 1.56194E-19 1.44970E-19
 -1      4158 7.73276E-05-1.70062E-05-2.58660E-05 7.53421E-06 5.17285E-19-3.15960E-18
 -1      4159 7.94660E-05-1.86947E-05-2.60607E-05 9.52760E-06 4.86488E-19-3.03800E-18
 -1      4160 9.52530E-05-2.85127E-05-2.86032E-05-7.11396E-10 2.69669E-19-1.13265E-18
 -1      4161 9.02939E-05-2.36859E-05-2.85565E-05 1.25304E-06 7.83738E-19-1.46043E-18
 -1      4162 8.96601E-05-2.32353E-05-2.84755E-05 1.43902E-06 7.13702E-19-1.14571E-18
 -1      4163 7.39681E-05-1.71234E-05-2.42925E-05-2.09844E-06-2.24695E-19-5.18278E-20
 -1      4164 7.57216E-05-1.54284E-05-2.58780E-05 3.45532E-06 3.64595E-19-3.47259E-18
 -1      4165 8.88641E-05-2.27443E-05-2.83629E-05 1.82267E-06 4.82817E-19-1.94497E-18
 -1      4166 8.81410E-05-2.22693E-05-2.82358E-05 2.07182E-06-1.20502E-19-1.72027E-18
 -1      4167 8.72677E-05-2.17102E-05-2.80616E-05 1.19642E-06-5.05973E-19-2.55026E-18
 -1      4168 8.90470E-05-2.27961E-05-2.83630E-05 4.24490E-07-9.75473E-20-1.35081E-18
 -1      4169 8.78853E-05-2.22087E-05-2.81688E-05-5.38339E-07-6.43342E-19-2.10274E-18
 -1      4170 8.87102E-05-2.26785E-05-2.83106E-05-3.58880E-07-7.14648E-19-2.24104E-18
 -1      4171 9.52492E-05-2.85012E-05-2.86061E-05 1.53612E-09 8.30175E-19-1.47012E-18
 -1      4172 7.51774E-05-1.48439E-05-2.58046E-05 6.75270E-07 3.63998E-19-3.66045E-18
 -1      4173 9.52564E-05-2.85211E-05-2.86006E-05 9.04971E-10-2.56237E-19-4.23401E-19
 -1      4174 9.52486E-05-2.85012E-05-2.86063E-05 5.32558E-09 1.62983E-18-1.67731E-19
 -1      4175 9.52487E-05-2.85017E-05-2.86061E-05 6.60789E-09 1.70144E-18 1.40368E-18
 -1      4176 9.52436E-05-2.84860E-05-2.86102E-05 1.20445E-08 1.54791E-18 1.67848E-18
 -1      4177 9.52319E-05-2.84599E-05-2.86168E-05 1.68104E-08 1.10304E-18 8.52212E-20
 -1      4178 7.50838E-05-1.73106E-05-2.47479E-05 1.37389E-06-4.94942E-19 9.95977E-19
 -1      4179 8.52070E-05-2.06472E-05-2.76232E-05 7.27159E-07-4.23047E-19-2.49431E-18
 -1      4180 9.03911E-05-2.37427E-05-2.85555E-05 6.24393E-07 1.04142E-18-9.16985E-19
 -1      4181 9.52464E-05-2.84950E-05-2.86079E-05 2.92965E-09 1.40816E-18-1.38824E-18
 -1      4182 9.15096E-05-2.45996E-05-2.86693E-05 5.71885E-07 1.25249E-18-1.16852E-18
 -1      4183 9.52357E-05-2.84674E-05-2.86148E-05 1.91806E-08 1.59147E-18 1.54317E-18
 -1      4184 9.10433E-05-2.42356E-05-2.86288E-05 5.91495E-07 9.51383E-19-8.33085E-19
 -1      4185 9.52399E-05-2.84784E-05-2.86122E-05 5.72546E-09 1.67829E-18-1.55148E-18
 -3
    1PSTEP                         4           1           1          
  100CL  101 1.000000000        4185                     0    1           1
 -4  ERROR       1    1
 -5  STR(%)      1    1    0    0
 -1         1 1.27358E+01
 -1         2 2.51332E+01
 -1         3 4.21216E-04
 -1         4 4.91382E-04
 -1         5 1.32597E+01
 -1         6 1.24151E+01
 -1         7 1.24151E+01
 -1         8 3.56032E+00
 -1         9 1.98893E+00
 -1        10 1.46811E+00
 -1        11 1.17486E+00
 -1        12 9.42780E-01
 -1        13 7.45324E-01
 -1        14 5.80975E-01
 -1        15 5.48749E-01
 -1        16 7.10385E-01
 -1        17 9.03432E-01
 -1        18 1.16145E+00
 -1        19 1.48116E+00
 -1        20 2.01590E+00
 -1        21 3.40118E+00
 -1        22 8.07306E+00
 -1        23 1.24151E+01
 -1        24 3.90742E+00
 -1        25 2.65455E+00
 -1        26 1.59254E+00
 -1        27 9.90911E-01
 -1        28 6.90176E-01
 -1        29 8.26126E-01
 -1        30 9.26115E-01
 -1        31 9.33333E-01
 -1        32 9.33333E-01
 -1        33 1.32958E+00
 -1        34 1.97376E+00
 -1        35 3.09357E+00
 -1        36 3.56321E+00
 -1        37 3.58398E+00
 -1        38 3.58398E+00
 -1        39 3.28158E+00
 -1        40 2.23651E+00
 -1        41 1.50432E+00
 -1        42 1.17123E+00
 -1        43 1.17123E+00
 -1        44 1.11019E+00
 -1        45 1.11019E+00
 -1        46 1.00828E+00
 -1        47 8.40240E-01
 -1        48 6.70044E-01
 -1        49 5.28405E-01
 -1        50 4.37171E-01
 -1        51 3.69143E-01
 -1        52 3.00186E-01
 -1        53 2.36418E-01
 -1        54 1.80883E-01
 -1        55 1.34583E-01
 -1        56 1.01877E-01
 -1        57 8.53864E-02
 -1        58 6.97727E-02
 -1        59 5.57386E-02
 -1        60 4.35842E-02
 -1        61 3.33506E-02
 -1        62 2.49234E-02
 -1        63 2.00707E-02
 -1        64 1.63951E-02
 -1        65 1.30039E-02
 -1        66 9.93703E-03
 -1        67 7.17576E-03
 -1        68 4.99620E-03
 -1        69 4.32410E-03
 -1        70 3.42883E-03
 -1        71 2.46965E-03
 -1        72 1.32597E+01
 -1        73 3.15503E+00
 -1        74 2.00629E+00
 -1        75 1.50123E+00
 -1        76 1.18604E+00
 -1        77 9.18559E-01
 -1        78 9.03374E-01
 -1        79 1.12112E+00
 -1        80 1.25541E+00
 -1        81 1.57728E+00
 -1        82 1.60169E+00
 -1        83 2.06415E+00
 -1        84 2.90442E+00
 -1        85 3.98306E+00
 -1        86 4.51527E+00
 -1        87 4.51527E+00
 -1        88 4.35497E+00
 -1        89 2.86564E+00
 -1        90 1.71979E+00
 -1        91 1.34321E+00
 -1        92 1.55790E+00
 -1        93 1.56336E+00
 -1        94 1.56336E+00
 -1        95 1.39773E+00
 -1        96 1.17702E+00
 -1        97 9.75324E-01
 -1        98 7.73079E-01
 -1        99 5.90222E-01
 -1       100 4.35431E-01
 -1       101 3.30970E-01
 -1       102 2.54216E-01
 -1       103 1.90641E-01
 -1       104 1.39588E-01
 -1       105 9.96241E-02
 -1       106 6.90377E-02
 -1       107 5.02234E-02
 -1       108 4.17077E-02
 -1       109 3.38852E-02
 -1       110 2.69710E-02
 -1       111 2.10286E-02
 -1       112 1.81540E-02
 -1       113 1.57234E-02
 -1       114 1.31965E-02
 -1       115 1.07095E-02
 -1       116 8.31188E-03
 -1       117 6.26742E-03
 -1       118 4.29861E-03
 -1       119 3.39926E-03
 -1       120 1.84731E-03
 -1       121 8.59184E-04
 -1       122 8.44297E-04
 -1       123 5.11662E-04
 -1       124 2.18879E-04
 -1       125 4.16191E-04
 -1       126 5.40327E-04
 -1       127 6.03943E-04
 -1       128 6.18912E-04
 -1       129 6.18912E-04
 -1       130 6.01528E-04
 -1       131 5.31427E-04
 -1       132 4.10244E-04
 -1       133 2.12507E-04
 -1       134 5.21143E-04
 -1       135 1.11485E-03
 -1       136 1.42919E-03
 -1       137 2.51332E+01
 -1       138 4.70960E+01
 -1       139 4.70960E+01
 -1       140 2.04082E+01
 -1       141 1.29469E+01
 -1       142 1.38775E+01
 -1       143 1.38775E+01
 -1       144 1.36537E+01
 -1       145 1.28140E+01
 -1       146 1.43173E+01
 -1       147 3.75170E+01
 -1       148 3.75170E+01
 -1       149 2.51113E+01
 -1       150 2.46212E+01
 -1       151 2.46130E+01
 -1       152 2.56597E+01
 -1       153 3.56168E+01
 -1       154 3.56168E+01
 -1       155 1.34970E+01
 -1       156 1.21225E+01
 -1       157 1.19766E+01
 -1       158 1.19940E+01
 -1       159 1.19940E+01
 -1       160 1.99366E+01
 -1       161 4.75537E+01
 -1       162 4.75537E+01
 -1       163 2.45657E+01
 -1       164 5.79726E+00
 -1       165 2.45402E+00
 -1       166 1.71742E+00
 -1       167 1.32115E+00
 -1       168 1.04658E+00
 -1       169 8.27656E-01
 -1       170 6.42317E-01
 -1       171 4.95650E-01
 -1       172 6.07489E-01
 -1       173 7.87698E-01
 -1       174 1.02665E+00
 -1       175 1.32334E+00
 -1       176 1.73890E+00
 -1       177 2.44927E+00
 -1       178 3.77055E+00
 -1       179 1.32597E+01
 -1       180 3.90742E+00
 -1       181 2.65455E+00
 -1       182 1.59254E+00
 -1       183 9.90911E-01
 -1       184 6.90176E-01
 -1       185 6.34814E-01
 -1       186 8.26126E-01
 -1       187 9.26115E-01
 -1       188 9.33333E-01
 -1       189 9.22494E-01
 -1       190 1.32958E+00
 -1       191 2.04440E+00
 -1       192 3.09357E+00
 -1       193 3.56321E+00
 -1       194 3.58398E+00
 -1       195 3.28158E+00
 -1       196 2.23651E+00
 -1       197 1.50432E+00
 -1       198 1.06846E+00
 -1       199 1.17123E+00
 -1       200 1.06669E+00
 -1       201 1.11019E+00
 -1       202 1.00828E+00
 -1       203 8.40240E-01
 -1       204 7.02875E-01
 -1       205 6.06238E-01
 -1       206 5.01053E-01
 -1       207 3.95607E-01
 -1       208 3.00186E-01
 -1       209 2.36418E-01
 -1       210 1.84937E-01
 -1       211 1.42679E-01
 -1       212 1.07315E-01
 -1       213 8.53864E-02
 -1       214 6.97727E-02
 -1       215 5.57386E-02
 -1       216 4.35842E-02
 -1       217 3.33506E-02
 -1       218 2.55103E-02
 -1       219 2.00707E-02
 -1       220 1.63951E-02
 -1       221 1.30039E-02
 -1       222 9.93703E-03
 -1       223 7.54270E-03
 -1       224 5.49151E-03
 -1       225 4.32410E-03
 -1       226 3.42883E-03
 -1       227 2.46965E-03
 -1       228 3.15503E+00
 -1       229 2.00629E+00
 -1       230 1.50123E+00
 -1       231 1.18604E+00
 -1       232 9.18559E-01
 -1       233 9.03374E-01
 -1       234 8.60844E-01
 -1       235 1.12112E+00
 -1       236 1.25541E+00
 -1       237 1.57728E+00
 -1       238 1.60169E+00
 -1       239 2.06415E+00
 -1       240 2.90442E+00
 -1       241 3.98306E+00
 -1       242 4.51527E+00
 -1       243 4.35497E+00
 -1       244 2.86564E+00
 -1       245 1.71979E+00
 -1       246 1.20334E+00
 -1       247 1.34321E+00
 -1       248 1.55790E+00
 -1       249 1.56336E+00
 -1       250 1.39773E+00
 -1       251 1.17702E+00
 -1       252 9.78339E-01
 -1       253 7.98458E-01
 -1       254 6.26719E-01
 -1       255 4.75518E-01
 -1       256 3.49528E-01
 -1       257 2.54216E-01
 -1       258 1.90641E-01
 -1       259 1.39588E-01
 -1       260 1.02073E-01
 -1       261 7.28410E-02
 -1       262 5.05068E-02
 -1       263 4.17077E-02
 -1       264 3.38852E-02
 -1       265 2.69710E-02
 -1       266 2.10286E-02
 -1       267 1.81540E-02
 -1       268 1.57234E-02
 -1       269 1.31965E-02
 -1       270 1.07095E-02
 -1       271 8.31188E-03
 -1       272 6.26742E-03
 -1       273 4.35314E-03
 -1       274 3.39926E-03
 -1       275 1.95694E-03
 -1       276 9.10953E-04
 -1       277 8.94837E-04
 -1       278 6.60954E-04
 -1       279 6.85913E-04
 -1       280 9.36280E-04
 -1       281 1.07367E-03
 -1       282 1.12282E-03
 -1       283 1.12282E-03
 -1       284 1.12184E-03
 -1       285 1.06472E-03
 -1       286 9.30442E-04
 -1       287 6.80791E-04
 -1       288 6.43272E-04
 -1       289 6.43272E-04
 -1       290 1.40827E-03
 -1       291 3.00583E+01
 -1       292 2.84659E+01
 -1       293 4.70960E+01
 -1       294 2.15824E+01
 -1       295 1.15415E+01
 -1       296 1.29469E+01
 -1       297 1.38775E+01
 -1       298 1.36537E+01
 -1       299 1.28140E+01
 -1       300 1.17193E+01
 -1       301 1.43173E+01
 -1       302 3.75170E+01
 -1       303 3.53648E+01
 -1       304 2.63811E+01
 -1       305 2.63811E+01
 -1       306 2.54330E+01
 -1       307 3.49669E+01
 -1       308 3.56168E+01
 -1       309 1.34970E+01
 -1       310 1.27358E+01
 -1       311 1.21225E+01
 -1       312 1.18034E+01
 -1       313 1.19766E+01
 -1       314 1.19940E+01
 -1       315 1.11186E+01
 -1       316 2.20555E+01
 -1       317 4.75537E+01
 -1       318 2.88101E+01
 -1       319 3.00583E+01
 -1       320 1.29465E+00
 -1       321 2.45327E+00
 -1       322 9.56302E-01
 -1       323 7.82532E-01
 -1       324 6.30831E-01
 -1       325 4.88277E-01
 -1       326 4.57058E-01
 -1       327 5.96538E-01
 -1       328 7.66647E-01
 -1       329 9.46213E-01
 -1       330 1.14149E+00
 -1       331 1.43050E+00
 -1       332 1.51761E+00
 -1       333 1.76533E+00
 -1       334 1.36965E+00
 -1       335 1.10298E+00
 -1       336 5.72485E-01
 -1       337 4.54997E-01
 -1       338 4.98986E-01
 -1       339 5.36424E-01
 -1       340 5.50941E-01
 -1       341 5.92548E-01
 -1       342 6.29393E-01
 -1       343 9.56058E-01
 -1       344 1.46199E+00
 -1       345 1.87377E+00
 -1       346 2.20987E+00
 -1       347 2.10882E+00
 -1       348 2.24831E+00
 -1       349 1.98029E+00
 -1       350 1.51357E+00
 -1       351 9.81909E-01
 -1       352 6.12858E-01
 -1       353 6.14521E-01
 -1       354 7.77305E-01
 -1       355 8.40667E-01
 -1       356 7.97504E-01
 -1       357 7.10452E-01
 -1       358 6.33535E-01
 -1       359 5.52377E-01
 -1       360 4.59168E-01
 -1       361 3.66894E-01
 -1       362 2.83113E-01
 -1       363 2.11383E-01
 -1       364 1.52630E-01
 -1       365 1.07315E-01
 -1       366 7.86527E-02
 -1       367 5.65695E-02
 -1       368 4.23092E-02
 -1       369 3.54032E-02
 -1       370 2.88900E-02
 -1       371 2.30137E-02
 -1       372 1.78759E-02
 -1       373 1.35874E-02
 -1       374 1.14713E-02
 -1       375 9.36531E-03
 -1       376 7.29110E-03
 -1       377 5.49151E-03
 -1       378 3.97816E-03
 -1       379 2.83546E-03
 -1       380 2.17751E-03
 -1       381 6.99001E-01
 -1       382 6.10512E-01
 -1       383 6.96564E-01
 -1       384 8.30999E-01
 -1       385 9.20894E-01
 -1       386 9.06061E-01
 -1       387 7.97841E-01
 -1       388 8.11821E-01
 -1       389 1.27765E+00
 -1       390 2.05107E+00
 -1       391 2.27584E+00
 -1       392 2.38417E+00
 -1       393 2.53244E+00
 -1       394 2.61665E+00
 -1       395 2.02019E+00
 -1       396 1.12581E+00
 -1       397 7.95159E-01
 -1       398 1.03361E+00
 -1       399 1.15405E+00
 -1       400 1.17430E+00
 -1       401 1.12468E+00
 -1       402 1.00857E+00
 -1       403 8.88276E-01
 -1       404 7.42063E-01
 -1       405 5.94970E-01
 -1       406 4.61061E-01
 -1       407 3.46648E-01
 -1       408 2.53188E-01
 -1       409 1.86539E-01
 -1       410 1.39555E-01
 -1       411 1.02073E-01
 -1       412 7.28410E-02
 -1       413 5.05068E-02
 -1       414 3.37791E-02
 -1       415 2.68105E-02
 -1       416 2.26269E-02
 -1       417 1.85708E-02
 -1       418 1.48255E-02
 -1       419 1.14788E-02
 -1       420 9.38555E-03
 -1       421 7.85928E-03
 -1       422 6.39978E-03
 -1       423 5.14831E-03
 -1       424 3.91448E-03
 -1       425 2.80576E-03
 -1       426 1.95694E-03
 -1       427 9.91232E-04
 -1       428 1.75549E-03
 -1       429 1.75549E-03
 -1       430 1.23462E-03
 -1       431 1.40801E-03
 -1       432 1.47126E-03
 -1       433 1.47126E-03
 -1       434 1.46550E-03
 -1       435 1.46550E-03
 -1       436 1.40069E-03
 -1       437 1.23668E-03
 -1       438 9.90437E-04
 -1       439 1.70547E-03
 -1       440 2.84659E+01
 -1       441 3.00583E+01
 -1       442 2.41600E+01
 -1       443 1.64273E+01
 -1       444 9.49113E+00
 -1       445 1.29078E+00
 -1       446 9.52372E+00
 -1       447 1.09007E+01
 -1       448 1.00897E+01
 -1       449 8.61237E+00
 -1       450 6.77319E+00
 -1       451 1.29884E+01
 -1       452 2.28520E+01
 -1       453 2.58728E+01
 -1       454 3.74815E+01
 -1       455 3.74815E+01
 -1       456 2.65919E+01
 -1       457 2.24737E+01
 -1       458 1.25460E+01
 -1       459 6.52316E+00
 -1       460 8.94078E+00
 -1       461 1.04786E+01
 -1       462 1.04319E+01
 -1       463 9.48289E+00
 -1       464 6.79363E+00
 -1       465 9.49287E+00
 -1       466 1.68364E+01
 -1       467 2.88101E+01
 -1       468 2.78577E+01
 -1       469 7.77545E+00
 -1       470 2.91120E+01
 -1       471 5.21711E+00
 -1       472 1.24112E+01
 -1       473 1.15190E+00
 -1       474 6.35015E-01
 -1       475 7.43869E-01
 -1       476 3.12919E-01
 -1       477 4.05055E-01
 -1       478 6.31046E-01
 -1       479 7.77239E-01
 -1       480 8.90473E-01
 -1       481 1.23301E+00
 -1       482 6.64871E-01
 -1       483 7.91603E-01
 -1       484 5.06522E+00
 -1       485 6.35331E-01
 -1       486 6.38019E-01
 -1       487 6.92426E-01
 -1       488 7.49738E-01
 -1       489 7.69279E-01
 -1       490 1.00411E+00
 -1       491 1.14622E+00
 -1       492 1.37205E+00
 -1       493 1.55149E+00
 -1       494 1.88856E+00
 -1       495 2.42686E+00
 -1       496 2.43557E+00
 -1       497 2.10955E+00
 -1       498 1.55691E+00
 -1       499 1.40737E+00
 -1       500 1.18404E+00
 -1       501 1.05849E+00
 -1       502 8.97188E-01
 -1       503 8.97545E-01
 -1       504 8.32256E-01
 -1       505 7.38228E-01
 -1       506 6.70236E-01
 -1       507 5.92760E-01
 -1       508 5.02123E-01
 -1       509 4.10613E-01
 -1       510 3.25729E-01
 -1       511 2.51349E-01
 -1       512 1.88862E-01
 -1       513 1.38106E-01
 -1       514 9.80449E-02
 -1       515 6.72412E-02
 -1       516 4.41482E-02
 -1       517 2.91775E-02
 -1       518 2.00107E-02
 -1       519 1.77154E-02
 -1       520 1.51120E-02
 -1       521 1.24583E-02
 -1       522 9.91851E-03
 -1       523 7.73561E-03
 -1       524 6.49840E-03
 -1       525 5.15014E-03
 -1       526 3.86053E-03
 -1       527 2.83546E-03
 -1       528 2.14584E+01
 -1       529 8.79206E-01
 -1       530 1.03183E+00
 -1       531 1.17092E+00
 -1       532 1.23498E+00
 -1       533 1.48680E+00
 -1       534 1.56385E+00
 -1       535 1.93724E+00
 -1       536 2.27584E+00
 -1       537 3.70864E+00
 -1       538 2.82700E+00
 -1       539 3.08305E+00
 -1       540 1.98230E+00
 -1       541 1.77916E+00
 -1       542 1.57493E+00
 -1       543 1.25514E+00
 -1       544 1.27952E+00
 -1       545 1.19465E+00
 -1       546 1.12252E+00
 -1       547 1.03699E+00
 -1       548 8.96748E-01
 -1       549 7.47886E-01
 -1       550 6.04159E-01
 -1       551 4.78994E-01
 -1       552 3.69678E-01
 -1       553 2.78334E-01
 -1       554 2.04523E-01
 -1       555 1.46488E-01
 -1       556 1.01930E-01
 -1       557 6.84752E-02
 -1       558 4.79665E-02
 -1       559 3.39020E-02
 -1       560 2.68105E-02
 -1       561 2.26269E-02
 -1       562 1.85708E-02
 -1       563 1.48255E-02
 -1       564 1.14788E-02
 -1       565 9.38555E-03
 -1       566 7.75388E-03
 -1       567 6.07800E-03
 -1       568 4.58051E-03
 -1       569 3.32726E-03
 -1       570 2.35856E-03
 -1       571 1.70559E-03
 -1       572 1.75944E-03
 -1       573 2.16017E-03
 -1       574 1.52130E-03
 -1       575 1.75944E-03
 -1       576 1.71514E-03
 -1       577 1.75029E-03
 -1       578 1.75029E-03
 -1       579 1.69548E-03
 -1       580 1.86259E-03
 -1       581 1.48754E-03
 -1       582 2.78577E+01
 -1       583 7.46154E-01
 -1       584 1.30496E+01
 -1       585 2.14053E+01
 -1       586 1.29078E+00
 -1       587 9.50440E+00
 -1       588 2.65919E+01
 -1       589 6.81923E+00
 -1       590 4.74222E-01
 -1       591 8.01970E+00
 -1       592 3.74815E+01
 -1       593 6.03141E+00
 -1       594 3.91987E+00
 -1       595 6.81659E+00
 -1       596 1.16394E+01
 -1       597 1.52415E+01
 -1       598 8.43130E+00
 -1       599 2.58728E+01
 -1       600 1.66060E+01
 -1       601 7.12400E+00
 -1       602 6.76567E+00
 -1       603 7.84989E+00
 -1       604 5.17356E+00
 -1       605 5.93512E+00
 -1       606 8.89722E+00
 -1       607 1.29464E+01
 -1       608 5.23692E+00
 -1       609 1.23301E+00
 -1       610 6.81923E+00
 -1       611 1.00532E+00
 -1       612 2.18918E+01
 -1       613 1.75704E-03
 -1       614 3.25424E+00
 -1       615 4.57287E+00
 -1       616 5.78709E-01
 -1       617 4.11076E-01
 -1       618 8.46782E-01
 -1       619 8.76920E-01
 -1       620 1.00656E+00
 -1       621 9.20561E+00
 -1       622 7.46154E-01
 -1       623 7.34888E-01
 -1       624 8.00886E-01
 -1       625 9.29591E-01
 -1       626 1.08886E+00
 -1       627 1.23952E+00
 -1       628 1.53602E+00
 -1       629 1.86256E+00
 -1       630 3.17530E+00
 -1       631 3.55494E+00
 -1       632 4.28034E+00
 -1       633 5.44019E+00
 -1       634 5.53740E+00
 -1       635 3.18355E+00
 -1       636 2.23162E+00
 -1       637 1.97654E+00
 -1       638 1.67581E+00
 -1       639 1.35258E+00
 -1       640 1.21425E+00
 -1       641 1.03420E+00
 -1       642 8.58772E-01
 -1       643 7.54119E-01
 -1       644 6.46752E-01
 -1       645 5.38673E-01
 -1       646 4.37889E-01
 -1       647 3.48358E-01
 -1       648 2.71565E-01
 -1       649 2.07518E-01
 -1       650 1.55366E-01
 -1       651 1.13802E-01
 -1       652 8.13397E-02
 -1       653 5.64888E-02
 -1       654 3.78533E-02
 -1       655 2.41870E-02
 -1       656 1.44156E-02
 -1       657 9.77388E-03
 -1       658 9.33911E-03
 -1       659 8.37085E-03
 -1       660 7.12149E-03
 -1       661 5.76496E-03
 -1       662 4.59492E-03
 -1       663 3.67349E-03
 -1       664 2.78158E-03
 -1       665 5.44019E+00
 -1       666 5.75018E+00
 -1       667 1.09150E+00
 -1       668 1.93417E+00
 -1       669 3.12017E+00
 -1       670 2.52020E+00
 -1       671 1.93724E+00
 -1       672 4.86698E+00
 -1       673 3.08305E+00
 -1       674 2.78811E+00
 -1       675 2.50797E+00
 -1       676 2.10601E+00
 -1       677 1.98635E+00
 -1       678 1.63185E+00
 -1       679 1.33576E+00
 -1       680 1.17225E+00
 -1       681 1.01432E+00
 -1       682 8.48812E-01
 -1       683 6.91668E-01
 -1       684 5.51112E-01
 -1       685 4.30398E-01
 -1       686 3.29752E-01
 -1       687 2.47857E-01
 -1       688 1.82640E-01
 -1       689 1.31688E-01
 -1       690 9.26061E-02
 -1       691 6.31870E-02
 -1       692 4.14744E-02
 -1       693 2.57933E-02
 -1       694 1.68947E-02
 -1       695 1.29768E-02
 -1       696 1.14368E-02
 -1       697 9.67030E-03
 -1       698 7.86079E-03
 -1       699 6.12347E-03
 -1       700 5.06160E-03
 -1       701 3.94877E-03
 -1       702 2.95031E-03
 -1       703 2.73075E-03
 -1       704 1.90371E-03
 -1       705 2.78158E-03
 -1       706 2.01046E-03
 -1       707 1.90502E-03
 -1       708 2.01046E-03
 -1       709 1.34803E+01
 -1       710 1.95853E-03
 -1       711 1.97364E-03
 -1       712 2.78158E-03
 -1       713 8.79206E-01
 -1       714 1.73240E+01
 -1       715 7.87542E+00
 -1       716 1.17319E+00
 -1       717 3.14045E+00
 -1       718 1.00108E+01
 -1       719 3.45129E+00
 -1       720 1.64713E+00
 -1       721 1.33147E+00
 -1       722 1.17319E+00
 -1       723 1.01223E+01
 -1       724 4.25800E+00
 -1       725 7.56371E-01
 -1       726 1.32496E+01
 -1       727 1.25327E+01
 -1       728 7.61837E+00
 -1       729 7.25170E-01
 -1       730 5.99063E+00
 -1       731 1.66526E+01
 -1       732 6.26063E+00
 -1       733 1.26713E+01
 -1       734 1.65827E+01
 -1       735 5.53740E+00
 -1       736 3.22335E+00
 -1       737 1.59803E+01
 -1       738 1.17319E+00
 -1       739 4.28430E-01
 -1       740 1.25270E+01
 -1       741 1.96654E-03
 -1       742 1.98411E-03
 -1       743 3.28129E+00
 -1       744 3.55494E+00
 -1       745 4.28034E+00
 -1       746 3.17579E+00
 -1       747 6.25514E-01
 -1       748 5.63418E+00
 -1       749 9.28212E+00
 -1       750 9.17148E-01
 -1       751 8.86588E-01
 -1       752 1.01278E+00
 -1       753 1.22941E+00
 -1       754 1.57417E+00
 -1       755 1.93065E+00
 -1       756 2.29167E+00
 -1       757 3.17530E+00
 -1       758 3.55494E+00
 -1       759 1.97654E+00
 -1       760 2.60572E+00
 -1       761 2.16226E+00
 -1       762 1.67602E+00
 -1       763 1.31011E+00
 -1       764 1.11441E+00
 -1       765 9.11520E-01
 -1       766 7.35237E-01
 -1       767 5.89780E-01
 -1       768 4.66860E-01
 -1       769 3.70094E-01
 -1       770 2.90397E-01
 -1       771 2.23624E-01
 -1       772 1.67780E-01
 -1       773 1.22546E-01
 -1       774 8.74645E-02
 -1       775 6.14267E-02
 -1       776 4.18703E-02
 -1       777 2.82802E-02
 -1       778 1.83378E-02
 -1       779 1.12271E-02
 -1       780 6.28285E-03
 -1       781 5.38306E-03
 -1       782 5.45835E-03
 -1       783 5.03893E-03
 -1       784 4.33242E-03
 -1       785 3.48588E-03
 -1       786 3.12838E-03
 -1       787 3.39568E+00
 -1       788 8.77054E+00
 -1       789 4.36386E+00
 -1       790 2.93757E+00
 -1       791 2.16773E+00
 -1       792 1.80323E+00
 -1       793 1.46141E+00
 -1       794 1.15893E+00
 -1       795 9.23136E-01
 -1       796 7.27138E-01
 -1       797 5.65385E-01
 -1       798 4.34559E-01
 -1       799 3.33484E-01
 -1       800 2.53663E-01
 -1       801 1.90406E-01
 -1       802 1.40695E-01
 -1       803 1.02045E-01
 -1       804 7.24323E-02
 -1       805 5.00901E-02
 -1       806 3.35154E-02
 -1       807 2.14558E-02
 -1       808 1.28821E-02
 -1       809 7.91061E-03
 -1       810 7.49510E-03
 -1       811 6.99491E-03
 -1       812 6.12068E-03
 -1       813 5.06160E-03
 -1       814 4.04215E-03
 -1       815 3.27841E-03
 -1       816 2.62562E-03
 -1       817 8.91322E+00
 -1       818 6.79491E-01
 -1       819 6.02278E+00
 -1       820 1.25270E+01
 -1       821 1.80013E-03
 -1       822 2.81784E-03
 -1       823 2.01285E-03
 -1       824 8.78881E+00
 -1       825 5.65742E+00
 -1       826 8.65888E+00
 -1       827 6.90875E+00
 -1       828 2.90995E+00
 -1       829 2.40759E-03
 -1       830 8.01297E+00
 -1       831 2.27853E+00
 -1       832 1.09345E+01
 -1       833 7.26811E-01
 -1       834 9.32799E+00
 -1       835 1.86100E+00
 -1       836 1.25157E+01
 -1       837 5.71182E+00
 -1       838 4.80640E+00
 -1       839 8.11844E+00
 -1       840 5.93610E-01
 -1       841 1.25911E+00
 -1       842 2.18842E-03
 -1       843 3.18355E+00
 -1       844 3.61128E+00
 -1       845 8.09451E-01
 -1       846 2.18842E-03
 -1       847 1.97610E-03
 -1       848 6.44442E+00
 -1       849 7.77559E+00
 -1       850 9.81668E-01
 -1       851 1.36317E+00
 -1       852 9.11537E+00
 -1       853 1.13605E+00
 -1       854 7.64695E-01
 -1       855 8.47928E-01
 -1       856 6.46332E+00
 -1       857 6.27686E+00
 -1       858 1.41350E+00
 -1       859 1.85077E+00
 -1       860 2.52180E+00
 -1       861 2.99567E+00
 -1       862 4.79569E+00
 -1       863 6.27686E+00
 -1       864 5.18535E+00
 -1       865 3.96299E+00
 -1       866 2.90025E+00
 -1       867 2.16297E+00
 -1       868 1.61640E+00
 -1       869 1.28862E+00
 -1       870 1.02261E+00
 -1       871 8.02876E-01
 -1       872 6.23547E-01
 -1       873 4.78773E-01
 -1       874 3.62721E-01
 -1       875 2.70634E-01
 -1       876 1.98902E-01
 -1       877 1.44513E-01
 -1       878 1.02689E-01
 -1       879 7.10204E-02
 -1       880 4.74568E-02
 -1       881 3.02726E-02
 -1       882 1.80358E-02
 -1       883 9.57452E-03
 -1       884 3.94500E-03
 -1       885 3.54854E-03
 -1       886 3.58930E-03
 -1       887 3.53652E-03
 -1       888 3.12838E-03
 -1       889 2.58204E-03
 -1       890 3.51233E+00
 -1       891 1.41740E+00
 -1       892 1.08629E+00
 -1       893 8.81296E-01
 -1       894 7.00329E-01
 -1       895 5.47499E-01
 -1       896 4.21918E-01
 -1       897 3.20433E-01
 -1       898 2.39148E-01
 -1       899 1.75450E-01
 -1       900 1.26157E-01
 -1       901 8.84851E-02
 -1       902 6.16323E-02
 -1       903 4.16982E-02
 -1       904 2.70794E-02
 -1       905 1.67306E-02
 -1       906 9.50182E-03
 -1       907 5.29335E-03
 -1       908 4.27181E-03
 -1       909 4.56901E-03
 -1       910 4.34629E-03
 -1       911 3.80852E-03
 -1       912 2.63445E+00
 -1       913 1.91263E+00
 -1       914 1.86403E-03
 -1       915 6.43164E+00
 -1       916 6.07907E+00
 -1       917 8.23777E+00
 -1       918 8.32471E+00
 -1       919 5.35618E+00
 -1       920 1.07576E+00
 -1       921 6.49054E-01
 -1       922 1.52420E+00
 -1       923 2.81323E+00
 -1       924 6.46332E+00
 -1       925 2.76212E-03
 -1       926 8.86588E-01
 -1       927 1.86328E-03
 -1       928 3.09656E-03
 -1       929 9.37266E-01
 -1       930 5.40793E+00
 -1       931 6.01336E+00
 -1       932 6.01336E+00
 -1       933 1.67046E+00
 -1       934 9.37266E-01
 -1       935 3.18894E-03
 -1       936 1.12037E+00
 -1       937 2.49330E-03
 -1       938 7.67122E-01
 -1       939 4.95333E+00
 -1       940 5.18535E+00
 -1       941 3.69818E+00
 -1       942 4.43703E+00
 -1       943 1.97138E+00
 -1       944 1.52420E+00
 -1       945 3.96299E+00
 -1       946 2.90025E+00
 -1       947 2.11113E+00
 -1       948 1.54318E+00
 -1       949 1.14221E+00
 -1       950 8.52571E-01
 -1       951 6.38417E-01
 -1       952 4.78773E-01
 -1       953 3.62721E-01
 -1       954 2.70634E-01
 -1       955 1.98902E-01
 -1       956 1.44513E-01
 -1       957 1.02689E-01
 -1       958 7.10204E-02
 -1       959 4.74568E-02
 -1       960 3.08031E-02
 -1       961 1.95504E-02
 -1       962 1.15778E-02
 -1       963 6.08335E-03
 -1       964 2.91087E-03
 -1       965 2.90232E-03
 -1       966 3.53652E-03
 -1       967 8.28161E-01
 -1       968 3.18894E-03
 -1       969 1.08366E+00
 -1       970 1.41740E+00
 -1       971 6.34715E-01
 -1       972 4.89356E-01
 -1       973 3.72824E-01
 -1       974 2.81554E-01
 -1       975 2.10792E-01
 -1       976 1.55434E-01
 -1       977 1.12336E-01
 -1       978 7.95613E-02
 -1       979 5.48953E-02
 -1       980 3.75406E-02
 -1       981 2.48983E-02
 -1       982 1.57266E-02
 -1       983 9.22991E-03
 -1       984 4.86431E-03
 -1       985 2.34192E-03
 -1       986 3.01899E-03
 -1       987 2.19699E+00
 -1       988 1.85676E+00
 -1       989 8.72293E-01
 -1       990 2.44279E-03
 -1       991 4.58442E+00
 -1       992 2.97384E+00
 -1       993 1.25515E+00
 -1       994 1.52420E+00
 -1       995 5.54849E+00
 -1       996 5.43051E+00
 -1       997 5.43051E+00
 -1       998 4.58442E+00
 -1       999 1.52006E+00
 -1      1000 3.71155E+00
 -1      1001 3.18894E-03
 -1      1002 1.82754E-03
 -1      1003 5.54849E+00
 -1      1004 1.35709E+00
 -1      1005 2.64166E+00
 -1      1006 1.52006E+00
 -1      1007 1.62548E+00
 -1      1008 2.23925E-03
 -1      1009 3.22437E+00
 -1      1010 1.24676E+00
 -1      1011 2.84356E+00
 -1      1012 1.47605E+00
 -1      1013 1.01171E+00
 -1      1014 7.05502E-01
 -1      1015 5.62836E-01
 -1      1016 4.00251E-01
 -1      1017 3.02824E-01
 -1      1018 2.41660E-01
 -1      1019 1.86078E-01
 -1      1020 1.43123E-01
 -1      1021 1.08231E-01
 -1      1022 8.04064E-02
 -1      1023 5.86222E-02
 -1      1024 4.17899E-02
 -1      1025 2.89747E-02
 -1      1026 2.01204E-02
 -1      1027 1.35228E-02
 -1      1028 8.63364E-03
 -1      1029 5.10813E-03
 -1      1030 2.44990E-03
 -1      1031 5.24969E-01
 -1      1032 9.54494E-01
 -1      1033 6.58347E-01
 -1      1034 1.39468E+00
 -1      1035 2.72753E-03
 -1      1036 4.04201E-01
 -1      1037 2.89200E-01
 -1      1038 2.40927E-01
 -1      1039 1.90191E-01
 -1      1040 1.42798E-01
 -1      1041 1.04665E-01
 -1      1042 7.50325E-02
 -1      1043 5.27978E-02
 -1      1044 3.68427E-02
 -1      1045 2.49006E-02
 -1      1046 1.61343E-02
 -1      1047 9.82309E-03
 -1      1048 5.26907E-03
 -1      1049 1.72430E-03
 -1      1050 2.16422E+00
 -1      1051 1.91981E+00
 -1      1052 2.36084E+00
 -1      1053 3.22835E+00
 -1      1054 2.13777E+00
 -1      1055 3.86582E+00
 -1      1056 2.32689E-03
 -1      1057 4.39537E+00
 -1      1058 3.71155E+00
 -1      1059 2.36084E+00
 -1      1060 2.13777E+00
 -1      1061 1.49030E-03
 -1      1062 4.39537E+00
 -1      1063 1.77506E-03
 -1      1064 2.11473E+00
 -1      1065 3.70058E+00
 -1      1066 6.58347E-01
 -1      1067 2.77056E+00
 -1      1068 1.39468E+00
 -1      1069 9.54494E-01
 -1      1070 4.15433E-01
 -1      1071 2.91516E-01
 -1      1072 2.42769E-01
 -1      1073 1.90191E-01
 -1      1074 1.42798E-01
 -1      1075 1.04665E-01
 -1      1076 7.50325E-02
 -1      1077 5.27978E-02
 -1      1078 3.68427E-02
 -1      1079 2.49006E-02
 -1      1080 1.66447E-02
 -1      1081 1.09124E-02
 -1      1082 6.70728E-03
 -1      1083 3.65056E-03
 -1      1084 2.89200E-01
 -1      1085 1.80015E-03
 -1      1086 5.66407E-01
 -1      1087 1.62970E-03
 -1      1088 1.24151E+01
 -1      1089 7.98771E+00
 -1      1090 2.77462E+00
 -1      1091 1.72852E+00
 -1      1092 1.32148E+00
 -1      1093 1.05882E+00
 -1      1094 8.44052E-01
 -1      1095 6.63150E-01
 -1      1096 5.64862E-01
 -1      1097 6.29567E-01
 -1      1098 8.06909E-01
 -1      1099 1.03244E+00
 -1      1100 1.32130E+00
 -1      1101 1.74853E+00
 -1      1102 2.70854E+00
 -1      1103 5.73712E+00
 -1      1104 1.06664E+01
 -1      1105 1.24151E+01
 -1      1106 8.16126E+00
 -1      1107 3.28098E+00
 -1      1108 2.12354E+00
 -1      1109 1.29173E+00
 -1      1110 8.40543E-01
 -1      1111 7.58151E-01
 -1      1112 8.76120E-01
 -1      1113 9.29724E-01
 -1      1114 9.33333E-01
 -1      1115 1.13146E+00
 -1      1116 1.65167E+00
 -1      1117 2.53367E+00
 -1      1118 3.32839E+00
 -1      1119 3.57360E+00
 -1      1120 3.58398E+00
 -1      1121 3.43278E+00
 -1      1122 2.75904E+00
 -1      1123 1.87042E+00
 -1      1124 1.33778E+00
 -1      1125 1.17123E+00
 -1      1126 1.14071E+00
 -1      1127 1.11019E+00
 -1      1128 1.05924E+00
 -1      1129 9.24261E-01
 -1      1130 7.55142E-01
 -1      1131 5.99225E-01
 -1      1132 4.82788E-01
 -1      1133 4.03157E-01
 -1      1134 3.34664E-01
 -1      1135 2.68302E-01
 -1      1136 2.08651E-01
 -1      1137 1.57733E-01
 -1      1138 1.18230E-01
 -1      1139 9.36318E-02
 -1      1140 7.75795E-02
 -1      1141 6.27557E-02
 -1      1142 4.96614E-02
 -1      1143 3.84674E-02
 -1      1144 2.91370E-02
 -1      1145 2.24970E-02
 -1      1146 1.82329E-02
 -1      1147 1.46995E-02
 -1      1148 1.14705E-02
 -1      1149 8.55640E-03
 -1      1150 6.08598E-03
 -1      1151 4.66015E-03
 -1      1152 3.87646E-03
 -1      1153 2.94924E-03
 -1      1154 1.48052E-03
 -1      1155 1.32597E+01
 -1      1156 8.20739E+00
 -1      1157 2.58066E+00
 -1      1158 1.75376E+00
 -1      1159 1.34364E+00
 -1      1160 1.05230E+00
 -1      1161 9.10967E-01
 -1      1162 1.01225E+00
 -1      1163 1.18827E+00
 -1      1164 1.41634E+00
 -1      1165 1.58948E+00
 -1      1166 1.83292E+00
 -1      1167 2.48428E+00
 -1      1168 3.44374E+00
 -1      1169 4.24917E+00
 -1      1170 4.51527E+00
 -1      1171 4.43512E+00
 -1      1172 3.61030E+00
 -1      1173 2.29271E+00
 -1      1174 1.53150E+00
 -1      1175 1.45056E+00
 -1      1176 1.56063E+00
 -1      1177 1.56336E+00
 -1      1178 1.48054E+00
 -1      1179 1.28738E+00
 -1      1180 1.07617E+00
 -1      1181 8.74201E-01
 -1      1182 6.81650E-01
 -1      1183 5.12826E-01
 -1      1184 3.83201E-01
 -1      1185 2.92593E-01
 -1      1186 2.22428E-01
 -1      1187 1.65114E-01
 -1      1188 1.19606E-01
 -1      1189 8.43309E-02
 -1      1190 5.96306E-02
 -1      1191 4.59655E-02
 -1      1192 3.77964E-02
 -1      1193 3.04281E-02
 -1      1194 2.39998E-02
 -1      1195 1.95913E-02
 -1      1196 1.69387E-02
 -1      1197 1.44599E-02
 -1      1198 1.19530E-02
 -1      1199 9.51071E-03
 -1      1200 7.28965E-03
 -1      1201 5.28301E-03
 -1      1202 3.84893E-03
 -1      1203 2.62328E-03
 -1      1204 1.13426E-03
 -1      1205 6.40200E-04
 -1      1206 8.51740E-04
 -1      1207 6.77979E-04
 -1      1208 3.65271E-04
 -1      1209 3.17535E-04
 -1      1210 4.78259E-04
 -1      1211 5.72135E-04
 -1      1212 6.11428E-04
 -1      1213 6.18912E-04
 -1      1214 6.10220E-04
 -1      1215 5.66477E-04
 -1      1216 4.70835E-04
 -1      1217 3.11376E-04
 -1      1218 3.66825E-04
 -1      1219 8.17995E-04
 -1      1220 1.27202E-03
 -1      1221 9.60286E-04
 -1      1222 2.51332E+01
 -1      1223 3.61146E+01
 -1      1224 4.70960E+01
 -1      1225 3.37521E+01
 -1      1226 1.66775E+01
 -1      1227 1.34122E+01
 -1      1228 1.38775E+01
 -1      1229 1.37656E+01
 -1      1230 1.32339E+01
 -1      1231 1.35656E+01
 -1      1232 2.59171E+01
 -1      1233 3.75170E+01
 -1      1234 3.13142E+01
 -1      1235 2.48663E+01
 -1      1236 2.46171E+01
 -1      1237 2.51364E+01
 -1      1238 3.06382E+01
 -1      1239 3.56168E+01
 -1      1240 2.45569E+01
 -1      1241 1.31164E+01
 -1      1242 1.24291E+01
 -1      1243 1.20496E+01
 -1      1244 1.19853E+01
 -1      1245 1.19940E+01
 -1      1246 1.59653E+01
 -1      1247 3.37451E+01
 -1      1248 4.75537E+01
 -1      1249 3.60597E+01
 -1      1250 2.48495E+01
 -1      1251 1.24151E+01
 -1      1252 4.67879E+00
 -1      1253 9.10619E+00
 -1      1254 2.22147E+00
 -1      1255 3.00717E+00
 -1      1256 4.12564E+00
 -1      1257 1.59276E+00
 -1      1258 1.85318E+00
 -1      1259 2.08572E+00
 -1      1260 1.24801E+00
 -1      1261 1.39463E+00
 -1      1262 1.51929E+00
 -1      1263 9.94682E-01
 -1      1264 1.11072E+00
 -1      1265 1.18387E+00
 -1      1266 7.86490E-01
 -1      1267 8.85218E-01
 -1      1268 9.37120E-01
 -1      1269 6.11646E-01
 -1      1270 6.93820E-01
 -1      1271 7.34986E-01
 -1      1272 5.22199E-01
 -1      1273 5.38313E-01
 -1      1274 5.68983E-01
 -1      1275 6.58937E-01
 -1      1276 5.78119E-01
 -1      1277 5.51569E-01
 -1      1278 8.45565E-01
 -1      1279 7.49042E-01
 -1      1280 6.97593E-01
 -1      1281 1.09405E+00
 -1      1282 9.65043E-01
 -1      1283 9.07176E-01
 -1      1284 1.40225E+00
 -1      1285 1.24240E+00
 -1      1286 1.17500E+00
 -1      1287 1.87740E+00
 -1      1288 1.61003E+00
 -1      1289 1.53112E+00
 -1      1290 2.92522E+00
 -1      1291 2.23258E+00
 -1      1292 2.09408E+00
 -1      1293 5.92180E+00
 -1      1294 3.58587E+00
 -1      1295 3.10991E+00
 -1      1296 1.32597E+01
 -1      1297 1.06664E+01
 -1      1298 8.51515E+00
 -1      1299 1.32597E+01
 -1      1300 8.16126E+00
 -1      1301 3.90742E+00
 -1      1302 3.28098E+00
 -1      1303 2.65455E+00
 -1      1304 3.28098E+00
 -1      1305 2.12354E+00
 -1      1306 1.59254E+00
 -1      1307 2.12354E+00
 -1      1308 1.29173E+00
 -1      1309 9.90911E-01
 -1      1310 1.29173E+00
 -1      1311 8.40543E-01
 -1      1312 6.90176E-01
 -1      1313 8.40543E-01
 -1      1314 6.62495E-01
 -1      1315 7.30470E-01
 -1      1316 6.62495E-01
 -1      1317 8.26126E-01
 -1      1318 8.76120E-01
 -1      1319 7.30470E-01
 -1      1320 9.26115E-01
 -1      1321 9.29724E-01
 -1      1322 8.76120E-01
 -1      1323 9.33333E-01
 -1      1324 9.33333E-01
 -1      1325 9.29724E-01
 -1      1326 9.27914E-01
 -1      1327 1.12604E+00
 -1      1328 9.27914E-01
 -1      1329 1.32958E+00
 -1      1330 1.65167E+00
 -1      1331 1.12604E+00
 -1      1332 2.00908E+00
 -1      1333 2.56899E+00
 -1      1334 1.68699E+00
 -1      1335 3.09357E+00
 -1      1336 3.32839E+00
 -1      1337 2.56899E+00
 -1      1338 3.56321E+00
 -1      1339 3.57360E+00
 -1      1340 3.32839E+00
 -1      1341 3.58398E+00
 -1      1342 3.58398E+00
 -1      1343 3.57360E+00
 -1      1344 3.43278E+00
 -1      1345 3.28158E+00
 -1      1346 3.43278E+00
 -1      1347 2.75904E+00
 -1      1348 2.23651E+00
 -1      1349 2.75904E+00
 -1      1350 1.87042E+00
 -1      1351 1.50432E+00
 -1      1352 1.87042E+00
 -1      1353 1.28639E+00
 -1      1354 1.11984E+00
 -1      1355 1.28639E+00
 -1      1356 1.17123E+00
 -1      1357 1.17123E+00
 -1      1358 1.11984E+00
 -1      1359 1.11896E+00
 -1      1360 1.08844E+00
 -1      1361 1.11896E+00
 -1      1362 1.11019E+00
 -1      1363 1.11019E+00
 -1      1364 1.08844E+00
 -1      1365 1.05924E+00
 -1      1366 1.00828E+00
 -1      1367 1.05924E+00
 -1      1368 9.24261E-01
 -1      1369 8.40240E-01
 -1      1370 9.24261E-01
 -1      1371 7.71558E-01
 -1      1372 6.86460E-01
 -1      1373 7.71558E-01
 -1      1374 6.38141E-01
 -1      1375 5.67322E-01
 -1      1376 6.54557E-01
 -1      1377 5.14729E-01
 -1      1378 4.69112E-01
 -1      1379 5.53645E-01
 -1      1380 4.16389E-01
 -1      1381 3.82375E-01
 -1      1382 4.48330E-01
 -1      1383 3.34664E-01
 -1      1384 3.00186E-01
 -1      1385 3.47896E-01
 -1      1386 2.68302E-01
 -1      1387 2.36418E-01
 -1      1388 2.68302E-01
 -1      1389 2.10678E-01
 -1      1390 1.82910E-01
 -1      1391 2.10678E-01
 -1      1392 1.61781E-01
 -1      1393 1.38631E-01
 -1      1394 1.63808E-01
 -1      1395 1.20949E-01
 -1      1396 1.04596E-01
 -1      1397 1.24997E-01
 -1      1398 9.36318E-02
 -1      1399 8.53864E-02
 -1      1400 9.63506E-02
 -1      1401 7.75795E-02
 -1      1402 6.97727E-02
 -1      1403 7.75795E-02
 -1      1404 6.27557E-02
 -1      1405 5.57386E-02
 -1      1406 6.27557E-02
 -1      1407 4.96614E-02
 -1      1408 4.35842E-02
 -1      1409 4.96614E-02
 -1      1410 3.84674E-02
 -1      1411 3.33506E-02
 -1      1412 3.84674E-02
 -1      1413 2.94304E-02
 -1      1414 2.52168E-02
 -1      1415 2.94304E-02
 -1      1416 2.24970E-02
 -1      1417 2.00707E-02
 -1      1418 2.27905E-02
 -1      1419 1.82329E-02
 -1      1420 1.63951E-02
 -1      1421 1.82329E-02
 -1      1422 1.46995E-02
 -1      1423 1.30039E-02
 -1      1424 1.46995E-02
 -1      1425 1.14705E-02
 -1      1426 9.93703E-03
 -1      1427 1.14705E-02
 -1      1428 8.73987E-03
 -1      1429 7.35923E-03
 -1      1430 8.73987E-03
 -1      1431 6.33364E-03
 -1      1432 5.24386E-03
 -1      1433 6.51711E-03
 -1      1434 4.66015E-03
 -1      1435 4.32410E-03
 -1      1436 4.90780E-03
 -1      1437 3.87646E-03
 -1      1438 3.42883E-03
 -1      1439 3.87646E-03
 -1      1440 2.94924E-03
 -1      1441 2.46965E-03
 -1      1442 2.94924E-03
 -1      1443 1.94942E-03
 -1      1444 1.94942E-03
 -1      1445 3.15503E+00
 -1      1446 8.20739E+00
 -1      1447 8.20739E+00
 -1      1448 2.00629E+00
 -1      1449 2.58066E+00
 -1      1450 2.58066E+00
 -1      1451 1.50123E+00
 -1      1452 1.75376E+00
 -1      1453 1.75376E+00
 -1      1454 1.18604E+00
 -1      1455 1.34364E+00
 -1      1456 1.34364E+00
 -1      1457 9.18559E-01
 -1      1458 1.05230E+00
 -1      1459 1.05230E+00
 -1      1460 9.03374E-01
 -1      1461 9.10967E-01
 -1      1462 9.10967E-01
 -1      1463 9.90984E-01
 -1      1464 8.82109E-01
 -1      1465 8.82109E-01
 -1      1466 1.18827E+00
 -1      1467 1.12112E+00
 -1      1468 9.90984E-01
 -1      1469 1.41634E+00
 -1      1470 1.25541E+00
 -1      1471 1.18827E+00
 -1      1472 1.58948E+00
 -1      1473 1.57728E+00
 -1      1474 1.41634E+00
 -1      1475 1.83292E+00
 -1      1476 1.60169E+00
 -1      1477 1.58948E+00
 -1      1478 2.48428E+00
 -1      1479 2.06415E+00
 -1      1480 1.83292E+00
 -1      1481 3.44374E+00
 -1      1482 2.90442E+00
 -1      1483 2.48428E+00
 -1      1484 4.24917E+00
 -1      1485 3.98306E+00
 -1      1486 3.44374E+00
 -1      1487 4.51527E+00
 -1      1488 4.51527E+00
 -1      1489 4.24917E+00
 -1      1490 4.35497E+00
 -1      1491 4.43512E+00
 -1      1492 4.43512E+00
 -1      1493 2.86564E+00
 -1      1494 3.61030E+00
 -1      1495 3.61030E+00
 -1      1496 1.71979E+00
 -1      1497 2.29271E+00
 -1      1498 2.29271E+00
 -1      1499 1.27328E+00
 -1      1500 1.46157E+00
 -1      1501 1.46157E+00
 -1      1502 1.45056E+00
 -1      1503 1.34321E+00
 -1      1504 1.27328E+00
 -1      1505 1.56063E+00
 -1      1506 1.55790E+00
 -1      1507 1.45056E+00
 -1      1508 1.56336E+00
 -1      1509 1.56336E+00
 -1      1510 1.56063E+00
 -1      1511 1.39773E+00
 -1      1512 1.48054E+00
 -1      1513 1.48054E+00
 -1      1514 1.17702E+00
 -1      1515 1.28738E+00
 -1      1516 1.28738E+00
 -1      1517 9.76831E-01
 -1      1518 1.07768E+00
 -1      1519 1.07768E+00
 -1      1520 7.85769E-01
 -1      1521 8.86891E-01
 -1      1522 8.88398E-01
 -1      1523 6.08471E-01
 -1      1524 6.99899E-01
 -1      1525 7.12589E-01
 -1      1526 4.55475E-01
 -1      1527 5.32870E-01
 -1      1528 5.51119E-01
 -1      1529 3.40249E-01
 -1      1530 3.92479E-01
 -1      1531 4.12523E-01
 -1      1532 2.54216E-01
 -1      1533 2.92593E-01
 -1      1534 3.01872E-01
 -1      1535 1.90641E-01
 -1      1536 2.22428E-01
 -1      1537 2.22428E-01
 -1      1538 1.39588E-01
 -1      1539 1.65114E-01
 -1      1540 1.65114E-01
 -1      1541 1.00849E-01
 -1      1542 1.20831E-01
 -1      1543 1.20831E-01
 -1      1544 7.09394E-02
 -1      1545 8.62326E-02
 -1      1546 8.74572E-02
 -1      1547 5.03651E-02
 -1      1548 5.97723E-02
 -1      1549 6.16739E-02
 -1      1550 4.17077E-02
 -1      1551 4.59655E-02
 -1      1552 4.61072E-02
 -1      1553 3.38852E-02
 -1      1554 3.77964E-02
 -1      1555 3.77964E-02
 -1      1556 2.69710E-02
 -1      1557 3.04281E-02
 -1      1558 3.04281E-02
 -1      1559 2.10286E-02
 -1      1560 2.39998E-02
 -1      1561 2.39998E-02
 -1      1562 1.81540E-02
 -1      1563 1.95913E-02
 -1      1564 1.95913E-02
 -1      1565 1.57234E-02
 -1      1566 1.69387E-02
 -1      1567 1.69387E-02
 -1      1568 1.31965E-02
 -1      1569 1.44599E-02
 -1      1570 1.44599E-02
 -1      1571 1.07095E-02
 -1      1572 1.19530E-02
 -1      1573 1.19530E-02
 -1      1574 8.31188E-03
 -1      1575 9.51071E-03
 -1      1576 9.51071E-03
 -1      1577 6.26742E-03
 -1      1578 7.28965E-03
 -1      1579 7.28965E-03
 -1      1580 4.32588E-03
 -1      1581 5.31028E-03
 -1      1582 5.31028E-03
 -1      1583 3.39926E-03
 -1      1584 3.84893E-03
 -1      1585 3.87620E-03
 -1      1586 1.90213E-03
 -1      1587 2.67810E-03
 -1      1588 2.67810E-03
 -1      1589 1.35325E-03
 -1      1590 8.77625E-04
 -1      1591 8.85068E-04
 -1      1592 7.03249E-04
 -1      1593 8.69567E-04
 -1      1594 9.02895E-04
 -1      1595 4.39917E-04
 -1      1596 5.86308E-04
 -1      1597 7.77895E-04
 -1      1598 5.51052E-04
 -1      1599 4.52396E-04
 -1      1600 6.73434E-04
 -1      1601 7.38304E-04
 -1      1602 6.76236E-04
 -1      1603 8.11097E-04
 -1      1604 8.38809E-04
 -1      1605 8.07001E-04
 -1      1606 1.00498E-03
 -1      1607 8.70868E-04
 -1      1608 8.63384E-04
 -1      1609 1.09825E-03
 -1      1610 8.70868E-04
 -1      1611 8.70868E-04
 -1      1612 1.12282E-03
 -1      1613 8.61684E-04
 -1      1614 8.70376E-04
 -1      1615 1.12233E-03
 -1      1616 7.98073E-04
 -1      1617 8.33124E-04
 -1      1618 1.09328E-03
 -1      1619 6.70343E-04
 -1      1620 7.30934E-04
 -1      1621 9.97581E-04
 -1      1622 4.46649E-04
 -1      1623 5.45517E-04
 -1      1624 8.05617E-04
 -1      1625 5.82207E-04
 -1      1626 4.27890E-04
 -1      1627 6.62032E-04
 -1      1628 8.79060E-04
 -1      1629 5.82207E-04
 -1      1630 6.43272E-04
 -1      1631 1.41873E-03
 -1      1632 1.26156E-03
 -1      1633 1.02577E-03
 -1      1634 1.93896E-03
 -1      1635 2.75958E+01
 -1      1636 2.75958E+01
 -1      1637 3.77810E+01
 -1      1638 2.67996E+01
 -1      1639 4.70960E+01
 -1      1640 4.70960E+01
 -1      1641 2.09953E+01
 -1      1642 3.43392E+01
 -1      1643 1.22442E+01
 -1      1644 1.59748E+01
 -1      1645 1.34122E+01
 -1      1646 1.29469E+01
 -1      1647 1.38775E+01
 -1      1648 1.38775E+01
 -1      1649 1.36537E+01
 -1      1650 1.37656E+01
 -1      1651 1.28140E+01
 -1      1652 1.32339E+01
 -1      1653 1.30183E+01
 -1      1654 1.22667E+01
 -1      1655 2.59171E+01
 -1      1656 1.43173E+01
 -1      1657 3.75170E+01
 -1      1658 3.75170E+01
 -1      1659 3.02381E+01
 -1      1660 3.64409E+01
 -1      1661 2.55012E+01
 -1      1662 2.57462E+01
 -1      1663 2.54971E+01
 -1      1664 2.55012E+01
 -1      1665 2.55464E+01
 -1      1666 2.50230E+01
 -1      1667 3.52918E+01
 -1      1668 3.03133E+01
 -1      1669 3.56168E+01
 -1      1670 3.56168E+01
 -1      1671 1.34970E+01
 -1      1672 2.45569E+01
 -1      1673 1.27358E+01
 -1      1674 1.31164E+01
 -1      1675 1.21225E+01
 -1      1676 1.24291E+01
 -1      1677 1.18900E+01
 -1      1678 1.19629E+01
 -1      1679 1.19853E+01
 -1      1680 1.19766E+01
 -1      1681 1.19940E+01
 -1      1682 1.19940E+01
 -1      1683 1.55276E+01
 -1      1684 1.15563E+01
 -1      1685 3.48046E+01
 -1      1686 2.09961E+01
 -1      1687 4.75537E+01
 -1      1688 4.75537E+01
 -1      1689 2.66879E+01
 -1      1690 3.81819E+01
 -1      1691 2.75958E+01
 -1      1692 2.73120E+01
 -1      1693 1.65620E+01
 -1      1694 3.43392E+01
 -1      1695 1.40806E-03
 -1      1696 1.43395E-03
 -1      1697 2.92621E+01
 -1      1698 3.77810E+01
 -1      1699 3.00583E+01
 -1      1700 1.22442E+01
 -1      1701 1.34122E+01
 -1      1702 1.37656E+01
 -1      1703 1.32339E+01
 -1      1704 1.22667E+01
 -1      1705 1.30183E+01
 -1      1706 2.59171E+01
 -1      1707 3.64409E+01
 -1      1708 3.08730E+01
 -1      1709 2.63811E+01
 -1      1710 2.59071E+01
 -1      1711 3.01999E+01
 -1      1712 3.52918E+01
 -1      1713 2.45569E+01
 -1      1714 1.31164E+01
 -1      1715 1.24291E+01
 -1      1716 1.19629E+01
 -1      1717 1.18900E+01
 -1      1718 1.19853E+01
 -1      1719 1.15563E+01
 -1      1720 1.65870E+01
 -1      1721 3.48046E+01
 -1      1722 3.81819E+01
 -1      1723 2.94342E+01
 -1      1724 9.10619E+00
 -1      1725 1.50604E+00
 -1      1726 1.87434E+00
 -1      1727 2.45364E+00
 -1      1728 4.12527E+00
 -1      1729 1.87396E+00
 -1      1730 1.00144E+00
 -1      1731 1.13873E+00
 -1      1732 8.05094E-01
 -1      1733 9.14558E-01
 -1      1734 8.69417E-01
 -1      1735 6.36574E-01
 -1      1736 7.29244E-01
 -1      1737 7.06682E-01
 -1      1738 4.91963E-01
 -1      1739 5.65297E-01
 -1      1740 5.59554E-01
 -1      1741 5.32273E-01
 -1      1742 4.76354E-01
 -1      1743 4.72668E-01
 -1      1744 6.92118E-01
 -1      1745 6.02013E-01
 -1      1746 5.26798E-01
 -1      1747 8.96650E-01
 -1      1748 7.77172E-01
 -1      1749 6.81592E-01
 -1      1750 1.13478E+00
 -1      1751 9.86434E-01
 -1      1752 8.56430E-01
 -1      1753 1.44020E+00
 -1      1754 1.23242E+00
 -1      1755 1.04385E+00
 -1      1756 1.93988E+00
 -1      1757 1.58470E+00
 -1      1758 1.28600E+00
 -1      1759 2.64408E+00
 -1      1760 1.98344E+00
 -1      1761 1.47405E+00
 -1      1762 7.51254E+00
 -1      1763 2.76794E+00
 -1      1764 1.64147E+00
 -1      1765 2.46018E+00
 -1      1766 4.85234E+00
 -1      1767 1.68797E+00
 -1      1768 2.26234E+00
 -1      1769 1.56749E+00
 -1      1770 3.18034E+00
 -1      1771 1.87876E+00
 -1      1772 1.34776E+00
 -1      1773 1.08251E+00
 -1      1774 7.81698E-01
 -1      1775 8.37732E-01
 -1      1776 7.22954E-01
 -1      1777 5.72587E-01
 -1      1778 5.13741E-01
 -1      1779 5.94581E-01
 -1      1780 5.66900E-01
 -1      1781 4.76992E-01
 -1      1782 5.85619E-01
 -1      1783 6.81275E-01
 -1      1784 5.17705E-01
 -1      1785 6.88533E-01
 -1      1786 7.38528E-01
 -1      1787 5.43682E-01
 -1      1788 7.59331E-01
 -1      1789 7.62941E-01
 -1      1790 5.71744E-01
 -1      1791 7.81363E-01
 -1      1792 7.75944E-01
 -1      1793 6.10970E-01
 -1      1794 9.39276E-01
 -1      1795 1.14282E+00
 -1      1796 7.92726E-01
 -1      1797 1.39578E+00
 -1      1798 1.75319E+00
 -1      1799 1.20902E+00
 -1      1800 1.95908E+00
 -1      1801 2.48367E+00
 -1      1802 1.66788E+00
 -1      1803 2.65172E+00
 -1      1804 2.88654E+00
 -1      1805 2.04182E+00
 -1      1806 2.83601E+00
 -1      1807 2.84640E+00
 -1      1808 2.15934E+00
 -1      1809 2.91615E+00
 -1      1810 2.76494E+00
 -1      1811 2.17856E+00
 -1      1812 2.63094E+00
 -1      1813 2.10840E+00
 -1      1814 2.11430E+00
 -1      1815 1.87504E+00
 -1      1816 1.50895E+00
 -1      1817 1.74693E+00
 -1      1818 1.24312E+00
 -1      1819 1.02518E+00
 -1      1820 1.24774E+00
 -1      1821 8.40656E-01
 -1      1822 8.92045E-01
 -1      1823 7.97383E-01
 -1      1824 8.92876E-01
 -1      1825 8.40606E-01
 -1      1826 6.13689E-01
 -1      1827 9.21999E-01
 -1      1828 9.43749E-01
 -1      1829 6.95913E-01
 -1      1830 9.75429E-01
 -1      1831 9.24474E-01
 -1      1832 8.08986E-01
 -1      1833 9.02893E-01
 -1      1834 8.18872E-01
 -1      1835 8.19085E-01
 -1      1836 7.75346E-01
 -1      1837 7.06664E-01
 -1      1838 7.53978E-01
 -1      1839 6.68205E-01
 -1      1840 6.19886E-01
 -1      1841 6.71994E-01
 -1      1842 5.79307E-01
 -1      1843 5.26715E-01
 -1      1844 5.92956E-01
 -1      1845 4.80110E-01
 -1      1846 4.27387E-01
 -1      1847 5.05772E-01
 -1      1848 3.81250E-01
 -1      1849 3.33540E-01
 -1      1850 4.13031E-01
 -1      1851 2.91649E-01
 -1      1852 2.59766E-01
 -1      1853 3.25003E-01
 -1      1854 2.23901E-01
 -1      1855 1.98160E-01
 -1      1856 2.47248E-01
 -1      1857 1.68784E-01
 -1      1858 1.47654E-01
 -1      1859 1.82007E-01
 -1      1860 1.24997E-01
 -1      1861 1.07315E-01
 -1      1862 1.29973E-01
 -1      1863 9.29838E-02
 -1      1864 8.20195E-02
 -1      1865 9.29838E-02
 -1      1866 7.09779E-02
 -1      1867 6.31711E-02
 -1      1868 6.76111E-02
 -1      1869 5.60410E-02
 -1      1870 4.90239E-02
 -1      1871 4.94394E-02
 -1      1872 4.55709E-02
 -1      1873 3.94937E-02
 -1      1874 3.88562E-02
 -1      1875 3.62371E-02
 -1      1876 3.11203E-02
 -1      1877 3.21466E-02
 -1      1878 2.81821E-02
 -1      1879 2.42620E-02
 -1      1880 2.59519E-02
 -1      1881 2.16931E-02
 -1      1882 1.89733E-02
 -1      1883 2.04448E-02
 -1      1884 1.68291E-02
 -1      1885 1.49912E-02
 -1      1886 1.57316E-02
 -1      1887 1.39332E-02
 -1      1888 1.22376E-02
 -1      1889 1.25294E-02
 -1      1890 1.11846E-02
 -1      1891 9.65117E-03
 -1      1892 1.04183E-02
 -1      1893 8.61407E-03
 -1      1894 7.41690E-03
 -1      1895 8.32820E-03
 -1      1896 6.51711E-03
 -1      1897 5.49151E-03
 -1      1898 6.39131E-03
 -1      1899 4.73484E-03
 -1      1900 4.15113E-03
 -1      1901 4.73484E-03
 -1      1902 3.57978E-03
 -1      1903 3.13214E-03
 -1      1904 3.40681E-03
 -1      1905 2.80317E-03
 -1      1906 2.32358E-03
 -1      1907 1.79289E-03
 -1      1908 2.50648E-03
 -1      1909 1.10012E+00
 -1      1910 1.35264E+00
 -1      1911 1.03433E+00
 -1      1912 8.98275E-01
 -1      1913 1.05587E+00
 -1      1914 6.54756E-01
 -1      1915 8.07562E-01
 -1      1916 9.41301E-01
 -1      1917 6.53538E-01
 -1      1918 8.67187E-01
 -1      1919 8.74779E-01
 -1      1920 7.63782E-01
 -1      1921 8.90869E-01
 -1      1922 9.12134E-01
 -1      1923 8.75947E-01
 -1      1924 1.01359E+00
 -1      1925 8.83453E-01
 -1      1926 9.13477E-01
 -1      1927 1.02663E+00
 -1      1928 9.59482E-01
 -1      1929 8.51951E-01
 -1      1930 1.19455E+00
 -1      1931 1.03362E+00
 -1      1932 8.04831E-01
 -1      1933 1.43967E+00
 -1      1934 1.42746E+00
 -1      1935 1.04473E+00
 -1      1936 2.05761E+00
 -1      1937 1.82638E+00
 -1      1938 1.66436E+00
 -1      1939 2.59013E+00
 -1      1940 2.16999E+00
 -1      1941 2.16345E+00
 -1      1942 3.18362E+00
 -1      1943 2.64429E+00
 -1      1944 2.33000E+00
 -1      1945 3.52386E+00
 -1      1946 3.25775E+00
 -1      1947 2.45830E+00
 -1      1948 3.48581E+00
 -1      1949 3.56596E+00
 -1      1950 2.57454E+00
 -1      1951 2.44291E+00
 -1      1952 3.18758E+00
 -1      1953 2.31842E+00
 -1      1954 1.42280E+00
 -1      1955 1.99572E+00
 -1      1956 1.57300E+00
 -1      1957 9.99251E-01
 -1      1958 1.25747E+00
 -1      1959 9.60484E-01
 -1      1960 1.18841E+00
 -1      1961 1.11848E+00
 -1      1962 9.14383E-01
 -1      1963 1.35598E+00
 -1      1964 1.24863E+00
 -1      1965 1.09383E+00
 -1      1966 1.36883E+00
 -1      1967 1.36610E+00
 -1      1968 1.16417E+00
 -1      1969 1.26120E+00
 -1      1970 1.34402E+00
 -1      1971 1.14949E+00
 -1      1972 1.09280E+00
 -1      1973 1.20315E+00
 -1      1974 1.06662E+00
 -1      1975 9.33308E-01
 -1      1976 1.03265E+00
 -1      1977 9.48424E-01
 -1      1978 7.70260E-01
 -1      1979 8.60201E-01
 -1      1980 8.15170E-01
 -1      1981 6.10845E-01
 -1      1982 6.96714E-01
 -1      1983 6.68516E-01
 -1      1984 4.68290E-01
 -1      1985 5.43890E-01
 -1      1986 5.28015E-01
 -1      1987 3.48088E-01
 -1      1988 4.11083E-01
 -1      1989 4.03855E-01
 -1      1990 2.53702E-01
 -1      1991 3.01358E-01
 -1      1992 2.99918E-01
 -1      1993 1.88590E-01
 -1      1994 2.20378E-01
 -1      1995 2.19864E-01
 -1      1996 1.39571E-01
 -1      1997 1.65098E-01
 -1      1998 1.63047E-01
 -1      1999 1.02073E-01
 -1      2000 1.20831E-01
 -1      2001 1.20814E-01
 -1      2002 7.28410E-02
 -1      2003 8.74572E-02
 -1      2004 8.74572E-02
 -1      2005 5.05068E-02
 -1      2006 6.16739E-02
 -1      2007 6.16739E-02
 -1      2008 3.77434E-02
 -1      2009 4.21429E-02
 -1      2010 4.21429E-02
 -1      2011 3.03479E-02
 -1      2012 3.42591E-02
 -1      2013 3.02948E-02
 -1      2014 2.47989E-02
 -1      2015 2.82560E-02
 -1      2016 2.47187E-02
 -1      2017 1.97997E-02
 -1      2018 2.27709E-02
 -1      2019 2.05989E-02
 -1      2020 1.64898E-02
 -1      2021 1.79270E-02
 -1      2022 1.66982E-02
 -1      2023 1.36011E-02
 -1      2024 1.48164E-02
 -1      2025 1.31522E-02
 -1      2026 1.12910E-02
 -1      2027 1.25545E-02
 -1      2028 1.04322E-02
 -1      2029 9.28441E-03
 -1      2030 1.05279E-02
 -1      2031 8.62242E-03
 -1      2032 7.35583E-03
 -1      2033 8.55466E-03
 -1      2034 7.12953E-03
 -1      2035 5.70786E-03
 -1      2036 6.73009E-03
 -1      2037 5.77404E-03
 -1      2038 4.13381E-03
 -1      2039 5.09095E-03
 -1      2040 4.53139E-03
 -1      2041 3.10251E-03
 -1      2042 3.57945E-03
 -1      2043 3.36012E-03
 -1      2044 1.95694E-03
 -1      2045 2.67810E-03
 -1      2046 2.38135E-03
 -1      2047 1.43395E-03
 -1      2048 8.38572E-04
 -1      2049 8.26093E-04
 -1      2050 1.20822E-03
 -1      2051 1.32517E-03
 -1      2052 1.37336E-03
 -1      2053 1.32517E-03
 -1      2054 1.33322E-03
 -1      2055 1.85622E-03
 -1      2056 1.75549E-03
 -1      2057 1.08545E-03
 -1      2058 9.60267E-04
 -1      2059 1.11293E-03
 -1      2060 1.24084E-03
 -1      2061 1.17214E-03
 -1      2062 1.32131E-03
 -1      2063 1.29704E-03
 -1      2064 1.27247E-03
 -1      2065 1.43964E-03
 -1      2066 1.29704E-03
 -1      2067 1.29704E-03
 -1      2068 1.47126E-03
 -1      2069 1.29367E-03
 -1      2070 1.29416E-03
 -1      2071 1.46838E-03
 -1      2072 1.26511E-03
 -1      2073 1.29367E-03
 -1      2074 1.46550E-03
 -1      2075 1.16556E-03
 -1      2076 1.23270E-03
 -1      2077 1.43309E-03
 -1      2078 9.58736E-04
 -1      2079 1.08356E-03
 -1      2080 1.31868E-03
 -1      2081 8.16854E-04
 -1      2082 8.35614E-04
 -1      2083 1.11356E-03
 -1      2084 1.17437E-03
 -1      2085 1.17437E-03
 -1      2086 1.34795E-03
 -1      2087 3.77810E+01
 -1      2088 2.84659E+01
 -1      2089 3.00583E+01
 -1      2090 3.00583E+01
 -1      2091 2.63129E+01
 -1      2092 2.71092E+01
 -1      2093 2.63129E+01
 -1      2094 1.90049E+01
 -1      2095 3.17616E+01
 -1      2096 1.05163E+01
 -1      2097 1.55368E+01
 -1      2098 1.30597E+00
 -1      2099 1.50410E+00
 -1      2100 1.29272E+00
 -1      2101 1.12354E+00
 -1      2102 1.17006E+01
 -1      2103 1.12353E+01
 -1      2104 1.22772E+01
 -1      2105 1.23891E+01
 -1      2106 1.14519E+01
 -1      2107 1.18717E+01
 -1      2108 1.01658E+01
 -1      2109 1.07132E+01
 -1      2110 9.35102E+00
 -1      2111 1.05452E+01
 -1      2112 9.24625E+00
 -1      2113 2.52527E+01
 -1      2114 1.36528E+01
 -1      2115 9.88080E+00
 -1      2116 2.91084E+01
 -1      2117 3.01845E+01
 -1      2118 2.61269E+01
 -1      2119 3.06188E+01
 -1      2120 2.43624E+01
 -1      2121 3.19313E+01
 -1      2122 3.19313E+01
 -1      2123 3.14573E+01
 -1      2124 3.19313E+01
 -1      2125 3.07794E+01
 -1      2126 2.60125E+01
 -1      2127 2.90452E+01
 -1      2128 2.87203E+01
 -1      2129 2.45328E+01
 -1      2130 1.30215E+01
 -1      2131 2.40814E+01
 -1      2132 9.62948E+00
 -1      2133 1.00101E+01
 -1      2134 1.05316E+01
 -1      2135 1.08383E+01
 -1      2136 1.11410E+01
 -1      2137 1.13005E+01
 -1      2138 9.70967E+00
 -1      2139 1.12042E+01
 -1      2140 1.11176E+01
 -1      2141 1.07385E+01
 -1      2142 1.07298E+01
 -1      2143 8.95610E+00
 -1      2144 9.39382E+00
 -1      2145 1.57742E+01
 -1      2146 1.03057E+01
 -1      2147 3.21950E+01
 -1      2148 1.94460E+01
 -1      2149 2.88101E+01
 -1      2150 3.81819E+01
 -1      2151 2.89580E+01
 -1      2152 2.83339E+01
 -1      2153 1.03612E+01
 -1      2154 9.65848E+00
 -1      2155 8.63329E+00
 -1      2156 2.55391E+00
 -1      2157 8.64958E+00
 -1      2158 1.77812E+00
 -1      2159 2.95852E+01
 -1      2160 2.95852E+01
 -1      2161 2.66360E+01
 -1      2162 2.24466E+01
 -1      2163 1.55687E-03
 -1      2164 2.89580E+01
 -1      2165 1.29592E+01
 -1      2166 2.83339E+01
 -1      2167 2.28232E+01
 -1      2168 1.31646E+01
 -1      2169 8.14325E+00
 -1      2170 8.13826E+00
 -1      2171 1.04552E+01
 -1      2172 8.97646E+00
 -1      2173 5.87013E+00
 -1      2174 7.07894E+00
 -1      2175 2.40140E+01
 -1      2176 1.74424E+01
 -1      2177 1.24786E+01
 -1      2178 3.20367E+01
 -1      2179 3.16771E+01
 -1      2180 1.79202E+01
 -1      2181 7.69278E+00
 -1      2182 1.02122E+01
 -1      2183 1.04952E+01
 -1      2184 3.74815E+01
 -1      2185 9.53459E+00
 -1      2186 9.95737E+00
 -1      2187 9.25449E-01
 -1      2188 1.26077E+00
 -1      2189 6.32923E-01
 -1      2190 7.08773E-01
 -1      2191 7.63201E-01
 -1      2192 8.50086E-01
 -1      2193 6.89442E-01
 -1      2194 3.84989E-01
 -1      2195 4.00598E-01
 -1      2196 5.00797E-01
 -1      2197 4.31057E-01
 -1      2198 3.58987E-01
 -1      2199 6.98846E-01
 -1      2200 6.13792E-01
 -1      2201 5.18051E-01
 -1      2202 8.61726E-01
 -1      2203 7.71943E-01
 -1      2204 7.04143E-01
 -1      2205 1.01598E+00
 -1      2206 9.18343E-01
 -1      2207 8.33856E-01
 -1      2208 1.33176E+00
 -1      2209 1.18725E+00
 -1      2210 1.06174E+00
 -1      2211 6.37692E-01
 -1      2212 6.81936E-01
 -1      2213 9.08385E-01
 -1      2214 9.47291E-01
 -1      2215 6.82044E-01
 -1      2216 7.29447E+00
 -1      2217 6.42033E+00
 -1      2218 6.03908E-01
 -1      2219 5.45164E-01
 -1      2220 7.13467E-01
 -1      2221 5.46508E-01
 -1      2222 5.68503E-01
 -1      2223 6.36675E-01
 -1      2224 5.95706E-01
 -1      2225 6.14425E-01
 -1      2226 6.65222E-01
 -1      2227 6.43081E-01
 -1      2228 6.50339E-01
 -1      2229 7.21082E-01
 -1      2230 6.60110E-01
 -1      2231 6.80913E-01
 -1      2232 7.59508E-01
 -1      2233 7.98330E-01
 -1      2234 8.16752E-01
 -1      2235 8.86695E-01
 -1      2236 8.87806E-01
 -1      2237 1.05114E+00
 -1      2238 1.07516E+00
 -1      2239 1.16405E+00
 -1      2240 1.41702E+00
 -1      2241 1.25914E+00
 -1      2242 1.50674E+00
 -1      2243 1.71263E+00
 -1      2244 1.46177E+00
 -1      2245 1.88116E+00
 -1      2246 2.04921E+00
 -1      2247 1.72002E+00
 -1      2248 2.31837E+00
 -1      2249 2.26784E+00
 -1      2250 2.15771E+00
 -1      2251 2.27219E+00
 -1      2252 2.34194E+00
 -1      2253 2.43122E+00
 -1      2254 2.17893E+00
 -1      2255 2.04492E+00
 -1      2256 2.27256E+00
 -1      2257 1.76860E+00
 -1      2258 1.53524E+00
 -1      2259 1.83323E+00
 -1      2260 1.46047E+00
 -1      2261 1.19464E+00
 -1      2262 1.48214E+00
 -1      2263 1.08298E+00
 -1      2264 8.98451E-01
 -1      2265 1.29571E+00
 -1      2266 8.35675E-01
 -1      2267 8.36506E-01
 -1      2268 1.12127E+00
 -1      2269 7.55854E-01
 -1      2270 8.37247E-01
 -1      2271 9.77840E-01
 -1      2272 8.37425E-01
 -1      2273 8.69106E-01
 -1      2274 8.97367E-01
 -1      2275 8.36461E-01
 -1      2276 8.14880E-01
 -1      2277 8.64900E-01
 -1      2278 7.67866E-01
 -1      2279 7.24340E-01
 -1      2280 7.85242E-01
 -1      2281 6.90344E-01
 -1      2282 6.51886E-01
 -1      2283 7.04232E-01
 -1      2284 6.13147E-01
 -1      2285 5.72568E-01
 -1      2286 6.31498E-01
 -1      2287 5.27250E-01
 -1      2288 4.80645E-01
 -1      2289 5.47442E-01
 -1      2290 4.34890E-01
 -1      2291 3.88753E-01
 -1      2292 4.56368E-01
 -1      2293 3.46312E-01
 -1      2294 3.04421E-01
 -1      2295 3.68171E-01
 -1      2296 2.67231E-01
 -1      2297 2.31366E-01
 -1      2298 2.88539E-01
 -1      2299 2.00123E-01
 -1      2300 1.70746E-01
 -1      2301 2.20105E-01
 -1      2302 1.45368E-01
 -1      2303 1.22710E-01
 -1      2304 1.63484E-01
 -1      2305 1.02680E-01
 -1      2306 8.83488E-02
 -1      2307 1.18075E-01
 -1      2308 7.29469E-02
 -1      2309 6.19053E-02
 -1      2310 8.26431E-02
 -1      2311 5.03589E-02
 -1      2312 4.32287E-02
 -1      2313 5.56947E-02
 -1      2314 3.57434E-02
 -1      2315 3.22904E-02
 -1      2316 3.66629E-02
 -1      2317 2.77069E-02
 -1      2318 2.44503E-02
 -1      2319 2.45941E-02
 -1      2320 2.33027E-02
 -1      2321 2.03645E-02
 -1      2322 1.88630E-02
 -1      2323 1.90628E-02
 -1      2324 1.64940E-02
 -1      2325 1.64137E-02
 -1      2326 1.51671E-02
 -1      2327 1.30228E-02
 -1      2328 1.37852E-02
 -1      2329 1.17530E-02
 -1      2330 1.06949E-02
 -1      2331 1.11884E-02
 -1      2332 9.60347E-03
 -1      2333 8.55046E-03
 -1      2334 8.82706E-03
 -1      2335 7.93185E-03
 -1      2336 6.89475E-03
 -1      2337 7.11701E-03
 -1      2338 6.22062E-03
 -1      2339 5.32083E-03
 -1      2340 5.82427E-03
 -1      2341 4.67602E-03
 -1      2342 3.91934E-03
 -1      2343 4.50534E-03
 -1      2344 3.40681E-03
 -1      2345 2.83546E-03
 -1      2346 3.34799E-03
 -1      2347 2.49621E+01
 -1      2348 2.28092E+01
 -1      2349 8.55103E-01
 -1      2350 7.87885E-01
 -1      2351 9.76361E-01
 -1      2352 9.31414E-01
 -1      2353 9.55517E-01
 -1      2354 1.03849E+00
 -1      2355 1.04591E+00
 -1      2356 1.10137E+00
 -1      2357 1.01641E+00
 -1      2358 1.07052E+00
 -1      2359 1.20295E+00
 -1      2360 1.14931E+00
 -1      2361 1.14232E+00
 -1      2362 1.36089E+00
 -1      2363 1.42075E+00
 -1      2364 1.18784E+00
 -1      2365 1.52532E+00
 -1      2366 1.99415E+00
 -1      2367 1.60744E+00
 -1      2368 1.75055E+00
 -1      2369 2.27584E+00
 -1      2370 2.16345E+00
 -1      2371 2.10654E+00
 -1      2372 3.04641E+00
 -1      2373 2.99224E+00
 -1      2374 2.99224E+00
 -1      2375 2.67972E+00
 -1      2376 2.60558E+00
 -1      2377 3.26782E+00
 -1      2378 2.84985E+00
 -1      2379 2.80775E+00
 -1      2380 2.95503E+00
 -1      2381 2.00124E+00
 -1      2382 2.29947E+00
 -1      2383 2.53267E+00
 -1      2384 1.45248E+00
 -1      2385 1.89967E+00
 -1      2386 1.88073E+00
 -1      2387 1.18504E+00
 -1      2388 1.35037E+00
 -1      2389 1.67704E+00
 -1      2390 1.14437E+00
 -1      2391 1.02515E+00
 -1      2392 1.41503E+00
 -1      2393 1.21679E+00
 -1      2394 1.15657E+00
 -1      2395 1.26733E+00
 -1      2396 1.18447E+00
 -1      2397 1.17435E+00
 -1      2398 1.23709E+00
 -1      2399 1.12360E+00
 -1      2400 1.14841E+00
 -1      2401 1.15859E+00
 -1      2402 1.02278E+00
 -1      2403 1.08083E+00
 -1      2404 1.07976E+00
 -1      2405 8.92512E-01
 -1      2406 9.52659E-01
 -1      2407 9.66869E-01
 -1      2408 7.44975E-01
 -1      2409 8.18081E-01
 -1      2410 8.22317E-01
 -1      2411 5.99564E-01
 -1      2412 6.73111E-01
 -1      2413 6.76023E-01
 -1      2414 4.70027E-01
 -1      2415 5.36982E-01
 -1      2416 5.41576E-01
 -1      2417 3.58163E-01
 -1      2418 4.15370E-01
 -1      2419 4.24336E-01
 -1      2420 2.65761E-01
 -1      2421 3.12491E-01
 -1      2422 3.24006E-01
 -1      2423 1.95531E-01
 -1      2424 2.28856E-01
 -1      2425 2.41429E-01
 -1      2426 1.43021E-01
 -1      2427 1.66514E-01
 -1      2428 1.75506E-01
 -1      2429 1.02002E-01
 -1      2430 1.20742E-01
 -1      2431 1.24209E-01
 -1      2432 7.06581E-02
 -1      2433 8.52743E-02
 -1      2434 8.52025E-02
 -1      2435 4.92367E-02
 -1      2436 6.04038E-02
 -1      2437 5.82209E-02
 -1      2438 3.38405E-02
 -1      2439 4.22044E-02
 -1      2440 4.09343E-02
 -1      2441 2.68105E-02
 -1      2442 3.02948E-02
 -1      2443 3.03563E-02
 -1      2444 2.26269E-02
 -1      2445 2.47187E-02
 -1      2446 2.47187E-02
 -1      2447 1.85708E-02
 -1      2448 2.05989E-02
 -1      2449 2.05989E-02
 -1      2450 1.48255E-02
 -1      2451 1.66982E-02
 -1      2452 1.66982E-02
 -1      2453 1.14788E-02
 -1      2454 1.31522E-02
 -1      2455 1.31522E-02
 -1      2456 9.38555E-03
 -1      2457 1.04322E-02
 -1      2458 1.04322E-02
 -1      2459 7.80658E-03
 -1      2460 8.56971E-03
 -1      2461 8.56971E-03
 -1      2462 6.23889E-03
 -1      2463 6.96864E-03
 -1      2464 6.91594E-03
 -1      2465 4.86441E-03
 -1      2466 5.49014E-03
 -1      2467 5.32926E-03
 -1      2468 3.62087E-03
 -1      2469 4.23778E-03
 -1      2470 3.95389E-03
 -1      2471 2.58216E-03
 -1      2472 3.13652E-03
 -1      2473 2.84291E-03
 -1      2474 2.28063E-03
 -1      2475 1.55680E-03
 -1      2476 1.47010E-03
 -1      2477 1.61535E-03
 -1      2478 1.58372E-03
 -1      2479 1.73251E-03
 -1      2480 1.57570E-03
 -1      2481 1.95783E-03
 -1      2482 1.37796E-03
 -1      2483 1.25627E-03
 -1      2484 1.84074E-03
 -1      2485 1.61345E-03
 -1      2486 1.61535E-03
 -1      2487 1.61535E-03
 -1      2488 1.75944E-03
 -1      2489 1.59032E-03
 -1      2490 1.59320E-03
 -1      2491 1.73729E-03
 -1      2492 1.60790E-03
 -1      2493 1.60790E-03
 -1      2494 1.73272E-03
 -1      2495 1.57549E-03
 -1      2496 1.60790E-03
 -1      2497 1.75029E-03
 -1      2498 1.46608E-03
 -1      2499 1.54808E-03
 -1      2500 1.72288E-03
 -1      2501 1.42651E-03
 -1      2502 1.54963E-03
 -1      2503 1.77903E-03
 -1      2504 1.59650E-03
 -1      2505 1.23899E-03
 -1      2506 1.67507E-03
 -1      2507 1.94149E-03
 -1      2508 2.89580E+01
 -1      2509 2.78577E+01
 -1      2510 7.21359E-01
 -1      2511 6.78333E-01
 -1      2512 8.12680E-01
 -1      2513 1.47384E+01
 -1      2514 2.07578E+01
 -1      2515 2.46315E+01
 -1      2516 2.51077E+01
 -1      2517 1.87202E+00
 -1      2518 1.19688E+00
 -1      2519 1.04119E+00
 -1      2520 1.29272E+00
 -1      2521 9.49777E+00
 -1      2522 1.29658E+01
 -1      2523 2.65919E+01
 -1      2524 3.20367E+01
 -1      2525 8.85998E+00
 -1      2526 8.17148E+00
 -1      2527 5.94223E+00
 -1      2528 4.81249E-01
 -1      2529 5.52527E-01
 -1      2530 5.54618E-01
 -1      2531 3.93570E-01
 -1      2532 9.05469E+00
 -1      2533 9.46021E+00
 -1      2534 3.74815E+01
 -1      2535 3.74815E+01
 -1      2536 7.32189E+00
 -1      2537 8.06054E+00
 -1      2538 7.02556E+00
 -1      2539 5.34653E+00
 -1      2540 6.26612E+00
 -1      2541 9.90250E+00
 -1      2542 6.79489E+00
 -1      2543 1.72457E+01
 -1      2544 1.23139E+01
 -1      2545 9.22801E+00
 -1      2546 2.05571E+01
 -1      2547 1.90467E+01
 -1      2548 7.47723E+00
 -1      2549 1.04887E+01
 -1      2550 3.16771E+01
 -1      2551 2.58728E+01
 -1      2552 1.95398E+01
 -1      2553 2.15989E+01
 -1      2554 8.30345E+00
 -1      2555 8.77793E+00
 -1      2556 8.62212E+00
 -1      2557 7.85323E+00
 -1      2558 9.14087E+00
 -1      2559 9.16423E+00
 -1      2560 5.98360E+00
 -1      2561 7.32823E+00
 -1      2562 6.14878E+00
 -1      2563 7.71399E+00
 -1      2564 6.36438E+00
 -1      2565 1.28668E+01
 -1      2566 9.19504E+00
 -1      2567 2.08782E+01
 -1      2568 1.48914E+01
 -1      2569 6.50618E+00
 -1      2570 7.36402E+00
 -1      2571 7.37066E+00
 -1      2572 5.15107E+00
 -1      2573 1.30133E+00
 -1      2574 1.49917E+00
 -1      2575 1.37531E+00
 -1      2576 1.19245E+00
 -1      2577 7.41947E+00
 -1      2578 8.85998E+00
 -1      2579 6.81923E+00
 -1      2580 8.74592E-01
 -1      2581 9.80808E-01
 -1      2582 1.14805E+00
 -1      2583 7.05512E-01
 -1      2584 1.33176E+00
 -1      2585 2.55019E+01
 -1      2586 2.59751E+01
 -1      2587 2.48747E+01
 -1      2588 1.09218E+01
 -1      2589 5.55434E+00
 -1      2590 2.52852E+01
 -1      2591 2.46315E+01
 -1      2592 1.72540E+01
 -1      2593 2.05703E-03
 -1      2594 2.05703E-03
 -1      2595 7.48695E+00
 -1      2596 1.96727E-03
 -1      2597 1.73125E-03
 -1      2598 1.62229E-03
 -1      2599 2.29625E-03
 -1      2600 7.30778E+00
 -1      2601 1.23301E+00
 -1      2602 1.12770E+01
 -1      2603 1.45086E+01
 -1      2604 1.71758E+01
 -1      2605 3.16771E+01
 -1      2606 2.15989E+01
 -1      2607 3.20367E+01
 -1      2608 4.88870E+00
 -1      2609 5.84277E+00
 -1      2610 4.23567E+00
 -1      2611 1.34405E+01
 -1      2612 4.97564E+00
 -1      2613 6.75682E+00
 -1      2614 4.89499E+00
 -1      2615 5.66927E+00
 -1      2616 1.04213E+01
 -1      2617 1.29078E+00
 -1      2618 5.36823E+00
 -1      2619 2.05571E+01
 -1      2620 7.41617E+00
 -1      2621 2.25936E-03
 -1      2622 2.29625E-03
 -1      2623 6.04878E-01
 -1      2624 4.91882E-01
 -1      2625 4.08066E-01
 -1      2626 3.61997E-01
 -1      2627 4.94893E-01
 -1      2628 8.68627E-01
 -1      2629 8.12011E-01
 -1      2630 1.05497E+00
 -1      2631 8.83697E-01
 -1      2632 8.61851E-01
 -1      2633 8.35715E-01
 -1      2634 1.07923E+00
 -1      2635 9.35501E+00
 -1      2636 1.11276E+01
 -1      2637 7.46154E-01
 -1      2638 7.05512E-01
 -1      2639 8.76356E-01
 -1      2640 1.19245E+00
 -1      2641 6.85109E-01
 -1      2642 6.86453E-01
 -1      2643 7.19452E-01
 -1      2644 7.46656E-01
 -1      2645 7.67887E-01
 -1      2646 8.11008E-01
 -1      2647 8.39664E-01
 -1      2648 8.65238E-01
 -1      2649 9.19299E-01
 -1      2650 9.29069E-01
 -1      2651 1.00923E+00
 -1      2652 1.00440E+00
 -1      2653 1.12182E+00
 -1      2654 1.16419E+00
 -1      2655 1.27007E+00
 -1      2656 1.34112E+00
 -1      2657 1.38777E+00
 -1      2658 1.50439E+00
 -1      2659 1.61731E+00
 -1      2660 1.69929E+00
 -1      2661 2.27367E+00
 -1      2662 2.36339E+00
 -1      2663 2.51893E+00
 -1      2664 2.55321E+00
 -1      2665 2.72175E+00
 -1      2666 3.36512E+00
 -1      2667 3.08445E+00
 -1      2668 3.35360E+00
 -1      2669 3.91764E+00
 -1      2670 3.93353E+00
 -1      2671 3.93788E+00
 -1      2672 4.86027E+00
 -1      2673 3.98648E+00
 -1      2674 3.82347E+00
 -1      2675 5.48880E+00
 -1      2676 2.64655E+00
 -1      2677 2.37023E+00
 -1      2678 4.36047E+00
 -1      2679 1.89426E+00
 -1      2680 1.81949E+00
 -1      2681 2.70758E+00
 -1      2682 1.69195E+00
 -1      2683 1.58029E+00
 -1      2684 2.10408E+00
 -1      2685 1.42992E+00
 -1      2686 1.36715E+00
 -1      2687 1.82617E+00
 -1      2688 1.20554E+00
 -1      2689 1.12488E+00
 -1      2690 1.51419E+00
 -1      2691 1.05572E+00
 -1      2692 1.05590E+00
 -1      2693 1.28341E+00
 -1      2694 9.65874E-01
 -1      2695 9.33229E-01
 -1      2696 1.12422E+00
 -1      2697 8.45514E-01
 -1      2698 7.98500E-01
 -1      2699 9.46487E-01
 -1      2700 7.46174E-01
 -1      2701 7.12178E-01
 -1      2702 8.06446E-01
 -1      2703 6.58494E-01
 -1      2704 6.19756E-01
 -1      2705 7.00436E-01
 -1      2706 5.65716E-01
 -1      2707 5.20398E-01
 -1      2708 5.92712E-01
 -1      2709 4.70006E-01
 -1      2710 4.24251E-01
 -1      2711 4.88281E-01
 -1      2712 3.79485E-01
 -1      2713 3.37044E-01
 -1      2714 3.93123E-01
 -1      2715 2.98647E-01
 -1      2716 2.61457E-01
 -1      2717 3.09961E-01
 -1      2718 2.29433E-01
 -1      2719 1.98190E-01
 -1      2720 2.39541E-01
 -1      2721 1.72114E-01
 -1      2722 1.46736E-01
 -1      2723 1.81442E-01
 -1      2724 1.25954E-01
 -1      2725 1.05923E-01
 -1      2726 1.34584E-01
 -1      2727 8.96923E-02
 -1      2728 7.42904E-02
 -1      2729 9.75707E-02
 -1      2730 6.18650E-02
 -1      2731 5.03185E-02
 -1      2732 6.89142E-02
 -1      2733 4.10008E-02
 -1      2734 3.35154E-02
 -1      2735 4.71710E-02
 -1      2736 2.66823E-02
 -1      2737 2.20988E-02
 -1      2738 3.10202E-02
 -1      2739 1.72131E-02
 -1      2740 1.60655E-02
 -1      2741 1.93013E-02
 -1      2742 1.37447E-02
 -1      2743 1.24429E-02
 -1      2744 1.20947E-02
 -1      2745 1.22256E-02
 -1      2746 1.08987E-02
 -1      2747 9.55650E-03
 -1      2748 1.04146E-02
 -1      2749 9.14468E-03
 -1      2750 8.85498E-03
 -1      2751 8.52000E-03
 -1      2752 7.42855E-03
 -1      2753 7.74617E-03
 -1      2754 6.75029E-03
 -1      2755 6.13168E-03
 -1      2756 6.44323E-03
 -1      2757 5.54666E-03
 -1      2758 4.87253E-03
 -1      2759 5.17994E-03
 -1      2760 4.41182E-03
 -1      2761 3.76701E-03
 -1      2762 4.13421E-03
 -1      2763 3.32105E-03
 -1      2764 2.80852E-03
 -1      2765 3.22753E-03
 -1      2766 6.64504E+00
 -1      2767 6.10293E+00
 -1      2768 6.43709E+00
 -1      2769 6.80003E+00
 -1      2770 1.06166E+00
 -1      2771 9.85353E-01
 -1      2772 1.71048E+00
 -1      2773 1.58458E+00
 -1      2774 2.34201E+00
 -1      2775 2.30348E+00
 -1      2776 2.52717E+00
 -1      2777 2.22872E+00
 -1      2778 2.04203E+00
 -1      2779 2.82019E+00
 -1      2780 2.10654E+00
 -1      2781 1.93724E+00
 -1      2782 2.22872E+00
 -1      2783 4.28781E+00
 -1      2784 3.57141E+00
 -1      2785 3.40211E+00
 -1      2786 4.82312E+00
 -1      2787 5.26394E+00
 -1      2788 4.95114E+00
 -1      2789 2.53267E+00
 -1      2790 3.08305E+00
 -1      2791 2.28363E+00
 -1      2792 2.38520E+00
 -1      2793 2.93558E+00
 -1      2794 2.04145E+00
 -1      2795 2.14356E+00
 -1      2796 2.64804E+00
 -1      2797 1.68057E+00
 -1      2798 1.84047E+00
 -1      2799 2.30699E+00
 -1      2800 1.63294E+00
 -1      2801 1.62075E+00
 -1      2802 2.04618E+00
 -1      2803 1.41325E+00
 -1      2804 1.45569E+00
 -1      2805 1.80910E+00
 -1      2806 1.22914E+00
 -1      2807 1.26521E+00
 -1      2808 1.48381E+00
 -1      2809 1.10462E+00
 -1      2810 1.14739E+00
 -1      2811 1.25401E+00
 -1      2812 9.55536E-01
 -1      2813 1.02566E+00
 -1      2814 1.09329E+00
 -1      2815 7.98349E-01
 -1      2816 8.72780E-01
 -1      2817 9.31568E-01
 -1      2818 6.47913E-01
 -1      2819 7.19777E-01
 -1      2820 7.70240E-01
 -1      2821 5.15052E-01
 -1      2822 5.77635E-01
 -1      2823 6.21390E-01
 -1      2824 4.00038E-01
 -1      2825 4.54696E-01
 -1      2826 4.90755E-01
 -1      2827 3.04043E-01
 -1      2828 3.49715E-01
 -1      2829 3.80075E-01
 -1      2830 2.26190E-01
 -1      2831 2.63096E-01
 -1      2832 2.88805E-01
 -1      2833 1.64564E-01
 -1      2834 1.93582E-01
 -1      2835 2.15249E-01
 -1      2836 1.16809E-01
 -1      2837 1.39088E-01
 -1      2838 1.57164E-01
 -1      2839 8.05406E-02
 -1      2840 9.72680E-02
 -1      2841 1.12147E-01
 -1      2842 5.55768E-02
 -1      2843 6.58311E-02
 -1      2844 7.78965E-02
 -1      2845 3.76882E-02
 -1      2846 4.47205E-02
 -1      2847 5.23307E-02
 -1      2848 2.63019E-02
 -1      2849 2.98477E-02
 -1      2850 3.36338E-02
 -1      2851 1.97608E-02
 -1      2852 2.18526E-02
 -1      2853 2.13440E-02
 -1      2854 1.57738E-02
 -1      2855 1.78019E-02
 -1      2856 1.49357E-02
 -1      2857 1.31312E-02
 -1      2858 1.50038E-02
 -1      2859 1.22068E-02
 -1      2860 1.05746E-02
 -1      2861 1.22479E-02
 -1      2862 1.05536E-02
 -1      2863 8.62317E-03
 -1      2864 9.66980E-03
 -1      2865 8.76554E-03
 -1      2866 6.93867E-03
 -1      2867 7.75451E-03
 -1      2868 6.99213E-03
 -1      2869 5.56980E-03
 -1      2870 6.40774E-03
 -1      2871 5.59253E-03
 -1      2872 4.26464E-03
 -1      2873 5.01338E-03
 -1      2874 4.50518E-03
 -1      2875 3.13879E-03
 -1      2876 3.76541E-03
 -1      2877 3.44954E-03
 -1      2878 2.54465E-03
 -1      2879 3.02900E-03
 -1      2880 2.84053E-03
 -1      2881 2.44546E-03
 -1      2882 1.80943E-03
 -1      2883 1.83157E-03
 -1      2884 2.80852E-03
 -1      2885 2.26931E-03
 -1      2886 2.78158E-03
 -1      2887 1.88495E-03
 -1      2888 1.85802E-03
 -1      2889 1.82765E-03
 -1      2890 1.81008E-03
 -1      2891 1.90436E-03
 -1      2892 1.88495E-03
 -1      2893 1.88495E-03
 -1      2894 2.01046E-03
 -1      2895 1.95709E-03
 -1      2896 1.32649E+01
 -1      2897 1.74693E+01
 -1      2898 1.85441E-03
 -1      2899 1.85441E-03
 -1      2900 1.93177E-03
 -1      2901 1.83456E-03
 -1      2902 1.86196E-03
 -1      2903 1.96608E-03
 -1      2904 2.32208E-03
 -1      2905 2.23853E-03
 -1      2906 2.37761E-03
 -1      2907 8.79206E-01
 -1      2908 8.12680E-01
 -1      2909 8.12680E-01
 -1      2910 9.85353E-01
 -1      2911 1.93912E+01
 -1      2912 2.32180E+01
 -1      2913 1.04109E+01
 -1      2914 8.38632E+00
 -1      2915 1.23199E+00
 -1      2916 9.82396E-01
 -1      2917 3.53016E+00
 -1      2918 4.58593E+00
 -1      2919 1.26262E+01
 -1      2920 1.08251E+01
 -1      2921 5.13526E+00
 -1      2922 4.25826E+00
 -1      2923 1.44106E+00
 -1      2924 1.40903E+00
 -1      2925 1.79065E+00
 -1      2926 1.25119E+00
 -1      2927 1.18165E+00
 -1      2928 1.48930E+00
 -1      2929 9.82396E-01
 -1      2930 9.04260E-01
 -1      2931 9.54038E-01
 -1      2932 1.17319E+00
 -1      2933 1.12668E+01
 -1      2934 1.33642E+01
 -1      2935 5.53729E+00
 -1      2936 4.08894E+00
 -1      2937 7.66805E-01
 -1      2938 6.93708E-01
 -1      2939 6.67540E-01
 -1      2940 8.01577E-01
 -1      2941 1.49278E+01
 -1      2942 1.99207E+01
 -1      2943 1.92027E+01
 -1      2944 1.38871E+01
 -1      2945 9.62890E+00
 -1      2946 7.21748E+00
 -1      2947 1.23199E+00
 -1      2948 6.80092E-01
 -1      2949 7.34520E-01
 -1      2950 7.44392E+00
 -1      2951 5.96287E+00
 -1      2952 2.16222E+01
 -1      2953 2.70670E+01
 -1      2954 1.49511E+01
 -1      2955 2.13456E-03
 -1      2956 7.34597E+00
 -1      2957 9.33593E+00
 -1      2958 8.19148E+00
 -1      2959 1.70383E+01
 -1      2960 1.28089E+01
 -1      2961 2.22202E+01
 -1      2962 1.89940E+01
 -1      2963 5.35548E+00
 -1      2964 6.33070E+00
 -1      2965 4.57923E+00
 -1      2966 4.19845E+00
 -1      2967 4.38037E+00
 -1      2968 2.67309E+01
 -1      2969 2.09265E+01
 -1      2970 1.42565E+01
 -1      2971 9.58529E-01
 -1      2972 1.08925E+00
 -1      2973 9.49180E-01
 -1      2974 4.19753E-01
 -1      2975 3.70674E-01
 -1      2976 4.51326E-01
 -1      2977 1.11978E+00
 -1      2978 1.13429E+01
 -1      2979 1.96079E+01
 -1      2980 1.02734E+01
 -1      2981 1.72094E+01
 -1      2982 2.01924E+01
 -1      2983 1.45548E+01
 -1      2984 2.32208E-03
 -1      2985 1.98850E-03
 -1      2986 1.83607E-03
 -1      2987 1.74392E-03
 -1      2988 5.59519E+00
 -1      2989 4.60699E+00
 -1      2990 1.21148E+00
 -1      2991 5.84311E+00
 -1      2992 4.95114E+00
 -1      2993 1.75271E-03
 -1      2994 2.07214E-03
 -1      2995 2.35743E-03
 -1      2996 1.97533E-03
 -1      2997 1.16859E+01
 -1      2998 2.78158E-03
 -1      2999 6.93303E+00
 -1      3000 8.81461E+00
 -1      3001 1.12718E+01
 -1      3002 3.69922E+00
 -1      3003 4.17326E+00
 -1      3004 4.25910E+00
 -1      3005 4.38602E+00
 -1      3006 3.40459E+00
 -1      3007 4.06390E+00
 -1      3008 5.52301E+00
 -1      3009 4.42660E+00
 -1      3010 4.86027E+00
 -1      3011 1.08925E+00
 -1      3012 3.36629E+00
 -1      3013 5.64379E+00
 -1      3014 5.93819E+00
 -1      3015 9.41739E-01
 -1      3016 3.21501E+00
 -1      3017 5.80354E+00
 -1      3018 4.71821E+00
 -1      3019 5.49868E-01
 -1      3020 6.30264E-01
 -1      3021 6.75342E-01
 -1      3022 5.26972E-01
 -1      3023 5.44919E+00
 -1      3024 6.44334E+00
 -1      3025 1.54021E+01
 -1      3026 7.56929E+00
 -1      3027 7.41990E+00
 -1      3028 1.46270E+01
 -1      3029 5.43555E+00
 -1      3030 9.24386E+00
 -1      3031 1.13812E+01
 -1      3032 8.97034E-01
 -1      3033 8.81965E-01
 -1      3034 8.10738E-01
 -1      3035 8.43737E-01
 -1      3036 9.06834E-01
 -1      3037 9.71187E-01
 -1      3038 9.49685E-01
 -1      3039 1.07950E+00
 -1      3040 1.15914E+00
 -1      3041 1.12110E+00
 -1      3042 1.33152E+00
 -1      3043 1.40685E+00
 -1      3044 1.40179E+00
 -1      3045 1.58509E+00
 -1      3046 1.73334E+00
 -1      3047 1.75241E+00
 -1      3048 1.91385E+00
 -1      3049 2.07712E+00
 -1      3050 2.11116E+00
 -1      3051 2.51893E+00
 -1      3052 3.17530E+00
 -1      3053 2.73349E+00
 -1      3054 3.55494E+00
 -1      3055 3.91764E+00
 -1      3056 4.86027E+00
 -1      3057 5.44019E+00
 -1      3058 5.59519E+00
 -1      3059 5.64379E+00
 -1      3060 5.53740E+00
 -1      3061 4.36047E+00
 -1      3062 2.10408E+00
 -1      3063 1.97654E+00
 -1      3064 2.29113E+00
 -1      3065 2.14076E+00
 -1      3066 2.29113E+00
 -1      3067 1.91903E+00
 -1      3068 1.75742E+00
 -1      3069 2.38399E+00
 -1      3070 1.51430E+00
 -1      3071 1.44513E+00
 -1      3072 1.91914E+00
 -1      3073 1.26218E+00
 -1      3074 1.17216E+00
 -1      3075 1.49307E+00
 -1      3076 1.07431E+00
 -1      3077 9.86592E-01
 -1      3078 1.21226E+00
 -1      3079 8.85146E-01
 -1      3080 8.32820E-01
 -1      3081 1.01297E+00
 -1      3082 7.44678E-01
 -1      3083 6.90995E-01
 -1      3084 8.23379E-01
 -1      3085 6.18266E-01
 -1      3086 5.64226E-01
 -1      3087 6.62509E-01
 -1      3088 5.02766E-01
 -1      3089 4.52374E-01
 -1      3090 5.28320E-01
 -1      3091 4.03991E-01
 -1      3092 3.59226E-01
 -1      3093 4.18477E-01
 -1      3094 3.19377E-01
 -1      3095 2.80981E-01
 -1      3096 3.30245E-01
 -1      3097 2.47594E-01
 -1      3098 2.15571E-01
 -1      3099 2.57010E-01
 -1      3100 1.87649E-01
 -1      3101 1.61573E-01
 -1      3102 1.95702E-01
 -1      3103 1.38956E-01
 -1      3104 1.18174E-01
 -1      3105 1.45163E-01
 -1      3106 1.00633E-01
 -1      3107 8.44021E-02
 -1      3108 1.05005E-01
 -1      3109 7.13832E-02
 -1      3110 5.89578E-02
 -1      3111 7.44456E-02
 -1      3112 4.91795E-02
 -1      3113 3.98618E-02
 -1      3114 5.16485E-02
 -1      3115 3.30668E-02
 -1      3116 2.62336E-02
 -1      3117 3.50752E-02
 -1      3118 2.12624E-02
 -1      3119 1.63767E-02
 -1      3120 2.33090E-02
 -1      3121 1.28214E-02
 -1      3122 1.05005E-02
 -1      3123 1.47824E-02
 -1      3124 8.02837E-03
 -1      3125 7.81098E-03
 -1      3126 8.75499E-03
 -1      3127 7.36109E-03
 -1      3128 6.87695E-03
 -1      3129 5.83295E-03
 -1      3130 6.91460E-03
 -1      3131 6.28992E-03
 -1      3132 5.42070E-03
 -1      3133 6.08021E-03
 -1      3134 5.40195E-03
 -1      3135 5.24864E-03
 -1      3136 5.04869E-03
 -1      3137 4.46367E-03
 -1      3138 4.68567E-03
 -1      3139 4.04040E-03
 -1      3140 3.57969E-03
 -1      3141 3.90915E-03
 -1      3142 3.40093E-03
 -1      3143 2.95498E-03
 -1      3144 3.30713E-03
 -1      3145 4.69316E+00
 -1      3146 3.30951E+00
 -1      3147 1.07209E+01
 -1      3148 8.32298E+00
 -1      3149 3.74202E+00
 -1      3150 3.14901E+00
 -1      3151 4.07108E+00
 -1      3152 4.21115E+00
 -1      3153 2.46196E+00
 -1      3154 2.52179E+00
 -1      3155 1.89979E+00
 -1      3156 2.07704E+00
 -1      3157 2.55265E+00
 -1      3158 1.56950E+00
 -1      3159 1.71754E+00
 -1      3160 1.98548E+00
 -1      3161 1.31683E+00
 -1      3162 1.39859E+00
 -1      3163 1.63232E+00
 -1      3164 1.08663E+00
 -1      3165 1.16559E+00
 -1      3166 1.31017E+00
 -1      3167 8.85974E-01
 -1      3168 9.68729E-01
 -1      3169 1.04103E+00
 -1      3170 7.09403E-01
 -1      3171 7.87975E-01
 -1      3172 8.25137E-01
 -1      3173 5.58248E-01
 -1      3174 6.28526E-01
 -1      3175 6.46262E-01
 -1      3176 4.32478E-01
 -1      3177 4.92835E-01
 -1      3178 4.99972E-01
 -1      3179 3.31618E-01
 -1      3180 3.81941E-01
 -1      3181 3.84022E-01
 -1      3182 2.50760E-01
 -1      3183 2.91708E-01
 -1      3184 2.93574E-01
 -1      3185 1.86523E-01
 -1      3186 2.19132E-01
 -1      3187 2.22034E-01
 -1      3188 1.36192E-01
 -1      3189 1.61667E-01
 -1      3190 1.65550E-01
 -1      3191 9.73257E-02
 -1      3192 1.16867E-01
 -1      3193 1.21370E-01
 -1      3194 6.78097E-02
 -1      3195 8.25192E-02
 -1      3196 8.72388E-02
 -1      3197 4.57823E-02
 -1      3198 5.66386E-02
 -1      3199 6.12612E-02
 -1      3200 2.96544E-02
 -1      3201 3.74949E-02
 -1      3202 4.18028E-02
 -1      3203 1.91752E-02
 -1      3204 2.36245E-02
 -1      3205 2.74856E-02
 -1      3206 1.29295E-02
 -1      3207 1.48884E-02
 -1      3208 1.71690E-02
 -1      3209 9.67372E-03
 -1      3210 1.04437E-02
 -1      3211 1.03964E-02
 -1      3212 8.58270E-03
 -1      3213 9.46597E-03
 -1      3214 7.70285E-03
 -1      3215 7.42785E-03
 -1      3216 8.33260E-03
 -1      3217 7.24501E-03
 -1      3218 6.12207E-03
 -1      3219 6.99073E-03
 -1      3220 6.55779E-03
 -1      3221 5.06160E-03
 -1      3222 5.59253E-03
 -1      3223 5.59114E-03
 -1      3224 3.99546E-03
 -1      3225 4.55187E-03
 -1      3226 4.55187E-03
 -1      3227 3.11436E-03
 -1      3228 3.61359E-03
 -1      3229 3.66028E-03
 -1      3230 2.67818E-03
 -1      3231 2.78797E-03
 -1      3232 2.95201E-03
 -1      3233 2.30486E-03
 -1      3234 1.24468E+01
 -1      3235 1.07230E+01
 -1      3236 6.29100E-01
 -1      3237 5.45284E-01
 -1      3238 6.14170E+00
 -1      3239 8.07255E+00
 -1      3240 1.49255E+01
 -1      3241 1.72094E+01
 -1      3242 1.85257E-03
 -1      3243 1.85192E-03
 -1      3244 2.79971E-03
 -1      3245 2.39574E-03
 -1      3246 1.98569E-03
 -1      3247 1.95893E-03
 -1      3248 1.90649E-03
 -1      3249 1.10192E+01
 -1      3250 1.27207E+01
 -1      3251 4.08269E+00
 -1      3252 5.64580E+00
 -1      3253 9.39060E+00
 -1      3254 1.09542E+01
 -1      3255 8.45980E+00
 -1      3256 7.26356E+00
 -1      3257 2.42206E+00
 -1      3258 2.27854E+00
 -1      3259 3.63691E+00
 -1      3260 5.13526E+00
 -1      3261 4.00371E+00
 -1      3262 2.19061E-03
 -1      3263 2.18306E-03
 -1      3264 2.21022E-03
 -1      3265 2.61272E-03
 -1      3266 3.88171E+00
 -1      3267 1.02728E+01
 -1      3268 9.01191E+00
 -1      3269 1.96283E+00
 -1      3270 1.80500E+00
 -1      3271 2.59424E+00
 -1      3272 4.45774E+00
 -1      3273 1.22074E+01
 -1      3274 1.41293E+01
 -1      3275 8.66685E-01
 -1      3276 8.01866E-01
 -1      3277 8.21980E-01
 -1      3278 7.36483E-01
 -1      3279 1.29553E+01
 -1      3280 1.09997E+01
 -1      3281 1.59623E+00
 -1      3282 1.47625E+00
 -1      3283 2.06976E+00
 -1      3284 1.45841E+01
 -1      3285 2.49986E+01
 -1      3286 6.79362E+00
 -1      3287 5.85123E+00
 -1      3288 1.17319E+00
 -1      3289 6.21239E+00
 -1      3290 4.53220E+00
 -1      3291 7.43151E+00
 -1      3292 1.42480E+01
 -1      3293 2.53884E+00
 -1      3294 3.03470E+00
 -1      3295 3.09762E+00
 -1      3296 1.23855E+01
 -1      3297 1.03171E+01
 -1      3298 8.45362E+00
 -1      3299 3.38910E+00
 -1      3300 5.02343E-01
 -1      3301 5.11020E-01
 -1      3302 6.36551E-01
 -1      3303 1.08813E+00
 -1      3304 1.05295E+00
 -1      3305 1.00774E+00
 -1      3306 3.36512E+00
 -1      3307 3.36512E+00
 -1      3308 7.46086E+00
 -1      3309 9.04927E+00
 -1      3310 7.34083E+00
 -1      3311 1.25270E+01
 -1      3312 2.09944E-03
 -1      3313 2.07748E-03
 -1      3314 3.55494E+00
 -1      3315 4.36047E+00
 -1      3316 3.18355E+00
 -1      3317 3.28961E+00
 -1      3318 3.20345E+00
 -1      3319 2.70758E+00
 -1      3320 4.55375E+00
 -1      3321 2.95498E-03
 -1      3322 2.97311E-03
 -1      3323 3.66330E+00
 -1      3324 7.24118E+00
 -1      3325 1.17308E+01
 -1      3326 3.18217E+00
 -1      3327 4.93595E+00
 -1      3328 4.81703E+00
 -1      3329 3.39353E+00
 -1      3330 8.46309E+00
 -1      3331 4.29749E+00
 -1      3332 6.94080E-01
 -1      3333 7.44471E-01
 -1      3334 7.82911E-01
 -1      3335 2.09944E-03
 -1      3336 2.09944E-03
 -1      3337 2.18842E-03
 -1      3338 2.78158E-03
 -1      3339 1.93991E-03
 -1      3340 1.99328E-03
 -1      3341 2.08226E-03
 -1      3342 1.88811E-03
 -1      3343 9.84699E+00
 -1      3344 7.61661E+00
 -1      3345 7.55165E+00
 -1      3346 1.01457E+01
 -1      3347 1.18779E+01
 -1      3348 8.34441E+00
 -1      3349 7.94702E+00
 -1      3350 9.30437E-01
 -1      3351 8.63911E-01
 -1      3352 8.54240E-01
 -1      3353 1.22734E+00
 -1      3354 1.12119E+00
 -1      3355 1.17242E+00
 -1      3356 1.61208E+00
 -1      3357 5.85757E+00
 -1      3358 1.08212E+01
 -1      3359 1.28490E+01
 -1      3360 9.22168E+00
 -1      3361 4.06390E+00
 -1      3362 3.55494E+00
 -1      3363 3.36536E+00
 -1      3364 3.96329E+00
 -1      3365 1.15462E+00
 -1      3366 9.35467E-01
 -1      3367 1.01132E+00
 -1      3368 1.17319E+00
 -1      3369 4.58513E+00
 -1      3370 1.01083E+01
 -1      3371 6.95104E-01
 -1      3372 7.44932E-01
 -1      3373 3.91764E+00
 -1      3374 8.06311E-01
 -1      3375 7.86549E-01
 -1      3376 1.01056E+00
 -1      3377 7.46977E+00
 -1      3378 3.17554E+00
 -1      3379 7.23814E+00
 -1      3380 6.68603E+00
 -1      3381 5.41359E+00
 -1      3382 4.68664E+00
 -1      3383 4.28034E+00
 -1      3384 7.80242E+00
 -1      3385 7.52370E+00
 -1      3386 1.21314E+00
 -1      3387 1.32146E+00
 -1      3388 1.54009E+00
 -1      3389 1.71247E+00
 -1      3390 1.63213E+00
 -1      3391 2.04799E+00
 -1      3392 2.22622E+00
 -1      3393 2.18628E+00
 -1      3394 2.46316E+00
 -1      3395 2.64367E+00
 -1      3396 2.75874E+00
 -1      3397 2.95148E+00
 -1      3398 3.39329E+00
 -1      3399 3.85282E+00
 -1      3400 3.53711E+00
 -1      3401 5.62950E+00
 -1      3402 2.81365E+00
 -1      3403 4.44129E+00
 -1      3404 4.21956E+00
 -1      3405 3.67380E+00
 -1      3406 3.43068E+00
 -1      3407 5.73110E+00
 -1      3408 2.81950E+00
 -1      3409 2.63655E+00
 -1      3410 4.57417E+00
 -1      3411 2.10518E+00
 -1      3412 2.00733E+00
 -1      3413 3.43162E+00
 -1      3414 1.63869E+00
 -1      3415 1.53725E+00
 -1      3416 2.53161E+00
 -1      3417 1.26396E+00
 -1      3418 1.17582E+00
 -1      3419 1.88969E+00
 -1      3420 1.01193E+00
 -1      3421 9.39199E-01
 -1      3422 1.45251E+00
 -1      3423 8.06193E-01
 -1      3424 7.44733E-01
 -1      3425 1.15561E+00
 -1      3426 6.34868E-01
 -1      3427 5.86485E-01
 -1      3428 9.12740E-01
 -1      3429 4.96821E-01
 -1      3430 4.56972E-01
 -1      3431 7.13211E-01
 -1      3432 3.84585E-01
 -1      3433 3.51198E-01
 -1      3434 5.51160E-01
 -1      3435 2.93172E-01
 -1      3436 2.65250E-01
 -1      3437 4.20747E-01
 -1      3438 2.19207E-01
 -1      3439 1.96590E-01
 -1      3440 3.16678E-01
 -1      3441 1.60724E-01
 -1      3442 1.43183E-01
 -1      3443 2.34768E-01
 -1      3444 1.15989E-01
 -1      3445 1.02970E-01
 -1      3446 1.71708E-01
 -1      3447 8.20578E-02
 -1      3448 7.22796E-02
 -1      3449 1.23601E-01
 -1      3450 5.64453E-02
 -1      3451 4.96503E-02
 -1      3452 8.68547E-02
 -1      3453 3.78685E-02
 -1      3454 3.28973E-02
 -1      3455 5.92386E-02
 -1      3456 2.43052E-02
 -1      3457 2.07499E-02
 -1      3458 3.88647E-02
 -1      3459 1.46314E-02
 -1      3460 1.21593E-02
 -1      3461 2.41542E-02
 -1      3462 7.92869E-03
 -1      3463 7.47879E-03
 -1      3464 1.38051E-02
 -1      3465 4.66403E-03
 -1      3466 4.70167E-03
 -1      3467 6.75976E-03
 -1      3468 4.50345E-03
 -1      3469 4.29374E-03
 -1      3470 3.74677E-03
 -1      3471 4.31411E-03
 -1      3472 3.96086E-03
 -1      3473 3.56892E-03
 -1      3474 3.93447E-03
 -1      3475 3.51120E-03
 -1      3476 3.56291E-03
 -1      3477 3.30713E-03
 -1      3478 3.12838E-03
 -1      3479 2.97311E-03
 -1      3480 3.33245E-03
 -1      3481 2.27429E-03
 -1      3482 2.28307E-03
 -1      3483 2.60383E-03
 -1      3484 2.38523E-03
 -1      3485 2.84003E+00
 -1      3486 3.22495E+00
 -1      3487 1.28816E+00
 -1      3488 1.43941E+00
 -1      3489 1.00471E+00
 -1      3490 1.12261E+00
 -1      3491 1.25185E+00
 -1      3492 8.04217E-01
 -1      3493 9.02216E-01
 -1      3494 9.83795E-01
 -1      3495 6.32857E-01
 -1      3496 7.13734E-01
 -1      3497 7.90813E-01
 -1      3498 4.91029E-01
 -1      3499 5.56442E-01
 -1      3500 6.23914E-01
 -1      3501 3.77701E-01
 -1      3502 4.28239E-01
 -1      3503 4.84709E-01
 -1      3504 2.87048E-01
 -1      3505 3.26959E-01
 -1      3506 3.71176E-01
 -1      3507 2.14777E-01
 -1      3508 2.46405E-01
 -1      3509 2.79790E-01
 -1      3510 1.58072E-01
 -1      3511 1.82928E-01
 -1      3512 2.07299E-01
 -1      3513 1.14101E-01
 -1      3514 1.33426E-01
 -1      3515 1.50804E-01
 -1      3516 8.04587E-02
 -1      3517 9.52652E-02
 -1      3518 1.07321E-01
 -1      3519 5.58612E-02
 -1      3520 6.70323E-02
 -1      3521 7.50587E-02
 -1      3522 3.76068E-02
 -1      3523 4.58942E-02
 -1      3524 5.16652E-02
 -1      3525 2.42676E-02
 -1      3526 3.02974E-02
 -1      3527 3.43888E-02
 -1      3528 1.48064E-02
 -1      3529 1.90932E-02
 -1      3530 2.19050E-02
 -1      3531 8.70621E-03
 -1      3532 1.11920E-02
 -1      3533 1.31162E-02
 -1      3534 6.39423E-03
 -1      3535 6.60198E-03
 -1      3536 7.39759E-03
 -1      3537 5.63336E-03
 -1      3538 5.88345E-03
 -1      3539 4.78258E-03
 -1      3540 5.34484E-03
 -1      3541 5.78196E-03
 -1      3542 4.42041E-03
 -1      3543 4.70394E-03
 -1      3544 5.23348E-03
 -1      3545 4.45765E-03
 -1      3546 3.92533E-03
 -1      3547 4.43506E-03
 -1      3548 4.07740E-03
 -1      3549 2.21884E+00
 -1      3550 2.40109E+00
 -1      3551 3.07339E+00
 -1      3552 1.68702E+00
 -1      3553 1.85793E+00
 -1      3554 2.27354E+00
 -1      3555 1.93844E-03
 -1      3556 1.83208E-03
 -1      3557 7.85688E+00
 -1      3558 8.68306E+00
 -1      3559 6.05093E+00
 -1      3560 7.36898E+00
 -1      3561 6.10984E+00
 -1      3562 2.68611E+00
 -1      3563 9.58612E+00
 -1      3564 1.03824E+01
 -1      3565 1.04259E+01
 -1      3566 1.04259E+01
 -1      3567 8.72004E+00
 -1      3568 7.07249E+00
 -1      3569 6.73731E+00
 -1      3570 9.81174E-01
 -1      3571 1.04427E+00
 -1      3572 1.24463E+00
 -1      3573 5.38742E-01
 -1      3574 6.37284E-01
 -1      3575 7.06874E-01
 -1      3576 1.15462E+00
 -1      3577 7.52370E+00
 -1      3578 5.99434E+00
 -1      3579 1.12550E+00
 -1      3580 1.22067E+00
 -1      3581 1.25293E+00
 -1      3582 2.54588E+00
 -1      3583 2.33711E+00
 -1      3584 3.80446E+00
 -1      3585 3.26717E+00
 -1      3586 5.63630E+00
 -1      3587 7.68827E+00
 -1      3588 7.23814E+00
 -1      3589 1.39165E+00
 -1      3590 6.46332E+00
 -1      3591 8.28124E+00
 -1      3592 5.90030E+00
 -1      3593 4.50923E+00
 -1      3594 4.53737E+00
 -1      3595 9.91987E-01
 -1      3596 4.15877E+00
 -1      3597 6.39722E+00
 -1      3598 4.97198E+00
 -1      3599 2.94525E-03
 -1      3600 2.78998E-03
 -1      3601 2.58486E-03
 -1      3602 1.01132E+00
 -1      3603 8.86588E-01
 -1      3604 9.81174E-01
 -1      3605 8.67258E-01
 -1      3606 1.03428E+00
 -1      3607 1.66501E+00
 -1      3608 1.86365E-03
 -1      3609 1.83170E-03
 -1      3610 1.91969E-03
 -1      3611 3.18748E-03
 -1      3612 3.56935E-03
 -1      3613 2.93023E-03
 -1      3614 6.26175E+00
 -1      3615 3.45254E-03
 -1      3616 8.73359E-01
 -1      3617 8.08379E-01
 -1      3618 5.91978E+00
 -1      3619 8.17120E+00
 -1      3620 6.82285E+00
 -1      3621 7.06590E+00
 -1      3622 6.89447E+00
 -1      3623 6.89447E+00
 -1      3624 7.46329E+00
 -1      3625 6.23834E+00
 -1      3626 6.01336E+00
 -1      3627 1.76573E+00
 -1      3628 1.51682E+00
 -1      3629 2.24185E+00
 -1      3630 9.37266E-01
 -1      3631 8.08379E-01
 -1      3632 7.65438E-01
 -1      3633 3.84418E+00
 -1      3634 5.68477E+00
 -1      3635 6.21332E-01
 -1      3636 2.68868E-03
 -1      3637 2.68868E-03
 -1      3638 6.27686E+00
 -1      3639 8.84709E-01
 -1      3640 9.42530E-01
 -1      3641 2.45045E-03
 -1      3642 2.25307E-03
 -1      3643 2.17866E-03
 -1      3644 2.62771E-03
 -1      3645 2.64249E-03
 -1      3646 2.83930E-03
 -1      3647 7.65908E-01
 -1      3648 8.07525E-01
 -1      3649 8.26855E-01
 -1      3650 9.43744E-01
 -1      3651 3.14275E-03
 -1      3652 4.15723E+00
 -1      3653 7.14066E+00
 -1      3654 5.61510E+00
 -1      3655 5.06934E+00
 -1      3656 5.73110E+00
 -1      3657 2.77447E+00
 -1      3658 3.10999E+00
 -1      3659 3.47941E+00
 -1      3660 3.71635E+00
 -1      3661 5.25805E+00
 -1      3662 4.06760E+00
 -1      3663 1.69244E+00
 -1      3664 1.91107E+00
 -1      3665 2.83478E+00
 -1      3666 5.73110E+00
 -1      3667 1.16682E+00
 -1      3668 1.23073E+00
 -1      3669 1.39165E+00
 -1      3670 3.49873E-03
 -1      3671 5.18535E+00
 -1      3672 4.57417E+00
 -1      3673 3.96299E+00
 -1      3674 3.43162E+00
 -1      3675 4.57417E+00
 -1      3676 2.90025E+00
 -1      3677 2.53161E+00
 -1      3678 3.43162E+00
 -1      3679 2.13705E+00
 -1      3680 1.86377E+00
 -1      3681 2.50569E+00
 -1      3682 1.57979E+00
 -1      3683 1.41590E+00
 -1      3684 1.82716E+00
 -1      3685 1.21541E+00
 -1      3686 1.08241E+00
 -1      3687 1.34270E+00
 -1      3688 9.37588E-01
 -1      3689 8.27723E-01
 -1      3690 9.97391E-01
 -1      3691 7.20646E-01
 -1      3692 6.30982E-01
 -1      3693 7.45494E-01
 -1      3694 5.51160E-01
 -1      3695 4.78773E-01
 -1      3696 5.58595E-01
 -1      3697 4.20747E-01
 -1      3698 3.62721E-01
 -1      3699 4.20747E-01
 -1      3700 3.16678E-01
 -1      3701 2.70634E-01
 -1      3702 3.16678E-01
 -1      3703 2.34768E-01
 -1      3704 1.98902E-01
 -1      3705 2.34768E-01
 -1      3706 1.71708E-01
 -1      3707 1.44513E-01
 -1      3708 1.71708E-01
 -1      3709 1.23601E-01
 -1      3710 1.02689E-01
 -1      3711 1.23601E-01
 -1      3712 8.68547E-02
 -1      3713 7.10204E-02
 -1      3714 8.68547E-02
 -1      3715 5.92386E-02
 -1      3716 4.74568E-02
 -1      3717 5.92386E-02
 -1      3718 3.91299E-02
 -1      3719 3.05378E-02
 -1      3720 3.91299E-02
 -1      3721 2.49115E-02
 -1      3722 1.87931E-02
 -1      3723 2.51767E-02
 -1      3724 1.48068E-02
 -1      3725 1.05762E-02
 -1      3726 1.55641E-02
 -1      3727 7.82894E-03
 -1      3728 5.01417E-03
 -1      3729 8.83058E-03
 -1      3730 3.42793E-03
 -1      3731 3.22971E-03
 -1      3732 4.49711E-03
 -1      3733 3.22543E-03
 -1      3734 3.24581E-03
 -1      3735 2.90659E-03
 -1      3736 3.56291E-03
 -1      3737 3.53652E-03
 -1      3738 3.21942E-03
 -1      3739 3.14932E-03
 -1      3740 7.64245E-01
 -1      3741 8.54729E-01
 -1      3742 5.62950E+00
 -1      3743 1.52420E+00
 -1      3744 3.18894E-03
 -1      3745 3.49873E-03
 -1      3746 9.82479E-01
 -1      3747 1.08498E+00
 -1      3748 9.55912E-01
 -1      3749 1.25185E+00
 -1      3750 1.41740E+00
 -1      3751 1.25053E+00
 -1      3752 5.91107E-01
 -1      3753 6.67522E-01
 -1      3754 7.31438E-01
 -1      3755 4.55637E-01
 -1      3756 5.18428E-01
 -1      3757 5.62035E-01
 -1      3758 3.46629E-01
 -1      3759 3.97371E-01
 -1      3760 4.31090E-01
 -1      3761 2.60351E-01
 -1      3762 3.00994E-01
 -1      3763 3.27189E-01
 -1      3764 1.93121E-01
 -1      3765 2.24970E-01
 -1      3766 2.46173E-01
 -1      3767 1.40795E-01
 -1      3768 1.65442E-01
 -1      3769 1.83113E-01
 -1      3770 1.00411E-01
 -1      3771 1.19247E-01
 -1      3772 1.33885E-01
 -1      3773 7.05968E-02
 -1      3774 8.40232E-02
 -1      3775 9.59488E-02
 -1      3776 4.82967E-02
 -1      3777 5.82638E-02
 -1      3778 6.72283E-02
 -1      3779 3.23100E-02
 -1      3780 3.96194E-02
 -1      3781 4.62180E-02
 -1      3782 2.08144E-02
 -1      3783 2.59889E-02
 -1      3784 3.12195E-02
 -1      3785 1.26142E-02
 -1      3786 1.62286E-02
 -1      3787 2.03124E-02
 -1      3788 7.26163E-03
 -1      3789 9.36586E-03
 -1      3790 1.24782E-02
 -1      3791 4.56806E-03
 -1      3792 5.07883E-03
 -1      3793 7.04711E-03
 -1      3794 3.45546E-03
 -1      3795 3.30687E-03
 -1      3796 3.60312E-03
 -1      3797 3.68264E-03
 -1      3798 3.79400E-03
 -1      3799 2.68045E-03
 -1      3800 3.76761E-03
 -1      3801 2.05481E+00
 -1      3802 2.41572E+00
 -1      3803 1.63708E+00
 -1      3804 1.88469E+00
 -1      3805 1.63708E+00
 -1      3806 7.32952E-01
 -1      3807 7.60673E-01
 -1      3808 9.96329E-01
 -1      3809 9.04780E-01
 -1      3810 2.20945E-03
 -1      3811 2.31560E-03
 -1      3812 2.81586E-03
 -1      3813 2.15303E-03
 -1      3814 5.44073E+00
 -1      3815 5.51442E+00
 -1      3816 4.97030E+00
 -1      3817 3.24309E+00
 -1      3818 4.70274E+00
 -1      3819 4.19089E+00
 -1      3820 2.80415E+00
 -1      3821 1.16546E+00
 -1      3822 1.33433E+00
 -1      3823 1.61327E+00
 -1      3824 1.44368E+00
 -1      3825 1.25293E+00
 -1      3826 1.52420E+00
 -1      3827 1.59733E+00
 -1      3828 7.03435E+00
 -1      3829 6.00591E+00
 -1      3830 5.17209E+00
 -1      3831 7.27294E+00
 -1      3832 5.19192E+00
 -1      3833 6.87761E+00
 -1      3834 4.18086E+00
 -1      3835 6.83414E+00
 -1      3836 6.87761E+00
 -1      3837 5.43051E+00
 -1      3838 4.97030E+00
 -1      3839 5.29889E+00
 -1      3840 5.78093E+00
 -1      3841 4.58442E+00
 -1      3842 2.58542E+00
 -1      3843 1.19617E+00
 -1      3844 1.32021E+00
 -1      3845 3.14932E-03
 -1      3846 4.57103E+00
 -1      3847 4.33244E+00
 -1      3848 4.44845E+00
 -1      3849 3.18894E-03
 -1      3850 3.18894E-03
 -1      3851 2.81586E-03
 -1      3852 1.84578E-03
 -1      3853 1.84541E-03
 -1      3854 3.10396E-03
 -1      3855 2.02687E+00
 -1      3856 5.78093E+00
 -1      3857 5.78093E+00
 -1      3858 5.06646E+00
 -1      3859 4.51073E+00
 -1      3860 1.52420E+00
 -1      3861 5.41922E+00
 -1      3862 1.14718E+00
 -1      3863 1.14718E+00
 -1      3864 2.72745E+00
 -1      3865 2.15606E+00
 -1      3866 1.20332E+00
 -1      3867 1.29791E+00
 -1      3868 1.38761E+00
 -1      3869 1.14359E+00
 -1      3870 4.09508E+00
 -1      3871 1.57484E+00
 -1      3872 1.28137E+00
 -1      3873 1.49128E+00
 -1      3874 2.36627E-03
 -1      3875 2.05164E-03
 -1      3876 2.03339E-03
 -1      3877 1.32021E+00
 -1      3878 1.52006E+00
 -1      3879 2.59787E+00
 -1      3880 3.46127E+00
 -1      3881 1.05953E+00
 -1      3882 1.38341E+00
 -1      3883 1.09201E+00
 -1      3884 3.01491E-03
 -1      3885 3.83727E+00
 -1      3886 3.40327E+00
 -1      3887 2.87191E+00
 -1      3888 2.18815E+00
 -1      3889 1.79359E+00
 -1      3890 2.15980E+00
 -1      3891 1.56142E+00
 -1      3892 1.27745E+00
 -1      3893 1.24388E+00
 -1      3894 1.12434E+00
 -1      3895 9.23857E-01
 -1      3896 8.58605E-01
 -1      3897 8.52524E-01
 -1      3898 7.07704E-01
 -1      3899 6.34169E-01
 -1      3900 6.26411E-01
 -1      3901 5.19334E-01
 -1      3902 4.81543E-01
 -1      3903 4.70621E-01
 -1      3904 3.90799E-01
 -1      3905 3.51538E-01
 -1      3906 3.60216E-01
 -1      3907 3.02191E-01
 -1      3908 2.72242E-01
 -1      3909 2.74399E-01
 -1      3910 2.28356E-01
 -1      3911 2.13869E-01
 -1      3912 2.06879E-01
 -1      3913 1.71013E-01
 -1      3914 1.64600E-01
 -1      3915 1.53567E-01
 -1      3916 1.26372E-01
 -1      3917 1.25677E-01
 -1      3918 1.12460E-01
 -1      3919 9.15476E-02
 -1      3920 9.43189E-02
 -1      3921 8.06556E-02
 -1      3922 6.48213E-02
 -1      3923 6.95143E-02
 -1      3924 5.64052E-02
 -1      3925 4.46233E-02
 -1      3926 5.02061E-02
 -1      3927 3.82158E-02
 -1      3928 2.98889E-02
 -1      3929 3.53823E-02
 -1      3930 2.54617E-02
 -1      3931 1.98354E-02
 -1      3932 2.45476E-02
 -1      3933 1.65366E-02
 -1      3934 1.25503E-02
 -1      3935 1.68216E-02
 -1      3936 1.01057E-02
 -1      3937 7.35850E-03
 -1      3938 1.10782E-02
 -1      3939 5.59574E-03
 -1      3940 4.00950E-03
 -1      3941 6.87088E-03
 -1      3942 2.68038E-03
 -1      3943 2.67611E-03
 -1      3944 3.77901E-03
 -1      3945 5.07162E-01
 -1      3946 5.79842E-01
 -1      3947 8.91328E-01
 -1      3948 1.01908E+00
 -1      3949 6.46531E-01
 -1      3950 7.43254E-01
 -1      3951 5.91658E-01
 -1      3952 1.23917E+00
 -1      3953 1.40604E+00
 -1      3954 1.17458E+00
 -1      3955 2.95823E-03
 -1      3956 2.87326E-03
 -1      3957 2.95823E-03
 -1      3958 3.88512E-01
 -1      3959 4.46778E-01
 -1      3960 4.64585E-01
 -1      3961 2.85377E-01
 -1      3962 3.31012E-01
 -1      3963 3.46700E-01
 -1      3964 2.25860E-01
 -1      3965 2.61241E-01
 -1      3966 2.65064E-01
 -1      3967 1.72812E-01
 -1      3968 2.00492E-01
 -1      3969 2.15559E-01
 -1      3970 1.27567E-01
 -1      3971 1.49116E-01
 -1      3972 1.66494E-01
 -1      3973 9.21133E-02
 -1      3974 1.08501E-01
 -1      3975 1.23732E-01
 -1      3976 6.49639E-02
 -1      3977 7.72969E-02
 -1      3978 8.98489E-02
 -1      3979 4.51692E-02
 -1      3980 5.38466E-02
 -1      3981 6.39152E-02
 -1      3982 3.08705E-02
 -1      3983 3.71917E-02
 -1      3984 4.48203E-02
 -1      3985 2.03136E-02
 -1      3986 2.48994E-02
 -1      3987 3.08717E-02
 -1      3988 1.26821E-02
 -1      3989 1.59305E-02
 -1      3990 2.05175E-02
 -1      3991 7.34370E-03
 -1      3992 9.52650E-03
 -1      3993 1.29787E-02
 -1      3994 3.80549E-03
 -1      3995 5.06669E-03
 -1      3996 7.54608E-03
 -1      3997 2.37164E-03
 -1      3998 2.03311E-03
 -1      3999 3.49669E-03
 -1      4000 2.22592E-03
 -1      4001 2.01049E+00
 -1      4002 2.18060E+00
 -1      4003 1.66860E+00
 -1      4004 1.88828E+00
 -1      4005 1.65724E+00
 -1      4006 1.80800E+00
 -1      4007 2.16611E+00
 -1      4008 2.79260E+00
 -1      4009 4.14130E+00
 -1      4010 3.90639E+00
 -1      4011 3.90639E+00
 -1      4012 2.88788E-03
 -1      4013 2.38972E+00
 -1      4014 1.90412E+00
 -1      4015 1.83098E+00
 -1      4016 3.41983E+00
 -1      4017 4.63687E+00
 -1      4018 3.03141E+00
 -1      4019 2.09508E-03
 -1      4020 2.38484E-03
 -1      4021 2.75791E-03
 -1      4022 2.07721E-03
 -1      4023 4.64817E+00
 -1      4024 1.30192E+00
 -1      4025 4.97193E+00
 -1      4026 3.51852E+00
 -1      4027 4.57103E+00
 -1      4028 4.57103E+00
 -1      4029 3.71155E+00
 -1      4030 5.54849E+00
 -1      4031 1.80380E+00
 -1      4032 1.94045E+00
 -1      4033 1.88162E+00
 -1      4034 1.74743E+00
 -1      4035 8.06421E-01
 -1      4036 3.27755E+00
 -1      4037 4.97193E+00
 -1      4038 2.19631E-03
 -1      4039 2.51341E-03
 -1      4040 3.01502E+00
 -1      4041 3.90440E+00
 -1      4042 1.83098E+00
 -1      4043 1.88162E+00
 -1      4044 2.04201E+00
 -1      4045 4.48990E+00
 -1      4046 4.97193E+00
 -1      4047 4.39537E+00
 -1      4048 3.81186E+00
 -1      4049 3.22636E+00
 -1      4050 1.86477E-03
 -1      4051 2.36084E+00
 -1      4052 1.94045E+00
 -1      4053 1.94045E+00
 -1      4054 2.38972E+00
 -1      4055 2.13777E+00
 -1      4056 1.65892E-03
 -1      4057 1.80130E-03
 -1      4058 2.05097E-03
 -1      4059 1.63268E-03
 -1      4060 1.73591E+00
 -1      4061 1.68075E+00
 -1      4062 2.23779E+00
 -1      4063 2.12625E+00
 -1      4064 3.78320E+00
 -1      4065 4.56555E+00
 -1      4066 3.70607E+00
 -1      4067 2.93240E+00
 -1      4068 3.26657E+00
 -1      4069 1.97010E-03
 -1      4070 6.58347E-01
 -1      4071 8.06421E-01
 -1      4072 2.80706E+00
 -1      4073 2.12331E+00
 -1      4074 1.43536E+00
 -1      4075 1.20319E+00
 -1      4076 2.08262E+00
 -1      4077 9.83101E-01
 -1      4078 8.29998E-01
 -1      4079 1.17458E+00
 -1      4080 6.81925E-01
 -1      4081 6.10592E-01
 -1      4082 4.07842E-01
 -1      4083 3.59129E-01
 -1      4084 2.97170E-01
 -1      4085 2.66588E-01
 -1      4086 3.53474E-01
 -1      4087 2.42215E-01
 -1      4088 2.14424E-01
 -1      4089 2.67143E-01
 -1      4090 1.88134E-01
 -1      4091 1.66657E-01
 -1      4092 2.16480E-01
 -1      4093 1.42961E-01
 -1      4094 1.25515E-01
 -1      4095 1.66494E-01
 -1      4096 1.06448E-01
 -1      4097 9.25358E-02
 -1      4098 1.23732E-01
 -1      4099 7.77194E-02
 -1      4100 6.68274E-02
 -1      4101 8.98489E-02
 -1      4102 5.57100E-02
 -1      4103 4.72939E-02
 -1      4104 6.39152E-02
 -1      4105 3.93163E-02
 -1      4106 3.29087E-02
 -1      4107 4.48203E-02
 -1      4108 2.69377E-02
 -1      4109 2.25105E-02
 -1      4110 3.08717E-02
 -1      4111 1.83825E-02
 -1      4112 1.50837E-02
 -1      4113 2.07726E-02
 -1      4114 1.22176E-02
 -1      4115 9.77304E-03
 -1      4116 1.37786E-02
 -1      4117 7.67046E-03
 -1      4118 5.90770E-03
 -1      4119 8.80986E-03
 -1      4120 4.37934E-03
 -1      4121 3.05023E-03
 -1      4122 5.17892E-03
 -1      4123 2.89200E-01
 -1      4124 3.46700E-01
 -1      4125 3.25505E+00
 -1      4126 3.27755E+00
 -1      4127 9.54494E-01
 -1      4128 1.17458E+00
 -1      4129 2.49454E-03
 -1      4130 2.26384E-03
 -1      4131 2.06352E-03
 -1      4132 2.34518E+00
 -1      4133 2.46739E+00
 -1      4134 2.41848E-01
 -1      4135 2.65985E-01
 -1      4136 1.90191E-01
 -1      4137 2.15559E-01
 -1      4138 1.42798E-01
 -1      4139 1.66494E-01
 -1      4140 1.04665E-01
 -1      4141 1.23732E-01
 -1      4142 7.50325E-02
 -1      4143 8.98489E-02
 -1      4144 5.27978E-02
 -1      4145 6.39152E-02
 -1      4146 3.68427E-02
 -1      4147 4.48203E-02
 -1      4148 2.49006E-02
 -1      4149 3.08717E-02
 -1      4150 1.63895E-02
 -1      4151 2.07726E-02
 -1      4152 1.03678E-02
 -1      4153 1.35234E-02
 -1      4154 5.98818E-03
 -1      4155 8.26519E-03
 -1      4156 1.39468E+00
 -1      4157 1.65724E+00
 -1      4158 2.79459E+00
 -1      4159 2.79459E+00
 -1      4160 2.11248E-03
 -1      4161 4.09817E-01
 -1      4162 4.70201E-01
 -1      4163 3.24105E+00
 -1      4164 3.37811E+00
 -1      4165 5.45688E-01
 -1      4166 6.12377E-01
 -1      4167 6.12377E-01
 -1      4168 4.90920E-01
 -1      4169 5.64622E-01
 -1      4170 4.83329E-01
 -1      4171 2.71281E-03
 -1      4172 3.25505E+00
 -1      4173 1.78760E-03
 -1      4174 1.71492E-03
 -1      4175 2.17861E-03
 -1      4176 1.67700E-03
 -1      4177 4.45981E-03
 -1      4178 3.23557E+00
 -1      4179 8.06421E-01
 -1      4180 3.52316E-01
 -1      4181 2.72535E-03
 -1      4182 2.65985E-01
 -1      4183 3.44939E-03
 -1      4184 2.90358E-01
 -1      4185 2.64013E-03
 -3
 9999
