    1C
    1UUSER                                                              
    1UDATE              26.october.2022                                 
    1UTIME              23:54:23                                        
    1UHOST                                                              
    1UPGM               CalculiX                                        
    1UVERSION           Version 2.17                             
    1UCOMPILETIME       Thu Jul 23 21:43:50 CEST 2020                    
    1UDIR                                                               
    1UDBN                                                               
    1UMAT    1SOLIDMATERIAL                                             
    2C                          4316                                     1
 -1         1 1.22428E+02 3.14135E+01 0.00000E+00
 -1         2 1.34010E+02 2.61216E+01 0.00000E+00
 -1         3 1.50000E+02 0.00000E+00 0.00000E+00
 -1         4 1.50000E+02 5.00000E+01 0.00000E+00
 -1         5 0.00000E+00 0.00000E+00 0.00000E+00
 -1         6 0.00000E+00 5.00000E+01 0.00000E+00
 -1         7 0.00000E+00 4.70500E+01 0.00000E+00
 -1         8 0.00000E+00 4.41000E+01 0.00000E+00
 -1         9 0.00000E+00 4.11500E+01 0.00000E+00
 -1        10 0.00000E+00 3.82000E+01 0.00000E+00
 -1        11 0.00000E+00 3.52500E+01 0.00000E+00
 -1        12 0.00000E+00 3.23500E+01 0.00000E+00
 -1        13 0.00000E+00 2.94000E+01 0.00000E+00
 -1        14 0.00000E+00 2.64500E+01 0.00000E+00
 -1        15 0.00000E+00 2.35000E+01 0.00000E+00
 -1        16 0.00000E+00 2.05500E+01 0.00000E+00
 -1        17 0.00000E+00 1.76000E+01 0.00000E+00
 -1        18 0.00000E+00 1.47000E+01 0.00000E+00
 -1        19 0.00000E+00 1.17500E+01 0.00000E+00
 -1        20 0.00000E+00 8.80000E+00 0.00000E+00
 -1        21 0.00000E+00 5.85000E+00 0.00000E+00
 -1        22 0.00000E+00 2.90000E+00 0.00000E+00
 -1        23 3.15000E+00 5.00000E+01 0.00000E+00
 -1        24 6.15000E+00 5.00000E+01 0.00000E+00
 -1        25 9.15000E+00 5.00000E+01 0.00000E+00
 -1        26 1.21500E+01 5.00000E+01 0.00000E+00
 -1        27 1.51500E+01 5.00000E+01 0.00000E+00
 -1        28 1.81500E+01 5.00000E+01 0.00000E+00
 -1        29 2.11500E+01 5.00000E+01 0.00000E+00
 -1        30 2.41500E+01 5.00000E+01 0.00000E+00
 -1        31 2.71500E+01 5.00000E+01 0.00000E+00
 -1        32 3.01500E+01 5.00000E+01 0.00000E+00
 -1        33 3.31500E+01 5.00000E+01 0.00000E+00
 -1        34 3.61500E+01 5.00000E+01 0.00000E+00
 -1        35 3.91500E+01 5.00000E+01 0.00000E+00
 -1        36 4.21500E+01 5.00000E+01 0.00000E+00
 -1        37 4.51500E+01 5.00000E+01 0.00000E+00
 -1        38 4.81500E+01 5.00000E+01 0.00000E+00
 -1        39 5.11500E+01 5.00000E+01 0.00000E+00
 -1        40 5.41500E+01 5.00000E+01 0.00000E+00
 -1        41 5.71500E+01 5.00000E+01 0.00000E+00
 -1        42 6.01500E+01 5.00000E+01 0.00000E+00
 -1        43 6.31500E+01 5.00000E+01 0.00000E+00
 -1        44 6.61500E+01 5.00000E+01 0.00000E+00
 -1        45 6.91500E+01 5.00000E+01 0.00000E+00
 -1        46 7.21500E+01 5.00000E+01 0.00000E+00
 -1        47 7.51500E+01 5.00000E+01 0.00000E+00
 -1        48 7.81500E+01 5.00000E+01 0.00000E+00
 -1        49 8.11500E+01 5.00000E+01 0.00000E+00
 -1        50 8.41500E+01 5.00000E+01 0.00000E+00
 -1        51 8.71500E+01 5.00000E+01 0.00000E+00
 -1        52 9.01500E+01 5.00000E+01 0.00000E+00
 -1        53 9.31500E+01 5.00000E+01 0.00000E+00
 -1        54 9.61500E+01 5.00000E+01 0.00000E+00
 -1        55 9.91500E+01 5.00000E+01 0.00000E+00
 -1        56 1.02150E+02 5.00000E+01 0.00000E+00
 -1        57 1.05150E+02 5.00000E+01 0.00000E+00
 -1        58 1.08150E+02 5.00000E+01 0.00000E+00
 -1        59 1.11150E+02 5.00000E+01 0.00000E+00
 -1        60 1.14150E+02 5.00000E+01 0.00000E+00
 -1        61 1.17150E+02 5.00000E+01 0.00000E+00
 -1        62 1.20150E+02 5.00000E+01 0.00000E+00
 -1        63 1.23150E+02 5.00000E+01 0.00000E+00
 -1        64 1.26150E+02 5.00000E+01 0.00000E+00
 -1        65 1.29150E+02 5.00000E+01 0.00000E+00
 -1        66 1.32150E+02 5.00000E+01 0.00000E+00
 -1        67 1.35150E+02 5.00000E+01 0.00000E+00
 -1        68 1.38150E+02 5.00000E+01 0.00000E+00
 -1        69 1.41150E+02 5.00000E+01 0.00000E+00
 -1        70 1.44150E+02 5.00000E+01 0.00000E+00
 -1        71 1.47150E+02 5.00000E+01 0.00000E+00
 -1        72 3.15000E+00 0.00000E+00 0.00000E+00
 -1        73 6.15000E+00 0.00000E+00 0.00000E+00
 -1        74 9.15000E+00 0.00000E+00 0.00000E+00
 -1        75 1.21500E+01 0.00000E+00 0.00000E+00
 -1        76 1.51500E+01 0.00000E+00 0.00000E+00
 -1        77 1.81500E+01 0.00000E+00 0.00000E+00
 -1        78 2.11500E+01 0.00000E+00 0.00000E+00
 -1        79 2.41500E+01 0.00000E+00 0.00000E+00
 -1        80 2.71500E+01 0.00000E+00 0.00000E+00
 -1        81 3.01500E+01 0.00000E+00 0.00000E+00
 -1        82 3.31500E+01 0.00000E+00 0.00000E+00
 -1        83 3.61500E+01 0.00000E+00 0.00000E+00
 -1        84 3.91500E+01 0.00000E+00 0.00000E+00
 -1        85 4.21500E+01 0.00000E+00 0.00000E+00
 -1        86 4.51500E+01 0.00000E+00 0.00000E+00
 -1        87 4.81500E+01 0.00000E+00 0.00000E+00
 -1        88 5.11500E+01 0.00000E+00 0.00000E+00
 -1        89 5.41500E+01 0.00000E+00 0.00000E+00
 -1        90 5.71500E+01 0.00000E+00 0.00000E+00
 -1        91 6.01500E+01 0.00000E+00 0.00000E+00
 -1        92 6.31500E+01 0.00000E+00 0.00000E+00
 -1        93 6.61500E+01 0.00000E+00 0.00000E+00
 -1        94 6.91500E+01 0.00000E+00 0.00000E+00
 -1        95 7.21500E+01 0.00000E+00 0.00000E+00
 -1        96 7.51500E+01 0.00000E+00 0.00000E+00
 -1        97 7.81500E+01 0.00000E+00 0.00000E+00
 -1        98 8.11500E+01 0.00000E+00 0.00000E+00
 -1        99 8.41500E+01 0.00000E+00 0.00000E+00
 -1       100 8.71500E+01 0.00000E+00 0.00000E+00
 -1       101 9.01500E+01 0.00000E+00 0.00000E+00
 -1       102 9.31500E+01 0.00000E+00 0.00000E+00
 -1       103 9.61500E+01 0.00000E+00 0.00000E+00
 -1       104 9.91500E+01 0.00000E+00 0.00000E+00
 -1       105 1.02150E+02 0.00000E+00 0.00000E+00
 -1       106 1.05150E+02 0.00000E+00 0.00000E+00
 -1       107 1.08150E+02 0.00000E+00 0.00000E+00
 -1       108 1.11150E+02 0.00000E+00 0.00000E+00
 -1       109 1.14150E+02 0.00000E+00 0.00000E+00
 -1       110 1.17150E+02 0.00000E+00 0.00000E+00
 -1       111 1.20150E+02 0.00000E+00 0.00000E+00
 -1       112 1.23150E+02 0.00000E+00 0.00000E+00
 -1       113 1.26150E+02 0.00000E+00 0.00000E+00
 -1       114 1.29150E+02 0.00000E+00 0.00000E+00
 -1       115 1.32150E+02 0.00000E+00 0.00000E+00
 -1       116 1.35150E+02 0.00000E+00 0.00000E+00
 -1       117 1.38150E+02 0.00000E+00 0.00000E+00
 -1       118 1.41150E+02 0.00000E+00 0.00000E+00
 -1       119 1.44150E+02 0.00000E+00 0.00000E+00
 -1       120 1.47150E+02 0.00000E+00 0.00000E+00
 -1       121 1.50000E+02 2.95000E+00 0.00000E+00
 -1       122 1.50000E+02 5.90000E+00 0.00000E+00
 -1       123 1.50000E+02 8.85000E+00 0.00000E+00
 -1       124 1.50000E+02 1.18000E+01 0.00000E+00
 -1       125 1.50000E+02 1.47500E+01 0.00000E+00
 -1       126 1.50000E+02 1.76500E+01 0.00000E+00
 -1       127 1.50000E+02 2.06000E+01 0.00000E+00
 -1       128 1.50000E+02 2.35500E+01 0.00000E+00
 -1       129 1.50000E+02 2.65000E+01 0.00000E+00
 -1       130 1.50000E+02 2.94500E+01 0.00000E+00
 -1       131 1.50000E+02 3.24000E+01 0.00000E+00
 -1       132 1.50000E+02 3.53000E+01 0.00000E+00
 -1       133 1.50000E+02 3.82500E+01 0.00000E+00
 -1       134 1.50000E+02 4.12000E+01 0.00000E+00
 -1       135 1.50000E+02 4.41500E+01 0.00000E+00
 -1       136 1.50000E+02 4.71000E+01 0.00000E+00
 -1       137 1.33859E+02 2.46749E+01 0.00000E+00
 -1       138 1.33378E+02 2.32149E+01 0.00000E+00
 -1       139 1.32660E+02 2.19894E+01 0.00000E+00
 -1       140 1.31710E+02 2.09338E+01 0.00000E+00
 -1       141 1.30449E+02 2.00243E+01 0.00000E+00
 -1       142 1.29154E+02 1.94580E+01 0.00000E+00
 -1       143 1.27730E+02 1.91587E+01 0.00000E+00
 -1       144 1.26211E+02 1.91674E+01 0.00000E+00
 -1       145 1.24637E+02 1.95361E+01 0.00000E+00
 -1       146 1.23349E+02 2.01552E+01 0.00000E+00
 -1       147 1.22219E+02 2.10185E+01 0.00000E+00
 -1       148 1.21291E+02 2.20849E+01 0.00000E+00
 -1       149 1.20527E+02 2.34824E+01 0.00000E+00
 -1       150 1.20130E+02 2.48303E+01 0.00000E+00
 -1       151 1.20014E+02 2.63526E+01 0.00000E+00
 -1       152 1.20213E+02 2.77964E+01 0.00000E+00
 -1       153 1.20690E+02 2.91311E+01 0.00000E+00
 -1       154 1.21448E+02 3.03714E+01 0.00000E+00
 -1       155 1.23654E+02 3.22645E+01 0.00000E+00
 -1       156 1.24967E+02 3.28170E+01 0.00000E+00
 -1       157 1.26406E+02 3.30955E+01 0.00000E+00
 -1       158 1.27951E+02 3.30581E+01 0.00000E+00
 -1       159 1.29310E+02 3.27329E+01 0.00000E+00
 -1       160 1.30574E+02 3.21464E+01 0.00000E+00
 -1       161 1.31735E+02 3.12861E+01 0.00000E+00
 -1       162 1.32692E+02 3.02106E+01 0.00000E+00
 -1       163 1.33387E+02 2.90091E+01 0.00000E+00
 -1       164 1.33840E+02 2.76548E+01 0.00000E+00
 -1       165 2.59800E+00 4.55750E+01 0.00000E+00
 -1       166 2.59800E+00 4.26250E+01 0.00000E+00
 -1       167 2.59800E+00 3.96750E+01 0.00000E+00
 -1       168 2.59800E+00 3.67250E+01 0.00000E+00
 -1       169 2.59800E+00 3.38250E+01 0.00000E+00
 -1       170 2.59800E+00 3.08750E+01 0.00000E+00
 -1       171 2.59800E+00 2.79250E+01 0.00000E+00
 -1       172 2.59800E+00 2.49750E+01 0.00000E+00
 -1       173 2.59800E+00 2.20250E+01 0.00000E+00
 -1       174 2.59800E+00 1.90750E+01 0.00000E+00
 -1       175 2.59800E+00 1.61750E+01 0.00000E+00
 -1       176 2.59800E+00 1.32250E+01 0.00000E+00
 -1       177 2.59800E+00 1.02750E+01 0.00000E+00
 -1       178 2.59800E+00 7.32500E+00 0.00000E+00
 -1       179 2.59800E+00 4.37500E+00 0.00000E+00
 -1       180 2.87400E+00 2.18750E+00 0.00000E+00
 -1       181 4.65000E+00 4.74020E+01 0.00000E+00
 -1       182 7.65000E+00 4.74020E+01 0.00000E+00
 -1       183 1.06500E+01 4.74020E+01 0.00000E+00
 -1       184 1.36500E+01 4.74020E+01 0.00000E+00
 -1       185 1.66500E+01 4.74020E+01 0.00000E+00
 -1       186 1.96500E+01 4.74020E+01 0.00000E+00
 -1       187 2.26500E+01 4.74020E+01 0.00000E+00
 -1       188 2.56500E+01 4.74020E+01 0.00000E+00
 -1       189 2.86500E+01 4.74020E+01 0.00000E+00
 -1       190 3.16500E+01 4.74020E+01 0.00000E+00
 -1       191 3.46500E+01 4.74020E+01 0.00000E+00
 -1       192 3.76500E+01 4.74020E+01 0.00000E+00
 -1       193 4.06500E+01 4.74020E+01 0.00000E+00
 -1       194 4.36500E+01 4.74020E+01 0.00000E+00
 -1       195 4.66500E+01 4.74020E+01 0.00000E+00
 -1       196 4.96500E+01 4.74020E+01 0.00000E+00
 -1       197 5.26500E+01 4.74020E+01 0.00000E+00
 -1       198 5.56500E+01 4.74020E+01 0.00000E+00
 -1       199 5.86500E+01 4.74020E+01 0.00000E+00
 -1       200 6.16500E+01 4.74020E+01 0.00000E+00
 -1       201 6.46500E+01 4.74020E+01 0.00000E+00
 -1       202 6.76500E+01 4.74020E+01 0.00000E+00
 -1       203 7.06500E+01 4.74020E+01 0.00000E+00
 -1       204 7.36500E+01 4.74020E+01 0.00000E+00
 -1       205 7.66500E+01 4.74020E+01 0.00000E+00
 -1       206 7.96500E+01 4.74020E+01 0.00000E+00
 -1       207 8.26500E+01 4.74020E+01 0.00000E+00
 -1       208 8.56500E+01 4.74020E+01 0.00000E+00
 -1       209 8.86500E+01 4.74020E+01 0.00000E+00
 -1       210 9.16500E+01 4.74020E+01 0.00000E+00
 -1       211 9.46500E+01 4.74020E+01 0.00000E+00
 -1       212 9.76500E+01 4.74020E+01 0.00000E+00
 -1       213 1.00650E+02 4.74020E+01 0.00000E+00
 -1       214 1.03650E+02 4.74020E+01 0.00000E+00
 -1       215 1.06650E+02 4.74020E+01 0.00000E+00
 -1       216 1.09650E+02 4.74020E+01 0.00000E+00
 -1       217 1.12650E+02 4.74020E+01 0.00000E+00
 -1       218 1.15650E+02 4.74020E+01 0.00000E+00
 -1       219 1.18650E+02 4.74020E+01 0.00000E+00
 -1       220 1.21650E+02 4.74020E+01 0.00000E+00
 -1       221 1.24650E+02 4.74020E+01 0.00000E+00
 -1       222 1.27650E+02 4.74020E+01 0.00000E+00
 -1       223 1.30650E+02 4.74020E+01 0.00000E+00
 -1       224 1.33650E+02 4.74020E+01 0.00000E+00
 -1       225 1.36650E+02 4.74020E+01 0.00000E+00
 -1       226 1.39650E+02 4.74020E+01 0.00000E+00
 -1       227 1.42650E+02 4.74020E+01 0.00000E+00
 -1       228 1.45650E+02 4.74020E+01 0.00000E+00
 -1       229 5.87400E+00 2.18750E+00 0.00000E+00
 -1       230 8.87400E+00 2.18750E+00 0.00000E+00
 -1       231 1.18740E+01 2.18750E+00 0.00000E+00
 -1       232 1.48740E+01 2.18750E+00 0.00000E+00
 -1       233 1.78740E+01 2.18750E+00 0.00000E+00
 -1       234 2.08740E+01 2.18750E+00 0.00000E+00
 -1       235 2.38740E+01 2.18750E+00 0.00000E+00
 -1       236 2.68740E+01 2.18750E+00 0.00000E+00
 -1       237 2.98740E+01 2.18750E+00 0.00000E+00
 -1       238 3.28740E+01 2.18750E+00 0.00000E+00
 -1       239 3.58740E+01 2.18750E+00 0.00000E+00
 -1       240 3.88740E+01 2.18750E+00 0.00000E+00
 -1       241 4.18740E+01 2.18750E+00 0.00000E+00
 -1       242 4.48740E+01 2.18750E+00 0.00000E+00
 -1       243 4.78740E+01 2.18750E+00 0.00000E+00
 -1       244 5.08740E+01 2.18750E+00 0.00000E+00
 -1       245 5.38740E+01 2.18750E+00 0.00000E+00
 -1       246 5.68740E+01 2.18750E+00 0.00000E+00
 -1       247 5.98740E+01 2.18750E+00 0.00000E+00
 -1       248 6.28740E+01 2.18750E+00 0.00000E+00
 -1       249 6.58740E+01 2.18750E+00 0.00000E+00
 -1       250 6.88740E+01 2.18750E+00 0.00000E+00
 -1       251 7.18740E+01 2.18750E+00 0.00000E+00
 -1       252 7.48740E+01 2.18750E+00 0.00000E+00
 -1       253 7.78740E+01 2.18750E+00 0.00000E+00
 -1       254 8.08740E+01 2.18750E+00 0.00000E+00
 -1       255 8.38740E+01 2.18750E+00 0.00000E+00
 -1       256 8.68740E+01 2.18750E+00 0.00000E+00
 -1       257 8.98740E+01 2.18750E+00 0.00000E+00
 -1       258 9.28740E+01 2.18750E+00 0.00000E+00
 -1       259 9.58740E+01 2.18750E+00 0.00000E+00
 -1       260 9.88740E+01 2.18750E+00 0.00000E+00
 -1       261 1.01874E+02 2.18750E+00 0.00000E+00
 -1       262 1.04874E+02 2.18750E+00 0.00000E+00
 -1       263 1.07874E+02 2.18750E+00 0.00000E+00
 -1       264 1.10874E+02 2.18750E+00 0.00000E+00
 -1       265 1.13874E+02 2.18750E+00 0.00000E+00
 -1       266 1.16874E+02 2.18750E+00 0.00000E+00
 -1       267 1.19874E+02 2.18750E+00 0.00000E+00
 -1       268 1.22874E+02 2.18750E+00 0.00000E+00
 -1       269 1.25874E+02 2.18750E+00 0.00000E+00
 -1       270 1.28874E+02 2.18750E+00 0.00000E+00
 -1       271 1.31874E+02 2.18750E+00 0.00000E+00
 -1       272 1.34874E+02 2.18750E+00 0.00000E+00
 -1       273 1.37874E+02 2.18750E+00 0.00000E+00
 -1       274 1.40874E+02 2.18750E+00 0.00000E+00
 -1       275 1.43874E+02 2.18750E+00 0.00000E+00
 -1       276 1.46874E+02 2.18750E+00 0.00000E+00
 -1       277 1.47402E+02 4.42500E+00 0.00000E+00
 -1       278 1.47402E+02 7.37500E+00 0.00000E+00
 -1       279 1.47402E+02 1.03250E+01 0.00000E+00
 -1       280 1.47402E+02 1.32750E+01 0.00000E+00
 -1       281 1.47402E+02 1.61750E+01 0.00000E+00
 -1       282 1.47402E+02 1.91250E+01 0.00000E+00
 -1       283 1.47402E+02 2.20750E+01 0.00000E+00
 -1       284 1.47402E+02 2.50250E+01 0.00000E+00
 -1       285 1.47402E+02 2.79750E+01 0.00000E+00
 -1       286 1.47402E+02 3.09250E+01 0.00000E+00
 -1       287 1.47402E+02 3.38250E+01 0.00000E+00
 -1       288 1.47402E+02 3.67750E+01 0.00000E+00
 -1       289 1.47402E+02 3.97250E+01 0.00000E+00
 -1       290 1.47402E+02 4.26750E+01 0.00000E+00
 -1       291 1.46526E+02 4.50385E+01 0.00000E+00
 -1       292 1.35224E+02 2.52636E+01 0.00000E+00
 -1       293 1.34929E+02 2.35132E+01 0.00000E+00
 -1       294 1.34065E+02 2.19894E+01 0.00000E+00
 -1       295 1.33086E+02 2.06503E+01 0.00000E+00
 -1       296 1.31886E+02 1.93598E+01 0.00000E+00
 -1       297 1.30287E+02 1.86304E+01 0.00000E+00
 -1       298 1.28691E+02 1.81219E+01 0.00000E+00
 -1       299 1.26963E+02 1.78669E+01 0.00000E+00
 -1       300 1.25071E+02 1.78450E+01 0.00000E+00
 -1       301 1.23468E+02 1.87530E+01 0.00000E+00
 -1       302 1.22048E+02 1.96233E+01 0.00000E+00
 -1       303 1.20840E+02 2.07561E+01 0.00000E+00
 -1       304 1.19551E+02 2.20408E+01 0.00000E+00
 -1       305 1.19165E+02 2.38142E+01 0.00000E+00
 -1       306 1.18696E+02 2.54863E+01 0.00000E+00
 -1       307 1.18664E+02 2.72748E+01 0.00000E+00
 -1       308 1.19310E+02 2.88715E+01 0.00000E+00
 -1       309 1.19963E+02 3.04270E+01 0.00000E+00
 -1       310 1.21055E+02 3.17231E+01 0.00000E+00
 -1       311 1.22349E+02 3.28349E+01 0.00000E+00
 -1       312 1.23841E+02 3.36583E+01 0.00000E+00
 -1       313 1.25456E+02 3.41465E+01 0.00000E+00
 -1       314 1.27212E+02 3.44564E+01 0.00000E+00
 -1       315 1.28913E+02 3.40746E+01 0.00000E+00
 -1       316 1.30453E+02 3.35394E+01 0.00000E+00
 -1       317 1.31876E+02 3.26904E+01 0.00000E+00
 -1       318 1.33120E+02 3.15540E+01 0.00000E+00
 -1       319 1.34089E+02 3.02170E+01 0.00000E+00
 -1       320 1.34763E+02 2.87168E+01 0.00000E+00
 -1       321 1.35297E+02 2.70402E+01 0.00000E+00
 -1       322 5.19600E+00 4.11500E+01 0.00000E+00
 -1       323 5.19600E+00 4.41000E+01 0.00000E+00
 -1       324 5.19600E+00 3.52750E+01 0.00000E+00
 -1       325 5.19600E+00 3.23250E+01 0.00000E+00
 -1       326 5.19600E+00 2.93750E+01 0.00000E+00
 -1       327 5.19600E+00 2.64250E+01 0.00000E+00
 -1       328 5.19600E+00 2.34750E+01 0.00000E+00
 -1       329 5.19600E+00 2.05250E+01 0.00000E+00
 -1       330 5.19600E+00 1.76250E+01 0.00000E+00
 -1       331 5.19600E+00 1.46750E+01 0.00000E+00
 -1       332 5.19600E+00 1.17250E+01 0.00000E+00
 -1       333 5.19600E+00 8.77500E+00 0.00000E+00
 -1       334 5.19600E+00 5.82500E+00 0.00000E+00
 -1       335 5.53500E+00 4.00625E+00 0.00000E+00
 -1       336 8.53500E+00 4.00625E+00 0.00000E+00
 -1       337 9.15000E+00 4.48040E+01 0.00000E+00
 -1       338 1.21500E+01 4.48040E+01 0.00000E+00
 -1       339 1.51500E+01 4.48040E+01 0.00000E+00
 -1       340 1.81500E+01 4.48040E+01 0.00000E+00
 -1       341 2.11500E+01 4.48040E+01 0.00000E+00
 -1       342 2.41500E+01 4.48040E+01 0.00000E+00
 -1       343 2.71500E+01 4.48040E+01 0.00000E+00
 -1       344 3.01500E+01 4.48040E+01 0.00000E+00
 -1       345 3.31500E+01 4.48040E+01 0.00000E+00
 -1       346 3.61500E+01 4.48040E+01 0.00000E+00
 -1       347 3.91500E+01 4.48040E+01 0.00000E+00
 -1       348 4.21500E+01 4.48040E+01 0.00000E+00
 -1       349 4.51500E+01 4.48040E+01 0.00000E+00
 -1       350 4.81500E+01 4.48040E+01 0.00000E+00
 -1       351 5.11500E+01 4.48040E+01 0.00000E+00
 -1       352 5.41500E+01 4.48040E+01 0.00000E+00
 -1       353 5.71500E+01 4.48040E+01 0.00000E+00
 -1       354 6.01500E+01 4.48040E+01 0.00000E+00
 -1       355 6.31500E+01 4.48040E+01 0.00000E+00
 -1       356 6.61500E+01 4.48040E+01 0.00000E+00
 -1       357 6.91500E+01 4.48040E+01 0.00000E+00
 -1       358 7.21500E+01 4.48040E+01 0.00000E+00
 -1       359 7.51500E+01 4.48040E+01 0.00000E+00
 -1       360 7.81500E+01 4.48040E+01 0.00000E+00
 -1       361 8.11500E+01 4.48040E+01 0.00000E+00
 -1       362 8.41500E+01 4.48040E+01 0.00000E+00
 -1       363 8.71500E+01 4.48040E+01 0.00000E+00
 -1       364 9.01500E+01 4.48040E+01 0.00000E+00
 -1       365 9.31500E+01 4.48040E+01 0.00000E+00
 -1       366 9.61500E+01 4.48040E+01 0.00000E+00
 -1       367 9.91500E+01 4.48040E+01 0.00000E+00
 -1       368 1.02150E+02 4.48040E+01 0.00000E+00
 -1       369 1.05150E+02 4.48040E+01 0.00000E+00
 -1       370 1.08150E+02 4.48040E+01 0.00000E+00
 -1       371 1.11150E+02 4.48040E+01 0.00000E+00
 -1       372 1.14150E+02 4.48040E+01 0.00000E+00
 -1       373 1.17150E+02 4.48040E+01 0.00000E+00
 -1       374 1.20150E+02 4.48040E+01 0.00000E+00
 -1       375 1.23150E+02 4.48040E+01 0.00000E+00
 -1       376 1.26150E+02 4.48040E+01 0.00000E+00
 -1       377 1.29150E+02 4.48040E+01 0.00000E+00
 -1       378 1.32150E+02 4.48040E+01 0.00000E+00
 -1       379 1.35150E+02 4.48040E+01 0.00000E+00
 -1       380 1.38150E+02 4.48040E+01 0.00000E+00
 -1       381 1.41150E+02 4.48040E+01 0.00000E+00
 -1       382 1.43838E+02 4.49212E+01 0.00000E+00
 -1       383 1.15350E+01 4.00625E+00 0.00000E+00
 -1       384 1.45350E+01 4.00625E+00 0.00000E+00
 -1       385 1.75350E+01 4.00625E+00 0.00000E+00
 -1       386 2.05350E+01 4.00625E+00 0.00000E+00
 -1       387 2.35350E+01 4.00625E+00 0.00000E+00
 -1       388 2.65350E+01 4.00625E+00 0.00000E+00
 -1       389 2.95350E+01 4.00625E+00 0.00000E+00
 -1       390 3.25350E+01 4.00625E+00 0.00000E+00
 -1       391 3.55350E+01 4.00625E+00 0.00000E+00
 -1       392 3.85350E+01 4.00625E+00 0.00000E+00
 -1       393 4.15350E+01 4.00625E+00 0.00000E+00
 -1       394 4.45350E+01 4.00625E+00 0.00000E+00
 -1       395 4.75350E+01 4.00625E+00 0.00000E+00
 -1       396 5.05350E+01 4.00625E+00 0.00000E+00
 -1       397 5.35350E+01 4.00625E+00 0.00000E+00
 -1       398 5.65350E+01 4.00625E+00 0.00000E+00
 -1       399 5.95350E+01 4.00625E+00 0.00000E+00
 -1       400 6.25350E+01 4.00625E+00 0.00000E+00
 -1       401 6.55350E+01 4.00625E+00 0.00000E+00
 -1       402 6.85350E+01 4.00625E+00 0.00000E+00
 -1       403 7.15350E+01 4.00625E+00 0.00000E+00
 -1       404 7.45350E+01 4.00625E+00 0.00000E+00
 -1       405 7.75350E+01 4.00625E+00 0.00000E+00
 -1       406 8.05350E+01 4.00625E+00 0.00000E+00
 -1       407 8.35350E+01 4.00625E+00 0.00000E+00
 -1       408 8.65350E+01 4.00625E+00 0.00000E+00
 -1       409 8.95350E+01 4.00625E+00 0.00000E+00
 -1       410 9.25350E+01 4.00625E+00 0.00000E+00
 -1       411 9.55350E+01 4.00625E+00 0.00000E+00
 -1       412 9.85350E+01 4.00625E+00 0.00000E+00
 -1       413 1.01535E+02 4.00625E+00 0.00000E+00
 -1       414 1.04535E+02 4.00625E+00 0.00000E+00
 -1       415 1.07535E+02 4.00625E+00 0.00000E+00
 -1       416 1.10535E+02 4.00625E+00 0.00000E+00
 -1       417 1.13535E+02 4.00625E+00 0.00000E+00
 -1       418 1.16535E+02 4.00625E+00 0.00000E+00
 -1       419 1.19535E+02 4.00625E+00 0.00000E+00
 -1       420 1.22535E+02 4.00625E+00 0.00000E+00
 -1       421 1.25535E+02 4.00625E+00 0.00000E+00
 -1       422 1.28535E+02 4.00625E+00 0.00000E+00
 -1       423 1.31535E+02 4.00625E+00 0.00000E+00
 -1       424 1.34535E+02 4.00625E+00 0.00000E+00
 -1       425 1.37535E+02 4.00625E+00 0.00000E+00
 -1       426 1.40535E+02 4.00625E+00 0.00000E+00
 -1       427 1.43535E+02 4.00625E+00 0.00000E+00
 -1       428 1.45469E+02 4.21562E+00 0.00000E+00
 -1       429 1.44804E+02 1.18000E+01 0.00000E+00
 -1       430 1.44804E+02 8.85000E+00 0.00000E+00
 -1       431 1.45136E+02 6.53281E+00 0.00000E+00
 -1       432 1.44804E+02 1.47000E+01 0.00000E+00
 -1       433 1.44804E+02 1.76500E+01 0.00000E+00
 -1       434 1.44804E+02 2.06000E+01 0.00000E+00
 -1       435 1.44804E+02 2.35500E+01 0.00000E+00
 -1       436 1.44804E+02 2.65000E+01 0.00000E+00
 -1       437 1.44804E+02 2.94500E+01 0.00000E+00
 -1       438 1.44804E+02 3.23500E+01 0.00000E+00
 -1       439 1.44804E+02 3.53000E+01 0.00000E+00
 -1       440 1.44804E+02 3.82500E+01 0.00000E+00
 -1       441 1.44804E+02 4.12000E+01 0.00000E+00
 -1       442 1.35844E+02 2.19881E+01 0.00000E+00
 -1       443 1.36974E+02 2.60815E+01 0.00000E+00
 -1       444 1.36355E+02 2.41733E+01 0.00000E+00
 -1       445 1.34864E+02 2.06490E+01 0.00000E+00
 -1       446 1.33620E+02 1.89514E+01 0.00000E+00
 -1       447 5.19600E+00 3.82125E+01 0.00000E+00
 -1       448 1.29908E+02 1.70613E+01 0.00000E+00
 -1       449 1.28028E+02 1.66292E+01 0.00000E+00
 -1       450 1.26036E+02 1.62248E+01 0.00000E+00
 -1       451 1.23424E+02 1.68067E+01 0.00000E+00
 -1       452 1.22004E+02 1.76770E+01 0.00000E+00
 -1       453 1.20271E+02 1.89386E+01 0.00000E+00
 -1       454 1.18982E+02 2.02233E+01 0.00000E+00
 -1       455 1.17928E+02 2.26162E+01 0.00000E+00
 -1       456 1.17459E+02 2.42883E+01 0.00000E+00
 -1       457 1.17384E+02 2.63571E+01 0.00000E+00
 -1       458 1.17630E+02 2.86224E+01 0.00000E+00
 -1       459 1.18283E+02 3.01778E+01 0.00000E+00
 -1       460 1.19197E+02 3.21801E+01 0.00000E+00
 -1       461 1.20748E+02 3.33895E+01 0.00000E+00
 -1       462 1.22428E+02 3.44546E+01 0.00000E+00
 -1       463 1.24249E+02 3.52234E+01 0.00000E+00
 -1       464 1.26065E+02 3.58254E+01 0.00000E+00
 -1       465 1.28401E+02 3.57755E+01 0.00000E+00
 -1       466 1.30108E+02 3.50313E+01 0.00000E+00
 -1       467 1.31914E+02 3.43721E+01 0.00000E+00
 -1       468 1.33599E+02 3.33262E+01 0.00000E+00
 -1       469 1.34586E+02 3.15970E+01 0.00000E+00
 -1       470 1.35608E+02 2.99984E+01 0.00000E+00
 -1       471 1.36345E+02 2.82970E+01 0.00000E+00
 -1       472 1.31729E+02 1.75871E+01 0.00000E+00
 -1       473 1.17359E+02 2.07987E+01 0.00000E+00
 -1       474 1.00350E+01 6.60425E+00 0.00000E+00
 -1       475 7.79400E+00 3.08500E+01 0.00000E+00
 -1       476 7.79400E+00 3.38000E+01 0.00000E+00
 -1       477 7.79400E+00 2.49500E+01 0.00000E+00
 -1       478 7.79400E+00 2.20000E+01 0.00000E+00
 -1       479 7.79400E+00 1.91000E+01 0.00000E+00
 -1       480 7.79400E+00 1.61500E+01 0.00000E+00
 -1       481 7.79400E+00 1.32000E+01 0.00000E+00
 -1       482 7.79400E+00 1.02500E+01 0.00000E+00
 -1       483 1.30350E+01 6.60425E+00 0.00000E+00
 -1       484 1.06500E+01 4.22060E+01 0.00000E+00
 -1       485 1.31387E+02 1.53544E+01 0.00000E+00
 -1       486 1.36500E+01 4.22060E+01 0.00000E+00
 -1       487 1.66500E+01 4.22060E+01 0.00000E+00
 -1       488 1.96500E+01 4.22060E+01 0.00000E+00
 -1       489 2.26500E+01 4.22060E+01 0.00000E+00
 -1       490 2.56500E+01 4.22060E+01 0.00000E+00
 -1       491 2.86500E+01 4.22060E+01 0.00000E+00
 -1       492 3.16500E+01 4.22060E+01 0.00000E+00
 -1       493 3.46500E+01 4.22060E+01 0.00000E+00
 -1       494 3.76500E+01 4.22060E+01 0.00000E+00
 -1       495 4.06500E+01 4.22060E+01 0.00000E+00
 -1       496 4.36500E+01 4.22060E+01 0.00000E+00
 -1       497 4.66500E+01 4.22060E+01 0.00000E+00
 -1       498 4.96500E+01 4.22060E+01 0.00000E+00
 -1       499 5.26500E+01 4.22060E+01 0.00000E+00
 -1       500 5.56500E+01 4.22060E+01 0.00000E+00
 -1       501 5.86500E+01 4.22060E+01 0.00000E+00
 -1       502 6.16500E+01 4.22060E+01 0.00000E+00
 -1       503 6.46500E+01 4.22060E+01 0.00000E+00
 -1       504 6.76500E+01 4.22060E+01 0.00000E+00
 -1       505 7.06500E+01 4.22060E+01 0.00000E+00
 -1       506 7.36500E+01 4.22060E+01 0.00000E+00
 -1       507 7.66500E+01 4.22060E+01 0.00000E+00
 -1       508 7.96500E+01 4.22060E+01 0.00000E+00
 -1       509 8.26500E+01 4.22060E+01 0.00000E+00
 -1       510 8.56500E+01 4.22060E+01 0.00000E+00
 -1       511 8.86500E+01 4.22060E+01 0.00000E+00
 -1       512 9.16500E+01 4.22060E+01 0.00000E+00
 -1       513 9.46500E+01 4.22060E+01 0.00000E+00
 -1       514 9.76500E+01 4.22060E+01 0.00000E+00
 -1       515 1.00650E+02 4.22060E+01 0.00000E+00
 -1       516 1.03650E+02 4.22060E+01 0.00000E+00
 -1       517 1.06650E+02 4.22060E+01 0.00000E+00
 -1       518 1.09650E+02 4.22060E+01 0.00000E+00
 -1       519 1.12650E+02 4.22060E+01 0.00000E+00
 -1       520 1.15650E+02 4.22060E+01 0.00000E+00
 -1       521 1.18650E+02 4.22060E+01 0.00000E+00
 -1       522 1.21650E+02 4.22060E+01 0.00000E+00
 -1       523 1.24650E+02 4.22060E+01 0.00000E+00
 -1       524 1.27650E+02 4.22060E+01 0.00000E+00
 -1       525 1.30650E+02 4.22060E+01 0.00000E+00
 -1       526 1.33650E+02 4.22060E+01 0.00000E+00
 -1       527 1.36650E+02 4.22060E+01 0.00000E+00
 -1       528 1.39650E+02 4.22060E+01 0.00000E+00
 -1       529 1.90350E+01 6.60425E+00 0.00000E+00
 -1       530 2.20350E+01 6.60425E+00 0.00000E+00
 -1       531 2.50350E+01 6.60425E+00 0.00000E+00
 -1       532 2.80350E+01 6.60425E+00 0.00000E+00
 -1       533 3.10350E+01 6.60425E+00 0.00000E+00
 -1       534 3.40350E+01 6.60425E+00 0.00000E+00
 -1       535 3.70350E+01 6.60425E+00 0.00000E+00
 -1       536 4.00350E+01 6.60425E+00 0.00000E+00
 -1       537 4.30350E+01 6.60425E+00 0.00000E+00
 -1       538 4.60350E+01 6.60425E+00 0.00000E+00
 -1       539 4.90350E+01 6.60425E+00 0.00000E+00
 -1       540 5.20350E+01 6.60425E+00 0.00000E+00
 -1       541 5.50350E+01 6.60425E+00 0.00000E+00
 -1       542 5.80350E+01 6.60425E+00 0.00000E+00
 -1       543 6.10350E+01 6.60425E+00 0.00000E+00
 -1       544 6.40350E+01 6.60425E+00 0.00000E+00
 -1       545 6.70350E+01 6.60425E+00 0.00000E+00
 -1       546 7.00350E+01 6.60425E+00 0.00000E+00
 -1       547 7.30350E+01 6.60425E+00 0.00000E+00
 -1       548 7.60350E+01 6.60425E+00 0.00000E+00
 -1       549 7.90350E+01 6.60425E+00 0.00000E+00
 -1       550 8.20350E+01 6.60425E+00 0.00000E+00
 -1       551 8.50350E+01 6.60425E+00 0.00000E+00
 -1       552 8.80350E+01 6.60425E+00 0.00000E+00
 -1       553 9.10350E+01 6.60425E+00 0.00000E+00
 -1       554 9.40350E+01 6.60425E+00 0.00000E+00
 -1       555 9.70350E+01 6.60425E+00 0.00000E+00
 -1       556 1.00035E+02 6.60425E+00 0.00000E+00
 -1       557 1.03035E+02 6.60425E+00 0.00000E+00
 -1       558 1.06035E+02 6.60425E+00 0.00000E+00
 -1       559 1.09035E+02 6.60425E+00 0.00000E+00
 -1       560 1.12035E+02 6.60425E+00 0.00000E+00
 -1       561 1.15035E+02 6.60425E+00 0.00000E+00
 -1       562 1.18035E+02 6.60425E+00 0.00000E+00
 -1       563 1.21035E+02 6.60425E+00 0.00000E+00
 -1       564 1.24035E+02 6.60425E+00 0.00000E+00
 -1       565 1.27035E+02 6.60425E+00 0.00000E+00
 -1       566 1.30035E+02 6.60425E+00 0.00000E+00
 -1       567 1.33035E+02 6.60425E+00 0.00000E+00
 -1       568 1.36035E+02 6.60425E+00 0.00000E+00
 -1       569 1.39035E+02 6.60425E+00 0.00000E+00
 -1       570 1.42035E+02 6.60425E+00 0.00000E+00
 -1       571 1.42206E+02 1.61750E+01 0.00000E+00
 -1       572 1.42206E+02 1.91250E+01 0.00000E+00
 -1       573 1.42206E+02 1.03250E+01 0.00000E+00
 -1       574 1.42206E+02 1.32500E+01 0.00000E+00
 -1       575 1.42206E+02 2.20750E+01 0.00000E+00
 -1       576 1.42206E+02 2.50250E+01 0.00000E+00
 -1       577 1.42206E+02 2.79750E+01 0.00000E+00
 -1       578 1.42206E+02 3.08750E+01 0.00000E+00
 -1       579 1.42206E+02 3.38250E+01 0.00000E+00
 -1       580 1.42206E+02 3.67750E+01 0.00000E+00
 -1       581 1.42206E+02 3.97250E+01 0.00000E+00
 -1       582 1.38057E+02 2.46757E+01 0.00000E+00
 -1       583 1.37606E+02 2.27283E+01 0.00000E+00
 -1       584 1.38471E+02 2.77034E+01 0.00000E+00
 -1       585 1.60350E+01 6.60425E+00 0.00000E+00
 -1       586 1.36738E+02 2.03061E+01 0.00000E+00
 -1       587 7.92300E+00 4.16780E+01 0.00000E+00
 -1       588 1.33874E+02 1.66067E+01 0.00000E+00
 -1       589 1.15707E+02 2.52606E+01 0.00000E+00
 -1       590 1.24357E+02 1.48417E+01 0.00000E+00
 -1       591 7.79400E+00 2.79000E+01 0.00000E+00
 -1       592 1.27323E+02 1.49925E+01 0.00000E+00
 -1       593 1.15802E+02 2.76749E+01 0.00000E+00
 -1       594 1.29355E+02 1.51735E+01 0.00000E+00
 -1       595 1.21730E+02 1.56367E+01 0.00000E+00
 -1       596 1.19997E+02 1.68984E+01 0.00000E+00
 -1       597 1.18708E+02 1.81831E+01 0.00000E+00
 -1       598 1.15720E+02 2.28983E+01 0.00000E+00
 -1       599 1.18970E+02 3.40713E+01 0.00000E+00
 -1       600 1.16452E+02 3.00314E+01 0.00000E+00
 -1       601 1.17366E+02 3.20337E+01 0.00000E+00
 -1       602 1.20649E+02 3.51365E+01 0.00000E+00
 -1       603 1.22672E+02 3.64191E+01 0.00000E+00
 -1       604 1.24487E+02 3.70212E+01 0.00000E+00
 -1       605 1.27268E+02 3.74314E+01 0.00000E+00
 -1       606 1.29940E+02 3.69757E+01 0.00000E+00
 -1       607 1.31746E+02 3.63165E+01 0.00000E+00
 -1       608 1.33661E+02 3.53063E+01 0.00000E+00
 -1       609 1.35582E+02 3.33119E+01 0.00000E+00
 -1       610 1.36604E+02 3.17132E+01 0.00000E+00
 -1       611 1.37320E+02 2.97294E+01 0.00000E+00
 -1       612 7.61550E+00 6.21462E+00 0.00000E+00
 -1       613 1.35494E+02 1.86085E+01 0.00000E+00
 -1       614 7.79400E+00 3.67375E+01 0.00000E+00
 -1       615 1.39553E+02 2.62975E+01 0.00000E+00
 -1       616 1.25644E+02 1.36094E+01 0.00000E+00
 -1       617 1.17085E+02 1.87584E+01 0.00000E+00
 -1       618 1.41678E+02 4.22645E+01 0.00000E+00
 -1       619 1.03920E+01 2.05500E+01 0.00000E+00
 -1       620 1.03920E+01 2.35000E+01 0.00000E+00
 -1       621 1.03920E+01 1.46750E+01 0.00000E+00
 -1       622 1.03920E+01 1.17250E+01 0.00000E+00
 -1       623 1.15350E+01 9.20225E+00 0.00000E+00
 -1       624 1.45350E+01 9.20225E+00 0.00000E+00
 -1       625 1.39260E+02 2.07692E+01 0.00000E+00
 -1       626 1.51500E+01 3.96080E+01 0.00000E+00
 -1       627 1.81500E+01 3.96080E+01 0.00000E+00
 -1       628 2.11500E+01 3.96080E+01 0.00000E+00
 -1       629 2.41500E+01 3.96080E+01 0.00000E+00
 -1       630 2.71500E+01 3.96080E+01 0.00000E+00
 -1       631 3.01500E+01 3.96080E+01 0.00000E+00
 -1       632 3.31500E+01 3.96080E+01 0.00000E+00
 -1       633 3.61500E+01 3.96080E+01 0.00000E+00
 -1       634 3.91500E+01 3.96080E+01 0.00000E+00
 -1       635 4.21500E+01 3.96080E+01 0.00000E+00
 -1       636 4.51500E+01 3.96080E+01 0.00000E+00
 -1       637 4.81500E+01 3.96080E+01 0.00000E+00
 -1       638 5.11500E+01 3.96080E+01 0.00000E+00
 -1       639 5.41500E+01 3.96080E+01 0.00000E+00
 -1       640 5.71500E+01 3.96080E+01 0.00000E+00
 -1       641 6.01500E+01 3.96080E+01 0.00000E+00
 -1       642 6.31500E+01 3.96080E+01 0.00000E+00
 -1       643 6.61500E+01 3.96080E+01 0.00000E+00
 -1       644 6.91500E+01 3.96080E+01 0.00000E+00
 -1       645 7.21500E+01 3.96080E+01 0.00000E+00
 -1       646 7.51500E+01 3.96080E+01 0.00000E+00
 -1       647 7.81500E+01 3.96080E+01 0.00000E+00
 -1       648 8.11500E+01 3.96080E+01 0.00000E+00
 -1       649 8.41500E+01 3.96080E+01 0.00000E+00
 -1       650 8.71500E+01 3.96080E+01 0.00000E+00
 -1       651 9.01500E+01 3.96080E+01 0.00000E+00
 -1       652 9.31500E+01 3.96080E+01 0.00000E+00
 -1       653 9.61500E+01 3.96080E+01 0.00000E+00
 -1       654 9.91500E+01 3.96080E+01 0.00000E+00
 -1       655 1.02150E+02 3.96080E+01 0.00000E+00
 -1       656 1.05150E+02 3.96080E+01 0.00000E+00
 -1       657 1.08150E+02 3.96080E+01 0.00000E+00
 -1       658 1.11150E+02 3.96080E+01 0.00000E+00
 -1       659 1.14150E+02 3.96080E+01 0.00000E+00
 -1       660 1.17150E+02 3.96080E+01 0.00000E+00
 -1       661 1.20150E+02 3.96080E+01 0.00000E+00
 -1       662 1.26150E+02 3.99882E+01 0.00000E+00
 -1       663 1.29150E+02 3.98206E+01 0.00000E+00
 -1       664 1.32150E+02 3.98206E+01 0.00000E+00
 -1       665 1.35150E+02 3.98206E+01 0.00000E+00
 -1       666 1.38150E+02 3.98206E+01 0.00000E+00
 -1       667 2.35350E+01 9.20225E+00 0.00000E+00
 -1       668 2.05350E+01 9.20225E+00 0.00000E+00
 -1       669 2.95350E+01 9.20225E+00 0.00000E+00
 -1       670 3.25350E+01 9.20225E+00 0.00000E+00
 -1       671 3.55350E+01 9.20225E+00 0.00000E+00
 -1       672 3.85350E+01 9.20225E+00 0.00000E+00
 -1       673 4.15350E+01 9.20225E+00 0.00000E+00
 -1       674 4.45350E+01 9.20225E+00 0.00000E+00
 -1       675 4.75350E+01 9.20225E+00 0.00000E+00
 -1       676 5.05350E+01 9.20225E+00 0.00000E+00
 -1       677 5.35350E+01 9.20225E+00 0.00000E+00
 -1       678 5.65350E+01 9.20225E+00 0.00000E+00
 -1       679 5.95350E+01 9.20225E+00 0.00000E+00
 -1       680 6.25350E+01 9.20225E+00 0.00000E+00
 -1       681 6.55350E+01 9.20225E+00 0.00000E+00
 -1       682 6.85350E+01 9.20225E+00 0.00000E+00
 -1       683 7.15350E+01 9.20225E+00 0.00000E+00
 -1       684 7.45350E+01 9.20225E+00 0.00000E+00
 -1       685 7.75350E+01 9.20225E+00 0.00000E+00
 -1       686 8.05350E+01 9.20225E+00 0.00000E+00
 -1       687 8.35350E+01 9.20225E+00 0.00000E+00
 -1       688 8.65350E+01 9.20225E+00 0.00000E+00
 -1       689 8.95350E+01 9.20225E+00 0.00000E+00
 -1       690 9.25350E+01 9.20225E+00 0.00000E+00
 -1       691 9.55350E+01 9.20225E+00 0.00000E+00
 -1       692 9.85350E+01 9.20225E+00 0.00000E+00
 -1       693 1.01535E+02 9.20225E+00 0.00000E+00
 -1       694 1.04535E+02 9.20225E+00 0.00000E+00
 -1       695 1.07535E+02 9.20225E+00 0.00000E+00
 -1       696 1.10535E+02 9.20225E+00 0.00000E+00
 -1       697 1.13535E+02 9.20225E+00 0.00000E+00
 -1       698 1.16535E+02 9.20225E+00 0.00000E+00
 -1       699 1.19535E+02 9.20225E+00 0.00000E+00
 -1       700 1.22535E+02 9.20225E+00 0.00000E+00
 -1       701 1.25535E+02 9.20225E+00 0.00000E+00
 -1       702 1.28535E+02 9.20225E+00 0.00000E+00
 -1       703 1.31535E+02 9.20225E+00 0.00000E+00
 -1       704 1.34535E+02 9.20225E+00 0.00000E+00
 -1       705 1.37535E+02 9.20225E+00 0.00000E+00
 -1       706 1.39870E+02 9.76363E+00 0.00000E+00
 -1       707 1.40156E+02 2.35500E+01 0.00000E+00
 -1       708 1.40178E+02 3.97728E+01 0.00000E+00
 -1       709 1.39653E+02 1.76500E+01 0.00000E+00
 -1       710 1.39988E+02 2.94250E+01 0.00000E+00
 -1       711 1.39988E+02 3.23750E+01 0.00000E+00
 -1       712 1.39988E+02 3.53250E+01 0.00000E+00
 -1       713 1.40083E+02 3.75489E+01 0.00000E+00
 -1       714 1.38575E+02 3.13033E+01 0.00000E+00
 -1       715 1.22498E+02 1.34373E+01 0.00000E+00
 -1       716 1.07220E+01 3.94717E+01 0.00000E+00
 -1       717 1.14208E+02 2.65283E+01 0.00000E+00
 -1       718 1.18711E+02 3.63353E+01 0.00000E+00
 -1       719 1.75350E+01 9.20225E+00 0.00000E+00
 -1       720 2.65350E+01 9.20225E+00 0.00000E+00
 -1       721 1.17668E+02 1.58514E+01 0.00000E+00
 -1       722 1.33402E+02 1.44487E+01 0.00000E+00
 -1       723 1.33582E+02 3.74766E+01 0.00000E+00
 -1       724 1.03920E+01 1.76125E+01 0.00000E+00
 -1       725 1.03920E+01 3.23250E+01 0.00000E+00
 -1       726 1.13998E+02 2.40707E+01 0.00000E+00
 -1       727 1.14474E+02 2.93095E+01 0.00000E+00
 -1       728 1.19402E+02 1.45897E+01 0.00000E+00
 -1       729 1.25627E+02 3.89230E+01 0.00000E+00
 -1       730 1.15253E+02 2.08445E+01 0.00000E+00
 -1       731 1.15044E+02 3.18842E+01 0.00000E+00
 -1       732 1.37499E+02 1.84432E+01 0.00000E+00
 -1       733 1.16820E+02 3.41131E+01 0.00000E+00
 -1       734 1.22881E+02 3.88252E+01 0.00000E+00
 -1       735 1.35857E+02 3.54988E+01 0.00000E+00
 -1       736 1.37679E+02 3.35269E+01 0.00000E+00
 -1       737 1.36147E+02 1.64234E+01 0.00000E+00
 -1       738 1.03920E+01 3.52625E+01 0.00000E+00
 -1       739 1.03920E+01 2.64500E+01 0.00000E+00
 -1       740 1.39653E+02 1.47250E+01 0.00000E+00
 -1       741 1.13532E+02 2.20169E+01 0.00000E+00
 -1       742 1.39762E+02 1.22443E+01 0.00000E+00
 -1       743 1.23786E+02 1.22050E+01 0.00000E+00
 -1       744 1.28521E+02 1.30408E+01 0.00000E+00
 -1       745 1.31691E+02 1.33372E+01 0.00000E+00
 -1       746 1.03920E+01 2.93875E+01 0.00000E+00
 -1       747 1.35676E+02 1.42654E+01 0.00000E+00
 -1       748 1.30106E+02 1.31890E+01 0.00000E+00
 -1       749 1.20562E+02 3.75092E+01 0.00000E+00
 -1       750 1.12594E+02 3.10767E+01 0.00000E+00
 -1       751 1.29900E+01 1.32000E+01 0.00000E+00
 -1       752 1.12394E+02 2.54454E+01 0.00000E+00
 -1       753 1.96500E+01 3.70100E+01 0.00000E+00
 -1       754 2.26500E+01 3.70100E+01 0.00000E+00
 -1       755 2.56500E+01 3.70100E+01 0.00000E+00
 -1       756 2.86500E+01 3.70100E+01 0.00000E+00
 -1       757 3.16500E+01 3.70100E+01 0.00000E+00
 -1       758 3.46500E+01 3.70100E+01 0.00000E+00
 -1       759 3.76500E+01 3.70100E+01 0.00000E+00
 -1       760 4.06500E+01 3.70100E+01 0.00000E+00
 -1       761 4.36500E+01 3.70100E+01 0.00000E+00
 -1       762 4.66500E+01 3.70100E+01 0.00000E+00
 -1       763 4.96500E+01 3.70100E+01 0.00000E+00
 -1       764 5.26500E+01 3.70100E+01 0.00000E+00
 -1       765 5.56500E+01 3.70100E+01 0.00000E+00
 -1       766 5.86500E+01 3.70100E+01 0.00000E+00
 -1       767 6.16500E+01 3.70100E+01 0.00000E+00
 -1       768 6.46500E+01 3.70100E+01 0.00000E+00
 -1       769 6.76500E+01 3.70100E+01 0.00000E+00
 -1       770 7.06500E+01 3.70100E+01 0.00000E+00
 -1       771 7.36500E+01 3.70100E+01 0.00000E+00
 -1       772 7.66500E+01 3.70100E+01 0.00000E+00
 -1       773 7.96500E+01 3.70100E+01 0.00000E+00
 -1       774 8.26500E+01 3.70100E+01 0.00000E+00
 -1       775 8.56500E+01 3.70100E+01 0.00000E+00
 -1       776 8.86500E+01 3.70100E+01 0.00000E+00
 -1       777 9.16500E+01 3.70100E+01 0.00000E+00
 -1       778 9.46500E+01 3.70100E+01 0.00000E+00
 -1       779 9.76500E+01 3.70100E+01 0.00000E+00
 -1       780 1.00650E+02 3.70100E+01 0.00000E+00
 -1       781 1.03650E+02 3.70100E+01 0.00000E+00
 -1       782 1.06650E+02 3.70100E+01 0.00000E+00
 -1       783 1.09650E+02 3.70100E+01 0.00000E+00
 -1       784 1.12650E+02 3.70100E+01 0.00000E+00
 -1       785 1.16077E+02 3.66616E+01 0.00000E+00
 -1       786 1.17931E+02 3.79716E+01 0.00000E+00
 -1       787 3.40350E+01 1.18003E+01 0.00000E+00
 -1       788 3.10350E+01 1.18003E+01 0.00000E+00
 -1       789 4.00350E+01 1.18003E+01 0.00000E+00
 -1       790 4.30350E+01 1.18003E+01 0.00000E+00
 -1       791 4.60350E+01 1.18003E+01 0.00000E+00
 -1       792 4.90350E+01 1.18003E+01 0.00000E+00
 -1       793 5.20350E+01 1.18003E+01 0.00000E+00
 -1       794 5.50350E+01 1.18003E+01 0.00000E+00
 -1       795 5.80350E+01 1.18003E+01 0.00000E+00
 -1       796 6.10350E+01 1.18003E+01 0.00000E+00
 -1       797 6.40350E+01 1.18003E+01 0.00000E+00
 -1       798 6.70350E+01 1.18003E+01 0.00000E+00
 -1       799 7.00350E+01 1.18003E+01 0.00000E+00
 -1       800 7.30350E+01 1.18003E+01 0.00000E+00
 -1       801 7.60350E+01 1.18003E+01 0.00000E+00
 -1       802 7.90350E+01 1.18003E+01 0.00000E+00
 -1       803 8.20350E+01 1.18003E+01 0.00000E+00
 -1       804 8.50350E+01 1.18003E+01 0.00000E+00
 -1       805 8.80350E+01 1.18003E+01 0.00000E+00
 -1       806 9.10350E+01 1.18003E+01 0.00000E+00
 -1       807 9.40350E+01 1.18003E+01 0.00000E+00
 -1       808 9.70350E+01 1.18003E+01 0.00000E+00
 -1       809 1.00035E+02 1.18003E+01 0.00000E+00
 -1       810 1.03035E+02 1.18003E+01 0.00000E+00
 -1       811 1.06035E+02 1.18003E+01 0.00000E+00
 -1       812 1.09035E+02 1.18003E+01 0.00000E+00
 -1       813 1.12035E+02 1.18003E+01 0.00000E+00
 -1       814 1.15035E+02 1.18003E+01 0.00000E+00
 -1       815 1.18035E+02 1.18003E+01 0.00000E+00
 -1       816 1.33035E+02 1.15876E+01 0.00000E+00
 -1       817 1.36035E+02 1.15876E+01 0.00000E+00
 -1       818 1.37898E+02 1.19160E+01 0.00000E+00
 -1       819 1.29900E+01 2.20250E+01 0.00000E+00
 -1       820 1.17131E+02 1.32919E+01 0.00000E+00
 -1       821 1.66500E+01 3.70100E+01 0.00000E+00
 -1       822 3.70350E+01 1.18003E+01 0.00000E+00
 -1       823 2.20350E+01 1.18003E+01 0.00000E+00
 -1       824 1.35210E+01 3.61362E+01 0.00000E+00
 -1       825 1.15202E+02 1.68684E+01 0.00000E+00
 -1       826 1.12300E+02 2.81137E+01 0.00000E+00
 -1       827 1.38397E+02 3.60180E+01 0.00000E+00
 -1       828 1.37625E+01 1.12011E+01 0.00000E+00
 -1       829 1.36773E+02 3.79193E+01 0.00000E+00
 -1       830 1.37664E+02 1.59577E+01 0.00000E+00
 -1       831 1.14301E+02 3.44326E+01 0.00000E+00
 -1       832 1.20044E+02 1.15787E+01 0.00000E+00
 -1       833 1.13371E+02 1.89545E+01 0.00000E+00
 -1       834 1.29900E+01 2.49750E+01 0.00000E+00
 -1       835 1.29900E+01 1.61375E+01 0.00000E+00
 -1       836 1.11928E+02 2.33917E+01 0.00000E+00
 -1       837 2.50350E+01 1.18003E+01 0.00000E+00
 -1       838 1.35210E+01 3.31987E+01 0.00000E+00
 -1       839 2.80350E+01 1.18003E+01 0.00000E+00
 -1       840 1.29900E+01 1.90875E+01 0.00000E+00
 -1       841 1.35210E+01 3.02612E+01 0.00000E+00
 -1       842 1.67625E+01 1.12011E+01 0.00000E+00
 -1       843 1.93988E+01 1.15007E+01 0.00000E+00
 -1       844 1.11850E+02 3.36252E+01 0.00000E+00
 -1       845 2.11500E+01 3.44120E+01 0.00000E+00
 -1       846 2.41500E+01 3.44120E+01 0.00000E+00
 -1       847 2.71500E+01 3.44120E+01 0.00000E+00
 -1       848 3.01500E+01 3.44120E+01 0.00000E+00
 -1       849 3.31500E+01 3.44120E+01 0.00000E+00
 -1       850 3.61500E+01 3.44120E+01 0.00000E+00
 -1       851 3.91500E+01 3.44120E+01 0.00000E+00
 -1       852 4.21500E+01 3.44120E+01 0.00000E+00
 -1       853 4.51500E+01 3.44120E+01 0.00000E+00
 -1       854 4.81500E+01 3.44120E+01 0.00000E+00
 -1       855 5.11500E+01 3.44120E+01 0.00000E+00
 -1       856 5.41500E+01 3.44120E+01 0.00000E+00
 -1       857 5.71500E+01 3.44120E+01 0.00000E+00
 -1       858 6.01500E+01 3.44120E+01 0.00000E+00
 -1       859 6.31500E+01 3.44120E+01 0.00000E+00
 -1       860 6.61500E+01 3.44120E+01 0.00000E+00
 -1       861 6.91500E+01 3.44120E+01 0.00000E+00
 -1       862 7.21500E+01 3.44120E+01 0.00000E+00
 -1       863 7.51500E+01 3.44120E+01 0.00000E+00
 -1       864 7.81500E+01 3.44120E+01 0.00000E+00
 -1       865 8.11500E+01 3.44120E+01 0.00000E+00
 -1       866 8.41500E+01 3.44120E+01 0.00000E+00
 -1       867 8.71500E+01 3.44120E+01 0.00000E+00
 -1       868 9.01500E+01 3.44120E+01 0.00000E+00
 -1       869 9.31500E+01 3.44120E+01 0.00000E+00
 -1       870 9.61500E+01 3.44120E+01 0.00000E+00
 -1       871 9.91500E+01 3.44120E+01 0.00000E+00
 -1       872 1.02150E+02 3.44120E+01 0.00000E+00
 -1       873 1.05150E+02 3.44120E+01 0.00000E+00
 -1       874 1.08150E+02 3.44120E+01 0.00000E+00
 -1       875 4.75350E+01 1.43982E+01 0.00000E+00
 -1       876 4.45350E+01 1.43982E+01 0.00000E+00
 -1       877 4.15350E+01 1.43982E+01 0.00000E+00
 -1       878 5.05350E+01 1.43982E+01 0.00000E+00
 -1       879 5.35350E+01 1.43982E+01 0.00000E+00
 -1       880 5.65350E+01 1.43982E+01 0.00000E+00
 -1       881 5.95350E+01 1.43982E+01 0.00000E+00
 -1       882 6.25350E+01 1.43982E+01 0.00000E+00
 -1       883 6.55350E+01 1.43982E+01 0.00000E+00
 -1       884 6.85350E+01 1.43982E+01 0.00000E+00
 -1       885 7.15350E+01 1.43982E+01 0.00000E+00
 -1       886 7.45350E+01 1.43982E+01 0.00000E+00
 -1       887 7.75350E+01 1.43982E+01 0.00000E+00
 -1       888 8.05350E+01 1.43982E+01 0.00000E+00
 -1       889 8.35350E+01 1.43982E+01 0.00000E+00
 -1       890 8.65350E+01 1.43982E+01 0.00000E+00
 -1       891 8.95350E+01 1.43982E+01 0.00000E+00
 -1       892 9.25350E+01 1.43982E+01 0.00000E+00
 -1       893 9.55350E+01 1.43982E+01 0.00000E+00
 -1       894 9.85350E+01 1.43982E+01 0.00000E+00
 -1       895 1.01535E+02 1.43982E+01 0.00000E+00
 -1       896 1.04535E+02 1.43982E+01 0.00000E+00
 -1       897 1.07535E+02 1.43982E+01 0.00000E+00
 -1       898 1.10535E+02 1.43982E+01 0.00000E+00
 -1       899 1.10131E+02 2.67011E+01 0.00000E+00
 -1       900 1.37781E+02 1.39368E+01 0.00000E+00
 -1       901 1.81500E+01 3.44120E+01 0.00000E+00
 -1       902 1.13106E+02 1.53767E+01 0.00000E+00
 -1       903 1.32555E+01 2.76181E+01 0.00000E+00
 -1       904 1.59900E+01 1.32000E+01 0.00000E+00
 -1       905 1.09906E+02 2.98470E+01 0.00000E+00
 -1       906 3.25350E+01 1.43982E+01 0.00000E+00
 -1       907 1.11237E+02 2.06025E+01 0.00000E+00
 -1       908 1.09665E+02 2.46474E+01 0.00000E+00
 -1       909 2.95350E+01 1.43982E+01 0.00000E+00
 -1       910 1.55880E+01 2.35000E+01 0.00000E+00
 -1       911 2.04235E+01 1.42319E+01 0.00000E+00
 -1       912 1.09028E+02 3.21295E+01 0.00000E+00
 -1       913 3.85350E+01 1.43982E+01 0.00000E+00
 -1       914 1.58355E+01 3.38054E+01 0.00000E+00
 -1       915 2.34235E+01 1.42319E+01 0.00000E+00
 -1       916 1.58355E+01 3.08679E+01 0.00000E+00
 -1       917 1.55880E+01 2.05625E+01 0.00000E+00
 -1       918 1.10886E+02 1.75004E+01 0.00000E+00
 -1       919 3.55350E+01 1.43982E+01 0.00000E+00
 -1       920 2.26500E+01 3.18140E+01 0.00000E+00
 -1       921 5.20350E+01 1.69963E+01 0.00000E+00
 -1       922 2.56500E+01 3.18140E+01 0.00000E+00
 -1       923 2.86500E+01 3.18140E+01 0.00000E+00
 -1       924 3.16500E+01 3.18140E+01 0.00000E+00
 -1       925 3.46500E+01 3.18140E+01 0.00000E+00
 -1       926 3.76500E+01 3.18140E+01 0.00000E+00
 -1       927 4.06500E+01 3.18140E+01 0.00000E+00
 -1       928 4.36500E+01 3.18140E+01 0.00000E+00
 -1       929 4.66500E+01 3.18140E+01 0.00000E+00
 -1       930 4.96500E+01 3.18140E+01 0.00000E+00
 -1       931 5.26500E+01 3.18140E+01 0.00000E+00
 -1       932 5.56500E+01 3.18140E+01 0.00000E+00
 -1       933 5.86500E+01 3.18140E+01 0.00000E+00
 -1       934 6.16500E+01 3.18140E+01 0.00000E+00
 -1       935 6.46500E+01 3.18140E+01 0.00000E+00
 -1       936 6.76500E+01 3.18140E+01 0.00000E+00
 -1       937 7.06500E+01 3.18140E+01 0.00000E+00
 -1       938 7.36500E+01 3.18140E+01 0.00000E+00
 -1       939 7.66500E+01 3.18140E+01 0.00000E+00
 -1       940 7.96500E+01 3.18140E+01 0.00000E+00
 -1       941 8.26500E+01 3.18140E+01 0.00000E+00
 -1       942 8.56500E+01 3.18140E+01 0.00000E+00
 -1       943 8.86500E+01 3.18140E+01 0.00000E+00
 -1       944 9.16500E+01 3.18140E+01 0.00000E+00
 -1       945 9.46500E+01 3.18140E+01 0.00000E+00
 -1       946 9.76500E+01 3.18140E+01 0.00000E+00
 -1       947 1.00650E+02 3.18140E+01 0.00000E+00
 -1       948 1.03650E+02 3.18140E+01 0.00000E+00
 -1       949 1.06339E+02 3.19717E+01 0.00000E+00
 -1       950 4.60350E+01 1.69963E+01 0.00000E+00
 -1       951 4.90350E+01 1.69963E+01 0.00000E+00
 -1       952 1.07639E+02 2.81043E+01 0.00000E+00
 -1       953 4.30350E+01 1.69963E+01 0.00000E+00
 -1       954 5.50350E+01 1.69963E+01 0.00000E+00
 -1       955 5.80350E+01 1.69963E+01 0.00000E+00
 -1       956 6.10350E+01 1.69963E+01 0.00000E+00
 -1       957 6.40350E+01 1.69963E+01 0.00000E+00
 -1       958 6.70350E+01 1.69963E+01 0.00000E+00
 -1       959 7.00350E+01 1.69963E+01 0.00000E+00
 -1       960 7.30350E+01 1.69963E+01 0.00000E+00
 -1       961 7.60350E+01 1.69963E+01 0.00000E+00
 -1       962 7.90350E+01 1.69963E+01 0.00000E+00
 -1       963 8.20350E+01 1.69963E+01 0.00000E+00
 -1       964 8.50350E+01 1.69963E+01 0.00000E+00
 -1       965 8.80350E+01 1.69963E+01 0.00000E+00
 -1       966 9.10350E+01 1.69963E+01 0.00000E+00
 -1       967 9.40350E+01 1.69963E+01 0.00000E+00
 -1       968 9.70350E+01 1.69963E+01 0.00000E+00
 -1       969 1.00035E+02 1.69963E+01 0.00000E+00
 -1       970 1.03035E+02 1.69963E+01 0.00000E+00
 -1       971 1.06035E+02 1.69963E+01 0.00000E+00
 -1       972 1.08460E+02 1.72483E+01 0.00000E+00
 -1       973 1.63076E+01 1.65250E+01 0.00000E+00
 -1       974 1.58535E+01 2.61431E+01 0.00000E+00
 -1       975 1.08973E+02 2.18582E+01 0.00000E+00
 -1       976 1.82068E+01 1.37159E+01 0.00000E+00
 -1       977 1.96500E+01 3.18140E+01 0.00000E+00
 -1       978 1.77428E+01 3.13409E+01 0.00000E+00
 -1       979 2.65350E+01 1.43982E+01 0.00000E+00
 -1       980 1.07173E+02 2.60506E+01 0.00000E+00
 -1       981 3.10350E+01 1.69963E+01 0.00000E+00
 -1       982 1.58445E+01 2.85055E+01 0.00000E+00
 -1       983 1.83057E+01 2.45619E+01 0.00000E+00
 -1       984 1.83057E+01 2.16244E+01 0.00000E+00
 -1       985 2.19235E+01 1.68299E+01 0.00000E+00
 -1       986 1.06989E+02 3.00380E+01 0.00000E+00
 -1       987 1.08717E+02 1.95533E+01 0.00000E+00
 -1       988 4.00350E+01 1.69963E+01 0.00000E+00
 -1       989 3.40350E+01 1.69963E+01 0.00000E+00
 -1       990 1.97068E+01 1.63139E+01 0.00000E+00
 -1       991 2.80350E+01 1.69963E+01 0.00000E+00
 -1       992 5.35350E+01 1.95942E+01 0.00000E+00
 -1       993 2.71500E+01 2.92160E+01 0.00000E+00
 -1       994 3.01500E+01 2.92160E+01 0.00000E+00
 -1       995 3.31500E+01 2.92160E+01 0.00000E+00
 -1       996 3.61500E+01 2.92160E+01 0.00000E+00
 -1       997 3.91500E+01 2.92160E+01 0.00000E+00
 -1       998 4.21500E+01 2.92160E+01 0.00000E+00
 -1       999 4.51500E+01 2.92160E+01 0.00000E+00
 -1      1000 4.81500E+01 2.92160E+01 0.00000E+00
 -1      1001 5.11500E+01 2.92160E+01 0.00000E+00
 -1      1002 5.41500E+01 2.92160E+01 0.00000E+00
 -1      1003 5.71500E+01 2.92160E+01 0.00000E+00
 -1      1004 6.01500E+01 2.92160E+01 0.00000E+00
 -1      1005 6.31500E+01 2.92160E+01 0.00000E+00
 -1      1006 6.61500E+01 2.92160E+01 0.00000E+00
 -1      1007 6.91500E+01 2.92160E+01 0.00000E+00
 -1      1008 7.21500E+01 2.92160E+01 0.00000E+00
 -1      1009 7.51500E+01 2.92160E+01 0.00000E+00
 -1      1010 7.81500E+01 2.92160E+01 0.00000E+00
 -1      1011 8.11500E+01 2.92160E+01 0.00000E+00
 -1      1012 8.41500E+01 2.92160E+01 0.00000E+00
 -1      1013 8.71500E+01 2.92160E+01 0.00000E+00
 -1      1014 9.01500E+01 2.92160E+01 0.00000E+00
 -1      1015 9.31500E+01 2.92160E+01 0.00000E+00
 -1      1016 9.61500E+01 2.92160E+01 0.00000E+00
 -1      1017 9.91500E+01 2.92160E+01 0.00000E+00
 -1      1018 1.02150E+02 2.92160E+01 0.00000E+00
 -1      1019 5.95350E+01 1.95942E+01 0.00000E+00
 -1      1020 6.25350E+01 1.95942E+01 0.00000E+00
 -1      1021 6.55350E+01 1.95942E+01 0.00000E+00
 -1      1022 6.85350E+01 1.95942E+01 0.00000E+00
 -1      1023 7.15350E+01 1.95942E+01 0.00000E+00
 -1      1024 7.45350E+01 1.95942E+01 0.00000E+00
 -1      1025 7.75350E+01 1.95942E+01 0.00000E+00
 -1      1026 8.05350E+01 1.95942E+01 0.00000E+00
 -1      1027 8.35350E+01 1.95942E+01 0.00000E+00
 -1      1028 8.65350E+01 1.95942E+01 0.00000E+00
 -1      1029 8.95350E+01 1.95942E+01 0.00000E+00
 -1      1030 9.25350E+01 1.95942E+01 0.00000E+00
 -1      1031 9.55350E+01 1.95942E+01 0.00000E+00
 -1      1032 9.85350E+01 1.95942E+01 0.00000E+00
 -1      1033 1.01535E+02 1.95942E+01 0.00000E+00
 -1      1034 1.04535E+02 1.95942E+01 0.00000E+00
 -1      1035 2.49793E+01 1.69131E+01 0.00000E+00
 -1      1036 3.70350E+01 1.69963E+01 0.00000E+00
 -1      1037 1.06482E+02 2.32614E+01 0.00000E+00
 -1      1038 2.41500E+01 2.92160E+01 0.00000E+00
 -1      1039 1.82967E+01 2.69243E+01 0.00000E+00
 -1      1040 5.65350E+01 1.95942E+01 0.00000E+00
 -1      1041 2.11500E+01 2.92160E+01 0.00000E+00
 -1      1042 4.45350E+01 1.95942E+01 0.00000E+00
 -1      1043 1.04570E+02 2.96270E+01 0.00000E+00
 -1      1044 5.05350E+01 1.95942E+01 0.00000E+00
 -1      1045 4.75350E+01 1.95942E+01 0.00000E+00
 -1      1046 1.80197E+01 2.91326E+01 0.00000E+00
 -1      1047 2.33807E+01 1.94685E+01 0.00000E+00
 -1      1048 1.06626E+02 1.95738E+01 0.00000E+00
 -1      1049 4.15350E+01 1.95942E+01 0.00000E+00
 -1      1050 2.95350E+01 1.95942E+01 0.00000E+00
 -1      1051 1.06554E+02 2.14176E+01 0.00000E+00
 -1      1052 2.08992E+01 2.57530E+01 0.00000E+00
 -1      1053 1.05220E+02 2.76933E+01 0.00000E+00
 -1      1054 2.03779E+01 1.94051E+01 0.00000E+00
 -1      1055 2.08992E+01 2.28155E+01 0.00000E+00
 -1      1056 3.25350E+01 1.95942E+01 0.00000E+00
 -1      1057 1.85055E+01 1.89997E+01 0.00000E+00
 -1      1058 5.80350E+01 2.21922E+01 0.00000E+00
 -1      1059 2.26500E+01 2.66180E+01 0.00000E+00
 -1      1060 3.16500E+01 2.66180E+01 0.00000E+00
 -1      1061 3.46500E+01 2.66180E+01 0.00000E+00
 -1      1062 3.76500E+01 2.66180E+01 0.00000E+00
 -1      1063 4.06500E+01 2.66180E+01 0.00000E+00
 -1      1064 4.36500E+01 2.66180E+01 0.00000E+00
 -1      1065 4.66500E+01 2.66180E+01 0.00000E+00
 -1      1066 4.96500E+01 2.66180E+01 0.00000E+00
 -1      1067 5.26500E+01 2.66180E+01 0.00000E+00
 -1      1068 5.56500E+01 2.66180E+01 0.00000E+00
 -1      1069 5.86500E+01 2.66180E+01 0.00000E+00
 -1      1070 6.16500E+01 2.66180E+01 0.00000E+00
 -1      1071 6.46500E+01 2.66180E+01 0.00000E+00
 -1      1072 6.76500E+01 2.66180E+01 0.00000E+00
 -1      1073 7.06500E+01 2.66180E+01 0.00000E+00
 -1      1074 7.36500E+01 2.66180E+01 0.00000E+00
 -1      1075 7.66500E+01 2.66180E+01 0.00000E+00
 -1      1076 7.96500E+01 2.66180E+01 0.00000E+00
 -1      1077 8.26500E+01 2.66180E+01 0.00000E+00
 -1      1078 8.56500E+01 2.66180E+01 0.00000E+00
 -1      1079 8.86500E+01 2.66180E+01 0.00000E+00
 -1      1080 9.16500E+01 2.66180E+01 0.00000E+00
 -1      1081 9.46500E+01 2.66180E+01 0.00000E+00
 -1      1082 9.76500E+01 2.66180E+01 0.00000E+00
 -1      1083 1.00650E+02 2.66180E+01 0.00000E+00
 -1      1084 6.40350E+01 2.21922E+01 0.00000E+00
 -1      1085 6.10350E+01 2.21922E+01 0.00000E+00
 -1      1086 7.00350E+01 2.21922E+01 0.00000E+00
 -1      1087 7.30350E+01 2.21922E+01 0.00000E+00
 -1      1088 7.60350E+01 2.21922E+01 0.00000E+00
 -1      1089 7.90350E+01 2.21922E+01 0.00000E+00
 -1      1090 8.20350E+01 2.21922E+01 0.00000E+00
 -1      1091 8.50350E+01 2.21922E+01 0.00000E+00
 -1      1092 8.80350E+01 2.21922E+01 0.00000E+00
 -1      1093 9.10350E+01 2.21922E+01 0.00000E+00
 -1      1094 9.40350E+01 2.21922E+01 0.00000E+00
 -1      1095 9.70350E+01 2.21922E+01 0.00000E+00
 -1      1096 1.00035E+02 2.21922E+01 0.00000E+00
 -1      1097 1.03035E+02 2.21922E+01 0.00000E+00
 -1      1098 2.64364E+01 1.95517E+01 0.00000E+00
 -1      1099 6.70350E+01 2.21922E+01 0.00000E+00
 -1      1100 2.56500E+01 2.66180E+01 0.00000E+00
 -1      1101 5.50350E+01 2.21922E+01 0.00000E+00
 -1      1102 2.86500E+01 2.66180E+01 0.00000E+00
 -1      1103 1.04528E+02 2.49042E+01 0.00000E+00
 -1      1104 1.02935E+02 2.71557E+01 0.00000E+00
 -1      1105 2.79500E+01 2.21707E+01 0.00000E+00
 -1      1106 3.09500E+01 2.21707E+01 0.00000E+00
 -1      1107 2.48943E+01 2.20875E+01 0.00000E+00
 -1      1108 4.30350E+01 2.21922E+01 0.00000E+00
 -1      1109 5.20350E+01 2.21922E+01 0.00000E+00
 -1      1110 1.04600E+02 2.30603E+01 0.00000E+00
 -1      1111 3.55350E+01 1.95942E+01 0.00000E+00
 -1      1112 2.26500E+01 2.36805E+01 0.00000E+00
 -1      1113 3.85350E+01 1.95942E+01 0.00000E+00
 -1      1114 4.60350E+01 2.21922E+01 0.00000E+00
 -1      1115 3.61500E+01 2.40200E+01 0.00000E+00
 -1      1116 3.91500E+01 2.40200E+01 0.00000E+00
 -1      1117 5.11500E+01 2.40200E+01 0.00000E+00
 -1      1118 4.90350E+01 2.21922E+01 0.00000E+00
 -1      1119 3.35500E+01 2.30954E+01 0.00000E+00
 -1      1120 4.81500E+01 2.40200E+01 0.00000E+00
 -1      1121 0.00000E+00 4.85250E+01 0.00000E+00
 -1      1122 0.00000E+00 4.55750E+01 0.00000E+00
 -1      1123 0.00000E+00 4.26250E+01 0.00000E+00
 -1      1124 0.00000E+00 3.96750E+01 0.00000E+00
 -1      1125 0.00000E+00 3.67250E+01 0.00000E+00
 -1      1126 0.00000E+00 3.38000E+01 0.00000E+00
 -1      1127 0.00000E+00 3.08750E+01 0.00000E+00
 -1      1128 0.00000E+00 2.79250E+01 0.00000E+00
 -1      1129 0.00000E+00 2.49750E+01 0.00000E+00
 -1      1130 0.00000E+00 2.20250E+01 0.00000E+00
 -1      1131 0.00000E+00 1.90750E+01 0.00000E+00
 -1      1132 0.00000E+00 1.61500E+01 0.00000E+00
 -1      1133 0.00000E+00 1.32250E+01 0.00000E+00
 -1      1134 0.00000E+00 1.02750E+01 0.00000E+00
 -1      1135 0.00000E+00 7.32500E+00 0.00000E+00
 -1      1136 0.00000E+00 4.37500E+00 0.00000E+00
 -1      1137 0.00000E+00 1.45000E+00 0.00000E+00
 -1      1138 1.57500E+00 5.00000E+01 0.00000E+00
 -1      1139 4.65000E+00 5.00000E+01 0.00000E+00
 -1      1140 7.65000E+00 5.00000E+01 0.00000E+00
 -1      1141 1.06500E+01 5.00000E+01 0.00000E+00
 -1      1142 1.36500E+01 5.00000E+01 0.00000E+00
 -1      1143 1.66500E+01 5.00000E+01 0.00000E+00
 -1      1144 1.96500E+01 5.00000E+01 0.00000E+00
 -1      1145 2.26500E+01 5.00000E+01 0.00000E+00
 -1      1146 2.56500E+01 5.00000E+01 0.00000E+00
 -1      1147 2.86500E+01 5.00000E+01 0.00000E+00
 -1      1148 3.16500E+01 5.00000E+01 0.00000E+00
 -1      1149 3.46500E+01 5.00000E+01 0.00000E+00
 -1      1150 3.76500E+01 5.00000E+01 0.00000E+00
 -1      1151 4.06500E+01 5.00000E+01 0.00000E+00
 -1      1152 4.36500E+01 5.00000E+01 0.00000E+00
 -1      1153 4.66500E+01 5.00000E+01 0.00000E+00
 -1      1154 4.96500E+01 5.00000E+01 0.00000E+00
 -1      1155 5.26500E+01 5.00000E+01 0.00000E+00
 -1      1156 5.56500E+01 5.00000E+01 0.00000E+00
 -1      1157 5.86500E+01 5.00000E+01 0.00000E+00
 -1      1158 6.16500E+01 5.00000E+01 0.00000E+00
 -1      1159 6.46500E+01 5.00000E+01 0.00000E+00
 -1      1160 6.76500E+01 5.00000E+01 0.00000E+00
 -1      1161 7.06500E+01 5.00000E+01 0.00000E+00
 -1      1162 7.36500E+01 5.00000E+01 0.00000E+00
 -1      1163 7.66500E+01 5.00000E+01 0.00000E+00
 -1      1164 7.96500E+01 5.00000E+01 0.00000E+00
 -1      1165 8.26500E+01 5.00000E+01 0.00000E+00
 -1      1166 8.56500E+01 5.00000E+01 0.00000E+00
 -1      1167 8.86500E+01 5.00000E+01 0.00000E+00
 -1      1168 9.16500E+01 5.00000E+01 0.00000E+00
 -1      1169 9.46500E+01 5.00000E+01 0.00000E+00
 -1      1170 9.76500E+01 5.00000E+01 0.00000E+00
 -1      1171 1.00650E+02 5.00000E+01 0.00000E+00
 -1      1172 1.03650E+02 5.00000E+01 0.00000E+00
 -1      1173 1.06650E+02 5.00000E+01 0.00000E+00
 -1      1174 1.09650E+02 5.00000E+01 0.00000E+00
 -1      1175 1.12650E+02 5.00000E+01 0.00000E+00
 -1      1176 1.15650E+02 5.00000E+01 0.00000E+00
 -1      1177 1.18650E+02 5.00000E+01 0.00000E+00
 -1      1178 1.21650E+02 5.00000E+01 0.00000E+00
 -1      1179 1.24650E+02 5.00000E+01 0.00000E+00
 -1      1180 1.27650E+02 5.00000E+01 0.00000E+00
 -1      1181 1.30650E+02 5.00000E+01 0.00000E+00
 -1      1182 1.33650E+02 5.00000E+01 0.00000E+00
 -1      1183 1.36650E+02 5.00000E+01 0.00000E+00
 -1      1184 1.39650E+02 5.00000E+01 0.00000E+00
 -1      1185 1.42650E+02 5.00000E+01 0.00000E+00
 -1      1186 1.45650E+02 5.00000E+01 0.00000E+00
 -1      1187 1.48575E+02 5.00000E+01 0.00000E+00
 -1      1188 1.57500E+00 0.00000E+00 0.00000E+00
 -1      1189 4.65000E+00 0.00000E+00 0.00000E+00
 -1      1190 7.65000E+00 0.00000E+00 0.00000E+00
 -1      1191 1.06500E+01 0.00000E+00 0.00000E+00
 -1      1192 1.36500E+01 0.00000E+00 0.00000E+00
 -1      1193 1.66500E+01 0.00000E+00 0.00000E+00
 -1      1194 1.96500E+01 0.00000E+00 0.00000E+00
 -1      1195 2.26500E+01 0.00000E+00 0.00000E+00
 -1      1196 2.56500E+01 0.00000E+00 0.00000E+00
 -1      1197 2.86500E+01 0.00000E+00 0.00000E+00
 -1      1198 3.16500E+01 0.00000E+00 0.00000E+00
 -1      1199 3.46500E+01 0.00000E+00 0.00000E+00
 -1      1200 3.76500E+01 0.00000E+00 0.00000E+00
 -1      1201 4.06500E+01 0.00000E+00 0.00000E+00
 -1      1202 4.36500E+01 0.00000E+00 0.00000E+00
 -1      1203 4.66500E+01 0.00000E+00 0.00000E+00
 -1      1204 4.96500E+01 0.00000E+00 0.00000E+00
 -1      1205 5.26500E+01 0.00000E+00 0.00000E+00
 -1      1206 5.56500E+01 0.00000E+00 0.00000E+00
 -1      1207 5.86500E+01 0.00000E+00 0.00000E+00
 -1      1208 6.16500E+01 0.00000E+00 0.00000E+00
 -1      1209 6.46500E+01 0.00000E+00 0.00000E+00
 -1      1210 6.76500E+01 0.00000E+00 0.00000E+00
 -1      1211 7.06500E+01 0.00000E+00 0.00000E+00
 -1      1212 7.36500E+01 0.00000E+00 0.00000E+00
 -1      1213 7.66500E+01 0.00000E+00 0.00000E+00
 -1      1214 7.96500E+01 0.00000E+00 0.00000E+00
 -1      1215 8.26500E+01 0.00000E+00 0.00000E+00
 -1      1216 8.56500E+01 0.00000E+00 0.00000E+00
 -1      1217 8.86500E+01 0.00000E+00 0.00000E+00
 -1      1218 9.16500E+01 0.00000E+00 0.00000E+00
 -1      1219 9.46500E+01 0.00000E+00 0.00000E+00
 -1      1220 9.76500E+01 0.00000E+00 0.00000E+00
 -1      1221 1.00650E+02 0.00000E+00 0.00000E+00
 -1      1222 1.03650E+02 0.00000E+00 0.00000E+00
 -1      1223 1.06650E+02 0.00000E+00 0.00000E+00
 -1      1224 1.09650E+02 0.00000E+00 0.00000E+00
 -1      1225 1.12650E+02 0.00000E+00 0.00000E+00
 -1      1226 1.15650E+02 0.00000E+00 0.00000E+00
 -1      1227 1.18650E+02 0.00000E+00 0.00000E+00
 -1      1228 1.21650E+02 0.00000E+00 0.00000E+00
 -1      1229 1.24650E+02 0.00000E+00 0.00000E+00
 -1      1230 1.27650E+02 0.00000E+00 0.00000E+00
 -1      1231 1.30650E+02 0.00000E+00 0.00000E+00
 -1      1232 1.33650E+02 0.00000E+00 0.00000E+00
 -1      1233 1.36650E+02 0.00000E+00 0.00000E+00
 -1      1234 1.39650E+02 0.00000E+00 0.00000E+00
 -1      1235 1.42650E+02 0.00000E+00 0.00000E+00
 -1      1236 1.45650E+02 0.00000E+00 0.00000E+00
 -1      1237 1.48575E+02 0.00000E+00 0.00000E+00
 -1      1238 1.50000E+02 1.47500E+00 0.00000E+00
 -1      1239 1.50000E+02 4.42500E+00 0.00000E+00
 -1      1240 1.50000E+02 7.37500E+00 0.00000E+00
 -1      1241 1.50000E+02 1.03250E+01 0.00000E+00
 -1      1242 1.50000E+02 1.32750E+01 0.00000E+00
 -1      1243 1.50000E+02 1.62000E+01 0.00000E+00
 -1      1244 1.50000E+02 1.91250E+01 0.00000E+00
 -1      1245 1.50000E+02 2.20750E+01 0.00000E+00
 -1      1246 1.50000E+02 2.50250E+01 0.00000E+00
 -1      1247 1.50000E+02 2.79750E+01 0.00000E+00
 -1      1248 1.50000E+02 3.09250E+01 0.00000E+00
 -1      1249 1.50000E+02 3.38500E+01 0.00000E+00
 -1      1250 1.50000E+02 3.67750E+01 0.00000E+00
 -1      1251 1.50000E+02 3.97250E+01 0.00000E+00
 -1      1252 1.50000E+02 4.26750E+01 0.00000E+00
 -1      1253 1.50000E+02 4.56250E+01 0.00000E+00
 -1      1254 1.50000E+02 4.85500E+01 0.00000E+00
 -1      1255 1.33972E+02 2.53943E+01 0.00000E+00
 -1      1256 1.33659E+02 2.39317E+01 0.00000E+00
 -1      1257 1.33050E+02 2.25839E+01 0.00000E+00
 -1      1258 1.32212E+02 2.14375E+01 0.00000E+00
 -1      1259 1.31105E+02 2.04439E+01 0.00000E+00
 -1      1260 1.29816E+02 1.97084E+01 0.00000E+00
 -1      1261 1.28450E+02 1.92712E+01 0.00000E+00
 -1      1262 1.26970E+02 1.91217E+01 0.00000E+00
 -1      1263 1.25413E+02 1.93062E+01 0.00000E+00
 -1      1264 1.23977E+02 1.98127E+01 0.00000E+00
 -1      1265 1.22762E+02 2.05581E+01 0.00000E+00
 -1      1266 1.21728E+02 2.15282E+01 0.00000E+00
 -1      1267 1.20869E+02 2.27618E+01 0.00000E+00
 -1      1268 1.20295E+02 2.41464E+01 0.00000E+00
 -1      1269 1.20030E+02 2.55883E+01 0.00000E+00
 -1      1270 1.20076E+02 2.70797E+01 0.00000E+00
 -1      1271 1.20418E+02 2.84758E+01 0.00000E+00
 -1      1272 1.21037E+02 2.97710E+01 0.00000E+00
 -1      1273 1.21911E+02 3.09175E+01 0.00000E+00
 -1      1274 1.23018E+02 3.18717E+01 0.00000E+00
 -1      1275 1.24297E+02 3.25742E+01 0.00000E+00
 -1      1276 1.25679E+02 3.29940E+01 0.00000E+00
 -1      1277 1.27179E+02 3.31196E+01 0.00000E+00
 -1      1278 1.28639E+02 3.29295E+01 0.00000E+00
 -1      1279 1.29957E+02 3.24711E+01 0.00000E+00
 -1      1280 1.31177E+02 3.17463E+01 0.00000E+00
 -1      1281 1.32241E+02 3.07730E+01 0.00000E+00
 -1      1282 1.33069E+02 2.96271E+01 0.00000E+00
 -1      1283 1.33648E+02 2.83435E+01 0.00000E+00
 -1      1284 1.33968E+02 2.68929E+01 0.00000E+00
 -1      1285 1.57500E+00 4.85250E+01 0.00000E+00
 -1      1286 1.29900E+00 4.48375E+01 0.00000E+00
 -1      1287 1.29900E+00 4.63125E+01 0.00000E+00
 -1      1288 1.29900E+00 4.18875E+01 0.00000E+00
 -1      1289 1.29900E+00 4.33625E+01 0.00000E+00
 -1      1290 2.59800E+00 4.41000E+01 0.00000E+00
 -1      1291 1.29900E+00 3.89375E+01 0.00000E+00
 -1      1292 1.29900E+00 4.04125E+01 0.00000E+00
 -1      1293 2.59800E+00 4.11500E+01 0.00000E+00
 -1      1294 1.29900E+00 3.59875E+01 0.00000E+00
 -1      1295 1.29900E+00 3.74625E+01 0.00000E+00
 -1      1296 2.59800E+00 3.82000E+01 0.00000E+00
 -1      1297 1.29900E+00 3.30875E+01 0.00000E+00
 -1      1298 1.29900E+00 3.45375E+01 0.00000E+00
 -1      1299 2.59800E+00 3.52750E+01 0.00000E+00
 -1      1300 1.29900E+00 3.01375E+01 0.00000E+00
 -1      1301 1.29900E+00 3.16125E+01 0.00000E+00
 -1      1302 2.59800E+00 3.23500E+01 0.00000E+00
 -1      1303 1.29900E+00 2.71875E+01 0.00000E+00
 -1      1304 1.29900E+00 2.86625E+01 0.00000E+00
 -1      1305 2.59800E+00 2.94000E+01 0.00000E+00
 -1      1306 1.29900E+00 2.42375E+01 0.00000E+00
 -1      1307 1.29900E+00 2.57125E+01 0.00000E+00
 -1      1308 2.59800E+00 2.64500E+01 0.00000E+00
 -1      1309 1.29900E+00 2.12875E+01 0.00000E+00
 -1      1310 1.29900E+00 2.27625E+01 0.00000E+00
 -1      1311 2.59800E+00 2.35000E+01 0.00000E+00
 -1      1312 1.29900E+00 1.83375E+01 0.00000E+00
 -1      1313 1.29900E+00 1.98125E+01 0.00000E+00
 -1      1314 2.59800E+00 2.05500E+01 0.00000E+00
 -1      1315 1.29900E+00 1.54375E+01 0.00000E+00
 -1      1316 1.29900E+00 1.68875E+01 0.00000E+00
 -1      1317 2.59800E+00 1.76250E+01 0.00000E+00
 -1      1318 1.29900E+00 1.24875E+01 0.00000E+00
 -1      1319 1.29900E+00 1.39625E+01 0.00000E+00
 -1      1320 2.59800E+00 1.47000E+01 0.00000E+00
 -1      1321 1.29900E+00 9.53750E+00 0.00000E+00
 -1      1322 1.29900E+00 1.10125E+01 0.00000E+00
 -1      1323 2.59800E+00 1.17500E+01 0.00000E+00
 -1      1324 1.29900E+00 6.58750E+00 0.00000E+00
 -1      1325 1.29900E+00 8.06250E+00 0.00000E+00
 -1      1326 2.59800E+00 8.80000E+00 0.00000E+00
 -1      1327 1.29900E+00 3.63750E+00 0.00000E+00
 -1      1328 1.29900E+00 5.11250E+00 0.00000E+00
 -1      1329 2.59800E+00 5.85000E+00 0.00000E+00
 -1      1330 1.43700E+00 1.09375E+00 0.00000E+00
 -1      1331 1.43700E+00 2.54375E+00 0.00000E+00
 -1      1332 2.73600E+00 3.28125E+00 0.00000E+00
 -1      1333 3.01200E+00 1.09375E+00 0.00000E+00
 -1      1334 3.90000E+00 4.87010E+01 0.00000E+00
 -1      1335 5.40000E+00 4.87010E+01 0.00000E+00
 -1      1336 6.90000E+00 4.87010E+01 0.00000E+00
 -1      1337 8.40000E+00 4.87010E+01 0.00000E+00
 -1      1338 6.15000E+00 4.74020E+01 0.00000E+00
 -1      1339 9.90000E+00 4.87010E+01 0.00000E+00
 -1      1340 1.14000E+01 4.87010E+01 0.00000E+00
 -1      1341 9.15000E+00 4.74020E+01 0.00000E+00
 -1      1342 1.29000E+01 4.87010E+01 0.00000E+00
 -1      1343 1.44000E+01 4.87010E+01 0.00000E+00
 -1      1344 1.21500E+01 4.74020E+01 0.00000E+00
 -1      1345 1.59000E+01 4.87010E+01 0.00000E+00
 -1      1346 1.74000E+01 4.87010E+01 0.00000E+00
 -1      1347 1.51500E+01 4.74020E+01 0.00000E+00
 -1      1348 1.89000E+01 4.87010E+01 0.00000E+00
 -1      1349 2.04000E+01 4.87010E+01 0.00000E+00
 -1      1350 1.81500E+01 4.74020E+01 0.00000E+00
 -1      1351 2.19000E+01 4.87010E+01 0.00000E+00
 -1      1352 2.34000E+01 4.87010E+01 0.00000E+00
 -1      1353 2.11500E+01 4.74020E+01 0.00000E+00
 -1      1354 2.49000E+01 4.87010E+01 0.00000E+00
 -1      1355 2.64000E+01 4.87010E+01 0.00000E+00
 -1      1356 2.41500E+01 4.74020E+01 0.00000E+00
 -1      1357 2.79000E+01 4.87010E+01 0.00000E+00
 -1      1358 2.94000E+01 4.87010E+01 0.00000E+00
 -1      1359 2.71500E+01 4.74020E+01 0.00000E+00
 -1      1360 3.09000E+01 4.87010E+01 0.00000E+00
 -1      1361 3.24000E+01 4.87010E+01 0.00000E+00
 -1      1362 3.01500E+01 4.74020E+01 0.00000E+00
 -1      1363 3.39000E+01 4.87010E+01 0.00000E+00
 -1      1364 3.54000E+01 4.87010E+01 0.00000E+00
 -1      1365 3.31500E+01 4.74020E+01 0.00000E+00
 -1      1366 3.69000E+01 4.87010E+01 0.00000E+00
 -1      1367 3.84000E+01 4.87010E+01 0.00000E+00
 -1      1368 3.61500E+01 4.74020E+01 0.00000E+00
 -1      1369 3.99000E+01 4.87010E+01 0.00000E+00
 -1      1370 4.14000E+01 4.87010E+01 0.00000E+00
 -1      1371 3.91500E+01 4.74020E+01 0.00000E+00
 -1      1372 4.29000E+01 4.87010E+01 0.00000E+00
 -1      1373 4.44000E+01 4.87010E+01 0.00000E+00
 -1      1374 4.21500E+01 4.74020E+01 0.00000E+00
 -1      1375 4.59000E+01 4.87010E+01 0.00000E+00
 -1      1376 4.74000E+01 4.87010E+01 0.00000E+00
 -1      1377 4.51500E+01 4.74020E+01 0.00000E+00
 -1      1378 4.89000E+01 4.87010E+01 0.00000E+00
 -1      1379 5.04000E+01 4.87010E+01 0.00000E+00
 -1      1380 4.81500E+01 4.74020E+01 0.00000E+00
 -1      1381 5.19000E+01 4.87010E+01 0.00000E+00
 -1      1382 5.34000E+01 4.87010E+01 0.00000E+00
 -1      1383 5.11500E+01 4.74020E+01 0.00000E+00
 -1      1384 5.49000E+01 4.87010E+01 0.00000E+00
 -1      1385 5.64000E+01 4.87010E+01 0.00000E+00
 -1      1386 5.41500E+01 4.74020E+01 0.00000E+00
 -1      1387 5.79000E+01 4.87010E+01 0.00000E+00
 -1      1388 5.94000E+01 4.87010E+01 0.00000E+00
 -1      1389 5.71500E+01 4.74020E+01 0.00000E+00
 -1      1390 6.09000E+01 4.87010E+01 0.00000E+00
 -1      1391 6.24000E+01 4.87010E+01 0.00000E+00
 -1      1392 6.01500E+01 4.74020E+01 0.00000E+00
 -1      1393 6.39000E+01 4.87010E+01 0.00000E+00
 -1      1394 6.54000E+01 4.87010E+01 0.00000E+00
 -1      1395 6.31500E+01 4.74020E+01 0.00000E+00
 -1      1396 6.69000E+01 4.87010E+01 0.00000E+00
 -1      1397 6.84000E+01 4.87010E+01 0.00000E+00
 -1      1398 6.61500E+01 4.74020E+01 0.00000E+00
 -1      1399 6.99000E+01 4.87010E+01 0.00000E+00
 -1      1400 7.14000E+01 4.87010E+01 0.00000E+00
 -1      1401 6.91500E+01 4.74020E+01 0.00000E+00
 -1      1402 7.29000E+01 4.87010E+01 0.00000E+00
 -1      1403 7.44000E+01 4.87010E+01 0.00000E+00
 -1      1404 7.21500E+01 4.74020E+01 0.00000E+00
 -1      1405 7.59000E+01 4.87010E+01 0.00000E+00
 -1      1406 7.74000E+01 4.87010E+01 0.00000E+00
 -1      1407 7.51500E+01 4.74020E+01 0.00000E+00
 -1      1408 7.89000E+01 4.87010E+01 0.00000E+00
 -1      1409 8.04000E+01 4.87010E+01 0.00000E+00
 -1      1410 7.81500E+01 4.74020E+01 0.00000E+00
 -1      1411 8.19000E+01 4.87010E+01 0.00000E+00
 -1      1412 8.34000E+01 4.87010E+01 0.00000E+00
 -1      1413 8.11500E+01 4.74020E+01 0.00000E+00
 -1      1414 8.49000E+01 4.87010E+01 0.00000E+00
 -1      1415 8.64000E+01 4.87010E+01 0.00000E+00
 -1      1416 8.41500E+01 4.74020E+01 0.00000E+00
 -1      1417 8.79000E+01 4.87010E+01 0.00000E+00
 -1      1418 8.94000E+01 4.87010E+01 0.00000E+00
 -1      1419 8.71500E+01 4.74020E+01 0.00000E+00
 -1      1420 9.09000E+01 4.87010E+01 0.00000E+00
 -1      1421 9.24000E+01 4.87010E+01 0.00000E+00
 -1      1422 9.01500E+01 4.74020E+01 0.00000E+00
 -1      1423 9.39000E+01 4.87010E+01 0.00000E+00
 -1      1424 9.54000E+01 4.87010E+01 0.00000E+00
 -1      1425 9.31500E+01 4.74020E+01 0.00000E+00
 -1      1426 9.69000E+01 4.87010E+01 0.00000E+00
 -1      1427 9.84000E+01 4.87010E+01 0.00000E+00
 -1      1428 9.61500E+01 4.74020E+01 0.00000E+00
 -1      1429 9.99000E+01 4.87010E+01 0.00000E+00
 -1      1430 1.01400E+02 4.87010E+01 0.00000E+00
 -1      1431 9.91500E+01 4.74020E+01 0.00000E+00
 -1      1432 1.02900E+02 4.87010E+01 0.00000E+00
 -1      1433 1.04400E+02 4.87010E+01 0.00000E+00
 -1      1434 1.02150E+02 4.74020E+01 0.00000E+00
 -1      1435 1.05900E+02 4.87010E+01 0.00000E+00
 -1      1436 1.07400E+02 4.87010E+01 0.00000E+00
 -1      1437 1.05150E+02 4.74020E+01 0.00000E+00
 -1      1438 1.08900E+02 4.87010E+01 0.00000E+00
 -1      1439 1.10400E+02 4.87010E+01 0.00000E+00
 -1      1440 1.08150E+02 4.74020E+01 0.00000E+00
 -1      1441 1.11900E+02 4.87010E+01 0.00000E+00
 -1      1442 1.13400E+02 4.87010E+01 0.00000E+00
 -1      1443 1.11150E+02 4.74020E+01 0.00000E+00
 -1      1444 1.14900E+02 4.87010E+01 0.00000E+00
 -1      1445 1.16400E+02 4.87010E+01 0.00000E+00
 -1      1446 1.14150E+02 4.74020E+01 0.00000E+00
 -1      1447 1.17900E+02 4.87010E+01 0.00000E+00
 -1      1448 1.19400E+02 4.87010E+01 0.00000E+00
 -1      1449 1.17150E+02 4.74020E+01 0.00000E+00
 -1      1450 1.20900E+02 4.87010E+01 0.00000E+00
 -1      1451 1.22400E+02 4.87010E+01 0.00000E+00
 -1      1452 1.20150E+02 4.74020E+01 0.00000E+00
 -1      1453 1.23900E+02 4.87010E+01 0.00000E+00
 -1      1454 1.25400E+02 4.87010E+01 0.00000E+00
 -1      1455 1.23150E+02 4.74020E+01 0.00000E+00
 -1      1456 1.26900E+02 4.87010E+01 0.00000E+00
 -1      1457 1.28400E+02 4.87010E+01 0.00000E+00
 -1      1458 1.26150E+02 4.74020E+01 0.00000E+00
 -1      1459 1.29900E+02 4.87010E+01 0.00000E+00
 -1      1460 1.31400E+02 4.87010E+01 0.00000E+00
 -1      1461 1.29150E+02 4.74020E+01 0.00000E+00
 -1      1462 1.32900E+02 4.87010E+01 0.00000E+00
 -1      1463 1.34400E+02 4.87010E+01 0.00000E+00
 -1      1464 1.32150E+02 4.74020E+01 0.00000E+00
 -1      1465 1.35900E+02 4.87010E+01 0.00000E+00
 -1      1466 1.37400E+02 4.87010E+01 0.00000E+00
 -1      1467 1.35150E+02 4.74020E+01 0.00000E+00
 -1      1468 1.38900E+02 4.87010E+01 0.00000E+00
 -1      1469 1.40400E+02 4.87010E+01 0.00000E+00
 -1      1470 1.38150E+02 4.74020E+01 0.00000E+00
 -1      1471 1.41900E+02 4.87010E+01 0.00000E+00
 -1      1472 1.43400E+02 4.87010E+01 0.00000E+00
 -1      1473 1.41150E+02 4.74020E+01 0.00000E+00
 -1      1474 1.44900E+02 4.87010E+01 0.00000E+00
 -1      1475 1.46400E+02 4.87010E+01 0.00000E+00
 -1      1476 1.44150E+02 4.74020E+01 0.00000E+00
 -1      1477 1.48575E+02 4.85500E+01 0.00000E+00
 -1      1478 1.47825E+02 4.72510E+01 0.00000E+00
 -1      1479 6.01200E+00 1.09375E+00 0.00000E+00
 -1      1480 4.51200E+00 1.09375E+00 0.00000E+00
 -1      1481 4.37400E+00 2.18750E+00 0.00000E+00
 -1      1482 9.01200E+00 1.09375E+00 0.00000E+00
 -1      1483 7.51200E+00 1.09375E+00 0.00000E+00
 -1      1484 7.37400E+00 2.18750E+00 0.00000E+00
 -1      1485 1.20120E+01 1.09375E+00 0.00000E+00
 -1      1486 1.05120E+01 1.09375E+00 0.00000E+00
 -1      1487 1.03740E+01 2.18750E+00 0.00000E+00
 -1      1488 1.50120E+01 1.09375E+00 0.00000E+00
 -1      1489 1.35120E+01 1.09375E+00 0.00000E+00
 -1      1490 1.33740E+01 2.18750E+00 0.00000E+00
 -1      1491 1.80120E+01 1.09375E+00 0.00000E+00
 -1      1492 1.65120E+01 1.09375E+00 0.00000E+00
 -1      1493 1.63740E+01 2.18750E+00 0.00000E+00
 -1      1494 2.10120E+01 1.09375E+00 0.00000E+00
 -1      1495 1.95120E+01 1.09375E+00 0.00000E+00
 -1      1496 1.93740E+01 2.18750E+00 0.00000E+00
 -1      1497 2.40120E+01 1.09375E+00 0.00000E+00
 -1      1498 2.25120E+01 1.09375E+00 0.00000E+00
 -1      1499 2.23740E+01 2.18750E+00 0.00000E+00
 -1      1500 2.70120E+01 1.09375E+00 0.00000E+00
 -1      1501 2.55120E+01 1.09375E+00 0.00000E+00
 -1      1502 2.53740E+01 2.18750E+00 0.00000E+00
 -1      1503 3.00120E+01 1.09375E+00 0.00000E+00
 -1      1504 2.85120E+01 1.09375E+00 0.00000E+00
 -1      1505 2.83740E+01 2.18750E+00 0.00000E+00
 -1      1506 3.30120E+01 1.09375E+00 0.00000E+00
 -1      1507 3.15120E+01 1.09375E+00 0.00000E+00
 -1      1508 3.13740E+01 2.18750E+00 0.00000E+00
 -1      1509 3.60120E+01 1.09375E+00 0.00000E+00
 -1      1510 3.45120E+01 1.09375E+00 0.00000E+00
 -1      1511 3.43740E+01 2.18750E+00 0.00000E+00
 -1      1512 3.90120E+01 1.09375E+00 0.00000E+00
 -1      1513 3.75120E+01 1.09375E+00 0.00000E+00
 -1      1514 3.73740E+01 2.18750E+00 0.00000E+00
 -1      1515 4.20120E+01 1.09375E+00 0.00000E+00
 -1      1516 4.05120E+01 1.09375E+00 0.00000E+00
 -1      1517 4.03740E+01 2.18750E+00 0.00000E+00
 -1      1518 4.50120E+01 1.09375E+00 0.00000E+00
 -1      1519 4.35120E+01 1.09375E+00 0.00000E+00
 -1      1520 4.33740E+01 2.18750E+00 0.00000E+00
 -1      1521 4.80120E+01 1.09375E+00 0.00000E+00
 -1      1522 4.65120E+01 1.09375E+00 0.00000E+00
 -1      1523 4.63740E+01 2.18750E+00 0.00000E+00
 -1      1524 5.10120E+01 1.09375E+00 0.00000E+00
 -1      1525 4.95120E+01 1.09375E+00 0.00000E+00
 -1      1526 4.93740E+01 2.18750E+00 0.00000E+00
 -1      1527 5.40120E+01 1.09375E+00 0.00000E+00
 -1      1528 5.25120E+01 1.09375E+00 0.00000E+00
 -1      1529 5.23740E+01 2.18750E+00 0.00000E+00
 -1      1530 5.70120E+01 1.09375E+00 0.00000E+00
 -1      1531 5.55120E+01 1.09375E+00 0.00000E+00
 -1      1532 5.53740E+01 2.18750E+00 0.00000E+00
 -1      1533 6.00120E+01 1.09375E+00 0.00000E+00
 -1      1534 5.85120E+01 1.09375E+00 0.00000E+00
 -1      1535 5.83740E+01 2.18750E+00 0.00000E+00
 -1      1536 6.30120E+01 1.09375E+00 0.00000E+00
 -1      1537 6.15120E+01 1.09375E+00 0.00000E+00
 -1      1538 6.13740E+01 2.18750E+00 0.00000E+00
 -1      1539 6.60120E+01 1.09375E+00 0.00000E+00
 -1      1540 6.45120E+01 1.09375E+00 0.00000E+00
 -1      1541 6.43740E+01 2.18750E+00 0.00000E+00
 -1      1542 6.90120E+01 1.09375E+00 0.00000E+00
 -1      1543 6.75120E+01 1.09375E+00 0.00000E+00
 -1      1544 6.73740E+01 2.18750E+00 0.00000E+00
 -1      1545 7.20120E+01 1.09375E+00 0.00000E+00
 -1      1546 7.05120E+01 1.09375E+00 0.00000E+00
 -1      1547 7.03740E+01 2.18750E+00 0.00000E+00
 -1      1548 7.50120E+01 1.09375E+00 0.00000E+00
 -1      1549 7.35120E+01 1.09375E+00 0.00000E+00
 -1      1550 7.33740E+01 2.18750E+00 0.00000E+00
 -1      1551 7.80120E+01 1.09375E+00 0.00000E+00
 -1      1552 7.65120E+01 1.09375E+00 0.00000E+00
 -1      1553 7.63740E+01 2.18750E+00 0.00000E+00
 -1      1554 8.10120E+01 1.09375E+00 0.00000E+00
 -1      1555 7.95120E+01 1.09375E+00 0.00000E+00
 -1      1556 7.93740E+01 2.18750E+00 0.00000E+00
 -1      1557 8.40120E+01 1.09375E+00 0.00000E+00
 -1      1558 8.25120E+01 1.09375E+00 0.00000E+00
 -1      1559 8.23740E+01 2.18750E+00 0.00000E+00
 -1      1560 8.70120E+01 1.09375E+00 0.00000E+00
 -1      1561 8.55120E+01 1.09375E+00 0.00000E+00
 -1      1562 8.53740E+01 2.18750E+00 0.00000E+00
 -1      1563 9.00120E+01 1.09375E+00 0.00000E+00
 -1      1564 8.85120E+01 1.09375E+00 0.00000E+00
 -1      1565 8.83740E+01 2.18750E+00 0.00000E+00
 -1      1566 9.30120E+01 1.09375E+00 0.00000E+00
 -1      1567 9.15120E+01 1.09375E+00 0.00000E+00
 -1      1568 9.13740E+01 2.18750E+00 0.00000E+00
 -1      1569 9.60120E+01 1.09375E+00 0.00000E+00
 -1      1570 9.45120E+01 1.09375E+00 0.00000E+00
 -1      1571 9.43740E+01 2.18750E+00 0.00000E+00
 -1      1572 9.90120E+01 1.09375E+00 0.00000E+00
 -1      1573 9.75120E+01 1.09375E+00 0.00000E+00
 -1      1574 9.73740E+01 2.18750E+00 0.00000E+00
 -1      1575 1.02012E+02 1.09375E+00 0.00000E+00
 -1      1576 1.00512E+02 1.09375E+00 0.00000E+00
 -1      1577 1.00374E+02 2.18750E+00 0.00000E+00
 -1      1578 1.05012E+02 1.09375E+00 0.00000E+00
 -1      1579 1.03512E+02 1.09375E+00 0.00000E+00
 -1      1580 1.03374E+02 2.18750E+00 0.00000E+00
 -1      1581 1.08012E+02 1.09375E+00 0.00000E+00
 -1      1582 1.06512E+02 1.09375E+00 0.00000E+00
 -1      1583 1.06374E+02 2.18750E+00 0.00000E+00
 -1      1584 1.11012E+02 1.09375E+00 0.00000E+00
 -1      1585 1.09512E+02 1.09375E+00 0.00000E+00
 -1      1586 1.09374E+02 2.18750E+00 0.00000E+00
 -1      1587 1.14012E+02 1.09375E+00 0.00000E+00
 -1      1588 1.12512E+02 1.09375E+00 0.00000E+00
 -1      1589 1.12374E+02 2.18750E+00 0.00000E+00
 -1      1590 1.17012E+02 1.09375E+00 0.00000E+00
 -1      1591 1.15512E+02 1.09375E+00 0.00000E+00
 -1      1592 1.15374E+02 2.18750E+00 0.00000E+00
 -1      1593 1.20012E+02 1.09375E+00 0.00000E+00
 -1      1594 1.18512E+02 1.09375E+00 0.00000E+00
 -1      1595 1.18374E+02 2.18750E+00 0.00000E+00
 -1      1596 1.23012E+02 1.09375E+00 0.00000E+00
 -1      1597 1.21512E+02 1.09375E+00 0.00000E+00
 -1      1598 1.21374E+02 2.18750E+00 0.00000E+00
 -1      1599 1.26012E+02 1.09375E+00 0.00000E+00
 -1      1600 1.24512E+02 1.09375E+00 0.00000E+00
 -1      1601 1.24374E+02 2.18750E+00 0.00000E+00
 -1      1602 1.29012E+02 1.09375E+00 0.00000E+00
 -1      1603 1.27512E+02 1.09375E+00 0.00000E+00
 -1      1604 1.27374E+02 2.18750E+00 0.00000E+00
 -1      1605 1.32012E+02 1.09375E+00 0.00000E+00
 -1      1606 1.30512E+02 1.09375E+00 0.00000E+00
 -1      1607 1.30374E+02 2.18750E+00 0.00000E+00
 -1      1608 1.35012E+02 1.09375E+00 0.00000E+00
 -1      1609 1.33512E+02 1.09375E+00 0.00000E+00
 -1      1610 1.33374E+02 2.18750E+00 0.00000E+00
 -1      1611 1.38012E+02 1.09375E+00 0.00000E+00
 -1      1612 1.36512E+02 1.09375E+00 0.00000E+00
 -1      1613 1.36374E+02 2.18750E+00 0.00000E+00
 -1      1614 1.41012E+02 1.09375E+00 0.00000E+00
 -1      1615 1.39512E+02 1.09375E+00 0.00000E+00
 -1      1616 1.39374E+02 2.18750E+00 0.00000E+00
 -1      1617 1.44012E+02 1.09375E+00 0.00000E+00
 -1      1618 1.42512E+02 1.09375E+00 0.00000E+00
 -1      1619 1.42374E+02 2.18750E+00 0.00000E+00
 -1      1620 1.47012E+02 1.09375E+00 0.00000E+00
 -1      1621 1.45512E+02 1.09375E+00 0.00000E+00
 -1      1622 1.45374E+02 2.18750E+00 0.00000E+00
 -1      1623 1.48575E+02 1.47500E+00 0.00000E+00
 -1      1624 1.48701E+02 5.16250E+00 0.00000E+00
 -1      1625 1.48701E+02 3.68750E+00 0.00000E+00
 -1      1626 1.48701E+02 8.11250E+00 0.00000E+00
 -1      1627 1.48701E+02 6.63750E+00 0.00000E+00
 -1      1628 1.47402E+02 5.90000E+00 0.00000E+00
 -1      1629 1.48701E+02 1.10625E+01 0.00000E+00
 -1      1630 1.48701E+02 9.58750E+00 0.00000E+00
 -1      1631 1.47402E+02 8.85000E+00 0.00000E+00
 -1      1632 1.48701E+02 1.40125E+01 0.00000E+00
 -1      1633 1.48701E+02 1.25375E+01 0.00000E+00
 -1      1634 1.47402E+02 1.18000E+01 0.00000E+00
 -1      1635 1.48701E+02 1.69125E+01 0.00000E+00
 -1      1636 1.48701E+02 1.54625E+01 0.00000E+00
 -1      1637 1.47402E+02 1.47250E+01 0.00000E+00
 -1      1638 1.48701E+02 1.98625E+01 0.00000E+00
 -1      1639 1.48701E+02 1.83875E+01 0.00000E+00
 -1      1640 1.47402E+02 1.76500E+01 0.00000E+00
 -1      1641 1.48701E+02 2.28125E+01 0.00000E+00
 -1      1642 1.48701E+02 2.13375E+01 0.00000E+00
 -1      1643 1.47402E+02 2.06000E+01 0.00000E+00
 -1      1644 1.48701E+02 2.57625E+01 0.00000E+00
 -1      1645 1.48701E+02 2.42875E+01 0.00000E+00
 -1      1646 1.47402E+02 2.35500E+01 0.00000E+00
 -1      1647 1.48701E+02 2.87125E+01 0.00000E+00
 -1      1648 1.48701E+02 2.72375E+01 0.00000E+00
 -1      1649 1.47402E+02 2.65000E+01 0.00000E+00
 -1      1650 1.48701E+02 3.16625E+01 0.00000E+00
 -1      1651 1.48701E+02 3.01875E+01 0.00000E+00
 -1      1652 1.47402E+02 2.94500E+01 0.00000E+00
 -1      1653 1.48701E+02 3.45625E+01 0.00000E+00
 -1      1654 1.48701E+02 3.31125E+01 0.00000E+00
 -1      1655 1.47402E+02 3.23750E+01 0.00000E+00
 -1      1656 1.48701E+02 3.75125E+01 0.00000E+00
 -1      1657 1.48701E+02 3.60375E+01 0.00000E+00
 -1      1658 1.47402E+02 3.53000E+01 0.00000E+00
 -1      1659 1.48701E+02 4.04625E+01 0.00000E+00
 -1      1660 1.48701E+02 3.89875E+01 0.00000E+00
 -1      1661 1.47402E+02 3.82500E+01 0.00000E+00
 -1      1662 1.48701E+02 4.34125E+01 0.00000E+00
 -1      1663 1.48701E+02 4.19375E+01 0.00000E+00
 -1      1664 1.47402E+02 4.12000E+01 0.00000E+00
 -1      1665 1.48263E+02 4.60692E+01 0.00000E+00
 -1      1666 1.48263E+02 4.45942E+01 0.00000E+00
 -1      1667 1.46964E+02 4.38568E+01 0.00000E+00
 -1      1668 1.46088E+02 4.62202E+01 0.00000E+00
 -1      1669 1.34541E+02 2.49693E+01 0.00000E+00
 -1      1670 1.34617E+02 2.56926E+01 0.00000E+00
 -1      1671 1.34154E+02 2.33640E+01 0.00000E+00
 -1      1672 1.34394E+02 2.40941E+01 0.00000E+00
 -1      1673 1.33363E+02 2.19894E+01 0.00000E+00
 -1      1674 1.33722E+02 2.26022E+01 0.00000E+00
 -1      1675 1.32398E+02 2.07921E+01 0.00000E+00
 -1      1676 1.32873E+02 2.13199E+01 0.00000E+00
 -1      1677 1.31167E+02 1.96921E+01 0.00000E+00
 -1      1678 1.31798E+02 2.01468E+01 0.00000E+00
 -1      1679 1.29721E+02 1.90442E+01 0.00000E+00
 -1      1680 1.30368E+02 1.93274E+01 0.00000E+00
 -1      1681 1.28211E+02 1.86403E+01 0.00000E+00
 -1      1682 1.28923E+02 1.87899E+01 0.00000E+00
 -1      1683 1.26587E+02 1.85172E+01 0.00000E+00
 -1      1684 1.27346E+02 1.85128E+01 0.00000E+00
 -1      1685 1.24854E+02 1.86906E+01 0.00000E+00
 -1      1686 1.25641E+02 1.85062E+01 0.00000E+00
 -1      1687 1.23409E+02 1.94541E+01 0.00000E+00
 -1      1688 1.24053E+02 1.91445E+01 0.00000E+00
 -1      1689 1.22133E+02 2.03209E+01 0.00000E+00
 -1      1690 1.22699E+02 1.98892E+01 0.00000E+00
 -1      1691 1.21066E+02 2.14205E+01 0.00000E+00
 -1      1692 1.21529E+02 2.08873E+01 0.00000E+00
 -1      1693 1.20039E+02 2.27616E+01 0.00000E+00
 -1      1694 1.20421E+02 2.20629E+01 0.00000E+00
 -1      1695 1.19648E+02 2.43223E+01 0.00000E+00
 -1      1696 1.19846E+02 2.36483E+01 0.00000E+00
 -1      1697 1.19355E+02 2.59194E+01 0.00000E+00
 -1      1698 1.19413E+02 2.51583E+01 0.00000E+00
 -1      1699 1.19439E+02 2.75356E+01 0.00000E+00
 -1      1700 1.19339E+02 2.68137E+01 0.00000E+00
 -1      1701 1.20000E+02 2.90013E+01 0.00000E+00
 -1      1702 1.19762E+02 2.83340E+01 0.00000E+00
 -1      1703 1.20705E+02 3.03992E+01 0.00000E+00
 -1      1704 1.20326E+02 2.97790E+01 0.00000E+00
 -1      1705 1.21741E+02 3.15683E+01 0.00000E+00
 -1      1706 1.21251E+02 3.10472E+01 0.00000E+00
 -1      1707 1.23002E+02 3.25497E+01 0.00000E+00
 -1      1708 1.22389E+02 3.21242E+01 0.00000E+00
 -1      1709 1.24404E+02 3.32376E+01 0.00000E+00
 -1      1710 1.23747E+02 3.29614E+01 0.00000E+00
 -1      1711 1.25931E+02 3.36210E+01 0.00000E+00
 -1      1712 1.25212E+02 3.34817E+01 0.00000E+00
 -1      1713 1.27581E+02 3.37573E+01 0.00000E+00
 -1      1714 1.26809E+02 3.37759E+01 0.00000E+00
 -1      1715 1.29112E+02 3.34038E+01 0.00000E+00
 -1      1716 1.28432E+02 3.35664E+01 0.00000E+00
 -1      1717 1.30513E+02 3.28429E+01 0.00000E+00
 -1      1718 1.29882E+02 3.31361E+01 0.00000E+00
 -1      1719 1.31806E+02 3.19883E+01 0.00000E+00
 -1      1720 1.31225E+02 3.24184E+01 0.00000E+00
 -1      1721 1.32906E+02 3.08823E+01 0.00000E+00
 -1      1722 1.32427E+02 3.14200E+01 0.00000E+00
 -1      1723 1.33738E+02 2.96131E+01 0.00000E+00
 -1      1724 1.33390E+02 3.02138E+01 0.00000E+00
 -1      1725 1.34302E+02 2.81858E+01 0.00000E+00
 -1      1726 1.34075E+02 2.88629E+01 0.00000E+00
 -1      1727 1.34653E+02 2.65809E+01 0.00000E+00
 -1      1728 1.34568E+02 2.73475E+01 0.00000E+00
 -1      1729 1.32486E+02 2.00051E+01 0.00000E+00
 -1      1730 1.33576E+02 2.13199E+01 0.00000E+00
 -1      1731 1.48437E+02 2.56875E+00 0.00000E+00
 -1      1732 1.47138E+02 3.30625E+00 0.00000E+00
 -1      1733 1.35076E+02 2.43884E+01 0.00000E+00
 -1      1734 1.34497E+02 2.27513E+01 0.00000E+00
 -1      1735 1.35260E+02 2.61519E+01 0.00000E+00
 -1      1736 1.31087E+02 1.89951E+01 0.00000E+00
 -1      1737 1.29489E+02 1.83761E+01 0.00000E+00
 -1      1738 1.27827E+02 1.79944E+01 0.00000E+00
 -1      1739 1.26017E+02 1.78560E+01 0.00000E+00
 -1      1740 1.24269E+02 1.82990E+01 0.00000E+00
 -1      1741 1.22758E+02 1.91881E+01 0.00000E+00
 -1      1742 1.21444E+02 2.01897E+01 0.00000E+00
 -1      1743 1.20196E+02 2.13985E+01 0.00000E+00
 -1      1744 1.19358E+02 2.29275E+01 0.00000E+00
 -1      1745 1.18931E+02 2.46503E+01 0.00000E+00
 -1      1746 1.18680E+02 2.63806E+01 0.00000E+00
 -1      1747 1.18987E+02 2.80732E+01 0.00000E+00
 -1      1748 1.19636E+02 2.96492E+01 0.00000E+00
 -1      1749 1.20509E+02 3.10750E+01 0.00000E+00
 -1      1750 1.21702E+02 3.22790E+01 0.00000E+00
 -1      1751 1.23095E+02 3.32466E+01 0.00000E+00
 -1      1752 1.24648E+02 3.39024E+01 0.00000E+00
 -1      1753 1.26334E+02 3.43015E+01 0.00000E+00
 -1      1754 1.28062E+02 3.42655E+01 0.00000E+00
 -1      1755 1.29683E+02 3.38070E+01 0.00000E+00
 -1      1756 1.31165E+02 3.31149E+01 0.00000E+00
 -1      1757 1.32498E+02 3.21222E+01 0.00000E+00
 -1      1758 1.33604E+02 3.08855E+01 0.00000E+00
 -1      1759 1.34426E+02 2.94669E+01 0.00000E+00
 -1      1760 1.35030E+02 2.78785E+01 0.00000E+00
 -1      1761 2.87400E+00 4.77875E+01 0.00000E+00
 -1      1762 3.89700E+00 4.04125E+01 0.00000E+00
 -1      1763 3.89700E+00 4.18875E+01 0.00000E+00
 -1      1764 3.89700E+00 4.33625E+01 0.00000E+00
 -1      1765 3.89700E+00 4.48375E+01 0.00000E+00
 -1      1766 5.19600E+00 4.26250E+01 0.00000E+00
 -1      1767 3.89700E+00 3.45500E+01 0.00000E+00
 -1      1768 3.89700E+00 3.60000E+01 0.00000E+00
 -1      1769 3.89700E+00 3.16000E+01 0.00000E+00
 -1      1770 3.89700E+00 3.30750E+01 0.00000E+00
 -1      1771 5.19600E+00 3.38000E+01 0.00000E+00
 -1      1772 3.89700E+00 2.86500E+01 0.00000E+00
 -1      1773 3.89700E+00 3.01250E+01 0.00000E+00
 -1      1774 5.19600E+00 3.08500E+01 0.00000E+00
 -1      1775 3.89700E+00 2.57000E+01 0.00000E+00
 -1      1776 3.89700E+00 2.71750E+01 0.00000E+00
 -1      1777 5.19600E+00 2.79000E+01 0.00000E+00
 -1      1778 3.89700E+00 2.27500E+01 0.00000E+00
 -1      1779 3.89700E+00 2.42250E+01 0.00000E+00
 -1      1780 5.19600E+00 2.49500E+01 0.00000E+00
 -1      1781 3.89700E+00 1.98000E+01 0.00000E+00
 -1      1782 3.89700E+00 2.12750E+01 0.00000E+00
 -1      1783 5.19600E+00 2.20000E+01 0.00000E+00
 -1      1784 3.89700E+00 1.69000E+01 0.00000E+00
 -1      1785 3.89700E+00 1.83500E+01 0.00000E+00
 -1      1786 5.19600E+00 1.90750E+01 0.00000E+00
 -1      1787 3.89700E+00 1.39500E+01 0.00000E+00
 -1      1788 3.89700E+00 1.54250E+01 0.00000E+00
 -1      1789 5.19600E+00 1.61500E+01 0.00000E+00
 -1      1790 3.89700E+00 1.10000E+01 0.00000E+00
 -1      1791 3.89700E+00 1.24750E+01 0.00000E+00
 -1      1792 5.19600E+00 1.32000E+01 0.00000E+00
 -1      1793 3.89700E+00 8.05000E+00 0.00000E+00
 -1      1794 3.89700E+00 9.52500E+00 0.00000E+00
 -1      1795 5.19600E+00 1.02500E+01 0.00000E+00
 -1      1796 3.89700E+00 5.10000E+00 0.00000E+00
 -1      1797 3.89700E+00 6.57500E+00 0.00000E+00
 -1      1798 5.19600E+00 7.30000E+00 0.00000E+00
 -1      1799 4.20450E+00 3.09687E+00 0.00000E+00
 -1      1800 4.06650E+00 4.19063E+00 0.00000E+00
 -1      1801 5.36550E+00 4.91563E+00 0.00000E+00
 -1      1802 5.70450E+00 3.09687E+00 0.00000E+00
 -1      1803 3.62400E+00 4.64885E+01 0.00000E+00
 -1      1804 8.70450E+00 3.09687E+00 0.00000E+00
 -1      1805 7.20450E+00 3.09687E+00 0.00000E+00
 -1      1806 7.03500E+00 4.00625E+00 0.00000E+00
 -1      1807 4.92300E+00 4.57510E+01 0.00000E+00
 -1      1808 8.40000E+00 4.61030E+01 0.00000E+00
 -1      1809 9.90000E+00 4.61030E+01 0.00000E+00
 -1      1810 1.14000E+01 4.61030E+01 0.00000E+00
 -1      1811 1.29000E+01 4.61030E+01 0.00000E+00
 -1      1812 1.06500E+01 4.48040E+01 0.00000E+00
 -1      1813 1.44000E+01 4.61030E+01 0.00000E+00
 -1      1814 1.59000E+01 4.61030E+01 0.00000E+00
 -1      1815 1.36500E+01 4.48040E+01 0.00000E+00
 -1      1816 1.74000E+01 4.61030E+01 0.00000E+00
 -1      1817 1.89000E+01 4.61030E+01 0.00000E+00
 -1      1818 1.66500E+01 4.48040E+01 0.00000E+00
 -1      1819 2.04000E+01 4.61030E+01 0.00000E+00
 -1      1820 2.19000E+01 4.61030E+01 0.00000E+00
 -1      1821 1.96500E+01 4.48040E+01 0.00000E+00
 -1      1822 2.34000E+01 4.61030E+01 0.00000E+00
 -1      1823 2.49000E+01 4.61030E+01 0.00000E+00
 -1      1824 2.26500E+01 4.48040E+01 0.00000E+00
 -1      1825 2.64000E+01 4.61030E+01 0.00000E+00
 -1      1826 2.79000E+01 4.61030E+01 0.00000E+00
 -1      1827 2.56500E+01 4.48040E+01 0.00000E+00
 -1      1828 2.94000E+01 4.61030E+01 0.00000E+00
 -1      1829 3.09000E+01 4.61030E+01 0.00000E+00
 -1      1830 2.86500E+01 4.48040E+01 0.00000E+00
 -1      1831 3.24000E+01 4.61030E+01 0.00000E+00
 -1      1832 3.39000E+01 4.61030E+01 0.00000E+00
 -1      1833 3.16500E+01 4.48040E+01 0.00000E+00
 -1      1834 3.54000E+01 4.61030E+01 0.00000E+00
 -1      1835 3.69000E+01 4.61030E+01 0.00000E+00
 -1      1836 3.46500E+01 4.48040E+01 0.00000E+00
 -1      1837 3.84000E+01 4.61030E+01 0.00000E+00
 -1      1838 3.99000E+01 4.61030E+01 0.00000E+00
 -1      1839 3.76500E+01 4.48040E+01 0.00000E+00
 -1      1840 4.14000E+01 4.61030E+01 0.00000E+00
 -1      1841 4.29000E+01 4.61030E+01 0.00000E+00
 -1      1842 4.06500E+01 4.48040E+01 0.00000E+00
 -1      1843 4.44000E+01 4.61030E+01 0.00000E+00
 -1      1844 4.59000E+01 4.61030E+01 0.00000E+00
 -1      1845 4.36500E+01 4.48040E+01 0.00000E+00
 -1      1846 4.74000E+01 4.61030E+01 0.00000E+00
 -1      1847 4.89000E+01 4.61030E+01 0.00000E+00
 -1      1848 4.66500E+01 4.48040E+01 0.00000E+00
 -1      1849 5.04000E+01 4.61030E+01 0.00000E+00
 -1      1850 5.19000E+01 4.61030E+01 0.00000E+00
 -1      1851 4.96500E+01 4.48040E+01 0.00000E+00
 -1      1852 5.34000E+01 4.61030E+01 0.00000E+00
 -1      1853 5.49000E+01 4.61030E+01 0.00000E+00
 -1      1854 5.26500E+01 4.48040E+01 0.00000E+00
 -1      1855 5.64000E+01 4.61030E+01 0.00000E+00
 -1      1856 5.79000E+01 4.61030E+01 0.00000E+00
 -1      1857 5.56500E+01 4.48040E+01 0.00000E+00
 -1      1858 5.94000E+01 4.61030E+01 0.00000E+00
 -1      1859 6.09000E+01 4.61030E+01 0.00000E+00
 -1      1860 5.86500E+01 4.48040E+01 0.00000E+00
 -1      1861 6.24000E+01 4.61030E+01 0.00000E+00
 -1      1862 6.39000E+01 4.61030E+01 0.00000E+00
 -1      1863 6.16500E+01 4.48040E+01 0.00000E+00
 -1      1864 6.54000E+01 4.61030E+01 0.00000E+00
 -1      1865 6.69000E+01 4.61030E+01 0.00000E+00
 -1      1866 6.46500E+01 4.48040E+01 0.00000E+00
 -1      1867 6.84000E+01 4.61030E+01 0.00000E+00
 -1      1868 6.99000E+01 4.61030E+01 0.00000E+00
 -1      1869 6.76500E+01 4.48040E+01 0.00000E+00
 -1      1870 7.14000E+01 4.61030E+01 0.00000E+00
 -1      1871 7.29000E+01 4.61030E+01 0.00000E+00
 -1      1872 7.06500E+01 4.48040E+01 0.00000E+00
 -1      1873 7.44000E+01 4.61030E+01 0.00000E+00
 -1      1874 7.59000E+01 4.61030E+01 0.00000E+00
 -1      1875 7.36500E+01 4.48040E+01 0.00000E+00
 -1      1876 7.74000E+01 4.61030E+01 0.00000E+00
 -1      1877 7.89000E+01 4.61030E+01 0.00000E+00
 -1      1878 7.66500E+01 4.48040E+01 0.00000E+00
 -1      1879 8.04000E+01 4.61030E+01 0.00000E+00
 -1      1880 8.19000E+01 4.61030E+01 0.00000E+00
 -1      1881 7.96500E+01 4.48040E+01 0.00000E+00
 -1      1882 8.34000E+01 4.61030E+01 0.00000E+00
 -1      1883 8.49000E+01 4.61030E+01 0.00000E+00
 -1      1884 8.26500E+01 4.48040E+01 0.00000E+00
 -1      1885 8.64000E+01 4.61030E+01 0.00000E+00
 -1      1886 8.79000E+01 4.61030E+01 0.00000E+00
 -1      1887 8.56500E+01 4.48040E+01 0.00000E+00
 -1      1888 8.94000E+01 4.61030E+01 0.00000E+00
 -1      1889 9.09000E+01 4.61030E+01 0.00000E+00
 -1      1890 8.86500E+01 4.48040E+01 0.00000E+00
 -1      1891 9.24000E+01 4.61030E+01 0.00000E+00
 -1      1892 9.39000E+01 4.61030E+01 0.00000E+00
 -1      1893 9.16500E+01 4.48040E+01 0.00000E+00
 -1      1894 9.54000E+01 4.61030E+01 0.00000E+00
 -1      1895 9.69000E+01 4.61030E+01 0.00000E+00
 -1      1896 9.46500E+01 4.48040E+01 0.00000E+00
 -1      1897 9.84000E+01 4.61030E+01 0.00000E+00
 -1      1898 9.99000E+01 4.61030E+01 0.00000E+00
 -1      1899 9.76500E+01 4.48040E+01 0.00000E+00
 -1      1900 1.01400E+02 4.61030E+01 0.00000E+00
 -1      1901 1.02900E+02 4.61030E+01 0.00000E+00
 -1      1902 1.00650E+02 4.48040E+01 0.00000E+00
 -1      1903 1.04400E+02 4.61030E+01 0.00000E+00
 -1      1904 1.05900E+02 4.61030E+01 0.00000E+00
 -1      1905 1.03650E+02 4.48040E+01 0.00000E+00
 -1      1906 1.07400E+02 4.61030E+01 0.00000E+00
 -1      1907 1.08900E+02 4.61030E+01 0.00000E+00
 -1      1908 1.06650E+02 4.48040E+01 0.00000E+00
 -1      1909 1.10400E+02 4.61030E+01 0.00000E+00
 -1      1910 1.11900E+02 4.61030E+01 0.00000E+00
 -1      1911 1.09650E+02 4.48040E+01 0.00000E+00
 -1      1912 1.13400E+02 4.61030E+01 0.00000E+00
 -1      1913 1.14900E+02 4.61030E+01 0.00000E+00
 -1      1914 1.12650E+02 4.48040E+01 0.00000E+00
 -1      1915 1.16400E+02 4.61030E+01 0.00000E+00
 -1      1916 1.17900E+02 4.61030E+01 0.00000E+00
 -1      1917 1.15650E+02 4.48040E+01 0.00000E+00
 -1      1918 1.19400E+02 4.61030E+01 0.00000E+00
 -1      1919 1.20900E+02 4.61030E+01 0.00000E+00
 -1      1920 1.18650E+02 4.48040E+01 0.00000E+00
 -1      1921 1.22400E+02 4.61030E+01 0.00000E+00
 -1      1922 1.23900E+02 4.61030E+01 0.00000E+00
 -1      1923 1.21650E+02 4.48040E+01 0.00000E+00
 -1      1924 1.25400E+02 4.61030E+01 0.00000E+00
 -1      1925 1.26900E+02 4.61030E+01 0.00000E+00
 -1      1926 1.24650E+02 4.48040E+01 0.00000E+00
 -1      1927 1.28400E+02 4.61030E+01 0.00000E+00
 -1      1928 1.29900E+02 4.61030E+01 0.00000E+00
 -1      1929 1.27650E+02 4.48040E+01 0.00000E+00
 -1      1930 1.31400E+02 4.61030E+01 0.00000E+00
 -1      1931 1.32900E+02 4.61030E+01 0.00000E+00
 -1      1932 1.30650E+02 4.48040E+01 0.00000E+00
 -1      1933 1.34400E+02 4.61030E+01 0.00000E+00
 -1      1934 1.35900E+02 4.61030E+01 0.00000E+00
 -1      1935 1.33650E+02 4.48040E+01 0.00000E+00
 -1      1936 1.37400E+02 4.61030E+01 0.00000E+00
 -1      1937 1.38900E+02 4.61030E+01 0.00000E+00
 -1      1938 1.36650E+02 4.48040E+01 0.00000E+00
 -1      1939 1.40400E+02 4.61030E+01 0.00000E+00
 -1      1940 1.41900E+02 4.61030E+01 0.00000E+00
 -1      1941 1.39650E+02 4.48040E+01 0.00000E+00
 -1      1942 1.43244E+02 4.61616E+01 0.00000E+00
 -1      1943 1.44744E+02 4.61616E+01 0.00000E+00
 -1      1944 1.45182E+02 4.49799E+01 0.00000E+00
 -1      1945 1.42494E+02 4.48626E+01 0.00000E+00
 -1      1946 1.17045E+01 3.09687E+00 0.00000E+00
 -1      1947 1.02045E+01 3.09687E+00 0.00000E+00
 -1      1948 1.00350E+01 4.00625E+00 0.00000E+00
 -1      1949 1.47045E+01 3.09687E+00 0.00000E+00
 -1      1950 1.32045E+01 3.09687E+00 0.00000E+00
 -1      1951 1.30350E+01 4.00625E+00 0.00000E+00
 -1      1952 1.77045E+01 3.09687E+00 0.00000E+00
 -1      1953 1.62045E+01 3.09687E+00 0.00000E+00
 -1      1954 1.60350E+01 4.00625E+00 0.00000E+00
 -1      1955 2.07045E+01 3.09687E+00 0.00000E+00
 -1      1956 1.92045E+01 3.09687E+00 0.00000E+00
 -1      1957 1.90350E+01 4.00625E+00 0.00000E+00
 -1      1958 2.37045E+01 3.09687E+00 0.00000E+00
 -1      1959 2.22045E+01 3.09687E+00 0.00000E+00
 -1      1960 2.20350E+01 4.00625E+00 0.00000E+00
 -1      1961 2.67045E+01 3.09687E+00 0.00000E+00
 -1      1962 2.52045E+01 3.09687E+00 0.00000E+00
 -1      1963 2.50350E+01 4.00625E+00 0.00000E+00
 -1      1964 2.97045E+01 3.09687E+00 0.00000E+00
 -1      1965 2.82045E+01 3.09687E+00 0.00000E+00
 -1      1966 2.80350E+01 4.00625E+00 0.00000E+00
 -1      1967 3.27045E+01 3.09687E+00 0.00000E+00
 -1      1968 3.12045E+01 3.09687E+00 0.00000E+00
 -1      1969 3.10350E+01 4.00625E+00 0.00000E+00
 -1      1970 3.57045E+01 3.09687E+00 0.00000E+00
 -1      1971 3.42045E+01 3.09687E+00 0.00000E+00
 -1      1972 3.40350E+01 4.00625E+00 0.00000E+00
 -1      1973 3.87045E+01 3.09687E+00 0.00000E+00
 -1      1974 3.72045E+01 3.09687E+00 0.00000E+00
 -1      1975 3.70350E+01 4.00625E+00 0.00000E+00
 -1      1976 4.17045E+01 3.09687E+00 0.00000E+00
 -1      1977 4.02045E+01 3.09687E+00 0.00000E+00
 -1      1978 4.00350E+01 4.00625E+00 0.00000E+00
 -1      1979 4.47045E+01 3.09687E+00 0.00000E+00
 -1      1980 4.32045E+01 3.09687E+00 0.00000E+00
 -1      1981 4.30350E+01 4.00625E+00 0.00000E+00
 -1      1982 4.77045E+01 3.09687E+00 0.00000E+00
 -1      1983 4.62045E+01 3.09687E+00 0.00000E+00
 -1      1984 4.60350E+01 4.00625E+00 0.00000E+00
 -1      1985 5.07045E+01 3.09687E+00 0.00000E+00
 -1      1986 4.92045E+01 3.09687E+00 0.00000E+00
 -1      1987 4.90350E+01 4.00625E+00 0.00000E+00
 -1      1988 5.37045E+01 3.09687E+00 0.00000E+00
 -1      1989 5.22045E+01 3.09687E+00 0.00000E+00
 -1      1990 5.20350E+01 4.00625E+00 0.00000E+00
 -1      1991 5.67045E+01 3.09687E+00 0.00000E+00
 -1      1992 5.52045E+01 3.09687E+00 0.00000E+00
 -1      1993 5.50350E+01 4.00625E+00 0.00000E+00
 -1      1994 5.97045E+01 3.09687E+00 0.00000E+00
 -1      1995 5.82045E+01 3.09687E+00 0.00000E+00
 -1      1996 5.80350E+01 4.00625E+00 0.00000E+00
 -1      1997 6.27045E+01 3.09687E+00 0.00000E+00
 -1      1998 6.12045E+01 3.09687E+00 0.00000E+00
 -1      1999 6.10350E+01 4.00625E+00 0.00000E+00
 -1      2000 6.57045E+01 3.09687E+00 0.00000E+00
 -1      2001 6.42045E+01 3.09687E+00 0.00000E+00
 -1      2002 6.40350E+01 4.00625E+00 0.00000E+00
 -1      2003 6.87045E+01 3.09687E+00 0.00000E+00
 -1      2004 6.72045E+01 3.09687E+00 0.00000E+00
 -1      2005 6.70350E+01 4.00625E+00 0.00000E+00
 -1      2006 7.17045E+01 3.09687E+00 0.00000E+00
 -1      2007 7.02045E+01 3.09687E+00 0.00000E+00
 -1      2008 7.00350E+01 4.00625E+00 0.00000E+00
 -1      2009 7.47045E+01 3.09687E+00 0.00000E+00
 -1      2010 7.32045E+01 3.09687E+00 0.00000E+00
 -1      2011 7.30350E+01 4.00625E+00 0.00000E+00
 -1      2012 7.77045E+01 3.09687E+00 0.00000E+00
 -1      2013 7.62045E+01 3.09687E+00 0.00000E+00
 -1      2014 7.60350E+01 4.00625E+00 0.00000E+00
 -1      2015 8.07045E+01 3.09687E+00 0.00000E+00
 -1      2016 7.92045E+01 3.09687E+00 0.00000E+00
 -1      2017 7.90350E+01 4.00625E+00 0.00000E+00
 -1      2018 8.37045E+01 3.09687E+00 0.00000E+00
 -1      2019 8.22045E+01 3.09687E+00 0.00000E+00
 -1      2020 8.20350E+01 4.00625E+00 0.00000E+00
 -1      2021 8.67045E+01 3.09687E+00 0.00000E+00
 -1      2022 8.52045E+01 3.09687E+00 0.00000E+00
 -1      2023 8.50350E+01 4.00625E+00 0.00000E+00
 -1      2024 8.97045E+01 3.09687E+00 0.00000E+00
 -1      2025 8.82045E+01 3.09687E+00 0.00000E+00
 -1      2026 8.80350E+01 4.00625E+00 0.00000E+00
 -1      2027 9.27045E+01 3.09687E+00 0.00000E+00
 -1      2028 9.12045E+01 3.09687E+00 0.00000E+00
 -1      2029 9.10350E+01 4.00625E+00 0.00000E+00
 -1      2030 9.57045E+01 3.09687E+00 0.00000E+00
 -1      2031 9.42045E+01 3.09687E+00 0.00000E+00
 -1      2032 9.40350E+01 4.00625E+00 0.00000E+00
 -1      2033 9.87045E+01 3.09687E+00 0.00000E+00
 -1      2034 9.72045E+01 3.09687E+00 0.00000E+00
 -1      2035 9.70350E+01 4.00625E+00 0.00000E+00
 -1      2036 1.01704E+02 3.09687E+00 0.00000E+00
 -1      2037 1.00204E+02 3.09687E+00 0.00000E+00
 -1      2038 1.00035E+02 4.00625E+00 0.00000E+00
 -1      2039 1.04704E+02 3.09687E+00 0.00000E+00
 -1      2040 1.03204E+02 3.09687E+00 0.00000E+00
 -1      2041 1.03035E+02 4.00625E+00 0.00000E+00
 -1      2042 1.07704E+02 3.09687E+00 0.00000E+00
 -1      2043 1.06204E+02 3.09687E+00 0.00000E+00
 -1      2044 1.06035E+02 4.00625E+00 0.00000E+00
 -1      2045 1.10704E+02 3.09687E+00 0.00000E+00
 -1      2046 1.09204E+02 3.09687E+00 0.00000E+00
 -1      2047 1.09035E+02 4.00625E+00 0.00000E+00
 -1      2048 1.13704E+02 3.09687E+00 0.00000E+00
 -1      2049 1.12204E+02 3.09687E+00 0.00000E+00
 -1      2050 1.12035E+02 4.00625E+00 0.00000E+00
 -1      2051 1.16704E+02 3.09687E+00 0.00000E+00
 -1      2052 1.15204E+02 3.09687E+00 0.00000E+00
 -1      2053 1.15035E+02 4.00625E+00 0.00000E+00
 -1      2054 1.19704E+02 3.09687E+00 0.00000E+00
 -1      2055 1.18204E+02 3.09687E+00 0.00000E+00
 -1      2056 1.18035E+02 4.00625E+00 0.00000E+00
 -1      2057 1.22704E+02 3.09687E+00 0.00000E+00
 -1      2058 1.21204E+02 3.09687E+00 0.00000E+00
 -1      2059 1.21035E+02 4.00625E+00 0.00000E+00
 -1      2060 1.25704E+02 3.09687E+00 0.00000E+00
 -1      2061 1.24204E+02 3.09687E+00 0.00000E+00
 -1      2062 1.24035E+02 4.00625E+00 0.00000E+00
 -1      2063 1.28704E+02 3.09687E+00 0.00000E+00
 -1      2064 1.27204E+02 3.09687E+00 0.00000E+00
 -1      2065 1.27035E+02 4.00625E+00 0.00000E+00
 -1      2066 1.31704E+02 3.09687E+00 0.00000E+00
 -1      2067 1.30204E+02 3.09687E+00 0.00000E+00
 -1      2068 1.30035E+02 4.00625E+00 0.00000E+00
 -1      2069 1.34704E+02 3.09687E+00 0.00000E+00
 -1      2070 1.33204E+02 3.09687E+00 0.00000E+00
 -1      2071 1.33035E+02 4.00625E+00 0.00000E+00
 -1      2072 1.37704E+02 3.09687E+00 0.00000E+00
 -1      2073 1.36204E+02 3.09687E+00 0.00000E+00
 -1      2074 1.36035E+02 4.00625E+00 0.00000E+00
 -1      2075 1.40704E+02 3.09687E+00 0.00000E+00
 -1      2076 1.39204E+02 3.09687E+00 0.00000E+00
 -1      2077 1.39035E+02 4.00625E+00 0.00000E+00
 -1      2078 1.43704E+02 3.09687E+00 0.00000E+00
 -1      2079 1.42204E+02 3.09687E+00 0.00000E+00
 -1      2080 1.42035E+02 4.00625E+00 0.00000E+00
 -1      2081 1.46171E+02 3.20156E+00 0.00000E+00
 -1      2082 1.44671E+02 3.20156E+00 0.00000E+00
 -1      2083 1.44502E+02 4.11094E+00 0.00000E+00
 -1      2084 1.46435E+02 4.32031E+00 0.00000E+00
 -1      2085 1.46103E+02 1.25375E+01 0.00000E+00
 -1      2086 1.46103E+02 1.10625E+01 0.00000E+00
 -1      2087 1.46103E+02 9.58750E+00 0.00000E+00
 -1      2088 1.46103E+02 8.11250E+00 0.00000E+00
 -1      2089 1.44804E+02 1.03250E+01 0.00000E+00
 -1      2090 1.46269E+02 6.95391E+00 0.00000E+00
 -1      2091 1.46269E+02 5.47891E+00 0.00000E+00
 -1      2092 1.45302E+02 5.37422E+00 0.00000E+00
 -1      2093 1.44970E+02 7.69141E+00 0.00000E+00
 -1      2094 1.46103E+02 1.54375E+01 0.00000E+00
 -1      2095 1.46103E+02 1.39875E+01 0.00000E+00
 -1      2096 1.44804E+02 1.32500E+01 0.00000E+00
 -1      2097 1.46103E+02 1.83875E+01 0.00000E+00
 -1      2098 1.46103E+02 1.69125E+01 0.00000E+00
 -1      2099 1.44804E+02 1.61750E+01 0.00000E+00
 -1      2100 1.46103E+02 2.13375E+01 0.00000E+00
 -1      2101 1.46103E+02 1.98625E+01 0.00000E+00
 -1      2102 1.44804E+02 1.91250E+01 0.00000E+00
 -1      2103 1.46103E+02 2.42875E+01 0.00000E+00
 -1      2104 1.46103E+02 2.28125E+01 0.00000E+00
 -1      2105 1.44804E+02 2.20750E+01 0.00000E+00
 -1      2106 1.46103E+02 2.72375E+01 0.00000E+00
 -1      2107 1.46103E+02 2.57625E+01 0.00000E+00
 -1      2108 1.44804E+02 2.50250E+01 0.00000E+00
 -1      2109 1.46103E+02 3.01875E+01 0.00000E+00
 -1      2110 1.46103E+02 2.87125E+01 0.00000E+00
 -1      2111 1.44804E+02 2.79750E+01 0.00000E+00
 -1      2112 1.46103E+02 3.30875E+01 0.00000E+00
 -1      2113 1.46103E+02 3.16375E+01 0.00000E+00
 -1      2114 1.44804E+02 3.09000E+01 0.00000E+00
 -1      2115 1.46103E+02 3.60375E+01 0.00000E+00
 -1      2116 1.46103E+02 3.45625E+01 0.00000E+00
 -1      2117 1.44804E+02 3.38250E+01 0.00000E+00
 -1      2118 1.46103E+02 3.89875E+01 0.00000E+00
 -1      2119 1.46103E+02 3.75125E+01 0.00000E+00
 -1      2120 1.44804E+02 3.67750E+01 0.00000E+00
 -1      2121 1.46103E+02 4.19375E+01 0.00000E+00
 -1      2122 1.46103E+02 4.04625E+01 0.00000E+00
 -1      2123 1.44804E+02 3.97250E+01 0.00000E+00
 -1      2124 1.34954E+02 2.19888E+01 0.00000E+00
 -1      2125 1.35386E+02 2.27506E+01 0.00000E+00
 -1      2126 1.36099E+02 2.56726E+01 0.00000E+00
 -1      2127 1.36135E+02 2.65609E+01 0.00000E+00
 -1      2128 1.35642E+02 2.38433E+01 0.00000E+00
 -1      2129 1.35789E+02 2.47185E+01 0.00000E+00
 -1      2130 1.33975E+02 2.06497E+01 0.00000E+00
 -1      2131 1.34465E+02 2.13192E+01 0.00000E+00
 -1      2132 1.35354E+02 2.13185E+01 0.00000E+00
 -1      2133 1.32753E+02 1.91556E+01 0.00000E+00
 -1      2134 1.33353E+02 1.98009E+01 0.00000E+00
 -1      2135 3.89700E+00 3.74688E+01 0.00000E+00
 -1      2136 3.89700E+00 3.89437E+01 0.00000E+00
 -1      2137 5.19600E+00 3.96813E+01 0.00000E+00
 -1      2138 5.19600E+00 3.67438E+01 0.00000E+00
 -1      2139 1.29300E+02 1.75916E+01 0.00000E+00
 -1      2140 1.30098E+02 1.78458E+01 0.00000E+00
 -1      2141 1.27496E+02 1.72481E+01 0.00000E+00
 -1      2142 1.28360E+02 1.73755E+01 0.00000E+00
 -1      2143 1.25553E+02 1.70349E+01 0.00000E+00
 -1      2144 1.26499E+02 1.70458E+01 0.00000E+00
 -1      2145 1.23446E+02 1.77798E+01 0.00000E+00
 -1      2146 1.24247E+02 1.73259E+01 0.00000E+00
 -1      2147 1.22026E+02 1.86501E+01 0.00000E+00
 -1      2148 1.22736E+02 1.82150E+01 0.00000E+00
 -1      2149 1.22714E+02 1.72418E+01 0.00000E+00
 -1      2150 1.20556E+02 1.98474E+01 0.00000E+00
 -1      2151 1.21160E+02 1.92809E+01 0.00000E+00
 -1      2152 1.19267E+02 2.11321E+01 0.00000E+00
 -1      2153 1.19911E+02 2.04897E+01 0.00000E+00
 -1      2154 1.19627E+02 1.95810E+01 0.00000E+00
 -1      2155 1.18547E+02 2.32152E+01 0.00000E+00
 -1      2156 1.18740E+02 2.23285E+01 0.00000E+00
 -1      2157 1.18078E+02 2.48873E+01 0.00000E+00
 -1      2158 1.18312E+02 2.40512E+01 0.00000E+00
 -1      2159 1.17694E+02 2.34522E+01 0.00000E+00
 -1      2160 1.18024E+02 2.68160E+01 0.00000E+00
 -1      2161 1.18040E+02 2.59217E+01 0.00000E+00
 -1      2162 1.18470E+02 2.87469E+01 0.00000E+00
 -1      2163 1.18147E+02 2.79486E+01 0.00000E+00
 -1      2164 1.19123E+02 3.03024E+01 0.00000E+00
 -1      2165 1.18796E+02 2.95247E+01 0.00000E+00
 -1      2166 1.17956E+02 2.94001E+01 0.00000E+00
 -1      2167 1.20126E+02 3.19516E+01 0.00000E+00
 -1      2168 1.19580E+02 3.13035E+01 0.00000E+00
 -1      2169 1.21549E+02 3.31122E+01 0.00000E+00
 -1      2170 1.20902E+02 3.25563E+01 0.00000E+00
 -1      2171 1.23134E+02 3.40565E+01 0.00000E+00
 -1      2172 1.22389E+02 3.36448E+01 0.00000E+00
 -1      2173 1.24853E+02 3.46850E+01 0.00000E+00
 -1      2174 1.24045E+02 3.44409E+01 0.00000E+00
 -1      2175 1.26638E+02 3.51409E+01 0.00000E+00
 -1      2176 1.25761E+02 3.49860E+01 0.00000E+00
 -1      2177 1.28657E+02 3.49251E+01 0.00000E+00
 -1      2178 1.27806E+02 3.51159E+01 0.00000E+00
 -1      2179 1.30280E+02 3.42854E+01 0.00000E+00
 -1      2180 1.29510E+02 3.45530E+01 0.00000E+00
 -1      2181 1.31895E+02 3.35313E+01 0.00000E+00
 -1      2182 1.31183E+02 3.39558E+01 0.00000E+00
 -1      2183 1.33359E+02 3.24401E+01 0.00000E+00
 -1      2184 1.32738E+02 3.30083E+01 0.00000E+00
 -1      2185 1.34337E+02 3.09070E+01 0.00000E+00
 -1      2186 1.33853E+02 3.15755E+01 0.00000E+00
 -1      2187 1.35186E+02 2.93576E+01 0.00000E+00
 -1      2188 1.34848E+02 3.01077E+01 0.00000E+00
 -1      2189 1.35821E+02 2.76686E+01 0.00000E+00
 -1      2190 1.35554E+02 2.85069E+01 0.00000E+00
 -1      2191 1.31008E+02 1.81087E+01 0.00000E+00
 -1      2192 1.31808E+02 1.84734E+01 0.00000E+00
 -1      2193 1.34242E+02 1.98002E+01 0.00000E+00
 -1      2194 6.42300E+00 4.57510E+01 0.00000E+00
 -1      2195 1.30819E+02 1.73242E+01 0.00000E+00
 -1      2196 7.17300E+00 4.44520E+01 0.00000E+00
 -1      2197 1.36099E+02 2.30807E+01 0.00000E+00
 -1      2198 1.36664E+02 2.51274E+01 0.00000E+00
 -1      2199 1.45665E+02 4.31193E+01 0.00000E+00
 -1      2200 1.36659E+02 2.71892E+01 0.00000E+00
 -1      2201 1.32674E+02 1.82692E+01 0.00000E+00
 -1      2202 1.35977E+02 2.91477E+01 0.00000E+00
 -1      2203 1.35097E+02 3.07977E+01 0.00000E+00
 -1      2204 1.34092E+02 3.24616E+01 0.00000E+00
 -1      2205 1.32756E+02 3.38492E+01 0.00000E+00
 -1      2206 1.31011E+02 3.47017E+01 0.00000E+00
 -1      2207 1.29255E+02 3.54034E+01 0.00000E+00
 -1      2208 1.27233E+02 3.58005E+01 0.00000E+00
 -1      2209 1.25157E+02 3.55244E+01 0.00000E+00
 -1      2210 1.23339E+02 3.48390E+01 0.00000E+00
 -1      2211 1.21588E+02 3.39220E+01 0.00000E+00
 -1      2212 1.18740E+02 3.11790E+01 0.00000E+00
 -1      2213 1.17421E+02 2.53227E+01 0.00000E+00
 -1      2214 1.18455E+02 2.14198E+01 0.00000E+00
 -1      2215 1.18171E+02 2.05110E+01 0.00000E+00
 -1      2216 1.17644E+02 2.17074E+01 0.00000E+00
 -1      2217 1.21138E+02 1.83078E+01 0.00000E+00
 -1      2218 1.24730E+02 1.65157E+01 0.00000E+00
 -1      2219 1.28968E+02 1.68452E+01 0.00000E+00
 -1      2220 1.27032E+02 1.64270E+01 0.00000E+00
 -1      2221 1.17507E+02 2.74897E+01 0.00000E+00
 -1      2222 1.19973E+02 3.27848E+01 0.00000E+00
 -1      2223 1.07850E+01 5.30525E+00 0.00000E+00
 -1      2224 9.28500E+00 5.30525E+00 0.00000E+00
 -1      2225 6.49500E+00 3.01125E+01 0.00000E+00
 -1      2226 6.49500E+00 3.15875E+01 0.00000E+00
 -1      2227 6.49500E+00 3.30625E+01 0.00000E+00
 -1      2228 6.49500E+00 3.45375E+01 0.00000E+00
 -1      2229 7.79400E+00 3.23250E+01 0.00000E+00
 -1      2230 6.49500E+00 2.42125E+01 0.00000E+00
 -1      2231 6.49500E+00 2.56875E+01 0.00000E+00
 -1      2232 6.49500E+00 2.12625E+01 0.00000E+00
 -1      2233 6.49500E+00 2.27375E+01 0.00000E+00
 -1      2234 7.79400E+00 2.34750E+01 0.00000E+00
 -1      2235 6.49500E+00 1.83625E+01 0.00000E+00
 -1      2236 6.49500E+00 1.98125E+01 0.00000E+00
 -1      2237 7.79400E+00 2.05500E+01 0.00000E+00
 -1      2238 6.49500E+00 1.54125E+01 0.00000E+00
 -1      2239 6.49500E+00 1.68875E+01 0.00000E+00
 -1      2240 7.79400E+00 1.76250E+01 0.00000E+00
 -1      2241 6.49500E+00 1.24625E+01 0.00000E+00
 -1      2242 6.49500E+00 1.39375E+01 0.00000E+00
 -1      2243 7.79400E+00 1.46750E+01 0.00000E+00
 -1      2244 6.49500E+00 9.51250E+00 0.00000E+00
 -1      2245 6.49500E+00 1.09875E+01 0.00000E+00
 -1      2246 7.79400E+00 1.17250E+01 0.00000E+00
 -1      2247 1.37850E+01 5.30525E+00 0.00000E+00
 -1      2248 1.22850E+01 5.30525E+00 0.00000E+00
 -1      2249 1.15350E+01 6.60425E+00 0.00000E+00
 -1      2250 9.90000E+00 4.35050E+01 0.00000E+00
 -1      2251 1.14000E+01 4.35050E+01 0.00000E+00
 -1      2252 1.30648E+02 1.62078E+01 0.00000E+00
 -1      2253 1.31558E+02 1.64707E+01 0.00000E+00
 -1      2254 1.29000E+01 4.35050E+01 0.00000E+00
 -1      2255 1.44000E+01 4.35050E+01 0.00000E+00
 -1      2256 1.21500E+01 4.22060E+01 0.00000E+00
 -1      2257 1.59000E+01 4.35050E+01 0.00000E+00
 -1      2258 1.74000E+01 4.35050E+01 0.00000E+00
 -1      2259 1.51500E+01 4.22060E+01 0.00000E+00
 -1      2260 1.89000E+01 4.35050E+01 0.00000E+00
 -1      2261 2.04000E+01 4.35050E+01 0.00000E+00
 -1      2262 1.81500E+01 4.22060E+01 0.00000E+00
 -1      2263 2.19000E+01 4.35050E+01 0.00000E+00
 -1      2264 2.34000E+01 4.35050E+01 0.00000E+00
 -1      2265 2.11500E+01 4.22060E+01 0.00000E+00
 -1      2266 2.49000E+01 4.35050E+01 0.00000E+00
 -1      2267 2.64000E+01 4.35050E+01 0.00000E+00
 -1      2268 2.41500E+01 4.22060E+01 0.00000E+00
 -1      2269 2.79000E+01 4.35050E+01 0.00000E+00
 -1      2270 2.94000E+01 4.35050E+01 0.00000E+00
 -1      2271 2.71500E+01 4.22060E+01 0.00000E+00
 -1      2272 3.09000E+01 4.35050E+01 0.00000E+00
 -1      2273 3.24000E+01 4.35050E+01 0.00000E+00
 -1      2274 3.01500E+01 4.22060E+01 0.00000E+00
 -1      2275 3.39000E+01 4.35050E+01 0.00000E+00
 -1      2276 3.54000E+01 4.35050E+01 0.00000E+00
 -1      2277 3.31500E+01 4.22060E+01 0.00000E+00
 -1      2278 3.69000E+01 4.35050E+01 0.00000E+00
 -1      2279 3.84000E+01 4.35050E+01 0.00000E+00
 -1      2280 3.61500E+01 4.22060E+01 0.00000E+00
 -1      2281 3.99000E+01 4.35050E+01 0.00000E+00
 -1      2282 4.14000E+01 4.35050E+01 0.00000E+00
 -1      2283 3.91500E+01 4.22060E+01 0.00000E+00
 -1      2284 4.29000E+01 4.35050E+01 0.00000E+00
 -1      2285 4.44000E+01 4.35050E+01 0.00000E+00
 -1      2286 4.21500E+01 4.22060E+01 0.00000E+00
 -1      2287 4.59000E+01 4.35050E+01 0.00000E+00
 -1      2288 4.74000E+01 4.35050E+01 0.00000E+00
 -1      2289 4.51500E+01 4.22060E+01 0.00000E+00
 -1      2290 4.89000E+01 4.35050E+01 0.00000E+00
 -1      2291 5.04000E+01 4.35050E+01 0.00000E+00
 -1      2292 4.81500E+01 4.22060E+01 0.00000E+00
 -1      2293 5.19000E+01 4.35050E+01 0.00000E+00
 -1      2294 5.34000E+01 4.35050E+01 0.00000E+00
 -1      2295 5.11500E+01 4.22060E+01 0.00000E+00
 -1      2296 5.49000E+01 4.35050E+01 0.00000E+00
 -1      2297 5.64000E+01 4.35050E+01 0.00000E+00
 -1      2298 5.41500E+01 4.22060E+01 0.00000E+00
 -1      2299 5.79000E+01 4.35050E+01 0.00000E+00
 -1      2300 5.94000E+01 4.35050E+01 0.00000E+00
 -1      2301 5.71500E+01 4.22060E+01 0.00000E+00
 -1      2302 6.09000E+01 4.35050E+01 0.00000E+00
 -1      2303 6.24000E+01 4.35050E+01 0.00000E+00
 -1      2304 6.01500E+01 4.22060E+01 0.00000E+00
 -1      2305 6.39000E+01 4.35050E+01 0.00000E+00
 -1      2306 6.54000E+01 4.35050E+01 0.00000E+00
 -1      2307 6.31500E+01 4.22060E+01 0.00000E+00
 -1      2308 6.69000E+01 4.35050E+01 0.00000E+00
 -1      2309 6.84000E+01 4.35050E+01 0.00000E+00
 -1      2310 6.61500E+01 4.22060E+01 0.00000E+00
 -1      2311 6.99000E+01 4.35050E+01 0.00000E+00
 -1      2312 7.14000E+01 4.35050E+01 0.00000E+00
 -1      2313 6.91500E+01 4.22060E+01 0.00000E+00
 -1      2314 7.29000E+01 4.35050E+01 0.00000E+00
 -1      2315 7.44000E+01 4.35050E+01 0.00000E+00
 -1      2316 7.21500E+01 4.22060E+01 0.00000E+00
 -1      2317 7.59000E+01 4.35050E+01 0.00000E+00
 -1      2318 7.74000E+01 4.35050E+01 0.00000E+00
 -1      2319 7.51500E+01 4.22060E+01 0.00000E+00
 -1      2320 7.89000E+01 4.35050E+01 0.00000E+00
 -1      2321 8.04000E+01 4.35050E+01 0.00000E+00
 -1      2322 7.81500E+01 4.22060E+01 0.00000E+00
 -1      2323 8.19000E+01 4.35050E+01 0.00000E+00
 -1      2324 8.34000E+01 4.35050E+01 0.00000E+00
 -1      2325 8.11500E+01 4.22060E+01 0.00000E+00
 -1      2326 8.49000E+01 4.35050E+01 0.00000E+00
 -1      2327 8.64000E+01 4.35050E+01 0.00000E+00
 -1      2328 8.41500E+01 4.22060E+01 0.00000E+00
 -1      2329 8.79000E+01 4.35050E+01 0.00000E+00
 -1      2330 8.94000E+01 4.35050E+01 0.00000E+00
 -1      2331 8.71500E+01 4.22060E+01 0.00000E+00
 -1      2332 9.09000E+01 4.35050E+01 0.00000E+00
 -1      2333 9.24000E+01 4.35050E+01 0.00000E+00
 -1      2334 9.01500E+01 4.22060E+01 0.00000E+00
 -1      2335 9.39000E+01 4.35050E+01 0.00000E+00
 -1      2336 9.54000E+01 4.35050E+01 0.00000E+00
 -1      2337 9.31500E+01 4.22060E+01 0.00000E+00
 -1      2338 9.69000E+01 4.35050E+01 0.00000E+00
 -1      2339 9.84000E+01 4.35050E+01 0.00000E+00
 -1      2340 9.61500E+01 4.22060E+01 0.00000E+00
 -1      2341 9.99000E+01 4.35050E+01 0.00000E+00
 -1      2342 1.01400E+02 4.35050E+01 0.00000E+00
 -1      2343 9.91500E+01 4.22060E+01 0.00000E+00
 -1      2344 1.02900E+02 4.35050E+01 0.00000E+00
 -1      2345 1.04400E+02 4.35050E+01 0.00000E+00
 -1      2346 1.02150E+02 4.22060E+01 0.00000E+00
 -1      2347 1.05900E+02 4.35050E+01 0.00000E+00
 -1      2348 1.07400E+02 4.35050E+01 0.00000E+00
 -1      2349 1.05150E+02 4.22060E+01 0.00000E+00
 -1      2350 1.08900E+02 4.35050E+01 0.00000E+00
 -1      2351 1.10400E+02 4.35050E+01 0.00000E+00
 -1      2352 1.08150E+02 4.22060E+01 0.00000E+00
 -1      2353 1.11900E+02 4.35050E+01 0.00000E+00
 -1      2354 1.13400E+02 4.35050E+01 0.00000E+00
 -1      2355 1.11150E+02 4.22060E+01 0.00000E+00
 -1      2356 1.14900E+02 4.35050E+01 0.00000E+00
 -1      2357 1.16400E+02 4.35050E+01 0.00000E+00
 -1      2358 1.14150E+02 4.22060E+01 0.00000E+00
 -1      2359 1.17900E+02 4.35050E+01 0.00000E+00
 -1      2360 1.19400E+02 4.35050E+01 0.00000E+00
 -1      2361 1.17150E+02 4.22060E+01 0.00000E+00
 -1      2362 1.20900E+02 4.35050E+01 0.00000E+00
 -1      2363 1.22400E+02 4.35050E+01 0.00000E+00
 -1      2364 1.20150E+02 4.22060E+01 0.00000E+00
 -1      2365 1.23900E+02 4.35050E+01 0.00000E+00
 -1      2366 1.25400E+02 4.35050E+01 0.00000E+00
 -1      2367 1.23150E+02 4.22060E+01 0.00000E+00
 -1      2368 1.26900E+02 4.35050E+01 0.00000E+00
 -1      2369 1.28400E+02 4.35050E+01 0.00000E+00
 -1      2370 1.26150E+02 4.22060E+01 0.00000E+00
 -1      2371 1.29900E+02 4.35050E+01 0.00000E+00
 -1      2372 1.31400E+02 4.35050E+01 0.00000E+00
 -1      2373 1.29150E+02 4.22060E+01 0.00000E+00
 -1      2374 1.32900E+02 4.35050E+01 0.00000E+00
 -1      2375 1.34400E+02 4.35050E+01 0.00000E+00
 -1      2376 1.32150E+02 4.22060E+01 0.00000E+00
 -1      2377 1.35900E+02 4.35050E+01 0.00000E+00
 -1      2378 1.37400E+02 4.35050E+01 0.00000E+00
 -1      2379 1.35150E+02 4.22060E+01 0.00000E+00
 -1      2380 1.38900E+02 4.35050E+01 0.00000E+00
 -1      2381 1.40400E+02 4.35050E+01 0.00000E+00
 -1      2382 1.38150E+02 4.22060E+01 0.00000E+00
 -1      2383 1.97850E+01 5.30525E+00 0.00000E+00
 -1      2384 1.82850E+01 5.30525E+00 0.00000E+00
 -1      2385 2.27850E+01 5.30525E+00 0.00000E+00
 -1      2386 2.12850E+01 5.30525E+00 0.00000E+00
 -1      2387 2.05350E+01 6.60425E+00 0.00000E+00
 -1      2388 2.57850E+01 5.30525E+00 0.00000E+00
 -1      2389 2.42850E+01 5.30525E+00 0.00000E+00
 -1      2390 2.35350E+01 6.60425E+00 0.00000E+00
 -1      2391 2.87850E+01 5.30525E+00 0.00000E+00
 -1      2392 2.72850E+01 5.30525E+00 0.00000E+00
 -1      2393 2.65350E+01 6.60425E+00 0.00000E+00
 -1      2394 3.17850E+01 5.30525E+00 0.00000E+00
 -1      2395 3.02850E+01 5.30525E+00 0.00000E+00
 -1      2396 2.95350E+01 6.60425E+00 0.00000E+00
 -1      2397 3.47850E+01 5.30525E+00 0.00000E+00
 -1      2398 3.32850E+01 5.30525E+00 0.00000E+00
 -1      2399 3.25350E+01 6.60425E+00 0.00000E+00
 -1      2400 3.77850E+01 5.30525E+00 0.00000E+00
 -1      2401 3.62850E+01 5.30525E+00 0.00000E+00
 -1      2402 3.55350E+01 6.60425E+00 0.00000E+00
 -1      2403 4.07850E+01 5.30525E+00 0.00000E+00
 -1      2404 3.92850E+01 5.30525E+00 0.00000E+00
 -1      2405 3.85350E+01 6.60425E+00 0.00000E+00
 -1      2406 4.37850E+01 5.30525E+00 0.00000E+00
 -1      2407 4.22850E+01 5.30525E+00 0.00000E+00
 -1      2408 4.15350E+01 6.60425E+00 0.00000E+00
 -1      2409 4.67850E+01 5.30525E+00 0.00000E+00
 -1      2410 4.52850E+01 5.30525E+00 0.00000E+00
 -1      2411 4.45350E+01 6.60425E+00 0.00000E+00
 -1      2412 4.97850E+01 5.30525E+00 0.00000E+00
 -1      2413 4.82850E+01 5.30525E+00 0.00000E+00
 -1      2414 4.75350E+01 6.60425E+00 0.00000E+00
 -1      2415 5.27850E+01 5.30525E+00 0.00000E+00
 -1      2416 5.12850E+01 5.30525E+00 0.00000E+00
 -1      2417 5.05350E+01 6.60425E+00 0.00000E+00
 -1      2418 5.57850E+01 5.30525E+00 0.00000E+00
 -1      2419 5.42850E+01 5.30525E+00 0.00000E+00
 -1      2420 5.35350E+01 6.60425E+00 0.00000E+00
 -1      2421 5.87850E+01 5.30525E+00 0.00000E+00
 -1      2422 5.72850E+01 5.30525E+00 0.00000E+00
 -1      2423 5.65350E+01 6.60425E+00 0.00000E+00
 -1      2424 6.17850E+01 5.30525E+00 0.00000E+00
 -1      2425 6.02850E+01 5.30525E+00 0.00000E+00
 -1      2426 5.95350E+01 6.60425E+00 0.00000E+00
 -1      2427 6.47850E+01 5.30525E+00 0.00000E+00
 -1      2428 6.32850E+01 5.30525E+00 0.00000E+00
 -1      2429 6.25350E+01 6.60425E+00 0.00000E+00
 -1      2430 6.77850E+01 5.30525E+00 0.00000E+00
 -1      2431 6.62850E+01 5.30525E+00 0.00000E+00
 -1      2432 6.55350E+01 6.60425E+00 0.00000E+00
 -1      2433 7.07850E+01 5.30525E+00 0.00000E+00
 -1      2434 6.92850E+01 5.30525E+00 0.00000E+00
 -1      2435 6.85350E+01 6.60425E+00 0.00000E+00
 -1      2436 7.37850E+01 5.30525E+00 0.00000E+00
 -1      2437 7.22850E+01 5.30525E+00 0.00000E+00
 -1      2438 7.15350E+01 6.60425E+00 0.00000E+00
 -1      2439 7.67850E+01 5.30525E+00 0.00000E+00
 -1      2440 7.52850E+01 5.30525E+00 0.00000E+00
 -1      2441 7.45350E+01 6.60425E+00 0.00000E+00
 -1      2442 7.97850E+01 5.30525E+00 0.00000E+00
 -1      2443 7.82850E+01 5.30525E+00 0.00000E+00
 -1      2444 7.75350E+01 6.60425E+00 0.00000E+00
 -1      2445 8.27850E+01 5.30525E+00 0.00000E+00
 -1      2446 8.12850E+01 5.30525E+00 0.00000E+00
 -1      2447 8.05350E+01 6.60425E+00 0.00000E+00
 -1      2448 8.57850E+01 5.30525E+00 0.00000E+00
 -1      2449 8.42850E+01 5.30525E+00 0.00000E+00
 -1      2450 8.35350E+01 6.60425E+00 0.00000E+00
 -1      2451 8.87850E+01 5.30525E+00 0.00000E+00
 -1      2452 8.72850E+01 5.30525E+00 0.00000E+00
 -1      2453 8.65350E+01 6.60425E+00 0.00000E+00
 -1      2454 9.17850E+01 5.30525E+00 0.00000E+00
 -1      2455 9.02850E+01 5.30525E+00 0.00000E+00
 -1      2456 8.95350E+01 6.60425E+00 0.00000E+00
 -1      2457 9.47850E+01 5.30525E+00 0.00000E+00
 -1      2458 9.32850E+01 5.30525E+00 0.00000E+00
 -1      2459 9.25350E+01 6.60425E+00 0.00000E+00
 -1      2460 9.77850E+01 5.30525E+00 0.00000E+00
 -1      2461 9.62850E+01 5.30525E+00 0.00000E+00
 -1      2462 9.55350E+01 6.60425E+00 0.00000E+00
 -1      2463 1.00785E+02 5.30525E+00 0.00000E+00
 -1      2464 9.92850E+01 5.30525E+00 0.00000E+00
 -1      2465 9.85350E+01 6.60425E+00 0.00000E+00
 -1      2466 1.03785E+02 5.30525E+00 0.00000E+00
 -1      2467 1.02285E+02 5.30525E+00 0.00000E+00
 -1      2468 1.01535E+02 6.60425E+00 0.00000E+00
 -1      2469 1.06785E+02 5.30525E+00 0.00000E+00
 -1      2470 1.05285E+02 5.30525E+00 0.00000E+00
 -1      2471 1.04535E+02 6.60425E+00 0.00000E+00
 -1      2472 1.09785E+02 5.30525E+00 0.00000E+00
 -1      2473 1.08285E+02 5.30525E+00 0.00000E+00
 -1      2474 1.07535E+02 6.60425E+00 0.00000E+00
 -1      2475 1.12785E+02 5.30525E+00 0.00000E+00
 -1      2476 1.11285E+02 5.30525E+00 0.00000E+00
 -1      2477 1.10535E+02 6.60425E+00 0.00000E+00
 -1      2478 1.15785E+02 5.30525E+00 0.00000E+00
 -1      2479 1.14285E+02 5.30525E+00 0.00000E+00
 -1      2480 1.13535E+02 6.60425E+00 0.00000E+00
 -1      2481 1.18785E+02 5.30525E+00 0.00000E+00
 -1      2482 1.17285E+02 5.30525E+00 0.00000E+00
 -1      2483 1.16535E+02 6.60425E+00 0.00000E+00
 -1      2484 1.21785E+02 5.30525E+00 0.00000E+00
 -1      2485 1.20285E+02 5.30525E+00 0.00000E+00
 -1      2486 1.19535E+02 6.60425E+00 0.00000E+00
 -1      2487 1.24785E+02 5.30525E+00 0.00000E+00
 -1      2488 1.23285E+02 5.30525E+00 0.00000E+00
 -1      2489 1.22535E+02 6.60425E+00 0.00000E+00
 -1      2490 1.27785E+02 5.30525E+00 0.00000E+00
 -1      2491 1.26285E+02 5.30525E+00 0.00000E+00
 -1      2492 1.25535E+02 6.60425E+00 0.00000E+00
 -1      2493 1.30785E+02 5.30525E+00 0.00000E+00
 -1      2494 1.29285E+02 5.30525E+00 0.00000E+00
 -1      2495 1.28535E+02 6.60425E+00 0.00000E+00
 -1      2496 1.33785E+02 5.30525E+00 0.00000E+00
 -1      2497 1.32285E+02 5.30525E+00 0.00000E+00
 -1      2498 1.31535E+02 6.60425E+00 0.00000E+00
 -1      2499 1.36785E+02 5.30525E+00 0.00000E+00
 -1      2500 1.35285E+02 5.30525E+00 0.00000E+00
 -1      2501 1.34535E+02 6.60425E+00 0.00000E+00
 -1      2502 1.39785E+02 5.30525E+00 0.00000E+00
 -1      2503 1.38285E+02 5.30525E+00 0.00000E+00
 -1      2504 1.37535E+02 6.60425E+00 0.00000E+00
 -1      2505 1.42785E+02 5.30525E+00 0.00000E+00
 -1      2506 1.41285E+02 5.30525E+00 0.00000E+00
 -1      2507 1.40535E+02 6.60425E+00 0.00000E+00
 -1      2508 1.44336E+02 5.26953E+00 0.00000E+00
 -1      2509 1.43505E+02 1.69125E+01 0.00000E+00
 -1      2510 1.43505E+02 1.54375E+01 0.00000E+00
 -1      2511 1.43505E+02 1.98625E+01 0.00000E+00
 -1      2512 1.43505E+02 1.83875E+01 0.00000E+00
 -1      2513 1.42206E+02 1.76500E+01 0.00000E+00
 -1      2514 1.43505E+02 1.10625E+01 0.00000E+00
 -1      2515 1.43505E+02 9.58750E+00 0.00000E+00
 -1      2516 1.43505E+02 1.39750E+01 0.00000E+00
 -1      2517 1.43505E+02 1.25250E+01 0.00000E+00
 -1      2518 1.42206E+02 1.17875E+01 0.00000E+00
 -1      2519 1.42206E+02 1.47125E+01 0.00000E+00
 -1      2520 1.43505E+02 2.28125E+01 0.00000E+00
 -1      2521 1.43505E+02 2.13375E+01 0.00000E+00
 -1      2522 1.42206E+02 2.06000E+01 0.00000E+00
 -1      2523 1.43505E+02 2.57625E+01 0.00000E+00
 -1      2524 1.43505E+02 2.42875E+01 0.00000E+00
 -1      2525 1.42206E+02 2.35500E+01 0.00000E+00
 -1      2526 1.43505E+02 2.87125E+01 0.00000E+00
 -1      2527 1.43505E+02 2.72375E+01 0.00000E+00
 -1      2528 1.42206E+02 2.65000E+01 0.00000E+00
 -1      2529 1.43505E+02 3.16125E+01 0.00000E+00
 -1      2530 1.43505E+02 3.01625E+01 0.00000E+00
 -1      2531 1.42206E+02 2.94250E+01 0.00000E+00
 -1      2532 1.43505E+02 3.45625E+01 0.00000E+00
 -1      2533 1.43505E+02 3.30875E+01 0.00000E+00
 -1      2534 1.42206E+02 3.23500E+01 0.00000E+00
 -1      2535 1.43505E+02 3.75125E+01 0.00000E+00
 -1      2536 1.43505E+02 3.60375E+01 0.00000E+00
 -1      2537 1.42206E+02 3.53000E+01 0.00000E+00
 -1      2538 1.43505E+02 4.04625E+01 0.00000E+00
 -1      2539 1.43505E+02 3.89875E+01 0.00000E+00
 -1      2540 1.42206E+02 3.82500E+01 0.00000E+00
 -1      2541 1.37206E+02 2.44245E+01 0.00000E+00
 -1      2542 1.37515E+02 2.53786E+01 0.00000E+00
 -1      2543 1.36725E+02 2.23582E+01 0.00000E+00
 -1      2544 1.36980E+02 2.34508E+01 0.00000E+00
 -1      2545 1.37722E+02 2.68925E+01 0.00000E+00
 -1      2546 1.37408E+02 2.80002E+01 0.00000E+00
 -1      2547 1.67850E+01 5.30525E+00 0.00000E+00
 -1      2548 1.52850E+01 5.30525E+00 0.00000E+00
 -1      2549 1.75350E+01 6.60425E+00 0.00000E+00
 -1      2550 1.44321E+02 4.30606E+01 0.00000E+00
 -1      2551 1.35801E+02 2.04775E+01 0.00000E+00
 -1      2552 1.36291E+02 2.11471E+01 0.00000E+00
 -1      2553 6.55950E+00 4.28890E+01 0.00000E+00
 -1      2554 8.53650E+00 4.32410E+01 0.00000E+00
 -1      2555 9.28650E+00 4.19420E+01 0.00000E+00
 -1      2556 6.55950E+00 4.14140E+01 0.00000E+00
 -1      2557 1.32801E+02 1.70969E+01 0.00000E+00
 -1      2558 1.33747E+02 1.77790E+01 0.00000E+00
 -1      2559 1.16546E+02 2.58088E+01 0.00000E+00
 -1      2560 1.16583E+02 2.47744E+01 0.00000E+00
 -1      2561 1.23891E+02 1.58242E+01 0.00000E+00
 -1      2562 1.25196E+02 1.55332E+01 0.00000E+00
 -1      2563 6.49500E+00 2.71625E+01 0.00000E+00
 -1      2564 6.49500E+00 2.86375E+01 0.00000E+00
 -1      2565 7.79400E+00 2.93750E+01 0.00000E+00
 -1      2566 7.79400E+00 2.64250E+01 0.00000E+00
 -1      2567 1.26679E+02 1.56086E+01 0.00000E+00
 -1      2568 1.27676E+02 1.58109E+01 0.00000E+00
 -1      2569 1.16716E+02 2.81487E+01 0.00000E+00
 -1      2570 1.16593E+02 2.70160E+01 0.00000E+00
 -1      2571 1.28692E+02 1.59013E+01 0.00000E+00
 -1      2572 1.29632E+02 1.61174E+01 0.00000E+00
 -1      2573 1.30371E+02 1.52639E+01 0.00000E+00
 -1      2574 1.28339E+02 1.50830E+01 0.00000E+00
 -1      2575 1.21867E+02 1.66568E+01 0.00000E+00
 -1      2576 1.22577E+02 1.62217E+01 0.00000E+00
 -1      2577 1.20134E+02 1.79185E+01 0.00000E+00
 -1      2578 1.21001E+02 1.72877E+01 0.00000E+00
 -1      2579 1.20864E+02 1.62675E+01 0.00000E+00
 -1      2580 1.18845E+02 1.92032E+01 0.00000E+00
 -1      2581 1.19490E+02 1.85609E+01 0.00000E+00
 -1      2582 1.19353E+02 1.75407E+01 0.00000E+00
 -1      2583 1.16589E+02 2.35933E+01 0.00000E+00
 -1      2584 1.16824E+02 2.27572E+01 0.00000E+00
 -1      2585 1.19859E+02 3.37304E+01 0.00000E+00
 -1      2586 1.19083E+02 3.31257E+01 0.00000E+00
 -1      2587 1.17368E+02 3.01046E+01 0.00000E+00
 -1      2588 1.17041E+02 2.93269E+01 0.00000E+00
 -1      2589 1.18282E+02 3.21069E+01 0.00000E+00
 -1      2590 1.17825E+02 3.11058E+01 0.00000E+00
 -1      2591 1.16909E+02 3.10326E+01 0.00000E+00
 -1      2592 1.21539E+02 3.47956E+01 0.00000E+00
 -1      2593 1.20699E+02 3.42630E+01 0.00000E+00
 -1      2594 1.19810E+02 3.46039E+01 0.00000E+00
 -1      2595 1.23460E+02 3.58213E+01 0.00000E+00
 -1      2596 1.22550E+02 3.54369E+01 0.00000E+00
 -1      2597 1.25276E+02 3.64233E+01 0.00000E+00
 -1      2598 1.24368E+02 3.61223E+01 0.00000E+00
 -1      2599 1.23579E+02 3.67201E+01 0.00000E+00
 -1      2600 1.27834E+02 3.66035E+01 0.00000E+00
 -1      2601 1.26666E+02 3.66284E+01 0.00000E+00
 -1      2602 1.30024E+02 3.60035E+01 0.00000E+00
 -1      2603 1.29170E+02 3.63756E+01 0.00000E+00
 -1      2604 1.31830E+02 3.53443E+01 0.00000E+00
 -1      2605 1.30927E+02 3.56739E+01 0.00000E+00
 -1      2606 1.30843E+02 3.66461E+01 0.00000E+00
 -1      2607 1.33630E+02 3.43162E+01 0.00000E+00
 -1      2608 1.32788E+02 3.48392E+01 0.00000E+00
 -1      2609 1.35084E+02 3.24545E+01 0.00000E+00
 -1      2610 1.34590E+02 3.33190E+01 0.00000E+00
 -1      2611 1.36106E+02 3.08558E+01 0.00000E+00
 -1      2612 1.35595E+02 3.16551E+01 0.00000E+00
 -1      2613 1.36093E+02 3.25126E+01 0.00000E+00
 -1      2614 1.36832E+02 2.90132E+01 0.00000E+00
 -1      2615 1.36464E+02 2.98639E+01 0.00000E+00
 -1      2616 8.07525E+00 5.11044E+00 0.00000E+00
 -1      2617 6.57525E+00 5.11044E+00 0.00000E+00
 -1      2618 6.40575E+00 6.01981E+00 0.00000E+00
 -1      2619 8.82525E+00 6.40944E+00 0.00000E+00
 -1      2620 1.34557E+02 1.87800E+01 0.00000E+00
 -1      2621 1.35179E+02 1.96287E+01 0.00000E+00
 -1      2622 1.36116E+02 1.94573E+01 0.00000E+00
 -1      2623 1.23044E+02 1.52392E+01 0.00000E+00
 -1      2624 7.79400E+00 3.52687E+01 0.00000E+00
 -1      2625 6.49500E+00 3.60062E+01 0.00000E+00
 -1      2626 6.49500E+00 3.74750E+01 0.00000E+00
 -1      2627 1.45350E+01 6.60425E+00 0.00000E+00
 -1      2628 6.40575E+00 7.49481E+00 0.00000E+00
 -1      2629 1.34684E+02 1.76076E+01 0.00000E+00
 -1      2630 1.32631E+02 1.59805E+01 0.00000E+00
 -1      2631 1.37172E+02 2.15172E+01 0.00000E+00
 -1      2632 1.43586E+02 6.56853E+00 0.00000E+00
 -1      2633 1.43419E+02 7.72713E+00 0.00000E+00
 -1      2634 1.38805E+02 2.54866E+01 0.00000E+00
 -1      2635 1.38264E+02 2.61895E+01 0.00000E+00
 -1      2636 1.39012E+02 2.70005E+01 0.00000E+00
 -1      2637 1.37831E+02 2.37020E+01 0.00000E+00
 -1      2638 1.36962E+02 3.07213E+01 0.00000E+00
 -1      2639 1.37895E+02 2.87164E+01 0.00000E+00
 -1      2640 7.70475E+00 8.23231E+00 0.00000E+00
 -1      2641 6.55950E+00 3.99453E+01 0.00000E+00
 -1      2642 1.32704E+02 3.58114E+01 0.00000E+00
 -1      2643 1.15755E+02 2.64678E+01 0.00000E+00
 -1      2644 1.15713E+02 2.40794E+01 0.00000E+00
 -1      2645 1.25878E+02 3.72263E+01 0.00000E+00
 -1      2646 1.18168E+02 3.30525E+01 0.00000E+00
 -1      2647 1.21660E+02 3.57778E+01 0.00000E+00
 -1      2648 1.25001E+02 1.42255E+01 0.00000E+00
 -1      2649 1.25840E+02 1.49171E+01 0.00000E+00
 -1      2650 1.26484E+02 1.43009E+01 0.00000E+00
 -1      2651 1.16539E+02 2.18485E+01 0.00000E+00
 -1      2652 1.16127E+02 2.88532E+01 0.00000E+00
 -1      2653 1.18034E+02 1.94909E+01 0.00000E+00
 -1      2654 1.17897E+02 1.84708E+01 0.00000E+00
 -1      2655 1.17222E+02 1.97786E+01 0.00000E+00
 -1      2656 1.42758E+02 4.35929E+01 0.00000E+00
 -1      2657 1.43241E+02 4.17323E+01 0.00000E+00
 -1      2658 1.41942E+02 4.09948E+01 0.00000E+00
 -1      2659 1.41414E+02 4.35342E+01 0.00000E+00
 -1      2660 1.28604E+02 3.72035E+01 0.00000E+00
 -1      2661 1.34621E+02 3.43091E+01 0.00000E+00
 -1      2662 1.42120E+02 8.46463E+00 0.00000E+00
 -1      2663 1.40664E+02 4.22352E+01 0.00000E+00
 -1      2664 9.09300E+00 1.98250E+01 0.00000E+00
 -1      2665 9.09300E+00 2.12750E+01 0.00000E+00
 -1      2666 9.09300E+00 2.27500E+01 0.00000E+00
 -1      2667 9.09300E+00 2.42250E+01 0.00000E+00
 -1      2668 1.03920E+01 2.20250E+01 0.00000E+00
 -1      2669 9.09300E+00 1.39375E+01 0.00000E+00
 -1      2670 9.09300E+00 1.54125E+01 0.00000E+00
 -1      2671 9.09300E+00 1.09875E+01 0.00000E+00
 -1      2672 9.09300E+00 1.24625E+01 0.00000E+00
 -1      2673 1.03920E+01 1.32000E+01 0.00000E+00
 -1      2674 1.22850E+01 7.90325E+00 0.00000E+00
 -1      2675 1.07850E+01 7.90325E+00 0.00000E+00
 -1      2676 7.85850E+00 3.92077E+01 0.00000E+00
 -1      2677 1.52850E+01 7.90325E+00 0.00000E+00
 -1      2678 1.37850E+01 7.90325E+00 0.00000E+00
 -1      2679 1.30350E+01 9.20225E+00 0.00000E+00
 -1      2680 1.37999E+02 2.05376E+01 0.00000E+00
 -1      2681 1.38433E+02 2.17487E+01 0.00000E+00
 -1      2682 1.44000E+01 4.09070E+01 0.00000E+00
 -1      2683 1.59000E+01 4.09070E+01 0.00000E+00
 -1      2684 1.74000E+01 4.09070E+01 0.00000E+00
 -1      2685 1.89000E+01 4.09070E+01 0.00000E+00
 -1      2686 1.66500E+01 3.96080E+01 0.00000E+00
 -1      2687 2.04000E+01 4.09070E+01 0.00000E+00
 -1      2688 2.19000E+01 4.09070E+01 0.00000E+00
 -1      2689 1.96500E+01 3.96080E+01 0.00000E+00
 -1      2690 2.34000E+01 4.09070E+01 0.00000E+00
 -1      2691 2.49000E+01 4.09070E+01 0.00000E+00
 -1      2692 2.26500E+01 3.96080E+01 0.00000E+00
 -1      2693 2.64000E+01 4.09070E+01 0.00000E+00
 -1      2694 2.79000E+01 4.09070E+01 0.00000E+00
 -1      2695 2.56500E+01 3.96080E+01 0.00000E+00
 -1      2696 2.94000E+01 4.09070E+01 0.00000E+00
 -1      2697 3.09000E+01 4.09070E+01 0.00000E+00
 -1      2698 2.86500E+01 3.96080E+01 0.00000E+00
 -1      2699 3.24000E+01 4.09070E+01 0.00000E+00
 -1      2700 3.39000E+01 4.09070E+01 0.00000E+00
 -1      2701 3.16500E+01 3.96080E+01 0.00000E+00
 -1      2702 3.54000E+01 4.09070E+01 0.00000E+00
 -1      2703 3.69000E+01 4.09070E+01 0.00000E+00
 -1      2704 3.46500E+01 3.96080E+01 0.00000E+00
 -1      2705 3.84000E+01 4.09070E+01 0.00000E+00
 -1      2706 3.99000E+01 4.09070E+01 0.00000E+00
 -1      2707 3.76500E+01 3.96080E+01 0.00000E+00
 -1      2708 4.14000E+01 4.09070E+01 0.00000E+00
 -1      2709 4.29000E+01 4.09070E+01 0.00000E+00
 -1      2710 4.06500E+01 3.96080E+01 0.00000E+00
 -1      2711 4.44000E+01 4.09070E+01 0.00000E+00
 -1      2712 4.59000E+01 4.09070E+01 0.00000E+00
 -1      2713 4.36500E+01 3.96080E+01 0.00000E+00
 -1      2714 4.74000E+01 4.09070E+01 0.00000E+00
 -1      2715 4.89000E+01 4.09070E+01 0.00000E+00
 -1      2716 4.66500E+01 3.96080E+01 0.00000E+00
 -1      2717 5.04000E+01 4.09070E+01 0.00000E+00
 -1      2718 5.19000E+01 4.09070E+01 0.00000E+00
 -1      2719 4.96500E+01 3.96080E+01 0.00000E+00
 -1      2720 5.34000E+01 4.09070E+01 0.00000E+00
 -1      2721 5.49000E+01 4.09070E+01 0.00000E+00
 -1      2722 5.26500E+01 3.96080E+01 0.00000E+00
 -1      2723 5.64000E+01 4.09070E+01 0.00000E+00
 -1      2724 5.79000E+01 4.09070E+01 0.00000E+00
 -1      2725 5.56500E+01 3.96080E+01 0.00000E+00
 -1      2726 5.94000E+01 4.09070E+01 0.00000E+00
 -1      2727 6.09000E+01 4.09070E+01 0.00000E+00
 -1      2728 5.86500E+01 3.96080E+01 0.00000E+00
 -1      2729 6.24000E+01 4.09070E+01 0.00000E+00
 -1      2730 6.39000E+01 4.09070E+01 0.00000E+00
 -1      2731 6.16500E+01 3.96080E+01 0.00000E+00
 -1      2732 6.54000E+01 4.09070E+01 0.00000E+00
 -1      2733 6.69000E+01 4.09070E+01 0.00000E+00
 -1      2734 6.46500E+01 3.96080E+01 0.00000E+00
 -1      2735 6.84000E+01 4.09070E+01 0.00000E+00
 -1      2736 6.99000E+01 4.09070E+01 0.00000E+00
 -1      2737 6.76500E+01 3.96080E+01 0.00000E+00
 -1      2738 7.14000E+01 4.09070E+01 0.00000E+00
 -1      2739 7.29000E+01 4.09070E+01 0.00000E+00
 -1      2740 7.06500E+01 3.96080E+01 0.00000E+00
 -1      2741 7.44000E+01 4.09070E+01 0.00000E+00
 -1      2742 7.59000E+01 4.09070E+01 0.00000E+00
 -1      2743 7.36500E+01 3.96080E+01 0.00000E+00
 -1      2744 7.74000E+01 4.09070E+01 0.00000E+00
 -1      2745 7.89000E+01 4.09070E+01 0.00000E+00
 -1      2746 7.66500E+01 3.96080E+01 0.00000E+00
 -1      2747 8.04000E+01 4.09070E+01 0.00000E+00
 -1      2748 8.19000E+01 4.09070E+01 0.00000E+00
 -1      2749 7.96500E+01 3.96080E+01 0.00000E+00
 -1      2750 8.34000E+01 4.09070E+01 0.00000E+00
 -1      2751 8.49000E+01 4.09070E+01 0.00000E+00
 -1      2752 8.26500E+01 3.96080E+01 0.00000E+00
 -1      2753 8.64000E+01 4.09070E+01 0.00000E+00
 -1      2754 8.79000E+01 4.09070E+01 0.00000E+00
 -1      2755 8.56500E+01 3.96080E+01 0.00000E+00
 -1      2756 8.94000E+01 4.09070E+01 0.00000E+00
 -1      2757 9.09000E+01 4.09070E+01 0.00000E+00
 -1      2758 8.86500E+01 3.96080E+01 0.00000E+00
 -1      2759 9.24000E+01 4.09070E+01 0.00000E+00
 -1      2760 9.39000E+01 4.09070E+01 0.00000E+00
 -1      2761 9.16500E+01 3.96080E+01 0.00000E+00
 -1      2762 9.54000E+01 4.09070E+01 0.00000E+00
 -1      2763 9.69000E+01 4.09070E+01 0.00000E+00
 -1      2764 9.46500E+01 3.96080E+01 0.00000E+00
 -1      2765 9.84000E+01 4.09070E+01 0.00000E+00
 -1      2766 9.99000E+01 4.09070E+01 0.00000E+00
 -1      2767 9.76500E+01 3.96080E+01 0.00000E+00
 -1      2768 1.01400E+02 4.09070E+01 0.00000E+00
 -1      2769 1.02900E+02 4.09070E+01 0.00000E+00
 -1      2770 1.00650E+02 3.96080E+01 0.00000E+00
 -1      2771 1.04400E+02 4.09070E+01 0.00000E+00
 -1      2772 1.05900E+02 4.09070E+01 0.00000E+00
 -1      2773 1.03650E+02 3.96080E+01 0.00000E+00
 -1      2774 1.07400E+02 4.09070E+01 0.00000E+00
 -1      2775 1.08900E+02 4.09070E+01 0.00000E+00
 -1      2776 1.06650E+02 3.96080E+01 0.00000E+00
 -1      2777 1.10400E+02 4.09070E+01 0.00000E+00
 -1      2778 1.11900E+02 4.09070E+01 0.00000E+00
 -1      2779 1.09650E+02 3.96080E+01 0.00000E+00
 -1      2780 1.13400E+02 4.09070E+01 0.00000E+00
 -1      2781 1.14900E+02 4.09070E+01 0.00000E+00
 -1      2782 1.12650E+02 3.96080E+01 0.00000E+00
 -1      2783 1.16400E+02 4.09070E+01 0.00000E+00
 -1      2784 1.17900E+02 4.09070E+01 0.00000E+00
 -1      2785 1.15650E+02 3.96080E+01 0.00000E+00
 -1      2786 1.19400E+02 4.09070E+01 0.00000E+00
 -1      2787 1.20900E+02 4.09070E+01 0.00000E+00
 -1      2788 1.18650E+02 3.96080E+01 0.00000E+00
 -1      2789 1.25400E+02 4.10971E+01 0.00000E+00
 -1      2790 1.26900E+02 4.10971E+01 0.00000E+00
 -1      2791 1.28400E+02 4.10133E+01 0.00000E+00
 -1      2792 1.29900E+02 4.10133E+01 0.00000E+00
 -1      2793 1.31400E+02 4.10133E+01 0.00000E+00
 -1      2794 1.32900E+02 4.10133E+01 0.00000E+00
 -1      2795 1.30650E+02 3.98206E+01 0.00000E+00
 -1      2796 1.34400E+02 4.10133E+01 0.00000E+00
 -1      2797 1.35900E+02 4.10133E+01 0.00000E+00
 -1      2798 1.33650E+02 3.98206E+01 0.00000E+00
 -1      2799 1.37400E+02 4.10133E+01 0.00000E+00
 -1      2800 1.38900E+02 4.10133E+01 0.00000E+00
 -1      2801 1.36650E+02 3.98206E+01 0.00000E+00
 -1      2802 2.42850E+01 7.90325E+00 0.00000E+00
 -1      2803 2.27850E+01 7.90325E+00 0.00000E+00
 -1      2804 1.29545E+02 3.83981E+01 0.00000E+00
 -1      2805 1.28209E+02 3.86260E+01 0.00000E+00
 -1      2806 2.12850E+01 7.90325E+00 0.00000E+00
 -1      2807 1.97850E+01 7.90325E+00 0.00000E+00
 -1      2808 2.20350E+01 9.20225E+00 0.00000E+00
 -1      2809 3.02850E+01 7.90325E+00 0.00000E+00
 -1      2810 2.87850E+01 7.90325E+00 0.00000E+00
 -1      2811 3.32850E+01 7.90325E+00 0.00000E+00
 -1      2812 3.17850E+01 7.90325E+00 0.00000E+00
 -1      2813 3.10350E+01 9.20225E+00 0.00000E+00
 -1      2814 3.62850E+01 7.90325E+00 0.00000E+00
 -1      2815 3.47850E+01 7.90325E+00 0.00000E+00
 -1      2816 3.40350E+01 9.20225E+00 0.00000E+00
 -1      2817 3.92850E+01 7.90325E+00 0.00000E+00
 -1      2818 3.77850E+01 7.90325E+00 0.00000E+00
 -1      2819 3.70350E+01 9.20225E+00 0.00000E+00
 -1      2820 4.22850E+01 7.90325E+00 0.00000E+00
 -1      2821 4.07850E+01 7.90325E+00 0.00000E+00
 -1      2822 4.00350E+01 9.20225E+00 0.00000E+00
 -1      2823 4.52850E+01 7.90325E+00 0.00000E+00
 -1      2824 4.37850E+01 7.90325E+00 0.00000E+00
 -1      2825 4.30350E+01 9.20225E+00 0.00000E+00
 -1      2826 4.82850E+01 7.90325E+00 0.00000E+00
 -1      2827 4.67850E+01 7.90325E+00 0.00000E+00
 -1      2828 4.60350E+01 9.20225E+00 0.00000E+00
 -1      2829 5.12850E+01 7.90325E+00 0.00000E+00
 -1      2830 4.97850E+01 7.90325E+00 0.00000E+00
 -1      2831 4.90350E+01 9.20225E+00 0.00000E+00
 -1      2832 5.42850E+01 7.90325E+00 0.00000E+00
 -1      2833 5.27850E+01 7.90325E+00 0.00000E+00
 -1      2834 5.20350E+01 9.20225E+00 0.00000E+00
 -1      2835 5.72850E+01 7.90325E+00 0.00000E+00
 -1      2836 5.57850E+01 7.90325E+00 0.00000E+00
 -1      2837 5.50350E+01 9.20225E+00 0.00000E+00
 -1      2838 6.02850E+01 7.90325E+00 0.00000E+00
 -1      2839 5.87850E+01 7.90325E+00 0.00000E+00
 -1      2840 5.80350E+01 9.20225E+00 0.00000E+00
 -1      2841 6.32850E+01 7.90325E+00 0.00000E+00
 -1      2842 6.17850E+01 7.90325E+00 0.00000E+00
 -1      2843 6.10350E+01 9.20225E+00 0.00000E+00
 -1      2844 6.62850E+01 7.90325E+00 0.00000E+00
 -1      2845 6.47850E+01 7.90325E+00 0.00000E+00
 -1      2846 6.40350E+01 9.20225E+00 0.00000E+00
 -1      2847 6.92850E+01 7.90325E+00 0.00000E+00
 -1      2848 6.77850E+01 7.90325E+00 0.00000E+00
 -1      2849 6.70350E+01 9.20225E+00 0.00000E+00
 -1      2850 7.22850E+01 7.90325E+00 0.00000E+00
 -1      2851 7.07850E+01 7.90325E+00 0.00000E+00
 -1      2852 7.00350E+01 9.20225E+00 0.00000E+00
 -1      2853 7.52850E+01 7.90325E+00 0.00000E+00
 -1      2854 7.37850E+01 7.90325E+00 0.00000E+00
 -1      2855 7.30350E+01 9.20225E+00 0.00000E+00
 -1      2856 7.82850E+01 7.90325E+00 0.00000E+00
 -1      2857 7.67850E+01 7.90325E+00 0.00000E+00
 -1      2858 7.60350E+01 9.20225E+00 0.00000E+00
 -1      2859 8.12850E+01 7.90325E+00 0.00000E+00
 -1      2860 7.97850E+01 7.90325E+00 0.00000E+00
 -1      2861 7.90350E+01 9.20225E+00 0.00000E+00
 -1      2862 8.42850E+01 7.90325E+00 0.00000E+00
 -1      2863 8.27850E+01 7.90325E+00 0.00000E+00
 -1      2864 8.20350E+01 9.20225E+00 0.00000E+00
 -1      2865 8.72850E+01 7.90325E+00 0.00000E+00
 -1      2866 8.57850E+01 7.90325E+00 0.00000E+00
 -1      2867 8.50350E+01 9.20225E+00 0.00000E+00
 -1      2868 9.02850E+01 7.90325E+00 0.00000E+00
 -1      2869 8.87850E+01 7.90325E+00 0.00000E+00
 -1      2870 8.80350E+01 9.20225E+00 0.00000E+00
 -1      2871 9.32850E+01 7.90325E+00 0.00000E+00
 -1      2872 9.17850E+01 7.90325E+00 0.00000E+00
 -1      2873 9.10350E+01 9.20225E+00 0.00000E+00
 -1      2874 9.62850E+01 7.90325E+00 0.00000E+00
 -1      2875 9.47850E+01 7.90325E+00 0.00000E+00
 -1      2876 9.40350E+01 9.20225E+00 0.00000E+00
 -1      2877 9.92850E+01 7.90325E+00 0.00000E+00
 -1      2878 9.77850E+01 7.90325E+00 0.00000E+00
 -1      2879 9.70350E+01 9.20225E+00 0.00000E+00
 -1      2880 1.02285E+02 7.90325E+00 0.00000E+00
 -1      2881 1.00785E+02 7.90325E+00 0.00000E+00
 -1      2882 1.00035E+02 9.20225E+00 0.00000E+00
 -1      2883 1.05285E+02 7.90325E+00 0.00000E+00
 -1      2884 1.03785E+02 7.90325E+00 0.00000E+00
 -1      2885 1.03035E+02 9.20225E+00 0.00000E+00
 -1      2886 1.08285E+02 7.90325E+00 0.00000E+00
 -1      2887 1.06785E+02 7.90325E+00 0.00000E+00
 -1      2888 1.06035E+02 9.20225E+00 0.00000E+00
 -1      2889 1.11285E+02 7.90325E+00 0.00000E+00
 -1      2890 1.09785E+02 7.90325E+00 0.00000E+00
 -1      2891 1.09035E+02 9.20225E+00 0.00000E+00
 -1      2892 1.14285E+02 7.90325E+00 0.00000E+00
 -1      2893 1.12785E+02 7.90325E+00 0.00000E+00
 -1      2894 1.12035E+02 9.20225E+00 0.00000E+00
 -1      2895 1.17285E+02 7.90325E+00 0.00000E+00
 -1      2896 1.15785E+02 7.90325E+00 0.00000E+00
 -1      2897 1.15035E+02 9.20225E+00 0.00000E+00
 -1      2898 1.20285E+02 7.90325E+00 0.00000E+00
 -1      2899 1.18785E+02 7.90325E+00 0.00000E+00
 -1      2900 1.18035E+02 9.20225E+00 0.00000E+00
 -1      2901 1.23285E+02 7.90325E+00 0.00000E+00
 -1      2902 1.21785E+02 7.90325E+00 0.00000E+00
 -1      2903 1.21035E+02 9.20225E+00 0.00000E+00
 -1      2904 1.26285E+02 7.90325E+00 0.00000E+00
 -1      2905 1.24785E+02 7.90325E+00 0.00000E+00
 -1      2906 1.24035E+02 9.20225E+00 0.00000E+00
 -1      2907 1.29285E+02 7.90325E+00 0.00000E+00
 -1      2908 1.27785E+02 7.90325E+00 0.00000E+00
 -1      2909 1.27035E+02 9.20225E+00 0.00000E+00
 -1      2910 1.32285E+02 7.90325E+00 0.00000E+00
 -1      2911 1.30785E+02 7.90325E+00 0.00000E+00
 -1      2912 1.30035E+02 9.20225E+00 0.00000E+00
 -1      2913 1.35285E+02 7.90325E+00 0.00000E+00
 -1      2914 1.33785E+02 7.90325E+00 0.00000E+00
 -1      2915 1.33035E+02 9.20225E+00 0.00000E+00
 -1      2916 1.38285E+02 7.90325E+00 0.00000E+00
 -1      2917 1.36785E+02 7.90325E+00 0.00000E+00
 -1      2918 1.36035E+02 9.20225E+00 0.00000E+00
 -1      2919 1.40953E+02 8.18394E+00 0.00000E+00
 -1      2920 1.39453E+02 8.18394E+00 0.00000E+00
 -1      2921 1.38703E+02 9.48294E+00 0.00000E+00
 -1      2922 1.41038E+02 1.00443E+01 0.00000E+00
 -1      2923 1.41181E+02 2.42875E+01 0.00000E+00
 -1      2924 1.41181E+02 2.28125E+01 0.00000E+00
 -1      2925 1.39914E+02 4.09894E+01 0.00000E+00
 -1      2926 1.40928E+02 4.10187E+01 0.00000E+00
 -1      2927 1.41192E+02 3.97489E+01 0.00000E+00
 -1      2928 1.39164E+02 3.97967E+01 0.00000E+00
 -1      2929 1.40930E+02 1.83875E+01 0.00000E+00
 -1      2930 1.40930E+02 1.69125E+01 0.00000E+00
 -1      2931 1.40880E+02 2.71363E+01 0.00000E+00
 -1      2932 1.40880E+02 2.56613E+01 0.00000E+00
 -1      2933 1.40733E+02 2.14221E+01 0.00000E+00
 -1      2934 1.40733E+02 1.99471E+01 0.00000E+00
 -1      2935 8.91450E+00 8.42712E+00 0.00000E+00
 -1      2936 1.41097E+02 3.01500E+01 0.00000E+00
 -1      2937 1.41097E+02 2.87000E+01 0.00000E+00
 -1      2938 1.41097E+02 3.31000E+01 0.00000E+00
 -1      2939 1.41097E+02 3.16250E+01 0.00000E+00
 -1      2940 1.39988E+02 3.09000E+01 0.00000E+00
 -1      2941 1.41097E+02 3.60500E+01 0.00000E+00
 -1      2942 1.41097E+02 3.45750E+01 0.00000E+00
 -1      2943 1.39988E+02 3.38500E+01 0.00000E+00
 -1      2944 1.41145E+02 3.86370E+01 0.00000E+00
 -1      2945 1.41145E+02 3.71619E+01 0.00000E+00
 -1      2946 1.40036E+02 3.64370E+01 0.00000E+00
 -1      2947 1.40131E+02 3.86609E+01 0.00000E+00
 -1      2948 1.37948E+02 3.05163E+01 0.00000E+00
 -1      2949 1.37590E+02 3.15083E+01 0.00000E+00
 -1      2950 1.39229E+02 2.85642E+01 0.00000E+00
 -1      2951 1.38654E+02 2.95772E+01 0.00000E+00
 -1      2952 1.22114E+02 1.45370E+01 0.00000E+00
 -1      2953 1.23428E+02 1.41395E+01 0.00000E+00
 -1      2954 9.32250E+00 4.05749E+01 0.00000E+00
 -1      2955 1.06860E+01 4.08389E+01 0.00000E+00
 -1      2956 1.21860E+01 4.08389E+01 0.00000E+00
 -1      2957 9.25800E+00 3.81046E+01 0.00000E+00
 -1      2958 1.15005E+02 2.71016E+01 0.00000E+00
 -1      2959 1.14958E+02 2.58944E+01 0.00000E+00
 -1      2960 1.19680E+02 3.57359E+01 0.00000E+00
 -1      2961 1.18841E+02 3.52033E+01 0.00000E+00
 -1      2962 1.82850E+01 7.90325E+00 0.00000E+00
 -1      2963 1.67850E+01 7.90325E+00 0.00000E+00
 -1      2964 1.60350E+01 9.20225E+00 0.00000E+00
 -1      2965 1.90350E+01 9.20225E+00 0.00000E+00
 -1      2966 1.38881E+02 2.31391E+01 0.00000E+00
 -1      2967 1.39106E+02 2.41128E+01 0.00000E+00
 -1      2968 2.72850E+01 7.90325E+00 0.00000E+00
 -1      2969 2.57850E+01 7.90325E+00 0.00000E+00
 -1      2970 2.50350E+01 9.20225E+00 0.00000E+00
 -1      2971 2.80350E+01 9.20225E+00 0.00000E+00
 -1      2972 1.18188E+02 1.70172E+01 0.00000E+00
 -1      2973 1.18833E+02 1.63749E+01 0.00000E+00
 -1      2974 1.32395E+02 1.49016E+01 0.00000E+00
 -1      2975 1.33638E+02 1.55277E+01 0.00000E+00
 -1      2976 1.33622E+02 3.63914E+01 0.00000E+00
 -1      2977 1.32664E+02 3.68965E+01 0.00000E+00
 -1      2978 9.09300E+00 1.68813E+01 0.00000E+00
 -1      2979 9.09300E+00 1.83563E+01 0.00000E+00
 -1      2980 1.03920E+01 1.90812E+01 0.00000E+00
 -1      2981 1.03920E+01 1.61437E+01 0.00000E+00
 -1      2982 9.09300E+00 3.15875E+01 0.00000E+00
 -1      2983 9.09300E+00 3.30625E+01 0.00000E+00
 -1      2984 1.14853E+02 2.46656E+01 0.00000E+00
 -1      2985 1.14859E+02 2.34845E+01 0.00000E+00
 -1      2986 1.15463E+02 2.96705E+01 0.00000E+00
 -1      2987 1.15138E+02 2.84922E+01 0.00000E+00
 -1      2988 1.19699E+02 1.57440E+01 0.00000E+00
 -1      2989 1.20566E+02 1.51132E+01 0.00000E+00
 -1      2990 1.18535E+02 1.52206E+01 0.00000E+00
 -1      2991 1.26448E+02 3.81772E+01 0.00000E+00
 -1      2992 1.25057E+02 3.79721E+01 0.00000E+00
 -1      2993 1.15486E+02 2.18714E+01 0.00000E+00
 -1      2994 1.16306E+02 2.08216E+01 0.00000E+00
 -1      2995 1.16205E+02 3.19589E+01 0.00000E+00
 -1      2996 1.15748E+02 3.09578E+01 0.00000E+00
 -1      2997 1.36496E+02 1.85258E+01 0.00000E+00
 -1      2998 1.37119E+02 1.93746E+01 0.00000E+00
 -1      2999 1.17895E+02 3.40922E+01 0.00000E+00
 -1      3000 1.17093E+02 3.30734E+01 0.00000E+00
 -1      3001 1.23684E+02 3.79232E+01 0.00000E+00
 -1      3002 1.22777E+02 3.76222E+01 0.00000E+00
 -1      3003 1.35719E+02 3.44053E+01 0.00000E+00
 -1      3004 1.34759E+02 3.54025E+01 0.00000E+00
 -1      3005 1.31948E+02 3.80685E+01 0.00000E+00
 -1      3006 1.31045E+02 3.83981E+01 0.00000E+00
 -1      3007 1.37142E+02 3.26201E+01 0.00000E+00
 -1      3008 1.36630E+02 3.34194E+01 0.00000E+00
 -1      3009 1.35011E+02 1.65150E+01 0.00000E+00
 -1      3010 1.35821E+02 1.75159E+01 0.00000E+00
 -1      3011 9.09300E+00 3.45313E+01 0.00000E+00
 -1      3012 9.09300E+00 3.60000E+01 0.00000E+00
 -1      3013 1.03920E+01 3.37938E+01 0.00000E+00
 -1      3014 1.32866E+02 3.86486E+01 0.00000E+00
 -1      3015 1.03920E+01 2.49750E+01 0.00000E+00
 -1      3016 9.09300E+00 2.57000E+01 0.00000E+00
 -1      3017 9.09300E+00 2.71750E+01 0.00000E+00
 -1      3018 1.39708E+02 2.21596E+01 0.00000E+00
 -1      3019 1.14103E+02 2.52995E+01 0.00000E+00
 -1      3020 1.36768E+02 3.45128E+01 0.00000E+00
 -1      3021 1.24254E+02 3.88741E+01 0.00000E+00
 -1      3022 1.17766E+02 3.52242E+01 0.00000E+00
 -1      3023 1.38380E+02 1.96062E+01 0.00000E+00
 -1      3024 1.36823E+02 1.74333E+01 0.00000E+00
 -1      3025 1.27650E+02 3.99044E+01 0.00000E+00
 -1      3026 1.15932E+02 3.29986E+01 0.00000E+00
 -1      3027 1.21516E+02 3.92166E+01 0.00000E+00
 -1      3028 1.22266E+02 4.05156E+01 0.00000E+00
 -1      3029 1.23766E+02 4.05156E+01 0.00000E+00
 -1      3030 1.39653E+02 1.61875E+01 0.00000E+00
 -1      3031 1.40930E+02 1.54500E+01 0.00000E+00
 -1      3032 1.40930E+02 1.39875E+01 0.00000E+00
 -1      3033 1.17377E+02 1.73049E+01 0.00000E+00
 -1      3034 1.39854E+02 2.49238E+01 0.00000E+00
 -1      3035 1.14626E+02 2.24576E+01 0.00000E+00
 -1      3036 1.14393E+02 2.14307E+01 0.00000E+00
 -1      3037 1.13765E+02 2.30438E+01 0.00000E+00
 -1      3038 1.38127E+02 3.24151E+01 0.00000E+00
 -1      3039 1.40984E+02 1.27472E+01 0.00000E+00
 -1      3040 1.40984E+02 1.12847E+01 0.00000E+00
 -1      3041 1.39816E+02 1.10040E+01 0.00000E+00
 -1      3042 1.39707E+02 1.34847E+01 0.00000E+00
 -1      3043 9.66450E+00 9.72612E+00 0.00000E+00
 -1      3044 1.14759E+02 3.05968E+01 0.00000E+00
 -1      3045 1.34719E+02 3.64877E+01 0.00000E+00
 -1      3046 1.23142E+02 1.28211E+01 0.00000E+00
 -1      3047 1.24071E+02 1.35233E+01 0.00000E+00
 -1      3048 1.24715E+02 1.29072E+01 0.00000E+00
 -1      3049 1.29360E+01 3.95399E+01 0.00000E+00
 -1      3050 1.20950E+02 1.40135E+01 0.00000E+00
 -1      3051 1.27922E+02 1.40166E+01 0.00000E+00
 -1      3052 1.28938E+02 1.41071E+01 0.00000E+00
 -1      3053 1.31539E+02 1.43458E+01 0.00000E+00
 -1      3054 1.32547E+02 1.38930E+01 0.00000E+00
 -1      3055 1.14341E+02 2.79189E+01 0.00000E+00
 -1      3056 9.09300E+00 2.86437E+01 0.00000E+00
 -1      3057 9.09300E+00 3.01187E+01 0.00000E+00
 -1      3058 1.03920E+01 3.08563E+01 0.00000E+00
 -1      3059 1.03920E+01 2.79188E+01 0.00000E+00
 -1      3060 1.34539E+02 1.43570E+01 0.00000E+00
 -1      3061 1.34775E+02 1.54360E+01 0.00000E+00
 -1      3062 1.35911E+02 1.53444E+01 0.00000E+00
 -1      3063 1.16169E+02 1.98015E+01 0.00000E+00
 -1      3064 1.29731E+02 1.41812E+01 0.00000E+00
 -1      3065 1.30747E+02 1.42717E+01 0.00000E+00
 -1      3066 1.30899E+02 1.32631E+01 0.00000E+00
 -1      3067 1.29314E+02 1.31149E+01 0.00000E+00
 -1      3068 1.21617E+02 3.69641E+01 0.00000E+00
 -1      3069 1.20606E+02 3.63228E+01 0.00000E+00
 -1      3070 1.09635E+01 1.04636E+01 0.00000E+00
 -1      3071 1.27083E+02 1.33251E+01 0.00000E+00
 -1      3072 1.21722E+02 3.81672E+01 0.00000E+00
 -1      3073 1.19637E+02 3.69222E+01 0.00000E+00
 -1      3074 1.13819E+02 3.14804E+01 0.00000E+00
 -1      3075 1.13534E+02 3.01931E+01 0.00000E+00
 -1      3076 1.16910E+01 1.24625E+01 0.00000E+00
 -1      3077 1.16910E+01 1.39375E+01 0.00000E+00
 -1      3078 1.13301E+02 2.59868E+01 0.00000E+00
 -1      3079 1.13196E+02 2.47580E+01 0.00000E+00
 -1      3080 1.34366E+02 3.86486E+01 0.00000E+00
 -1      3081 1.20356E+02 3.85586E+01 0.00000E+00
 -1      3082 1.89000E+01 3.83090E+01 0.00000E+00
 -1      3083 2.04000E+01 3.83090E+01 0.00000E+00
 -1      3084 2.19000E+01 3.83090E+01 0.00000E+00
 -1      3085 2.34000E+01 3.83090E+01 0.00000E+00
 -1      3086 2.11500E+01 3.70100E+01 0.00000E+00
 -1      3087 2.49000E+01 3.83090E+01 0.00000E+00
 -1      3088 2.64000E+01 3.83090E+01 0.00000E+00
 -1      3089 2.41500E+01 3.70100E+01 0.00000E+00
 -1      3090 2.79000E+01 3.83090E+01 0.00000E+00
 -1      3091 2.94000E+01 3.83090E+01 0.00000E+00
 -1      3092 2.71500E+01 3.70100E+01 0.00000E+00
 -1      3093 3.09000E+01 3.83090E+01 0.00000E+00
 -1      3094 3.24000E+01 3.83090E+01 0.00000E+00
 -1      3095 3.01500E+01 3.70100E+01 0.00000E+00
 -1      3096 3.39000E+01 3.83090E+01 0.00000E+00
 -1      3097 3.54000E+01 3.83090E+01 0.00000E+00
 -1      3098 3.31500E+01 3.70100E+01 0.00000E+00
 -1      3099 3.69000E+01 3.83090E+01 0.00000E+00
 -1      3100 3.84000E+01 3.83090E+01 0.00000E+00
 -1      3101 3.61500E+01 3.70100E+01 0.00000E+00
 -1      3102 3.99000E+01 3.83090E+01 0.00000E+00
 -1      3103 4.14000E+01 3.83090E+01 0.00000E+00
 -1      3104 3.91500E+01 3.70100E+01 0.00000E+00
 -1      3105 4.29000E+01 3.83090E+01 0.00000E+00
 -1      3106 4.44000E+01 3.83090E+01 0.00000E+00
 -1      3107 4.21500E+01 3.70100E+01 0.00000E+00
 -1      3108 4.59000E+01 3.83090E+01 0.00000E+00
 -1      3109 4.74000E+01 3.83090E+01 0.00000E+00
 -1      3110 4.51500E+01 3.70100E+01 0.00000E+00
 -1      3111 4.89000E+01 3.83090E+01 0.00000E+00
 -1      3112 5.04000E+01 3.83090E+01 0.00000E+00
 -1      3113 4.81500E+01 3.70100E+01 0.00000E+00
 -1      3114 5.19000E+01 3.83090E+01 0.00000E+00
 -1      3115 5.34000E+01 3.83090E+01 0.00000E+00
 -1      3116 5.11500E+01 3.70100E+01 0.00000E+00
 -1      3117 5.49000E+01 3.83090E+01 0.00000E+00
 -1      3118 5.64000E+01 3.83090E+01 0.00000E+00
 -1      3119 5.41500E+01 3.70100E+01 0.00000E+00
 -1      3120 5.79000E+01 3.83090E+01 0.00000E+00
 -1      3121 5.94000E+01 3.83090E+01 0.00000E+00
 -1      3122 5.71500E+01 3.70100E+01 0.00000E+00
 -1      3123 6.09000E+01 3.83090E+01 0.00000E+00
 -1      3124 6.24000E+01 3.83090E+01 0.00000E+00
 -1      3125 6.01500E+01 3.70100E+01 0.00000E+00
 -1      3126 6.39000E+01 3.83090E+01 0.00000E+00
 -1      3127 6.54000E+01 3.83090E+01 0.00000E+00
 -1      3128 6.31500E+01 3.70100E+01 0.00000E+00
 -1      3129 6.69000E+01 3.83090E+01 0.00000E+00
 -1      3130 6.84000E+01 3.83090E+01 0.00000E+00
 -1      3131 6.61500E+01 3.70100E+01 0.00000E+00
 -1      3132 6.99000E+01 3.83090E+01 0.00000E+00
 -1      3133 7.14000E+01 3.83090E+01 0.00000E+00
 -1      3134 6.91500E+01 3.70100E+01 0.00000E+00
 -1      3135 7.29000E+01 3.83090E+01 0.00000E+00
 -1      3136 7.44000E+01 3.83090E+01 0.00000E+00
 -1      3137 7.21500E+01 3.70100E+01 0.00000E+00
 -1      3138 7.59000E+01 3.83090E+01 0.00000E+00
 -1      3139 7.74000E+01 3.83090E+01 0.00000E+00
 -1      3140 7.51500E+01 3.70100E+01 0.00000E+00
 -1      3141 7.89000E+01 3.83090E+01 0.00000E+00
 -1      3142 8.04000E+01 3.83090E+01 0.00000E+00
 -1      3143 7.81500E+01 3.70100E+01 0.00000E+00
 -1      3144 8.19000E+01 3.83090E+01 0.00000E+00
 -1      3145 8.34000E+01 3.83090E+01 0.00000E+00
 -1      3146 8.11500E+01 3.70100E+01 0.00000E+00
 -1      3147 8.49000E+01 3.83090E+01 0.00000E+00
 -1      3148 8.64000E+01 3.83090E+01 0.00000E+00
 -1      3149 8.41500E+01 3.70100E+01 0.00000E+00
 -1      3150 8.79000E+01 3.83090E+01 0.00000E+00
 -1      3151 8.94000E+01 3.83090E+01 0.00000E+00
 -1      3152 8.71500E+01 3.70100E+01 0.00000E+00
 -1      3153 9.09000E+01 3.83090E+01 0.00000E+00
 -1      3154 9.24000E+01 3.83090E+01 0.00000E+00
 -1      3155 9.01500E+01 3.70100E+01 0.00000E+00
 -1      3156 9.39000E+01 3.83090E+01 0.00000E+00
 -1      3157 9.54000E+01 3.83090E+01 0.00000E+00
 -1      3158 9.31500E+01 3.70100E+01 0.00000E+00
 -1      3159 9.69000E+01 3.83090E+01 0.00000E+00
 -1      3160 9.84000E+01 3.83090E+01 0.00000E+00
 -1      3161 9.61500E+01 3.70100E+01 0.00000E+00
 -1      3162 9.99000E+01 3.83090E+01 0.00000E+00
 -1      3163 1.01400E+02 3.83090E+01 0.00000E+00
 -1      3164 9.91500E+01 3.70100E+01 0.00000E+00
 -1      3165 1.02900E+02 3.83090E+01 0.00000E+00
 -1      3166 1.04400E+02 3.83090E+01 0.00000E+00
 -1      3167 1.02150E+02 3.70100E+01 0.00000E+00
 -1      3168 1.05900E+02 3.83090E+01 0.00000E+00
 -1      3169 1.07400E+02 3.83090E+01 0.00000E+00
 -1      3170 1.05150E+02 3.70100E+01 0.00000E+00
 -1      3171 1.08900E+02 3.83090E+01 0.00000E+00
 -1      3172 1.10400E+02 3.83090E+01 0.00000E+00
 -1      3173 1.08150E+02 3.70100E+01 0.00000E+00
 -1      3174 1.11900E+02 3.83090E+01 0.00000E+00
 -1      3175 1.13400E+02 3.83090E+01 0.00000E+00
 -1      3176 1.11150E+02 3.70100E+01 0.00000E+00
 -1      3177 1.17394E+02 3.64984E+01 0.00000E+00
 -1      3178 1.16449E+02 3.53873E+01 0.00000E+00
 -1      3179 1.19040E+02 3.87898E+01 0.00000E+00
 -1      3180 1.19247E+02 3.77404E+01 0.00000E+00
 -1      3181 1.18321E+02 3.71535E+01 0.00000E+00
 -1      3182 1.17540E+02 3.87898E+01 0.00000E+00
 -1      3183 1.27389E+02 3.93718E+01 0.00000E+00
 -1      3184 3.47850E+01 1.05013E+01 0.00000E+00
 -1      3185 3.32850E+01 1.05013E+01 0.00000E+00
 -1      3186 3.17850E+01 1.05013E+01 0.00000E+00
 -1      3187 3.02850E+01 1.05013E+01 0.00000E+00
 -1      3188 3.25350E+01 1.18003E+01 0.00000E+00
 -1      3189 4.07850E+01 1.05013E+01 0.00000E+00
 -1      3190 3.92850E+01 1.05013E+01 0.00000E+00
 -1      3191 4.37850E+01 1.05013E+01 0.00000E+00
 -1      3192 4.22850E+01 1.05013E+01 0.00000E+00
 -1      3193 4.15350E+01 1.18003E+01 0.00000E+00
 -1      3194 4.67850E+01 1.05013E+01 0.00000E+00
 -1      3195 4.52850E+01 1.05013E+01 0.00000E+00
 -1      3196 4.45350E+01 1.18003E+01 0.00000E+00
 -1      3197 4.97850E+01 1.05013E+01 0.00000E+00
 -1      3198 4.82850E+01 1.05013E+01 0.00000E+00
 -1      3199 4.75350E+01 1.18003E+01 0.00000E+00
 -1      3200 5.27850E+01 1.05013E+01 0.00000E+00
 -1      3201 5.12850E+01 1.05013E+01 0.00000E+00
 -1      3202 5.05350E+01 1.18003E+01 0.00000E+00
 -1      3203 5.57850E+01 1.05013E+01 0.00000E+00
 -1      3204 5.42850E+01 1.05013E+01 0.00000E+00
 -1      3205 5.35350E+01 1.18003E+01 0.00000E+00
 -1      3206 5.87850E+01 1.05013E+01 0.00000E+00
 -1      3207 5.72850E+01 1.05013E+01 0.00000E+00
 -1      3208 5.65350E+01 1.18003E+01 0.00000E+00
 -1      3209 6.17850E+01 1.05013E+01 0.00000E+00
 -1      3210 6.02850E+01 1.05013E+01 0.00000E+00
 -1      3211 5.95350E+01 1.18003E+01 0.00000E+00
 -1      3212 6.47850E+01 1.05013E+01 0.00000E+00
 -1      3213 6.32850E+01 1.05013E+01 0.00000E+00
 -1      3214 6.25350E+01 1.18003E+01 0.00000E+00
 -1      3215 6.77850E+01 1.05013E+01 0.00000E+00
 -1      3216 6.62850E+01 1.05013E+01 0.00000E+00
 -1      3217 6.55350E+01 1.18003E+01 0.00000E+00
 -1      3218 7.07850E+01 1.05013E+01 0.00000E+00
 -1      3219 6.92850E+01 1.05013E+01 0.00000E+00
 -1      3220 6.85350E+01 1.18003E+01 0.00000E+00
 -1      3221 7.37850E+01 1.05013E+01 0.00000E+00
 -1      3222 7.22850E+01 1.05013E+01 0.00000E+00
 -1      3223 7.15350E+01 1.18003E+01 0.00000E+00
 -1      3224 7.67850E+01 1.05013E+01 0.00000E+00
 -1      3225 7.52850E+01 1.05013E+01 0.00000E+00
 -1      3226 7.45350E+01 1.18003E+01 0.00000E+00
 -1      3227 7.97850E+01 1.05013E+01 0.00000E+00
 -1      3228 7.82850E+01 1.05013E+01 0.00000E+00
 -1      3229 7.75350E+01 1.18003E+01 0.00000E+00
 -1      3230 8.27850E+01 1.05013E+01 0.00000E+00
 -1      3231 8.12850E+01 1.05013E+01 0.00000E+00
 -1      3232 8.05350E+01 1.18003E+01 0.00000E+00
 -1      3233 8.57850E+01 1.05013E+01 0.00000E+00
 -1      3234 8.42850E+01 1.05013E+01 0.00000E+00
 -1      3235 8.35350E+01 1.18003E+01 0.00000E+00
 -1      3236 8.87850E+01 1.05013E+01 0.00000E+00
 -1      3237 8.72850E+01 1.05013E+01 0.00000E+00
 -1      3238 8.65350E+01 1.18003E+01 0.00000E+00
 -1      3239 9.17850E+01 1.05013E+01 0.00000E+00
 -1      3240 9.02850E+01 1.05013E+01 0.00000E+00
 -1      3241 8.95350E+01 1.18003E+01 0.00000E+00
 -1      3242 9.47850E+01 1.05013E+01 0.00000E+00
 -1      3243 9.32850E+01 1.05013E+01 0.00000E+00
 -1      3244 9.25350E+01 1.18003E+01 0.00000E+00
 -1      3245 9.77850E+01 1.05013E+01 0.00000E+00
 -1      3246 9.62850E+01 1.05013E+01 0.00000E+00
 -1      3247 9.55350E+01 1.18003E+01 0.00000E+00
 -1      3248 1.00785E+02 1.05013E+01 0.00000E+00
 -1      3249 9.92850E+01 1.05013E+01 0.00000E+00
 -1      3250 9.85350E+01 1.18003E+01 0.00000E+00
 -1      3251 1.03785E+02 1.05013E+01 0.00000E+00
 -1      3252 1.02285E+02 1.05013E+01 0.00000E+00
 -1      3253 1.01535E+02 1.18003E+01 0.00000E+00
 -1      3254 1.06785E+02 1.05013E+01 0.00000E+00
 -1      3255 1.05285E+02 1.05013E+01 0.00000E+00
 -1      3256 1.04535E+02 1.18003E+01 0.00000E+00
 -1      3257 1.09785E+02 1.05013E+01 0.00000E+00
 -1      3258 1.08285E+02 1.05013E+01 0.00000E+00
 -1      3259 1.07535E+02 1.18003E+01 0.00000E+00
 -1      3260 1.12785E+02 1.05013E+01 0.00000E+00
 -1      3261 1.11285E+02 1.05013E+01 0.00000E+00
 -1      3262 1.10535E+02 1.18003E+01 0.00000E+00
 -1      3263 1.15785E+02 1.05013E+01 0.00000E+00
 -1      3264 1.14285E+02 1.05013E+01 0.00000E+00
 -1      3265 1.13535E+02 1.18003E+01 0.00000E+00
 -1      3266 1.18785E+02 1.05013E+01 0.00000E+00
 -1      3267 1.17285E+02 1.05013E+01 0.00000E+00
 -1      3268 1.16535E+02 1.18003E+01 0.00000E+00
 -1      3269 1.24660E+02 1.07036E+01 0.00000E+00
 -1      3270 1.23160E+02 1.07036E+01 0.00000E+00
 -1      3271 1.28528E+02 1.11215E+01 0.00000E+00
 -1      3272 1.27028E+02 1.11215E+01 0.00000E+00
 -1      3273 1.30028E+02 1.11215E+01 0.00000E+00
 -1      3274 1.33785E+02 1.03949E+01 0.00000E+00
 -1      3275 1.32285E+02 1.03949E+01 0.00000E+00
 -1      3276 1.36785E+02 1.03949E+01 0.00000E+00
 -1      3277 1.35285E+02 1.03949E+01 0.00000E+00
 -1      3278 1.34535E+02 1.15876E+01 0.00000E+00
 -1      3279 1.38884E+02 1.08398E+01 0.00000E+00
 -1      3280 1.37717E+02 1.05591E+01 0.00000E+00
 -1      3281 1.36967E+02 1.17518E+01 0.00000E+00
 -1      3282 1.38830E+02 1.20801E+01 0.00000E+00
 -1      3283 1.39117E+02 3.86848E+01 0.00000E+00
 -1      3284 1.16910E+01 2.12875E+01 0.00000E+00
 -1      3285 1.16910E+01 2.27625E+01 0.00000E+00
 -1      3286 1.39771E+02 2.78613E+01 0.00000E+00
 -1      3287 1.39457E+02 1.92096E+01 0.00000E+00
 -1      3288 1.39282E+02 3.03641E+01 0.00000E+00
 -1      3289 1.39282E+02 3.18391E+01 0.00000E+00
 -1      3290 1.17400E+02 1.45717E+01 0.00000E+00
 -1      3291 1.18267E+02 1.39408E+01 0.00000E+00
 -1      3292 1.59000E+01 3.83090E+01 0.00000E+00
 -1      3293 1.74000E+01 3.83090E+01 0.00000E+00
 -1      3294 1.81500E+01 3.70100E+01 0.00000E+00
 -1      3295 1.38834E+02 3.29509E+01 0.00000E+00
 -1      3296 1.05570E+01 3.73671E+01 0.00000E+00
 -1      3297 1.38576E+02 1.80466E+01 0.00000E+00
 -1      3298 3.77850E+01 1.05013E+01 0.00000E+00
 -1      3299 3.62850E+01 1.05013E+01 0.00000E+00
 -1      3300 3.55350E+01 1.18003E+01 0.00000E+00
 -1      3301 3.85350E+01 1.18003E+01 0.00000E+00
 -1      3302 2.27850E+01 1.05013E+01 0.00000E+00
 -1      3303 2.12850E+01 1.05013E+01 0.00000E+00
 -1      3304 1.21215E+01 3.78040E+01 0.00000E+00
 -1      3305 1.43355E+01 3.78721E+01 0.00000E+00
 -1      3306 1.50855E+01 3.65731E+01 0.00000E+00
 -1      3307 1.19565E+01 3.56994E+01 0.00000E+00
 -1      3308 1.16144E+02 1.78134E+01 0.00000E+00
 -1      3309 1.16435E+02 1.63599E+01 0.00000E+00
 -1      3310 1.32363E+02 1.24624E+01 0.00000E+00
 -1      3311 1.33219E+02 1.30182E+01 0.00000E+00
 -1      3312 1.13387E+02 2.87116E+01 0.00000E+00
 -1      3313 1.13254E+02 2.73210E+01 0.00000E+00
 -1      3314 1.38038E+02 3.47724E+01 0.00000E+00
 -1      3315 1.37127E+02 3.57584E+01 0.00000E+00
 -1      3316 1.26488E+01 1.02017E+01 0.00000E+00
 -1      3317 1.20772E+01 1.14631E+01 0.00000E+00
 -1      3318 1.33763E+01 1.22006E+01 0.00000E+00
 -1      3319 1.41488E+01 1.02017E+01 0.00000E+00
 -1      3320 1.36315E+02 3.67090E+01 0.00000E+00
 -1      3321 1.35178E+02 3.76980E+01 0.00000E+00
 -1      3322 1.35962E+02 3.88700E+01 0.00000E+00
 -1      3323 1.37585E+02 3.69687E+01 0.00000E+00
 -1      3324 1.36906E+02 1.61905E+01 0.00000E+00
 -1      3325 1.37582E+02 1.72004E+01 0.00000E+00
 -1      3326 1.38659E+02 1.68039E+01 0.00000E+00
 -1      3327 1.36670E+02 1.51115E+01 0.00000E+00
 -1      3328 1.15561E+02 3.42729E+01 0.00000E+00
 -1      3329 1.14673E+02 3.31584E+01 0.00000E+00
 -1      3330 1.15189E+02 3.55471E+01 0.00000E+00
 -1      3331 1.19723E+02 1.30842E+01 0.00000E+00
 -1      3332 1.21271E+02 1.25080E+01 0.00000E+00
 -1      3333 1.14312E+02 1.98995E+01 0.00000E+00
 -1      3334 1.15228E+02 1.88565E+01 0.00000E+00
 -1      3335 1.14287E+02 1.79115E+01 0.00000E+00
 -1      3336 1.38834E+02 3.44259E+01 0.00000E+00
 -1      3337 1.39193E+02 3.56715E+01 0.00000E+00
 -1      3338 1.16910E+01 2.42375E+01 0.00000E+00
 -1      3339 1.16910E+01 2.57125E+01 0.00000E+00
 -1      3340 1.29900E+01 2.35000E+01 0.00000E+00
 -1      3341 1.29900E+01 1.46687E+01 0.00000E+00
 -1      3342 1.16910E+01 1.54063E+01 0.00000E+00
 -1      3343 1.16910E+01 1.68750E+01 0.00000E+00
 -1      3344 1.12161E+02 2.44185E+01 0.00000E+00
 -1      3345 1.12963E+02 2.37312E+01 0.00000E+00
 -1      3346 1.12730E+02 2.27043E+01 0.00000E+00
 -1      3347 1.25139E+02 4.05645E+01 0.00000E+00
 -1      3348 1.14363E+02 3.68358E+01 0.00000E+00
 -1      3349 1.15113E+02 3.81348E+01 0.00000E+00
 -1      3350 1.17004E+02 3.73166E+01 0.00000E+00
 -1      3351 1.16613E+02 3.81348E+01 0.00000E+00
 -1      3352 1.38659E+02 1.53413E+01 0.00000E+00
 -1      3353 1.37462E+02 3.88700E+01 0.00000E+00
 -1      3354 2.42850E+01 1.05013E+01 0.00000E+00
 -1      3355 2.35350E+01 1.18003E+01 0.00000E+00
 -1      3356 2.57850E+01 1.05013E+01 0.00000E+00
 -1      3357 1.19565E+01 3.27619E+01 0.00000E+00
 -1      3358 1.19565E+01 3.42306E+01 0.00000E+00
 -1      3359 1.35210E+01 3.46675E+01 0.00000E+00
 -1      3360 2.95350E+01 1.18003E+01 0.00000E+00
 -1      3361 2.87850E+01 1.05013E+01 0.00000E+00
 -1      3362 2.72850E+01 1.05013E+01 0.00000E+00
 -1      3363 1.19789E+02 1.03905E+01 0.00000E+00
 -1      3364 1.19039E+02 1.16895E+01 0.00000E+00
 -1      3365 1.21289E+02 1.03905E+01 0.00000E+00
 -1      3366 1.26153E+02 1.26229E+01 0.00000E+00
 -1      3367 1.30778E+02 1.23142E+01 0.00000E+00
 -1      3368 1.16910E+01 1.98188E+01 0.00000E+00
 -1      3369 1.29900E+01 2.05562E+01 0.00000E+00
 -1      3370 1.16910E+01 1.83500E+01 0.00000E+00
 -1      3371 1.19565E+01 3.12931E+01 0.00000E+00
 -1      3372 1.35210E+01 3.17300E+01 0.00000E+00
 -1      3373 1.19565E+01 2.98244E+01 0.00000E+00
 -1      3374 1.39240E+02 3.67835E+01 0.00000E+00
 -1      3375 1.16167E+02 1.50802E+01 0.00000E+00
 -1      3376 1.56488E+01 1.02017E+01 0.00000E+00
 -1      3377 1.52625E+01 1.12011E+01 0.00000E+00
 -1      3378 1.71488E+01 1.02017E+01 0.00000E+00
 -1      3379 1.99669E+01 1.03515E+01 0.00000E+00
 -1      3380 1.84669E+01 1.03515E+01 0.00000E+00
 -1      3381 1.80806E+01 1.13509E+01 0.00000E+00
 -1      3382 2.07169E+01 1.16505E+01 0.00000E+00
 -1      3383 1.12447E+02 2.95952E+01 0.00000E+00
 -1      3384 1.13447E+02 3.27547E+01 0.00000E+00
 -1      3385 1.12222E+02 3.23509E+01 0.00000E+00
 -1      3386 1.13076E+02 3.40289E+01 0.00000E+00
 -1      3387 1.34719E+02 1.30182E+01 0.00000E+00
 -1      3388 1.12347E+02 2.67795E+01 0.00000E+00
 -1      3389 1.38428E+02 3.77341E+01 0.00000E+00
 -1      3390 1.13452E+02 2.04857E+01 0.00000E+00
 -1      3391 2.04000E+01 3.57110E+01 0.00000E+00
 -1      3392 2.19000E+01 3.57110E+01 0.00000E+00
 -1      3393 1.13475E+02 3.57213E+01 0.00000E+00
 -1      3394 2.34000E+01 3.57110E+01 0.00000E+00
 -1      3395 2.49000E+01 3.57110E+01 0.00000E+00
 -1      3396 2.26500E+01 3.44120E+01 0.00000E+00
 -1      3397 2.64000E+01 3.57110E+01 0.00000E+00
 -1      3398 2.79000E+01 3.57110E+01 0.00000E+00
 -1      3399 2.56500E+01 3.44120E+01 0.00000E+00
 -1      3400 2.94000E+01 3.57110E+01 0.00000E+00
 -1      3401 3.09000E+01 3.57110E+01 0.00000E+00
 -1      3402 2.86500E+01 3.44120E+01 0.00000E+00
 -1      3403 3.24000E+01 3.57110E+01 0.00000E+00
 -1      3404 3.39000E+01 3.57110E+01 0.00000E+00
 -1      3405 3.16500E+01 3.44120E+01 0.00000E+00
 -1      3406 3.54000E+01 3.57110E+01 0.00000E+00
 -1      3407 3.69000E+01 3.57110E+01 0.00000E+00
 -1      3408 3.46500E+01 3.44120E+01 0.00000E+00
 -1      3409 3.84000E+01 3.57110E+01 0.00000E+00
 -1      3410 3.99000E+01 3.57110E+01 0.00000E+00
 -1      3411 3.76500E+01 3.44120E+01 0.00000E+00
 -1      3412 4.14000E+01 3.57110E+01 0.00000E+00
 -1      3413 4.29000E+01 3.57110E+01 0.00000E+00
 -1      3414 4.06500E+01 3.44120E+01 0.00000E+00
 -1      3415 4.44000E+01 3.57110E+01 0.00000E+00
 -1      3416 4.59000E+01 3.57110E+01 0.00000E+00
 -1      3417 4.36500E+01 3.44120E+01 0.00000E+00
 -1      3418 4.74000E+01 3.57110E+01 0.00000E+00
 -1      3419 4.89000E+01 3.57110E+01 0.00000E+00
 -1      3420 4.66500E+01 3.44120E+01 0.00000E+00
 -1      3421 5.04000E+01 3.57110E+01 0.00000E+00
 -1      3422 5.19000E+01 3.57110E+01 0.00000E+00
 -1      3423 4.96500E+01 3.44120E+01 0.00000E+00
 -1      3424 5.34000E+01 3.57110E+01 0.00000E+00
 -1      3425 5.49000E+01 3.57110E+01 0.00000E+00
 -1      3426 5.26500E+01 3.44120E+01 0.00000E+00
 -1      3427 5.64000E+01 3.57110E+01 0.00000E+00
 -1      3428 5.79000E+01 3.57110E+01 0.00000E+00
 -1      3429 5.56500E+01 3.44120E+01 0.00000E+00
 -1      3430 5.94000E+01 3.57110E+01 0.00000E+00
 -1      3431 6.09000E+01 3.57110E+01 0.00000E+00
 -1      3432 5.86500E+01 3.44120E+01 0.00000E+00
 -1      3433 6.24000E+01 3.57110E+01 0.00000E+00
 -1      3434 6.39000E+01 3.57110E+01 0.00000E+00
 -1      3435 6.16500E+01 3.44120E+01 0.00000E+00
 -1      3436 6.54000E+01 3.57110E+01 0.00000E+00
 -1      3437 6.69000E+01 3.57110E+01 0.00000E+00
 -1      3438 6.46500E+01 3.44120E+01 0.00000E+00
 -1      3439 6.84000E+01 3.57110E+01 0.00000E+00
 -1      3440 6.99000E+01 3.57110E+01 0.00000E+00
 -1      3441 6.76500E+01 3.44120E+01 0.00000E+00
 -1      3442 7.14000E+01 3.57110E+01 0.00000E+00
 -1      3443 7.29000E+01 3.57110E+01 0.00000E+00
 -1      3444 7.06500E+01 3.44120E+01 0.00000E+00
 -1      3445 7.44000E+01 3.57110E+01 0.00000E+00
 -1      3446 7.59000E+01 3.57110E+01 0.00000E+00
 -1      3447 7.36500E+01 3.44120E+01 0.00000E+00
 -1      3448 7.74000E+01 3.57110E+01 0.00000E+00
 -1      3449 7.89000E+01 3.57110E+01 0.00000E+00
 -1      3450 7.66500E+01 3.44120E+01 0.00000E+00
 -1      3451 8.04000E+01 3.57110E+01 0.00000E+00
 -1      3452 8.19000E+01 3.57110E+01 0.00000E+00
 -1      3453 7.96500E+01 3.44120E+01 0.00000E+00
 -1      3454 8.34000E+01 3.57110E+01 0.00000E+00
 -1      3455 8.49000E+01 3.57110E+01 0.00000E+00
 -1      3456 8.26500E+01 3.44120E+01 0.00000E+00
 -1      3457 8.64000E+01 3.57110E+01 0.00000E+00
 -1      3458 8.79000E+01 3.57110E+01 0.00000E+00
 -1      3459 8.56500E+01 3.44120E+01 0.00000E+00
 -1      3460 8.94000E+01 3.57110E+01 0.00000E+00
 -1      3461 9.09000E+01 3.57110E+01 0.00000E+00
 -1      3462 8.86500E+01 3.44120E+01 0.00000E+00
 -1      3463 9.24000E+01 3.57110E+01 0.00000E+00
 -1      3464 9.39000E+01 3.57110E+01 0.00000E+00
 -1      3465 9.16500E+01 3.44120E+01 0.00000E+00
 -1      3466 9.54000E+01 3.57110E+01 0.00000E+00
 -1      3467 9.69000E+01 3.57110E+01 0.00000E+00
 -1      3468 9.46500E+01 3.44120E+01 0.00000E+00
 -1      3469 9.84000E+01 3.57110E+01 0.00000E+00
 -1      3470 9.99000E+01 3.57110E+01 0.00000E+00
 -1      3471 9.76500E+01 3.44120E+01 0.00000E+00
 -1      3472 1.01400E+02 3.57110E+01 0.00000E+00
 -1      3473 1.02900E+02 3.57110E+01 0.00000E+00
 -1      3474 1.00650E+02 3.44120E+01 0.00000E+00
 -1      3475 1.04400E+02 3.57110E+01 0.00000E+00
 -1      3476 1.05900E+02 3.57110E+01 0.00000E+00
 -1      3477 1.03650E+02 3.44120E+01 0.00000E+00
 -1      3478 1.07400E+02 3.57110E+01 0.00000E+00
 -1      3479 1.08900E+02 3.57110E+01 0.00000E+00
 -1      3480 1.06650E+02 3.44120E+01 0.00000E+00
 -1      3481 1.10750E+02 3.53176E+01 0.00000E+00
 -1      3482 1.12250E+02 3.53176E+01 0.00000E+00
 -1      3483 1.25889E+02 3.94556E+01 0.00000E+00
 -1      3484 4.82850E+01 1.30992E+01 0.00000E+00
 -1      3485 4.67850E+01 1.30992E+01 0.00000E+00
 -1      3486 4.52850E+01 1.30992E+01 0.00000E+00
 -1      3487 4.37850E+01 1.30992E+01 0.00000E+00
 -1      3488 4.60350E+01 1.43982E+01 0.00000E+00
 -1      3489 4.22850E+01 1.30992E+01 0.00000E+00
 -1      3490 4.07850E+01 1.30992E+01 0.00000E+00
 -1      3491 4.30350E+01 1.43982E+01 0.00000E+00
 -1      3492 5.12850E+01 1.30992E+01 0.00000E+00
 -1      3493 4.97850E+01 1.30992E+01 0.00000E+00
 -1      3494 4.90350E+01 1.43982E+01 0.00000E+00
 -1      3495 5.42850E+01 1.30992E+01 0.00000E+00
 -1      3496 5.27850E+01 1.30992E+01 0.00000E+00
 -1      3497 5.20350E+01 1.43982E+01 0.00000E+00
 -1      3498 5.72850E+01 1.30992E+01 0.00000E+00
 -1      3499 5.57850E+01 1.30992E+01 0.00000E+00
 -1      3500 5.50350E+01 1.43982E+01 0.00000E+00
 -1      3501 6.02850E+01 1.30992E+01 0.00000E+00
 -1      3502 5.87850E+01 1.30992E+01 0.00000E+00
 -1      3503 5.80350E+01 1.43982E+01 0.00000E+00
 -1      3504 6.32850E+01 1.30992E+01 0.00000E+00
 -1      3505 6.17850E+01 1.30992E+01 0.00000E+00
 -1      3506 6.10350E+01 1.43982E+01 0.00000E+00
 -1      3507 6.62850E+01 1.30992E+01 0.00000E+00
 -1      3508 6.47850E+01 1.30992E+01 0.00000E+00
 -1      3509 6.40350E+01 1.43982E+01 0.00000E+00
 -1      3510 6.92850E+01 1.30992E+01 0.00000E+00
 -1      3511 6.77850E+01 1.30992E+01 0.00000E+00
 -1      3512 6.70350E+01 1.43982E+01 0.00000E+00
 -1      3513 7.22850E+01 1.30992E+01 0.00000E+00
 -1      3514 7.07850E+01 1.30992E+01 0.00000E+00
 -1      3515 7.00350E+01 1.43982E+01 0.00000E+00
 -1      3516 7.52850E+01 1.30992E+01 0.00000E+00
 -1      3517 7.37850E+01 1.30992E+01 0.00000E+00
 -1      3518 7.30350E+01 1.43982E+01 0.00000E+00
 -1      3519 7.82850E+01 1.30992E+01 0.00000E+00
 -1      3520 7.67850E+01 1.30992E+01 0.00000E+00
 -1      3521 7.60350E+01 1.43982E+01 0.00000E+00
 -1      3522 8.12850E+01 1.30992E+01 0.00000E+00
 -1      3523 7.97850E+01 1.30992E+01 0.00000E+00
 -1      3524 7.90350E+01 1.43982E+01 0.00000E+00
 -1      3525 8.42850E+01 1.30992E+01 0.00000E+00
 -1      3526 8.27850E+01 1.30992E+01 0.00000E+00
 -1      3527 8.20350E+01 1.43982E+01 0.00000E+00
 -1      3528 8.72850E+01 1.30992E+01 0.00000E+00
 -1      3529 8.57850E+01 1.30992E+01 0.00000E+00
 -1      3530 8.50350E+01 1.43982E+01 0.00000E+00
 -1      3531 9.02850E+01 1.30992E+01 0.00000E+00
 -1      3532 8.87850E+01 1.30992E+01 0.00000E+00
 -1      3533 8.80350E+01 1.43982E+01 0.00000E+00
 -1      3534 9.32850E+01 1.30992E+01 0.00000E+00
 -1      3535 9.17850E+01 1.30992E+01 0.00000E+00
 -1      3536 9.10350E+01 1.43982E+01 0.00000E+00
 -1      3537 9.62850E+01 1.30992E+01 0.00000E+00
 -1      3538 9.47850E+01 1.30992E+01 0.00000E+00
 -1      3539 9.40350E+01 1.43982E+01 0.00000E+00
 -1      3540 9.92850E+01 1.30992E+01 0.00000E+00
 -1      3541 9.77850E+01 1.30992E+01 0.00000E+00
 -1      3542 9.70350E+01 1.43982E+01 0.00000E+00
 -1      3543 1.02285E+02 1.30992E+01 0.00000E+00
 -1      3544 1.00785E+02 1.30992E+01 0.00000E+00
 -1      3545 1.00035E+02 1.43982E+01 0.00000E+00
 -1      3546 1.05285E+02 1.30992E+01 0.00000E+00
 -1      3547 1.03785E+02 1.30992E+01 0.00000E+00
 -1      3548 1.03035E+02 1.43982E+01 0.00000E+00
 -1      3549 1.08285E+02 1.30992E+01 0.00000E+00
 -1      3550 1.06785E+02 1.30992E+01 0.00000E+00
 -1      3551 1.06035E+02 1.43982E+01 0.00000E+00
 -1      3552 1.11285E+02 1.30992E+01 0.00000E+00
 -1      3553 1.09785E+02 1.30992E+01 0.00000E+00
 -1      3554 1.09035E+02 1.43982E+01 0.00000E+00
 -1      3555 1.17583E+02 1.25461E+01 0.00000E+00
 -1      3556 1.16083E+02 1.25461E+01 0.00000E+00
 -1      3557 1.21915E+02 1.18918E+01 0.00000E+00
 -1      3558 1.11215E+02 2.74074E+01 0.00000E+00
 -1      3559 1.11263E+02 2.60733E+01 0.00000E+00
 -1      3560 1.38717E+02 1.43309E+01 0.00000E+00
 -1      3561 1.38772E+02 1.30906E+01 0.00000E+00
 -1      3562 1.37840E+02 1.29264E+01 0.00000E+00
 -1      3563 1.37723E+02 1.49473E+01 0.00000E+00
 -1      3564 1.18588E+02 1.24353E+01 0.00000E+00
 -1      3565 1.74000E+01 3.57110E+01 0.00000E+00
 -1      3566 1.89000E+01 3.57110E+01 0.00000E+00
 -1      3567 1.96500E+01 3.44120E+01 0.00000E+00
 -1      3568 1.14154E+02 1.61226E+01 0.00000E+00
 -1      3569 1.15119E+02 1.43343E+01 0.00000E+00
 -1      3570 1.14070E+02 1.35885E+01 0.00000E+00
 -1      3571 1.18237E+01 2.70341E+01 0.00000E+00
 -1      3572 1.18237E+01 2.85028E+01 0.00000E+00
 -1      3573 1.33883E+01 2.89397E+01 0.00000E+00
 -1      3574 1.31228E+01 2.62966E+01 0.00000E+00
 -1      3575 1.35855E+02 1.29265E+01 0.00000E+00
 -1      3576 1.48763E+01 1.22006E+01 0.00000E+00
 -1      3577 1.44900E+01 1.32000E+01 0.00000E+00
 -1      3578 1.63762E+01 1.22006E+01 0.00000E+00
 -1      3579 1.11250E+02 3.04618E+01 0.00000E+00
 -1      3580 1.11103E+02 2.89803E+01 0.00000E+00
 -1      3581 1.13238E+02 1.71656E+01 0.00000E+00
 -1      3582 3.32850E+01 1.30992E+01 0.00000E+00
 -1      3583 3.17850E+01 1.30992E+01 0.00000E+00
 -1      3584 1.12385E+02 2.13097E+01 0.00000E+00
 -1      3585 1.12304E+02 1.97785E+01 0.00000E+00
 -1      3586 1.36787E+02 1.30907E+01 0.00000E+00
 -1      3587 1.44900E+01 1.46687E+01 0.00000E+00
 -1      3588 1.11030E+02 2.50464E+01 0.00000E+00
 -1      3589 1.10797E+02 2.40195E+01 0.00000E+00
 -1      3590 1.09898E+02 2.56742E+01 0.00000E+00
 -1      3591 1.36728E+02 1.41011E+01 0.00000E+00
 -1      3592 1.10000E+02 3.40186E+01 0.00000E+00
 -1      3593 2.65350E+01 1.18003E+01 0.00000E+00
 -1      3594 3.02850E+01 1.30992E+01 0.00000E+00
 -1      3595 2.87850E+01 1.30992E+01 0.00000E+00
 -1      3596 3.10350E+01 1.43982E+01 0.00000E+00
 -1      3597 1.12570E+02 1.35885E+01 0.00000E+00
 -1      3598 1.11820E+02 1.48875E+01 0.00000E+00
 -1      3599 1.10019E+02 2.82741E+01 0.00000E+00
 -1      3600 1.29900E+01 1.76125E+01 0.00000E+00
 -1      3601 1.42890E+01 2.27625E+01 0.00000E+00
 -1      3602 1.42890E+01 2.42375E+01 0.00000E+00
 -1      3603 2.12293E+01 1.30161E+01 0.00000E+00
 -1      3604 1.99111E+01 1.28663E+01 0.00000E+00
 -1      3605 1.11583E+02 2.19971E+01 0.00000E+00
 -1      3606 1.10439E+02 3.28773E+01 0.00000E+00
 -1      3607 1.10811E+02 3.16031E+01 0.00000E+00
 -1      3608 1.09467E+02 3.09882E+01 0.00000E+00
 -1      3609 1.08589E+02 3.32707E+01 0.00000E+00
 -1      3610 3.92850E+01 1.30992E+01 0.00000E+00
 -1      3611 3.77850E+01 1.30992E+01 0.00000E+00
 -1      3612 4.00350E+01 1.43982E+01 0.00000E+00
 -1      3613 1.46783E+01 3.49708E+01 0.00000E+00
 -1      3614 1.62428E+01 3.54077E+01 0.00000E+00
 -1      3615 1.69928E+01 3.41087E+01 0.00000E+00
 -1      3616 1.46783E+01 3.35021E+01 0.00000E+00
 -1      3617 2.42293E+01 1.30161E+01 0.00000E+00
 -1      3618 2.27293E+01 1.30161E+01 0.00000E+00
 -1      3619 2.19235E+01 1.42319E+01 0.00000E+00
 -1      3620 1.46783E+01 3.05646E+01 0.00000E+00
 -1      3621 1.46783E+01 3.20333E+01 0.00000E+00
 -1      3622 1.58355E+01 3.23366E+01 0.00000E+00
 -1      3623 1.42890E+01 1.98250E+01 0.00000E+00
 -1      3624 1.42890E+01 2.12938E+01 0.00000E+00
 -1      3625 1.55880E+01 2.20313E+01 0.00000E+00
 -1      3626 1.12128E+02 1.82274E+01 0.00000E+00
 -1      3627 1.11996E+02 1.64386E+01 0.00000E+00
 -1      3628 1.10710E+02 1.59493E+01 0.00000E+00
 -1      3629 1.11061E+02 1.90514E+01 0.00000E+00
 -1      3630 3.47850E+01 1.30992E+01 0.00000E+00
 -1      3631 3.40350E+01 1.43982E+01 0.00000E+00
 -1      3632 3.62850E+01 1.30992E+01 0.00000E+00
 -1      3633 2.19000E+01 3.31130E+01 0.00000E+00
 -1      3634 2.34000E+01 3.31130E+01 0.00000E+00
 -1      3635 5.27850E+01 1.56973E+01 0.00000E+00
 -1      3636 5.12850E+01 1.56973E+01 0.00000E+00
 -1      3637 2.49000E+01 3.31130E+01 0.00000E+00
 -1      3638 2.64000E+01 3.31130E+01 0.00000E+00
 -1      3639 2.41500E+01 3.18140E+01 0.00000E+00
 -1      3640 2.79000E+01 3.31130E+01 0.00000E+00
 -1      3641 2.94000E+01 3.31130E+01 0.00000E+00
 -1      3642 2.71500E+01 3.18140E+01 0.00000E+00
 -1      3643 3.09000E+01 3.31130E+01 0.00000E+00
 -1      3644 3.24000E+01 3.31130E+01 0.00000E+00
 -1      3645 3.01500E+01 3.18140E+01 0.00000E+00
 -1      3646 3.39000E+01 3.31130E+01 0.00000E+00
 -1      3647 3.54000E+01 3.31130E+01 0.00000E+00
 -1      3648 3.31500E+01 3.18140E+01 0.00000E+00
 -1      3649 3.69000E+01 3.31130E+01 0.00000E+00
 -1      3650 3.84000E+01 3.31130E+01 0.00000E+00
 -1      3651 3.61500E+01 3.18140E+01 0.00000E+00
 -1      3652 3.99000E+01 3.31130E+01 0.00000E+00
 -1      3653 4.14000E+01 3.31130E+01 0.00000E+00
 -1      3654 3.91500E+01 3.18140E+01 0.00000E+00
 -1      3655 4.29000E+01 3.31130E+01 0.00000E+00
 -1      3656 4.44000E+01 3.31130E+01 0.00000E+00
 -1      3657 4.21500E+01 3.18140E+01 0.00000E+00
 -1      3658 4.59000E+01 3.31130E+01 0.00000E+00
 -1      3659 4.74000E+01 3.31130E+01 0.00000E+00
 -1      3660 4.51500E+01 3.18140E+01 0.00000E+00
 -1      3661 4.89000E+01 3.31130E+01 0.00000E+00
 -1      3662 5.04000E+01 3.31130E+01 0.00000E+00
 -1      3663 4.81500E+01 3.18140E+01 0.00000E+00
 -1      3664 5.19000E+01 3.31130E+01 0.00000E+00
 -1      3665 5.34000E+01 3.31130E+01 0.00000E+00
 -1      3666 5.11500E+01 3.18140E+01 0.00000E+00
 -1      3667 5.49000E+01 3.31130E+01 0.00000E+00
 -1      3668 5.64000E+01 3.31130E+01 0.00000E+00
 -1      3669 5.41500E+01 3.18140E+01 0.00000E+00
 -1      3670 5.79000E+01 3.31130E+01 0.00000E+00
 -1      3671 5.94000E+01 3.31130E+01 0.00000E+00
 -1      3672 5.71500E+01 3.18140E+01 0.00000E+00
 -1      3673 6.09000E+01 3.31130E+01 0.00000E+00
 -1      3674 6.24000E+01 3.31130E+01 0.00000E+00
 -1      3675 6.01500E+01 3.18140E+01 0.00000E+00
 -1      3676 6.39000E+01 3.31130E+01 0.00000E+00
 -1      3677 6.54000E+01 3.31130E+01 0.00000E+00
 -1      3678 6.31500E+01 3.18140E+01 0.00000E+00
 -1      3679 6.69000E+01 3.31130E+01 0.00000E+00
 -1      3680 6.84000E+01 3.31130E+01 0.00000E+00
 -1      3681 6.61500E+01 3.18140E+01 0.00000E+00
 -1      3682 6.99000E+01 3.31130E+01 0.00000E+00
 -1      3683 7.14000E+01 3.31130E+01 0.00000E+00
 -1      3684 6.91500E+01 3.18140E+01 0.00000E+00
 -1      3685 7.29000E+01 3.31130E+01 0.00000E+00
 -1      3686 7.44000E+01 3.31130E+01 0.00000E+00
 -1      3687 7.21500E+01 3.18140E+01 0.00000E+00
 -1      3688 7.59000E+01 3.31130E+01 0.00000E+00
 -1      3689 7.74000E+01 3.31130E+01 0.00000E+00
 -1      3690 7.51500E+01 3.18140E+01 0.00000E+00
 -1      3691 7.89000E+01 3.31130E+01 0.00000E+00
 -1      3692 8.04000E+01 3.31130E+01 0.00000E+00
 -1      3693 7.81500E+01 3.18140E+01 0.00000E+00
 -1      3694 8.19000E+01 3.31130E+01 0.00000E+00
 -1      3695 8.34000E+01 3.31130E+01 0.00000E+00
 -1      3696 8.11500E+01 3.18140E+01 0.00000E+00
 -1      3697 8.49000E+01 3.31130E+01 0.00000E+00
 -1      3698 8.64000E+01 3.31130E+01 0.00000E+00
 -1      3699 8.41500E+01 3.18140E+01 0.00000E+00
 -1      3700 8.79000E+01 3.31130E+01 0.00000E+00
 -1      3701 8.94000E+01 3.31130E+01 0.00000E+00
 -1      3702 8.71500E+01 3.18140E+01 0.00000E+00
 -1      3703 9.09000E+01 3.31130E+01 0.00000E+00
 -1      3704 9.24000E+01 3.31130E+01 0.00000E+00
 -1      3705 9.01500E+01 3.18140E+01 0.00000E+00
 -1      3706 9.39000E+01 3.31130E+01 0.00000E+00
 -1      3707 9.54000E+01 3.31130E+01 0.00000E+00
 -1      3708 9.31500E+01 3.18140E+01 0.00000E+00
 -1      3709 9.69000E+01 3.31130E+01 0.00000E+00
 -1      3710 9.84000E+01 3.31130E+01 0.00000E+00
 -1      3711 9.61500E+01 3.18140E+01 0.00000E+00
 -1      3712 9.99000E+01 3.31130E+01 0.00000E+00
 -1      3713 1.01400E+02 3.31130E+01 0.00000E+00
 -1      3714 9.91500E+01 3.18140E+01 0.00000E+00
 -1      3715 1.02900E+02 3.31130E+01 0.00000E+00
 -1      3716 1.04400E+02 3.31130E+01 0.00000E+00
 -1      3717 1.02150E+02 3.18140E+01 0.00000E+00
 -1      3718 1.05745E+02 3.31919E+01 0.00000E+00
 -1      3719 1.07245E+02 3.31919E+01 0.00000E+00
 -1      3720 1.07684E+02 3.20506E+01 0.00000E+00
 -1      3721 1.04995E+02 3.18929E+01 0.00000E+00
 -1      3722 4.67850E+01 1.56973E+01 0.00000E+00
 -1      3723 4.52850E+01 1.56973E+01 0.00000E+00
 -1      3724 4.97850E+01 1.56973E+01 0.00000E+00
 -1      3725 4.82850E+01 1.56973E+01 0.00000E+00
 -1      3726 4.75350E+01 1.69963E+01 0.00000E+00
 -1      3727 5.05350E+01 1.69963E+01 0.00000E+00
 -1      3728 1.08773E+02 2.89757E+01 0.00000E+00
 -1      3729 1.08885E+02 2.74027E+01 0.00000E+00
 -1      3730 4.37850E+01 1.56973E+01 0.00000E+00
 -1      3731 4.22850E+01 1.56973E+01 0.00000E+00
 -1      3732 4.45350E+01 1.69963E+01 0.00000E+00
 -1      3733 5.57850E+01 1.56973E+01 0.00000E+00
 -1      3734 5.42850E+01 1.56973E+01 0.00000E+00
 -1      3735 5.35350E+01 1.69963E+01 0.00000E+00
 -1      3736 5.87850E+01 1.56973E+01 0.00000E+00
 -1      3737 5.72850E+01 1.56973E+01 0.00000E+00
 -1      3738 5.65350E+01 1.69963E+01 0.00000E+00
 -1      3739 6.17850E+01 1.56973E+01 0.00000E+00
 -1      3740 6.02850E+01 1.56973E+01 0.00000E+00
 -1      3741 5.95350E+01 1.69963E+01 0.00000E+00
 -1      3742 6.47850E+01 1.56973E+01 0.00000E+00
 -1      3743 6.32850E+01 1.56973E+01 0.00000E+00
 -1      3744 6.25350E+01 1.69963E+01 0.00000E+00
 -1      3745 6.77850E+01 1.56973E+01 0.00000E+00
 -1      3746 6.62850E+01 1.56973E+01 0.00000E+00
 -1      3747 6.55350E+01 1.69963E+01 0.00000E+00
 -1      3748 7.07850E+01 1.56973E+01 0.00000E+00
 -1      3749 6.92850E+01 1.56973E+01 0.00000E+00
 -1      3750 6.85350E+01 1.69963E+01 0.00000E+00
 -1      3751 7.37850E+01 1.56973E+01 0.00000E+00
 -1      3752 7.22850E+01 1.56973E+01 0.00000E+00
 -1      3753 7.15350E+01 1.69963E+01 0.00000E+00
 -1      3754 7.67850E+01 1.56973E+01 0.00000E+00
 -1      3755 7.52850E+01 1.56973E+01 0.00000E+00
 -1      3756 7.45350E+01 1.69963E+01 0.00000E+00
 -1      3757 7.97850E+01 1.56973E+01 0.00000E+00
 -1      3758 7.82850E+01 1.56973E+01 0.00000E+00
 -1      3759 7.75350E+01 1.69963E+01 0.00000E+00
 -1      3760 8.27850E+01 1.56973E+01 0.00000E+00
 -1      3761 8.12850E+01 1.56973E+01 0.00000E+00
 -1      3762 8.05350E+01 1.69963E+01 0.00000E+00
 -1      3763 8.57850E+01 1.56973E+01 0.00000E+00
 -1      3764 8.42850E+01 1.56973E+01 0.00000E+00
 -1      3765 8.35350E+01 1.69963E+01 0.00000E+00
 -1      3766 8.87850E+01 1.56973E+01 0.00000E+00
 -1      3767 8.72850E+01 1.56973E+01 0.00000E+00
 -1      3768 8.65350E+01 1.69963E+01 0.00000E+00
 -1      3769 9.17850E+01 1.56973E+01 0.00000E+00
 -1      3770 9.02850E+01 1.56973E+01 0.00000E+00
 -1      3771 8.95350E+01 1.69963E+01 0.00000E+00
 -1      3772 9.47850E+01 1.56973E+01 0.00000E+00
 -1      3773 9.32850E+01 1.56973E+01 0.00000E+00
 -1      3774 9.25350E+01 1.69963E+01 0.00000E+00
 -1      3775 9.77850E+01 1.56973E+01 0.00000E+00
 -1      3776 9.62850E+01 1.56973E+01 0.00000E+00
 -1      3777 9.55350E+01 1.69963E+01 0.00000E+00
 -1      3778 1.00785E+02 1.56973E+01 0.00000E+00
 -1      3779 9.92850E+01 1.56973E+01 0.00000E+00
 -1      3780 9.85350E+01 1.69963E+01 0.00000E+00
 -1      3781 1.03785E+02 1.56973E+01 0.00000E+00
 -1      3782 1.02285E+02 1.56973E+01 0.00000E+00
 -1      3783 1.01535E+02 1.69963E+01 0.00000E+00
 -1      3784 1.06785E+02 1.56973E+01 0.00000E+00
 -1      3785 1.05285E+02 1.56973E+01 0.00000E+00
 -1      3786 1.04535E+02 1.69963E+01 0.00000E+00
 -1      3787 1.09498E+02 1.58233E+01 0.00000E+00
 -1      3788 1.07998E+02 1.58233E+01 0.00000E+00
 -1      3789 1.07248E+02 1.71223E+01 0.00000E+00
 -1      3790 1.09673E+02 1.73743E+01 0.00000E+00
 -1      3791 1.61488E+01 1.48625E+01 0.00000E+00
 -1      3792 1.46488E+01 1.63313E+01 0.00000E+00
 -1      3793 1.57207E+01 2.48216E+01 0.00000E+00
 -1      3794 1.44218E+01 2.55591E+01 0.00000E+00
 -1      3795 1.45545E+01 2.68806E+01 0.00000E+00
 -1      3796 1.10451E+02 2.26249E+01 0.00000E+00
 -1      3797 1.10105E+02 2.12303E+01 0.00000E+00
 -1      3798 1.09319E+02 2.32528E+01 0.00000E+00
 -1      3799 1.88028E+01 1.26083E+01 0.00000E+00
 -1      3800 1.74846E+01 1.24585E+01 0.00000E+00
 -1      3801 1.70984E+01 1.34580E+01 0.00000E+00
 -1      3802 1.93152E+01 1.39739E+01 0.00000E+00
 -1      3803 1.31571E+02 1.23883E+01 0.00000E+00
 -1      3804 1.89000E+01 3.31130E+01 0.00000E+00
 -1      3805 2.04000E+01 3.31130E+01 0.00000E+00
 -1      3806 2.11500E+01 3.18140E+01 0.00000E+00
 -1      3807 1.67891E+01 3.25732E+01 0.00000E+00
 -1      3808 1.79464E+01 3.28765E+01 0.00000E+00
 -1      3809 1.86964E+01 3.15775E+01 0.00000E+00
 -1      3810 1.67891E+01 3.11044E+01 0.00000E+00
 -1      3811 1.46488E+01 1.78063E+01 0.00000E+00
 -1      3812 2.72850E+01 1.30992E+01 0.00000E+00
 -1      3813 2.57850E+01 1.30992E+01 0.00000E+00
 -1      3814 2.80350E+01 1.43982E+01 0.00000E+00
 -1      3815 1.08652E+02 2.63758E+01 0.00000E+00
 -1      3816 1.08419E+02 2.53490E+01 0.00000E+00
 -1      3817 1.07406E+02 2.70774E+01 0.00000E+00
 -1      3818 3.17850E+01 1.56973E+01 0.00000E+00
 -1      3819 3.02850E+01 1.56973E+01 0.00000E+00
 -1      3820 1.45500E+01 2.80618E+01 0.00000E+00
 -1      3821 1.46827E+01 2.93834E+01 0.00000E+00
 -1      3822 1.58400E+01 2.96867E+01 0.00000E+00
 -1      3823 1.58490E+01 2.73243E+01 0.00000E+00
 -1      3824 1.59478E+01 1.85438E+01 0.00000E+00
 -1      3825 1.69469E+01 2.40310E+01 0.00000E+00
 -1      3826 1.70796E+01 2.53525E+01 0.00000E+00
 -1      3827 2.49793E+01 1.43151E+01 0.00000E+00
 -1      3828 3.70350E+01 1.43982E+01 0.00000E+00
 -1      3829 1.72572E+01 1.51205E+01 0.00000E+00
 -1      3830 1.69469E+01 2.10935E+01 0.00000E+00
 -1      3831 1.69469E+01 2.25622E+01 0.00000E+00
 -1      3832 1.83057E+01 2.30932E+01 0.00000E+00
 -1      3833 2.26735E+01 1.55309E+01 0.00000E+00
 -1      3834 2.11735E+01 1.55309E+01 0.00000E+00
 -1      3835 1.08009E+02 3.10838E+01 0.00000E+00
 -1      3836 1.08448E+02 2.99425E+01 0.00000E+00
 -1      3837 1.07314E+02 2.90712E+01 0.00000E+00
 -1      3838 1.06664E+02 3.10049E+01 0.00000E+00
 -1      3839 1.09977E+02 2.00779E+01 0.00000E+00
 -1      3840 1.09801E+02 1.85268E+01 0.00000E+00
 -1      3841 1.08589E+02 1.84008E+01 0.00000E+00
 -1      3842 1.08845E+02 2.07057E+01 0.00000E+00
 -1      3843 4.07850E+01 1.56973E+01 0.00000E+00
 -1      3844 3.92850E+01 1.56973E+01 0.00000E+00
 -1      3845 4.15350E+01 1.69963E+01 0.00000E+00
 -1      3846 3.47850E+01 1.56973E+01 0.00000E+00
 -1      3847 3.32850E+01 1.56973E+01 0.00000E+00
 -1      3848 3.25350E+01 1.69963E+01 0.00000E+00
 -1      3849 2.08152E+01 1.65719E+01 0.00000E+00
 -1      3850 2.00652E+01 1.52729E+01 0.00000E+00
 -1      3851 1.89568E+01 1.50149E+01 0.00000E+00
 -1      3852 2.95350E+01 1.69963E+01 0.00000E+00
 -1      3853 2.87850E+01 1.56973E+01 0.00000E+00
 -1      3854 2.72850E+01 1.56973E+01 0.00000E+00
 -1      3855 5.42850E+01 1.82952E+01 0.00000E+00
 -1      3856 5.27850E+01 1.82952E+01 0.00000E+00
 -1      3857 2.64000E+01 3.05150E+01 0.00000E+00
 -1      3858 2.79000E+01 3.05150E+01 0.00000E+00
 -1      3859 2.94000E+01 3.05150E+01 0.00000E+00
 -1      3860 3.09000E+01 3.05150E+01 0.00000E+00
 -1      3861 2.86500E+01 2.92160E+01 0.00000E+00
 -1      3862 3.24000E+01 3.05150E+01 0.00000E+00
 -1      3863 3.39000E+01 3.05150E+01 0.00000E+00
 -1      3864 3.16500E+01 2.92160E+01 0.00000E+00
 -1      3865 3.54000E+01 3.05150E+01 0.00000E+00
 -1      3866 3.69000E+01 3.05150E+01 0.00000E+00
 -1      3867 3.46500E+01 2.92160E+01 0.00000E+00
 -1      3868 3.84000E+01 3.05150E+01 0.00000E+00
 -1      3869 3.99000E+01 3.05150E+01 0.00000E+00
 -1      3870 3.76500E+01 2.92160E+01 0.00000E+00
 -1      3871 4.14000E+01 3.05150E+01 0.00000E+00
 -1      3872 4.29000E+01 3.05150E+01 0.00000E+00
 -1      3873 4.06500E+01 2.92160E+01 0.00000E+00
 -1      3874 4.44000E+01 3.05150E+01 0.00000E+00
 -1      3875 4.59000E+01 3.05150E+01 0.00000E+00
 -1      3876 4.36500E+01 2.92160E+01 0.00000E+00
 -1      3877 4.74000E+01 3.05150E+01 0.00000E+00
 -1      3878 4.89000E+01 3.05150E+01 0.00000E+00
 -1      3879 4.66500E+01 2.92160E+01 0.00000E+00
 -1      3880 5.04000E+01 3.05150E+01 0.00000E+00
 -1      3881 5.19000E+01 3.05150E+01 0.00000E+00
 -1      3882 4.96500E+01 2.92160E+01 0.00000E+00
 -1      3883 5.34000E+01 3.05150E+01 0.00000E+00
 -1      3884 5.49000E+01 3.05150E+01 0.00000E+00
 -1      3885 5.26500E+01 2.92160E+01 0.00000E+00
 -1      3886 5.64000E+01 3.05150E+01 0.00000E+00
 -1      3887 5.79000E+01 3.05150E+01 0.00000E+00
 -1      3888 5.56500E+01 2.92160E+01 0.00000E+00
 -1      3889 5.94000E+01 3.05150E+01 0.00000E+00
 -1      3890 6.09000E+01 3.05150E+01 0.00000E+00
 -1      3891 5.86500E+01 2.92160E+01 0.00000E+00
 -1      3892 6.24000E+01 3.05150E+01 0.00000E+00
 -1      3893 6.39000E+01 3.05150E+01 0.00000E+00
 -1      3894 6.16500E+01 2.92160E+01 0.00000E+00
 -1      3895 6.54000E+01 3.05150E+01 0.00000E+00
 -1      3896 6.69000E+01 3.05150E+01 0.00000E+00
 -1      3897 6.46500E+01 2.92160E+01 0.00000E+00
 -1      3898 6.84000E+01 3.05150E+01 0.00000E+00
 -1      3899 6.99000E+01 3.05150E+01 0.00000E+00
 -1      3900 6.76500E+01 2.92160E+01 0.00000E+00
 -1      3901 7.14000E+01 3.05150E+01 0.00000E+00
 -1      3902 7.29000E+01 3.05150E+01 0.00000E+00
 -1      3903 7.06500E+01 2.92160E+01 0.00000E+00
 -1      3904 7.44000E+01 3.05150E+01 0.00000E+00
 -1      3905 7.59000E+01 3.05150E+01 0.00000E+00
 -1      3906 7.36500E+01 2.92160E+01 0.00000E+00
 -1      3907 7.74000E+01 3.05150E+01 0.00000E+00
 -1      3908 7.89000E+01 3.05150E+01 0.00000E+00
 -1      3909 7.66500E+01 2.92160E+01 0.00000E+00
 -1      3910 8.04000E+01 3.05150E+01 0.00000E+00
 -1      3911 8.19000E+01 3.05150E+01 0.00000E+00
 -1      3912 7.96500E+01 2.92160E+01 0.00000E+00
 -1      3913 8.34000E+01 3.05150E+01 0.00000E+00
 -1      3914 8.49000E+01 3.05150E+01 0.00000E+00
 -1      3915 8.26500E+01 2.92160E+01 0.00000E+00
 -1      3916 8.64000E+01 3.05150E+01 0.00000E+00
 -1      3917 8.79000E+01 3.05150E+01 0.00000E+00
 -1      3918 8.56500E+01 2.92160E+01 0.00000E+00
 -1      3919 8.94000E+01 3.05150E+01 0.00000E+00
 -1      3920 9.09000E+01 3.05150E+01 0.00000E+00
 -1      3921 8.86500E+01 2.92160E+01 0.00000E+00
 -1      3922 9.24000E+01 3.05150E+01 0.00000E+00
 -1      3923 9.39000E+01 3.05150E+01 0.00000E+00
 -1      3924 9.16500E+01 2.92160E+01 0.00000E+00
 -1      3925 9.54000E+01 3.05150E+01 0.00000E+00
 -1      3926 9.69000E+01 3.05150E+01 0.00000E+00
 -1      3927 9.46500E+01 2.92160E+01 0.00000E+00
 -1      3928 9.84000E+01 3.05150E+01 0.00000E+00
 -1      3929 9.99000E+01 3.05150E+01 0.00000E+00
 -1      3930 9.76500E+01 2.92160E+01 0.00000E+00
 -1      3931 1.01400E+02 3.05150E+01 0.00000E+00
 -1      3932 1.02900E+02 3.05150E+01 0.00000E+00
 -1      3933 1.00650E+02 2.92160E+01 0.00000E+00
 -1      3934 6.02850E+01 1.82952E+01 0.00000E+00
 -1      3935 5.87850E+01 1.82952E+01 0.00000E+00
 -1      3936 6.32850E+01 1.82952E+01 0.00000E+00
 -1      3937 6.17850E+01 1.82952E+01 0.00000E+00
 -1      3938 6.10350E+01 1.95942E+01 0.00000E+00
 -1      3939 6.62850E+01 1.82952E+01 0.00000E+00
 -1      3940 6.47850E+01 1.82952E+01 0.00000E+00
 -1      3941 6.40350E+01 1.95942E+01 0.00000E+00
 -1      3942 6.92850E+01 1.82952E+01 0.00000E+00
 -1      3943 6.77850E+01 1.82952E+01 0.00000E+00
 -1      3944 6.70350E+01 1.95942E+01 0.00000E+00
 -1      3945 7.22850E+01 1.82952E+01 0.00000E+00
 -1      3946 7.07850E+01 1.82952E+01 0.00000E+00
 -1      3947 7.00350E+01 1.95942E+01 0.00000E+00
 -1      3948 7.52850E+01 1.82952E+01 0.00000E+00
 -1      3949 7.37850E+01 1.82952E+01 0.00000E+00
 -1      3950 7.30350E+01 1.95942E+01 0.00000E+00
 -1      3951 7.82850E+01 1.82952E+01 0.00000E+00
 -1      3952 7.67850E+01 1.82952E+01 0.00000E+00
 -1      3953 7.60350E+01 1.95942E+01 0.00000E+00
 -1      3954 8.12850E+01 1.82952E+01 0.00000E+00
 -1      3955 7.97850E+01 1.82952E+01 0.00000E+00
 -1      3956 7.90350E+01 1.95942E+01 0.00000E+00
 -1      3957 8.42850E+01 1.82952E+01 0.00000E+00
 -1      3958 8.27850E+01 1.82952E+01 0.00000E+00
 -1      3959 8.20350E+01 1.95942E+01 0.00000E+00
 -1      3960 8.72850E+01 1.82952E+01 0.00000E+00
 -1      3961 8.57850E+01 1.82952E+01 0.00000E+00
 -1      3962 8.50350E+01 1.95942E+01 0.00000E+00
 -1      3963 9.02850E+01 1.82952E+01 0.00000E+00
 -1      3964 8.87850E+01 1.82952E+01 0.00000E+00
 -1      3965 8.80350E+01 1.95942E+01 0.00000E+00
 -1      3966 9.32850E+01 1.82952E+01 0.00000E+00
 -1      3967 9.17850E+01 1.82952E+01 0.00000E+00
 -1      3968 9.10350E+01 1.95942E+01 0.00000E+00
 -1      3969 9.62850E+01 1.82952E+01 0.00000E+00
 -1      3970 9.47850E+01 1.82952E+01 0.00000E+00
 -1      3971 9.40350E+01 1.95942E+01 0.00000E+00
 -1      3972 9.92850E+01 1.82952E+01 0.00000E+00
 -1      3973 9.77850E+01 1.82952E+01 0.00000E+00
 -1      3974 9.70350E+01 1.95942E+01 0.00000E+00
 -1      3975 1.02285E+02 1.82952E+01 0.00000E+00
 -1      3976 1.00785E+02 1.82952E+01 0.00000E+00
 -1      3977 1.00035E+02 1.95942E+01 0.00000E+00
 -1      3978 1.05285E+02 1.82952E+01 0.00000E+00
 -1      3979 1.03785E+02 1.82952E+01 0.00000E+00
 -1      3980 1.03035E+02 1.95942E+01 0.00000E+00
 -1      3981 2.57571E+01 1.56557E+01 0.00000E+00
 -1      3982 2.42014E+01 1.55725E+01 0.00000E+00
 -1      3983 2.34514E+01 1.68715E+01 0.00000E+00
 -1      3984 2.65071E+01 1.69547E+01 0.00000E+00
 -1      3985 3.77850E+01 1.56973E+01 0.00000E+00
 -1      3986 3.62850E+01 1.56973E+01 0.00000E+00
 -1      3987 3.55350E+01 1.69963E+01 0.00000E+00
 -1      3988 3.85350E+01 1.69963E+01 0.00000E+00
 -1      3989 1.08073E+02 2.39544E+01 0.00000E+00
 -1      3990 1.07727E+02 2.25598E+01 0.00000E+00
 -1      3991 1.06827E+02 2.46560E+01 0.00000E+00
 -1      3992 2.34000E+01 3.05150E+01 0.00000E+00
 -1      3993 2.49000E+01 3.05150E+01 0.00000E+00
 -1      3994 2.56500E+01 2.92160E+01 0.00000E+00
 -1      3995 1.83012E+01 2.57431E+01 0.00000E+00
 -1      3996 1.70751E+01 2.65337E+01 0.00000E+00
 -1      3997 1.70706E+01 2.77149E+01 0.00000E+00
 -1      3998 5.72850E+01 1.82952E+01 0.00000E+00
 -1      3999 5.57850E+01 1.82952E+01 0.00000E+00
 -1      4000 5.50350E+01 1.95942E+01 0.00000E+00
 -1      4001 2.04000E+01 3.05150E+01 0.00000E+00
 -1      4002 2.19000E+01 3.05150E+01 0.00000E+00
 -1      4003 2.26500E+01 2.92160E+01 0.00000E+00
 -1      4004 4.52850E+01 1.82952E+01 0.00000E+00
 -1      4005 4.37850E+01 1.82952E+01 0.00000E+00
 -1      4006 1.80072E+01 1.64195E+01 0.00000E+00
 -1      4007 5.80350E+01 1.95942E+01 0.00000E+00
 -1      4008 1.04110E+02 3.07205E+01 0.00000E+00
 -1      4009 1.05454E+02 3.07994E+01 0.00000E+00
 -1      4010 1.05779E+02 2.98325E+01 0.00000E+00
 -1      4011 1.03360E+02 2.94215E+01 0.00000E+00
 -1      4012 5.12850E+01 1.82952E+01 0.00000E+00
 -1      4013 4.97850E+01 1.82952E+01 0.00000E+00
 -1      4014 5.20350E+01 1.95942E+01 0.00000E+00
 -1      4015 4.82850E+01 1.82952E+01 0.00000E+00
 -1      4016 4.67850E+01 1.82952E+01 0.00000E+00
 -1      4017 4.60350E+01 1.95942E+01 0.00000E+00
 -1      4018 4.90350E+01 1.95942E+01 0.00000E+00
 -1      4019 1.69321E+01 2.88191E+01 0.00000E+00
 -1      4020 1.69276E+01 3.00002E+01 0.00000E+00
 -1      4021 1.78812E+01 3.02368E+01 0.00000E+00
 -1      4022 1.81582E+01 2.80284E+01 0.00000E+00
 -1      4023 2.41800E+01 1.81908E+01 0.00000E+00
 -1      4024 2.26521E+01 1.81492E+01 0.00000E+00
 -1      4025 1.07543E+02 1.84110E+01 0.00000E+00
 -1      4026 1.06330E+02 1.82850E+01 0.00000E+00
 -1      4027 1.05580E+02 1.95840E+01 0.00000E+00
 -1      4028 1.07671E+02 1.95635E+01 0.00000E+00
 -1      4029 4.22850E+01 1.82952E+01 0.00000E+00
 -1      4030 4.07850E+01 1.82952E+01 0.00000E+00
 -1      4031 4.30350E+01 1.95942E+01 0.00000E+00
 -1      4032 3.02850E+01 1.82952E+01 0.00000E+00
 -1      4033 2.87850E+01 1.82952E+01 0.00000E+00
 -1      4034 1.07763E+02 2.16379E+01 0.00000E+00
 -1      4035 1.07635E+02 2.04854E+01 0.00000E+00
 -1      4036 1.06590E+02 2.04957E+01 0.00000E+00
 -1      4037 1.06518E+02 2.23395E+01 0.00000E+00
 -1      4038 1.96025E+01 2.51574E+01 0.00000E+00
 -1      4039 1.95980E+01 2.63386E+01 0.00000E+00
 -1      4040 1.06104E+02 2.88657E+01 0.00000E+00
 -1      4041 1.06429E+02 2.78988E+01 0.00000E+00
 -1      4042 1.04895E+02 2.86602E+01 0.00000E+00
 -1      4043 2.18793E+01 1.94368E+01 0.00000E+00
 -1      4044 2.11507E+01 1.81175E+01 0.00000E+00
 -1      4045 1.96025E+01 2.22199E+01 0.00000E+00
 -1      4046 1.96025E+01 2.36887E+01 0.00000E+00
 -1      4047 2.08992E+01 2.42842E+01 0.00000E+00
 -1      4048 3.32850E+01 1.82952E+01 0.00000E+00
 -1      4049 3.17850E+01 1.82952E+01 0.00000E+00
 -1      4050 3.10350E+01 1.95942E+01 0.00000E+00
 -1      4051 1.88349E+01 3.04733E+01 0.00000E+00
 -1      4052 2.00423E+01 1.78595E+01 0.00000E+00
 -1      4053 1.74066E+01 1.77624E+01 0.00000E+00
 -1      4054 1.70468E+01 1.97811E+01 0.00000E+00
 -1      4055 1.06196E+02 2.68719E+01 0.00000E+00
 -1      4056 1.95849E+01 2.91743E+01 0.00000E+00
 -1      4057 1.84056E+01 2.03120E+01 0.00000E+00
 -1      4058 5.87850E+01 2.08932E+01 0.00000E+00
 -1      4059 5.72850E+01 2.08932E+01 0.00000E+00
 -1      4060 2.19000E+01 2.79170E+01 0.00000E+00
 -1      4061 2.34000E+01 2.79170E+01 0.00000E+00
 -1      4062 1.94417E+01 1.92024E+01 0.00000E+00
 -1      4063 1.91061E+01 1.76568E+01 0.00000E+00
 -1      4064 3.09000E+01 2.79170E+01 0.00000E+00
 -1      4065 3.24000E+01 2.79170E+01 0.00000E+00
 -1      4066 3.39000E+01 2.79170E+01 0.00000E+00
 -1      4067 3.54000E+01 2.79170E+01 0.00000E+00
 -1      4068 3.31500E+01 2.66180E+01 0.00000E+00
 -1      4069 3.69000E+01 2.79170E+01 0.00000E+00
 -1      4070 3.84000E+01 2.79170E+01 0.00000E+00
 -1      4071 3.61500E+01 2.66180E+01 0.00000E+00
 -1      4072 3.99000E+01 2.79170E+01 0.00000E+00
 -1      4073 4.14000E+01 2.79170E+01 0.00000E+00
 -1      4074 3.91500E+01 2.66180E+01 0.00000E+00
 -1      4075 4.29000E+01 2.79170E+01 0.00000E+00
 -1      4076 4.44000E+01 2.79170E+01 0.00000E+00
 -1      4077 4.21500E+01 2.66180E+01 0.00000E+00
 -1      4078 4.59000E+01 2.79170E+01 0.00000E+00
 -1      4079 4.74000E+01 2.79170E+01 0.00000E+00
 -1      4080 4.51500E+01 2.66180E+01 0.00000E+00
 -1      4081 4.89000E+01 2.79170E+01 0.00000E+00
 -1      4082 5.04000E+01 2.79170E+01 0.00000E+00
 -1      4083 4.81500E+01 2.66180E+01 0.00000E+00
 -1      4084 5.19000E+01 2.79170E+01 0.00000E+00
 -1      4085 5.34000E+01 2.79170E+01 0.00000E+00
 -1      4086 5.11500E+01 2.66180E+01 0.00000E+00
 -1      4087 5.49000E+01 2.79170E+01 0.00000E+00
 -1      4088 5.64000E+01 2.79170E+01 0.00000E+00
 -1      4089 5.41500E+01 2.66180E+01 0.00000E+00
 -1      4090 5.79000E+01 2.79170E+01 0.00000E+00
 -1      4091 5.94000E+01 2.79170E+01 0.00000E+00
 -1      4092 5.71500E+01 2.66180E+01 0.00000E+00
 -1      4093 6.09000E+01 2.79170E+01 0.00000E+00
 -1      4094 6.24000E+01 2.79170E+01 0.00000E+00
 -1      4095 6.01500E+01 2.66180E+01 0.00000E+00
 -1      4096 6.39000E+01 2.79170E+01 0.00000E+00
 -1      4097 6.54000E+01 2.79170E+01 0.00000E+00
 -1      4098 6.31500E+01 2.66180E+01 0.00000E+00
 -1      4099 6.69000E+01 2.79170E+01 0.00000E+00
 -1      4100 6.84000E+01 2.79170E+01 0.00000E+00
 -1      4101 6.61500E+01 2.66180E+01 0.00000E+00
 -1      4102 6.99000E+01 2.79170E+01 0.00000E+00
 -1      4103 7.14000E+01 2.79170E+01 0.00000E+00
 -1      4104 6.91500E+01 2.66180E+01 0.00000E+00
 -1      4105 7.29000E+01 2.79170E+01 0.00000E+00
 -1      4106 7.44000E+01 2.79170E+01 0.00000E+00
 -1      4107 7.21500E+01 2.66180E+01 0.00000E+00
 -1      4108 7.59000E+01 2.79170E+01 0.00000E+00
 -1      4109 7.74000E+01 2.79170E+01 0.00000E+00
 -1      4110 7.51500E+01 2.66180E+01 0.00000E+00
 -1      4111 7.89000E+01 2.79170E+01 0.00000E+00
 -1      4112 8.04000E+01 2.79170E+01 0.00000E+00
 -1      4113 7.81500E+01 2.66180E+01 0.00000E+00
 -1      4114 8.19000E+01 2.79170E+01 0.00000E+00
 -1      4115 8.34000E+01 2.79170E+01 0.00000E+00
 -1      4116 8.11500E+01 2.66180E+01 0.00000E+00
 -1      4117 8.49000E+01 2.79170E+01 0.00000E+00
 -1      4118 8.64000E+01 2.79170E+01 0.00000E+00
 -1      4119 8.41500E+01 2.66180E+01 0.00000E+00
 -1      4120 8.79000E+01 2.79170E+01 0.00000E+00
 -1      4121 8.94000E+01 2.79170E+01 0.00000E+00
 -1      4122 8.71500E+01 2.66180E+01 0.00000E+00
 -1      4123 9.09000E+01 2.79170E+01 0.00000E+00
 -1      4124 9.24000E+01 2.79170E+01 0.00000E+00
 -1      4125 9.01500E+01 2.66180E+01 0.00000E+00
 -1      4126 9.39000E+01 2.79170E+01 0.00000E+00
 -1      4127 9.54000E+01 2.79170E+01 0.00000E+00
 -1      4128 9.31500E+01 2.66180E+01 0.00000E+00
 -1      4129 9.69000E+01 2.79170E+01 0.00000E+00
 -1      4130 9.84000E+01 2.79170E+01 0.00000E+00
 -1      4131 9.61500E+01 2.66180E+01 0.00000E+00
 -1      4132 9.99000E+01 2.79170E+01 0.00000E+00
 -1      4133 1.01400E+02 2.79170E+01 0.00000E+00
 -1      4134 9.91500E+01 2.66180E+01 0.00000E+00
 -1      4135 6.47850E+01 2.08932E+01 0.00000E+00
 -1      4136 6.32850E+01 2.08932E+01 0.00000E+00
 -1      4137 6.17850E+01 2.08932E+01 0.00000E+00
 -1      4138 6.02850E+01 2.08932E+01 0.00000E+00
 -1      4139 5.95350E+01 2.21922E+01 0.00000E+00
 -1      4140 6.25350E+01 2.21922E+01 0.00000E+00
 -1      4141 7.07850E+01 2.08932E+01 0.00000E+00
 -1      4142 6.92850E+01 2.08932E+01 0.00000E+00
 -1      4143 7.37850E+01 2.08932E+01 0.00000E+00
 -1      4144 7.22850E+01 2.08932E+01 0.00000E+00
 -1      4145 7.15350E+01 2.21922E+01 0.00000E+00
 -1      4146 7.67850E+01 2.08932E+01 0.00000E+00
 -1      4147 7.52850E+01 2.08932E+01 0.00000E+00
 -1      4148 7.45350E+01 2.21922E+01 0.00000E+00
 -1      4149 7.97850E+01 2.08932E+01 0.00000E+00
 -1      4150 7.82850E+01 2.08932E+01 0.00000E+00
 -1      4151 7.75350E+01 2.21922E+01 0.00000E+00
 -1      4152 8.27850E+01 2.08932E+01 0.00000E+00
 -1      4153 8.12850E+01 2.08932E+01 0.00000E+00
 -1      4154 8.05350E+01 2.21922E+01 0.00000E+00
 -1      4155 8.57850E+01 2.08932E+01 0.00000E+00
 -1      4156 8.42850E+01 2.08932E+01 0.00000E+00
 -1      4157 8.35350E+01 2.21922E+01 0.00000E+00
 -1      4158 8.87850E+01 2.08932E+01 0.00000E+00
 -1      4159 8.72850E+01 2.08932E+01 0.00000E+00
 -1      4160 8.65350E+01 2.21922E+01 0.00000E+00
 -1      4161 9.17850E+01 2.08932E+01 0.00000E+00
 -1      4162 9.02850E+01 2.08932E+01 0.00000E+00
 -1      4163 8.95350E+01 2.21922E+01 0.00000E+00
 -1      4164 9.47850E+01 2.08932E+01 0.00000E+00
 -1      4165 9.32850E+01 2.08932E+01 0.00000E+00
 -1      4166 9.25350E+01 2.21922E+01 0.00000E+00
 -1      4167 9.77850E+01 2.08932E+01 0.00000E+00
 -1      4168 9.62850E+01 2.08932E+01 0.00000E+00
 -1      4169 9.55350E+01 2.21922E+01 0.00000E+00
 -1      4170 1.00785E+02 2.08932E+01 0.00000E+00
 -1      4171 9.92850E+01 2.08932E+01 0.00000E+00
 -1      4172 9.85350E+01 2.21922E+01 0.00000E+00
 -1      4173 1.03785E+02 2.08932E+01 0.00000E+00
 -1      4174 1.02285E+02 2.08932E+01 0.00000E+00
 -1      4175 1.01535E+02 2.21922E+01 0.00000E+00
 -1      4176 2.72357E+01 1.82740E+01 0.00000E+00
 -1      4177 2.57079E+01 1.82324E+01 0.00000E+00
 -1      4178 2.49086E+01 1.95101E+01 0.00000E+00
 -1      4179 6.77850E+01 2.08932E+01 0.00000E+00
 -1      4180 6.62850E+01 2.08932E+01 0.00000E+00
 -1      4181 6.55350E+01 2.21922E+01 0.00000E+00
 -1      4182 2.79857E+01 1.95730E+01 0.00000E+00
 -1      4183 2.49000E+01 2.79170E+01 0.00000E+00
 -1      4184 2.64000E+01 2.79170E+01 0.00000E+00
 -1      4185 2.41500E+01 2.66180E+01 0.00000E+00
 -1      4186 1.97234E+01 2.80701E+01 0.00000E+00
 -1      4187 5.57850E+01 2.08932E+01 0.00000E+00
 -1      4188 5.42850E+01 2.08932E+01 0.00000E+00
 -1      4189 5.65350E+01 2.21922E+01 0.00000E+00
 -1      4190 2.79000E+01 2.79170E+01 0.00000E+00
 -1      4191 2.94000E+01 2.79170E+01 0.00000E+00
 -1      4192 3.01500E+01 2.66180E+01 0.00000E+00
 -1      4193 1.93418E+01 2.05148E+01 0.00000E+00
 -1      4194 1.05851E+02 2.54774E+01 0.00000E+00
 -1      4195 1.05505E+02 2.40828E+01 0.00000E+00
 -1      4196 1.04874E+02 2.62987E+01 0.00000E+00
 -1      4197 2.06385E+01 2.11103E+01 0.00000E+00
 -1      4198 2.10246E+01 2.74845E+01 0.00000E+00
 -1      4199 2.17746E+01 2.61855E+01 0.00000E+00
 -1      4200 1.02542E+02 2.81858E+01 0.00000E+00
 -1      4201 1.03752E+02 2.83913E+01 0.00000E+00
 -1      4202 1.04077E+02 2.74245E+01 0.00000E+00
 -1      4203 1.01792E+02 2.68868E+01 0.00000E+00
 -1      4204 6.85350E+01 2.21922E+01 0.00000E+00
 -1      4205 2.87425E+01 2.08825E+01 0.00000E+00
 -1      4206 2.71932E+01 2.08612E+01 0.00000E+00
 -1      4207 3.17425E+01 2.08825E+01 0.00000E+00
 -1      4208 3.02425E+01 2.08825E+01 0.00000E+00
 -1      4209 2.94500E+01 2.21707E+01 0.00000E+00
 -1      4210 2.56654E+01 2.08196E+01 0.00000E+00
 -1      4211 2.41375E+01 2.07780E+01 0.00000E+00
 -1      4212 2.64222E+01 2.21291E+01 0.00000E+00
 -1      4213 2.71500E+01 2.66180E+01 0.00000E+00
 -1      4214 1.05544E+02 2.05059E+01 0.00000E+00
 -1      4215 4.37850E+01 2.08932E+01 0.00000E+00
 -1      4216 4.22850E+01 2.08932E+01 0.00000E+00
 -1      4217 1.03731E+02 2.60299E+01 0.00000E+00
 -1      4218 5.27850E+01 2.08932E+01 0.00000E+00
 -1      4219 5.12850E+01 2.08932E+01 0.00000E+00
 -1      4220 5.35350E+01 2.21922E+01 0.00000E+00
 -1      4221 1.05541E+02 2.31609E+01 0.00000E+00
 -1      4222 1.05577E+02 2.22390E+01 0.00000E+00
 -1      4223 1.04564E+02 2.39822E+01 0.00000E+00
 -1      4224 3.62850E+01 1.82952E+01 0.00000E+00
 -1      4225 3.47850E+01 1.82952E+01 0.00000E+00
 -1      4226 3.40350E+01 1.95942E+01 0.00000E+00
 -1      4227 2.17746E+01 2.47167E+01 0.00000E+00
 -1      4228 2.26500E+01 2.51493E+01 0.00000E+00
 -1      4229 2.17746E+01 2.32480E+01 0.00000E+00
 -1      4230 3.92850E+01 1.82952E+01 0.00000E+00
 -1      4231 3.77850E+01 1.82952E+01 0.00000E+00
 -1      4232 3.70350E+01 1.95942E+01 0.00000E+00
 -1      4233 4.00350E+01 1.95942E+01 0.00000E+00
 -1      4234 1.04568E+02 2.13273E+01 0.00000E+00
 -1      4235 2.21400E+01 2.11420E+01 0.00000E+00
 -1      4236 4.67850E+01 2.08932E+01 0.00000E+00
 -1      4237 4.52850E+01 2.08932E+01 0.00000E+00
 -1      4238 4.45350E+01 2.21922E+01 0.00000E+00
 -1      4239 2.28968E+01 2.24515E+01 0.00000E+00
 -1      4240 6.88425E+01 2.44051E+01 0.00000E+00
 -1      4241 6.73425E+01 2.44051E+01 0.00000E+00
 -1      4242 3.54000E+01 2.53190E+01 0.00000E+00
 -1      4243 3.69000E+01 2.53190E+01 0.00000E+00
 -1      4244 3.84000E+01 2.53190E+01 0.00000E+00
 -1      4245 3.99000E+01 2.53190E+01 0.00000E+00
 -1      4246 3.76500E+01 2.40200E+01 0.00000E+00
 -1      4247 4.18425E+01 2.44051E+01 0.00000E+00
 -1      4248 4.33425E+01 2.44051E+01 0.00000E+00
 -1      4249 4.48425E+01 2.44051E+01 0.00000E+00
 -1      4250 4.63425E+01 2.44051E+01 0.00000E+00
 -1      4251 5.04000E+01 2.53190E+01 0.00000E+00
 -1      4252 5.19000E+01 2.53190E+01 0.00000E+00
 -1      4253 5.38425E+01 2.44051E+01 0.00000E+00
 -1      4254 5.53425E+01 2.44051E+01 0.00000E+00
 -1      4255 5.68425E+01 2.44051E+01 0.00000E+00
 -1      4256 5.83425E+01 2.44051E+01 0.00000E+00
 -1      4257 5.98425E+01 2.44051E+01 0.00000E+00
 -1      4258 6.13425E+01 2.44051E+01 0.00000E+00
 -1      4259 6.28425E+01 2.44051E+01 0.00000E+00
 -1      4260 6.43425E+01 2.44051E+01 0.00000E+00
 -1      4261 6.58425E+01 2.44051E+01 0.00000E+00
 -1      4262 7.03425E+01 2.44051E+01 0.00000E+00
 -1      4263 7.18425E+01 2.44051E+01 0.00000E+00
 -1      4264 7.33425E+01 2.44051E+01 0.00000E+00
 -1      4265 7.48425E+01 2.44051E+01 0.00000E+00
 -1      4266 7.63425E+01 2.44051E+01 0.00000E+00
 -1      4267 7.78425E+01 2.44051E+01 0.00000E+00
 -1      4268 7.93425E+01 2.44051E+01 0.00000E+00
 -1      4269 8.08425E+01 2.44051E+01 0.00000E+00
 -1      4270 8.23425E+01 2.44051E+01 0.00000E+00
 -1      4271 8.38425E+01 2.44051E+01 0.00000E+00
 -1      4272 8.53425E+01 2.44051E+01 0.00000E+00
 -1      4273 8.68425E+01 2.44051E+01 0.00000E+00
 -1      4274 8.83425E+01 2.44051E+01 0.00000E+00
 -1      4275 8.98425E+01 2.44051E+01 0.00000E+00
 -1      4276 9.13425E+01 2.44051E+01 0.00000E+00
 -1      4277 9.28425E+01 2.44051E+01 0.00000E+00
 -1      4278 9.43425E+01 2.44051E+01 0.00000E+00
 -1      4279 9.58425E+01 2.44051E+01 0.00000E+00
 -1      4280 9.73425E+01 2.44051E+01 0.00000E+00
 -1      4281 9.88425E+01 2.44051E+01 0.00000E+00
 -1      4282 1.00342E+02 2.44051E+01 0.00000E+00
 -1      4283 4.97850E+01 2.08932E+01 0.00000E+00
 -1      4284 4.82850E+01 2.08932E+01 0.00000E+00
 -1      4285 5.05350E+01 2.21922E+01 0.00000E+00
 -1      4286 2.68000E+01 2.43944E+01 0.00000E+00
 -1      4287 2.52722E+01 2.43528E+01 0.00000E+00
 -1      4288 1.01842E+02 2.44051E+01 0.00000E+00
 -1      4289 1.03818E+02 2.26263E+01 0.00000E+00
 -1      4290 2.83000E+01 2.43944E+01 0.00000E+00
 -1      4291 2.41500E+01 2.51493E+01 0.00000E+00
 -1      4292 2.98000E+01 2.43944E+01 0.00000E+00
 -1      4293 3.13000E+01 2.43944E+01 0.00000E+00
 -1      4294 4.10925E+01 2.31061E+01 0.00000E+00
 -1      4295 4.03425E+01 2.18071E+01 0.00000E+00
 -1      4296 3.26000E+01 2.48567E+01 0.00000E+00
 -1      4297 3.41000E+01 2.48567E+01 0.00000E+00
 -1      4298 3.48500E+01 2.35577E+01 0.00000E+00
 -1      4299 3.22500E+01 2.26330E+01 0.00000E+00
 -1      4300 1.02985E+02 2.46740E+01 0.00000E+00
 -1      4301 4.74000E+01 2.53190E+01 0.00000E+00
 -1      4302 4.89000E+01 2.53190E+01 0.00000E+00
 -1      4303 4.96500E+01 2.40200E+01 0.00000E+00
 -1      4304 4.75350E+01 2.21922E+01 0.00000E+00
 -1      4305 5.30925E+01 2.31061E+01 0.00000E+00
 -1      4306 3.30425E+01 2.13448E+01 0.00000E+00
 -1      4307 3.88425E+01 2.18071E+01 0.00000E+00
 -1      4308 3.45425E+01 2.13448E+01 0.00000E+00
 -1      4309 4.70925E+01 2.31061E+01 0.00000E+00
 -1      4310 1.03782E+02 2.35482E+01 0.00000E+00
 -1      4311 4.85925E+01 2.31061E+01 0.00000E+00
 -1      4312 5.00925E+01 2.31061E+01 0.00000E+00
 -1      4313 3.58425E+01 2.18071E+01 0.00000E+00
 -1      4314 3.73425E+01 2.18071E+01 0.00000E+00
 -1      4315 2.37722E+01 2.28840E+01 0.00000E+00
 -1      4316 5.15925E+01 2.31061E+01 0.00000E+00
 -3
    3C                          2076                                     1
 -1       165    8    0    1
 -2         6         7        23      1121      1285      1138
 -1       166    8    0    1
 -2         7         8       165      1122      1286      1287
 -1       167    8    0    1
 -2         8         9       166      1123      1288      1289
 -1       168    8    0    1
 -2         8       166       165      1289      1290      1286
 -1       169    8    0    1
 -2         9        10       167      1124      1291      1292
 -1       170    8    0    1
 -2         9       167       166      1292      1293      1288
 -1       171    8    0    1
 -2        10        11       168      1125      1294      1295
 -1       172    8    0    1
 -2        10       168       167      1295      1296      1291
 -1       173    8    0    1
 -2        11        12       169      1126      1297      1298
 -1       174    8    0    1
 -2        11       169       168      1298      1299      1294
 -1       175    8    0    1
 -2        12        13       170      1127      1300      1301
 -1       176    8    0    1
 -2        12       170       169      1301      1302      1297
 -1       177    8    0    1
 -2        13        14       171      1128      1303      1304
 -1       178    8    0    1
 -2        13       171       170      1304      1305      1300
 -1       179    8    0    1
 -2        14        15       172      1129      1306      1307
 -1       180    8    0    1
 -2        14       172       171      1307      1308      1303
 -1       181    8    0    1
 -2        15        16       173      1130      1309      1310
 -1       182    8    0    1
 -2        15       173       172      1310      1311      1306
 -1       183    8    0    1
 -2        16        17       174      1131      1312      1313
 -1       184    8    0    1
 -2        16       174       173      1313      1314      1309
 -1       185    8    0    1
 -2        17        18       175      1132      1315      1316
 -1       186    8    0    1
 -2        17       175       174      1316      1317      1312
 -1       187    8    0    1
 -2        18        19       176      1133      1318      1319
 -1       188    8    0    1
 -2        18       176       175      1319      1320      1315
 -1       189    8    0    1
 -2        19        20       177      1134      1321      1322
 -1       190    8    0    1
 -2        19       177       176      1322      1323      1318
 -1       191    8    0    1
 -2        20        21       178      1135      1324      1325
 -1       192    8    0    1
 -2        20       178       177      1325      1326      1321
 -1       193    8    0    1
 -2        21        22       179      1136      1327      1328
 -1       194    8    0    1
 -2        21       179       178      1328      1329      1324
 -1       195    8    0    1
 -2        22         5       180      1137      1330      1331
 -1       196    8    0    1
 -2       179        22       180      1327      1331      1332
 -1       197    8    0    1
 -2         5        72       180      1188      1333      1330
 -1       198    8    0    1
 -2        24        23       181      1139      1334      1335
 -1       199    8    0    1
 -2        25        24       182      1140      1336      1337
 -1       200    8    0    1
 -2        24       181       182      1335      1338      1336
 -1       201    8    0    1
 -2        26        25       183      1141      1339      1340
 -1       202    8    0    1
 -2        25       182       183      1337      1341      1339
 -1       203    8    0    1
 -2        27        26       184      1142      1342      1343
 -1       204    8    0    1
 -2        26       183       184      1340      1344      1342
 -1       205    8    0    1
 -2        28        27       185      1143      1345      1346
 -1       206    8    0    1
 -2        27       184       185      1343      1347      1345
 -1       207    8    0    1
 -2        29        28       186      1144      1348      1349
 -1       208    8    0    1
 -2        28       185       186      1346      1350      1348
 -1       209    8    0    1
 -2        30        29       187      1145      1351      1352
 -1       210    8    0    1
 -2        29       186       187      1349      1353      1351
 -1       211    8    0    1
 -2        31        30       188      1146      1354      1355
 -1       212    8    0    1
 -2        30       187       188      1352      1356      1354
 -1       213    8    0    1
 -2        32        31       189      1147      1357      1358
 -1       214    8    0    1
 -2        31       188       189      1355      1359      1357
 -1       215    8    0    1
 -2        33        32       190      1148      1360      1361
 -1       216    8    0    1
 -2        32       189       190      1358      1362      1360
 -1       217    8    0    1
 -2        34        33       191      1149      1363      1364
 -1       218    8    0    1
 -2        33       190       191      1361      1365      1363
 -1       219    8    0    1
 -2        35        34       192      1150      1366      1367
 -1       220    8    0    1
 -2        34       191       192      1364      1368      1366
 -1       221    8    0    1
 -2        36        35       193      1151      1369      1370
 -1       222    8    0    1
 -2        35       192       193      1367      1371      1369
 -1       223    8    0    1
 -2        37        36       194      1152      1372      1373
 -1       224    8    0    1
 -2        36       193       194      1370      1374      1372
 -1       225    8    0    1
 -2        38        37       195      1153      1375      1376
 -1       226    8    0    1
 -2        37       194       195      1373      1377      1375
 -1       227    8    0    1
 -2        39        38       196      1154      1378      1379
 -1       228    8    0    1
 -2        38       195       196      1376      1380      1378
 -1       229    8    0    1
 -2        40        39       197      1155      1381      1382
 -1       230    8    0    1
 -2        39       196       197      1379      1383      1381
 -1       231    8    0    1
 -2        41        40       198      1156      1384      1385
 -1       232    8    0    1
 -2        40       197       198      1382      1386      1384
 -1       233    8    0    1
 -2        42        41       199      1157      1387      1388
 -1       234    8    0    1
 -2        41       198       199      1385      1389      1387
 -1       235    8    0    1
 -2        43        42       200      1158      1390      1391
 -1       236    8    0    1
 -2        42       199       200      1388      1392      1390
 -1       237    8    0    1
 -2        44        43       201      1159      1393      1394
 -1       238    8    0    1
 -2        43       200       201      1391      1395      1393
 -1       239    8    0    1
 -2        45        44       202      1160      1396      1397
 -1       240    8    0    1
 -2        44       201       202      1394      1398      1396
 -1       241    8    0    1
 -2        46        45       203      1161      1399      1400
 -1       242    8    0    1
 -2        45       202       203      1397      1401      1399
 -1       243    8    0    1
 -2        47        46       204      1162      1402      1403
 -1       244    8    0    1
 -2        46       203       204      1400      1404      1402
 -1       245    8    0    1
 -2        48        47       205      1163      1405      1406
 -1       246    8    0    1
 -2        47       204       205      1403      1407      1405
 -1       247    8    0    1
 -2        49        48       206      1164      1408      1409
 -1       248    8    0    1
 -2        48       205       206      1406      1410      1408
 -1       249    8    0    1
 -2        50        49       207      1165      1411      1412
 -1       250    8    0    1
 -2        49       206       207      1409      1413      1411
 -1       251    8    0    1
 -2        51        50       208      1166      1414      1415
 -1       252    8    0    1
 -2        50       207       208      1412      1416      1414
 -1       253    8    0    1
 -2        52        51       209      1167      1417      1418
 -1       254    8    0    1
 -2        51       208       209      1415      1419      1417
 -1       255    8    0    1
 -2        53        52       210      1168      1420      1421
 -1       256    8    0    1
 -2        52       209       210      1418      1422      1420
 -1       257    8    0    1
 -2        54        53       211      1169      1423      1424
 -1       258    8    0    1
 -2        53       210       211      1421      1425      1423
 -1       259    8    0    1
 -2        55        54       212      1170      1426      1427
 -1       260    8    0    1
 -2        54       211       212      1424      1428      1426
 -1       261    8    0    1
 -2        56        55       213      1171      1429      1430
 -1       262    8    0    1
 -2        55       212       213      1427      1431      1429
 -1       263    8    0    1
 -2        57        56       214      1172      1432      1433
 -1       264    8    0    1
 -2        56       213       214      1430      1434      1432
 -1       265    8    0    1
 -2        58        57       215      1173      1435      1436
 -1       266    8    0    1
 -2        57       214       215      1433      1437      1435
 -1       267    8    0    1
 -2        59        58       216      1174      1438      1439
 -1       268    8    0    1
 -2        58       215       216      1436      1440      1438
 -1       269    8    0    1
 -2        60        59       217      1175      1441      1442
 -1       270    8    0    1
 -2        59       216       217      1439      1443      1441
 -1       271    8    0    1
 -2        61        60       218      1176      1444      1445
 -1       272    8    0    1
 -2        60       217       218      1442      1446      1444
 -1       273    8    0    1
 -2        62        61       219      1177      1447      1448
 -1       274    8    0    1
 -2        61       218       219      1445      1449      1447
 -1       275    8    0    1
 -2        63        62       220      1178      1450      1451
 -1       276    8    0    1
 -2        62       219       220      1448      1452      1450
 -1       277    8    0    1
 -2        64        63       221      1179      1453      1454
 -1       278    8    0    1
 -2        63       220       221      1451      1455      1453
 -1       279    8    0    1
 -2        65        64       222      1180      1456      1457
 -1       280    8    0    1
 -2        64       221       222      1454      1458      1456
 -1       281    8    0    1
 -2        66        65       223      1181      1459      1460
 -1       282    8    0    1
 -2        65       222       223      1457      1461      1459
 -1       283    8    0    1
 -2        67        66       224      1182      1462      1463
 -1       284    8    0    1
 -2        66       223       224      1460      1464      1462
 -1       285    8    0    1
 -2        68        67       225      1183      1465      1466
 -1       286    8    0    1
 -2        67       224       225      1463      1467      1465
 -1       287    8    0    1
 -2        69        68       226      1184      1468      1469
 -1       288    8    0    1
 -2        68       225       226      1466      1470      1468
 -1       289    8    0    1
 -2        70        69       227      1185      1471      1472
 -1       290    8    0    1
 -2        69       226       227      1469      1473      1471
 -1       291    8    0    1
 -2        71        70       228      1186      1474      1475
 -1       292    8    0    1
 -2        70       227       228      1472      1476      1474
 -1       293    8    0    1
 -2         4        71       136      1187      1477      1254
 -1       294    8    0    1
 -2       136        71       228      1477      1475      1478
 -1       295    8    0    1
 -2        72        73       229      1189      1479      1480
 -1       296    8    0    1
 -2        72       229       180      1480      1481      1333
 -1       297    8    0    1
 -2        73        74       230      1190      1482      1483
 -1       298    8    0    1
 -2        73       230       229      1483      1484      1479
 -1       299    8    0    1
 -2        74        75       231      1191      1485      1486
 -1       300    8    0    1
 -2        74       231       230      1486      1487      1482
 -1       301    8    0    1
 -2        75        76       232      1192      1488      1489
 -1       302    8    0    1
 -2        75       232       231      1489      1490      1485
 -1       303    8    0    1
 -2        76        77       233      1193      1491      1492
 -1       304    8    0    1
 -2        76       233       232      1492      1493      1488
 -1       305    8    0    1
 -2        77        78       234      1194      1494      1495
 -1       306    8    0    1
 -2        77       234       233      1495      1496      1491
 -1       307    8    0    1
 -2        78        79       235      1195      1497      1498
 -1       308    8    0    1
 -2        78       235       234      1498      1499      1494
 -1       309    8    0    1
 -2        79        80       236      1196      1500      1501
 -1       310    8    0    1
 -2        79       236       235      1501      1502      1497
 -1       311    8    0    1
 -2        80        81       237      1197      1503      1504
 -1       312    8    0    1
 -2        80       237       236      1504      1505      1500
 -1       313    8    0    1
 -2        81        82       238      1198      1506      1507
 -1       314    8    0    1
 -2        81       238       237      1507      1508      1503
 -1       315    8    0    1
 -2        82        83       239      1199      1509      1510
 -1       316    8    0    1
 -2        82       239       238      1510      1511      1506
 -1       317    8    0    1
 -2        83        84       240      1200      1512      1513
 -1       318    8    0    1
 -2        83       240       239      1513      1514      1509
 -1       319    8    0    1
 -2        84        85       241      1201      1515      1516
 -1       320    8    0    1
 -2        84       241       240      1516      1517      1512
 -1       321    8    0    1
 -2        85        86       242      1202      1518      1519
 -1       322    8    0    1
 -2        85       242       241      1519      1520      1515
 -1       323    8    0    1
 -2        86        87       243      1203      1521      1522
 -1       324    8    0    1
 -2        86       243       242      1522      1523      1518
 -1       325    8    0    1
 -2        87        88       244      1204      1524      1525
 -1       326    8    0    1
 -2        87       244       243      1525      1526      1521
 -1       327    8    0    1
 -2        88        89       245      1205      1527      1528
 -1       328    8    0    1
 -2        88       245       244      1528      1529      1524
 -1       329    8    0    1
 -2        89        90       246      1206      1530      1531
 -1       330    8    0    1
 -2        89       246       245      1531      1532      1527
 -1       331    8    0    1
 -2        90        91       247      1207      1533      1534
 -1       332    8    0    1
 -2        90       247       246      1534      1535      1530
 -1       333    8    0    1
 -2        91        92       248      1208      1536      1537
 -1       334    8    0    1
 -2        91       248       247      1537      1538      1533
 -1       335    8    0    1
 -2        92        93       249      1209      1539      1540
 -1       336    8    0    1
 -2        92       249       248      1540      1541      1536
 -1       337    8    0    1
 -2        93        94       250      1210      1542      1543
 -1       338    8    0    1
 -2        93       250       249      1543      1544      1539
 -1       339    8    0    1
 -2        94        95       251      1211      1545      1546
 -1       340    8    0    1
 -2        94       251       250      1546      1547      1542
 -1       341    8    0    1
 -2        95        96       252      1212      1548      1549
 -1       342    8    0    1
 -2        95       252       251      1549      1550      1545
 -1       343    8    0    1
 -2        96        97       253      1213      1551      1552
 -1       344    8    0    1
 -2        96       253       252      1552      1553      1548
 -1       345    8    0    1
 -2        97        98       254      1214      1554      1555
 -1       346    8    0    1
 -2        97       254       253      1555      1556      1551
 -1       347    8    0    1
 -2        98        99       255      1215      1557      1558
 -1       348    8    0    1
 -2        98       255       254      1558      1559      1554
 -1       349    8    0    1
 -2        99       100       256      1216      1560      1561
 -1       350    8    0    1
 -2        99       256       255      1561      1562      1557
 -1       351    8    0    1
 -2       100       101       257      1217      1563      1564
 -1       352    8    0    1
 -2       100       257       256      1564      1565      1560
 -1       353    8    0    1
 -2       101       102       258      1218      1566      1567
 -1       354    8    0    1
 -2       101       258       257      1567      1568      1563
 -1       355    8    0    1
 -2       102       103       259      1219      1569      1570
 -1       356    8    0    1
 -2       102       259       258      1570      1571      1566
 -1       357    8    0    1
 -2       103       104       260      1220      1572      1573
 -1       358    8    0    1
 -2       103       260       259      1573      1574      1569
 -1       359    8    0    1
 -2       104       105       261      1221      1575      1576
 -1       360    8    0    1
 -2       104       261       260      1576      1577      1572
 -1       361    8    0    1
 -2       105       106       262      1222      1578      1579
 -1       362    8    0    1
 -2       105       262       261      1579      1580      1575
 -1       363    8    0    1
 -2       106       107       263      1223      1581      1582
 -1       364    8    0    1
 -2       106       263       262      1582      1583      1578
 -1       365    8    0    1
 -2       107       108       264      1224      1584      1585
 -1       366    8    0    1
 -2       107       264       263      1585      1586      1581
 -1       367    8    0    1
 -2       108       109       265      1225      1587      1588
 -1       368    8    0    1
 -2       108       265       264      1588      1589      1584
 -1       369    8    0    1
 -2       109       110       266      1226      1590      1591
 -1       370    8    0    1
 -2       109       266       265      1591      1592      1587
 -1       371    8    0    1
 -2       110       111       267      1227      1593      1594
 -1       372    8    0    1
 -2       110       267       266      1594      1595      1590
 -1       373    8    0    1
 -2       111       112       268      1228      1596      1597
 -1       374    8    0    1
 -2       111       268       267      1597      1598      1593
 -1       375    8    0    1
 -2       112       113       269      1229      1599      1600
 -1       376    8    0    1
 -2       112       269       268      1600      1601      1596
 -1       377    8    0    1
 -2       113       114       270      1230      1602      1603
 -1       378    8    0    1
 -2       113       270       269      1603      1604      1599
 -1       379    8    0    1
 -2       114       115       271      1231      1605      1606
 -1       380    8    0    1
 -2       114       271       270      1606      1607      1602
 -1       381    8    0    1
 -2       115       116       272      1232      1608      1609
 -1       382    8    0    1
 -2       115       272       271      1609      1610      1605
 -1       383    8    0    1
 -2       116       117       273      1233      1611      1612
 -1       384    8    0    1
 -2       116       273       272      1612      1613      1608
 -1       385    8    0    1
 -2       117       118       274      1234      1614      1615
 -1       386    8    0    1
 -2       117       274       273      1615      1616      1611
 -1       387    8    0    1
 -2       118       119       275      1235      1617      1618
 -1       388    8    0    1
 -2       118       275       274      1618      1619      1614
 -1       389    8    0    1
 -2       119       120       276      1236      1620      1621
 -1       390    8    0    1
 -2       119       276       275      1621      1622      1617
 -1       391    8    0    1
 -2       120         3       121      1237      1238      1623
 -1       392    8    0    1
 -2       121       122       277      1239      1624      1625
 -1       393    8    0    1
 -2       122       123       278      1240      1626      1627
 -1       394    8    0    1
 -2       122       278       277      1627      1628      1624
 -1       395    8    0    1
 -2       123       124       279      1241      1629      1630
 -1       396    8    0    1
 -2       123       279       278      1630      1631      1626
 -1       397    8    0    1
 -2       124       125       280      1242      1632      1633
 -1       398    8    0    1
 -2       124       280       279      1633      1634      1629
 -1       399    8    0    1
 -2       125       126       281      1243      1635      1636
 -1       400    8    0    1
 -2       125       281       280      1636      1637      1632
 -1       401    8    0    1
 -2       126       127       282      1244      1638      1639
 -1       402    8    0    1
 -2       126       282       281      1639      1640      1635
 -1       403    8    0    1
 -2       127       128       283      1245      1641      1642
 -1       404    8    0    1
 -2       127       283       282      1642      1643      1638
 -1       405    8    0    1
 -2       128       129       284      1246      1644      1645
 -1       406    8    0    1
 -2       128       284       283      1645      1646      1641
 -1       407    8    0    1
 -2       129       130       285      1247      1647      1648
 -1       408    8    0    1
 -2       129       285       284      1648      1649      1644
 -1       409    8    0    1
 -2       130       131       286      1248      1650      1651
 -1       410    8    0    1
 -2       130       286       285      1651      1652      1647
 -1       411    8    0    1
 -2       131       132       287      1249      1653      1654
 -1       412    8    0    1
 -2       131       287       286      1654      1655      1650
 -1       413    8    0    1
 -2       132       133       288      1250      1656      1657
 -1       414    8    0    1
 -2       132       288       287      1657      1658      1653
 -1       415    8    0    1
 -2       133       134       289      1251      1659      1660
 -1       416    8    0    1
 -2       133       289       288      1660      1661      1656
 -1       417    8    0    1
 -2       134       135       290      1252      1662      1663
 -1       418    8    0    1
 -2       134       290       289      1663      1664      1659
 -1       419    8    0    1
 -2       135       136       291      1253      1665      1666
 -1       420    8    0    1
 -2       290       135       291      1662      1666      1667
 -1       421    8    0    1
 -2       136       228       291      1478      1668      1665
 -1       422    8    0    1
 -2         2       137       292      1255      1669      1670
 -1       423    8    0    1
 -2       137       138       293      1256      1671      1672
 -1       424    8    0    1
 -2       138       139       294      1257      1673      1674
 -1       425    8    0    1
 -2       139       140       295      1258      1675      1676
 -1       426    8    0    1
 -2       140       141       296      1259      1677      1678
 -1       427    8    0    1
 -2       141       142       297      1260      1679      1680
 -1       428    8    0    1
 -2       142       143       298      1261      1681      1682
 -1       429    8    0    1
 -2       143       144       299      1262      1683      1684
 -1       430    8    0    1
 -2       144       145       300      1263      1685      1686
 -1       431    8    0    1
 -2       145       146       301      1264      1687      1688
 -1       432    8    0    1
 -2       146       147       302      1265      1689      1690
 -1       433    8    0    1
 -2       147       148       303      1266      1691      1692
 -1       434    8    0    1
 -2       148       149       304      1267      1693      1694
 -1       435    8    0    1
 -2       149       150       305      1268      1695      1696
 -1       436    8    0    1
 -2       150       151       306      1269      1697      1698
 -1       437    8    0    1
 -2       151       152       307      1270      1699      1700
 -1       438    8    0    1
 -2       152       153       308      1271      1701      1702
 -1       439    8    0    1
 -2       153       154       309      1272      1703      1704
 -1       440    8    0    1
 -2       154         1       310      1273      1705      1706
 -1       441    8    0    1
 -2         1       155       311      1274      1707      1708
 -1       442    8    0    1
 -2       155       156       312      1275      1709      1710
 -1       443    8    0    1
 -2       156       157       313      1276      1711      1712
 -1       444    8    0    1
 -2       157       158       314      1277      1713      1714
 -1       445    8    0    1
 -2       158       159       315      1278      1715      1716
 -1       446    8    0    1
 -2       159       160       316      1279      1717      1718
 -1       447    8    0    1
 -2       160       161       317      1280      1719      1720
 -1       448    8    0    1
 -2       161       162       318      1281      1721      1722
 -1       449    8    0    1
 -2       162       163       319      1282      1723      1724
 -1       450    8    0    1
 -2       163       164       320      1283      1725      1726
 -1       451    8    0    1
 -2       164         2       321      1284      1727      1728
 -1       452    8    0    1
 -2       295       140       296      1675      1678      1729
 -1       453    8    0    1
 -2       294       139       295      1673      1676      1730
 -1       454    8    0    1
 -2       120       121       276      1623      1731      1620
 -1       455    8    0    1
 -2       121       277       276      1625      1732      1731
 -1       456    8    0    1
 -2       292       137       293      1669      1672      1733
 -1       457    8    0    1
 -2       293       138       294      1671      1674      1734
 -1       458    8    0    1
 -2         2       292       321      1670      1735      1727
 -1       459    8    0    1
 -2       141       297       296      1680      1736      1677
 -1       460    8    0    1
 -2       142       298       297      1682      1737      1679
 -1       461    8    0    1
 -2       143       299       298      1684      1738      1681
 -1       462    8    0    1
 -2       144       300       299      1686      1739      1683
 -1       463    8    0    1
 -2       145       301       300      1688      1740      1685
 -1       464    8    0    1
 -2       146       302       301      1690      1741      1687
 -1       465    8    0    1
 -2       147       303       302      1692      1742      1689
 -1       466    8    0    1
 -2       148       304       303      1694      1743      1691
 -1       467    8    0    1
 -2       149       305       304      1696      1744      1693
 -1       468    8    0    1
 -2       150       306       305      1698      1745      1695
 -1       469    8    0    1
 -2       151       307       306      1700      1746      1697
 -1       470    8    0    1
 -2       152       308       307      1702      1747      1699
 -1       471    8    0    1
 -2       153       309       308      1704      1748      1701
 -1       472    8    0    1
 -2       154       310       309      1706      1749      1703
 -1       473    8    0    1
 -2         1       311       310      1708      1750      1705
 -1       474    8    0    1
 -2       155       312       311      1710      1751      1707
 -1       475    8    0    1
 -2       156       313       312      1712      1752      1709
 -1       476    8    0    1
 -2       157       314       313      1714      1753      1711
 -1       477    8    0    1
 -2       158       315       314      1716      1754      1713
 -1       478    8    0    1
 -2       159       316       315      1718      1755      1715
 -1       479    8    0    1
 -2       160       317       316      1720      1756      1717
 -1       480    8    0    1
 -2       161       318       317      1722      1757      1719
 -1       481    8    0    1
 -2       162       319       318      1724      1758      1721
 -1       482    8    0    1
 -2       163       320       319      1726      1759      1723
 -1       483    8    0    1
 -2       164       321       320      1728      1760      1725
 -1       484    8    0    1
 -2        23         7       165      1285      1287      1761
 -1       485    8    0    1
 -2       166       167       322      1293      1762      1763
 -1       486    8    0    1
 -2       165       166       323      1290      1764      1765
 -1       487    8    0    1
 -2       166       322       323      1763      1766      1764
 -1       488    8    0    1
 -2       168       169       324      1299      1767      1768
 -1       489    8    0    1
 -2       169       170       325      1302      1769      1770
 -1       490    8    0    1
 -2       169       325       324      1770      1771      1767
 -1       491    8    0    1
 -2       170       171       326      1305      1772      1773
 -1       492    8    0    1
 -2       170       326       325      1773      1774      1769
 -1       493    8    0    1
 -2       171       172       327      1308      1775      1776
 -1       494    8    0    1
 -2       171       327       326      1776      1777      1772
 -1       495    8    0    1
 -2       172       173       328      1311      1778      1779
 -1       496    8    0    1
 -2       172       328       327      1779      1780      1775
 -1       497    8    0    1
 -2       173       174       329      1314      1781      1782
 -1       498    8    0    1
 -2       173       329       328      1782      1783      1778
 -1       499    8    0    1
 -2       174       175       330      1317      1784      1785
 -1       500    8    0    1
 -2       174       330       329      1785      1786      1781
 -1       501    8    0    1
 -2       175       176       331      1320      1787      1788
 -1       502    8    0    1
 -2       175       331       330      1788      1789      1784
 -1       503    8    0    1
 -2       176       177       332      1323      1790      1791
 -1       504    8    0    1
 -2       176       332       331      1791      1792      1787
 -1       505    8    0    1
 -2       177       178       333      1326      1793      1794
 -1       506    8    0    1
 -2       177       333       332      1794      1795      1790
 -1       507    8    0    1
 -2       178       179       334      1329      1796      1797
 -1       508    8    0    1
 -2       178       334       333      1797      1798      1793
 -1       509    8    0    1
 -2       179       180       335      1332      1799      1800
 -1       510    8    0    1
 -2       334       179       335      1796      1800      1801
 -1       511    8    0    1
 -2       180       229       335      1481      1802      1799
 -1       512    8    0    1
 -2       181        23       165      1334      1761      1803
 -1       513    8    0    1
 -2       229       230       336      1484      1804      1805
 -1       514    8    0    1
 -2       229       336       335      1805      1806      1802
 -1       515    8    0    1
 -2       181       165       323      1803      1765      1807
 -1       516    8    0    1
 -2       183       182       337      1341      1808      1809
 -1       517    8    0    1
 -2       184       183       338      1344      1810      1811
 -1       518    8    0    1
 -2       183       337       338      1809      1812      1810
 -1       519    8    0    1
 -2       185       184       339      1347      1813      1814
 -1       520    8    0    1
 -2       184       338       339      1811      1815      1813
 -1       521    8    0    1
 -2       186       185       340      1350      1816      1817
 -1       522    8    0    1
 -2       185       339       340      1814      1818      1816
 -1       523    8    0    1
 -2       187       186       341      1353      1819      1820
 -1       524    8    0    1
 -2       186       340       341      1817      1821      1819
 -1       525    8    0    1
 -2       188       187       342      1356      1822      1823
 -1       526    8    0    1
 -2       187       341       342      1820      1824      1822
 -1       527    8    0    1
 -2       189       188       343      1359      1825      1826
 -1       528    8    0    1
 -2       188       342       343      1823      1827      1825
 -1       529    8    0    1
 -2       190       189       344      1362      1828      1829
 -1       530    8    0    1
 -2       189       343       344      1826      1830      1828
 -1       531    8    0    1
 -2       191       190       345      1365      1831      1832
 -1       532    8    0    1
 -2       190       344       345      1829      1833      1831
 -1       533    8    0    1
 -2       192       191       346      1368      1834      1835
 -1       534    8    0    1
 -2       191       345       346      1832      1836      1834
 -1       535    8    0    1
 -2       193       192       347      1371      1837      1838
 -1       536    8    0    1
 -2       192       346       347      1835      1839      1837
 -1       537    8    0    1
 -2       194       193       348      1374      1840      1841
 -1       538    8    0    1
 -2       193       347       348      1838      1842      1840
 -1       539    8    0    1
 -2       195       194       349      1377      1843      1844
 -1       540    8    0    1
 -2       194       348       349      1841      1845      1843
 -1       541    8    0    1
 -2       196       195       350      1380      1846      1847
 -1       542    8    0    1
 -2       195       349       350      1844      1848      1846
 -1       543    8    0    1
 -2       197       196       351      1383      1849      1850
 -1       544    8    0    1
 -2       196       350       351      1847      1851      1849
 -1       545    8    0    1
 -2       198       197       352      1386      1852      1853
 -1       546    8    0    1
 -2       197       351       352      1850      1854      1852
 -1       547    8    0    1
 -2       199       198       353      1389      1855      1856
 -1       548    8    0    1
 -2       198       352       353      1853      1857      1855
 -1       549    8    0    1
 -2       200       199       354      1392      1858      1859
 -1       550    8    0    1
 -2       199       353       354      1856      1860      1858
 -1       551    8    0    1
 -2       201       200       355      1395      1861      1862
 -1       552    8    0    1
 -2       200       354       355      1859      1863      1861
 -1       553    8    0    1
 -2       202       201       356      1398      1864      1865
 -1       554    8    0    1
 -2       201       355       356      1862      1866      1864
 -1       555    8    0    1
 -2       203       202       357      1401      1867      1868
 -1       556    8    0    1
 -2       202       356       357      1865      1869      1867
 -1       557    8    0    1
 -2       204       203       358      1404      1870      1871
 -1       558    8    0    1
 -2       203       357       358      1868      1872      1870
 -1       559    8    0    1
 -2       205       204       359      1407      1873      1874
 -1       560    8    0    1
 -2       204       358       359      1871      1875      1873
 -1       561    8    0    1
 -2       206       205       360      1410      1876      1877
 -1       562    8    0    1
 -2       205       359       360      1874      1878      1876
 -1       563    8    0    1
 -2       207       206       361      1413      1879      1880
 -1       564    8    0    1
 -2       206       360       361      1877      1881      1879
 -1       565    8    0    1
 -2       208       207       362      1416      1882      1883
 -1       566    8    0    1
 -2       207       361       362      1880      1884      1882
 -1       567    8    0    1
 -2       209       208       363      1419      1885      1886
 -1       568    8    0    1
 -2       208       362       363      1883      1887      1885
 -1       569    8    0    1
 -2       210       209       364      1422      1888      1889
 -1       570    8    0    1
 -2       209       363       364      1886      1890      1888
 -1       571    8    0    1
 -2       211       210       365      1425      1891      1892
 -1       572    8    0    1
 -2       210       364       365      1889      1893      1891
 -1       573    8    0    1
 -2       212       211       366      1428      1894      1895
 -1       574    8    0    1
 -2       211       365       366      1892      1896      1894
 -1       575    8    0    1
 -2       213       212       367      1431      1897      1898
 -1       576    8    0    1
 -2       212       366       367      1895      1899      1897
 -1       577    8    0    1
 -2       214       213       368      1434      1900      1901
 -1       578    8    0    1
 -2       213       367       368      1898      1902      1900
 -1       579    8    0    1
 -2       215       214       369      1437      1903      1904
 -1       580    8    0    1
 -2       214       368       369      1901      1905      1903
 -1       581    8    0    1
 -2       216       215       370      1440      1906      1907
 -1       582    8    0    1
 -2       215       369       370      1904      1908      1906
 -1       583    8    0    1
 -2       217       216       371      1443      1909      1910
 -1       584    8    0    1
 -2       216       370       371      1907      1911      1909
 -1       585    8    0    1
 -2       218       217       372      1446      1912      1913
 -1       586    8    0    1
 -2       217       371       372      1910      1914      1912
 -1       587    8    0    1
 -2       219       218       373      1449      1915      1916
 -1       588    8    0    1
 -2       218       372       373      1913      1917      1915
 -1       589    8    0    1
 -2       220       219       374      1452      1918      1919
 -1       590    8    0    1
 -2       219       373       374      1916      1920      1918
 -1       591    8    0    1
 -2       221       220       375      1455      1921      1922
 -1       592    8    0    1
 -2       220       374       375      1919      1923      1921
 -1       593    8    0    1
 -2       222       221       376      1458      1924      1925
 -1       594    8    0    1
 -2       221       375       376      1922      1926      1924
 -1       595    8    0    1
 -2       223       222       377      1461      1927      1928
 -1       596    8    0    1
 -2       222       376       377      1925      1929      1927
 -1       597    8    0    1
 -2       224       223       378      1464      1930      1931
 -1       598    8    0    1
 -2       223       377       378      1928      1932      1930
 -1       599    8    0    1
 -2       225       224       379      1467      1933      1934
 -1       600    8    0    1
 -2       224       378       379      1931      1935      1933
 -1       601    8    0    1
 -2       226       225       380      1470      1936      1937
 -1       602    8    0    1
 -2       225       379       380      1934      1938      1936
 -1       603    8    0    1
 -2       227       226       381      1473      1939      1940
 -1       604    8    0    1
 -2       226       380       381      1937      1941      1939
 -1       605    8    0    1
 -2       228       227       382      1476      1942      1943
 -1       606    8    0    1
 -2       291       228       382      1668      1943      1944
 -1       607    8    0    1
 -2       227       381       382      1940      1945      1942
 -1       608    8    0    1
 -2       230       231       383      1487      1946      1947
 -1       609    8    0    1
 -2       230       383       336      1947      1948      1804
 -1       610    8    0    1
 -2       231       232       384      1490      1949      1950
 -1       611    8    0    1
 -2       231       384       383      1950      1951      1946
 -1       612    8    0    1
 -2       232       233       385      1493      1952      1953
 -1       613    8    0    1
 -2       232       385       384      1953      1954      1949
 -1       614    8    0    1
 -2       233       234       386      1496      1955      1956
 -1       615    8    0    1
 -2       233       386       385      1956      1957      1952
 -1       616    8    0    1
 -2       234       235       387      1499      1958      1959
 -1       617    8    0    1
 -2       234       387       386      1959      1960      1955
 -1       618    8    0    1
 -2       235       236       388      1502      1961      1962
 -1       619    8    0    1
 -2       235       388       387      1962      1963      1958
 -1       620    8    0    1
 -2       236       237       389      1505      1964      1965
 -1       621    8    0    1
 -2       236       389       388      1965      1966      1961
 -1       622    8    0    1
 -2       237       238       390      1508      1967      1968
 -1       623    8    0    1
 -2       237       390       389      1968      1969      1964
 -1       624    8    0    1
 -2       238       239       391      1511      1970      1971
 -1       625    8    0    1
 -2       238       391       390      1971      1972      1967
 -1       626    8    0    1
 -2       239       240       392      1514      1973      1974
 -1       627    8    0    1
 -2       239       392       391      1974      1975      1970
 -1       628    8    0    1
 -2       240       241       393      1517      1976      1977
 -1       629    8    0    1
 -2       240       393       392      1977      1978      1973
 -1       630    8    0    1
 -2       241       242       394      1520      1979      1980
 -1       631    8    0    1
 -2       241       394       393      1980      1981      1976
 -1       632    8    0    1
 -2       242       243       395      1523      1982      1983
 -1       633    8    0    1
 -2       242       395       394      1983      1984      1979
 -1       634    8    0    1
 -2       243       244       396      1526      1985      1986
 -1       635    8    0    1
 -2       243       396       395      1986      1987      1982
 -1       636    8    0    1
 -2       244       245       397      1529      1988      1989
 -1       637    8    0    1
 -2       244       397       396      1989      1990      1985
 -1       638    8    0    1
 -2       245       246       398      1532      1991      1992
 -1       639    8    0    1
 -2       245       398       397      1992      1993      1988
 -1       640    8    0    1
 -2       246       247       399      1535      1994      1995
 -1       641    8    0    1
 -2       246       399       398      1995      1996      1991
 -1       642    8    0    1
 -2       247       248       400      1538      1997      1998
 -1       643    8    0    1
 -2       247       400       399      1998      1999      1994
 -1       644    8    0    1
 -2       248       249       401      1541      2000      2001
 -1       645    8    0    1
 -2       248       401       400      2001      2002      1997
 -1       646    8    0    1
 -2       249       250       402      1544      2003      2004
 -1       647    8    0    1
 -2       249       402       401      2004      2005      2000
 -1       648    8    0    1
 -2       250       251       403      1547      2006      2007
 -1       649    8    0    1
 -2       250       403       402      2007      2008      2003
 -1       650    8    0    1
 -2       251       252       404      1550      2009      2010
 -1       651    8    0    1
 -2       251       404       403      2010      2011      2006
 -1       652    8    0    1
 -2       252       253       405      1553      2012      2013
 -1       653    8    0    1
 -2       252       405       404      2013      2014      2009
 -1       654    8    0    1
 -2       253       254       406      1556      2015      2016
 -1       655    8    0    1
 -2       253       406       405      2016      2017      2012
 -1       656    8    0    1
 -2       254       255       407      1559      2018      2019
 -1       657    8    0    1
 -2       254       407       406      2019      2020      2015
 -1       658    8    0    1
 -2       255       256       408      1562      2021      2022
 -1       659    8    0    1
 -2       255       408       407      2022      2023      2018
 -1       660    8    0    1
 -2       256       257       409      1565      2024      2025
 -1       661    8    0    1
 -2       256       409       408      2025      2026      2021
 -1       662    8    0    1
 -2       257       258       410      1568      2027      2028
 -1       663    8    0    1
 -2       257       410       409      2028      2029      2024
 -1       664    8    0    1
 -2       258       259       411      1571      2030      2031
 -1       665    8    0    1
 -2       258       411       410      2031      2032      2027
 -1       666    8    0    1
 -2       259       260       412      1574      2033      2034
 -1       667    8    0    1
 -2       259       412       411      2034      2035      2030
 -1       668    8    0    1
 -2       260       261       413      1577      2036      2037
 -1       669    8    0    1
 -2       260       413       412      2037      2038      2033
 -1       670    8    0    1
 -2       261       262       414      1580      2039      2040
 -1       671    8    0    1
 -2       261       414       413      2040      2041      2036
 -1       672    8    0    1
 -2       262       263       415      1583      2042      2043
 -1       673    8    0    1
 -2       262       415       414      2043      2044      2039
 -1       674    8    0    1
 -2       263       264       416      1586      2045      2046
 -1       675    8    0    1
 -2       263       416       415      2046      2047      2042
 -1       676    8    0    1
 -2       264       265       417      1589      2048      2049
 -1       677    8    0    1
 -2       264       417       416      2049      2050      2045
 -1       678    8    0    1
 -2       265       266       418      1592      2051      2052
 -1       679    8    0    1
 -2       265       418       417      2052      2053      2048
 -1       680    8    0    1
 -2       266       267       419      1595      2054      2055
 -1       681    8    0    1
 -2       266       419       418      2055      2056      2051
 -1       682    8    0    1
 -2       267       268       420      1598      2057      2058
 -1       683    8    0    1
 -2       267       420       419      2058      2059      2054
 -1       684    8    0    1
 -2       268       269       421      1601      2060      2061
 -1       685    8    0    1
 -2       268       421       420      2061      2062      2057
 -1       686    8    0    1
 -2       269       270       422      1604      2063      2064
 -1       687    8    0    1
 -2       269       422       421      2064      2065      2060
 -1       688    8    0    1
 -2       270       271       423      1607      2066      2067
 -1       689    8    0    1
 -2       270       423       422      2067      2068      2063
 -1       690    8    0    1
 -2       271       272       424      1610      2069      2070
 -1       691    8    0    1
 -2       271       424       423      2070      2071      2066
 -1       692    8    0    1
 -2       272       273       425      1613      2072      2073
 -1       693    8    0    1
 -2       272       425       424      2073      2074      2069
 -1       694    8    0    1
 -2       273       274       426      1616      2075      2076
 -1       695    8    0    1
 -2       273       426       425      2076      2077      2072
 -1       696    8    0    1
 -2       274       275       427      1619      2078      2079
 -1       697    8    0    1
 -2       274       427       426      2079      2080      2075
 -1       698    8    0    1
 -2       275       276       428      1622      2081      2082
 -1       699    8    0    1
 -2       427       275       428      2078      2082      2083
 -1       700    8    0    1
 -2       276       277       428      1732      2084      2081
 -1       701    8    0    1
 -2       279       280       429      1634      2085      2086
 -1       702    8    0    1
 -2       278       279       430      1631      2087      2088
 -1       703    8    0    1
 -2       279       429       430      2086      2089      2087
 -1       704    8    0    1
 -2       277       278       431      1628      2090      2091
 -1       705    8    0    1
 -2       428       277       431      2084      2091      2092
 -1       706    8    0    1
 -2       278       430       431      2088      2093      2090
 -1       707    8    0    1
 -2       280       281       432      1637      2094      2095
 -1       708    8    0    1
 -2       280       432       429      2095      2096      2085
 -1       709    8    0    1
 -2       281       282       433      1640      2097      2098
 -1       710    8    0    1
 -2       281       433       432      2098      2099      2094
 -1       711    8    0    1
 -2       282       283       434      1643      2100      2101
 -1       712    8    0    1
 -2       282       434       433      2101      2102      2097
 -1       713    8    0    1
 -2       283       284       435      1646      2103      2104
 -1       714    8    0    1
 -2       283       435       434      2104      2105      2100
 -1       715    8    0    1
 -2       284       285       436      1649      2106      2107
 -1       716    8    0    1
 -2       284       436       435      2107      2108      2103
 -1       717    8    0    1
 -2       285       286       437      1652      2109      2110
 -1       718    8    0    1
 -2       285       437       436      2110      2111      2106
 -1       719    8    0    1
 -2       286       287       438      1655      2112      2113
 -1       720    8    0    1
 -2       286       438       437      2113      2114      2109
 -1       721    8    0    1
 -2       287       288       439      1658      2115      2116
 -1       722    8    0    1
 -2       287       439       438      2116      2117      2112
 -1       723    8    0    1
 -2       288       289       440      1661      2118      2119
 -1       724    8    0    1
 -2       288       440       439      2119      2120      2115
 -1       725    8    0    1
 -2       289       290       441      1664      2121      2122
 -1       726    8    0    1
 -2       289       441       440      2122      2123      2118
 -1       727    8    0    1
 -2       293       294       442      1734      2124      2125
 -1       728    8    0    1
 -2       321       292       443      1735      2126      2127
 -1       729    8    0    1
 -2       292       293       444      1733      2128      2129
 -1       730    8    0    1
 -2       294       295       445      1730      2130      2131
 -1       731    8    0    1
 -2       294       445       442      2131      2132      2124
 -1       732    8    0    1
 -2       295       296       446      1729      2133      2134
 -1       733    8    0    1
 -2       167       168       447      1296      2135      2136
 -1       734    8    0    1
 -2       322       167       447      1762      2136      2137
 -1       735    8    0    1
 -2       168       324       447      1768      2138      2135
 -1       736    8    0    1
 -2       297       298       448      1737      2139      2140
 -1       737    8    0    1
 -2       298       299       449      1738      2141      2142
 -1       738    8    0    1
 -2       299       300       450      1739      2143      2144
 -1       739    8    0    1
 -2       300       301       451      1740      2145      2146
 -1       740    8    0    1
 -2       301       302       452      1741      2147      2148
 -1       741    8    0    1
 -2       301       452       451      2148      2149      2145
 -1       742    8    0    1
 -2       302       303       453      1742      2150      2151
 -1       743    8    0    1
 -2       303       304       454      1743      2152      2153
 -1       744    8    0    1
 -2       303       454       453      2153      2154      2150
 -1       745    8    0    1
 -2       304       305       455      1744      2155      2156
 -1       746    8    0    1
 -2       305       306       456      1745      2157      2158
 -1       747    8    0    1
 -2       305       456       455      2158      2159      2155
 -1       748    8    0    1
 -2       306       307       457      1746      2160      2161
 -1       749    8    0    1
 -2       307       308       458      1747      2162      2163
 -1       750    8    0    1
 -2       308       309       459      1748      2164      2165
 -1       751    8    0    1
 -2       308       459       458      2165      2166      2162
 -1       752    8    0    1
 -2       309       310       460      1749      2167      2168
 -1       753    8    0    1
 -2       310       311       461      1750      2169      2170
 -1       754    8    0    1
 -2       311       312       462      1751      2171      2172
 -1       755    8    0    1
 -2       312       313       463      1752      2173      2174
 -1       756    8    0    1
 -2       313       314       464      1753      2175      2176
 -1       757    8    0    1
 -2       314       315       465      1754      2177      2178
 -1       758    8    0    1
 -2       315       316       466      1755      2179      2180
 -1       759    8    0    1
 -2       316       317       467      1756      2181      2182
 -1       760    8    0    1
 -2       317       318       468      1757      2183      2184
 -1       761    8    0    1
 -2       318       319       469      1758      2185      2186
 -1       762    8    0    1
 -2       319       320       470      1759      2187      2188
 -1       763    8    0    1
 -2       320       321       471      1760      2189      2190
 -1       764    8    0    1
 -2       296       297       472      1736      2191      2192
 -1       765    8    0    1
 -2       445       295       446      2130      2134      2193
 -1       766    8    0    1
 -2       181       323       182      1807      2194      1338
 -1       767    8    0    1
 -2       297       448       472      2140      2195      2191
 -1       768    8    0    1
 -2       337       182       323      1808      2194      2196
 -1       769    8    0    1
 -2       444       293       442      2128      2125      2197
 -1       770    8    0    1
 -2       443       292       444      2126      2129      2198
 -1       771    8    0    1
 -2       441       290       291      2121      1667      2199
 -1       772    8    0    1
 -2       321       443       471      2127      2200      2189
 -1       773    8    0    1
 -2       446       296       472      2133      2192      2201
 -1       774    8    0    1
 -2       470       320       471      2187      2190      2202
 -1       775    8    0    1
 -2       469       319       470      2185      2188      2203
 -1       776    8    0    1
 -2       468       318       469      2183      2186      2204
 -1       777    8    0    1
 -2       467       317       468      2181      2184      2205
 -1       778    8    0    1
 -2       466       316       467      2179      2182      2206
 -1       779    8    0    1
 -2       465       315       466      2177      2180      2207
 -1       780    8    0    1
 -2       464       314       465      2175      2178      2208
 -1       781    8    0    1
 -2       463       313       464      2173      2176      2209
 -1       782    8    0    1
 -2       462       312       463      2171      2174      2210
 -1       783    8    0    1
 -2       461       311       462      2169      2172      2211
 -1       784    8    0    1
 -2       459       309       460      2164      2168      2212
 -1       785    8    0    1
 -2       456       306       457      2157      2161      2213
 -1       786    8    0    1
 -2       454       304       473      2152      2214      2215
 -1       787    8    0    1
 -2       304       455       473      2156      2216      2214
 -1       788    8    0    1
 -2       452       302       453      2147      2151      2217
 -1       789    8    0    1
 -2       450       300       451      2143      2146      2218
 -1       790    8    0    1
 -2       448       298       449      2139      2142      2219
 -1       791    8    0    1
 -2       449       299       450      2141      2144      2220
 -1       792    8    0    1
 -2       457       307       458      2160      2163      2221
 -1       793    8    0    1
 -2       460       310       461      2167      2170      2222
 -1       794    8    0    1
 -2       336       383       474      1948      2223      2224
 -1       795    8    0    1
 -2       325       326       475      1774      2225      2226
 -1       796    8    0    1
 -2       324       325       476      1771      2227      2228
 -1       797    8    0    1
 -2       325       475       476      2226      2229      2227
 -1       798    8    0    1
 -2       327       328       477      1780      2230      2231
 -1       799    8    0    1
 -2       328       329       478      1783      2232      2233
 -1       800    8    0    1
 -2       328       478       477      2233      2234      2230
 -1       801    8    0    1
 -2       329       330       479      1786      2235      2236
 -1       802    8    0    1
 -2       329       479       478      2236      2237      2232
 -1       803    8    0    1
 -2       330       331       480      1789      2238      2239
 -1       804    8    0    1
 -2       330       480       479      2239      2240      2235
 -1       805    8    0    1
 -2       331       332       481      1792      2241      2242
 -1       806    8    0    1
 -2       331       481       480      2242      2243      2238
 -1       807    8    0    1
 -2       332       333       482      1795      2244      2245
 -1       808    8    0    1
 -2       332       482       481      2245      2246      2241
 -1       809    8    0    1
 -2       383       384       483      1951      2247      2248
 -1       810    8    0    1
 -2       383       483       474      2248      2249      2223
 -1       811    8    0    1
 -2       338       337       484      1812      2250      2251
 -1       812    8    0    1
 -2       472       448       485      2195      2252      2253
 -1       813    8    0    1
 -2       339       338       486      1815      2254      2255
 -1       814    8    0    1
 -2       338       484       486      2251      2256      2254
 -1       815    8    0    1
 -2       340       339       487      1818      2257      2258
 -1       816    8    0    1
 -2       339       486       487      2255      2259      2257
 -1       817    8    0    1
 -2       341       340       488      1821      2260      2261
 -1       818    8    0    1
 -2       340       487       488      2258      2262      2260
 -1       819    8    0    1
 -2       342       341       489      1824      2263      2264
 -1       820    8    0    1
 -2       341       488       489      2261      2265      2263
 -1       821    8    0    1
 -2       343       342       490      1827      2266      2267
 -1       822    8    0    1
 -2       342       489       490      2264      2268      2266
 -1       823    8    0    1
 -2       344       343       491      1830      2269      2270
 -1       824    8    0    1
 -2       343       490       491      2267      2271      2269
 -1       825    8    0    1
 -2       345       344       492      1833      2272      2273
 -1       826    8    0    1
 -2       344       491       492      2270      2274      2272
 -1       827    8    0    1
 -2       346       345       493      1836      2275      2276
 -1       828    8    0    1
 -2       345       492       493      2273      2277      2275
 -1       829    8    0    1
 -2       347       346       494      1839      2278      2279
 -1       830    8    0    1
 -2       346       493       494      2276      2280      2278
 -1       831    8    0    1
 -2       348       347       495      1842      2281      2282
 -1       832    8    0    1
 -2       347       494       495      2279      2283      2281
 -1       833    8    0    1
 -2       349       348       496      1845      2284      2285
 -1       834    8    0    1
 -2       348       495       496      2282      2286      2284
 -1       835    8    0    1
 -2       350       349       497      1848      2287      2288
 -1       836    8    0    1
 -2       349       496       497      2285      2289      2287
 -1       837    8    0    1
 -2       351       350       498      1851      2290      2291
 -1       838    8    0    1
 -2       350       497       498      2288      2292      2290
 -1       839    8    0    1
 -2       352       351       499      1854      2293      2294
 -1       840    8    0    1
 -2       351       498       499      2291      2295      2293
 -1       841    8    0    1
 -2       353       352       500      1857      2296      2297
 -1       842    8    0    1
 -2       352       499       500      2294      2298      2296
 -1       843    8    0    1
 -2       354       353       501      1860      2299      2300
 -1       844    8    0    1
 -2       353       500       501      2297      2301      2299
 -1       845    8    0    1
 -2       355       354       502      1863      2302      2303
 -1       846    8    0    1
 -2       354       501       502      2300      2304      2302
 -1       847    8    0    1
 -2       356       355       503      1866      2305      2306
 -1       848    8    0    1
 -2       355       502       503      2303      2307      2305
 -1       849    8    0    1
 -2       357       356       504      1869      2308      2309
 -1       850    8    0    1
 -2       356       503       504      2306      2310      2308
 -1       851    8    0    1
 -2       358       357       505      1872      2311      2312
 -1       852    8    0    1
 -2       357       504       505      2309      2313      2311
 -1       853    8    0    1
 -2       359       358       506      1875      2314      2315
 -1       854    8    0    1
 -2       358       505       506      2312      2316      2314
 -1       855    8    0    1
 -2       360       359       507      1878      2317      2318
 -1       856    8    0    1
 -2       359       506       507      2315      2319      2317
 -1       857    8    0    1
 -2       361       360       508      1881      2320      2321
 -1       858    8    0    1
 -2       360       507       508      2318      2322      2320
 -1       859    8    0    1
 -2       362       361       509      1884      2323      2324
 -1       860    8    0    1
 -2       361       508       509      2321      2325      2323
 -1       861    8    0    1
 -2       363       362       510      1887      2326      2327
 -1       862    8    0    1
 -2       362       509       510      2324      2328      2326
 -1       863    8    0    1
 -2       364       363       511      1890      2329      2330
 -1       864    8    0    1
 -2       363       510       511      2327      2331      2329
 -1       865    8    0    1
 -2       365       364       512      1893      2332      2333
 -1       866    8    0    1
 -2       364       511       512      2330      2334      2332
 -1       867    8    0    1
 -2       366       365       513      1896      2335      2336
 -1       868    8    0    1
 -2       365       512       513      2333      2337      2335
 -1       869    8    0    1
 -2       367       366       514      1899      2338      2339
 -1       870    8    0    1
 -2       366       513       514      2336      2340      2338
 -1       871    8    0    1
 -2       368       367       515      1902      2341      2342
 -1       872    8    0    1
 -2       367       514       515      2339      2343      2341
 -1       873    8    0    1
 -2       369       368       516      1905      2344      2345
 -1       874    8    0    1
 -2       368       515       516      2342      2346      2344
 -1       875    8    0    1
 -2       370       369       517      1908      2347      2348
 -1       876    8    0    1
 -2       369       516       517      2345      2349      2347
 -1       877    8    0    1
 -2       371       370       518      1911      2350      2351
 -1       878    8    0    1
 -2       370       517       518      2348      2352      2350
 -1       879    8    0    1
 -2       372       371       519      1914      2353      2354
 -1       880    8    0    1
 -2       371       518       519      2351      2355      2353
 -1       881    8    0    1
 -2       373       372       520      1917      2356      2357
 -1       882    8    0    1
 -2       372       519       520      2354      2358      2356
 -1       883    8    0    1
 -2       374       373       521      1920      2359      2360
 -1       884    8    0    1
 -2       373       520       521      2357      2361      2359
 -1       885    8    0    1
 -2       375       374       522      1923      2362      2363
 -1       886    8    0    1
 -2       374       521       522      2360      2364      2362
 -1       887    8    0    1
 -2       376       375       523      1926      2365      2366
 -1       888    8    0    1
 -2       375       522       523      2363      2367      2365
 -1       889    8    0    1
 -2       377       376       524      1929      2368      2369
 -1       890    8    0    1
 -2       376       523       524      2366      2370      2368
 -1       891    8    0    1
 -2       378       377       525      1932      2371      2372
 -1       892    8    0    1
 -2       377       524       525      2369      2373      2371
 -1       893    8    0    1
 -2       379       378       526      1935      2374      2375
 -1       894    8    0    1
 -2       378       525       526      2372      2376      2374
 -1       895    8    0    1
 -2       380       379       527      1938      2377      2378
 -1       896    8    0    1
 -2       379       526       527      2375      2379      2377
 -1       897    8    0    1
 -2       381       380       528      1941      2380      2381
 -1       898    8    0    1
 -2       380       527       528      2378      2382      2380
 -1       899    8    0    1
 -2       385       386       529      1957      2383      2384
 -1       900    8    0    1
 -2       386       387       530      1960      2385      2386
 -1       901    8    0    1
 -2       386       530       529      2386      2387      2383
 -1       902    8    0    1
 -2       387       388       531      1963      2388      2389
 -1       903    8    0    1
 -2       387       531       530      2389      2390      2385
 -1       904    8    0    1
 -2       388       389       532      1966      2391      2392
 -1       905    8    0    1
 -2       388       532       531      2392      2393      2388
 -1       906    8    0    1
 -2       389       390       533      1969      2394      2395
 -1       907    8    0    1
 -2       389       533       532      2395      2396      2391
 -1       908    8    0    1
 -2       390       391       534      1972      2397      2398
 -1       909    8    0    1
 -2       390       534       533      2398      2399      2394
 -1       910    8    0    1
 -2       391       392       535      1975      2400      2401
 -1       911    8    0    1
 -2       391       535       534      2401      2402      2397
 -1       912    8    0    1
 -2       392       393       536      1978      2403      2404
 -1       913    8    0    1
 -2       392       536       535      2404      2405      2400
 -1       914    8    0    1
 -2       393       394       537      1981      2406      2407
 -1       915    8    0    1
 -2       393       537       536      2407      2408      2403
 -1       916    8    0    1
 -2       394       395       538      1984      2409      2410
 -1       917    8    0    1
 -2       394       538       537      2410      2411      2406
 -1       918    8    0    1
 -2       395       396       539      1987      2412      2413
 -1       919    8    0    1
 -2       395       539       538      2413      2414      2409
 -1       920    8    0    1
 -2       396       397       540      1990      2415      2416
 -1       921    8    0    1
 -2       396       540       539      2416      2417      2412
 -1       922    8    0    1
 -2       397       398       541      1993      2418      2419
 -1       923    8    0    1
 -2       397       541       540      2419      2420      2415
 -1       924    8    0    1
 -2       398       399       542      1996      2421      2422
 -1       925    8    0    1
 -2       398       542       541      2422      2423      2418
 -1       926    8    0    1
 -2       399       400       543      1999      2424      2425
 -1       927    8    0    1
 -2       399       543       542      2425      2426      2421
 -1       928    8    0    1
 -2       400       401       544      2002      2427      2428
 -1       929    8    0    1
 -2       400       544       543      2428      2429      2424
 -1       930    8    0    1
 -2       401       402       545      2005      2430      2431
 -1       931    8    0    1
 -2       401       545       544      2431      2432      2427
 -1       932    8    0    1
 -2       402       403       546      2008      2433      2434
 -1       933    8    0    1
 -2       402       546       545      2434      2435      2430
 -1       934    8    0    1
 -2       403       404       547      2011      2436      2437
 -1       935    8    0    1
 -2       403       547       546      2437      2438      2433
 -1       936    8    0    1
 -2       404       405       548      2014      2439      2440
 -1       937    8    0    1
 -2       404       548       547      2440      2441      2436
 -1       938    8    0    1
 -2       405       406       549      2017      2442      2443
 -1       939    8    0    1
 -2       405       549       548      2443      2444      2439
 -1       940    8    0    1
 -2       406       407       550      2020      2445      2446
 -1       941    8    0    1
 -2       406       550       549      2446      2447      2442
 -1       942    8    0    1
 -2       407       408       551      2023      2448      2449
 -1       943    8    0    1
 -2       407       551       550      2449      2450      2445
 -1       944    8    0    1
 -2       408       409       552      2026      2451      2452
 -1       945    8    0    1
 -2       408       552       551      2452      2453      2448
 -1       946    8    0    1
 -2       409       410       553      2029      2454      2455
 -1       947    8    0    1
 -2       409       553       552      2455      2456      2451
 -1       948    8    0    1
 -2       410       411       554      2032      2457      2458
 -1       949    8    0    1
 -2       410       554       553      2458      2459      2454
 -1       950    8    0    1
 -2       411       412       555      2035      2460      2461
 -1       951    8    0    1
 -2       411       555       554      2461      2462      2457
 -1       952    8    0    1
 -2       412       413       556      2038      2463      2464
 -1       953    8    0    1
 -2       412       556       555      2464      2465      2460
 -1       954    8    0    1
 -2       413       414       557      2041      2466      2467
 -1       955    8    0    1
 -2       413       557       556      2467      2468      2463
 -1       956    8    0    1
 -2       414       415       558      2044      2469      2470
 -1       957    8    0    1
 -2       414       558       557      2470      2471      2466
 -1       958    8    0    1
 -2       415       416       559      2047      2472      2473
 -1       959    8    0    1
 -2       415       559       558      2473      2474      2469
 -1       960    8    0    1
 -2       416       417       560      2050      2475      2476
 -1       961    8    0    1
 -2       416       560       559      2476      2477      2472
 -1       962    8    0    1
 -2       417       418       561      2053      2478      2479
 -1       963    8    0    1
 -2       417       561       560      2479      2480      2475
 -1       964    8    0    1
 -2       418       419       562      2056      2481      2482
 -1       965    8    0    1
 -2       418       562       561      2482      2483      2478
 -1       966    8    0    1
 -2       419       420       563      2059      2484      2485
 -1       967    8    0    1
 -2       419       563       562      2485      2486      2481
 -1       968    8    0    1
 -2       420       421       564      2062      2487      2488
 -1       969    8    0    1
 -2       420       564       563      2488      2489      2484
 -1       970    8    0    1
 -2       421       422       565      2065      2490      2491
 -1       971    8    0    1
 -2       421       565       564      2491      2492      2487
 -1       972    8    0    1
 -2       422       423       566      2068      2493      2494
 -1       973    8    0    1
 -2       422       566       565      2494      2495      2490
 -1       974    8    0    1
 -2       423       424       567      2071      2496      2497
 -1       975    8    0    1
 -2       423       567       566      2497      2498      2493
 -1       976    8    0    1
 -2       424       425       568      2074      2499      2500
 -1       977    8    0    1
 -2       424       568       567      2500      2501      2496
 -1       978    8    0    1
 -2       425       426       569      2077      2502      2503
 -1       979    8    0    1
 -2       425       569       568      2503      2504      2499
 -1       980    8    0    1
 -2       426       427       570      2080      2505      2506
 -1       981    8    0    1
 -2       426       570       569      2506      2507      2502
 -1       982    8    0    1
 -2       427       428       431      2083      2092      2508
 -1       983    8    0    1
 -2       432       433       571      2099      2509      2510
 -1       984    8    0    1
 -2       433       434       572      2102      2511      2512
 -1       985    8    0    1
 -2       433       572       571      2512      2513      2509
 -1       986    8    0    1
 -2       430       429       573      2089      2514      2515
 -1       987    8    0    1
 -2       429       432       574      2096      2516      2517
 -1       988    8    0    1
 -2       573       429       574      2514      2517      2518
 -1       989    8    0    1
 -2       432       571       574      2510      2519      2516
 -1       990    8    0    1
 -2       434       435       575      2105      2520      2521
 -1       991    8    0    1
 -2       434       575       572      2521      2522      2511
 -1       992    8    0    1
 -2       435       436       576      2108      2523      2524
 -1       993    8    0    1
 -2       435       576       575      2524      2525      2520
 -1       994    8    0    1
 -2       436       437       577      2111      2526      2527
 -1       995    8    0    1
 -2       436       577       576      2527      2528      2523
 -1       996    8    0    1
 -2       437       438       578      2114      2529      2530
 -1       997    8    0    1
 -2       437       578       577      2530      2531      2526
 -1       998    8    0    1
 -2       438       439       579      2117      2532      2533
 -1       999    8    0    1
 -2       438       579       578      2533      2534      2529
 -1      1000    8    0    1
 -2       439       440       580      2120      2535      2536
 -1      1001    8    0    1
 -2       439       580       579      2536      2537      2532
 -1      1002    8    0    1
 -2       440       441       581      2123      2538      2539
 -1      1003    8    0    1
 -2       440       581       580      2539      2540      2535
 -1      1004    8    0    1
 -2       443       444       582      2198      2541      2542
 -1      1005    8    0    1
 -2       444       442       583      2197      2543      2544
 -1      1006    8    0    1
 -2       471       443       584      2200      2545      2546
 -1      1007    8    0    1
 -2       384       385       585      1954      2547      2548
 -1      1008    8    0    1
 -2       385       529       585      2384      2549      2547
 -1      1009    8    0    1
 -2       441       291       382      2199      1944      2550
 -1      1010    8    0    1
 -2       442       445       586      2132      2551      2552
 -1      1011    8    0    1
 -2       337       323       587      2196      2553      2554
 -1      1012    8    0    1
 -2       484       337       587      2250      2554      2555
 -1      1013    8    0    1
 -2       323       322       587      1766      2556      2553
 -1      1014    8    0    1
 -2       446       472       588      2201      2557      2558
 -1      1015    8    0    1
 -2       456       457       589      2213      2559      2560
 -1      1016    8    0    1
 -2       450       451       590      2218      2561      2562
 -1      1017    8    0    1
 -2       326       327       591      1777      2563      2564
 -1      1018    8    0    1
 -2       475       326       591      2225      2564      2565
 -1      1019    8    0    1
 -2       327       477       591      2231      2566      2563
 -1      1020    8    0    1
 -2       449       450       592      2220      2567      2568
 -1      1021    8    0    1
 -2       457       458       593      2221      2569      2570
 -1      1022    8    0    1
 -2       448       449       594      2219      2571      2572
 -1      1023    8    0    1
 -2       485       448       594      2252      2572      2573
 -1      1024    8    0    1
 -2       449       592       594      2568      2574      2571
 -1      1025    8    0    1
 -2       451       452       595      2149      2575      2576
 -1      1026    8    0    1
 -2       452       453       596      2217      2577      2578
 -1      1027    8    0    1
 -2       452       596       595      2578      2579      2575
 -1      1028    8    0    1
 -2       453       454       597      2154      2580      2581
 -1      1029    8    0    1
 -2       453       597       596      2581      2582      2577
 -1      1030    8    0    1
 -2       455       456       598      2159      2583      2584
 -1      1031    8    0    1
 -2       460       461       599      2222      2585      2586
 -1      1032    8    0    1
 -2       458       459       600      2166      2587      2588
 -1      1033    8    0    1
 -2       459       460       601      2212      2589      2590
 -1      1034    8    0    1
 -2       459       601       600      2590      2591      2587
 -1      1035    8    0    1
 -2       461       462       602      2211      2592      2593
 -1      1036    8    0    1
 -2       461       602       599      2593      2594      2585
 -1      1037    8    0    1
 -2       462       463       603      2210      2595      2596
 -1      1038    8    0    1
 -2       463       464       604      2209      2597      2598
 -1      1039    8    0    1
 -2       463       604       603      2598      2599      2595
 -1      1040    8    0    1
 -2       464       465       605      2208      2600      2601
 -1      1041    8    0    1
 -2       465       466       606      2207      2602      2603
 -1      1042    8    0    1
 -2       466       467       607      2206      2604      2605
 -1      1043    8    0    1
 -2       466       607       606      2605      2606      2602
 -1      1044    8    0    1
 -2       467       468       608      2205      2607      2608
 -1      1045    8    0    1
 -2       468       469       609      2204      2609      2610
 -1      1046    8    0    1
 -2       469       470       610      2203      2611      2612
 -1      1047    8    0    1
 -2       469       610       609      2612      2613      2609
 -1      1048    8    0    1
 -2       470       471       611      2202      2614      2615
 -1      1049    8    0    1
 -2       335       336       612      1806      2616      2617
 -1      1050    8    0    1
 -2       334       335       612      1801      2617      2618
 -1      1051    8    0    1
 -2       336       474       612      2224      2619      2616
 -1      1052    8    0    1
 -2       445       446       613      2193      2620      2621
 -1      1053    8    0    1
 -2       445       613       586      2621      2622      2551
 -1      1054    8    0    1
 -2       451       595       590      2576      2623      2561
 -1      1055    8    0    1
 -2       324       476       614      2228      2624      2625
 -1      1056    8    0    1
 -2       324       614       447      2625      2626      2138
 -1      1057    8    0    1
 -2       483       384       585      2247      2548      2627
 -1      1058    8    0    1
 -2       333       334       612      1798      2618      2628
 -1      1059    8    0    1
 -2       613       446       588      2620      2558      2629
 -1      1060    8    0    1
 -2       588       472       485      2557      2253      2630
 -1      1061    8    0    1
 -2       442       586       583      2552      2631      2543
 -1      1062    8    0    1
 -2       427       431       570      2508      2632      2505
 -1      1063    8    0    1
 -2       431       430       570      2093      2633      2632
 -1      1064    8    0    1
 -2       443       582       615      2542      2634      2635
 -1      1065    8    0    1
 -2       443       615       584      2635      2636      2545
 -1      1066    8    0    1
 -2       582       444       583      2541      2544      2637
 -1      1067    8    0    1
 -2       610       470       611      2611      2615      2638
 -1      1068    8    0    1
 -2       471       584       611      2546      2639      2614
 -1      1069    8    0    1
 -2       333       612       482      2628      2640      2244
 -1      1070    8    0    1
 -2       587       322       447      2556      2137      2641
 -1      1071    8    0    1
 -2       607       467       608      2604      2608      2642
 -1      1072    8    0    1
 -2       589       457       593      2559      2570      2643
 -1      1073    8    0    1
 -2       456       589       598      2560      2644      2583
 -1      1074    8    0    1
 -2       604       464       605      2597      2601      2645
 -1      1075    8    0    1
 -2       601       460       599      2589      2586      2646
 -1      1076    8    0    1
 -2       462       603       602      2596      2647      2592
 -1      1077    8    0    1
 -2       450       590       616      2562      2648      2649
 -1      1078    8    0    1
 -2       450       616       592      2649      2650      2567
 -1      1079    8    0    1
 -2       473       455       598      2216      2584      2651
 -1      1080    8    0    1
 -2       593       458       600      2569      2588      2652
 -1      1081    8    0    1
 -2       597       454       617      2580      2653      2654
 -1      1082    8    0    1
 -2       454       473       617      2215      2655      2653
 -1      1083    8    0    1
 -2       441       382       618      2550      2656      2657
 -1      1084    8    0    1
 -2       581       441       618      2538      2657      2658
 -1      1085    8    0    1
 -2       382       381       618      1945      2659      2656
 -1      1086    8    0    1
 -2       605       465       606      2600      2603      2660
 -1      1087    8    0    1
 -2       608       468       609      2607      2610      2661
 -1      1088    8    0    1
 -2       570       430       573      2633      2515      2662
 -1      1089    8    0    1
 -2       618       381       528      2659      2381      2663
 -1      1090    8    0    1
 -2       478       479       619      2237      2664      2665
 -1      1091    8    0    1
 -2       477       478       620      2234      2666      2667
 -1      1092    8    0    1
 -2       478       619       620      2665      2668      2666
 -1      1093    8    0    1
 -2       480       481       621      2243      2669      2670
 -1      1094    8    0    1
 -2       481       482       622      2246      2671      2672
 -1      1095    8    0    1
 -2       481       622       621      2672      2673      2669
 -1      1096    8    0    1
 -2       474       483       623      2249      2674      2675
 -1      1097    8    0    1
 -2       587       447       614      2641      2626      2676
 -1      1098    8    0    1
 -2       483       585       624      2627      2677      2678
 -1      1099    8    0    1
 -2       483       624       623      2678      2679      2674
 -1      1100    8    0    1
 -2       583       586       625      2631      2680      2681
 -1      1101    8    0    1
 -2       487       486       626      2259      2682      2683
 -1      1102    8    0    1
 -2       488       487       627      2262      2684      2685
 -1      1103    8    0    1
 -2       487       626       627      2683      2686      2684
 -1      1104    8    0    1
 -2       489       488       628      2265      2687      2688
 -1      1105    8    0    1
 -2       488       627       628      2685      2689      2687
 -1      1106    8    0    1
 -2       490       489       629      2268      2690      2691
 -1      1107    8    0    1
 -2       489       628       629      2688      2692      2690
 -1      1108    8    0    1
 -2       491       490       630      2271      2693      2694
 -1      1109    8    0    1
 -2       490       629       630      2691      2695      2693
 -1      1110    8    0    1
 -2       492       491       631      2274      2696      2697
 -1      1111    8    0    1
 -2       491       630       631      2694      2698      2696
 -1      1112    8    0    1
 -2       493       492       632      2277      2699      2700
 -1      1113    8    0    1
 -2       492       631       632      2697      2701      2699
 -1      1114    8    0    1
 -2       494       493       633      2280      2702      2703
 -1      1115    8    0    1
 -2       493       632       633      2700      2704      2702
 -1      1116    8    0    1
 -2       495       494       634      2283      2705      2706
 -1      1117    8    0    1
 -2       494       633       634      2703      2707      2705
 -1      1118    8    0    1
 -2       496       495       635      2286      2708      2709
 -1      1119    8    0    1
 -2       495       634       635      2706      2710      2708
 -1      1120    8    0    1
 -2       497       496       636      2289      2711      2712
 -1      1121    8    0    1
 -2       496       635       636      2709      2713      2711
 -1      1122    8    0    1
 -2       498       497       637      2292      2714      2715
 -1      1123    8    0    1
 -2       497       636       637      2712      2716      2714
 -1      1124    8    0    1
 -2       499       498       638      2295      2717      2718
 -1      1125    8    0    1
 -2       498       637       638      2715      2719      2717
 -1      1126    8    0    1
 -2       500       499       639      2298      2720      2721
 -1      1127    8    0    1
 -2       499       638       639      2718      2722      2720
 -1      1128    8    0    1
 -2       501       500       640      2301      2723      2724
 -1      1129    8    0    1
 -2       500       639       640      2721      2725      2723
 -1      1130    8    0    1
 -2       502       501       641      2304      2726      2727
 -1      1131    8    0    1
 -2       501       640       641      2724      2728      2726
 -1      1132    8    0    1
 -2       503       502       642      2307      2729      2730
 -1      1133    8    0    1
 -2       502       641       642      2727      2731      2729
 -1      1134    8    0    1
 -2       504       503       643      2310      2732      2733
 -1      1135    8    0    1
 -2       503       642       643      2730      2734      2732
 -1      1136    8    0    1
 -2       505       504       644      2313      2735      2736
 -1      1137    8    0    1
 -2       504       643       644      2733      2737      2735
 -1      1138    8    0    1
 -2       506       505       645      2316      2738      2739
 -1      1139    8    0    1
 -2       505       644       645      2736      2740      2738
 -1      1140    8    0    1
 -2       507       506       646      2319      2741      2742
 -1      1141    8    0    1
 -2       506       645       646      2739      2743      2741
 -1      1142    8    0    1
 -2       508       507       647      2322      2744      2745
 -1      1143    8    0    1
 -2       507       646       647      2742      2746      2744
 -1      1144    8    0    1
 -2       509       508       648      2325      2747      2748
 -1      1145    8    0    1
 -2       508       647       648      2745      2749      2747
 -1      1146    8    0    1
 -2       510       509       649      2328      2750      2751
 -1      1147    8    0    1
 -2       509       648       649      2748      2752      2750
 -1      1148    8    0    1
 -2       511       510       650      2331      2753      2754
 -1      1149    8    0    1
 -2       510       649       650      2751      2755      2753
 -1      1150    8    0    1
 -2       512       511       651      2334      2756      2757
 -1      1151    8    0    1
 -2       511       650       651      2754      2758      2756
 -1      1152    8    0    1
 -2       513       512       652      2337      2759      2760
 -1      1153    8    0    1
 -2       512       651       652      2757      2761      2759
 -1      1154    8    0    1
 -2       514       513       653      2340      2762      2763
 -1      1155    8    0    1
 -2       513       652       653      2760      2764      2762
 -1      1156    8    0    1
 -2       515       514       654      2343      2765      2766
 -1      1157    8    0    1
 -2       514       653       654      2763      2767      2765
 -1      1158    8    0    1
 -2       516       515       655      2346      2768      2769
 -1      1159    8    0    1
 -2       515       654       655      2766      2770      2768
 -1      1160    8    0    1
 -2       517       516       656      2349      2771      2772
 -1      1161    8    0    1
 -2       516       655       656      2769      2773      2771
 -1      1162    8    0    1
 -2       518       517       657      2352      2774      2775
 -1      1163    8    0    1
 -2       517       656       657      2772      2776      2774
 -1      1164    8    0    1
 -2       519       518       658      2355      2777      2778
 -1      1165    8    0    1
 -2       518       657       658      2775      2779      2777
 -1      1166    8    0    1
 -2       520       519       659      2358      2780      2781
 -1      1167    8    0    1
 -2       519       658       659      2778      2782      2780
 -1      1168    8    0    1
 -2       521       520       660      2361      2783      2784
 -1      1169    8    0    1
 -2       520       659       660      2781      2785      2783
 -1      1170    8    0    1
 -2       522       521       661      2364      2786      2787
 -1      1171    8    0    1
 -2       521       660       661      2784      2788      2786
 -1      1172    8    0    1
 -2       524       523       662      2370      2789      2790
 -1      1173    8    0    1
 -2       525       524       663      2373      2791      2792
 -1      1174    8    0    1
 -2       526       525       664      2376      2793      2794
 -1      1175    8    0    1
 -2       525       663       664      2792      2795      2793
 -1      1176    8    0    1
 -2       527       526       665      2379      2796      2797
 -1      1177    8    0    1
 -2       526       664       665      2794      2798      2796
 -1      1178    8    0    1
 -2       528       527       666      2382      2799      2800
 -1      1179    8    0    1
 -2       527       665       666      2797      2801      2799
 -1      1180    8    0    1
 -2       530       531       667      2390      2802      2803
 -1      1181    8    0    1
 -2       605       606       663      2660      2804      2805
 -1      1182    8    0    1
 -2       529       530       668      2387      2806      2807
 -1      1183    8    0    1
 -2       530       667       668      2803      2808      2806
 -1      1184    8    0    1
 -2       532       533       669      2396      2809      2810
 -1      1185    8    0    1
 -2       533       534       670      2399      2811      2812
 -1      1186    8    0    1
 -2       533       670       669      2812      2813      2809
 -1      1187    8    0    1
 -2       534       535       671      2402      2814      2815
 -1      1188    8    0    1
 -2       534       671       670      2815      2816      2811
 -1      1189    8    0    1
 -2       535       536       672      2405      2817      2818
 -1      1190    8    0    1
 -2       535       672       671      2818      2819      2814
 -1      1191    8    0    1
 -2       536       537       673      2408      2820      2821
 -1      1192    8    0    1
 -2       536       673       672      2821      2822      2817
 -1      1193    8    0    1
 -2       537       538       674      2411      2823      2824
 -1      1194    8    0    1
 -2       537       674       673      2824      2825      2820
 -1      1195    8    0    1
 -2       538       539       675      2414      2826      2827
 -1      1196    8    0    1
 -2       538       675       674      2827      2828      2823
 -1      1197    8    0    1
 -2       539       540       676      2417      2829      2830
 -1      1198    8    0    1
 -2       539       676       675      2830      2831      2826
 -1      1199    8    0    1
 -2       540       541       677      2420      2832      2833
 -1      1200    8    0    1
 -2       540       677       676      2833      2834      2829
 -1      1201    8    0    1
 -2       541       542       678      2423      2835      2836
 -1      1202    8    0    1
 -2       541       678       677      2836      2837      2832
 -1      1203    8    0    1
 -2       542       543       679      2426      2838      2839
 -1      1204    8    0    1
 -2       542       679       678      2839      2840      2835
 -1      1205    8    0    1
 -2       543       544       680      2429      2841      2842
 -1      1206    8    0    1
 -2       543       680       679      2842      2843      2838
 -1      1207    8    0    1
 -2       544       545       681      2432      2844      2845
 -1      1208    8    0    1
 -2       544       681       680      2845      2846      2841
 -1      1209    8    0    1
 -2       545       546       682      2435      2847      2848
 -1      1210    8    0    1
 -2       545       682       681      2848      2849      2844
 -1      1211    8    0    1
 -2       546       547       683      2438      2850      2851
 -1      1212    8    0    1
 -2       546       683       682      2851      2852      2847
 -1      1213    8    0    1
 -2       547       548       684      2441      2853      2854
 -1      1214    8    0    1
 -2       547       684       683      2854      2855      2850
 -1      1215    8    0    1
 -2       548       549       685      2444      2856      2857
 -1      1216    8    0    1
 -2       548       685       684      2857      2858      2853
 -1      1217    8    0    1
 -2       549       550       686      2447      2859      2860
 -1      1218    8    0    1
 -2       549       686       685      2860      2861      2856
 -1      1219    8    0    1
 -2       550       551       687      2450      2862      2863
 -1      1220    8    0    1
 -2       550       687       686      2863      2864      2859
 -1      1221    8    0    1
 -2       551       552       688      2453      2865      2866
 -1      1222    8    0    1
 -2       551       688       687      2866      2867      2862
 -1      1223    8    0    1
 -2       552       553       689      2456      2868      2869
 -1      1224    8    0    1
 -2       552       689       688      2869      2870      2865
 -1      1225    8    0    1
 -2       553       554       690      2459      2871      2872
 -1      1226    8    0    1
 -2       553       690       689      2872      2873      2868
 -1      1227    8    0    1
 -2       554       555       691      2462      2874      2875
 -1      1228    8    0    1
 -2       554       691       690      2875      2876      2871
 -1      1229    8    0    1
 -2       555       556       692      2465      2877      2878
 -1      1230    8    0    1
 -2       555       692       691      2878      2879      2874
 -1      1231    8    0    1
 -2       556       557       693      2468      2880      2881
 -1      1232    8    0    1
 -2       556       693       692      2881      2882      2877
 -1      1233    8    0    1
 -2       557       558       694      2471      2883      2884
 -1      1234    8    0    1
 -2       557       694       693      2884      2885      2880
 -1      1235    8    0    1
 -2       558       559       695      2474      2886      2887
 -1      1236    8    0    1
 -2       558       695       694      2887      2888      2883
 -1      1237    8    0    1
 -2       559       560       696      2477      2889      2890
 -1      1238    8    0    1
 -2       559       696       695      2890      2891      2886
 -1      1239    8    0    1
 -2       560       561       697      2480      2892      2893
 -1      1240    8    0    1
 -2       560       697       696      2893      2894      2889
 -1      1241    8    0    1
 -2       561       562       698      2483      2895      2896
 -1      1242    8    0    1
 -2       561       698       697      2896      2897      2892
 -1      1243    8    0    1
 -2       562       563       699      2486      2898      2899
 -1      1244    8    0    1
 -2       562       699       698      2899      2900      2895
 -1      1245    8    0    1
 -2       563       564       700      2489      2901      2902
 -1      1246    8    0    1
 -2       563       700       699      2902      2903      2898
 -1      1247    8    0    1
 -2       564       565       701      2492      2904      2905
 -1      1248    8    0    1
 -2       564       701       700      2905      2906      2901
 -1      1249    8    0    1
 -2       565       566       702      2495      2907      2908
 -1      1250    8    0    1
 -2       565       702       701      2908      2909      2904
 -1      1251    8    0    1
 -2       566       567       703      2498      2910      2911
 -1      1252    8    0    1
 -2       566       703       702      2911      2912      2907
 -1      1253    8    0    1
 -2       567       568       704      2501      2913      2914
 -1      1254    8    0    1
 -2       567       704       703      2914      2915      2910
 -1      1255    8    0    1
 -2       568       569       705      2504      2916      2917
 -1      1256    8    0    1
 -2       568       705       704      2917      2918      2913
 -1      1257    8    0    1
 -2       569       570       706      2507      2919      2920
 -1      1258    8    0    1
 -2       705       569       706      2916      2920      2921
 -1      1259    8    0    1
 -2       570       573       706      2662      2922      2919
 -1      1260    8    0    1
 -2       575       576       707      2525      2923      2924
 -1      1261    8    0    1
 -2       618       528       708      2663      2925      2926
 -1      1262    8    0    1
 -2       581       618       708      2658      2926      2927
 -1      1263    8    0    1
 -2       528       666       708      2800      2928      2925
 -1      1264    8    0    1
 -2       571       572       709      2513      2929      2930
 -1      1265    8    0    1
 -2       576       577       615      2528      2931      2932
 -1      1266    8    0    1
 -2       572       575       625      2522      2933      2934
 -1      1267    8    0    1
 -2       612       474       482      2619      2935      2640
 -1      1268    8    0    1
 -2       577       578       710      2531      2936      2937
 -1      1269    8    0    1
 -2       578       579       711      2534      2938      2939
 -1      1270    8    0    1
 -2       578       711       710      2939      2940      2936
 -1      1271    8    0    1
 -2       579       580       712      2537      2941      2942
 -1      1272    8    0    1
 -2       579       712       711      2942      2943      2938
 -1      1273    8    0    1
 -2       580       581       713      2540      2944      2945
 -1      1274    8    0    1
 -2       712       580       713      2941      2945      2946
 -1      1275    8    0    1
 -2       581       708       713      2927      2947      2944
 -1      1276    8    0    1
 -2       610       611       714      2638      2948      2949
 -1      1277    8    0    1
 -2       611       584       710      2639      2950      2951
 -1      1278    8    0    1
 -2       590       595       715      2623      2952      2953
 -1      1279    8    0    1
 -2       484       587       716      2555      2954      2955
 -1      1280    8    0    1
 -2       486       484       716      2256      2955      2956
 -1      1281    8    0    1
 -2       587       614       716      2676      2957      2954
 -1      1282    8    0    1
 -2       589       593       717      2643      2958      2959
 -1      1283    8    0    1
 -2       599       602       718      2594      2960      2961
 -1      1284    8    0    1
 -2       585       529       719      2549      2962      2963
 -1      1285    8    0    1
 -2       624       585       719      2677      2963      2964
 -1      1286    8    0    1
 -2       529       668       719      2807      2965      2962
 -1      1287    8    0    1
 -2       582       583       707      2637      2966      2967
 -1      1288    8    0    1
 -2       531       532       720      2393      2968      2969
 -1      1289    8    0    1
 -2       667       531       720      2802      2969      2970
 -1      1290    8    0    1
 -2       532       669       720      2810      2971      2968
 -1      1291    8    0    1
 -2       596       597       721      2582      2972      2973
 -1      1292    8    0    1
 -2       588       485       722      2630      2974      2975
 -1      1293    8    0    1
 -2       607       608       723      2642      2976      2977
 -1      1294    8    0    1
 -2       479       480       724      2240      2978      2979
 -1      1295    8    0    1
 -2       619       479       724      2664      2979      2980
 -1      1296    8    0    1
 -2       480       621       724      2670      2981      2978
 -1      1297    8    0    1
 -2       476       475       725      2229      2982      2983
 -1      1298    8    0    1
 -2       598       589       726      2644      2984      2985
 -1      1299    8    0    1
 -2       593       600       727      2652      2986      2987
 -1      1300    8    0    1
 -2       595       596       728      2579      2988      2989
 -1      1301    8    0    1
 -2       596       721       728      2973      2990      2988
 -1      1302    8    0    1
 -2       604       605       729      2645      2991      2992
 -1      1303    8    0    1
 -2       473       598       730      2651      2993      2994
 -1      1304    8    0    1
 -2       600       601       731      2591      2995      2996
 -1      1305    8    0    1
 -2       586       613       732      2622      2997      2998
 -1      1306    8    0    1
 -2       601       599       733      2646      2999      3000
 -1      1307    8    0    1
 -2       603       604       734      2599      3001      3002
 -1      1308    8    0    1
 -2       608       609       735      2661      3003      3004
 -1      1309    8    0    1
 -2       606       607       664      2606      3005      3006
 -1      1310    8    0    1
 -2       609       610       736      2613      3007      3008
 -1      1311    8    0    1
 -2       613       588       737      2629      3009      3010
 -1      1312    8    0    1
 -2       614       476       738      2624      3011      3012
 -1      1313    8    0    1
 -2       476       725       738      2983      3013      3011
 -1      1314    8    0    1
 -2       664       607       723      3005      2977      3014
 -1      1315    8    0    1
 -2       477       620       739      2667      3015      3016
 -1      1316    8    0    1
 -2       477       739       591      3016      3017      2566
 -1      1317    8    0    1
 -2       583       625       707      2681      3018      2966
 -1      1318    8    0    1
 -2       589       717       726      2959      3019      2984
 -1      1319    8    0    1
 -2       735       609       736      3003      3008      3020
 -1      1320    8    0    1
 -2       734       604       729      3001      2992      3021
 -1      1321    8    0    1
 -2       733       599       718      2999      2961      3022
 -1      1322    8    0    1
 -2       625       586       732      2680      2998      3023
 -1      1323    8    0    1
 -2       732       613       737      2997      3010      3024
 -1      1324    8    0    1
 -2       524       662       663      2790      3025      2791
 -1      1325    8    0    1
 -2       731       601       733      2995      3000      3026
 -1      1326    8    0    1
 -2       522       661       734      2787      3027      3028
 -1      1327    8    0    1
 -2       523       522       734      2367      3028      3029
 -1      1328    8    0    1
 -2       571       709       740      2930      3030      3031
 -1      1329    8    0    1
 -2       571       740       574      3031      3032      2519
 -1      1330    8    0    1
 -2       721       597       617      2972      2654      3033
 -1      1331    8    0    1
 -2       582       707       615      2967      3034      2634
 -1      1332    8    0    1
 -2       707       576       615      2923      2932      3034
 -1      1333    8    0    1
 -2       730       598       741      2993      3035      3036
 -1      1334    8    0    1
 -2       598       726       741      2985      3037      3035
 -1      1335    8    0    1
 -2       610       714       736      2949      3038      3007
 -1      1336    8    0    1
 -2       573       574       742      2518      3039      3040
 -1      1337    8    0    1
 -2       706       573       742      2922      3040      3041
 -1      1338    8    0    1
 -2       574       740       742      3032      3042      3039
 -1      1339    8    0    1
 -2       482       474       623      2935      2675      3043
 -1      1340    8    0    1
 -2       727       600       731      2986      2996      3044
 -1      1341    8    0    1
 -2       723       608       735      2976      3004      3045
 -1      1342    8    0    1
 -2       590       715       743      2953      3046      3047
 -1      1343    8    0    1
 -2       590       743       616      3047      3048      2648
 -1      1344    8    0    1
 -2       486       716       626      2956      3049      2682
 -1      1345    8    0    1
 -2       715       595       728      2952      2989      3050
 -1      1346    8    0    1
 -2       625       575       707      2933      2924      3018
 -1      1347    8    0    1
 -2       594       592       744      2574      3051      3052
 -1      1348    8    0    1
 -2       663       606       664      2804      3006      2795
 -1      1349    8    0    1
 -2       722       485       745      2974      3053      3054
 -1      1350    8    0    1
 -2       717       593       727      2958      2987      3055
 -1      1351    8    0    1
 -2       475       591       746      2565      3056      3057
 -1      1352    8    0    1
 -2       725       475       746      2982      3057      3058
 -1      1353    8    0    1
 -2       591       739       746      3017      3059      3056
 -1      1354    8    0    1
 -2       588       722       747      2975      3060      3061
 -1      1355    8    0    1
 -2       588       747       737      3061      3062      3009
 -1      1356    8    0    1
 -2       617       473       730      2655      2994      3063
 -1      1357    8    0    1
 -2       485       594       748      2573      3064      3065
 -1      1358    8    0    1
 -2       745       485       748      3053      3065      3066
 -1      1359    8    0    1
 -2       594       744       748      3052      3067      3064
 -1      1360    8    0    1
 -2       602       603       749      2647      3068      3069
 -1      1361    8    0    1
 -2       482       623       622      3043      3070      2671
 -1      1362    8    0    1
 -2       592       616       744      2650      3071      3051
 -1      1363    8    0    1
 -2       603       734       749      3002      3072      3068
 -1      1364    8    0    1
 -2       602       749       718      3069      3073      2960
 -1      1365    8    0    1
 -2       727       731       750      3044      3074      3075
 -1      1366    8    0    1
 -2       621       622       751      2673      3076      3077
 -1      1367    8    0    1
 -2       726       717       752      3019      3078      3079
 -1      1368    8    0    1
 -2       664       723       665      3014      3080      2798
 -1      1369    8    0    1
 -2       734       661       749      3027      3081      3072
 -1      1370    8    0    1
 -2       628       627       753      2689      3082      3083
 -1      1371    8    0    1
 -2       629       628       754      2692      3084      3085
 -1      1372    8    0    1
 -2       628       753       754      3083      3086      3084
 -1      1373    8    0    1
 -2       630       629       755      2695      3087      3088
 -1      1374    8    0    1
 -2       629       754       755      3085      3089      3087
 -1      1375    8    0    1
 -2       631       630       756      2698      3090      3091
 -1      1376    8    0    1
 -2       630       755       756      3088      3092      3090
 -1      1377    8    0    1
 -2       632       631       757      2701      3093      3094
 -1      1378    8    0    1
 -2       631       756       757      3091      3095      3093
 -1      1379    8    0    1
 -2       633       632       758      2704      3096      3097
 -1      1380    8    0    1
 -2       632       757       758      3094      3098      3096
 -1      1381    8    0    1
 -2       634       633       759      2707      3099      3100
 -1      1382    8    0    1
 -2       633       758       759      3097      3101      3099
 -1      1383    8    0    1
 -2       635       634       760      2710      3102      3103
 -1      1384    8    0    1
 -2       634       759       760      3100      3104      3102
 -1      1385    8    0    1
 -2       636       635       761      2713      3105      3106
 -1      1386    8    0    1
 -2       635       760       761      3103      3107      3105
 -1      1387    8    0    1
 -2       637       636       762      2716      3108      3109
 -1      1388    8    0    1
 -2       636       761       762      3106      3110      3108
 -1      1389    8    0    1
 -2       638       637       763      2719      3111      3112
 -1      1390    8    0    1
 -2       637       762       763      3109      3113      3111
 -1      1391    8    0    1
 -2       639       638       764      2722      3114      3115
 -1      1392    8    0    1
 -2       638       763       764      3112      3116      3114
 -1      1393    8    0    1
 -2       640       639       765      2725      3117      3118
 -1      1394    8    0    1
 -2       639       764       765      3115      3119      3117
 -1      1395    8    0    1
 -2       641       640       766      2728      3120      3121
 -1      1396    8    0    1
 -2       640       765       766      3118      3122      3120
 -1      1397    8    0    1
 -2       642       641       767      2731      3123      3124
 -1      1398    8    0    1
 -2       641       766       767      3121      3125      3123
 -1      1399    8    0    1
 -2       643       642       768      2734      3126      3127
 -1      1400    8    0    1
 -2       642       767       768      3124      3128      3126
 -1      1401    8    0    1
 -2       644       643       769      2737      3129      3130
 -1      1402    8    0    1
 -2       643       768       769      3127      3131      3129
 -1      1403    8    0    1
 -2       645       644       770      2740      3132      3133
 -1      1404    8    0    1
 -2       644       769       770      3130      3134      3132
 -1      1405    8    0    1
 -2       646       645       771      2743      3135      3136
 -1      1406    8    0    1
 -2       645       770       771      3133      3137      3135
 -1      1407    8    0    1
 -2       647       646       772      2746      3138      3139
 -1      1408    8    0    1
 -2       646       771       772      3136      3140      3138
 -1      1409    8    0    1
 -2       648       647       773      2749      3141      3142
 -1      1410    8    0    1
 -2       647       772       773      3139      3143      3141
 -1      1411    8    0    1
 -2       649       648       774      2752      3144      3145
 -1      1412    8    0    1
 -2       648       773       774      3142      3146      3144
 -1      1413    8    0    1
 -2       650       649       775      2755      3147      3148
 -1      1414    8    0    1
 -2       649       774       775      3145      3149      3147
 -1      1415    8    0    1
 -2       651       650       776      2758      3150      3151
 -1      1416    8    0    1
 -2       650       775       776      3148      3152      3150
 -1      1417    8    0    1
 -2       652       651       777      2761      3153      3154
 -1      1418    8    0    1
 -2       651       776       777      3151      3155      3153
 -1      1419    8    0    1
 -2       653       652       778      2764      3156      3157
 -1      1420    8    0    1
 -2       652       777       778      3154      3158      3156
 -1      1421    8    0    1
 -2       654       653       779      2767      3159      3160
 -1      1422    8    0    1
 -2       653       778       779      3157      3161      3159
 -1      1423    8    0    1
 -2       655       654       780      2770      3162      3163
 -1      1424    8    0    1
 -2       654       779       780      3160      3164      3162
 -1      1425    8    0    1
 -2       656       655       781      2773      3165      3166
 -1      1426    8    0    1
 -2       655       780       781      3163      3167      3165
 -1      1427    8    0    1
 -2       657       656       782      2776      3168      3169
 -1      1428    8    0    1
 -2       656       781       782      3166      3170      3168
 -1      1429    8    0    1
 -2       658       657       783      2779      3171      3172
 -1      1430    8    0    1
 -2       657       782       783      3169      3173      3171
 -1      1431    8    0    1
 -2       659       658       784      2782      3174      3175
 -1      1432    8    0    1
 -2       658       783       784      3172      3176      3174
 -1      1433    8    0    1
 -2       733       718       785      3022      3177      3178
 -1      1434    8    0    1
 -2       749       661       786      3081      3179      3180
 -1      1435    8    0    1
 -2       718       749       786      3073      3180      3181
 -1      1436    8    0    1
 -2       661       660       786      2788      3182      3179
 -1      1437    8    0    1
 -2       605       663       729      2805      3183      2991
 -1      1438    8    0    1
 -2       670       671       787      2816      3184      3185
 -1      1439    8    0    1
 -2       669       670       788      2813      3186      3187
 -1      1440    8    0    1
 -2       670       787       788      3185      3188      3186
 -1      1441    8    0    1
 -2       672       673       789      2822      3189      3190
 -1      1442    8    0    1
 -2       673       674       790      2825      3191      3192
 -1      1443    8    0    1
 -2       673       790       789      3192      3193      3189
 -1      1444    8    0    1
 -2       674       675       791      2828      3194      3195
 -1      1445    8    0    1
 -2       674       791       790      3195      3196      3191
 -1      1446    8    0    1
 -2       675       676       792      2831      3197      3198
 -1      1447    8    0    1
 -2       675       792       791      3198      3199      3194
 -1      1448    8    0    1
 -2       676       677       793      2834      3200      3201
 -1      1449    8    0    1
 -2       676       793       792      3201      3202      3197
 -1      1450    8    0    1
 -2       677       678       794      2837      3203      3204
 -1      1451    8    0    1
 -2       677       794       793      3204      3205      3200
 -1      1452    8    0    1
 -2       678       679       795      2840      3206      3207
 -1      1453    8    0    1
 -2       678       795       794      3207      3208      3203
 -1      1454    8    0    1
 -2       679       680       796      2843      3209      3210
 -1      1455    8    0    1
 -2       679       796       795      3210      3211      3206
 -1      1456    8    0    1
 -2       680       681       797      2846      3212      3213
 -1      1457    8    0    1
 -2       680       797       796      3213      3214      3209
 -1      1458    8    0    1
 -2       681       682       798      2849      3215      3216
 -1      1459    8    0    1
 -2       681       798       797      3216      3217      3212
 -1      1460    8    0    1
 -2       682       683       799      2852      3218      3219
 -1      1461    8    0    1
 -2       682       799       798      3219      3220      3215
 -1      1462    8    0    1
 -2       683       684       800      2855      3221      3222
 -1      1463    8    0    1
 -2       683       800       799      3222      3223      3218
 -1      1464    8    0    1
 -2       684       685       801      2858      3224      3225
 -1      1465    8    0    1
 -2       684       801       800      3225      3226      3221
 -1      1466    8    0    1
 -2       685       686       802      2861      3227      3228
 -1      1467    8    0    1
 -2       685       802       801      3228      3229      3224
 -1      1468    8    0    1
 -2       686       687       803      2864      3230      3231
 -1      1469    8    0    1
 -2       686       803       802      3231      3232      3227
 -1      1470    8    0    1
 -2       687       688       804      2867      3233      3234
 -1      1471    8    0    1
 -2       687       804       803      3234      3235      3230
 -1      1472    8    0    1
 -2       688       689       805      2870      3236      3237
 -1      1473    8    0    1
 -2       688       805       804      3237      3238      3233
 -1      1474    8    0    1
 -2       689       690       806      2873      3239      3240
 -1      1475    8    0    1
 -2       689       806       805      3240      3241      3236
 -1      1476    8    0    1
 -2       690       691       807      2876      3242      3243
 -1      1477    8    0    1
 -2       690       807       806      3243      3244      3239
 -1      1478    8    0    1
 -2       691       692       808      2879      3245      3246
 -1      1479    8    0    1
 -2       691       808       807      3246      3247      3242
 -1      1480    8    0    1
 -2       692       693       809      2882      3248      3249
 -1      1481    8    0    1
 -2       692       809       808      3249      3250      3245
 -1      1482    8    0    1
 -2       693       694       810      2885      3251      3252
 -1      1483    8    0    1
 -2       693       810       809      3252      3253      3248
 -1      1484    8    0    1
 -2       694       695       811      2888      3254      3255
 -1      1485    8    0    1
 -2       694       811       810      3255      3256      3251
 -1      1486    8    0    1
 -2       695       696       812      2891      3257      3258
 -1      1487    8    0    1
 -2       695       812       811      3258      3259      3254
 -1      1488    8    0    1
 -2       696       697       813      2894      3260      3261
 -1      1489    8    0    1
 -2       696       813       812      3261      3262      3257
 -1      1490    8    0    1
 -2       697       698       814      2897      3263      3264
 -1      1491    8    0    1
 -2       697       814       813      3264      3265      3260
 -1      1492    8    0    1
 -2       698       699       815      2900      3266      3267
 -1      1493    8    0    1
 -2       698       815       814      3267      3268      3263
 -1      1494    8    0    1
 -2       700       701       743      2906      3269      3270
 -1      1495    8    0    1
 -2       701       702       744      2909      3271      3272
 -1      1496    8    0    1
 -2       702       703       744      2912      3273      3271
 -1      1497    8    0    1
 -2       703       704       816      2915      3274      3275
 -1      1498    8    0    1
 -2       704       705       817      2918      3276      3277
 -1      1499    8    0    1
 -2       704       817       816      3277      3278      3274
 -1      1500    8    0    1
 -2       705       706       818      2921      3279      3280
 -1      1501    8    0    1
 -2       817       705       818      3276      3280      3281
 -1      1502    8    0    1
 -2       706       742       818      3041      3282      3279
 -1      1503    8    0    1
 -2       708       666       713      2928      3283      2947
 -1      1504    8    0    1
 -2       620       619       819      2668      3284      3285
 -1      1505    8    0    1
 -2       615       577       710      2931      2937      3286
 -1      1506    8    0    1
 -2       572       625       709      2934      3287      2929
 -1      1507    8    0    1
 -2       584       615       710      2636      3286      2950
 -1      1508    8    0    1
 -2       714       611       710      2948      2951      3288
 -1      1509    8    0    1
 -2       714       710       711      3288      2940      3289
 -1      1510    8    0    1
 -2       728       721       820      2990      3290      3291
 -1      1511    8    0    1
 -2       627       626       821      2686      3292      3293
 -1      1512    8    0    1
 -2       627       821       753      3293      3294      3082
 -1      1513    8    0    1
 -2       714       711       736      3289      3295      3038
 -1      1514    8    0    1
 -2       716       614       738      2957      3012      3296
 -1      1515    8    0    1
 -2       625       732       709      3023      3297      3287
 -1      1516    8    0    1
 -2       671       672       822      2819      3298      3299
 -1      1517    8    0    1
 -2       787       671       822      3184      3299      3300
 -1      1518    8    0    1
 -2       672       789       822      3190      3301      3298
 -1      1519    8    0    1
 -2       668       667       823      2808      3302      3303
 -1      1520    8    0    1
 -2       626       716       824      3049      3304      3305
 -1      1521    8    0    1
 -2       821       626       824      3292      3305      3306
 -1      1522    8    0    1
 -2       716       738       824      3296      3307      3304
 -1      1523    8    0    1
 -2       721       617       825      3033      3308      3309
 -1      1524    8    0    1
 -2       722       745       816      3054      3310      3311
 -1      1525    8    0    1
 -2       717       727       826      3055      3312      3313
 -1      1526    8    0    1
 -2       735       736       827      3020      3314      3315
 -1      1527    8    0    1
 -2       622       623       828      3070      3316      3317
 -1      1528    8    0    1
 -2       751       622       828      3076      3317      3318
 -1      1529    8    0    1
 -2       623       624       828      2679      3319      3316
 -1      1530    8    0    1
 -2       723       735       829      3045      3320      3321
 -1      1531    8    0    1
 -2       665       723       829      3080      3321      3322
 -1      1532    8    0    1
 -2       735       827       829      3315      3323      3320
 -1      1533    8    0    1
 -2       732       737       830      3024      3324      3325
 -1      1534    8    0    1
 -2       709       732       830      3297      3325      3326
 -1      1535    8    0    1
 -2       737       747       830      3062      3327      3324
 -1      1536    8    0    1
 -2       731       733       831      3026      3328      3329
 -1      1537    8    0    1
 -2       733       785       831      3178      3330      3328
 -1      1538    8    0    1
 -2       715       728       832      3050      3331      3332
 -1      1539    8    0    1
 -2       617       730       833      3063      3333      3334
 -1      1540    8    0    1
 -2       617       833       825      3334      3335      3308
 -1      1541    8    0    1
 -2       736       711       712      3295      2943      3336
 -1      1542    8    0    1
 -2       736       712       827      3336      3337      3314
 -1      1543    8    0    1
 -2       739       620       834      3015      3338      3339
 -1      1544    8    0    1
 -2       620       819       834      3285      3340      3338
 -1      1545    8    0    1
 -2       621       751       835      3077      3341      3342
 -1      1546    8    0    1
 -2       621       835       724      3342      3343      2981
 -1      1547    8    0    1
 -2       726       752       836      3079      3344      3345
 -1      1548    8    0    1
 -2       726       836       741      3345      3346      3037
 -1      1549    8    0    1
 -2       523       734       729      3029      3021      3347
 -1      1550    8    0    1
 -2       659       784       785      3175      3348      3349
 -1      1551    8    0    1
 -2       785       718       786      3177      3181      3350
 -1      1552    8    0    1
 -2       660       659       785      2785      3349      3351
 -1      1553    8    0    1
 -2       740       709       830      3030      3326      3352
 -1      1554    8    0    1
 -2       666       665       829      2801      3322      3353
 -1      1555    8    0    1
 -2       823       667       837      3302      3354      3355
 -1      1556    8    0    1
 -2       667       720       837      2970      3356      3354
 -1      1557    8    0    1
 -2       738       725       838      3013      3357      3358
 -1      1558    8    0    1
 -2       738       838       824      3358      3359      3307
 -1      1559    8    0    1
 -2       669       788       839      3187      3360      3361
 -1      1560    8    0    1
 -2       669       839       720      3361      3362      2971
 -1      1561    8    0    1
 -2       815       699       832      3266      3363      3364
 -1      1562    8    0    1
 -2       699       700       832      2903      3365      3363
 -1      1563    8    0    1
 -2       701       744       743      3272      3366      3269
 -1      1564    8    0    1
 -2       744       703       816      3273      3275      3367
 -1      1565    8    0    1
 -2       819       619       840      3284      3368      3369
 -1      1566    8    0    1
 -2       619       724       840      2980      3370      3368
 -1      1567    8    0    1
 -2       838       725       841      3357      3371      3372
 -1      1568    8    0    1
 -2       725       746       841      3058      3373      3371
 -1      1569    8    0    1
 -2       827       712       713      3337      2946      3374
 -1      1570    8    0    1
 -2       820       721       825      3290      3309      3375
 -1      1571    8    0    1
 -2       828       624       842      3319      3376      3377
 -1      1572    8    0    1
 -2       624       719       842      2964      3378      3376
 -1      1573    8    0    1
 -2       719       668       843      2965      3379      3380
 -1      1574    8    0    1
 -2       842       719       843      3378      3380      3381
 -1      1575    8    0    1
 -2       668       823       843      3303      3382      3379
 -1      1576    8    0    1
 -2       826       727       750      3312      3075      3383
 -1      1577    8    0    1
 -2       750       731       844      3074      3384      3385
 -1      1578    8    0    1
 -2       731       831       844      3329      3386      3384
 -1      1579    8    0    1
 -2       722       816       817      3311      3278      3387
 -1      1580    8    0    1
 -2       717       826       752      3313      3388      3078
 -1      1581    8    0    1
 -2       666       829       713      3353      3389      3283
 -1      1582    8    0    1
 -2       730       741       833      3036      3390      3333
 -1      1583    8    0    1
 -2       754       753       845      3086      3391      3392
 -1      1584    8    0    1
 -2       785       784       831      3348      3393      3330
 -1      1585    8    0    1
 -2       755       754       846      3089      3394      3395
 -1      1586    8    0    1
 -2       754       845       846      3392      3396      3394
 -1      1587    8    0    1
 -2       756       755       847      3092      3397      3398
 -1      1588    8    0    1
 -2       755       846       847      3395      3399      3397
 -1      1589    8    0    1
 -2       757       756       848      3095      3400      3401
 -1      1590    8    0    1
 -2       756       847       848      3398      3402      3400
 -1      1591    8    0    1
 -2       758       757       849      3098      3403      3404
 -1      1592    8    0    1
 -2       757       848       849      3401      3405      3403
 -1      1593    8    0    1
 -2       759       758       850      3101      3406      3407
 -1      1594    8    0    1
 -2       758       849       850      3404      3408      3406
 -1      1595    8    0    1
 -2       760       759       851      3104      3409      3410
 -1      1596    8    0    1
 -2       759       850       851      3407      3411      3409
 -1      1597    8    0    1
 -2       761       760       852      3107      3412      3413
 -1      1598    8    0    1
 -2       760       851       852      3410      3414      3412
 -1      1599    8    0    1
 -2       762       761       853      3110      3415      3416
 -1      1600    8    0    1
 -2       761       852       853      3413      3417      3415
 -1      1601    8    0    1
 -2       763       762       854      3113      3418      3419
 -1      1602    8    0    1
 -2       762       853       854      3416      3420      3418
 -1      1603    8    0    1
 -2       764       763       855      3116      3421      3422
 -1      1604    8    0    1
 -2       763       854       855      3419      3423      3421
 -1      1605    8    0    1
 -2       765       764       856      3119      3424      3425
 -1      1606    8    0    1
 -2       764       855       856      3422      3426      3424
 -1      1607    8    0    1
 -2       766       765       857      3122      3427      3428
 -1      1608    8    0    1
 -2       765       856       857      3425      3429      3427
 -1      1609    8    0    1
 -2       767       766       858      3125      3430      3431
 -1      1610    8    0    1
 -2       766       857       858      3428      3432      3430
 -1      1611    8    0    1
 -2       768       767       859      3128      3433      3434
 -1      1612    8    0    1
 -2       767       858       859      3431      3435      3433
 -1      1613    8    0    1
 -2       769       768       860      3131      3436      3437
 -1      1614    8    0    1
 -2       768       859       860      3434      3438      3436
 -1      1615    8    0    1
 -2       770       769       861      3134      3439      3440
 -1      1616    8    0    1
 -2       769       860       861      3437      3441      3439
 -1      1617    8    0    1
 -2       771       770       862      3137      3442      3443
 -1      1618    8    0    1
 -2       770       861       862      3440      3444      3442
 -1      1619    8    0    1
 -2       772       771       863      3140      3445      3446
 -1      1620    8    0    1
 -2       771       862       863      3443      3447      3445
 -1      1621    8    0    1
 -2       773       772       864      3143      3448      3449
 -1      1622    8    0    1
 -2       772       863       864      3446      3450      3448
 -1      1623    8    0    1
 -2       774       773       865      3146      3451      3452
 -1      1624    8    0    1
 -2       773       864       865      3449      3453      3451
 -1      1625    8    0    1
 -2       775       774       866      3149      3454      3455
 -1      1626    8    0    1
 -2       774       865       866      3452      3456      3454
 -1      1627    8    0    1
 -2       776       775       867      3152      3457      3458
 -1      1628    8    0    1
 -2       775       866       867      3455      3459      3457
 -1      1629    8    0    1
 -2       777       776       868      3155      3460      3461
 -1      1630    8    0    1
 -2       776       867       868      3458      3462      3460
 -1      1631    8    0    1
 -2       778       777       869      3158      3463      3464
 -1      1632    8    0    1
 -2       777       868       869      3461      3465      3463
 -1      1633    8    0    1
 -2       779       778       870      3161      3466      3467
 -1      1634    8    0    1
 -2       778       869       870      3464      3468      3466
 -1      1635    8    0    1
 -2       780       779       871      3164      3469      3470
 -1      1636    8    0    1
 -2       779       870       871      3467      3471      3469
 -1      1637    8    0    1
 -2       781       780       872      3167      3472      3473
 -1      1638    8    0    1
 -2       780       871       872      3470      3474      3472
 -1      1639    8    0    1
 -2       782       781       873      3170      3475      3476
 -1      1640    8    0    1
 -2       781       872       873      3473      3477      3475
 -1      1641    8    0    1
 -2       783       782       874      3173      3478      3479
 -1      1642    8    0    1
 -2       782       873       874      3476      3480      3478
 -1      1643    8    0    1
 -2       784       783       844      3176      3481      3482
 -1      1644    8    0    1
 -2       662       523       729      2789      3347      3483
 -1      1645    8    0    1
 -2       660       785       786      3351      3350      3182
 -1      1646    8    0    1
 -2       791       792       875      3199      3484      3485
 -1      1647    8    0    1
 -2       790       791       876      3196      3486      3487
 -1      1648    8    0    1
 -2       791       875       876      3485      3488      3486
 -1      1649    8    0    1
 -2       789       790       877      3193      3489      3490
 -1      1650    8    0    1
 -2       790       876       877      3487      3491      3489
 -1      1651    8    0    1
 -2       792       793       878      3202      3492      3493
 -1      1652    8    0    1
 -2       792       878       875      3493      3494      3484
 -1      1653    8    0    1
 -2       793       794       879      3205      3495      3496
 -1      1654    8    0    1
 -2       793       879       878      3496      3497      3492
 -1      1655    8    0    1
 -2       794       795       880      3208      3498      3499
 -1      1656    8    0    1
 -2       794       880       879      3499      3500      3495
 -1      1657    8    0    1
 -2       795       796       881      3211      3501      3502
 -1      1658    8    0    1
 -2       795       881       880      3502      3503      3498
 -1      1659    8    0    1
 -2       796       797       882      3214      3504      3505
 -1      1660    8    0    1
 -2       796       882       881      3505      3506      3501
 -1      1661    8    0    1
 -2       797       798       883      3217      3507      3508
 -1      1662    8    0    1
 -2       797       883       882      3508      3509      3504
 -1      1663    8    0    1
 -2       798       799       884      3220      3510      3511
 -1      1664    8    0    1
 -2       798       884       883      3511      3512      3507
 -1      1665    8    0    1
 -2       799       800       885      3223      3513      3514
 -1      1666    8    0    1
 -2       799       885       884      3514      3515      3510
 -1      1667    8    0    1
 -2       800       801       886      3226      3516      3517
 -1      1668    8    0    1
 -2       800       886       885      3517      3518      3513
 -1      1669    8    0    1
 -2       801       802       887      3229      3519      3520
 -1      1670    8    0    1
 -2       801       887       886      3520      3521      3516
 -1      1671    8    0    1
 -2       802       803       888      3232      3522      3523
 -1      1672    8    0    1
 -2       802       888       887      3523      3524      3519
 -1      1673    8    0    1
 -2       803       804       889      3235      3525      3526
 -1      1674    8    0    1
 -2       803       889       888      3526      3527      3522
 -1      1675    8    0    1
 -2       804       805       890      3238      3528      3529
 -1      1676    8    0    1
 -2       804       890       889      3529      3530      3525
 -1      1677    8    0    1
 -2       805       806       891      3241      3531      3532
 -1      1678    8    0    1
 -2       805       891       890      3532      3533      3528
 -1      1679    8    0    1
 -2       806       807       892      3244      3534      3535
 -1      1680    8    0    1
 -2       806       892       891      3535      3536      3531
 -1      1681    8    0    1
 -2       807       808       893      3247      3537      3538
 -1      1682    8    0    1
 -2       807       893       892      3538      3539      3534
 -1      1683    8    0    1
 -2       808       809       894      3250      3540      3541
 -1      1684    8    0    1
 -2       808       894       893      3541      3542      3537
 -1      1685    8    0    1
 -2       809       810       895      3253      3543      3544
 -1      1686    8    0    1
 -2       809       895       894      3544      3545      3540
 -1      1687    8    0    1
 -2       810       811       896      3256      3546      3547
 -1      1688    8    0    1
 -2       810       896       895      3547      3548      3543
 -1      1689    8    0    1
 -2       811       812       897      3259      3549      3550
 -1      1690    8    0    1
 -2       811       897       896      3550      3551      3546
 -1      1691    8    0    1
 -2       812       813       898      3262      3552      3553
 -1      1692    8    0    1
 -2       812       898       897      3553      3554      3549
 -1      1693    8    0    1
 -2       814       815       820      3268      3555      3556
 -1      1694    8    0    1
 -2       700       743       832      3270      3557      3365
 -1      1695    8    0    1
 -2       752       826       899      3388      3558      3559
 -1      1696    8    0    1
 -2       742       740       900      3042      3560      3561
 -1      1697    8    0    1
 -2       818       742       900      3282      3561      3562
 -1      1698    8    0    1
 -2       740       830       900      3352      3563      3560
 -1      1699    8    0    1
 -2       728       820       832      3291      3564      3331
 -1      1700    8    0    1
 -2       753       821       901      3294      3565      3566
 -1      1701    8    0    1
 -2       753       901       845      3566      3567      3391
 -1      1702    8    0    1
 -2       743       715       832      3046      3332      3557
 -1      1703    8    0    1
 -2       820       825       902      3375      3568      3569
 -1      1704    8    0    1
 -2       820       902       814      3569      3570      3556
 -1      1705    8    0    1
 -2       746       739       903      3059      3571      3572
 -1      1706    8    0    1
 -2       841       746       903      3373      3572      3573
 -1      1707    8    0    1
 -2       739       834       903      3339      3574      3571
 -1      1708    8    0    1
 -2       722       817       747      3387      3575      3060
 -1      1709    8    0    1
 -2       751       828       904      3318      3576      3577
 -1      1710    8    0    1
 -2       828       842       904      3377      3578      3576
 -1      1711    8    0    1
 -2       827       713       829      3374      3389      3323
 -1      1712    8    0    1
 -2       826       750       905      3383      3579      3580
 -1      1713    8    0    1
 -2       825       833       902      3335      3581      3568
 -1      1714    8    0    1
 -2       788       787       906      3188      3582      3583
 -1      1715    8    0    1
 -2       833       741       907      3390      3584      3585
 -1      1716    8    0    1
 -2       831       784       844      3393      3482      3386
 -1      1717    8    0    1
 -2       747       817       818      3575      3281      3586
 -1      1718    8    0    1
 -2       835       751       904      3341      3577      3587
 -1      1719    8    0    1
 -2       836       752       908      3344      3588      3589
 -1      1720    8    0    1
 -2       752       899       908      3559      3590      3588
 -1      1721    8    0    1
 -2       830       747       900      3327      3591      3563
 -1      1722    8    0    1
 -2       844       783       874      3481      3479      3592
 -1      1723    8    0    1
 -2       662       729       663      3483      3183      3025
 -1      1724    8    0    1
 -2       837       720       839      3356      3362      3593
 -1      1725    8    0    1
 -2       839       788       909      3360      3594      3595
 -1      1726    8    0    1
 -2       788       906       909      3583      3596      3594
 -1      1727    8    0    1
 -2       898       813       902      3552      3597      3598
 -1      1728    8    0    1
 -2       813       814       902      3265      3570      3597
 -1      1729    8    0    1
 -2       899       826       905      3558      3580      3599
 -1      1730    8    0    1
 -2       840       724       835      3370      3343      3600
 -1      1731    8    0    1
 -2       834       819       910      3340      3601      3602
 -1      1732    8    0    1
 -2       843       823       911      3382      3603      3604
 -1      1733    8    0    1
 -2       741       836       907      3346      3605      3584
 -1      1734    8    0    1
 -2       750       844       912      3385      3606      3607
 -1      1735    8    0    1
 -2       905       750       912      3579      3607      3608
 -1      1736    8    0    1
 -2       844       874       912      3592      3609      3606
 -1      1737    8    0    1
 -2       822       789       913      3301      3610      3611
 -1      1738    8    0    1
 -2       789       877       913      3490      3612      3610
 -1      1739    8    0    1
 -2       821       824       914      3306      3613      3614
 -1      1740    8    0    1
 -2       901       821       914      3565      3614      3615
 -1      1741    8    0    1
 -2       824       838       914      3359      3616      3613
 -1      1742    8    0    1
 -2       823       837       915      3355      3617      3618
 -1      1743    8    0    1
 -2       823       915       911      3618      3619      3603
 -1      1744    8    0    1
 -2       838       841       916      3372      3620      3621
 -1      1745    8    0    1
 -2       838       916       914      3621      3622      3616
 -1      1746    8    0    1
 -2       819       840       917      3369      3623      3624
 -1      1747    8    0    1
 -2       819       917       910      3624      3625      3601
 -1      1748    8    0    1
 -2       902       833       918      3581      3626      3627
 -1      1749    8    0    1
 -2       898       902       918      3598      3627      3628
 -1      1750    8    0    1
 -2       833       907       918      3585      3629      3626
 -1      1751    8    0    1
 -2       906       787       919      3582      3630      3631
 -1      1752    8    0    1
 -2       787       822       919      3300      3632      3630
 -1      1753    8    0    1
 -2       846       845       920      3396      3633      3634
 -1      1754    8    0    1
 -2       878       879       921      3497      3635      3636
 -1      1755    8    0    1
 -2       847       846       922      3399      3637      3638
 -1      1756    8    0    1
 -2       846       920       922      3634      3639      3637
 -1      1757    8    0    1
 -2       848       847       923      3402      3640      3641
 -1      1758    8    0    1
 -2       847       922       923      3638      3642      3640
 -1      1759    8    0    1
 -2       849       848       924      3405      3643      3644
 -1      1760    8    0    1
 -2       848       923       924      3641      3645      3643
 -1      1761    8    0    1
 -2       850       849       925      3408      3646      3647
 -1      1762    8    0    1
 -2       849       924       925      3644      3648      3646
 -1      1763    8    0    1
 -2       851       850       926      3411      3649      3650
 -1      1764    8    0    1
 -2       850       925       926      3647      3651      3649
 -1      1765    8    0    1
 -2       852       851       927      3414      3652      3653
 -1      1766    8    0    1
 -2       851       926       927      3650      3654      3652
 -1      1767    8    0    1
 -2       853       852       928      3417      3655      3656
 -1      1768    8    0    1
 -2       852       927       928      3653      3657      3655
 -1      1769    8    0    1
 -2       854       853       929      3420      3658      3659
 -1      1770    8    0    1
 -2       853       928       929      3656      3660      3658
 -1      1771    8    0    1
 -2       855       854       930      3423      3661      3662
 -1      1772    8    0    1
 -2       854       929       930      3659      3663      3661
 -1      1773    8    0    1
 -2       856       855       931      3426      3664      3665
 -1      1774    8    0    1
 -2       855       930       931      3662      3666      3664
 -1      1775    8    0    1
 -2       857       856       932      3429      3667      3668
 -1      1776    8    0    1
 -2       856       931       932      3665      3669      3667
 -1      1777    8    0    1
 -2       858       857       933      3432      3670      3671
 -1      1778    8    0    1
 -2       857       932       933      3668      3672      3670
 -1      1779    8    0    1
 -2       859       858       934      3435      3673      3674
 -1      1780    8    0    1
 -2       858       933       934      3671      3675      3673
 -1      1781    8    0    1
 -2       860       859       935      3438      3676      3677
 -1      1782    8    0    1
 -2       859       934       935      3674      3678      3676
 -1      1783    8    0    1
 -2       861       860       936      3441      3679      3680
 -1      1784    8    0    1
 -2       860       935       936      3677      3681      3679
 -1      1785    8    0    1
 -2       862       861       937      3444      3682      3683
 -1      1786    8    0    1
 -2       861       936       937      3680      3684      3682
 -1      1787    8    0    1
 -2       863       862       938      3447      3685      3686
 -1      1788    8    0    1
 -2       862       937       938      3683      3687      3685
 -1      1789    8    0    1
 -2       864       863       939      3450      3688      3689
 -1      1790    8    0    1
 -2       863       938       939      3686      3690      3688
 -1      1791    8    0    1
 -2       865       864       940      3453      3691      3692
 -1      1792    8    0    1
 -2       864       939       940      3689      3693      3691
 -1      1793    8    0    1
 -2       866       865       941      3456      3694      3695
 -1      1794    8    0    1
 -2       865       940       941      3692      3696      3694
 -1      1795    8    0    1
 -2       867       866       942      3459      3697      3698
 -1      1796    8    0    1
 -2       866       941       942      3695      3699      3697
 -1      1797    8    0    1
 -2       868       867       943      3462      3700      3701
 -1      1798    8    0    1
 -2       867       942       943      3698      3702      3700
 -1      1799    8    0    1
 -2       869       868       944      3465      3703      3704
 -1      1800    8    0    1
 -2       868       943       944      3701      3705      3703
 -1      1801    8    0    1
 -2       870       869       945      3468      3706      3707
 -1      1802    8    0    1
 -2       869       944       945      3704      3708      3706
 -1      1803    8    0    1
 -2       871       870       946      3471      3709      3710
 -1      1804    8    0    1
 -2       870       945       946      3707      3711      3709
 -1      1805    8    0    1
 -2       872       871       947      3474      3712      3713
 -1      1806    8    0    1
 -2       871       946       947      3710      3714      3712
 -1      1807    8    0    1
 -2       873       872       948      3477      3715      3716
 -1      1808    8    0    1
 -2       872       947       948      3713      3717      3715
 -1      1809    8    0    1
 -2       874       873       949      3480      3718      3719
 -1      1810    8    0    1
 -2       912       874       949      3609      3719      3720
 -1      1811    8    0    1
 -2       873       948       949      3716      3721      3718
 -1      1812    8    0    1
 -2       876       875       950      3488      3722      3723
 -1      1813    8    0    1
 -2       875       878       951      3494      3724      3725
 -1      1814    8    0    1
 -2       950       875       951      3722      3725      3726
 -1      1815    8    0    1
 -2       878       921       951      3636      3727      3724
 -1      1816    8    0    1
 -2       899       905       952      3599      3728      3729
 -1      1817    8    0    1
 -2       743       744       616      3366      3071      3048
 -1      1818    8    0    1
 -2       877       876       953      3491      3730      3731
 -1      1819    8    0    1
 -2       876       950       953      3723      3732      3730
 -1      1820    8    0    1
 -2       879       880       954      3500      3733      3734
 -1      1821    8    0    1
 -2       879       954       921      3734      3735      3635
 -1      1822    8    0    1
 -2       880       881       955      3503      3736      3737
 -1      1823    8    0    1
 -2       880       955       954      3737      3738      3733
 -1      1824    8    0    1
 -2       881       882       956      3506      3739      3740
 -1      1825    8    0    1
 -2       881       956       955      3740      3741      3736
 -1      1826    8    0    1
 -2       882       883       957      3509      3742      3743
 -1      1827    8    0    1
 -2       882       957       956      3743      3744      3739
 -1      1828    8    0    1
 -2       883       884       958      3512      3745      3746
 -1      1829    8    0    1
 -2       883       958       957      3746      3747      3742
 -1      1830    8    0    1
 -2       884       885       959      3515      3748      3749
 -1      1831    8    0    1
 -2       884       959       958      3749      3750      3745
 -1      1832    8    0    1
 -2       885       886       960      3518      3751      3752
 -1      1833    8    0    1
 -2       885       960       959      3752      3753      3748
 -1      1834    8    0    1
 -2       886       887       961      3521      3754      3755
 -1      1835    8    0    1
 -2       886       961       960      3755      3756      3751
 -1      1836    8    0    1
 -2       887       888       962      3524      3757      3758
 -1      1837    8    0    1
 -2       887       962       961      3758      3759      3754
 -1      1838    8    0    1
 -2       888       889       963      3527      3760      3761
 -1      1839    8    0    1
 -2       888       963       962      3761      3762      3757
 -1      1840    8    0    1
 -2       889       890       964      3530      3763      3764
 -1      1841    8    0    1
 -2       889       964       963      3764      3765      3760
 -1      1842    8    0    1
 -2       890       891       965      3533      3766      3767
 -1      1843    8    0    1
 -2       890       965       964      3767      3768      3763
 -1      1844    8    0    1
 -2       891       892       966      3536      3769      3770
 -1      1845    8    0    1
 -2       891       966       965      3770      3771      3766
 -1      1846    8    0    1
 -2       892       893       967      3539      3772      3773
 -1      1847    8    0    1
 -2       892       967       966      3773      3774      3769
 -1      1848    8    0    1
 -2       893       894       968      3542      3775      3776
 -1      1849    8    0    1
 -2       893       968       967      3776      3777      3772
 -1      1850    8    0    1
 -2       894       895       969      3545      3778      3779
 -1      1851    8    0    1
 -2       894       969       968      3779      3780      3775
 -1      1852    8    0    1
 -2       895       896       970      3548      3781      3782
 -1      1853    8    0    1
 -2       895       970       969      3782      3783      3778
 -1      1854    8    0    1
 -2       896       897       971      3551      3784      3785
 -1      1855    8    0    1
 -2       896       971       970      3785      3786      3781
 -1      1856    8    0    1
 -2       897       898       972      3554      3787      3788
 -1      1857    8    0    1
 -2       971       897       972      3784      3788      3789
 -1      1858    8    0    1
 -2       898       918       972      3628      3790      3787
 -1      1859    8    0    1
 -2       900       747       818      3591      3586      3562
 -1      1860    8    0    1
 -2       835       904       973      3587      3791      3792
 -1      1861    8    0    1
 -2       834       910       974      3602      3793      3794
 -1      1862    8    0    1
 -2       834       974       903      3794      3795      3574
 -1      1863    8    0    1
 -2       907       836       975      3605      3796      3797
 -1      1864    8    0    1
 -2       836       908       975      3589      3798      3796
 -1      1865    8    0    1
 -2       842       843       976      3381      3799      3800
 -1      1866    8    0    1
 -2       904       842       976      3578      3800      3801
 -1      1867    8    0    1
 -2       843       911       976      3604      3802      3799
 -1      1868    8    0    1
 -2       816       745       748      3310      3066      3803
 -1      1869    8    0    1
 -2       845       901       977      3567      3804      3805
 -1      1870    8    0    1
 -2       845       977       920      3805      3806      3633
 -1      1871    8    0    1
 -2       901       914       978      3615      3807      3808
 -1      1872    8    0    1
 -2       977       901       978      3804      3808      3809
 -1      1873    8    0    1
 -2       914       916       978      3622      3810      3807
 -1      1874    8    0    1
 -2       840       835       973      3600      3792      3811
 -1      1875    8    0    1
 -2       837       839       979      3593      3812      3813
 -1      1876    8    0    1
 -2       839       909       979      3595      3814      3812
 -1      1877    8    0    1
 -2       908       899       980      3590      3815      3816
 -1      1878    8    0    1
 -2       899       952       980      3729      3817      3815
 -1      1879    8    0    1
 -2       909       906       981      3596      3818      3819
 -1      1880    8    0    1
 -2       841       903       982      3573      3820      3821
 -1      1881    8    0    1
 -2       916       841       982      3620      3821      3822
 -1      1882    8    0    1
 -2       903       974       982      3795      3823      3820
 -1      1883    8    0    1
 -2       820       815       832      3555      3364      3564
 -1      1884    8    0    1
 -2       840       973       917      3811      3824      3623
 -1      1885    8    0    1
 -2       974       910       983      3793      3825      3826
 -1      1886    8    0    1
 -2       837       979       915      3813      3827      3617
 -1      1887    8    0    1
 -2       822       913       919      3611      3828      3632
 -1      1888    8    0    1
 -2       973       904       976      3791      3801      3829
 -1      1889    8    0    1
 -2       910       917       984      3625      3830      3831
 -1      1890    8    0    1
 -2       910       984       983      3831      3832      3825
 -1      1891    8    0    1
 -2       911       915       985      3619      3833      3834
 -1      1892    8    0    1
 -2       905       912       986      3608      3835      3836
 -1      1893    8    0    1
 -2       952       905       986      3728      3836      3837
 -1      1894    8    0    1
 -2       912       949       986      3720      3838      3835
 -1      1895    8    0    1
 -2       918       907       987      3629      3839      3840
 -1      1896    8    0    1
 -2       972       918       987      3790      3840      3841
 -1      1897    8    0    1
 -2       907       975       987      3797      3842      3839
 -1      1898    8    0    1
 -2       913       877       988      3612      3843      3844
 -1      1899    8    0    1
 -2       877       953       988      3731      3845      3843
 -1      1900    8    0    1
 -2       906       919       989      3631      3846      3847
 -1      1901    8    0    1
 -2       906       989       981      3847      3848      3818
 -1      1902    8    0    1
 -2       911       985       990      3834      3849      3850
 -1      1903    8    0    1
 -2       911       990       976      3850      3851      3802
 -1      1904    8    0    1
 -2       909       981       991      3819      3852      3853
 -1      1905    8    0    1
 -2       909       991       979      3853      3854      3814
 -1      1906    8    0    1
 -2       921       954       992      3735      3855      3856
 -1      1907    8    0    1
 -2       923       922       993      3642      3857      3858
 -1      1908    8    0    1
 -2       924       923       994      3645      3859      3860
 -1      1909    8    0    1
 -2       923       993       994      3858      3861      3859
 -1      1910    8    0    1
 -2       925       924       995      3648      3862      3863
 -1      1911    8    0    1
 -2       924       994       995      3860      3864      3862
 -1      1912    8    0    1
 -2       926       925       996      3651      3865      3866
 -1      1913    8    0    1
 -2       925       995       996      3863      3867      3865
 -1      1914    8    0    1
 -2       927       926       997      3654      3868      3869
 -1      1915    8    0    1
 -2       926       996       997      3866      3870      3868
 -1      1916    8    0    1
 -2       928       927       998      3657      3871      3872
 -1      1917    8    0    1
 -2       927       997       998      3869      3873      3871
 -1      1918    8    0    1
 -2       929       928       999      3660      3874      3875
 -1      1919    8    0    1
 -2       928       998       999      3872      3876      3874
 -1      1920    8    0    1
 -2       930       929      1000      3663      3877      3878
 -1      1921    8    0    1
 -2       929       999      1000      3875      3879      3877
 -1      1922    8    0    1
 -2       931       930      1001      3666      3880      3881
 -1      1923    8    0    1
 -2       930      1000      1001      3878      3882      3880
 -1      1924    8    0    1
 -2       932       931      1002      3669      3883      3884
 -1      1925    8    0    1
 -2       931      1001      1002      3881      3885      3883
 -1      1926    8    0    1
 -2       933       932      1003      3672      3886      3887
 -1      1927    8    0    1
 -2       932      1002      1003      3884      3888      3886
 -1      1928    8    0    1
 -2       934       933      1004      3675      3889      3890
 -1      1929    8    0    1
 -2       933      1003      1004      3887      3891      3889
 -1      1930    8    0    1
 -2       935       934      1005      3678      3892      3893
 -1      1931    8    0    1
 -2       934      1004      1005      3890      3894      3892
 -1      1932    8    0    1
 -2       936       935      1006      3681      3895      3896
 -1      1933    8    0    1
 -2       935      1005      1006      3893      3897      3895
 -1      1934    8    0    1
 -2       937       936      1007      3684      3898      3899
 -1      1935    8    0    1
 -2       936      1006      1007      3896      3900      3898
 -1      1936    8    0    1
 -2       938       937      1008      3687      3901      3902
 -1      1937    8    0    1
 -2       937      1007      1008      3899      3903      3901
 -1      1938    8    0    1
 -2       939       938      1009      3690      3904      3905
 -1      1939    8    0    1
 -2       938      1008      1009      3902      3906      3904
 -1      1940    8    0    1
 -2       940       939      1010      3693      3907      3908
 -1      1941    8    0    1
 -2       939      1009      1010      3905      3909      3907
 -1      1942    8    0    1
 -2       941       940      1011      3696      3910      3911
 -1      1943    8    0    1
 -2       940      1010      1011      3908      3912      3910
 -1      1944    8    0    1
 -2       942       941      1012      3699      3913      3914
 -1      1945    8    0    1
 -2       941      1011      1012      3911      3915      3913
 -1      1946    8    0    1
 -2       943       942      1013      3702      3916      3917
 -1      1947    8    0    1
 -2       942      1012      1013      3914      3918      3916
 -1      1948    8    0    1
 -2       944       943      1014      3705      3919      3920
 -1      1949    8    0    1
 -2       943      1013      1014      3917      3921      3919
 -1      1950    8    0    1
 -2       945       944      1015      3708      3922      3923
 -1      1951    8    0    1
 -2       944      1014      1015      3920      3924      3922
 -1      1952    8    0    1
 -2       946       945      1016      3711      3925      3926
 -1      1953    8    0    1
 -2       945      1015      1016      3923      3927      3925
 -1      1954    8    0    1
 -2       947       946      1017      3714      3928      3929
 -1      1955    8    0    1
 -2       946      1016      1017      3926      3930      3928
 -1      1956    8    0    1
 -2       948       947      1018      3717      3931      3932
 -1      1957    8    0    1
 -2       947      1017      1018      3929      3933      3931
 -1      1958    8    0    1
 -2       955       956      1019      3741      3934      3935
 -1      1959    8    0    1
 -2       956       957      1020      3744      3936      3937
 -1      1960    8    0    1
 -2       956      1020      1019      3937      3938      3934
 -1      1961    8    0    1
 -2       957       958      1021      3747      3939      3940
 -1      1962    8    0    1
 -2       957      1021      1020      3940      3941      3936
 -1      1963    8    0    1
 -2       958       959      1022      3750      3942      3943
 -1      1964    8    0    1
 -2       958      1022      1021      3943      3944      3939
 -1      1965    8    0    1
 -2       959       960      1023      3753      3945      3946
 -1      1966    8    0    1
 -2       959      1023      1022      3946      3947      3942
 -1      1967    8    0    1
 -2       960       961      1024      3756      3948      3949
 -1      1968    8    0    1
 -2       960      1024      1023      3949      3950      3945
 -1      1969    8    0    1
 -2       961       962      1025      3759      3951      3952
 -1      1970    8    0    1
 -2       961      1025      1024      3952      3953      3948
 -1      1971    8    0    1
 -2       962       963      1026      3762      3954      3955
 -1      1972    8    0    1
 -2       962      1026      1025      3955      3956      3951
 -1      1973    8    0    1
 -2       963       964      1027      3765      3957      3958
 -1      1974    8    0    1
 -2       963      1027      1026      3958      3959      3954
 -1      1975    8    0    1
 -2       964       965      1028      3768      3960      3961
 -1      1976    8    0    1
 -2       964      1028      1027      3961      3962      3957
 -1      1977    8    0    1
 -2       965       966      1029      3771      3963      3964
 -1      1978    8    0    1
 -2       965      1029      1028      3964      3965      3960
 -1      1979    8    0    1
 -2       966       967      1030      3774      3966      3967
 -1      1980    8    0    1
 -2       966      1030      1029      3967      3968      3963
 -1      1981    8    0    1
 -2       967       968      1031      3777      3969      3970
 -1      1982    8    0    1
 -2       967      1031      1030      3970      3971      3966
 -1      1983    8    0    1
 -2       968       969      1032      3780      3972      3973
 -1      1984    8    0    1
 -2       968      1032      1031      3973      3974      3969
 -1      1985    8    0    1
 -2       969       970      1033      3783      3975      3976
 -1      1986    8    0    1
 -2       969      1033      1032      3976      3977      3972
 -1      1987    8    0    1
 -2       970       971      1034      3786      3978      3979
 -1      1988    8    0    1
 -2       970      1034      1033      3979      3980      3975
 -1      1989    8    0    1
 -2       915       979      1035      3827      3981      3982
 -1      1990    8    0    1
 -2       985       915      1035      3833      3982      3983
 -1      1991    8    0    1
 -2       979       991      1035      3854      3984      3981
 -1      1992    8    0    1
 -2       919       913      1036      3828      3985      3986
 -1      1993    8    0    1
 -2       989       919      1036      3846      3986      3987
 -1      1994    8    0    1
 -2       913       988      1036      3844      3988      3985
 -1      1995    8    0    1
 -2       975       908      1037      3798      3989      3990
 -1      1996    8    0    1
 -2       908       980      1037      3816      3991      3989
 -1      1997    8    0    1
 -2       922       920      1038      3639      3992      3993
 -1      1998    8    0    1
 -2       922      1038       993      3993      3994      3857
 -1      1999    8    0    1
 -2       974       983      1039      3826      3995      3996
 -1      2000    8    0    1
 -2       974      1039       982      3996      3997      3823
 -1      2001    8    0    1
 -2       954       955      1040      3738      3998      3999
 -1      2002    8    0    1
 -2       954      1040       992      3999      4000      3855
 -1      2003    8    0    1
 -2       920       977      1041      3806      4001      4002
 -1      2004    8    0    1
 -2       920      1041      1038      4002      4003      3992
 -1      2005    8    0    1
 -2       953       950      1042      3732      4004      4005
 -1      2006    8    0    1
 -2       973       976       990      3829      3851      4006
 -1      2007    8    0    1
 -2       955      1019      1040      3935      4007      3998
 -1      2008    8    0    1
 -2       949       948      1043      3721      4008      4009
 -1      2009    8    0    1
 -2       986       949      1043      3838      4009      4010
 -1      2010    8    0    1
 -2       948      1018      1043      3932      4011      4008
 -1      2011    8    0    1
 -2       951       921      1044      3727      4012      4013
 -1      2012    8    0    1
 -2       921       992      1044      3856      4014      4012
 -1      2013    8    0    1
 -2       950       951      1045      3726      4015      4016
 -1      2014    8    0    1
 -2      1042       950      1045      4004      4016      4017
 -1      2015    8    0    1
 -2       951      1044      1045      4013      4018      4015
 -1      2016    8    0    1
 -2       916       982      1046      3822      4019      4020
 -1      2017    8    0    1
 -2       978       916      1046      3810      4020      4021
 -1      2018    8    0    1
 -2       982      1039      1046      3997      4022      4019
 -1      2019    8    0    1
 -2       985      1035      1047      3983      4023      4024
 -1      2020    8    0    1
 -2       971       972      1048      3789      4025      4026
 -1      2021    8    0    1
 -2      1034       971      1048      3978      4026      4027
 -1      2022    8    0    1
 -2       972       987      1048      3841      4028      4025
 -1      2023    8    0    1
 -2       988       953      1049      3845      4029      4030
 -1      2024    8    0    1
 -2       953      1042      1049      4005      4031      4029
 -1      2025    8    0    1
 -2       991       981      1050      3852      4032      4033
 -1      2026    8    0    1
 -2       744       816       748      3367      3803      3067
 -1      2027    8    0    1
 -2       987       975      1051      3842      4034      4035
 -1      2028    8    0    1
 -2      1048       987      1051      4028      4035      4036
 -1      2029    8    0    1
 -2       975      1037      1051      3990      4037      4034
 -1      2030    8    0    1
 -2      1039       983      1052      3995      4038      4039
 -1      2031    8    0    1
 -2       952       986      1053      3837      4040      4041
 -1      2032    8    0    1
 -2       986      1043      1053      4010      4042      4040
 -1      2033    8    0    1
 -2       985      1047      1054      4024      4043      4044
 -1      2034    8    0    1
 -2       983       984      1055      3832      4045      4046
 -1      2035    8    0    1
 -2       983      1055      1052      4046      4047      4038
 -1      2036    8    0    1
 -2       981       989      1056      3848      4048      4049
 -1      2037    8    0    1
 -2       981      1056      1050      4049      4050      4032
 -1      2038    8    0    1
 -2       977       978      1046      3809      4021      4051
 -1      2039    8    0    1
 -2       990       985      1054      3849      4044      4052
 -1      2040    8    0    1
 -2       917       973      1057      3824      4053      4054
 -1      2041    8    0    1
 -2       980       952      1053      3817      4041      4055
 -1      2042    8    0    1
 -2       977      1046      1041      4051      4056      4001
 -1      2043    8    0    1
 -2       917      1057       984      4054      4057      3830
 -1      2044    8    0    1
 -2      1040      1019      1058      4007      4058      4059
 -1      2045    8    0    1
 -2      1038      1041      1059      4003      4060      4061
 -1      2046    8    0    1
 -2       990      1054      1057      4052      4062      4063
 -1      2047    8    0    1
 -2       995       994      1060      3864      4064      4065
 -1      2048    8    0    1
 -2       996       995      1061      3867      4066      4067
 -1      2049    8    0    1
 -2       995      1060      1061      4065      4068      4066
 -1      2050    8    0    1
 -2       997       996      1062      3870      4069      4070
 -1      2051    8    0    1
 -2       996      1061      1062      4067      4071      4069
 -1      2052    8    0    1
 -2       998       997      1063      3873      4072      4073
 -1      2053    8    0    1
 -2       997      1062      1063      4070      4074      4072
 -1      2054    8    0    1
 -2       999       998      1064      3876      4075      4076
 -1      2055    8    0    1
 -2       998      1063      1064      4073      4077      4075
 -1      2056    8    0    1
 -2      1000       999      1065      3879      4078      4079
 -1      2057    8    0    1
 -2       999      1064      1065      4076      4080      4078
 -1      2058    8    0    1
 -2      1001      1000      1066      3882      4081      4082
 -1      2059    8    0    1
 -2      1000      1065      1066      4079      4083      4081
 -1      2060    8    0    1
 -2      1002      1001      1067      3885      4084      4085
 -1      2061    8    0    1
 -2      1001      1066      1067      4082      4086      4084
 -1      2062    8    0    1
 -2      1003      1002      1068      3888      4087      4088
 -1      2063    8    0    1
 -2      1002      1067      1068      4085      4089      4087
 -1      2064    8    0    1
 -2      1004      1003      1069      3891      4090      4091
 -1      2065    8    0    1
 -2      1003      1068      1069      4088      4092      4090
 -1      2066    8    0    1
 -2      1005      1004      1070      3894      4093      4094
 -1      2067    8    0    1
 -2      1004      1069      1070      4091      4095      4093
 -1      2068    8    0    1
 -2      1006      1005      1071      3897      4096      4097
 -1      2069    8    0    1
 -2      1005      1070      1071      4094      4098      4096
 -1      2070    8    0    1
 -2      1007      1006      1072      3900      4099      4100
 -1      2071    8    0    1
 -2      1006      1071      1072      4097      4101      4099
 -1      2072    8    0    1
 -2      1008      1007      1073      3903      4102      4103
 -1      2073    8    0    1
 -2      1007      1072      1073      4100      4104      4102
 -1      2074    8    0    1
 -2      1009      1008      1074      3906      4105      4106
 -1      2075    8    0    1
 -2      1008      1073      1074      4103      4107      4105
 -1      2076    8    0    1
 -2      1010      1009      1075      3909      4108      4109
 -1      2077    8    0    1
 -2      1009      1074      1075      4106      4110      4108
 -1      2078    8    0    1
 -2      1011      1010      1076      3912      4111      4112
 -1      2079    8    0    1
 -2      1010      1075      1076      4109      4113      4111
 -1      2080    8    0    1
 -2      1012      1011      1077      3915      4114      4115
 -1      2081    8    0    1
 -2      1011      1076      1077      4112      4116      4114
 -1      2082    8    0    1
 -2      1013      1012      1078      3918      4117      4118
 -1      2083    8    0    1
 -2      1012      1077      1078      4115      4119      4117
 -1      2084    8    0    1
 -2      1014      1013      1079      3921      4120      4121
 -1      2085    8    0    1
 -2      1013      1078      1079      4118      4122      4120
 -1      2086    8    0    1
 -2      1015      1014      1080      3924      4123      4124
 -1      2087    8    0    1
 -2      1014      1079      1080      4121      4125      4123
 -1      2088    8    0    1
 -2      1016      1015      1081      3927      4126      4127
 -1      2089    8    0    1
 -2      1015      1080      1081      4124      4128      4126
 -1      2090    8    0    1
 -2      1017      1016      1082      3930      4129      4130
 -1      2091    8    0    1
 -2      1016      1081      1082      4127      4131      4129
 -1      2092    8    0    1
 -2      1018      1017      1083      3933      4132      4133
 -1      2093    8    0    1
 -2      1017      1082      1083      4130      4134      4132
 -1      2094    8    0    1
 -2      1020      1021      1084      3941      4135      4136
 -1      2095    8    0    1
 -2      1019      1020      1085      3938      4137      4138
 -1      2096    8    0    1
 -2      1058      1019      1085      4058      4138      4139
 -1      2097    8    0    1
 -2      1020      1084      1085      4136      4140      4137
 -1      2098    8    0    1
 -2      1022      1023      1086      3947      4141      4142
 -1      2099    8    0    1
 -2      1023      1024      1087      3950      4143      4144
 -1      2100    8    0    1
 -2      1023      1087      1086      4144      4145      4141
 -1      2101    8    0    1
 -2      1024      1025      1088      3953      4146      4147
 -1      2102    8    0    1
 -2      1024      1088      1087      4147      4148      4143
 -1      2103    8    0    1
 -2      1025      1026      1089      3956      4149      4150
 -1      2104    8    0    1
 -2      1025      1089      1088      4150      4151      4146
 -1      2105    8    0    1
 -2      1026      1027      1090      3959      4152      4153
 -1      2106    8    0    1
 -2      1026      1090      1089      4153      4154      4149
 -1      2107    8    0    1
 -2      1027      1028      1091      3962      4155      4156
 -1      2108    8    0    1
 -2      1027      1091      1090      4156      4157      4152
 -1      2109    8    0    1
 -2      1028      1029      1092      3965      4158      4159
 -1      2110    8    0    1
 -2      1028      1092      1091      4159      4160      4155
 -1      2111    8    0    1
 -2      1029      1030      1093      3968      4161      4162
 -1      2112    8    0    1
 -2      1029      1093      1092      4162      4163      4158
 -1      2113    8    0    1
 -2      1030      1031      1094      3971      4164      4165
 -1      2114    8    0    1
 -2      1030      1094      1093      4165      4166      4161
 -1      2115    8    0    1
 -2      1031      1032      1095      3974      4167      4168
 -1      2116    8    0    1
 -2      1031      1095      1094      4168      4169      4164
 -1      2117    8    0    1
 -2      1032      1033      1096      3977      4170      4171
 -1      2118    8    0    1
 -2      1032      1096      1095      4171      4172      4167
 -1      2119    8    0    1
 -2      1033      1034      1097      3980      4173      4174
 -1      2120    8    0    1
 -2      1033      1097      1096      4174      4175      4170
 -1      2121    8    0    1
 -2      1035       991      1098      3984      4176      4177
 -1      2122    8    0    1
 -2      1035      1098      1047      4177      4178      4023
 -1      2123    8    0    1
 -2      1021      1022      1099      3944      4179      4180
 -1      2124    8    0    1
 -2      1021      1099      1084      4180      4181      4135
 -1      2125    8    0    1
 -2       991      1050      1098      4033      4182      4176
 -1      2126    8    0    1
 -2       993      1038      1100      3994      4183      4184
 -1      2127    8    0    1
 -2      1038      1059      1100      4061      4185      4183
 -1      2128    8    0    1
 -2      1041      1046      1039      4056      4022      4186
 -1      2129    8    0    1
 -2       992      1040      1101      4000      4187      4188
 -1      2130    8    0    1
 -2      1040      1058      1101      4059      4189      4187
 -1      2131    8    0    1
 -2       994       993      1102      3861      4190      4191
 -1      2132    8    0    1
 -2       994      1102      1060      4191      4192      4064
 -1      2133    8    0    1
 -2       984      1057      1054      4057      4062      4193
 -1      2134    8    0    1
 -2      1037       980      1103      3991      4194      4195
 -1      2135    8    0    1
 -2       980      1053      1103      4055      4196      4194
 -1      2136    8    0    1
 -2       984      1054      1055      4193      4197      4045
 -1      2137    8    0    1
 -2      1057       973       990      4053      4006      4063
 -1      2138    8    0    1
 -2      1041      1039      1052      4186      4039      4198
 -1      2139    8    0    1
 -2      1041      1052      1059      4198      4199      4060
 -1      2140    8    0    1
 -2      1043      1018      1104      4011      4200      4201
 -1      2141    8    0    1
 -2      1053      1043      1104      4042      4201      4202
 -1      2142    8    0    1
 -2      1018      1083      1104      4133      4203      4200
 -1      2143    8    0    1
 -2      1022      1086      1099      4142      4204      4179
 -1      2144    8    0    1
 -2      1098      1050      1105      4182      4205      4206
 -1      2145    8    0    1
 -2      1050      1056      1106      4050      4207      4208
 -1      2146    8    0    1
 -2      1050      1106      1105      4208      4209      4205
 -1      2147    8    0    1
 -2      1047      1098      1107      4178      4210      4211
 -1      2148    8    0    1
 -2      1098      1105      1107      4206      4212      4210
 -1      2149    8    0    1
 -2       993      1100      1102      4184      4213      4190
 -1      2150    8    0    1
 -2      1034      1048      1051      4027      4036      4214
 -1      2151    8    0    1
 -2      1049      1042      1108      4031      4215      4216
 -1      2152    8    0    1
 -2      1053      1104      1103      4202      4217      4196
 -1      2153    8    0    1
 -2      1044       992      1109      4014      4218      4219
 -1      2154    8    0    1
 -2       992      1101      1109      4188      4220      4218
 -1      2155    8    0    1
 -2      1051      1037      1110      4037      4221      4222
 -1      2156    8    0    1
 -2      1037      1103      1110      4195      4223      4221
 -1      2157    8    0    1
 -2       989      1036      1111      3987      4224      4225
 -1      2158    8    0    1
 -2       989      1111      1056      4225      4226      4048
 -1      2159    8    0    1
 -2      1059      1052      1112      4199      4227      4228
 -1      2160    8    0    1
 -2      1052      1055      1112      4047      4229      4227
 -1      2161    8    0    1
 -2      1036       988      1113      3988      4230      4231
 -1      2162    8    0    1
 -2      1111      1036      1113      4224      4231      4232
 -1      2163    8    0    1
 -2       988      1049      1113      4030      4233      4230
 -1      2164    8    0    1
 -2      1034      1051      1110      4214      4222      4234
 -1      2165    8    0    1
 -2      1054      1047      1055      4043      4235      4197
 -1      2166    8    0    1
 -2      1042      1045      1114      4017      4236      4237
 -1      2167    8    0    1
 -2      1042      1114      1108      4237      4238      4215
 -1      2168    8    0    1
 -2      1047      1107      1055      4211      4239      4235
 -1      2169    8    0    1
 -2      1099      1086      1072      4204      4240      4241
 -1      2170    8    0    1
 -2      1062      1061      1115      4071      4242      4243
 -1      2171    8    0    1
 -2      1063      1062      1116      4074      4244      4245
 -1      2172    8    0    1
 -2      1062      1115      1116      4243      4246      4244
 -1      2173    8    0    1
 -2      1064      1063      1108      4077      4247      4248
 -1      2174    8    0    1
 -2      1065      1064      1114      4080      4249      4250
 -1      2175    8    0    1
 -2      1067      1066      1117      4086      4251      4252
 -1      2176    8    0    1
 -2      1068      1067      1101      4089      4253      4254
 -1      2177    8    0    1
 -2      1069      1068      1058      4092      4255      4256
 -1      2178    8    0    1
 -2      1070      1069      1085      4095      4257      4258
 -1      2179    8    0    1
 -2      1071      1070      1084      4098      4259      4260
 -1      2180    8    0    1
 -2      1072      1071      1099      4101      4261      4241
 -1      2181    8    0    1
 -2      1073      1072      1086      4104      4240      4262
 -1      2182    8    0    1
 -2      1074      1073      1087      4107      4263      4264
 -1      2183    8    0    1
 -2      1075      1074      1088      4110      4265      4266
 -1      2184    8    0    1
 -2      1076      1075      1089      4113      4267      4268
 -1      2185    8    0    1
 -2      1077      1076      1090      4116      4269      4270
 -1      2186    8    0    1
 -2      1078      1077      1091      4119      4271      4272
 -1      2187    8    0    1
 -2      1079      1078      1092      4122      4273      4274
 -1      2188    8    0    1
 -2      1080      1079      1093      4125      4275      4276
 -1      2189    8    0    1
 -2      1081      1080      1094      4128      4277      4278
 -1      2190    8    0    1
 -2      1082      1081      1095      4131      4279      4280
 -1      2191    8    0    1
 -2      1083      1082      1096      4134      4281      4282
 -1      2192    8    0    1
 -2      1045      1044      1118      4018      4283      4284
 -1      2193    8    0    1
 -2      1044      1109      1118      4219      4285      4283
 -1      2194    8    0    1
 -2      1107      1105      1100      4212      4286      4287
 -1      2195    8    0    1
 -2      1088      1089      1075      4151      4267      4266
 -1      2196    8    0    1
 -2      1086      1087      1073      4145      4263      4262
 -1      2197    8    0    1
 -2      1089      1090      1076      4154      4269      4268
 -1      2198    8    0    1
 -2      1090      1091      1077      4157      4271      4270
 -1      2199    8    0    1
 -2      1091      1092      1078      4160      4273      4272
 -1      2200    8    0    1
 -2      1092      1093      1079      4163      4275      4274
 -1      2201    8    0    1
 -2      1093      1094      1080      4166      4277      4276
 -1      2202    8    0    1
 -2      1094      1095      1081      4169      4279      4278
 -1      2203    8    0    1
 -2      1095      1096      1082      4172      4281      4280
 -1      2204    8    0    1
 -2      1096      1097      1083      4175      4288      4282
 -1      2205    8    0    1
 -2      1058      1068      1101      4255      4254      4189
 -1      2206    8    0    1
 -2      1097      1034      1110      4173      4234      4289
 -1      2207    8    0    1
 -2      1102      1100      1105      4213      4286      4290
 -1      2208    8    0    1
 -2      1100      1059      1112      4185      4228      4291
 -1      2209    8    0    1
 -2      1060      1102      1106      4192      4292      4293
 -1      2210    8    0    1
 -2      1049      1108      1116      4216      4294      4295
 -1      2211    8    0    1
 -2      1087      1088      1074      4148      4265      4264
 -1      2212    8    0    1
 -2      1084      1099      1071      4181      4261      4260
 -1      2213    8    0    1
 -2      1061      1060      1119      4068      4296      4297
 -1      2214    8    0    1
 -2      1115      1061      1119      4242      4297      4298
 -1      2215    8    0    1
 -2      1060      1106      1119      4293      4299      4296
 -1      2216    8    0    1
 -2      1102      1105      1106      4290      4209      4292
 -1      2217    8    0    1
 -2      1084      1070      1085      4259      4258      4140
 -1      2218    8    0    1
 -2      1064      1108      1114      4248      4238      4249
 -1      2219    8    0    1
 -2      1108      1063      1116      4247      4245      4294
 -1      2220    8    0    1
 -2      1069      1058      1085      4256      4139      4257
 -1      2221    8    0    1
 -2      1104      1083      1097      4203      4288      4300
 -1      2222    8    0    1
 -2      1066      1065      1120      4083      4301      4302
 -1      2223    8    0    1
 -2      1066      1120      1117      4302      4303      4251
 -1      2224    8    0    1
 -2      1045      1118      1114      4284      4304      4236
 -1      2225    8    0    1
 -2      1101      1067      1117      4253      4252      4305
 -1      2226    8    0    1
 -2      1106      1056      1119      4207      4306      4299
 -1      2227    8    0    1
 -2      1049      1116      1113      4295      4307      4233
 -1      2228    8    0    1
 -2      1056      1111      1119      4226      4308      4306
 -1      2229    8    0    1
 -2      1120      1065      1114      4301      4250      4309
 -1      2230    8    0    1
 -2      1104      1097      1103      4300      4310      4217
 -1      2231    8    0    1
 -2      1103      1097      1110      4310      4289      4223
 -1      2232    8    0    1
 -2      1120      1114      1118      4309      4304      4311
 -1      2233    8    0    1
 -2      1117      1120      1118      4303      4311      4312
 -1      2234    8    0    1
 -2      1115      1119      1111      4298      4308      4313
 -1      2235    8    0    1
 -2      1113      1116      1115      4307      4246      4314
 -1      2236    8    0    1
 -2      1055      1107      1112      4239      4315      4229
 -1      2237    8    0    1
 -2      1115      1111      1113      4313      4232      4314
 -1      2238    8    0    1
 -2      1112      1107      1100      4315      4287      4291
 -1      2239    8    0    1
 -2      1118      1109      1117      4285      4316      4312
 -1      2240    8    0    1
 -2      1109      1101      1117      4220      4305      4316
 -3
    1PSTEP                         1           1           1          
  100CL  101 1.000000000        4316                     0    1           1
 -4  DISP        4    1
 -5  D1          1    2    1    0
 -5  D2          1    2    2    0
 -5  D3          1    2    3    0
 -5  ALL         1    2    0    0    1ALL
 -1         1 1.10979E-02-7.99545E-04-4.36109E-14
 -1         2 1.51220E-02-1.24628E-04-5.17264E-14
 -1         3 1.43240E-02 1.07495E-04-6.39066E-14
 -1         4 1.45023E-02-3.00709E-04-6.54613E-14
 -1         5 0.00000E+00 0.00000E+00 0.00000E+00
 -1         6 0.00000E+00 0.00000E+00 0.00000E+00
 -1         7 0.00000E+00 0.00000E+00 0.00000E+00
 -1         8 0.00000E+00 0.00000E+00 0.00000E+00
 -1         9 0.00000E+00 0.00000E+00 0.00000E+00
 -1        10 0.00000E+00 0.00000E+00 0.00000E+00
 -1        11 0.00000E+00 0.00000E+00 0.00000E+00
 -1        12 0.00000E+00 0.00000E+00 0.00000E+00
 -1        13 0.00000E+00 0.00000E+00 0.00000E+00
 -1        14 0.00000E+00 0.00000E+00 0.00000E+00
 -1        15 0.00000E+00 0.00000E+00 0.00000E+00
 -1        16 0.00000E+00 0.00000E+00 0.00000E+00
 -1        17 0.00000E+00 0.00000E+00 0.00000E+00
 -1        18 0.00000E+00 0.00000E+00 0.00000E+00
 -1        19 0.00000E+00 0.00000E+00 0.00000E+00
 -1        20 0.00000E+00 0.00000E+00 0.00000E+00
 -1        21 0.00000E+00 0.00000E+00 0.00000E+00
 -1        22 0.00000E+00 0.00000E+00 0.00000E+00
 -1        23 4.11413E-04-2.60742E-04 1.32239E-17
 -1        24 7.03434E-04-4.00990E-04-2.95682E-17
 -1        25 9.73548E-04-4.98377E-04-1.27397E-16
 -1        26 1.23809E-03-5.67143E-04-2.79900E-16
 -1        27 1.50168E-03-6.16433E-04-4.86000E-16
 -1        28 1.76640E-03-6.51629E-04-7.46050E-16
 -1        29 2.03322E-03-6.76447E-04-1.05993E-15
 -1        30 2.30250E-03-6.93587E-04-1.42845E-15
 -1        31 2.57429E-03-7.05074E-04-1.85432E-15
 -1        32 2.84844E-03-7.12439E-04-2.33864E-15
 -1        33 3.12472E-03-7.16839E-04-2.87841E-15
 -1        34 3.40286E-03-7.19140E-04-3.47238E-15
 -1        35 3.68255E-03-7.19978E-04-4.12440E-15
 -1        36 3.96353E-03-7.19810E-04-4.83525E-15
 -1        37 4.24555E-03-7.18949E-04-5.60542E-15
 -1        38 4.52838E-03-7.17598E-04-6.43733E-15
 -1        39 4.81187E-03-7.15872E-04-7.32918E-15
 -1        40 5.09587E-03-7.13820E-04-8.28503E-15
 -1        41 5.38030E-03-7.11438E-04-9.30013E-15
 -1        42 5.66514E-03-7.08683E-04-1.03754E-14
 -1        43 5.95040E-03-7.05486E-04-1.15118E-14
 -1        44 6.23618E-03-7.01763E-04-1.27103E-14
 -1        45 6.52263E-03-6.97428E-04-1.39708E-14
 -1        46 6.81001E-03-6.92411E-04-1.52950E-14
 -1        47 7.09870E-03-6.86681E-04-1.66790E-14
 -1        48 7.38919E-03-6.80280E-04-1.81159E-14
 -1        49 7.68214E-03-6.73367E-04-1.96087E-14
 -1        50 7.97839E-03-6.66280E-04-2.11579E-14
 -1        51 8.27900E-03-6.59627E-04-2.27599E-14
 -1        52 8.58522E-03-6.54399E-04-2.44132E-14
 -1        53 8.89853E-03-6.52119E-04-2.61127E-14
 -1        54 9.22045E-03-6.55024E-04-2.78607E-14
 -1        55 9.55244E-03-6.66245E-04-2.96418E-14
 -1        56 9.89542E-03-6.89933E-04-3.14510E-14
 -1        57 1.02491E-02-7.31166E-04-3.32857E-14
 -1        58 1.06112E-02-7.95372E-04-3.51419E-14
 -1        59 1.09758E-02-8.86862E-04-3.70293E-14
 -1        60 1.13332E-02-1.00612E-03-3.89477E-14
 -1        61 1.16703E-02-1.14608E-03-4.09024E-14
 -1        62 1.19740E-02-1.28902E-03-4.29068E-14
 -1        63 1.22377E-02-1.40747E-03-4.49703E-14
 -1        64 1.24671E-02-1.47185E-03-4.70809E-14
 -1        65 1.26796E-02-1.46287E-03-4.92531E-14
 -1        66 1.28968E-02-1.38046E-03-5.14741E-14
 -1        67 1.31336E-02-1.24181E-03-5.37339E-14
 -1        68 1.33926E-02-1.07015E-03-5.60276E-14
 -1        69 1.36670E-02-8.83449E-04-5.83549E-14
 -1        70 1.39483E-02-6.89999E-04-6.07238E-14
 -1        71 1.42318E-02-4.91689E-04-6.31373E-14
 -1        72 4.13859E-04 2.61447E-04 4.11387E-17
 -1        73 7.03260E-04 4.03697E-04 4.67528E-17
 -1        74 9.74086E-04 5.00152E-04 1.20279E-17
 -1        75 1.23892E-03 5.68857E-04-6.64955E-17
 -1        76 1.50263E-03 6.18193E-04-1.90457E-16
 -1        77 1.76743E-03 6.53480E-04-3.61524E-16
 -1        78 2.03428E-03 6.78409E-04-5.80946E-16
 -1        79 2.30359E-03 6.95672E-04-8.52074E-16
 -1        80 2.57539E-03 7.07286E-04-1.18066E-15
 -1        81 2.84955E-03 7.14782E-04-1.56940E-15
 -1        82 3.12584E-03 7.19315E-04-2.01846E-15
 -1        83 3.40398E-03 7.21749E-04-2.52319E-15
 -1        84 3.68368E-03 7.22721E-04-3.08657E-15
 -1        85 3.96466E-03 7.22687E-04-3.70877E-15
 -1        86 4.24668E-03 7.21961E-04-4.39239E-15
 -1        87 4.52952E-03 7.20744E-04-5.14296E-15
 -1        88 4.81301E-03 7.19154E-04-5.95770E-15
 -1        89 5.09701E-03 7.17240E-04-6.83761E-15
 -1        90 5.38146E-03 7.14998E-04-7.78900E-15
 -1        91 5.66631E-03 7.12390E-04-8.80946E-15
 -1        92 5.95159E-03 7.09349E-04-9.87993E-15
 -1        93 6.23739E-03 7.05799E-04-1.10031E-14
 -1        94 6.52386E-03 7.01663E-04-1.21906E-14
 -1        95 6.81128E-03 6.96885E-04-1.34321E-14
 -1        96 7.09998E-03 6.91455E-04-1.47275E-14
 -1        97 7.39045E-03 6.85442E-04-1.60653E-14
 -1        98 7.68330E-03 6.79040E-04-1.74607E-14
 -1        99 7.97930E-03 6.72630E-04-1.89055E-14
 -1       100 8.27939E-03 6.66859E-04-2.03945E-14
 -1       101 8.58461E-03 6.62742E-04-2.19203E-14
 -1       102 8.89609E-03 6.61775E-04-2.34897E-14
 -1       103 9.21490E-03 6.66052E-04-2.51124E-14
 -1       104 9.54181E-03 6.78346E-04-2.67788E-14
 -1       105 9.87687E-03 7.02080E-04-2.84988E-14
 -1       106 1.02189E-02 7.41052E-04-3.02754E-14
 -1       107 1.05647E-02 7.98728E-04-3.21033E-14
 -1       108 1.09087E-02 8.76885E-04-3.39792E-14
 -1       109 1.12423E-02 9.73572E-04-3.59206E-14
 -1       110 1.15560E-02 1.08084E-03-3.79273E-14
 -1       111 1.18410E-02 1.18352E-03-3.99964E-14
 -1       112 1.20946E-02 1.26093E-03-4.21431E-14
 -1       113 1.23219E-02 1.29246E-03-4.43551E-14
 -1       114 1.25362E-02 1.26505E-03-4.66328E-14
 -1       115 1.27530E-02 1.17823E-03-4.89646E-14
 -1       116 1.29838E-02 1.04293E-03-5.13673E-14
 -1       117 1.32326E-02 8.75161E-04-5.38292E-14
 -1       118 1.34968E-02 6.89118E-04-5.63458E-14
 -1       119 1.37716E-02 4.94021E-04-5.89097E-14
 -1       120 1.40531E-02 2.95378E-04-6.14786E-14
 -1       121 1.45170E-02 2.25964E-05-6.40533E-14
 -1       122 1.47103E-02-6.59904E-05-6.41867E-14
 -1       123 1.49124E-02-1.57271E-04-6.42948E-14
 -1       124 1.51304E-02-2.42653E-04-6.44397E-14
 -1       125 1.53637E-02-3.07081E-04-6.45745E-14
 -1       126 1.55947E-02-3.32818E-04-6.47032E-14
 -1       127 1.58030E-02-3.08135E-04-6.48417E-14
 -1       128 1.59464E-02-2.33507E-04-6.49601E-14
 -1       129 1.59920E-02-1.29332E-04-6.50779E-14
 -1       130 1.59288E-02-2.90687E-05-6.51611E-14
 -1       131 1.57742E-02 3.59797E-05-6.52227E-14
 -1       132 1.55675E-02 5.04379E-05-6.52931E-14
 -1       133 1.53373E-02 1.77525E-05-6.53601E-14
 -1       134 1.51110E-02-4.82142E-05-6.53959E-14
 -1       135 1.48983E-02-1.30916E-04-6.54196E-14
 -1       136 1.46966E-02-2.16946E-04-6.54376E-14
 -1       137 1.50615E-02 8.10210E-05-5.15658E-14
 -1       138 1.48759E-02 2.87735E-04-5.11655E-14
 -1       139 1.46055E-02 4.63262E-04-5.05875E-14
 -1       140 1.42547E-02 6.14855E-04-4.98316E-14
 -1       141 1.38018E-02 7.46365E-04-4.88409E-14
 -1       142 1.33460E-02 8.27951E-04-4.78463E-14
 -1       143 1.28545E-02 8.70157E-04-4.67799E-14
 -1       144 1.23394E-02 8.66574E-04-4.56661E-14
 -1       145 1.18192E-02 8.10348E-04-4.45443E-14
 -1       146 1.13955E-02 7.21167E-04-4.36542E-14
 -1       147 1.10292E-02 6.00445E-04-4.29000E-14
 -1       148 1.07321E-02 4.55395E-04-4.23119E-14
 -1       149 1.04884E-02 2.72253E-04-4.18558E-14
 -1       150 1.03629E-02 9.55618E-05-4.16538E-14
 -1       151 1.03260E-02-1.02027E-04-4.16581E-14
 -1       152 1.03889E-02-2.90552E-04-4.18776E-14
 -1       153 1.05398E-02-4.71759E-04-4.22794E-14
 -1       154 1.07819E-02-6.45438E-04-4.28702E-14
 -1       155 1.14981E-02-9.33882E-04-4.45062E-14
 -1       156 1.19329E-02-1.02905E-03-4.54557E-14
 -1       157 1.24170E-02-1.08572E-03-4.64910E-14
 -1       158 1.29424E-02-1.09470E-03-4.75923E-14
 -1       159 1.34153E-02-1.05683E-03-4.85552E-14
 -1       160 1.38617E-02-9.77594E-04-4.94500E-14
 -1       161 1.42793E-02-8.56866E-04-5.02595E-14
 -1       162 1.46298E-02-7.04298E-04-5.09118E-14
 -1       163 1.48888E-02-5.33612E-04-5.13760E-14
 -1       164 1.50592E-02-3.40757E-04-5.16610E-14
 -1       165 2.40424E-04-1.25512E-04-1.05676E-17
 -1       166 2.25287E-04-9.46092E-05-1.77945E-17
 -1       167 2.19526E-04-7.27637E-05-2.14808E-17
 -1       168 2.16703E-04-5.50949E-05-2.34052E-17
 -1       169 2.15211E-04-3.99580E-05-2.39134E-17
 -1       170 2.14373E-04-2.59076E-05-2.38253E-17
 -1       171 2.13951E-04-1.26397E-05-2.32121E-17
 -1       172 2.13828E-04 2.73393E-07-2.23956E-17
 -1       173 2.13969E-04 1.31987E-05-2.12504E-17
 -1       174 2.14413E-04 2.65059E-05-1.94682E-17
 -1       175 2.15260E-04 4.03830E-05-1.71473E-17
 -1       176 2.16815E-04 5.59017E-05-1.40743E-17
 -1       177 2.19677E-04 7.38044E-05-9.61213E-18
 -1       178 2.25457E-04 9.60077E-05-2.71389E-18
 -1       179 2.39355E-04 1.27590E-04 8.12474E-18
 -1       180 2.97735E-04 1.85500E-04 2.07591E-17
 -1       181 4.68668E-04-2.63549E-04-2.92531E-17
 -1       182 7.66842E-04-3.82144E-04-1.09759E-16
 -1       183 1.05073E-03-4.65036E-04-2.41753E-16
 -1       184 1.32816E-03-5.23838E-04-4.26230E-16
 -1       185 1.60280E-03-5.65561E-04-6.63308E-16
 -1       186 1.87673E-03-5.94896E-04-9.53373E-16
 -1       187 2.15108E-03-6.15155E-04-1.29655E-15
 -1       188 2.42644E-03-6.28766E-04-1.69451E-15
 -1       189 2.70308E-03-6.37543E-04-2.14847E-15
 -1       190 2.98105E-03-6.42851E-04-2.65906E-15
 -1       191 3.26030E-03-6.45709E-04-3.22461E-15
 -1       192 3.54071E-03-6.46867E-04-3.84574E-15
 -1       193 3.82214E-03-6.46868E-04-4.52577E-15
 -1       194 4.10444E-03-6.46086E-04-5.26395E-15
 -1       195 4.38746E-03-6.44771E-04-6.06421E-15
 -1       196 4.67107E-03-6.43070E-04-6.92276E-15
 -1       197 4.95519E-03-6.41054E-04-7.84203E-15
 -1       198 5.23974E-03-6.38732E-04-8.82289E-15
 -1       199 5.52470E-03-6.36069E-04-9.86350E-15
 -1       200 5.81007E-03-6.32994E-04-1.09645E-14
 -1       201 6.09592E-03-6.29414E-04-1.21284E-14
 -1       202 6.38237E-03-6.25224E-04-1.33516E-14
 -1       203 6.66959E-03-6.20323E-04-1.46399E-14
 -1       204 6.95784E-03-6.14632E-04-1.59877E-14
 -1       205 7.24748E-03-6.08123E-04-1.73912E-14
 -1       206 7.53896E-03-6.00852E-04-1.88495E-14
 -1       207 7.83286E-03-5.93020E-04-2.03631E-14
 -1       208 8.12988E-03-5.85042E-04-2.19320E-14
 -1       209 8.43086E-03-5.77656E-04-2.35508E-14
 -1       210 8.73676E-03-5.72057E-04-2.52223E-14
 -1       211 9.04859E-03-5.70081E-04-2.69388E-14
 -1       212 9.36732E-03-5.74412E-04-2.86915E-14
 -1       213 9.69371E-03-5.88780E-04-3.04789E-14
 -1       214 1.00280E-02-6.18061E-04-3.22934E-14
 -1       215 1.03693E-02-6.68049E-04-3.41354E-14
 -1       216 1.07155E-02-7.44544E-04-3.60078E-14
 -1       217 1.10622E-02-8.51260E-04-3.79106E-14
 -1       218 1.14027E-02-9.86255E-04-3.98464E-14
 -1       219 1.17292E-02-1.13761E-03-4.18237E-14
 -1       220 1.20351E-02-1.28102E-03-4.38576E-14
 -1       221 1.23189E-02-1.38372E-03-4.59449E-14
 -1       222 1.25866E-02-1.41662E-03-4.80855E-14
 -1       223 1.28495E-02-1.36840E-03-5.02813E-14
 -1       224 1.31182E-02-1.25047E-03-5.25262E-14
 -1       225 1.33968E-02-1.08779E-03-5.48103E-14
 -1       226 1.36833E-02-9.04165E-04-5.71395E-14
 -1       227 1.39729E-02-7.12965E-04-5.95016E-14
 -1       228 1.42613E-02-5.17261E-04-6.19006E-14
 -1       229 6.04623E-04 3.31037E-04 1.39184E-17
 -1       230 8.93751E-04 4.32660E-04-3.01645E-17
 -1       231 1.17268E-03 5.04421E-04-1.16230E-16
 -1       232 1.44707E-03 5.55533E-04-2.46212E-16
 -1       233 1.71992E-03 5.91818E-04-4.22561E-16
 -1       234 1.99287E-03 6.17258E-04-6.48289E-16
 -1       235 2.26674E-03 6.34729E-04-9.25956E-16
 -1       236 2.54194E-03 6.46368E-04-1.25932E-15
 -1       237 2.81861E-03 6.53781E-04-1.65023E-15
 -1       238 3.09672E-03 6.58175E-04-2.09929E-15
 -1       239 3.37616E-03 6.60449E-04-2.60669E-15
 -1       240 3.65679E-03 6.61259E-04-3.17130E-15
 -1       241 3.93842E-03 6.61075E-04-3.79456E-15
 -1       242 4.22091E-03 6.60217E-04-4.47749E-15
 -1       243 4.50409E-03 6.58892E-04-5.22566E-15
 -1       244 4.78785E-03 6.57214E-04-6.03905E-15
 -1       245 5.07209E-03 6.55229E-04-6.91707E-15
 -1       246 5.35676E-03 6.52931E-04-7.86239E-15
 -1       247 5.64184E-03 6.50271E-04-8.87250E-15
 -1       248 5.92737E-03 6.47175E-04-9.94233E-15
 -1       249 6.21341E-03 6.43551E-04-1.10664E-14
 -1       250 6.50012E-03 6.39308E-04-1.22498E-14
 -1       251 6.78772E-03 6.34367E-04-1.34861E-14
 -1       252 7.07648E-03 6.28692E-04-1.47765E-14
 -1       253 7.36680E-03 6.22317E-04-1.61183E-14
 -1       254 7.65917E-03 6.15395E-04-1.75117E-14
 -1       255 7.95419E-03 6.08257E-04-1.89555E-14
 -1       256 8.25256E-03 6.01493E-04-2.04437E-14
 -1       257 8.55505E-03 5.96060E-04-2.19722E-14
 -1       258 8.86249E-03 5.93398E-04-2.35440E-14
 -1       259 9.17561E-03 5.95568E-04-2.51659E-14
 -1       260 9.49490E-03 6.05362E-04-2.68360E-14
 -1       261 9.82039E-03 6.26311E-04-2.85563E-14
 -1       262 1.01512E-02 6.62480E-04-3.03320E-14
 -1       263 1.04854E-02 7.17824E-04-3.21542E-14
 -1       264 1.08193E-02 7.94871E-04-3.40267E-14
 -1       265 1.11475E-02 8.92595E-04-3.59507E-14
 -1       266 1.14639E-02 1.00385E-03-3.79404E-14
 -1       267 1.17628E-02 1.11360E-03-4.00006E-14
 -1       268 1.20418E-02 1.20017E-03-4.21319E-14
 -1       269 1.23032E-02 1.24079E-03-4.43335E-14
 -1       270 1.25546E-02 1.22019E-03-4.66022E-14
 -1       271 1.28054E-02 1.13681E-03-4.89283E-14
 -1       272 1.30631E-02 1.00209E-03-5.13126E-14
 -1       273 1.33303E-02 8.33495E-04-5.37546E-14
 -1       274 1.36057E-02 6.46489E-04-5.62537E-14
 -1       275 1.38864E-02 4.50701E-04-5.87970E-14
 -1       276 1.41700E-02 2.51356E-04-6.13515E-14
 -1       277 1.43649E-02 1.51354E-04-6.19142E-14
 -1       278 1.45606E-02 6.47032E-05-6.20569E-14
 -1       279 1.47711E-02-1.99390E-05-6.21891E-14
 -1       280 1.50018E-02-9.56605E-05-6.23226E-14
 -1       281 1.52428E-02-1.52127E-04-6.24557E-14
 -1       282 1.54807E-02-1.82081E-04-6.25899E-14
 -1       283 1.56734E-02-1.80229E-04-6.27231E-14
 -1       284 1.57783E-02-1.52865E-04-6.28466E-14
 -1       285 1.57680E-02-1.17159E-04-6.29513E-14
 -1       286 1.56467E-02-9.41274E-05-6.30414E-14
 -1       287 1.54510E-02-9.82220E-05-6.31167E-14
 -1       288 1.52161E-02-1.32898E-04-6.31758E-14
 -1       289 1.49787E-02-1.92578E-04-6.32298E-14
 -1       290 1.47557E-02-2.67781E-04-6.32715E-14
 -1       291 1.45044E-02-3.91695E-04-6.25839E-14
 -1       292 1.51334E-02-7.33662E-05-5.27259E-14
 -1       293 1.49605E-02 4.54870E-05-5.24343E-14
 -1       294 1.46579E-02 2.14861E-04-5.17000E-14
 -1       295 1.42809E-02 3.98470E-04-5.08908E-14
 -1       296 1.38305E-02 5.97294E-04-4.99190E-14
 -1       297 1.34103E-02 7.89245E-04-4.86675E-14
 -1       298 1.30029E-02 9.12365E-04-4.74442E-14
 -1       299 1.25954E-02 9.57405E-04-4.61525E-14
 -1       300 1.21875E-02 9.04503E-04-4.47716E-14
 -1       301 1.17591E-02 7.56440E-04-4.36730E-14
 -1       302 1.13716E-02 5.82755E-04-4.27228E-14
 -1       303 1.10044E-02 4.00486E-04-4.19513E-14
 -1       304 1.06781E-02 2.03315E-04-4.11560E-14
 -1       305 1.04226E-02 8.29904E-05-4.09911E-14
 -1       306 1.03021E-02-3.38963E-05-4.07767E-14
 -1       307 1.03221E-02-1.34686E-04-4.08571E-14
 -1       308 1.04758E-02-2.62965E-04-4.13706E-14
 -1       309 1.07402E-02-4.06841E-04-4.18985E-14
 -1       310 1.10765E-02-5.95526E-04-4.27083E-14
 -1       311 1.14654E-02-7.97432E-04-4.36547E-14
 -1       312 1.18683E-02-9.85175E-04-4.47257E-14
 -1       313 1.22642E-02-1.12120E-03-4.58789E-14
 -1       314 1.26711E-02-1.18439E-03-4.71431E-14
 -1       315 1.30763E-02-1.13485E-03-4.83519E-14
 -1       316 1.34746E-02-1.01426E-03-4.94560E-14
 -1       317 1.38919E-02-8.38571E-04-5.04748E-14
 -1       318 1.43096E-02-6.41400E-04-5.13583E-14
 -1       319 1.46797E-02-4.60640E-04-5.20386E-14
 -1       320 1.49657E-02-3.11002E-04-5.24948E-14
 -1       321 1.51350E-02-1.80384E-04-5.28543E-14
 -1       322 4.55415E-04-1.64780E-04-7.43966E-17
 -1       323 4.74290E-04-2.12967E-04-6.28973E-17
 -1       324 4.40433E-04-9.39980E-05-8.37478E-17
 -1       325 4.37462E-04-6.48967E-05-8.42967E-17
 -1       326 4.35833E-04-3.78965E-05-8.33650E-17
 -1       327 4.35119E-04-1.20138E-05-8.13219E-17
 -1       328 4.35149E-04 1.35338E-05-7.83844E-17
 -1       329 4.35929E-04 3.94740E-05-7.41493E-17
 -1       330 4.37602E-04 6.61259E-05-6.83827E-17
 -1       331 4.40669E-04 9.53981E-05-6.09559E-17
 -1       332 4.46069E-04 1.28309E-04-5.10558E-17
 -1       333 4.55917E-04 1.67290E-04-3.71814E-17
 -1       334 4.75924E-04 2.17035E-04-1.75810E-17
 -1       335 5.32062E-04 2.69966E-04-4.78065E-18
 -1       336 8.24570E-04 3.73505E-04-5.50368E-17
 -1       337 8.63333E-04-3.57399E-04-1.98768E-16
 -1       338 1.14972E-03-4.26156E-04-3.63072E-16
 -1       339 1.43253E-03-4.75369E-04-5.78473E-16
 -1       340 1.71328E-03-5.10133E-04-8.45098E-16
 -1       341 1.99308E-03-5.34275E-04-1.16383E-15
 -1       342 2.27271E-03-5.50621E-04-1.53549E-15
 -1       343 2.55262E-03-5.61288E-04-1.96090E-15
 -1       344 2.83308E-03-5.67871E-04-2.44163E-15
 -1       345 3.11419E-03-5.71562E-04-2.97841E-15
 -1       346 3.39599E-03-5.73244E-04-3.57078E-15
 -1       347 3.67844E-03-5.73560E-04-4.21908E-15
 -1       348 3.96148E-03-5.72960E-04-4.92638E-15
 -1       349 4.24504E-03-5.71749E-04-5.69367E-15
 -1       350 4.52906E-03-5.70118E-04-6.51987E-15
 -1       351 4.81347E-03-5.68167E-04-7.40614E-15
 -1       352 5.09823E-03-5.65928E-04-8.35167E-15
 -1       353 5.38332E-03-5.63378E-04-9.35628E-15
 -1       354 5.66875E-03-5.60456E-04-1.04221E-14
 -1       355 5.95454E-03-5.57069E-04-1.15517E-14
 -1       356 6.24077E-03-5.53106E-04-1.27403E-14
 -1       357 6.52755E-03-5.48450E-04-1.39916E-14
 -1       358 6.81503E-03-5.42993E-04-1.53050E-14
 -1       359 7.10344E-03-5.36659E-04-1.66750E-14
 -1       360 7.39304E-03-5.29435E-04-1.80992E-14
 -1       361 7.68420E-03-5.21414E-04-1.95791E-14
 -1       362 7.97733E-03-5.12860E-04-2.11134E-14
 -1       363 8.27295E-03-5.04292E-04-2.26995E-14
 -1       364 8.57165E-03-4.96608E-04-2.43377E-14
 -1       365 8.87411E-03-4.91232E-04-2.60243E-14
 -1       366 9.18105E-03-4.90319E-04-2.77516E-14
 -1       367 9.49327E-03-4.96964E-04-2.95159E-14
 -1       368 9.81156E-03-5.15395E-04-3.13083E-14
 -1       369 1.01366E-02-5.51023E-04-3.31323E-14
 -1       370 1.04688E-02-6.10101E-04-3.49857E-14
 -1       371 1.08078E-02-6.98556E-04-3.68715E-14
 -1       372 1.11516E-02-8.19436E-04-3.87928E-14
 -1       373 1.14953E-02-9.68476E-04-4.07469E-14
 -1       374 1.18316E-02-1.12870E-03-4.27485E-14
 -1       375 1.21532E-02-1.26812E-03-4.48063E-14
 -1       376 1.24588E-02-1.34754E-03-4.69173E-14
 -1       377 1.27562E-02-1.33987E-03-4.90868E-14
 -1       378 1.30563E-02-1.24671E-03-5.13120E-14
 -1       379 1.33643E-02-1.09459E-03-5.35856E-14
 -1       380 1.36769E-02-9.14988E-04-5.59072E-14
 -1       381 1.39868E-02-7.27941E-04-5.82637E-14
 -1       382 1.42497E-02-5.62080E-04-6.04090E-14
 -1       383 1.11008E-03 4.47836E-04-1.45622E-16
 -1       384 1.39086E-03 5.00920E-04-2.79294E-16
 -1       385 1.66921E-03 5.38564E-04-4.58892E-16
 -1       386 1.94664E-03 5.64891E-04-6.87164E-16
 -1       387 2.22410E-03 5.82915E-04-9.67528E-16
 -1       388 2.50212E-03 5.94874E-04-1.30268E-15
 -1       389 2.78098E-03 6.02451E-04-1.69371E-15
 -1       390 3.06076E-03 6.06908E-04-2.14182E-15
 -1       391 3.34147E-03 6.09181E-04-2.64812E-15
 -1       392 3.62304E-03 6.09956E-04-3.21147E-15
 -1       393 3.90539E-03 6.09721E-04-3.83268E-15
 -1       394 4.18840E-03 6.08809E-04-4.51349E-15
 -1       395 4.47198E-03 6.07433E-04-5.25775E-15
 -1       396 4.75604E-03 6.05714E-04-6.06705E-15
 -1       397 5.04053E-03 6.03699E-04-6.94107E-15
 -1       398 5.32539E-03 6.01380E-04-7.87986E-15
 -1       399 5.61063E-03 5.98708E-04-8.88350E-15
 -1       400 5.89627E-03 5.95602E-04-9.94890E-15
 -1       401 6.18237E-03 5.91965E-04-1.10710E-14
 -1       402 6.46906E-03 5.87693E-04-1.22479E-14
 -1       403 6.75651E-03 5.82695E-04-1.34802E-14
 -1       404 7.04494E-03 5.76914E-04-1.47672E-14
 -1       405 7.33466E-03 5.70358E-04-1.61057E-14
 -1       406 7.62606E-03 5.63146E-04-1.74957E-14
 -1       407 7.91959E-03 5.55563E-04-1.89366E-14
 -1       408 8.21579E-03 5.48145E-04-2.04226E-14
 -1       409 8.51528E-03 5.41776E-04-2.19516E-14
 -1       410 8.81869E-03 5.37815E-04-2.35250E-14
 -1       411 9.12665E-03 5.38238E-04-2.51466E-14
 -1       412 9.43968E-03 5.45754E-04-2.68133E-14
 -1       413 9.75804E-03 5.63865E-04-2.85306E-14
 -1       414 1.00816E-02 5.96715E-04-3.03023E-14
 -1       415 1.04093E-02 6.48567E-04-3.21203E-14
 -1       416 1.07393E-02 7.22626E-04-3.39842E-14
 -1       417 1.10681E-02 8.18997E-04-3.58998E-14
 -1       418 1.13911E-02 9.31922E-04-3.78746E-14
 -1       419 1.17029E-02 1.04737E-03-3.99213E-14
 -1       420 1.19999E-02 1.14317E-03-4.20396E-14
 -1       421 1.22825E-02 1.19424E-03-4.42287E-14
 -1       422 1.25562E-02 1.18216E-03-4.64860E-14
 -1       423 1.28289E-02 1.10356E-03-4.88013E-14
 -1       424 1.31066E-02 9.70395E-04-5.11717E-14
 -1       425 1.33907E-02 8.01991E-04-5.36015E-14
 -1       426 1.36789E-02 6.15350E-04-5.60835E-14
 -1       427 1.39676E-02 4.20434E-04-5.86100E-14
 -1       428 1.41663E-02 2.86409E-04-6.02625E-14
 -1       429 1.46275E-02 9.87841E-05-6.00802E-14
 -1       430 1.44085E-02 1.90153E-04-5.99407E-14
 -1       431 1.42841E-02 2.39724E-04-6.01044E-14
 -1       432 1.48665E-02 1.30809E-05-6.02101E-14
 -1       433 1.51230E-02-6.08872E-05-6.03422E-14
 -1       434 1.53616E-02-1.11141E-04-6.04786E-14
 -1       435 1.55326E-02-1.33171E-04-6.06124E-14
 -1       436 1.55875E-02-1.36420E-04-6.07350E-14
 -1       437 1.55095E-02-1.42458E-04-6.08416E-14
 -1       438 1.53294E-02-1.70081E-04-6.09338E-14
 -1       439 1.50912E-02-2.25644E-04-6.10035E-14
 -1       440 1.48429E-02-3.02021E-04-6.10671E-14
 -1       441 1.46098E-02-3.88647E-04-6.11253E-14
 -1       442 1.47758E-02 5.37085E-05-5.31354E-14
 -1       443 1.51846E-02-1.27236E-04-5.42145E-14
 -1       444 1.50813E-02-6.11177E-05-5.36297E-14
 -1       445 1.44596E-02 1.96674E-04-5.23005E-14
 -1       446 1.39967E-02 4.16559E-04-5.12536E-14
 -1       447 4.45600E-04-1.26463E-04-8.07324E-17
 -1       448 1.31293E-02 8.69598E-04-4.83124E-14
 -1       449 1.27733E-02 9.76734E-04-4.68810E-14
 -1       450 1.24316E-02 9.83196E-04-4.53910E-14
 -1       451 1.19781E-02 8.23476E-04-4.35425E-14
 -1       452 1.16728E-02 6.62058E-04-4.25945E-14
 -1       453 1.12585E-02 4.30531E-04-4.14766E-14
 -1       454 1.09200E-02 2.51488E-04-4.06873E-14
 -1       455 1.05115E-02 7.00727E-05-4.01293E-14
 -1       456 1.03389E-02-8.04971E-06-3.99200E-14
 -1       457 1.02760E-02-7.50436E-05-3.99878E-14
 -1       458 1.03966E-02-1.56448E-04-4.02763E-14
 -1       459 1.06022E-02-2.51910E-04-4.07910E-14
 -1       460 1.09731E-02-4.23713E-04-4.15098E-14
 -1       461 1.13468E-02-6.40122E-04-4.26110E-14
 -1       462 1.17447E-02-8.74520E-04-4.38079E-14
 -1       463 1.21239E-02-1.07534E-03-4.51017E-14
 -1       464 1.24616E-02-1.19545E-03-4.64080E-14
 -1       465 1.28585E-02-1.20002E-03-4.80841E-14
 -1       466 1.32041E-02-1.09106E-03-4.92966E-14
 -1       467 1.35882E-02-9.02509E-04-5.06171E-14
 -1       468 1.40093E-02-6.71869E-04-5.18540E-14
 -1       469 1.44475E-02-4.74508E-04-5.25305E-14
 -1       470 1.48138E-02-3.09696E-04-5.32667E-14
 -1       471 1.50670E-02-2.02652E-04-5.37870E-14
 -1       472 1.34945E-02 6.86995E-04-4.97289E-14
 -1       473 1.06915E-02 1.35766E-04-3.96556E-14
 -1       474 9.31312E-04 3.46029E-04-1.39022E-16
 -1       475 6.65802E-04-7.51258E-05-1.80072E-16
 -1       476 6.69776E-04-1.15881E-04-1.80557E-16
 -1       477 6.63123E-04 1.10513E-06-1.72141E-16
 -1       478 6.63844E-04 3.87631E-05-1.65361E-16
 -1       479 6.65988E-04 7.68135E-05-1.56105E-16
 -1       480 6.70091E-04 1.17723E-04-1.43968E-16
 -1       481 6.77113E-04 1.62340E-04-1.28488E-16
 -1       482 6.89041E-04 2.12704E-04-1.07993E-16
 -1       483 1.21722E-03 4.06531E-04-2.63559E-16
 -1       484 9.76333E-04-3.28671E-04-2.97715E-16
 -1       485 1.32248E-02 8.04632E-04-4.93631E-14
 -1       486 1.26231E-03-3.83572E-04-4.91974E-16
 -1       487 1.54731E-03-4.23301E-04-7.36156E-16
 -1       488 1.83145E-03-4.51392E-04-1.03073E-15
 -1       489 2.11501E-03-4.70710E-04-1.37717E-15
 -1       490 2.39829E-03-4.83544E-04-1.77580E-15
 -1       491 2.68155E-03-4.91668E-04-2.22761E-15
 -1       492 2.96495E-03-4.96428E-04-2.73483E-15
 -1       493 3.24857E-03-4.98834E-04-3.29774E-15
 -1       494 3.53246E-03-4.99629E-04-3.91713E-15
 -1       495 3.81663E-03-4.99343E-04-4.59289E-15
 -1       496 4.10107E-03-4.98342E-04-5.32713E-15
 -1       497 4.38575E-03-4.96862E-04-6.12058E-15
 -1       498 4.67066E-03-4.95042E-04-6.97352E-15
 -1       499 4.95578E-03-4.92942E-04-7.88503E-15
 -1       500 5.24109E-03-4.90559E-04-8.85619E-15
 -1       501 5.52660E-03-4.87849E-04-9.88650E-15
 -1       502 5.81233E-03-4.84728E-04-1.09803E-14
 -1       503 6.09830E-03-4.81092E-04-1.21365E-14
 -1       504 6.38458E-03-4.76819E-04-1.33529E-14
 -1       505 6.67122E-03-4.71792E-04-1.46307E-14
 -1       506 6.95834E-03-4.65906E-04-1.59680E-14
 -1       507 7.24606E-03-4.59103E-04-1.73576E-14
 -1       508 7.53455E-03-4.51399E-04-1.88029E-14
 -1       509 7.82400E-03-4.42940E-04-2.03047E-14
 -1       510 8.11466E-03-4.34063E-04-2.18571E-14
 -1       511 8.40683E-03-4.25394E-04-2.34629E-14
 -1       512 8.70090E-03-4.17967E-04-2.51212E-14
 -1       513 8.99735E-03-4.13378E-04-2.68238E-14
 -1       514 9.29690E-03-4.13970E-04-2.85632E-14
 -1       515 9.60056E-03-4.23040E-04-3.03313E-14
 -1       516 9.90985E-03-4.45024E-04-3.21318E-14
 -1       517 1.02269E-02-4.85593E-04-3.39660E-14
 -1       518 1.05543E-02-5.51442E-04-3.58326E-14
 -1       519 1.08945E-02-6.49295E-04-3.77346E-14
 -1       520 1.12475E-02-7.83178E-04-3.96700E-14
 -1       521 1.16081E-02-9.48135E-04-4.16445E-14
 -1       522 1.19651E-02-1.12103E-03-4.36693E-14
 -1       523 1.23070E-02-1.25567E-03-4.57469E-14
 -1       524 1.26356E-02-1.30155E-03-4.78857E-14
 -1       525 1.29640E-02-1.23803E-03-5.00870E-14
 -1       526 1.33034E-02-1.09247E-03-5.23473E-14
 -1       527 1.36498E-02-9.11481E-04-5.46585E-14
 -1       528 1.39903E-02-7.27178E-04-5.70104E-14
 -1       529 1.78411E-03 4.81152E-04-6.47347E-16
 -1       530 2.06612E-03 5.02549E-04-9.12620E-16
 -1       531 2.34789E-03 5.16927E-04-1.23042E-15
 -1       532 2.62974E-03 5.26197E-04-1.60361E-15
 -1       533 2.91190E-03 5.31811E-04-2.03185E-15
 -1       534 3.19446E-03 5.34852E-04-2.51754E-15
 -1       535 3.47746E-03 5.36122E-04-3.06017E-15
 -1       536 3.76089E-03 5.36196E-04-3.65913E-15
 -1       537 4.04473E-03 5.35476E-04-4.31561E-15
 -1       538 4.32893E-03 5.34227E-04-5.03400E-15
 -1       539 4.61345E-03 5.32606E-04-5.81559E-15
 -1       540 4.89827E-03 5.30691E-04-6.66070E-15
 -1       541 5.18335E-03 5.28495E-04-7.57145E-15
 -1       542 5.46870E-03 5.25982E-04-8.54701E-15
 -1       543 5.75432E-03 5.23080E-04-9.58408E-15
 -1       544 6.04025E-03 5.19692E-04-1.06810E-14
 -1       545 6.32655E-03 5.15708E-04-1.18337E-14
 -1       546 6.61332E-03 5.11019E-04-1.30426E-14
 -1       547 6.90069E-03 5.05536E-04-1.43052E-14
 -1       548 7.18883E-03 4.99214E-04-1.56216E-14
 -1       549 7.47796E-03 4.92089E-04-1.69889E-14
 -1       550 7.76834E-03 4.84326E-04-1.84083E-14
 -1       551 8.06031E-03 4.76286E-04-1.98750E-14
 -1       552 8.35425E-03 4.68612E-04-2.13891E-14
 -1       553 8.65062E-03 4.62336E-04-2.29500E-14
 -1       554 8.94996E-03 4.59012E-04-2.45538E-14
 -1       555 9.25292E-03 4.60851E-04-2.62041E-14
 -1       556 9.56021E-03 4.70838E-04-2.79010E-14
 -1       557 9.87267E-03 4.92766E-04-2.96453E-14
 -1       558 1.01911E-02 5.31064E-04-3.14423E-14
 -1       559 1.05160E-02 5.90214E-04-3.32833E-14
 -1       560 1.08470E-02 6.73421E-04-3.51660E-14
 -1       561 1.11816E-02 7.80163E-04-3.71050E-14
 -1       562 1.15150E-02 9.02522E-04-3.91082E-14
 -1       563 1.18404E-02 1.02191E-03-4.11837E-14
 -1       564 1.21527E-02 1.10966E-03-4.33294E-14
 -1       565 1.24536E-02 1.13660E-03-4.55411E-14
 -1       566 1.27510E-02 1.08777E-03-4.78207E-14
 -1       567 1.30533E-02 9.71243E-04-5.01562E-14
 -1       568 1.33624E-02 8.10206E-04-5.25478E-14
 -1       569 1.36737E-02 6.27977E-04-5.49934E-14
 -1       570 1.39805E-02 4.38153E-04-5.74924E-14
 -1       571 1.47270E-02 7.93612E-05-5.81093E-14
 -1       572 1.50040E-02-2.06861E-05-5.82423E-14
 -1       573 1.42442E-02 2.99970E-04-5.78319E-14
 -1       574 1.44696E-02 1.90639E-04-5.79751E-14
 -1       575 1.52516E-02-9.08090E-05-5.83796E-14
 -1       576 1.53957E-02-1.25746E-04-5.85132E-14
 -1       577 1.53791E-02-1.47982E-04-5.86360E-14
 -1       578 1.52149E-02-1.89876E-04-5.87399E-14
 -1       579 1.49635E-02-2.68329E-04-5.88296E-14
 -1       580 1.46963E-02-3.72616E-04-5.89103E-14
 -1       581 1.44508E-02-4.84367E-04-5.89845E-14
 -1       582 1.51725E-02-1.03829E-04-5.50560E-14
 -1       583 1.49891E-02-4.55633E-05-5.46033E-14
 -1       584 1.51862E-02-1.55346E-04-5.55267E-14
 -1       585 1.50135E-03 4.50229E-04-4.32173E-16
 -1       586 1.45959E-02 9.39466E-05-5.37979E-14
 -1       587 7.12642E-04-2.51824E-04-1.67211E-16
 -1       588 1.37097E-02 5.30514E-04-5.13585E-14
 -1       589 1.02515E-02-4.65269E-05-3.88530E-14
 -1       590 1.22005E-02 9.39221E-04-4.41008E-14
 -1       591 6.63734E-04-3.65169E-05-1.77304E-16
 -1       592 1.26204E-02 1.00846E-03-4.62743E-14
 -1       593 1.02784E-02-9.55681E-05-3.90515E-14
 -1       594 1.29175E-02 9.45196E-04-4.78049E-14
 -1       595 1.17920E-02 7.35583E-04-4.22900E-14
 -1       596 1.14500E-02 5.32470E-04-4.11751E-14
 -1       597 1.11482E-02 3.60185E-04-4.03870E-14
 -1       598 1.03741E-02 1.24319E-05-3.87216E-14
 -1       599 1.11994E-02-5.25809E-04-4.14712E-14
 -1       600 1.04771E-02-1.76084E-04-3.96021E-14
 -1       601 1.07703E-02-3.02507E-04-4.03056E-14
 -1       602 1.15477E-02-7.34464E-04-4.26469E-14
 -1       603 1.19513E-02-9.83994E-04-4.40867E-14
 -1       604 1.22458E-02-1.13920E-03-4.53712E-14
 -1       605 1.26464E-02-1.23654E-03-4.73614E-14
 -1       606 1.30427E-02-1.15218E-03-4.92901E-14
 -1       607 1.33540E-02-1.00235E-03-5.06069E-14
 -1       608 1.37434E-02-7.83806E-04-5.20211E-14
 -1       609 1.42802E-02-5.01456E-04-5.34258E-14
 -1       610 1.46338E-02-3.45121E-04-5.41692E-14
 -1       611 1.49589E-02-2.27069E-04-5.46623E-14
 -1       612 7.03860E-04 2.90887E-04-6.42186E-17
 -1       613 1.41985E-02 2.72742E-04-5.27271E-14
 -1       614 6.76571E-04-1.60034E-04-1.77541E-16
 -1       615 1.52678E-02-1.33098E-04-5.63664E-14
 -1       616 1.23821E-02 1.00717E-03-4.49639E-14
 -1       617 1.08907E-02 2.40532E-04-3.93503E-14
 -1       618 1.42076E-02-6.07846E-04-5.86215E-14
 -1       619 8.99730E-04 7.41124E-05-2.81225E-16
 -1       620 8.97637E-04 2.51768E-05-2.93768E-16
 -1       621 9.11827E-04 1.78235E-04-2.44000E-16
 -1       622 9.24209E-04 2.36801E-04-2.17034E-16
 -1       623 1.04892E-03 3.13928E-04-2.37288E-16
 -1       624 1.33466E-03 3.61573E-04-3.95161E-16
 -1       625 1.48942E-02-1.09227E-05-5.58798E-14
 -1       626 1.38331E-03-3.37050E-04-6.27922E-16
 -1       627 1.66952E-03-3.68029E-04-8.99064E-16
 -1       628 1.95574E-03-3.89848E-04-1.22042E-15
 -1       629 2.24178E-03-4.04697E-04-1.59263E-15
 -1       630 2.52763E-03-4.14367E-04-2.01712E-15
 -1       631 2.81335E-03-4.20278E-04-2.49514E-15
 -1       632 3.09897E-03-4.23523E-04-3.02850E-15
 -1       633 3.38454E-03-4.24920E-04-3.61802E-15
 -1       634 3.67009E-03-4.25066E-04-4.26351E-15
 -1       635 3.95564E-03-4.24382E-04-4.96587E-15
 -1       636 4.24121E-03-4.23150E-04-5.72621E-15
 -1       637 4.52680E-03-4.21546E-04-6.54526E-15
 -1       638 4.81243E-03-4.19658E-04-7.42383E-15
 -1       639 5.09808E-03-4.17513E-04-8.36195E-15
 -1       640 5.38378E-03-4.15085E-04-9.35946E-15
 -1       641 5.66952E-03-4.12311E-04-1.04173E-14
 -1       642 5.95531E-03-4.09098E-04-1.15383E-14
 -1       643 6.24116E-03-4.05335E-04-1.27212E-14
 -1       644 6.52707E-03-4.00906E-04-1.39638E-14
 -1       645 6.81306E-03-3.95699E-04-1.52671E-14
 -1       646 7.09915E-03-3.89631E-04-1.66237E-14
 -1       647 7.38533E-03-3.82668E-04-1.80355E-14
 -1       648 7.67164E-03-3.74869E-04-1.95033E-14
 -1       649 7.95809E-03-3.66431E-04-2.10235E-14
 -1       650 8.24475E-03-3.57758E-04-2.25982E-14
 -1       651 8.53171E-03-3.49542E-04-2.42236E-14
 -1       652 8.81918E-03-3.42875E-04-2.59013E-14
 -1       653 9.10759E-03-3.39374E-04-2.76153E-14
 -1       654 9.39778E-03-3.41333E-04-2.93607E-14
 -1       655 9.69124E-03-3.51916E-04-3.11377E-14
 -1       656 9.99057E-03-3.75399E-04-3.29496E-14
 -1       657 1.02998E-02-4.17543E-04-3.47964E-14
 -1       658 1.06246E-02-4.85996E-04-3.66777E-14
 -1       659 1.09708E-02-5.90240E-04-3.85927E-14
 -1       660 1.13412E-02-7.38938E-04-4.05410E-14
 -1       661 1.17286E-02-9.29200E-04-4.25380E-14
 -1       662 1.24850E-02-1.25395E-03-4.66998E-14
 -1       663 1.28454E-02-1.23761E-03-4.88609E-14
 -1       664 1.32165E-02-1.09905E-03-5.11023E-14
 -1       665 1.35987E-02-9.05298E-04-5.34020E-14
 -1       666 1.39743E-02-7.15221E-04-5.57517E-14
 -1       667 2.19073E-03 4.37585E-04-1.15053E-15
 -1       668 1.90572E-03 4.20781E-04-8.48717E-16
 -1       669 2.76018E-03 4.55600E-04-1.91428E-15
 -1       670 3.04486E-03 4.59576E-04-2.38068E-15
 -1       671 3.32960E-03 4.61498E-04-2.90193E-15
 -1       672 3.61445E-03 4.62021E-04-3.48022E-15
 -1       673 3.89941E-03 4.61613E-04-4.11396E-15
 -1       674 4.18450E-03 4.60591E-04-4.80702E-15
 -1       675 4.46971E-03 4.59154E-04-5.56213E-15
 -1       676 4.75503E-03 4.57413E-04-6.38037E-15
 -1       677 5.04046E-03 4.55405E-04-7.26268E-15
 -1       678 5.32601E-03 4.53118E-04-8.21156E-15
 -1       679 5.61167E-03 4.50493E-04-9.22161E-15
 -1       680 5.89746E-03 4.47445E-04-1.02919E-14
 -1       681 6.18340E-03 4.43869E-04-1.14170E-14
 -1       682 6.46954E-03 4.39651E-04-1.26011E-14
 -1       683 6.75590E-03 4.34685E-04-1.38414E-14
 -1       684 7.04256E-03 4.28893E-04-1.51340E-14
 -1       685 7.32960E-03 4.22251E-04-1.64784E-14
 -1       686 7.61713E-03 4.14826E-04-1.78762E-14
 -1       687 7.90529E-03 4.06831E-04-1.93220E-14
 -1       688 8.19429E-03 3.98687E-04-2.08184E-14
 -1       689 8.48438E-03 3.91108E-04-2.23638E-14
 -1       690 8.77599E-03 3.85209E-04-2.39553E-14
 -1       691 9.06970E-03 3.82624E-04-2.55884E-14
 -1       692 9.36642E-03 3.85637E-04-2.72688E-14
 -1       693 9.66748E-03 3.97308E-04-2.89925E-14
 -1       694 9.97474E-03 4.21563E-04-3.07637E-14
 -1       695 1.02906E-02 4.63149E-04-3.25799E-14
 -1       696 1.06174E-02 5.27252E-04-3.44383E-14
 -1       697 1.09566E-02 6.18247E-04-3.63392E-14
 -1       698 1.13058E-02 7.36619E-04-3.83066E-14
 -1       699 1.16580E-02 8.72584E-04-4.03406E-14
 -1       700 1.20019E-02 9.99390E-04-4.24412E-14
 -1       701 1.23316E-02 1.07684E-03-4.46077E-14
 -1       702 1.26520E-02 1.06745E-03-4.68464E-14
 -1       703 1.29776E-02 9.69822E-04-4.91448E-14
 -1       704 1.33136E-02 8.10569E-04-5.15033E-14
 -1       705 1.36541E-02 6.27747E-04-5.39179E-14
 -1       706 1.39504E-02 4.61620E-04-5.58624E-14
 -1       707 1.52083E-02-9.90992E-05-5.67458E-14
 -1       708 1.42191E-02-5.95995E-04-5.73604E-14
 -1       709 1.45899E-02 1.14017E-04-5.60672E-14
 -1       710 1.51573E-02-1.79769E-04-5.68584E-14
 -1       711 1.48848E-02-2.70372E-04-5.69627E-14
 -1       712 1.45825E-02-3.99892E-04-5.70642E-14
 -1       713 1.43876E-02-5.00848E-04-5.72170E-14
 -1       714 1.48712E-02-2.59019E-04-5.57626E-14
 -1       715 1.19730E-02 8.72759E-04-4.26947E-14
 -1       716 9.61634E-04-2.66762E-04-3.18240E-16
 -1       717 1.01963E-02-6.57043E-05-3.79703E-14
 -1       718 1.13728E-02-6.52234E-04-4.14220E-14
 -1       719 1.62037E-03 3.96262E-04-5.98124E-16
 -1       720 2.47550E-03 4.48669E-04-1.50474E-15
 -1       721 1.12084E-02 4.48049E-04-3.95451E-14
 -1       722 1.34506E-02 6.80673E-04-5.08888E-14
 -1       723 1.35370E-02-9.06387E-04-5.20774E-14
 -1       724 9.04189E-04 1.24619E-04-2.64674E-16
 -1       725 9.03821E-04-1.22207E-04-3.12606E-16
 -1       726 1.02266E-02-2.23152E-05-3.76931E-14
 -1       727 1.03105E-02-1.23448E-04-3.82938E-14
 -1       728 1.15145E-02 6.23865E-04-4.06266E-14
 -1       729 1.24228E-02-1.22563E-03-4.62740E-14
 -1       730 1.05139E-02 8.26860E-05-3.82950E-14
 -1       731 1.05486E-02-2.22304E-04-3.87984E-14
 -1       732 1.44293E-02 1.63597E-04-5.43395E-14
 -1       733 1.09377E-02-3.99960E-04-4.00641E-14
 -1       734 1.20674E-02-1.08452E-03-4.43578E-14
 -1       735 1.40412E-02-6.22818E-04-5.37566E-14
 -1       736 1.45092E-02-3.98966E-04-5.51243E-14
 -1       737 1.40155E-02 3.65019E-04-5.31624E-14
 -1       738 9.11282E-04-1.75618E-04-3.11268E-16
 -1       739 8.97577E-04-2.31551E-05-3.03011E-16
 -1       740 1.43021E-02 2.56652E-04-5.59323E-14
 -1       741 1.03047E-02 2.85941E-05-3.72710E-14
 -1       742 1.41110E-02 3.65421E-04-5.59010E-14
 -1       743 1.21482E-02 9.70444E-04-4.35354E-14
 -1       744 1.27348E-02 1.00911E-03-4.70629E-14
 -1       745 1.31514E-02 8.47955E-04-4.94987E-14
 -1       746 8.99529E-04-7.18218E-05-3.09591E-16
 -1       747 1.37509E-02 5.20345E-04-5.26860E-14
 -1       748 1.29390E-02 9.42691E-04-4.82717E-14
 -1       749 1.17031E-02-8.58517E-04-4.27146E-14
 -1       750 1.02987E-02-1.60271E-04-3.71957E-14
 -1       751 1.16155E-03 2.43676E-04-3.65651E-16
 -1       752 1.01205E-02-4.31713E-05-3.67584E-14
 -1       753 1.79729E-03-3.09555E-04-1.06672E-15
 -1       754 2.08495E-03-3.25675E-04-1.41259E-15
 -1       755 2.37274E-03-3.36498E-04-1.81027E-15
 -1       756 2.66044E-03-3.43380E-04-2.26029E-15
 -1       757 2.94794E-03-3.47408E-04-2.76449E-15
 -1       758 3.23520E-03-3.49425E-04-3.32355E-15
 -1       759 3.52222E-03-3.50060E-04-3.93886E-15
 -1       760 3.80902E-03-3.49769E-04-4.60985E-15
 -1       761 4.09561E-03-3.48867E-04-5.33710E-15
 -1       762 4.38203E-03-3.47559E-04-6.12278E-15
 -1       763 4.66829E-03-3.45961E-04-6.96703E-15
 -1       764 4.95442E-03-3.44125E-04-7.87078E-15
 -1       765 5.24042E-03-3.42050E-04-8.83658E-15
 -1       766 5.52629E-03-3.39693E-04-9.86229E-15
 -1       767 5.81202E-03-3.36984E-04-1.09478E-14
 -1       768 6.09760E-03-3.33830E-04-1.20958E-14
 -1       769 6.38299E-03-3.30127E-04-1.33060E-14
 -1       770 6.66814E-03-3.25768E-04-1.45729E-14
 -1       771 6.95296E-03-3.20665E-04-1.58989E-14
 -1       772 7.23738E-03-3.14760E-04-1.72781E-14
 -1       773 7.52126E-03-3.08055E-04-1.87131E-14
 -1       774 7.80447E-03-3.00649E-04-2.02004E-14
 -1       775 8.08685E-03-2.92781E-04-2.17389E-14
 -1       776 8.36827E-03-2.84883E-04-2.33327E-14
 -1       777 8.64861E-03-2.77648E-04-2.49812E-14
 -1       778 8.92794E-03-2.72101E-04-2.66731E-14
 -1       779 9.20658E-03-2.69680E-04-2.83989E-14
 -1       780 9.48544E-03-2.72342E-04-3.01526E-14
 -1       781 9.76639E-03-2.82740E-04-3.19396E-14
 -1       782 1.00529E-02-3.04616E-04-3.37658E-14
 -1       783 1.03508E-02-3.43808E-04-3.56266E-14
 -1       784 1.06696E-02-4.09548E-04-3.75204E-14
 -1       785 1.10504E-02-5.17866E-04-3.97065E-14
 -1       786 1.13675E-02-6.97203E-04-4.09838E-14
 -1       787 3.18001E-03 3.86037E-04-2.73929E-15
 -1       788 2.89344E-03 3.83405E-04-2.23743E-15
 -1       789 3.75269E-03 3.87093E-04-3.90797E-15
 -1       790 4.03884E-03 3.86392E-04-4.57734E-15
 -1       791 4.32490E-03 3.85227E-04-5.30716E-15
 -1       792 4.61089E-03 3.83740E-04-6.09939E-15
 -1       793 4.89680E-03 3.81997E-04-6.95488E-15
 -1       794 5.18267E-03 3.80007E-04-7.87385E-15
 -1       795 5.46848E-03 3.77734E-04-8.85744E-15
 -1       796 5.75424E-03 3.75111E-04-9.89990E-15
 -1       797 6.03995E-03 3.72046E-04-1.10012E-14
 -1       798 6.32558E-03 3.68432E-04-1.21590E-14
 -1       799 6.61114E-03 3.64162E-04-1.33732E-14
 -1       800 6.89659E-03 3.59142E-04-1.46441E-14
 -1       801 7.18192E-03 3.53309E-04-1.59664E-14
 -1       802 7.46709E-03 3.46661E-04-1.73430E-14
 -1       803 7.75211E-03 3.39294E-04-1.87679E-14
 -1       804 8.03698E-03 3.31445E-04-2.02433E-14
 -1       805 8.32180E-03 3.23553E-04-2.17714E-14
 -1       806 8.60674E-03 3.16334E-04-2.33494E-14
 -1       807 8.89221E-03 3.10865E-04-2.49688E-14
 -1       808 9.17896E-03 3.08688E-04-2.66323E-14
 -1       809 9.46827E-03 3.11943E-04-2.83399E-14
 -1       810 9.76224E-03 3.23540E-04-3.00899E-14
 -1       811 1.00640E-02 3.47425E-04-3.18816E-14
 -1       812 1.03780E-02 3.88968E-04-3.37153E-14
 -1       813 1.07089E-02 4.55168E-04-3.55893E-14
 -1       814 1.10611E-02 5.53528E-04-3.75172E-14
 -1       815 1.14317E-02 6.89374E-04-3.95097E-14
 -1       816 1.32413E-02 8.17908E-04-5.04558E-14
 -1       817 1.36137E-02 6.24607E-04-5.28399E-14
 -1       818 1.38640E-02 4.91417E-04-5.43596E-14
 -1       819 1.13822E-03 5.90583E-05-4.44052E-16
 -1       820 1.12689E-02 5.68286E-04-3.90109E-14
 -1       821 1.51019E-03-2.86566E-04-7.70278E-16
 -1       822 3.46642E-03 3.87095E-04-3.29560E-15
 -1       823 2.03274E-03 3.57744E-04-1.06339E-15
 -1       824 1.20810E-03-2.33386E-04-5.15362E-16
 -1       825 1.08321E-02 2.86423E-04-3.79945E-14
 -1       826 1.01436E-02-8.66001E-05-3.68511E-14
 -1       827 1.43231E-02-5.05905E-04-5.58060E-14
 -1       828 1.24623E-03 3.00851E-04-3.83225E-16
 -1       829 1.39415E-02-7.03984E-04-5.45889E-14
 -1       830 1.41702E-02 2.98069E-04-5.43672E-14
 -1       831 1.06858E-02-3.26909E-04-3.84540E-14
 -1       832 1.16888E-02 8.04447E-04-4.08646E-14
 -1       833 1.04944E-02 1.42588E-04-3.69649E-14
 -1       834 1.13685E-03 1.19875E-06-4.59397E-16
 -1       835 1.14978E-03 1.79141E-04-3.98061E-16
 -1       836 1.01424E-02-4.69144E-06-3.63415E-14
 -1       837 2.31979E-03 3.70344E-04-1.40014E-15
 -1       838 1.19734E-03-1.68241E-04-5.18679E-16
 -1       839 2.60670E-03 3.78490E-04-1.79069E-15
 -1       840 1.14231E-03 1.17796E-04-4.23882E-16
 -1       841 1.19063E-03-1.06215E-04-5.15050E-16
 -1       842 1.53228E-03 3.35573E-04-5.82826E-16
 -1       843 1.78229E-03 3.49882E-04-8.03211E-16
 -1       844 1.03911E-02-2.42760E-04-3.68546E-14
 -1       845 1.92951E-03-2.47833E-04-1.23781E-15
 -1       846 2.21830E-03-2.58961E-04-1.60895E-15
 -1       847 2.50737E-03-2.66297E-04-2.03158E-15
 -1       848 2.79637E-03-2.70817E-04-2.50695E-15
 -1       849 3.08513E-03-2.73310E-04-3.03554E-15
 -1       850 3.37355E-03-2.74385E-04-3.61901E-15
 -1       851 3.66159E-03-2.74494E-04-4.25831E-15
 -1       852 3.94926E-03-2.73961E-04-4.95437E-15
 -1       853 4.23657E-03-2.73004E-04-5.70721E-15
 -1       854 4.52355E-03-2.71757E-04-6.51882E-15
 -1       855 4.81024E-03-2.70291E-04-7.38768E-15
 -1       856 5.09664E-03-2.68627E-04-8.31856E-15
 -1       857 5.38276E-03-2.66745E-04-9.31204E-15
 -1       858 5.66858E-03-2.64597E-04-1.03653E-14
 -1       859 5.95408E-03-2.62114E-04-1.14775E-14
 -1       860 6.23919E-03-2.59213E-04-1.26540E-14
 -1       861 6.52381E-03-2.55806E-04-1.38877E-14
 -1       862 6.80783E-03-2.51810E-04-1.51804E-14
 -1       863 7.09107E-03-2.47163E-04-1.65280E-14
 -1       864 7.37332E-03-2.41840E-04-1.79309E-14
 -1       865 7.65432E-03-2.35879E-04-1.93869E-14
 -1       866 7.93377E-03-2.29410E-04-2.08941E-14
 -1       867 8.21133E-03-2.22688E-04-2.24536E-14
 -1       868 8.48664E-03-2.16129E-04-2.40681E-14
 -1       869 8.75940E-03-2.10347E-04-2.57354E-14
 -1       870 9.02938E-03-2.06176E-04-2.74418E-14
 -1       871 9.29666E-03-2.04693E-04-2.91764E-14
 -1       872 9.56181E-03-2.07265E-04-3.09384E-14
 -1       873 9.82641E-03-2.15674E-04-3.27408E-14
 -1       874 1.00939E-02-2.32666E-04-3.45789E-14
 -1       875 4.46600E-03 3.09569E-04-5.81630E-15
 -1       876 4.17925E-03 3.10731E-04-5.04972E-15
 -1       877 3.89224E-03 3.11557E-04-4.34474E-15
 -1       878 4.75252E-03 3.08159E-04-6.64570E-15
 -1       879 5.03881E-03 3.06532E-04-7.53738E-15
 -1       880 5.32489E-03 3.04678E-04-8.49139E-15
 -1       881 5.61075E-03 3.02548E-04-9.50870E-15
 -1       882 5.89638E-03 3.00070E-04-1.05846E-14
 -1       883 6.18173E-03 2.97156E-04-1.17176E-14
 -1       884 6.46674E-03 2.93708E-04-1.29063E-14
 -1       885 6.75134E-03 2.89632E-04-1.41516E-14
 -1       886 7.03542E-03 2.84848E-04-1.54528E-14
 -1       887 7.31886E-03 2.79312E-04-1.68061E-14
 -1       888 7.60153E-03 2.73039E-04-1.82112E-14
 -1       889 7.88328E-03 2.66130E-04-1.96660E-14
 -1       890 8.16400E-03 2.58815E-04-2.11737E-14
 -1       891 8.44365E-03 2.51490E-04-2.27339E-14
 -1       892 8.72234E-03 2.44774E-04-2.43410E-14
 -1       893 9.00043E-03 2.39566E-04-2.59886E-14
 -1       894 9.27875E-03 2.37123E-04-2.76816E-14
 -1       895 9.55885E-03 2.39200E-04-2.94157E-14
 -1       896 9.84345E-03 2.48324E-04-3.11900E-14
 -1       897 1.01369E-02 2.68308E-04-3.30002E-14
 -1       898 1.04459E-02 3.05466E-04-3.48487E-14
 -1       899 9.99959E-03-5.73276E-05-3.54122E-14
 -1       900 1.40014E-02 4.00612E-04-5.43671E-14
 -1       901 1.64157E-03-2.31795E-04-9.17435E-16
 -1       902 1.06820E-02 3.09946E-04-3.65412E-14
 -1       903 1.16257E-03-5.13603E-05-4.88430E-16
 -1       904 1.44667E-03 2.76943E-04-5.61156E-16
 -1       905 1.00536E-02-1.15676E-04-3.54440E-14
 -1       906 3.02939E-03 3.09876E-04-2.57152E-15
 -1       907 1.02157E-02 6.87288E-05-3.57316E-14
 -1       908 9.97892E-03-2.19039E-05-3.50045E-14
 -1       909 2.74116E-03 3.06640E-04-2.08957E-15
 -1       910 1.38099E-03 3.41173E-05-6.45287E-16
 -1       911 1.86594E-03 2.82692E-04-9.57059E-16
 -1       912 1.00750E-02-1.69810E-04-3.50132E-14
 -1       913 3.60494E-03 3.11881E-04-3.69784E-15
 -1       914 1.41836E-03-2.00795E-04-7.03966E-16
 -1       915 2.15417E-03 2.96352E-04-1.27407E-15
 -1       916 1.41006E-03-1.31984E-04-7.00303E-16
 -1       917 1.38416E-03 9.98669E-05-6.21783E-16
 -1       918 1.03415E-02 1.78983E-04-3.52964E-14
 -1       919 3.31732E-03 3.11447E-04-3.10738E-15
 -1       920 2.06552E-03-1.82900E-04-1.41246E-15
 -1       921 4.89457E-03 2.32597E-04-7.20011E-15
 -1       922 2.35522E-03-1.89830E-04-1.80826E-15
 -1       923 2.64521E-03-1.94285E-04-2.25504E-15
 -1       924 2.93512E-03-1.96912E-04-2.75364E-15
 -1       925 3.22470E-03-1.98234E-04-3.30637E-15
 -1       926 3.51385E-03-1.98653E-04-3.91332E-15
 -1       927 3.80252E-03-1.98461E-04-4.57702E-15
 -1       928 4.09071E-03-1.97865E-04-5.29806E-15
 -1       929 4.37843E-03-1.96998E-04-6.07720E-15
 -1       930 4.66571E-03-1.95940E-04-6.91370E-15
 -1       931 4.95258E-03-1.94725E-04-7.80965E-15
 -1       932 5.23904E-03-1.93351E-04-8.76854E-15
 -1       933 5.52509E-03-1.91795E-04-9.78892E-15
 -1       934 5.81068E-03-1.90011E-04-1.08683E-14
 -1       935 6.09574E-03-1.87941E-04-1.20095E-14
 -1       936 6.38017E-03-1.85521E-04-1.32100E-14
 -1       937 6.66380E-03-1.82686E-04-1.44684E-14
 -1       938 6.94644E-03-1.79385E-04-1.57851E-14
 -1       939 7.22781E-03-1.75587E-04-1.71582E-14
 -1       940 7.50760E-03-1.71300E-04-1.85826E-14
 -1       941 7.78542E-03-1.66591E-04-2.00584E-14
 -1       942 8.06079E-03-1.61606E-04-2.15862E-14
 -1       943 8.33320E-03-1.56590E-04-2.31679E-14
 -1       944 8.60207E-03-1.51902E-04-2.48021E-14
 -1       945 8.86678E-03-1.48018E-04-2.64858E-14
 -1       946 9.12672E-03-1.45513E-04-2.82016E-14
 -1       947 9.38131E-03-1.45030E-04-2.99464E-14
 -1       948 9.63011E-03-1.47244E-04-3.17238E-14
 -1       949 9.85283E-03-1.55985E-04-3.33527E-14
 -1       950 4.32060E-03 2.34838E-04-5.53139E-15
 -1       951 4.60777E-03 2.33809E-04-6.33464E-15
 -1       952 9.85817E-03-7.67347E-05-3.39490E-14
 -1       953 4.03305E-03 2.35634E-04-4.78950E-15
 -1       954 5.18102E-03 2.31207E-04-8.12610E-15
 -1       955 5.46711E-03 2.29616E-04-9.11436E-15
 -1       956 5.75281E-03 2.27773E-04-1.01657E-14
 -1       957 6.03809E-03 2.25612E-04-1.12731E-14
 -1       958 6.32284E-03 2.23054E-04-1.24379E-14
 -1       959 6.60697E-03 2.20019E-04-1.36572E-14
 -1       960 6.89031E-03 2.16428E-04-1.49356E-14
 -1       961 7.17266E-03 2.12221E-04-1.62669E-14
 -1       962 7.45382E-03 2.07365E-04-1.76519E-14
 -1       963 7.73351E-03 2.01877E-04-1.90881E-14
 -1       964 8.01146E-03 1.95842E-04-2.05745E-14
 -1       965 8.28742E-03 1.89437E-04-2.21140E-14
 -1       966 8.56119E-03 1.82953E-04-2.37043E-14
 -1       967 8.83271E-03 1.76819E-04-2.53402E-14
 -1       968 9.10215E-03 1.71625E-04-2.70173E-14
 -1       969 9.37016E-03 1.68177E-04-2.87353E-14
 -1       970 9.63813E-03 1.67632E-04-3.04937E-14
 -1       971 9.90879E-03 1.71834E-04-3.22861E-14
 -1       972 1.01230E-02 1.72261E-04-3.37782E-14
 -1       973 1.46254E-03 1.97978E-04-6.34245E-16
 -1       974 1.40587E-03-2.48462E-05-6.83288E-16
 -1       975 9.99624E-03 3.66992E-05-3.44069E-14
 -1       976 1.65589E-03 2.82311E-04-7.45379E-16
 -1       977 1.77673E-03-1.72737E-04-1.06864E-15
 -1       978 1.59278E-03-1.52569E-04-8.74436E-16
 -1       979 2.45271E-03 3.01030E-04-1.66253E-15
 -1       980 9.81108E-03-3.96637E-05-3.35532E-14
 -1       981 2.87857E-03 2.33348E-04-2.40029E-15
 -1       982 1.40692E-03-7.80754E-05-6.93330E-16
 -1       983 1.63896E-03 1.15717E-05-8.93040E-16
 -1       984 1.64118E-03 8.34470E-05-8.65654E-16
 -1       985 1.99993E-03 2.19374E-04-1.16163E-15
 -1       986 9.85061E-03-1.13388E-04-3.36523E-14
 -1       987 1.00565E-02 9.84645E-05-3.40971E-14
 -1       988 3.74507E-03 2.36096E-04-4.10853E-15
 -1       989 3.16781E-03 2.35261E-04-2.91508E-15
 -1       990 1.78852E-03 2.23600E-04-9.26546E-16
 -1       991 2.58903E-03 2.29827E-04-1.93869E-15
 -1       992 5.03699E-03 1.57239E-04-7.76053E-15
 -1       993 2.49530E-03-1.18488E-04-2.00959E-15
 -1       994 2.78590E-03-1.20703E-04-2.47917E-15
 -1       995 3.07632E-03-1.21924E-04-3.00097E-15
 -1       996 3.36635E-03-1.22443E-04-3.57673E-15
 -1       997 3.65586E-03-1.22480E-04-4.20727E-15
 -1       998 3.94481E-03-1.22195E-04-4.89550E-15
 -1       999 4.23321E-03-1.21695E-04-5.64208E-15
 -1      1000 4.52107E-03-1.21050E-04-6.44583E-15
 -1      1001 4.80841E-03-1.20294E-04-7.30938E-15
 -1      1002 5.09526E-03-1.19439E-04-8.23347E-15
 -1      1003 5.38161E-03-1.18475E-04-9.22050E-15
 -1      1004 5.66742E-03-1.17382E-04-1.02653E-14
 -1      1005 5.95263E-03-1.16126E-04-1.13731E-14
 -1      1006 6.23712E-03-1.14670E-04-1.25405E-14
 -1      1007 6.52074E-03-1.12976E-04-1.37655E-14
 -1      1008 6.80328E-03-1.11009E-04-1.50486E-14
 -1      1009 7.08445E-03-1.08748E-04-1.63895E-14
 -1      1010 7.36391E-03-1.06197E-04-1.77843E-14
 -1      1011 7.64122E-03-1.03390E-04-1.92311E-14
 -1      1012 7.91589E-03-1.00412E-04-2.07288E-14
 -1      1013 8.18731E-03-9.74065E-05-2.22775E-14
 -1      1014 8.45479E-03-9.45888E-05-2.38788E-14
 -1      1015 8.71752E-03-9.22428E-05-2.55311E-14
 -1      1016 8.97453E-03-9.07052E-05-2.72275E-14
 -1      1017 9.22463E-03-9.03235E-05-2.89560E-14
 -1      1018 9.46622E-03-9.14110E-05-3.07115E-14
 -1      1019 5.60932E-03 1.55010E-04-9.74435E-15
 -1      1020 5.89470E-03 1.53613E-04-1.08268E-14
 -1      1021 6.17945E-03 1.51959E-04-1.19676E-14
 -1      1022 6.46345E-03 1.49989E-04-1.31637E-14
 -1      1023 6.74651E-03 1.47640E-04-1.44163E-14
 -1      1024 7.02840E-03 1.44856E-04-1.57251E-14
 -1      1025 7.30885E-03 1.41588E-04-1.70898E-14
 -1      1026 7.58752E-03 1.37810E-04-1.85064E-14
 -1      1027 7.86402E-03 1.33525E-04-1.99749E-14
 -1      1028 8.13794E-03 1.28775E-04-2.14919E-14
 -1      1029 8.40886E-03 1.23646E-04-2.30641E-14
 -1      1030 8.67634E-03 1.18278E-04-2.46854E-14
 -1      1031 8.94002E-03 1.12855E-04-2.63490E-14
 -1      1032 9.19964E-03 1.07598E-04-2.80537E-14
 -1      1033 9.45515E-03 1.02771E-04-2.97965E-14
 -1      1034 9.70711E-03 9.89217E-05-3.15694E-14
 -1      1035 2.29430E-03 2.26260E-04-1.52220E-15
 -1      1036 3.45666E-03 2.36056E-04-3.48421E-15
 -1      1037 9.78476E-03 1.28842E-05-3.29735E-14
 -1      1038 2.20490E-03-1.14911E-04-1.59090E-15
 -1      1039 1.63871E-03-4.60875E-05-9.08639E-16
 -1      1040 5.32340E-03 1.56205E-04-8.72103E-15
 -1      1041 1.91530E-03-1.09547E-04-1.22322E-15
 -1      1042 4.17498E-03 1.59545E-04-5.24434E-15
 -1      1043 9.66007E-03-1.01628E-04-3.21711E-14
 -1      1044 4.75012E-03 1.58140E-04-6.86086E-15
 -1      1045 4.46279E-03 1.58915E-04-6.02182E-15
 -1      1046 1.61477E-03-9.94774E-05-8.93254E-16
 -1      1047 2.13326E-03 1.51721E-04-1.37555E-15
 -1      1048 9.88171E-03 9.77925E-05-3.28245E-14
 -1      1049 3.88667E-03 1.59980E-04-4.52739E-15
 -1      1050 2.72836E-03 1.56949E-04-2.22598E-15
 -1      1051 9.82652E-03 5.19021E-05-3.29022E-14
 -1      1052 1.88786E-03-1.86401E-05-1.17046E-15
 -1      1053 9.68299E-03-6.54838E-05-3.24610E-14
 -1      1054 1.84393E-03 1.45563E-04-1.04098E-15
 -1      1055 1.88874E-03 5.78165E-05-1.14043E-15
 -1      1056 3.01858E-03 1.58863E-04-2.72035E-15
 -1      1057 1.66519E-03 1.49220E-04-8.53647E-16
 -1      1058 5.46592E-03 8.16859E-05-9.32307E-15
 -1      1059 2.05707E-03-4.24989E-05-1.38103E-15
 -1      1060 2.92905E-03-4.58671E-05-2.70298E-15
 -1      1061 3.21963E-03-4.61548E-05-3.24684E-15
 -1      1062 3.50973E-03-4.62136E-05-3.84536E-15
 -1      1063 3.79926E-03-4.61218E-05-4.50115E-15
 -1      1064 4.08820E-03-4.59213E-05-5.21343E-15
 -1      1065 4.37655E-03-4.56535E-05-5.98460E-15
 -1      1066 4.66431E-03-4.53379E-05-6.81632E-15
 -1      1067 4.95153E-03-4.49812E-05-7.70779E-15
 -1      1068 5.23821E-03-4.45845E-05-8.65894E-15
 -1      1069 5.52431E-03-4.41433E-05-9.67063E-15
 -1      1070 5.80979E-03-4.36476E-05-1.07421E-14
 -1      1071 6.09454E-03-4.30855E-05-1.18783E-14
 -1      1072 6.37843E-03-4.24453E-05-1.30694E-14
 -1      1073 6.66126E-03-4.17182E-05-1.43180E-14
 -1      1074 6.94274E-03-4.09020E-05-1.56258E-14
 -1      1075 7.22256E-03-4.00060E-05-1.69909E-14
 -1      1076 7.50030E-03-3.90571E-05-1.84066E-14
 -1      1077 7.77545E-03-3.81070E-05-1.98727E-14
 -1      1078 8.04744E-03-3.72406E-05-2.13903E-14
 -1      1079 8.31557E-03-3.65828E-05-2.29613E-14
 -1      1080 8.57903E-03-3.63036E-05-2.45820E-14
 -1      1081 8.83682E-03-3.66169E-05-2.62518E-14
 -1      1082 9.08770E-03-3.77692E-05-2.79631E-14
 -1      1083 9.32989E-03-3.99962E-05-2.96999E-14
 -1      1084 6.03649E-03 8.02359E-05-1.14927E-14
 -1      1085 5.75154E-03 8.10238E-05-1.03778E-14
 -1      1086 6.60381E-03 7.81449E-05-1.38952E-14
 -1      1087 6.88577E-03 7.67648E-05-1.51805E-14
 -1      1088 7.16621E-03 7.51085E-05-1.65239E-14
 -1      1089 7.44476E-03 7.31385E-05-1.79221E-14
 -1      1090 7.72100E-03 7.08215E-05-1.93674E-14
 -1      1091 7.99442E-03 6.81298E-05-2.08659E-14
 -1      1092 8.26446E-03 6.50418E-05-2.24185E-14
 -1      1093 8.53047E-03 6.15374E-05-2.40199E-14
 -1      1094 8.79176E-03 5.75906E-05-2.56693E-14
 -1      1095 9.04751E-03 5.31550E-05-2.73616E-14
 -1      1096 9.29674E-03 4.81477E-05-2.90916E-14
 -1      1097 9.53808E-03 4.23798E-05-3.08494E-14
 -1      1098 2.42855E-03 1.54759E-04-1.77039E-15
 -1      1099 6.32064E-03 7.92887E-05-1.26660E-14
 -1      1100 2.34733E-03-4.41813E-05-1.77009E-15
 -1      1101 5.17971E-03 8.22494E-05-8.32827E-15
 -1      1102 2.63817E-03-4.52538E-05-2.21125E-15
 -1      1103 9.62711E-03-1.36448E-05-3.18954E-14
 -1      1104 9.50902E-03-5.27332E-05-3.10717E-14
 -1      1105 2.57131E-03 8.18611E-05-2.03722E-15
 -1      1106 2.86210E-03 8.32746E-05-2.50918E-15
 -1      1107 2.27534E-03 8.18365E-05-1.60826E-15
 -1      1108 4.02946E-03 8.37481E-05-4.95588E-15
 -1      1109 4.89295E-03 8.27336E-05-7.39532E-15
 -1      1110 9.64794E-03 2.13542E-05-3.18307E-14
 -1      1111 3.30843E-03 1.59818E-04-3.26758E-15
 -1      1112 2.05697E-03 3.64778E-05-1.35012E-15
 -1      1113 3.59781E-03 1.60118E-04-3.86929E-15
 -1      1114 4.31785E-03 8.34974E-05-5.70882E-15
 -1      1115 3.36462E-03 3.00829E-05-3.49187E-15
 -1      1116 3.65449E-03 3.01794E-05-4.11369E-15
 -1      1117 4.80800E-03 2.99962E-05-7.18745E-15
 -1      1118 4.60567E-03 8.31501E-05-6.52175E-15
 -1      1119 3.11335E-03 5.69558E-05-2.97991E-15
 -1      1120 4.52048E-03 3.00918E-05-6.32862E-15
 -1      1121 0.00000E+00 0.00000E+00 0.00000E+00
 -1      1122 0.00000E+00 0.00000E+00 0.00000E+00
 -1      1123 0.00000E+00 0.00000E+00 0.00000E+00
 -1      1124 0.00000E+00 0.00000E+00 0.00000E+00
 -1      1125 0.00000E+00 0.00000E+00 0.00000E+00
 -1      1126 0.00000E+00 0.00000E+00 0.00000E+00
 -1      1127 0.00000E+00 0.00000E+00 0.00000E+00
 -1      1128 0.00000E+00 0.00000E+00 0.00000E+00
 -1      1129 0.00000E+00 0.00000E+00 0.00000E+00
 -1      1130 0.00000E+00 0.00000E+00 0.00000E+00
 -1      1131 0.00000E+00 0.00000E+00 0.00000E+00
 -1      1132 0.00000E+00 0.00000E+00 0.00000E+00
 -1      1133 0.00000E+00 0.00000E+00 0.00000E+00
 -1      1134 0.00000E+00 0.00000E+00 0.00000E+00
 -1      1135 0.00000E+00 0.00000E+00 0.00000E+00
 -1      1136 0.00000E+00 0.00000E+00 0.00000E+00
 -1      1137 0.00000E+00 0.00000E+00 0.00000E+00
 -1      1138 2.11678E-04-1.48333E-04 5.58364E-18
 -1      1139 5.51676E-04-3.37510E-04-1.58836E-17
 -1      1140 8.33532E-04-4.59000E-04-8.48930E-17
 -1      1141 1.10315E-03-5.40689E-04-2.10511E-16
 -1      1142 1.36862E-03-5.97957E-04-3.90828E-16
 -1      1143 1.63349E-03-6.38696E-04-6.24013E-16
 -1      1144 1.89961E-03-6.67557E-04-9.11082E-16
 -1      1145 2.16784E-03-6.87665E-04-1.25215E-15
 -1      1146 2.43847E-03-7.01311E-04-1.64957E-15
 -1      1147 2.71148E-03-7.10222E-04-2.10387E-15
 -1      1148 2.98672E-03-7.15711E-04-2.61663E-15
 -1      1149 3.26393E-03-7.18764E-04-3.18390E-15
 -1      1150 3.54283E-03-7.20112E-04-3.80676E-15
 -1      1151 3.82316E-03-7.20288E-04-4.48904E-15
 -1      1152 4.10464E-03-7.19662E-04-5.22955E-15
 -1      1153 4.38706E-03-7.18484E-04-6.03055E-15
 -1      1154 4.67021E-03-7.16904E-04-6.89162E-15
 -1      1155 4.95394E-03-7.14996E-04-7.81527E-15
 -1      1156 5.23816E-03-7.12776E-04-8.80048E-15
 -1      1157 5.52280E-03-7.10218E-04-9.84575E-15
 -1      1158 5.80786E-03-7.07259E-04-1.09540E-14
 -1      1159 6.09340E-03-7.03816E-04-1.21219E-14
 -1      1160 6.37954E-03-6.99798E-04-1.33499E-14
 -1      1161 6.66650E-03-6.95118E-04-1.46409E-14
 -1      1162 6.95459E-03-6.89713E-04-1.59945E-14
 -1      1163 7.24424E-03-6.83574E-04-1.74075E-14
 -1      1164 7.53604E-03-6.76777E-04-1.88721E-14
 -1      1165 7.83074E-03-6.69544E-04-2.03908E-14
 -1      1166 8.12927E-03-6.62309E-04-2.19678E-14
 -1      1167 8.43279E-03-6.55828E-04-2.35959E-14
 -1      1168 8.74264E-03-6.51304E-04-2.52686E-14
 -1      1169 9.06030E-03-6.50571E-04-2.69937E-14
 -1      1170 9.38723E-03-6.56291E-04-2.87575E-14
 -1      1171 9.72457E-03-6.72150E-04-3.05525E-14
 -1      1172 1.00726E-02-7.02953E-04-3.23729E-14
 -1      1173 1.04301E-02-7.54375E-04-3.42188E-14
 -1      1174 1.07931E-02-8.32024E-04-3.60894E-14
 -1      1175 1.11538E-02-9.39285E-04-3.79936E-14
 -1      1176 1.15011E-02-1.07374E-03-3.99313E-14
 -1      1177 1.18219E-02-1.22303E-03-4.19110E-14
 -1      1178 1.21058E-02-1.36302E-03-4.39441E-14
 -1      1179 1.23521E-02-1.46215E-03-4.60314E-14
 -1      1180 1.25724E-02-1.49304E-03-4.81756E-14
 -1      1181 1.27868E-02-1.44504E-03-5.03738E-14
 -1      1182 1.30140E-02-1.32848E-03-5.26150E-14
 -1      1183 1.32625E-02-1.16671E-03-5.48862E-14
 -1      1184 1.35298E-02-9.82709E-04-5.71954E-14
 -1      1185 1.38079E-02-7.90109E-04-5.95452E-14
 -1      1186 1.40900E-02-5.92946E-04-6.19336E-14
 -1      1187 1.43666E-02-3.97413E-04-6.43061E-14
 -1      1188 2.28438E-04 1.60711E-04 2.03559E-17
 -1      1189 5.53850E-04 3.42142E-04 3.99935E-17
 -1      1190 8.34464E-04 4.61170E-04 2.52890E-17
 -1      1191 1.10405E-03 5.42378E-04-3.23499E-17
 -1      1192 1.36952E-03 5.99638E-04-1.34577E-16
 -1      1193 1.63444E-03 6.40465E-04-2.83017E-16
 -1      1194 1.90062E-03 6.69432E-04-4.79434E-16
 -1      1195 2.16889E-03 6.89660E-04-7.24383E-16
 -1      1196 2.43954E-03 7.03433E-04-1.02418E-15
 -1      1197 2.71257E-03 7.12477E-04-1.38318E-15
 -1      1198 2.98782E-03 7.18101E-04-1.80311E-15
 -1      1199 3.26504E-03 7.21290E-04-2.27954E-15
 -1      1200 3.54395E-03 7.22775E-04-2.81300E-15
 -1      1201 3.82428E-03 7.23087E-04-3.40700E-15
 -1      1202 4.10577E-03 7.22598E-04-4.06038E-15
 -1      1203 4.38819E-03 7.21556E-04-4.77725E-15
 -1      1204 4.67134E-03 7.20113E-04-5.55944E-15
 -1      1205 4.95508E-03 7.18342E-04-6.40709E-15
 -1      1206 5.23931E-03 7.16263E-04-7.32178E-15
 -1      1207 5.52396E-03 7.13849E-04-8.30850E-15
 -1      1208 5.80904E-03 7.11041E-04-9.35489E-15
 -1      1209 6.09459E-03 7.07761E-04-1.04500E-14
 -1      1210 6.38076E-03 7.03926E-04-1.16025E-14
 -1      1211 6.66774E-03 6.99461E-04-1.28182E-14
 -1      1212 6.95585E-03 6.94320E-04-1.40897E-14
 -1      1213 7.24549E-03 6.88516E-04-1.54071E-14
 -1      1214 7.53722E-03 6.82161E-04-1.67708E-14
 -1      1215 7.83172E-03 6.75516E-04-1.81884E-14
 -1      1216 8.12984E-03 6.69063E-04-1.96545E-14
 -1      1217 8.43257E-03 6.63599E-04-2.11634E-14
 -1      1218 8.74097E-03 6.60347E-04-2.27096E-14
 -1      1219 9.05612E-03 6.61084E-04-2.43097E-14
 -1      1220 9.37891E-03 6.68263E-04-2.59550E-14
 -1      1221 9.70973E-03 6.85076E-04-2.76451E-14
 -1      1222 1.00480E-02 7.15351E-04-2.93925E-14
 -1      1223 1.03916E-02 7.63109E-04-3.11918E-14
 -1      1224 1.07362E-02 8.31541E-04-3.30440E-14
 -1      1225 1.10748E-02 9.21198E-04-3.49565E-14
 -1      1226 1.13985E-02 1.02755E-03-3.69354E-14
 -1      1227 1.16980E-02 1.13879E-03-3.89734E-14
 -1      1228 1.19674E-02 1.23576E-03-4.10820E-14
 -1      1229 1.22078E-02 1.29579E-03-4.32618E-14
 -1      1230 1.24284E-02 1.30012E-03-4.55053E-14
 -1      1231 1.26438E-02 1.24143E-03-4.78054E-14
 -1      1232 1.28677E-02 1.12603E-03-5.01679E-14
 -1      1233 1.31079E-02 9.69384E-04-5.26039E-14
 -1      1234 1.33648E-02 7.88212E-04-5.50953E-14
 -1      1235 1.36343E-02 5.94703E-04-5.76345E-14
 -1      1236 1.39123E-02 3.95870E-04-6.01993E-14
 -1      1237 1.41887E-02 2.01581E-04-6.26967E-14
 -1      1238 1.44208E-02 6.55559E-05-6.39794E-14
 -1      1239 1.46123E-02-2.04762E-05-6.41271E-14
 -1      1240 1.48081E-02-1.09915E-04-6.42401E-14
 -1      1241 1.50180E-02-1.97954E-04-6.43664E-14
 -1      1242 1.52470E-02-2.72934E-04-6.45130E-14
 -1      1243 1.54867E-02-3.18416E-04-6.46388E-14
 -1      1244 1.57172E-02-3.20012E-04-6.47729E-14
 -1      1245 1.59041E-02-2.70948E-04-6.49018E-14
 -1      1246 1.60052E-02-1.81492E-04-6.50204E-14
 -1      1247 1.59955E-02-7.89503E-05-6.51257E-14
 -1      1248 1.58787E-02 3.58665E-06-6.51877E-14
 -1      1249 1.56868E-02 4.23740E-05-6.52532E-14
 -1      1250 1.54585E-02 3.25748E-05-6.53252E-14
 -1      1251 1.52239E-02-1.72811E-05-6.53781E-14
 -1      1252 1.50021E-02-9.15546E-05-6.54048E-14
 -1      1253 1.47955E-02-1.75577E-04-6.54311E-14
 -1      1254 1.45989E-02-2.60169E-04-6.54568E-14
 -1      1255 1.51555E-02-3.61300E-05-5.16726E-14
 -1      1256 1.50140E-02 1.47383E-04-5.13959E-14
 -1      1257 1.47533E-02 3.30962E-04-5.09118E-14
 -1      1258 1.44130E-02 5.05305E-04-5.02481E-14
 -1      1259 1.39926E-02 6.72830E-04-4.93705E-14
 -1      1260 1.35354E-02 8.09502E-04-4.83669E-14
 -1      1261 1.30773E-02 8.94470E-04-4.73380E-14
 -1      1262 1.25997E-02 9.20812E-04-4.62490E-14
 -1      1263 1.21059E-02 8.77964E-04-4.51240E-14
 -1      1264 1.16468E-02 7.79528E-04-4.41142E-14
 -1      1265 1.12473E-02 6.46383E-04-4.32860E-14
 -1      1266 1.08963E-02 4.92021E-04-4.26055E-14
 -1      1267 1.05955E-02 3.20827E-04-4.20671E-14
 -1      1268 1.03866E-02 1.50821E-04-4.17319E-14
 -1      1269 1.02895E-02-1.29573E-05-4.16257E-14
 -1      1270 1.03058E-02-1.79270E-04-4.17461E-14
 -1      1271 1.04299E-02-3.44054E-04-4.20670E-14
 -1      1272 1.06531E-02-5.14984E-04-4.25630E-14
 -1      1273 1.09594E-02-6.89009E-04-4.32335E-14
 -1      1274 1.13344E-02-8.57694E-04-4.40539E-14
 -1      1275 1.17544E-02-1.00176E-03-4.49896E-14
 -1      1276 1.21991E-02-1.10156E-03-4.59986E-14
 -1      1277 1.26786E-02-1.14340E-03-4.70789E-14
 -1      1278 1.31531E-02-1.11969E-03-4.81160E-14
 -1      1279 1.35991E-02-1.03799E-03-4.90481E-14
 -1      1280 1.40345E-02-9.08535E-04-4.99058E-14
 -1      1281 1.44385E-02-7.46800E-04-5.06346E-14
 -1      1282 1.47726E-02-5.74402E-04-5.11852E-14
 -1      1283 1.50178E-02-3.99817E-04-5.15600E-14
 -1      1284 1.51553E-02-2.18088E-04-5.17346E-14
 -1      1285 1.66711E-04-1.10340E-04-2.07354E-18
 -1      1286 1.12548E-04-5.69695E-05-1.08962E-17
 -1      1287 1.17631E-04-6.75785E-05-8.42967E-18
 -1      1288 1.08429E-04-4.34859E-05-1.48807E-17
 -1      1289 1.10292E-04-4.96008E-05-1.37287E-17
 -1      1290 2.26345E-04-1.07615E-04-3.24312E-17
 -1      1291 1.06842E-04-3.36005E-05-1.68729E-17
 -1      1292 1.07692E-04-3.83247E-05-1.63037E-17
 -1      1293 2.19119E-04-8.24461E-05-3.92888E-17
 -1      1294 1.06058E-04-2.53479E-05-1.79571E-17
 -1      1295 1.06489E-04-2.93782E-05-1.76860E-17
 -1      1296 2.15861E-04-6.32619E-05-4.30157E-17
 -1      1297 1.05657E-04-1.80872E-05-1.82146E-17
 -1      1298 1.05887E-04-2.16551E-05-1.81875E-17
 -1      1299 2.14202E-04-4.71814E-05-4.47233E-17
 -1      1300 1.05434E-04-1.12359E-05-1.83230E-17
 -1      1301 1.05558E-04-1.46207E-05-1.83772E-17
 -1      1302 2.13287E-04-3.27454E-05-4.53332E-17
 -1      1303 1.05333E-04-4.68739E-06-1.78893E-17
 -1      1304 1.05386E-04-7.93995E-06-1.80384E-17
 -1      1305 2.12785E-04-1.91847E-05-4.49673E-17
 -1      1306 1.05321E-04 1.74289E-06-1.74014E-17
 -1      1307 1.05319E-04-1.46968E-06-1.75912E-17
 -1      1308 2.12569E-04-6.15806E-06-4.40322E-17
 -1      1309 1.05394E-04 8.22274E-06-1.64121E-17
 -1      1310 1.05337E-04 4.96378E-06-1.66561E-17
 -1      1311 2.12577E-04 6.70739E-06-4.23381E-17
 -1      1312 1.05573E-04 1.49282E-05-1.51924E-17
 -1      1313 1.05445E-04 1.15290E-05-1.56532E-17
 -1      1314 2.12810E-04 1.97597E-05-3.99529E-17
 -1      1315 1.05908E-04 2.19457E-05-1.35525E-17
 -1      1316 1.05672E-04 1.83550E-05-1.40946E-17
 -1      1317 2.13324E-04 3.32590E-05-3.67951E-17
 -1      1318 1.06535E-04 2.98119E-05-1.14519E-17
 -1      1319 1.06095E-04 2.57351E-05-1.21566E-17
 -1      1320 2.14270E-04 4.77847E-05-3.26887E-17
 -1      1321 1.07729E-04 3.89108E-05-8.36191E-18
 -1      1322 1.06876E-04 3.41171E-05-9.51387E-18
 -1      1323 2.15980E-04 6.41969E-05-2.73354E-17
 -1      1324 1.10271E-04 5.03388E-05-3.82181E-18
 -1      1325 1.08431E-04 4.41545E-05-5.80048E-18
 -1      1326 2.19213E-04 8.36954E-05-1.96512E-17
 -1      1327 1.16947E-04 6.76142E-05 2.95445E-18
 -1      1328 1.12195E-04 5.77683E-05-1.35525E-19
 -1      1329 2.26332E-04 1.09433E-04-8.76849E-18
 -1      1330 1.57590E-04 1.09857E-04 1.27529E-17
 -1      1331 1.35672E-04 8.60868E-05 7.12863E-18
 -1      1332 2.56060E-04 1.52084E-04 4.16063E-18
 -1      1333 3.35110E-04 2.20733E-04 2.10606E-17
 -1      1334 4.21572E-04-2.61731E-04-2.12097E-17
 -1      1335 5.74684E-04-3.36788E-04-4.44523E-17
 -1      1336 7.21888E-04-3.97388E-04-8.22774E-17
 -1      1337 8.65074E-04-4.46683E-04-1.33425E-16
 -1      1338 6.12124E-04-3.30877E-04-7.72901E-17
 -1      1339 1.00512E-03-4.87757E-04-1.97772E-16
 -1      1340 1.14298E-03-5.21752E-04-2.75862E-16
 -1      1341 9.05388E-04-4.31573E-04-1.83623E-16
 -1      1342 1.27950E-03-5.50535E-04-3.66935E-16
 -1      1343 1.41517E-03-5.74584E-04-4.71438E-16
 -1      1344 1.18785E-03-5.01005E-04-3.42201E-16
 -1      1345 1.55043E-03-5.94962E-04-5.89020E-16
 -1      1346 1.68555E-03-6.12005E-04-7.19842E-16
 -1      1347 1.46482E-03-5.49802E-04-5.53241E-16
 -1      1348 1.82076E-03-6.26341E-04-8.64082E-16
 -1      1349 1.95618E-03-6.38264E-04-1.02159E-15
 -1      1350 1.73955E-03-5.84137E-04-8.16567E-16
 -1      1351 2.09192E-03-6.48177E-04-1.19243E-15
 -1      1352 2.22803E-03-6.56329E-04-1.37771E-15
 -1      1353 2.01391E-03-6.07998E-04-1.13295E-15
 -1      1354 2.36457E-03-6.62996E-04-1.57684E-15
 -1      1355 2.50154E-03-6.68385E-04-1.78971E-15
 -1      1356 2.28887E-03-6.24203E-04-1.50363E-15
 -1      1357 2.63896E-03-6.72689E-04-2.01700E-15
 -1      1358 2.77681E-03-6.76075E-04-2.25826E-15
 -1      1359 2.56492E-03-6.34830E-04-1.92974E-15
 -1      1360 2.91510E-03-6.78681E-04-2.51344E-15
 -1      1361 3.05380E-03-6.80637E-04-2.78363E-15
 -1      1362 2.84224E-03-6.41434E-04-2.41183E-15
 -1      1363 3.19289E-03-6.82042E-04-3.06705E-15
 -1      1364 3.33235E-03-6.82996E-04-3.36381E-15
 -1      1365 3.12085E-03-6.45182E-04-2.94988E-15
 -1      1366 3.47215E-03-6.83568E-04-3.67492E-15
 -1      1367 3.61227E-03-6.83832E-04-4.00109E-15
 -1      1368 3.40067E-03-6.46938E-04-3.54385E-15
 -1      1369 3.75268E-03-6.83835E-04-4.34158E-15
 -1      1370 3.89336E-03-6.83632E-04-4.69691E-15
 -1      1371 3.68157E-03-6.47332E-04-4.19502E-15
 -1      1372 4.03428E-03-6.83250E-04-5.06710E-15
 -1      1373 4.17542E-03-6.82730E-04-5.45210E-15
 -1      1374 3.96341E-03-6.46810E-04-4.90465E-15
 -1      1375 4.31675E-03-6.82086E-04-5.85149E-15
 -1      1376 4.45826E-03-6.81345E-04-6.26636E-15
 -1      1377 4.24605E-03-6.45672E-04-5.67340E-15
 -1      1378 4.59994E-03-6.80511E-04-6.69618E-15
 -1      1379 4.74176E-03-6.79601E-04-7.14154E-15
 -1      1380 4.52935E-03-6.44107E-04-6.50155E-15
 -1      1381 4.88371E-03-6.78612E-04-7.60245E-15
 -1      1382 5.02578E-03-6.77553E-04-8.07870E-15
 -1      1383 4.81321E-03-6.42218E-04-7.39045E-15
 -1      1384 5.16797E-03-6.76414E-04-8.57043E-15
 -1      1385 5.31026E-03-6.75198E-04-9.07647E-15
 -1      1386 5.09754E-03-6.40039E-04-8.34098E-15
 -1      1387 5.45266E-03-6.73891E-04-9.59840E-15
 -1      1388 5.59517E-03-6.72492E-04-1.01358E-14
 -1      1389 5.38229E-03-6.37549E-04-9.35195E-15
 -1      1390 5.73779E-03-6.70984E-04-1.06870E-14
 -1      1391 5.88053E-03-6.69362E-04-1.12556E-14
 -1      1392 5.66747E-03-6.34692E-04-1.04233E-14
 -1      1393 6.02339E-03-6.67605E-04-1.18390E-14
 -1      1394 6.16641E-03-6.65711E-04-1.24359E-14
 -1      1395 5.95309E-03-6.31380E-04-1.15555E-14
 -1      1396 6.30959E-03-6.63656E-04-1.30494E-14
 -1      1397 6.45295E-03-6.61439E-04-1.36784E-14
 -1      1398 6.23927E-03-6.27508E-04-1.27504E-14
 -1      1399 6.59654E-03-6.59036E-04-1.43234E-14
 -1      1400 6.74039E-03-6.56451E-04-1.49824E-14
 -1      1401 6.52614E-03-6.22965E-04-1.40062E-14
 -1      1402 6.88454E-03-6.53661E-04-1.56564E-14
 -1      1403 7.02903E-03-6.50681E-04-1.63471E-14
 -1      1404 6.81393E-03-6.17651E-04-1.53228E-14
 -1      1405 7.17394E-03-6.47490E-04-1.70516E-14
 -1      1406 7.31931E-03-6.44119E-04-1.77695E-14
 -1      1407 7.10294E-03-6.11498E-04-1.66979E-14
 -1      1408 7.46524E-03-6.40556E-04-1.85002E-14
 -1      1409 7.61178E-03-6.36854E-04-1.92437E-14
 -1      1410 7.39358E-03-6.04502E-04-1.81293E-14
 -1      1411 7.75906E-03-6.33017E-04-2.00022E-14
 -1      1412 7.90715E-03-6.29130E-04-2.07745E-14
 -1      1413 7.68636E-03-5.96768E-04-1.96158E-14
 -1      1414 8.05619E-03-6.25224E-04-2.15602E-14
 -1      1415 8.20629E-03-6.21428E-04-2.23603E-14
 -1      1416 7.98194E-03-5.88570E-04-2.11559E-14
 -1      1417 8.35758E-03-6.17816E-04-2.31729E-14
 -1      1418 8.51021E-03-6.14576E-04-2.39955E-14
 -1      1419 8.28106E-03-5.80446E-04-2.27498E-14
 -1      1420 8.66432E-03-6.11849E-04-2.48315E-14
 -1      1421 8.82007E-03-6.09899E-04-2.56789E-14
 -1      1422 8.58463E-03-5.73315E-04-2.43948E-14
 -1      1423 8.97761E-03-6.08967E-04-2.65388E-14
 -1      1424 9.13707E-03-6.09410E-04-2.74098E-14
 -1      1425 8.89359E-03-5.68643E-04-2.60873E-14
 -1      1426 9.29860E-03-6.11612E-04-2.82885E-14
 -1      1427 9.46230E-03-6.16033E-04-2.91756E-14
 -1      1428 9.20892E-03-5.68650E-04-2.78222E-14
 -1      1429 9.62823E-03-6.23242E-04-3.00711E-14
 -1      1430 9.79641E-03-6.33799E-04-3.09723E-14
 -1      1431 9.53143E-03-5.76543E-04-2.95921E-14
 -1      1432 9.96680E-03-6.48486E-04-3.18811E-14
 -1      1433 1.01392E-02-6.67921E-04-3.27968E-14
 -1      1434 9.86154E-03-5.96720E-04-3.13918E-14
 -1      1435 1.03135E-02-6.93054E-04-3.37191E-14
 -1      1436 1.04891E-02-7.24450E-04-3.46469E-14
 -1      1437 1.01990E-02-6.34783E-04-3.32202E-14
 -1      1438 1.06655E-02-7.63043E-04-3.55830E-14
 -1      1439 1.08420E-02-8.09105E-04-3.65263E-14
 -1      1440 1.05422E-02-6.97072E-04-3.50764E-14
 -1      1441 1.10177E-02-8.63139E-04-3.74769E-14
 -1      1442 1.11915E-02-9.24722E-04-3.84394E-14
 -1      1443 1.08880E-02-7.89219E-04-3.69635E-14
 -1      1444 1.13622E-02-9.93284E-04-3.94087E-14
 -1      1445 1.15286E-02-1.06720E-03-4.03847E-14
 -1      1446 1.12311E-02-9.13178E-04-3.88830E-14
 -1      1447 1.16896E-02-1.14421E-03-4.13757E-14
 -1      1448 1.18441E-02-1.22120E-03-4.23809E-14
 -1      1449 1.15646E-02-1.06275E-03-4.08420E-14
 -1      1450 1.19915E-02-1.29418E-03-4.33969E-14
 -1      1451 1.21318E-02-1.35904E-03-4.44242E-14
 -1      1452 1.18812E-02-1.21931E-03-4.28469E-14
 -1      1453 1.22653E-02-1.41126E-03-4.54687E-14
 -1      1454 1.23931E-02-1.44719E-03-4.65278E-14
 -1      1455 1.21763E-02-1.35187E-03-4.49073E-14
 -1      1456 1.25167E-02-1.46387E-03-4.75996E-14
 -1      1457 1.26381E-02-1.45987E-03-4.86844E-14
 -1      1458 1.24519E-02-1.42584E-03-4.70223E-14
 -1      1459 1.27589E-02-1.43532E-03-4.97820E-14
 -1      1460 1.28811E-02-1.39162E-03-5.08910E-14
 -1      1461 1.27170E-02-1.41844E-03-4.91907E-14
 -1      1462 1.30058E-02-1.33166E-03-5.20129E-14
 -1      1463 1.31340E-02-1.25853E-03-5.31434E-14
 -1      1464 1.29829E-02-1.33028E-03-5.14109E-14
 -1      1465 1.32657E-02-1.17589E-03-5.42834E-14
 -1      1466 1.34008E-02-1.08676E-03-5.54309E-14
 -1      1467 1.32571E-02-1.18273E-03-5.36754E-14
 -1      1468 1.35387E-02-9.93674E-04-5.65877E-14
 -1      1469 1.36787E-02-8.98424E-04-5.77579E-14
 -1      1470 1.35403E-02-1.00349E-03-5.59804E-14
 -1      1471 1.38201E-02-8.01800E-04-5.89383E-14
 -1      1472 1.39621E-02-7.04323E-04-6.01239E-14
 -1      1473 1.38287E-02-8.12656E-04-5.83236E-14
 -1      1474 1.41044E-02-6.05715E-04-6.13208E-14
 -1      1475 1.42467E-02-5.06151E-04-6.25294E-14
 -1      1476 1.41175E-02-6.17924E-04-6.07062E-14
 -1      1477 1.44633E-02-3.55999E-04-6.42925E-14
 -1      1478 1.44787E-02-3.69537E-04-6.36709E-14
 -1      1479 6.43134E-04 3.72002E-04 2.01391E-17
 -1      1480 4.92992E-04 3.03682E-04 2.49909E-17
 -1      1481 4.44920E-04 2.65882E-04 1.23328E-17
 -1      1482 9.28755E-04 4.71967E-04-2.09522E-17
 -1      1483 7.87873E-04 4.26475E-04 4.83825E-18
 -1      1484 7.44811E-04 3.90700E-04-1.30782E-17
 -1      1485 1.20369E-03 5.41397E-04-1.04002E-16
 -1      1486 1.06700E-03 5.09712E-04-5.69884E-17
 -1      1487 1.03089E-03 4.76145E-04-7.89028E-17
 -1      1488 1.47428E-03 5.90614E-04-2.31979E-16
 -1      1489 1.33920E-03 5.68144E-04-1.62278E-16
 -1      1490 1.30884E-03 5.35983E-04-1.87594E-16
 -1      1491 1.74386E-03 6.25540E-04-4.06860E-16
 -1      1492 1.60902E-03 6.09622E-04-3.13212E-16
 -1      1493 1.58311E-03 5.78295E-04-3.41402E-16
 -1      1494 2.01411E-03 6.50046E-04-6.30328E-16
 -1      1495 1.87882E-03 6.38923E-04-5.12245E-16
 -1      1496 1.85632E-03 6.08058E-04-5.42806E-16
 -1      1497 2.28585E-03 6.66882E-04-9.05634E-16
 -1      1498 2.14976E-03 6.59291E-04-7.61395E-16
 -1      1499 2.12988E-03 6.28659E-04-7.95018E-16
 -1      1500 2.55939E-03 6.78093E-04-1.23645E-15
 -1      1501 2.42238E-03 6.73090E-04-1.06379E-15
 -1      1502 2.40449E-03 6.42551E-04-1.10082E-15
 -1      1503 2.83477E-03 6.85224E-04-1.62736E-15
 -1      1504 2.69685E-03 6.82092E-04-1.42445E-15
 -1      1505 2.68045E-03 6.51563E-04-1.46293E-15
 -1      1506 3.11191E-03 6.89439E-04-2.07627E-15
 -1      1507 2.97313E-03 6.87638E-04-1.84462E-15
 -1      1508 2.95784E-03 6.57070E-04-1.88330E-15
 -1      1509 3.39062E-03 6.91603E-04-2.58170E-15
 -1      1510 3.25108E-03 6.90734E-04-2.32167E-15
 -1      1511 3.23661E-03 6.60103E-04-2.36147E-15
 -1      1512 3.67070E-03 6.92354E-04-3.14600E-15
 -1      1513 3.53051E-03 6.92124E-04-2.85656E-15
 -1      1514 3.51663E-03 6.61421E-04-2.89699E-15
 -1      1515 3.95193E-03 6.92144E-04-3.77020E-15
 -1      1516 3.81119E-03 6.92348E-04-3.45069E-15
 -1      1517 3.79774E-03 6.61571E-04-3.49170E-15
 -1      1518 4.23411E-03 6.91282E-04-4.45435E-15
 -1      1519 4.09292E-03 6.91781E-04-4.10389E-15
 -1      1520 4.07978E-03 6.60936E-04-4.14504E-15
 -1      1521 4.51707E-03 6.89966E-04-5.20269E-15
 -1      1522 4.37550E-03 6.90672E-04-4.82076E-15
 -1      1523 4.36259E-03 6.59770E-04-4.86078E-15
 -1      1524 4.80065E-03 6.88306E-04-6.01747E-15
 -1      1525 4.65879E-03 6.89175E-04-5.60206E-15
 -1      1526 4.64605E-03 6.58223E-04-5.64190E-15
 -1      1527 5.08475E-03 6.86344E-04-6.89708E-15
 -1      1528 4.94264E-03 6.87362E-04-6.44912E-15
 -1      1529 4.93004E-03 6.56369E-04-6.48803E-15
 -1      1530 5.36930E-03 6.84072E-04-7.84479E-15
 -1      1531 5.22697E-03 6.85248E-04-7.36200E-15
 -1      1532 5.21450E-03 6.54223E-04-7.39927E-15
 -1      1533 5.65428E-03 6.81441E-04-8.85870E-15
 -1      1534 5.51174E-03 6.82804E-04-8.34382E-15
 -1      1535 5.49938E-03 6.51751E-04-8.37724E-15
 -1      1536 5.93972E-03 6.78377E-04-9.92822E-15
 -1      1537 5.79694E-03 6.79966E-04-9.38663E-15
 -1      1538 5.78469E-03 6.48886E-04-9.41727E-15
 -1      1539 6.22571E-03 6.74791E-04-1.10519E-14
 -1      1540 6.08264E-03 6.76652E-04-1.04833E-14
 -1      1541 6.07049E-03 6.45539E-04-1.05139E-14
 -1      1542 6.51240E-03 6.70592E-04-1.22340E-14
 -1      1543 6.36896E-03 6.72769E-04-1.16361E-14
 -1      1544 6.35690E-03 6.41612E-04-1.16660E-14
 -1      1545 6.80004E-03 6.65706E-04-1.34761E-14
 -1      1546 6.65609E-03 6.68231E-04-1.28481E-14
 -1      1547 6.64409E-03 6.37011E-04-1.28764E-14
 -1      1548 7.08894E-03 6.60098E-04-1.47692E-14
 -1      1549 6.94431E-03 6.62983E-04-1.41157E-14
 -1      1550 6.93232E-03 6.31666E-04-1.41408E-14
 -1      1551 7.37955E-03 6.53808E-04-1.61087E-14
 -1      1552 7.23400E-03 6.57020E-04-1.54326E-14
 -1      1553 7.22193E-03 6.25563E-04-1.54571E-14
 -1      1554 7.67242E-03 6.46994E-04-1.75006E-14
 -1      1555 7.52567E-03 6.50435E-04-1.67988E-14
 -1      1556 7.51335E-03 6.18773E-04-1.68232E-14
 -1      1557 7.96823E-03 6.39991E-04-1.89428E-14
 -1      1558 7.81991E-03 6.43467E-04-1.82156E-14
 -1      1559 7.80714E-03 6.11516E-04-1.82406E-14
 -1      1560 8.26778E-03 6.33398E-04-2.04299E-14
 -1      1561 8.11749E-03 6.36570E-04-1.96812E-14
 -1      1562 8.10393E-03 6.04223E-04-1.97056E-14
 -1      1563 8.57196E-03 6.28179E-04-2.19584E-14
 -1      1564 8.41923E-03 6.30514E-04-2.11897E-14
 -1      1565 8.40445E-03 5.97633E-04-2.12144E-14
 -1      1566 8.88168E-03 6.25790E-04-2.35315E-14
 -1      1567 8.72606E-03 6.26493E-04-2.27383E-14
 -1      1568 8.70950E-03 5.92914E-04-2.27645E-14
 -1      1569 9.19776E-03 6.28316E-04-2.51543E-14
 -1      1570 9.03887E-03 6.26263E-04-2.43363E-14
 -1      1571 9.01981E-03 5.91799E-04-2.43625E-14
 -1      1572 9.52073E-03 6.38587E-04-2.68232E-14
 -1      1573 9.35836E-03 6.32275E-04-2.59833E-14
 -1      1574 9.33597E-03 5.96727E-04-2.60086E-14
 -1      1575 9.85046E-03 6.60194E-04-2.85424E-14
 -1      1576 9.68477E-03 6.47749E-04-2.76760E-14
 -1      1577 9.65821E-03 6.10935E-04-2.77028E-14
 -1      1578 1.01858E-02 6.97282E-04-3.03148E-14
 -1      1579 1.00175E-02 6.76607E-04-2.94218E-14
 -1      1580 9.98609E-03 6.38411E-04-2.94481E-14
 -1      1581 1.05241E-02 7.53885E-04-3.21386E-14
 -1      1582 1.03548E-02 7.23054E-04-3.12216E-14
 -1      1583 1.03182E-02 6.83512E-04-3.12463E-14
 -1      1584 1.08608E-02 8.32550E-04-3.40163E-14
 -1      1585 1.06930E-02 7.90593E-04-3.30701E-14
 -1      1586 1.06517E-02 7.50011E-04-3.30945E-14
 -1      1587 1.11894E-02 9.32110E-04-3.59542E-14
 -1      1588 1.10266E-02 8.80212E-04-3.49769E-14
 -1      1589 1.09823E-02 8.39298E-04-3.49956E-14
 -1      1590 1.15027E-02 1.04504E-03-3.79549E-14
 -1      1591 1.13485E-02 9.87855E-04-3.69472E-14
 -1      1592 1.13043E-02 9.47794E-04-3.69559E-14
 -1      1593 1.17944E-02 1.15575E-03-4.00221E-14
 -1      1594 1.16516E-02 1.10202E-03-3.89798E-14
 -1      1595 1.16120E-02 1.06435E-03-3.89830E-14
 -1      1596 1.20621E-02 1.24195E-03-4.21599E-14
 -1      1597 1.19312E-02 1.20333E-03-4.10815E-14
 -1      1598 1.19011E-02 1.16953E-03-4.10799E-14
 -1      1599 1.23095E-02 1.28077E-03-4.43668E-14
 -1      1600 1.21878E-02 1.26830E-03-4.32559E-14
 -1      1601 1.21715E-02 1.23910E-03-4.32467E-14
 -1      1602 1.25458E-02 1.25716E-03-4.66333E-14
 -1      1603 1.24282E-02 1.27694E-03-4.54909E-14
 -1      1604 1.24281E-02 1.25193E-03-4.54779E-14
 -1      1605 1.27822E-02 1.17030E-03-4.89596E-14
 -1      1606 1.26633E-02 1.22096E-03-4.77905E-14
 -1      1607 1.26795E-02 1.19875E-03-4.77707E-14
 -1      1608 1.30276E-02 1.03220E-03-5.13532E-14
 -1      1609 1.29034E-02 1.10650E-03-5.01497E-14
 -1      1610 1.29342E-02 1.08548E-03-5.01255E-14
 -1      1611 1.32853E-02 8.60781E-04-5.38085E-14
 -1      1612 1.31549E-02 9.49569E-04-5.25726E-14
 -1      1613 1.31970E-02 9.28622E-04-5.25405E-14
 -1      1614 1.35540E-02 6.71620E-04-5.63142E-14
 -1      1615 1.34185E-02 7.67706E-04-5.50552E-14
 -1      1616 1.34686E-02 7.46441E-04-5.50133E-14
 -1      1617 1.38307E-02 4.74274E-04-5.88566E-14
 -1      1618 1.36916E-02 5.73593E-04-5.75805E-14
 -1      1619 1.37466E-02 5.52083E-04-5.75296E-14
 -1      1620 1.41123E-02 2.74026E-04-6.14161E-14
 -1      1621 1.39710E-02 3.74269E-04-6.01374E-14
 -1      1622 1.40284E-02 3.52556E-04-6.00761E-14
 -1      1623 1.42852E-02 1.59339E-04-6.27672E-14
 -1      1624 1.45362E-02 4.38864E-05-6.30519E-14
 -1      1625 1.44405E-02 8.70489E-05-6.29815E-14
 -1      1626 1.47343E-02-4.25809E-05-6.31751E-14
 -1      1627 1.46337E-02 4.84721E-07-6.31138E-14
 -1      1628 1.44604E-02 1.09404E-04-6.19818E-14
 -1      1629 1.49498E-02-1.24171E-04-6.33118E-14
 -1      1630 1.48396E-02-8.45161E-05-6.32419E-14
 -1      1631 1.46620E-02 2.43514E-05-6.21168E-14
 -1      1632 1.51860E-02-1.91279E-04-6.34503E-14
 -1      1633 1.50656E-02-1.60283E-04-6.33837E-14
 -1      1634 1.48837E-02-5.53166E-05-6.22556E-14
 -1      1635 1.54292E-02-2.31669E-04-6.35799E-14
 -1      1636 1.53074E-02-2.15360E-04-6.35162E-14
 -1      1637 1.51248E-02-1.21262E-04-6.23917E-14
 -1      1638 1.56609E-02-2.37283E-04-6.37135E-14
 -1      1639 1.55492E-02-2.39301E-04-6.36461E-14
 -1      1640 1.53738E-02-1.65170E-04-6.25235E-14
 -1      1641 1.58360E-02-2.05859E-04-6.38409E-14
 -1      1642 1.57582E-02-2.25801E-04-6.37762E-14
 -1      1643 1.56012E-02-1.80174E-04-6.26544E-14
 -1      1644 1.59136E-02-1.48791E-04-6.39586E-14
 -1      1645 1.58888E-02-1.79281E-04-6.39016E-14
 -1      1646 1.57602E-02-1.66256E-04-6.27826E-14
 -1      1647 1.58738E-02-8.81856E-05-6.40567E-14
 -1      1648 1.59084E-02-1.17325E-04-6.40116E-14
 -1      1649 1.58108E-02-1.34965E-04-6.28977E-14
 -1      1650 1.57287E-02-4.75136E-05-6.41275E-14
 -1      1651 1.58126E-02-6.41358E-05-6.40934E-14
 -1      1652 1.57398E-02-1.05938E-04-6.29925E-14
 -1      1653 1.55193E-02-4.11166E-05-6.41991E-14
 -1      1654 1.56297E-02-3.97812E-05-6.41660E-14
 -1      1655 1.55702E-02-9.74254E-05-6.30734E-14
 -1      1656 1.52801E-02-7.04646E-05-6.42663E-14
 -1      1657 1.54008E-02-5.16304E-05-6.42351E-14
 -1      1658 1.53436E-02-1.17626E-04-6.31459E-14
 -1      1659 1.50445E-02-1.28150E-04-6.43143E-14
 -1      1660 1.51606E-02-9.64794E-05-6.42937E-14
 -1      1661 1.50991E-02-1.65318E-04-6.32083E-14
 -1      1662 1.48254E-02-2.02845E-04-6.43467E-14
 -1      1663 1.49327E-02-1.64118E-04-6.43300E-14
 -1      1664 1.48648E-02-2.32658E-04-6.32553E-14
 -1      1665 1.45998E-02-3.06480E-04-6.40165E-14
 -1      1666 1.47005E-02-2.65091E-04-6.40023E-14
 -1      1667 1.46279E-02-3.31891E-04-6.29315E-14
 -1      1668 1.43816E-02-4.56282E-04-6.22507E-14
 -1      1669 1.51491E-02-3.99042E-05-5.21414E-14
 -1      1670 1.51886E-02-9.39555E-05-5.22288E-14
 -1      1671 1.49371E-02 9.60590E-05-5.17977E-14
 -1      1672 1.50556E-02 2.80569E-05-5.20021E-14
 -1      1673 1.46154E-02 2.73865E-04-5.11539E-14
 -1      1674 1.47748E-02 1.93775E-04-5.14432E-14
 -1      1675 1.42234E-02 4.64954E-04-5.03752E-14
 -1      1676 1.44112E-02 3.74101E-04-5.07585E-14
 -1      1677 1.37605E-02 6.68576E-04-4.93911E-14
 -1      1678 1.39744E-02 5.69670E-04-4.98915E-14
 -1      1679 1.33393E-02 8.42775E-04-4.82721E-14
 -1      1680 1.35322E-02 7.72108E-04-4.87701E-14
 -1      1681 1.29239E-02 9.47561E-04-4.71332E-14
 -1      1682 1.31151E-02 9.08002E-04-4.76656E-14
 -1      1683 1.25056E-02 9.67976E-04-4.59381E-14
 -1      1684 1.26977E-02 9.71797E-04-4.64925E-14
 -1      1685 1.20796E-02 8.86585E-04-4.46866E-14
 -1      1686 1.22777E-02 9.39702E-04-4.52484E-14
 -1      1687 1.16513E-02 7.33244E-04-4.36942E-14
 -1      1688 1.18349E-02 8.07453E-04-4.41354E-14
 -1      1689 1.12598E-02 5.53508E-04-4.28375E-14
 -1      1690 1.14389E-02 6.38978E-04-4.32142E-14
 -1      1691 1.08964E-02 3.72676E-04-4.21519E-14
 -1      1692 1.10593E-02 4.54993E-04-4.24458E-14
 -1      1693 1.05746E-02 1.81121E-04-4.15184E-14
 -1      1694 1.07228E-02 2.58744E-04-4.17454E-14
 -1      1695 1.03529E-02 6.16508E-05-4.13251E-14
 -1      1696 1.04344E-02 1.18531E-04-4.14266E-14
 -1      1697 1.02626E-02-5.80787E-05-4.12175E-14
 -1      1698 1.02876E-02-6.76289E-06-4.12137E-14
 -1      1699 1.03157E-02-1.66821E-04-4.13724E-14
 -1      1700 1.02738E-02-1.17218E-04-4.12597E-14
 -1      1701 1.04939E-02-3.04848E-04-4.18338E-14
 -1      1702 1.03974E-02-2.42060E-04-4.16346E-14
 -1      1703 1.07820E-02-4.62060E-04-4.23919E-14
 -1      1704 1.06377E-02-3.83022E-04-4.20995E-14
 -1      1705 1.11334E-02-6.56405E-04-4.31680E-14
 -1      1706 1.09632E-02-5.66486E-04-4.28030E-14
 -1      1707 1.15367E-02-8.60665E-04-4.40894E-14
 -1      1708 1.13451E-02-7.65404E-04-4.36426E-14
 -1      1709 1.19432E-02-1.03809E-03-4.51105E-14
 -1      1710 1.17578E-02-9.61558E-04-4.46312E-14
 -1      1711 1.23500E-02-1.15846E-03-4.62136E-14
 -1      1712 1.21614E-02-1.11151E-03-4.56945E-14
 -1      1713 1.27722E-02-1.19643E-03-4.74002E-14
 -1      1714 1.25781E-02-1.19316E-03-4.68468E-14
 -1      1715 1.31839E-02-1.13148E-03-4.84892E-14
 -1      1716 1.29992E-02-1.17009E-03-4.80062E-14
 -1      1717 1.35937E-02-9.97212E-04-4.94853E-14
 -1      1718 1.34029E-02-1.06722E-03-4.90351E-14
 -1      1719 1.40225E-02-8.13212E-04-5.04012E-14
 -1      1720 1.38225E-02-9.03235E-04-4.99913E-14
 -1      1721 1.44389E-02-6.15642E-04-5.11632E-14
 -1      1722 1.42503E-02-7.06579E-04-5.08359E-14
 -1      1723 1.47928E-02-4.39294E-04-5.17280E-14
 -1      1724 1.46391E-02-5.16905E-04-5.14935E-14
 -1      1725 1.50562E-02-2.90651E-04-5.20960E-14
 -1      1726 1.49478E-02-3.56022E-04-5.19530E-14
 -1      1727 1.51893E-02-1.58181E-04-5.22994E-14
 -1      1728 1.51474E-02-2.13978E-04-5.22676E-14
 -1      1729 1.40202E-02 4.70093E-04-5.04191E-14
 -1      1730 1.44622E-02 2.59537E-04-5.13069E-14
 -1      1731 1.43432E-02 1.37033E-04-6.27039E-14
 -1      1732 1.42671E-02 2.02304E-04-6.16335E-14
 -1      1733 1.51037E-02-4.31832E-05-5.25755E-14
 -1      1734 1.48360E-02 7.96232E-05-5.20690E-14
 -1      1735 1.52018E-02-1.27779E-04-5.27895E-14
 -1      1736 1.35777E-02 6.98189E-04-4.93053E-14
 -1      1737 1.31707E-02 8.84568E-04-4.80712E-14
 -1      1738 1.27856E-02 9.86036E-04-4.68199E-14
 -1      1739 1.24040E-02 9.79999E-04-4.54862E-14
 -1      1740 1.20208E-02 8.55224E-04-4.42483E-14
 -1      1741 1.16106E-02 6.64980E-04-4.32225E-14
 -1      1742 1.12201E-02 4.59619E-04-4.23574E-14
 -1      1743 1.08460E-02 2.52831E-04-4.15669E-14
 -1      1744 1.05243E-02 1.01383E-04-4.10806E-14
 -1      1745 1.03142E-02-2.56097E-06-4.08836E-14
 -1      1746 1.02569E-02-8.17314E-05-4.08162E-14
 -1      1747 1.03559E-02-1.64141E-04-4.11176E-14
 -1      1748 1.05888E-02-2.88352E-04-4.16420E-14
 -1      1749 1.09191E-02-4.54715E-04-4.23110E-14
 -1      1750 1.13058E-02-6.68851E-04-4.31911E-14
 -1      1751 1.17121E-02-8.93102E-04-4.42022E-14
 -1      1752 1.21037E-02-1.08490E-03-4.53224E-14
 -1      1753 1.24861E-02-1.20321E-03-4.65366E-14
 -1      1754 1.28545E-02-1.20945E-03-4.77768E-14
 -1      1755 1.32373E-02-1.10628E-03-4.89332E-14
 -1      1756 1.36376E-02-9.28588E-04-4.99928E-14
 -1      1757 1.40671E-02-7.11811E-04-5.09418E-14
 -1      1758 1.44882E-02-5.03789E-04-5.17181E-14
 -1      1759 1.48492E-02-3.37332E-04-5.22828E-14
 -1      1760 1.51059E-02-2.12339E-04-5.26848E-14
 -1      1761 2.85263E-04-1.76223E-04-1.92717E-17
 -1      1762 3.32203E-04-1.16750E-04-6.24772E-17
 -1      1763 3.36345E-04-1.32997E-04-5.88451E-17
 -1      1764 3.42230E-04-1.51987E-04-5.42101E-17
 -1      1765 3.51787E-04-1.73991E-04-4.75694E-17
 -1      1766 4.58357E-04-1.88050E-04-8.56113E-17
 -1      1767 3.24557E-04-6.53581E-05-6.88875E-17
 -1      1768 3.25696E-04-7.66550E-05-6.82505E-17
 -1      1769 3.23059E-04-4.38714E-05-6.94296E-17
 -1      1770 3.23714E-04-5.43581E-05-6.92805E-17
 -1      1771 4.36497E-04-7.92582E-05-1.02389E-16
 -1      1772 3.22272E-04-2.37608E-05-6.84945E-17
 -1      1773 3.22604E-04-3.36706E-05-6.91585E-17
 -1      1774 4.34491E-04-5.12970E-05-1.02430E-16
 -1      1775 3.21977E-04-4.33436E-06-6.66920E-17
 -1      1776 3.22074E-04-1.39827E-05-6.76136E-17
 -1      1777 4.33468E-04-2.49132E-05-1.00682E-16
 -1      1778 3.22099E-04 1.49754E-05-6.40086E-17
 -1      1779 3.21985E-04 5.31707E-06-6.56078E-17
 -1      1780 4.33170E-04 7.58096E-07-9.77408E-17
 -1      1781 3.22666E-04 3.47165E-05-6.02139E-17
 -1      1782 3.22314E-04 2.47744E-05-6.23010E-17
 -1      1783 4.33525E-04 2.64582E-05-9.37157E-17
 -1      1784 3.23798E-04 5.51468E-05-5.51452E-17
 -1      1785 3.23133E-04 4.47875E-05-5.78828E-17
 -1      1786 4.34604E-04 5.27042E-05-8.78475E-17
 -1      1787 3.25859E-04 7.77927E-05-4.87349E-17
 -1      1788 3.24659E-04 6.62141E-05-5.22314E-17
 -1      1789 4.36663E-04 8.05757E-05-8.03800E-17
 -1      1790 3.29553E-04 1.03628E-04-3.98309E-17
 -1      1791 3.27402E-04 9.02786E-05-4.46827E-17
 -1      1792 4.40318E-04 1.11540E-04-7.05545E-17
 -1      1793 3.36593E-04 1.35086E-04-2.75929E-17
 -1      1794 3.32408E-04 1.18587E-04-3.44370E-17
 -1      1795 4.46796E-04 1.47306E-04-5.74356E-17
 -1      1796 3.52325E-04 1.77582E-04-1.02999E-17
 -1      1797 3.42828E-04 1.54735E-04-1.99087E-17
 -1      1798 4.59339E-04 1.91427E-04-3.95056E-17
 -1      1799 4.07731E-04 2.33668E-04 3.80826E-18
 -1      1800 3.78117E-04 2.02642E-04-4.70273E-18
 -1      1801 4.95890E-04 2.43969E-04-2.19551E-17
 -1      1802 5.58592E-04 3.02481E-04-5.78693E-18
 -1      1803 3.40049E-04-1.90894E-04-3.42743E-17
 -1      1804 8.53644E-04 4.07089E-04-5.42508E-17
 -1      1805 7.07224E-04 3.59350E-04-2.50180E-17
 -1      1806 6.73453E-04 3.28780E-04-3.53992E-17
 -1      1807 4.58990E-04-2.36696E-04-6.18402E-17
 -1      1808 8.07295E-04-3.74083E-04-1.67699E-16
 -1      1809 9.52575E-04-4.15264E-04-2.35638E-16
 -1      1810 1.09543E-03-4.49951E-04-3.16316E-16
 -1      1811 1.23712E-03-4.78853E-04-4.10032E-16
 -1      1812 1.00400E-03-3.97874E-04-2.89726E-16
 -1      1813 1.37754E-03-5.03346E-04-5.16460E-16
 -1      1814 1.51725E-03-5.23725E-04-6.36034E-16
 -1      1815 1.28972E-03-4.55852E-04-4.79339E-16
 -1      1816 1.65643E-03-5.40915E-04-7.68713E-16
 -1      1817 1.79529E-03-5.55151E-04-9.14267E-16
 -1      1818 1.57215E-03-4.96812E-04-7.20168E-16
 -1      1819 1.93403E-03-5.67043E-04-1.07298E-15
 -1      1820 2.07271E-03-5.76796E-04-1.24480E-15
 -1      1821 1.85280E-03-5.25379E-04-1.01275E-15
 -1      1822 2.21148E-03-5.84829E-04-1.43054E-15
 -1      1823 2.35034E-03-5.91311E-04-1.63003E-15
 -1      1824 2.13273E-03-5.44895E-04-1.35772E-15
 -1      1825 2.48940E-03-5.96541E-04-1.84290E-15
 -1      1826 2.62863E-03-6.00657E-04-2.06959E-15
 -1      1827 2.41263E-03-5.57817E-04-1.75638E-15
 -1      1828 2.76812E-03-6.03873E-04-2.31077E-15
 -1      1829 2.90781E-03-6.06301E-04-2.56529E-15
 -1      1830 2.69288E-03-5.65979E-04-2.20966E-15
 -1      1831 3.04775E-03-6.08095E-04-2.83410E-15
 -1      1832 3.18792E-03-6.09340E-04-3.11677E-15
 -1      1833 2.97371E-03-5.70755E-04-2.71910E-15
 -1      1834 3.32832E-03-6.10146E-04-3.41343E-15
 -1      1835 3.46893E-03-6.10579E-04-3.72395E-15
 -1      1836 3.25518E-03-5.73165E-04-3.28347E-15
 -1      1837 3.60977E-03-6.10714E-04-4.04895E-15
 -1      1838 3.75079E-03-6.10600E-04-4.38877E-15
 -1      1839 3.53731E-03-5.73955E-04-3.90412E-15
 -1      1840 3.89200E-03-6.10287E-04-4.74294E-15
 -1      1841 4.03338E-03-6.09809E-04-5.11249E-15
 -1      1842 3.82005E-03-5.73660E-04-4.58223E-15
 -1      1843 4.17492E-03-6.09198E-04-5.49617E-15
 -1      1844 4.31660E-03-6.08476E-04-5.89429E-15
 -1      1845 4.10335E-03-5.72646E-04-5.31896E-15
 -1      1846 4.45842E-03-6.07659E-04-6.30821E-15
 -1      1847 4.60036E-03-6.06762E-04-6.73660E-15
 -1      1848 4.38713E-03-5.71152E-04-6.11571E-15
 -1      1849 4.74242E-03-6.05789E-04-7.18100E-15
 -1      1850 4.88459E-03-6.04749E-04-7.63995E-15
 -1      1851 4.67134E-03-5.69317E-04-6.97170E-15
 -1      1852 5.02686E-03-6.03635E-04-8.11318E-15
 -1      1853 5.16922E-03-6.02451E-04-8.60190E-15
 -1      1854 4.95592E-03-5.67198E-04-7.88688E-15
 -1      1855 5.31169E-03-6.01184E-04-9.10715E-15
 -1      1856 5.45425E-03-5.99834E-04-9.62655E-15
 -1      1857 5.24085E-03-5.64796E-04-8.86300E-15
 -1      1858 5.59690E-03-5.98384E-04-1.01606E-14
 -1      1859 5.73966E-03-5.96829E-04-1.07099E-14
 -1      1860 5.52612E-03-5.62063E-04-9.89934E-15
 -1      1861 5.88253E-03-5.95148E-04-1.12747E-14
 -1      1862 6.02552E-03-5.93336E-04-1.18558E-14
 -1      1863 5.81174E-03-5.58916E-04-1.09958E-14
 -1      1864 6.16864E-03-5.91368E-04-1.24528E-14
 -1      1865 6.31192E-03-5.89241E-04-1.30639E-14
 -1      1866 6.09777E-03-5.55248E-04-1.21561E-14
 -1      1867 6.45536E-03-5.86928E-04-1.36903E-14
 -1      1868 6.59900E-03-5.84427E-04-1.43328E-14
 -1      1869 6.38430E-03-5.50939E-04-1.33764E-14
 -1      1870 6.74286E-03-5.81714E-04-1.49904E-14
 -1      1871 6.88698E-03-5.78792E-04-1.56606E-14
 -1      1872 6.67147E-03-5.45866E-04-1.46585E-14
 -1      1873 7.03138E-03-5.75638E-04-1.63467E-14
 -1      1874 7.17613E-03-5.72268E-04-1.70476E-14
 -1      1875 6.95946E-03-5.39926E-04-1.59986E-14
 -1      1876 7.32125E-03-5.68666E-04-1.77623E-14
 -1      1877 7.46683E-03-5.64862E-04-1.84898E-14
 -1      1878 7.24853E-03-5.33059E-04-1.73959E-14
 -1      1879 7.61288E-03-5.60857E-04-1.92311E-14
 -1      1880 7.75953E-03-5.56699E-04-1.99858E-14
 -1      1881 7.53898E-03-5.25286E-04-1.88486E-14
 -1      1882 7.90679E-03-5.52420E-04-2.07535E-14
 -1      1883 8.05479E-03-5.48095E-04-2.15355E-14
 -1      1884 7.83119E-03-5.16758E-04-2.03540E-14
 -1      1885 8.20356E-03-5.43799E-04-2.23309E-14
 -1      1886 8.35327E-03-5.39648E-04-2.31392E-14
 -1      1887 8.12565E-03-5.07834E-04-2.19142E-14
 -1      1888 8.50391E-03-5.35784E-04-2.39598E-14
 -1      1889 8.65571E-03-5.32377E-04-2.47920E-14
 -1      1890 8.42287E-03-4.99183E-04-2.35264E-14
 -1      1891 8.80863E-03-5.29665E-04-2.56366E-14
 -1      1892 8.96291E-03-5.27893E-04-2.64922E-14
 -1      1893 8.72349E-03-4.91922E-04-2.51886E-14
 -1      1894 9.11851E-03-5.27430E-04-2.73580E-14
 -1      1895 9.27566E-03-5.28616E-04-2.82320E-14
 -1      1896 9.02818E-03-4.87803E-04-2.68960E-14
 -1      1897 9.43434E-03-5.31994E-04-2.91147E-14
 -1      1898 9.59469E-03-5.38019E-04-3.00056E-14
 -1      1899 9.33767E-03-4.89428E-04-2.86404E-14
 -1      1900 9.75673E-03-5.47429E-04-3.09036E-14
 -1      1901 9.92043E-03-5.60810E-04-3.18089E-14
 -1      1902 9.65271E-03-5.00493E-04-3.04174E-14
 -1      1903 1.00859E-02-5.79070E-04-3.27222E-14
 -1      1904 1.02529E-02-6.02906E-04-3.36421E-14
 -1      1905 9.97406E-03-5.25957E-04-3.22245E-14
 -1      1906 1.04216E-02-6.33265E-04-3.45699E-14
 -1      1907 1.05912E-02-6.70846E-04-3.55054E-14
 -1      1908 1.03023E-02-5.71979E-04-3.40636E-14
 -1      1909 1.07623E-02-7.16330E-04-3.64485E-14
 -1      1910 1.09333E-02-7.70125E-04-3.73994E-14
 -1      1911 1.06377E-02-6.45264E-04-3.59332E-14
 -1      1912 1.11050E-02-8.32129E-04-3.83596E-14
 -1      1913 1.12752E-02-9.01883E-04-3.93284E-14
 -1      1914 1.09793E-02-7.51263E-04-3.78362E-14
 -1      1915 1.14446E-02-9.77861E-04-4.03089E-14
 -1      1916 1.16108E-02-1.05799E-03-4.12995E-14
 -1      1917 1.13240E-02-8.90518E-04-3.97747E-14
 -1      1918 1.17742E-02-1.13892E-03-4.23006E-14
 -1      1919 1.19330E-02-1.21657E-03-4.33154E-14
 -1      1920 1.16655E-02-1.05308E-03-4.17546E-14
 -1      1921 1.20870E-02-1.28628E-03-4.43453E-14
 -1      1922 1.22370E-02-1.34297E-03-4.53875E-14
 -1      1923 1.19953E-02-1.21340E-03-4.37841E-14
 -1      1924 1.23817E-02-1.38243E-03-4.64448E-14
 -1      1925 1.25247E-02-1.40114E-03-4.75173E-14
 -1      1926 1.23078E-02-1.33217E-03-4.58680E-14
 -1      1927 1.26646E-02-1.39743E-03-4.86015E-14
 -1      1928 1.28058E-02-1.37165E-03-4.96982E-14
 -1      1929 1.26065E-02-1.37178E-03-4.80092E-14
 -1      1930 1.29470E-02-1.32553E-03-5.08087E-14
 -1      1931 1.30908E-02-1.26253E-03-5.19324E-14
 -1      1932 1.29028E-02-1.31786E-03-5.02054E-14
 -1      1933 1.32365E-02-1.18633E-03-5.30673E-14
 -1      1934 1.33841E-02-1.10110E-03-5.42115E-14
 -1      1935 1.32067E-02-1.18744E-03-5.24551E-14
 -1      1936 1.35333E-02-1.01018E-03-5.53681E-14
 -1      1937 1.36828E-02-9.16185E-04-5.65328E-14
 -1      1938 1.35186E-02-1.01402E-03-5.47506E-14
 -1      1939 1.38326E-02-8.20868E-04-5.77086E-14
 -1      1940 1.39812E-02-7.24853E-04-5.88948E-14
 -1      1941 1.38316E-02-8.26070E-04-5.70914E-14
 -1      1942 1.41098E-02-6.40310E-04-5.99647E-14
 -1      1943 1.42558E-02-5.42906E-04-6.11662E-14
 -1      1944 1.43774E-02-4.79935E-04-6.15016E-14
 -1      1945 1.41187E-02-6.48255E-04-5.93427E-14
 -1      1946 1.13873E-03 4.80054E-04-1.43318E-16
 -1      1947 9.96941E-04 4.46801E-04-9.34040E-17
 -1      1948 9.64550E-04 4.17344E-04-1.06211E-16
 -1      1949 1.41788E-03 5.31545E-04-2.76228E-16
 -1      1950 1.27871E-03 5.08090E-04-2.04209E-16
 -1      1951 1.24906E-03 4.79950E-04-2.19009E-16
 -1      1952 1.69430E-03 5.67859E-04-4.55080E-16
 -1      1953 1.55625E-03 5.51355E-04-3.59792E-16
 -1      1954 1.52936E-03 5.24179E-04-3.76421E-16
 -1      1955 1.96991E-03 5.93176E-04-6.82722E-16
 -1      1956 1.83211E-03 5.81722E-04-5.62484E-16
 -1      1957 1.80764E-03 5.55183E-04-5.80577E-16
 -1      1958 2.24578E-03 6.10455E-04-9.63178E-16
 -1      1959 2.10777E-03 6.02695E-04-8.16133E-16
 -1      1960 2.08529E-03 5.76560E-04-8.35513E-16
 -1      1961 2.52249E-03 6.21875E-04-1.29694E-15
 -1      1962 2.38401E-03 6.16803E-04-1.12310E-15
 -1      1963 2.36314E-03 5.90915E-04-1.14335E-15
 -1      1964 2.80027E-03 6.29067E-04-1.68831E-15
 -1      1965 2.66124E-03 6.25929E-04-1.48509E-15
 -1      1966 2.64164E-03 6.00181E-04-1.50597E-15
 -1      1967 3.07920E-03 6.33254E-04-2.13753E-15
 -1      1968 2.93959E-03 6.31484E-04-1.90573E-15
 -1      1969 2.92099E-03 6.05806E-04-1.92585E-15
 -1      1970 3.35923E-03 6.35344E-04-2.64357E-15
 -1      1971 3.21908E-03 6.34523E-04-2.38355E-15
 -1      1972 3.20124E-03 6.08870E-04-2.40368E-15
 -1      1973 3.64028E-03 6.35997E-04-3.20801E-15
 -1      1974 3.49964E-03 6.35823E-04-2.91850E-15
 -1      1975 3.48238E-03 6.10167E-04-2.93830E-15
 -1      1976 3.92222E-03 6.35685E-04-3.83119E-15
 -1      1977 3.78115E-03 6.35943E-04-3.51193E-15
 -1      1978 3.76433E-03 6.10270E-04-3.53084E-15
 -1      1979 4.20492E-03 6.34726E-04-4.51368E-15
 -1      1980 4.06348E-03 6.35274E-04-4.16462E-15
 -1      1981 4.04700E-03 6.09578E-04-4.18174E-15
 -1      1982 4.48826E-03 6.33326E-04-5.25995E-15
 -1      1983 4.34652E-03 6.34075E-04-4.87911E-15
 -1      1984 4.33028E-03 6.08353E-04-4.89540E-15
 -1      1985 4.77214E-03 6.31595E-04-6.07225E-15
 -1      1986 4.63014E-03 6.32499E-04-5.65807E-15
 -1      1987 4.61409E-03 6.06755E-04-5.67215E-15
 -1      1988 5.05648E-03 6.29577E-04-6.94856E-15
 -1      1989 4.91426E-03 6.30622E-04-6.50210E-15
 -1      1990 4.89836E-03 6.04861E-04-6.51427E-15
 -1      1991 5.34125E-03 6.27259E-04-7.88987E-15
 -1      1992 5.19882E-03 6.28458E-04-7.41082E-15
 -1      1993 5.18304E-03 6.02684E-04-7.42040E-15
 -1      1994 5.62642E-03 6.24589E-04-8.89619E-15
 -1      1995 5.48378E-03 6.25972E-04-8.38554E-15
 -1      1996 5.46809E-03 6.00190E-04-8.39223E-15
 -1      1997 5.91203E-03 6.21485E-04-9.96325E-15
 -1      1998 5.76917E-03 6.23095E-04-9.42260E-15
 -1      1999 5.75354E-03 5.97310E-04-9.42680E-15
 -1      2000 6.19816E-03 6.17848E-04-1.10856E-14
 -1      2001 6.05502E-03 6.19737E-04-1.05172E-14
 -1      2002 6.03943E-03 5.93947E-04-1.05197E-14
 -1      2003 6.48493E-03 6.13572E-04-1.22645E-14
 -1      2004 6.34145E-03 6.15792E-04-1.16686E-14
 -1      2005 6.32585E-03 5.89995E-04-1.16686E-14
 -1      2006 6.77255E-03 6.08568E-04-1.35005E-14
 -1      2007 6.62862E-03 6.11161E-04-1.28755E-14
 -1      2008 6.61296E-03 5.85348E-04-1.28743E-14
 -1      2009 7.06128E-03 6.02777E-04-1.47885E-14
 -1      2010 6.91675E-03 6.05766E-04-1.41370E-14
 -1      2011 6.90094E-03 5.79920E-04-1.41334E-14
 -1      2012 7.35146E-03 5.96210E-04-1.61274E-14
 -1      2013 7.20616E-03 5.99579E-04-1.54518E-14
 -1      2014 7.19007E-03 5.73673E-04-1.54454E-14
 -1      2015 7.64353E-03 5.88988E-04-1.75195E-14
 -1      2016 7.49722E-03 5.92659E-04-1.68176E-14
 -1      2017 7.48070E-03 5.66653E-04-1.68095E-14
 -1      2018 7.93801E-03 5.81403E-04-1.89588E-14
 -1      2019 7.79042E-03 5.85205E-04-1.82332E-14
 -1      2020 7.77323E-03 5.59037E-04-1.82240E-14
 -1      2021 8.23552E-03 5.74000E-04-2.04447E-14
 -1      2022 8.08634E-03 5.77624E-04-1.96962E-14
 -1      2023 8.06817E-03 5.51209E-04-1.96860E-14
 -1      2024 8.53673E-03 5.67683E-04-2.19747E-14
 -1      2025 8.38561E-03 5.70625E-04-2.12050E-14
 -1      2026 8.36609E-03 5.43849E-04-2.11937E-14
 -1      2027 8.84232E-03 5.63846E-04-2.35491E-14
 -1      2028 8.68892E-03 5.65343E-04-2.27556E-14
 -1      2029 8.66758E-03 5.38048E-04-2.27456E-14
 -1      2030 9.15293E-03 5.64519E-04-2.51687E-14
 -1      2031 8.99694E-03 5.63470E-04-2.43523E-14
 -1      2032 8.97326E-03 5.35456E-04-2.43420E-14
 -1      2033 9.46898E-03 5.72498E-04-2.68391E-14
 -1      2034 9.31024E-03 5.67407E-04-2.59984E-14
 -1      2035 9.28368E-03 5.38421E-04-2.59862E-14
 -1      2036 9.79054E-03 5.91407E-04-2.85590E-14
 -1      2037 9.62908E-03 5.80368E-04-2.76930E-14
 -1      2038 9.59920E-03 5.50113E-04-2.76803E-14
 -1      2039 1.01170E-02 6.25541E-04-3.03282E-14
 -1      2040 9.95325E-03 6.06350E-04-2.94363E-14
 -1      2041 9.91987E-03 5.74517E-04-2.94229E-14
 -1      2042 1.04470E-02 6.79288E-04-3.21490E-14
 -1      2043 1.02818E-02 6.49799E-04-3.12328E-14
 -1      2044 1.02451E-02 6.16148E-04-3.12172E-14
 -1      2045 1.07776E-02 7.55858E-04-3.40178E-14
 -1      2046 1.06125E-02 7.14725E-04-3.30765E-14
 -1      2047 1.05737E-02 6.79240E-04-3.30576E-14
 -1      2048 1.11049E-02 8.55063E-04-3.59417E-14
 -1      2049 1.09421E-02 8.02952E-04-3.49725E-14
 -1      2050 1.09030E-02 7.66087E-04-3.49487E-14
 -1      2051 1.14237E-02 9.70482E-04-3.79280E-14
 -1      2052 1.12659E-02 9.11531E-04-3.69266E-14
 -1      2053 1.12291E-02 8.74446E-04-3.68966E-14
 -1      2054 1.17289E-02 1.08716E-03-3.99840E-14
 -1      2055 1.15784E-02 1.02994E-03-3.89465E-14
 -1      2056 1.15469E-02 9.94528E-04-3.89102E-14
 -1      2057 1.20174E-02 1.18217E-03-4.21084E-14
 -1      2058 1.18752E-02 1.13884E-03-4.10387E-14
 -1      2059 1.18517E-02 1.10726E-03-4.09951E-14
 -1      2060 1.22908E-02 1.23060E-03-4.43034E-14
 -1      2061 1.21555E-02 1.21335E-03-4.31965E-14
 -1      2062 1.21414E-02 1.18699E-03-4.31479E-14
 -1      2063 1.25549E-02 1.21476E-03-4.65600E-14
 -1      2064 1.24232E-02 1.23097E-03-4.54241E-14
 -1      2065 1.24188E-02 1.20964E-03-4.53665E-14
 -1      2066 1.28181E-02 1.13241E-03-4.88774E-14
 -1      2067 1.26859E-02 1.18125E-03-4.77123E-14
 -1      2068 1.26913E-02 1.16332E-03-4.76523E-14
 -1      2069 1.30866E-02 9.95840E-04-5.12562E-14
 -1      2070 1.29513E-02 1.06972E-03-5.00599E-14
 -1      2071 1.29664E-02 1.05328E-03-4.99931E-14
 -1      2072 1.33624E-02 8.24443E-04-5.36920E-14
 -1      2073 1.32236E-02 9.13403E-04-5.24652E-14
 -1      2074 1.32479E-02 8.97296E-04-5.23915E-14
 -1      2075 1.36437E-02 6.35147E-04-5.61833E-14
 -1      2076 1.35026E-02 7.31389E-04-5.49329E-14
 -1      2077 1.35348E-02 7.15437E-04-5.48490E-14
 -1      2078 1.39277E-02 4.37914E-04-5.87075E-14
 -1      2079 1.37856E-02 5.37270E-04-5.74424E-14
 -1      2080 1.38236E-02 5.21790E-04-5.73530E-14
 -1      2081 1.41685E-02 2.70145E-04-6.08071E-14
 -1      2082 1.40261E-02 3.70513E-04-5.95316E-14
 -1      2083 1.40669E-02 3.55433E-04-5.94392E-14
 -1      2084 1.42652E-02 2.20168E-04-6.10877E-14
 -1      2085 1.48165E-02 5.42884E-06-6.12026E-14
 -1      2086 1.46994E-02 4.55799E-05-6.11335E-14
 -1      2087 1.45888E-02 8.82731E-05-6.10633E-14
 -1      2088 1.44839E-02 1.31071E-04-6.09910E-14
 -1      2089 1.45140E-02 1.46731E-04-6.00090E-14
 -1      2090 1.44212E-02 1.54378E-04-6.10744E-14
 -1      2091 1.43239E-02 1.97487E-04-6.10039E-14
 -1      2092 1.42240E-02 2.64987E-04-6.01802E-14
 -1      2093 1.43438E-02 2.17361E-04-6.00173E-14
 -1      2094 1.50620E-02-6.58187E-05-6.13369E-14
 -1      2095 1.49370E-02-3.24619E-05-6.12692E-14
 -1      2096 1.47455E-02 5.71280E-05-6.01483E-14
 -1      2097 1.53168E-02-1.19177E-04-6.14712E-14
 -1      2098 1.51905E-02-9.58096E-05-6.14054E-14
 -1      2099 1.50001E-02-2.48947E-05-6.02839E-14
 -1      2100 1.55395E-02-1.45796E-04-6.16023E-14
 -1      2101 1.54351E-02-1.35944E-04-6.15360E-14
 -1      2102 1.52593E-02-8.93859E-05-6.04172E-14
 -1      2103 1.56810E-02-1.46114E-04-6.17288E-14
 -1      2104 1.56235E-02-1.48062E-04-6.16662E-14
 -1      2105 1.54772E-02-1.26128E-04-6.05489E-14
 -1      2106 1.57020E-02-1.32991E-04-6.18431E-14
 -1      2107 1.57078E-02-1.38924E-04-6.17883E-14
 -1      2108 1.55985E-02-1.36236E-04-6.06756E-14
 -1      2109 1.55973E-02-1.27382E-04-6.19376E-14
 -1      2110 1.56640E-02-1.27161E-04-6.18929E-14
 -1      2111 1.55858E-02-1.37011E-04-6.07897E-14
 -1      2112 1.54030E-02-1.44863E-04-6.20219E-14
 -1      2113 1.55086E-02-1.32518E-04-6.19798E-14
 -1      2114 1.54464E-02-1.52225E-04-6.08870E-14
 -1      2115 1.51605E-02-1.89640E-04-6.20931E-14
 -1      2116 1.52845E-02-1.64317E-04-6.20588E-14
 -1      2117 1.52246E-02-1.94965E-04-6.09702E-14
 -1      2118 1.49134E-02-2.55648E-04-6.21534E-14
 -1      2119 1.50358E-02-2.21040E-04-6.21242E-14
 -1      2120 1.49710E-02-2.63491E-04-6.10407E-14
 -1      2121 1.46832E-02-3.33937E-04-6.22027E-14
 -1      2122 1.47957E-02-2.94213E-04-6.21817E-14
 -1      2123 1.47248E-02-3.46958E-04-6.11048E-14
 -1      2124 1.47169E-02 7.11780E-05-5.24258E-14
 -1      2125 1.48851E-02 4.35057E-06-5.27927E-14
 -1      2126 1.52070E-02-1.18056E-04-5.34688E-14
 -1      2127 1.52083E-02-1.35858E-04-5.35389E-14
 -1      2128 1.50550E-02-5.36504E-05-5.30315E-14
 -1      2129 1.51515E-02-8.51225E-05-5.31806E-14
 -1      2130 1.43462E-02 2.43139E-04-5.16061E-14
 -1      2131 1.45425E-02 1.51368E-04-5.20132E-14
 -1      2132 1.46239E-02 7.80341E-05-5.27282E-14
 -1      2133 1.38701E-02 4.79407E-04-5.05979E-14
 -1      2134 1.40888E-02 3.64979E-04-5.10903E-14
 -1      2135 3.27125E-04-8.89580E-05-6.68953E-17
 -1      2136 3.29244E-04-1.02101E-04-6.49437E-17
 -1      2137 4.46330E-04-1.45074E-04-9.51387E-17
 -1      2138 4.39984E-04-1.09914E-04-1.00180E-16
 -1      2139 1.30412E-02 9.26954E-04-4.78951E-14
 -1      2140 1.32104E-02 8.49630E-04-4.85069E-14
 -1      2141 1.26930E-02 1.01498E-03-4.65398E-14
 -1      2142 1.28524E-02 9.86413E-04-4.71836E-14
 -1      2143 1.23527E-02 9.82410E-04-4.51060E-14
 -1      2144 1.25127E-02 1.01737E-03-4.57970E-14
 -1      2145 1.19386E-02 7.99667E-04-4.36357E-14
 -1      2146 1.21132E-02 8.90248E-04-4.41817E-14
 -1      2147 1.15917E-02 6.03533E-04-4.26845E-14
 -1      2148 1.17678E-02 7.08111E-04-4.31580E-14
 -1      2149 1.18690E-02 7.50692E-04-4.30904E-14
 -1      2150 1.11811E-02 3.71308E-04-4.17370E-14
 -1      2151 1.13624E-02 4.72382E-04-4.21203E-14
 -1      2152 1.08151E-02 1.78918E-04-4.09366E-14
 -1      2153 1.09931E-02 2.70505E-04-4.13344E-14
 -1      2154 1.11099E-02 3.03920E-04-4.10976E-14
 -1      2155 1.04510E-02 3.69425E-05-4.05654E-14
 -1      2156 1.05862E-02 8.35613E-05-4.06488E-14
 -1      2157 1.02837E-02-3.48045E-05-4.03487E-14
 -1      2158 1.03523E-02-4.70943E-06-4.04562E-14
 -1      2159 1.03941E-02-1.32222E-06-4.00263E-14
 -1      2160 1.02595E-02-8.69190E-05-4.04232E-14
 -1      2161 1.02489E-02-6.55529E-05-4.03814E-14
 -1      2162 1.04144E-02-1.62069E-04-4.08292E-14
 -1      2163 1.03259E-02-1.24141E-04-4.05702E-14
 -1      2164 1.06717E-02-2.71325E-04-4.13490E-14
 -1      2165 1.05282E-02-2.12746E-04-4.10881E-14
 -1      2166 1.04739E-02-1.65919E-04-4.05366E-14
 -1      2167 1.10581E-02-4.55826E-04-4.21189E-14
 -1      2168 1.08806E-02-3.62824E-04-4.17159E-14
 -1      2169 1.14540E-02-6.91366E-04-4.31421E-14
 -1      2170 1.12622E-02-5.78006E-04-4.26735E-14
 -1      2171 1.18538E-02-9.35274E-04-4.42814E-14
 -1      2172 1.16705E-02-8.22711E-04-4.37441E-14
 -1      2173 1.22225E-02-1.13272E-03-4.55124E-14
 -1      2174 1.20579E-02-1.04874E-03-4.49322E-14
 -1      2175 1.25610E-02-1.23652E-03-4.68046E-14
 -1      2176 1.24043E-02-1.20018E-03-4.61726E-14
 -1      2177 1.29267E-02-1.20802E-03-4.82491E-14
 -1      2178 1.27695E-02-1.23925E-03-4.76387E-14
 -1      2179 1.32796E-02-1.07028E-03-4.94046E-14
 -1      2180 1.31122E-02-1.14731E-03-4.88535E-14
 -1      2181 1.36743E-02-8.56520E-04-5.05755E-14
 -1      2182 1.34844E-02-9.63880E-04-5.00614E-14
 -1      2183 1.41088E-02-6.13612E-04-5.16331E-14
 -1      2184 1.39031E-02-7.25819E-04-5.11879E-14
 -1      2185 1.45493E-02-4.15068E-04-5.23054E-14
 -1      2186 1.43532E-02-5.06432E-04-5.19649E-14
 -1      2187 1.49085E-02-2.64623E-04-5.28986E-14
 -1      2188 1.47506E-02-3.24990E-04-5.26663E-14
 -1      2189 1.51445E-02-1.72643E-04-5.33297E-14
 -1      2190 1.50476E-02-2.08123E-04-5.31543E-14
 -1      2191 1.34055E-02 7.46150E-04-4.92121E-14
 -1      2192 1.35976E-02 6.31034E-04-4.98399E-14
 -1      2193 1.42079E-02 2.69037E-04-5.17900E-14
 -1      2194 6.07926E-04-2.98102E-04-1.01102E-16
 -1      2195 1.32742E-02 7.96848E-04-4.90338E-14
 -1      2196 6.63646E-04-2.92386E-04-1.36271E-16
 -1      2197 1.49711E-02-4.30235E-05-5.33888E-14
 -1      2198 1.51917E-02-1.12392E-04-5.39225E-14
 -1      2199 1.45543E-02-3.94601E-04-6.18663E-14
 -1      2200 1.51904E-02-1.45426E-04-5.40027E-14
 -1      2201 1.37062E-02 5.41336E-04-5.05053E-14
 -1      2202 1.49778E-02-2.14977E-04-5.35356E-14
 -1      2203 1.46394E-02-3.43311E-04-5.29115E-14
 -1      2204 1.42036E-02-5.36669E-04-5.22101E-14
 -1      2205 1.37608E-02-7.74168E-04-5.12546E-14
 -1      2206 1.33560E-02-1.01361E-03-4.99787E-14
 -1      2207 1.29994E-02-1.18436E-03-4.87131E-14
 -1      2208 1.26593E-02-1.25138E-03-4.72681E-14
 -1      2209 1.23229E-02-1.17496E-03-4.57762E-14
 -1      2210 1.19764E-02-9.91401E-04-4.44684E-14
 -1      2211 1.15856E-02-7.43969E-04-4.32209E-14
 -1      2212 1.07841E-02-2.92697E-04-4.11571E-14
 -1      2213 1.02574E-02-5.22211E-05-3.99531E-14
 -1      2214 1.07019E-02 1.11557E-04-4.04160E-14
 -1      2215 1.08093E-02 1.49947E-04-4.01802E-14
 -1      2216 1.05992E-02 6.53376E-05-3.99001E-14
 -1      2217 1.15033E-02 5.29671E-04-4.20538E-14
 -1      2218 1.22345E-02 9.45775E-04-4.44831E-14
 -1      2219 1.29260E-02 9.64380E-04-4.76125E-14
 -1      2220 1.25982E-02 1.02861E-03-4.61552E-14
 -1      2221 1.02847E-02-9.76834E-05-4.01329E-14
 -1      2222 1.11820E-02-4.94848E-04-4.20705E-14
 -1      2223 1.01666E-03 3.99781E-04-1.55447E-16
 -1      2224 8.72183E-04 3.63397E-04-1.06509E-16
 -1      2225 5.47754E-04-5.52865E-05-1.45310E-16
 -1      2226 5.48795E-04-7.19989E-05-1.45866E-16
 -1      2227 5.50219E-04-8.93158E-05-1.46042E-16
 -1      2228 5.52097E-04-1.07288E-04-1.45432E-16
 -1      2229 6.65258E-04-9.54726E-05-1.98287E-16
 -1      2230 5.46366E-04 8.85545E-06-1.38154E-16
 -1      2231 5.46346E-04-6.97858E-06-1.40472E-16
 -1      2232 5.47123E-04 4.08597E-05-1.31771E-16
 -1      2233 5.46621E-04 2.47885E-05-1.35186E-16
 -1      2234 6.61295E-04 1.99275E-05-1.86036E-16
 -1      2235 5.48956E-04 7.34752E-05-1.23789E-16
 -1      2236 5.47889E-04 5.69859E-05-1.28207E-16
 -1      2237 6.62625E-04 5.77770E-05-1.77416E-16
 -1      2238 5.52360E-04 1.08942E-04-1.12974E-16
 -1      2239 5.50430E-04 9.08700E-05-1.18612E-16
 -1      2240 6.65496E-04 9.72396E-05-1.66208E-16
 -1      2241 5.58255E-04 1.48274E-04-9.87031E-17
 -1      2242 5.54929E-04 1.28050E-04-1.06374E-16
 -1      2243 6.70603E-04 1.40006E-04-1.51341E-16
 -1      2244 5.68599E-04 1.93870E-04-8.03936E-17
 -1      2245 5.62752E-04 1.70153E-04-9.03411E-17
 -1      2246 6.79271E-04 1.87547E-04-1.32354E-16
 -1      2247 1.30214E-03 4.56726E-04-2.85403E-16
 -1      2248 1.15981E-03 4.30782E-04-2.14835E-16
 -1      2249 1.07183E-03 3.81301E-04-2.08086E-16
 -1      2250 9.15234E-04-3.46355E-04-2.62526E-16
 -1      2251 1.05932E-03-3.79652E-04-3.45996E-16
 -1      2252 1.31463E-02 8.54445E-04-4.88545E-14
 -1      2253 1.33080E-02 7.55859E-04-4.95651E-14
 -1      2254 1.20262E-03-4.08046E-04-4.41907E-16
 -1      2255 1.34543E-03-4.31934E-04-5.50504E-16
 -1      2256 1.11699E-03-3.60408E-04-4.04136E-16
 -1      2257 1.48760E-03-4.52156E-04-6.71555E-16
 -1      2258 1.62939E-03-4.68999E-04-8.05684E-16
 -1      2259 1.40337E-03-4.07260E-04-6.23172E-16
 -1      2260 1.77082E-03-4.83134E-04-9.52417E-16
 -1      2261 1.91201E-03-4.94782E-04-1.11217E-15
 -1      2262 1.68849E-03-4.40501E-04-8.92163E-16
 -1      2263 2.05304E-03-5.04436E-04-1.28497E-15
 -1      2264 2.19397E-03-5.12270E-04-1.47111E-15
 -1      2265 1.97269E-03-4.63562E-04-1.21242E-15
 -1      2266 2.33488E-03-5.18646E-04-1.67011E-15
 -1      2267 2.47577E-03-5.23707E-04-1.88302E-15
 -1      2268 2.25634E-03-4.79088E-04-1.58445E-15
 -1      2269 2.61672E-03-5.27717E-04-2.10991E-15
 -1      2270 2.75772E-03-5.30789E-04-2.35009E-15
 -1      2271 2.53975E-03-4.89112E-04-2.01019E-15
 -1      2272 2.89882E-03-5.33117E-04-2.60409E-15
 -1      2273 3.04000E-03-5.34789E-04-2.87223E-15
 -1      2274 2.82318E-03-4.95188E-04-2.49017E-15
 -1      2275 3.18131E-03-5.35945E-04-3.15396E-15
 -1      2276 3.32270E-03-5.36651E-04-3.44993E-15
 -1      2277 3.10675E-03-4.98482E-04-3.02534E-15
 -1      2278 3.46422E-03-5.37007E-04-3.75980E-15
 -1      2279 3.60584E-03-5.37062E-04-4.08388E-15
 -1      2280 3.39054E-03-4.99860E-04-3.61613E-15
 -1      2281 3.74758E-03-5.36883E-04-4.42253E-15
 -1      2282 3.88941E-03-5.36508E-04-4.77591E-15
 -1      2283 3.67459E-03-4.99946E-04-4.26406E-15
 -1      2284 4.03134E-03-5.35977E-04-5.14308E-15
 -1      2285 4.17336E-03-5.35318E-04-5.52587E-15
 -1      2286 3.95891E-03-4.99179E-04-4.96874E-15
 -1      2287 4.31548E-03-5.34554E-04-5.92396E-15
 -1      2288 4.45768E-03-5.33702E-04-6.33616E-15
 -1      2289 4.24347E-03-4.97853E-04-5.73273E-15
 -1      2290 4.59996E-03-5.32772E-04-6.76336E-15
 -1      2291 4.74231E-03-5.31773E-04-7.20591E-15
 -1      2292 4.52827E-03-4.96146E-04-6.55617E-15
 -1      2293 4.88473E-03-5.30706E-04-7.66260E-15
 -1      2294 5.02723E-03-5.29573E-04-8.13349E-15
 -1      2295 4.81329E-03-4.94150E-04-7.43830E-15
 -1      2296 5.16979E-03-5.28366E-04-8.61950E-15
 -1      2297 5.31242E-03-5.27086E-04-9.12222E-15
 -1      2298 5.09851E-03-4.91890E-04-8.37972E-15
 -1      2299 5.45512E-03-5.25715E-04-9.63971E-15
 -1      2300 5.59789E-03-5.24252E-04-1.01715E-14
 -1      2301 5.38393E-03-4.89337E-04-9.38083E-15
 -1      2302 5.74074E-03-5.22676E-04-1.07193E-14
 -1      2303 5.88367E-03-5.20980E-04-1.12820E-14
 -1      2304 5.66956E-03-4.86422E-04-1.04437E-14
 -1      2305 6.02668E-03-5.19142E-04-1.18607E-14
 -1      2306 6.16980E-03-5.17156E-04-1.24555E-14
 -1      2307 5.95543E-03-4.83045E-04-1.15683E-14
 -1      2308 6.31302E-03-5.14995E-04-1.30657E-14
 -1      2309 6.45637E-03-5.12653E-04-1.36897E-14
 -1      2310 6.24158E-03-4.79088E-04-1.27549E-14
 -1      2311 6.59984E-03-5.10106E-04-1.43281E-14
 -1      2312 6.74348E-03-5.07350E-04-1.49829E-14
 -1      2313 6.52807E-03-4.74422E-04-1.40015E-14
 -1      2314 6.88729E-03-5.04363E-04-1.56522E-14
 -1      2315 7.03131E-03-5.01146E-04-1.63344E-14
 -1      2316 6.81498E-03-4.68928E-04-1.53071E-14
 -1      2317 7.17554E-03-4.97685E-04-1.70327E-14
 -1      2318 7.32004E-03-4.93991E-04-1.77441E-14
 -1      2319 7.10245E-03-4.62512E-04-1.66709E-14
 -1      2320 7.46481E-03-4.90062E-04-1.84687E-14
 -1      2321 7.60993E-03-4.85924E-04-1.92071E-14
 -1      2322 7.39059E-03-4.55137E-04-1.80900E-14
 -1      2323 7.75538E-03-4.81596E-04-1.99570E-14
 -1      2324 7.90128E-03-4.77126E-04-2.07218E-14
 -1      2325 7.67961E-03-4.46862E-04-1.95624E-14
 -1      2326 8.04759E-03-4.72569E-04-2.15006E-14
 -1      2327 8.19445E-03-4.68003E-04-2.22918E-14
 -1      2328 7.96970E-03-4.37903E-04-2.10885E-14
 -1      2329 8.34183E-03-4.63537E-04-2.30969E-14
 -1      2330 8.48988E-03-4.59291E-04-2.39142E-14
 -1      2331 8.26114E-03-4.28710E-04-2.26684E-14
 -1      2332 8.63856E-03-4.55450E-04-2.47433E-14
 -1      2333 8.78806E-03-4.52195E-04-2.55844E-14
 -1      2334 8.55424E-03-4.20078E-04-2.43007E-14
 -1      2335 8.93834E-03-4.49816E-04-2.64351E-14
 -1      2336 9.08961E-03-4.48579E-04-2.72973E-14
 -1      2337 8.84942E-03-4.13284E-04-2.59778E-14
 -1      2338 9.24184E-03-4.48906E-04-2.81682E-14
 -1      2339 9.39525E-03-4.51182E-04-2.90462E-14
 -1      2340 9.14726E-03-4.10267E-04-2.76974E-14
 -1      2341 9.54990E-03-4.55977E-04-2.99349E-14
 -1      2342 9.70595E-03-4.63843E-04-3.08287E-14
 -1      2343 9.44860E-03-4.13837E-04-2.94523E-14
 -1      2344 9.86360E-03-4.75489E-04-3.17311E-14
 -1      2345 1.00229E-02-4.91676E-04-3.26409E-14
 -1      2346 9.75471E-03-4.27895E-04-3.12383E-14
 -1      2347 1.01843E-02-5.13184E-04-3.35587E-14
 -1      2348 1.03476E-02-5.41005E-04-3.44852E-14
 -1      2349 1.00675E-02-4.57618E-04-3.30555E-14
 -1      2350 1.05136E-02-5.75823E-04-3.54198E-14
 -1      2351 1.06816E-02-6.18750E-04-3.63616E-14
 -1      2352 1.03895E-02-5.09491E-04-3.49054E-14
 -1      2353 1.08526E-02-6.70081E-04-3.73109E-14
 -1      2354 1.10252E-02-7.30630E-04-3.82713E-14
 -1      2355 1.07237E-02-5.90853E-04-3.67880E-14
 -1      2356 1.12006E-02-7.99853E-04-3.92400E-14
 -1      2357 1.13762E-02-8.77219E-04-4.02189E-14
 -1      2358 1.10719E-02-7.08294E-04-3.87060E-14
 -1      2359 1.15527E-02-9.60690E-04-4.12101E-14
 -1      2360 1.17271E-02-1.04712E-03-4.22116E-14
 -1      2361 1.14318E-02-8.63052E-04-4.06629E-14
 -1      2362 1.18990E-02-1.13285E-03-4.32232E-14
 -1      2363 1.20668E-02-1.21080E-03-4.42499E-14
 -1      2364 1.17939E-02-1.04255E-03-4.26649E-14
 -1      2365 1.22290E-02-1.27626E-03-4.52903E-14
 -1      2366 1.23880E-02-1.32186E-03-4.63458E-14
 -1      2367 1.21435E-02-1.21043E-03-4.47137E-14
 -1      2368 1.25423E-02-1.34401E-03-4.74184E-14
 -1      2369 1.26971E-02-1.33983E-03-4.85037E-14
 -1      2370 1.24737E-02-1.31043E-03-4.68235E-14
 -1      2371 1.28508E-02-1.30959E-03-4.95992E-14
 -1      2372 1.30086E-02-1.25750E-03-5.07122E-14
 -1      2373 1.27951E-02-1.30071E-03-4.89930E-14
 -1      2374 1.31688E-02-1.18671E-03-5.18412E-14
 -1      2375 1.33320E-02-1.10431E-03-5.29815E-14
 -1      2376 1.31256E-02-1.18649E-03-5.12230E-14
 -1      2377 1.34973E-02-1.01399E-03-5.41315E-14
 -1      2378 1.36623E-02-9.20671E-04-5.52935E-14
 -1      2379 1.34703E-02-1.01225E-03-5.35079E-14
 -1      2380 1.38268E-02-8.26554E-04-5.64668E-14
 -1      2381 1.39880E-02-7.32835E-04-5.76494E-14
 -1      2382 1.38176E-02-8.22909E-04-5.58398E-14
 -1      2383 1.86535E-03 5.25247E-04-6.82790E-16
 -1      2384 1.72511E-03 5.12494E-04-5.65574E-16
 -1      2385 2.14544E-03 5.44532E-04-9.56578E-16
 -1      2386 2.00544E-03 5.35866E-04-8.13003E-16
 -1      2387 1.92465E-03 4.94629E-04-7.88391E-16
 -1      2388 2.42551E-03 5.57328E-04-1.28296E-15
 -1      2389 2.28546E-03 5.51636E-04-1.11292E-15
 -1      2390 2.20676E-03 5.11896E-04-1.08033E-15
 -1      2391 2.70592E-03 5.65438E-04-1.66459E-15
 -1      2392 2.56567E-03 5.61887E-04-1.46693E-15
 -1      2393 2.48870E-03 5.23213E-04-1.42543E-15
 -1      2394 2.98689E-03 5.70216E-04-2.10368E-15
 -1      2395 2.84634E-03 5.68181E-04-1.87662E-15
 -1      2396 2.77079E-03 5.30250E-04-1.82578E-15
 -1      2397 3.26849E-03 5.72669E-04-2.59923E-15
 -1      2398 3.12762E-03 5.71686E-04-2.34464E-15
 -1      2399 3.05320E-03 5.34259E-04-2.28333E-15
 -1      2400 3.55072E-03 5.73531E-04-3.15220E-15
 -1      2401 3.40954E-03 5.73264E-04-2.86839E-15
 -1      2402 3.33601E-03 5.36170E-04-2.79740E-15
 -1      2403 3.83355E-03 5.73329E-04-3.76241E-15
 -1      2404 3.69207E-03 5.73538E-04-3.44986E-15
 -1      2405 3.61924E-03 5.36657E-04-3.36791E-15
 -1      2406 4.11692E-03 5.72422E-04-4.43188E-15
 -1      2407 3.97518E-03 5.72946E-04-4.08931E-15
 -1      2408 3.90288E-03 5.36199E-04-3.99565E-15
 -1      2409 4.40076E-03 5.71044E-04-5.16382E-15
 -1      2410 4.25879E-03 5.71781E-04-4.79038E-15
 -1      2411 4.18690E-03 5.35119E-04-4.68397E-15
 -1      2412 4.68502E-03 5.69329E-04-5.95976E-15
 -1      2413 4.54284E-03 5.70222E-04-5.55353E-15
 -1      2414 4.47126E-03 5.33620E-04-5.43462E-15
 -1      2415 4.96964E-03 5.67333E-04-6.81948E-15
 -1      2416 4.82729E-03 5.68364E-04-6.38163E-15
 -1      2417 4.75594E-03 5.31813E-04-6.24835E-15
 -1      2418 5.25460E-03 5.65056E-04-7.74455E-15
 -1      2419 5.11208E-03 5.66230E-04-7.27412E-15
 -1      2420 5.04089E-03 5.29737E-04-7.12683E-15
 -1      2421 5.53989E-03 5.62448E-04-8.73294E-15
 -1      2422 5.39721E-03 5.63796E-04-8.23053E-15
 -1      2423 5.32611E-03 5.27375E-04-8.07030E-15
 -1      2424 5.82554E-03 5.59430E-04-9.78368E-15
 -1      2425 5.68267E-03 5.60994E-04-9.25094E-15
 -1      2426 5.61160E-03 5.24668E-04-9.07594E-15
 -1      2427 6.11159E-03 5.55898E-04-1.08922E-14
 -1      2428 5.96851E-03 5.57733E-04-1.03305E-14
 -1      2429 5.89739E-03 5.21527E-04-1.01420E-14
 -1      2430 6.39813E-03 5.51739E-04-1.20568E-14
 -1      2431 6.25479E-03 5.53901E-04-1.14674E-14
 -1      2432 6.18353E-03 5.17841E-04-1.12662E-14
 -1      2433 6.68530E-03 5.46845E-04-1.32781E-14
 -1      2434 6.54163E-03 5.49386E-04-1.26598E-14
 -1      2435 6.47009E-03 5.13493E-04-1.24463E-14
 -1      2436 6.97328E-03 5.41131E-04-1.45516E-14
 -1      2437 6.82917E-03 5.44090E-04-1.39082E-14
 -1      2438 6.75720E-03 5.08376E-04-1.36822E-14
 -1      2439 7.26230E-03 5.34568E-04-1.58771E-14
 -1      2440 7.11764E-03 5.37951E-04-1.52078E-14
 -1      2441 7.04499E-03 5.02410E-04-1.49706E-14
 -1      2442 7.55266E-03 5.27218E-04-1.72580E-14
 -1      2443 7.40728E-03 5.30979E-04-1.65616E-14
 -1      2444 7.33367E-03 4.95575E-04-1.63123E-14
 -1      2445 7.84471E-03 5.19289E-04-1.86847E-14
 -1      2446 7.69843E-03 5.23302E-04-1.79655E-14
 -1      2447 7.62346E-03 4.87954E-04-1.77060E-14
 -1      2448 8.13887E-03 5.11212E-04-2.01614E-14
 -1      2449 7.99148E-03 5.15230E-04-1.94178E-14
 -1      2450 7.91468E-03 4.79787E-04-1.91480E-14
 -1      2451 8.43563E-03 5.03734E-04-2.16848E-14
 -1      2452 8.28688E-03 5.07338E-04-2.09168E-14
 -1      2453 8.20766E-03 4.71550E-04-2.06393E-14
 -1      2454 8.73552E-03 4.98043E-04-2.32505E-14
 -1      2455 8.58513E-03 5.00576E-04-2.24605E-14
 -1      2456 8.50281E-03 4.64053E-04-2.21760E-14
 -1      2457 9.03908E-03 4.95911E-04-2.48623E-14
 -1      2458 8.88679E-03 4.96406E-04-2.40513E-14
 -1      2459 8.80062E-03 4.58568E-04-2.37576E-14
 -1      2460 9.34689E-03 4.99842E-04-2.65223E-14
 -1      2461 9.19242E-03 4.96947E-04-2.56853E-14
 -1      2462 9.10166E-03 4.56968E-04-2.53849E-14
 -1      2463 9.65945E-03 5.13180E-04-2.82312E-14
 -1      2464 9.50257E-03 5.05113E-04-2.73708E-14
 -1      2465 9.40660E-03 4.61875E-04-2.70604E-14
 -1      2466 9.97712E-03 5.40083E-04-2.99868E-14
 -1      2467 9.81769E-03 5.24669E-04-2.91033E-14
 -1      2468 9.71623E-03 4.76759E-04-2.87818E-14
 -1      2469 1.02999E-02 5.85197E-04-3.17936E-14
 -1      2470 1.01380E-02 5.60084E-04-3.08832E-14
 -1      2471 1.00314E-02 5.05913E-04-3.05513E-14
 -1      2472 1.06273E-02 6.52776E-04-3.36444E-14
 -1      2473 1.04633E-02 6.15961E-04-3.27128E-14
 -1      2474 1.03529E-02 5.54122E-04-3.23685E-14
 -1      2475 1.09576E-02 7.44899E-04-3.55467E-14
 -1      2476 1.07925E-02 6.95781E-04-3.45891E-14
 -1      2477 1.06811E-02 6.25782E-04-3.42309E-14
 -1      2478 1.12870E-02 8.58554E-04-3.75079E-14
 -1      2479 1.11229E-02 7.99487E-04-3.65206E-14
 -1      2480 1.10147E-02 7.22960E-04-3.61439E-14
 -1      2481 1.16105E-02 9.82350E-04-3.95354E-14
 -1      2482 1.14501E-02 9.20299E-04-3.85126E-14
 -1      2483 1.13501E-02 8.42120E-04-3.81177E-14
 -1      2484 1.19222E-02 1.09464E-03-4.16326E-14
 -1      2485 1.17681E-02 1.04174E-03-4.05748E-14
 -1      2486 1.16808E-02 9.70178E-04-4.01599E-14
 -1      2487 1.22195E-02 1.16692E-03-4.37972E-14
 -1      2488 1.20722E-02 1.13759E-03-4.27060E-14
 -1      2489 1.19998E-02 1.08188E-03-4.22679E-14
 -1      2490 1.25066E-02 1.17462E-03-4.60303E-14
 -1      2491 1.23634E-02 1.17989E-03-4.49059E-14
 -1      2492 1.23045E-02 1.14525E-03-4.44453E-14
 -1      2493 1.27914E-02 1.10919E-03-4.83230E-14
 -1      2494 1.26482E-02 1.15066E-03-4.71695E-14
 -1      2495 1.26006E-02 1.13540E-03-4.66898E-14
 -1      2496 1.30817E-02 9.81682E-04-5.06780E-14
 -1      2497 1.29355E-02 1.05185E-03-4.94938E-14
 -1      2498 1.28985E-02 1.04885E-03-4.89951E-14
 -1      2499 1.33784E-02 8.14252E-04-5.30850E-14
 -1      2500 1.32294E-02 9.01476E-04-5.18744E-14
 -1      2501 1.32044E-02 9.03835E-04-5.13588E-14
 -1      2502 1.36777E-02 6.27472E-04-5.55510E-14
 -1      2503 1.35282E-02 7.22317E-04-5.43115E-14
 -1      2504 1.35161E-02 7.26678E-04-5.37777E-14
 -1      2505 1.39746E-02 4.33160E-04-5.80564E-14
 -1      2506 1.38268E-02 5.31008E-04-5.67995E-14
 -1      2507 1.38266E-02 5.37373E-04-5.62475E-14
 -1      2508 1.41238E-02 3.32268E-04-5.93581E-14
 -1      2509 1.49358E-02 4.09964E-06-5.92316E-14
 -1      2510 1.48007E-02 5.03517E-05-5.91649E-14
 -1      2511 1.52024E-02-7.34106E-05-5.93649E-14
 -1      2512 1.50719E-02-3.83543E-05-5.92990E-14
 -1      2513 1.48722E-02 2.18774E-05-5.81840E-14
 -1      2514 1.44353E-02 1.99980E-04-5.89580E-14
 -1      2515 1.43269E-02 2.49431E-04-5.88832E-14
 -1      2516 1.46716E-02 1.00044E-04-5.90988E-14
 -1      2517 1.45500E-02 1.49338E-04-5.90285E-14
 -1      2518 1.43516E-02 2.46992E-04-5.79103E-14
 -1      2519 1.45958E-02 1.33005E-04-5.80504E-14
 -1      2520 1.54176E-02-1.18800E-04-5.94973E-14
 -1      2521 1.53210E-02-1.00145E-04-5.94318E-14
 -1      2522 1.51503E-02-6.71232E-05-5.83193E-14
 -1      2523 1.55171E-02-1.34763E-04-5.96243E-14
 -1      2524 1.54858E-02-1.28289E-04-5.95598E-14
 -1      2525 1.53631E-02-1.16746E-04-5.84496E-14
 -1      2526 1.54642E-02-1.45892E-04-5.97350E-14
 -1      2527 1.55094E-02-1.37448E-04-5.96803E-14
 -1      2528 1.54330E-02-1.35512E-04-5.85727E-14
 -1      2529 1.52852E-02-1.80996E-04-5.98314E-14
 -1      2530 1.53866E-02-1.58820E-04-5.97863E-14
 -1      2531 1.53323E-02-1.58983E-04-5.86836E-14
 -1      2532 1.50349E-02-2.49992E-04-5.99210E-14
 -1      2533 1.51643E-02-2.11886E-04-5.98795E-14
 -1      2534 1.51078E-02-2.18265E-04-5.87853E-14
 -1      2535 1.47733E-02-3.41815E-04-5.99968E-14
 -1      2536 1.49029E-02-2.94604E-04-5.99610E-14
 -1      2537 1.48341E-02-3.14442E-04-5.88790E-14
 -1      2538 1.45321E-02-4.41221E-04-6.00649E-14
 -1      2539 1.46496E-02-3.91920E-04-6.00312E-14
 -1      2540 1.45705E-02-4.27687E-04-5.89615E-14
 -1      2541 1.51608E-02-1.07253E-04-5.43454E-14
 -1      2542 1.52216E-02-1.20188E-04-5.46369E-14
 -1      2543 1.49039E-02-3.91178E-05-5.38777E-14
 -1      2544 1.50614E-02-8.05118E-05-5.41262E-14
 -1      2545 1.52280E-02-1.37877E-04-5.48687E-14
 -1      2546 1.51590E-02-1.51495E-04-5.46612E-14
 -1      2547 1.58458E-03 4.97060E-04-4.60257E-16
 -1      2548 1.44364E-03 4.78731E-04-3.66948E-16
 -1      2549 1.64191E-03 4.69205E-04-5.47549E-16
 -1      2550 1.44251E-02-4.77155E-04-6.07755E-14
 -1      2551 1.45196E-02 9.96813E-05-5.30604E-14
 -1      2552 1.46847E-02 3.47987E-05-5.34800E-14
 -1      2553 5.88533E-04-2.37950E-04-1.25198E-16
 -1      2554 7.81348E-04-3.04803E-04-1.99602E-16
 -1      2555 8.40791E-04-2.93571E-04-2.43647E-16
 -1      2556 5.78990E-04-2.10155E-04-1.32490E-16
 -1      2557 1.35680E-02 5.99773E-04-5.05560E-14
 -1      2558 1.38035E-02 4.56369E-04-5.13248E-14
 -1      2559 1.02322E-02-6.05602E-05-3.94212E-14
 -1      2560 1.02639E-02-4.75164E-05-3.93866E-14
 -1      2561 1.21340E-02 9.04937E-04-4.38439E-14
 -1      2562 1.23282E-02 9.92810E-04-4.47657E-14
 -1      2563 5.46561E-04-2.28949E-05-1.42464E-16
 -1      2564 5.47021E-04-3.89323E-05-1.44280E-16
 -1      2565 6.62477E-04-5.58047E-05-1.96566E-16
 -1      2566 6.61243E-04-1.77013E-05-1.92419E-16
 -1      2567 1.25400E-02 1.03422E-03-4.58522E-14
 -1      2568 1.26830E-02 1.02892E-03-4.65977E-14
 -1      2569 1.03080E-02-9.86149E-05-3.96666E-14
 -1      2570 1.02460E-02-7.96767E-05-3.95210E-14
 -1      2571 1.28366E-02 9.95783E-04-4.73607E-14
 -1      2572 1.29849E-02 9.35946E-04-4.80771E-14
 -1      2573 1.30485E-02 9.01893E-04-4.85997E-14
 -1      2574 1.27587E-02 1.01649E-03-4.70535E-14
 -1      2575 1.17827E-02 6.98037E-04-4.24658E-14
 -1      2576 1.19185E-02 7.86032E-04-4.29373E-14
 -1      2577 1.14003E-02 4.60233E-04-4.13475E-14
 -1      2578 1.15967E-02 5.82306E-04-4.19027E-14
 -1      2579 1.16549E-02 6.32004E-04-4.17490E-14
 -1      2580 1.10632E-02 2.72919E-04-4.05540E-14
 -1      2581 1.12331E-02 3.63698E-04-4.09496E-14
 -1      2582 1.13251E-02 4.26502E-04-4.07963E-14
 -1      2583 1.03384E-02-2.16877E-05-3.93228E-14
 -1      2584 1.04275E-02 3.46821E-06-3.94275E-14
 -1      2585 1.13051E-02-5.50353E-04-4.20511E-14
 -1      2586 1.11161E-02-4.41170E-04-4.15024E-14
 -1      2587 1.05293E-02-1.72588E-04-4.01990E-14
 -1      2588 1.04211E-02-1.36849E-04-3.99438E-14
 -1      2589 1.08804E-02-3.19791E-04-4.09147E-14
 -1      2590 1.06927E-02-2.38031E-04-4.05546E-14
 -1      2591 1.06094E-02-2.02901E-04-3.99579E-14
 -1      2592 1.16842E-02-7.93318E-04-4.32372E-14
 -1      2593 1.14944E-02-6.67834E-04-4.26410E-14
 -1      2594 1.13998E-02-6.09121E-04-4.20668E-14
 -1      2595 1.20698E-02-1.04497E-03-4.46099E-14
 -1      2596 1.19018E-02-9.34387E-04-4.39624E-14
 -1      2597 1.23665E-02-1.20120E-03-4.59133E-14
 -1      2598 1.22250E-02-1.13252E-03-4.52571E-14
 -1      2599 1.21283E-02-1.08502E-03-4.47443E-14
 -1      2600 1.27345E-02-1.25701E-03-4.77475E-14
 -1      2601 1.25708E-02-1.25546E-03-4.69113E-14
 -1      2602 1.30824E-02-1.14665E-03-4.93192E-14
 -1      2603 1.29375E-02-1.20959E-03-4.87089E-14
 -1      2604 1.34203E-02-9.58156E-04-5.06365E-14
 -1      2605 1.32480E-02-1.06256E-03-4.99743E-14
 -1      2606 1.31696E-02-1.10156E-03-4.99674E-14
 -1      2607 1.38308E-02-7.10163E-04-5.19596E-14
 -1      2608 1.36288E-02-8.33298E-04-5.13387E-14
 -1      2609 1.43351E-02-4.48166E-04-5.29987E-14
 -1      2610 1.41221E-02-5.51959E-04-5.26556E-14
 -1      2611 1.47226E-02-2.85830E-04-5.37322E-14
 -1      2612 1.45331E-02-3.60406E-04-5.33630E-14
 -1      2613 1.44526E-02-3.88521E-04-5.38085E-14
 -1      2614 1.50389E-02-1.85804E-04-5.42336E-14
 -1      2615 1.49033E-02-2.24070E-04-5.39724E-14
 -1      2616 7.57935E-04 3.34193E-04-7.19097E-17
 -1      2617 6.11511E-04 2.84834E-04-4.14301E-17
 -1      2618 5.84783E-04 2.58064E-04-4.83961E-17
 -1      2619 8.13756E-04 3.22864E-04-1.09504E-16
 -1      2620 1.40722E-02 3.11249E-04-5.20051E-14
 -1      2621 1.43008E-02 1.97720E-04-5.25323E-14
 -1      2622 1.43926E-02 1.49377E-04-5.32785E-14
 -1      2623 1.20268E-02 8.60646E-04-4.32078E-14
 -1      2624 6.70221E-04-1.37924E-04-1.96756E-16
 -1      2625 5.54593E-04-1.26183E-04-1.43847E-16
 -1      2626 5.57754E-04-1.46167E-04-1.41529E-16
 -1      2627 1.35787E-03 4.32709E-04-3.54954E-16
 -1      2628 5.72276E-04 2.27867E-04-6.24636E-17
 -1      2629 1.39257E-02 3.84298E-04-5.20601E-14
 -1      2630 1.34336E-02 6.77041E-04-5.03745E-14
 -1      2631 1.48185E-02-1.36231E-05-5.42124E-14
 -1      2632 1.41325E-02 3.41868E-04-5.87960E-14
 -1      2633 1.41912E-02 3.16131E-04-5.87185E-14
 -1      2634 1.52617E-02-1.27067E-04-5.57094E-14
 -1      2635 1.52549E-02-1.30317E-04-5.52879E-14
 -1      2636 1.52655E-02-1.35597E-04-5.59443E-14
 -1      2637 1.51228E-02-9.81563E-05-5.48370E-14
 -1      2638 1.48169E-02-2.48936E-04-5.44217E-14
 -1      2639 1.51179E-02-1.63024E-04-5.50945E-14
 -1      2640 6.89559E-04 2.51217E-04-9.98008E-17
 -1      2641 5.71849E-04-1.85181E-04-1.37829E-16
 -1      2642 1.35158E-02-8.97609E-04-5.13297E-14
 -1      2643 1.02192E-02-6.76326E-05-3.89552E-14
 -1      2644 1.02757E-02-3.47442E-05-3.87905E-14
 -1      2645 1.24606E-02-1.23732E-03-4.63808E-14
 -1      2646 1.09923E-02-3.77684E-04-4.08942E-14
 -1      2647 1.17870E-02-8.62592E-04-4.33756E-14
 -1      2648 1.23117E-02 1.00134E-03-4.45494E-14
 -1      2649 1.24214E-02 1.02412E-03-4.51996E-14
 -1      2650 1.25002E-02 1.03993E-03-4.56357E-14
 -1      2651 1.05064E-02 3.49796E-05-3.91922E-14
 -1      2652 1.03404E-02-1.09741E-04-3.93296E-14
 -1      2653 1.09292E-02 2.07483E-04-4.00340E-14
 -1      2654 1.10314E-02 2.71349E-04-3.98821E-14
 -1      2655 1.08025E-02 1.56958E-04-3.95150E-14
 -1      2656 1.42291E-02-5.90287E-04-5.95288E-14
 -1      2657 1.44094E-02-4.99463E-04-5.98774E-14
 -1      2658 1.43251E-02-5.47489E-04-5.88164E-14
 -1      2659 1.40938E-02-6.71270E-04-5.84547E-14
 -1      2660 1.28292E-02-1.24232E-03-4.83417E-14
 -1      2661 1.39858E-02-6.21806E-04-5.27351E-14
 -1      2662 1.41063E-02 3.73075E-04-5.76710E-14
 -1      2663 1.40981E-02-6.69637E-04-5.78252E-14
 -1      2664 7.80156E-04 7.73257E-05-2.30149E-16
 -1      2665 7.78892E-04 5.54659E-05-2.36207E-16
 -1      2666 7.78044E-04 3.35558E-05-2.41547E-16
 -1      2667 7.77620E-04 1.18944E-05-2.46304E-16
 -1      2668 8.96450E-04 4.96748E-05-3.04295E-16
 -1      2669 7.91526E-04 1.73118E-04-1.95617E-16
 -1      2670 7.87512E-04 1.47703E-04-2.06053E-16
 -1      2671 8.03404E-04 2.28313E-04-1.70857E-16
 -1      2672 7.96775E-04 1.99924E-04-1.83976E-16
 -1      2673 9.14831E-04 2.07818E-04-2.45369E-16
 -1      2674 1.12984E-03 3.61939E-04-2.64112E-16
 -1      2675 9.86239E-04 3.32870E-04-1.98517E-16
 -1      2676 6.88575E-04-2.03993E-04-1.90955E-16
 -1      2677 1.41609E-03 4.07844E-04-4.27989E-16
 -1      2678 1.27304E-03 3.86805E-04-3.40453E-16
 -1      2679 1.18968E-03 3.41484E-04-3.23716E-16
 -1      2680 1.47575E-02 7.46420E-06-5.48477E-14
 -1      2681 1.49517E-02-5.20830E-05-5.52524E-14
 -1      2682 1.32015E-03-3.62797E-04-5.74492E-16
 -1      2683 1.46339E-03-3.81756E-04-6.97061E-16
 -1      2684 1.60643E-03-3.97835E-04-8.32044E-16
 -1      2685 1.74937E-03-4.11250E-04-9.79644E-16
 -1      2686 1.52497E-03-3.55428E-04-7.72413E-16
 -1      2687 1.89214E-03-4.22467E-04-1.14036E-15
 -1      2688 2.03480E-03-4.31670E-04-1.31340E-15
 -1      2689 1.81166E-03-3.81337E-04-1.06854E-15
 -1      2690 2.17735E-03-4.39235E-04-1.49993E-15
 -1      2691 2.31981E-03-4.45316E-04-1.69878E-15
 -1      2692 2.09812E-03-3.99211E-04-1.41539E-15
 -1      2693 2.46223E-03-4.50202E-04-1.91153E-15
 -1      2694 2.60459E-03-4.54013E-04-2.13780E-15
 -1      2695 2.38430E-03-4.11060E-04-1.81405E-15
 -1      2696 2.74695E-03-4.56969E-04-2.37742E-15
 -1      2697 2.88928E-03-4.59164E-04-2.63083E-15
 -1      2698 2.67024E-03-4.18505E-04-2.26560E-15
 -1      2699 3.03162E-03-4.60760E-04-2.89769E-15
 -1      2700 3.17397E-03-4.61829E-04-3.17873E-15
 -1      2701 2.95601E-03-4.22800E-04-2.77152E-15
 -1      2702 3.31634E-03-4.62487E-04-3.47365E-15
 -1      2703 3.45873E-03-4.62789E-04-3.78293E-15
 -1      2704 3.24168E-03-4.24897E-04-3.33231E-15
 -1      2705 3.60115E-03-4.62816E-04-4.10619E-15
 -1      2706 3.74360E-03-4.62608E-04-4.44401E-15
 -1      2707 3.52729E-03-4.25495E-04-3.95010E-15
 -1      2708 3.88608E-03-4.62220E-04-4.79621E-15
 -1      2709 4.02858E-03-4.61678E-04-5.16216E-15
 -1      2710 3.81288E-03-4.25095E-04-4.62374E-15
 -1      2711 4.17113E-03-4.61018E-04-5.54319E-15
 -1      2712 4.31370E-03-4.60255E-04-5.93940E-15
 -1      2713 4.09846E-03-4.24042E-04-5.35532E-15
 -1      2714 4.45630E-03-4.59410E-04-6.35044E-15
 -1      2715 4.59894E-03-4.58491E-04-6.77569E-15
 -1      2716 4.38406E-03-4.22557E-04-6.14553E-15
 -1      2717 4.74160E-03-4.57507E-04-7.21591E-15
 -1      2718 4.88429E-03-4.56459E-04-7.67072E-15
 -1      2719 4.66968E-03-4.20767E-04-6.99468E-15
 -1      2720 5.02702E-03-4.55346E-04-8.14018E-15
 -1      2721 5.16977E-03-4.54166E-04-8.62488E-15
 -1      2722 4.95533E-03-4.18724E-04-7.90221E-15
 -1      2723 5.31256E-03-4.52910E-04-9.12442E-15
 -1      2724 5.45538E-03-4.51573E-04-9.63966E-15
 -1      2725 5.24102E-03-4.16423E-04-8.86982E-15
 -1      2726 5.59823E-03-4.50139E-04-1.01707E-14
 -1      2727 5.74111E-03-4.48602E-04-1.07163E-14
 -1      2728 5.52675E-03-4.13816E-04-9.89870E-15
 -1      2729 5.88404E-03-4.46942E-04-1.12775E-14
 -1      2730 6.02700E-03-4.45150E-04-1.18541E-14
 -1      2731 5.81253E-03-4.10818E-04-1.09890E-14
 -1      2732 6.17001E-03-4.43205E-04-1.24460E-14
 -1      2733 6.31308E-03-4.41096E-04-1.30545E-14
 -1      2734 6.09837E-03-4.07325E-04-1.21397E-14
 -1      2735 6.45619E-03-4.38801E-04-1.36768E-14
 -1      2736 6.59937E-03-4.36313E-04-1.43124E-14
 -1      2737 6.38428E-03-4.03215E-04-1.33523E-14
 -1      2738 6.74261E-03-4.33610E-04-1.49654E-14
 -1      2739 6.88594E-03-4.30685E-04-1.56316E-14
 -1      2740 6.67026E-03-3.98367E-04-1.46246E-14
 -1      2741 7.02934E-03-4.27526E-04-1.63110E-14
 -1      2742 7.17285E-03-4.24131E-04-1.70052E-14
 -1      2743 6.95632E-03-3.92673E-04-1.59545E-14
 -1      2744 7.31644E-03-4.20495E-04-1.77137E-14
 -1      2745 7.46018E-03-4.16627E-04-1.84351E-14
 -1      2746 7.24249E-03-3.86062E-04-1.73390E-14
 -1      2747 7.60401E-03-4.12541E-04-1.91703E-14
 -1      2748 7.74802E-03-4.08257E-04-1.99177E-14
 -1      2749 7.52876E-03-3.78531E-04-1.87792E-14
 -1      2750 7.89216E-03-4.03820E-04-2.06786E-14
 -1      2751 8.03651E-03-3.99270E-04-2.14535E-14
 -1      2752 7.81515E-03-3.70187E-04-2.02724E-14
 -1      2753 8.18102E-03-3.94691E-04-2.22431E-14
 -1      2754 8.32580E-03-3.90154E-04-2.30456E-14
 -1      2755 8.10169E-03-3.61308E-04-2.18185E-14
 -1      2756 8.47079E-03-3.85802E-04-2.38593E-14
 -1      2757 8.61611E-03-3.81748E-04-2.46857E-14
 -1      2758 8.38845E-03-3.52412E-04-2.34199E-14
 -1      2759 8.76173E-03-3.78211E-04-2.55228E-14
 -1      2760 8.90781E-03-3.75370E-04-2.63705E-14
 -1      2761 8.67555E-03-3.44362E-04-2.50688E-14
 -1      2762 9.05431E-03-3.73534E-04-2.72273E-14
 -1      2763 9.20145E-03-3.72982E-04-2.80936E-14
 -1      2764 8.96329E-03-3.38478E-04-2.67609E-14
 -1      2765 9.34927E-03-3.74124E-04-2.89713E-14
 -1      2766 9.49802E-03-3.77387E-04-2.98557E-14
 -1      2767 9.25228E-03-3.36686E-04-2.84916E-14
 -1      2768 9.64789E-03-3.83275E-04-3.07465E-14
 -1      2769 9.79918E-03-3.92441E-04-3.16448E-14
 -1      2770 9.54365E-03-3.41688E-04-3.02557E-14
 -1      2771 9.95229E-03-4.05448E-04-3.25523E-14
 -1      2772 1.01076E-02-4.23287E-04-3.34681E-14
 -1      2773 9.83951E-03-3.57185E-04-3.20499E-14
 -1      2774 1.02657E-02-4.46494E-04-3.43920E-14
 -1      2775 1.04270E-02-4.76547E-04-3.53248E-14
 -1      2776 1.01433E-02-3.88191E-04-3.38802E-14
 -1      2777 1.05926E-02-5.13810E-04-3.62649E-14
 -1      2778 1.07622E-02-5.60212E-04-3.72133E-14
 -1      2779 1.04604E-02-4.41579E-04-3.57427E-14
 -1      2780 1.09374E-02-6.15822E-04-3.81724E-14
 -1      2781 1.11166E-02-6.82472E-04-3.91399E-14
 -1      2782 1.07972E-02-5.26500E-04-3.76405E-14
 -1      2783 1.13018E-02-7.59179E-04-4.01166E-14
 -1      2784 1.14886E-02-8.46130E-04-4.11069E-14
 -1      2785 1.11596E-02-6.53714E-04-3.95723E-14
 -1      2786 1.16781E-02-9.41154E-04-4.21058E-14
 -1      2787 1.18651E-02-1.03820E-03-4.31151E-14
 -1      2788 1.15450E-02-8.29913E-04-4.15467E-14
 -1      2789 1.23975E-02-1.27520E-03-4.62408E-14
 -1      2790 1.25655E-02-1.30220E-03-4.73113E-14
 -1      2791 1.27309E-02-1.29507E-03-4.83931E-14
 -1      2792 1.29004E-02-1.25711E-03-4.94912E-14
 -1      2793 1.30726E-02-1.19033E-03-5.06066E-14
 -1      2794 1.32512E-02-1.10701E-03-5.17397E-14
 -1      2795 1.30186E-02-1.19842E-03-4.99917E-14
 -1      2796 1.34340E-02-1.01202E-03-5.28851E-14
 -1      2797 1.36172E-02-9.14718E-04-5.40425E-14
 -1      2798 1.33949E-02-1.01388E-03-5.22582E-14
 -1      2799 1.38003E-02-8.18302E-04-5.52119E-14
 -1      2800 1.39784E-02-7.25186E-04-5.63927E-14
 -1      2801 1.37804E-02-8.10934E-04-5.45818E-14
 -1      2802 2.26923E-03 4.78620E-04-1.20658E-15
 -1      2803 2.12740E-03 4.71764E-04-1.04514E-15
 -1      2804 1.29183E-02-1.22289E-03-4.90993E-14
 -1      2805 1.27490E-02-1.26929E-03-4.81327E-14
 -1      2806 1.98549E-03 4.63285E-04-8.97204E-16
 -1      2807 1.84344E-03 4.53021E-04-7.61462E-16
 -1      2808 2.04764E-03 4.31356E-04-1.00834E-15
 -1      2809 2.83629E-03 4.94603E-04-1.99015E-15
 -1      2810 2.69452E-03 4.91994E-04-1.77327E-15
 -1      2811 3.11996E-03 4.97925E-04-2.46542E-15
 -1      2812 2.97811E-03 4.96554E-04-2.22030E-15
 -1      2813 2.90241E-03 4.58587E-04-2.15632E-15
 -1      2814 3.40384E-03 4.99365E-04-2.99753E-15
 -1      2815 3.26188E-03 4.98842E-04-2.72483E-15
 -1      2816 3.18719E-03 4.61286E-04-2.65010E-15
 -1      2817 3.68797E-03 4.99539E-04-3.58577E-15
 -1      2818 3.54588E-03 4.99583E-04-3.28459E-15
 -1      2819 3.47203E-03 4.62314E-04-3.19983E-15
 -1      2820 3.97235E-03 4.98878E-04-4.23187E-15
 -1      2821 3.83014E-03 4.99294E-04-3.90176E-15
 -1      2822 3.75696E-03 4.62225E-04-3.80611E-15
 -1      2823 4.25697E-03 4.97668E-04-4.93869E-15
 -1      2824 4.11464E-03 4.98329E-04-4.57720E-15
 -1      2825 4.04200E-03 4.61404E-04-4.47015E-15
 -1      2826 4.54181E-03 4.96084E-04-5.70724E-15
 -1      2827 4.39937E-03 4.96915E-04-5.31491E-15
 -1      2828 4.32716E-03 4.60099E-04-5.19475E-15
 -1      2829 4.82686E-03 4.94215E-04-6.53951E-15
 -1      2830 4.68432E-03 4.95182E-04-6.11551E-15
 -1      2831 4.61243E-03 4.58460E-04-5.98202E-15
 -1      2832 5.11211E-03 4.92083E-04-7.43647E-15
 -1      2833 4.96946E-03 4.93182E-04-6.97957E-15
 -1      2834 4.89782E-03 4.56556E-04-6.83249E-15
 -1      2835 5.39755E-03 4.89659E-04-8.39715E-15
 -1      2836 5.25481E-03 4.90910E-04-7.90908E-15
 -1      2837 5.18331E-03 4.54392E-04-7.74761E-15
 -1      2838 5.68319E-03 4.86875E-04-9.42027E-15
 -1      2839 5.54035E-03 4.88316E-04-8.90076E-15
 -1      2840 5.46893E-03 4.51929E-04-8.72579E-15
 -1      2841 5.96907E-03 4.83633E-04-1.05012E-14
 -1      2842 5.82610E-03 4.85316E-04-9.95357E-15
 -1      2843 5.75467E-03 4.49091E-04-9.76473E-15
 -1      2844 6.25521E-03 4.79820E-04-1.16420E-14
 -1      2845 6.11210E-03 4.81803E-04-1.10649E-14
 -1      2846 6.04056E-03 4.45775E-04-1.08628E-14
 -1      2847 6.54169E-03 4.75317E-04-1.28380E-14
 -1      2848 6.39840E-03 4.77660E-04-1.22332E-14
 -1      2849 6.32662E-03 4.41868E-04-1.20192E-14
 -1      2850 6.82858E-03 4.70019E-04-1.40885E-14
 -1      2851 6.68507E-03 4.72772E-04-1.34564E-14
 -1      2852 6.61289E-03 4.37250E-04-1.32299E-14
 -1      2853 7.11601E-03 4.63854E-04-1.53912E-14
 -1      2854 6.97222E-03 4.67046E-04-1.47335E-14
 -1      2855 6.89943E-03 4.31821E-04-1.44949E-14
 -1      2856 7.40412E-03 4.56814E-04-1.67491E-14
 -1      2857 7.25996E-03 4.60439E-04-1.60629E-14
 -1      2858 7.18631E-03 4.25517E-04-1.58139E-14
 -1      2859 7.69308E-03 4.49002E-04-1.81555E-14
 -1      2860 7.54847E-03 4.52992E-04-1.74461E-14
 -1      2861 7.47362E-03 4.18345E-04-1.71847E-14
 -1      2862 7.98314E-03 4.40688E-04-1.96124E-14
 -1      2863 7.83794E-03 4.44884E-04-1.88777E-14
 -1      2864 7.76148E-03 4.10428E-04-1.86068E-14
 -1      2865 8.27456E-03 4.32387E-04-2.11185E-14
 -1      2866 8.12864E-03 4.36495E-04-2.03597E-14
 -1      2867 8.05005E-03 4.02059E-04-2.00784E-14
 -1      2868 8.56770E-03 4.24961E-04-2.26697E-14
 -1      2869 8.42087E-03 4.28500E-04-2.18881E-14
 -1      2870 8.33956E-03 3.93785E-04-2.15981E-14
 -1      2871 8.86304E-03 4.19737E-04-2.42671E-14
 -1      2872 8.71504E-03 4.21976E-04-2.34630E-14
 -1      2873 8.63032E-03 3.86498E-04-2.31664E-14
 -1      2874 9.16120E-03 4.18651E-04-2.59089E-14
 -1      2875 9.01171E-03 4.18536E-04-2.50827E-14
 -1      2876 8.92283E-03 3.81552E-04-2.47789E-14
 -1      2877 9.46305E-03 4.24389E-04-2.75980E-14
 -1      2878 9.31160E-03 4.20470E-04-2.67468E-14
 -1      2879 9.21782E-03 3.80901E-04-2.64349E-14
 -1      2880 9.76975E-03 4.40489E-04-2.93329E-14
 -1      2881 9.61573E-03 4.30880E-04-2.84605E-14
 -1      2882 9.51640E-03 3.87235E-04-2.81369E-14
 -1      2883 1.00828E-02 4.71343E-04-3.11148E-14
 -1      2884 9.92545E-03 4.53738E-04-3.02191E-14
 -1      2885 9.82025E-03 4.04111E-04-2.98865E-14
 -1      2886 1.04039E-02 5.21919E-04-3.29422E-14
 -1      2887 1.02424E-02 4.93788E-04-3.20226E-14
 -1      2888 1.01316E-02 4.36012E-04-3.16788E-14
 -1      2889 1.07343E-02 5.96936E-04-3.48141E-14
 -1      2890 1.05681E-02 5.56027E-04-3.38730E-14
 -1      2891 1.04532E-02 4.88214E-04-3.35157E-14
 -1      2892 1.10734E-02 6.98960E-04-3.67414E-14
 -1      2893 1.09032E-02 6.44544E-04-3.57700E-14
 -1      2894 1.07872E-02 5.66180E-04-3.53985E-14
 -1      2895 1.14170E-02 8.24230E-04-3.87277E-14
 -1      2896 1.12453E-02 7.59286E-04-3.77254E-14
 -1      2897 1.11336E-02 6.73414E-04-3.73369E-14
 -1      2898 1.17572E-02 9.57915E-04-4.07800E-14
 -1      2899 1.15884E-02 8.91703E-04-3.97446E-14
 -1      2900 1.14873E-02 8.06312E-04-3.93338E-14
 -1      2901 1.20845E-02 1.07052E-03-4.29020E-14
 -1      2902 1.19227E-02 1.01979E-03-4.18339E-14
 -1      2903 1.18376E-02 9.48106E-04-4.14009E-14
 -1      2904 1.23964E-02 1.12357E-03-4.50924E-14
 -1      2905 1.22414E-02 1.10660E-03-4.39885E-14
 -1      2906 1.21731E-02 1.06063E-03-4.35354E-14
 -1      2907 1.27016E-02 1.09337E-03-4.73471E-14
 -1      2908 1.25480E-02 1.11975E-03-4.62133E-14
 -1      2909 1.24921E-02 1.10075E-03-4.57373E-14
 -1      2910 1.30130E-02 9.81994E-04-4.96653E-14
 -1      2911 1.28553E-02 1.04567E-03-4.84981E-14
 -1      2912 1.28093E-02 1.04365E-03-4.80046E-14
 -1      2913 1.33358E-02 8.19057E-04-5.20390E-14
 -1      2914 1.31734E-02 9.04720E-04-5.08454E-14
 -1      2915 1.31379E-02 9.05974E-04-5.03338E-14
 -1      2916 1.36622E-02 6.34101E-04-5.44702E-14
 -1      2917 1.34995E-02 7.27758E-04-5.32482E-14
 -1      2918 1.34786E-02 7.26987E-04-5.27204E-14
 -1      2919 1.39650E-02 4.55989E-04-5.66840E-14
 -1      2920 1.38047E-02 5.50355E-04-5.54436E-14
 -1      2921 1.37983E-02 5.47953E-04-5.49010E-14
 -1      2922 1.40955E-02 3.82264E-04-5.68524E-14
 -1      2923 1.53334E-02-1.21702E-04-5.76301E-14
 -1      2924 1.52486E-02-1.02398E-04-5.75676E-14
 -1      2925 1.40982E-02-6.63670E-04-5.71944E-14
 -1      2926 1.42110E-02-6.05813E-04-5.80035E-14
 -1      2927 1.43348E-02-5.39782E-04-5.81824E-14
 -1      2928 1.40940E-02-6.54445E-04-5.65629E-14
 -1      2929 1.48107E-02 3.02747E-05-5.71619E-14
 -1      2930 1.46599E-02 9.22063E-05-5.70946E-14
 -1      2931 1.53496E-02-1.39069E-04-5.74986E-14
 -1      2932 1.53574E-02-1.29125E-04-5.74387E-14
 -1      2933 1.50984E-02-7.08296E-05-5.71341E-14
 -1      2934 1.49540E-02-2.56219E-05-5.70689E-14
 -1      2935 8.03107E-04 2.78218E-04-1.37775E-16
 -1      2936 1.52012E-02-1.76401E-04-5.77935E-14
 -1      2937 1.52985E-02-1.51802E-04-5.77393E-14
 -1      2938 1.49301E-02-2.61694E-04-5.79010E-14
 -1      2939 1.50721E-02-2.12868E-04-5.78479E-14
 -1      2940 1.50473E-02-2.05428E-04-5.69093E-14
 -1      2941 1.46407E-02-3.83559E-04-5.79990E-14
 -1      2942 1.47834E-02-3.20777E-04-5.79501E-14
 -1      2943 1.47369E-02-3.20443E-04-5.70202E-14
 -1      2944 1.44178E-02-4.94762E-04-5.81131E-14
 -1      2945 1.45444E-02-4.31010E-04-5.80700E-14
 -1      2946 1.44810E-02-4.44502E-04-5.71492E-14
 -1      2947 1.42975E-02-5.47571E-04-5.72972E-14
 -1      2948 1.49257E-02-2.16345E-04-5.52194E-14
 -1      2949 1.47628E-02-2.68041E-04-5.49715E-14
 -1      2950 1.51994E-02-1.54981E-04-5.61886E-14
 -1      2951 1.50793E-02-1.76733E-04-5.57565E-14
 -1      2952 1.19175E-02 8.17237E-04-4.25138E-14
 -1      2953 1.21042E-02 9.21818E-04-4.34165E-14
 -1      2954 8.33610E-04-2.63905E-04-2.53175E-16
 -1      2955 9.65186E-04-2.98843E-04-3.24691E-16
 -1      2956 1.10823E-03-3.26639E-04-4.16510E-16
 -1      2957 8.14013E-04-2.12271E-04-2.59883E-16
 -1      2958 1.02105E-02-7.13971E-05-3.85135E-14
 -1      2959 1.01966E-02-5.96963E-05-3.84135E-14
 -1      2960 1.14874E-02-6.76731E-04-4.20416E-14
 -1      2961 1.13184E-02-5.72148E-04-4.14569E-14
 -1      2962 1.70123E-03 4.40553E-04-6.38216E-16
 -1      2963 1.55877E-03 4.25670E-04-5.27248E-16
 -1      2964 1.47612E-03 3.82200E-04-5.04683E-16
 -1      2965 1.76214E-03 4.11237E-04-7.32311E-16
 -1      2966 1.51263E-02-9.68610E-05-5.56797E-14
 -1      2967 1.52148E-02-1.12751E-04-5.59043E-14
 -1      2968 2.55276E-03 4.88551E-04-1.57037E-15
 -1      2969 2.41101E-03 4.84172E-04-1.38201E-15
 -1      2970 2.33275E-03 4.44833E-04-1.33621E-15
 -1      2971 2.61763E-03 4.53450E-04-1.71856E-15
 -1      2972 1.12086E-02 3.85965E-04-3.99854E-14
 -1      2973 1.13506E-02 4.71149E-04-4.03761E-14
 -1      2974 1.33165E-02 7.49379E-04-5.01397E-14
 -1      2975 1.35455E-02 6.08348E-04-5.11425E-14
 -1      2976 1.36040E-02-8.45220E-04-5.20675E-14
 -1      2977 1.34216E-02-9.58640E-04-5.13590E-14
 -1      2978 7.84357E-04 1.23449E-04-2.14997E-16
 -1      2979 7.81964E-04 1.00013E-04-2.23007E-16
 -1      2980 8.99566E-04 9.94412E-05-2.89184E-16
 -1      2981 9.05319E-04 1.51580E-04-2.69993E-16
 -1      2982 7.81700E-04-9.79609E-05-2.59151E-16
 -1      2983 7.84016E-04-1.21312E-04-2.59504E-16
 -1      2984 1.02184E-02-4.34135E-05-3.82780E-14
 -1      2985 1.02763E-02-2.46412E-05-3.82111E-14
 -1      2986 1.03749E-02-1.23458E-04-3.89514E-14
 -1      2987 1.02740E-02-9.46792E-05-3.86781E-14
 -1      2988 1.15171E-02 5.71242E-04-4.09218E-14
 -1      2989 1.16762E-02 6.75360E-04-4.14755E-14
 -1      2990 1.13807E-02 5.27208E-04-4.01013E-14
 -1      2991 1.25335E-02-1.26414E-03-4.68389E-14
 -1      2992 1.23584E-02-1.21257E-03-4.58423E-14
 -1      2993 1.04317E-02 2.30752E-05-3.85152E-14
 -1      2994 1.05989E-02 7.56931E-05-3.89820E-14
 -1      2995 1.06554E-02-2.28691E-04-3.95559E-14
 -1      2996 1.05103E-02-1.72851E-04-3.92052E-14
 -1      2997 1.43051E-02 1.89434E-04-5.35480E-14
 -1      2998 1.45037E-02 1.02500E-04-5.40842E-14
 -1      2999 1.10808E-02-4.32451E-04-4.07749E-14
 -1      3000 1.08688E-02-3.23197E-04-4.01932E-14
 -1      3001 1.21749E-02-1.12969E-03-4.48817E-14
 -1      3002 1.20442E-02-1.04898E-03-4.42375E-14
 -1      3003 1.41334E-02-5.42832E-04-5.36090E-14
 -1      3004 1.38724E-02-6.87267E-04-5.29027E-14
 -1      3005 1.32495E-02-1.06462E-03-5.08765E-14
 -1      3006 1.31144E-02-1.14106E-03-5.02137E-14
 -1      3007 1.45628E-02-3.44646E-04-5.46595E-14
 -1      3008 1.43875E-02-4.20199E-04-5.42870E-14
 -1      3009 1.38447E-02 4.32268E-04-5.22728E-14
 -1      3010 1.40799E-02 3.00867E-04-5.29637E-14
 -1      3011 7.87097E-04-1.45470E-04-2.58813E-16
 -1      3012 7.91001E-04-1.70659E-04-2.56685E-16
 -1      3013 9.04865E-04-1.49075E-04-3.29326E-16
 -1      3014 1.33465E-02-1.01867E-03-5.16032E-14
 -1      3015 8.95422E-04 1.00868E-06-3.15625E-16
 -1      3016 7.77592E-04-9.71886E-06-2.50261E-16
 -1      3017 7.77956E-04-3.13639E-05-2.53595E-16
 -1      3018 1.50893E-02-7.81939E-05-5.63182E-14
 -1      3019 1.01771E-02-4.91248E-05-3.78374E-14
 -1      3020 1.42668E-02-4.87616E-04-5.44493E-14
 -1      3021 1.22599E-02-1.18615E-03-4.53262E-14
 -1      3022 1.11711E-02-5.04018E-04-4.07489E-14
 -1      3023 1.46765E-02 4.48580E-05-5.51203E-14
 -1      3024 1.42106E-02 2.44069E-04-5.37654E-14
 -1      3025 1.26628E-02-1.28727E-03-4.77933E-14
 -1      3026 1.07358E-02-2.79067E-04-3.94370E-14
 -1      3027 1.19117E-02-1.01495E-03-4.34568E-14
 -1      3028 1.20289E-02-1.11256E-03-4.40300E-14
 -1      3029 1.22108E-02-1.19679E-03-4.50656E-14
 -1      3030 1.44385E-02 1.77511E-04-5.60120E-14
 -1      3031 1.45180E-02 1.58626E-04-5.70292E-14
 -1      3032 1.43857E-02 2.23611E-04-5.69593E-14
 -1      3033 1.10741E-02 3.25344E-04-3.94652E-14
 -1      3034 1.52879E-02-1.22122E-04-5.65574E-14
 -1      3035 1.03310E-02 6.79503E-07-3.80009E-14
 -1      3036 1.03943E-02 3.30968E-05-3.77913E-14
 -1      3037 1.02465E-02-1.14489E-05-3.74917E-14
 -1      3038 1.46996E-02-3.01222E-04-5.54496E-14
 -1      3039 1.42893E-02 2.75532E-04-5.69463E-14
 -1      3040 1.41770E-02 3.36125E-04-5.68731E-14
 -1      3041 1.40240E-02 4.16442E-04-5.58959E-14
 -1      3042 1.41984E-02 3.10307E-04-5.59315E-14
 -1      3043 8.64862E-04 2.66538E-04-1.78934E-16
 -1      3044 1.04083E-02-1.48034E-04-3.85521E-14
 -1      3045 1.37614E-02-7.60954E-04-5.29257E-14
 -1      3046 1.20794E-02 9.40111E-04-4.31322E-14
 -1      3047 1.21942E-02 9.72852E-04-4.38386E-14
 -1      3048 1.22728E-02 1.01281E-03-4.42651E-14
 -1      3049 1.16985E-03-3.06940E-04-4.75355E-16
 -1      3050 1.17686E-02 7.58039E-04-4.16708E-14
 -1      3051 1.26783E-02 1.03744E-03-4.66859E-14
 -1      3052 1.28076E-02 1.00501E-03-4.74536E-14
 -1      3053 1.31627E-02 8.40046E-04-4.94488E-14
 -1      3054 1.32786E-02 7.77998E-04-5.02082E-14
 -1      3055 1.02157E-02-8.20279E-05-3.81376E-14
 -1      3056 7.78739E-04-5.31465E-05-2.56278E-16
 -1      3057 7.79958E-04-7.53340E-05-2.58040E-16
 -1      3058 8.99288E-04-9.70960E-05-3.28513E-16
 -1      3059 8.96321E-04-4.75248E-05-3.23756E-16
 -1      3060 1.35853E-02 5.99656E-04-5.17968E-14
 -1      3061 1.37043E-02 5.18680E-04-5.20341E-14
 -1      3062 1.38612E-02 4.37778E-04-5.29375E-14
 -1      3063 1.06931E-02 1.28182E-04-3.88317E-14
 -1      3064 1.29133E-02 9.65912E-04-4.80554E-14
 -1      3065 1.30509E-02 8.99005E-04-4.88352E-14
 -1      3066 1.30301E-02 9.16064E-04-4.88985E-14
 -1      3067 1.28269E-02 1.00128E-03-4.76824E-14
 -1      3068 1.18523E-02-9.22209E-04-4.34115E-14
 -1      3069 1.16669E-02-7.93278E-04-4.26925E-14
 -1      3070 9.82950E-04 2.75777E-04-2.41235E-16
 -1      3071 1.25634E-02 1.04819E-03-4.60247E-14
 -1      3072 1.19123E-02-9.85679E-04-4.35440E-14
 -1      3073 1.15615E-02-7.49809E-04-4.20755E-14
 -1      3074 1.04104E-02-1.68850E-04-3.80009E-14
 -1      3075 1.02972E-02-1.26453E-04-3.77512E-14
 -1      3076 1.04027E-03 2.43274E-04-3.00283E-16
 -1      3077 1.03364E-03 2.11551E-04-3.16560E-16
 -1      3078 1.01395E-02-5.46053E-05-3.73687E-14
 -1      3079 1.01517E-02-4.02975E-05-3.72329E-14
 -1      3080 1.35501E-02-9.09032E-04-5.27554E-14
 -1      3081 1.17385E-02-8.96675E-04-4.26392E-14
 -1      3082 1.73166E-03-3.40491E-04-9.97669E-16
 -1      3083 1.87533E-03-3.50707E-04-1.15838E-15
 -1      3084 2.01898E-03-3.59207E-04-1.33156E-15
 -1      3085 2.16263E-03-3.66146E-04-1.51776E-15
 -1      3086 1.94013E-03-3.19395E-04-1.24892E-15
 -1      3087 2.30622E-03-3.71800E-04-1.71692E-15
 -1      3088 2.44977E-03-3.76294E-04-1.92905E-15
 -1      3089 2.22816E-03-3.32537E-04-1.62087E-15
 -1      3090 2.59326E-03-3.79852E-04-2.15454E-15
 -1      3091 2.73669E-03-3.82573E-04-2.39376E-15
 -1      3092 2.51613E-03-3.41090E-04-2.04489E-15
 -1      3093 2.88007E-03-3.84627E-04-2.64619E-15
 -1      3094 3.02339E-03-3.86090E-04-2.91241E-15
 -1      3095 2.80389E-03-3.46288E-04-2.52215E-15
 -1      3096 3.16667E-03-3.87091E-04-3.19277E-15
 -1      3097 3.30990E-03-3.87686E-04-3.48671E-15
 -1      3098 3.09138E-03-3.49099E-04-3.05383E-15
 -1      3099 3.45309E-03-3.87970E-04-3.79452E-15
 -1      3100 3.59624E-03-3.87980E-04-4.11673E-15
 -1      3101 3.37861E-03-3.50257E-04-3.64071E-15
 -1      3102 3.73936E-03-3.87786E-04-4.45299E-15
 -1      3103 3.88245E-03-3.87412E-04-4.80376E-15
 -1      3104 3.66557E-03-3.50299E-04-4.28375E-15
 -1      3105 4.02551E-03-3.86904E-04-5.16809E-15
 -1      3106 4.16855E-03-3.86279E-04-5.54721E-15
 -1      3107 3.95231E-03-3.49605E-04-4.98252E-15
 -1      3108 4.31157E-03-3.85565E-04-5.94182E-15
 -1      3109 4.45456E-03-3.84770E-04-6.35109E-15
 -1      3110 4.23885E-03-3.48429E-04-5.73931E-15
 -1      3111 4.59754E-03-3.83909E-04-6.77457E-15
 -1      3112 4.74051E-03-3.82986E-04-7.21229E-15
 -1      3113 4.52521E-03-3.46926E-04-6.55586E-15
 -1      3114 4.88346E-03-3.82004E-04-7.66599E-15
 -1      3115 5.02640E-03-3.80963E-04-8.13360E-15
 -1      3116 4.81142E-03-3.45177E-04-7.43000E-15
 -1      3117 5.16933E-03-3.79858E-04-8.61630E-15
 -1      3118 5.31225E-03-3.78684E-04-9.11474E-15
 -1      3119 5.09750E-03-3.43202E-04-8.36457E-15
 -1      3120 5.45515E-03-3.77432E-04-9.62766E-15
 -1      3121 5.59805E-03-3.76094E-04-1.01571E-14
 -1      3122 5.38345E-03-3.40975E-04-9.35891E-15
 -1      3123 5.74094E-03-3.74656E-04-1.07022E-14
 -1      3124 5.88381E-03-3.73107E-04-1.12610E-14
 -1      3125 5.66927E-03-3.38435E-04-1.04152E-14
 -1      3126 6.02667E-03-3.71431E-04-1.18352E-14
 -1      3127 6.16952E-03-3.69616E-04-1.24255E-14
 -1      3128 5.95495E-03-3.35497E-04-1.15327E-14
 -1      3129 6.31235E-03-3.67645E-04-1.30300E-14
 -1      3130 6.45517E-03-3.65505E-04-1.36500E-14
 -1      3131 6.24045E-03-3.32056E-04-1.27102E-14
 -1      3132 6.59795E-03-3.63180E-04-1.42855E-14
 -1      3133 6.74072E-03-3.60658E-04-1.49351E-14
 -1      3134 6.52574E-03-3.28001E-04-1.39480E-14
 -1      3135 6.88344E-03-3.57928E-04-1.55984E-14
 -1      3136 7.02614E-03-3.54979E-04-1.62749E-14
 -1      3137 6.81075E-03-3.23228E-04-1.52441E-14
 -1      3138 7.16878E-03-3.51809E-04-1.69668E-14
 -1      3139 7.31139E-03-3.48412E-04-1.76727E-14
 -1      3140 7.09539E-03-3.17653E-04-1.65970E-14
 -1      3141 7.45391E-03-3.44800E-04-1.83907E-14
 -1      3142 7.59639E-03-3.40973E-04-1.91225E-14
 -1      3143 7.37956E-03-3.11237E-04-1.80045E-14
 -1      3144 7.73877E-03-3.36967E-04-1.98692E-14
 -1      3145 7.88109E-03-3.32793E-04-2.06263E-14
 -1      3146 7.66310E-03-3.04015E-04-1.94663E-14
 -1      3147 8.02328E-03-3.28518E-04-2.13970E-14
 -1      3148 8.16540E-03-3.24172E-04-2.21835E-14
 -1      3149 7.94587E-03-2.96138E-04-2.09802E-14
 -1      3150 8.30738E-03-3.19862E-04-2.29833E-14
 -1      3151 8.44930E-03-3.15646E-04-2.37941E-14
 -1      3152 8.22770E-03-2.87922E-04-2.25470E-14
 -1      3153 8.59108E-03-3.11685E-04-2.46170E-14
 -1      3154 8.73283E-03-3.08076E-04-2.54523E-14
 -1      3155 8.50845E-03-2.79905E-04-2.41663E-14
 -1      3156 8.87448E-03-3.05043E-04-2.62968E-14
 -1      3157 9.01621E-03-3.02745E-04-2.71502E-14
 -1      3158 8.78807E-03-2.72919E-04-2.58339E-14
 -1      3159 9.15799E-03-3.01471E-04-2.80131E-14
 -1      3160 9.30007E-03-3.01478E-04-2.88869E-14
 -1      3161 9.06671E-03-2.68161E-04-2.75395E-14
 -1      3162 9.44251E-03-3.03109E-04-2.97681E-14
 -1      3163 9.58570E-03-3.06787E-04-3.06553E-14
 -1      3164 9.34498E-03-2.67284E-04-2.92810E-14
 -1      3165 9.72985E-03-3.12882E-04-3.15503E-14
 -1      3166 9.87555E-03-3.22113E-04-3.24550E-14
 -1      3167 9.62425E-03-2.72510E-04-3.10530E-14
 -1      3168 1.00233E-02-3.34826E-04-3.33681E-14
 -1      3169 1.01739E-02-3.52255E-04-3.42899E-14
 -1      3170 9.90726E-03-2.86895E-04-3.28587E-14
 -1      3171 1.03282E-02-3.74669E-04-3.52216E-14
 -1      3172 1.04873E-02-4.04301E-04-3.61608E-14
 -1      3173 1.01989E-02-3.14875E-04-3.47005E-14
 -1      3174 1.06528E-02-4.41191E-04-3.71082E-14
 -1      3175 1.08249E-02-4.88867E-04-3.80646E-14
 -1      3176 1.05075E-02-3.63861E-04-3.65785E-14
 -1      3177 1.12217E-02-5.66187E-04-4.05713E-14
 -1      3178 1.10137E-02-4.43019E-04-3.98979E-14
 -1      3179 1.15668E-02-8.12902E-04-4.17684E-14
 -1      3180 1.15504E-02-7.69493E-04-4.18560E-14
 -1      3181 1.13900E-02-6.66590E-04-4.12123E-14
 -1      3182 1.13675E-02-7.13655E-04-4.07737E-14
 -1      3183 1.26400E-02-1.28163E-03-4.75763E-14
 -1      3184 3.25491E-03 4.24339E-04-2.83703E-15
 -1      3185 3.11206E-03 4.23494E-04-2.57415E-15
 -1      3186 2.96917E-03 4.22194E-04-2.32546E-15
 -1      3187 2.82627E-03 4.20374E-04-2.09059E-15
 -1      3188 3.03656E-03 3.85494E-04-2.49738E-15
 -1      3189 3.82622E-03 4.24719E-04-4.02807E-15
 -1      3190 3.68341E-03 4.24969E-04-3.70869E-15
 -1      3191 4.11185E-03 4.23781E-04-4.71038E-15
 -1      3192 3.96904E-03 4.24316E-04-4.36207E-15
 -1      3193 3.89577E-03 3.87065E-04-4.25269E-15
 -1      3194 4.39748E-03 4.22422E-04-5.45283E-15
 -1      3195 4.25467E-03 4.23146E-04-5.07373E-15
 -1      3196 4.18190E-03 3.86051E-04-4.95234E-15
 -1      3197 4.68313E-03 4.20761E-04-6.25887E-15
 -1      3198 4.54030E-03 4.21625E-04-5.84793E-15
 -1      3199 4.46795E-03 3.84668E-04-5.71381E-15
 -1      3200 4.96880E-03 4.18851E-04-7.12797E-15
 -1      3201 4.82596E-03 4.19837E-04-6.68539E-15
 -1      3202 4.75391E-03 3.83016E-04-6.53793E-15
 -1      3203 5.25450E-03 4.16683E-04-8.06057E-15
 -1      3204 5.11165E-03 4.17801E-04-7.58597E-15
 -1      3205 5.03981E-03 3.81126E-04-7.42459E-15
 -1      3206 5.54024E-03 4.14210E-04-9.05629E-15
 -1      3207 5.39736E-03 4.15489E-04-8.55083E-15
 -1      3208 5.32567E-03 3.78983E-04-8.37507E-15
 -1      3209 5.82601E-03 4.11349E-04-1.01114E-14
 -1      3210 5.68312E-03 4.12833E-04-9.57677E-15
 -1      3211 5.61147E-03 3.76528E-04-9.38804E-15
 -1      3212 6.11184E-03 4.07997E-04-1.12258E-14
 -1      3213 5.96892E-03 4.09741E-04-1.06612E-14
 -1      3214 5.89722E-03 3.73678E-04-1.04598E-14
 -1      3215 6.39773E-03 4.04038E-04-1.23962E-14
 -1      3216 6.25477E-03 4.06100E-04-1.18037E-14
 -1      3217 6.18291E-03 3.70329E-04-1.15892E-14
 -1      3218 6.68368E-03 3.99358E-04-1.36231E-14
 -1      3219 6.54069E-03 4.01794E-04-1.30028E-14
 -1      3220 6.46853E-03 3.66367E-04-1.27752E-14
 -1      3221 6.96973E-03 3.93863E-04-1.49028E-14
 -1      3222 6.82669E-03 3.96717E-04-1.42566E-14
 -1      3223 6.75405E-03 3.61684E-04-1.40174E-14
 -1      3224 7.25588E-03 3.87498E-04-1.62376E-14
 -1      3225 7.11278E-03 3.90791E-04-1.55637E-14
 -1      3226 7.03946E-03 3.56193E-04-1.53130E-14
 -1      3227 7.54219E-03 3.80284E-04-1.76227E-14
 -1      3228 7.39900E-03 3.83994E-04-1.69237E-14
 -1      3229 7.32472E-03 3.49850E-04-1.66620E-14
 -1      3230 7.82869E-03 3.72360E-04-1.90597E-14
 -1      3231 7.68540E-03 3.76399E-04-1.83353E-14
 -1      3232 7.60982E-03 3.42687E-04-1.80635E-14
 -1      3233 8.11550E-03 3.64037E-04-2.05462E-14
 -1      3234 7.97204E-03 3.68225E-04-1.97966E-14
 -1      3235 7.89474E-03 3.34854E-04-1.95141E-14
 -1      3236 8.40279E-03 3.55877E-04-2.20831E-14
 -1      3237 8.25906E-03 3.59896E-04-2.13090E-14
 -1      3238 8.17952E-03 3.26671E-04-2.10166E-14
 -1      3239 8.69084E-03 3.48776E-04-2.36640E-14
 -1      3240 8.54668E-03 3.52128E-04-2.28665E-14
 -1      3241 8.46429E-03 3.18696E-04-2.25680E-14
 -1      3242 8.98018E-03 3.44079E-04-2.52913E-14
 -1      3243 8.83529E-03 3.46027E-04-2.44725E-14
 -1      3244 8.74932E-03 3.11801E-04-2.41642E-14
 -1      3245 9.27167E-03 3.43703E-04-2.69633E-14
 -1      3246 9.12557E-03 3.43204E-04-2.61221E-14
 -1      3247 9.03517E-03 3.07278E-04-2.58064E-14
 -1      3248 9.56673E-03 3.50278E-04-2.86790E-14
 -1      3249 9.41864E-03 3.45907E-04-2.78151E-14
 -1      3250 9.32284E-03 3.06944E-04-2.74929E-14
 -1      3251 9.86753E-03 3.67318E-04-3.04384E-14
 -1      3252 9.71626E-03 3.57184E-04-2.95523E-14
 -1      3253 9.61407E-03 3.13304E-04-2.92200E-14
 -1      3254 1.01772E-02 3.99396E-04-3.22414E-14
 -1      3255 1.00211E-02 3.81051E-04-3.13357E-14
 -1      3256 9.91158E-03 3.29779E-04-3.09907E-14
 -1      3257 1.04994E-02 4.52224E-04-3.40883E-14
 -1      3258 1.03366E-02 4.22664E-04-3.31598E-14
 -1      3259 1.02194E-02 3.61051E-04-3.28059E-14
 -1      3260 1.08379E-02 5.32277E-04-3.59819E-14
 -1      3261 1.06667E-02 4.88178E-04-3.50283E-14
 -1      3262 1.05426E-02 4.13523E-04-3.46613E-14
 -1      3263 1.11937E-02 6.45163E-04-3.79314E-14
 -1      3264 1.10144E-02 5.84384E-04-3.69498E-14
 -1      3265 1.08865E-02 4.95483E-04-3.65641E-14
 -1      3266 1.15595E-02 7.87247E-04-3.99412E-14
 -1      3267 1.13765E-02 7.13344E-04-3.89286E-14
 -1      3268 1.12528E-02 6.15441E-04-3.85250E-14
 -1      3269 1.22548E-02 1.04701E-03-4.40882E-14
 -1      3270 1.20832E-02 9.96827E-04-4.30096E-14
 -1      3271 1.26877E-02 1.05508E-03-4.69764E-14
 -1      3272 1.25195E-02 1.07209E-03-4.58552E-14
 -1      3273 1.28578E-02 1.00657E-03-4.81146E-14
 -1      3274 1.32699E-02 8.22902E-04-5.09940E-14
 -1      3275 1.30935E-02 9.11297E-04-4.98155E-14
 -1      3276 1.36280E-02 6.31417E-04-5.33917E-14
 -1      3277 1.34493E-02 7.27836E-04-5.21865E-14
 -1      3278 1.34171E-02 7.29138E-04-5.16530E-14
 -1      3279 1.39040E-02 4.80022E-04-5.51219E-14
 -1      3280 1.37488E-02 5.64846E-04-5.41562E-14
 -1      3281 1.37314E-02 5.59933E-04-5.36118E-14
 -1      3282 1.39831E-02 4.27991E-04-5.51426E-14
 -1      3283 1.41732E-02-6.03578E-04-5.64869E-14
 -1      3284 1.01652E-03 6.81995E-05-3.73928E-16
 -1      3285 1.01534E-03 4.12189E-05-3.81734E-16
 -1      3286 1.52661E-02-1.46096E-04-5.66079E-14
 -1      3287 1.47454E-02 3.39192E-05-5.59846E-14
 -1      3288 1.50435E-02-1.94716E-04-5.63075E-14
 -1      3289 1.48854E-02-2.46419E-04-5.63682E-14
 -1      3290 1.12598E-02 5.02088E-04-3.92983E-14
 -1      3291 1.14056E-02 5.88365E-04-3.98351E-14
 -1      3292 1.44457E-03-3.13761E-04-7.13419E-16
 -1      3293 1.58807E-03-3.28240E-04-8.49106E-16
 -1      3294 1.65235E-03-3.00164E-04-9.27467E-16
 -1      3295 1.47091E-02-3.08585E-04-5.60465E-14
 -1      3296 9.32126E-04-2.20397E-04-3.32715E-16
 -1      3297 1.45075E-02 1.21330E-04-5.52143E-14
 -1      3298 3.54058E-03 4.25017E-04-3.40384E-15
 -1      3299 3.39776E-03 4.24831E-04-3.11367E-15
 -1      3300 3.32313E-03 3.87147E-04-3.02610E-15
 -1      3301 3.60952E-03 3.87528E-04-3.61065E-15
 -1      3302 2.11107E-03 3.98802E-04-1.12281E-15
 -1      3303 1.96785E-03 3.90867E-04-9.69941E-16
 -1      3304 1.08173E-03-2.53971E-04-4.28043E-16
 -1      3305 1.29261E-03-2.85191E-04-5.87163E-16
 -1      3306 1.35704E-03-2.61741E-04-6.51687E-16
 -1      3307 1.05669E-03-2.05741E-04-4.23205E-16
 -1      3308 1.08775E-02 2.43033E-04-3.86878E-14
 -1      3309 1.10267E-02 3.47112E-04-3.87823E-14
 -1      3310 1.31837E-02 8.44428E-04-4.99909E-14
 -1      3311 1.33207E-02 7.61197E-04-5.06903E-14
 -1      3312 1.02068E-02-9.16477E-05-3.75764E-14
 -1      3313 1.01517E-02-7.12178E-05-3.74140E-14
 -1      3314 1.44034E-02-4.39264E-04-5.54787E-14
 -1      3315 1.41747E-02-5.48242E-04-5.47927E-14
 -1      3316 1.14501E-03 3.10562E-04-3.19406E-16
 -1      3317 1.08235E-03 2.71631E-04-3.07710E-16
 -1      3318 1.20142E-03 2.73046E-04-3.89012E-16
 -1      3319 1.28818E-03 3.32537E-04-4.03418E-16
 -1      3320 1.39700E-02-6.57510E-04-5.41905E-14
 -1      3321 1.37276E-02-7.98974E-04-5.33415E-14
 -1      3322 1.37530E-02-8.07113E-04-5.40059E-14
 -1      3323 1.41208E-02-5.96180E-04-5.52067E-14
 -1      3324 1.40822E-02 3.19044E-04-5.37784E-14
 -1      3325 1.42849E-02 2.16609E-04-5.43688E-14
 -1      3326 1.43789E-02 1.89253E-04-5.52266E-14
 -1      3327 1.39463E-02 4.01451E-04-5.35362E-14
 -1      3328 1.08146E-02-3.39348E-04-3.92643E-14
 -1      3329 1.06220E-02-2.55008E-04-3.86351E-14
 -1      3330 1.08718E-02-4.02148E-04-3.90898E-14
 -1      3331 1.16295E-02 7.20682E-04-4.07660E-14
 -1      3332 1.18441E-02 8.43555E-04-4.17977E-14
 -1      3333 1.05082E-02 9.32815E-05-3.76410E-14
 -1      3334 1.06869E-02 1.58504E-04-3.81619E-14
 -1      3335 1.06598E-02 1.92087E-04-3.74921E-14
 -1      3336 1.45402E-02-3.86148E-04-5.61069E-14
 -1      3337 1.44523E-02-4.41239E-04-5.64434E-14
 -1      3338 1.01474E-03 1.44443E-05-3.88456E-16
 -1      3339 1.01470E-03-1.22358E-05-3.94243E-16
 -1      3340 1.13542E-03 3.01624E-05-4.68552E-16
 -1      3341 1.15306E-03 2.11835E-04-3.97279E-16
 -1      3342 1.02830E-03 1.81164E-04-3.30682E-16
 -1      3343 1.02411E-03 1.51836E-04-3.43557E-16
 -1      3344 1.01110E-02-3.03513E-05-3.65606E-14
 -1      3345 1.01725E-02-2.29076E-05-3.70251E-14
 -1      3346 1.02056E-02-1.49590E-06-3.68164E-14
 -1      3347 1.23702E-02-1.25855E-03-4.60307E-14
 -1      3348 1.08600E-02-4.44960E-04-3.86179E-14
 -1      3349 1.10237E-02-5.46756E-04-3.91603E-14
 -1      3350 1.12204E-02-5.95109E-04-4.03542E-14
 -1      3351 1.12137E-02-6.21795E-04-4.01378E-14
 -1      3352 1.42308E-02 2.70403E-04-5.51609E-14
 -1      3353 1.39490E-02-7.09562E-04-5.51831E-14
 -1      3354 2.25422E-03 4.05301E-04-1.28917E-15
 -1      3355 2.17560E-03 3.65695E-04-1.24099E-15
 -1      3356 2.39731E-03 4.10507E-04-1.46909E-15
 -1      3357 1.04766E-03-1.45773E-04-4.25617E-16
 -1      3358 1.05162E-03-1.75287E-04-4.25183E-16
 -1      3359 1.20023E-03-2.01188E-04-5.33739E-16
 -1      3360 2.74979E-03 3.81962E-04-2.02347E-15
 -1      3361 2.68333E-03 4.17894E-04-1.86996E-15
 -1      3362 2.54035E-03 4.14668E-04-1.66261E-15
 -1      3363 1.16837E-02 8.43894E-04-4.06231E-14
 -1      3364 1.15714E-02 7.47979E-04-4.02021E-14
 -1      3365 1.18636E-02 9.19740E-04-4.16666E-14
 -1      3366 1.24411E-02 1.04891E-03-4.52983E-14
 -1      3367 1.29832E-02 9.45538E-04-4.87554E-14
 -1      3368 1.01832E-03 9.54583E-05-3.64983E-16
 -1      3369 1.13809E-03 8.85473E-05-4.50310E-16
 -1      3370 1.02079E-03 1.23223E-04-3.54900E-16
 -1      3371 1.04455E-03-1.17061E-04-4.24655E-16
 -1      3372 1.19170E-03-1.37445E-04-5.33753E-16
 -1      3373 1.04225E-03-8.89959E-05-4.22432E-16
 -1      3374 1.43506E-02-4.97988E-04-5.65210E-14
 -1      3375 1.10700E-02 4.14480E-04-3.85178E-14
 -1      3376 1.43142E-03 3.51348E-04-4.98638E-16
 -1      3377 1.38748E-03 3.21016E-04-4.91211E-16
 -1      3378 1.57477E-03 3.67294E-04-6.05676E-16
 -1      3379 1.84293E-03 3.86586E-04-8.41937E-16
 -1      3380 1.69963E-03 3.75174E-04-7.12416E-16
 -1      3381 1.65599E-03 3.44980E-04-7.02888E-16
 -1      3382 1.90654E-03 3.55695E-04-9.43378E-16
 -1      3383 1.01972E-02-1.08846E-04-3.70318E-14
 -1      3384 1.04747E-02-2.14517E-04-3.78304E-14
 -1      3385 1.03406E-02-1.87128E-04-3.70349E-14
 -1      3386 1.05322E-02-2.66083E-04-3.76600E-14
 -1      3387 1.35195E-02 6.53099E-04-5.18758E-14
 -1      3388 1.01036E-02-6.22032E-05-3.68140E-14
 -1      3389 1.41634E-02-5.92368E-04-5.59059E-14
 -1      3390 1.03909E-02 6.56467E-05-3.71324E-14
 -1      3391 1.86182E-03-2.80030E-04-1.16762E-15
 -1      3392 2.00605E-03-2.87373E-04-1.34056E-15
 -1      3393 1.06868E-02-3.56883E-04-3.79961E-14
 -1      3394 2.15035E-03-2.93444E-04-1.52595E-15
 -1      3395 2.29470E-03-2.98361E-04-1.72465E-15
 -1      3396 2.07293E-03-2.54665E-04-1.43250E-15
 -1      3397 2.43905E-03-3.02325E-04-1.93676E-15
 -1      3398 2.58336E-03-3.05433E-04-2.16191E-15
 -1      3399 2.36214E-03-2.63665E-04-1.82960E-15
 -1      3400 2.72763E-03-3.07848E-04-2.39953E-15
 -1      3401 2.87182E-03-3.09645E-04-2.65098E-15
 -1      3402 2.65139E-03-2.69380E-04-2.27867E-15
 -1      3403 3.01594E-03-3.10953E-04-2.91642E-15
 -1      3404 3.15998E-03-3.11828E-04-3.19527E-15
 -1      3405 2.94044E-03-2.72703E-04-2.78030E-15
 -1      3406 3.30393E-03-3.12369E-04-3.48834E-15
 -1      3407 3.44780E-03-3.12613E-04-3.79437E-15
 -1      3408 3.22914E-03-2.74336E-04-3.33667E-15
 -1      3409 3.59159E-03-3.12634E-04-4.11508E-15
 -1      3410 3.73529E-03-3.12458E-04-4.45004E-15
 -1      3411 3.51746E-03-2.74809E-04-3.94818E-15
 -1      3412 3.87892E-03-3.12136E-04-4.79848E-15
 -1      3413 4.02247E-03-3.11684E-04-5.16113E-15
 -1      3414 3.80537E-03-2.74505E-04-4.61548E-15
 -1      3415 4.16595E-03-3.11137E-04-5.53913E-15
 -1      3416 4.30937E-03-3.10503E-04-5.93153E-15
 -1      3417 4.09291E-03-2.73691E-04-5.34033E-15
 -1      3418 4.45272E-03-3.09804E-04-6.33796E-15
 -1      3419 4.59601E-03-3.09042E-04-6.75968E-15
 -1      3420 4.38009E-03-2.72539E-04-6.12283E-15
 -1      3421 4.73925E-03-3.08228E-04-7.19626E-15
 -1      3422 4.88243E-03-3.07359E-04-7.64735E-15
 -1      3423 4.66695E-03-2.71149E-04-6.96393E-15
 -1      3424 5.02556E-03-3.06440E-04-8.11420E-15
 -1      3425 5.16863E-03-3.05463E-04-8.59528E-15
 -1      3426 4.95351E-03-2.69562E-04-7.86502E-15
 -1      3427 5.31166E-03-3.04427E-04-9.09163E-15
 -1      3428 5.45463E-03-3.03321E-04-9.60365E-15
 -1      3429 5.23979E-03-2.67774E-04-8.82619E-15
 -1      3430 5.59755E-03-3.02140E-04-1.01303E-14
 -1      3431 5.74041E-03-3.00871E-04-1.06741E-14
 -1      3432 5.52578E-03-2.65751E-04-9.84864E-15
 -1      3433 5.88321E-03-2.99504E-04-1.12321E-14
 -1      3434 6.02594E-03-2.98027E-04-1.18044E-14
 -1      3435 5.81147E-03-2.63428E-04-1.09322E-14
 -1      3436 6.16859E-03-2.96427E-04-1.23928E-14
 -1      3437 6.31117E-03-2.94691E-04-1.29953E-14
 -1      3438 6.09679E-03-2.60726E-04-1.20766E-14
 -1      3439 6.45365E-03-2.92808E-04-1.36133E-14
 -1      3440 6.59602E-03-2.90762E-04-1.42462E-14
 -1      3441 6.38168E-03-2.57555E-04-1.32809E-14
 -1      3442 6.73827E-03-2.88547E-04-1.48924E-14
 -1      3443 6.88039E-03-2.86146E-04-1.55536E-14
 -1      3444 6.66602E-03-2.53824E-04-1.45430E-14
 -1      3445 7.02235E-03-2.83561E-04-1.62290E-14
 -1      3446 7.16414E-03-2.80775E-04-1.69182E-14
 -1      3447 6.94966E-03-2.49452E-04-1.58628E-14
 -1      3448 7.30572E-03-2.77802E-04-1.76207E-14
 -1      3449 7.44709E-03-2.74628E-04-1.83371E-14
 -1      3450 7.23241E-03-2.44390E-04-1.72387E-14
 -1      3451 7.58818E-03-2.71282E-04-1.90658E-14
 -1      3452 7.72902E-03-2.67758E-04-1.98088E-14
 -1      3453 7.51403E-03-2.38631E-04-1.86686E-14
 -1      3454 7.86952E-03-2.64108E-04-2.05647E-14
 -1      3455 8.00969E-03-2.60333E-04-2.13322E-14
 -1      3456 7.79422E-03-2.32249E-04-2.01498E-14
 -1      3457 8.14946E-03-2.56518E-04-2.21139E-14
 -1      3458 8.28884E-03-2.52674E-04-2.29101E-14
 -1      3459 8.07265E-03-2.25421E-04-2.16847E-14
 -1      3460 8.42774E-03-2.48928E-04-2.37177E-14
 -1      3461 8.56622E-03-2.45307E-04-2.45384E-14
 -1      3462 8.34896E-03-2.18467E-04-2.32712E-14
 -1      3463 8.70416E-03-2.41983E-04-2.53713E-14
 -1      3464 8.84166E-03-2.39010E-04-2.62139E-14
 -1      3465 8.62279E-03-2.11880E-04-2.49093E-14
 -1      3466 8.97863E-03-2.36603E-04-2.70648E-14
 -1      3467 9.11523E-03-2.34859E-04-2.79251E-14
 -1      3468 8.89383E-03-2.06360E-04-2.65926E-14
 -1      3469 9.25139E-03-2.34028E-04-2.87945E-14
 -1      3470 9.38741E-03-2.34281E-04-2.96726E-14
 -1      3471 9.16199E-03-2.02824E-04-2.83116E-14
 -1      3472 9.52326E-03-2.35879E-04-3.05579E-14
 -1      3473 9.65950E-03-2.39143E-04-3.14499E-14
 -1      3474 9.42754E-03-2.02414E-04-3.00627E-14
 -1      3475 9.79616E-03-2.44305E-04-3.23507E-14
 -1      3476 9.93427E-03-2.52035E-04-3.32616E-14
 -1      3477 9.69152E-03-2.06558E-04-3.18457E-14
 -1      3478 1.00739E-02-2.62476E-04-3.41819E-14
 -1      3479 1.02170E-02-2.76973E-04-3.51112E-14
 -1      3480 9.95643E-03-2.17271E-04-3.36643E-14
 -1      3481 1.03782E-02-2.84620E-04-3.62507E-14
 -1      3482 1.05300E-02-3.10567E-04-3.71969E-14
 -1      3483 1.24612E-02-1.26402E-03-4.65073E-14
 -1      3484 4.53856E-03 3.46852E-04-5.97689E-15
 -1      3485 4.39539E-03 3.47572E-04-5.57855E-15
 -1      3486 4.25217E-03 3.48222E-04-5.19659E-15
 -1      3487 4.10892E-03 3.48797E-04-4.83049E-15
 -1      3488 4.32266E-03 3.10333E-04-5.44366E-15
 -1      3489 3.96561E-03 3.49273E-04-4.47925E-15
 -1      3490 3.82226E-03 3.49638E-04-4.14207E-15
 -1      3491 4.03574E-03 3.11386E-04-4.70736E-15
 -1      3492 4.82478E-03 3.45239E-04-6.81906E-15
 -1      3493 4.68169E-03 3.46075E-04-6.38998E-15
 -1      3494 4.60931E-03 3.09007E-04-6.24144E-15
 -1      3495 5.11086E-03 3.43402E-04-7.72384E-15
 -1      3496 4.96784E-03 3.44350E-04-7.26410E-15
 -1      3497 4.89573E-03 3.07462E-04-7.10201E-15
 -1      3498 5.39681E-03 3.41313E-04-8.69220E-15
 -1      3499 5.25385E-03 3.42392E-04-8.19990E-15
 -1      3500 5.18194E-03 3.05705E-04-8.02495E-15
 -1      3501 5.68262E-03 3.38913E-04-9.72098E-15
 -1      3502 5.53973E-03 3.40157E-04-9.19905E-15
 -1      3503 5.46793E-03 3.03703E-04-9.00995E-15
 -1      3504 5.96828E-03 3.36115E-04-1.08085E-14
 -1      3505 5.82547E-03 3.37570E-04-1.02574E-14
 -1      3506 5.75369E-03 3.01392E-04-1.00553E-14
 -1      3507 6.25376E-03 3.32816E-04-1.19543E-14
 -1      3508 6.11104E-03 3.34535E-04-1.13740E-14
 -1      3509 6.03919E-03 2.98688E-04-1.11592E-14
 -1      3510 6.53902E-03 3.28910E-04-1.31556E-14
 -1      3511 6.39642E-03 3.30947E-04-1.25482E-14
 -1      3512 6.32440E-03 2.95493E-04-1.23208E-14
 -1      3513 6.82401E-03 3.24294E-04-1.44127E-14
 -1      3514 6.68155E-03 3.26698E-04-1.37776E-14
 -1      3515 6.60922E-03 2.91704E-04-1.35371E-14
 -1      3516 7.10866E-03 3.18890E-04-1.57241E-14
 -1      3517 6.96638E-03 3.21696E-04-1.50612E-14
 -1      3518 6.89358E-03 2.87229E-04-1.48103E-14
 -1      3519 7.39288E-03 3.12663E-04-1.70884E-14
 -1      3520 7.25082E-03 3.15882E-04-1.64000E-14
 -1      3521 7.17734E-03 2.81998E-04-1.61365E-14
 -1      3522 7.67660E-03 3.05655E-04-1.85039E-14
 -1      3523 7.53480E-03 3.09254E-04-1.77900E-14
 -1      3524 7.46039E-03 2.75984E-04-1.75166E-14
 -1      3525 7.95973E-03 2.98020E-04-1.99713E-14
 -1      3526 7.81823E-03 3.01906E-04-1.92314E-14
 -1      3527 7.74256E-03 2.69234E-04-1.89478E-14
 -1      3528 8.24226E-03 2.90073E-04-2.14888E-14
 -1      3529 8.10106E-03 2.94065E-04-2.07235E-14
 -1      3530 8.02373E-03 2.61899E-04-2.04299E-14
 -1      3531 8.52426E-03 2.82348E-04-2.30541E-14
 -1      3532 8.38330E-03 2.86147E-04-2.22669E-14
 -1      3533 8.30381E-03 2.54275E-04-2.19622E-14
 -1      3534 8.80598E-03 2.75666E-04-2.46669E-14
 -1      3535 8.66511E-03 2.78819E-04-2.38544E-14
 -1      3536 8.58279E-03 2.46851E-04-2.35446E-14
 -1      3537 9.08799E-03 2.71218E-04-2.63242E-14
 -1      3538 8.94687E-03 2.73074E-04-2.54897E-14
 -1      3539 8.86090E-03 2.40361E-04-2.51717E-14
 -1      3540 9.37142E-03 2.70670E-04-2.80223E-14
 -1      3541 9.22940E-03 2.70319E-04-2.71679E-14
 -1      3542 9.13873E-03 2.35848E-04-2.68421E-14
 -1      3543 9.65826E-03 2.76333E-04-2.97625E-14
 -1      3544 9.51422E-03 2.72509E-04-2.88872E-14
 -1      3545 9.41745E-03 2.34761E-04-2.85527E-14
 -1      3546 9.95176E-03 2.91473E-04-3.15445E-14
 -1      3547 9.80389E-03 2.82372E-04-3.06477E-14
 -1      3548 9.69925E-03 2.39141E-04-3.03060E-14
 -1      3549 1.02568E-02 3.20885E-04-3.33666E-14
 -1      3550 1.01025E-02 3.03815E-04-3.24503E-14
 -1      3551 9.98783E-03 2.52041E-04-3.20968E-14
 -1      3552 1.05803E-02 3.71846E-04-3.52311E-14
 -1      3553 1.04158E-02 3.42729E-04-3.42941E-14
 -1      3554 1.02890E-02 2.78347E-04-3.39283E-14
 -1      3555 1.13641E-02 6.27636E-04-3.92782E-14
 -1      3556 1.11731E-02 5.55404E-04-3.82813E-14
 -1      3557 1.19303E-02 9.02497E-04-4.22058E-14
 -1      3558 1.00558E-02-6.77108E-05-3.61377E-14
 -1      3559 1.00464E-02-5.06558E-05-3.60925E-14
 -1      3560 1.41469E-02 3.22396E-04-5.51597E-14
 -1      3561 1.40512E-02 3.82336E-04-5.51435E-14
 -1      3562 1.39221E-02 4.46524E-04-5.43772E-14
 -1      3563 1.40729E-02 3.44492E-04-5.43811E-14
 -1      3564 1.14966E-02 6.87358E-04-3.99477E-14
 -1      3565 1.57399E-03-2.60715E-04-8.58471E-16
 -1      3566 1.71778E-03-2.71195E-04-1.00694E-15
 -1      3567 1.78420E-03-2.41304E-04-1.08721E-15
 -1      3568 1.07638E-02 2.85295E-04-3.72835E-14
 -1      3569 1.09773E-02 4.17784E-04-3.77797E-14
 -1      3570 1.08824E-02 4.22025E-04-3.70460E-14
 -1      3571 1.02742E-03-3.65330E-05-4.06955E-16
 -1      3572 1.02846E-03-6.35831E-05-4.11021E-16
 -1      3573 1.17449E-03-7.87430E-05-5.18438E-16
 -1      3574 1.14766E-03-2.49330E-05-4.90710E-16
 -1      3575 1.36650E-02 5.76577E-04-5.27746E-14
 -1      3576 1.34432E-03 2.91424E-04-4.82362E-16
 -1      3577 1.30195E-03 2.62552E-04-4.72265E-16
 -1      3578 1.48765E-03 3.07229E-04-5.87326E-16
 -1      3579 1.01616E-02-1.24877E-04-3.63254E-14
 -1      3580 1.00903E-02-9.36344E-05-3.61533E-14
 -1      3581 1.05965E-02 2.11779E-04-3.67710E-14
 -1      3582 3.10457E-03 3.48487E-04-2.67183E-15
 -1      3583 2.96083E-03 3.47315E-04-2.41906E-15
 -1      3584 1.02566E-02 3.58423E-05-3.65084E-14
 -1      3585 1.03425E-02 8.76397E-05-3.63575E-14
 -1      3586 1.37981E-02 5.05639E-04-5.35328E-14
 -1      3587 1.29515E-03 2.27676E-04-4.92431E-16
 -1      3588 1.00403E-02-3.53936E-05-3.58857E-14
 -1      3589 1.00463E-02-1.91701E-05-3.56801E-14
 -1      3590 9.97311E-03-4.06508E-05-3.52176E-14
 -1      3591 1.38675E-02 4.55665E-04-5.35345E-14
 -1      3592 1.02401E-02-2.26971E-04-3.57197E-14
 -1      3593 2.46281E-03 3.75725E-04-1.60499E-15
 -1      3594 2.81703E-03 3.45644E-04-2.18003E-15
 -1      3595 2.67316E-03 3.43411E-04-1.95544E-15
 -1      3596 2.88497E-03 3.09005E-04-2.34001E-15
 -1      3597 1.07065E-02 3.77765E-04-3.60846E-14
 -1      3598 1.05652E-02 2.98332E-04-3.57048E-14
 -1      3599 1.00059E-02-8.01233E-05-3.54380E-14
 -1      3600 1.14371E-03 1.48701E-04-4.26823E-16
 -1      3601 1.25741E-03 4.78523E-05-5.55694E-16
 -1      3602 1.25667E-03 1.67824E-05-5.64869E-16
 -1      3603 1.94820E-03 3.21049E-04-1.02599E-15
 -1      3604 1.82249E-03 3.17552E-04-8.95050E-16
 -1      3605 1.01656E-02 1.98583E-05-3.60483E-14
 -1      3606 1.02208E-02-1.91762E-04-3.59390E-14
 -1      3607 1.01851E-02-1.53809E-04-3.61092E-14
 -1      3608 1.00564E-02-1.34296E-04-3.52381E-14
 -1      3609 1.00808E-02-1.93464E-04-3.48065E-14
 -1      3610 3.67884E-03 3.49853E-04-3.81944E-15
 -1      3611 3.53537E-03 3.49897E-04-3.51158E-15
 -1      3612 3.74854E-03 3.12042E-04-4.03085E-15
 -1      3613 1.31103E-03-2.19395E-04-6.22440E-16
 -1      3614 1.46195E-03-2.43843E-04-7.53141E-16
 -1      3615 1.52828E-03-2.17310E-04-8.22706E-16
 -1      3616 1.30577E-03-1.85383E-04-6.23552E-16
 -1      3617 2.23624E-03 3.34154E-04-1.35342E-15
 -1      3618 2.09221E-03 3.28270E-04-1.18345E-15
 -1      3619 2.00907E-03 2.91036E-04-1.12527E-15
 -1      3620 1.29828E-03-1.19493E-04-6.20272E-16
 -1      3621 1.30154E-03-1.52133E-04-6.22833E-16
 -1      3622 1.41211E-03-1.66722E-04-7.18975E-16
 -1      3623 1.26108E-03 1.10500E-04-5.33251E-16
 -1      3624 1.25888E-03 7.90056E-05-5.45150E-16
 -1      3625 1.38058E-03 6.71043E-05-6.49695E-16
 -1      3626 1.04198E-02 1.48730E-04-3.61407E-14
 -1      3627 1.05070E-02 2.28276E-04-3.59302E-14
 -1      3628 1.03967E-02 2.33460E-04-3.50851E-14
 -1      3629 1.02746E-02 1.10947E-04-3.55265E-14
 -1      3630 3.24824E-03 3.49271E-04-2.93794E-15
 -1      3631 3.17316E-03 3.11232E-04-2.84867E-15
 -1      3632 3.39184E-03 3.49714E-04-3.21778E-15
 -1      3633 1.99607E-03-2.16403E-04-1.34063E-15
 -1      3634 2.14076E-03-2.21265E-04-1.52564E-15
 -1      3635 4.96677E-03 2.69702E-04-7.38709E-15
 -1      3636 4.82352E-03 2.70449E-04-6.93961E-15
 -1      3637 2.28557E-03-2.25250E-04-1.72390E-15
 -1      3638 2.43045E-03-2.28442E-04-1.93530E-15
 -1      3639 2.20944E-03-1.87202E-04-1.61999E-15
 -1      3640 2.57534E-03-2.30980E-04-2.15949E-15
 -1      3641 2.72019E-03-2.32931E-04-2.39599E-15
 -1      3642 2.49955E-03-1.92739E-04-2.04101E-15
 -1      3643 2.86500E-03-2.34410E-04-2.64625E-15
 -1      3644 3.00972E-03-2.35467E-04-2.91035E-15
 -1      3645 2.78970E-03-1.96138E-04-2.51417E-15
 -1      3646 3.15434E-03-2.36196E-04-3.18707E-15
 -1      3647 3.29886E-03-2.36631E-04-3.47796E-15
 -1      3648 3.07960E-03-1.97992E-04-3.03955E-15
 -1      3649 3.44327E-03-2.36843E-04-3.78324E-15
 -1      3650 3.58756E-03-2.36855E-04-4.10158E-15
 -1      3651 3.36908E-03-1.98764E-04-3.61941E-15
 -1      3652 3.73174E-03-2.36720E-04-4.43469E-15
 -1      3653 3.87581E-03-2.36453E-04-4.78139E-15
 -1      3654 3.65808E-03-1.98799E-04-4.25517E-15
 -1      3655 4.01977E-03-2.36091E-04-5.14298E-15
 -1      3656 4.16361E-03-2.35640E-04-5.51947E-15
 -1      3657 3.94657E-03-1.98345E-04-4.94743E-15
 -1      3658 4.30736E-03-2.35127E-04-5.90928E-15
 -1      3659 4.45101E-03-2.34552E-04-6.31396E-15
 -1      3660 4.23457E-03-1.97570E-04-5.69746E-15
 -1      3661 4.59456E-03-2.33932E-04-6.73321E-15
 -1      3662 4.73802E-03-2.33264E-04-7.16771E-15
 -1      3663 4.52211E-03-1.96576E-04-6.50512E-15
 -1      3664 4.88139E-03-2.32556E-04-7.61836E-15
 -1      3665 5.02467E-03-2.31802E-04-8.08327E-15
 -1      3666 4.80921E-03-1.95418E-04-7.37264E-15
 -1      3667 5.16787E-03-2.31005E-04-8.56241E-15
 -1      3668 5.31097E-03-2.30156E-04-9.05738E-15
 -1      3669 5.09590E-03-1.94109E-04-8.30087E-15
 -1      3670 5.45399E-03-2.29254E-04-9.56818E-15
 -1      3671 5.59691E-03-2.28287E-04-1.00939E-14
 -1      3672 5.38218E-03-1.92635E-04-9.28990E-15
 -1      3673 5.73973E-03-2.27253E-04-1.06346E-14
 -1      3674 5.88245E-03-2.26137E-04-1.11907E-14
 -1      3675 5.66801E-03-1.90958E-04-1.03390E-14
 -1      3676 6.02504E-03-2.24934E-04-1.17624E-14
 -1      3677 6.16751E-03-2.23630E-04-1.23484E-14
 -1      3678 5.95336E-03-1.89023E-04-1.14491E-14
 -1      3679 6.30984E-03-2.22221E-04-1.29494E-14
 -1      3680 6.45200E-03-2.20688E-04-1.35647E-14
 -1      3681 6.23812E-03-1.86767E-04-1.26201E-14
 -1      3682 6.59399E-03-2.19032E-04-1.41959E-14
 -1      3683 6.73577E-03-2.17233E-04-1.48400E-14
 -1      3684 6.52217E-03-1.84120E-04-1.38493E-14
 -1      3685 6.87732E-03-2.15295E-04-1.54981E-14
 -1      3686 7.01862E-03-2.13200E-04-1.61716E-14
 -1      3687 6.80532E-03-1.81021E-04-1.51365E-14
 -1      3688 7.15963E-03-2.10960E-04-1.68585E-14
 -1      3689 7.30031E-03-2.08555E-04-1.75590E-14
 -1      3690 7.08733E-03-1.77422E-04-1.64805E-14
 -1      3691 7.44062E-03-2.06012E-04-1.82730E-14
 -1      3692 7.58053E-03-2.03312E-04-1.89990E-14
 -1      3693 7.36791E-03-1.73305E-04-1.78791E-14
 -1      3694 7.71996E-03-2.00499E-04-1.97384E-14
 -1      3695 7.85891E-03-1.97555E-04-2.04915E-14
 -1      3696 7.64668E-03-1.68700E-04-1.93299E-14
 -1      3697 7.99726E-03-1.94551E-04-2.12568E-14
 -1      3698 8.13502E-03-1.91470E-04-2.20355E-14
 -1      3699 7.92320E-03-1.63703E-04-2.08320E-14
 -1      3700 8.27208E-03-1.88412E-04-2.28283E-14
 -1      3701 8.40842E-03-1.85364E-04-2.36330E-14
 -1      3702 8.19698E-03-1.58500E-04-2.23869E-14
 -1      3703 8.54392E-03-1.82462E-04-2.44509E-14
 -1      3704 8.67860E-03-1.79692E-04-2.52805E-14
 -1      3705 8.46742E-03-1.53381E-04-2.39938E-14
 -1      3706 8.81231E-03-1.77229E-04-2.61211E-14
 -1      3707 8.94511E-03-1.75058E-04-2.69702E-14
 -1      3708 8.73392E-03-1.48748E-04-2.56499E-14
 -1      3709 9.07683E-03-1.73390E-04-2.78281E-14
 -1      3710 9.20762E-03-1.72207E-04-2.86948E-14
 -1      3711 8.99582E-03-1.45104E-04-2.73475E-14
 -1      3712 9.33726E-03-1.71745E-04-2.95692E-14
 -1      3713 9.46606E-03-1.71992E-04-3.04525E-14
 -1      3714 9.25247E-03-1.43009E-04-2.90775E-14
 -1      3715 9.59374E-03-1.73193E-04-3.13424E-14
 -1      3716 9.72093E-03-1.75392E-04-3.22403E-14
 -1      3717 9.50329E-03-1.43020E-04-3.08394E-14
 -1      3718 9.83662E-03-1.80407E-04-3.30567E-14
 -1      3719 9.96373E-03-1.85310E-04-3.39731E-14
 -1      3720 9.95849E-03-1.56162E-04-3.41881E-14
 -1      3721 9.73750E-03-1.47230E-04-3.25442E-14
 -1      3722 4.39334E-03 2.72398E-04-5.69220E-15
 -1      3723 4.24979E-03 2.72943E-04-5.30752E-15
 -1      3724 4.68021E-03 2.71147E-04-6.50837E-15
 -1      3725 4.53681E-03 2.71800E-04-6.09225E-15
 -1      3726 4.46422E-03 2.34453E-04-5.94326E-15
 -1      3727 4.75123E-03 2.33306E-04-6.77704E-15
 -1      3728 9.94307E-03-9.02119E-05-3.47053E-14
 -1      3729 9.92100E-03-6.43013E-05-3.46901E-14
 -1      3730 4.10615E-03 2.73416E-04-4.93813E-15
 -1      3731 3.96243E-03 2.73813E-04-4.58384E-15
 -1      3732 4.17682E-03 2.35404E-04-5.17068E-15
 -1      3733 5.25304E-03 2.68058E-04-8.32689E-15
 -1      3734 5.10994E-03 2.68907E-04-7.84956E-15
 -1      3735 5.03788E-03 2.31988E-04-7.67302E-15
 -1      3736 5.53902E-03 2.66177E-04-9.32963E-15
 -1      3737 5.39607E-03 2.67151E-04-8.82069E-15
 -1      3738 5.32416E-03 2.30486E-04-8.63064E-15
 -1      3739 5.82468E-03 2.63996E-04-1.03908E-14
 -1      3740 5.68189E-03 2.65130E-04-9.85246E-15
 -1      3741 5.61008E-03 2.28761E-04-9.65000E-15
 -1      3742 6.10997E-03 2.61435E-04-1.15113E-14
 -1      3743 5.96737E-03 2.62770E-04-1.09442E-14
 -1      3744 5.89559E-03 2.26752E-04-1.07282E-14
 -1      3745 6.39483E-03 2.58400E-04-1.26871E-14
 -1      3746 6.25246E-03 2.59984E-04-1.20920E-14
 -1      3747 6.18062E-03 2.24383E-04-1.18635E-14
 -1      3748 6.67915E-03 2.54799E-04-1.39208E-14
 -1      3749 6.53706E-03 2.56678E-04-1.32972E-14
 -1      3750 6.46508E-03 2.21571E-04-1.30557E-14
 -1      3751 6.96279E-03 2.50547E-04-1.52086E-14
 -1      3752 6.82106E-03 2.52762E-04-1.45580E-14
 -1      3753 6.74883E-03 2.18229E-04-1.43057E-14
 -1      3754 7.24558E-03 2.45582E-04-1.65512E-14
 -1      3755 7.10430E-03 2.48160E-04-1.58737E-14
 -1      3756 7.03168E-03 2.14284E-04-1.56099E-14
 -1      3757 7.52735E-03 2.39886E-04-1.79459E-14
 -1      3758 7.38660E-03 2.42830E-04-1.72420E-14
 -1      3759 7.31343E-03 2.09682E-04-1.69672E-14
 -1      3760 7.80786E-03 2.33503E-04-1.93927E-14
 -1      3761 7.66776E-03 2.36782E-04-1.86624E-14
 -1      3762 7.59382E-03 2.04407E-04-1.83783E-14
 -1      3763 8.08693E-03 2.26574E-04-2.08898E-14
 -1      3764 7.94758E-03 2.30103E-04-2.01350E-14
 -1      3765 7.87258E-03 1.98499E-04-1.98398E-14
 -1      3766 8.36438E-03 2.19363E-04-2.24385E-14
 -1      3767 8.22585E-03 2.22993E-04-2.16579E-14
 -1      3768 8.14942E-03 1.92078E-04-2.13522E-14
 -1      3769 8.64015E-03 2.12294E-04-2.40363E-14
 -1      3770 8.50245E-03 2.15789E-04-2.32321E-14
 -1      3771 8.42411E-03 1.85362E-04-2.29176E-14
 -1      3772 8.91440E-03 2.05988E-04-2.56775E-14
 -1      3773 8.77742E-03 2.09009E-04-2.48502E-14
 -1      3774 8.69649E-03 1.78690E-04-2.45303E-14
 -1      3775 9.18763E-03 2.01306E-04-2.73605E-14
 -1      3776 9.05105E-03 2.03383E-04-2.65139E-14
 -1      3777 8.96660E-03 1.72543E-04-2.61838E-14
 -1      3778 9.46101E-03 1.99434E-04-2.90852E-14
 -1      3779 9.32414E-03 1.99915E-04-2.82175E-14
 -1      3780 9.23482E-03 1.67559E-04-2.78810E-14
 -1      3781 9.73676E-03 2.02085E-04-3.08491E-14
 -1      3782 9.59831E-03 2.00002E-04-2.99625E-14
 -1      3783 9.50215E-03 1.64601E-04-2.96185E-14
 -1      3784 1.00188E-02 2.12067E-04-3.26497E-14
 -1      3785 9.87653E-03 2.05783E-04-3.17452E-14
 -1      3786 9.77066E-03 1.64998E-04-3.13919E-14
 -1      3787 1.02794E-02 2.26383E-04-3.43218E-14
 -1      3788 1.01311E-02 2.14314E-04-3.33977E-14
 -1      3789 1.00131E-02 1.66036E-04-3.30362E-14
 -1      3790 1.02292E-02 1.66938E-04-3.45441E-14
 -1      3791 1.45227E-03 2.38133E-04-6.13401E-16
 -1      3792 1.30391E-03 1.90593E-04-5.23521E-16
 -1      3793 1.39154E-03 4.80343E-06-6.80540E-16
 -1      3794 1.26907E-03-1.10616E-05-5.82081E-16
 -1      3795 1.28205E-03-3.92913E-05-5.98344E-16
 -1      3796 1.00650E-02 8.83600E-06-3.53803E-14
 -1      3797 1.00943E-02 4.26331E-05-3.50761E-14
 -1      3798 9.97335E-03 1.10618E-06-3.47153E-14
 -1      3799 1.71763E-03 3.16994E-04-7.89408E-16
 -1      3800 1.59219E-03 3.10615E-04-6.76773E-16
 -1      3801 1.54973E-03 2.81398E-04-6.64250E-16
 -1      3802 1.75964E-03 2.84054E-04-8.62483E-16
 -1      3803 1.30818E-02 8.98723E-04-4.93696E-14
 -1      3804 1.70743E-03-2.03480E-04-1.00836E-15
 -1      3805 1.85160E-03-2.10509E-04-1.16859E-15
 -1      3806 1.91987E-03-1.78809E-04-1.25018E-15
 -1      3807 1.50364E-03-1.78256E-04-8.03597E-16
 -1      3808 1.61523E-03-1.92407E-04-9.12817E-16
 -1      3809 1.68330E-03-1.63253E-04-9.85269E-16
 -1      3810 1.49974E-03-1.42808E-04-8.01063E-16
 -1      3811 1.29953E-03 1.57153E-04-5.39919E-16
 -1      3812 2.52922E-03 3.40467E-04-1.74435E-15
 -1      3813 2.38523E-03 3.36730E-04-1.54611E-15
 -1      3814 2.59647E-03 3.04796E-04-1.88615E-15
 -1      3815 9.89840E-03-4.78033E-05-3.44882E-14
 -1      3816 9.88515E-03-3.18704E-05-3.42863E-14
 -1      3817 9.82309E-03-5.65516E-05-3.37647E-14
 -1      3818 2.95360E-03 2.72044E-04-2.50231E-15
 -1      3819 2.80910E-03 2.70627E-04-2.25988E-15
 -1      3820 1.28256E-03-6.45622E-05-6.02938E-16
 -1      3821 1.29670E-03-9.36318E-05-6.17643E-16
 -1      3822 1.40663E-03-1.05288E-04-7.13527E-16
 -1      3823 1.40457E-03-5.15840E-05-7.04975E-16
 -1      3824 1.42078E-03 1.48423E-04-6.44883E-16
 -1      3825 1.50809E-03 2.35781E-05-7.79799E-16
 -1      3826 1.52055E-03-7.44706E-06-8.01049E-16
 -1      3827 2.30273E-03 2.99978E-04-1.47781E-15
 -1      3828 3.46102E-03 3.12095E-04-3.41165E-15
 -1      3829 1.55711E-03 2.40287E-04-7.04216E-16
 -1      3830 1.51081E-03 9.27896E-05-7.54063E-16
 -1      3831 1.50905E-03 5.80910E-05-7.67913E-16
 -1      3832 1.63829E-03 4.75998E-05-8.96215E-16
 -1      3833 2.07588E-03 2.58336E-04-1.23481E-15
 -1      3834 1.93142E-03 2.52207E-04-1.07369E-15
 -1      3835 9.95062E-03-1.33437E-04-3.43424E-14
 -1      3836 9.94657E-03-1.08800E-04-3.45544E-14
 -1      3837 9.84548E-03-9.09686E-05-3.38151E-14
 -1      3838 9.84535E-03-1.29608E-04-3.35145E-14
 -1      3839 1.01332E-02 7.51674E-05-3.49204E-14
 -1      3840 1.01887E-02 1.25883E-04-3.47065E-14
 -1      3841 1.00860E-02 1.27499E-04-3.39478E-14
 -1      3842 1.00185E-02 5.96657E-05-3.42630E-14
 -1      3843 3.81860E-03 2.74105E-04-4.24351E-15
 -1      3844 3.67469E-03 2.74281E-04-3.91804E-15
 -1      3845 3.88901E-03 2.36088E-04-4.45911E-15
 -1      3846 3.24233E-03 2.73735E-04-3.02753E-15
 -1      3847 3.09802E-03 2.73066E-04-2.75847E-15
 -1      3848 3.02287E-03 2.34818E-04-2.66710E-15
 -1      3849 1.89302E-03 2.22599E-04-1.05589E-15
 -1      3850 1.82586E-03 2.53760E-04-9.57500E-16
 -1      3851 1.72047E-03 2.54339E-04-8.48619E-16
 -1      3852 2.73333E-03 2.32248E-04-2.17921E-15
 -1      3853 2.66453E-03 2.68705E-04-2.03113E-15
 -1      3854 2.51990E-03 2.66220E-04-1.81607E-15
 -1      3855 5.10905E-03 1.94338E-04-7.96157E-15
 -1      3856 4.96577E-03 1.94939E-04-7.49718E-15
 -1      3857 2.42416E-03-1.54771E-04-1.92431E-15
 -1      3858 2.56942E-03-1.56567E-04-2.14724E-15
 -1      3859 2.71467E-03-1.57970E-04-2.38290E-15
 -1      3860 2.85989E-03-1.59015E-04-2.63133E-15
 -1      3861 2.63998E-03-1.19977E-04-2.25332E-15
 -1      3862 3.00503E-03-1.59781E-04-2.89387E-15
 -1      3863 3.15007E-03-1.60291E-04-3.16903E-15
 -1      3864 2.93069E-03-1.21615E-04-2.74916E-15
 -1      3865 3.29499E-03-1.60609E-04-3.45763E-15
 -1      3866 3.43979E-03-1.60750E-04-3.76070E-15
 -1      3867 3.22105E-03-1.22417E-04-3.29825E-15
 -1      3868 3.58446E-03-1.60764E-04-4.07787E-15
 -1      3869 3.72898E-03-1.60657E-04-4.40837E-15
 -1      3870 3.51093E-03-1.22639E-04-3.90161E-15
 -1      3871 3.87338E-03-1.60467E-04-4.75284E-15
 -1      3872 4.01764E-03-1.60197E-04-5.11287E-15
 -1      3873 3.80024E-03-1.22472E-04-4.56122E-15
 -1      3874 4.16176E-03-1.59873E-04-5.48724E-15
 -1      3875 4.30576E-03-1.59495E-04-5.87539E-15
 -1      3876 4.08898E-03-1.22046E-04-5.27803E-15
 -1      3877 4.44963E-03-1.59081E-04-6.27867E-15
 -1      3878 4.59337E-03-1.58627E-04-6.69671E-15
 -1      3879 4.37715E-03-1.21450E-04-6.05371E-15
 -1      3880 4.73700E-03-1.58144E-04-7.12923E-15
 -1      3881 4.88051E-03-1.57627E-04-7.57784E-15
 -1      3882 4.66479E-03-1.20733E-04-6.88848E-15
 -1      3883 5.02391E-03-1.57081E-04-8.04135E-15
 -1      3884 5.16719E-03-1.56500E-04-8.51904E-15
 -1      3885 4.95191E-03-1.19916E-04-7.78258E-15
 -1      3886 5.31036E-03-1.55886E-04-9.01236E-15
 -1      3887 5.45340E-03-1.55231E-04-9.52098E-15
 -1      3888 5.23854E-03-1.18998E-04-8.73742E-15
 -1      3889 5.59631E-03-1.54533E-04-1.00449E-14
 -1      3890 5.73910E-03-1.53783E-04-1.05838E-14
 -1      3891 5.52464E-03-1.17964E-04-9.75304E-15
 -1      3892 5.88174E-03-1.52980E-04-1.11380E-14
 -1      3893 6.02422E-03-1.52111E-04-1.17077E-14
 -1      3894 5.81017E-03-1.16785E-04-1.08288E-14
 -1      3895 6.16653E-03-1.51177E-04-1.22924E-14
 -1      3896 6.30865E-03-1.50162E-04-1.28911E-14
 -1      3897 6.09504E-03-1.15422E-04-1.19662E-14
 -1      3898 6.45056E-03-1.49068E-04-1.35045E-14
 -1      3899 6.59223E-03-1.47880E-04-1.41325E-14
 -1      3900 6.37912E-03-1.13836E-04-1.31624E-14
 -1      3901 6.73363E-03-1.46603E-04-1.47763E-14
 -1      3902 6.87474E-03-1.45219E-04-1.54324E-14
 -1      3903 6.66221E-03-1.11988E-04-1.44162E-14
 -1      3904 7.01550E-03-1.43741E-04-1.61025E-14
 -1      3905 7.15589E-03-1.42149E-04-1.67882E-14
 -1      3906 6.94407E-03-1.09847E-04-1.57275E-14
 -1      3907 7.29585E-03-1.40466E-04-1.74861E-14
 -1      3908 7.43535E-03-1.38668E-04-1.81972E-14
 -1      3909 7.22438E-03-1.07400E-04-1.70941E-14
 -1      3910 7.57430E-03-1.36795E-04-1.89224E-14
 -1      3911 7.71268E-03-1.34821E-04-1.96590E-14
 -1      3912 7.50273E-03-1.04661E-04-1.85151E-14
 -1      3913 7.85039E-03-1.32803E-04-2.04081E-14
 -1      3914 7.98738E-03-1.30711E-04-2.11709E-14
 -1      3915 7.77867E-03-1.01684E-04-1.99864E-14
 -1      3916 8.12355E-03-1.28628E-04-2.19470E-14
 -1      3917 8.25885E-03-1.26519E-04-2.27363E-14
 -1      3918 8.05161E-03-9.85794E-05-2.15092E-14
 -1      3919 8.39316E-03-1.24497E-04-2.35394E-14
 -1      3920 8.52643E-03-1.22514E-04-2.43534E-14
 -1      3921 8.32089E-03-9.55194E-05-2.30852E-14
 -1      3922 8.65851E-03-1.20721E-04-2.51804E-14
 -1      3923 8.78934E-03-1.19047E-04-2.60176E-14
 -1      3924 8.58574E-03-9.27473E-05-2.47118E-14
 -1      3925 8.91875E-03-1.17684E-04-2.68641E-14
 -1      3926 9.04671E-03-1.16524E-04-2.77205E-14
 -1      3927 8.84524E-03-9.05652E-05-2.63831E-14
 -1      3928 9.17296E-03-1.15805E-04-2.85852E-14
 -1      3929 9.29753E-03-1.15347E-04-2.94578E-14
 -1      3930 9.09827E-03-8.92979E-05-2.80935E-14
 -1      3931 9.42003E-03-1.15455E-04-3.03359E-14
 -1      3932 9.54059E-03-1.15836E-04-3.12235E-14
 -1      3933 9.34336E-03-8.92229E-05-2.98340E-14
 -1      3934 5.68112E-03 1.91480E-04-9.97062E-15
 -1      3935 5.53827E-03 1.92275E-04-9.44640E-15
 -1      3936 5.96644E-03 1.89687E-04-1.10660E-14
 -1      3937 5.82385E-03 1.90621E-04-1.05110E-14
 -1      3938 5.75214E-03 1.54355E-04-1.02940E-14
 -1      3939 6.25117E-03 1.87564E-04-1.22173E-14
 -1      3940 6.10888E-03 1.88673E-04-1.16346E-14
 -1      3941 6.03723E-03 1.52824E-04-1.14047E-14
 -1      3942 6.53519E-03 1.85038E-04-1.34267E-14
 -1      3943 6.39327E-03 1.86359E-04-1.28146E-14
 -1      3944 6.32162E-03 1.51003E-04-1.25733E-14
 -1      3945 6.81831E-03 1.82033E-04-1.46915E-14
 -1      3946 6.67687E-03 1.83603E-04-1.40527E-14
 -1      3947 6.60517E-03 1.48828E-04-1.37986E-14
 -1      3948 7.10034E-03 1.78483E-04-1.60130E-14
 -1      3949 6.95948E-03 1.80334E-04-1.53461E-14
 -1      3950 6.88765E-03 1.46237E-04-1.50807E-14
 -1      3951 7.38099E-03 1.74343E-04-1.73855E-14
 -1      3952 7.24085E-03 1.76495E-04-1.66915E-14
 -1      3953 7.16882E-03 1.43171E-04-1.64167E-14
 -1      3954 7.65996E-03 1.69595E-04-1.88119E-14
 -1      3955 7.52070E-03 1.72052E-04-1.80921E-14
 -1      3956 7.44835E-03 1.39591E-04-1.78062E-14
 -1      3957 7.93691E-03 1.64271E-04-2.02900E-14
 -1      3958 7.79870E-03 1.67012E-04-1.95449E-14
 -1      3959 7.72588E-03 1.35476E-04-1.92485E-14
 -1      3960 8.21148E-03 1.58461E-04-2.18181E-14
 -1      3961 8.07450E-03 1.61432E-04-2.10471E-14
 -1      3962 8.00099E-03 1.30841E-04-2.07412E-14
 -1      3963 8.48333E-03 1.52328E-04-2.33979E-14
 -1      3964 8.34775E-03 1.55437E-04-2.26010E-14
 -1      3965 8.27326E-03 1.25742E-04-2.22853E-14
 -1      3966 8.75219E-03 1.46118E-04-2.50247E-14
 -1      3967 8.61812E-03 1.49232E-04-2.42061E-14
 -1      3968 8.54222E-03 1.20277E-04-2.38799E-14
 -1      3969 9.01793E-03 1.40156E-04-2.66933E-14
 -1      3970 8.88541E-03 1.43101E-04-2.58540E-14
 -1      3971 8.80746E-03 1.14587E-04-2.55223E-14
 -1      3972 9.28072E-03 1.34850E-04-2.84043E-14
 -1      3973 9.14961E-03 1.37409E-04-2.75436E-14
 -1      3974 9.06864E-03 1.08837E-04-2.72049E-14
 -1      3975 9.54122E-03 1.30732E-04-3.01505E-14
 -1      3976 9.41109E-03 1.32605E-04-2.92728E-14
 -1      3977 9.32555E-03 1.03186E-04-2.89265E-14
 -1      3978 9.80100E-03 1.28699E-04-3.19338E-14
 -1      3979 9.67090E-03 1.29361E-04-3.10387E-14
 -1      3980 9.57836E-03 9.77871E-05-3.06834E-14
 -1      3981 2.37270E-03 2.64145E-04-1.60951E-15
 -1      3982 2.22298E-03 2.62311E-04-1.41265E-15
 -1      3983 2.14616E-03 2.23893E-04-1.35142E-15
 -1      3984 2.44098E-03 2.28906E-04-1.74006E-15
 -1      3985 3.53067E-03 2.74297E-04-3.60779E-15
 -1      3986 3.38656E-03 2.74136E-04-3.31091E-15
 -1      3987 3.31204E-03 2.36051E-04-3.20922E-15
 -1      3988 3.60076E-03 2.36373E-04-3.80579E-15
 -1      3989 9.87721E-03-7.49106E-06-3.39910E-14
 -1      3990 9.88071E-03 1.97479E-05-3.36960E-14
 -1      3991 9.78568E-03-1.56589E-05-3.32746E-14
 -1      3992 2.13388E-03-1.49674E-04-1.51723E-15
 -1      3993 2.27896E-03-1.52489E-04-1.71435E-15
 -1      3994 2.34924E-03-1.17172E-04-1.80909E-15
 -1      3995 1.63721E-03-1.73032E-05-9.17438E-16
 -1      3996 1.52050E-03-3.52830E-05-8.07920E-16
 -1      3997 1.52097E-03-6.31797E-05-8.13992E-16
 -1      3998 5.39531E-03 1.93011E-04-8.93586E-15
 -1      3999 5.25223E-03 1.93698E-04-8.44050E-15
 -1      4000 5.18029E-03 1.56778E-04-8.25070E-15
 -1      4001 1.84443E-03-1.42084E-04-1.16167E-15
 -1      4002 1.98900E-03-1.46228E-04-1.33308E-15
 -1      4003 2.05894E-03-1.12788E-04-1.41665E-15
 -1      4004 4.24775E-03 1.97365E-04-5.40662E-15
 -1      4005 4.10381E-03 1.97719E-04-5.03444E-15
 -1      4006 1.62385E-03 2.12336E-04-7.87524E-16
 -1      4007 5.46647E-03 1.55657E-04-9.24136E-15
 -1      4008 9.64001E-03-1.20862E-04-3.19569E-14
 -1      4009 9.74690E-03-1.23611E-04-3.27682E-14
 -1      4010 9.74998E-03-1.03979E-04-3.29184E-14
 -1      4011 9.55923E-03-9.42698E-05-3.14439E-14
 -1      4012 4.82238E-03 1.95499E-04-7.04838E-15
 -1      4013 4.67888E-03 1.96026E-04-6.61474E-15
 -1      4014 4.89363E-03 1.57755E-04-7.32152E-15
 -1      4015 4.53528E-03 1.96512E-04-6.19626E-15
 -1      4016 4.39157E-03 1.96963E-04-5.79361E-15
 -1      4017 4.31889E-03 1.59334E-04-5.64419E-15
 -1      4018 4.60650E-03 1.58608E-04-6.45201E-15
 -1      4019 1.50910E-03-8.89620E-05-8.06497E-16
 -1      4020 1.51061E-03-1.17026E-04-8.10468E-16
 -1      4021 1.60212E-03-1.26463E-04-9.00701E-16
 -1      4022 1.62513E-03-7.30757E-05-9.17750E-16
 -1      4023 2.21267E-03 1.89211E-04-1.46564E-15
 -1      4024 2.06519E-03 1.86435E-04-1.28371E-15
 -1      4025 9.99399E-03 1.26003E-04-3.33082E-14
 -1      4026 9.89208E-03 1.29057E-04-3.25633E-14
 -1      4027 9.79047E-03 9.40472E-05-3.22008E-14
 -1      4028 9.96444E-03 9.21502E-05-3.34668E-14
 -1      4029 3.95975E-03 1.98005E-04-4.67645E-15
 -1      4030 3.81557E-03 1.98222E-04-4.33327E-15
 -1      4031 4.03078E-03 1.59898E-04-4.89649E-15
 -1      4032 2.80285E-03 1.95432E-04-2.32939E-15
 -1      4033 2.65779E-03 1.93957E-04-2.09725E-15
 -1      4034 9.90656E-03 3.94985E-05-3.36594E-14
 -1      4035 9.93118E-03 6.75676E-05-3.35069E-14
 -1      4036 9.84769E-03 6.95843E-05-3.28712E-14
 -1      4037 9.79764E-03 2.83515E-05-3.29465E-14
 -1      4038 1.76185E-03-3.07021E-06-1.04299E-15
 -1      4039 1.76174E-03-3.30132E-05-1.05187E-15
 -1      4040 9.75581E-03-8.57599E-05-3.30679E-14
 -1      4041 9.76473E-03-6.87792E-05-3.32149E-14
 -1      4042 9.66453E-03-8.10831E-05-3.23270E-14
 -1      4043 1.98737E-03 1.49429E-04-1.21820E-15
 -1      4044 1.92046E-03 1.82577E-04-1.11793E-15
 -1      4045 1.76342E-03 7.14621E-05-1.01434E-15
 -1      4046 1.76221E-03 3.41568E-05-1.02965E-15
 -1      4047 1.88671E-03 1.96292E-05-1.17322E-15
 -1      4048 3.09276E-03 1.97336E-04-2.83416E-15
 -1      4049 2.94785E-03 1.96547E-04-2.57537E-15
 -1      4050 2.87303E-03 1.58310E-04-2.48269E-15
 -1      4051 1.69395E-03-1.35859E-04-9.96016E-16
 -1      4052 1.81450E-03 1.85275E-04-9.99458E-16
 -1      4053 1.56197E-03 1.75299E-04-7.55120E-16
 -1      4054 1.52263E-03 1.24441E-04-7.48845E-16
 -1      4055 9.73969E-03-5.13370E-05-3.30175E-14
 -1      4056 1.76347E-03-1.05120E-04-1.06793E-15
 -1      4057 1.65146E-03 1.16503E-04-8.76198E-16
 -1      4058 5.53766E-03 1.18440E-04-9.54971E-15
 -1      4059 5.39469E-03 1.18899E-04-9.03848E-15
 -1      4060 1.98472E-03-7.66885E-05-1.31834E-15
 -1      4061 2.12968E-03-7.85359E-05-1.50067E-15
 -1      4062 1.75320E-03 1.48124E-04-9.60535E-16
 -1      4063 1.72515E-03 1.86490E-04-9.05864E-16
 -1      4064 2.85668E-03-8.35633E-05-2.60664E-15
 -1      4065 3.00207E-03-8.39622E-05-2.86727E-15
 -1      4066 3.14736E-03-8.42363E-05-3.14057E-15
 -1      4067 3.29253E-03-8.43907E-05-3.42689E-15
 -1      4068 3.07397E-03-4.61087E-05-2.98446E-15
 -1      4069 3.43757E-03-8.44621E-05-3.72781E-15
 -1      4070 3.58247E-03-8.44494E-05-4.04296E-15
 -1      4071 3.36444E-03-4.62628E-05-3.55591E-15
 -1      4072 3.72722E-03-8.43846E-05-4.37093E-15
 -1      4073 3.87181E-03-8.42624E-05-4.71347E-15
 -1      4074 3.65436E-03-4.62266E-05-4.18255E-15
 -1      4075 4.01626E-03-8.41049E-05-5.07176E-15
 -1      4076 4.16056E-03-8.39100E-05-5.44366E-15
 -1      4077 3.94366E-03-4.60611E-05-4.86650E-15
 -1      4078 4.30472E-03-8.36939E-05-5.83070E-15
 -1      4079 4.44873E-03-8.34499E-05-6.23281E-15
 -1      4080 4.23236E-03-4.58194E-05-5.60928E-15
 -1      4081 4.59260E-03-8.31912E-05-6.64834E-15
 -1      4082 4.73633E-03-8.29098E-05-7.08018E-15
 -1      4083 4.52046E-03-4.55233E-05-6.41104E-15
 -1      4084 4.87993E-03-8.26152E-05-7.52640E-15
 -1      4085 5.02340E-03-8.23000E-05-7.98802E-15
 -1      4086 4.80798E-03-4.51802E-05-7.27189E-15
 -1      4087 5.16674E-03-8.19700E-05-8.46422E-15
 -1      4088 5.30993E-03-8.16182E-05-8.95539E-15
 -1      4089 5.09496E-03-4.47980E-05-8.19267E-15
 -1      4090 5.45299E-03-8.12478E-05-9.46372E-15
 -1      4091 5.59590E-03-8.08511E-05-9.98537E-15
 -1      4092 5.38137E-03-4.43768E-05-9.17530E-15
 -1      4093 5.73865E-03-8.04303E-05-1.05224E-14
 -1      4094 5.88124E-03-7.99771E-05-1.10746E-14
 -1      4095 5.66718E-03-4.39062E-05-1.02176E-14
 -1      4096 6.02364E-03-7.94936E-05-1.16419E-14
 -1      4097 6.16585E-03-7.89706E-05-1.22248E-14
 -1      4098 5.95232E-03-4.33747E-05-1.13201E-14
 -1      4099 6.30783E-03-7.84113E-05-1.28216E-14
 -1      4100 6.44957E-03-7.78050E-05-1.34327E-14
 -1      4101 6.23666E-03-4.27696E-05-1.24826E-14
 -1      4102 6.59103E-03-7.71580E-05-1.40589E-14
 -1      4103 6.73218E-03-7.64576E-05-1.46995E-14
 -1      4104 6.52004E-03-4.20799E-05-1.37033E-14
 -1      4105 6.87299E-03-7.57147E-05-1.53541E-14
 -1      4106 7.01342E-03-7.49142E-05-1.60219E-14
 -1      4107 6.80220E-03-4.12987E-05-1.49810E-14
 -1      4108 7.15341E-03-7.40746E-05-1.67046E-14
 -1      4109 7.29292E-03-7.31773E-05-1.74007E-14
 -1      4110 7.08285E-03-4.04283E-05-1.63167E-14
 -1      4111 7.43188E-03-7.22514E-05-1.81090E-14
 -1      4112 7.57025E-03-7.12742E-05-1.88316E-14
 -1      4113 7.36161E-03-3.94852E-05-1.77058E-14
 -1      4114 7.70793E-03-7.02891E-05-1.95654E-14
 -1      4115 7.84488E-03-6.92676E-05-2.03126E-14
 -1      4116 7.63801E-03-3.85070E-05-1.91446E-14
 -1      4117 7.98100E-03-6.82721E-05-2.10738E-14
 -1      4118 8.11621E-03-6.72657E-05-2.18470E-14
 -1      4119 7.91149E-03-3.75607E-05-2.06381E-14
 -1      4120 8.25040E-03-6.63354E-05-2.26334E-14
 -1      4121 8.38351E-03-6.54307E-05-2.34334E-14
 -1      4122 8.18140E-03-3.67500E-05-2.21837E-14
 -1      4123 8.51536E-03-6.46700E-05-2.42453E-14
 -1      4124 8.64591E-03-6.39801E-05-2.50682E-14
 -1      4125 8.44698E-03-3.62226E-05-2.37787E-14
 -1      4126 8.77493E-03-6.35197E-05-2.59025E-14
 -1      4127 8.90236E-03-6.31750E-05-2.67476E-14
 -1      4128 8.70728E-03-3.61720E-05-2.54220E-14
 -1      4129 9.02792E-03-6.31607E-05-2.76011E-14
 -1      4130 9.15151E-03-6.32852E-05-2.84637E-14
 -1      4131 8.96117E-03-3.68320E-05-2.71104E-14
 -1      4132 9.27275E-03-6.38502E-05-2.93333E-14
 -1      4133 9.39151E-03-6.45229E-05-3.02093E-14
 -1      4134 9.20707E-03-3.84528E-05-2.88312E-14
 -1      4135 6.10799E-03 1.16182E-04-1.17459E-14
 -1      4136 5.96566E-03 1.16823E-04-1.11755E-14
 -1      4137 5.82315E-03 1.17407E-04-1.06188E-14
 -1      4138 5.68048E-03 1.17946E-04-1.00772E-14
 -1      4139 5.60886E-03 8.13788E-05-9.85967E-15
 -1      4140 5.89416E-03 8.06516E-05-1.09447E-14
 -1      4141 6.67509E-03 1.12963E-04-1.41721E-14
 -1      4142 6.53369E-03 1.13884E-04-1.35444E-14
 -1      4143 6.95692E-03 1.10862E-04-1.54699E-14
 -1      4144 6.81617E-03 1.11963E-04-1.48133E-14
 -1      4145 6.74498E-03 7.74610E-05-1.45463E-14
 -1      4146 7.23723E-03 1.08369E-04-1.68220E-14
 -1      4147 7.09728E-03 1.09674E-04-1.61392E-14
 -1      4148 7.02618E-03 7.59298E-05-1.58596E-14
 -1      4149 7.51565E-03 1.05445E-04-1.82271E-14
 -1      4150 7.37670E-03 1.06971E-04-1.75181E-14
 -1      4151 7.30566E-03 7.40964E-05-1.72301E-14
 -1      4152 7.79177E-03 1.02064E-04-1.96865E-14
 -1      4153 7.65402E-03 1.03822E-04-1.89510E-14
 -1      4154 7.58301E-03 7.19228E-05-1.86518E-14
 -1      4155 8.06509E-03 9.82205E-05-2.11949E-14
 -1      4156 7.92880E-03 1.00211E-04-2.04343E-14
 -1      4157 7.85776E-03 6.93753E-05-2.01252E-14
 -1      4158 8.33509E-03 9.39308E-05-2.27533E-14
 -1      4159 8.20052E-03 9.61445E-05-2.19674E-14
 -1      4160 8.12936E-03 6.64244E-05-2.16488E-14
 -1      4161 8.60120E-03 8.92272E-05-2.43641E-14
 -1      4162 8.46864E-03 9.16462E-05-2.35529E-14
 -1      4163 8.39719E-03 6.30427E-05-2.32241E-14
 -1      4164 8.86283E-03 8.41483E-05-2.60205E-14
 -1      4165 8.73258E-03 8.67543E-05-2.51872E-14
 -1      4166 8.66054E-03 5.91963E-05-2.48497E-14
 -1      4167 9.11937E-03 7.87138E-05-2.77166E-14
 -1      4168 8.99173E-03 8.15029E-05-2.68629E-14
 -1      4169 8.91865E-03 5.48294E-05-2.65187E-14
 -1      4170 9.37017E-03 7.28746E-05-2.94476E-14
 -1      4171 9.24545E-03 7.58909E-05-2.85782E-14
 -1      4172 9.17056E-03 4.98383E-05-2.82266E-14
 -1      4173 9.61454E-03 6.64405E-05-3.12144E-14
 -1      4174 9.49305E-03 6.97825E-05-3.03275E-14
 -1      4175 9.41505E-03 4.39938E-05-2.99699E-14
 -1      4176 2.50796E-03 1.92562E-04-1.87099E-15
 -1      4177 2.36028E-03 1.91226E-04-1.66101E-15
 -1      4178 2.28000E-03 1.53916E-04-1.58234E-15
 -1      4179 6.39203E-03 1.14719E-04-1.29314E-14
 -1      4180 6.25012E-03 1.15486E-04-1.23313E-14
 -1      4181 6.17873E-03 7.97812E-05-1.20888E-14
 -1      4182 2.57781E-03 1.56389E-04-2.00708E-15
 -1      4183 2.27490E-03-8.00618E-05-1.69613E-15
 -1      4184 2.42028E-03-8.12811E-05-1.90463E-15
 -1      4185 2.20116E-03-4.35174E-05-1.58510E-15
 -1      4186 1.77524E-03-7.72275E-05-1.07633E-15
 -1      4187 5.25158E-03 1.19323E-04-8.54225E-15
 -1      4188 5.10834E-03 1.19721E-04-8.06144E-15
 -1      4189 5.32292E-03 8.19944E-05-8.83507E-15
 -1      4190 2.56574E-03-8.22528E-05-2.12539E-15
 -1      4191 2.71122E-03-8.29985E-05-2.35937E-15
 -1      4192 2.78306E-03-4.56779E-05-2.46592E-15
 -1      4193 1.74087E-03 1.14248E-04-9.68003E-16
 -1      4194 9.71381E-03-2.71563E-05-3.27313E-14
 -1      4195 9.69804E-03-2.30044E-06-3.24424E-14
 -1      4196 9.64468E-03-3.92756E-05-3.21910E-14
 -1      4197 1.86457E-03 1.02117E-04-1.10782E-15
 -1      4198 1.89983E-03-6.40878E-05-1.21477E-15
 -1      4199 1.97126E-03-3.04900E-05-1.29008E-15
 -1      4200 9.48210E-03-7.04494E-05-3.08968E-14
 -1      4201 9.57617E-03-7.51018E-05-3.16272E-14
 -1      4202 9.59151E-03-5.78897E-05-3.17731E-14
 -1      4203 9.41619E-03-4.58052E-05-3.03877E-14
 -1      4204 6.46241E-03 7.87310E-05-1.32903E-14
 -1      4205 2.64902E-03 1.19490E-04-2.14736E-15
 -1      4206 2.49888E-03 1.18803E-04-1.91799E-15
 -1      4207 2.93973E-03 1.21196E-04-2.63067E-15
 -1      4208 2.79441E-03 1.20468E-04-2.38234E-15
 -1      4209 2.71612E-03 8.27975E-05-2.28216E-15
 -1      4210 2.35089E-03 1.18326E-04-1.70591E-15
 -1      4211 2.20301E-03 1.17436E-04-1.50720E-15
 -1      4212 2.42250E-03 8.21635E-05-1.83203E-15
 -1      4213 2.49199E-03-4.48639E-05-1.99962E-15
 -1      4214 9.76377E-03 7.15214E-05-3.22409E-14
 -1      4215 4.10208E-03 1.21779E-04-5.11928E-15
 -1      4216 3.95779E-03 1.21953E-04-4.75816E-15
 -1      4217 9.56092E-03-3.28784E-05-3.14916E-14
 -1      4218 4.96498E-03 1.20088E-04-7.59532E-15
 -1      4219 4.82149E-03 1.20435E-04-7.14481E-15
 -1      4220 5.03641E-03 8.25223E-05-7.87109E-15
 -1      4221 9.71146E-03 1.48460E-05-3.24070E-14
 -1      4222 9.72936E-03 3.30427E-05-3.23714E-14
 -1      4223 9.63041E-03 2.08833E-06-3.18719E-14
 -1      4224 3.38225E-03 1.98190E-04-3.39250E-15
 -1      4225 3.23757E-03 1.97876E-04-3.10640E-15
 -1      4226 3.16321E-03 1.59650E-04-3.00351E-15
 -1      4227 1.97104E-03 8.49205E-06-1.27620E-15
 -1      4228 2.05558E-03-3.02420E-06-1.38343E-15
 -1      4229 1.97166E-03 4.74944E-05-1.25979E-15
 -1      4230 3.67126E-03 1.98334E-04-4.00552E-15
 -1      4231 3.52682E-03 1.98339E-04-3.69249E-15
 -1      4232 3.45294E-03 1.60201E-04-3.57796E-15
 -1      4233 3.74214E-03 1.60224E-04-4.20822E-15
 -1      4234 9.66862E-03 5.52498E-05-3.17091E-14
 -1      4235 2.00931E-03 1.04222E-04-1.27357E-15
 -1      4236 4.39025E-03 1.21326E-04-5.88312E-15
 -1      4237 4.24624E-03 1.21572E-04-5.49377E-15
 -1      4238 4.17363E-03 8.36838E-05-5.34253E-15
 -1      4239 2.08075E-03 6.99842E-05-1.38034E-15
 -1      4240 6.49097E-03 1.82025E-05-1.34997E-14
 -1      4241 6.34938E-03 1.83164E-05-1.28877E-14
 -1      4242 3.29161E-03-8.08635E-06-3.38591E-15
 -1      4243 3.43674E-03-8.05841E-06-3.68440E-15
 -1      4244 3.58173E-03-8.03067E-06-3.99691E-15
 -1      4245 3.72656E-03-7.99136E-06-4.32246E-15
 -1      4246 3.50937E-03 3.01795E-05-3.81211E-15
 -1      4247 3.91393E-03 1.89038E-05-4.74656E-15
 -1      4248 4.05840E-03 1.89125E-05-5.10590E-15
 -1      4249 4.20272E-03 1.89066E-05-5.47896E-15
 -1      4250 4.34688E-03 1.89033E-05-5.86837E-15
 -1      4251 4.73610E-03-7.62025E-06-7.01847E-15
 -1      4252 4.87973E-03-7.55496E-06-7.46324E-15
 -1      4253 5.06556E-03 1.88161E-05-8.03669E-15
 -1      4254 5.20887E-03 1.87896E-05-8.51494E-15
 -1      4255 5.35203E-03 1.87532E-05-9.00846E-15
 -1      4256 5.49505E-03 1.87169E-05-9.51825E-15
 -1      4257 5.63791E-03 1.86694E-05-1.00425E-14
 -1      4258 5.78060E-03 1.86202E-05-1.05816E-14
 -1      4259 5.92311E-03 1.85569E-05-1.11366E-14
 -1      4260 6.06542E-03 1.84906E-05-1.17052E-14
 -1      4261 6.20752E-03 1.84057E-05-1.22897E-14
 -1      4262 6.63226E-03 1.80826E-05-1.41268E-14
 -1      4263 6.77323E-03 1.79299E-05-1.47679E-14
 -1      4264 6.91382E-03 1.77698E-05-1.54229E-14
 -1      4265 7.05400E-03 1.75657E-05-1.60924E-14
 -1      4266 7.19372E-03 1.73524E-05-1.67756E-14
 -1      4267 7.33291E-03 1.70806E-05-1.74719E-14
 -1      4268 7.47154E-03 1.67971E-05-1.81804E-14
 -1      4269 7.60952E-03 1.64357E-05-1.89031E-14
 -1      4270 7.74679E-03 1.60593E-05-1.96378E-14
 -1      4271 7.88328E-03 1.55795E-05-2.03849E-14
 -1      4272 8.01891E-03 1.50795E-05-2.11466E-14
 -1      4273 8.15358E-03 1.44422E-05-2.19197E-14
 -1      4274 8.28721E-03 1.37778E-05-2.27070E-14
 -1      4275 8.41969E-03 1.29305E-05-2.35063E-14
 -1      4276 8.55091E-03 1.20475E-05-2.43174E-14
 -1      4277 8.68075E-03 1.09191E-05-2.51416E-14
 -1      4278 8.80907E-03 9.74650E-06-2.59745E-14
 -1      4279 8.93572E-03 8.24122E-06-2.68188E-14
 -1      4280 9.06051E-03 6.68932E-06-2.76724E-14
 -1      4281 9.18327E-03 4.67765E-06-2.85330E-14
 -1      4282 9.30370E-03 2.64529E-06-2.94038E-14
 -1      4283 4.67787E-03 1.20755E-04-6.70922E-15
 -1      4284 4.53413E-03 1.21055E-04-6.28858E-15
 -1      4285 4.74936E-03 8.29809E-05-6.96781E-15
 -1      4286 2.45770E-03 1.82476E-05-1.92052E-15
 -1      4287 2.30954E-03 1.91319E-05-1.70760E-15
 -1      4288 9.42159E-03-8.44046E-08-3.02822E-14
 -1      4289 9.58901E-03 2.99439E-05-3.13435E-14
 -1      4290 2.60325E-03 1.84892E-05-2.14219E-15
 -1      4291 2.20071E-03-3.07222E-06-1.56978E-15
 -1      4292 2.74881E-03 1.86659E-05-2.37686E-15
 -1      4293 2.89434E-03 1.88235E-05-2.62477E-15
 -1      4294 3.84191E-03 5.70702E-05-4.54203E-15
 -1      4295 3.77016E-03 9.52489E-05-4.33854E-15
 -1      4296 3.02034E-03 5.40841E-06-2.85811E-15
 -1      4297 3.16572E-03 5.46530E-06-3.13028E-15
 -1      4298 3.23864E-03 4.36238E-05-3.24687E-15
 -1      4299 2.98725E-03 7.03168E-05-2.75522E-15
 -1      4300 9.50808E-03-6.89392E-06-3.09715E-14
 -1      4301 4.44840E-03-7.74274E-06-6.17434E-15
 -1      4302 4.59232E-03-7.67985E-06-6.58876E-15
 -1      4303 4.66429E-03 3.00581E-05-6.76657E-15
 -1      4304 4.46178E-03 8.33721E-05-6.12490E-15
 -1      4305 4.99396E-03 5.62621E-05-7.76302E-15
 -1      4306 3.06513E-03 1.08157E-04-2.86738E-15
 -1      4307 3.62548E-03 9.52812E-05-4.01133E-15
 -1      4308 3.21031E-03 1.08498E-04-3.14036E-15
 -1      4309 4.41910E-03 5.67836E-05-6.03230E-15
 -1      4310 9.57584E-03 1.22481E-05-3.13802E-14
 -1      4311 4.56302E-03 5.66692E-05-6.44255E-15
 -1      4312 4.70681E-03 5.65470E-05-6.86743E-15
 -1      4313 3.33568E-03 9.51259E-05-3.39915E-15
 -1      4314 3.48065E-03 9.52343E-05-3.69821E-15
 -1      4315 2.16504E-03 5.90137E-05-1.49352E-15
 -1      4316 4.85046E-03 5.64102E-05-7.30763E-15
 -3
    1PSTEP                         2           1           1          
  100CL  101 1.000000000        4316                     0    1           1
 -4  STRESS      6    1
 -5  SXX         1    4    1    1
 -5  SYY         1    4    2    2
 -5  SZZ         1    4    3    3
 -5  SXY         1    4    1    2
 -5  SYZ         1    4    2    3
 -5  SZX         1    4    3    1
 -1         1 1.52707E+01 1.00085E+01 2.16363E-01 1.23370E+01-1.46871E-12-1.30645E-12
 -1         2-9.40501E-01-2.97381E+01-4.13458E+00 9.73199E-02 3.20292E-13 4.17139E-13
 -1         3 2.00225E+01 2.53676E-02 4.89841E-02 2.31448E-02-5.32299E-13-4.94008E-13
 -1         4 1.99979E+01-5.03081E-04 6.49967E-02 2.13513E-03 3.26378E-13-1.15218E-13
 -1         5 3.27688E+01 6.14289E+00 2.74239E+00 6.22427E+00-2.20032E-14 1.39212E-12
 -1         6 3.57527E+01 1.22635E+01 5.12535E+00-8.64658E+00-6.67244E-14 1.01809E-12
 -1         7 2.08198E+01 6.10001E+00-1.28566E-01-4.72521E+00-1.18516E-14 1.86230E-13
 -1         8 1.96727E+01 5.93524E+00 5.09908E-02-3.27433E+00-9.46465E-15-6.93308E-14
 -1         9 1.91381E+01 5.77214E+00 4.91881E-02-2.52602E+00-8.15840E-15-2.04391E-13
 -1        10 1.88949E+01 5.69210E+00 5.09393E-02-1.95062E+00-4.87197E-15-2.65800E-13
 -1        11 1.87733E+01 5.65112E+00 5.02614E-02-1.45578E+00-4.36240E-15-2.90391E-13
 -1        12 1.87097E+01 5.62948E+00 4.88311E-02-1.01487E+00-1.74600E-15-2.91453E-13
 -1        13 1.86759E+01 5.61797E+00 4.74196E-02-5.95138E-01-5.02311E-16-2.79787E-13
 -1        14 1.86617E+01 5.61310E+00 4.66827E-02-1.91112E-01 5.11613E-15-2.64726E-13
 -1        15 1.86622E+01 5.61326E+00 4.67212E-02 2.08153E-01 5.34891E-15-2.46791E-13
 -1        16 1.86774E+01 5.61844E+00 4.75422E-02 6.12988E-01 9.13104E-15-2.26882E-13
 -1        17 1.87124E+01 5.63021E+00 4.90614E-02 1.03463E+00 9.63661E-15-1.82606E-13
 -1        18 1.87775E+01 5.65232E+00 5.08183E-02 1.47862E+00 9.84109E-15-1.24674E-13
 -1        19 1.89011E+01 5.69380E+00 5.15360E-02 1.97969E+00 1.53471E-14-5.47457E-14
 -1        20 1.91429E+01 5.77463E+00 4.87985E-02 2.56329E+00 1.88530E-14 6.70518E-14
 -1        21 1.96682E+01 5.94983E+00 4.59565E-02 3.30834E+00 1.76387E-14 2.91246E-13
 -1        22 2.12026E+01 6.38174E+00 1.39744E-01 4.52277E+00 2.22045E-16 6.68300E-13
 -1        23 2.30308E+01-1.37929E+00-9.38341E-01-7.11089E-01-4.18034E-14 7.82818E-13
 -1        24 1.93687E+01-9.94826E-02-3.09817E-01 6.32409E-02-1.04109E-14 6.13832E-13
 -1        25 1.86809E+01-5.63125E-02-6.87540E-02 6.07573E-02-6.04725E-15 4.10302E-13
 -1        26 1.84788E+01-2.20904E-02-6.46034E-03 3.29511E-02 7.30720E-15 2.67475E-13
 -1        27 1.84903E+01-1.17978E-02 1.55010E-03 2.26162E-02-5.13489E-15 1.79343E-13
 -1        28 1.86049E+01-6.23832E-03 1.77094E-03 1.63345E-02 6.96139E-15 1.95527E-13
 -1        29 1.87651E+01-3.07243E-03 1.74261E-03 1.21784E-02 4.78330E-15 1.47703E-13
 -1        30 1.89395E+01-1.21411E-03 1.92736E-03 9.21990E-03 1.98411E-14 8.93105E-14
 -1        31 1.91104E+01-1.14917E-04 2.09080E-03 6.99837E-03 8.59640E-15 5.44204E-14
 -1        32 1.92680E+01 5.15137E-04 2.12812E-03 5.27719E-03-4.42201E-14-6.57315E-14
 -1        33 1.94072E+01 8.45050E-04 2.04459E-03 3.92438E-03 3.81657E-14-1.46574E-13
 -1        34 1.95264E+01 9.79633E-04 1.87678E-03 2.85649E-03-1.21382E-14-1.17640E-13
 -1        35 1.96257E+01 9.86831E-04 1.65939E-03 2.01425E-03 1.91390E-14-2.47492E-13
 -1        36 1.97066E+01 9.11248E-04 1.41735E-03 1.35212E-03-1.16746E-14-1.70027E-13
 -1        37 1.97712E+01 7.81543E-04 1.16581E-03 8.33751E-04 7.20586E-15-1.50914E-13
 -1        38 1.98223E+01 6.14856E-04 9.11711E-04 4.29981E-04-2.57839E-14-2.54871E-13
 -1        39 1.98627E+01 4.19687E-04 6.55246E-04 1.18053E-04-2.42430E-14-4.44463E-13
 -1        40 1.98956E+01 1.97889E-04 3.90990E-04-1.18571E-04 1.64488E-14-4.14937E-13
 -1        41 1.99245E+01-5.38829E-05 1.08733E-04-2.90012E-04-1.04303E-14-4.63410E-13
 -1        42 1.99529E+01-3.43050E-04-2.05992E-04-3.99414E-04-4.41085E-14-7.60621E-13
 -1        43 1.99853E+01-6.80130E-04-5.71561E-04-4.42006E-04 6.89019E-15-5.03398E-13
 -1        44 2.00263E+01-1.07770E-03-1.00998E-03-4.03688E-04 1.22591E-15-4.23781E-13
 -1        45 2.00820E+01-1.54906E-03-1.54655E-03-2.59015E-04-1.46254E-14-3.59364E-13
 -1        46 2.01593E+01-2.10620E-03-2.20899E-03 3.15991E-05-3.75540E-14-4.96209E-13
 -1        47 2.02668E+01-2.75641E-03-3.02554E-03 5.25568E-04-7.44828E-15-5.49873E-13
 -1        48 2.04145E+01-3.49647E-03-4.02052E-03 1.30266E-03 4.88403E-14-2.88755E-13
 -1        49 2.06147E+01-4.30290E-03-5.20482E-03 2.46973E-03 5.31861E-14-2.64572E-13
 -1        50 2.08809E+01-5.11562E-03-6.55644E-03 4.16372E-03-2.60251E-14-3.95968E-13
 -1        51 2.12281E+01-5.81193E-03-7.98247E-03 6.54763E-03 1.17902E-15-3.63407E-13
 -1        52 2.16707E+01-6.16760E-03-9.24828E-03 9.78778E-03-8.20443E-15-2.41124E-13
 -1        53 2.22191E+01-5.80518E-03-9.85592E-03 1.39880E-02-7.77060E-14-5.14255E-13
 -1        54 2.28742E+01-4.14189E-03-8.86108E-03 1.90356E-02 8.35765E-14-4.84099E-13
 -1        55 2.36165E+01-3.78942E-04-4.66760E-03 2.42902E-02-3.18248E-14-8.89974E-14
 -1        56 2.43897E+01 6.36339E-03 5.01348E-03 2.80474E-02-9.74812E-15 6.65093E-15
 -1        57 2.50805E+01 1.65876E-02 2.25792E-02 2.68272E-02 1.49182E-14 1.95424E-13
 -1        58 2.54984E+01 2.94420E-02 4.85165E-02 1.49624E-02 3.31454E-14 1.89593E-13
 -1        59 2.53783E+01 4.13451E-02 7.74609E-02-1.42047E-02-7.61643E-14 8.24540E-14
 -1        60 2.44397E+01 4.52683E-02 9.40931E-02-6.33060E-02 1.48865E-14 1.11581E-13
 -1        61 2.25374E+01 3.31048E-02 7.57536E-02-1.21711E-01 6.96201E-14 1.62072E-13
 -1        62 1.98779E+01 2.40290E-03 8.91165E-03-1.59293E-01-3.73684E-14 2.67911E-13
 -1        63 1.71374E+01-3.62308E-02-8.50897E-02-1.39394E-01-9.30553E-14 5.92165E-14
 -1        64 1.52468E+01-6.17236E-02-1.49606E-01-5.47081E-02-2.86490E-15-1.23733E-13
 -1        65 1.48420E+01-5.81266E-02-1.37167E-01 5.20456E-02-1.05668E-13-2.15864E-13
 -1        66 1.58094E+01-2.92800E-02-5.91416E-02 1.17577E-01 1.39088E-13-1.06103E-13
 -1        67 1.73936E+01 4.20829E-03 2.52628E-02 1.15376E-01 1.28849E-14 3.81049E-13
 -1        68 1.87682E+01 2.27371E-02 6.50390E-02 6.89152E-02 6.54409E-14 5.38101E-13
 -1        69 1.95266E+01 2.13582E-02 5.30571E-02 2.10294E-02-1.95629E-14 3.78796E-13
 -1        70 1.97775E+01 1.23991E-02 2.18814E-02 6.20648E-03 9.69464E-14 1.97848E-13
 -1        71 1.98968E+01 1.64038E-02 2.64155E-02 1.98374E-02-1.45539E-13 5.03634E-14
 -1        72 2.10434E+01-4.04900E-01-9.80433E-01-3.11650E-01 7.42462E-15 1.38407E-12
 -1        73 1.93332E+01-6.58826E-02-2.91123E-01-5.38411E-02 7.78457E-16 1.19880E-12
 -1        74 1.86903E+01-2.05056E-02-6.42674E-02-2.03510E-02 8.73075E-15 9.75959E-13
 -1        75 1.84878E+01-9.87909E-03-9.31162E-03-1.54500E-02 9.91958E-15 8.22597E-13
 -1        76 1.84995E+01-5.16469E-03 6.76813E-04-1.23832E-02 2.79562E-15 7.35615E-13
 -1        77 1.86131E+01-2.61169E-03 1.74253E-03-1.01176E-02-6.79161E-15 7.28224E-13
 -1        78 1.87723E+01-1.13961E-03 1.88388E-03-8.38154E-03 4.20399E-16 8.11472E-13
 -1        79 1.89457E+01-2.72999E-04 2.08055E-03-6.95097E-03 7.01400E-15 8.06165E-13
 -1        80 1.91157E+01 2.28820E-04 2.22465E-03-5.72208E-03 4.48981E-15 6.51530E-13
 -1        81 1.92723E+01 5.01256E-04 2.24026E-03-4.65135E-03 2.70710E-14 5.31006E-13
 -1        82 1.94108E+01 6.25845E-04 2.13680E-03-3.71973E-03-1.88680E-14 6.18066E-13
 -1        83 1.95293E+01 6.54427E-04 1.95111E-03-2.91475E-03 3.28962E-14 6.23128E-13
 -1        84 1.96280E+01 6.20734E-04 1.71768E-03-2.22449E-03 4.93422E-15 5.30902E-13
 -1        85 1.97084E+01 5.46594E-04 1.46119E-03-1.63578E-03 7.92502E-15 4.95548E-13
 -1        86 1.97726E+01 4.45453E-04 1.19646E-03-1.13423E-03 1.68178E-14 4.78432E-13
 -1        87 1.98234E+01 3.24599E-04 9.29990E-04-7.04930E-04-1.36851E-14 3.73401E-13
 -1        88 1.98636E+01 1.86663E-04 6.61516E-04-3.33398E-04-3.36424E-15 3.73651E-13
 -1        89 1.98964E+01 3.07131E-05 3.85235E-04-6.48611E-06 5.28035E-14 1.81705E-13
 -1        90 1.99252E+01-1.46862E-04 9.07335E-05 2.86594E-04-2.74723E-14-1.92284E-13
 -1        91 1.99537E+01-3.51556E-04-2.36265E-04 5.53106E-04 3.48510E-16-1.97494E-14
 -1        92 1.99861E+01-5.89867E-04-6.13180E-04 7.95327E-04-7.65304E-15 2.26801E-13
 -1        93 2.00273E+01-8.68180E-04-1.05968E-03 1.00863E-03 1.91317E-14 2.60092E-13
 -1        94 2.00830E+01-1.19114E-03-1.59632E-03 1.17887E-03 1.20949E-14-1.64828E-13
 -1        95 2.01598E+01-1.55917E-03-2.24214E-03 1.27876E-03 1.50032E-14-1.76892E-13
 -1        96 2.02657E+01-1.96455E-03-3.01043E-03 1.26299E-03 1.66632E-14 1.74006E-13
 -1        97 2.04100E+01-2.38540E-03-3.90094E-03 1.06167E-03-4.86386E-14 5.14404E-13
 -1        98 2.06029E+01-2.77647E-03-4.88626E-03 5.72366E-04 3.09860E-15 5.44545E-13
 -1        99 2.08553E+01-3.05589E-03-5.88813E-03-3.48342E-04-3.24348E-14 2.38243E-13
 -1       100 2.11778E+01-3.08750E-03-6.73795E-03-1.88988E-03 2.08221E-15 2.08391E-13
 -1       101 2.15779E+01-2.66108E-03-7.11521E-03-4.28002E-03-4.33424E-14 3.25379E-13
 -1       102 2.20567E+01-1.47919E-03-6.46203E-03-7.74416E-03 4.49317E-14 1.10592E-13
 -1       103 2.26027E+01 8.27515E-04-3.89265E-03-1.23933E-02-3.85396E-14 3.21021E-13
 -1       104 2.31821E+01 4.61256E-03 1.82908E-03-1.79821E-02-1.73479E-14 4.50101E-13
 -1       105 2.37276E+01 9.98531E-03 1.20645E-02-2.34792E-02 5.45679E-14 2.19360E-13
 -1       106 2.41266E+01 1.63888E-02 2.75201E-02-2.64738E-02-1.13167E-13 1.35411E-13
 -1       107 2.42165E+01 2.20448E-02 4.65759E-02-2.27529E-02 5.20530E-14-5.06632E-14
 -1       108 2.38051E+01 2.37517E-02 6.30959E-02-7.02351E-03 2.51476E-14-4.27717E-13
 -1       109 2.27316E+01 1.78988E-02 6.57280E-02 2.39121E-02-3.52858E-14-7.31241E-13
 -1       110 2.09770E+01 3.25243E-03 4.23290E-02 6.53484E-02 2.47792E-14-6.73205E-13
 -1       111 1.87818E+01-1.58712E-02-9.11104E-03 1.00231E-01 5.36881E-14-6.43610E-13
 -1       112 1.66669E+01-3.05028E-02-7.03613E-02 1.05357E-01-1.16617E-13-4.89234E-13
 -1       113 1.52525E+01-3.27439E-02-1.07671E-01 6.91210E-02 5.14380E-14-1.27497E-13
 -1       114 1.49283E+01-2.26693E-02-9.83838E-02 6.86608E-03-9.96683E-14-1.25364E-13
 -1       115 1.56144E+01-7.33863E-03-4.95087E-02-4.79948E-02 7.10883E-14-2.59747E-13
 -1       116 1.68358E+01 4.42061E-03 4.29097E-03-7.01499E-02 8.53428E-14-1.22304E-12
 -1       117 1.80492E+01 8.71939E-03 3.36696E-02-5.99815E-02-2.70514E-14-1.57161E-12
 -1       118 1.89458E+01 8.03560E-03 3.37478E-02-3.78371E-02 1.11866E-13-1.57865E-12
 -1       119 1.95200E+01 8.90401E-03 2.54008E-02-2.54408E-02-8.58766E-14-1.81122E-12
 -1       120 1.98881E+01 6.49247E-03 3.20626E-02-2.97556E-02 2.26881E-13-1.04771E-12
 -1       121 1.99985E+01-1.27410E-01 1.34786E-02-4.47953E-02-6.08187E-13 2.37548E-13
 -1       122 1.99778E+01-4.38024E-01-3.05543E-02-4.84380E-02 1.17899E-12 1.88199E-13
 -1       123 1.99548E+01-3.97963E-01-8.39323E-02-2.22932E-02 5.01084E-13-3.34724E-13
 -1       124 1.99406E+01 5.01894E-01-1.23857E-01 3.54275E-02-3.08335E-13 2.12591E-13
 -1       125 1.99487E+01 2.61563E+00-1.23277E-01 1.18789E-01 5.51725E-13 1.39554E-13
 -1       126 1.99844E+01 5.84532E+00-5.82263E-02 1.92110E-01 9.46465E-14 9.99107E-14
 -1       127 2.00438E+01 9.62438E+00 7.07051E-02 2.11489E-01 2.73954E-13 3.72548E-13
 -1       128 2.00993E+01 1.26434E+01 2.03160E-01 1.32895E-01 3.62710E-13-7.14559E-14
 -1       129 2.01180E+01 1.36231E+01 2.49417E-01-1.97461E-02 2.97570E-13 1.63188E-13
 -1       130 2.00877E+01 1.21203E+01 1.73943E-01-1.59790E-01 1.29539E-12-9.34704E-14
 -1       131 2.00286E+01 8.86309E+00 3.39623E-02-2.11805E-01 3.79384E-13-1.75868E-14
 -1       132 1.99733E+01 5.25680E+00-8.02442E-02-1.72876E-01-4.19387E-14 2.16711E-13
 -1       133 1.99465E+01 2.31392E+00-1.25675E-01-9.09885E-02 3.02720E-13 2.12189E-13
 -1       134 1.99444E+01 5.70845E-01-1.10693E-01-1.70132E-02 8.74627E-13-1.33170E-13
 -1       135 1.99727E+01-7.26503E-02-5.55374E-02 1.96566E-02 3.14699E-13-9.05469E-14
 -1       136 1.99768E+01-7.71604E-02-3.50281E-03 6.03283E-02 4.74794E-14 2.00827E-13
 -1       137-1.71314E+00-2.40907E+01-3.71463E+00-4.48877E+00 3.08542E-12 1.12356E-12
 -1       138-1.64561E+00-9.93094E+00-2.56164E+00-3.34500E+00 3.87024E-12 1.57055E-12
 -1       139 3.44843E+00 4.06397E+00-1.03296E+00 4.00206E+00 2.70117E-12 1.90747E-12
 -1       140 1.68402E+01 1.18989E+01 6.32296E-01 1.39935E+01 1.41021E-12 1.37512E-12
 -1       141 3.80771E+01 1.17086E+01 2.21591E+00 2.04734E+01 6.01352E-13 1.31872E-12
 -1       142 5.79740E+01 6.29815E+00 3.30036E+00 1.79313E+01 4.26964E-13 1.98641E-12
 -1       143 7.01093E+01 1.55575E+00 3.83334E+00 6.90661E+00 2.81726E-13 1.42270E-12
 -1       144 6.80735E+01 1.90525E+00 3.66556E+00-7.64230E+00 1.86445E-13-2.21906E-13
 -1       145 5.19649E+01 6.62046E+00 2.76701E+00-1.73190E+01 2.96985E-13-9.06442E-13
 -1       146 3.09631E+01 1.08965E+01 1.46642E+00-1.80045E+01 1.00836E-12-1.28830E-12
 -1       147 1.27894E+01 9.67041E+00 4.71332E-02-1.11258E+01 1.48492E-12-1.67055E-12
 -1       148 1.94235E+00 1.19331E+00-1.33658E+00-2.15072E+00 1.60855E-12-1.30623E-12
 -1       149-2.09514E+00-1.24112E+01-2.55707E+00 4.28583E+00 1.77902E-12-7.21978E-13
 -1       150-1.31630E+00-2.35051E+01-3.28860E+00 3.79425E+00 8.74856E-13-2.43798E-13
 -1       151-9.02493E-01-2.70912E+01-3.49147E+00-8.38482E-01-1.04906E-13-2.23811E-13
 -1       152-1.69098E+00-2.15351E+01-3.18313E+00-4.52880E+00-1.35458E-12-2.04343E-13
 -1       153-1.97051E+00-9.65868E+00-2.39075E+00-3.76019E+00-1.07198E-12-6.05960E-13
 -1       154 2.76688E+00 2.70659E+00-1.21355E+00 3.08967E+00-1.81360E-12-1.40810E-12
 -1       155 3.55358E+01 1.00885E+01 1.75556E+00 1.84552E+01-7.32303E-13-1.70020E-12
 -1       156 5.60603E+01 5.44221E+00 3.01161E+00 1.63283E+01-5.45453E-13-1.73495E-12
 -1       157 6.97571E+01 1.36796E+00 3.82963E+00 5.49792E+00-1.21063E-13-6.82981E-13
 -1       158 6.95937E+01 2.08396E+00 3.91642E+00-8.86055E+00-2.76432E-13 8.89455E-13
 -1       159 5.63930E+01 7.07357E+00 3.28417E+00-1.88312E+01-6.55045E-13 1.71219E-12
 -1       160 3.62977E+01 1.21105E+01 2.12300E+00-2.04190E+01-1.16668E-12 2.22156E-12
 -1       161 1.62207E+01 1.19564E+01 5.67634E-01-1.38059E+01-2.62640E-12 2.66676E-12
 -1       162 3.07803E+00 3.60650E+00-1.10891E+00-3.64216E+00-3.21188E-12 2.41618E-12
 -1       163-1.76724E+00-1.01420E+01-2.59739E+00 3.62195E+00-2.19436E-12 1.19524E-12
 -1       164-1.68112E+00-2.37676E+01-3.70786E+00 4.51121E+00-1.23090E-12 2.16514E-13
 -1       165 2.10144E+01 3.69401E+00-5.73381E-02-3.60990E+00-1.41564E-13 5.98271E-14
 -1       166 1.99917E+01 4.20784E+00-4.57356E-02-2.80904E+00-1.30757E-13-9.98646E-14
 -1       167 1.95093E+01 4.47699E+00-3.16103E-02-2.19378E+00-9.38555E-14-1.80118E-13
 -1       168 1.92669E+01 4.61527E+00-2.37689E-02-1.67512E+00-5.95730E-14-2.31311E-13
 -1       169 1.91368E+01 4.69680E+00-1.94823E-02-1.21886E+00-2.61584E-14-2.40240E-13
 -1       170 1.90627E+01 4.74789E+00-1.74091E-02-7.91830E-01-5.55415E-15-2.30935E-13
 -1       171 1.90253E+01 4.77577E+00-1.64190E-02-3.86756E-01 3.62292E-14-2.12189E-13
 -1       172 1.90144E+01 4.78430E+00-1.61316E-02 8.28999E-03 6.08356E-14-2.03094E-13
 -1       173 1.90270E+01 4.77450E+00-1.64649E-02 4.03672E-01 8.77117E-14-1.92856E-13
 -1       174 1.90663E+01 4.74496E+00-1.75190E-02 8.09816E-01 1.02072E-13-1.62706E-13
 -1       175 1.91411E+01 4.69253E+00-1.96873E-02 1.23122E+00 1.27736E-13-1.10677E-13
 -1       176 1.92770E+01 4.60539E+00-2.40073E-02 1.69786E+00 1.70901E-13-5.33028E-14
 -1       177 1.95242E+01 4.45961E+00-3.28508E-02 2.22621E+00 1.90380E-13 2.82101E-14
 -1       178 2.00141E+01 4.18388E+00-4.72107E-02 2.84645E+00 1.90850E-13 1.82132E-13
 -1       179 2.11361E+01 3.46368E+00-5.97756E-02 3.53643E+00 1.53509E-13 4.22537E-13
 -1       180 2.24206E+01 1.14333E+00-3.36467E-01 3.01461E+00 8.35217E-14 7.26266E-13
 -1       181 2.19730E+01 8.58257E-01 6.70587E-04-1.95874E+00-1.14745E-13 2.47732E-13
 -1       182 2.04487E+01 1.90241E-01-9.97280E-03-7.63816E-01-1.19025E-13 1.84181E-13
 -1       183 1.96735E+01 1.01547E-01 1.35730E-02-2.85356E-01-8.29710E-14 1.40777E-13
 -1       184 1.93339E+01 4.73150E-02 1.00078E-02-6.79168E-02-6.57785E-14 8.34103E-14
 -1       185 1.92044E+01 2.25877E-02 5.13987E-03 3.96090E-02-1.23870E-15 8.55084E-14
 -1       186 1.91912E+01 9.49892E-03 2.43508E-03 9.22206E-02-2.38838E-14 7.00608E-14
 -1       187 1.92400E+01 2.09909E-03 1.12915E-03 1.14540E-01-4.85533E-14 5.65758E-14
 -1       188 1.93192E+01-2.13865E-03 4.92085E-04 1.19395E-01-2.59788E-14 1.60593E-14
 -1       189 1.94101E+01-4.45482E-03 1.55146E-04 1.14183E-01-5.19469E-14 3.32998E-14
 -1       190 1.95015E+01-5.54474E-03-3.24481E-05 1.03494E-01-7.69119E-14 3.72776E-14
 -1       191 1.95870E+01-5.84392E-03-1.34289E-04 9.02738E-02-2.91946E-14-1.15571E-13
 -1       192 1.96634E+01-5.63905E-03-1.81874E-04 7.64263E-02-5.80346E-14-1.19136E-13
 -1       193 1.97294E+01-5.12082E-03-1.93639E-04 6.31714E-02 3.60737E-14-1.23101E-13
 -1       194 1.97850E+01-4.41284E-03-1.81296E-04 5.12773E-02-5.91338E-14-1.29954E-13
 -1       195 1.98314E+01-3.58925E-03-1.52294E-04 4.12260E-02-7.97770E-14-1.45264E-13
 -1       196 1.98700E+01-2.68645E-03-1.11079E-04 3.33349E-02-8.06497E-14-1.74196E-13
 -1       197 1.99029E+01-1.71139E-03-5.98694E-05 2.78491E-02-2.59706E-14-1.62960E-13
 -1       198 1.99325E+01-6.47433E-04 7.92565E-07 2.50147E-02-4.30857E-14-3.07813E-13
 -1       199 1.99615E+01 5.41336E-04 7.16268E-05 2.51364E-02-1.40780E-13-2.65783E-13
 -1       200 1.99930E+01 1.90685E-03 1.54258E-04 2.86247E-02 5.19941E-14-3.02080E-13
 -1       201 2.00308E+01 3.51412E-03 2.50851E-04 3.60331E-02 4.83109E-14-2.79498E-13
 -1       202 2.00789E+01 5.43787E-03 3.63659E-04 4.80862E-02-2.28203E-14-2.12146E-13
 -1       203 2.01426E+01 7.75757E-03 4.94356E-04 6.56958E-02 2.88467E-14-2.43998E-13
 -1       204 2.02277E+01 1.05487E-02 6.42979E-04 8.99561E-02 2.81585E-14-1.38175E-13
 -1       205 2.03411E+01 1.38667E-02 8.06205E-04 1.22105E-01 2.93798E-14-1.57122E-13
 -1       206 2.04908E+01 1.77165E-02 9.74563E-04 1.63426E-01 6.84863E-15-2.77468E-13
 -1       207 2.06854E+01 2.19983E-02 1.12812E-03 2.15032E-01-8.31953E-14-3.34183E-13
 -1       208 2.09340E+01 2.64095E-02 1.23032E-03 2.77468E-01 4.58638E-14-2.99214E-13
 -1       209 2.12452E+01 3.02787E-02 1.22049E-03 3.49981E-01 1.82404E-14-2.02724E-13
 -1       210 2.16247E+01 3.22989E-02 1.00776E-03 4.29268E-01-1.15462E-13-1.48506E-13
 -1       211 2.20729E+01 3.01414E-02 4.74208E-04 5.07468E-01-5.75425E-14 2.20407E-15
 -1       212 2.25798E+01 2.00059E-02-4.97842E-04 5.69210E-01 1.44252E-13-7.84182E-14
 -1       213 2.31180E+01-3.61417E-03-1.95393E-03 5.87963E-01 3.23563E-14-3.17968E-14
 -1       214 2.36340E+01-4.71675E-02-3.74473E-03 5.23165E-01 1.36136E-13-2.16233E-15
 -1       215 2.40408E+01-1.14683E-01-5.37194E-03 3.22323E-01-3.77315E-14-4.20196E-14
 -1       216 2.42153E+01-1.99925E-01-5.99924E-03-6.38285E-02 2.85553E-14 6.12405E-14
 -1       217 2.40142E+01-2.74220E-01-4.87354E-03-6.43102E-01-6.68389E-15-4.31729E-16
 -1       218 2.33210E+01-2.79899E-01-2.27268E-03-1.32110E+00 2.14412E-15 8.61468E-14
 -1       219 2.21339E+01-1.53243E-01 2.07155E-04-1.85756E+00 5.94164E-14-5.03174E-14
 -1       220 2.06626E+01 1.07085E-01 2.93792E-04-1.92825E+00-1.22602E-13-1.28998E-13
 -1       221 1.93378E+01 3.75382E-01-1.45340E-03-1.35224E+00-1.50596E-13-2.81138E-13
 -1       222 1.86092E+01 4.67666E-01-2.20246E-03-3.30217E-01 5.17902E-14-2.32134E-13
 -1       223 1.86388E+01 3.12262E-01 8.81505E-05 6.14881E-01 8.23100E-14-7.45654E-14
 -1       224 1.91762E+01 4.15097E-02 3.12392E-03 1.03738E+00 2.10366E-13-1.88544E-13
 -1       225 1.97849E+01-1.55617E-01 3.10911E-03 8.92322E-01 1.14356E-13-9.53881E-14
 -1       226 2.01521E+01-1.91596E-01 6.85902E-04 4.70038E-01-7.01522E-14-2.63961E-13
 -1       227 2.02128E+01-9.71864E-02-5.72272E-04 1.16795E-01 3.51884E-14-5.18381E-14
 -1       228 2.00932E+01 1.88853E-02 1.03147E-03 1.13057E-02-1.01907E-13-1.51229E-13
 -1       229 2.09648E+01 2.77015E-01-5.13303E-02 1.16465E+00 1.01391E-13 6.34084E-13
 -1       230 1.98703E+01 1.26840E-01 8.31083E-03 4.42955E-01 1.16115E-13 5.39645E-13
 -1       231 1.93642E+01 5.80623E-02 1.27328E-02 1.49917E-01 8.71169E-14 4.42112E-13
 -1       232 1.91547E+01 2.77267E-02 7.62568E-03 1.06397E-02 5.03725E-14 3.81555E-13
 -1       233 1.91052E+01 1.30776E-02 3.82015E-03-5.85082E-02 4.95025E-15 3.40554E-13
 -1       234 1.91412E+01 5.12144E-03 1.90430E-03-9.09346E-02-2.41304E-14 2.84547E-13
 -1       235 1.92204E+01 5.75299E-04 1.00160E-03-1.02671E-01 2.39699E-14 3.36960E-13
 -1       236 1.93181E+01-2.01616E-03 5.40818E-04-1.02442E-01 5.11226E-14 3.37556E-13
 -1       237 1.94197E+01-3.39704E-03 2.77768E-04-9.54464E-02 4.26897E-14 3.24641E-13
 -1       238 1.95165E+01-4.00219E-03 1.17803E-04-8.49569E-02-3.72051E-14 3.70195E-13
 -1       239 1.96041E+01-4.10772E-03 2.08375E-05-7.30812E-02 7.25775E-14 3.32996E-13
 -1       240 1.96805E+01-3.89615E-03-3.41053E-05-6.11757E-02 1.38634E-14 2.91620E-13
 -1       241 1.97452E+01-3.48843E-03-6.00231E-05-5.01013E-02 5.87702E-14 2.92551E-13
 -1       242 1.97990E+01-2.96165E-03-6.55641E-05-4.03952E-02 1.61190E-14 2.59483E-13
 -1       243 1.98434E+01-2.36024E-03-5.65252E-05-3.23949E-02 3.89687E-14 2.94857E-13
 -1       244 1.98803E+01-1.70370E-03-3.66858E-05-2.63309E-02 6.98826E-14 1.49619E-13
 -1       245 1.99120E+01-9.92128E-04-8.38089E-06-2.23971E-02 1.62971E-13-4.62431E-15
 -1       246 1.99412E+01-2.10316E-04 2.70499E-05-2.08055E-02 7.96782E-14 3.89278E-15
 -1       247 1.99708E+01 6.68996E-04 6.88870E-05-2.18291E-02-1.07232E-13 1.60462E-14
 -1       248 2.00044E+01 1.68207E-03 1.16662E-04-2.58334E-02-1.30474E-13 5.53289E-16
 -1       249 2.00459E+01 2.87073E-03 1.69745E-04-3.32974E-02-2.18520E-14 6.64791E-14
 -1       250 2.00998E+01 4.27774E-03 2.26813E-04-4.48208E-02 1.57669E-13-7.27039E-15
 -1       251 2.01715E+01 5.93965E-03 2.85148E-04-6.11116E-02 2.26134E-14-3.38063E-14
 -1       252 2.02672E+01 7.87510E-03 3.39657E-04-8.29428E-02-2.30706E-13-3.05830E-14
 -1       253 2.03936E+01 1.00655E-02 3.81600E-04-1.11060E-01-1.76247E-13 2.33480E-13
 -1       254 2.05583E+01 1.24232E-02 3.97054E-04-1.46009E-01 3.05881E-15 3.04074E-13
 -1       255 2.07687E+01 1.47402E-02 3.65540E-04-1.87838E-01 1.37362E-13 3.56523E-13
 -1       256 2.10313E+01 1.66083E-02 2.59926E-04-2.35602E-01-7.05002E-15 2.38333E-13
 -1       257 2.13498E+01 1.73028E-02 5.01239E-05-2.86589E-01-2.66869E-14 1.95451E-13
 -1       258 2.17228E+01 1.56318E-02-2.84911E-04-3.35166E-01 5.99294E-14 2.32866E-13
 -1       259 2.21394E+01 9.78830E-03-7.30973E-04-3.71243E-01-1.94513E-13 1.68058E-13
 -1       260 2.25740E+01-2.67264E-03-1.19578E-03-3.78557E-01 1.16179E-13 2.04474E-13
 -1       261 2.29797E+01-2.44427E-02-1.46366E-03-3.33614E-01 2.00861E-13 2.10308E-13
 -1       262 2.32834E+01-5.71393E-02-1.20238E-03-2.07221E-01-1.05908E-13 3.14020E-14
 -1       263 2.33858E+01-9.83806E-02-7.83822E-05 2.79384E-02 1.77337E-13-1.61109E-14
 -1       264 2.31739E+01-1.37437E-01 1.80022E-03 3.79480E-01 2.24966E-13-1.75162E-13
 -1       265 2.25553E+01-1.52309E-01 3.42340E-03 8.07204E-01-4.70717E-15-2.44723E-13
 -1       266 2.15171E+01-1.15115E-01 3.22200E-03 1.19892E+00 4.97202E-14-3.20632E-13
 -1       267 2.01885E+01-1.26157E-02-1.41789E-04 1.38215E+00-1.39767E-13-1.56228E-13
 -1       268 1.88613E+01 1.25393E-01-5.59891E-03 1.20827E+00-1.45431E-13 7.95518E-14
 -1       269 1.78987E+01 2.28169E-01-8.96379E-03 6.78697E-01-2.67217E-14 1.34959E-14
 -1       270 1.75525E+01 2.30741E-01-7.04850E-03-1.38634E-03-1.38910E-13 1.69386E-13
 -1       271 1.78076E+01 1.36856E-01-3.60367E-04-5.36875E-01 3.71244E-13-2.34526E-14
 -1       272 1.84076E+01 1.39406E-02 4.99838E-03-7.45386E-01 4.52663E-13-3.69114E-13
 -1       273 1.90372E+01-6.42839E-02 5.91103E-03-6.57881E-01-3.51939E-14-4.45088E-13
 -1       274 1.94998E+01-7.33216E-02 3.38283E-03-4.47140E-01 1.04189E-13-2.26951E-13
 -1       275 1.97616E+01-4.13095E-02 1.71091E-03-2.77763E-01-1.24828E-13-2.96338E-14
 -1       276 1.99068E+01-3.69598E-02 6.40539E-03-1.78659E-01-1.83640E-13 1.20798E-13
 -1       277 2.00226E+01-1.09201E-01 5.18619E-03-1.78706E-01-2.14676E-14 9.60594E-13
 -1       278 2.01868E+01-6.03758E-02 7.02312E-03 9.25302E-02 1.78838E-13-2.87751E-13
 -1       279 2.03274E+01 3.40873E-01 5.10413E-03 7.14514E-01 5.67224E-13-2.32254E-13
 -1       280 2.03933E+01 1.31180E+00 2.73950E-03 1.57901E+00 3.14742E-13 4.42855E-13
 -1       281 2.03001E+01 2.89714E+00-1.98845E-03 2.39574E+00 8.17037E-14-3.64788E-13
 -1       282 1.99898E+01 4.97274E+00-4.55394E-03 2.74377E+00-5.53030E-15 1.77653E-13
 -1       283 1.95495E+01 6.98092E+00-3.83328E-03 2.18653E+00-1.89342E-13 1.90663E-13
 -1       284 1.92377E+01 8.17569E+00-9.16088E-04 7.10691E-01 2.94868E-13 5.88939E-14
 -1       285 1.92893E+01 8.02234E+00-1.32312E-03-1.08517E+00 1.91657E-13 2.49188E-13
 -1       286 1.96642E+01 6.60905E+00-4.39985E-03-2.35780E+00 2.19063E-13-3.51710E-13
 -1       287 2.00825E+01 4.61026E+00-4.05801E-03-2.66139E+00 5.06028E-13-2.86403E-13
 -1       288 2.03356E+01 2.66326E+00-1.07116E-03-2.16129E+00 5.60844E-13 2.28109E-13
 -1       289 2.03725E+01 1.24382E+00 3.26449E-03-1.31600E+00 2.94296E-13 2.49922E-13
 -1       290 2.02542E+01 4.43049E-01 1.81185E-03-5.37516E-01 2.10770E-13-3.15186E-13
 -1       291 2.02458E+01 1.40774E-01 5.83542E-03-1.85308E-01 6.59288E-14-3.65559E-13
 -1       292-8.44860E-01-1.23438E+01-1.08451E+00 1.56289E+00 9.55999E-13 1.64846E-12
 -1       293 3.65880E+00-9.77751E+00-8.12705E-01 4.70740E+00 1.24750E-12 6.80900E-13
 -1       294 1.07003E+01-6.05275E+00-5.53916E-01 6.46265E+00 1.60960E-12 3.63723E-13
 -1       295 2.03571E+01-1.27153E+00-6.31659E-02 8.23961E+00 1.24767E-12 3.33428E-13
 -1       296 3.17561E+01 2.17021E+00 3.72632E-01 8.01924E+00 5.57526E-13 5.02764E-13
 -1       297 4.14653E+01 5.72276E+00 8.38223E-01 7.56537E+00 1.42614E-13 8.10074E-13
 -1       298 4.82363E+01 7.02199E+00 1.10473E+00 4.72838E+00 3.49901E-13 4.18054E-13
 -1       299 4.92282E+01 7.36904E+00 1.02420E+00 6.20944E-01 7.47929E-13 1.92589E-13
 -1       300 4.38123E+01 6.45393E+00 6.46824E-01-2.14195E+00 4.04149E-13 4.20775E-14
 -1       301 3.80999E+01 4.16438E+00 6.08545E-01-6.53603E+00 5.58435E-13-3.63598E-13
 -1       302 2.78785E+01 1.31047E+00 2.26192E-01-7.48759E+00 5.95579E-13-3.47888E-13
 -1       303 1.74352E+01-2.48965E+00-1.99612E-01-6.79491E+00 7.53730E-13-5.62161E-13
 -1       304 9.81813E+00-7.04154E+00-3.70002E-01-6.02748E+00 4.53360E-13-7.02199E-13
 -1       305 1.62247E+00-1.06581E+01-8.71880E-01-2.90128E+00 2.99066E-13-6.02046E-13
 -1       306-1.21202E+00-1.17013E+01-8.47335E-01-1.00293E+00 4.81490E-14-4.54858E-13
 -1       307-6.29749E-01-1.09437E+01-7.41387E-01 1.56304E+00-7.83540E-14-7.00356E-13
 -1       308 2.73507E+00-1.01049E+01-8.38376E-01 3.07484E+00-6.97248E-13-3.86614E-13
 -1       309 9.96652E+00-6.39977E+00-5.10425E-01 5.36220E+00-5.97078E-13-9.37542E-13
 -1       310 1.89517E+01-2.10754E+00-1.68104E-01 6.73121E+00-8.55371E-13-5.03625E-13
 -1       311 2.98949E+01 1.73020E+00 2.94384E-01 7.23024E+00-6.13148E-13-7.69662E-13
 -1       312 4.02870E+01 4.48465E+00 7.25982E-01 5.86600E+00-4.11995E-13-5.48228E-13
 -1       313 4.76741E+01 6.29859E+00 1.04328E+00 2.82181E+00-6.81330E-13-2.65732E-13
 -1       314 4.85792E+01 7.64487E+00 9.97901E-01-1.28463E+00-7.81458E-13 1.29706E-13
 -1       315 4.77333E+01 6.93381E+00 1.09787E+00-5.20795E+00-5.87294E-13 2.50661E-13
 -1       316 4.08150E+01 5.49904E+00 8.34847E-01-7.82537E+00-9.41061E-13 8.24008E-13
 -1       317 3.09787E+01 2.66699E+00 4.21404E-01-8.80479E+00-1.58512E-12 1.15274E-12
 -1       318 2.01014E+01-1.47021E+00-8.20089E-02-8.19538E+00-1.50913E-12 1.38201E-12
 -1       319 1.04282E+01-6.20306E+00-5.83459E-01-6.36157E+00-1.23990E-12 1.48970E-12
 -1       320 3.21236E+00-1.04356E+01-9.77953E-01-4.03516E+00-6.46427E-13 1.17107E-12
 -1       321-7.34497E-01-1.17851E+01-1.01818E+00-1.72850E+00 3.36911E-13 9.22373E-13
 -1       322 2.01461E+01 3.01544E+00-1.78620E-02-2.11013E+00-1.31124E-13-8.62487E-14
 -1       323 2.07570E+01 2.20829E+00-1.78091E-02-2.36297E+00-1.50865E-13-3.69496E-16
 -1       324 1.95840E+01 3.69165E+00-1.50638E-02-1.31686E+00-4.59396E-14-1.69414E-13
 -1       325 1.94597E+01 3.84887E+00-1.35639E-02-9.23231E-01-1.33988E-14-1.74682E-13
 -1       326 1.93905E+01 3.93962E+00-1.26867E-02-5.43682E-01 1.69703E-14-1.42474E-13
 -1       327 1.93599E+01 3.98093E+00-1.22882E-02-1.73175E-01 5.66855E-14-1.38516E-13
 -1       328 1.93612E+01 3.97931E+00-1.23094E-02 1.94359E-01 9.88649E-14-1.22414E-13
 -1       329 1.93946E+01 3.93440E+00-1.27576E-02 5.65220E-01 1.16457E-13-1.26539E-13
 -1       330 1.94656E+01 3.84110E+00-1.37683E-02 9.39037E-01 1.41355E-13-8.58944E-14
 -1       331 1.95929E+01 3.67878E+00-1.56565E-02 1.33300E+00 1.79512E-13-1.81205E-14
 -1       332 1.98088E+01 3.41007E+00-1.88323E-02 1.73828E+00 2.14981E-13 3.53354E-14
 -1       333 2.01797E+01 2.95528E+00-2.29373E-02 2.12681E+00 2.20645E-13 1.07673E-13
 -1       334 2.07499E+01 2.12943E+00-3.04670E-02 2.32179E+00 1.96298E-13 2.65715E-13
 -1       335 2.10966E+01 1.18771E+00-2.49199E-02 1.92160E+00 1.64395E-13 3.94880E-13
 -1       336 2.03931E+01 4.89275E-01 8.33544E-03 9.27010E-01 1.52899E-13 3.23464E-13
 -1       337 2.04589E+01 6.75570E-01 1.23669E-02-1.02484E+00-1.17675E-13 3.55224E-14
 -1       338 2.00389E+01 3.34793E-01 6.81773E-03-4.57764E-01-1.00998E-13 3.54218E-14
 -1       339 1.97840E+01 1.76632E-01 4.06118E-03-1.48121E-01-5.21950E-14 3.07459E-14
 -1       340 1.96485E+01 9.04186E-02 1.91350E-03 2.27649E-02-3.33941E-14 1.79164E-16
 -1       341 1.95931E+01 4.12589E-02 7.98094E-04 1.13810E-01-2.99223E-14-1.49801E-14
 -1       342 1.95878E+01 1.22781E-02 2.73012E-04 1.56884E-01-2.96461E-14 1.50205E-14
 -1       343 1.96117E+01-4.74825E-03 1.31312E-05 1.70821E-01-2.27655E-15 1.94762E-14
 -1       344 1.96509E+01-1.42576E-02-1.22325E-04 1.67366E-01-9.37470E-14-4.49831E-14
 -1       345 1.96964E+01-1.89046E-02-1.90036E-04 1.54101E-01-1.44205E-13-9.28092E-14
 -1       346 1.97427E+01-2.03845E-02-2.16274E-04 1.36007E-01-6.84961E-14-1.38151E-13
 -1       347 1.97864E+01-1.98169E-02-2.15921E-04 1.16369E-01-2.92074E-14-1.56134E-13
 -1       348 1.98259E+01-1.79423E-02-1.98382E-04 9.73433E-02 9.06590E-16-1.50596E-13
 -1       349 1.98608E+01-1.52347E-02-1.69650E-04 8.03380E-02-4.74614E-14-8.80635E-14
 -1       350 1.98914E+01-1.19711E-02-1.33285E-04 6.62934E-02-8.62994E-14-6.84868E-14
 -1       351 1.99186E+01-8.27904E-03-9.10177E-05 5.58835E-02-2.33805E-14-5.33006E-14
 -1       352 1.99436E+01-4.16953E-03-4.31639E-05 4.96730E-02-5.61378E-14-4.84039E-14
 -1       353 1.99681E+01 4.38516E-04 1.10614E-05 4.82376E-02-6.41894E-14 2.04383E-14
 -1       354 1.99941E+01 5.70012E-03 7.33022E-05 5.22588E-02-8.02355E-14 6.87055E-14
 -1       355 2.00240E+01 1.18284E-02 1.45856E-04 6.25969E-02 3.98795E-15 2.84778E-14
 -1       356 2.00605E+01 1.90788E-02 2.31437E-04 8.03434E-02 6.06894E-14-1.22824E-13
 -1       357 2.01069E+01 2.77280E-02 3.32856E-04 1.06851E-01 3.21196E-14 1.54465E-14
 -1       358 2.01668E+01 3.80432E-02 4.52496E-04 1.43732E-01 6.16910E-14 7.47561E-14
 -1       359 2.02445E+01 5.02278E-02 5.91415E-04 1.92805E-01 2.79684E-14 1.54108E-14
 -1       360 2.03447E+01 6.43278E-02 7.47784E-04 2.55967E-01-2.18935E-14 4.25022E-14
 -1       361 2.04724E+01 8.00678E-02 9.14226E-04 3.34927E-01-4.11945E-14 4.95171E-14
 -1       362 2.06331E+01 9.65692E-02 1.07344E-03 4.30716E-01 3.84219E-14 1.78049E-13
 -1       363 2.08317E+01 1.11880E-01 1.19153E-03 5.42839E-01-2.34358E-14 1.70776E-14
 -1       364 2.10727E+01 1.22233E-01 1.20877E-03 6.67873E-01 2.61075E-14-8.05179E-14
 -1       365 2.13590E+01 1.20955E-01 1.02964E-03 7.97235E-01-5.08365E-14 2.45801E-14
 -1       366 2.16910E+01 9.71174E-02 5.17722E-04 9.13899E-01 1.45699E-13 1.53911E-13
 -1       367 2.20660E+01 3.44461E-02-4.89607E-04 9.88054E-01 9.89162E-15 2.66534E-13
 -1       368 2.24757E+01-8.78790E-02-2.12336E-03 9.72509E-01 1.12837E-14 3.35265E-13
 -1       369 2.29042E+01-2.88854E-01-4.36690E-03 8.00713E-01-7.13228E-14 1.17959E-13
 -1       370 2.33199E+01-5.67609E-01-6.76857E-03 3.94422E-01 8.96418E-14 1.17517E-13
 -1       371 2.36623E+01-8.69892E-01-8.35514E-03-3.06600E-01 2.83207E-14 3.42263E-13
 -1       372 2.38225E+01-1.04768E+00-8.12441E-03-1.27749E+00 4.42311E-14 4.24341E-13
 -1       373 2.36514E+01-8.69831E-01-6.68399E-03-2.30637E+00 5.63460E-15 3.22686E-13
 -1       374 2.30485E+01-1.69089E-01-5.42327E-03-2.94347E+00 2.25615E-14 4.31175E-13
 -1       375 2.21536E+01 8.65371E-01-5.70230E-03-2.66916E+00-1.71525E-13 4.52819E-13
 -1       376 2.14018E+01 1.60374E+00-7.33886E-03-1.40183E+00-2.24367E-13 4.04482E-13
 -1       377 2.11988E+01 1.46911E+00-8.48796E-03 2.28819E-01-7.05113E-14 1.63213E-13
 -1       378 2.14617E+01 6.10572E-01-3.99615E-03 1.27578E+00 5.08938E-14-6.22868E-14
 -1       379 2.17398E+01-2.87722E-01-2.06734E-03 1.34215E+00 1.88854E-13-2.95904E-13
 -1       380 2.16883E+01-6.90668E-01-3.59403E-03 7.49176E-01-1.18536E-13-2.26528E-13
 -1       381 2.12773E+01-5.45056E-01-5.72425E-03 7.86471E-02-8.81539E-14-2.67871E-13
 -1       382 2.07440E+01-1.72545E-01 1.85181E-03-2.19092E-01-1.39298E-15-3.70705E-13
 -1       383 1.98916E+01 2.28463E-01 1.07921E-02 3.98372E-01 1.30959E-13 2.96644E-13
 -1       384 1.96032E+01 1.15337E-01 6.16927E-03 1.19719E-01 7.97288E-14 2.61206E-13
 -1       385 1.94686E+01 5.76356E-02 2.80083E-03-2.90983E-02 3.95876E-14 2.14050E-13
 -1       386 1.94289E+01 2.57049E-02 1.17433E-03-1.05913E-01-8.65939E-15 1.66723E-13
 -1       387 1.94447E+01 7.22583E-03 4.47179E-04-1.40993E-01-9.99309E-15 1.11461E-13
 -1       388 1.94907E+01-3.51226E-03 9.81968E-05-1.51305E-01 6.21819E-14 1.52476E-13
 -1       389 1.95509E+01-9.46438E-03-8.40333E-05-1.47048E-01 4.26544E-14 1.90463E-13
 -1       390 1.96151E+01-1.23510E-02-1.79904E-04-1.34677E-01-4.20319E-14 2.27465E-13
 -1       391 1.96775E+01-1.32523E-02-2.23374E-04-1.18384E-01 7.56062E-14 1.66360E-13
 -1       392 1.97346E+01-1.28776E-02-2.32873E-04-1.00906E-01 3.92438E-14 1.92964E-13
 -1       393 1.97851E+01-1.16962E-02-2.20062E-04-8.40225E-02 9.81262E-14 1.76629E-13
 -1       394 1.98287E+01-1.00104E-02-1.92586E-04-6.88801E-02 3.44224E-14 2.12702E-13
 -1       395 1.98659E+01-7.99911E-03-1.55219E-04-5.62252E-02 6.87749E-14 8.91284E-14
 -1       396 1.98979E+01-5.74872E-03-1.10566E-04-4.65757E-02 1.62020E-13-1.72192E-14
 -1       397 1.99264E+01-3.27425E-03-5.95872E-05-4.03489E-02 2.10285E-13-5.12051E-14
 -1       398 1.99533E+01-5.35380E-04-2.02029E-06-3.79608E-02 7.16039E-14 1.21124E-13
 -1       399 1.99810E+01 2.55073E-03 6.32870E-05-3.99010E-02-7.97881E-14 5.24496E-14
 -1       400 2.00122E+01 6.09743E-03 1.38042E-04-4.67874E-02-6.80431E-14-7.12532E-14
 -1       401 2.00499E+01 1.02352E-02 2.24129E-04-5.94003E-02-5.17798E-14-1.05078E-13
 -1       402 2.00979E+01 1.50942E-02 3.23099E-04-7.86922E-02 1.79902E-13-8.81157E-14
 -1       403 2.01602E+01 2.07776E-02 4.35413E-04-1.05763E-01-4.03651E-14 7.89029E-14
 -1       404 2.02415E+01 2.73206E-02 5.59277E-04-1.41783E-01-2.30876E-13 2.16074E-13
 -1       405 2.03469E+01 3.46236E-02 6.88861E-04-1.87841E-01-1.85903E-13 1.20863E-13
 -1       406 2.04821E+01 4.23463E-02 8.11643E-04-2.44663E-01-5.38014E-14 9.27192E-14
 -1       407 2.06522E+01 4.97415E-02 9.04702E-04-3.12151E-01 1.71348E-13 3.05748E-13
 -1       408 2.08620E+01 5.54060E-02 9.30131E-04-3.88629E-01 1.20568E-13 2.75458E-13
 -1       409 2.11144E+01 5.69301E-02 8.30691E-04-4.69708E-01 1.07436E-14 3.85198E-13
 -1       410 2.14090E+01 5.04670E-02 5.28812E-04-5.46647E-01-1.08389E-14 4.55463E-13
 -1       411 2.17398E+01 3.03493E-02-6.46612E-05-6.04220E-01-4.44324E-15 2.67844E-13
 -1       412 2.20927E+01-1.08658E-02-1.02151E-03-6.18417E-01 4.04848E-14-3.46531E-14
 -1       413 2.24417E+01-8.10836E-02-2.33856E-03-5.55071E-01 1.20136E-13 2.19664E-13
 -1       414 2.27454E+01-1.84632E-01-3.85588E-03-3.71919E-01 2.92331E-14 2.69905E-13
 -1       415 2.29448E+01-3.13857E-01-5.18119E-03-2.85656E-02 2.04392E-13 2.61623E-13
 -1       416 2.29635E+01-4.36350E-01-5.58318E-03 4.89972E-01 2.31597E-13 3.91377E-13
 -1       417 2.27193E+01-4.86097E-01-4.86054E-03 1.13385E+00 1.56268E-13 2.67771E-13
 -1       418 2.21573E+01-3.78349E-01-2.95585E-03 1.74939E+00-3.89159E-14-7.33710E-14
 -1       419 2.13077E+01-6.56820E-02 1.23028E-04 2.08463E+00-2.36188E-13-9.91581E-14
 -1       420 2.03465E+01 3.69614E-01 1.75828E-03 1.89517E+00-1.14929E-13 1.41189E-13
 -1       421 1.95710E+01 7.11527E-01 3.22120E-03 1.14664E+00-1.31011E-13 1.68602E-13
 -1       422 1.92348E+01 7.44133E-01 3.60334E-03 1.23787E-01 2.11168E-14 1.52882E-13
 -1       423 1.93582E+01 4.61162E-01 5.41130E-03-7.10779E-01 3.90184E-13 6.76148E-14
 -1       424 1.97175E+01 6.77593E-02 4.25502E-03-1.05298E+00 4.42552E-13 3.92270E-13
 -1       425 2.00380E+01-1.96828E-01 1.02445E-03-9.31525E-01-4.94418E-14 4.71031E-13
 -1       426 2.01709E+01-2.42261E-01-1.15220E-03-6.05761E-01 1.16419E-13 4.01437E-13
 -1       427 2.01326E+01-1.51243E-01-9.26411E-04-3.33633E-01-2.82401E-13 7.71903E-13
 -1       428 2.00932E+01-1.04367E-01 1.80456E-03-2.25795E-01-3.23852E-13 9.10220E-13
 -1       429 2.13456E+01-3.36701E-02 1.08714E-02 1.71353E+00 3.12027E-13 1.91706E-13
 -1       430 2.09447E+01-2.14330E-01 5.00611E-03 5.78631E-01-1.75209E-13-9.11727E-14
 -1       431 2.04718E+01-1.66727E-01 4.21684E-03 5.24732E-03-3.59132E-13 5.59289E-13
 -1       432 2.13393E+01 5.18508E-01 9.61730E-03 3.07166E+00-1.21543E-14-3.48836E-13
 -1       433 2.06236E+01 1.61361E+00 5.90635E-03 4.16297E+00-1.42684E-13-2.80384E-13
 -1       434 1.91744E+01 3.16694E+00 6.05630E-03 4.16653E+00-5.37158E-13 3.29711E-13
 -1       435 1.76380E+01 4.61325E+00 7.52664E-03 2.52505E+00-4.04094E-13 4.29271E-13
 -1       436 1.70883E+01 5.11970E+00 1.08434E-02-3.35826E-01-1.35216E-14 2.53372E-13
 -1       437 1.79844E+01 4.33356E+00 8.02737E-03-2.99419E+00 1.14175E-14 8.26561E-14
 -1       438 1.95670E+01 2.83889E+00 5.38795E-03-4.19685E+00 5.72487E-13 1.45633E-13
 -1       439 2.08565E+01 1.39790E+00 6.94262E-03-3.86352E+00 9.39204E-13 9.36965E-14
 -1       440 2.13530E+01 4.72776E-01 1.01522E-02-2.66392E+00 6.47648E-13-1.08119E-13
 -1       441 2.11887E+01 5.66224E-02 1.10996E-02-1.34634E+00 1.07009E-13-1.86533E-13
 -1       442 1.29975E+01-6.34076E+00-7.08099E-03 8.53202E+00 1.28703E-13-3.08913E-13
 -1       443 2.62045E+00-3.73203E+00 5.43549E-02 1.36021E-01 4.92977E-13 1.58623E-12
 -1       444 4.24606E+00-5.75453E+00-1.11398E-01 5.19393E+00 6.45040E-14 7.90951E-13
 -1       445 2.00984E+01-6.41651E+00-3.81932E-02 8.17737E+00 4.45394E-13-6.93584E-13
 -1       446 2.88590E+01-4.21135E+00-4.23773E-03 5.50269E+00 3.08725E-13-4.60215E-13
 -1       447 1.97871E+01 3.43959E+00-2.08788E-02-1.72523E+00-1.00351E-13-1.39649E-13
 -1       448 3.75387E+01 5.70327E+00 8.78383E-02 1.09518E+00 1.98327E-13 9.22318E-14
 -1       449 3.83708E+01 8.44106E+00 9.71716E-02 8.41295E-01 4.47697E-13-2.37935E-14
 -1       450 3.60947E+01 8.05949E+00-3.99476E-02 1.45313E+00 6.60055E-13-5.40817E-14
 -1       451 3.46722E+01 3.14153E+00-6.11560E-02 1.16890E+00 3.87149E-13-4.35485E-14
 -1       452 3.26429E+01-8.64211E-01-9.63019E-03-9.94089E-01 3.25477E-13 1.55181E-13
 -1       453 2.66861E+01-5.07131E+00-1.73336E-02-4.25806E+00 2.63664E-13-7.48707E-14
 -1       454 1.99304E+01-6.66179E+00 2.16656E-02-6.49778E+00 1.97536E-13-2.72178E-14
 -1       455 8.44740E+00-6.33058E+00-2.23948E-02-6.57634E+00-9.95870E-14-4.45657E-13
 -1       456 3.21090E+00-5.65505E+00-2.98613E-03-4.16047E+00 1.87489E-14-6.37171E-13
 -1       457 8.40421E-01-5.67126E+00-5.07600E-02 3.45732E-01-7.64918E-14-5.76095E-13
 -1       458 4.69702E+00-6.07794E+00-1.65702E-02 4.97171E+00-1.94927E-13-5.24691E-13
 -1       459 1.05689E+01-6.92069E+00-4.31733E-02 6.71656E+00-2.18797E-13-4.63303E-13
 -1       460 2.05254E+01-6.79886E+00 1.12691E-02 6.14220E+00-3.88994E-14-1.54106E-13
 -1       461 2.76490E+01-4.41322E+00-1.79638E-02 3.78611E+00-5.00586E-13-7.52731E-14
 -1       462 3.36394E+01 4.49933E-03 3.53755E-02 1.06082E+00-1.63680E-13-5.51781E-14
 -1       463 3.70667E+01 4.74243E+00 6.75201E-02-8.67673E-01-5.40970E-13 1.60302E-13
 -1       464 3.71510E+01 8.00089E+00 1.90603E-02-1.51101E+00-8.29642E-13 2.77944E-13
 -1       465 3.72621E+01 8.10778E+00 3.29704E-02-6.63757E-01-6.43874E-13 1.61066E-13
 -1       466 3.77401E+01 5.19836E+00 1.19859E-01-1.40656E+00-7.72743E-13 3.00038E-14
 -1       467 3.43500E+01 3.10527E-01 3.78029E-02-2.68686E+00-9.03330E-13-1.20376E-13
 -1       468 2.90714E+01-4.22698E+00 1.43178E-02-5.38593E+00-6.59500E-13-9.64090E-14
 -1       469 2.02668E+01-6.18892E+00-5.40616E-02-8.07417E+00-5.46452E-13 7.37882E-13
 -1       470 1.15405E+01-6.82173E+00-1.12921E-01-8.09570E+00-4.71789E-13 1.52305E-12
 -1       471 4.92197E+00-5.74999E+00-8.82418E-02-5.63210E+00-1.54529E-13 1.65720E-12
 -1       472 3.45973E+01 9.75337E-01 3.36375E-02 2.06188E+00-1.41734E-13 1.21708E-13
 -1       473 1.63168E+01-6.23242E+00 9.90760E-02-7.06684E+00-4.39218E-13-5.80324E-13
 -1       474 2.03741E+01 8.31975E-01 4.02837E-03 9.71525E-01 1.56937E-13 1.66780E-13
 -1       475 1.97320E+01 3.10421E+00-5.36466E-03-6.33790E-01 4.75644E-15-1.26245E-13
 -1       476 1.98284E+01 2.93106E+00-5.72830E-03-9.50073E-01-2.56308E-14-1.46089E-13
 -1       477 1.96642E+01 3.22685E+00-5.02175E-03 8.83629E-03 7.13943E-14-9.72809E-14
 -1       478 1.96828E+01 3.19379E+00-5.10302E-03 3.30331E-01 9.06525E-14-1.11374E-13
 -1       479 1.97365E+01 3.09699E+00-5.43166E-03 6.45630E-01 1.18365E-13-1.00355E-13
 -1       480 1.98355E+01 2.91907E+00-5.97523E-03 9.61103E-01 1.59992E-13-2.79481E-14
 -1       481 1.99914E+01 2.63393E+00-6.52802E-03 1.25640E+00 1.78455E-13 1.29510E-14
 -1       482 2.02337E+01 2.18795E+00-5.69141E-03 1.50109E+00 1.94424E-13 7.33417E-14
 -1       483 2.01125E+01 4.53524E-01 5.06439E-03 4.63697E-01 1.31000E-13 1.49491E-13
 -1       484 2.03423E+01 9.76648E-01 3.78104E-03-9.39174E-01-9.68704E-14-3.36193E-14
 -1       485 3.15310E+01 2.29191E+00-1.56027E-01-1.16656E+00 4.86070E-14 2.24043E-13
 -1       486 2.01770E+01 5.34105E-01 8.21959E-04-4.67815E-01-8.66057E-14-7.01182E-15
 -1       487 2.00249E+01 3.03674E-01 1.19282E-03-1.66235E-01-6.61163E-14 1.69657E-14
 -1       488 1.99241E+01 1.61505E-01 4.76356E-04 1.52557E-02-4.10908E-14 9.61644E-15
 -1       489 1.98653E+01 7.51963E-02 1.66034E-04 1.17800E-01-3.04735E-14 9.13945E-15
 -1       490 1.98378E+01 2.24064E-02 2.30151E-05 1.68986E-01-6.01804E-14-4.95541E-14
 -1       491 1.98315E+01-9.16388E-03-4.72745E-05 1.87433E-01-8.97507E-14-1.60677E-13
 -1       492 1.98385E+01-2.68969E-02-8.27812E-05 1.85710E-01-1.64110E-13-1.67278E-13
 -1       493 1.98530E+01-3.54858E-02-9.80741E-05 1.72353E-01-1.32906E-13-1.32241E-13
 -1       494 1.98711E+01-3.80328E-02-1.00431E-04 1.53165E-01-4.01959E-14-6.12099E-14
 -1       495 1.98904E+01-3.66186E-02-9.43903E-05 1.32063E-01 6.37874E-15-4.18136E-14
 -1       496 1.99095E+01-3.26206E-02-8.29491E-05 1.11683E-01 3.28653E-14-6.50460E-14
 -1       497 1.99277E+01-2.69069E-02-6.79905E-05 9.38066E-02-4.29916E-15-1.13992E-14
 -1       498 1.99449E+01-1.99647E-02-5.05445E-05 7.96789E-02-7.56944E-14 5.59283E-14
 -1       499 1.99614E+01-1.19902E-02-3.09603E-05 7.02531E-02-4.98232E-14 1.04976E-14
 -1       500 1.99780E+01-2.95354E-03-9.05030E-06 6.63731E-02 2.86049E-14-2.57861E-14
 -1       501 1.99956E+01 7.35356E-03 1.57779E-05 6.89163E-02-4.51604E-14-8.59114E-15
 -1       502 2.00153E+01 1.92776E-02 4.44464E-05 7.89021E-02-6.83482E-14-1.21279E-14
 -1       503 2.00385E+01 3.32659E-02 7.81188E-05 9.75698E-02 1.73746E-14-7.05743E-14
 -1       504 2.00670E+01 4.98253E-02 1.18099E-04 1.26426E-01 1.43655E-13 1.55499E-14
 -1       505 2.01025E+01 6.94644E-02 1.65675E-04 1.67255E-01 4.38523E-14 2.73642E-14
 -1       506 2.01470E+01 9.26062E-02 2.21858E-04 2.22079E-01 2.40525E-15-1.07407E-13
 -1       507 2.02028E+01 1.19441E-01 2.86911E-04 2.93049E-01-2.05298E-14-1.81995E-13
 -1       508 2.02721E+01 1.49685E-01 3.59537E-04 3.82216E-01-4.41238E-14-1.08090E-13
 -1       509 2.03574E+01 1.82169E-01 4.35478E-04 4.91135E-01 1.19761E-14-1.79579E-14
 -1       510 2.04612E+01 2.14174E-01 5.05221E-04 6.20207E-01-5.59209E-14-1.89704E-13
 -1       511 2.05864E+01 2.40377E-01 5.50459E-04 7.67622E-01 5.35138E-14-5.43971E-14
 -1       512 2.07367E+01 2.51278E-01 5.39148E-04 9.27737E-01 1.31953E-13-1.41974E-14
 -1       513 2.09181E+01 2.31084E-01 4.19712E-04 1.08867E+00 3.77431E-14 2.06374E-13
 -1       514 2.11413E+01 1.55413E-01 1.17776E-04 1.22887E+00 4.68376E-14 1.91118E-14
 -1       515 2.14246E+01-9.75537E-03-4.53232E-04 1.31260E+00 4.23685E-14-5.28147E-14
 -1       516 2.17974E+01-3.04125E-01-1.35689E-03 1.28447E+00-1.65958E-13 8.21934E-14
 -1       517 2.22983E+01-7.56109E-01-2.62145E-03 1.06465E+00 2.56839E-15 1.89992E-13
 -1       518 2.29570E+01-1.33939E+00-3.77415E-03 5.53006E-01 2.02575E-13 2.92268E-13
 -1       519 2.37500E+01-1.90208E+00-4.42825E-03-3.43103E-01 1.35132E-13 3.67507E-13
 -1       520 2.45134E+01-2.07542E+00-6.26576E-03-1.61078E+00-3.99776E-14 3.40615E-13
 -1       521 2.49189E+01-1.35910E+00-1.73867E-02-2.93764E+00-4.45412E-15 3.84799E-13
 -1       522 2.46936E+01 4.59450E-01-2.43819E-02-3.58737E+00 7.69953E-14 3.97141E-13
 -1       523 2.39296E+01 2.55544E+00-6.26962E-02-2.77011E+00-2.53101E-13 2.93034E-13
 -1       524 2.36223E+01 3.34580E+00-5.38512E-02-6.74575E-01-4.75059E-13 1.31448E-13
 -1       525 2.38584E+01 2.08472E+00-4.40062E-02 1.15465E+00-2.10694E-13-6.02156E-14
 -1       526 2.41647E+01 1.85610E-02-2.26822E-02 1.58140E+00-1.10633E-13-2.78057E-13
 -1       527 2.38763E+01-1.28634E+00-8.60400E-03 8.04634E-01 5.05095E-14-4.35458E-13
 -1       528 2.29794E+01-1.36933E+00-4.94927E-03-2.42168E-01-7.39313E-14-4.69800E-13
 -1       529 1.98101E+01 1.29054E-01 1.01779E-03-1.99744E-02 5.00904E-14 1.45833E-13
 -1       530 1.97522E+01 5.94390E-02 3.65875E-04-1.18377E-01 9.93476E-15 1.24090E-13
 -1       531 1.97333E+01 1.76216E-02 8.27986E-05-1.66405E-01 2.17323E-14 1.29714E-13
 -1       532 1.97392E+01-7.15764E-03-5.42430E-05-1.82911E-01 6.06044E-14 1.08768E-13
 -1       533 1.97593E+01-2.10342E-02-1.23586E-04-1.80259E-01-1.10320E-14 6.65132E-14
 -1       534 1.97866E+01-2.77723E-02-1.55271E-04-1.66660E-01 1.44504E-14 5.89643E-14
 -1       535 1.98165E+01-2.98243E-02-1.63385E-04-1.47621E-01 6.51017E-14 1.32178E-13
 -1       536 1.98460E+01-2.88233E-02-1.56199E-04-1.26823E-01 6.25353E-14 9.11668E-14
 -1       537 1.98738E+01-2.58507E-02-1.39170E-04-1.06716E-01 5.78538E-14-2.56731E-15
 -1       538 1.98991E+01-2.15920E-02-1.15821E-04-8.89320E-02 9.87295E-14-4.18862E-14
 -1       539 1.99221E+01-1.64402E-02-8.82074E-05-7.45890E-02 1.33114E-13 3.83771E-14
 -1       540 1.99433E+01-1.05677E-02-5.72118E-05-6.45182E-02 2.02536E-13 5.47684E-14
 -1       541 1.99638E+01-3.97770E-03-2.28815E-05-5.94340E-02 8.44171E-14 1.73213E-13
 -1       542 1.99847E+01 3.45548E-03 1.53821E-05-6.00640E-02 1.33894E-14 1.02534E-13
 -1       543 2.00077E+01 1.19515E-02 5.86055E-05-6.72432E-02-1.10962E-13 1.29362E-13
 -1       544 2.00345E+01 2.17886E-02 1.08043E-04-8.19777E-02 5.06348E-14 9.89819E-14
 -1       545 2.00673E+01 3.32619E-02 1.64936E-04-1.05473E-01 6.91253E-14-7.26450E-14
 -1       546 2.01085E+01 4.66256E-02 2.30161E-04-1.39122E-01-1.04123E-14 7.35919E-14
 -1       547 2.01608E+01 6.20071E-02 3.03687E-04-1.84429E-01-1.28243E-13 1.84910E-15
 -1       548 2.02272E+01 7.92756E-02 3.83733E-04-2.42859E-01-1.60719E-13-8.55373E-14
 -1       549 2.03109E+01 9.78369E-02 4.65495E-04-3.15553E-01-8.91908E-14-1.53879E-13
 -1       550 2.04153E+01 1.16320E-01 5.39225E-04-4.02863E-01-7.76661E-15-7.64911E-14
 -1       551 2.05436E+01 1.32110E-01 5.87582E-04-5.03624E-01 1.06560E-13 1.29843E-14
 -1       552 2.06990E+01 1.40689E-01 5.82333E-04-6.14059E-01 2.20851E-14 8.50310E-14
 -1       553 2.08845E+01 1.34789E-01 4.81146E-04-7.26197E-01-9.42680E-14 4.90880E-14
 -1       554 2.11027E+01 1.03503E-01 2.26455E-04-8.25751E-01 9.63454E-14 1.48457E-13
 -1       555 2.13563E+01 3.18571E-02-2.48698E-04-8.89518E-01 5.62510E-14 1.49576E-13
 -1       556 2.16474E+01-9.79516E-02-9.96922E-04-8.82823E-01-1.10712E-13 3.91075E-13
 -1       557 2.19762E+01-3.01282E-01-2.01153E-03-7.58425E-01 5.99889E-14 7.40872E-13
 -1       558 2.23357E+01-5.78151E-01-3.16352E-03-4.60171E-01 1.07633E-13 7.82830E-13
 -1       559 2.27008E+01-8.89828E-01-4.07810E-03 6.25611E-02 1.79338E-13 7.42797E-13
 -1       560 2.30080E+01-1.12802E+00-3.66888E-03 8.20586E-01 3.94980E-13 5.53541E-13
 -1       561 2.31401E+01-1.10597E+00-3.39834E-03 1.72051E+00 1.92641E-13 6.45008E-13
 -1       562 2.29649E+01-6.33473E-01-3.65324E-03 2.50319E+00 3.84237E-14 5.54038E-13
 -1       563 2.24402E+01 3.12135E-01-9.30165E-04 2.75803E+00-3.14465E-13 2.19542E-13
 -1       564 2.17608E+01 1.34554E+00-4.96392E-03 2.17308E+00-6.49281E-14 1.59029E-13
 -1       565 2.13143E+01 1.85191E+00-6.32426E-03 8.70863E-01 1.16739E-13 9.85436E-14
 -1       566 2.13208E+01 1.47244E+00-5.29931E-03-4.74027E-01 2.34190E-13 1.57200E-13
 -1       567 2.15862E+01 5.41470E-01-2.48316E-03-1.21279E+00 2.39439E-13 3.82723E-13
 -1       568 2.17261E+01-2.87631E-01-9.81242E-04-1.16874E+00 1.37805E-13 5.04200E-13
 -1       569 2.15307E+01-6.16905E-01-3.78250E-03-6.92787E-01 1.45448E-13 4.03417E-13
 -1       570 2.10668E+01-4.81148E-01-1.19818E-03-2.09061E-01-4.19906E-13 6.65884E-13
 -1       571 2.23393E+01-1.16544E+00 1.44524E-02 4.38488E+00 1.11084E-13-6.46951E-13
 -1       572 2.02115E+01-2.72726E-01 2.73846E-02 5.64626E+00-2.89848E-13-3.93980E-13
 -1       573 2.22729E+01-9.32424E-01 5.77039E-03 9.89996E-01-2.80103E-13 3.37597E-13
 -1       574 2.28160E+01-1.24486E+00 7.25122E-03 2.55468E+00-2.24601E-14 3.77981E-14
 -1       575 1.67069E+01 1.46253E+00 6.94588E-02 4.96726E+00-7.11319E-13 3.12136E-13
 -1       576 1.40777E+01 2.79250E+00 6.92049E-02 1.68614E+00-6.52534E-13 7.30683E-13
 -1       577 1.45191E+01 2.56961E+00 6.95389E-02-2.60836E+00 4.84721E-14 4.30433E-13
 -1       578 1.75925E+01 1.00538E+00 5.17839E-02-5.24018E+00 7.89220E-13 6.54086E-13
 -1       579 2.08670E+01-5.48774E-01 2.39253E-02-5.33370E+00 7.50875E-13 9.13696E-14
 -1       580 2.25374E+01-1.19738E+00 1.10395E-02-3.82094E+00 6.24171E-13-8.58489E-14
 -1       581 2.26421E+01-1.11207E+00 3.76535E-03-2.02763E+00 2.99854E-13-5.84800E-13
 -1       582 6.91191E+00-1.65819E+00 1.80364E-01 3.72384E+00-2.54713E-13 6.78707E-13
 -1       583 1.13315E+01-3.49347E+00 1.38597E-01 7.49069E+00-4.19428E-13 8.11434E-14
 -1       584 7.90264E+00-1.02543E+00 1.92866E-01-3.75575E+00-8.04426E-14 1.75321E-12
 -1       585 1.99251E+01 2.46447E-01 2.46595E-03 1.58380E-01 7.60057E-14 1.59547E-13
 -1       586 2.01353E+01-5.70987E+00 1.12448E-01 8.29355E+00 2.41335E-14-7.29800E-13
 -1       587 2.03948E+01 1.76899E+00-5.35386E-03-1.54506E+00-1.19703E-13-6.15392E-14
 -1       588 3.07151E+01-3.27845E+00-7.36451E-02 1.46238E+00-1.17284E-13 8.08728E-14
 -1       589 4.81897E+00-2.28787E+00 1.99224E-01-1.97842E+00-1.07693E-13-5.90680E-13
 -1       590 3.08527E+01 4.83493E+00-1.97513E-01 3.02204E+00 4.06467E-13 5.81223E-13
 -1       591 1.96799E+01 3.19824E+00-5.11339E-03-3.12767E-01 2.99423E-14-1.12509E-13
 -1       592 3.16698E+01 7.94951E+00-1.61637E-01 7.96106E-01 4.20150E-13 6.17709E-14
 -1       593 5.39120E+00-2.63010E+00 1.81168E-01 2.94933E+00-6.70020E-14-8.07174E-13
 -1       594 3.18456E+01 6.25296E+00-1.88484E-01-7.72810E-01 3.16705E-13-5.54140E-14
 -1       595 3.06519E+01-5.18938E-01-1.28928E-01 2.24003E+00 1.43975E-13 2.02456E-13
 -1       596 2.90848E+01-4.36387E+00-5.48461E-02-6.15176E-01 9.22092E-14 2.64164E-13
 -1       597 2.56091E+01-6.16227E+00 1.04775E-02-3.59356E+00-4.51236E-14 1.62342E-13
 -1       598 9.56420E+00-3.42055E+00 1.89844E-01-5.69218E+00-3.16552E-13-5.38458E-15
 -1       599 2.59923E+01-6.36672E+00 1.85431E-02 3.30476E+00-1.04472E-13-1.37480E-13
 -1       600 1.09165E+01-4.67232E+00 1.49814E-01 6.28450E+00 7.96099E-14-7.59878E-14
 -1       601 1.81813E+01-6.47065E+00 8.33784E-02 6.38612E+00 2.29802E-13-2.08649E-13
 -1       602 3.00370E+01-3.86178E+00-6.54125E-02 2.12675E-01-3.50256E-13-3.98015E-14
 -1       603 3.18531E+01 1.06163E+00-1.25291E-01-2.75286E+00-4.15695E-13 1.11189E-13
 -1       604 3.17852E+01 5.05328E+00-1.75822E-01-3.07687E+00-5.89265E-13 1.87815E-13
 -1       605 3.12048E+01 7.65400E+00-1.92138E-01-1.04717E+00-7.26530E-13-9.34565E-14
 -1       606 3.18722E+01 5.09417E+00-1.84439E-01 1.04078E+00-5.55722E-13-1.55632E-13
 -1       607 3.22507E+01 1.17868E+00-1.34476E-01 7.41185E-01-6.98115E-13-2.68591E-13
 -1       608 3.10854E+01-3.32866E+00-5.99342E-02-1.71169E+00-5.52714E-13-3.10280E-13
 -1       609 2.56939E+01-6.35847E+00 5.77099E-03-6.26577E+00-8.04912E-14-1.25060E-13
 -1       610 1.94904E+01-5.88835E+00 1.02188E-01-8.31891E+00 4.75869E-14 2.92519E-13
 -1       611 1.18354E+01-4.08971E+00 1.34227E-01-7.77164E+00 2.69784E-13 1.48848E-12
 -1       612 2.05860E+01 1.30525E+00-9.96611E-04 1.54748E+00 1.84907E-13 2.05372E-13
 -1       613 2.64909E+01-6.00388E+00 1.66291E-02 5.85317E+00 2.39218E-13-5.96113E-13
 -1       614 1.99814E+01 2.66215E+00-6.31131E-03-1.25761E+00-5.57477E-14-1.24654E-13
 -1       615 9.11592E+00 6.76268E-01 1.78002E-01-3.69306E-01-4.41623E-13 1.25179E-12
 -1       616 2.84353E+01 6.04722E+00-1.47653E-01 2.13569E+00 3.72272E-13 7.31576E-13
 -1       617 2.21947E+01-6.34518E+00 4.64703E-02-5.10398E+00-3.66568E-13 1.67408E-13
 -1       618 2.21859E+01-9.17624E-01 8.70161E-04-7.35069E-01-1.40944E-13-3.07236E-13
 -1       619 1.99596E+01 2.44910E+00-1.58063E-03 3.94215E-01 9.39610E-14-1.02365E-13
 -1       620 1.99275E+01 2.52415E+00-1.53890E-03 1.35508E-01 6.97473E-14-7.83215E-14
 -1       621 2.01204E+01 2.04581E+00-1.60106E-03 8.49892E-01 1.49481E-13 4.76073E-15
 -1       622 2.02386E+01 1.67605E+00-2.22547E-03 9.91941E-01 1.53432E-13 3.13943E-14
 -1       623 2.03195E+01 1.03673E+00 2.93823E-03 8.30952E-01 1.44852E-13 1.04113E-13
 -1       624 2.02056E+01 6.13898E-01 1.08450E-03 4.19676E-01 9.82732E-14 8.90438E-14
 -1       625 1.78695E+01-2.65282E+00 1.01608E-01 7.44933E+00-1.04871E-13-3.26038E-13
 -1       626 2.02441E+01 6.69700E-01 1.52689E-03-3.92909E-01-5.80551E-14-3.45079E-14
 -1       627 2.01670E+01 3.91547E-01 1.78721E-04-1.39244E-01-6.38839E-14-2.61083E-14
 -1       628 2.01018E+01 2.12048E-01 6.80280E-05 2.21777E-02-4.71309E-14-7.19127E-14
 -1       629 2.00514E+01 9.77091E-02 6.59231E-06 1.16923E-01-8.59780E-14-1.19104E-13
 -1       630 2.00163E+01 2.59459E-02-1.54604E-05 1.65440E-01-1.20981E-13-9.70958E-14
 -1       631 1.99937E+01-1.74131E-02-2.63748E-05 1.83288E-01-9.63981E-14-2.52360E-14
 -1       632 1.99806E+01-4.16245E-02-3.16775E-05 1.81812E-01-4.77673E-14 1.26214E-13
 -1       633 1.99743E+01-5.29223E-02-3.31463E-05 1.69094E-01-5.57909E-14 1.43964E-13
 -1       634 1.99725E+01-5.55676E-02-3.18660E-05 1.50798E-01-3.70649E-14 9.71186E-14
 -1       635 1.99738E+01-5.24590E-02-2.87048E-05 1.30841E-01-1.25379E-14 6.45962E-14
 -1       636 1.99772E+01-4.55098E-02-2.42899E-05 1.11918E-01 1.93356E-14 3.44439E-14
 -1       637 1.99819E+01-3.58990E-02-1.90648E-05 9.59086E-02 9.25763E-15 2.41500E-14
 -1       638 1.99876E+01-2.42495E-02-1.32571E-05 8.41871E-02-1.02126E-13 1.79075E-13
 -1       639 1.99943E+01-1.07567E-02-6.85114E-06 7.78636E-02-1.62531E-13 1.47620E-13
 -1       640 2.00018E+01 4.71707E-03 2.99787E-07 7.79659E-02-6.56806E-14-5.19978E-14
 -1       641 2.00105E+01 2.25672E-02 8.46821E-06 8.55809E-02-1.84185E-14-1.44014E-13
 -1       642 2.00206E+01 4.33795E-02 1.79916E-05 1.01957E-01-2.95517E-14-3.79599E-14
 -1       643 2.00324E+01 6.78622E-02 2.92766E-05 1.28569E-01 7.91490E-14-1.16178E-13
 -1       644 2.00462E+01 9.67646E-02 4.27787E-05 1.67148E-01 9.67013E-14-1.88039E-13
 -1       645 2.00623E+01 1.30764E-01 5.89513E-05 2.19659E-01-2.58207E-14-4.96360E-14
 -1       646 2.00809E+01 1.70290E-01 7.81666E-05 2.88233E-01-7.88370E-14-1.11350E-14
 -1       647 2.01022E+01 2.15249E-01 1.00580E-04 3.75012E-01 7.42244E-14-3.12132E-14
 -1       648 2.01260E+01 2.64578E-01 1.25892E-04 4.81889E-01 2.45251E-14 1.07438E-13
 -1       649 2.01526E+01 3.15537E-01 1.52930E-04 6.10114E-01 1.71949E-14-2.92145E-14
 -1       650 2.01826E+01 3.62598E-01 1.78935E-04 7.59717E-01 4.32936E-14 1.34047E-13
 -1       651 2.02182E+01 3.95781E-01 1.98281E-04 9.28692E-01 6.23666E-15 6.06064E-14
 -1       652 2.02651E+01 3.98280E-01 2.00116E-04 1.11187E+00 2.26274E-13 5.77522E-14
 -1       653 2.03361E+01 3.43439E-01 1.64295E-04 1.29932E+00 8.80224E-14-3.96343E-14
 -1       654 2.04564E+01 1.91728E-01 6.12998E-05 1.47385E+00-1.03617E-14 1.22774E-13
 -1       655 2.06720E+01-1.10141E-01-1.14762E-04 1.60663E+00-1.09105E-13 2.01622E-13
 -1       656 2.10580E+01-6.22399E-01-3.13508E-04 1.64871E+00-1.86683E-14 2.60712E-13
 -1       657 2.17223E+01-1.38574E+00-5.48172E-04 1.51272E+00 2.40556E-14 3.01529E-13
 -1       658 2.27697E+01-2.33844E+00 2.43559E-04 1.05978E+00 2.22292E-13 2.11047E-13
 -1       659 2.42345E+01-3.20740E+00-2.12648E-03 8.25247E-02 2.79879E-14 2.67257E-13
 -1       660 2.58397E+01-3.21696E+00-1.53692E-02-1.48942E+00 1.30074E-14 4.09215E-13
 -1       661 2.69719E+01-1.46107E+00-4.42933E-02-3.23189E+00-8.41723E-14 6.07297E-13
 -1       662 2.62649E+01 4.84090E+00-1.32622E-01-1.98165E+00-3.87940E-13-2.60241E-13
 -1       663 2.64199E+01 4.63394E+00-1.38678E-01 6.66960E-01-5.19473E-13-2.66877E-13
 -1       664 2.67563E+01 1.15167E+00-9.43854E-02 1.82401E+00-3.10425E-13-3.21248E-13
 -1       665 2.63964E+01-1.74121E+00-3.25223E-02 8.07216E-01-2.09396E-13-6.50974E-13
 -1       666 2.49848E+01-2.48236E+00-8.11961E-03-7.57685E-01-2.21179E-13-9.00356E-13
 -1       667 1.99731E+01 8.75141E-02 4.64445E-05-1.19354E-01 3.67613E-14 8.62706E-14
 -1       668 2.00261E+01 1.90162E-01 2.31088E-04-2.09242E-02 4.78931E-14 1.20013E-13
 -1       669 1.99252E+01-1.35835E-02-3.05118E-05-1.87196E-01 4.98908E-14 5.84393E-14
 -1       670 1.99205E+01-3.48635E-02-4.54847E-05-1.85457E-01-1.65687E-15 5.43546E-14
 -1       671 1.99229E+01-4.49534E-02-5.18418E-05-1.72243E-01 2.89293E-14 6.93631E-14
 -1       672 1.99295E+01-4.75859E-02-5.22680E-05-1.53312E-01 8.38691E-14 5.61951E-14
 -1       673 1.99384E+01-4.52901E-02-4.85834E-05-1.32616E-01 6.45480E-14 5.65420E-14
 -1       674 1.99484E+01-3.97389E-02-4.21544E-05-1.12839E-01 7.45345E-14 1.02907E-13
 -1       675 1.99589E+01-3.19731E-02-3.39185E-05-9.58315E-02 7.29856E-14 7.71139E-14
 -1       676 1.99697E+01-2.25638E-02-2.43397E-05-8.29180E-02 1.39318E-13 3.30161E-14
 -1       677 1.99807E+01-1.17230E-02-1.35974E-05-7.51400E-02 6.72891E-14 1.60527E-13
 -1       678 1.99924E+01 6.09931E-04-1.53783E-06-7.34379E-02 2.11082E-14 2.31497E-13
 -1       679 2.00054E+01 1.46980E-02 1.21564E-05-7.87854E-02-1.16160E-14 2.54011E-13
 -1       680 2.00202E+01 3.09417E-02 2.78946E-05-9.22856E-02 6.03854E-15 8.80437E-15
 -1       681 2.00377E+01 4.98085E-02 4.61516E-05-1.15227E-01 9.99790E-14 6.54280E-14
 -1       682 2.00590E+01 7.17440E-02 6.73973E-05-1.49094E-01 2.85848E-14 1.43811E-13
 -1       683 2.00850E+01 9.70510E-02 9.19204E-05-1.95526E-01 4.35483E-14 1.48128E-13
 -1       684 2.01171E+01 1.25709E-01 1.19633E-04-2.56202E-01-1.36776E-13 1.07424E-13
 -1       685 2.01566E+01 1.57104E-01 1.49744E-04-3.32629E-01-8.70126E-14 9.71351E-14
 -1       686 2.02050E+01 1.89626E-01 1.80249E-04-4.25792E-01-6.19900E-14 1.15492E-13
 -1       687 2.02643E+01 2.20068E-01 2.07192E-04-5.35620E-01-1.71542E-14 2.11942E-14
 -1       688 2.03372E+01 2.42782E-01 2.23609E-04-6.60203E-01 4.33163E-14 9.34240E-14
 -1       689 2.04278E+01 2.48538E-01 2.18109E-04-7.94670E-01-3.04834E-14 6.07278E-14
 -1       690 2.05428E+01 2.23168E-01 1.72987E-04-9.29656E-01-9.44426E-14 1.00460E-13
 -1       691 2.06934E+01 1.46341E-01 6.18547E-05-1.04922E+00-4.26640E-15 2.51587E-13
 -1       692 2.08977E+01-8.52698E-03-1.48957E-04-1.12813E+00-1.73022E-13 3.01362E-13
 -1       693 2.11825E+01-2.70961E-01-4.75012E-04-1.12850E+00-1.98564E-13 1.30804E-13
 -1       694 2.15823E+01-6.62395E-01-8.88857E-04-9.96278E-01-3.18368E-14 2.29272E-13
 -1       695 2.21282E+01-1.17054E+00-1.41997E-03-6.60458E-01 2.45463E-13 4.08557E-13
 -1       696 2.28224E+01-1.70558E+00-1.80581E-03-4.43626E-02 3.89444E-13 4.14571E-13
 -1       697 2.35861E+01-2.03592E+00 6.44638E-04 8.97348E-01 2.15727E-13 6.52643E-13
 -1       698 2.41757E+01-1.76903E+00-5.52954E-03 2.05132E+00 9.32942E-14 8.04714E-13
 -1       699 2.43535E+01-5.92689E-01-1.72732E-02 3.03911E+00 1.01274E-13 7.16830E-13
 -1       700 2.39727E+01 1.33318E+00-1.65210E-02 3.12361E+00-5.86191E-14 3.50582E-13
 -1       701 2.33058E+01 3.08042E+00-4.50004E-02 1.95683E+00-5.27356E-16-2.63765E-14
 -1       702 2.33104E+01 3.00280E+00-2.80124E-02 6.25213E-02 2.65358E-13 6.94392E-14
 -1       703 2.35637E+01 1.67404E+00-1.81076E-02-1.21614E+00 1.01443E-13-2.67940E-13
 -1       704 2.38094E+01-1.34778E-01-1.07056E-02-1.31198E+00-7.59448E-14 6.58614E-14
 -1       705 2.34203E+01-1.10272E+00-3.52991E-03-5.87862E-01 2.96362E-14 4.67188E-13
 -1       706 2.30185E+01-1.28954E+00 6.42793E-04 2.66824E-01-5.81207E-14 4.56320E-13
 -1       707 1.25634E+01 4.24891E-01 1.69019E-01 4.75295E+00-5.76296E-13 5.29285E-13
 -1       708 2.37468E+01-1.95194E+00-3.73976E-03-1.57683E+00 2.25431E-13-8.79321E-13
 -1       709 2.30697E+01-3.29561E+00 2.66156E-02 5.67132E+00-2.68691E-14-5.06826E-13
 -1       710 1.36688E+01-2.90399E-01 1.54460E-01-5.75174E+00 4.58380E-13 1.15344E-12
 -1       711 1.96406E+01-2.29015E+00 8.60708E-02-6.75775E+00 7.03066E-13 3.36004E-13
 -1       712 2.34534E+01-3.02633E+00 2.63334E-02-4.90528E+00 1.49270E-13-4.02427E-13
 -1       713 2.41914E+01-2.67315E+00 1.28221E-02-3.10351E+00 1.62537E-13-3.31604E-13
 -1       714 1.75223E+01-3.41291E+00 1.31857E-01-7.58313E+00 3.61426E-13 7.09457E-13
 -1       715 2.82156E+01 1.59159E+00-1.03018E-01 3.45495E+00 3.18887E-13 1.07519E-12
 -1       716 2.02963E+01 1.42684E+00 6.26025E-04-9.73952E-01-7.27559E-14-5.95641E-14
 -1       717 7.16534E+00-9.11513E-01 1.61275E-01 5.14526E-01-1.65133E-13-6.78589E-13
 -1       718 2.76762E+01-4.98690E+00-1.66871E-02 1.38039E-01-9.83432E-14 2.27363E-13
 -1       719 2.01043E+01 3.53506E-01 6.33079E-04 1.48706E-01 7.03379E-14 7.67630E-14
 -1       720 1.99410E+01 2.44273E-02-9.38514E-07-1.69128E-01 6.29926E-14 3.05640E-14
 -1       721 2.65292E+01-5.09670E+00 1.66880E-02-9.80664E-01-3.47972E-13 4.32146E-13
 -1       722 2.91249E+01-8.77309E-01-1.06575E-01-7.54454E-01-1.66533E-14 5.26766E-13
 -1       723 2.94662E+01-1.60338E+00-8.34245E-02 5.86434E-01-5.09429E-13-6.57231E-13
 -1       724 2.00235E+01 2.29461E+00-1.67991E-03 6.37493E-01 1.36226E-13-1.46736E-14
 -1       725 2.00185E+01 2.30286E+00-1.76842E-03-6.27757E-01-1.82737E-14-1.11065E-13
 -1       726 9.05539E+00-1.29263E+00 1.50507E-01-3.28329E+00-2.67980E-13-1.84436E-13
 -1       727 1.03620E+01-2.21855E+00 1.41971E-01 4.52860E+00 6.56558E-14-1.24706E-13
 -1       728 2.79902E+01-3.23835E+00-6.54721E-02 1.58134E+00-2.65612E-14 4.84106E-13
 -1       729 2.78827E+01 5.46487E+00-1.68877E-01-2.53957E+00-4.92099E-13-1.11374E-13
 -1       730 1.53927E+01-4.35636E+00 1.02701E-01-6.08154E+00-4.27915E-13-2.62252E-13
 -1       731 1.65132E+01-4.36922E+00 1.04077E-01 5.67274E+00 1.75034E-14 6.20649E-14
 -1       732 2.41091E+01-5.16178E+00 6.91639E-02 6.35085E+00 3.34142E-14-4.83310E-13
 -1       733 2.29781E+01-6.18665E+00 4.19130E-02 4.09828E+00 2.81306E-13-2.55592E-13
 -1       734 2.81247E+01 1.86676E+00-1.23533E-01-3.89352E+00-3.87974E-13 4.46067E-14
 -1       735 2.80703E+01-5.08996E+00-2.42459E-02-3.19667E+00-1.28720E-13-4.33924E-13
 -1       736 2.34157E+01-5.16827E+00 4.91949E-02-6.54591E+00-1.77323E-14-1.29842E-13
 -1       737 2.77403E+01-4.64827E+00-1.15256E-02 3.13067E+00 2.42904E-13-1.45148E-13
 -1       738 2.01097E+01 2.06282E+00-2.96041E-03-8.43635E-01-3.90004E-14-1.24810E-13
 -1       739 1.99263E+01 2.52537E+00-1.62603E-03-1.26777E-01 4.07350E-14-7.02982E-14
 -1       740 2.45803E+01-2.87851E+00 2.84754E-03 3.16679E+00-2.37660E-13-3.09269E-13
 -1       741 1.30961E+01-2.26891E+00 8.92925E-02-4.85144E+00-2.23328E-13-1.75002E-13
 -1       742 2.41120E+01-2.05110E+00-2.32531E-03 1.44389E+00-3.30250E-13 6.00099E-13
 -1       743 2.64734E+01 3.24067E+00-1.34467E-01 3.44443E+00 2.94906E-13 6.63830E-13
 -1       744 2.74113E+01 5.86681E+00-1.26703E-01-2.68477E-01 3.27099E-13 4.41355E-13
 -1       745 2.83438E+01 1.73627E+00-1.65663E-01-1.55206E+00 3.84458E-13 2.74711E-13
 -1       746 1.99566E+01 2.45368E+00-1.63351E-03-3.83725E-01 8.45564E-15-8.45177E-14
 -1       747 2.77355E+01-2.98334E+00-2.66816E-02 6.65125E-01-1.73433E-13 5.77711E-13
 -1       748 2.79439E+01 4.29657E+00-1.09134E-01-1.11918E+00 3.08642E-13 4.96252E-13
 -1       749 2.89230E+01-2.24017E+00-9.25917E-02-2.53124E+00-1.89449E-13 9.84525E-14
 -1       750 1.47438E+01-1.99769E+00 6.78064E-02 4.30343E+00 2.36235E-14 1.40131E-13
 -1       751 2.02645E+01 1.30837E+00 5.09049E-04 6.31126E-01 1.14118E-13 2.94531E-14
 -1       752 9.95041E+00-1.63074E-01 9.67395E-02-9.94855E-01-2.98883E-13-3.33400E-13
 -1       753 2.02617E+01 4.32262E-01-1.20810E-04-9.38566E-02-7.79142E-14-1.60372E-13
 -1       754 2.02215E+01 2.33587E-01-3.33007E-05 3.55683E-02-8.79743E-14-1.38952E-13
 -1       755 2.01800E+01 1.03074E-01-1.77376E-05 1.12537E-01-6.38519E-14-1.26345E-13
 -1       756 2.01424E+01 1.99648E-02-1.15481E-05 1.51881E-01-3.68069E-15-4.81081E-14
 -1       757 2.01105E+01-3.02289E-02-9.52418E-06 1.65698E-01 2.81095E-15-3.53364E-14
 -1       758 2.00846E+01-5.76714E-02-8.74702E-06 1.63287E-01-2.84545E-14 7.76689E-14
 -1       759 2.00641E+01-6.95289E-02-8.22549E-06 1.51504E-01-9.99087E-14 1.03196E-13
 -1       760 2.00483E+01-7.08216E-02-7.56630E-06 1.35267E-01-3.23594E-14 1.32414E-13
 -1       761 2.00364E+01-6.49880E-02-6.52368E-06 1.18042E-01-2.49166E-14 7.47323E-14
 -1       762 2.00278E+01-5.42722E-02-5.19970E-06 1.02266E-01-3.86186E-14 2.22713E-14
 -1       763 2.00217E+01-4.00097E-02-3.87056E-06 8.96930E-02-4.93472E-14 1.51262E-14
 -1       764 2.00176E+01-2.28442E-02-2.55881E-06 8.16621E-02-1.44508E-13 2.19590E-14
 -1       765 2.00147E+01-2.88158E-03-1.18643E-06 7.93051E-02-2.41118E-13 4.20642E-14
 -1       766 2.00127E+01 2.01909E-02 4.42176E-07 8.37111E-02-7.08450E-14-2.10606E-14
 -1       767 2.00107E+01 4.69976E-02 2.36218E-06 9.60488E-02 2.74174E-14 6.36662E-14
 -1       768 2.00082E+01 7.83747E-02 4.61308E-06 1.17645E-01 2.23256E-14 1.30178E-13
 -1       769 2.00042E+01 1.15266E-01 7.30678E-06 1.50030E-01 7.78309E-14 8.97875E-14
 -1       770 1.99977E+01 1.58591E-01 1.05973E-05 1.94935E-01 1.19542E-13-5.64021E-14
 -1       771 1.99875E+01 2.09058E-01 1.46693E-05 2.54264E-01 2.46262E-14-1.92351E-14
 -1       772 1.99718E+01 2.66891E-01 1.97529E-05 3.29993E-01-5.23149E-14 2.29738E-14
 -1       773 1.99488E+01 3.31409E-01 2.61503E-05 4.24038E-01 7.65581E-14-6.06318E-14
 -1       774 1.99164E+01 4.00387E-01 3.42834E-05 5.38060E-01-1.22086E-14-7.62454E-14
 -1       775 1.98727E+01 4.69086E-01 4.47634E-05 6.73263E-01 1.57034E-13 9.06118E-14
 -1       776 1.98169E+01 5.28812E-01 5.83946E-05 8.30205E-01 2.89613E-14 2.14838E-13
 -1       777 1.97506E+01 5.64836E-01 7.56044E-05 1.00873E+00 4.55409E-14 3.20528E-13
 -1       778 1.96812E+01 5.53530E-01 9.37193E-05 1.20807E+00-4.34592E-16 2.24048E-13
 -1       779 1.96263E+01 4.58740E-01 1.00792E-04 1.42701E+00 9.45890E-14 5.41256E-14
 -1       780 1.96225E+01 2.27888E-01 9.42465E-05 1.66348E+00-3.69422E-14-1.37638E-14
 -1       781 1.97388E+01-2.10419E-01 3.08647E-04 1.91100E+00-9.83002E-15 1.31378E-13
 -1       782 2.00913E+01-9.39072E-01 1.38122E-03 2.14687E+00-7.96618E-15 7.07337E-14
 -1       783 2.08863E+01-2.03769E+00-5.96019E-04 2.28052E+00 7.07443E-14 8.59454E-14
 -1       784 2.23672E+01-3.43765E+00 1.85600E-02 2.14797E+00 8.42243E-14-5.12784E-15
 -1       785 2.48832E+01-4.97324E+00 3.11991E-03 1.42431E+00 1.62469E-13 7.49350E-14
 -1       786 2.68122E+01-4.05982E+00 1.49373E-03-9.56069E-01 7.14409E-14 2.92898E-13
 -1       787 2.00407E+01-5.05061E-02-1.39664E-05-1.72989E-01-8.67296E-16 6.52316E-14
 -1       788 2.00612E+01-2.44945E-02-1.39830E-05-1.75200E-01 2.67077E-14 1.26281E-13
 -1       789 2.00163E+01-6.40603E-02-1.28455E-05-1.43223E-01 5.58135E-14 3.49303E-14
 -1       790 2.00101E+01-5.94842E-02-1.16992E-05-1.24622E-01 6.16673E-14-5.26883E-15
 -1       791 2.00065E+01-5.05047E-02-1.00885E-05-1.07327E-01 7.07242E-14 6.58046E-14
 -1       792 2.00051E+01-3.83952E-02-7.84077E-06-9.31565E-02 3.87331E-14 1.00208E-13
 -1       793 2.00053E+01-2.38075E-02-5.33989E-06-8.34691E-02 3.32779E-15 2.83279E-13
 -1       794 2.00067E+01-6.91199E-03-2.46417E-06-7.93900E-02 2.49198E-14 2.04096E-13
 -1       795 2.00090E+01 1.24767E-02 8.97691E-07-8.19785E-02-3.64381E-14 2.32110E-13
 -1       796 2.00121E+01 3.48013E-02 4.76848E-06-9.23503E-02 8.33975E-14 2.06952E-13
 -1       797 2.00157E+01 6.06596E-02 9.21288E-06-1.11762E-01 3.31005E-14 2.26215E-13
 -1       798 2.00196E+01 9.06877E-02 1.44500E-05-1.41651E-01-1.99534E-14 3.26267E-13
 -1       799 2.00235E+01 1.25413E-01 2.06374E-05-1.83629E-01 1.31494E-14 3.91262E-13
 -1       800 2.00273E+01 1.65048E-01 2.79119E-05-2.39422E-01-3.29784E-14 3.81804E-13
 -1       801 2.00306E+01 2.09197E-01 3.63457E-05-3.10749E-01-8.94555E-14 2.53460E-13
 -1       802 2.00335E+01 2.56425E-01 4.58877E-05-3.99105E-01-9.87744E-14 3.23869E-13
 -1       803 2.00362E+01 3.03632E-01 5.62813E-05-5.05461E-01 2.01942E-14 1.14128E-13
 -1       804 2.00399E+01 3.45179E-01 6.69495E-05-6.29834E-01-3.48405E-14 1.14259E-13
 -1       805 2.00476E+01 3.71674E-01 7.67825E-05-7.70724E-01 1.45810E-14 1.98125E-13
 -1       806 2.00657E+01 3.68430E-01 8.34726E-05-9.24375E-01-1.33294E-14 2.07908E-13
 -1       807 2.01065E+01 3.13683E-01 8.11890E-05-1.08376E+00-1.34223E-13-2.33115E-14
 -1       808 2.01915E+01 1.77076E-01 5.45214E-05-1.23695E+00-1.40843E-13 3.70788E-14
 -1       809 2.03571E+01-8.02336E-02-1.43207E-05-1.36424E+00-1.00738E-13 1.75625E-13
 -1       810 2.06586E+01-5.00740E-01-6.15191E-05-1.43262E+00-1.51039E-13 6.32152E-14
 -1       811 2.11732E+01-1.11531E+00 1.74821E-04-1.38560E+00-1.84875E-15 2.37109E-14
 -1       812 2.19847E+01-1.89907E+00 9.17148E-04-1.12322E+00 8.02829E-14 2.25580E-13
 -1       813 2.31402E+01-2.69484E+00-7.86822E-04-4.99410E-01 3.43332E-14 6.40462E-13
 -1       814 2.45536E+01-3.17166E+00-2.14097E-03 5.80864E-01 9.65400E-14 7.68636E-13
 -1       815 2.57227E+01-2.32680E+00-1.35541E-02 2.09977E+00 1.32580E-13 6.94481E-13
 -1       816 2.59662E+01 4.80906E-01-1.06162E-01-1.63873E+00 3.79974E-14-3.26111E-14
 -1       817 2.55691E+01-1.60296E+00-1.11605E-02-4.82369E-01-2.07130E-13-1.54600E-13
 -1       818 2.49901E+01-2.14102E+00-8.41522E-03 5.35337E-01-2.81893E-13 1.56832E-13
 -1       819 2.01380E+01 1.88869E+00-3.07182E-04 1.99046E-01 8.00431E-14-5.11290E-14
 -1       820 2.61210E+01-3.73920E+00-6.84232E-05 8.45888E-01 9.53666E-14 2.29692E-13
 -1       821 2.02904E+01 7.30493E-01 1.50411E-04-2.92807E-01-6.83610E-14-9.76908E-14
 -1       822 2.00262E+01-6.21363E-02-1.34898E-05-1.60572E-01 5.90404E-14 4.09889E-14
 -1       823 2.01701E+01 2.23648E-01-6.69582E-05-3.18891E-02 6.51398E-14 8.86686E-14
 -1       824 2.02752E+01 1.27466E+00 1.39364E-04-5.63193E-01-4.57287E-14-9.87729E-14
 -1       825 2.31263E+01-5.22051E+00 1.47278E-02-3.18248E+00-2.19515E-13 6.37476E-14
 -1       826 1.08082E+01-4.06984E-01 8.88812E-02 2.21402E+00-5.18544E-14-2.75786E-13
 -1       827 2.52492E+01-4.08614E+00 3.88847E-04-3.94946E+00 5.93588E-14-3.43229E-13
 -1       828 2.02779E+01 9.40605E-01-1.34448E-04 5.51562E-01 1.12120E-13 6.36078E-14
 -1       829 2.68236E+01-3.52967E+00-1.56813E-02-1.30798E+00-1.85489E-13-5.09481E-13
 -1       830 2.62028E+01-4.25168E+00-9.67271E-03 3.52630E+00-5.89593E-14-6.18767E-14
 -1       831 2.09138E+01-4.50854E+00 2.30091E-02 3.86752E+00 1.64951E-13-2.24784E-13
 -1       832 2.60802E+01-9.59504E-01-5.94689E-02 3.19121E+00 2.31567E-13 6.39396E-13
 -1       833 1.87194E+01-3.73958E+00 5.76214E-02-4.69894E+00-2.91091E-13-5.46559E-14
 -1       834 2.01267E+01 1.92588E+00-3.23702E-04 3.46948E-03 4.93287E-14-5.10505E-14
 -1       835 2.02230E+01 1.57925E+00 2.11799E-04 5.36452E-01 1.05738E-13 3.24291E-15
 -1       836 1.20702E+01-6.73455E-01 6.82119E-02-3.03316E+00-1.77033E-13-3.83780E-13
 -1       837 2.01251E+01 1.00459E-01-4.32332E-05-1.16580E-01 8.15671E-14 5.93045E-14
 -1       838 2.02288E+01 1.52957E+00-8.94189E-06-4.61381E-01-4.00395E-14-9.53274E-14
 -1       839 2.00890E+01 2.26112E-02-1.09283E-05-1.59809E-01 1.35429E-14 5.06421E-14
 -1       840 2.01730E+01 1.77413E+00 1.90620E-05 3.83243E-01 1.14461E-13-4.28703E-14
 -1       841 2.01908E+01 1.69779E+00-2.63259E-04-3.13860E-01-2.50619E-14-8.02194E-14
 -1       842 2.02318E+01 5.73146E-01 8.41356E-05 2.58305E-01 6.05827E-14 7.10359E-14
 -1       843 2.01985E+01 3.70758E-01 1.80118E-05 8.51284E-02 2.68546E-14 1.23319E-13
 -1       844 1.86016E+01-2.70774E+00 2.19570E-02 3.79593E+00-3.77341E-14-1.27535E-13
 -1       845 2.03298E+01 4.29929E-01-8.23505E-05-4.69108E-02-7.37603E-14-8.59355E-14
 -1       846 2.03040E+01 2.26643E-01-2.41354E-05 4.70931E-02-4.87660E-14-8.41179E-14
 -1       847 2.02678E+01 9.12109E-02-1.14546E-05 1.02619E-01-8.49327E-16-4.05131E-14
 -1       848 2.02286E+01 4.78896E-03-5.70305E-06 1.30175E-01 2.56214E-14-4.91291E-14
 -1       849 2.01906E+01-4.67181E-02-2.83484E-06 1.38617E-01 3.62474E-14-6.36821E-14
 -1       850 2.01561E+01-7.37122E-02-1.72918E-06 1.34979E-01-2.18530E-14-4.17588E-14
 -1       851 2.01259E+01-8.37462E-02-1.87659E-06 1.24546E-01-9.36996E-14 4.22489E-14
 -1       852 2.01003E+01-8.21771E-02-1.80495E-06 1.11171E-01-5.72722E-14-1.41279E-14
 -1       853 2.00790E+01-7.26621E-02-1.00894E-06 9.76030E-02-2.84554E-14-5.95204E-14
 -1       854 2.00615E+01-5.75294E-02-3.86349E-07 8.58206E-02-2.86015E-14 6.06541E-16
 -1       855 2.00468E+01-3.81011E-02-3.86145E-07 7.72980E-02-1.09294E-13 6.55773E-14
 -1       856 2.00341E+01-1.49233E-02-8.42408E-07 7.31977E-02-1.77312E-13 5.74547E-14
 -1       857 2.00223E+01 1.20772E-02-9.55119E-07 7.45455E-02-1.52088E-13 2.33751E-13
 -1       858 2.00101E+01 4.34372E-02-8.65451E-07 8.23670E-02 4.89318E-14 1.92617E-13
 -1       859 1.99962E+01 8.00174E-02-8.46378E-07 9.77703E-02 2.70936E-15 1.62058E-13
 -1       860 1.99788E+01 1.22874E-01-9.35316E-07 1.21995E-01 8.15637E-14 1.30487E-13
 -1       861 1.99559E+01 1.73112E-01-1.08021E-06 1.56431E-01 2.55523E-14 1.71246E-13
 -1       862 1.99252E+01 2.31699E-01-1.22456E-06 2.02607E-01 2.29151E-14 8.20318E-14
 -1       863 1.98838E+01 2.99201E-01-1.28940E-06 2.62136E-01 3.38218E-14-1.09512E-13
 -1       864 1.98283E+01 3.75418E-01-1.13946E-06 3.36648E-01 2.64921E-15 3.04719E-16
 -1       865 1.97551E+01 4.58852E-01-5.34752E-07 4.27712E-01 1.98176E-14 2.64662E-14
 -1       866 1.96599E+01 5.45953E-01 9.48356E-07 5.36814E-01 1.50242E-13 3.35074E-14
 -1       867 1.95389E+01 6.30044E-01 4.00645E-06 6.65481E-01 1.18391E-13 1.23228E-13
 -1       868 1.93889E+01 6.99827E-01 9.34414E-06 8.15726E-01 1.41224E-13 1.55741E-13
 -1       869 1.92090E+01 7.37308E-01 1.50601E-05 9.91062E-01 3.59788E-14 2.05486E-13
 -1       870 1.90036E+01 7.14982E-01 5.40922E-06 1.19834E+00 7.75350E-15 1.82542E-13
 -1       871 1.87866E+01 5.92098E-01-8.30851E-05 1.45054E+00-5.56635E-14 7.55362E-15
 -1       872 1.85911E+01 3.09458E-01-2.23287E-04 1.77002E+00 1.19606E-13 1.67817E-13
 -1       873 1.84844E+01-2.18448E-01 6.40759E-06 2.18948E+00 7.40998E-15 1.08188E-13
 -1       874 1.86129E+01-1.09761E+00 5.03897E-03 2.74394E+00-1.32983E-13-9.71523E-14
 -1       875 2.00476E+01-5.62826E-02-5.13348E-07-9.37320E-02 7.29550E-15 8.28323E-14
 -1       876 2.00614E+01-6.94340E-02 1.55988E-07-1.07338E-01 3.46345E-15 1.31021E-13
 -1       877 2.00787E+01-7.72946E-02 3.62393E-06-1.22642E-01 6.45300E-14 1.11379E-13
 -1       878 2.00366E+01-3.92073E-02-8.66389E-07-8.34207E-02-6.26146E-14 1.06774E-13
 -1       879 2.00276E+01-1.87987E-02-8.56012E-07-7.76493E-02-1.99627E-14 1.65134E-13
 -1       880 2.00198E+01 4.89379E-03-2.95576E-07-7.75096E-02 4.89746E-14 2.18307E-13
 -1       881 2.00123E+01 3.22337E-02 4.04474E-07-8.40602E-02-3.23699E-14 1.00594E-13
 -1       882 2.00040E+01 6.38693E-02 9.57514E-07-9.84411E-02-2.17567E-14 2.38530E-13
 -1       883 1.99938E+01 1.00582E-01 1.69230E-06-1.21936E-01-6.70674E-14 3.09587E-13
 -1       884 1.99805E+01 1.43124E-01 2.66852E-06-1.55996E-01 3.53205E-14 1.91651E-13
 -1       885 1.99626E+01 1.92007E-01 3.97894E-06-2.02229E-01-7.04044E-14 2.36257E-13
 -1       886 1.99385E+01 2.47207E-01 5.75221E-06-2.62348E-01-3.46494E-14 2.50011E-13
 -1       887 1.99068E+01 3.07759E-01 8.17027E-06-3.38081E-01-2.91407E-14 9.71114E-15
 -1       888 1.98659E+01 3.71179E-01 1.15073E-05-4.31044E-01 1.51568E-14-1.43617E-14
 -1       889 1.98151E+01 4.32670E-01 1.62072E-05-5.42596E-01-3.70976E-14 5.81279E-14
 -1       890 1.97550E+01 4.84044E-01 2.30095E-05-6.73714E-01-1.29815E-13-2.49272E-14
 -1       891 1.96888E+01 5.12303E-01 3.29592E-05-8.24926E-01 4.10541E-14 1.69223E-13
 -1       892 1.96244E+01 4.97843E-01 4.62544E-05-9.96338E-01 9.76254E-14 1.67062E-13
 -1       893 1.95778E+01 4.12346E-01 5.64137E-05-1.18762E+00-1.68703E-13 6.97888E-14
 -1       894 1.95788E+01 2.16696E-01 3.24515E-05-1.39739E+00-1.67070E-13-4.07023E-14
 -1       895 1.96781E+01-1.39843E-01-4.46196E-05-1.62047E+00-1.19109E-13 6.07180E-14
 -1       896 1.99590E+01-7.15365E-01 4.23115E-04-1.83912E+00-2.59163E-13 6.42252E-14
 -1       897 2.05468E+01-1.56281E+00 1.76056E-03-2.00983E+00-6.48805E-14 1.38159E-13
 -1       898 2.16273E+01-2.68748E+00 1.92373E-03-2.01669E+00 1.21001E-14-2.43586E-14
 -1       899 1.22527E+01 3.91002E-01 4.05318E-02 3.96292E-01-8.57602E-14-2.55320E-13
 -1       900 2.59292E+01-3.07555E+00-5.94263E-03 1.75283E+00-4.60039E-13-8.72566E-16
 -1       901 2.03327E+01 7.28113E-01-5.08131E-06-1.89651E-01-1.01619E-13-1.05762E-13
 -1       902 2.26296E+01-3.96397E+00 8.14266E-03-2.31614E+00-4.33995E-14-3.96488E-13
 -1       903 2.01523E+01 1.84043E+00-2.30841E-04-1.65602E-01 1.76615E-14-4.44980E-14
 -1       904 2.02961E+01 8.23076E-01-4.31858E-04 3.45796E-01 6.46415E-14 5.30076E-14
 -1       905 1.42192E+01-2.76026E-01 3.29958E-02 2.59412E+00-9.83216E-14 2.77547E-14
 -1       906 2.01570E+01-3.95725E-02-2.62239E-06-1.52128E-01 7.29258E-14 7.99811E-14
 -1       907 1.59284E+01-1.71751E+00 4.10226E-02-3.97594E+00-9.99619E-14-2.36459E-13
 -1       908 1.29502E+01 3.12105E-01 2.91520E-02-1.30941E+00-1.34423E-13-4.90487E-13
 -1       909 2.01922E+01 1.13067E-02-3.32407E-06-1.41635E-01-3.98216E-14 5.84103E-14
 -1       910 2.02754E+01 1.40474E+00 9.61090E-05 7.04138E-02 8.06837E-14-1.54235E-14
 -1       911 2.02945E+01 4.32917E-01-3.26366E-05 6.72133E-02 6.75855E-14-1.53347E-14
 -1       912 1.66395E+01-8.07662E-01 9.66993E-03 2.95272E+00-2.49039E-13-9.39654E-14
 -1       913 2.01001E+01-7.75969E-02 5.36007E-06-1.37465E-01 6.09936E-14 4.58514E-14
 -1       914 2.03066E+01 1.08120E+00-6.59360E-05-3.22519E-01-5.98125E-14-1.16484E-13
 -1       915 2.02634E+01 2.30164E-01 4.42063E-05-4.37563E-02 8.12313E-14 1.92821E-14
 -1       916 2.02977E+01 1.24339E+00 2.72183E-05-2.37990E-01-3.53172E-14-4.00982E-14
 -1       917 2.02841E+01 1.33678E+00-6.11561E-04 1.97267E-01 8.41537E-14-6.47132E-14
 -1       918 1.95155E+01-2.64685E+00 1.46708E-02-3.38732E+00-1.46974E-14-9.11133E-14
 -1       919 2.01262E+01-6.67679E-02 2.64364E-06-1.48744E-01 5.58644E-14 3.89397E-14
 -1       920 2.03798E+01 3.91983E-01-1.58156E-05-9.80923E-03-4.00799E-14 4.21391E-14
 -1       921 2.00538E+01-3.38250E-02-7.00031E-07-6.83595E-02-1.44905E-14 9.68361E-14
 -1       922 2.03590E+01 1.96156E-01-7.09135E-06 5.02470E-02-2.12386E-14 1.15320E-14
 -1       923 2.03238E+01 6.55120E-02-3.88529E-06 8.49798E-02 3.05018E-14 1.40198E-14
 -1       924 2.02823E+01-1.70026E-02-1.38119E-06 1.01085E-01 1.09997E-14 5.31756E-14
 -1       925 2.02399E+01-6.47706E-02 2.16014E-07 1.04605E-01 4.46131E-14 3.65746E-14
 -1       926 2.01995E+01-8.79942E-02-6.81469E-07 1.00333E-01-2.99898E-14-1.90436E-14
 -1       927 2.01631E+01-9.41219E-02-2.03312E-07 9.18977E-02-9.69686E-14 1.87866E-14
 -1       928 2.01311E+01-8.84897E-02 7.63470E-07 8.19684E-02-6.15190E-14 7.70706E-14
 -1       929 2.01033E+01-7.46420E-02 1.64925E-06 7.24757E-02-2.61679E-15 7.05081E-14
 -1       930 2.00793E+01-5.47546E-02 1.67391E-06 6.48588E-02-5.05050E-15 5.91330E-15
 -1       931 2.00580E+01-3.00110E-02-5.19690E-07 6.01975E-02-8.71389E-14 5.51341E-14
 -1       932 2.00381E+01-7.41110E-04-1.85557E-06 5.93663E-02-7.80790E-14 2.10815E-13
 -1       933 2.00180E+01 3.33802E-02-2.59866E-06 6.31920E-02-8.98294E-14 2.46212E-13
 -1       934 1.99958E+01 7.31208E-02-3.86768E-06 7.25208E-02 2.03464E-14 1.09060E-13
 -1       935 1.99694E+01 1.19545E-01-5.82592E-06 8.82562E-02 5.22207E-14 1.61390E-13
 -1       936 1.99360E+01 1.73860E-01-8.44898E-06 1.11388E-01 7.27138E-14 2.29083E-13
 -1       937 1.98928E+01 2.37221E-01-1.18025E-05 1.42991E-01-1.92659E-14 1.86214E-13
 -1       938 1.98360E+01 3.10489E-01-1.60262E-05 1.84198E-01-1.04247E-13 1.40440E-13
 -1       939 1.97616E+01 3.93904E-01-2.13229E-05 2.36150E-01 4.09760E-14 7.72065E-14
 -1       940 1.96646E+01 4.86659E-01-2.79958E-05 2.99964E-01 3.78179E-14 6.03954E-15
 -1       941 1.95395E+01 5.86329E-01-3.65521E-05 3.76736E-01 8.89283E-14 4.42441E-14
 -1       942 1.93801E+01 6.88128E-01-4.79224E-05 4.67708E-01 1.88178E-13-4.38348E-15
 -1       943 1.91796E+01 7.83975E-01-6.39675E-05 5.74722E-01 2.27664E-13 4.65719E-14
 -1       944 1.89309E+01 8.61321E-01-8.91516E-05 7.01266E-01 4.13638E-14 7.21182E-15
 -1       945 1.86266E+01 9.01652E-01-1.37570E-04 8.54504E-01-3.39539E-14-8.03867E-14
 -1       946 1.82596E+01 8.78434E-01-2.63819E-04 1.04882E+00 5.69433E-14 1.41420E-13
 -1       947 1.78256E+01 7.54094E-01-4.43561E-04 1.31065E+00 2.14406E-13 2.10005E-13
 -1       948 1.73190E+01 4.73958E-01-8.87337E-04 1.68742E+00 9.54418E-15 1.90531E-13
 -1       949 1.69116E+01-1.10506E-02-3.16868E-04 2.21620E+00-2.49620E-13 1.97838E-13
 -1       950 2.00936E+01-7.39582E-02 3.83522E-06-8.41157E-02 1.37052E-14 1.40514E-13
 -1       951 2.00723E+01-5.61925E-02 1.06683E-06-7.46677E-02-3.30615E-14 1.36408E-13
 -1       952 1.44005E+01 5.64138E-01 1.21674E-02 1.07231E+00 3.11120E-14-4.40058E-13
 -1       953 2.01187E+01-8.60039E-02 5.61105E-06-9.54943E-02 3.54718E-14 4.65917E-14
 -1       954 2.00370E+01-7.30176E-03 5.00667E-07-6.62461E-02-9.63293E-15 8.29399E-14
 -1       955 2.00206E+01 2.34994E-02 7.21748E-07-6.92664E-02 2.28980E-14 1.63547E-13
 -1       956 2.00029E+01 5.91789E-02-4.53807E-07-7.83681E-02-3.11374E-14 2.38625E-13
 -1       957 1.99824E+01 1.00581E-01-1.70751E-06-9.46044E-02-6.08882E-15 1.25674E-13
 -1       958 1.99568E+01 1.48635E-01-3.03990E-06-1.19160E-01-1.95208E-14 3.44312E-14
 -1       959 1.99240E+01 2.04142E-01-4.46343E-06-1.53379E-01-4.72911E-14 2.05040E-13
 -1       960 1.98813E+01 2.67503E-01-5.98128E-06-1.98765E-01 6.17684E-14 4.48566E-15
 -1       961 1.98261E+01 3.38349E-01-7.59067E-06-2.56964E-01 9.05633E-14-7.63032E-14
 -1       962 1.97552E+01 4.15051E-01-9.28072E-06-3.29751E-01-5.06384E-14 1.44535E-14
 -1       963 1.96662E+01 4.94057E-01-1.10370E-05-4.19052E-01-5.60651E-14-2.00090E-14
 -1       964 1.95566E+01 5.69036E-01-1.28745E-05-5.27048E-01-1.27480E-13 3.87334E-14
 -1       965 1.94259E+01 6.29767E-01-1.50628E-05-6.56475E-01-1.51169E-13-9.12009E-14
 -1       966 1.92756E+01 6.60754E-01-1.93916E-05-8.11233E-01 5.06035E-14 8.42354E-14
 -1       967 1.91119E+01 6.39474E-01-3.51335E-05-9.97472E-01-1.69372E-14 2.51176E-13
 -1       968 1.89491E+01 5.34059E-01-1.00964E-04-1.22519E+00-4.94486E-14 1.47713E-13
 -1       969 1.88154E+01 3.00050E-01-3.10675E-04-1.50946E+00-3.40738E-13 1.55451E-13
 -1       970 1.87621E+01-1.22008E-01-9.09966E-04-1.86896E+00-1.75801E-13 3.46909E-13
 -1       971 1.88884E+01-8.15769E-01 1.25860E-05-2.32437E+00-1.04192E-13 2.22841E-14
 -1       972 1.90448E+01-1.59648E+00 4.75078E-04-2.81389E+00 1.50216E-14-1.81921E-13
 -1       973 2.03225E+01 1.02200E+00 1.38043E-04 2.90101E-01 7.61291E-14-2.33604E-14
 -1       974 2.02859E+01 1.36203E+00 6.02706E-05-4.86428E-02 5.75628E-14-1.73689E-14
 -1       975 1.51479E+01-3.45563E-01 1.60789E-02-2.69000E+00 1.21794E-15-3.69617E-13
 -1       976 2.02962E+01 6.07561E-01-2.42217E-04 1.84980E-01 4.36426E-14 1.59283E-14
 -1       977 2.03740E+01 6.74280E-01-2.52679E-04-1.02980E-01-6.78302E-14 1.88701E-14
 -1       978 2.03491E+01 9.35384E-01 5.53274E-04-1.70450E-01-5.80732E-14-5.13330E-15
 -1       979 2.02305E+01 9.60477E-02 1.21883E-05-1.09433E-01 3.60236E-15 4.80779E-14
 -1       980 1.43274E+01 7.57663E-01 1.11637E-02-1.25903E-01 1.60902E-13-1.84383E-13
 -1       981 2.02601E+01-7.83671E-03-7.37072E-07-1.15695E-01-1.42260E-16-4.19003E-14
 -1       982 2.02900E+01 1.32352E+00 7.84051E-05-1.48231E-01 2.99255E-14-2.02006E-14
 -1       983 2.03713E+01 9.79877E-01 1.93140E-04 1.24537E-02 5.64302E-14-2.63025E-14
 -1       984 2.03702E+01 9.44740E-01 4.26807E-04 8.82972E-02 6.60137E-14-3.78504E-14
 -1       985 2.03553E+01 4.10905E-01-7.01069E-05 2.55753E-02 4.09381E-14-9.03891E-14
 -1       986 1.55871E+01 3.02534E-01 5.02922E-03 1.83705E+00-3.22622E-13-2.13126E-13
 -1       987 1.71733E+01-1.06682E+00 8.04897E-03-3.05643E+00-3.82805E-16-3.07764E-13
 -1       988 2.01480E+01-8.98916E-02 1.33504E-05-1.07064E-01 2.94651E-14 7.72489E-14
 -1       989 2.02197E+01-5.72751E-02-3.28733E-06-1.21022E-01 5.72033E-14 2.90916E-15
 -1       990 2.03482E+01 5.93403E-01 1.56780E-04 1.08950E-01 7.26077E-14-7.16549E-14
 -1       991 2.03004E+01 7.60766E-02 5.82104E-06-9.50529E-02-2.88680E-14-5.18169E-14
 -1       992 2.00583E+01-2.25784E-02-3.63958E-06-4.91733E-02 8.16897E-15 1.05744E-13
 -1       993 2.03902E+01 1.49031E-01-3.37566E-05 4.14057E-02-6.01206E-15 6.84861E-15
 -1       994 2.03526E+01 3.10708E-02-2.87191E-05 5.86520E-02 3.51808E-14 3.31878E-14
 -1       995 2.03082E+01-4.16380E-02-6.72033E-06 6.56701E-02 7.24869E-15 7.65624E-14
 -1       996 2.02624E+01-8.16731E-02-1.60312E-06 6.59795E-02-3.86288E-14 3.30811E-14
 -1       997 2.02187E+01-9.87145E-02-1.17030E-06 6.22127E-02-8.99728E-15 4.27440E-14
 -1       998 2.01787E+01-9.95533E-02-1.58979E-07 5.65558E-02 1.65475E-15 1.01829E-13
 -1       999 2.01431E+01-8.91689E-02 4.28919E-06 5.04044E-02-1.26486E-13-2.50535E-15
 -1      1000 2.01116E+01-7.07408E-02 6.94452E-06 4.49653E-02-3.82703E-14-8.26011E-14
 -1      1001 2.00835E+01-4.62395E-02-6.11957E-07 4.11186E-02 1.73117E-14-5.14877E-14
 -1      1002 2.00575E+01-1.65093E-02-5.34977E-06 3.94360E-02 8.53436E-15 9.40105E-14
 -1      1003 2.00318E+01 1.84514E-02-7.54422E-06 4.04724E-02-2.30996E-14 2.19665E-13
 -1      1004 2.00045E+01 5.92212E-02-1.24835E-05 4.48055E-02-3.40856E-14 2.71581E-13
 -1      1005 1.99730E+01 1.06747E-01-1.87857E-05 5.29770E-02-1.83219E-14 1.85733E-13
 -1      1006 1.99346E+01 1.62244E-01-2.66778E-05 6.55566E-02 1.26139E-13 5.89887E-14
 -1      1007 1.98859E+01 2.26969E-01-3.61659E-05 8.31485E-02 3.33607E-14 9.15954E-14
 -1      1008 1.98229E+01 3.01987E-01-4.74198E-05 1.06364E-01-2.79703E-15 1.59757E-13
 -1      1009 1.97411E+01 3.87880E-01-6.07322E-05 1.35781E-01-7.26275E-14 1.80990E-13
 -1      1010 1.96352E+01 4.84382E-01-7.65999E-05 1.71907E-01-4.67070E-14 1.18661E-13
 -1      1011 1.94991E+01 5.89921E-01-9.59837E-05 2.15149E-01-4.87306E-14 7.21648E-15
 -1      1012 1.93256E+01 7.01089E-01-1.20868E-04 2.65876E-01 7.04295E-14-1.12545E-13
 -1      1013 1.91064E+01 8.12046E-01-1.55324E-04 3.24633E-01 1.25818E-13-2.68028E-13
 -1      1014 1.88314E+01 9.13931E-01-2.07205E-04 3.92701E-01 1.08947E-13-4.51078E-13
 -1      1015 1.84874E+01 9.94374E-01-2.89883E-04 4.73267E-01-2.21442E-14-2.66808E-13
 -1      1016 1.80561E+01 1.03711E+00-4.25134E-04 5.73749E-01 1.90466E-13-2.05994E-13
 -1      1017 1.75107E+01 1.02144E+00-5.78971E-04 7.09731E-01 1.23065E-13-8.14489E-14
 -1      1018 1.68097E+01 9.15635E-01-7.06546E-04 9.06415E-01 5.97134E-14-4.12570E-13
 -1      1019 2.00108E+01 4.76144E-02-4.93451E-06-5.42276E-02-3.24635E-14 1.43723E-13
 -1      1020 1.99835E+01 9.14333E-02-1.03578E-05-6.36076E-02 4.56430E-14 1.30127E-13
 -1      1021 1.99506E+01 1.42353E-01-1.62950E-05-7.86571E-02 3.28195E-14 8.64057E-14
 -1      1022 1.99093E+01 2.01404E-01-2.28106E-05-1.00353E-01-7.91787E-14 1.81099E-16
 -1      1023 1.98563E+01 2.69371E-01-2.99027E-05-1.29830E-01 9.82102E-14-1.41897E-13
 -1      1024 1.97881E+01 3.46475E-01-3.75399E-05-1.68399E-01 1.85521E-14 8.92546E-14
 -1      1025 1.97006E+01 4.31957E-01-4.56935E-05-2.17591E-01-9.39951E-14 2.18627E-13
 -1      1026 1.95895E+01 5.23555E-01-5.44348E-05-2.79231E-01-1.33540E-14 2.33784E-13
 -1      1027 1.94506E+01 6.16844E-01-6.41913E-05-3.55615E-01-2.78701E-14 2.11903E-13
 -1      1028 1.92796E+01 7.04456E-01-7.64347E-05-4.49869E-01-1.10315E-13 1.54241E-13
 -1      1029 1.90728E+01 7.75164E-01-9.56815E-05-5.66631E-01-1.46048E-13 3.56888E-14
 -1      1030 1.88273E+01 8.12850E-01-1.35352E-04-7.13273E-01-3.26238E-14 5.61113E-14
 -1      1031 1.85420E+01 7.95305E-01-2.34945E-04-9.02023E-01-9.37544E-14 9.80033E-14
 -1      1032 1.82179E+01 6.92352E-01-5.40380E-04-1.15379E+00-1.94968E-13 2.22928E-13
 -1      1033 1.78644E+01 4.59189E-01-1.45615E-03-1.50504E+00-2.34791E-13 7.22079E-16
 -1      1034 1.74997E+01 3.42615E-02-3.07100E-03-2.00540E+00-4.67595E-14-1.29173E-13
 -1      1035 2.03341E+01 2.09806E-01-1.36241E-05-5.16003E-02 2.38819E-14-5.72031E-14
 -1      1036 2.01819E+01-8.21458E-02 1.16016E-05-1.16667E-01 3.55375E-14 6.54868E-14
 -1      1037 1.52996E+01 4.93603E-01 4.72163E-03-1.45449E+00 1.04326E-13-5.12351E-13
 -1      1038 2.04126E+01 3.27948E-01-5.81460E-05 9.80976E-03-5.03285E-14 2.64113E-15
 -1      1039 2.03710E+01 9.69560E-01 3.00308E-04-5.05904E-02 2.88732E-14 1.56050E-14
 -1      1040 2.00350E+01 9.87758E-03 8.39090E-07-4.96773E-02-5.01067E-14 1.48347E-13
 -1      1041 2.04093E+01 5.86128E-01-2.11727E-04-4.06442E-02-4.13712E-14 5.53323E-14
 -1      1042 2.01388E+01-8.91190E-02 1.24535E-05-6.48484E-02-3.66101E-14 6.40272E-14
 -1      1043 1.62159E+01 6.97685E-01 5.85850E-04 1.28140E+00-3.28779E-14-4.53235E-13
 -1      1044 2.00823E+01-5.01430E-02-4.12657E-06-5.20549E-02-1.26344E-14 1.12439E-13
 -1      1045 2.01088E+01-7.27008E-02 6.56845E-06-5.75675E-02-3.09488E-14 7.44918E-14
 -1      1046 2.03613E+01 9.67960E-01 4.53713E-04-1.12395E-01-2.51669E-14 2.68757E-14
 -1      1047 2.03989E+01 3.62140E-01-8.64098E-05-1.74035E-03 4.21618E-14-2.80132E-14
 -1      1048 1.73161E+01-4.39563E-01 2.08543E-03-2.46915E+00 1.24393E-13-2.08286E-13
 -1      1049 2.01735E+01-9.80552E-02-8.58271E-05-7.32212E-02 3.59500E-14 6.02079E-14
 -1      1050 2.03416E+01 4.50261E-02-3.16889E-06-7.23330E-02-6.01796E-14-1.96439E-14
 -1      1051 1.61676E+01 5.98017E-02-4.05105E-04-2.09693E+00 1.75168E-13-3.82138E-13
 -1      1052 2.04185E+01 6.56992E-01-1.90779E-04-8.13019E-03-2.22917E-14 2.43126E-14
 -1      1053 1.54503E+01 8.49640E-01 5.74817E-03 6.30654E-01-6.62680E-14-6.66157E-13
 -1      1054 2.03910E+01 6.35957E-01-8.12929E-05 7.07388E-02 7.99507E-14-4.12784E-14
 -1      1055 2.04183E+01 6.43346E-01 1.91775E-04 2.66469E-02 1.88821E-14 8.97327E-15
 -1      1056 2.02985E+01-3.12438E-02 2.02295E-05-8.26079E-02 1.79960E-14 2.71377E-14
 -1      1057 2.03676E+01 8.39596E-01-2.71594E-05 1.35098E-01 1.03350E-13-5.37923E-14
 -1      1058 2.00245E+01 3.13101E-02-3.60582E-07-2.82813E-02-5.44301E-14 1.57183E-14
 -1      1059 2.04301E+01 4.79230E-01 1.67820E-04-6.97134E-03-3.23663E-14 8.59770E-14
 -1      1060 2.03569E+01-4.85045E-03 3.25276E-05 2.44949E-02 4.62234E-14 2.61222E-14
 -1      1061 2.03094E+01-6.45346E-02 2.11303E-05 2.60198E-02-1.40249E-14 6.88621E-14
 -1      1062 2.02618E+01-9.48452E-02 6.14882E-07 2.51912E-02-5.15082E-14 1.16972E-13
 -1      1063 2.02175E+01-1.04559E-01 2.61934E-06 2.30033E-02-6.95227E-14 6.19849E-14
 -1      1064 2.01769E+01-9.93396E-02 7.89182E-06 2.07687E-02-7.71036E-14-7.34021E-14
 -1      1065 2.01395E+01-8.38399E-02-4.38500E-05 1.89015E-02-4.48844E-14 3.05696E-14
 -1      1066 2.01068E+01-6.14303E-02 1.35606E-05 1.71144E-02 4.39651E-14 1.26107E-13
 -1      1067 2.00771E+01-3.31217E-02 3.94525E-06 1.58946E-02 1.20818E-13 1.24613E-13
 -1      1068 2.00483E+01 1.04660E-03 1.03216E-05 1.58736E-02 4.34432E-14 7.24710E-14
 -1      1069 2.00185E+01 4.09637E-02 1.40543E-05 1.70558E-02 1.59254E-14 1.22928E-13
 -1      1070 1.99853E+01 8.74297E-02 1.63618E-05 1.95692E-02-4.41343E-14 2.83088E-13
 -1      1071 1.99460E+01 1.41598E-01 1.97470E-05 2.36119E-02-8.66424E-14 1.93014E-13
 -1      1072 1.98972E+01 2.04734E-01 2.47443E-05 2.93453E-02 1.58307E-14 4.09437E-14
 -1      1073 1.98349E+01 2.78012E-01 3.14707E-05 3.68833E-02 2.67451E-14-7.44245E-14
 -1      1074 1.97546E+01 3.62242E-01 3.99790E-05 4.62590E-02-6.79783E-14-1.56147E-13
 -1      1075 1.96511E+01 4.57539E-01 5.03083E-05 5.73758E-02-1.11693E-13-1.40695E-13
 -1      1076 1.95183E+01 5.62922E-01 6.25050E-05 6.99505E-02-4.17839E-14-9.09093E-14
 -1      1077 1.93492E+01 6.75860E-01 7.66611E-05 8.34596E-02-8.66654E-14-1.04958E-13
 -1      1078 1.91355E+01 7.91813E-01 9.29486E-05 9.71155E-02-3.66728E-14-1.96930E-13
 -1      1079 1.88671E+01 9.03832E-01 1.11607E-04 1.09909E-01 8.28698E-14-2.41232E-13
 -1      1080 1.85303E+01 1.00237E+00 1.33501E-04 1.20763E-01 1.29222E-13-2.12594E-13
 -1      1081 1.81061E+01 1.07552E+00 1.67399E-04 1.28804E-01 4.54911E-14-1.11902E-13
 -1      1082 1.75643E+01 1.10988E+00 2.91238E-04 1.33561E-01 6.95579E-14-4.96908E-13
 -1      1083 1.68545E+01 1.09057E+00 1.85297E-03 1.33485E-01 1.54697E-14-7.07168E-13
 -1      1084 1.99575E+01 1.26630E-01-4.08533E-06-3.87951E-02 2.64345E-14-2.15604E-14
 -1      1085 1.99936E+01 7.53753E-02-2.34417E-06-3.20924E-02 4.46962E-14-3.40767E-14
 -1      1086 1.98567E+01 2.55241E-01-1.27571E-05-6.32423E-02 4.52917E-14 1.67782E-13
 -1      1087 1.97844E+01 3.34371E-01-2.11572E-05-8.24879E-02-5.15056E-14 2.34157E-13
 -1      1088 1.96915E+01 4.23606E-01-3.30588E-05-1.07720E-01-5.20079E-14 1.85678E-13
 -1      1089 1.95729E+01 5.21796E-01-4.89392E-05-1.40257E-01-1.35583E-13 1.39718E-13
 -1      1090 1.94228E+01 6.26140E-01-6.91057E-05-1.81850E-01-3.20842E-14 1.86742E-13
 -1      1091 1.92349E+01 7.31626E-01-9.37735E-05-2.34945E-01-1.56497E-14 3.21223E-13
 -1      1092 1.90018E+01 8.30449E-01-1.23873E-04-3.03145E-01-6.91553E-14 2.57768E-13
 -1      1093 1.87152E+01 9.11493E-01-1.64101E-04-3.92015E-01 8.39335E-14-2.83383E-16
 -1      1094 1.83640E+01 9.59948E-01-2.29119E-04-5.10419E-01-4.41631E-14-1.27070E-13
 -1      1095 1.79330E+01 9.57137E-01-3.24853E-04-6.72620E-01-1.87311E-13-1.34892E-13
 -1      1096 1.73986E+01 8.81329E-01-2.17762E-04-9.01186E-01-1.27049E-13-1.02072E-13
 -1      1097 1.67115E+01 7.13938E-01 3.94573E-03-1.25371E+00 1.06864E-13-2.57080E-13
 -1      1098 2.03781E+01 1.72580E-01-3.52133E-05-4.74560E-02-1.72328E-14-6.23495E-14
 -1      1099 1.99130E+01 1.86229E-01-7.28113E-06-4.89535E-02-6.00954E-15 1.06051E-13
 -1      1100 2.04283E+01 2.49162E-01-1.89341E-05 8.89210E-03-4.67779E-14 9.86037E-14
 -1      1101 2.00527E+01-6.73636E-03-3.29047E-06-2.68452E-02-3.67285E-14 3.08385E-14
 -1      1102 2.03990E+01 9.52334E-02 9.09742E-05 1.98080E-02 4.88521E-14 2.86677E-14
 -1      1103 1.56094E+01 8.76649E-01-1.28756E-02-5.42401E-01 1.08144E-13-3.60727E-13
 -1      1104 1.62207E+01 1.01827E+00 8.04515E-03 3.28735E-01-1.21820E-13-6.78704E-13
 -1      1105 2.03988E+01 1.21093E-01 4.77807E-05-3.08952E-02-5.54079E-14 6.23012E-14
 -1      1106 2.03597E+01 1.16683E-02 2.70656E-05-4.12433E-02-4.43174E-14-2.00425E-14
 -1      1107 2.04224E+01 2.89785E-01 6.11957E-05-1.12956E-02 8.83124E-15 6.26799E-14
 -1      1108 2.01796E+01-1.00192E-01 5.60677E-05-3.70281E-02-4.21637E-14 1.15421E-13
 -1      1109 2.00800E+01-3.86593E-02-4.18318E-06-2.75338E-02 5.01277E-14 7.04178E-14
 -1      1110 1.60866E+01 6.58962E-01 1.20633E-02-1.22476E+00 1.06901E-13-4.22392E-13
 -1      1111 2.02547E+01-7.47423E-02-1.80635E-05-8.40841E-02 4.12677E-14 6.52184E-14
 -1      1112 2.04322E+01 4.76555E-01-5.06064E-04 4.45858E-03 7.40874E-15 2.84459E-14
 -1      1113 2.02128E+01-9.48860E-02-4.00492E-05-8.02455E-02 4.95388E-15 1.10547E-14
 -1      1114 2.01429E+01-8.71050E-02-6.84618E-05-3.30957E-02-1.47125E-14 1.69637E-13
 -1      1115 2.02897E+01-8.33215E-02 3.48779E-05-1.62284E-02 2.26304E-14 3.11679E-14
 -1      1116 2.02424E+01-1.02155E-01 7.37042E-05-1.50953E-02-4.09477E-14 1.06708E-13
 -1      1117 2.00924E+01-4.82383E-02 2.22702E-05-9.68434E-03 7.17208E-14-8.08476E-15
 -1      1118 2.01093E+01-6.56394E-02-1.23193E-05-2.95107E-02-4.37702E-14 9.62721E-14
 -1      1119 2.03268E+01-4.71833E-02-3.45941E-05-3.07703E-02 4.19442E-14-3.92383E-14
 -1      1120 2.01245E+01-7.38426E-02 1.01139E-04-1.09321E-02-5.00530E-15 1.02194E-13
 -1      1121 2.79641E+01 9.08689E+00 2.32536E+00-6.69820E+00-2.03171E-14 5.91471E-13
 -1      1122 2.05485E+01 6.22750E+00 2.09788E-01-3.90376E+00-9.96425E-15 8.44672E-14
 -1      1123 1.94355E+01 5.85327E+00 7.54152E-02-2.88765E+00-6.42542E-15-1.29518E-13
 -1      1124 1.90262E+01 5.72595E+00 6.02935E-02-2.23458E+00-3.41741E-15-2.31091E-13
 -1      1125 1.88393E+01 5.66905E+00 5.75011E-02-1.70116E+00-2.01228E-15-2.73202E-13
 -1      1126 1.87455E+01 5.64033E+00 5.55472E-02-1.23395E+00-1.22645E-15-2.85357E-13
 -1      1127 1.86965E+01 5.62508E+00 5.37889E-02-8.04163E-01 1.19696E-16-2.80342E-13
 -1      1128 1.86723E+01 5.61744E+00 5.25150E-02-3.92727E-01 6.53123E-16-2.64610E-13
 -1      1129 1.86653E+01 5.61524E+00 5.21083E-02 8.50167E-03 1.89703E-15-2.51143E-13
 -1      1130 1.86733E+01 5.61777E+00 5.26191E-02 4.10129E-01 3.24372E-15-2.28778E-13
 -1      1131 1.86986E+01 5.62577E+00 5.40108E-02 8.22868E-01 4.28260E-15-1.99409E-13
 -1      1132 1.87495E+01 5.64172E+00 5.62255E-02 1.25521E+00 4.82860E-15-1.49556E-13
 -1      1133 1.88450E+01 5.67104E+00 5.84453E-02 1.72696E+00 6.34909E-15-8.29640E-14
 -1      1134 1.90318E+01 5.72767E+00 6.04082E-02 2.26800E+00 7.68829E-15 1.42638E-14
 -1      1135 1.94318E+01 5.85032E+00 6.92410E-02 2.92819E+00 9.04832E-15 1.80932E-13
 -1      1136 2.04546E+01 6.18239E+00 1.53333E-01 3.87832E+00 7.41074E-15 4.83329E-13
 -1      1137 2.52185E+01 7.99472E+00 1.43047E+00 5.84634E+00 7.71605E-15 1.01405E-12
 -1      1138 2.88138E+01 3.61633E+00 1.27120E+00-4.21705E+00-7.50233E-14 9.03611E-13
 -1      1139 2.02292E+01-1.77743E-01-6.16332E-01-1.09865E-01-2.71103E-14 7.44904E-13
 -1      1140 1.88356E+01-9.63788E-02-2.36335E-01 6.25526E-02-8.55566E-15 5.12380E-13
 -1      1141 1.85022E+01-4.80299E-02-5.95510E-02 4.05208E-02-1.80585E-15 3.30458E-13
 -1      1142 1.84473E+01-2.46381E-02-1.52215E-02 2.67834E-02-4.60352E-16 2.16861E-13
 -1      1143 1.85294E+01-1.30667E-02-5.01408E-03 1.90948E-02-2.33255E-15 1.91507E-13
 -1      1144 1.86767E+01-6.59758E-03-1.47064E-03 1.41502E-02 2.03407E-15 1.97526E-13
 -1      1145 1.88496E+01-2.82621E-03 5.83958E-04 1.07174E-02 8.19321E-15 1.17134E-13
 -1      1146 1.90255E+01-5.86689E-04 1.90637E-03 8.18075E-03 7.92256E-15 6.77357E-14
 -1      1147 1.91915E+01 7.15510E-04 2.65980E-03 6.22872E-03-6.27055E-15 1.35274E-14
 -1      1148 1.93408E+01 1.42146E-03 2.97880E-03 4.69416E-03-6.42676E-15-1.46654E-13
 -1      1149 1.94704E+01 1.74033E-03 2.99539E-03 3.47806E-03 1.30031E-14-1.08051E-13
 -1      1150 1.95796E+01 1.80713E-03 2.81605E-03 2.51358E-03 6.33554E-16-2.06873E-13
 -1      1151 1.96694E+01 1.71096E-03 2.51708E-03 1.75084E-03 3.66563E-15-2.21045E-13
 -1      1152 1.97417E+01 1.51005E-03 2.14875E-03 1.15040E-03-2.75824E-15-1.45436E-13
 -1      1153 1.97990E+01 1.24056E-03 1.74071E-03 6.80438E-04-1.68425E-14-2.18264E-13
 -1      1154 1.98442E+01 9.22271E-04 1.30643E-03 3.15631E-04-1.39340E-14-3.39827E-13
 -1      1155 1.98802E+01 5.62371E-04 8.46499E-04 3.68170E-05-2.53255E-15-4.68899E-13
 -1      1156 1.99104E+01 1.58246E-04 3.51061E-04-1.68894E-04-6.75898E-16-4.19705E-13
 -1      1157 1.99383E+01-3.00499E-04-1.98470E-04-3.07669E-04-2.88477E-14-6.38927E-13
 -1      1158 1.99678E+01-8.30390E-04-8.28120E-04-3.78155E-04 1.29307E-14-6.45290E-13
 -1      1159 2.00034E+01-1.45254E-03-1.57027E-03-3.70274E-04-3.83313E-15-4.51382E-13
 -1      1160 2.00505E+01-2.19088E-03-2.46242E-03-2.63504E-04 3.39984E-15-4.11993E-13
 -1      1161 2.01155E+01-3.06963E-03-3.54534E-03-2.45199E-05-3.16279E-14-3.96669E-13
 -1      1162 2.02060E+01-4.10926E-03-4.85953E-03 3.95921E-04-1.98041E-14-5.71277E-13
 -1      1163 2.03315E+01-5.31953E-03-6.43831E-03 1.06682E-03 2.17643E-14-4.12301E-13
 -1      1164 2.05030E+01-6.68752E-03-8.29429E-03 2.08106E-03 3.73529E-14-2.66648E-13
 -1      1165 2.07335E+01-8.15709E-03-1.03935E-02 3.55838E-03 5.79842E-15-3.63907E-13
 -1      1166 2.10375E+01-9.59473E-03-1.26074E-02 5.64338E-03-1.05934E-14-3.92693E-13
 -1      1167 2.14301E+01-1.07350E-02-1.46268E-02 8.49002E-03 1.82867E-14-2.56925E-13
 -1      1168 2.19247E+01-1.10991E-02-1.58184E-02 1.22147E-02-5.56361E-14-3.11907E-13
 -1      1169 2.25285E+01-9.88881E-03-1.50078E-02 1.67843E-02-2.10704E-15-6.51774E-13
 -1      1170 2.32344E+01-5.88347E-03-1.02196E-02 2.17859E-02 3.64712E-14-2.54088E-13
 -1      1171 2.40080E+01 2.56291E-03 1.46011E-03 2.60150E-02 1.66891E-14-1.58762E-14
 -1      1172 2.47681E+01 1.71867E-02 2.34343E-02 2.68806E-02 2.30697E-15 7.30561E-14
 -1      1173 2.53641E+01 3.87310E-02 5.76729E-02 1.98873E-02 1.46710E-14 2.28529E-13
 -1      1174 2.55631E+01 6.46796E-02 1.00376E-01-9.60182E-04-4.50768E-14 1.30986E-13
 -1      1175 2.50736E+01 8.60685E-02 1.35955E-01-4.01476E-02 3.35808E-14 3.90243E-14
 -1      1176 2.36495E+01 8.60749E-02 1.35352E-01-9.37413E-02 2.82240E-15 1.55403E-13
 -1      1177 2.12894E+01 4.71295E-02 6.97788E-02-1.41662E-01 7.36911E-15 2.34424E-13
 -1      1178 1.84411E+01-3.05169E-02-5.66926E-02-1.50576E-01-4.05886E-14 2.00756E-13
 -1      1179 1.59786E+01-1.09808E-01-1.83009E-01-9.80584E-02-1.02245E-14-6.26305E-14
 -1      1180 1.47811E+01-1.37582E-01-2.25354E-01-1.57135E-03-4.47975E-14-1.86864E-13
 -1      1181 1.51442E+01-9.29343E-02-1.53472E-01 8.52888E-02-2.17274E-15-2.56878E-14
 -1      1182 1.65674E+01-1.41063E-02-2.52049E-02 1.17181E-01 1.09371E-13 1.79773E-13
 -1      1183 1.81597E+01 4.36929E-02 7.14535E-02 9.30473E-02 2.82478E-14 4.52194E-13
 -1      1184 1.92522E+01 5.52218E-02 9.20917E-02 4.61266E-02-3.86709E-14 5.36952E-13
 -1      1185 1.97111E+01 3.11958E-02 5.47890E-02 1.37594E-02 2.97605E-14 2.85490E-13
 -1      1186 1.98459E+01 1.60551E-03 2.35004E-02 1.54466E-02 4.46474E-16 4.29500E-14
 -1      1187 1.99547E+01 2.04895E-02 4.90672E-02 1.38251E-02 4.31356E-14-2.64563E-14
 -1      1188 2.77935E+01 5.25750E-01 3.76953E-01 1.96666E+00-1.85893E-14 1.42919E-12
 -1      1189 2.00869E+01-6.62502E-02-5.73636E-01 1.29452E-01-3.59782E-15 1.31928E-12
 -1      1190 1.89102E+01-4.06158E-02-1.93235E-01 1.94056E-02-1.46237E-15 1.08870E-12
 -1      1191 1.85309E+01-2.14315E-02-5.05732E-02 1.45240E-03 1.05549E-14 9.10837E-13
 -1      1192 1.84600E+01-1.24224E-02-1.34311E-02-4.08549E-03 5.98978E-15 7.86239E-13
 -1      1193 1.85358E+01-7.41574E-03-4.68810E-03-5.54627E-03 3.89641E-15 7.17589E-13
 -1      1194 1.86800E+01-4.33384E-03-1.95300E-03-5.74195E-03 9.71554E-16 7.70668E-13
 -1      1195 1.88512E+01-2.35711E-03-3.58951E-04-5.46881E-03-1.45938E-14 8.50986E-13
 -1      1196 1.90261E+01-1.07676E-03 7.68242E-04-4.97955E-03 4.13714E-15 7.44679E-13
 -1      1197 1.91916E+01-2.60995E-04 1.49102E-03-4.38886E-03 1.87631E-14 5.99469E-13
 -1      1198 1.93406E+01 2.37207E-04 1.87381E-03-3.76352E-03 4.65800E-15 5.49470E-13
 -1      1199 1.94700E+01 5.16016E-04 2.00399E-03-3.14558E-03-4.86170E-16 6.46125E-13
 -1      1200 1.95792E+01 6.42629E-04 1.96088E-03-2.56022E-03 1.55462E-14 5.77262E-13
 -1      1201 1.96690E+01 6.62912E-04 1.80436E-03-2.02037E-03 5.27515E-15 5.07300E-13
 -1      1202 1.97414E+01 6.07139E-04 1.57493E-03-1.53003E-03-3.64480E-15 4.81980E-13
 -1      1203 1.97989E+01 4.93701E-04 1.29677E-03-1.08680E-03 1.25919E-14 4.08746E-13
 -1      1204 1.98442E+01 3.31622E-04 9.80686E-04-6.84009E-04 3.77289E-15 3.69728E-13
 -1      1205 1.98805E+01 1.22324E-04 6.26493E-04-3.12457E-04 4.82414E-15 3.26401E-13
 -1      1206 1.99110E+01-1.39073E-04 2.24757E-04 3.81188E-05 2.24693E-14-1.89266E-14
 -1      1207 1.99392E+01-4.62659E-04-2.41885E-04 3.77611E-04 9.32792E-15-1.42151E-13
 -1      1208 1.99690E+01-8.62636E-04-7.97553E-04 7.14025E-04 1.89239E-15 1.40862E-13
 -1      1209 2.00051E+01-1.35595E-03-1.47178E-03 1.05164E-03-1.12515E-14 2.76388E-13
 -1      1210 2.00525E+01-1.96022E-03-2.29760E-03 1.38858E-03 9.52412E-15 5.16210E-14
 -1      1211 2.01174E+01-2.69039E-03-3.30822E-03 1.71346E-03-3.97496E-16-2.06385E-13
 -1      1212 2.02072E+01-3.55312E-03-4.53120E-03 2.00055E-03 3.49374E-14-4.02321E-14
 -1      1213 2.03304E+01-4.53741E-03-5.97800E-03 2.20287E-03-1.93008E-14 4.07538E-13
 -1      1214 2.04966E+01-5.59922E-03-7.62552E-03 2.24266E-03-3.95161E-14 5.49740E-13
 -1      1215 2.07167E+01-6.63723E-03-9.38448E-03 1.99871E-03-8.03567E-15 3.44891E-13
 -1      1216 2.10016E+01-7.45622E-03-1.10472E-02 1.29163E-03 1.16486E-14 2.28045E-13
 -1      1217 2.13606E+01-7.71655E-03-1.22063E-02-1.28760E-04-4.22250E-14 2.79624E-13
 -1      1218 2.17991E+01-6.87511E-03-1.21396E-02-2.58179E-03 9.88315E-15 1.57851E-13
 -1      1219 2.23130E+01-4.14220E-03-9.67848E-03-6.41261E-03-1.68171E-14 1.52961E-13
 -1      1220 2.28818E+01 1.48091E-03-3.13258E-03-1.18555E-02-2.39725E-15 4.48877E-13
 -1      1221 2.34576E+01 1.09537E-02 9.53794E-03-1.87265E-02-4.16085E-14 3.55653E-13
 -1      1222 2.39529E+01 2.45395E-02 2.99429E-02-2.58792E-02-4.91144E-15 1.98161E-13
 -1      1223 2.42305E+01 4.06169E-02 5.74247E-02-3.04991E-02-3.34953E-14 8.75107E-14
 -1      1224 2.41083E+01 5.42418E-02 8.61789E-02-2.77709E-02 2.64060E-14-2.07032E-13
 -1      1225 2.33965E+01 5.69904E-02 1.03078E-01-1.21033E-02 3.38583E-14-6.14675E-13
 -1      1226 2.19850E+01 4.04331E-02 9.03909E-02 1.89409E-02-3.87711E-16-7.46597E-13
 -1      1227 1.99669E+01 3.78134E-03 3.70375E-02 5.87318E-02 1.77768E-14-6.59348E-13
 -1      1228 1.77268E+01-3.92771E-02-4.56044E-02 8.95650E-02-1.79956E-14-6.43083E-13
 -1      1229 1.58698E+01-6.60557E-02-1.19658E-01 9.15091E-02-6.95919E-14-1.37911E-13
 -1      1230 1.49484E+01-6.24372E-02-1.44112E-01 5.82523E-02 4.33785E-14-2.00010E-13
 -1      1231 1.51407E+01-3.53321E-02-1.07440E-01 6.40852E-03-8.81656E-14-6.35464E-14
 -1      1232 1.61497E+01-5.91098E-03-3.91305E-02-3.69207E-02 1.92468E-14-7.14304E-13
 -1      1233 1.74236E+01 9.38418E-03 1.64851E-02-5.36392E-02 1.14488E-13-1.47396E-12
 -1      1234 1.85053E+01 8.66227E-03 3.57803E-02-4.64312E-02-7.54691E-15-1.55996E-12
 -1      1235 1.92398E+01 4.23735E-03 2.98484E-02-3.26356E-02 1.02847E-13-1.77554E-12
 -1      1236 1.97168E+01 1.41058E-02 3.39524E-02-2.99551E-02 2.55341E-14-1.47692E-12
 -1      1237 1.99735E+01 1.24484E-02 4.26376E-02-8.42117E-03-4.55857E-14-7.36522E-13
 -1      1238 2.00050E+01-3.28659E-02 3.00026E-02-1.40300E-02-7.38300E-13-3.24146E-14
 -1      1239 1.99851E+01-3.09950E-01-1.45683E-02-4.15212E-02 1.83978E-13 1.71121E-13
 -1      1240 1.99384E+01-5.33951E-01-9.25713E-02-3.38459E-02 1.29331E-12-1.67284E-13
 -1      1241 1.98968E+01-1.43868E-01-1.63917E-01 7.96194E-03-1.39076E-13-5.45267E-14
 -1      1242 1.98810E+01 1.33326E+00-1.93773E-01 7.72308E-02 2.48107E-13 2.30892E-13
 -1      1243 1.99115E+01 4.07333E+00-1.42339E-01 1.55476E-01 3.46834E-13 1.52814E-13
 -1      1244 2.00099E+01 7.75693E+00 1.09536E-02 2.02197E-01 2.22045E-16 6.93254E-14
 -1      1245 2.01441E+01 1.14020E+01 2.20560E-01 1.72623E-01 5.39735E-13 3.98223E-14
 -1      1246 2.02385E+01 1.35688E+01 3.65268E-01 5.68492E-02 1.82819E-13 2.35298E-14
 -1      1247 2.02230E+01 1.32799E+01 3.41524E-01-9.01575E-02 8.42895E-13 1.75627E-13
 -1      1248 2.01090E+01 1.06966E+01 1.67095E-01-1.86009E-01 9.89930E-13-1.54763E-13
 -1      1249 1.99825E+01 7.02780E+00-3.52337E-02-1.91560E-01 3.92186E-14 1.06242E-13
 -1      1250 1.99016E+01 3.60349E+00-1.61003E-01-1.32432E-01-2.34951E-14 1.16183E-13
 -1      1251 1.98862E+01 1.22780E+00-1.84472E-01-5.39727E-02 7.06615E-13 1.02859E-13
 -1      1252 1.99231E+01 6.05948E-02-1.38007E-01-2.69793E-03 5.71699E-13-1.05920E-13
 -1      1253 1.99324E+01-1.54452E-01-5.85313E-02 4.69720E-02 3.09815E-13-5.82980E-14
 -1      1254 2.00106E+01-5.31089E-02 2.86042E-02 2.15133E-02 1.27672E-13 7.28868E-14
 -1      1255-1.40305E+00-2.92877E+01-4.59678E+00-2.56672E+00 1.76792E-12 7.11632E-13
 -1      1256-2.10738E+00-1.83487E+01-3.60830E+00-4.70425E+00 3.76810E-12 1.37984E-12
 -1      1257 2.40044E-01-3.15762E+00-2.04499E+00-3.03246E-01 3.38041E-12 1.86073E-12
 -1      1258 9.73901E+00 8.67307E+00-1.03017E-01 8.99957E+00 2.07256E-12 1.66445E-12
 -1      1259 2.77413E+01 1.27737E+01 1.76981E+00 1.78839E+01 9.15712E-13 1.27720E-12
 -1      1260 4.94224E+01 9.64253E+00 3.32374E+00 2.01619E+01 6.01408E-13 1.62959E-12
 -1      1261 6.63270E+01 4.18087E+00 4.27208E+00 1.30898E+01 3.72979E-13 1.82621E-12
 -1      1262 7.20475E+01 1.76189E+00 4.57502E+00-4.43816E-01 1.73854E-13 6.39655E-13
 -1      1263 6.20851E+01 4.82673E+00 3.93635E+00-1.31996E+01 2.46025E-13-6.98108E-13
 -1      1264 4.26205E+01 9.50748E+00 2.66896E+00-1.86469E+01 5.65548E-13-1.21636E-12
 -1      1265 2.18499E+01 1.10631E+01 9.72369E-01-1.49899E+01 1.34004E-12-1.54943E-12
 -1      1266 6.71323E+00 5.77866E+00-7.39276E-01-6.41940E+00 1.58851E-12-1.48592E-12
 -1      1267-7.09002E-01-5.97059E+00-2.20079E+00 1.68411E+00 1.78368E-12-9.74332E-13
 -1      1268-1.94827E+00-1.94441E+01-3.39853E+00 4.78957E+00 1.44385E-12-6.48259E-13
 -1      1269-1.18545E+00-2.73294E+01-3.95714E+00 1.69735E+00 3.74256E-13-1.40346E-13
 -1      1270-1.54220E+00-2.60989E+01-3.89467E+00-3.02941E+00-8.49987E-13-2.42542E-13
 -1      1271-2.18458E+00-1.69104E+01-3.24620E+00-4.92269E+00-1.22258E-12-4.12392E-13
 -1      1272-2.08588E-01-3.68941E+00-2.01818E+00-9.03540E-01-1.40399E-12-1.08913E-12
 -1      1273 8.46844E+00 6.80949E+00-5.20565E-01 7.60904E+00-1.78857E-12-1.45528E-12
 -1      1274 2.55076E+01 1.08199E+01 1.23204E+00 1.59556E+01-9.70779E-13-1.38245E-12
 -1      1275 4.69396E+01 8.37572E+00 2.87365E+00 1.82178E+01-7.30971E-13-1.87605E-12
 -1      1276 6.52313E+01 3.62600E+00 4.13122E+00 1.16092E+01-2.43125E-13-1.33116E-12
 -1      1277 7.22821E+01 1.96082E+00 4.64952E+00-1.74397E+00-1.95025E-13 1.13021E-13
 -1      1278 6.53188E+01 4.92806E+00 4.35512E+00-1.45926E+01-5.06650E-13 1.40021E-12
 -1      1279 4.75953E+01 1.02873E+01 3.24615E+00-2.05178E+01-7.95253E-13 1.94356E-12
 -1      1280 2.64839E+01 1.29183E+01 1.65422E+00-1.77432E+01-1.94933E-12 2.48601E-12
 -1      1281 9.20206E+00 8.38347E+00-2.18246E-01-8.66421E+00-3.08975E-12 2.74447E-12
 -1      1282 5.82984E-02-3.48690E+00-2.07224E+00 5.69104E-01-2.83240E-12 1.87739E-12
 -1      1283-2.11112E+00-1.83092E+01-3.63260E+00 4.87516E+00-1.73483E-12 5.87863E-13
 -1      1284-1.45492E+00-2.89066E+01-4.53373E+00 2.65861E+00-5.60552E-13 3.07109E-13
 -1      1285 2.22679E+01 1.83826E+00-7.25860E-01-2.79051E+00-2.87825E-14 4.75509E-13
 -1      1286 2.03603E+01 4.69032E+00-4.86424E-02-3.30672E+00-7.08045E-14-1.64452E-14
 -1      1287 2.08679E+01 4.81082E+00-1.13330E-01-4.16100E+00-9.56457E-14 9.80258E-14
 -1      1288 1.95325E+01 4.99349E+00-1.96008E-02-2.65434E+00-7.08392E-14-1.74985E-13
 -1      1289 1.98306E+01 5.09041E+00 2.77180E-04-3.04538E+00-8.03385E-14-1.08823E-13
 -1      1290 2.05268E+01 3.95292E+00-2.58848E-02-3.07471E+00-1.26437E-13-7.34135E-15
 -1      1291 1.91842E+01 5.08416E+00-3.67697E-03-2.06995E+00-4.89539E-14-2.45040E-13
 -1      1292 1.93339E+01 5.13947E+00 1.05957E-02-2.36314E+00-5.95496E-14-2.11636E-13
 -1      1293 1.97549E+01 4.36608E+00-2.42616E-02-2.48933E+00-1.10073E-13-1.35829E-13
 -1      1294 1.90085E+01 5.13090E+00 3.25909E-03-1.56455E+00-3.20993E-14-2.81821E-13
 -1      1295 1.90862E+01 5.16085E+00 1.25506E-02-1.81443E+00-3.73451E-14-2.69208E-13
 -1      1296 1.93925E+01 4.55572E+00-1.95736E-02-1.93087E+00-6.99614E-14-2.04434E-13
 -1      1297 1.89151E+01 5.16054E+00 6.60140E-03-1.11687E+00-1.19002E-14-2.86828E-13
 -1      1298 1.89575E+01 5.17685E+00 1.27174E-02-1.33834E+00-2.12781E-14-2.81587E-13
 -1      1299 1.92053E+01 4.66141E+00-1.60729E-02-1.44477E+00-4.57490E-14-2.29646E-13
 -1      1300 1.88635E+01 5.18034E+00 8.19706E-03-6.93639E-01-1.80411E-16-2.74914E-13
 -1      1301 1.88866E+01 5.18922E+00 1.20345E-02-9.03817E-01-5.20937E-15-2.84580E-13
 -1      1302 1.91024E+01 4.72674E+00-1.39453E-02-1.00405E+00-1.29189E-14-2.38962E-13
 -1      1303 1.88394E+01 5.19226E+00 9.28168E-03-2.89066E-01 2.42116E-14-2.62214E-13
 -1      1304 1.88494E+01 5.19610E+00 1.10661E-02-4.91125E-01 1.52131E-14-2.67498E-13
 -1      1305 1.90464E+01 4.76573E+00-1.29104E-02-5.88624E-01 1.36207E-14-2.14509E-13
 -1      1306 1.88357E+01 5.19720E+00 1.02118E-02 1.08205E-01 3.68366E-14-2.44865E-13
 -1      1307 1.88353E+01 5.19707E+00 1.01413E-02-9.13982E-02 3.30833E-14-2.56288E-13
 -1      1308 1.90222E+01 4.78374E+00-1.24761E-02-1.89031E-01 4.69428E-14-2.08181E-13
 -1      1309 1.88510E+01 5.19574E+00 1.11511E-02 5.08509E-01 5.40171E-14-2.29304E-13
 -1      1310 1.88404E+01 5.19162E+00 9.21559E-03 3.06038E-01 4.82090E-14-2.40707E-13
 -1      1311 1.90230E+01 4.78311E+00-1.24959E-02 2.05742E-01 6.99559E-14-1.94858E-13
 -1      1312 1.88898E+01 5.18808E+00 1.20879E-02 9.22661E-01 6.19652E-14-1.91002E-13
 -1      1313 1.88659E+01 5.17903E+00 8.12339E-03 7.11539E-01 5.75011E-14-2.14244E-13
 -1      1314 1.90490E+01 4.76368E+00-1.29820E-02 6.06023E-01 9.03405E-14-1.74888E-13
 -1      1315 1.89619E+01 5.17513E+00 1.28975E-02 1.35580E+00 7.78882E-14-1.35869E-13
 -1      1316 1.89185E+01 5.15836E+00 6.43839E-03 1.13294E+00 7.28588E-14-1.66615E-13
 -1      1317 1.91066E+01 4.72326E+00-1.40038E-02 1.01924E+00 1.10198E-13-1.35940E-13
 -1      1318 1.90949E+01 5.15673E+00 1.28287E-02 1.84042E+00 1.03927E-13-7.20431E-14
 -1      1319 1.90152E+01 5.12633E+00 3.13503E-03 1.58763E+00 9.50993E-14-1.08495E-13
 -1      1320 1.92123E+01 4.65490E+00-1.61486E-02 1.46230E+00 1.43082E-13-7.82846E-14
 -1      1321 1.93439E+01 5.13353E+00 1.01778E-02 2.39752E+00 1.18596E-13 3.28591E-14
 -1      1322 1.91936E+01 5.07637E+00-4.38310E-03 2.10023E+00 1.07907E-13-3.18981E-14
 -1      1323 1.94053E+01 4.54248E+00-1.99845E-02 1.95796E+00 1.70614E-13-9.87058E-15
 -1      1324 1.98559E+01 5.09952E+00 6.06473E-03 3.08367E+00 1.16254E-13 2.21503E-13
 -1      1325 1.95437E+01 4.98448E+00-2.05449E-02 2.69626E+00 1.11341E-13 1.08913E-13
 -1      1326 1.97750E+01 4.34648E+00-2.45580E-02 2.52782E+00 1.83343E-13 1.09711E-13
 -1      1327 2.11040E+01 4.90707E+00 8.32828E-03 4.05382E+00 8.73746E-14 5.32213E-13
 -1      1328 2.03349E+01 4.73392E+00-4.79643E-02 3.41610E+00 9.02056E-14 3.45515E-13
 -1      1329 2.05651E+01 3.91598E+00-2.24050E-02 3.17821E+00 1.61579E-13 3.04839E-13
 -1      1330 2.72036E+01 3.20543E+00 9.29024E-01 4.58224E+00 2.36061E-14 1.04161E-12
 -1      1331 2.20208E+01 3.52224E+00-1.81996E-01 3.88491E+00 3.15303E-14 6.98303E-13
 -1      1332 2.21131E+01 2.56180E+00-3.25398E-02 3.45645E+00 1.25221E-13 5.83589E-13
 -1      1333 2.14278E+01 3.59571E-01-7.63535E-01 1.18377E+00 5.43801E-14 1.04494E-12
 -1      1334 2.20022E+01 1.31364E-01-4.00863E-01-1.28562E+00-6.91530E-14 5.03764E-13
 -1      1335 2.06796E+01 3.06727E-01-1.64797E-01-8.05677E-01-6.49480E-14 4.24522E-13
 -1      1336 2.00820E+01 1.53510E-01-7.35266E-02-4.01970E-01-5.62606E-14 3.82785E-13
 -1      1337 1.96123E+01 9.11944E-02-1.49143E-02-3.29804E-01-5.88869E-14 2.99472E-13
 -1      1338 2.09734E+01 3.69270E-01-1.04212E-01-1.27372E+00-1.25351E-13 2.20466E-13
 -1      1339 1.92551E+01 6.44612E-02 3.05194E-03-1.35223E-01-4.47298E-14 2.66207E-13
 -1      1340 1.91009E+01 4.12071E-02 1.32232E-02-1.17467E-01-3.86895E-14 2.04704E-13
 -1      1341 1.99228E+01 1.33758E-01-3.51717E-02-5.03693E-01-1.04684E-13 1.71314E-13
 -1      1342 1.89406E+01 3.15373E-02 1.32333E-02-2.80267E-02-2.83818E-14 1.70801E-13
 -1      1343 1.89212E+01 1.94309E-02 1.10393E-02-1.86126E-02-3.23960E-14 1.20216E-13
 -1      1344 1.94459E+01 5.55864E-02-8.44434E-03-1.69929E-01-7.74502E-14 1.18572E-13
 -1      1345 1.88651E+01 1.60363E-02 8.75366E-03 2.51056E-02-3.14570E-15 1.29775E-13
 -1      1346 1.89076E+01 9.07655E-03 6.41608E-03 2.97430E-02 2.95857E-15 1.27044E-13
 -1      1347 1.92369E+01 2.44348E-02-3.53489E-03-1.10591E-02-3.40648E-14 8.24202E-14
 -1      1348 1.89077E+01 7.84814E-03 4.66439E-03 5.09007E-02-7.79932E-15 1.20515E-13
 -1      1349 1.89781E+01 3.48752E-03 3.64412E-03 5.27830E-02-1.60853E-14 1.06661E-13
 -1      1350 1.91802E+01 1.02070E-02-2.21969E-03 6.77011E-02-8.78464E-15 7.40319E-14
 -1      1351 1.90076E+01 3.17322E-03 2.44458E-03 6.15450E-02-1.19198E-14 1.02441E-13
 -1      1352 1.90882E+01 3.13204E-04 2.21266E-03 6.18042E-02-1.65127E-14 7.47978E-14
 -1      1353 1.92064E+01 2.75009E-03-1.31620E-03 1.04474E-01-3.34772E-14 8.09654E-14
 -1      1354 1.91317E+01 4.26526E-04 1.33268E-03 6.34498E-02 1.92522E-15 5.08361E-14
 -1      1355 1.92125E+01-1.48489E-03 1.43865E-03 6.27581E-02-9.09578E-15 3.42205E-14
 -1      1356 1.92754E+01-1.33049E-03-5.51107E-04 1.17659E-01-4.15826E-14 3.35543E-14
 -1      1357 1.92610E+01-1.16358E-03 7.46575E-04 6.03238E-02-2.15986E-14 4.23186E-14
 -1      1358 1.93365E+01-2.43469E-03 9.69313E-04 5.91104E-02-5.81342E-14-3.27516E-15
 -1      1359 1.93634E+01-3.53971E-03 8.32644E-06 1.17222E-01-3.61625E-14 1.78518E-14
 -1      1360 1.93844E+01-2.01887E-03 4.10211E-04 5.44755E-02-7.17655E-14-2.24638E-14
 -1      1361 1.94518E+01-2.84160E-03 6.58144E-04 5.30236E-02-2.75532E-14-6.31765E-14
 -1      1362 1.94564E+01-4.60966E-03 3.62077E-04 1.09097E-01-6.83357E-14 3.68408E-14
 -1      1363 1.94963E+01-2.39673E-03 2.06959E-04 4.73917E-02 9.81008E-15-1.09375E-13
 -1      1364 1.95543E+01-2.90020E-03 4.43627E-04 4.58868E-02-1.80446E-14-1.11183E-13
 -1      1365 1.95458E+01-4.95990E-03 5.53837E-04 9.70233E-02-5.22559E-14-3.24327E-14
 -1      1366 1.95937E+01-2.46424E-03 8.41452E-05 4.00341E-02-4.30799E-14-1.18446E-13
 -1      1367 1.96424E+01-2.73897E-03 2.95461E-04 3.85949E-02-3.95815E-14-1.81001E-13
 -1      1368 1.96272E+01-4.85553E-03 6.31029E-04 8.34073E-02-3.73843E-14-1.34695E-13
 -1      1369 1.96763E+01-2.33249E-03 1.39838E-05 3.30169E-02 3.46017E-14-1.73355E-13
 -1      1370 1.97161E+01-2.44289E-03 1.95728E-04 3.17169E-02 1.09620E-14-1.39626E-13
 -1      1371 1.96985E+01-4.47052E-03 6.31192E-04 6.98000E-02-1.14368E-14-1.24814E-13
 -1      1372 1.97446E+01-2.07469E-03-2.03550E-05 2.67244E-02-3.27285E-14-1.59467E-13
 -1      1373 1.97766E+01-2.06612E-03 1.32578E-04 2.56076E-02-3.06469E-14-1.53758E-13
 -1      1374 1.97592E+01-3.91836E-03 5.80854E-04 5.71873E-02-1.43718E-14-1.21613E-13
 -1      1375 1.98002E+01-1.73670E-03-2.98858E-05 2.13944E-02-2.77303E-14-1.65051E-13
 -1      1376 1.98257E+01-1.64010E-03 9.78127E-05 2.04871E-02-5.45505E-14-2.00582E-13
 -1      1377 1.98099E+01-3.26936E-03 4.97519E-04 4.61881E-02-6.86599E-14-1.58393E-13
 -1      1378 1.98452E+01-1.34382E-03-2.20783E-05 1.71802E-02-6.48400E-14-2.08920E-13
 -1      1379 1.98656E+01-1.17893E-03 8.57256E-05 1.65002E-02-7.30352E-14-2.90072E-13
 -1      1380 1.98521E+01-2.56140E-03 3.91747E-04 3.71974E-02-7.72084E-14-1.66434E-13
 -1      1381 1.98821E+01-9.05367E-04-2.10353E-06 1.41977E-02-3.81845E-14-2.95661E-13
 -1      1382 1.98989E+01-6.83262E-04 9.24094E-05 1.37616E-02-1.01537E-14-3.03079E-13
 -1      1383 1.98874E+01-1.80723E-03 2.68763E-04 3.04927E-02-5.83814E-14-1.47213E-13
 -1      1384 1.99137E+01-4.17945E-04 2.63449E-05 1.25631E-02-7.52506E-15-3.30088E-13
 -1      1385 1.99285E+01-1.43082E-04 1.15268E-04 1.23919E-02-4.34666E-14-3.71936E-13
 -1      1386 1.99181E+01-9.99587E-04 1.29654E-04 2.63167E-02-1.41999E-14-2.41550E-13
 -1      1387 1.99429E+01 1.32212E-04 6.04236E-05 1.24221E-02-7.01552E-14-3.69821E-13
 -1      1388 1.99577E+01 4.60193E-04 1.52607E-04 1.25460E-02-1.07872E-13-5.01294E-13
 -1      1389 1.99468E+01-1.14893E-04-2.77594E-05 2.49426E-02-1.00811E-13-3.13516E-13
 -1      1390 1.99733E+01 7.67502E-04 9.75919E-05 1.39744E-02 2.33416E-14-5.15781E-13
 -1      1391 1.99901E+01 1.15201E-03 2.03229E-04 1.44370E-02 4.93101E-14-4.37257E-13
 -1      1392 1.99764E+01 8.84122E-04-2.08241E-04 2.67260E-02-6.91642E-14-2.52803E-13
 -1      1393 2.00089E+01 1.51746E-03 1.35059E-04 1.74933E-02 2.89183E-14-3.58923E-13
 -1      1394 2.00301E+01 1.96300E-03 2.65953E-04 1.83546E-02 1.89170E-14-3.02449E-13
 -1      1395 2.00102E+01 2.04628E-03-4.18557E-04 3.21477E-02 7.68904E-14-3.41090E-13
 -1      1396 2.00541E+01 2.41721E-03 1.69146E-04 2.33407E-02-5.68534E-15-3.04046E-13
 -1      1397 2.00827E+01 2.92698E-03 3.38962E-04 2.46801E-02-1.63178E-14-3.24586E-13
 -1      1398 2.00522E+01 3.42981E-03-6.66898E-04 4.18462E-02 8.14778E-16-1.96256E-13
 -1      1399 2.01145E+01 3.50523E-03 1.94472E-04 3.19766E-02 7.93463E-15-3.01042E-13
 -1      1400 2.01539E+01 4.07780E-03 4.18854E-04 3.38940E-02-1.26179E-14-3.64919E-13
 -1      1401 2.01070E+01 5.09949E-03-9.62209E-04 5.66399E-02 3.88031E-15-2.48077E-13
 -1      1402 2.01966E+01 4.81971E-03 2.02887E-04 4.39590E-02-2.12865E-14-3.26310E-13
 -1      1403 2.02511E+01 5.44401E-03 4.99234E-04 4.65744E-02-6.07804E-15-3.46009E-13
 -1      1404 2.01800E+01 7.12152E-03-1.31323E-03 7.75331E-02 2.71019E-14-2.14737E-13
 -1      1405 2.03081E+01 6.39175E-03 1.82074E-04 5.99278E-02 2.44867E-14-3.43977E-13
 -1      1406 2.03827E+01 7.03925E-03 5.68683E-04 6.33774E-02 4.54768E-14-2.34563E-13
 -1      1407 2.02778E+01 9.55401E-03-1.72698E-03 1.05696E-01 3.01838E-14-1.63005E-13
 -1      1408 2.04582E+01 8.23284E-03 1.13850E-04 8.05591E-02 3.10787E-14-2.86372E-13
 -1      1409 2.05586E+01 8.84497E-03 6.08018E-04 8.49842E-02 4.45363E-14-2.93186E-13
 -1      1410 2.04076E+01 1.24285E-02-2.20624E-03 1.42395E-01 9.61058E-15-2.03618E-13
 -1      1411 2.06571E+01 1.03119E-02-2.74395E-05 1.06467E-01-3.00237E-14-3.05310E-13
 -1      1412 2.07900E+01 1.07800E-02 5.87163E-04 1.11990E-01-7.55533E-14-3.55499E-13
 -1      1413 2.05779E+01 1.57155E-02-2.74519E-03 1.88843E-01-3.55729E-14-3.38502E-13
 -1      1414 2.09163E+01 1.25144E-02-2.75238E-04 1.38009E-01 2.61705E-14-3.45071E-13
 -1      1415 2.10887E+01 1.26481E-02 4.63083E-04 1.44689E-01 2.21836E-14-3.30849E-13
 -1      1416 2.07977E+01 1.92609E-02-3.32186E-03 2.45895E-01-1.09186E-14-3.54334E-13
 -1      1417 2.12472E+01 1.45719E-02-6.66636E-04 1.74937E-01-9.33433E-15-2.61525E-13
 -1      1418 2.14657E+01 1.40526E-02 1.82729E-04 1.82678E-01 6.76325E-16-2.29664E-13
 -1      1419 2.10760E+01 2.26749E-02-3.88500E-03 3.13487E-01 7.32183E-15-1.99344E-13
 -1      1420 2.16597E+01 1.59476E-02-1.22701E-03 2.15777E-01-5.01712E-14-2.24298E-13
 -1      1421 2.19287E+01 1.42655E-02-3.00444E-04 2.24179E-01-1.00390E-13-2.55050E-13
 -1      1422 2.14206E+01 2.51464E-02-4.33150E-03 3.89662E-01-2.27754E-14-2.11545E-13
 -1      1423 2.21586E+01 1.56656E-02-1.93127E-03 2.56827E-01-5.94338E-14-2.29624E-13
 -1      1424 2.24772E+01 1.20540E-02-9.81952E-04 2.64924E-01 3.85282E-14-1.95861E-13
 -1      1425 2.18354E+01 2.51608E-02-4.46923E-03 4.68949E-01-1.24853E-13-6.17889E-14
 -1      1426 2.27382E+01 1.20979E-02-2.62598E-03 2.90644E-01 1.22563E-13-2.54814E-13
 -1      1427 2.30953E+01 5.51499E-03-1.71843E-03 2.96519E-01 4.46928E-14-1.17066E-13
 -1      1428 2.23168E+01 2.01347E-02-3.96165E-03 5.39887E-01 6.91899E-14-2.12196E-14
 -1      1429 2.33734E+01 2.80532E-03-2.90786E-03 3.04103E-01 2.50015E-14-3.47482E-14
 -1      1430 2.37397E+01-7.90395E-03-2.10385E-03 3.04390E-01 3.37320E-14-6.07847E-15
 -1      1431 2.28476E+01 6.11426E-03-2.26306E-03 5.81702E-01 8.37886E-14-7.60477E-14
 -1      1432 2.40073E+01-1.52710E-02-2.01070E-03 2.76693E-01 5.37504E-14 3.00107E-15
 -1      1433 2.43265E+01-3.07633E-02-1.38310E-03 2.66191E-01 9.19959E-14 1.06692E-13
 -1      1434 2.33892E+01-2.19896E-02 1.40629E-03 5.60932E-01 6.36175E-14-9.26819E-14
 -1      1435 2.45377E+01-4.46052E-02 1.13236E-03 1.81065E-01-3.59964E-14 1.00094E-13
 -1      1436 2.47184E+01-6.36259E-02 1.36795E-03 1.53126E-01-1.35005E-14 8.58541E-14
 -1      1437 2.38723E+01-6.85812E-02 7.91170E-03 4.30757E-01 5.53411E-14-1.25074E-15
 -1      1438 2.48079E+01-8.39747E-02 7.27326E-03-1.00434E-02 6.19782E-14 9.63596E-14
 -1      1439 2.47283E+01-1.01052E-01 6.45899E-03-6.10798E-02-2.54519E-14 9.16966E-14
 -1      1440 2.41905E+01-1.32474E-01 1.76130E-02 1.39117E-01-1.28716E-15-1.25013E-14
 -1      1441 2.46188E+01-1.23027E-01 1.53777E-02-3.05009E-01-3.38323E-14 5.50289E-14
 -1      1442 2.41572E+01-1.26589E-01 1.20901E-02-3.77739E-01 3.20056E-15-1.67782E-14
 -1      1443 2.42040E+01-1.98174E-01 2.90508E-02-3.45157E-01 2.02616E-15 7.90611E-14
 -1      1444 2.37850E+01-1.37812E-01 2.09242E-02-6.61685E-01-1.98383E-14 1.74256E-13
 -1      1445 2.28890E+01-1.12811E-01 1.33971E-02-7.38831E-01 1.98175E-14 1.29619E-13
 -1      1446 2.37689E+01-2.28469E-01 3.70502E-02-9.82359E-01 1.91080E-14 3.63251E-15
 -1      1447 2.22517E+01-9.71170E-02 1.68717E-02-9.61124E-01 6.59915E-14 7.72993E-14
 -1      1448 2.10286E+01-3.68177E-02 4.50638E-03-1.00602E+00-4.57421E-14 7.67025E-14
 -1      1449 2.28072E+01-1.73319E-01 3.25176E-02-1.60623E+00 4.09638E-14 2.13371E-15
 -1      1450 2.02387E+01 9.96065E-03-5.71280E-04-1.03193E+00-4.55751E-14 3.56382E-14
 -1      1451 1.89947E+01 8.74148E-02-1.47161E-02-1.00510E+00-1.09720E-13-9.48130E-14
 -1      1452 2.14126E+01-9.92724E-03 7.81063E-03-1.92712E+00-5.16030E-14-1.31440E-13
 -1      1453 1.82856E+01 1.39979E-01-2.34039E-02-7.62099E-01-1.31927E-13-1.71765E-13
 -1      1454 1.74240E+01 1.92510E-01-3.28848E-02-6.59056E-01-7.80660E-14-2.55643E-13
 -1      1455 1.99248E+01 2.04926E-01-3.13072E-02-1.67574E+00-1.60030E-13-2.07542E-13
 -1      1456 1.70405E+01 2.09751E-01-3.50874E-02-2.32087E-01 1.79717E-14-1.77140E-13
 -1      1457 1.68318E+01 2.03104E-01-3.46425E-02-1.02693E-01-3.02119E-14-2.55193E-13
 -1      1458 1.88357E+01 3.48056E-01-5.99974E-02-8.53868E-01-6.09235E-14-2.87819E-13
 -1      1459 1.68618E+01 1.68446E-01-2.59290E-02 2.92750E-01-2.33598E-14-1.26617E-13
 -1      1460 1.72600E+01 1.10620E-01-1.67120E-02 3.77010E-01 1.23587E-13-2.88589E-14
 -1      1461 1.84954E+01 3.22921E-01-5.48999E-02 1.62514E-01 8.35582E-14-1.80083E-13
 -1      1462 1.75658E+01 5.45079E-02-4.83469E-03 5.56498E-01 1.75712E-13-2.16577E-13
 -1      1463 1.82534E+01-1.16671E-02 6.87905E-03 5.63592E-01 1.29230E-13 6.61277E-15
 -1      1464 1.88487E+01 1.52780E-01-2.09121E-02 8.61338E-01 1.56080E-13-9.02819E-14
 -1      1465 1.85962E+01-4.75845E-02 1.13360E-02 5.06397E-01 1.65545E-14 5.93553E-14
 -1      1466 1.92162E+01-8.47392E-02 1.95366E-02 4.59390E-01 3.98188E-14 1.61690E-13
 -1      1467 1.94979E+01-3.94343E-02 1.30913E-02 9.90445E-01 1.85075E-13-1.45998E-13
 -1      1468 1.94258E+01-8.38366E-02 1.38885E-02 2.84433E-01-9.07434E-15 1.36648E-13
 -1      1469 1.97911E+01-8.35023E-02 1.76043E-02 2.30024E-01-7.01123E-14 6.17353E-14
 -1      1470 2.00235E+01-1.40352E-01 2.63814E-02 6.86519E-01 7.94503E-16-1.67200E-13
 -1      1471 1.98348E+01-5.58782E-02 6.34731E-03 8.22715E-02 3.70858E-14 1.31123E-13
 -1      1472 1.99761E+01-3.34751E-02 9.84148E-03 5.61118E-02 9.08778E-14 1.43270E-13
 -1      1473 2.02321E+01-1.21140E-01 1.99168E-02 2.82933E-01-4.71715E-14-1.85933E-13
 -1      1474 1.99234E+01-3.67349E-03 2.29929E-04 1.46565E-02-3.64262E-14 5.60177E-14
 -1      1475 1.99916E+01 7.20526E-03 1.12603E-02 1.70435E-02-1.34773E-13-7.48880E-15
 -1      1476 2.01806E+01-2.48630E-02 1.18223E-02 4.98415E-02-3.45036E-15-7.94143E-14
 -1      1477 1.99528E+01-1.71515E-02 1.32397E-02 3.34247E-02-1.08432E-13 1.81147E-13
 -1      1478 2.00425E+01-1.06002E-03 6.51273E-03 3.45053E-02-4.73614E-14 1.03841E-14
 -1      1479 2.02607E+01 7.54740E-02-1.52089E-01 4.83794E-01 5.99069E-14 9.11562E-13
 -1      1480 2.15309E+01 2.16136E-01-2.29286E-01 7.20782E-01 4.99739E-14 9.92623E-13
 -1      1481 2.17294E+01 8.81747E-01-8.54754E-02 2.06472E+00 8.83321E-14 7.00801E-13
 -1      1482 1.93325E+01 3.23803E-02-2.13304E-02 1.85958E-01 7.24074E-14 7.48294E-13
 -1      1483 1.97531E+01 1.13620E-01-6.26977E-02 2.37969E-01 5.98133E-14 8.45437E-13
 -1      1484 2.03043E+01 1.87671E-01-5.51928E-02 7.86070E-01 1.04992E-13 5.95722E-13
 -1      1485 1.89509E+01 1.51048E-02 5.66610E-03 5.34598E-02 3.98345E-14 6.30419E-13
 -1      1486 1.90894E+01 5.16275E-02 9.78399E-04 7.97746E-02 4.30853E-14 7.00610E-13
 -1      1487 1.95593E+01 7.18343E-02-1.21587E-02 2.98887E-01 1.07648E-13 5.00199E-13
 -1      1488 1.88405E+01 7.12319E-03 6.97369E-03-9.03740E-03 2.56613E-14 5.59297E-13
 -1      1489 1.88551E+01 2.58638E-02 1.10875E-02 5.36666E-03 2.92617E-14 5.87370E-13
 -1      1490 1.92241E+01 3.10343E-02-2.46793E-03 8.33986E-02 6.25385E-14 4.07577E-13
 -1      1491 1.88667E+01 3.20918E-03 4.78028E-03-3.92948E-02 2.81112E-15 5.30190E-13
 -1      1492 1.88228E+01 1.38129E-02 8.51809E-03-3.11702E-02 5.91432E-15 5.25233E-13
 -1      1493 1.91076E+01 1.32661E-02-1.62372E-03-2.15849E-02 2.59931E-14 3.68478E-13
 -1      1494 1.89609E+01 1.04796E-03 3.29448E-03-5.27136E-02-9.10090E-15 5.42123E-13
 -1      1495 1.88904E+01 7.27878E-03 5.36603E-03-4.82396E-02-2.18277E-14 5.02778E-13
 -1      1496 1.91088E+01 4.53534E-03-1.63676E-03-7.30650E-02-9.46162E-15 3.10924E-13
 -1      1497 1.90852E+01-2.01906E-04 2.51286E-03-5.66342E-02 1.80619E-14 5.59355E-13
 -1      1498 1.90050E+01 3.44008E-03 3.43038E-03-5.44216E-02-4.14897E-16 5.58478E-13
 -1      1499 1.91715E+01-1.27317E-04-1.38010E-03-9.56613E-02-1.98817E-14 3.23270E-13
 -1      1500 1.92178E+01-9.10795E-04 2.04809E-03-5.50952E-02 2.86430E-14 4.95447E-13
 -1      1501 1.91376E+01 1.10500E-03 2.32778E-03-5.43045E-02 3.51323E-14 5.58610E-13
 -1      1502 1.92633E+01-2.64868E-03-1.00369E-03-1.01782E-01 4.89844E-14 3.53324E-13
 -1      1503 1.93461E+01-1.27433E-03 1.70438E-03-5.05282E-02 3.13188E-14 4.36754E-13
 -1      1504 1.92713E+01-3.05559E-04 1.64931E-03-5.06180E-02 1.86661E-14 4.75096E-13
 -1      1505 1.93652E+01-3.92187E-03-6.60380E-04-9.84291E-02 4.35108E-14 3.20088E-13
 -1      1506 1.94633E+01-1.41263E-03 1.41481E-03-4.44730E-02-1.82282E-14 4.93669E-13
 -1      1507 1.93967E+01-1.11509E-03 1.18940E-03-4.50822E-02-8.26704E-17 4.39669E-13
 -1      1508 1.94660E+01-4.42471E-03-3.95490E-04-8.98693E-02 7.34222E-16 3.55285E-13
 -1      1509 1.95661E+01-1.40488E-03 1.16131E-03-3.79203E-02 6.37964E-14 4.60805E-13
 -1      1510 1.95088E+01-1.52507E-03 8.58435E-04-3.88045E-02 2.06439E-14 4.72847E-13
 -1      1511 1.95593E+01-4.44645E-03-2.06029E-04-7.88144E-02 6.09370E-15 3.67371E-13
 -1      1512 1.96535E+01-1.30450E-03 9.39270E-04-3.15037E-02 1.11087E-14 4.10821E-13
 -1      1513 1.96055E+01-1.66825E-03 6.14780E-04-3.24976E-02 2.14030E-14 4.29023E-13
 -1      1514 1.96419E+01-4.17266E-03-7.71629E-05-6.70110E-02 5.45366E-14 3.01596E-13
 -1      1515 1.97261E+01-1.14693E-03 7.46555E-04-2.56205E-02 1.75655E-14 4.03459E-13
 -1      1516 1.96867E+01-1.63397E-03 4.35282E-04-2.66126E-02 2.00976E-14 3.92485E-13
 -1      1517 1.97129E+01-3.72509E-03 5.16155E-06-5.55777E-02 4.76611E-14 2.87380E-13
 -1      1518 1.97851E+01-9.54308E-04 5.80709E-04-2.05144E-02 1.68528E-14 3.59950E-13
 -1      1519 1.97535E+01-1.48147E-03 3.04842E-04-2.14292E-02 1.42780E-14 3.66674E-13
 -1      1520 1.97723E+01-3.18205E-03 5.16112E-05-4.52204E-02 2.67711E-14 2.93820E-13
 -1      1521 1.98328E+01-7.38657E-04 4.38452E-04-1.63355E-02 6.76447E-15 3.23297E-13
 -1      1522 1.98077E+01-1.24778E-03 2.12682E-04-1.71203E-02 3.91569E-14 3.87676E-13
 -1      1523 1.98215E+01-2.59034E-03 6.94435E-05-3.63811E-02 3.32520E-14 2.83154E-13
 -1      1524 1.98715E+01-5.04157E-04 3.15738E-04-1.31859E-02 2.73030E-14 2.63603E-13
 -1      1525 1.98515E+01-9.52963E-04 1.50818E-04-1.38001E-02 1.58863E-14 2.65087E-13
 -1      1526 1.98621E+01-1.97324E-03 6.29100E-05-2.93463E-02 4.26271E-14 2.04229E-13
 -1      1527 1.99040E+01-2.48826E-04 2.07901E-04-1.11545E-02 1.07563E-13 1.00150E-13
 -1      1528 1.98875E+01-6.03657E-04 1.13273E-04-1.15610E-02 6.42415E-14 1.98746E-13
 -1      1529 1.98963E+01-1.33616E-03 3.35801E-05-2.43292E-02 1.05191E-13 7.56077E-14
 -1      1530 1.99332E+01 3.42046E-05 1.09772E-04-1.03442E-02 1.66247E-14-1.27917E-13
 -1      1531 1.99186E+01-1.95692E-04 9.55775E-05-1.05024E-02 9.08372E-14 5.09003E-14
 -1      1532 1.99265E+01-6.70820E-04-1.94515E-05-2.15325E-02 1.63308E-13 2.26007E-14
 -1      1533 1.99626E+01 3.55610E-04 1.57702E-05-1.08930E-02-2.57219E-14-1.40556E-14
 -1      1534 1.99480E+01 2.83959E-04 9.43929E-05-1.07529E-02-5.52287E-14-7.26629E-14
 -1      1535 1.99557E+01 4.16130E-05-9.94293E-05-2.11971E-02-4.69357E-14 9.08767E-15
 -1      1536 1.99959E+01 7.28794E-04-8.00273E-05-1.29906E-02-5.25949E-14 1.03389E-13
 -1      1537 1.99793E+01 8.55470E-04 1.07186E-04-1.24871E-02-7.70015E-14 2.61733E-14
 -1      1538 1.99868E+01 8.27828E-04-2.11827E-04-2.36396E-02-1.17566E-13 3.19602E-14
 -1      1539 2.00376E+01 1.16858E-03-1.83817E-04-1.68885E-02 3.03431E-14 1.49739E-13
 -1      1540 2.00166E+01 1.54432E-03 1.31886E-04-1.59374E-02-7.24374E-15 1.34196E-13
 -1      1541 2.00238E+01 1.71967E-03-3.64204E-04-2.92790E-02-6.69229E-14 2.17714E-14
 -1      1542 2.00929E+01 1.68935E-03-3.01965E-04-2.29042E-02 7.03508E-14-8.01433E-14
 -1      1543 2.00647E+01 2.37886E-03 1.66472E-04-2.13992E-02 7.36234E-14 1.32352E-13
 -1      1544 2.00707E+01 2.75089E-03-5.65931E-04-3.86507E-02 7.79893E-14 5.47771E-14
 -1      1545 2.01678E+01 2.30210E-03-4.40775E-04-3.14147E-02 2.07304E-14-1.09433E-13
 -1      1546 2.01290E+01 3.38653E-03 2.08430E-04-2.92265E-02 3.74744E-14-7.49909E-14
 -1      1547 2.01326E+01 3.95246E-03-8.27630E-04-5.24049E-02 9.31926E-14-3.71957E-14
 -1      1548 2.02692E+01 3.00963E-03-6.05954E-04-4.28345E-02-1.02567E-13 5.49605E-14
 -1      1549 2.02161E+01 4.58767E-03 2.54018E-04-3.98134E-02-9.13412E-14-9.52679E-14
 -1      1550 2.02152E+01 5.34536E-03-1.16004E-03-7.12796E-02-8.99262E-14-7.20110E-14
 -1      1551 2.04054E+01 3.79865E-03-8.01394E-04-5.75674E-02-1.07399E-13 3.79117E-13
 -1      1552 2.03334E+01 5.98492E-03 2.97320E-04-5.35525E-02-8.08114E-14 2.30017E-13
 -1      1553 2.03249E+01 6.92862E-03-1.57183E-03-9.60350E-02-2.06138E-13 1.41944E-13
 -1      1554 2.05851E+01 4.62693E-03-1.02654E-03-7.59151E-02-3.02471E-15 4.75948E-13
 -1      1555 2.04892E+01 7.54562E-03 3.29187E-04-7.07557E-02-5.72032E-14 4.20079E-13
 -1      1556 2.04689E+01 8.65972E-03-2.06554E-03-1.27324E-01-1.28480E-13 2.76429E-13
 -1      1557 2.08173E+01 5.40291E-03-1.27091E-03-9.79192E-02 3.17677E-14 2.75782E-13
 -1      1558 2.06925E+01 9.17283E-03 3.36414E-04-9.15144E-02 1.05825E-13 3.87942E-13
 -1      1559 2.06547E+01 1.04227E-02-2.63017E-03-1.65462E-01 1.25820E-13 3.10594E-13
 -1      1560 2.11105E+01 5.95495E-03-1.50329E-03-1.23095E-01-5.65021E-15 2.49388E-13
 -1      1561 2.09518E+01 1.06595E-02 3.02236E-04-1.15467E-01-2.99829E-14 2.32755E-13
 -1      1562 2.08895E+01 1.19776E-02-3.22843E-03-2.10040E-01 1.93491E-14 2.97581E-13
 -1      1563 2.14701E+01 5.98801E-03-1.65167E-03-1.50010E-01-5.08011E-14 2.84970E-13
 -1      1564 2.12742E+01 1.16200E-02 2.10398E-04-1.41428E-01-3.61274E-14 2.27648E-13
 -1      1565 2.11787E+01 1.28839E-02-3.77537E-03-2.59298E-01-2.02223E-14 2.32099E-13
 -1      1566 2.18954E+01 5.03150E-03-1.56983E-03-1.75654E-01 6.27977E-14 1.62721E-13
 -1      1567 2.16623E+01 1.13981E-02 5.69046E-05-1.66829E-01 3.87500E-14 2.60023E-13
 -1      1568 2.15240E+01 1.23953E-02-4.10546E-03-3.09181E-01 3.41715E-14 1.90359E-13
 -1      1569 2.23746E+01 2.39739E-03-9.91040E-04-1.94587E-01-1.01781E-13 2.11765E-13
 -1      1570 2.21108E+01 8.96724E-03-1.25106E-04-1.86958E-01-6.07055E-14 1.71450E-13
 -1      1571 2.19200E+01 9.33746E-03-3.92846E-03-3.52001E-01-5.66799E-14 1.83786E-13
 -1      1572 2.28772E+01-2.79661E-03 5.11961E-04-1.97984E-01 4.69769E-14 3.37086E-13
 -1      1573 2.25998E+01 2.88310E-03-2.24825E-04-1.94067E-01 1.50038E-14 2.88429E-13
 -1      1574 2.23497E+01 2.02962E-03-2.78659E-03-3.74811E-01-5.68957E-14 1.77506E-13
 -1      1575 2.33453E+01-1.14211E-02 3.49638E-03-1.73027E-01 1.13980E-13 2.10339E-13
 -1      1576 2.30877E+01-8.56192E-03-1.06225E-05-1.76717E-01 7.21693E-14 2.92145E-13
 -1      1577 2.27782E+01-1.15939E-02-5.72683E-05-3.57972E-01 1.58052E-13 2.26220E-13
 -1      1578 2.36859E+01-2.37555E-02 8.41493E-03-1.03747E-01-1.39499E-13 9.67178E-14
 -1      1579 2.35024E+01-2.67070E-02 8.64438E-04-1.20226E-01-1.48740E-14 6.28959E-14
 -1      1580 2.31470E+01-3.33379E-02 4.90128E-03-2.75244E-01 5.75434E-14 8.73138E-14
 -1      1581 2.37692E+01-3.83406E-02 1.49925E-02 2.47303E-02 9.13939E-14-8.91561E-15
 -1      1582 2.37364E+01-5.10409E-02 2.71074E-03-9.88192E-03 2.86767E-14 4.23663E-14
 -1      1583 2.33698E+01-6.31076E-02 1.23132E-02-9.80630E-02 5.08907E-14 9.67564E-14
 -1      1584 2.34464E+01-5.04688E-02 2.11970E-02 2.16157E-01 8.88161E-14-2.35804E-13
 -1      1585 2.36524E+01-7.68232E-02 5.33889E-03 1.60948E-01 1.01137E-13-1.45049E-13
 -1      1586 2.33379E+01-9.58650E-02 2.11989E-02 1.92159E-01 1.77169E-13-1.30779E-13
 -1      1587 2.25975E+01-5.17325E-02 2.25412E-02 4.47547E-01-4.99774E-15-4.43895E-13
 -1      1588 2.31125E+01-9.30681E-02 7.38874E-03 3.77120E-01 4.85011E-14-3.31790E-13
 -1      1589 2.29414E+01-1.18549E-01 2.83718E-02 5.81110E-01 1.53377E-13-1.32314E-13
 -1      1590 2.12130E+01-3.29964E-02 1.35506E-02 6.56079E-01 5.78123E-14-4.71408E-13
 -1      1591 2.20396E+01-8.41942E-02 6.26996E-03 5.88151E-01 2.09208E-14-4.98455E-13
 -1      1592 2.21171E+01-1.10129E-01 2.89281E-02 9.94653E-01 3.64379E-14-2.57006E-13
 -1      1593 1.94790E+01 7.28227E-03-7.85223E-03 7.46954E-01-4.03760E-14-3.81847E-13
 -1      1594 2.05019E+01-3.92275E-02-5.85077E-04 7.09609E-01-7.34907E-14-4.84598E-13
 -1      1595 2.09139E+01-5.14191E-02 1.89246E-02 1.29061E+00-5.99672E-14-3.91485E-13
 -1      1596 1.77922E+01 5.45054E-02-3.46931E-02 6.41120E-01-1.23704E-13-2.57835E-13
 -1      1597 1.87727E+01 3.34618E-02-1.26328E-02 6.58257E-01-1.40703E-14-2.64358E-13
 -1      1598 1.95434E+01 5.33953E-02-3.98417E-04 1.30405E+00-1.09884E-13 7.72576E-14
 -1      1599 1.66281E+01 8.28979E-02-5.11181E-02 3.44097E-01-2.96083E-14-8.05571E-14
 -1      1600 1.72863E+01 1.01471E-01-2.38082E-02 4.15797E-01-1.39621E-13-1.93526E-13
 -1      1601 1.83497E+01 1.62691E-01-1.97505E-02 9.55777E-01-1.41477E-13 2.75995E-14
 -1      1602 1.62948E+01 7.42585E-02-4.52016E-02-2.77696E-02-9.69710E-14-2.39843E-14
 -1      1603 1.64561E+01 1.26849E-01-2.57754E-02 6.72591E-02-2.39392E-15-4.18554E-14
 -1      1604 1.76632E+01 2.13188E-01-2.87750E-02 3.46162E-01-9.53751E-15 8.02873E-14
 -1      1605 1.67467E+01 3.67386E-02-1.92163E-02-3.12993E-01 2.19602E-13-1.51705E-13
 -1      1606 1.64458E+01 9.78087E-02-1.56339E-02-2.37023E-01 9.46673E-14-3.61065E-14
 -1      1607 1.76137E+01 1.71592E-01-2.37268E-02-2.68990E-01 7.43121E-14 1.01186E-13
 -1      1608 1.76327E+01-3.97049E-03 8.66823E-03-4.16056E-01 2.25617E-13-8.29191E-13
 -1      1609 1.70810E+01 3.89907E-02 6.04424E-04-3.84130E-01 2.79868E-13-3.65111E-13
 -1      1610 1.80587E+01 6.70097E-02-1.17718E-02-6.45014E-01 4.28949E-13-1.58217E-13
 -1      1611 1.85377E+01-2.51614E-02 2.31827E-02-3.59699E-01 1.07666E-14-9.52648E-13
 -1      1612 1.79796E+01-1.07348E-02 1.24937E-02-3.65889E-01 1.07685E-13-8.49529E-13
 -1      1613 1.86958E+01-3.23339E-02-2.40030E-03-7.03763E-01 2.48342E-13-4.90479E-13
 -1      1614 1.92136E+01-2.30993E-02 2.20478E-02-2.41841E-01 7.22053E-14-9.34922E-13
 -1      1615 1.87923E+01-2.87442E-02 1.52384E-02-2.61785E-01 2.08748E-14-8.73829E-13
 -1      1616 1.92561E+01-7.60524E-02 4.73645E-04-5.50306E-01 1.27138E-14-2.59227E-13
 -1      1617 1.96354E+01-1.30463E-02 1.51503E-02-1.49605E-01-1.38057E-13-9.25661E-13
 -1      1618 1.93619E+01-2.12488E-02 1.13884E-02-1.63478E-01 1.31887E-14-8.15077E-13
 -1      1619 1.96245E+01-6.23231E-02 1.88368E-05-3.56636E-01 3.87711E-15-1.95303E-13
 -1      1620 1.98895E+01-1.64871E-02 1.69130E-02-9.90255E-02-3.44403E-14-5.07480E-13
 -1      1621 1.97176E+01-1.52741E-02 1.05427E-02-1.02354E-01-1.46924E-13-8.53852E-13
 -1      1622 1.98349E+01-3.58752E-02 5.61096E-03-2.24554E-01-1.55011E-13 3.53738E-14
 -1      1623 1.99502E+01-4.75051E-02 2.18976E-02-4.40337E-02-2.42582E-13-3.33821E-13
 -1      1624 2.00310E+01-2.35859E-01 2.54624E-03-9.94733E-02 4.18606E-13 6.06370E-13
 -1      1625 2.00018E+01-1.28193E-01 8.60557E-03-9.94878E-02-2.36158E-13 5.58398E-13
 -1      1626 2.01045E+01-1.51700E-01-7.10180E-03 6.14107E-02 3.89204E-13-4.66630E-13
 -1      1627 2.00698E+01-2.19832E-01-3.71338E-03 1.47493E-02 6.35623E-13 1.70098E-14
 -1      1628 2.00834E+01-1.41194E-01-1.51273E-02-6.23496E-02 5.70238E-14 5.24181E-13
 -1      1629 2.01602E+01 5.20711E-01-1.70017E-02 4.08061E-01 1.42740E-13-3.32009E-14
 -1      1630 2.01390E+01 4.99799E-02-1.70146E-02 3.23378E-01 4.69245E-13-2.36210E-13
 -1      1631 2.02196E+01 4.20900E-02-3.08698E-02 3.87917E-01 4.78818E-13-4.27167E-13
 -1      1632 2.01722E+01 2.04161E+00-2.31820E-02 8.76941E-01 3.99319E-13 2.76001E-13
 -1      1633 2.01819E+01 1.02249E+00-2.85315E-02 7.71160E-01 1.19592E-14 3.58146E-13
 -1      1634 2.02991E+01 6.96889E-01-4.80050E-02 1.13949E+00 4.12903E-13 1.16920E-13
 -1      1635 2.01017E+01 4.37480E+00-1.96790E-02 1.30142E+00 1.59150E-13-1.11300E-14
 -1      1636 2.01609E+01 2.87566E+00-3.05131E-02 1.21880E+00 2.57280E-13-8.99506E-14
 -1      1637 2.02821E+01 1.98862E+00-4.94328E-02 1.99903E+00 1.22156E-13 2.80262E-14
 -1      1638 1.99372E+01 7.19113E+00 3.30991E-04 1.44719E+00 1.52184E-13 1.89150E-13
 -1      1639 2.00416E+01 5.47714E+00-1.53721E-02 1.44372E+00-9.57567E-15 6.61732E-15
 -1      1640 2.01126E+01 3.89293E+00-2.43487E-02 2.60894E+00 1.49186E-16-1.12815E-13
 -1      1641 1.97422E+01 9.61119E+00 3.02512E-02 1.09287E+00 1.06234E-13-9.20618E-14
 -1      1642 1.98448E+01 8.26370E+00 1.55879E-02 1.21095E+00 6.45872E-14 3.34847E-13
 -1      1643 1.98062E+01 6.07081E+00 3.09276E-02 2.52158E+00-3.96246E-14 3.26997E-13
 -1      1644 1.96389E+01 1.06861E+01 4.88516E-02 2.71097E-01 3.26545E-13 2.63227E-14
 -1      1645 1.96743E+01 1.02508E+01 4.37727E-02 4.76990E-01 2.35097E-13 3.11209E-15
 -1      1646 1.95089E+01 7.80806E+00 9.19010E-02 1.48909E+00 1.85130E-14 1.15637E-14
 -1      1647 1.97076E+01 9.93999E+00 3.83542E-02-6.67573E-01 6.11573E-13 1.16605E-13
 -1      1648 1.96505E+01 1.06034E+01 4.64134E-02-4.76344E-01 2.77913E-13 2.52610E-13
 -1      1649 1.94083E+01 8.37590E+00 1.14456E-01-1.93946E-01 3.63628E-13 2.29247E-13
 -1      1650 1.98973E+01 7.72681E+00 6.54115E-03-1.28591E+00 3.77393E-13-3.58755E-13
 -1      1651 1.97903E+01 9.18299E+00 2.27859E-02-1.20031E+00 7.51982E-13-3.38819E-13
 -1      1652 1.95731E+01 7.51626E+00 7.82550E-02-1.77025E+00 1.53471E-13-9.39873E-15
 -1      1653 2.00776E+01 5.01961E+00-2.08583E-02-1.38768E+00 2.77320E-13 5.78808E-14
 -1      1654 1.99854E+01 6.66108E+00-6.07604E-03-1.41627E+00 3.93102E-13-1.69287E-13
 -1      1655 1.98921E+01 5.66613E+00 1.56665E-02-2.56197E+00 2.84411E-13-4.89829E-13
 -1      1656 2.01707E+01 2.60775E+00-3.12020E-02-1.08767E+00 3.75373E-13 1.79480E-13
 -1      1657 2.01249E+01 3.98650E+00-2.22559E-02-1.18157E+00 2.84633E-13 2.50203E-13
 -1      1658 2.01651E+01 3.57197E+00-3.29117E-02-2.44365E+00 5.51718E-13 1.49832E-13
 -1      1659 2.01693E+01 1.01027E+00-2.46240E-02-6.35452E-01 4.93116E-13 2.69021E-14
 -1      1660 2.01685E+01 1.86336E+00-2.24005E-02-7.33469E-01 3.43989E-13 2.66721E-13
 -1      1661 2.02904E+01 1.83235E+00-4.97066E-02-1.74312E+00 4.35478E-13 2.33469E-13
 -1      1662 2.01259E+01 2.62606E-01-4.37068E-04-2.57906E-01 2.10726E-13-1.81705E-13
 -1      1663 2.01230E+01 6.00613E-01-1.67127E-02-3.08670E-01 5.38991E-13-2.45932E-13
 -1      1664 2.02719E+01 7.26668E-01-4.00738E-02-9.13801E-01 2.53921E-13-1.02673E-13
 -1      1665 2.01007E+01 5.45940E-02 1.13174E-02-5.64177E-02 7.47076E-14-1.07078E-13
 -1      1666 2.01234E+01 9.69652E-02-5.51529E-03-9.83524E-02 2.29854E-13-2.06723E-13
 -1      1667 2.02492E+01 2.39059E-01-1.39826E-02-3.45606E-01 1.63295E-13-3.13744E-13
 -1      1668 2.01402E+01 3.96676E-02-1.66159E-02-8.53565E-02-2.74121E-14-3.06899E-13
 -1      1669-6.92511E-01-1.75323E+01-1.99496E+00-1.08868E+00 1.94245E-12 1.25153E-12
 -1      1670-6.73640E-01-1.99354E+01-2.21622E+00 4.45367E-01 6.60944E-13 1.03673E-12
 -1      1671 1.82302E+00-9.67358E+00-1.33381E+00 8.93660E-01 2.53531E-12 1.05954E-12
 -1      1672 9.19486E-01-1.57848E+01-1.96751E+00 1.89674E-01 2.07367E-12 1.04279E-12
 -1      1673 7.52557E+00-8.67663E-01-5.71732E-01 4.99345E+00 2.20579E-12 1.04028E-12
 -1      1674 4.27448E+00-7.27242E+00-1.46859E+00 1.85084E+00 2.65010E-12 9.83325E-13
 -1      1675 1.83985E+01 5.38772E+00 3.02689E-01 1.06482E+01 1.41354E-12 8.32889E-13
 -1      1676 1.16642E+01 1.38603E+00-6.77583E-01 6.54244E+00 1.89226E-12 1.15297E-12
 -1      1677 3.41984E+01 7.00056E+00 1.15744E+00 1.37382E+01 6.53366E-13 9.29923E-13
 -1      1678 2.43562E+01 6.27473E+00 2.21318E-01 1.12659E+01 1.02185E-12 9.62563E-13
 -1      1679 4.86228E+01 6.18484E+00 1.82290E+00 1.26820E+01 3.16525E-13 1.37979E-12
 -1      1680 3.94502E+01 7.80682E+00 1.11237E+00 1.38998E+01 3.73035E-13 1.19837E-12
 -1      1681 5.79155E+01 4.13844E+00 2.05978E+00 6.13423E+00 3.22770E-13 9.33531E-13
 -1      1682 5.25076E+01 5.85475E+00 1.75466E+00 1.09119E+01 3.00988E-13 1.17684E-12
 -1      1683 5.75374E+01 4.00230E+00 1.80568E+00-2.96183E+00 4.98601E-13 4.67404E-14
 -1      1684 5.86550E+01 4.05969E+00 1.99526E+00 3.26152E+00 5.26579E-13 7.66706E-13
 -1      1685 4.74389E+01 5.53921E+00 1.22307E+00-9.19069E+00 3.39104E-13-3.86469E-13
 -1      1686 5.44071E+01 4.12636E+00 1.70854E+00-5.07368E+00 3.17996E-13-9.72555E-14
 -1      1687 3.42040E+01 6.78814E+00 6.73104E-01-1.23079E+01 7.36522E-13-8.26894E-13
 -1      1688 4.37843E+01 5.53274E+00 1.39510E+00-1.18316E+01 4.51639E-13-5.93303E-13
 -1      1689 2.01520E+01 5.05993E+00-9.77599E-02-9.63331E+00 1.00142E-12-9.99645E-13
 -1      1690 2.89249E+01 6.32188E+00 8.14835E-01-1.23821E+01 8.72413E-13-7.67386E-13
 -1      1691 9.42342E+00-3.19687E-01-7.98607E-01-4.86429E+00 1.14087E-12-9.93094E-13
 -1      1692 1.52026E+01 3.87791E+00 8.49552E-02-8.60161E+00 1.09734E-12-1.10234E-12
 -1      1693 3.73833E+00-8.93674E+00-1.30660E+00-1.30651E+00 1.06037E-12-6.30662E-13
 -1      1694 6.54220E+00-3.05633E+00-6.11405E-01-3.91534E+00 1.05116E-12-9.39138E-13
 -1      1695 2.75460E-02-1.61558E+01-1.85797E+00 5.74181E-01 6.08735E-13-4.47115E-13
 -1      1696 3.49004E-01-1.11898E+01-1.40378E+00 5.95627E-01 9.86433E-13-6.03129E-13
 -1      1697-7.91448E-01-1.84296E+01-1.79816E+00-6.21086E-01-1.85546E-14-2.82829E-13
 -1      1698-7.99078E-01-1.69255E+01-1.70379E+00 1.00462E+00 4.30656E-13-2.75280E-13
 -1      1699-5.82570E-01-1.55796E+01-1.56955E+00-1.07461E+00-6.67244E-13-4.14502E-13
 -1      1700-5.81644E-01-1.79070E+01-1.73926E+00 1.45864E-01-9.62563E-14-4.84890E-13
 -1      1701 1.01043E+00-9.59575E+00-1.30353E+00-2.50857E-01-9.36584E-13-4.50029E-13
 -1      1702 4.13537E-01-1.48782E+01-1.78217E+00-7.36007E-01-9.76441E-13-2.37269E-13
 -1      1703 6.94050E+00-1.80940E+00-6.22349E-01 4.03827E+00-1.13776E-12-1.13665E-12
 -1      1704 3.83967E+00-7.48915E+00-1.37943E+00 1.15710E+00-8.35554E-13-8.33666E-13
 -1      1705 1.71421E+01 4.12785E+00 1.38982E-01 9.11927E+00-1.19837E-12-9.25482E-13
 -1      1706 1.06517E+01 3.75046E-01-7.81679E-01 5.30312E+00-1.27209E-12-9.84990E-13
 -1      1707 3.21156E+01 6.11719E+00 9.56503E-01 1.24790E+01-6.46705E-13-1.21148E-12
 -1      1708 2.24897E+01 5.34875E+00 1.65830E-02 1.00682E+01-1.02918E-12-9.76108E-13
 -1      1709 4.70931E+01 5.11798E+00 1.62920E+00 1.10116E+01-5.25663E-13-1.14198E-12
 -1      1710 3.77266E+01 6.42228E+00 8.80619E-01 1.20833E+01-6.02962E-13-1.15485E-12
 -1      1711 5.73903E+01 3.68952E+00 2.01271E+00 4.52015E+00-3.90799E-13-4.95270E-13
 -1      1712 5.13319E+01 5.08528E+00 1.60052E+00 9.21838E+00-5.69225E-13-9.97424E-13
 -1      1713 5.80263E+01 4.32122E+00 1.96490E+00-4.49196E+00-4.78340E-13 4.17222E-13
 -1      1714 5.80964E+01 4.01002E+00 1.92969E+00 1.53250E+00-4.25660E-13-1.96065E-13
 -1      1715 5.14679E+01 6.19693E+00 1.74319E+00-1.16491E+01-6.40377E-13 9.69003E-13
 -1      1716 5.72660E+01 4.38252E+00 2.06655E+00-7.32728E+00-4.72927E-13 5.58831E-13
 -1      1717 3.83260E+01 7.88492E+00 1.08660E+00-1.40042E+01-9.65672E-13 1.50924E-12
 -1      1718 4.74938E+01 6.38719E+00 1.79072E+00-1.31831E+01-7.69662E-13 1.24101E-12
 -1      1719 2.34562E+01 6.71920E+00 2.14367E-01-1.15676E+01-1.95310E-12 1.84452E-12
 -1      1720 3.29788E+01 7.56062E+00 1.17372E+00-1.42202E+01-1.41109E-12 1.71263E-12
 -1      1721 1.14219E+01 1.09265E+00-6.90240E-01-6.36614E+00-2.24887E-12 1.87306E-12
 -1      1722 1.81062E+01 5.32585E+00 3.13273E-01-1.05513E+01-2.07767E-12 1.98996E-12
 -1      1723 4.15025E+00-7.55983E+00-1.50893E+00-1.71254E+00-1.68177E-12 1.37884E-12
 -1      1724 7.26718E+00-1.30083E+00-6.40345E-01-4.78751E+00-2.24887E-12 1.80822E-12
 -1      1725 6.60107E-01-1.60144E+01-2.07924E+00 2.70420E-01-8.97726E-13 6.28005E-13
 -1      1726 1.40948E+00-1.00335E+01-1.46571E+00-3.28459E-01-1.42197E-12 1.13187E-12
 -1      1727-6.16184E-01-1.96392E+01-2.17676E+00-4.50079E-01 2.84134E-13 7.00551E-13
 -1      1728-5.89520E-01-1.71207E+01-1.95135E+00 9.70494E-01-4.11782E-13 5.19501E-13
 -1      1729 2.66012E+01 7.97844E-01 3.88371E-01 8.37877E+00 9.78329E-13 4.01013E-13
 -1      1730 1.54117E+01-3.75656E+00-3.56670E-01 7.35462E+00 1.46794E-12 3.91576E-13
 -1      1731 1.99727E+01-7.95846E-02 1.59746E-02-1.13767E-01-3.02279E-13 1.80219E-13
 -1      1732 1.99547E+01-8.28921E-02 5.59557E-04-1.83835E-01-9.11814E-14 5.65496E-13
 -1      1733 8.22001E-01-1.20500E+01-1.37475E+00 3.07414E+00 1.13110E-12 1.19460E-12
 -1      1734 6.77754E+00-8.69942E+00-9.90259E-01 5.41982E+00 1.54610E-12 5.27557E-13
 -1      1735-1.46901E+00-1.31598E+01-1.53177E+00-7.59975E-02 5.84116E-13 1.47393E-12
 -1      1736 3.72211E+01 4.51695E+00 9.49084E-01 7.86691E+00 3.41199E-13 7.47069E-13
 -1      1737 4.60906E+01 7.04365E+00 1.49918E+00 6.37602E+00 2.17382E-13 5.87308E-13
 -1      1738 5.03197E+01 7.91096E+00 1.69680E+00 2.72257E+00 5.69322E-13 3.64458E-13
 -1      1739 4.77888E+01 7.74026E+00 1.42133E+00-8.66623E-01 5.75762E-13 1.11855E-13
 -1      1740 4.24702E+01 5.92596E+00 1.20052E+00-4.55581E+00 4.71276E-13-1.66755E-13
 -1      1741 3.36879E+01 3.25152E+00 7.63354E-01-7.22909E+00 6.08458E-13-4.83391E-13
 -1      1742 2.27639E+01-4.23682E-01 9.13941E-02-7.23404E+00 6.61027E-13-4.76841E-13
 -1      1743 1.31553E+01-5.42722E+00-5.54013E-01-6.05794E+00 6.93556E-13-6.80067E-13
 -1      1744 5.25103E+00-9.05382E+00-8.08719E-01-4.50948E+00 4.09339E-13-6.51375E-13
 -1      1745-3.22109E-01-1.21959E+01-1.26665E+00-1.86042E+00 2.03559E-13-6.05127E-13
 -1      1746-1.45465E+00-1.23076E+01-1.20577E+00 2.73454E-01-4.14599E-14-5.94469E-13
 -1      1747 5.34838E-01-1.15164E+01-1.19154E+00 2.19573E+00-3.63043E-13-4.49585E-13
 -1      1748 5.94936E+00-8.74665E+00-9.17964E-01 4.14475E+00-7.22866E-13-7.67546E-13
 -1      1749 1.42662E+01-4.49597E+00-4.45072E-01 5.93908E+00-7.06990E-13-7.22089E-13
 -1      1750 2.46130E+01-1.08309E-02 1.66672E-01 7.08536E+00-8.38440E-13-5.34350E-13
 -1      1751 3.58023E+01 3.57754E+00 8.39701E-01 6.73607E+00-4.55025E-13-7.77489E-13
 -1      1752 4.51840E+01 6.01412E+00 1.39373E+00 4.51922E+00-5.64632E-13-4.15112E-13
 -1      1753 4.96572E+01 7.73084E+00 1.64847E+00 7.57827E-01-7.28695E-13 1.16573E-15
 -1      1754 4.96542E+01 8.06724E+00 1.67691E+00-3.26533E+00-7.21867E-13 8.48766E-14
 -1      1755 4.55155E+01 6.87797E+00 1.49849E+00-6.74897E+00-7.54785E-13 5.67324E-13
 -1      1756 3.66634E+01 4.64508E+00 9.96482E-01-8.52782E+00-1.31350E-12 1.05227E-12
 -1      1757 2.58561E+01 8.54638E-01 3.36157E-01-8.57600E+00-1.64335E-12 1.27975E-12
 -1      1758 1.51424E+01-3.97001E+00-3.92196E-01-7.25729E+00-1.47493E-12 1.44873E-12
 -1      1759 6.43724E+00-8.89469E+00-1.04103E+00-5.11346E+00-9.64118E-13 1.44043E-12
 -1      1760 6.84764E-01-1.22231E+01-1.43782E+00-2.79049E+00-1.16684E-13 8.83404E-13
 -1      1761 2.28608E+01 1.98494E+00-2.35567E-02-2.72223E+00-9.28181E-14 3.93297E-13
 -1      1762 1.98261E+01 3.71368E+00-3.54144E-02-2.15266E+00-1.10775E-13-1.19061E-13
 -1      1763 2.00587E+01 3.56280E+00-4.02526E-02-2.44487E+00-1.32661E-13-7.40415E-14
 -1      1764 2.03644E+01 3.18153E+00-4.58229E-02-2.58451E+00-1.37083E-13-2.46470E-14
 -1      1765 2.05848E+01 2.80981E+00-1.42512E-01-2.85285E+00-1.45405E-13 4.79478E-14
 -1      1766 2.04252E+01 2.69313E+00-4.12822E-03-2.22406E+00-1.42988E-13-3.67553E-14
 -1      1767 1.93546E+01 4.18889E+00-2.00421E-02-1.27022E+00-3.88248E-14-1.86717E-13
 -1      1768 1.94284E+01 4.14940E+00-1.69326E-02-1.49464E+00-5.59192E-14-1.79839E-13
 -1      1769 1.92575E+01 4.29480E+00-1.67433E-02-8.59301E-01-6.89986E-15-1.78843E-13
 -1      1770 1.93005E+01 4.27087E+00-1.42197E-02-1.07002E+00-1.88090E-14-1.87621E-13
 -1      1771 1.95266E+01 3.78332E+00-8.90996E-03-1.11919E+00-3.28793E-14-1.75656E-13
 -1      1772 1.92058E+01 4.35522E+00-1.47912E-02-4.66596E-01 2.68023E-14-1.53211E-13
 -1      1773 1.92278E+01 4.34237E+00-1.32981E-02-6.66835E-01 4.44967E-15-1.65914E-13
 -1      1774 1.94288E+01 3.90352E+00-9.14623E-03-7.32899E-01 3.95354E-15-1.58261E-13
 -1      1775 1.91863E+01 4.38083E+00-1.36659E-02-8.35709E-02 6.05330E-14-1.50957E-13
 -1      1776 1.91928E+01 4.37690E+00-1.32131E-02-2.78956E-01 4.86243E-14-1.58750E-13
 -1      1777 1.93783E+01 3.96794E+00-9.15047E-03-3.58144E-01 3.75965E-14-1.41279E-13
 -1      1778 1.91944E+01 4.37553E+00-1.31686E-02 2.98052E-01 9.34964E-14-1.39512E-13
 -1      1779 1.91868E+01 4.37999E+00-1.37509E-02 1.02506E-01 8.18756E-14-1.44145E-13
 -1      1780 1.93635E+01 3.98734E+00-9.14364E-03 1.05794E-02 7.60177E-14-1.29327E-13
 -1      1781 1.92318E+01 4.33835E+00-1.33279E-02 6.86656E-01 1.09379E-13-1.27018E-13
 -1      1782 1.92085E+01 4.35203E+00-1.49162E-02 4.85912E-01 1.01389E-13-1.41200E-13
 -1      1783 1.93809E+01 3.96462E+00-9.19005E-03 3.79494E-01 1.03036E-13-1.22000E-13
 -1      1784 1.93056E+01 4.26494E+00-1.44081E-02 1.08419E+00 1.37086E-13-7.75144E-14
 -1      1785 1.92621E+01 4.28940E+00-1.69749E-02 8.76273E-01 1.22047E-13-1.05849E-13
 -1      1786 1.94340E+01 3.89712E+00-9.19436E-03 7.51521E-01 1.25334E-13-1.08885E-13
 -1      1787 1.94377E+01 4.13772E+00-1.74031E-02 1.51412E+00 1.76721E-13-1.76872E-14
 -1      1788 1.93610E+01 4.18029E+00-2.05055E-02 1.28461E+00 1.53752E-13-4.80171E-14
 -1      1789 1.95340E+01 3.77318E+00-9.24484E-03 1.13515E+00 1.59763E-13-4.94830E-14
 -1      1790 1.96674E+01 3.92118E+00-2.51938E-02 1.97916E+00 2.03969E-13 4.64559E-14
 -1      1791 1.95343E+01 3.99793E+00-2.69048E-02 1.72184E+00 1.89643E-13 6.57113E-15
 -1      1792 1.97078E+01 3.56608E+00-8.70267E-03 1.53482E+00 1.92598E-13 9.97466E-15
 -1      1793 2.00766E+01 3.52284E+00-4.51813E-02 2.47158E+00 2.08868E-13 1.55823E-13
 -1      1794 1.98363E+01 3.68330E+00-3.97248E-02 2.18247E+00 2.02111E-13 8.52651E-14
 -1      1795 2.00048E+01 3.22296E+00-5.26580E-03 1.93410E+00 2.12882E-13 7.60624E-14
 -1      1796 2.09224E+01 2.68182E+00-5.76443E-02 2.85733E+00 1.72673E-13 3.47646E-13
 -1      1797 2.04148E+01 3.09696E+00-5.04304E-02 2.61551E+00 1.88626E-13 2.34104E-13
 -1      1798 2.05185E+01 2.60997E+00 3.18857E-03 2.24406E+00 2.08532E-13 1.86431E-13
 -1      1799 2.17330E+01 1.21297E+00-1.22091E-01 2.32949E+00 1.27467E-13 5.65159E-13
 -1      1800 2.12764E+01 2.26305E+00 1.17058E-04 2.74003E+00 1.52845E-13 4.19623E-13
 -1      1801 2.09391E+01 1.68503E+00-2.29540E-02 2.13974E+00 1.79801E-13 3.32526E-13
 -1      1802 2.09545E+01 7.78672E-01-6.24429E-02 1.52379E+00 1.34538E-13 5.19272E-13
 -1      1803 2.17988E+01 2.45824E+00 9.09106E-02-3.04782E+00-1.22291E-13 1.80217E-13
 -1      1804 2.01039E+01 2.97944E-01-8.91152E-03 6.56640E-01 1.34930E-13 4.33664E-13
 -1      1805 2.06558E+01 4.40410E-01-1.24638E-02 1.03368E+00 1.24477E-13 4.69242E-13
 -1      1806 2.07468E+01 8.45121E-01 2.24736E-03 1.41469E+00 1.53575E-13 3.59733E-13
 -1      1807 2.15091E+01 1.74236E+00 7.94374E-02-2.33676E+00-1.31166E-13 1.23339E-13
 -1      1808 2.05227E+01 5.00840E-01 3.24273E-02-9.21002E-01-1.19710E-13 1.09614E-13
 -1      1809 2.00912E+01 3.51965E-01 7.53099E-03-6.28981E-01-9.78453E-14 8.42867E-14
 -1      1810 1.98976E+01 2.56709E-01 2.74111E-02-3.90890E-01-8.97338E-14 8.51220E-14
 -1      1811 1.97064E+01 1.77695E-01 1.03476E-02-2.53606E-01-8.31531E-14 6.36028E-14
 -1      1812 2.02006E+01 4.81225E-01-6.64933E-03-7.21740E-01-1.09770E-13 3.83929E-14
 -1      1813 1.95841E+01 1.33055E-01 1.66445E-02-1.19675E-01-5.93284E-14 5.94160E-14
 -1      1814 1.95061E+01 9.31847E-02 6.92715E-03-4.88116E-02-2.21611E-14 5.60689E-14
 -1      1815 1.98748E+01 2.43044E-01-6.22128E-03-2.95506E-01-8.02275E-14 3.33436E-14
 -1      1816 1.94413E+01 6.83252E-02 8.67882E-03 2.46616E-02-1.89466E-14 5.05819E-14
 -1      1817 1.94269E+01 4.65689E-02 4.11145E-03 6.07754E-02-2.04079E-14 3.83625E-14
 -1      1818 1.96925E+01 1.25279E-01-4.64124E-03-5.84564E-02-4.96734E-14 1.37785E-14
 -1      1819 1.94007E+01 3.21996E-02 4.23509E-03 9.93367E-02-2.46871E-14 3.75500E-14
 -1      1820 1.94204E+01 1.97396E-02 2.42756E-03 1.15995E-01-3.80489E-14 1.50274E-14
 -1      1821 1.96060E+01 6.06733E-02-3.44160E-03 7.08347E-02-3.05461E-14-1.45026E-14
 -1      1822 1.94186E+01 1.10836E-02 1.84842E-03 1.33750E-01-4.46820E-14 2.77521E-14
 -1      1823 1.94555E+01 3.87565E-03 1.43592E-03 1.39030E-01-2.83208E-14 1.39137E-14
 -1      1824 1.95815E+01 2.37345E-02-2.32303E-03 1.36902E-01-3.61037E-14 1.10711E-14
 -1      1825 1.94678E+01-1.34560E-03 5.44072E-04 1.44207E-01-2.30230E-14 1.97688E-14
 -1      1826 1.95117E+01-5.36403E-03 8.17253E-04 1.42810E-01-2.60228E-14 2.67963E-14
 -1      1827 1.95947E+01 2.12709E-03-1.42522E-03 1.64801E-01-1.58959E-14 1.70155E-14
 -1      1828 1.95313E+01-8.38559E-03-1.79232E-04 1.40528E-01-6.83948E-14 1.11724E-14
 -1      1829 1.95763E+01-1.03873E-02 4.17584E-04 1.35385E-01-7.66198E-14-4.68977E-15
 -1      1830 1.96288E+01-1.02304E-02-7.79617E-04 1.69653E-01-4.71653E-14 1.31683E-14
 -1      1831 1.95989E+01-1.19598E-02-5.66578E-04 1.28940E-01-1.06821E-13-3.06508E-14
 -1      1832 1.96414E+01-1.26688E-02 1.61746E-04 1.21942E-01-9.19396E-14-8.86929E-14
 -1      1833 1.96728E+01-1.67328E-02-3.46344E-04 1.61036E-01-1.23689E-13-1.03243E-13
 -1      1834 1.96643E+01-1.32799E-02-7.47789E-04 1.13498E-01-4.65280E-14-1.32213E-13
 -1      1835 1.97025E+01-1.31647E-02 7.02487E-06 1.05876E-01-3.61163E-14-1.30780E-13
 -1      1836 1.97197E+01-1.94531E-02-7.23611E-05 1.45185E-01-1.09602E-13-1.05063E-13
 -1      1837 1.97241E+01-1.31418E-02-7.99252E-04 9.68543E-02-3.63937E-14-1.28598E-13
 -1      1838 1.97572E+01-1.25102E-02-7.41988E-05 8.94055E-02-9.76793E-15-1.36687E-13
 -1      1839 1.97652E+01-1.97276E-02 8.72717E-05 1.26206E-01-3.33275E-14-1.45497E-13
 -1      1840 1.97768E+01-1.20730E-02-7.69411E-04 8.07341E-02 1.46337E-14-1.60265E-13
 -1      1841 1.98049E+01-1.11235E-02-1.00417E-04 7.39699E-02-2.49977E-14-1.06000E-13
 -1      1842 1.98071E+01-1.84367E-02 1.66061E-04 1.06799E-01-2.45382E-14-1.72267E-13
 -1      1843 1.98221E+01-1.04151E-02-6.89909E-04 6.62528E-02-4.89280E-14-8.06617E-14
 -1      1844 1.98456E+01-9.26778E-03-8.35076E-05 6.05006E-02-5.94453E-14-9.15380E-14
 -1      1845 1.98443E+01-1.61533E-02 1.87771E-04 8.87336E-02-2.02208E-14-1.12897E-13
 -1      1846 1.98607E+01-8.37415E-03-5.81269E-04 5.41384E-02-1.00594E-13-8.58241E-14
 -1      1847 1.98804E+01-7.08995E-03-3.01819E-05 4.96178E-02-7.77951E-14-1.29509E-13
 -1      1848 1.98770E+01-1.32301E-02 1.68662E-04 7.31745E-02-7.59884E-14-7.56549E-14
 -1      1849 1.98937E+01-6.05320E-03-4.56276E-04 4.48969E-02-2.78240E-14-1.27441E-13
 -1      1850 1.99106E+01-4.64804E-03 5.70426E-05 4.17773E-02-1.41360E-14-1.02575E-13
 -1      1851 1.99056E+01-9.85480E-03 1.19347E-04 6.09210E-02-5.00253E-14-9.55893E-14
 -1      1852 1.99229E+01-3.47616E-03-3.22242E-04 3.89388E-02-4.17372E-14-1.32069E-13
 -1      1853 1.99382E+01-1.93029E-03 1.79141E-04 3.73840E-02-3.45162E-14-1.77624E-13
 -1      1854 1.99313E+01-6.08878E-03 4.62112E-05 5.25865E-02-5.05451E-14-4.77555E-14
 -1      1855 1.99502E+01-6.04252E-04-1.82637E-04 3.66770E-02-4.57826E-14-1.89736E-13
 -1      1856 1.99652E+01 1.13078E-03 3.40026E-04 3.68803E-02-8.61951E-14-1.47349E-13
 -1      1857 1.99557E+01-1.89399E-03-4.75222E-05 4.87368E-02-5.99043E-14-1.66969E-14
 -1      1858 1.99779E+01 2.65146E-03-3.83270E-05 3.86035E-02-1.24218E-13-1.06947E-13
 -1      1859 1.99944E+01 4.64743E-03 5.46035E-04 4.08165E-02-5.75793E-14-8.19099E-14
 -1      1860 1.99805E+01 2.84701E-03-1.60947E-04 4.99969E-02-8.39022E-14 2.77469E-14
 -1      1861 2.00090E+01 6.41982E-03 1.11422E-04 4.53508E-02 3.94428E-14-1.33000E-13
 -1      1862 2.00286E+01 8.76695E-03 8.05357E-04 4.99049E-02 6.32817E-14-1.93010E-13
 -1      1863 2.00078E+01 8.31506E-03-2.94703E-04 5.71349E-02-4.66486E-14 6.01373E-14
 -1      1864 2.00465E+01 1.08597E-02 2.68023E-04 5.77373E-02 3.28664E-14-2.15540E-13
 -1      1865 2.00715E+01 1.36611E-02 1.12722E-03 6.50596E-02 3.62912E-15-1.49330E-13
 -1      1866 2.00404E+01 1.47396E-02-4.50235E-04 7.11249E-02 4.43976E-14-4.43107E-14
 -1      1867 2.00942E+01 1.61480E-02 4.32637E-04 7.67970E-02-6.99419E-16-6.23954E-14
 -1      1868 2.01271E+01 1.95117E-02 1.52060E-03 8.74182E-02 3.33365E-14-9.42227E-14
 -1      1869 2.00811E+01 2.23816E-02-6.29019E-04 9.31884E-02 5.15680E-14-5.23861E-14
 -1      1870 2.01564E+01 2.24622E-02 6.05139E-04 1.03787E-01 1.81465E-14-6.07940E-14
 -1      1871 2.02003E+01 2.64875E-02 1.99195E-03 1.18337E-01 5.35264E-14-2.77979E-14
 -1      1872 2.01334E+01 3.15089E-02-8.31704E-04 1.24809E-01 1.62928E-14 5.86166E-14
 -1      1873 2.02384E+01 2.99507E-02 7.82859E-04 1.40163E-01 3.97791E-14-2.43572E-14
 -1      1874 2.02966E+01 3.47043E-02 2.54143E-03 1.59342E-01 1.42969E-14-2.16932E-14
 -1      1875 2.02012E+01 4.23556E-02-1.05711E-03 1.67705E-01 6.42287E-14-4.83889E-15
 -1      1876 2.03458E+01 3.86812E-02 9.59010E-04 1.87493E-01-8.67275E-15-6.12831E-14
 -1      1877 2.04223E+01 4.41543E-02 3.15629E-03 2.12014E-01 3.65116E-15-8.61037E-14
 -1      1878 2.02891E+01 5.50508E-02-1.30112E-03 2.23743E-01-6.23839E-15 5.69306E-15
 -1      1879 2.04851E+01 4.85496E-02 1.12081E-03 2.47280E-01-4.06141E-14-1.14758E-13
 -1      1880 2.05843E+01 5.45822E-02 3.80025E-03 2.77735E-01-5.37907E-14-1.41515E-13
 -1      1881 2.04020E+01 6.94938E-02-1.55567E-03 2.94741E-01-1.82558E-14 5.46745E-14
 -1      1882 2.06634E+01 5.91223E-02 1.24751E-03 3.20616E-01-3.34596E-14-1.03016E-13
 -1      1883 2.07897E+01 6.52739E-02 4.39649E-03 3.57243E-01 2.54443E-14-8.36581E-14
 -1      1884 2.05451E+01 8.51359E-02-1.80813E-03 3.82096E-01-7.80669E-15 1.09545E-13
 -1      1885 2.08876E+01 6.93687E-02 1.30911E-03 4.07560E-01 2.19720E-14-1.55879E-13
 -1      1886 2.10449E+01 7.47057E-02 4.80285E-03 4.49822E-01 2.07000E-14-1.10840E-13
 -1      1887 2.07238E+01 1.00611E-01-2.04192E-03 4.86124E-01 3.26341E-14 9.77584E-14
 -1      1888 2.11640E+01 7.72295E-02 1.26762E-03 5.06079E-01 9.46920E-15-1.57358E-13
 -1      1889 2.13549E+01 7.99966E-02 4.77945E-03 5.51960E-01-3.30118E-14-1.40022E-13
 -1      1890 2.09431E+01 1.13138E-01-2.23918E-03 6.04944E-01-3.36557E-14 1.74102E-14
 -1      1891 2.14969E+01 7.89659E-02 1.08436E-03 6.10318E-01-1.07964E-13-8.39321E-14
 -1      1892 2.17208E+01 7.61319E-02 3.95579E-03 6.55212E-01-5.99184E-14-7.33643E-14
 -1      1893 2.12069E+01 1.17609E-01-2.38626E-03 7.32675E-01-4.08744E-16-4.91647E-14
 -1      1894 2.18865E+01 6.82989E-02 7.38014E-04 7.07954E-01-3.42273E-14 5.69067E-14
 -1      1895 2.21373E+01 5.50621E-02 1.81976E-03 7.43076E-01 9.69393E-14 9.16281E-14
 -1      1896 2.15172E+01 1.05372E-01-2.47997E-03 8.56690E-01 4.10416E-14 7.76876E-14
 -1      1897 2.23260E+01 3.55777E-02 2.54871E-04 7.76555E-01 7.36704E-14 1.25031E-13
 -1      1898 2.25885E+01 5.17721E-03-2.22045E-03 7.87021E-01 5.82612E-15 1.55168E-13
 -1      1899 2.18731E+01 6.30048E-02-2.52496E-03 9.53799E-01 9.28203E-14 1.78398E-13
 -1      1900 2.27973E+01-3.21881E-02-2.66582E-04 7.79456E-01-1.01473E-14 1.52855E-13
 -1      1901 2.30433E+01-8.74408E-02-8.61318E-03 7.42869E-01 6.62367E-14 1.73839E-13
 -1      1902 2.22695E+01-2.78634E-02-2.49589E-03 9.85721E-01-8.50730E-15 3.12074E-13
 -1      1903 2.32655E+01-1.48404E-01-7.05715E-04 6.63355E-01 1.96839E-14 6.45473E-14
 -1      1904 2.34503E+01-2.33051E-01-1.71267E-02 5.51059E-01-1.90932E-14 7.87564E-16
 -1      1905 2.26946E+01-1.86981E-01-2.21969E-03 8.95612E-01-1.70090E-14 2.16172E-13
 -1      1906 2.36709E+01-3.17333E-01-1.08835E-03 3.63240E-01 3.19831E-14 4.53600E-14
 -1      1907 2.37341E+01-4.23610E-01-2.59893E-02 1.48512E-01 3.41480E-14 1.62843E-13
 -1      1908 2.31252E+01-4.23222E-01-1.10965E-03 6.10434E-01 1.41389E-14 9.91835E-14
 -1      1909 2.39212E+01-5.14637E-01-2.04618E-03-1.75147E-01-2.26763E-14 2.23477E-13
 -1      1910 2.37974E+01-6.08234E-01-3.10001E-02-4.97059E-01-2.98806E-14 2.52410E-13
 -1      1911 2.35157E+01-7.08838E-01 2.01418E-03 5.89830E-02 6.87731E-14 2.14277E-13
 -1      1912 2.38908E+01-6.60459E-01-5.19007E-03-9.42988E-01 6.66030E-14 2.54963E-13
 -1      1913 2.35353E+01-6.72325E-01-2.63279E-02-1.32227E+00 6.83967E-14 2.66150E-13
 -1      1914 2.37818E+01-9.41861E-01 8.46671E-03-7.80939E-01 2.38091E-14 4.02806E-13
 -1      1915 2.34498E+01-6.14034E-01-1.20535E-02-1.78923E+00 4.01831E-14 1.84588E-13
 -1      1916 2.28789E+01-4.66491E-01-8.92395E-03-2.09598E+00 8.63632E-14 2.66629E-13
 -1      1917 2.37895E+01-9.33603E-01 1.62840E-02-1.79682E+00 1.25308E-14 2.96195E-13
 -1      1918 2.25569E+01-2.45775E-01-1.95554E-02-2.37590E+00 5.50428E-14 2.54470E-13
 -1      1919 2.18784E+01 6.60822E-02 1.37613E-02-2.42845E+00-6.09547E-14 2.47972E-13
 -1      1920 2.34008E+01-4.93163E-01 1.69220E-02-2.65864E+00 2.48646E-14 4.62231E-13
 -1      1921 2.13938E+01 3.91080E-01-1.86582E-02-2.29193E+00-1.61850E-13 1.94261E-13
 -1      1922 2.07961E+01 7.16164E-01 2.36614E-02-1.97918E+00-1.40443E-13 1.72085E-13
 -1      1923 2.26166E+01 3.60966E-01 1.32534E-03-2.86397E+00-9.13384E-14 3.66636E-13
 -1      1924 2.03941E+01 9.47329E-01-2.00046E-03-1.39861E+00-1.85098E-13 1.20555E-13
 -1      1925 2.00520E+01 1.06040E+00 1.07641E-02-8.29013E-01-1.16202E-13 1.52189E-13
 -1      1926 2.17424E+01 1.21235E+00-2.67334E-02-2.08079E+00-1.62179E-13 4.24930E-13
 -1      1927 1.99562E+01 1.01935E+00 2.03151E-02-8.90077E-02 3.52669E-14 5.28896E-15
 -1      1928 1.99336E+01 8.31017E-01-1.09809E-02 4.35689E-01 2.50078E-14 4.37671E-15
 -1      1929 2.12411E+01 1.49888E+00-4.04914E-02-5.77217E-01-1.38521E-13 2.94733E-13
 -1      1930 2.00982E+01 5.62492E-01 2.81655E-02 9.17996E-01 4.75973E-14-5.03703E-14
 -1      1931 2.03039E+01 2.36312E-01-1.87851E-02 1.14517E+00 1.58574E-13-3.56659E-15
 -1      1932 2.13029E+01 1.02495E+00-2.11027E-02 8.02864E-01-2.03674E-14 2.69600E-14
 -1      1933 2.04754E+01-4.52787E-02 1.38459E-02 1.18694E+00 1.64358E-13-1.34686E-13
 -1      1934 2.07383E+01-2.78767E-01-1.14242E-02 1.09764E+00 2.06959E-13-1.30280E-13
 -1      1935 2.16208E+01 1.75917E-01 7.29621E-03 1.35781E+00 8.81361E-14-1.85883E-13
 -1      1936 2.07236E+01-4.06233E-01-8.93541E-03 8.34240E-01 2.07299E-15-1.87114E-13
 -1      1937 2.09053E+01-4.44993E-01 8.85926E-04 5.97279E-01-7.35410E-14-2.25380E-13
 -1      1938 2.17528E+01-4.67958E-01 1.66262E-02 1.06343E+00 6.81295E-14-3.39553E-13
 -1      1939 2.06960E+01-4.03248E-01-2.26029E-02 2.89748E-01-3.24870E-14-3.65958E-13
 -1      1940 2.07460E+01-2.89151E-01 1.02484E-02 9.31130E-02-4.93702E-15-2.23045E-13
 -1      1941 2.15175E+01-6.12195E-01 8.94402E-03 4.03489E-01-1.31393E-13-2.21638E-13
 -1      1942 2.04497E+01-1.81989E-01-2.26680E-02-4.09450E-02 8.61637E-15-2.52082E-13
 -1      1943 2.04261E+01-4.09219E-02 1.70587E-02-1.10738E-01 9.20097E-15-2.93203E-13
 -1      1944 2.05112E+01-1.66070E-02 6.73812E-03-2.23898E-01 8.10810E-15-3.72870E-13
 -1      1945 2.10334E+01-3.23764E-01 1.51743E-02-8.89025E-02 2.00100E-15-2.76827E-13
 -1      1946 1.96215E+01 1.42035E-01 7.88341E-03 2.59015E-01 1.23965E-13 3.64282E-13
 -1      1947 1.98934E+01 2.04096E-01 1.64334E-02 4.32018E-01 1.24463E-13 4.11235E-13
 -1      1948 2.01047E+01 3.50552E-01-1.53244E-03 6.54502E-01 1.47837E-13 3.16632E-13
 -1      1949 1.93794E+01 7.19284E-02 6.94758E-03 5.60346E-02 7.01028E-14 3.21019E-13
 -1      1950 1.94942E+01 1.01806E-01 1.41917E-02 1.44563E-01 8.80025E-14 3.51812E-13
 -1      1951 1.97122E+01 1.65197E-01-1.94682E-03 2.55751E-01 1.03795E-13 2.87939E-13
 -1      1952 1.92892E+01 3.61607E-02 4.42827E-03-4.94529E-02 2.52350E-14 2.81394E-13
 -1      1953 1.93191E+01 5.19801E-02 8.33225E-03-2.22493E-03 4.00565E-14 3.10258E-13
 -1      1954 1.95121E+01 8.06939E-02-2.83174E-03 4.37511E-02 5.81249E-14 2.39222E-13
 -1      1955 1.92877E+01 1.62003E-02 2.86159E-03-1.01949E-01-3.68672E-15 2.19946E-13
 -1      1956 1.92723E+01 2.50728E-02 4.34894E-03-7.73180E-02-1.87025E-15 2.55204E-13
 -1      1957 1.94333E+01 3.74711E-02-2.84830E-03-6.81724E-02 1.86426E-14 1.94322E-13
 -1      1958 1.93351E+01 4.55634E-03 1.98724E-03-1.24010E-01 6.34464E-15 2.36650E-13
 -1      1959 1.92966E+01 9.59331E-03 2.14416E-03-1.12585E-01-2.63182E-14 2.09487E-13
 -1      1960 1.94269E+01 1.36278E-02-2.31065E-03-1.23701E-01-1.79945E-14 1.40806E-13
 -1      1961 1.94066E+01-2.24649E-03 1.44333E-03-1.28168E-01 5.10496E-14 2.51312E-13
 -1      1962 1.93581E+01 5.05497E-04 9.45184E-04-1.24683E-01 5.11908E-14 2.55654E-13
 -1      1963 1.94615E+01 2.80434E-05-1.69028E-03-1.46190E-01 3.53395E-14 1.25540E-13
 -1      1964 1.94871E+01-6.03108E-03 1.06131E-03-1.21957E-01 4.37296E-14 2.41765E-13
 -1      1965 1.94362E+01-4.70348E-03 2.71567E-04-1.23204E-01 3.98902E-14 2.45050E-13
 -1      1966 1.95171E+01-7.59578E-03-1.16846E-03-1.49109E-01 4.95960E-14 1.83770E-13
 -1      1967 1.95674E+01-7.87016E-03 7.76350E-04-1.10143E-01-4.98431E-14 2.91293E-13
 -1      1968 1.95185E+01-7.44116E-03-1.11408E-04-1.14064E-01-5.54662E-15 2.82506E-13
 -1      1969 1.95810E+01-1.15151E-02-7.76183E-04-1.40742E-01-8.91117E-15 2.28440E-13
 -1      1970 1.96421E+01-8.44347E-03 5.61560E-04-9.58131E-02 6.76212E-14 2.70266E-13
 -1      1971 1.95977E+01-8.57532E-03-3.19257E-04-1.01056E-01 1.70164E-14 2.79025E-13
 -1      1972 1.96454E+01-1.30752E-02-4.95655E-04-1.26386E-01 2.73144E-14 2.11725E-13
 -1      1973 1.97086E+01-8.19972E-03 4.01975E-04-8.09742E-02 3.25714E-14 2.82521E-13
 -1      1974 1.96698E+01-8.66954E-03-4.15065E-04-8.66434E-02 4.92213E-14 2.82785E-13
 -1      1975 1.97058E+01-1.31266E-02-3.01171E-04-1.09493E-01 3.71395E-14 1.43432E-13
 -1      1976 1.97659E+01-7.43644E-03 2.87426E-04-6.69181E-02 1.02794E-13 2.37516E-13
 -1      1977 1.97330E+01-8.09787E-03-4.37572E-04-7.24251E-02 5.38961E-14 2.41657E-13
 -1      1978 1.97600E+01-1.22258E-02-1.71254E-04-9.23141E-02 8.85846E-14 1.89588E-13
 -1      1979 1.98145E+01-6.34458E-03 2.10639E-04-5.44677E-02 2.96390E-14 2.36446E-13
 -1      1980 1.97870E+01-7.10499E-03-4.11904E-04-5.94257E-02 5.41490E-14 2.72040E-13
 -1      1981 1.98072E+01-1.07347E-02-8.98813E-05-7.63055E-02 4.82271E-14 2.12745E-13
 -1      1982 1.98551E+01-5.03639E-03 1.66638E-04-4.41528E-02 4.61360E-14 2.01575E-13
 -1      1983 1.98324E+01-5.84195E-03-3.54370E-04-4.83021E-02 1.90421E-14 1.84705E-13
 -1      1984 1.98477E+01-8.87744E-03-4.56431E-05-6.24098E-02 5.93146E-14 1.40751E-13
 -1      1985 1.98895E+01-3.56444E-03 1.52468E-04-3.63399E-02 1.10148E-13 5.57172E-14
 -1      1986 1.98706E+01-4.38963E-03-2.75072E-04-3.94916E-02 9.18072E-14 1.15108E-13
 -1      1987 1.98822E+01-6.77595E-03-3.07049E-05-5.12559E-02 1.24682E-13 2.10742E-14
 -1      1988 1.99196E+01-1.93524E-03 1.66998E-04-3.13315E-02 1.52716E-13-3.48983E-14
 -1      1989 1.99033E+01-2.77525E-03-1.79598E-04-3.33238E-02 1.42010E-13 3.71623E-14
 -1      1990 1.99123E+01-4.47478E-03-4.00094E-05-4.33083E-02 1.85503E-13-4.90141E-14
 -1      1991 1.99477E+01-1.19386E-04 2.10734E-04-2.94415E-02 7.43331E-14 9.92328E-14
 -1      1992 1.99326E+01-9.84336E-04-7.02383E-05-3.01055E-02 1.40104E-13 2.11770E-14
 -1      1993 1.99398E+01-1.95886E-03-7.07438E-05-3.89810E-02 1.43368E-13 2.98712E-14
 -1      1994 1.99764E+01 1.94014E-03 2.85605E-04-3.10539E-02-1.39946E-13 2.17044E-14
 -1      1995 1.99612E+01 1.02993E-03 5.30726E-05-3.01866E-02-2.71467E-14 2.02116E-14
 -1      1996 1.99667E+01 8.32883E-04-1.21892E-04-3.87242E-02 1.29283E-14 1.13721E-13
 -1      1997 2.00089E+01 4.32008E-03 3.94659E-04-3.66651E-02-1.18460E-13-6.10272E-14
 -1      1998 1.99917E+01 3.33844E-03 1.91954E-04-3.40085E-02-1.17538E-13-7.33141E-14
 -1      1999 1.99957E+01 3.99571E-03-1.93860E-04-4.30889E-02-8.20976E-14-3.03152E-14
 -1      2000 2.00488E+01 7.10797E-03 5.41552E-04-4.69115E-02-6.76478E-14-2.02500E-14
 -1      2001 2.00275E+01 6.02758E-03 3.48780E-04-4.21384E-02-9.04739E-14-7.50378E-14
 -1      2002 2.00296E+01 7.64713E-03-2.88111E-04-5.27721E-02-6.04815E-14-1.04132E-13
 -1      2003 2.01000E+01 1.03900E-02 7.29685E-04-6.25759E-02 1.74235E-13-4.58515E-14
 -1      2004 2.00725E+01 9.18830E-03 5.25766E-04-5.52843E-02 5.52174E-14-1.14387E-14
 -1      2005 2.00719E+01 1.19122E-02-4.06767E-04-6.86381E-02 6.44263E-14-1.04351E-13
 -1      2006 2.01674E+01 1.42328E-02 9.60720E-04-8.45688E-02-1.35658E-14-9.65643E-15
 -1      2007 2.01309E+01 1.29005E-02 7.23784E-04-7.42876E-02 8.95517E-14-6.59333E-15
 -1      2008 2.01262E+01 1.69027E-02-5.52138E-04-9.17124E-02 6.85673E-14-1.34154E-14
 -1      2009 2.02564E+01 1.86547E-02 1.23211E-03-1.13866E-01-2.55146E-13 8.68537E-14
 -1      2010 2.02078E+01 1.72088E-02 9.40711E-04-1.00081E-01-1.31570E-13 8.85299E-14
 -1      2011 2.01972E+01 2.26847E-02-7.26133E-04-1.23132E-01-1.23716E-13 1.35092E-13
 -1      2012 2.03729E+01 2.35790E-02 1.53311E-03-1.51382E-01-1.71125E-13 1.95078E-13
 -1      2013 2.03089E+01 2.20831E-02 1.16907E-03-1.33590E-01-2.42640E-13 7.32257E-14
 -1      2014 2.02896E+01 2.92272E-02-9.29488E-04-1.64032E-01-2.27474E-13 1.65947E-13
 -1      2015 2.05235E+01 2.87595E-02 1.83862E-03-1.97740E-01-2.53484E-14 1.76342E-13
 -1      2016 2.04403E+01 2.73566E-02 1.39268E-03-1.75556E-01-1.32707E-13 1.15629E-13
 -1      2017 2.04089E+01 3.63191E-02-1.16074E-03-2.15333E-01-1.10738E-13 9.75935E-14
 -1      2018 2.07144E+01 3.36648E-02 2.10025E-03-2.52880E-01 1.15843E-13 3.69684E-13
 -1      2019 2.06084E+01 3.26262E-02 1.58217E-03-2.26220E-01 1.14866E-13 2.36061E-13
 -1      2020 2.05605E+01 4.34385E-02-1.41477E-03-2.77374E-01 1.09692E-13 2.03277E-13
 -1      2021 2.09511E+01 3.73044E-02 2.23474E-03-3.15425E-01 5.94943E-14 2.53611E-13
 -1      2022 2.08192E+01 3.71029E-02 1.68935E-03-2.84815E-01 9.74088E-14 3.59734E-13
 -1      2023 2.07496E+01 4.95526E-02-1.68067E-03-3.49313E-01 1.19000E-13 3.25595E-13
 -1      2024 2.12368E+01 3.79868E-02 2.11187E-03-3.81708E-01 7.78013E-15 2.43262E-13
 -1      2025 2.10774E+01 3.93935E-02 1.64180E-03-3.48758E-01 2.36274E-14 2.82724E-13
 -1      2026 2.09802E+01 5.28284E-02-1.93797E-03-4.28192E-01 5.63065E-14 3.21209E-13
 -1      2027 2.15700E+01 3.30283E-02 1.54891E-03-4.44351E-01 9.12248E-15 3.34757E-13
 -1      2028 2.13845E+01 3.72195E-02 1.34019E-03-4.12474E-01 8.15992E-15 2.85374E-13
 -1      2029 2.12538E+01 5.02565E-02-2.14969E-03-5.07560E-01 1.57016E-14 3.85345E-13
 -1      2030 2.19420E+01 1.85114E-02 3.27229E-04-4.90412E-01-1.38405E-13 1.93544E-13
 -1      2031 2.17364E+01 2.71271E-02 6.64716E-04-4.65776E-01-1.03289E-14 2.80952E-13
 -1      2032 2.15679E+01 3.72597E-02-2.24916E-03-5.75592E-01-1.29334E-14 3.68256E-13
 -1      2033 2.23321E+01-1.06236E-02-1.74133E-03-4.99372E-01 1.17709E-13 8.89393E-15
 -1      2034 2.21201E+01 4.38046E-03-5.00075E-04-4.91972E-01-9.12995E-14 7.49158E-14
 -1      2035 2.19128E+01 7.53702E-03-2.11669E-03-6.12863E-01-1.21168E-15 1.19445E-13
 -1      2036 2.27037E+01-5.95462E-02-4.66588E-03-4.41976E-01 1.89713E-13 2.26937E-13
 -1      2037 2.25091E+01-3.65038E-02-2.21283E-03-4.66320E-01 1.48900E-13 2.05037E-13
 -1      2038 2.22690E+01-4.62601E-02-1.54603E-03-5.90439E-01 8.19644E-14 5.55424E-14
 -1      2039 2.29996E+01-1.30551E-01-8.03953E-03-2.82199E-01-6.16330E-14 1.26941E-13
 -1      2040 2.28589E+01-9.97201E-02-4.39657E-03-3.56450E-01 9.35025E-14 3.02067E-13
 -1      2041 2.26036E+01-1.29896E-01-2.17497E-04-4.70061E-01 6.79691E-14 3.10774E-13
 -1      2042 2.31423E+01-2.17071E-01-1.07722E-02 1.36093E-02 2.03252E-13 8.14640E-14
 -1      2043 2.31029E+01-1.83494E-01-6.76189E-03-1.27870E-01 4.10661E-14 1.38405E-13
 -1      2044 2.28660E+01-2.41461E-01 2.26721E-03-2.09839E-01 9.99955E-14 2.03868E-13
 -1      2045 2.30406E+01-2.95194E-01-1.11433E-02 4.55435E-01 2.61046E-13 3.68312E-14
 -1      2046 2.31540E+01-2.72127E-01-8.70141E-03 2.41024E-01 2.33586E-13 1.56586E-13
 -1      2047 2.29877E+01-3.61172E-01 6.21163E-03 2.19431E-01 2.49485E-13 3.45218E-13
 -1      2048 2.26118E+01-3.19195E-01-7.98931E-03 9.95265E-01 2.53070E-14-5.00121E-14
 -1      2049 2.29168E+01-3.28276E-01-9.64421E-03 7.31169E-01 2.26468E-13 2.23901E-14
 -1      2050 2.28860E+01-4.40624E-01 1.11851E-02 8.02965E-01 2.42592E-13 3.37096E-13
 -1      2051 2.18240E+01-2.34205E-01-1.91182E-03 1.49634E+00 1.71590E-14-1.32550E-13
 -1      2052 2.23221E+01-2.96352E-01-8.86069E-03 1.24976E+00-7.48186E-14-1.85227E-13
 -1      2053 2.24865E+01-4.08131E-01 1.46884E-02 1.44127E+00-2.23944E-14 5.58841E-14
 -1      2054 2.07513E+01-1.71918E-02 3.16302E-03 1.74383E+00-1.91771E-13-1.13881E-13
 -1      2055 2.13830E+01-1.31121E-01-5.32162E-03 1.61951E+00-1.11680E-13-1.97689E-13
 -1      2056 2.17705E+01-2.02067E-01 1.36491E-02 1.93070E+00-9.41599E-14-3.75203E-14
 -1      2057 1.96164E+01 2.66499E-01 1.62490E-03 1.54536E+00-1.14024E-13 1.26692E-13
 -1      2058 2.02536E+01 1.44553E-01 6.06787E-04 1.63264E+00-1.31893E-13 1.05011E-13
 -1      2059 2.08387E+01 1.56789E-01 5.09982E-03 2.01441E+00-2.22199E-13-8.98240E-15
 -1      2060 1.87415E+01 4.72568E-01-5.54204E-03 8.93222E-01-7.54154E-14 6.25602E-14
 -1      2061 1.92234E+01 4.11248E-01 8.02495E-03 1.19002E+00-1.73930E-13 8.06456E-14
 -1      2062 1.99388E+01 5.23685E-01-7.78751E-03 1.54228E+00-6.48960E-14 1.35318E-13
 -1      2063 1.83877E+01 4.71217E-01-1.15006E-02 3.99172E-02-1.10866E-13 2.06083E-13
 -1      2064 1.85911E+01 5.12869E-01 1.34368E-02 4.22371E-01 2.65031E-14 1.26661E-13
 -1      2065 1.93647E+01 7.00242E-01-1.43800E-02 6.37495E-01-6.84158E-14 1.30300E-13
 -1      2066 1.85715E+01 2.76300E-01-7.89413E-03-6.38743E-01 3.47304E-13 2.58005E-14
 -1      2067 1.84843E+01 3.90399E-01 1.39700E-02-3.39395E-01 7.12555E-14 1.36417E-13
 -1      2068 1.92642E+01 5.84621E-01-8.55332E-03-3.10462E-01 2.06586E-13 5.66882E-14
 -1      2069 1.90596E+01 2.64199E-02 1.54165E-03-9.05913E-01 4.25414E-13 2.61093E-14
 -1      2070 1.87850E+01 1.39178E-01 8.72322E-03-7.88040E-01 4.54689E-13 1.23467E-13
 -1      2071 1.95234E+01 2.64083E-01 2.00677E-03-9.03772E-01 4.46152E-13 2.64042E-13
 -1      2072 1.95502E+01-1.30860E-01 1.02311E-02-7.96378E-01-1.31950E-13-4.29691E-14
 -1      2073 1.92349E+01-7.75329E-02 6.36024E-04-8.36819E-01 1.62387E-13 3.69305E-14
 -1      2074 1.98770E+01-5.48688E-02 6.32436E-03-1.00367E+00 1.81357E-13 4.35037E-13
 -1      2075 1.98583E+01-1.48958E-01 1.35507E-02-5.27632E-01 7.08318E-14 1.54320E-13
 -1      2076 1.96096E+01-1.58959E-01-4.87986E-03-6.29352E-01-7.12971E-15-2.63574E-14
 -1      2077 2.01071E+01-2.11328E-01 3.56756E-03-7.65970E-01 6.67695E-14 4.20659E-13
 -1      2078 1.99647E+01-8.58625E-02 1.14153E-02-3.06225E-01-1.93586E-13 3.19202E-13
 -1      2079 1.98198E+01-1.22021E-01-5.45210E-03-3.82747E-01-7.56895E-14 2.38904E-13
 -1      2080 2.01494E+01-1.95213E-01-1.34774E-03-4.59111E-01-9.71801E-14 5.45739E-13
 -1      2081 1.99906E+01-6.36901E-02 7.96322E-03-1.97533E-01-2.60880E-13 5.29739E-13
 -1      2082 1.99174E+01-8.04565E-02-4.46886E-03-2.49751E-01-2.20796E-13 4.46236E-13
 -1      2083 2.01135E+01-1.41773E-01-4.06694E-03-2.79208E-01-2.83124E-13 8.44839E-13
 -1      2084 2.00744E+01-8.82082E-02 1.35232E-02-1.99265E-01-1.72634E-13 9.01928E-13
 -1      2085 2.09027E+01 6.87786E-01 3.53667E-02 1.67634E+00 4.78797E-13 2.79254E-13
 -1      2086 2.08199E+01 1.81076E-01 4.66699E-03 1.19502E+00 4.01808E-13 1.07695E-13
 -1      2087 2.06895E+01 1.13837E-01 3.38138E-02 6.72208E-01 2.54287E-13-2.29917E-13
 -1      2088 2.05311E+01-1.16795E-01 1.40293E-03 3.34607E-01 3.71109E-14-1.66585E-13
 -1      2089 2.11211E+01-1.70701E-01-1.23685E-02 1.11892E+00 6.37624E-14-8.00488E-15
 -1      2090 2.03732E+01-7.85326E-02 2.53651E-02 5.94134E-02-6.74920E-14 1.88360E-13
 -1      2091 2.02138E+01-1.23680E-01 4.43602E-03-9.33699E-02-1.63635E-13 7.92314E-13
 -1      2092 2.02662E+01-1.40228E-01-9.34844E-04-1.23680E-01-3.32318E-13 7.85897E-13
 -1      2093 2.07226E+01-2.12078E-01 1.71424E-03 2.77064E-01-2.82579E-13 2.53010E-13
 -1      2094 2.07857E+01 1.73099E+00 1.43735E-02 2.75507E+00-2.74780E-14-4.16629E-13
 -1      2095 2.08960E+01 9.56795E-01 1.42065E-02 2.29776E+00 1.30299E-13 2.00600E-13
 -1      2096 2.13099E+01 1.77656E-01-1.98833E-02 2.38770E+00 1.92574E-13-3.96176E-14
 -1      2097 2.01809E+01 3.26161E+00-2.27875E-02 3.44766E+00-1.02366E-13 2.86658E-15
 -1      2098 2.05583E+01 2.30097E+00 2.46061E-02 3.24571E+00-7.44248E-14-3.11107E-13
 -1      2099 2.09466E+01 1.00331E+00-2.35296E-02 3.64747E+00-7.87825E-14-3.97482E-13
 -1      2100 1.91841E+01 4.98007E+00-5.41525E-02 3.12813E+00-3.59103E-13 2.55348E-13
 -1      2101 1.97254E+01 4.09270E+00 2.93297E-02 3.43658E+00-2.74517E-13 3.59952E-13
 -1      2102 1.98798E+01 2.37690E+00-5.51414E-03 4.24067E+00-3.18863E-13 1.64296E-14
 -1      2103 1.83154E+01 6.27907E+00-5.13193E-02 1.54065E+00-2.85397E-14 2.17090E-13
 -1      2104 1.87011E+01 5.76536E+00 1.12858E-02 2.38029E+00-2.62484E-13 2.87638E-13
 -1      2105 1.84485E+01 3.97769E+00 4.53774E-02 3.43504E+00-4.51705E-13 2.92988E-13
 -1      2106 1.82069E+01 6.49013E+00-1.53109E-02-7.70687E-01 2.23132E-13 1.89834E-13
 -1      2107 1.81435E+01 6.55336E+00-2.61262E-02 2.56157E-01 1.90235E-13 2.59924E-13
 -1      2108 1.74572E+01 5.03886E+00 8.94334E-02 1.12875E+00-2.50965E-13 4.42962E-13
 -1      2109 1.89474E+01 5.45425E+00 1.77835E-02-2.68703E+00 5.46056E-14 8.48661E-14
 -1      2110 1.84886E+01 6.06307E+00-5.54205E-02-1.96698E+00 6.23312E-14 1.14478E-13
 -1      2111 1.76209E+01 4.88577E+00 8.30875E-02-1.72043E+00 5.38220E-14-3.26371E-14
 -1      2112 1.99588E+01 3.75369E+00 2.86234E-02-3.40435E+00 5.45630E-13-2.11017E-13
 -1      2113 1.94465E+01 4.64531E+00-4.82177E-02-3.23836E+00 3.16896E-13 1.28057E-14
 -1      2114 1.88044E+01 3.64647E+00 3.23849E-02-3.68336E+00 2.09903E-13 1.73361E-13
 -1      2115 2.06741E+01 2.07515E+00 2.16152E-02-2.97991E+00 7.41384E-13 1.81457E-13
 -1      2116 2.03678E+01 2.98604E+00-1.30435E-02-3.26592E+00 8.24472E-13-1.11322E-14
 -1      2117 2.01856E+01 2.08742E+00-1.29768E-02-4.09587E+00 8.84411E-13 5.40739E-14
 -1      2118 2.08762E+01 8.94799E-01 1.04054E-02-1.96408E+00 4.90589E-13 1.07567E-13
 -1      2119 2.08320E+01 1.59823E+00 2.09834E-02-2.43764E+00 6.66031E-13 7.90566E-14
 -1      2120 2.10705E+01 8.69382E-01-2.34309E-02-3.28299E+00 7.65914E-13 4.55829E-14
 -1      2121 2.06953E+01 2.76428E-01 3.39356E-03-9.29532E-01 1.78571E-13-2.46973E-13
 -1      2122 2.08199E+01 6.91727E-01 3.30051E-02-1.37140E+00 2.42570E-13 3.80303E-14
 -1      2123 2.12444E+01 1.98936E-01-1.85467E-02-2.00453E+00 3.20761E-13-1.42362E-13
 -1      2124 1.21855E+01-6.23732E+00-1.59053E-01 7.68632E+00 7.97917E-13-2.69854E-14
 -1      2125 8.39641E+00-7.72829E+00-3.63789E-01 6.59809E+00 7.01994E-13 1.20598E-13
 -1      2126 1.04015E+00-7.65412E+00-3.76644E-01 1.15599E+00 7.56728E-13 1.71990E-12
 -1      2127 1.05870E+00-7.33585E+00-3.32190E-01-1.07094E+00 4.38177E-13 1.37129E-12
 -1      2128 4.04716E+00-7.55175E+00-3.57044E-01 5.13859E+00 6.72962E-13 5.48728E-13
 -1      2129 1.74294E+00-8.71075E+00-5.26474E-01 3.19503E+00 5.43565E-13 1.17539E-12
 -1      2130 2.01712E+01-3.95332E+00-1.33583E-02 8.16581E+00 8.18678E-13-3.15414E-13
 -1      2131 1.53605E+01-6.24021E+00-3.60650E-01 7.30325E+00 9.24261E-13-1.87128E-13
 -1      2132 1.65497E+01-6.62025E+00-7.31648E-02 8.28416E+00 2.62179E-13-4.12319E-13
 -1      2133 2.99292E+01-1.04899E+00 1.41557E-01 6.75576E+00 3.68039E-13-2.95319E-14
 -1      2134 2.47534E+01-3.08214E+00-1.47884E-01 6.79852E+00 6.84175E-13-6.76126E-14
 -1      2135 1.95182E+01 4.01574E+00-2.70725E-02-1.70222E+00-7.70881E-14-1.67682E-13
 -1      2136 1.96467E+01 3.94572E+00-2.47443E-02-1.95349E+00-1.01285E-13-1.40121E-13
 -1      2137 1.99729E+01 3.24677E+00-1.37005E-02-1.91811E+00-1.15724E-13-1.13754E-13
 -1      2138 1.96972E+01 3.58543E+00-7.07110E-03-1.52047E+00-6.80614E-14-1.55813E-13
 -1      2139 4.23056E+01 6.37196E+00 4.68005E-01 3.09304E+00 2.95763E-13 2.53353E-13
 -1      2140 3.92152E+01 5.27801E+00 2.23162E-01 4.02205E+00 1.45856E-13 3.85914E-13
 -1      2141 4.31597E+01 7.68313E+00 3.26954E-01 9.90741E-01 5.37015E-13 8.95325E-14
 -1      2142 4.29157E+01 7.49487E+00 4.19901E-01 2.35334E+00 4.36207E-13 1.54321E-13
 -1      2143 3.95382E+01 7.05807E+00 9.63092E-02 1.19317E-03 5.48173E-13 3.87468E-14
 -1      2144 4.22120E+01 7.66707E+00 3.85810E-01 6.90390E-01 6.90226E-13 8.35443E-14
 -1      2145 3.63016E+01 3.19181E+00 1.05809E-01-2.23284E+00 4.92481E-13-1.50990E-13
 -1      2146 3.85045E+01 4.65875E+00 9.27286E-02-6.27111E-01 4.70624E-13-2.81997E-14
 -1      2147 3.02640E+01-1.98763E-01-9.09395E-02-4.05891E+00 4.14557E-13-1.42109E-13
 -1      2148 3.49170E+01 1.52968E+00 1.97370E-01-3.63898E+00 4.53887E-13-8.22675E-14
 -1      2149 3.42249E+01 1.47240E+00 2.33535E-01 6.46977E-02 3.44919E-13 7.08322E-14
 -1      2150 2.21696E+01-4.02348E+00-2.19516E-01-5.57996E+00 4.97435E-13-2.82385E-13
 -1      2151 2.72377E+01-1.95514E+00 1.43569E-01-5.76495E+00 4.18166E-13-1.51879E-13
 -1      2152 1.49737E+01-6.46518E+00-1.01865E-01-6.41509E+00 3.37452E-13-4.21677E-13
 -1      2153 1.90164E+01-4.64874E+00 4.90038E-02-6.75779E+00 5.23359E-13-1.87850E-13
 -1      2154 2.32633E+01-6.00329E+00-2.96666E-02-5.40027E+00 2.41862E-13-7.06102E-14
 -1      2155 5.06398E+00-8.46284E+00-4.82372E-01-4.66063E+00 1.01030E-13-5.56694E-13
 -1      2156 9.03335E+00-6.75097E+00-2.05591E-01-6.23360E+00 1.25011E-13-5.69197E-13
 -1      2157 1.04540E+00-8.34017E+00-3.44002E-01-2.43735E+00 2.87548E-14-6.05405E-13
 -1      2158 2.67641E+00-8.07468E+00-3.30157E-01-3.80863E+00 1.23956E-13-6.45095E-13
 -1      2159 5.78014E+00-6.33021E+00-1.10459E-01-5.38519E+00-2.67564E-14-5.89528E-13
 -1      2160 2.10708E-01-8.12902E+00-3.22539E-01 1.13745E+00-9.52571E-14-6.85174E-13
 -1      2161-4.93706E-02-8.48439E+00-3.74723E-01-5.55599E-01 6.39766E-15-5.08926E-13
 -1      2162 4.05330E+00-8.00618E+00-3.09316E-01 4.28309E+00-4.20886E-13-4.31849E-13
 -1      2163 2.05821E+00-8.19765E+00-3.14191E-01 3.15479E+00-1.39222E-13-6.00853E-13
 -1      2164 1.03934E+01-6.56074E+00-1.67943E-01 6.14008E+00-4.64295E-13-7.08107E-13
 -1      2165 6.63386E+00-8.28603E+00-4.32042E-01 4.87478E+00-4.65517E-13-5.14255E-13
 -1      2166 7.50552E+00-6.79447E+00-1.41919E-01 5.81015E+00-2.12164E-13-4.65739E-13
 -1      2167 2.00163E+01-4.60000E+00 2.08293E-02 6.44261E+00-4.88054E-13-2.59071E-13
 -1      2168 1.53687E+01-6.57007E+00-2.83197E-01 5.83861E+00-3.30180E-13-4.76480E-13
 -1      2169 2.86789E+01-1.32047E+00 1.78784E-01 5.45122E+00-5.39013E-13-3.63931E-13
 -1      2170 2.33159E+01-3.45374E+00-2.08126E-01 5.26465E+00-6.38656E-13-2.57572E-13
 -1      2171 3.65326E+01 2.28005E+00 3.23820E-01 3.49517E+00-2.51292E-13-2.54685E-13
 -1      2172 3.16809E+01 4.87544E-01-1.87497E-02 3.97863E+00-3.30097E-13-4.27214E-13
 -1      2173 4.17099E+01 5.44014E+00 3.84907E-01 1.11150E+00-5.79203E-13-5.81757E-14
 -1      2174 3.84152E+01 4.26806E+00 1.86594E-01 2.15559E+00-4.55053E-13-7.56062E-14
 -1      2175 4.21835E+01 7.63449E+00 2.83657E-01-1.07261E+00-8.23785E-13 2.96152E-13
 -1      2176 4.19924E+01 6.90756E+00 3.51282E-01 1.79492E-01-7.57838E-13 4.25771E-14
 -1      2177 4.21620E+01 7.23163E+00 3.98489E-01-2.46756E+00-5.77871E-13 1.22180E-13
 -1      2178 4.22081E+01 7.72522E+00 2.90605E-01-1.27366E+00-7.76823E-13 1.19044E-13
 -1      2179 3.89969E+01 4.97862E+00 2.58418E-01-4.33491E+00-8.84570E-13 3.65041E-13
 -1      2180 4.21184E+01 6.00482E+00 4.47145E-01-3.43684E+00-6.58917E-13 1.34559E-13
 -1      2181 3.25889E+01 1.06255E+00 3.20123E-02-5.55220E+00-1.12937E-12 5.05151E-13
 -1      2182 3.71665E+01 2.96136E+00 3.92204E-01-5.26288E+00-9.21138E-13 2.85771E-13
 -1      2183 2.47784E+01-3.18323E+00-1.54878E-01-6.76456E+00-1.01807E-12 7.07434E-13
 -1      2184 2.98596E+01-9.38430E-01 2.06245E-01-6.96722E+00-1.14919E-12 5.35905E-13
 -1      2185 1.52007E+01-6.13775E+00-3.97191E-01-7.14471E+00-9.44800E-13 1.19238E-12
 -1      2186 2.01571E+01-3.80495E+00-2.55823E-02-8.10994E+00-1.02007E-12 1.13853E-12
 -1      2187 7.36949E+00-8.33810E+00-5.21364E-01-6.02545E+00-5.46452E-13 1.50298E-12
 -1      2188 1.11894E+01-6.42458E+00-2.22452E-01-7.37022E+00-8.59868E-13 1.46892E-12
 -1      2189 2.10901E+00-8.34493E+00-4.62877E-01-3.52960E+00 1.86795E-13 1.16285E-12
 -1      2190 4.35382E+00-7.96396E+00-4.04081E-01-5.11911E+00-3.77365E-13 1.43419E-12
 -1      2191 3.76676E+01 3.38074E+00 4.06337E-01 4.81087E+00 3.96783E-14 3.62599E-13
 -1      2192 3.30644E+01 1.23620E+00 1.30180E-02 4.83791E+00 1.63480E-13 2.98428E-13
 -1      2193 2.47950E+01-5.25736E+00 8.95384E-02 6.99554E+00 4.09284E-13-6.64468E-13
 -1      2194 2.07373E+01 1.10862E+00-2.06919E-02-1.61554E+00-1.33712E-13 8.77961E-14
 -1      2195 3.65115E+01 3.68018E+00 2.79929E-01 1.54155E+00 6.74460E-15 8.88734E-14
 -1      2196 2.06276E+01 1.33055E+00-1.85136E-02-1.67748E+00-1.36264E-13 2.45949E-14
 -1      2197 8.37945E+00-6.34278E+00-1.71479E-01 7.03088E+00 1.57263E-13 3.10141E-13
 -1      2198 3.07059E+00-5.14703E+00-1.97968E-01 2.65826E+00 2.74752E-13 1.28542E-12
 -1      2199 2.06945E+01 1.24482E-01 9.55739E-03-7.05980E-01 1.16019E-13-2.83159E-13
 -1      2200 3.33484E+00-5.18305E+00-1.86711E-01-2.75622E+00 2.40447E-13 1.51945E-12
 -1      2201 3.22419E+01-1.55437E+00 1.59150E-01 3.82830E+00 1.00725E-13-6.25611E-14
 -1      2202 8.03349E+00-6.67160E+00-2.36811E-01-6.87741E+00-3.97904E-13 1.72681E-12
 -1      2203 1.58432E+01-6.74000E+00-1.31583E-01-8.10324E+00-6.08069E-13 9.96037E-13
 -1      2204 2.50169E+01-5.13851E+00 6.20359E-02-6.97349E+00-5.43177E-13 4.01901E-13
 -1      2205 3.20754E+01-1.86445E+00 1.66871E-01-3.98266E+00-8.10102E-13-7.77156E-14
 -1      2206 3.65867E+01 3.08826E+00 3.13479E-01-2.07668E+00-8.92286E-13-4.17444E-14
 -1      2207 3.82339E+01 7.06195E+00 3.77316E-01-1.05689E+00-6.65523E-13 7.71050E-14
 -1      2208 3.79838E+01 8.43620E+00 2.91981E-01-1.10074E+00-7.63445E-13 3.04534E-13
 -1      2209 3.78151E+01 6.77345E+00 3.37546E-01-1.17800E+00-6.78513E-13 6.88338E-14
 -1      2210 3.59718E+01 2.68881E+00 2.92032E-01 1.03979E-01-3.44585E-13 1.26843E-13
 -1      2211 3.09855E+01-2.11553E+00 1.28418E-01 2.48137E+00-3.67539E-13-9.94760E-14
 -1      2212 1.55772E+01-6.99633E+00-3.80886E-02 6.58551E+00-1.42109E-13-3.58274E-13
 -1      2213 1.75884E+00-6.02367E+00-1.61945E-01-1.94218E+00-3.66374E-15-5.84199E-13
 -1      2214 1.35762E+01-6.60536E+00-5.01706E-02-6.67931E+00-7.24976E-14-6.75751E-13
 -1      2215 1.77946E+01-6.74288E+00-1.05424E-01-6.66583E+00-1.17045E-13-3.47097E-13
 -1      2216 1.26659E+01-6.07381E+00 1.49424E-01-6.97632E+00-2.87825E-13-5.19085E-13
 -1      2217 3.00507E+01-2.89751E+00 1.10110E-01-2.71369E+00 3.06644E-13 2.76446E-14
 -1      2218 3.62199E+01 5.91981E+00 1.81138E-01 1.32315E+00 5.41567E-13-5.88418E-14
 -1      2219 3.87343E+01 7.51253E+00 4.02719E-01 1.00821E+00 3.53384E-13 9.81715E-14
 -1      2220 3.78171E+01 8.68535E+00 2.82003E-01 1.12355E+00 5.74318E-13 4.07278E-14
 -1      2221 2.45841E+00-6.21011E+00-1.53480E-01 2.70754E+00-1.19793E-13-6.29108E-13
 -1      2222 2.41344E+01-5.73427E+00 2.14960E-03 4.88045E+00-2.78000E-13-8.34888E-14
 -1      2223 2.01492E+01 5.06443E-01 3.73217E-03 6.77519E-01 1.36233E-13 2.40621E-13
 -1      2224 2.04170E+01 6.99994E-01 2.07906E-02 9.69134E-01 1.51152E-13 2.49890E-13
 -1      2225 1.95591E+01 3.51635E+00-1.10802E-02-5.91364E-01 1.46672E-14-1.31202E-13
 -1      2226 1.95947E+01 3.47051E+00-1.04220E-02-7.75666E-01-7.35089E-15-1.52511E-13
 -1      2227 1.96414E+01 3.38251E+00-1.26409E-02-9.40002E-01-1.86523E-14-1.65202E-13
 -1      2228 1.97032E+01 3.30143E+00-1.24983E-02-1.12927E+00-3.72330E-14-1.58348E-13
 -1      2229 1.97861E+01 3.03360E+00 3.29825E-04-7.92170E-01-1.19876E-14-1.38244E-13
 -1      2230 1.95116E+01 3.59881E+00-9.61143E-03 9.94468E-02 8.80868E-14-1.08689E-13
 -1      2231 1.95109E+01 3.59962E+00-9.62567E-03-8.00168E-02 6.01318E-14-1.16496E-13
 -1      2232 1.95378E+01 3.55937E+00-9.72189E-03 4.45472E-01 1.07940E-13-1.18176E-13
 -1      2233 1.95203E+01 3.58193E+00-1.01396E-02 2.64642E-01 9.31385E-14-1.16872E-13
 -1      2234 1.96777E+01 3.22153E+00-9.02932E-04 1.69562E-01 8.32956E-14-1.03341E-13
 -1      2235 1.95998E+01 3.46284E+00-1.06146E-02 7.89395E-01 1.33831E-13-9.35467E-14
 -1      2236 1.95634E+01 3.50985E+00-1.12141E-02 6.07984E-01 1.20951E-13-1.12248E-13
 -1      2237 1.97146E+01 3.15796E+00-5.15331E-04 4.87992E-01 9.98973E-14-1.06261E-13
 -1      2238 1.97109E+01 3.28904E+00-1.29548E-02 1.14271E+00 1.74311E-13-2.04246E-14
 -1      2239 1.96480E+01 3.37238E+00-1.28895E-02 9.53442E-01 1.44511E-13-5.82746E-14
 -1      2240 1.97919E+01 3.02427E+00 2.36080E-04 8.03593E-01 1.35187E-13-6.36474E-14
 -1      2241 1.98906E+01 3.00344E+00-1.81722E-02 1.48982E+00 2.00930E-13 2.31395E-14
 -1      2242 1.97909E+01 3.14473E+00-1.51824E-02 1.29938E+00 1.74887E-13-6.41848E-16
 -1      2243 1.99216E+01 2.79908E+00 1.93107E-03 1.10985E+00 1.70682E-13-3.35582E-15
 -1      2244 2.01694E+01 2.54395E+00-2.83899E-02 1.79413E+00 2.11392E-13 9.08440E-14
 -1      2245 2.00180E+01 2.78331E+00-1.70896E-02 1.61968E+00 2.04145E-13 5.51347E-14
 -1      2246 2.01168E+01 2.44852E+00 5.86486E-03 1.37568E+00 1.86629E-13 4.16108E-14
 -1      2247 1.98722E+01 2.68217E-01 4.73199E-03 2.85020E-01 1.07496E-13 2.12641E-13
 -1      2248 2.00328E+01 3.67955E-01 2.01576E-02 4.42151E-01 1.25290E-13 2.28565E-13
 -1      2249 2.02116E+01 6.34619E-01-2.22639E-03 7.04352E-01 1.44057E-13 1.56416E-13
 -1      2250 2.03995E+01 8.57039E-01 1.29076E-02-1.00061E+00-1.03553E-13 3.78972E-15
 -1      2251 2.01883E+01 6.25895E-01-5.51713E-03-6.87017E-01-1.01267E-13 2.14976E-15
 -1      2252 3.41913E+01 3.81097E+00-1.15959E-01 2.95592E-02 1.48714E-13 7.54119E-14
 -1      2253 3.29739E+01 1.67703E+00-1.06405E-01 2.31235E-01-6.73628E-14 1.21680E-13
 -1      2254 2.01307E+01 4.70355E-01 1.78877E-02-4.78943E-01-9.57515E-14 1.45604E-14
 -1      2255 1.99838E+01 3.47273E-01 4.77036E-04-3.03531E-01-6.67253E-14 1.64985E-14
 -1      2256 2.02397E+01 7.25629E-01-9.51735E-03-6.90099E-01-1.00939E-13-2.39944E-14
 -1      2257 1.99215E+01 2.59475E-01 1.09904E-02-1.65627E-01-5.76676E-14 3.24300E-14
 -1      2258 1.98423E+01 1.87850E-01 7.35614E-04-6.84959E-02-4.79521E-14 1.69970E-14
 -1      2259 2.00790E+01 4.18154E-01-3.73844E-03-3.08951E-01-6.91335E-14 5.56499E-15
 -1      2260 1.97978E+01 1.38308E-01 6.40766E-03 1.33804E-02-4.22415E-14 1.24759E-14
 -1      2261 1.97626E+01 9.59606E-02 7.24430E-04 6.65741E-02-3.96102E-14-1.21245E-15
 -1      2262 1.99601E+01 2.26927E-01-3.58939E-03-7.12873E-02-5.77341E-14 1.73839E-14
 -1      2263 1.97367E+01 6.60385E-02 3.58857E-03 1.12175E-01-2.57978E-14-4.89157E-15
 -1      2264 1.97292E+01 4.04578E-02 6.13025E-04 1.38601E-01-2.20264E-14 4.61180E-15
 -1      2265 1.98842E+01 1.14512E-01-2.90845E-03 6.92062E-02-4.00767E-14 5.16953E-15
 -1      2266 1.97175E+01 2.21556E-02 1.85763E-03 1.60675E-01-4.29149E-14-1.81487E-14
 -1      2267 1.97264E+01 6.84770E-03 4.86297E-04 1.70627E-01-2.26589E-14-2.96005E-14
 -1      2268 1.98444E+01 4.62441E-02-2.11112E-03 1.45107E-01-4.84248E-14-1.80642E-15
 -1      2269 1.97243E+01-4.12198E-03 7.93811E-04 1.77794E-01-3.54260E-14-6.76766E-14
 -1      2270 1.97422E+01-1.28712E-02 3.67408E-04 1.77763E-01-8.78480E-14-9.48580E-14
 -1      2271 1.98300E+01 5.00834E-03-1.42743E-03 1.79286E-01-6.39345E-14-1.14785E-13
 -1      2272 1.97461E+01-1.90538E-02 1.43697E-04 1.75823E-01-1.28685E-13-1.12838E-13
 -1      2273 1.97680E+01-2.35232E-02 2.68635E-04 1.70038E-01-1.48690E-13-1.27818E-13
 -1      2274 1.98321E+01-1.89781E-02-9.08915E-04 1.87217E-01-1.32020E-13-1.65024E-13
 -1      2275 1.97753E+01-2.65338E-02-2.39243E-04 1.62917E-01-1.32994E-13-1.17870E-13
 -1      2276 1.97981E+01-2.81960E-02 1.95393E-04 1.54175E-01-1.08256E-13-1.28870E-13
 -1      2277 1.98441E+01-3.16870E-02-5.40530E-04 1.79383E-01-1.48665E-13-1.70347E-13
 -1      2278 1.98070E+01-2.91039E-02-4.46129E-04 1.44529E-01-6.16976E-14-1.03779E-13
 -1      2279 1.98288E+01-2.89368E-02 1.48223E-04 1.34691E-01-2.32490E-14-1.01641E-13
 -1      2280 1.98613E+01-3.69616E-02-2.91549E-04 1.62911E-01-7.70698E-14-1.02265E-13
 -1      2281 1.98382E+01-2.84612E-02-5.37349E-04 1.24307E-01-2.39039E-16-1.17444E-13
 -1      2282 1.98582E+01-2.71148E-02 1.25905E-04 1.14604E-01 8.68156E-15-8.85001E-14
 -1      2283 1.98805E+01-3.73512E-02-1.32940E-04 1.42631E-01-2.03881E-14-4.71940E-14
 -1      2284 1.98673E+01-2.57333E-02-5.54238E-04 1.04679E-01 2.30894E-14-1.04485E-13
 -1      2285 1.98851E+01-2.36260E-02 1.27429E-04 9.59233E-02-9.17498E-15-8.69799E-14
 -1      2286 1.99000E+01-3.45530E-02-4.14058E-05 1.21800E-01 3.69509E-14-3.31148E-14
 -1      2287 1.98938E+01-2.16407E-02-5.25355E-04 8.72606E-02-5.49682E-14-5.51765E-14
 -1      2288 1.99096E+01-1.90205E-02 1.52853E-04 8.00011E-02-4.80630E-14-2.31505E-14
 -1      2289 1.99187E+01-2.96668E-02 5.60273E-07 1.02610E-01-7.93539E-15-5.56980E-14
 -1      2290 1.99177E+01-1.66013E-02-4.70314E-04 7.31607E-02-4.37472E-14-2.16190E-14
 -1      2291 1.99318E+01-1.35874E-02 2.03573E-04 6.77927E-02-3.45647E-14 1.57421E-14
 -1      2292 1.99364E+01-2.33541E-02 5.57434E-06 8.65626E-02-3.06308E-14 1.26046E-14
 -1      2293 1.99397E+01-1.08036E-02-4.02385E-04 6.32031E-02-4.14061E-14-2.22534E-14
 -1      2294 1.99528E+01-7.41575E-03 2.82393E-04 6.00548E-02-3.63077E-14-7.66878E-15
 -1      2295 1.99531E+01-1.59459E-02-1.75348E-05 7.47489E-02-8.89550E-14 2.74255E-14
 -1      2296 1.99606E+01-4.25735E-03-3.30383E-04 5.80985E-02-2.30151E-14-3.15825E-14
 -1      2297 1.99735E+01-4.37010E-04 3.93478E-04 5.74966E-02-1.92709E-14 2.76807E-14
 -1      2298 1.99695E+01-7.51838E-03-6.27764E-05 6.80603E-02-1.71793E-14-5.20174E-15
 -1      2299 1.99817E+01 3.16788E-03-2.60043E-04 5.85772E-02-6.93446E-14 5.52984E-14
 -1      2300 1.99955E+01 7.54124E-03 5.42149E-04 6.08987E-02-6.24008E-14 5.99879E-14
 -1      2301 1.99864E+01 2.05130E-03-1.26275E-04 6.73524E-02 9.22944E-15-3.45492E-14
 -1      2302 2.00048E+01 1.17129E-02-1.95035E-04 6.54913E-02-4.99487E-14 4.57950E-14
 -1      2303 2.00206E+01 1.68076E-02 7.34574E-04 7.12023E-02-4.72901E-14 5.33072E-15
 -1      2304 2.00047E+01 1.30424E-02-2.05531E-04 7.35695E-02-7.57811E-14 2.54019E-14
 -1      2305 2.00315E+01 2.17016E-02-1.37761E-04 7.98908E-02-1.52746E-14-9.50195E-15
 -1      2306 2.00509E+01 2.77197E-02 9.77245E-04 8.95743E-02 4.20540E-14-8.59616E-14
 -1      2307 2.00258E+01 2.58525E-02-2.98679E-04 8.78384E-02-1.54576E-14-5.96231E-14
 -1      2308 2.00642E+01 3.35122E-02-8.99658E-05 1.03075E-01 1.05462E-13-7.01618E-14
 -1      2309 2.00887E+01 4.06712E-02 1.27611E-03 1.17444E-01 1.14377E-13 9.12140E-15
 -1      2310 2.00513E+01 4.09596E-02-4.03796E-04 1.11531E-01 6.97922E-14-5.95392E-14
 -1      2311 2.01054E+01 4.75389E-02-5.31337E-05 1.36611E-01 3.12872E-14 8.05364E-15
 -1      2312 2.01368E+01 5.60455E-02 1.63512E-03 1.56509E-01 5.53821E-14 5.91208E-14
 -1      2313 2.00828E+01 5.88728E-02-5.18231E-04 1.46292E-01 1.11275E-13 6.53418E-14
 -1      2314 2.01578E+01 6.41341E-02-2.85818E-05 1.82317E-01 6.79158E-14-2.77297E-14
 -1      2315 2.01984E+01 7.41402E-02 2.05380E-03 2.08683E-01 4.35042E-14-4.69045E-14
 -1      2316 2.01223E+01 8.00615E-02-6.38019E-04 1.94029E-01-4.89570E-15-5.99466E-14
 -1      2317 2.02248E+01 8.35125E-02-1.70682E-05 2.42180E-01 1.46915E-14-1.10807E-13
 -1      2318 2.02769E+01 9.50409E-02 2.52344E-03 2.75977E-01-1.56261E-14-3.23175E-14
 -1      2319 2.01720E+01 1.04839E-01-7.57556E-04 2.56835E-01 6.60398E-15-1.85300E-13
 -1      2320 2.03098E+01 1.05589E-01-1.75129E-05 3.18176E-01-3.09680E-14-3.11846E-14
 -1      2321 2.03759E+01 1.18407E-01 3.02104E-03 3.60252E-01-2.12841E-14-1.47104E-14
 -1      2322 2.02341E+01 1.33170E-01-8.70032E-04 3.36823E-01-2.46652E-14-1.34013E-13
 -1      2323 2.04165E+01 1.29702E-01-2.41217E-05 4.11942E-01 1.12985E-15 1.16930E-14
 -1      2324 2.04993E+01 1.43111E-01 3.50024E-03 4.62767E-01 4.78648E-14 1.15568E-13
 -1      2325 2.03110E+01 1.64341E-01-9.69489E-04 4.35818E-01-3.05731E-15-7.66709E-14
 -1      2326 2.05490E+01 1.54160E-01-2.07678E-05 5.24198E-01 1.49055E-14 1.39783E-14
 -1      2327 2.06507E+01 1.66649E-01 3.87815E-03 5.83430E-01-3.39889E-14-6.79553E-14
 -1      2328 2.04052E+01 1.96427E-01-1.05607E-03 5.54835E-01-3.76727E-14-5.93604E-14
 -1      2329 2.07111E+01 1.75505E-01 2.89656E-05 6.53791E-01-2.73640E-14-4.28496E-14
 -1      2330 2.08337E+01 1.84218E-01 4.01773E-03 7.19564E-01 4.35338E-14-3.71476E-14
 -1      2331 2.05195E+01 2.25419E-01-1.14685E-03 6.93224E-01 1.18750E-14-1.74016E-13
 -1      2332 2.09071E+01 1.87385E-01 1.97706E-04 7.96166E-01 7.48335E-14-9.43270E-14
 -1      2333 2.10515E+01 1.87351E-01 3.70678E-03 8.63990E-01 6.78357E-14 4.12769E-14
 -1      2334 2.06570E+01 2.43902E-01-1.29506E-03 8.47345E-01 7.22267E-14-1.77234E-14
 -1      2335 2.11416E+01 1.78995E-01 6.16038E-04 9.41036E-01-1.74148E-14 1.05881E-13
 -1      2336 2.13072E+01 1.62168E-01 2.63800E-03 1.00220E+00 1.59632E-13 1.95219E-13
 -1      2337 2.08226E+01 2.39180E-01-1.61927E-03 1.00856E+00 9.11214E-14 7.16642E-14
 -1      2338 2.14204E+01 1.33258E-01 1.49336E-03 1.06900E+00 1.91480E-13 6.80514E-14
 -1      2339 2.16045E+01 8.77130E-02 4.02544E-04 1.10852E+00 7.53300E-14 1.26377E-13
 -1      2340 2.10241E+01 1.91027E-01-2.33642E-03 1.16033E+00 4.45843E-14 1.35002E-13
 -1      2341 2.17516E+01 2.56741E-02 3.11301E-03 1.14706E+00 3.30102E-14 9.65794E-14
 -1      2342 2.19485E+01-6.40197E-02-3.47578E-03 1.14156E+00 3.52772E-14 1.54513E-13
 -1      2343 2.12751E+01 6.99602E-02-3.76908E-03 1.27425E+00 3.25587E-14-1.34543E-14
 -1      2344 2.21464E+01-1.73634E-01 5.72844E-03 1.12371E+00-6.02914E-14 1.69704E-13
 -1      2345 2.23457E+01-3.22458E-01-9.42407E-03 1.04052E+00-8.81335E-14 1.18283E-13
 -1      2346 2.15987E+01-1.61323E-01-6.24868E-03 1.30500E+00-6.31031E-14 4.79825E-15
 -1      2347 2.26154E+01-4.89226E-01 9.16800E-03 9.25802E-01-4.53691E-14 1.22227E-13
 -1      2348 2.27994E+01-6.99533E-01-1.72749E-02 7.26399E-01 4.88021E-14 1.10698E-13
 -1      2349 2.20286E+01-5.37365E-01-9.78618E-03 1.18529E+00-6.64233E-14 1.37356E-13
 -1      2350 2.31552E+01-9.11607E-01 1.22734E-02 4.65144E-01 1.30108E-13 1.05246E-13
 -1      2351 2.32937E+01-1.14953E+00-2.54198E-02 1.18903E-01 1.58681E-13 2.63333E-13
 -1      2352 2.26011E+01-1.05885E+00-1.31048E-02 8.24593E-01 9.76114E-14 2.53907E-13
 -1      2353 2.37179E+01-1.34720E+00 1.15223E-02-3.31264E-01 1.03030E-13 3.32766E-13
 -1      2354 2.37645E+01-1.50807E+00-2.89536E-02-8.17218E-01 3.65472E-14 3.72107E-13
 -1      2355 2.33259E+01-1.63475E+00-1.30307E-02 1.25481E-01 1.82928E-13 3.72708E-13
 -1      2356 2.41605E+01-1.55483E+00 3.42315E-04-1.43910E+00 2.37414E-14 3.75374E-13
 -1      2357 2.40633E+01-1.45773E+00-2.12570E-02-1.96783E+00-4.01849E-15 3.13084E-13
 -1      2358 2.41219E+01-1.99745E+00-4.92937E-03-9.60763E-01 2.70643E-14 2.86920E-13
 -1      2359 2.42475E+01-1.17625E+00-2.66109E-02-2.59424E+00 2.25252E-14 3.09588E-13
 -1      2360 2.39826E+01-6.67052E-01-2.53474E-03-2.94515E+00 4.94630E-14 3.73221E-13
 -1      2361 2.47461E+01-1.70780E+00 5.56731E-03-2.28235E+00-5.09662E-15 3.45902E-13
 -1      2362 2.38084E+01 1.07062E-02-5.40239E-02-3.22247E+00 2.60625E-14 3.34919E-13
 -1      2363 2.34446E+01 8.27107E-01 1.79639E-02-3.11751E+00-8.17818E-14 4.05973E-13
 -1      2364 2.48678E+01-4.31040E-01 2.08634E-03-3.31666E+00-2.96031E-14 4.23021E-13
 -1      2365 2.30220E+01 1.57147E+00-6.56514E-02-2.67253E+00-1.93182E-13 4.52835E-13
 -1      2366 2.27356E+01 2.17247E+00 5.84614E-04-2.04401E+00-2.51153E-13 3.89635E-13
 -1      2367 2.43840E+01 1.59318E+00-1.57477E-02-3.27290E+00-3.23977E-14 4.74752E-13
 -1      2368 2.25122E+01 2.45660E+00-2.47862E-02-1.05393E+00-3.07674E-13 2.29626E-13
 -1      2369 2.23971E+01 2.34444E+00-4.18503E-02-2.14671E-01-2.64063E-13 1.87541E-13
 -1      2370 2.38525E+01 2.99669E+00-4.54992E-02-1.75860E+00-4.18943E-13 2.20995E-13
 -1      2371 2.25613E+01 1.89307E+00 1.04546E-02 6.67518E-01-1.70086E-13 7.40087E-14
 -1      2372 2.26113E+01 1.20116E+00-6.28557E-02 1.18793E+00-5.03087E-14-7.89655E-14
 -1      2373 2.37577E+01 2.72312E+00-5.37416E-02 2.97860E-01-3.33844E-13 1.29825E-13
 -1      2374 2.28355E+01 4.54394E-01 1.74517E-02 1.42502E+00-7.40172E-14-2.42130E-13
 -1      2375 2.29010E+01-2.41302E-01-4.42327E-02 1.42673E+00 4.78389E-14-3.13104E-13
 -1      2376 2.40697E+01 1.07675E+00-1.33599E-02 1.45339E+00-1.76498E-13-2.66355E-13
 -1      2377 2.28049E+01-7.27875E-01-4.02018E-03 1.08480E+00 1.45808E-13-3.55752E-13
 -1      2378 2.27615E+01-1.00991E+00-1.14038E-02 7.64474E-01 2.12757E-14-3.57531E-13
 -1      2379 2.40785E+01-6.09846E-01 1.29859E-02 1.22877E+00-3.80061E-14-3.63985E-13
 -1      2380 2.23214E+01-1.05298E+00-2.20719E-02 2.60429E-01-1.07764E-13-2.63803E-13
 -1      2381 2.21233E+01-9.31114E-01 3.23288E-03-7.69881E-02-1.25472E-13-2.43286E-13
 -1      2382 2.34511E+01-1.34068E+00 4.69578E-03 2.68030E-01 2.03247E-14-4.88249E-13
 -1      2383 1.96248E+01 7.25656E-02 2.07296E-03-6.64637E-02 1.45840E-14 1.50473E-13
 -1      2384 1.96521E+01 1.04304E-01 6.89485E-03-2.02880E-02 4.30123E-14 1.70115E-13
 -1      2385 1.96013E+01 3.06392E-02 1.33433E-03-1.32049E-01 5.60592E-15 9.43032E-14
 -1      2386 1.95982E+01 4.95591E-02 3.67680E-03-1.09574E-01 1.97081E-15 1.25893E-13
 -1      2387 1.97691E+01 8.98238E-02-3.15068E-03-7.17985E-02 3.12752E-14 1.32293E-13
 -1      2388 1.96132E+01 5.56390E-03 8.64766E-04-1.60387E-01 5.63979E-14 1.13944E-13
 -1      2389 1.95932E+01 1.68357E-02 1.81422E-03-1.52198E-01 1.54454E-14 1.08778E-13
 -1      2390 1.97348E+01 3.57459E-02-2.27798E-03-1.44047E-01 5.49585E-15 1.34655E-13
 -1      2391 1.96452E+01-9.08567E-03 5.43242E-04-1.65931E-01 4.71172E-14 1.51033E-13
 -1      2392 1.96170E+01-2.63159E-03 7.14261E-04-1.66304E-01 4.48265E-14 1.43158E-13
 -1      2393 1.97313E+01 3.57054E-03-1.51064E-03-1.75683E-01 4.84207E-14 1.21816E-13
 -1      2394 1.96869E+01-1.70185E-02 3.19814E-04-1.58019E-01-2.74368E-14 1.38375E-13
 -1      2395 1.96557E+01-1.36803E-02 6.19129E-05-1.63298E-01 2.42393E-14 1.32407E-13
 -1      2396 1.97464E+01-1.49960E-02-9.33059E-04-1.82202E-01 3.08049E-14 9.00412E-14
 -1      2397 1.97314E+01-2.05516E-02 1.70080E-04-1.42806E-01 5.07476E-14 1.20093E-13
 -1      2398 1.97007E+01-1.92499E-02-3.13013E-04-1.50593E-01 5.47590E-15 1.35841E-13
 -1      2399 1.97716E+01-2.48000E-02-5.29179E-04-1.73799E-01-1.42566E-15 5.24463E-14
 -1      2400 1.97748E+01-2.12048E-02 7.76849E-05-1.24380E-01 3.86134E-14 1.24031E-13
 -1      2401 1.97463E+01-2.12271E-02-5.08270E-04-1.33092E-01 7.26577E-14 1.24846E-13
 -1      2402 1.98011E+01-2.88777E-02-2.60428E-04-1.57293E-01 5.35440E-14 1.05075E-13
 -1      2403 1.98149E+01-1.99906E-02 3.06439E-05-1.05444E-01 9.42991E-14 1.33838E-13
 -1      2404 1.97895E+01-2.08640E-02-5.86337E-04-1.14041E-01 5.82058E-14 1.11843E-13
 -1      2405 1.98313E+01-2.92199E-02-9.21586E-05-1.37248E-01 4.21121E-14 7.65498E-14
 -1      2406 1.98506E+01-1.75738E-02 2.05382E-05-8.77803E-02 3.43966E-14 9.46056E-14
 -1      2407 1.98285E+01-1.89919E-02-5.88924E-04-9.55804E-02 7.34159E-14 1.10442E-13
 -1      2408 1.98602E+01-2.71454E-02 2.78344E-06-1.16711E-01 7.21317E-14 9.46036E-14
 -1      2409 1.98820E+01-1.43665E-02 4.22003E-05-7.25648E-02 1.13282E-13 3.88130E-14
 -1      2410 1.98630E+01-1.61451E-02-5.44332E-04-7.91158E-02 9.68696E-14 9.58369E-14
 -1      2411 1.98868E+01-2.35105E-02 4.42575E-05-9.77085E-02 7.71981E-14-4.14046E-14
 -1      2412 1.99097E+01-1.05932E-02 9.33243E-05-6.06090E-02 1.52940E-13 3.06820E-14
 -1      2413 1.98933E+01-1.26389E-02-4.71498E-04-6.55918E-02 1.07127E-13 4.76900E-14
 -1      2414 1.99109E+01-1.88358E-02 4.61944E-05-8.16039E-02 1.10485E-13-2.76604E-14
 -1      2415 1.99348E+01-6.33496E-03 1.74108E-04-5.25336E-02 2.27705E-13 1.22086E-14
 -1      2416 1.99201E+01-8.62428E-03-3.82692E-04-5.56905E-02 1.97451E-13 5.49197E-14
 -1      2417 1.99329E+01-1.33917E-02 1.81471E-05-6.93643E-02 1.68066E-13 7.49479E-14
 -1      2418 1.99588E+01-1.56308E-03 2.86798E-04-4.89036E-02 4.47754E-14 1.42123E-13
 -1      2419 1.99448E+01-4.12612E-03-2.85458E-04-4.99829E-02 1.75357E-13 9.90050E-14
 -1      2420 1.99535E+01-7.25883E-03-3.37239E-05-6.17563E-02 1.56502E-13 1.02080E-13
 -1      2421 1.99834E+01 3.83481E-03 4.35239E-04-5.03294E-02-1.70471E-14 1.14310E-13
 -1      2422 1.99690E+01 9.27307E-04-1.84001E-04-4.90438E-02 3.34220E-14 1.54177E-13
 -1      2423 1.99739E+01-3.72244E-04-1.05730E-04-5.94962E-02 2.61690E-14 1.18916E-13
 -1      2424 2.00109E+01 1.00310E-02 6.24269E-04-5.75407E-02-6.36389E-14 6.36533E-14
 -1      2425 1.99946E+01 6.67974E-03-8.02527E-05-5.35370E-02-6.43356E-14 1.08576E-13
 -1      2426 1.99955E+01 7.44185E-03-1.95874E-04-6.33620E-02-4.09313E-14 9.68682E-14
 -1      2427 2.00436E+01 1.72327E-02 8.58882E-04-7.14350E-02 1.09392E-14-1.07522E-14
 -1      2428 2.00239E+01 1.33231E-02 2.52851E-05-6.42756E-02 1.01762E-15 8.44009E-14
 -1      2429 2.00199E+01 1.64320E-02-3.03189E-04-7.42723E-02-6.09734E-14 1.45677E-13
 -1      2430 2.00844E+01 2.56505E-02 1.14298E-03-9.30949E-02 1.25465E-13-9.62227E-14
 -1      2431 2.00595E+01 2.10699E-02 1.32834E-04-8.22532E-02 3.79929E-14-8.47542E-14
 -1      2432 2.00492E+01 2.68842E-02-4.27032E-04-9.33326E-02 8.78389E-14-7.82674E-15
 -1      2433 2.01366E+01 3.54537E-02 1.47741E-03-1.23768E-01-5.29687E-14 1.01949E-13
 -1      2434 2.01045E+01 3.01168E-02 2.42713E-04-1.08643E-01 7.28502E-14 2.02266E-14
 -1      2435 2.00857E+01 3.90728E-02-5.66395E-04-1.21844E-01 1.29379E-14 3.96363E-15
 -1      2436 2.02040E+01 4.67029E-02 1.85699E-03-1.64789E-01-1.74764E-13 1.01646E-13
 -1      2437 2.01622E+01 4.05905E-02 3.54792E-04-1.44749E-01-9.35595E-14 8.01763E-14
 -1      2438 2.01318E+01 5.31904E-02-7.19281E-04-1.61258E-01-5.90350E-14 4.06722E-14
 -1      2439 2.02904E+01 5.92444E-02 2.26596E-03-2.17424E-01-1.70969E-13 2.86101E-14
 -1      2440 2.02365E+01 5.24643E-02 4.68051E-04-1.91891E-01-2.00716E-13 1.11136E-13
 -1      2441 2.01905E+01 6.92410E-02-8.82195E-04-2.13071E-01-1.67631E-13-5.61912E-14
 -1      2442 2.04002E+01 7.25453E-02 2.67122E-03-2.82582E-01-8.47983E-14-2.68962E-14
 -1      2443 2.03315E+01 6.54274E-02 5.80346E-04-2.51189E-01-1.22795E-13-4.33292E-14
 -1      2444 2.02650E+01 8.68725E-02-1.04998E-03-2.78599E-01-1.08937E-13-1.33594E-13
 -1      2445 2.05377E+01 8.54418E-02 3.01291E-03-3.60345E-01 9.12051E-14 1.13453E-13
 -1      2446 2.04517E+01 7.86831E-02 6.88633E-04-3.23186E-01-3.41994E-14-1.87106E-16
 -1      2447 2.03584E+01 1.05120E-01-1.21644E-03-3.58614E-01-7.01733E-14-1.26464E-13
 -1      2448 2.07067E+01 9.57650E-02 3.19191E-03-4.49221E-01 1.02628E-13 1.26349E-13
 -1      2449 2.06012E+01 9.06433E-02 7.90031E-04-4.07253E-01 1.50520E-13 1.16999E-13
 -1      2450 2.04742E+01 1.22016E-01-1.37636E-03-4.52748E-01 9.41269E-14-3.57481E-14
 -1      2451 2.09101E+01 9.98212E-02 3.05548E-03-5.45011E-01 7.00438E-15 2.96849E-13
 -1      2452 2.07840E+01 9.84866E-02 8.84334E-04-5.00665E-01 7.72444E-14 1.98802E-13
 -1      2453 2.06158E+01 1.34027E-01-1.52962E-03-5.58586E-01 3.03473E-14 5.24139E-14
 -1      2454 2.11488E+01 9.17456E-02 2.38516E-03-6.39198E-01-5.07908E-14 3.13195E-13
 -1      2455 2.10028E+01 9.75704E-02 9.78359E-04-5.97229E-01-4.75131E-14 2.83296E-13
 -1      2456 2.07862E+01 1.35298E-01-1.68750E-03-6.70336E-01-3.95194E-14 7.55347E-14
 -1      2457 2.14211E+01 6.28934E-02 8.97331E-04-7.16810E-01 8.67773E-14 2.34038E-13
 -1      2458 2.12588E+01 8.07676E-02 1.09131E-03-6.85398E-01 2.94313E-14 3.50557E-13
 -1      2459 2.09884E+01 1.16774E-01-1.87923E-03-7.76974E-01-1.49091E-14 9.47240E-14
 -1      2460 2.17210E+01 1.75041E-03-1.72143E-03-7.53991E-01 2.43608E-14 6.06338E-14
 -1      2461 2.15501E+01 3.80132E-02 1.25668E-03-7.45897E-01 5.99031E-14 2.25177E-13
 -1      2462 2.12250E+01 6.55334E-02-2.15070E-03-8.59879E-01 1.05284E-13 1.87192E-13
 -1      2463 2.20364E+01-1.04530E-01-5.70723E-03-7.16089E-01-8.00705E-15 2.83021E-13
 -1      2464 2.18707E+01-4.32009E-02 1.50872E-03-7.49300E-01-3.22397E-14 1.78512E-13
 -1      2465 2.14983E+01-3.48124E-02-2.53535E-03-8.90223E-01-3.03844E-14 2.08089E-13
 -1      2466 2.23471E+01-2.64945E-01-1.09883E-02-5.58251E-01 9.33741E-14 4.63865E-13
 -1      2467 2.22074E+01-1.74866E-01 1.82189E-03-6.54850E-01 9.16396E-14 4.68959E-13
 -1      2468 2.18096E+01-2.00841E-01-2.96339E-03-8.27058E-01-6.03627E-14 6.07302E-13
 -1      2469 2.26208E+01-4.73170E-01-1.67957E-02-2.32446E-01 1.17323E-13 4.89038E-13
 -1      2470 2.25361E+01-3.60574E-01 1.96490E-03-4.13473E-01 7.74042E-14 4.30892E-13
 -1      2471 2.21560E+01-4.40112E-01-3.08061E-03-6.18394E-01 1.32257E-13 8.10950E-13
 -1      2472 2.28084E+01-6.88601E-01-2.09980E-02 2.93291E-01 1.42562E-13 6.59538E-13
 -1      2473 2.28138E+01-5.80359E-01 1.30119E-03 1.97124E-02 1.50682E-13 6.46366E-13
 -1      2474 2.25225E+01-7.32782E-01-2.01801E-03-2.09947E-01 1.05371E-13 7.18651E-13
 -1      2475 2.28406E+01-8.16905E-01-2.00739E-02 9.97533E-01 3.16145E-13 5.23653E-13
 -1      2476 2.29704E+01-7.69325E-01-1.05402E-03 6.56205E-01 2.66196E-13 5.56828E-13
 -1      2477 2.28670E+01-1.00478E+00 1.77429E-03 4.31138E-01 3.02663E-13 6.15430E-13
 -1      2478 2.26359E+01-7.18951E-01-1.14922E-02 1.75265E+00 1.67106E-14 2.91469E-13
 -1      2479 2.29067E+01-8.06198E-01-7.07981E-03 1.42280E+00 1.56852E-13 4.89818E-13
 -1      2480 2.31002E+01-1.10487E+00 9.19061E-03 1.26772E+00 3.46507E-13 5.93628E-13
 -1      2481 2.21458E+01-2.83937E-01 4.96001E-03 2.30115E+00-1.05470E-13 1.88685E-13
 -1      2482 2.25344E+01-5.51190E-01-1.54222E-02 2.11422E+00 2.23415E-14 2.09292E-13
 -1      2483 2.30906E+01-8.52362E-01 1.42485E-02 2.12521E+00 9.62097E-14 6.36103E-13
 -1      2484 2.14268E+01 4.24486E-01 1.94741E-02 2.31494E+00-2.43412E-13 1.69469E-13
 -1      2485 2.18542E+01 4.71361E-02-1.89724E-02 2.40644E+00-2.87394E-13 1.35968E-14
 -1      2486 2.27380E+01-1.41737E-01 1.33369E-02 2.66724E+00-1.51567E-13 4.13205E-13
 -1      2487 2.07117E+01 1.07984E+00 1.78753E-02 1.63356E+00-8.09942E-14 2.24785E-13
 -1      2488 2.10576E+01 7.84274E-01-1.42247E-02 2.02526E+00-1.12639E-13 9.35918E-14
 -1      2489 2.21123E+01 8.39072E-01 1.25940E-03 2.51170E+00-2.03821E-13 1.12578E-13
 -1      2490 2.03015E+01 1.27648E+00 3.21670E-04 4.78315E-01 9.37063E-14 1.15196E-13
 -1      2491 2.04762E+01 1.25818E+00 3.74048E-03 1.01704E+00-2.16147E-15 1.73065E-13
 -1      2492 2.15151E+01 1.57489E+00-2.40491E-02 1.54540E+00 2.59012E-14 2.43812E-13
 -1      2493 2.03391E+01 8.92431E-01-1.43697E-02-5.92116E-01 3.45547E-13 9.20271E-14
 -1      2494 2.03232E+01 1.14738E+00 1.98937E-02-1.63111E-01 2.00902E-13 1.81028E-13
 -1      2495 2.12980E+01 1.65548E+00-1.75552E-02 1.78348E-01 1.90277E-13 1.16772E-13
 -1      2496 2.06279E+01 2.31594E-01-1.69202E-02-1.11638E+00 3.37378E-13 3.76885E-13
 -1      2497 2.05018E+01 5.70960E-01 2.20785E-02-9.52551E-01 3.35884E-13 2.78087E-13
 -1      2498 2.14558E+01 1.00275E+00-7.02309E-03-8.87088E-01 2.07539E-13 2.68230E-13
 -1      2499 2.08563E+01-2.77005E-01-8.21879E-03-1.03750E+00 9.73273E-14 5.19145E-13
 -1      2500 2.07241E+01-6.13463E-02 8.24631E-03-1.11153E+00 2.53186E-13 6.02877E-13
 -1      2501 2.16856E+01 1.45760E-01 1.30115E-02-1.22300E+00 2.10709E-13 4.94679E-13
 -1      2502 2.08395E+01-4.22882E-01 3.50655E-03-6.42279E-01 1.93064E-13 3.98729E-13
 -1      2503 2.07707E+01-3.97860E-01-8.22721E-03-8.14259E-01 1.40273E-13 5.33223E-13
 -1      2504 2.16656E+01-4.40550E-01 1.41469E-02-9.39144E-01 1.35778E-13 3.68370E-13
 -1      2505 2.05861E+01-2.88543E-01 8.73768E-03-2.77660E-01-4.08560E-13 7.47531E-13
 -1      2506 2.05953E+01-3.73906E-01-1.39705E-02-4.10915E-01-1.11621E-13 5.27571E-13
 -1      2507 2.13266E+01-5.30731E-01 1.36170E-02-4.41880E-01-9.14670E-14 5.74752E-13
 -1      2508 2.03008E+01-1.74757E-01-5.23601E-03-1.63043E-01-3.64517E-13 7.47508E-13
 -1      2509 2.13797E+01 2.17772E-01-1.21292E-03 4.28100E+00 3.06114E-14-4.98559E-13
 -1      2510 2.18939E+01-2.84509E-01 2.86686E-02 3.70320E+00 7.67537E-14-5.78620E-13
 -1      2511 1.94443E+01 1.38272E+00-4.69912E-02 4.88514E+00-4.25839E-13 2.51743E-14
 -1      2512 2.05794E+01 7.50641E-01 7.04852E-02 4.85031E+00-2.39412E-13-3.25814E-13
 -1      2513 2.12372E+01-7.77850E-01-1.33633E-02 5.06945E+00-4.70197E-14-5.30456E-13
 -1      2514 2.18814E+01-4.62096E-01 3.94201E-02 1.36844E+00-3.22394E-14 1.62376E-13
 -1      2515 2.15621E+01-5.97596E-01-1.47055E-02 7.77733E-01-1.57655E-13 1.01393E-13
 -1      2516 2.20913E+01-3.41901E-01 2.94899E-02 2.82474E+00-2.65961E-14-1.97618E-13
 -1      2517 2.20590E+01-6.34404E-01 2.21356E-04 2.13182E+00 6.40109E-14 1.68222E-13
 -1      2518 2.25402E+01-1.10289E+00-5.84636E-03 1.75626E+00-1.73162E-13 2.12296E-13
 -1      2519 2.25755E+01-1.24221E+00-1.04813E-02 3.46554E+00 1.08333E-15-3.67665E-13
 -1      2520 1.69315E+01 2.92109E+00-5.29827E-02 3.68178E+00-5.39813E-13 3.55084E-13
 -1      2521 1.81939E+01 2.37083E+00 9.85035E-02 4.52321E+00-6.51957E-13 3.45959E-13
 -1      2522 1.84604E+01 5.54246E-01 3.41438E-02 5.44689E+00-5.32747E-13 4.60014E-14
 -1      2523 1.55247E+01 3.88381E+00-5.21464E-04 6.08932E-01-3.74951E-13 5.80952E-13
 -1      2524 1.59846E+01 3.69747E+00 5.57773E-02 2.12576E+00-5.66606E-13 6.37670E-13
 -1      2525 1.54018E+01 2.19423E+00 1.06160E-01 3.43758E+00-5.94745E-13 4.68368E-13
 -1      2526 1.64222E+01 3.46131E+00 7.02863E-02-2.80339E+00 5.32560E-14 1.03535E-13
 -1      2527 1.56838E+01 3.76079E+00-1.59759E-02-1.39748E+00-6.95394E-14 2.10706E-13
 -1      2528 1.43762E+01 2.82463E+00 1.51013E-01-4.76750E-01-2.82137E-13 6.43721E-13
 -1      2529 1.88132E+01 1.98833E+00 9.12249E-02-4.66850E+00 5.90390E-13 4.23640E-13
 -1      2530 1.75337E+01 2.57277E+00-5.38770E-02-4.06366E+00 3.99580E-13 3.73604E-13
 -1      2531 1.60776E+01 1.83961E+00 9.40379E-02-4.05188E+00 4.35478E-13 5.17329E-13
 -1      2532 2.10041E+01 4.91660E-01 6.09909E-02-4.55263E+00 8.22834E-13 9.67152E-15
 -1      2533 2.00104E+01 1.09627E+00-3.39707E-02-4.75932E+00 6.81680E-13 1.60517E-13
 -1      2534 1.92057E+01 1.69694E-01 1.12885E-02-5.40085E+00 7.00918E-13 4.46795E-13
 -1      2535 2.19790E+01-3.30432E-01 2.30593E-02-3.22944E+00 6.72259E-13-1.19421E-13
 -1      2536 2.16305E+01 9.44381E-02 7.21392E-03-3.85580E+00 7.56564E-13 6.80825E-14
 -1      2537 2.16893E+01-9.46961E-01-1.77803E-02-4.60926E+00 6.80979E-13 6.34458E-14
 -1      2538 2.19002E+01-5.15058E-01 6.62152E-03-1.70877E+00 1.54420E-13-3.18421E-13
 -1      2539 2.20255E+01-3.07860E-01 2.90850E-02-2.35836E+00 4.58636E-13-3.88463E-13
 -1      2540 2.26013E+01-1.20004E+00-1.31433E-02-2.91089E+00 4.72143E-13-4.03181E-13
 -1      2541 5.60783E+00-3.72232E+00 2.70048E-02 4.55420E+00-1.39611E-13 7.20535E-13
 -1      2542 4.69320E+00-2.61463E+00 1.02821E-01 1.98395E+00 1.06179E-13 1.06459E-12
 -1      2543 1.18709E+01-5.02385E+00-1.04051E-02 8.06049E+00-1.38278E-13-1.22097E-13
 -1      2544 7.99399E+00-4.44690E+00 7.44659E-02 6.27455E+00-2.03226E-13 5.00100E-13
 -1      2545 5.24535E+00-2.23597E+00 1.33482E-01-1.89992E+00 1.36044E-13 1.57363E-12
 -1      2546 6.46708E+00-3.32111E+00 8.03059E-02-4.79281E+00-1.04389E-13 1.80084E-12
 -1      2547 1.97058E+01 1.43375E-01 3.27752E-03 5.96355E-02 6.27937E-14 1.82090E-13
 -1      2548 1.97842E+01 1.98173E-01 1.23615E-02 1.45878E-01 7.26331E-14 2.02434E-13
 -1      2549 1.98500E+01 1.81129E-01-3.79467E-03 6.51018E-02 6.99678E-14 1.54216E-13
 -1      2550 2.09693E+01-1.38763E-01-1.48460E-02-7.37709E-01 4.41010E-14-2.70053E-13
 -1      2551 2.00215E+01-6.15835E+00-8.18514E-03 8.32421E+00 2.26930E-13-5.78176E-13
 -1      2552 1.68227E+01-5.86176E+00 1.13380E-01 8.29028E+00 4.42424E-14-5.16101E-13
 -1      2553 2.05479E+01 1.95496E+00-1.38995E-02-1.89759E+00-1.31338E-13-2.87236E-14
 -1      2554 2.04144E+01 1.21527E+00-6.11069E-03-1.28615E+00-1.17293E-13-1.62088E-14
 -1      2555 2.03795E+01 1.37471E+00 5.47644E-03-1.23439E+00-1.01231E-13-5.10967E-14
 -1      2556 2.02889E+01 2.38492E+00-5.28616E-03-1.84280E+00-1.27026E-13-6.62283E-14
 -1      2557 3.22603E+01-1.39932E+00-1.35775E-01 1.83354E+00-1.87961E-13 1.06859E-13
 -1      2558 2.99763E+01-3.61474E+00-1.45680E-02 3.28567E+00 8.66113E-14-2.43250E-13
 -1      2559 2.88700E+00-3.82241E+00 1.02730E-01-7.40719E-01-1.25115E-13-6.01519E-13
 -1      2560 3.93809E+00-3.91246E+00 8.73740E-02-3.11650E+00-7.99361E-15-6.38045E-13
 -1      2561 3.28498E+01 4.18042E+00-1.04070E-01 2.22167E+00 3.80806E-13 2.25264E-13
 -1      2562 3.32032E+01 6.32336E+00-2.01195E-01 2.12302E+00 5.13756E-13 1.73195E-13
 -1      2563 1.95183E+01 3.58502E+00-1.00839E-02-2.45226E-01 4.28969E-14-1.28730E-13
 -1      2564 1.95344E+01 3.56431E+00-9.66012E-03-4.25923E-01 2.36184E-14-1.31143E-13
 -1      2565 1.97107E+01 3.16372E+00-5.99359E-04-4.73319E-01 2.49429E-14-1.12571E-13
 -1      2566 1.96763E+01 3.22365E+00-9.32571E-04-1.51983E-01 4.37876E-14-1.11111E-13
 -1      2567 3.37041E+01 8.02262E+00-1.40036E-01 1.12535E+00 5.29576E-13 6.55309E-14
 -1      2568 3.49995E+01 8.10086E+00-4.53735E-02 6.53728E-01 4.02678E-13 5.48520E-14
 -1      2569 4.94493E+00-4.31889E+00 7.00174E-02 4.01639E+00-1.25150E-13-7.25531E-13
 -1      2570 3.15418E+00-3.98649E+00 8.92676E-02 1.60649E+00-3.07185E-14-6.72740E-13
 -1      2571 3.48074E+01 7.24131E+00-1.31423E-01 1.69542E-01 3.98792E-13-8.67084E-14
 -1      2572 3.45246E+01 5.90292E+00-1.27163E-01 6.53944E-03 2.98650E-13-1.36002E-14
 -1      2573 3.19410E+01 4.43968E+00-5.95768E-02-1.01416E+00 2.28151E-13 4.91274E-14
 -1      2574 3.21421E+01 7.28386E+00-4.37253E-02 2.16867E-02 3.29181E-13-4.92661E-15
 -1      2575 3.16207E+01-6.81776E-01-7.63299E-02 7.80008E-01 2.27339E-13 1.79856E-13
 -1      2576 3.22864E+01 1.07108E+00-2.10577E-01 1.57628E+00 2.11636E-13 5.13478E-15
 -1      2577 2.79396E+01-4.64733E+00-5.40768E-02-2.33295E+00 1.35641E-13 1.02029E-13
 -1      2578 3.05640E+01-2.75898E+00-9.79303E-02-8.86241E-01 2.41310E-13 1.51934E-13
 -1      2579 3.01553E+01-2.44225E+00-1.58583E-02 7.48206E-01 1.67861E-13 2.27429E-13
 -1      2580 2.28132E+01-6.33055E+00-1.52600E-03-5.06749E+00 6.53644E-14 7.35384E-14
 -1      2581 2.60604E+01-5.60226E+00 3.36854E-03-4.03675E+00 1.26676E-13-3.83027E-14
 -1      2582 2.75605E+01-5.30194E+00 2.50944E-02-2.11620E+00 1.25039E-14 2.02366E-13
 -1      2583 6.58464E+00-4.31883E+00 1.49175E-01-4.88435E+00-1.55764E-13-3.21132E-13
 -1      2584 9.05745E+00-4.81938E+00 1.25026E-01-6.29548E+00-1.63647E-13-2.07584E-13
 -1      2585 2.66756E+01-5.51667E+00-3.69984E-02 3.63062E+00-3.33483E-13-1.10523E-13
 -1      2586 2.33598E+01-6.42477E+00 4.17865E-02 4.61129E+00-5.90084E-14-2.31148E-13
 -1      2587 1.07008E+01-5.82084E+00 3.37823E-02 6.57701E+00-5.64548E-14-2.33313E-13
 -1      2588 7.91762E+00-5.22492E+00 9.65372E-02 5.55204E+00-5.74540E-14-2.84522E-13
 -1      2589 1.90751E+01-6.70956E+00-2.64902E-02 6.33471E+00 1.05971E-13-2.58137E-13
 -1      2590 1.45707E+01-6.56251E+00 5.53250E-02 6.50174E+00 6.96110E-14-2.77181E-13
 -1      2591 1.46312E+01-5.63460E+00 1.36435E-01 6.38046E+00 1.52961E-13-8.47933E-14
 -1      2592 3.15392E+01-2.07786E+00-8.94098E-02 7.24476E-01-3.03667E-13-1.50213E-13
 -1      2593 2.88545E+01-4.06277E+00-5.46641E-02 1.90307E+00-4.56996E-13-1.07137E-13
 -1      2594 2.81565E+01-5.12108E+00 2.77493E-02 1.69642E+00-2.08625E-13-2.00950E-14
 -1      2595 3.40764E+01 2.73206E+00-1.31816E-01-1.70384E+00-4.98379E-13 1.25400E-13
 -1      2596 3.27920E+01 5.38891E-01-6.97255E-02-1.04459E+00-3.29042E-13-2.94209E-15
 -1      2597 3.41338E+01 6.39398E+00-1.83713E-01-2.19076E+00-7.40241E-13 8.53206E-14
 -1      2598 3.43120E+01 4.81196E+00-9.20821E-02-2.16536E+00-6.07514E-13 8.50986E-14
 -1      2599 3.21078E+01 3.16864E+00-3.06506E-02-2.91939E+00-4.53748E-13 1.50741E-13
 -1      2600 3.41087E+01 7.81410E+00-1.23199E-01-6.62841E-01-6.78291E-13 1.03167E-13
 -1      2601 3.40554E+01 7.78835E+00-1.26640E-01-1.44106E+00-8.10851E-13 1.05457E-13
 -1      2602 3.47542E+01 5.02331E+00-7.92659E-02 2.89032E-02-6.87839E-13-2.53686E-14
 -1      2603 3.42320E+01 6.48684E+00-1.87112E-01 8.65321E-02-6.41542E-13 5.41511E-14
 -1      2604 3.32538E+01 7.56172E-01-9.86539E-02-8.61829E-01-8.06896E-13-1.40499E-13
 -1      2605 3.46096E+01 3.06720E+00-9.70092E-02-4.33781E-01-7.11209E-13-5.21250E-14
 -1      2606 3.23898E+01 3.27984E+00-2.18769E-02 9.13562E-01-6.17034E-13-1.42525E-13
 -1      2607 3.02238E+01-3.63479E+00 1.75226E-02-3.37318E+00-5.98008E-13-2.20046E-13
 -1      2608 3.23987E+01-1.68336E+00-9.59893E-02-2.29630E+00-7.81972E-13-1.13631E-13
 -1      2609 2.32641E+01-6.22492E+00 2.07272E-02-7.06641E+00-2.00173E-13 2.22600E-13
 -1      2610 2.69513E+01-5.49195E+00-1.17041E-01-5.91013E+00-3.49193E-13-1.97120E-13
 -1      2611 1.57082E+01-6.19518E+00 3.08144E-02-8.18063E+00-1.43885E-13 8.80379E-13
 -1      2612 1.97285E+01-6.19207E+00-1.24907E-02-8.26808E+00-2.22322E-13 4.11532E-13
 -1      2613 2.27439E+01-6.14594E+00 1.03545E-01-7.33251E+00 6.66134E-15 1.43715E-13
 -1      2614 8.43071E+00-4.74320E+00 4.49453E-02-6.63171E+00 2.76446E-14 1.58462E-12
 -1      2615 1.16501E+01-5.47430E+00 4.32244E-03-8.02312E+00-1.03417E-13 1.49794E-12
 -1      2616 2.04915E+01 8.74944E-01-7.30985E-03 1.22639E+00 1.64759E-13 2.64601E-13
 -1      2617 2.08419E+01 1.25694E+00-6.04930E-03 1.72710E+00 1.72026E-13 2.94289E-13
 -1      2618 2.06477E+01 1.71565E+00-1.57887E-02 1.92122E+00 1.90733E-13 2.38379E-13
 -1      2619 2.04499E+01 1.05803E+00-9.39036E-03 1.24109E+00 1.73131E-13 1.86175E-13
 -1      2620 2.73408E+01-5.24370E+00-8.36781E-02 5.77060E+00 3.15886E-13-5.61884E-13
 -1      2621 2.35195E+01-6.07956E+00 1.93774E-02 6.96125E+00 2.95181E-13-6.35769E-13
 -1      2622 2.34377E+01-5.91807E+00 9.21651E-02 7.05899E+00 1.11161E-13-6.49356E-13
 -1      2623 3.11337E+01 2.36362E+00-5.34197E-02 2.77433E+00 2.97068E-13 2.84106E-13
 -1      2624 1.99139E+01 2.81707E+00 3.29069E-03-1.10021E+00-3.84962E-14-1.41359E-13
 -1      2625 1.97802E+01 3.16046E+00-1.50055E-02-1.28512E+00-4.44487E-14-1.45995E-13
 -1      2626 1.98748E+01 3.03600E+00-1.82769E-02-1.48124E+00-8.15689E-14-1.29346E-13
 -1      2627 1.99957E+01 3.40368E-01-3.49887E-03 3.04278E-01 1.03590E-13 1.62224E-13
 -1      2628 2.04231E+01 2.11581E+00-1.27802E-02 1.87421E+00 2.03092E-13 1.56278E-13
 -1      2629 2.89868E+01-4.63383E+00 5.11431E-02 3.71302E+00 1.32894E-13-3.49193E-13
 -1      2630 3.14389E+01-5.03380E-01-5.63272E-02 7.62408E-02-1.26413E-13 2.49023E-13
 -1      2631 1.57803E+01-4.75183E+00 1.30611E-01 8.09901E+00-1.59539E-13-3.54827E-13
 -1      2632 2.07623E+01-3.40287E-01-5.68838E-03-8.05504E-02-4.47696E-13 5.71065E-13
 -1      2633 2.10795E+01-3.50069E-01 1.75664E-02 1.96445E-01-3.38455E-13 3.30555E-13
 -1      2634 7.80203E+00-4.79335E-01 1.26201E-01 1.62110E+00-3.38354E-13 9.22928E-13
 -1      2635 6.36545E+00-1.37264E+00 2.07640E-01-1.41329E-01-8.37230E-14 1.41887E-12
 -1      2636 8.28886E+00-2.79836E-01 8.65999E-02-2.03890E+00-2.73746E-13 1.54055E-12
 -1      2637 9.13060E+00-2.67845E+00 1.59028E-01 5.66227E+00-3.32123E-13 4.22495E-13
 -1      2638 1.56903E+01-5.12091E+00 9.99330E-02-8.16296E+00 1.43024E-13 9.38249E-13
 -1      2639 9.79480E+00-2.71981E+00 1.50622E-01-5.74162E+00 1.60177E-13 1.68573E-12
 -1      2640 2.04370E+01 1.80812E+00 1.25490E-02 1.56194E+00 1.90121E-13 1.40797E-13
 -1      2641 2.01148E+01 2.62152E+00-1.13185E-02-1.67897E+00-1.10864E-13-9.62277E-14
 -1      2642 3.19715E+01-1.01456E+00-1.39035E-02-4.46680E-01-6.88630E-13-2.87714E-13
 -1      2643 4.98847E+00-2.50981E+00 1.83768E-01 4.92687E-01-8.82072E-14-5.93470E-13
 -1      2644 7.10619E+00-2.92421E+00 1.71567E-01-3.93983E+00-2.26305E-13-3.14609E-13
 -1      2645 3.18179E+01 6.60107E+00-1.00585E-01-2.11834E+00-7.35578E-13 3.45002E-14
 -1      2646 2.22437E+01-6.56025E+00 7.34049E-02 4.95662E+00 1.39611E-14-2.67342E-13
 -1      2647 3.13425E+01-1.36091E+00-9.03603E-03-1.26990E+00-4.18797E-13-2.04836E-14
 -1      2648 2.97201E+01 5.43456E+00-1.39794E-01 2.49388E+00 3.84304E-13 7.48693E-13
 -1      2649 3.19286E+01 6.90299E+00-1.21186E-01 1.87852E+00 4.77951E-13 2.75668E-13
 -1      2650 2.99401E+01 7.12159E+00-1.37815E-01 1.52831E+00 3.95795E-13 3.54564E-13
 -1      2651 1.26873E+01-5.07841E+00 8.49035E-02-6.38669E+00-3.21881E-13-3.27544E-13
 -1      2652 8.06186E+00-3.72822E+00 1.64886E-01 4.70840E+00-1.60844E-14-4.80421E-13
 -1      2653 2.13302E+01-6.58738E+00 6.17249E-02-5.68254E+00-2.33980E-14 5.92408E-14
 -1      2654 2.37488E+01-6.40772E+00-5.72739E-02-4.31014E+00-1.86851E-13 2.32432E-13
 -1      2655 1.93695E+01-6.03651E+00 1.44433E-01-6.10422E+00-3.34677E-13-1.87836E-13
 -1      2656 2.14462E+01-5.05884E-01 1.05075E-02-4.77246E-01-1.07373E-13-3.42695E-13
 -1      2657 2.17406E+01-4.40355E-01 2.24553E-02-1.07786E+00-4.77418E-15-3.05598E-13
 -1      2658 2.23853E+01-1.05464E+00-2.06858E-02-1.37121E+00 8.16769E-14-4.28828E-13
 -1      2659 2.16811E+01-7.72257E-01-3.11470E-02-3.24579E-01-1.90036E-13-1.91925E-13
 -1      2660 3.19032E+01 6.60285E+00-8.57207E-02 3.74788E-02-5.96634E-13-1.27662E-13
 -1      2661 2.87086E+01-4.96333E+00 1.48663E-02-4.07748E+00-3.28904E-13-2.36255E-13
 -1      2662 2.16601E+01-7.12739E-01-6.59337E-03 3.48546E-01-2.80698E-13 4.35469E-13
 -1      2663 2.25932E+01-1.11296E+00 1.23167E-02-4.99574E-01-1.11056E-13-3.15274E-13
 -1      2664 1.98442E+01 2.76505E+00-6.32283E-03 5.16174E-01 9.80770E-14-1.02754E-13
 -1      2665 1.98194E+01 2.81480E+00-5.69749E-03 3.65302E-01 9.09432E-14-1.02825E-13
 -1      2666 1.98024E+01 2.85237E+00-5.60193E-03 2.29715E-01 8.47219E-14-9.67733E-14
 -1      2667 1.97937E+01 2.86921E+00-5.47934E-03 7.51133E-02 7.56481E-14-8.56587E-14
 -1      2668 1.99490E+01 2.50101E+00 3.67016E-03 2.65082E-01 8.53897E-14-9.21260E-14
 -1      2669 2.00437E+01 2.32387E+00-1.07311E-02 1.04574E+00 1.66555E-13 2.76558E-15
 -1      2670 1.99792E+01 2.47288E+00-6.34308E-03 9.10083E-01 1.58337E-13-1.47491E-14
 -1      2671 2.02168E+01 1.90869E+00-1.19361E-02 1.22712E+00 1.76989E-13 4.93299E-14
 -1      2672 2.01244E+01 2.14641E+00-4.80253E-03 1.13388E+00 1.67037E-13 2.12733E-14
 -1      2673 2.01895E+01 1.88664E+00 6.49051E-03 9.26435E-01 1.48963E-13 1.17408E-14
 -1      2674 2.02134E+01 7.26845E-01-3.45615E-03 6.42423E-01 1.36055E-13 1.21642E-13
 -1      2675 2.03552E+01 9.51702E-01 9.17329E-03 9.06130E-01 1.50089E-13 1.34511E-13
 -1      2676 2.01887E+01 2.27590E+00 3.67382E-03-1.42677E+00-9.47044E-14-8.90980E-14
 -1      2677 2.00710E+01 4.15679E-01-1.38005E-03 2.87867E-01 8.82677E-14 1.27545E-13
 -1      2678 2.01716E+01 5.53378E-01 1.02666E-02 4.50231E-01 1.10079E-13 1.23788E-13
 -1      2679 2.02543E+01 8.22534E-01 1.06902E-03 6.16914E-01 1.18215E-13 1.01719E-13
 -1      2680 1.86039E+01-4.29622E+00 4.84895E-03 7.95387E+00-3.69427E-14-5.27828E-13
 -1      2681 1.49136E+01-2.87782E+00 2.08914E-01 7.40276E+00-2.94903E-13-5.70932E-14
 -1      2682 2.02269E+01 6.23985E-01 1.15315E-02-4.33801E-01-6.54925E-14-1.57569E-14
 -1      2683 2.01330E+01 4.72343E-01-4.05056E-03-2.77841E-01-6.29692E-14-1.81745E-14
 -1      2684 2.01062E+01 3.62570E-01 6.68507E-03-1.58115E-01-7.35440E-14-4.19776E-15
 -1      2685 2.00471E+01 2.67603E-01-1.79012E-03-6.06915E-02-5.04507E-14-1.80393E-14
 -1      2686 2.01963E+01 5.28501E-01-1.36244E-03-2.62485E-01-6.79552E-14-2.52863E-14
 -1      2687 2.00211E+01 1.97408E-01 4.54088E-03 1.45703E-02-3.11146E-14-3.37976E-14
 -1      2688 1.99852E+01 1.37836E-01-8.33870E-04 7.11118E-02-4.11085E-14-2.23851E-14
 -1      2689 2.01264E+01 2.98547E-01-2.05080E-03-5.52059E-02-5.51756E-14-4.67941E-14
 -1      2690 1.99643E+01 9.36791E-02 2.90242E-03 1.14407E-01-5.21328E-14-3.34386E-14
 -1      2691 1.99461E+01 5.63822E-02-2.97650E-04 1.43788E-01-6.72143E-14-6.33674E-14
 -1      2692 2.00698E+01 1.52286E-01-1.89019E-03 7.19138E-02-6.50180E-14-1.02005E-13
 -1      2693 1.99311E+01 2.89123E-02 1.73669E-03 1.65195E-01-9.36230E-14-8.84992E-14
 -1      2694 1.99251E+01 6.14542E-03 4.19590E-07 1.77024E-01-9.78069E-14-1.31129E-13
 -1      2695 2.00286E+01 5.98900E-02-1.51868E-03 1.42773E-01-1.09026E-13-1.16636E-13
 -1      2696 1.99152E+01-1.03313E-02 9.31524E-04 1.84035E-01-9.37615E-14-1.16479E-13
 -1      2697 1.99170E+01-2.34320E-02 1.58488E-04 1.84899E-01-1.36722E-13-1.16353E-13
 -1      2698 2.00012E+01 2.87558E-03-1.13914E-03 1.75390E-01-9.71598E-14-7.38173E-14
 -1      2699 1.99112E+01-3.25498E-02 3.92749E-04 1.82932E-01-1.06876E-13-3.71909E-14
 -1      2700 1.99175E+01-3.91755E-02 2.37656E-04 1.77350E-01-9.19140E-14-4.74768E-15
 -1      2701 1.99845E+01-3.04839E-02-8.19450E-04 1.83172E-01-7.50974E-14 5.35755E-14
 -1      2702 1.99145E+01-4.33511E-02 4.61088E-05 1.70241E-01-9.14667E-14 2.31581E-14
 -1      2703 1.99232E+01-4.56529E-02 2.74098E-04 1.61308E-01-3.68319E-14 3.42351E-14
 -1      2704 1.99756E+01-4.79229E-02-5.72021E-04 1.75791E-01-4.45224E-14 1.27968E-13
 -1      2705 1.99222E+01-4.65266E-02-1.65194E-04 1.51732E-01-4.11026E-14 4.59604E-14
 -1      2706 1.99319E+01-4.59658E-02 2.89623E-04 1.41557E-01-3.12084E-14 2.65611E-14
 -1      2707 1.99721E+01-5.46700E-02-3.90360E-04 1.60087E-01-4.66932E-14 1.29664E-13
 -1      2708 1.99323E+01-4.46490E-02-2.83961E-04 1.31354E-01-7.00185E-15 2.60276E-14
 -1      2709 1.99420E+01-4.22019E-02 2.98237E-04 1.21364E-01 2.66050E-14 1.20811E-14
 -1      2710 1.99724E+01-5.42859E-02-2.63096E-04 1.40825E-01-3.21492E-14 6.71434E-14
 -1      2711 1.99433E+01-3.94264E-02-3.42093E-04 1.11794E-01 9.73474E-15-2.17967E-14
 -1      2712 1.99527E+01-3.57149E-02 3.09752E-04 1.02962E-01 2.36425E-14 4.59308E-15
 -1      2713 1.99750E+01-4.91603E-02-1.78878E-04 1.21292E-01 8.58248E-15 3.75219E-14
 -1      2714 1.99546E+01-3.19295E-02-3.63161E-04 9.48996E-02 1.90972E-14 2.36816E-14
 -1      2715 1.99637E+01-2.73092E-02 3.31554E-04 8.79109E-02-4.56385E-14 6.03130E-14
 -1      2716 1.99792E+01-4.08264E-02-1.28121E-04 1.03759E-01 1.87438E-14 2.11129E-14
 -1      2717 1.99660E+01-2.27492E-02-3.64467E-04 8.19935E-02-9.46249E-14 1.04284E-13
 -1      2718 1.99749E+01-1.73728E-02 3.69688E-04 7.73716E-02-5.50410E-14 1.39700E-13
 -1      2719 1.99844E+01-3.01750E-02-1.03146E-04 8.98426E-02-5.58382E-14 5.40405E-14
 -1      2720 1.99776E+01-1.21086E-02-3.58791E-04 7.41163E-02-9.32248E-14 7.86004E-14
 -1      2721 1.99866E+01-5.97099E-03 4.29567E-04 7.23199E-02-6.37044E-14 5.98167E-14
 -1      2722 1.99906E+01-1.76075E-02-9.76829E-05 8.07764E-02-1.19363E-13 2.19474E-13
 -1      2723 1.99897E+01 5.56114E-05-3.55757E-04 7.22105E-02-1.27642E-14-7.09059E-14
 -1      2724 1.99993E+01 7.08252E-03 5.16201E-04 7.37077E-02-3.22246E-14-1.16676E-13
 -1      2725 1.99977E+01-3.14698E-03-1.06719E-04 7.76222E-02-1.23537E-13 4.67099E-14
 -1      2726 2.00029E+01 1.40296E-02-3.62749E-04 7.72631E-02-2.01114E-14-1.07651E-13
 -1      2727 2.00137E+01 2.21687E-02 6.34200E-04 8.25874E-02-3.60676E-14-7.64221E-14
 -1      2728 2.00057E+01 1.34779E-02-1.26114E-04 8.14323E-02-3.33621E-14-1.10038E-13
 -1      2729 2.00178E+01 3.02685E-02-3.85619E-04 9.04116E-02-4.66763E-14-1.27259E-14
 -1      2730 2.00306E+01 3.98101E-02 7.87580E-04 1.00202E-01-7.58995E-15-3.79134E-14
 -1      2731 2.00150E+01 3.27620E-02-1.52009E-04 9.33709E-02-1.18145E-14-7.24249E-14
 -1      2732 2.00354E+01 4.93432E-02-4.29188E-04 1.13016E-01 4.59171E-14-7.15983E-14
 -1      2733 2.00509E+01 6.06159E-02 9.79389E-04 1.28039E-01 1.13787E-13-6.48364E-14
 -1      2734 2.00258E+01 5.53567E-02-1.80316E-04 1.14798E-01 1.59173E-14-6.71127E-14
 -1      2735 2.00566E+01 7.18792E-02-4.97405E-04 1.46698E-01 1.00704E-13-7.07120E-14
 -1      2736 2.00758E+01 8.52105E-02 1.21098E-03 1.67852E-01 6.27990E-14-6.90461E-14
 -1      2737 2.00385E+01 8.19961E-02-2.06330E-04 1.47315E-01 8.92676E-14-1.77244E-13
 -1      2738 2.00824E+01 9.84730E-02-5.93096E-04 1.93336E-01 3.02741E-14-7.43382E-14
 -1      2739 2.01064E+01 1.14131E-01 1.48089E-03 2.21629E-01-1.46089E-14-7.06159E-14
 -1      2740 2.00534E+01 1.13400E-01-2.24467E-04 1.92773E-01 3.57964E-14-1.80222E-13
 -1      2741 2.01139E+01 1.29563E-01-7.17057E-04 2.55009E-01-6.44686E-14-8.53061E-14
 -1      2742 2.01439E+01 1.47661E-01 1.78333E-03 2.91498E-01-6.48978E-14-1.55109E-13
 -1      2743 2.00707E+01 1.50131E-01-2.28395E-04 2.53225E-01-8.14041E-14 2.30988E-14
 -1      2744 2.01524E+01 1.65223E-01-8.66112E-04 3.33866E-01 2.44186E-14-1.05798E-13
 -1      2745 2.01894E+01 1.85570E-01 2.10625E-03 3.79542E-01 6.51698E-15-9.09875E-14
 -1      2746 2.00906E+01 1.92366E-01-2.12031E-04 3.30815E-01 2.50225E-14-3.41832E-14
 -1      2747 2.01989E+01 2.04824E-01-1.02942E-03 4.31881E-01-1.81746E-14 3.71262E-15
 -1      2748 2.02441E+01 2.26675E-01 2.42912E-03 4.87466E-01 2.89328E-14 2.59797E-14
 -1      2749 2.01133E+01 2.39538E-01-1.72313E-04 4.27574E-01 3.49876E-14 2.38485E-14
 -1      2750 2.02548E+01 2.46490E-01-1.18191E-03 5.50450E-01 1.48961E-14-2.32958E-14
 -1      2751 2.03093E+01 2.68149E-01 2.72075E-03 6.16077E-01-5.21880E-14-7.09885E-14
 -1      2752 2.01387E+01 2.89749E-01-1.15290E-04 5.45096E-01 4.31049E-14 3.93685E-14
 -1      2753 2.03217E+01 2.86227E-01-1.27330E-03 6.89770E-01 2.58077E-14-3.86927E-14
 -1      2754 2.03869E+01 3.04433E-01 2.93757E-03 7.64472E-01 1.29786E-13 9.48688E-14
 -1      2755 2.01672E+01 3.38858E-01-6.79884E-05 6.84049E-01-2.67004E-15 9.04380E-15
 -1      2756 2.04023E+01 3.16585E-01-1.21053E-03 8.47880E-01 2.44608E-14 3.30634E-15
 -1      2757 2.04798E+01 3.25602E-01 3.02230E-03 9.28842E-01 6.21413E-14 4.93606E-14
 -1      2758 2.02002E+01 3.79066E-01-9.95956E-05 8.43486E-01 4.17226E-14 1.17241E-13
 -1      2759 2.05016E+01 3.24733E-01-8.31732E-04 1.01927E+00 1.92760E-13 1.46246E-14
 -1      2760 2.05940E+01 3.15114E-01 2.90060E-03 1.10073E+00 1.76176E-13 1.15994E-13
 -1      2761 2.02411E+01 3.96872E-01-3.56012E-04 1.01988E+00 1.06818E-13 5.61276E-14
 -1      2762 2.06295E+01 2.89937E-01 1.28759E-04 1.19280E+00 1.38797E-14 9.33404E-14
 -1      2763 2.07414E+01 2.47121E-01 2.46647E-03 1.26455E+00 1.22786E-14-9.24576E-15
 -1      2764 2.02985E+01 3.70311E-01-1.10987E-03 1.20575E+00 1.48110E-13 1.44137E-14
 -1      2765 2.08047E+01 1.80980E-01 2.08107E-03 1.34873E+00-3.63756E-14 7.50099E-14
 -1      2766 2.09444E+01 8.43541E-02 1.53704E-03 1.39414E+00-4.32721E-14 3.77504E-14
 -1      2767 2.03902E+01 2.65859E-01-2.81680E-03 1.38766E+00 7.21602E-14-1.66092E-14
 -1      2768 2.10605E+01-4.47365E-02 5.60989E-03 1.45417E+00-2.54016E-14 5.88240E-14
 -1      2769 2.12410E+01-2.20475E-01-2.47747E-04 1.44783E+00-1.29520E-13 1.11232E-13
 -1      2770 2.05500E+01 3.63714E-02-6.12808E-03 1.54284E+00-1.06061E-13 1.98528E-13
 -1      2771 2.14500E+01-4.35809E-01 1.13888E-02 1.45616E+00-1.22008E-13 1.70138E-13
 -1      2772 2.16874E+01-7.13067E-01-3.80318E-03 1.36175E+00 1.10047E-14 2.00186E-13
 -1      2773 2.08360E+01-3.75918E-01-1.17355E-02 1.63284E+00-3.75800E-14 2.22450E-13
 -1      2774 2.20452E+01-1.02565E+00 1.94798E-02 1.27116E+00 2.61591E-14 2.79081E-13
 -1      2775 2.23500E+01-1.39945E+00-9.86953E-03 1.04151E+00 1.27801E-13 3.03232E-13
 -1      2776 2.13375E+01-1.02287E+00-2.00767E-02 1.59140E+00 3.25800E-14 3.09976E-13
 -1      2777 2.29102E+01-1.77526E+00 2.85231E-02 7.80409E-01 2.18410E-13 3.19078E-13
 -1      2778 2.32664E+01-2.17202E+00-1.89356E-02 3.69587E-01 1.90245E-13 3.16416E-13
 -1      2779 2.21658E+01-1.89536E+00-2.92560E-02 1.30401E+00 1.16689E-13 2.33078E-13
 -1      2780 2.40326E+01-2.48152E+00 2.99036E-02-1.53751E-01 9.97801E-14 3.20966E-13
 -1      2781 2.43704E+01-2.67683E+00-2.58345E-02-7.54019E-01-6.22185E-14 3.24483E-13
 -1      2782 2.33995E+01-2.81748E+00-3.45289E-02 6.04518E-01 1.16660E-13 1.88348E-13
 -1      2783 2.51926E+01-2.63293E+00 6.41170E-03-1.56074E+00-7.92456E-14 3.44199E-13
 -1      2784 2.53725E+01-2.27081E+00-3.17395E-02-2.22391E+00-2.04593E-14 3.58806E-13
 -1      2785 2.49854E+01-3.24378E+00-1.79686E-02-6.83784E-01 1.82493E-14 3.58007E-13
 -1      2786 2.58995E+01-1.48916E+00-4.98166E-02-3.05860E+00-8.11799E-14 5.40949E-13
 -1      2787 2.57945E+01-3.83628E-01-3.38011E-02-3.38532E+00 1.52447E-14 4.46949E-13
 -1      2788 2.64149E+01-2.40877E+00-2.54364E-02-2.36220E+00-4.41001E-14 4.89376E-13
 -1      2789 2.50414E+01 3.60147E+00-9.44376E-02-2.38827E+00-3.83540E-13-8.50084E-14
 -1      2790 2.48940E+01 4.15347E+00-8.92349E-02-1.36880E+00-4.78395E-13-1.62611E-13
 -1      2791 2.50148E+01 4.01101E+00-8.02200E-02-1.46989E-02-5.25538E-13-3.42608E-14
 -1      2792 2.50920E+01 3.10211E+00-1.38662E-01 8.59559E-01-3.84144E-13-7.99760E-14
 -1      2793 2.53587E+01 1.83911E+00-2.00956E-02 1.45547E+00-2.96610E-13-2.61999E-13
 -1      2794 2.54051E+01 4.02115E-01-1.11629E-01 1.60659E+00-1.56580E-13-2.66589E-13
 -1      2795 2.67767E+01 2.87817E+00-5.96783E-02 1.33265E+00-4.46823E-13-2.70367E-13
 -1      2796 2.52833E+01-7.34844E-01-1.45188E-02 1.20751E+00-1.28951E-13-4.27275E-13
 -1      2797 2.51008E+01-1.55408E+00-3.60117E-02 7.76164E-01-7.83570E-14-4.60694E-13
 -1      2798 2.66722E+01-3.03049E-01-4.27404E-02 1.37521E+00-2.17999E-13-5.52849E-13
 -1      2799 2.44153E+01-1.87951E+00-2.46446E-02 2.61810E-02-5.59668E-14-6.88756E-13
 -1      2800 2.39923E+01-1.88706E+00 5.53254E-03-4.84244E-01-1.11473E-13-7.69290E-13
 -1      2801 2.56855E+01-2.12551E+00-1.01216E-02-2.66337E-03-1.85312E-13-7.61939E-13
 -1      2802 1.98552E+01 4.90702E-02 4.30359E-05-1.43860E-01 2.37389E-14 1.11050E-13
 -1      2803 1.98691E+01 8.09761E-02 3.14007E-03-1.15615E-01 2.59901E-14 1.34795E-13
 -1      2804 2.89886E+01 4.92181E+00-1.63932E-01 9.43303E-01-4.78895E-13-2.58932E-13
 -1      2805 2.85364E+01 6.03671E+00-2.27679E-01-2.23946E-01-5.67962E-13-2.15354E-13
 -1      2806 1.98923E+01 1.18501E-01-2.53716E-04-7.12623E-02 3.22319E-14 1.25576E-13
 -1      2807 1.99272E+01 1.70141E-01 4.94973E-03-1.60520E-02 5.02357E-14 1.43259E-13
 -1      2808 1.99920E+01 1.35063E-01-2.28534E-03-7.25726E-02 4.26526E-14 1.11232E-13
 -1      2809 1.98432E+01-1.85057E-02 2.37277E-04-1.84102E-01 2.06197E-14 6.59703E-14
 -1      2810 1.98349E+01-7.39998E-03 8.80633E-04-1.83725E-01 7.05804E-14 7.28572E-14
 -1      2811 1.98542E+01-3.19034E-02 2.48091E-04-1.76262E-01-1.97662E-15 6.38687E-14
 -1      2812 1.98414E+01-2.62583E-02 2.96646E-04-1.82081E-01-2.86232E-15 7.23806E-14
 -1      2813 1.99201E+01-2.51812E-02-8.51121E-04-1.86962E-01 2.09534E-14 4.27051E-14
 -1      2814 1.98701E+01-3.75640E-02 2.41975E-04-1.60028E-01 6.08711E-14 1.10129E-13
 -1      2815 1.98555E+01-3.55398E-02-6.54841E-05-1.69047E-01 2.86382E-14 7.08489E-14
 -1      2816 1.99199E+01-4.04931E-02-5.51231E-04-1.79196E-01 1.40253E-14 5.35606E-14
 -1      2817 1.98880E+01-3.81019E-02 2.33196E-04-1.40106E-01 5.59964E-14 8.63576E-14
 -1      2818 1.98733E+01-3.84601E-02-2.75935E-04-1.50306E-01 6.20179E-14 1.29215E-13
 -1      2819 1.99251E+01-4.66010E-02-3.40988E-04-1.62924E-01 5.73515E-14 5.97091E-14
 -1      2820 1.99063E+01-3.52748E-02 2.30009E-04-1.19682E-01 7.31076E-14 3.35920E-14
 -1      2821 1.98922E+01-3.71882E-02-3.83979E-04-1.29708E-01 7.14352E-14 8.83080E-14
 -1      2822 1.99334E+01-4.66074E-02-2.01430E-04-1.42974E-01 7.12408E-14 2.35706E-14
 -1      2823 1.99239E+01-3.02266E-02 2.38071E-04-1.00907E-01 6.65381E-14-1.81857E-15
 -1      2824 1.99109E+01-3.31659E-02-4.25341E-04-1.09850E-01 6.85416E-14 3.93596E-14
 -1      2825 1.99431E+01-4.25899E-02-1.15543E-04-1.22645E-01 7.73725E-14 1.21884E-13
 -1      2826 1.99407E+01-2.36485E-02 2.61808E-04-8.52593E-02 1.11305E-13 3.79705E-14
 -1      2827 1.99287E+01-2.73049E-02-4.25686E-04-9.24901E-02 8.52324E-14 1.95069E-14
 -1      2828 1.99535E+01-3.58884E-02-7.03376E-05-1.04188E-01 7.82531E-14 6.16422E-14
 -1      2829 1.99568E+01-1.58918E-02 3.05362E-04-7.38137E-02 1.57874E-13 4.61298E-14
 -1      2830 1.99456E+01-2.01225E-02-4.03199E-04-7.88651E-02 1.30467E-13 5.18004E-14
 -1      2831 1.99642E+01-2.72961E-02-5.59018E-05-8.91787E-02 9.91022E-14 5.44937E-14
 -1      2832 1.99727E+01-7.04816E-03 3.72866E-04-6.74466E-02 8.40612E-14 1.50807E-13
 -1      2833 1.99618E+01-1.18375E-02-3.70792E-04-6.99206E-02 1.42731E-13 8.42045E-14
 -1      2834 1.99750E+01-1.71955E-02-6.49480E-05-7.87923E-02 1.16811E-13 9.50805E-14
 -1      2835 1.99891E+01 2.98776E-03 4.68545E-04-6.69908E-02 1.57260E-14 1.60506E-13
 -1      2836 1.99779E+01-2.44071E-03-3.37524E-04-6.64905E-02 5.99143E-14 1.70520E-13
 -1      2837 1.99863E+01-5.65645E-03-9.22827E-05-7.40127E-02 4.23246E-14 1.66046E-13
 -1      2838 2.00073E+01 1.44661E-02 5.96552E-04-7.33505E-02-7.49570E-14 1.81726E-13
 -1      2839 1.99949E+01 8.24845E-03-3.09721E-04-6.94297E-02 4.62106E-15 1.76727E-13
 -1      2840 1.99984E+01 7.48748E-03-1.33945E-04-7.57921E-02-7.31082E-15 2.38059E-13
 -1      2841 2.00283E+01 2.77314E-02 7.60537E-04-8.75798E-02-4.45153E-16 3.48776E-14
 -1      2842 2.00139E+01 2.05312E-02-2.91766E-04-7.97101E-02-8.39824E-14 6.71831E-14
 -1      2843 2.00121E+01 2.25711E-02-1.86983E-04-8.51657E-02 2.66736E-15 1.42749E-13
 -1      2844 2.00537E+01 4.31643E-02 9.62945E-04-1.10924E-01 1.06198E-13 2.74505E-14
 -1      2845 2.00362E+01 3.47765E-02-2.86486E-04-9.84804E-02 1.10426E-13 4.91887E-14
 -1      2846 2.00280E+01 4.00310E-02-2.48889E-04-1.03328E-01 3.84642E-14 2.52714E-14
 -1      2847 2.00853E+01 6.11076E-02 1.20392E-03-1.44819E-01 2.19803E-15 8.83059E-14
 -1      2848 2.00633E+01 5.13567E-02-2.95287E-04-1.27087E-01 1.94647E-14 7.82756E-14
 -1      2849 2.00472E+01 6.03266E-02-3.17136E-04-1.31666E-01 9.41692E-14 1.21377E-13
 -1      2850 2.01248E+01 8.17588E-02 1.47961E-03-1.90829E-01-4.59186E-14 8.46671E-14
 -1      2851 2.00971E+01 7.05595E-02-3.17888E-04-1.67046E-01 3.28812E-14 1.03589E-13
 -1      2852 2.00706E+01 8.38356E-02-3.89044E-04-1.71744E-01 3.44837E-14 1.26434E-13
 -1      2853 2.01743E+01 1.05010E-01 1.77975E-03-2.50517E-01-1.50806E-13-1.09059E-14
 -1      2854 2.01394E+01 9.24586E-02-3.51434E-04-2.19952E-01-1.26858E-13 3.57385E-14
 -1      2855 2.00994E+01 1.10704E-01-4.61963E-04-2.25229E-01-6.23368E-14 1.41650E-13
 -1      2856 2.02362E+01 1.30204E-01 2.08431E-03-3.25192E-01-7.08121E-14-4.32002E-14
 -1      2857 2.01925E+01 1.16717E-01-3.88722E-04-2.87288E-01-8.14473E-14-1.63571E-14
 -1      2858 2.01349E+01 1.40620E-01-5.34150E-04-2.93725E-01-1.05242E-13 1.26639E-13
 -1      2859 2.03128E+01 1.55767E-01 2.35920E-03-4.15501E-01-4.08173E-14 1.22865E-14
 -1      2860 2.02587E+01 1.42292E-01-4.15104E-04-3.70116E-01-3.98302E-14 9.42693E-15
 -1      2861 2.01787E+01 1.72476E-01-6.06960E-04-3.78496E-01-6.51064E-14 1.22291E-13
 -1      2862 2.04067E+01 1.78670E-01 2.55079E-03-5.20803E-01 8.34952E-14 4.19533E-14
 -1      2863 2.03407E+01 1.66985E-01-4.03423E-04-4.68573E-01 2.95085E-14 6.91234E-15
 -1      2864 2.02323E+01 2.03867E-01-6.89252E-04-4.80029E-01-5.68625E-14 7.34106E-14
 -1      2865 2.05208E+01 1.93658E-01 2.57955E-03-6.38226E-01 1.75908E-14 5.30465E-14
 -1      2866 2.04415E+01 1.86808E-01-3.06316E-04-5.81102E-01 7.16701E-14 7.79584E-14
 -1      2867 2.02983E+01 2.30356E-01-8.05208E-04-5.97371E-01 3.81660E-14 1.49546E-14
 -1      2868 2.06585E+01 1.92255E-01 2.33287E-03-7.61335E-01-3.07274E-14-2.63827E-14
 -1      2869 2.05649E+01 1.95090E-01-4.56142E-05-7.03347E-01 3.97646E-14 7.73694E-14
 -1      2870 2.03797E+01 2.44475E-01-1.00667E-03-7.27189E-01 9.72765E-15 1.05754E-13
 -1      2871 2.08247E+01 1.61634E-01 1.65759E-03-8.78305E-01-1.06804E-14 5.04229E-14
 -1      2872 2.07160E+01 1.81401E-01 4.99615E-04-8.26572E-01-7.20850E-14 3.51176E-14
 -1      2873 2.04818E+01 2.34454E-01-1.38970E-03-8.62442E-01-7.23388E-14 8.05308E-14
 -1      2874 2.10260E+01 8.38085E-02 3.53220E-04-9.69607E-01 4.54924E-14 1.73256E-13
 -1      2875 2.09018E+01 1.30491E-01 1.49998E-03-9.35549E-01 6.03004E-14 1.64581E-13
 -1      2876 2.06133E+01 1.82906E-01-2.11030E-03-9.90579E-01-5.65050E-14 1.56749E-13
 -1      2877 2.12727E+01-6.37333E-02-1.82552E-03-1.00537E+00-1.26277E-13 2.83278E-13
 -1      2878 2.11330E+01 2.19876E-02 3.16205E-03-1.00589E+00-3.37326E-14 2.47847E-13
 -1      2879 2.07881E+01 6.61508E-02-3.38113E-03-1.09115E+00-4.74722E-14 2.97506E-13
 -1      2880 2.15781E+01-3.03557E-01-5.13894E-03-9.43144E-01-1.08399E-13 4.28268E-13
 -1      2881 2.14244E+01-1.67490E-01 5.66458E-03-1.00115E+00-1.37461E-13 3.60115E-13
 -1      2882 2.10282E+01-1.44166E-01-5.40204E-03-1.13276E+00-1.95688E-13 2.23307E-13
 -1      2883 2.19557E+01-6.45786E-01-9.72515E-03-7.27800E-01 7.88566E-14 6.20366E-13
 -1      2884 2.17930E+01-4.56630E-01 8.95271E-03-8.70674E-01 9.68100E-15 5.11919E-13
 -1      2885 2.13639E+01-4.73805E-01-8.14920E-03-1.06962E+00-1.28805E-13 1.42370E-13
 -1      2886 2.24077E+01-1.06244E+00-1.52026E-02-2.98254E-01 2.71952E-13 5.19514E-13
 -1      2887 2.22495E+01-8.41198E-01 1.22612E-02-5.51492E-01 2.03161E-13 6.49613E-13
 -1      2888 2.18294E+01-9.27142E-01-1.09517E-02-8.39202E-01 8.62979E-14 3.80401E-13
 -1      2889 2.29029E+01-1.44800E+00-1.94002E-02 3.89913E-01 3.73958E-13 4.00864E-13
 -1      2890 2.27779E+01-1.26133E+00 1.35538E-02 1.81289E-02 3.43773E-13 5.27228E-13
 -1      2891 2.24447E+01-1.45089E+00-1.19674E-02-3.67255E-01 3.41676E-13 3.67791E-13
 -1      2892 2.33479E+01-1.57955E+00-1.68210E-02 1.31550E+00 2.95353E-13 5.69653E-13
 -1      2893 2.33027E+01-1.55901E+00 1.00995E-02 8.62886E-01 3.54414E-13 5.65609E-13
 -1      2894 2.31811E+01-1.88678E+00-7.72581E-03 4.10176E-01 2.77450E-13 5.92823E-13
 -1      2895 2.35606E+01-1.16724E+00-1.01752E-02 2.28011E+00 8.57381E-14 6.74982E-13
 -1      2896 2.36421E+01-1.45702E+00-7.18815E-03 1.87481E+00 1.50394E-13 7.08402E-13
 -1      2897 2.38909E+01-1.89511E+00 8.18259E-03 1.47305E+00 1.59762E-13 6.96336E-13
 -1      2898 2.33909E+01-3.40161E-02 8.80567E-03 2.89744E+00-7.44335E-14 4.48884E-13
 -1      2899 2.36167E+01-6.95518E-01-3.03336E-02 2.73851E+00 8.00254E-14 6.09070E-13
 -1      2900 2.43081E+01-1.19852E+00 4.55994E-03 2.55646E+00 8.04010E-14 7.92802E-13
 -1      2901 2.28821E+01 1.45092E+00 1.69520E-02 2.63945E+00-5.71392E-14 2.03720E-13
 -1      2902 2.31470E+01 6.91989E-01-4.66816E-02 2.89903E+00-1.91108E-13 3.06932E-13
 -1      2903 2.42059E+01 4.36664E-01 7.59642E-03 3.13034E+00 3.54491E-14 6.04346E-13
 -1      2904 2.23249E+01 2.46233E+00-2.34035E-02 1.40840E+00 8.22467E-14-4.95697E-15
 -1      2905 2.25368E+01 2.08021E+00-4.74944E-02 2.05543E+00 1.65493E-14 1.61371E-13
 -1      2906 2.37196E+01 2.21388E+00-1.10014E-02 2.62103E+00-4.58834E-14 1.60835E-13
 -1      2907 2.22834E+01 2.18663E+00-3.98140E-02-1.89450E-01 2.21458E-13 8.16508E-14
 -1      2908 2.23170E+01 2.49455E+00-2.88542E-03 4.62894E-01 1.84507E-13 4.73250E-14
 -1      2909 2.33146E+01 3.11266E+00-2.75206E-02 9.66799E-01 1.48985E-13-3.13291E-14
 -1      2910 2.25341E+01 9.89870E-01-5.36436E-02-1.19095E+00 1.48690E-13-1.64001E-14
 -1      2911 2.24729E+01 1.68765E+00 1.23166E-02-8.30877E-01 1.70031E-13-6.98833E-14
 -1      2912 2.34448E+01 2.29511E+00-3.07201E-02-5.82715E-01 2.33212E-13-3.13942E-14
 -1      2913 2.27207E+01-2.85904E-01-3.24295E-02-1.21378E+00 9.65512E-14 2.65835E-13
 -1      2914 2.27125E+01 3.04519E-01 1.45430E-02-1.26726E+00 1.34490E-13 2.32756E-13
 -1      2915 2.37625E+01 8.10443E-01 6.85574E-03-1.33988E+00-3.41428E-14-1.76288E-13
 -1      2916 2.24382E+01-8.81040E-01-1.66623E-02-6.29510E-01 2.89454E-14 4.55263E-13
 -1      2917 2.25654E+01-6.63559E-01-4.98659E-03-8.82253E-01 8.33639E-14 4.00133E-13
 -1      2918 2.36723E+01-6.11899E-01 1.69701E-02-9.66734E-01-1.02791E-14 2.59108E-13
 -1      2919 2.19993E+01-8.81424E-01-6.68682E-03 1.92032E-02-2.28376E-13 5.30468E-13
 -1      2920 2.22529E+01-9.56797E-01-1.68080E-02-2.29675E-01-4.25343E-14 4.79234E-13
 -1      2921 2.32827E+01-1.18083E+00 2.31921E-02-1.59318E-01-3.92008E-14 6.30242E-13
 -1      2922 2.26872E+01-1.07334E+00 2.97015E-02 6.25270E-01-1.77279E-13 3.72297E-13
 -1      2923 1.30204E+01 1.48801E+00 1.18468E-04 3.18732E+00-6.20046E-13 6.71865E-13
 -1      2924 1.49052E+01 1.00982E+00 1.93059E-01 4.80972E+00-6.62984E-13 5.45355E-13
 -1      2925 2.33513E+01-1.70363E+00-2.68624E-02-9.14470E-01 8.53701E-14-7.14310E-13
 -1      2926 2.29926E+01-1.40846E+00 1.07042E-02-1.13012E+00 1.23617E-13-5.72735E-13
 -1      2927 2.31849E+01-1.49759E+00 1.15133E-02-1.79525E+00 2.63568E-13-7.62143E-13
 -1      2928 2.43427E+01-2.25335E+00-1.70670E-02-1.20034E+00-1.28391E-15-8.15798E-13
 -1      2929 2.14823E+01-1.78185E+00 9.85221E-03 5.65386E+00-1.01641E-13-6.21839E-13
 -1      2930 2.27886E+01-2.18408E+00 5.24840E-02 4.99903E+00 6.12791E-14-4.87575E-13
 -1      2931 1.19239E+01 1.66873E+00 1.33943E-01-1.56919E+00-1.35048E-13 9.40151E-13
 -1      2932 1.16739E+01 1.76028E+00 1.20171E-01 7.15280E-01-6.00757E-13 9.61217E-13
 -1      2933 1.68781E+01-6.21607E-01-1.15575E-03 6.14953E+00-4.92537E-13-2.00256E-14
 -1      2934 1.93601E+01-1.36175E+00 1.30618E-01 6.43020E+00-1.66745E-13-3.33025E-13
 -1      2935 2.03384E+01 1.50033E+00-1.89818E-03 1.26667E+00 1.77856E-13 1.16827E-13
 -1      2936 1.59960E+01 4.38536E-01 1.91259E-01-5.40121E+00 7.42191E-13 8.96366E-13
 -1      2937 1.37588E+01 1.05580E+00 5.87318E-04-4.10261E+00 2.76348E-13 8.87332E-13
 -1      2938 2.05312E+01-1.31831E+00 1.38580E-01-5.97532E+00 7.01876E-13 2.22568E-13
 -1      2939 1.82932E+01-7.24183E-01-2.13035E-02-5.99332E+00 8.10692E-13 5.46417E-13
 -1      2940 1.66910E+01-1.39952E+00 9.51191E-02-6.38946E+00 6.99593E-13 8.39856E-13
 -1      2941 2.30560E+01-2.05577E+00 5.32793E-02-4.33896E+00 3.59933E-13-2.80402E-13
 -1      2942 2.20184E+01-1.84190E+00-7.26294E-03-5.13432E+00 5.35070E-13-1.89136E-13
 -1      2943 2.16065E+01-2.77858E+00 1.23454E-02-5.89344E+00 3.90639E-13-4.59945E-14
 -1      2944 2.34295E+01-1.84896E+00 1.24891E-02-2.53733E+00 3.09864E-13-4.63004E-13
 -1      2945 2.33141E+01-1.90303E+00 1.20750E-02-3.43924E+00 3.47378E-13-2.57258E-13
 -1      2946 2.37723E+01-2.83414E+00-3.25125E-03-3.99401E+00 1.74973E-14-4.12687E-13
 -1      2947 2.40159E+01-2.27714E+00 1.42617E-02-2.31055E+00 2.00425E-13-5.63459E-13
 -1      2948 1.47858E+01-3.64181E+00 1.48791E-01-7.58288E+00 3.40811E-13 1.08966E-12
 -1      2949 1.82258E+01-4.74598E+00 3.08623E-02-8.01238E+00 1.64480E-13 4.24771E-13
 -1      2950 1.10120E+01-5.16165E-01 2.58595E-01-4.75146E+00 1.30354E-13 1.34273E-12
 -1      2951 1.26873E+01-2.15496E+00 1.31161E-01-6.77958E+00 3.24185E-13 1.32450E-12
 -1      2952 2.95460E+01 8.02088E-01-4.46765E-02 2.98246E+00 1.86184E-13 7.64722E-13
 -1      2953 2.92961E+01 3.04698E+00-2.34251E-01 3.19032E+00 3.25684E-13 8.59063E-13
 -1      2954 2.03093E+01 1.58878E+00-1.18618E-02-1.23573E+00-1.01464E-13-6.53629E-14
 -1      2955 2.03278E+01 1.23151E+00 1.27819E-02-9.67751E-01-8.39589E-14-4.32638E-14
 -1      2956 2.02440E+01 9.49859E-01-5.20939E-03-7.21873E-01-7.96138E-14-3.54197E-14
 -1      2957 2.01594E+01 2.04646E+00 1.22237E-04-1.13877E+00-6.77815E-14-9.25228E-14
 -1      2958 6.21594E+00-1.80805E+00 1.33523E-01 1.73811E+00-1.66284E-13-7.06740E-13
 -1      2959 5.91506E+00-1.63955E+00 1.36827E-01-7.35921E-01-1.24557E-13-4.89719E-13
 -1      2960 2.86322E+01-4.58064E+00-1.15733E-01 2.54468E-01-1.98584E-13 1.86962E-13
 -1      2961 2.70033E+01-5.48049E+00 6.08269E-02 1.54803E+00-9.37930E-14 1.29410E-13
 -1      2962 1.99620E+01 2.31228E-01-6.28033E-04 6.26404E-02 6.55767E-14 1.16048E-13
 -1      2963 2.00265E+01 3.14603E-01 7.49208E-03 1.59850E-01 7.55110E-14 1.21165E-13
 -1      2964 2.01468E+01 4.78891E-01-1.23382E-03 2.80069E-01 8.99728E-14 8.18691E-14
 -1      2965 2.00568E+01 2.67141E-01-2.11430E-03 6.08639E-02 5.88569E-14 1.01071E-13
 -1      2966 1.16573E+01-1.56280E+00 6.20591E-02 6.12563E+00-4.97491E-13 2.42278E-13
 -1      2967 1.00223E+01-4.63767E-01 2.63353E-01 4.17334E+00-3.99743E-13 5.58775E-13
 -1      2968 1.98415E+01 6.51892E-03 1.84121E-04-1.76649E-01 7.99001E-14 6.05516E-14
 -1      2969 1.98415E+01 2.58545E-02 1.78686E-03-1.65638E-01 4.49721E-14 9.26026E-14
 -1      2970 1.99510E+01 5.37947E-02-1.77062E-03-1.45888E-01 4.57303E-14 4.30552E-14
 -1      2971 1.99290E+01 3.94203E-03-1.25574E-03-1.79218E-01 6.21648E-14 4.91523E-14
 -1      2972 2.62738E+01-5.54696E+00 7.49600E-02-2.17113E+00-2.29778E-13 3.33344E-13
 -1      2973 2.75052E+01-4.85010E+00-8.82084E-02-8.64241E-01-1.57624E-13 3.81549E-13
 -1      2974 3.02540E+01 5.75140E-01-1.58893E-01-8.80498E-01-4.14668E-14 4.65850E-13
 -1      2975 3.00201E+01-1.86824E+00-4.50544E-02 3.00336E-01-7.48429E-14 4.63352E-13
 -1      2976 3.03944E+01-2.20347E+00 4.98888E-03-3.55326E-01-5.31727E-13-5.41789E-13
 -1      2977 3.06047E+01-2.99906E-01-1.78765E-01 6.15526E-01-6.25180E-13-5.13631E-13
 -1      2978 1.99230E+01 2.59585E+00-7.93609E-03 7.94239E-01 1.51086E-13-2.55824E-14
 -1      2979 1.98790E+01 2.68807E+00-6.16730E-03 6.45213E-01 1.21603E-13-5.74597E-14
 -1      2980 1.99980E+01 2.38853E+00 4.44419E-03 5.16684E-01 1.05832E-13-5.94780E-14
 -1      2981 2.00797E+01 2.19055E+00 5.63639E-03 7.45409E-01 1.45810E-13-2.36183E-15
 -1      2982 1.98743E+01 2.69700E+00-6.00245E-03-6.35000E-01-5.53057E-15-1.23588E-13
 -1      2983 1.99165E+01 2.60623E+00-8.14749E-03-7.84878E-01-2.41608E-14-1.24285E-13
 -1      2984 7.11624E+00-1.74272E+00 2.12376E-01-2.62372E+00-2.25008E-13-3.59435E-13
 -1      2985 9.08244E+00-2.39869E+00 9.70899E-02-4.43231E+00-4.16833E-13-4.66571E-14
 -1      2986 1.04298E+01-3.53451E+00 6.57861E-02 5.42703E+00 8.78464E-14-1.12577E-13
 -1      2987 7.98110E+00-2.37591E+00 1.81372E-01 3.72124E+00 5.30825E-15-5.28411E-13
 -1      2988 2.85861E+01-3.66954E+00-1.71671E-02 5.61649E-01 1.56090E-14 4.78673E-13
 -1      2989 2.90588E+01-2.15026E+00-2.03402E-01 1.79304E+00-1.14977E-14 4.10769E-13
 -1      2990 2.73847E+01-4.19970E+00 1.58255E-02 2.65076E-01-1.63939E-13 4.54879E-13
 -1      2991 2.94162E+01 6.57903E+00-2.01210E-01-1.75539E+00-5.87086E-13-9.57359E-14
 -1      2992 2.98328E+01 5.38127E+00-1.52892E-01-2.92427E+00-5.34239E-13 1.66547E-13
 -1      2993 1.24622E+01-3.87034E+00 1.32910E-01-5.92974E+00-2.92474E-13-1.22374E-13
 -1      2994 1.57267E+01-5.32179E+00 8.17988E-02-6.58616E+00-4.34597E-13-4.11227E-13
 -1      2995 1.70384E+01-5.50788E+00 4.54052E-03 6.10921E+00 1.40804E-13-9.54792E-14
 -1      2996 1.39085E+01-4.40741E+00 1.73841E-01 5.90614E+00 9.34808E-14-4.84335E-15
 -1      2997 2.49274E+01-5.70343E+00-6.14544E-02 6.19622E+00 1.05305E-13-5.21260E-13
 -1      2998 2.22313E+01-5.33814E+00 1.24458E-01 7.15113E+00-5.55944E-14-6.21603E-13
 -1      2999 2.41649E+01-6.47321E+00-8.92836E-02 3.79270E+00 1.11799E-13-2.51285E-13
 -1      3000 2.07600E+01-6.17785E+00 1.27513E-01 5.14167E+00 2.28387E-13-2.90209E-13
 -1      3001 2.97140E+01 3.22750E+00-2.28684E-01-3.36643E+00-4.36151E-13 1.70003E-13
 -1      3002 2.99533E+01 1.55745E+00-1.11495E-01-3.41876E+00-4.12531E-13 1.90375E-13
 -1      3003 2.71509E+01-5.45950E+00 9.80757E-02-4.60348E+00-1.77719E-13-3.17968E-13
 -1      3004 2.92512E+01-4.46995E+00-1.74460E-01-2.57566E+00-3.43975E-13-3.99805E-13
 -1      3005 2.93365E+01 1.19371E+00-1.33685E-01 1.42538E+00-5.07983E-13-3.46917E-13
 -1      3006 2.89283E+01 2.86185E+00-2.18095E-01 1.37548E+00-4.02900E-13-2.43638E-13
 -1      3007 2.16628E+01-5.34575E+00 1.48877E-01-7.27603E+00 3.15026E-14 7.41195E-14
 -1      3008 2.42060E+01-5.88774E+00-7.60617E-02-6.51859E+00-2.76446E-14-8.67188E-15
 -1      3009 2.89258E+01-4.08488E+00-1.10775E-01 2.37537E+00 9.72313E-14-4.07868E-14
 -1      3010 2.73525E+01-5.22618E+00 6.36640E-02 4.35639E+00 2.73309E-13-4.06730E-13
 -1      3011 1.99736E+01 2.48541E+00-6.17839E-03-9.00068E-01-3.16425E-14-1.36034E-13
 -1      3012 2.00277E+01 2.33781E+00-1.52561E-02-1.04425E+00-4.80029E-14-1.29367E-13
 -1      3013 2.00728E+01 2.20319E+00 5.61456E-03-7.34954E-01-2.93572E-14-1.18716E-13
 -1      3014 2.82451E+01-2.02931E-02-4.13572E-02 1.20941E+00-3.94761E-13-4.08076E-13
 -1      3015 1.99318E+01 2.53885E+00 3.42178E-03 4.32340E-03 5.73543E-14-6.25200E-14
 -1      3016 1.97933E+01 2.87038E+00-5.36211E-03-6.17646E-02 5.82232E-14-8.02487E-14
 -1      3017 1.98006E+01 2.85519E+00-5.66864E-03-2.16597E-01 3.13071E-14-9.13011E-14
 -1      3018 1.51603E+01-1.14258E+00 1.50800E-01 6.21927E+00-4.31197E-13 1.42761E-13
 -1      3019 8.09154E+00-1.07816E+00 1.85973E-01-1.46109E+00-1.55008E-13-3.63154E-13
 -1      3020 2.59269E+01-5.23391E+00 4.86809E-02-4.92477E+00-9.65200E-14-3.01294E-13
 -1      3021 2.81597E+01 3.79830E+00-8.12034E-02-3.37346E+00-5.10939E-13-5.39291E-14
 -1      3022 2.55484E+01-5.67818E+00 3.37337E-02 2.14635E+00 6.73628E-14-9.44383E-15
 -1      3023 2.09978E+01-4.05205E+00 9.73405E-02 7.01848E+00-2.86299E-14-4.68021E-13
 -1      3024 2.61598E+01-4.94218E+00 7.36713E-02 4.75572E+00 1.81105E-13-3.33691E-13
 -1      3025 2.64512E+01 4.97023E+00-1.04319E-01-7.20299E-01-4.21163E-13-2.50166E-13
 -1      3026 1.97842E+01-5.34717E+00 1.07724E-01 4.99049E+00 1.63772E-13-1.33810E-13
 -1      3027 2.75346E+01 1.39233E-01-7.78437E-02-3.58885E+00-2.33980E-13 2.98747E-13
 -1      3028 2.62908E+01 9.99257E-01-1.04255E-01-3.69628E+00-6.04586E-14 1.96870E-13
 -1      3029 2.59944E+01 2.48981E+00-6.07244E-02-3.33216E+00-2.75835E-13 5.79866E-14
 -1      3030 2.39025E+01-3.11945E+00 1.85654E-03 4.39577E+00-1.42645E-13-3.24366E-13
 -1      3031 2.34710E+01-2.02691E+00 2.83863E-02 3.77979E+00-1.08955E-13-5.01275E-13
 -1      3032 2.36737E+01-2.06842E+00-5.98018E-04 2.87552E+00-7.33190E-14-2.03001E-13
 -1      3033 2.45024E+01-5.77799E+00-1.15282E-02-3.07209E+00-3.58137E-13 3.24074E-13
 -1      3034 1.07358E+01 6.07079E-01 1.94070E-01 2.36865E+00-4.61083E-13 7.41629E-13
 -1      3035 1.16313E+01-2.78267E+00 1.97465E-01-5.16992E+00-2.89165E-13-4.43257E-14
 -1      3036 1.40154E+01-3.32420E+00 2.94799E-02-5.45645E+00-3.58512E-13-1.73847E-13
 -1      3037 1.10414E+01-1.79770E+00 1.05362E-01-4.13852E+00-1.85546E-13-1.86573E-13
 -1      3038 2.04471E+01-4.36457E+00 7.52949E-02-7.24001E+00 1.00336E-13 2.01061E-13
 -1      3039 2.35134E+01-1.63985E+00 2.71824E-02 1.99449E+00-1.16019E-13 3.42934E-13
 -1      3040 2.31443E+01-1.50615E+00-1.41445E-02 1.23711E+00-3.45822E-13 5.33780E-13
 -1      3041 2.35280E+01-1.65502E+00-1.30313E-02 8.51550E-01-1.55029E-13 4.42748E-13
 -1      3042 2.43503E+01-2.43814E+00-2.62733E-03 2.28267E+00-3.16017E-13 9.74400E-14
 -1      3043 2.02906E+01 1.58776E+00-1.19243E-03 1.16547E+00 1.69337E-13 8.84145E-14
 -1      3044 1.34921E+01-3.30677E+00 1.51909E-01 5.20644E+00 3.50553E-14 1.29619E-14
 -1      3045 2.89916E+01-3.47339E+00-5.57969E-02-1.25818E+00-3.32185E-13-5.49422E-13
 -1      3046 2.74465E+01 2.60857E+00-1.19326E-02 3.37247E+00 3.46029E-13 8.68042E-13
 -1      3047 2.85936E+01 3.87115E+00-1.65777E-01 3.24862E+00 2.97137E-13 7.75768E-13
 -1      3048 2.73319E+01 4.42632E+00-2.64073E-01 2.85752E+00 3.27266E-13 7.66692E-13
 -1      3049 2.02658E+01 1.02543E+00-7.44458E-04-6.69678E-01-5.76326E-14-4.09521E-14
 -1      3050 2.83591E+01-8.69803E-01-4.92953E-02 2.65695E+00 1.43240E-13 7.71466E-13
 -1      3051 2.93999E+01 6.64335E+00-2.55036E-01 4.58696E-01 3.98015E-13 2.39390E-13
 -1      3052 2.95487E+01 5.87725E+00-2.29469E-01-6.13661E-01 2.90989E-13 2.15689E-13
 -1      3053 2.98947E+01 2.07539E+00-1.36465E-01-1.34447E+00 2.40863E-13 2.82968E-13
 -1      3054 2.88233E+01 4.63557E-01-1.22749E-01-1.20460E+00 2.31121E-13 2.98345E-13
 -1      3055 8.68406E+00-1.49800E+00 1.91567E-01 2.59682E+00-5.48242E-14-5.25635E-13
 -1      3056 1.98167E+01 2.82037E+00-5.51966E-03-3.51471E-01 2.47254E-14-9.58894E-14
 -1      3057 1.98405E+01 2.77121E+00-6.36813E-03-5.05323E-01 1.10629E-14-1.10642E-13
 -1      3058 1.99939E+01 2.39599E+00 4.54979E-03-5.06178E-01-2.44824E-15-1.00951E-13
 -1      3059 1.99469E+01 2.50482E+00 3.79577E-03-2.55434E-01 1.86152E-14-8.07557E-14
 -1      3060 2.84097E+01-2.01893E+00-7.28671E-02-1.06651E-01-6.87297E-14 5.85185E-13
 -1      3061 2.91329E+01-3.21850E+00-7.04609E-02 1.04882E+00-4.57846E-14 5.47520E-13
 -1      3062 2.78220E+01-3.69355E+00 2.26818E-02 1.89241E+00 4.63197E-14 4.62616E-13
 -1      3063 1.87343E+01-5.53011E+00 5.79687E-02-5.70793E+00-4.61201E-13-1.39166E-13
 -1      3064 2.97877E+01 5.19153E+00-1.68972E-01-8.61406E-01 2.49051E-13 2.42223E-13
 -1      3065 2.96605E+01 3.46896E+00-1.51334E-01-1.16081E+00 1.99812E-13 2.83884E-13
 -1      3066 2.81602E+01 3.02943E+00-1.37505E-01-1.34399E+00 3.61766E-13 3.80779E-13
 -1      3067 2.79406E+01 5.22306E+00 3.50684E-03-8.65217E-01 3.23019E-13 4.66849E-13
 -1      3068 3.01536E+01-7.49835E-01-1.82096E-01-2.58263E+00-2.57766E-13 1.52420E-13
 -1      3069 2.95622E+01-2.89396E+00-4.85923E-02-1.29464E+00-2.31634E-13 8.67917E-14
 -1      3070 2.02794E+01 1.36661E+00 2.07963E-03 9.19282E-01 1.52611E-13 6.79760E-14
 -1      3071 2.81162E+01 6.40027E+00-5.22318E-02 1.01395E+00 3.03479E-13 5.92004E-13
 -1      3072 2.87686E+01-1.86625E-01-7.60592E-02-3.22583E+00-3.33227E-13 1.41109E-13
 -1      3073 2.83729E+01-3.63136E+00-4.54326E-02-1.21448E+00-1.22765E-13 1.60816E-13
 -1      3074 1.53739E+01-3.20225E+00 2.18563E-02 4.95512E+00 3.14540E-14 1.79190E-13
 -1      3075 1.27744E+01-2.06019E+00 1.52803E-01 4.39950E+00-2.58335E-14 1.02321E-13
 -1      3076 2.02398E+01 1.48164E+00-6.08874E-03 8.03170E-01 1.31082E-13 2.49326E-14
 -1      3077 2.02011E+01 1.66947E+00-3.32283E-04 7.46954E-01 1.29663E-13 1.75518E-14
 -1      3078 8.59411E+00-5.28956E-01 1.26551E-01-2.61638E-01-1.93841E-13-4.48905E-13
 -1      3079 9.35338E+00-7.90625E-01 7.02637E-02-2.10826E+00-2.21457E-13-1.97342E-13
 -1      3080 2.79250E+01-1.73056E+00-4.95698E-02 6.92463E-01-3.79821E-13-6.52395E-13
 -1      3081 2.80198E+01-1.78732E+00-3.28897E-02-2.91831E+00-1.73757E-13 3.33837E-13
 -1      3082 2.02206E+01 4.22408E-01 3.94140E-03-1.20137E-01-6.60813E-14-9.02939E-14
 -1      3083 2.01815E+01 3.14681E-01-2.33137E-03-3.53653E-02-7.45053E-14-1.06563E-13
 -1      3084 2.01673E+01 2.31092E-01 3.17127E-03 2.59794E-02-8.33200E-14-1.15753E-13
 -1      3085 2.01369E+01 1.60458E-01-1.31749E-03 7.67738E-02-9.92581E-14-1.53231E-13
 -1      3086 2.02373E+01 3.31206E-01-9.04861E-04-2.64595E-02-8.69170E-14-1.31964E-13
 -1      3087 2.01201E+01 1.06361E-01 2.23722E-03 1.12496E-01-8.88662E-14-1.27539E-13
 -1      3088 2.00989E+01 6.11051E-02-6.35112E-04 1.39510E-01-9.87140E-14-9.88221E-14
 -1      3089 2.01965E+01 1.66706E-01-1.02843E-03 7.59602E-02-7.15678E-14-1.37861E-13
 -1      3090 2.00826E+01 2.70437E-02 1.47043E-03 1.57009E-01-7.39231E-14-5.21519E-14
 -1      3091 2.00689E+01-8.13195E-04-1.99270E-04 1.68053E-01-5.79763E-14-2.86822E-15
 -1      3092 2.01575E+01 6.01235E-02-9.73202E-04 1.33527E-01-3.87937E-14-1.00708E-13
 -1      3093 2.00544E+01-2.11700E-02 8.87672E-04 1.73313E-01-4.17534E-14 2.88358E-14
 -1      3094 2.00464E+01-3.70791E-02 6.86129E-05 1.74161E-01-3.66342E-14 7.06705E-14
 -1      3095 2.01234E+01-6.27261E-03-8.43617E-04 1.59651E-01 9.80532E-15-2.98521E-14
 -1      3096 2.00342E+01-4.80532E-02 4.68342E-04 1.71734E-01-4.85479E-14 9.84122E-14
 -1      3097 2.00302E+01-5.57974E-02 2.26332E-04 1.66537E-01-3.92310E-14 1.02782E-13
 -1      3098 2.00951E+01-4.48559E-02-6.98348E-04 1.65015E-01-2.72865E-14 1.18498E-15
 -1      3099 2.00202E+01-6.03860E-02 1.79118E-04 1.59755E-01-8.60890E-14 1.24613E-13
 -1      3100 2.00190E+01-6.26027E-02 3.13929E-04 1.51448E-01-5.51325E-14 8.97099E-14
 -1      3101 2.00724E+01-6.43063E-02-5.62629E-04 1.57673E-01-5.92872E-14 9.51216E-14
 -1      3102 2.00110E+01-6.28842E-02-1.32625E-05 1.42685E-01-3.56607E-14 7.75804E-14
 -1      3103 2.00117E+01-6.13917E-02 3.59239E-04 1.33312E-01-2.43041E-14 1.01928E-13
 -1      3104 2.00547E+01-7.07196E-02-4.45740E-04 1.43490E-01-7.29836E-14 9.96209E-14
 -1      3105 2.00055E+01-5.87801E-02-1.37529E-04 1.24234E-01-2.95281E-14 7.11930E-14
 -1      3106 2.00074E+01-5.47911E-02 3.82133E-04 1.15212E-01-4.86934E-15 6.73545E-14
 -1      3107 2.00412E+01-6.83221E-02-3.49258E-04 1.26638E-01-2.01613E-14 1.32986E-13
 -1      3108 2.00026E+01-5.02042E-02-2.17177E-04 1.06981E-01-1.88887E-14 3.78779E-14
 -1      3109 2.00054E+01-4.44747E-02 3.96842E-04 9.93043E-02-1.36280E-14-7.85104E-15
 -1      3110 2.00312E+01-5.99499E-02-2.71457E-04 1.10052E-01-2.81550E-14 4.15647E-14
 -1      3111 2.00018E+01-3.84545E-02-2.70755E-04 9.27558E-02-1.91110E-14 1.77697E-14
 -1      3112 2.00052E+01-3.13932E-02 4.13517E-04 8.71540E-02-8.73564E-14 3.93651E-14
 -1      3113 2.00241E+01-4.73879E-02-2.09801E-04 9.58144E-02-5.28525E-14 3.07287E-14
 -1      3114 2.00025E+01-2.41958E-02-3.12731E-04 8.29243E-02-1.42818E-13 9.09148E-14
 -1      3115 2.00064E+01-1.59446E-02 4.39885E-04 7.99845E-02-1.66356E-13 6.62125E-14
 -1      3116 2.00191E+01-3.16198E-02-1.60594E-04 8.54620E-02-7.71795E-14-2.16600E-14
 -1      3117 2.00043E+01-7.60370E-03-3.54733E-04 7.86154E-02-2.09703E-13 9.53848E-14
 -1      3118 2.00089E+01 1.90359E-03 4.81960E-04 7.88743E-02-1.64931E-13 2.42461E-14
 -1      3119 2.00157E+01-1.30144E-02-1.19607E-04 8.02227E-02-1.99526E-13 4.38638E-14
 -1      3120 2.00070E+01 1.15274E-02-4.06193E-04 8.08941E-02-6.96086E-14 3.19721E-14
 -1      3121 2.00122E+01 2.25173E-02 5.44229E-04 8.49100E-02-6.03879E-14-5.55322E-14
 -1      3122 2.00134E+01 8.53682E-03-8.26221E-05 8.12006E-02-1.53586E-13-2.26713E-14
 -1      3123 2.00103E+01 3.36929E-02-4.74901E-04 9.08938E-02-6.41192E-16-2.48285E-14
 -1      3124 2.00164E+01 4.65082E-02 6.29637E-04 9.92976E-02 8.73679E-15 6.45413E-15
 -1      3125 2.00115E+01 3.35080E-02-4.50623E-05 8.95206E-02-2.00148E-14 8.72832E-15
 -1      3126 2.00140E+01 5.95938E-02-5.67526E-04 1.09907E-01-2.14392E-14 1.78192E-14
 -1      3127 2.00211E+01 7.46507E-02 7.39707E-04 1.23434E-01 4.84062E-14 1.63049E-14
 -1      3128 2.00093E+01 6.26361E-02-1.64255E-06 1.06428E-01 1.04856E-14 9.65010E-14
 -1      3129 2.00178E+01 9.00502E-02-6.89759E-04 1.39442E-01 8.20569E-14-2.52346E-14
 -1      3130 2.00261E+01 1.07788E-01 8.74375E-04 1.58944E-01 1.25467E-13-5.81510E-14
 -1      3131 2.00062E+01 9.68186E-02 5.37155E-05 1.33350E-01 2.96714E-14 1.30877E-13
 -1      3132 2.00213E+01 1.25895E-01-8.46107E-04 1.81235E-01 1.04757E-13-9.55090E-14
 -1      3133 2.00310E+01 1.46708E-01 1.03162E-03 2.07669E-01 3.82561E-14-4.82912E-14
 -1      3134 2.00012E+01 1.36996E-01 1.27896E-04 1.71919E-01 9.82061E-14 3.43516E-14
 -1      3135 2.00241E+01 1.67828E-01-1.03926E-03 2.37225E-01-1.55467E-14 2.05518E-14
 -1      3136 2.00352E+01 1.91963E-01 1.20722E-03 2.71616E-01-2.81712E-14 6.33654E-14
 -1      3137 1.99931E+01 1.83992E-01 2.28354E-04 2.23954E-01 9.45093E-14-1.08779E-13
 -1      3138 2.00253E+01 2.16187E-01-1.26882E-03 3.09471E-01-3.70633E-14 5.75305E-14
 -1      3139 2.00380E+01 2.43592E-01 1.39497E-03 3.52832E-01 1.01900E-14 4.52714E-14
 -1      3140 1.99804E+01 2.38284E-01 3.62192E-04 2.91401E-01-1.94555E-14 2.40357E-14
 -1      3141 2.00241E+01 2.70612E-01-1.52904E-03 4.00003E-01 6.24190E-14-4.78322E-14
 -1      3142 2.00383E+01 3.00686E-01 1.58799E-03 4.53208E-01 4.95692E-14 2.13561E-15
 -1      3143 1.99616E+01 2.99655E-01 5.33939E-04 3.76214E-01 7.61767E-16-1.87614E-14
 -1      3144 2.00195E+01 3.29496E-01-1.80496E-03 5.10597E-01-8.13939E-15-6.53860E-15
 -1      3145 2.00353E+01 3.60722E-01 1.78228E-03 5.74194E-01 1.07727E-14-2.44530E-14
 -1      3146 1.99345E+01 3.66656E-01 7.40935E-04 4.80189E-01 2.01410E-14-1.31103E-13
 -1      3147 2.00106E+01 3.89161E-01-2.06607E-03 6.42466E-01 9.51928E-14 1.73298E-14
 -1      3148 2.00283E+01 4.18529E-01 1.98390E-03 7.16412E-01 5.35432E-14 5.54471E-14
 -1      3149 1.98973E+01 4.35800E-01 9.64513E-04 6.04771E-01 9.82828E-14 2.99895E-14
 -1      3150 1.99975E+01 4.42586E-01-2.25581E-03 7.95864E-01-3.90306E-14 1.51081E-13
 -1      3151 2.00181E+01 4.64745E-01 2.22103E-03 8.79176E-01 3.54139E-14 1.40299E-13
 -1      3152 1.98483E+01 5.00338E-01 1.15413E-03 7.50845E-01 6.63644E-14 1.13909E-13
 -1      3153 1.99823E+01 4.77550E-01-2.27406E-03 9.69625E-01 9.09844E-15 1.89883E-13
 -1      3154 2.00087E+01 4.83605E-01 2.56013E-03 1.05992E+00 1.43834E-13 1.97865E-13
 -1      3155 1.97877E+01 5.48473E-01 1.19999E-03 9.18613E-01 3.53441E-14 2.61127E-13
 -1      3156 1.99720E+01 4.74060E-01-1.94728E-03 1.16060E+00 4.41000E-14 1.82863E-13
 -1      3157 2.00104E+01 4.49995E-01 3.11819E-03 1.25350E+00 5.34619E-14 1.09681E-13
 -1      3158 1.97195E+01 5.60843E-01 8.87668E-04 1.10760E+00 5.68135E-14 3.27494E-13
 -1      3159 1.99824E+01 4.01119E-01-9.74200E-04 1.36288E+00 1.06781E-13 4.99374E-14
 -1      3160 2.00457E+01 3.26035E-01 4.04916E-03 1.45109E+00 7.77249E-14 6.00265E-14
 -1      3161 1.96550E+01 5.07208E-01-1.72691E-04 1.31679E+00 4.17682E-14 1.47443E-13
 -1      3162 2.00459E+01 2.13505E-01 1.19188E-03 1.56621E+00-5.91493E-16 9.59279E-14
 -1      3163 2.01568E+01 5.83768E-02 5.45794E-03 1.63781E+00-1.20790E-13 1.36825E-13
 -1      3164 1.96196E+01 3.42583E-01-2.63860E-03 1.54456E+00 3.94941E-14-6.59577E-14
 -1      3165 2.02219E+01-1.49407E-01 5.60455E-03 1.75180E+00-6.62744E-14 1.98111E-13
 -1      3166 2.04169E+01-4.20256E-01 7.26035E-03 1.78662E+00-3.85987E-15 1.68692E-13
 -1      3167 1.96628E+01 3.86101E-03-7.46255E-03 1.78684E+00-5.72870E-14 1.27766E-13
 -1      3168 2.06094E+01-7.56242E-01 1.42208E-02 1.88168E+00 2.92724E-15 1.66922E-13
 -1      3169 2.09392E+01-1.17752E+00 8.02650E-03 1.84469E+00 1.36662E-14 2.11651E-13
 -1      3170 1.98733E+01-5.88157E-01-1.55391E-02 2.02886E+00 2.61050E-14 3.12484E-14
 -1      3171 2.13591E+01-1.65526E+00 2.96158E-02 1.87155E+00 2.62316E-14 1.77600E-13
 -1      3172 2.18709E+01-2.21873E+00 7.08159E-03 1.70422E+00 1.70921E-13 1.65834E-13
 -1      3173 2.03915E+01-1.51743E+00-3.11310E-02 2.22099E+00 8.01442E-15 5.70819E-14
 -1      3174 2.26574E+01-2.79712E+00 5.40440E-02 1.54310E+00 1.54407E-13 1.49720E-13
 -1      3175 2.33317E+01-3.39498E+00-6.05204E-03 1.14000E+00 6.70228E-14 1.59113E-13
 -1      3176 2.14773E+01-2.81059E+00-5.17516E-02 2.23277E+00 9.58287E-14 5.05308E-14
 -1      3177 2.60274E+01-5.10087E+00-7.57198E-02 8.69939E-01 3.76643E-14 1.09355E-13
 -1      3178 2.41255E+01-5.41665E+00 8.71464E-02 2.65558E+00 1.95170E-13-6.93057E-14
 -1      3179 2.69646E+01-2.83495E+00-4.20523E-02-2.07298E+00 2.30649E-14 4.86979E-13
 -1      3180 2.77306E+01-3.24842E+00-7.33428E-02-1.66021E+00-7.94573E-14 1.24400E-13
 -1      3181 2.72412E+01-4.39070E+00 3.78284E-02-4.89300E-01 6.52603E-15 2.15244E-13
 -1      3182 2.63713E+01-3.60908E+00 4.27005E-03-1.22344E+00 6.08923E-14 3.93560E-13
 -1      3183 2.72510E+01 5.31321E+00-1.24164E-01-8.96997E-01-4.43728E-13-2.24765E-13
 -1      3184 1.99825E+01-4.82882E-02 2.33655E-04-1.72927E-01 3.40887E-16 6.73800E-14
 -1      3185 1.99822E+01-4.10360E-02 4.45169E-04-1.78402E-01 1.14320E-14 7.56152E-14
 -1      3186 1.99917E+01-3.08972E-02 1.04536E-04-1.80729E-01 9.24883E-15 8.39002E-14
 -1      3187 1.99956E+01-1.62513E-02 9.13349E-04-1.79957E-01 2.77185E-14 8.74879E-14
 -1      3188 2.00484E+01-3.84279E-02-7.42876E-04-1.74661E-01 2.75930E-14 8.96917E-14
 -1      3189 1.99779E+01-5.44768E-02 3.36818E-04-1.38123E-01 4.76225E-14 3.32939E-14
 -1      3190 1.99734E+01-5.55308E-02-7.10564E-05-1.47962E-01 9.72550E-14 3.07877E-14
 -1      3191 1.99797E+01-4.92008E-02 3.54187E-04-1.18909E-01 6.33115E-14 8.36675E-14
 -1      3192 1.99745E+01-5.24699E-02-1.94205E-04-1.28457E-01 5.02713E-14 7.19012E-14
 -1      3193 2.00122E+01-6.21294E-02-3.09199E-04-1.33915E-01 3.63630E-14 4.12003E-14
 -1      3194 1.99832E+01-4.06721E-02 3.67587E-04-1.01749E-01 5.78945E-14 5.45817E-14
 -1      3195 1.99776E+01-4.54595E-02-2.65875E-04-1.10015E-01 8.37490E-14 8.79204E-14
 -1      3196 2.00076E+01-5.52556E-02-2.30661E-04-1.15877E-01 7.06018E-14 1.04910E-14
 -1      3197 1.99878E+01-2.97847E-02 3.86367E-04-8.82135E-02 1.05060E-13 6.00217E-14
 -1      3198 1.99820E+01-3.56996E-02-3.06419E-04-9.44842E-02 5.30632E-14 7.93051E-14
 -1      3199 2.00053E+01-4.46475E-02-1.75613E-04-1.00079E-01 4.29967E-14 6.43860E-14
 -1      3200 1.99935E+01-1.69483E-02 4.17613E-04-7.95004E-02 1.92346E-14 2.47758E-13
 -1      3201 1.99873E+01-2.38349E-02-3.31556E-04-8.32170E-02 7.06654E-14 1.61535E-13
 -1      3202 2.00048E+01-3.12591E-02-1.38205E-04-8.80996E-02 1.45120E-14 1.91965E-13
 -1      3203 2.00001E+01-2.20151E-03 4.66899E-04-7.66415E-02 3.12909E-14 2.12763E-13
 -1      3204 1.99935E+01-1.00825E-02-3.53210E-04-7.73046E-02 4.67455E-14 2.11200E-13
 -1      3205 2.00056E+01-1.54968E-02-1.14575E-04-8.11714E-02 2.35045E-14 2.56742E-13
 -1      3206 2.00078E+01 1.46913E-02 5.38633E-04-8.06521E-02-3.55217E-14 2.39152E-13
 -1      3207 2.00005E+01 5.66205E-03-3.80339E-04-7.77534E-02-6.44083E-16 2.50059E-13
 -1      3208 2.00075E+01 2.65288E-03-1.00179E-04-8.03813E-02-1.51472E-14 1.85602E-13
 -1      3209 2.00169E+01 3.41591E-02 6.36055E-04-9.26399E-02 7.50588E-14 1.10453E-13
 -1      3210 2.00085E+01 2.37377E-02-4.20039E-04-8.56131E-02 4.93987E-14 2.60472E-13
 -1      3211 2.00102E+01 2.35090E-02-9.10806E-05-8.68122E-02 2.49245E-15 2.31601E-13
 -1      3212 2.00276E+01 5.67362E-02 7.61040E-04-1.13875E-01 1.53404E-14 1.30492E-13
 -1      3213 2.00177E+01 4.46354E-02-4.77550E-04-1.02068E-01 4.38002E-14 1.18037E-13
 -1      3214 2.00135E+01 4.75964E-02-8.38161E-05-1.01648E-01 8.52987E-14 2.10455E-13
 -1      3215 2.00403E+01 8.29594E-02 9.13828E-04-1.45814E-01 3.52882E-14 2.02926E-13
 -1      3216 2.00284E+01 6.89039E-02-5.56271E-04-1.28482E-01 4.23224E-14 1.70585E-13
 -1      3217 2.00173E+01 7.55368E-02-7.47336E-05-1.26234E-01-1.12781E-15 2.45598E-13
 -1      3218 2.00555E+01 1.13232E-01 1.09233E-03-1.90078E-01 3.15084E-14 2.57753E-13
 -1      3219 2.00409E+01 9.70337E-02-6.57455E-04-1.66409E-01 2.69511E-14 2.60191E-13
 -1      3220 2.00212E+01 1.07917E-01-6.04976E-05-1.62096E-01-6.79989E-15 3.60558E-13
 -1      3221 2.00735E+01 1.47628E-01 1.29136E-03-2.48361E-01-1.14327E-13 2.41144E-13
 -1      3222 2.00558E+01 1.29295E-01-7.79201E-04-2.17531E-01-5.07518E-15 2.89515E-13
 -1      3223 2.00251E+01 1.45111E-01-3.86551E-05-2.10909E-01 1.57587E-14 3.86372E-13
 -1      3224 2.00951E+01 1.85609E-01 1.50193E-03-3.22268E-01-9.22888E-14 1.60182E-13
 -1      3225 2.00734E+01 1.65505E-01-9.14614E-04-2.83546E-01-8.52174E-14 1.87795E-13
 -1      3226 2.00288E+01 1.87033E-01-8.90778E-06-2.74400E-01-7.86978E-14 3.12388E-13
 -1      3227 2.01208E+01 2.25603E-01 1.71066E-03-4.13030E-01-1.14977E-13 1.88769E-13
 -1      3228 2.00945E+01 2.04681E-01-1.04882E-03-3.65951E-01-9.89831E-14 2.15408E-13
 -1      3229 2.00320E+01 2.32767E-01 2.42906E-05-3.54188E-01-1.10547E-13 3.23387E-13
 -1      3230 2.01519E+01 2.64391E-01 1.89992E-03-5.21093E-01-3.37463E-14 8.45128E-14
 -1      3231 2.01200E+01 2.44533E-01-1.15425E-03-4.65713E-01-3.89161E-14 1.20239E-13
 -1      3232 2.00349E+01 2.80039E-01 4.69892E-05-4.51523E-01-1.77111E-14 2.26253E-13
 -1      3233 2.01902E+01 2.96242E-01 2.04884E-03-6.45512E-01 2.42823E-14 8.46101E-14
 -1      3234 2.01516E+01 2.80737E-01-1.18340E-03-5.82780E-01-2.34906E-15 4.42733E-14
 -1      3235 2.00382E+01 3.24458E-01 2.76127E-05-5.66918E-01-4.78170E-15 7.80933E-14
 -1      3236 2.02394E+01 3.11739E-01 2.13472E-03-7.83129E-01-6.01274E-14 1.47317E-13
 -1      3237 2.01922E+01 3.05921E-01-1.05817E-03-7.15395E-01 3.24571E-14 1.34176E-13
 -1      3238 2.00438E+01 3.58459E-01-9.61673E-05-6.99659E-01-6.92823E-15 1.16753E-13
 -1      3239 2.03062E+01 2.96321E-01 2.13164E-03-9.27449E-01-7.85294E-14 1.43146E-13
 -1      3240 2.02473E+01 3.08344E-01-6.54644E-04-8.59154E-01-5.49193E-14 1.69309E-13
 -1      3241 2.00561E+01 3.69905E-01-4.37285E-04-8.47154E-01-1.39236E-14 2.52907E-13
 -1      3242 2.04025E+01 2.28753E-01 1.99728E-03-1.06711E+00-9.01927E-14 1.68841E-13
 -1      3243 2.03267E+01 2.70361E-01 2.16264E-04-1.00570E+00-1.05604E-13 6.29710E-14
 -1      3244 2.00839E+01 3.40388E-01-1.18652E-03-1.00406E+00-7.74833E-14 5.36979E-14
 -1      3245 2.05485E+01 8.02667E-02 1.63309E-03-1.18373E+00-1.51997E-13 2.00523E-13
 -1      3246 2.04475E+01 1.67102E-01 1.82808E-03-1.14084E+00-8.81941E-14 1.63601E-13
 -1      3247 2.01433E+01 2.43547E-01-2.64209E-03-1.16097E+00-1.51214E-13-1.32437E-14
 -1      3248 2.07757E+01-1.83835E-01 8.16599E-04-1.24876E+00-1.69966E-13 1.10647E-13
 -1      3249 2.06373E+01-3.34549E-02 4.55048E-03-1.24173E+00-1.73100E-13 2.31899E-13
 -1      3250 2.02622E+01 4.43212E-02-5.21330E-03-1.30224E+00-1.09136E-13 1.18022E-13
 -1      3251 2.11291E+01-5.96424E-01-9.36953E-04-1.21886E+00-6.98688E-14 9.58949E-14
 -1      3252 2.09379E+01-3.66427E-01 8.84356E-03-1.27245E+00-1.67417E-13 8.82338E-14
 -1      3253 2.04848E+01-2.98587E-01-9.31308E-03-1.40181E+00-1.24482E-13 1.61775E-13
 -1      3254 2.16609E+01-1.16781E+00-4.63429E-03-1.02991E+00 1.09085E-13 1.45798E-13
 -1      3255 2.14047E+01-8.57025E-01 1.49888E-02-1.17725E+00-2.24024E-14 8.16273E-14
 -1      3256 2.08762E+01-8.22283E-01-1.49931E-02-1.41557E+00-9.91243E-14 1.64014E-14
 -1      3257 2.24131E+01-1.83744E+00-9.83460E-03-5.92951E-01 2.63374E-13 2.84359E-13
 -1      3258 2.20923E+01-1.48844E+00 2.20400E-02-8.71980E-01 1.79692E-13 2.83195E-13
 -1      3259 2.15196E+01-1.53105E+00-2.11172E-02-1.26635E+00 7.08504E-14 8.52883E-14
 -1      3260 2.33587E+01-2.41016E+00-1.66385E-02 1.75998E-01 9.37393E-14 6.69814E-13
 -1      3261 2.30106E+01-2.14372E+00 2.55769E-02-2.58131E-01 2.20277E-13 5.51197E-13
 -1      3262 2.24699E+01-2.32808E+00-2.82107E-02-8.30501E-01 6.90403E-14 4.38179E-13
 -1      3263 2.43717E+01-2.46034E+00-1.40672E-02 1.34788E+00 9.31174E-14 7.90872E-13
 -1      3264 2.40971E+01-2.55022E+00 2.28366E-02 7.68950E-01 1.30503E-13 7.56501E-13
 -1      3265 2.37738E+01-2.97258E+00-2.79595E-02 3.34836E-03 7.53126E-14 7.03954E-13
 -1      3266 2.50351E+01-1.47229E+00-4.09199E-02 2.55674E+00 8.49546E-14 7.48969E-13
 -1      3267 2.49305E+01-2.07967E+00-1.47617E-02 2.07451E+00 6.07847E-14 7.99865E-13
 -1      3268 2.51588E+01-2.73648E+00 2.17361E-02 1.37763E+00 8.31657E-14 7.22201E-13
 -1      3269 2.48322E+01 3.38116E+00-6.73667E-02 2.66093E+00 8.66252E-14 2.89806E-13
 -1      3270 2.51578E+01 2.08593E+00-1.00857E-01 3.19705E+00 1.60288E-13 3.99078E-13
 -1      3271 2.51890E+01 4.36724E+00-5.64231E-02-2.93814E-02 3.01432E-13 2.40231E-13
 -1      3272 2.51721E+01 4.53064E+00-1.14435E-01 9.98898E-01 1.12813E-13 1.57597E-13
 -1      3273 2.53457E+01 3.44543E+00-1.01125E-01-8.61019E-01 2.89491E-13 1.78236E-13
 -1      3274 2.48642E+01 2.63998E-02-9.49131E-02-1.37717E+00-1.14667E-13-4.04997E-14
 -1      3275 2.47999E+01 1.27962E+00-7.50560E-03-1.42345E+00 1.49672E-14-1.36700E-13
 -1      3276 2.44472E+01-1.38200E+00-3.46441E-02-5.18893E-01-1.26604E-13 1.50140E-13
 -1      3277 2.47145E+01-7.76286E-01 5.66715E-04-9.05494E-01-2.03589E-13-5.81874E-14
 -1      3278 2.59227E+01-5.55742E-01-7.40411E-04-1.03341E+00-1.09128E-13-1.40079E-13
 -1      3279 2.39612E+01-1.73540E+00-2.02756E-02 4.17689E-01-1.34951E-13 2.92294E-13
 -1      3280 2.41907E+01-1.57827E+00-9.60555E-03-3.35035E-02-1.09206E-13 3.20560E-13
 -1      3281 2.53157E+01-1.85985E+00-1.40994E-03 3.14665E-03-2.60015E-13 6.08472E-14
 -1      3282 2.45787E+01-2.08967E+00 8.04953E-03 9.76935E-01-2.58330E-13 3.93799E-13
 -1      3283 2.46146E+01-2.68733E+00-1.99529E-02-1.96035E+00-5.50497E-14-5.12588E-13
 -1      3284 2.00444E+01 2.16036E+00-4.27180E-03 2.92492E-01 9.04536E-14-8.77564E-14
 -1      3285 2.00308E+01 2.19921E+00-3.39458E-03 1.70765E-01 6.93223E-14-7.26241E-14
 -1      3286 1.12179E+01 2.75867E-01 1.88738E-01-3.22300E+00 5.68989E-15 1.26460E-12
 -1      3287 2.06403E+01-3.00988E+00 5.37800E-02 6.64020E+00 2.75127E-14-5.38875E-13
 -1      3288 1.53626E+01-1.98391E+00 6.47151E-02-6.64569E+00 4.55927E-13 1.03600E-12
 -1      3289 1.88526E+01-2.69610E+00 2.26738E-01-7.16191E+00 5.54237E-13 5.29993E-13
 -1      3290 2.64532E+01-4.24695E+00 8.33320E-02 4.70257E-02-7.87929E-14 2.62380E-13
 -1      3291 2.67889E+01-3.60344E+00-1.22179E-01 1.09439E+00 3.95330E-14 2.70820E-13
 -1      3292 2.02693E+01 7.10834E-01 3.08787E-03-3.48510E-01-6.64241E-14-8.06167E-14
 -1      3293 2.02261E+01 5.50673E-01-3.77981E-03-2.14149E-01-6.17426E-14-8.12076E-14
 -1      3294 2.02731E+01 5.78772E-01-2.60638E-04-1.88974E-01-6.53471E-14-1.36608E-13
 -1      3295 2.11900E+01-3.80807E+00-6.61002E-03-6.66965E+00 2.64309E-13 4.29518E-14
 -1      3296 2.02138E+01 1.77918E+00 6.18263E-03-9.22317E-01-6.17620E-14-9.11393E-14
 -1      3297 2.35213E+01-4.27832E+00 2.02919E-02 6.05371E+00 2.03310E-14-4.73063E-13
 -1      3298 1.99784E+01-5.49688E-02 3.02658E-04-1.57189E-01 8.97362E-14 4.95457E-14
 -1      3299 1.99755E+01-5.26992E-02 1.30748E-04-1.65889E-01 3.64379E-14 9.53297E-14
 -1      3300 2.00315E+01-5.70007E-02-5.59654E-04-1.67084E-01 7.70624E-15 4.83989E-14
 -1      3301 2.00199E+01-6.35911E-02-4.16517E-04-1.52017E-01 8.23326E-14 3.39902E-14
 -1      3302 2.00724E+01 1.50453E-01-1.07522E-03-7.65404E-02 5.05473E-14 8.55628E-14
 -1      3303 2.01038E+01 2.15667E-01 3.21801E-03-2.27451E-02 5.23104E-14 1.14495E-13
 -1      3304 2.02751E+01 1.35025E+00-2.32515E-03-7.60901E-01-5.47075E-14-7.92438E-14
 -1      3305 2.02568E+01 9.64002E-01-3.64322E-03-4.79750E-01-5.46918E-14-7.39617E-14
 -1      3306 2.02869E+01 1.00165E+00 2.28142E-03-4.25897E-01-6.22413E-14-9.07424E-14
 -1      3307 2.02014E+01 1.67072E+00 2.46737E-03-7.12397E-01-3.97417E-14-1.04258E-13
 -1      3308 2.27573E+01-5.62670E+00 8.87850E-02-4.02831E+00-3.74062E-13 1.75850E-13
 -1      3309 2.46753E+01-5.24720E+00-4.39975E-02-2.16593E+00-2.73732E-13 2.96041E-13
 -1      3310 2.70335E+01 1.05459E+00-1.75971E-01-1.60273E+00 2.02421E-13 7.52037E-14
 -1      3311 2.75988E+01 5.67480E-02-4.33905E-02-1.18458E+00 6.21725E-14 1.75367E-13
 -1      3312 1.03765E+01-1.36775E+00 3.95107E-02 3.34582E+00 1.84505E-14-1.43274E-13
 -1      3313 9.03328E+00-6.34546E-01 1.25733E-01 1.39069E+00-1.29369E-13-5.75137E-13
 -1      3314 2.45216E+01-4.54251E+00 5.40729E-02-5.16712E+00-3.20230E-15-3.67973E-13
 -1      3315 2.64278E+01-4.67642E+00-6.66790E-02-3.68215E+00-2.77348E-14-4.06573E-13
 -1      3316 2.02910E+01 9.88246E-01-7.23601E-04 6.89607E-01 1.26445E-13 7.95738E-14
 -1      3317 2.02670E+01 1.30733E+00 3.06701E-03 7.70697E-01 1.30208E-13 5.03277E-14
 -1      3318 2.02695E+01 1.12704E+00-8.13402E-05 5.92091E-01 1.15654E-13 4.30084E-14
 -1      3319 2.02319E+01 7.75226E-01-3.73810E-03 4.84066E-01 1.03349E-13 7.43281E-14
 -1      3320 2.75751E+01-4.11946E+00 4.90225E-02-2.13264E+00-8.33413E-14-4.20552E-13
 -1      3321 2.80428E+01-2.75815E+00-8.12290E-02-3.81225E-01-3.99833E-13-5.98799E-13
 -1      3322 2.66074E+01-2.67441E+00-4.77925E-02-2.92568E-01-3.18582E-13-6.01236E-13
 -1      3323 2.61115E+01-3.93572E+00-2.61229E-02-2.68027E+00 4.33681E-16-2.76095E-13
 -1      3324 2.68274E+01-4.58294E+00-8.65541E-02 3.37569E+00 1.36422E-13-8.56468E-14
 -1      3325 2.52631E+01-4.58985E+00 5.08088E-02 4.87012E+00 4.99080E-14-2.77577E-13
 -1      3326 2.47121E+01-3.78716E+00 4.68121E-02 4.58564E+00-1.09069E-13-2.96511E-13
 -1      3327 2.70866E+01-3.68732E+00-1.35568E-02 2.10092E+00-1.30717E-13 4.01845E-13
 -1      3328 2.17165E+01-5.43352E+00-3.77607E-02 4.05688E+00 2.35902E-13-1.89068E-13
 -1      3329 1.88303E+01-4.40472E+00 7.73496E-02 4.76591E+00 3.38479E-14-9.19334E-14
 -1      3330 2.30689E+01-4.82346E+00 4.54370E-02 2.70521E+00 1.80602E-13-1.32544E-13
 -1      3331 2.71425E+01-1.80786E+00 1.82435E-02 2.47354E+00 1.57735E-13 5.18412E-13
 -1      3332 2.69983E+01-1.48338E-02-1.72512E-01 3.26013E+00 3.25386E-13 7.63743E-13
 -1      3333 1.73139E+01-3.88987E+00 1.74798E-01-5.31556E+00-3.76928E-13-1.45620E-13
 -1      3334 2.00367E+01-5.01560E+00 1.54870E-02-4.96156E+00-4.46219E-13 3.11418E-14
 -1      3335 2.08846E+01-4.51549E+00 4.62781E-02-3.98561E+00-3.01321E-13 1.40270E-14
 -1      3336 2.35814E+01-4.02321E+00 7.68900E-02-5.66932E+00 1.00565E-13-2.41735E-13
 -1      3337 2.43136E+01-3.50095E+00 1.86713E-02-4.34525E+00 7.61613E-14-3.69963E-13
 -1      3338 2.00244E+01 2.21795E+00-3.54425E-03 6.61440E-02 5.50480E-14-5.29994E-14
 -1      3339 2.00228E+01 2.21667E+00-4.37028E-03-5.84817E-02 4.32183E-14-5.41048E-14
 -1      3340 2.01376E+01 1.92251E+00 4.98665E-03 1.01660E-01 6.26191E-14-4.72143E-14
 -1      3341 2.02550E+01 1.46254E+00 7.64435E-03 5.88155E-01 1.15722E-13 1.94948E-14
 -1      3342 2.01581E+01 1.80061E+00-7.25682E-03 6.85129E-01 1.30650E-13 6.58544E-15
 -1      3343 2.01230E+01 1.92992E+00-2.80396E-03 5.90753E-01 1.21072E-13-8.16930E-15
 -1      3344 1.09949E+01-4.11951E-01 9.05225E-02-2.08665E+00-2.22357E-13-3.33698E-13
 -1      3345 1.07807E+01-9.25062E-01 1.68415E-01-3.12083E+00-1.81993E-13-3.16275E-13
 -1      3346 1.23332E+01-1.52106E+00 8.38558E-03-3.88718E+00-1.66495E-13-3.08059E-13
 -1      3347 2.57335E+01 3.79451E+00-1.57045E-01-2.63186E+00-4.39038E-13-1.48322E-13
 -1      3348 2.33647E+01-4.25605E+00-4.75303E-02 1.83281E+00 1.45896E-13 4.56059E-14
 -1      3349 2.46283E+01-3.97660E+00 4.35549E-02 6.61705E-01 1.16163E-13 2.23488E-13
 -1      3350 2.58688E+01-4.56772E+00-4.30516E-03 2.56761E-01 9.25753E-14 2.14488E-13
 -1      3351 2.54846E+01-4.11266E+00-1.36716E-02-5.95936E-02 1.09530E-13 3.24343E-13
 -1      3352 2.53142E+01-3.59892E+00-2.80497E-02 3.38041E+00-1.58906E-13-1.54137E-13
 -1      3353 2.59488E+01-2.94814E+00 1.66411E-02-1.03443E+00-2.57246E-13-7.91093E-13
 -1      3354 2.00542E+01 1.00503E-01 2.49145E-03-1.15443E-01 5.85873E-14 6.40785E-14
 -1      3355 2.01423E+01 1.59778E-01-1.45412E-03-7.66980E-02 7.49671E-14 7.56739E-14
 -1      3356 2.00342E+01 5.89497E-02-5.12868E-04-1.43520E-01 6.71371E-14 3.98514E-14
 -1      3357 2.01281E+01 1.90377E+00-2.22556E-03-5.47976E-01-2.95905E-14-9.97294E-14
 -1      3358 2.01581E+01 1.77962E+00-7.46847E-03-6.43252E-01-4.06965E-14-1.18101E-13
 -1      3359 2.02535E+01 1.41763E+00 3.95253E-03-5.14715E-01-4.24885E-14-1.07057E-13
 -1      3360 2.00717E+01-2.17879E-03-9.59488E-04-1.68435E-01 1.34719E-14 9.70497E-14
 -1      3361 2.00081E+01 2.33902E-03-1.24667E-04-1.74015E-01 3.12502E-14 5.35098E-14
 -1      3362 2.00186E+01 2.78987E-02 1.58991E-03-1.62675E-01 3.83071E-14 2.71749E-14
 -1      3363 2.51850E+01-7.77378E-01-5.00920E-02 3.09154E+00 1.57197E-13 6.66392E-13
 -1      3364 2.58858E+01-1.71201E+00-6.29748E-02 2.59730E+00 1.83863E-13 6.21348E-13
 -1      3365 2.50621E+01 3.66729E-01-6.05975E-03 3.15951E+00 1.05225E-13 5.79432E-13
 -1      3366 2.70233E+01 5.07445E+00-1.13815E-01 1.75343E+00 2.26721E-13 4.69000E-13
 -1      3367 2.68106E+01 3.07138E+00-9.20425E-02-1.21441E+00 2.80276E-13 2.99261E-13
 -1      3368 2.00636E+01 2.10537E+00-3.26277E-03 3.91170E-01 1.04148E-13-7.33386E-14
 -1      3369 2.01612E+01 1.84950E+00 6.15339E-03 2.92182E-01 9.87940E-14-5.92668E-14
 -1      3370 2.00890E+01 2.02378E+00-6.00459E-03 5.02888E-01 1.26411E-13-2.51525E-14
 -1      3371 2.00979E+01 1.98680E+00-5.83674E-03-4.64634E-01-2.49721E-14-1.01785E-13
 -1      3372 2.02144E+01 1.62965E+00 4.85285E-03-3.88202E-01-3.73695E-14-8.67588E-14
 -1      3373 2.00760E+01 2.06520E+00-2.56496E-03-3.51797E-01-1.09492E-14-8.34553E-14
 -1      3374 2.47966E+01-3.31237E+00 5.07351E-02-3.51990E+00 1.07019E-13-3.79447E-13
 -1      3375 2.47249E+01-4.58337E+00-2.84937E-02-1.16882E+00 2.15591E-14 1.19923E-13
 -1      3376 2.02202E+01 5.99649E-01 2.80508E-03 3.40172E-01 8.37505E-14 6.39206E-14
 -1      3377 2.02548E+01 7.57807E-01 1.59696E-03 4.02640E-01 9.16298E-14 6.05483E-14
 -1      3378 2.01637E+01 4.58421E-01-2.66414E-03 2.01668E-01 6.17909E-14 7.33989E-14
 -1      3379 2.01119E+01 2.74506E-01-1.73669E-03 3.07105E-02 3.96642E-14 1.20093E-13
 -1      3380 2.01558E+01 3.70559E-01 3.35900E-03 1.20000E-01 4.89250E-14 1.05008E-13
 -1      3381 2.02105E+01 4.72448E-01-4.46554E-04 1.69766E-01 3.96477E-14 1.16631E-13
 -1      3382 2.01787E+01 2.94963E-01-1.73285E-03 2.39409E-02 4.19560E-14 1.09092E-13
 -1      3383 1.27991E+01-1.20605E+00 1.09457E-01 3.36816E+00-2.95285E-14 2.49800E-15
 -1      3384 1.77365E+01-3.49019E+00 8.46154E-02 4.62407E+00-5.30340E-14 4.28824E-14
 -1      3385 1.66870E+01-2.39013E+00 2.57234E-02 4.11303E+00 2.92162E-14-3.71127E-14
 -1      3386 1.95910E+01-3.63354E+00-2.41236E-02 3.82636E+00 2.64580E-14-1.17763E-13
 -1      3387 2.72484E+01-1.43442E+00-8.65664E-02-5.57109E-01-9.56752E-14 1.33279E-13
 -1      3388 1.03742E+01-2.14066E-01 1.39353E-01 6.19477E-01-1.90278E-13-3.80626E-13
 -1      3389 2.54238E+01-3.21230E+00-2.13506E-02-2.27097E+00 6.01138E-14-4.40421E-13
 -1      3390 1.59513E+01-3.08147E+00 5.33926E-02-4.88410E+00-2.85341E-13-1.28536E-13
 -1      3391 2.02996E+01 4.38378E-01 2.41968E-03-7.24567E-02-7.44273E-14-1.26647E-13
 -1      3392 2.02747E+01 3.25900E-01-2.17326E-03-5.65440E-03-7.48609E-14-1.06162E-13
 -1      3393 2.18535E+01-3.87064E+00 9.83923E-02 2.95157E+00 1.35299E-13-1.72745E-13
 -1      3394 2.02665E+01 2.36196E-01 2.14536E-03 3.94048E-02-6.83822E-14-1.13033E-13
 -1      3395 2.02419E+01 1.60674E-01-1.30020E-03 8.00282E-02-5.53271E-14-9.84288E-14
 -1      3396 2.03148E+01 3.27521E-01-1.07738E-04 2.07328E-03-6.84449E-14-9.29013E-14
 -1      3397 2.02270E+01 1.01689E-01 1.61662E-03 1.05955E-01-2.77110E-14-9.53150E-14
 -1      3398 2.02055E+01 5.28263E-02-6.61316E-04 1.27599E-01 8.32337E-15-5.90239E-14
 -1      3399 2.02833E+01 1.57935E-01-4.43858E-04 7.62645E-02-2.38760E-14-5.34764E-14
 -1      3400 2.01880E+01 1.55878E-02 1.13340E-03 1.39732E-01 2.82376E-14-4.89061E-14
 -1      3401 2.01702E+01-1.43846E-02-2.24657E-04 1.48342E-01 1.65462E-14-4.39914E-14
 -1      3402 2.02455E+01 4.69923E-02-5.92193E-04 1.17385E-01 1.87093E-14-3.02679E-14
 -1      3403 2.01525E+01-3.63371E-02 7.37752E-04 1.51159E-01 1.58698E-14-7.25855E-14
 -1      3404 2.01383E+01-5.30571E-02 5.86169E-05 1.51367E-01 6.60795E-15 1.00977E-14
 -1      3405 2.02071E+01-2.19071E-02-6.28732E-04 1.35041E-01 1.70862E-14-6.37131E-14
 -1      3406 2.01217E+01-6.43745E-02 4.35660E-04 1.48383E-01-2.20239E-14 1.56875E-14
 -1      3407 2.01108E+01-7.19181E-02 2.31835E-04 1.43640E-01-6.32622E-14 3.57345E-14
 -1      3408 2.01711E+01-6.10537E-02-6.03479E-04 1.37183E-01 1.47079E-14-5.94907E-14
 -1      3409 2.00960E+01-7.59252E-02 2.13884E-04 1.37477E-01-1.14197E-13 6.35780E-14
 -1      3410 2.00879E+01-7.71946E-02 3.30107E-04 1.30277E-01-6.99596E-14 8.11715E-14
 -1      3411 2.01391E+01-7.94485E-02-5.45703E-04 1.29956E-01-6.74893E-14 6.28645E-15
 -1      3412 2.00750E+01-7.62260E-02 5.45908E-05 1.22830E-01-4.01548E-14 7.11739E-14
 -1      3413 2.00691E+01-7.32327E-02 3.80735E-04 1.14943E-01-3.47599E-14 2.67176E-14
 -1      3414 2.01115E+01-8.35634E-02-4.73701E-04 1.17916E-01-6.87949E-14 3.31437E-14
 -1      3415 2.00582E+01-6.88703E-02-6.02456E-05 1.07559E-01-3.75644E-14 2.09321E-15
 -1      3416 2.00541E+01-6.29388E-02 4.04153E-04 1.00239E-01-1.94397E-14-2.64664E-15
 -1      3417 2.00884E+01-7.79102E-02-3.95473E-04 1.04348E-01-5.65259E-14-4.66316E-14
 -1      3418 2.00449E+01-5.61844E-02-1.47182E-04 9.38780E-02-3.06230E-14 1.77135E-14
 -1      3419 2.00422E+01-4.81122E-02 4.14255E-04 8.80318E-02-5.63939E-14 3.78100E-14
 -1      3420 2.00692E+01-6.54855E-02-3.16908E-04 9.16026E-02 4.46040E-15-4.31905E-14
 -1      3421 2.00343E+01-3.95277E-02-2.19760E-04 8.34089E-02-9.85359E-14 3.84721E-14
 -1      3422 2.00327E+01-2.97116E-02 4.20999E-04 7.97300E-02-1.10208E-13 6.54478E-14
 -1      3423 2.00533E+01-4.81133E-02-2.40040E-04 8.13961E-02-9.59371E-14 4.93223E-14
 -1      3424 2.00258E+01-1.95208E-02-2.89509E-04 7.74111E-02-1.61387E-13 6.96499E-14
 -1      3425 2.00250E+01-8.04371E-03 4.32135E-04 7.64801E-02-2.21582E-13 8.96823E-14
 -1      3426 2.00399E+01-2.67228E-02-1.62931E-04 7.50404E-02-1.11205E-13 1.99996E-14
 -1      3427 2.00183E+01 3.79802E-03-3.66219E-04 7.69695E-02-2.04149E-13 1.31026E-13
 -1      3428 2.00180E+01 1.70983E-02 4.53212E-04 7.93385E-02-1.19328E-13 1.01802E-13
 -1      3429 2.00279E+01-1.54740E-03-8.27340E-05 7.36221E-02-1.79763E-13 1.41076E-13
 -1      3430 2.00111E+01 3.08376E-02-4.58084E-04 8.31476E-02-5.38687E-15 7.75532E-14
 -1      3431 2.00109E+01 4.63024E-02 4.86900E-04 8.93991E-02 5.39181E-14 1.13388E-13
 -1      3432 2.00161E+01 2.77226E-02 4.27758E-06 7.81626E-02-6.07417E-14 2.40937E-13
 -1      3433 2.00030E+01 6.23286E-02-5.72432E-04 9.70901E-02 3.34737E-15 1.28475E-13
 -1      3434 2.00026E+01 8.04198E-02 5.33973E-04 1.07875E-01 2.51086E-14 1.31607E-13
 -1      3435 2.00033E+01 6.17939E-02 1.03533E-04 8.97261E-02 4.20914E-14 1.85001E-13
 -1      3436 1.99928E+01 9.92091E-02-7.15825E-04 1.20087E-01 6.06466E-14 1.18010E-13
 -1      3437 1.99919E+01 1.20448E-01 5.93668E-04 1.36145E-01 6.80874E-14 1.33152E-13
 -1      3438 1.99880E+01 1.01633E-01 2.21603E-04 1.09485E-01 2.95226E-14 7.76806E-14
 -1      3439 1.99791E+01 1.42499E-01-8.93840E-04 1.53604E-01 3.09946E-14 1.34007E-13
 -1      3440 1.99772E+01 1.67393E-01 6.63579E-04 1.75762E-01 7.26258E-14 5.52208E-14
 -1      3441 1.99682E+01 1.48331E-01 3.66059E-04 1.38755E-01 6.02210E-14 1.75582E-13
 -1      3442 1.99602E+01 1.93142E-01-1.11083E-03 1.99279E-01 1.07397E-13-2.56527E-15
 -1      3443 1.99565E+01 2.22079E-01 7.39837E-04 2.28431E-01 3.49976E-14-1.36471E-14
 -1      3444 1.99419E+01 2.02935E-01 5.45339E-04 1.78995E-01 5.71743E-14 1.37624E-13
 -1      3445 1.99340E+01 2.51779E-01-1.36951E-03 2.58876E-01 1.08493E-14-4.75687E-14
 -1      3446 1.99278E+01 2.84886E-01 8.18027E-04 2.95938E-01-2.46902E-15-3.32905E-14
 -1      3447 1.99065E+01 2.66224E-01 7.68144E-04 2.31779E-01-5.92527E-16-2.33161E-14
 -1      3448 1.98979E+01 3.18431E-01-1.67037E-03 3.34205E-01-3.09366E-14 9.22392E-15
 -1      3449 1.98883E+01 3.55353E-01 8.95439E-04 3.80043E-01 3.66297E-14 1.54419E-14
 -1      3450 1.98588E+01 3.38395E-01 1.04223E-03 2.98734E-01 1.56832E-14-4.99843E-14
 -1      3451 1.98492E+01 3.92020E-01-2.01088E-03 4.27013E-01 2.73814E-14-1.89392E-14
 -1      3452 1.98351E+01 4.31610E-01 9.75888E-04 4.82355E-01-1.16324E-14-8.29923E-15
 -1      3453 1.97955E+01 4.18609E-01 1.37205E-03 3.81463E-01-3.39505E-15 2.22331E-14
 -1      3454 1.97848E+01 4.69667E-01-2.38458E-03 5.38872E-01 7.29301E-14 2.18328E-14
 -1      3455 1.97653E+01 5.09521E-01 1.07892E-03 6.04222E-01 1.71211E-13 1.06431E-13
 -1      3456 1.97125E+01 5.04348E-01 1.75450E-03 4.81491E-01 8.30213E-14 3.69293E-14
 -1      3457 1.97019E+01 5.45663E-01-2.77990E-03 6.71135E-01 1.23146E-13 9.27702E-14
 -1      3458 1.96765E+01 5.81458E-01 1.25577E-03 7.46714E-01 9.01169E-14 1.56669E-13
 -1      3459 1.96058E+01 5.90493E-01 2.17128E-03 6.00318E-01 1.47216E-13 4.71689E-14
 -1      3460 1.95983E+01 6.09994E-01-3.17733E-03 8.25056E-01 8.38129E-14 1.55622E-13
 -1      3461 1.95682E+01 6.34546E-01 1.61386E-03 9.10833E-01 8.60834E-14 1.74033E-13
 -1      3462 1.94717E+01 6.68027E-01 2.57540E-03 7.39684E-01 1.16212E-13 1.72202E-13
 -1      3463 1.94750E+01 6.46259E-01-3.54168E-03 1.00223E+00 1.20589E-14 1.78847E-13
 -1      3464 1.94440E+01 6.48230E-01 2.34806E-03 1.09810E+00 3.88649E-14 1.73839E-13
 -1      3465 1.93080E+01 7.22227E-01 2.86626E-03 9.02293E-01 9.73197E-14 1.56435E-13
 -1      3466 1.93379E+01 6.28861E-01-3.80000E-03 1.20554E+00 6.79724E-15 1.60027E-13
 -1      3467 1.93156E+01 5.91070E-01 3.76990E-03 1.31163E+00 8.15839E-14 1.34684E-13
 -1      3468 1.91160E+01 7.30184E-01 2.84097E-03 1.09322E+00 1.78107E-15 2.46902E-13
 -1      3469 1.92039E+01 5.19450E-01-3.77506E-03 1.44052E+00 1.87344E-14-8.77878E-15
 -1      3470 1.92095E+01 4.16814E-01 6.32406E-03 1.55736E+00-1.92417E-14-4.65374E-14
 -1      3471 1.89036E+01 6.57454E-01 2.10101E-03 1.32221E+00-3.53277E-14 4.91448E-14
 -1      3472 1.91093E+01 2.62880E-01-2.92024E-03 1.71669E+00 3.69570E-14 3.73237E-14
 -1      3473 1.91784E+01 6.03013E-02 1.07094E-02 1.84414E+00 8.42861E-15 1.28288E-13
 -1      3474 1.86924E+01 4.53577E-01-7.35055E-05 1.60686E+00 8.36425E-14 8.02354E-14
 -1      3475 1.91267E+01-2.18155E-01 9.31298E-05 2.04572E+00 3.02485E-14 5.06604E-14
 -1      3476 1.93178E+01-5.65077E-01 1.73738E-02 2.17560E+00-7.98190E-16 6.58203E-14
 -1      3477 1.85292E+01 4.54705E-02-4.71872E-03 1.97492E+00 1.59439E-14 8.48191E-14
 -1      3478 1.93939E+01-1.01654E+00 1.08717E-02 2.42878E+00-5.96931E-14 1.74982E-14
 -1      3479 1.98265E+01-1.56239E+00 2.78683E-02 2.51737E+00-3.20273E-15 8.86010E-15
 -1      3480 1.85200E+01-6.61309E-01-7.29463E-03 2.45899E+00-8.02075E-14-3.29965E-14
 -1      3481 1.98793E+01-2.33768E+00 3.67893E-02 2.99324E+00-1.28313E-14-4.41682E-14
 -1      3482 2.06035E+01-3.14570E+00 3.29842E-02 3.03476E+00-1.99250E-14-1.08045E-13
 -1      3483 2.70485E+01 5.06349E+00-1.74721E-01-2.14735E+00-4.05564E-13-1.67384E-13
 -1      3484 2.00269E+01-4.66933E-02 4.13180E-04-9.36973E-02 2.60960E-14 1.03405E-13
 -1      3485 2.00273E+01-5.36958E-02-1.75996E-04-1.00386E-01 3.34927E-14 1.07359E-13
 -1      3486 2.00346E+01-5.94629E-02 4.01444E-04-1.07608E-01 2.71074E-15 8.45333E-14
 -1      3487 2.00361E+01-6.45133E-02-9.07965E-05-1.15741E-01 2.27559E-14 4.08355E-14
 -1      3488 2.00535E+01-6.32216E-02-2.97576E-04-1.00425E-01-6.97655E-15 9.09683E-14
 -1      3489 2.00450E+01-6.80794E-02 3.79138E-04-1.23938E-01 7.49736E-14 1.96820E-14
 -1      3490 2.00481E+01-7.03945E-02 2.98970E-05-1.32563E-01 4.53333E-14 5.02693E-14
 -1      3491 2.00688E+01-7.38253E-02-3.71003E-04-1.14961E-01 4.51600E-14 1.57994E-13
 -1      3492 2.00215E+01-3.07469E-02 4.24580E-04-8.36828E-02-2.89999E-14 2.15918E-13
 -1      3493 2.00209E+01-3.92905E-02-2.40959E-04-8.82193E-02-2.44152E-14 1.56522E-13
 -1      3494 2.00414E+01-4.80232E-02-2.28221E-04-8.84105E-02-1.16104E-14 1.06048E-13
 -1      3495 2.00177E+01-1.19860E-02 4.43265E-04-7.87498E-02-1.70686E-15 2.27914E-13
 -1      3496 2.00164E+01-2.19512E-02-2.99388E-04-8.05473E-02 7.29169E-15 2.26389E-13
 -1      3497 2.00316E+01-2.92096E-02-1.64851E-04-8.03207E-02-4.14991E-14 9.62478E-14
 -1      3498 2.00150E+01 9.67136E-03 4.74538E-04-7.99721E-02-7.00227E-15 2.14834E-13
 -1      3499 2.00131E+01-1.80743E-03-3.60565E-04-7.84862E-02 1.00139E-14 2.30244E-13
 -1      3500 2.00234E+01-7.09426E-03-1.03960E-04-7.73212E-02-1.61386E-15 2.37654E-13
 -1      3501 2.00128E+01 3.46386E-02 5.22073E-04-8.84351E-02-1.14279E-15 1.44646E-13
 -1      3502 2.00104E+01 2.13979E-02-4.33255E-04-8.31015E-02-1.73597E-14 1.53228E-13
 -1      3503 2.00159E+01 1.84855E-02-4.14979E-05-8.04815E-02 3.15002E-14 1.30619E-13
 -1      3504 2.00104E+01 6.35430E-02 5.87788E-04-1.05334E-01 9.67113E-15 2.75480E-13
 -1      3505 2.00076E+01 4.81979E-02-5.24436E-04-9.55261E-02 3.97471E-14 2.28895E-13
 -1      3506 2.00081E+01 4.80396E-02 2.54562E-05-9.08968E-02-3.85610E-14 1.54277E-13
 -1      3507 2.00073E+01 9.70924E-02 6.72482E-04-1.32025E-01-6.01411E-14 3.37841E-13
 -1      3508 2.00042E+01 7.92755E-02-6.39031E-04-1.17035E-01-2.97638E-14 2.83812E-13
 -1      3509 1.99991E+01 8.22902E-02 1.01574E-04-1.09778E-01-6.08695E-14 2.76567E-13
 -1      3510 2.00026E+01 1.35921E-01 7.75469E-04-1.70035E-01-2.52886E-15 2.64429E-13
 -1      3511 1.99993E+01 1.15323E-01-7.80288E-04-1.49076E-01-2.46124E-14 2.91142E-13
 -1      3512 1.99876E+01 1.22010E-01 1.91118E-04-1.38491E-01-6.10171E-15 2.74053E-13
 -1      3513 1.99956E+01 1.80378E-01 8.94844E-04-2.21025E-01-2.21934E-14 2.95996E-13
 -1      3514 1.99921E+01 1.56863E-01-9.48974E-04-1.93263E-01-7.13075E-15 2.75326E-13
 -1      3515 1.99722E+01 1.67837E-01 2.97426E-04-1.78568E-01-8.81812E-15 1.82857E-13
 -1      3516 1.99852E+01 2.30238E-01 1.02803E-03-2.86705E-01-8.92246E-14 2.48070E-13
 -1      3517 1.99818E+01 2.04004E-01-1.14216E-03-2.51316E-01-3.94177E-14 3.36589E-13
 -1      3518 1.99516E+01 2.20019E-01 4.21810E-04-2.31672E-01-4.32286E-14 2.79964E-13
 -1      3519 1.99707E+01 2.84277E-01 1.17318E-03-3.68684E-01-7.19651E-14 1.65570E-13
 -1      3520 1.99673E+01 2.56087E-01-1.35142E-03-3.24956E-01-7.60102E-14 1.89605E-13
 -1      3521 1.99241E+01 2.78065E-01 5.61358E-04-2.99529E-01-5.97841E-14 1.59230E-13
 -1      3522 1.99515E+01 3.39679E-01 1.33208E-03-4.68255E-01 4.05640E-14 5.79167E-14
 -1      3523 1.99480E+01 3.11186E-01-1.56010E-03-4.15730E-01 8.35556E-15 1.41968E-13
 -1      3524 1.98883E+01 3.40244E-01 7.05207E-04-3.83816E-01 2.56338E-14-2.98010E-14
 -1      3525 1.99280E+01 3.91205E-01 1.51531E-03-5.86122E-01-5.39567E-14 1.12845E-13
 -1      3526 1.99238E+01 3.65402E-01-1.73922E-03-5.24785E-01-9.02013E-15 5.90562E-14
 -1      3527 1.98430E+01 4.02898E-01 8.28363E-04-4.86029E-01-2.14904E-14 4.04226E-14
 -1      3528 1.99019E+01 4.30058E-01 1.75025E-03-7.22061E-01-5.29739E-14 1.19166E-13
 -1      3529 1.98955E+01 4.11891E-01-1.84116E-03-6.52578E-01-9.96453E-14 8.96321E-14
 -1      3530 1.97879E+01 4.59497E-01 8.81685E-04-6.07339E-01-7.46980E-14-1.16294E-14
 -1      3531 1.98782E+01 4.42406E-01 2.09046E-03-8.74537E-01 2.02313E-14 1.92302E-13
 -1      3532 1.98666E+01 4.39560E-01-1.78905E-03-7.98552E-01 3.59938E-14 2.47752E-13
 -1      3533 1.97247E+01 4.99369E-01 7.75815E-04-7.48499E-01-7.37182E-14 1.17844E-13
 -1      3534 1.98674E+01 4.07582E-01 2.61912E-03-1.04023E+00-1.42877E-14 4.23851E-14
 -1      3535 1.98443E+01 4.31421E-01-1.45814E-03-9.60750E-01 3.98012E-14 2.08634E-13
 -1      3536 1.96587E+01 5.06071E-01 3.55140E-04-9.09819E-01 5.48341E-14 1.71824E-13
 -1      3537 1.98888E+01 2.96200E-01 3.42465E-03-1.21326E+00-1.56194E-13-1.05948E-14
 -1      3538 1.98434E+01 3.62726E-01-6.42462E-04-1.13526E+00-1.39763E-13-2.19519E-14
 -1      3539 1.96009E+01 4.55395E-01-6.45343E-04-1.09118E+00-2.80520E-15 1.19649E-13
 -1      3540 1.99759E+01 6.89933E-02 4.52826E-03-1.38343E+00-1.35811E-13 6.18247E-14
 -1      3541 1.98904E+01 1.99311E-01 1.00084E-03-1.31503E+00-1.79668E-13 5.31551E-14
 -1      3542 1.95731E+01 3.13195E-01-2.66652E-03-1.29177E+00-2.07235E-13 1.87586E-14
 -1      3543 2.01824E+01-3.21590E-01 5.76507E-03-1.53206E+00-1.45292E-13 8.93451E-14
 -1      3544 2.00299E+01-1.02486E-01 4.06745E-03-1.48697E+00-8.05651E-14 1.75774E-13
 -1      3545 1.96136E+01 3.39071E-02-6.36287E-03-1.50845E+00-1.07266E-13-3.15234E-14
 -1      3546 2.05893E+01-9.21311E-01 7.23207E-03-1.62218E+00-1.58782E-13 1.33197E-13
 -1      3547 2.03328E+01-5.91151E-01 9.68837E-03-1.62483E+00-2.09271E-13 5.21690E-14
 -1      3548 1.97868E+01-4.38205E-01-1.23939E-02-1.73056E+00-1.65687E-13 8.33274E-14
 -1      3549 2.13035E+01-1.75118E+00 7.02343E-03-1.57959E+00-2.35315E-15 2.27459E-13
 -1      3550 2.09010E+01-1.30809E+00 1.81299E-02-1.67708E+00-3.14462E-14 1.67697E-13
 -1      3551 2.01921E+01-1.15416E+00-2.00767E-02-1.92739E+00-2.12296E-13 1.28469E-13
 -1      3552 2.24790E+01-2.70410E+00 1.78605E-02-1.23923E+00-1.08624E-14 3.93866E-13
 -1      3553 2.18729E+01-2.24160E+00 3.03717E-02-1.52929E+00-2.21304E-14 2.12974E-13
 -1      3554 2.09906E+01-2.14391E+00-2.53954E-02-2.02897E+00-6.62187E-15 4.75982E-14
 -1      3555 2.59320E+01-2.92060E+00 2.09719E-02 1.49572E+00 1.32967E-13 4.32963E-13
 -1      3556 2.52913E+01-3.50369E+00-6.48233E-03 6.39349E-01 7.20379E-14 4.99047E-13
 -1      3557 2.63750E+01 1.02517E+00-6.00187E-02 3.35043E+00 3.41331E-13 6.26735E-13
 -1      3558 1.14144E+01-4.35732E-02 1.87936E-02 1.27048E+00-1.02261E-13-3.16178E-13
 -1      3559 1.11108E+01 9.66002E-02 5.62762E-02-2.78477E-01-2.34269E-13-3.83103E-13
 -1      3560 2.53128E+01-2.97747E+00 2.25111E-02 2.42658E+00-3.74286E-13-9.57819E-14
 -1      3561 2.49999E+01-2.60777E+00-2.07826E-02 1.61641E+00-4.08967E-13 2.03310E-13
 -1      3562 2.54488E+01-2.58897E+00-9.11077E-03 1.16678E+00-3.77306E-13 8.48969E-14
 -1      3563 2.61069E+01-3.60174E+00 9.62446E-03 2.59660E+00-2.65551E-13 6.98296E-14
 -1      3564 2.62001E+01-2.27190E+00-1.56724E-06 2.05938E+00 1.00140E-13 4.66776E-13
 -1      3565 2.03118E+01 7.33643E-01 7.57908E-04-2.42862E-01-8.62035E-14-9.00808E-14
 -1      3566 2.02952E+01 5.72665E-01-2.92638E-03-1.41497E-01-9.03890E-14-1.42789E-13
 -1      3567 2.03311E+01 5.76745E-01 4.25626E-04-1.15264E-01-8.59636E-14-9.28693E-14
 -1      3568 2.28850E+01-4.56563E+00 2.28158E-02-2.75571E+00-1.07300E-13-1.96726E-13
 -1      3569 2.44164E+01-4.03656E+00-2.87000E-03-8.03214E-01 7.73270E-14-3.36380E-14
 -1      3570 2.36973E+01-3.63265E+00 6.27437E-04-8.59232E-01 4.06680E-14 1.69385E-13
 -1      3571 2.00393E+01 2.17501E+00-2.85223E-03-1.49582E-01 3.26598E-14-7.02553E-14
 -1      3572 2.00493E+01 2.13604E+00-5.05209E-03-2.70646E-01 8.32074E-15-5.91779E-14
 -1      3573 2.01778E+01 1.78350E+00 5.07987E-03-2.40450E-01-5.82938E-15-5.45384E-14
 -1      3574 2.01460E+01 1.89707E+00 5.15925E-03-8.17552E-02 3.75742E-14-5.33125E-14
 -1      3575 2.65949E+01-2.12774E+00 5.98438E-03 1.13490E-01-1.12011E-13 7.22963E-14
 -1      3576 2.02866E+01 8.84992E-01 5.77280E-04 4.46459E-01 9.50377E-14 5.73840E-14
 -1      3577 2.02781E+01 1.05629E+00-2.05209E-03 4.83797E-01 9.06746E-14 4.32938E-14
 -1      3578 2.02594E+01 6.99402E-01-1.56186E-03 3.01066E-01 7.12190E-14 5.78610E-14
 -1      3579 1.43261E+01-1.15076E+00 9.96221E-03 3.40883E+00-1.83013E-14 7.14914E-14
 -1      3580 1.26608E+01-2.97308E-01 9.49100E-02 2.42045E+00-4.59017E-14-7.43641E-14
 -1      3581 2.07368E+01-3.88712E+00 7.23351E-03-3.52541E+00-1.70490E-13-1.55634E-13
 -1      3582 2.00996E+01-4.60336E-02 6.08115E-05-1.62965E-01 4.22370E-14 8.86293E-14
 -1      3583 2.01111E+01-2.96758E-02 8.04061E-04-1.62591E-01 6.14662E-14 1.24126E-13
 -1      3584 1.47614E+01-1.87624E+00 1.51470E-01-4.40218E+00-1.75131E-13-2.16462E-13
 -1      3585 1.71286E+01-2.76370E+00-2.24873E-03-4.30852E+00-1.78579E-13-1.86406E-13
 -1      3586 2.62844E+01-2.55618E+00-2.33260E-02 6.47441E-01-3.23252E-13 1.94603E-13
 -1      3587 2.02664E+01 1.18850E+00-2.13422E-03 4.48843E-01 7.93525E-14 2.76583E-14
 -1      3588 1.15740E+01 1.00392E-01 8.04983E-02-1.13121E+00-2.57028E-13-4.07882E-13
 -1      3589 1.23622E+01-2.22209E-01-5.84516E-03-2.12394E+00-1.27353E-13-4.22641E-13
 -1      3590 1.26408E+01 3.55898E-01 5.47033E-02-5.03757E-01-1.24021E-13-3.69683E-13
 -1      3591 2.67437E+01-3.10957E+00-5.08171E-02 1.25375E+00-3.82918E-13 2.16032E-13
 -1      3592 1.85428E+01-1.87240E+00 1.00293E-03 3.23419E+00-4.68245E-14-9.88055E-14
 -1      3593 2.01029E+01 6.00398E-02-1.16223E-03-1.39659E-01 5.04184E-14 3.52462E-14
 -1      3594 2.01274E+01-8.44954E-03-2.19966E-04-1.58840E-01-1.90769E-14 1.05817E-13
 -1      3595 2.01434E+01 2.05514E-02 1.28044E-03-1.49279E-01-2.25296E-14 8.59108E-14
 -1      3596 2.01719E+01-1.51530E-02-7.10233E-04-1.47616E-01 5.88470E-15 6.33650E-14
 -1      3597 2.29720E+01-3.25462E+00 2.70048E-02-1.30947E+00-2.95302E-14 1.51185E-13
 -1      3598 2.20114E+01-3.31950E+00-2.32200E-02-2.16635E+00-2.28939E-14-2.70490E-13
 -1      3599 1.32049E+01 8.47757E-02 5.74895E-02 1.56739E+00-9.86572E-14-1.07404E-13
 -1      3600 2.02092E+01 1.69627E+00 8.39255E-03 4.62787E-01 1.06577E-13-9.10068E-15
 -1      3601 2.02024E+01 1.63894E+00-3.30699E-03 1.30725E-01 8.05030E-14-2.02626E-14
 -1      3602 2.01975E+01 1.65758E+00-3.13459E-03 3.98818E-02 6.23864E-14-4.57805E-14
 -1      3603 2.02331E+01 3.21985E-01-1.49479E-03 1.81942E-02 5.76669E-14 3.24131E-14
 -1      3604 2.02512E+01 4.09614E-01 2.67451E-03 7.90827E-02 3.66968E-14 4.57963E-14
 -1      3605 1.40173E+01-1.22909E+00 4.99542E-02-3.60457E+00-1.35662E-13-2.85084E-13
 -1      3606 1.75035E+01-1.71440E+00 1.38451E-02 3.35322E+00-1.05967E-13-2.00173E-13
 -1      3607 1.58594E+01-1.35789E+00 7.00919E-02 3.55810E+00-5.72745E-14-5.30236E-14
 -1      3608 1.54167E+01-5.99622E-01-5.40654E-03 2.83002E+00-1.57305E-13-2.62845E-14
 -1      3609 1.75544E+01-9.90327E-01-2.27887E-02 2.85886E+00-2.47717E-13-9.13020E-14
 -1      3610 2.00589E+01-7.08004E-02 3.30440E-04-1.40683E-01 6.25497E-14 3.58814E-14
 -1      3611 2.00641E+01-6.91065E-02 2.04481E-04-1.48475E-01 7.02177E-14 3.31338E-14
 -1      3612 2.00878E+01-7.80181E-02-4.48835E-04-1.30130E-01 5.10325E-14 5.68321E-14
 -1      3613 2.02842E+01 1.17404E+00-2.76716E-03-4.37874E-01-4.85605E-14-1.12846E-13
 -1      3614 2.02979E+01 9.06995E-01-9.10495E-04-3.10480E-01-6.10307E-14-9.82061E-14
 -1      3615 2.03220E+01 9.07425E-01 1.90828E-03-2.57145E-01-7.67041E-14-1.08023E-13
 -1      3616 2.02713E+01 1.30671E+00 1.75681E-03-3.95334E-01-4.80284E-14-1.03671E-13
 -1      3617 2.01940E+01 1.60355E-01-1.36154E-03-8.04949E-02 7.21795E-14 5.32225E-14
 -1      3618 2.02211E+01 2.33549E-01 2.65541E-03-3.58655E-02 6.94170E-14 4.29986E-14
 -1      3619 2.02762E+01 3.28481E-01-6.74231E-04 9.45981E-03 7.73821E-14-5.22098E-16
 -1      3620 2.02457E+01 1.46831E+00-1.35888E-04-2.79261E-01-2.44207E-14-6.27355E-14
 -1      3621 2.02564E+01 1.38190E+00-3.53321E-03-3.46266E-01-3.86244E-14-6.48016E-14
 -1      3622 2.03026E+01 1.16999E+00 1.53713E-03-2.80562E-01-5.71179E-14-6.96035E-14
 -1      3623 2.02229E+01 1.54354E+00-5.02107E-03 2.87217E-01 1.06376E-13-6.89176E-14
 -1      3624 2.02112E+01 1.60512E+00-2.20014E-03 2.01037E-01 8.68575E-14-5.21890E-14
 -1      3625 2.02857E+01 1.38520E+00 5.12040E-03 1.34294E-01 7.87141E-14-2.58048E-14
 -1      3626 1.92522E+01-3.13924E+00 6.93875E-02-3.95527E+00-1.41080E-13-9.05821E-14
 -1      3627 2.10540E+01-3.25943E+00 3.03065E-02-2.88093E+00-5.40745E-14-2.69287E-13
 -1      3628 2.05754E+01-2.69574E+00-5.49398E-03-2.67918E+00 4.82973E-14-1.34433E-13
 -1      3629 1.76673E+01-2.27733E+00-1.80026E-02-3.73980E+00-9.08405E-14-1.63721E-13
 -1      3630 2.00849E+01-5.72018E-02 4.54811E-04-1.60091E-01 1.91540E-14 5.30129E-14
 -1      3631 2.01393E+01-5.40322E-02-6.33093E-04-1.50881E-01 7.01639E-14 6.76333E-14
 -1      3632 2.00769E+01-6.48388E-02 2.32914E-04-1.55031E-01 3.54332E-14 1.09024E-14
 -1      3633 2.03570E+01 4.15992E-01 1.49935E-03-2.95029E-02-6.71621E-14-2.38721E-14
 -1      3634 2.03408E+01 3.05076E-01-1.74210E-03 1.84229E-02-4.98005E-14-3.45393E-14
 -1      3635 2.00413E+01-2.55745E-02 3.98791E-04-7.32482E-02-2.63278E-14 7.90466E-14
 -1      3636 2.00453E+01-3.69691E-02-2.01529E-04-7.57990E-02-4.37540E-14 4.26973E-14
 -1      3637 2.03339E+01 2.15532E-01 1.33906E-03 4.74051E-02-2.13301E-14-3.28226E-14
 -1      3638 2.03131E+01 1.40659E-01-1.04930E-03 7.65475E-02-8.15938E-15-2.40495E-14
 -1      3639 2.03684E+01 2.93752E-01 3.03738E-04 2.14459E-02-3.83755E-14 3.56963E-14
 -1      3640 2.02980E+01 8.15502E-02 1.07587E-03 9.26391E-02 1.52886E-14-1.39630E-14
 -1      3641 2.02765E+01 3.31951E-02-5.18645E-04 1.07878E-01 2.32021E-14-1.74438E-14
 -1      3642 2.03397E+01 1.30218E-01-1.20349E-04 6.85566E-02 1.27465E-14 1.62111E-15
 -1      3643 2.02573E+01-3.80370E-03 8.00489E-04 1.14627E-01 1.51019E-14-3.20336E-15
 -1      3644 2.02371E+01-3.29735E-02-1.43381E-04 1.20253E-01 1.59234E-14-8.58134E-15
 -1      3645 2.03010E+01 2.34744E-02-3.77568E-04 9.36866E-02 1.53127E-14 4.63054E-14
 -1      3646 2.02168E+01-5.41773E-02 5.59967E-04 1.20777E-01 4.44859E-14-5.24317E-15
 -1      3647 2.01987E+01-6.97398E-02 1.02359E-04 1.20233E-01 1.09242E-14-1.53967E-14
 -1      3648 2.02589E+01-4.17087E-02-5.06471E-04 1.03266E-01 2.54376E-14 3.98954E-14
 -1      3649 2.01790E+01-7.98631E-02 3.63459E-04 1.16985E-01-3.02983E-14-1.50683E-15
 -1      3650 2.01636E+01-8.59368E-02 2.51335E-04 1.12877E-01-5.82498E-14 2.92054E-14
 -1      3651 2.02176E+01-7.71739E-02-5.48419E-04 1.02714E-01 1.07193E-15-1.61534E-15
 -1      3652 2.01454E+01-8.83892E-02 2.07531E-04 1.07697E-01-8.78778E-14 2.14912E-14
 -1      3653 2.01325E+01-8.79293E-02 3.33427E-04 1.01947E-01-8.50002E-14-3.34385E-15
 -1      3654 2.01795E+01-9.17717E-02-5.30501E-04 9.62245E-02-6.10474E-14-8.43534E-15
 -1      3655 2.01164E+01-8.51217E-02 8.55603E-05 9.61748E-02-7.39260E-14 2.93632E-15
 -1      3656 2.01058E+01-8.01649E-02 3.72181E-04 9.01609E-02-5.54521E-14-2.57162E-14
 -1      3657 2.01455E+01-9.19212E-02-4.76420E-04 8.69498E-02-8.95372E-14 4.27384E-14
 -1      3658 2.00917E+01-7.36950E-02-1.36812E-05 8.47565E-02-3.56738E-15 1.95175E-14
 -1      3659 2.00831E+01-6.55446E-02 3.84166E-04 7.94791E-02-6.73019E-15 2.87342E-14
 -1      3660 2.01159E+01-8.20801E-02-4.04881E-04 7.71717E-02-1.88390E-14 8.77973E-14
 -1      3661 2.00707E+01-5.63906E-02-1.00176E-04 7.51534E-02-2.32381E-14 2.07036E-14
 -1      3662 2.00637E+01-4.58002E-02 3.80130E-04 7.13616E-02-5.29561E-14 6.14279E-14
 -1      3663 2.00903E+01-6.51055E-02-3.20722E-04 6.85629E-02-1.78274E-14 7.33345E-15
 -1      3664 2.00525E+01-3.44798E-02-1.83488E-04 6.86525E-02-9.84882E-14 6.38705E-14
 -1      3665 2.00466E+01-2.17746E-02 3.69101E-04 6.69311E-02-1.25881E-13 7.92345E-14
 -1      3666 2.00679E+01-4.26724E-02-2.23891E-04 6.23843E-02-4.22772E-14 1.13730E-14
 -1      3667 2.00360E+01-8.42202E-03-2.72227E-04 6.62758E-02-1.17513E-13 1.49944E-13
 -1      3668 2.00306E+01 6.42220E-03 3.59212E-04 6.71380E-02-9.33141E-14 2.14381E-13
 -1      3669 2.00476E+01-1.55446E-02-1.17118E-04 5.96041E-02-7.90655E-14 1.58783E-13
 -1      3670 2.00199E+01 2.19651E-02-3.73113E-04 6.89537E-02-9.26468E-14 2.41589E-13
 -1      3671 2.00144E+01 3.92273E-02 3.52860E-04 7.29057E-02-3.05099E-14 2.19424E-13
 -1      3672 2.00279E+01 1.62781E-02 1.01001E-06 6.10665E-02-8.11410E-14 2.27514E-13
 -1      3673 2.00025E+01 5.73232E-02-4.92933E-04 7.76293E-02 2.55683E-14 1.30571E-13
 -1      3674 1.99962E+01 7.74571E-02 3.50016E-04 8.52062E-02 2.74651E-14 1.11432E-13
 -1      3675 2.00072E+01 5.33523E-02 1.35836E-04 6.76072E-02-6.11431E-14 1.67366E-13
 -1      3676 1.99820E+01 9.86060E-02-6.38492E-04 9.33155E-02 1.29758E-14 1.59252E-13
 -1      3677 1.99741E+01 1.22171E-01 3.49595E-04 1.05105E-01 5.95261E-14 1.57865E-13
 -1      3678 1.99833E+01 9.66024E-02 2.93549E-04 8.00998E-02 4.57854E-14 8.60395E-14
 -1      3679 1.99564E+01 1.46938E-01-8.15707E-04 1.17134E-01 7.66343E-14 2.10423E-13
 -1      3680 1.99459E+01 1.74520E-01 3.48883E-04 1.33785E-01 4.54599E-14 1.86753E-13
 -1      3681 1.99539E+01 1.47173E-01 4.81298E-04 9.94901E-02 7.97054E-14 2.17112E-13
 -1      3682 1.99229E+01 2.03448E-01-1.02962E-03 1.50325E-01 1.35938E-14 1.87453E-13
 -1      3683 1.99086E+01 2.35555E-01 3.43654E-04 1.72536E-01 6.68326E-15 1.59606E-13
 -1      3684 1.99162E+01 2.06258E-01 7.07757E-04 1.26811E-01 9.07658E-15 1.96130E-13
 -1      3685 1.98787E+01 2.69047E-01-1.28470E-03 1.94227E-01-7.15070E-14 1.01627E-13
 -1      3686 1.98592E+01 3.05977E-01 3.29000E-04 2.22722E-01-2.55492E-14-6.76484E-15
 -1      3687 1.98670E+01 2.74877E-01 9.82482E-04 1.63169E-01-5.21800E-14 1.55221E-13
 -1      3688 1.98202E+01 3.44140E-01-1.58513E-03 2.50226E-01 8.05305E-14-4.89079E-14
 -1      3689 1.97938E+01 3.85795E-01 3.01079E-04 2.85717E-01 6.44312E-14 1.13709E-14
 -1      3690 1.98024E+01 3.53596E-01 1.31547E-03 2.09702E-01-1.62163E-14 1.04401E-13
 -1      3691 1.97433E+01 4.28221E-01-1.93588E-03 3.19705E-01 1.56903E-14-3.31992E-14
 -1      3692 1.97082E+01 4.73852E-01 2.60665E-04 3.62851E-01 4.13327E-14 1.06629E-14
 -1      3693 1.97178E+01 4.42147E-01 1.71668E-03 2.67543E-01 3.66957E-14 5.19719E-14
 -1      3694 1.96434E+01 5.19312E-01-2.34513E-03 4.04006E-01 7.03511E-14 3.38953E-14
 -1      3695 1.95974E+01 5.67176E-01 2.19868E-04 4.55411E-01 1.02459E-13 4.83001E-14
 -1      3696 1.96082E+01 5.38929E-01 2.19536E-03 3.37794E-01 7.72079E-14 5.33274E-14
 -1      3697 1.95151E+01 6.13208E-01-2.82931E-03 5.04504E-01 1.59097E-13 3.29593E-15
 -1      3698 1.94565E+01 6.60102E-01 2.14091E-04 5.64785E-01 1.55169E-13 7.10970E-14
 -1      3699 1.94678E+01 6.40353E-01 2.75944E-03 4.21616E-01 1.09464E-13-6.89051E-15
 -1      3700 1.93533E+01 7.02440E-01-3.42164E-03 6.22895E-01 1.82422E-13 9.20016E-14
 -1      3701 1.92805E+01 7.43089E-01 3.22026E-04 6.92925E-01 2.01542E-13 1.70818E-13
 -1      3702 1.92900E+01 7.40004E-01 3.41476E-03 5.20522E-01 2.22245E-13-4.55738E-14
 -1      3703 1.91526E+01 7.74905E-01-4.18505E-03 7.61941E-01 9.65391E-14 9.16007E-14
 -1      3704 1.90656E+01 8.01156E-01 6.96026E-04 8.43393E-01 7.20910E-14 1.37760E-13
 -1      3705 1.90680E+01 8.27581E-01 4.16355E-03 6.37118E-01 1.10664E-13 6.67388E-14
 -1      3706 1.89091E+01 8.12051E-01-5.22781E-03 9.26981E-01 2.05506E-14 1.11499E-13
 -1      3707 1.88106E+01 8.11787E-01 1.59953E-03 1.02332E+00 1.09859E-14 1.10805E-13
 -1      3708 1.87945E+01 8.87574E-01 4.99682E-03 7.76612E-01 1.26665E-14-4.91554E-14
 -1      3709 1.86215E+01 7.86432E-01-6.71510E-03 1.12859E+00-6.73127E-15 1.67058E-13
 -1      3710 1.85197E+01 7.42058E-01 3.41517E-03 1.24664E+00-4.64560E-14 1.19061E-13
 -1      3711 1.84623E+01 8.97465E-01 5.85894E-03 9.49566E-01 1.04132E-14 3.24846E-14
 -1      3712 1.82947E+01 6.58552E-01-8.79839E-03 1.38656E+00 6.36722E-14 1.70021E-13
 -1      3713 1.82083E+01 5.45240E-01 7.12710E-03 1.53845E+00 1.92244E-13 2.73882E-13
 -1      3714 1.80653E+01 8.25014E-01 6.55100E-03 1.17633E+00 1.12530E-13 1.52236E-13
 -1      3715 1.79461E+01 3.71750E-01-1.13001E-02 1.73693E+00 9.38599E-14 2.57564E-13
 -1      3716 1.79076E+01 1.52306E-01 1.35344E-02 1.94316E+00-5.97347E-15 2.34670E-13
 -1      3717 1.75973E+01 6.24041E-01 5.92239E-03 1.49275E+00 1.41865E-13 1.57309E-13
 -1      3718 1.76852E+01-1.45073E-01-1.54809E-02 2.21110E+00-1.04922E-13 2.03355E-13
 -1      3719 1.77577E+01-5.18712E-01 2.07407E-02 2.49446E+00-2.39675E-13-1.36285E-14
 -1      3720 1.67963E+01-3.85946E-01 1.84637E-02 2.56704E+00-2.65589E-13 4.77760E-14
 -1      3721 1.71412E+01 2.43996E-01 7.11726E-03 1.94029E+00-1.29433E-13 2.30015E-13
 -1      3722 2.00713E+01-6.45806E-02 3.98998E-04-8.92463E-02-1.04342E-14 8.09751E-14
 -1      3723 2.00779E+01-7.17542E-02-3.31919E-05-9.54497E-02 3.34997E-14 9.59966E-14
 -1      3724 2.00551E+01-4.70496E-02 4.00244E-04-7.93262E-02-4.38729E-14 7.71500E-14
 -1      3725 2.00602E+01-5.65054E-02-1.20658E-04-8.40244E-02-2.48004E-14 6.84084E-14
 -1      3726 2.00819E+01-6.54729E-02-3.16599E-04-7.92880E-02-2.50024E-14 1.42964E-13
 -1      3727 2.00623E+01-4.53085E-02-2.34489E-04-7.13579E-02-1.46949E-14 1.10646E-13
 -1      3728 1.42216E+01 1.31017E-01 1.10463E-03 1.80372E+00-7.05330E-14-2.06127E-13
 -1      3729 1.33765E+01 4.97102E-01 3.73754E-02 7.69575E-01-6.00561E-15-2.64762E-13
 -1      3730 2.00908E+01-7.73005E-02 3.84144E-04-1.01764E-01 4.56346E-14 1.17485E-13
 -1      3731 2.00993E+01-8.13847E-02 7.97547E-05-1.08669E-01 3.78247E-14 1.28038E-13
 -1      3732 2.01048E+01-8.04699E-02-4.00144E-04-8.97329E-02 4.16447E-14 7.91178E-14
 -1      3733 2.00289E+01-3.88038E-04 4.00936E-04-7.20856E-02 8.12914E-15 1.34184E-13
 -1      3734 2.00323E+01-1.36724E-02-2.81609E-04-7.19355E-02-2.04371E-14 1.13604E-13
 -1      3735 2.00449E+01-2.07531E-02-1.39560E-04-6.71062E-02-1.04863E-14 1.17536E-13
 -1      3736 2.00169E+01 2.87696E-02 4.10061E-04-7.68330E-02 1.00296E-14 1.60686E-13
 -1      3737 2.00200E+01 1.34059E-02-3.70877E-04-7.34545E-02 8.54319E-14 1.69552E-13
 -1      3738 2.00286E+01 8.01807E-03-3.81831E-05-6.75229E-02 8.55191E-15 8.66054E-14
 -1      3739 2.00038E+01 6.25265E-02 4.28030E-04-8.85328E-02-4.63136E-14 2.00185E-13
 -1      3740 2.00072E+01 4.47287E-02-4.77766E-04-8.13638E-02-4.04961E-14 2.01991E-13
 -1      3741 2.00118E+01 4.13733E-02 7.14291E-05-7.35416E-02-1.12105E-14 2.53828E-13
 -1      3742 1.99884E+01 1.01698E-01 4.56587E-04-1.08349E-01-4.09641E-14 1.69995E-13
 -1      3743 1.99926E+01 8.10350E-02-6.07386E-04-9.67666E-02-1.02907E-14 1.83164E-13
 -1      3744 1.99931E+01 8.00472E-02 1.96173E-04-8.61644E-02-1.28371E-14 1.82238E-13
 -1      3745 1.99688E+01 1.47122E-01 4.95875E-04-1.37594E-01 4.27684E-14 1.45009E-13
 -1      3746 1.99744E+01 1.23173E-01-7.64569E-04-1.20902E-01-1.71206E-14 1.82777E-13
 -1      3747 1.99704E+01 1.24931E-01 3.40915E-04-1.06508E-01-2.83059E-14 3.36582E-14
 -1      3748 1.99433E+01 1.99452E-01 5.45533E-04-1.77739E-01-6.75691E-14 2.20513E-13
 -1      3749 1.99511E+01 1.71916E-01-9.52665E-04-1.55173E-01 3.91730E-14 2.09108E-13
 -1      3750 1.99417E+01 1.76897E-01 5.10130E-04-1.35836E-01-1.29260E-14 1.27531E-13
 -1      3751 1.99098E+01 2.58868E-01 6.05725E-04-2.30387E-01 1.81171E-14 1.29068E-13
 -1      3752 1.99205E+01 2.27723E-01-1.17296E-03-2.01139E-01-3.46165E-14 1.73872E-13
 -1      3753 1.99045E+01 2.36552E-01 7.07178E-04-1.75573E-01 3.49683E-15 1.46573E-13
 -1      3754 1.98661E+01 3.24697E-01 6.79032E-04-2.97222E-01 2.56121E-14-3.61047E-14
 -1      3755 1.98804E+01 2.90404E-01-1.42407E-03-2.60481E-01 3.04007E-14 6.53756E-14
 -1      3756 1.98562E+01 3.03920E-01 9.32767E-04-2.27296E-01 5.68247E-14-5.30835E-14
 -1      3757 1.98101E+01 3.94881E-01 7.73890E-04-3.79941E-01-3.54544E-14-4.77688E-14
 -1      3758 1.98287E+01 3.58670E-01-1.70120E-03-3.34949E-01-1.02596E-14-2.64190E-14
 -1      3759 1.97939E+01 3.78000E-01 1.18271E-03-2.92715E-01 3.61272E-14-4.52342E-14
 -1      3760 1.97399E+01 4.65262E-01 9.10513E-04-4.80198E-01-5.27511E-14-3.75283E-14
 -1      3761 1.97632E+01 4.29514E-01-1.99535E-03-4.26305E-01-5.51881E-14-1.45031E-14
 -1      3762 1.97148E+01 4.56196E-01 1.44451E-03-3.73679E-01-6.74141E-14 3.45041E-14
 -1      3763 1.96550E+01 5.28624E-01 1.13051E-03-5.99600E-01-9.69607E-14-1.79437E-14
 -1      3764 1.96826E+01 4.97377E-01-2.29240E-03-5.36302E-01-7.93855E-14 5.08656E-14
 -1      3765 1.96164E+01 5.33550E-01 1.69209E-03-4.72234E-01-1.12129E-13-2.84386E-14
 -1      3766 1.95567E+01 5.73452E-01 1.51127E-03-7.39839E-01-5.60942E-14 3.26567E-14
 -1      3767 1.95869E+01 5.53058E-01-2.57116E-03-6.66761E-01-1.45497E-13-2.07705E-14
 -1      3768 1.94971E+01 6.01746E-01 1.87733E-03-5.90821E-01-1.45484E-13-3.60486E-14
 -1      3769 1.94499E+01 5.82360E-01 2.18480E-03-9.03029E-01 8.66645E-14 1.08237E-13
 -1      3770 1.94786E+01 5.82301E-01-2.79790E-03-8.19830E-01 7.59163E-14 9.85289E-14
 -1      3771 1.93571E+01 6.47854E-01 1.91566E-03-7.32722E-01-5.49186E-14-1.56438E-15
 -1      3772 1.93465E+01 5.30154E-01 3.35219E-03-1.09227E+00-7.88331E-14 1.44737E-13
 -1      3773 1.93651E+01 5.64056E-01-2.90961E-03-9.98512E-01 5.41824E-14 1.59338E-13
 -1      3774 1.92000E+01 6.52742E-01 1.65740E-03-9.02898E-01 3.82221E-14 1.96668E-13
 -1      3775 1.92688E+01 3.81493E-01 5.24101E-03-1.31221E+00-1.13513E-13 1.51946E-14
 -1      3776 1.92620E+01 4.68378E-01-2.76746E-03-1.20739E+00-1.37804E-13 1.49494E-13
 -1      3777 1.90352E+01 5.89004E-01 8.21898E-04-1.10932E+00-5.01674E-14 1.98377E-13
 -1      3778 1.92577E+01 8.87056E-02 8.06643E-03-1.56831E+00-2.20223E-13-1.04182E-14
 -1      3779 1.91995E+01 2.54069E-01-2.05039E-03-1.45282E+00-1.53141E-13-1.99325E-14
 -1      3780 1.88824E+01 4.18014E-01-1.15130E-03-1.36450E+00-1.45011E-13 9.42354E-14
 -1      3781 1.93819E+01-4.08091E-01 1.21576E-02-1.86215E+00-1.65986E-13 1.21799E-13
 -1      3782 1.92311E+01-1.32888E-01 1.62680E-05-1.74093E+00-1.59851E-13 1.90009E-13
 -1      3783 1.87795E+01 8.68127E-02-5.18063E-03-1.68540E+00-3.27793E-13 2.93152E-13
 -1      3784 1.97590E+01-1.17291E+00 2.00548E-02-2.17458E+00-9.72208E-14-2.49024E-14
 -1      3785 1.94506E+01-7.63182E-01 4.29929E-03-2.06859E+00-1.89203E-13 2.36108E-14
 -1      3786 1.87979E+01-4.74441E-01-1.14016E-02-2.09391E+00-1.00172E-13 2.35998E-13
 -1      3787 2.03736E+01-2.13397E+00 2.20901E-02-2.45597E+00 7.23224E-14-1.88687E-13
 -1      3788 1.98444E+01-1.58528E+00 7.02767E-03-2.39966E+00-1.24195E-15-4.35162E-14
 -1      3789 1.89443E+01-1.21024E+00-9.97525E-03-2.56006E+00-5.83539E-14-9.56684E-14
 -1      3790 1.92703E+01-2.11037E+00 1.00097E-02-3.08212E+00 2.87721E-14-1.85283E-13
 -1      3791 2.03184E+01 9.40063E-01 5.92545E-03 3.23998E-01 5.42809E-14 1.94817E-14
 -1      3792 2.02647E+01 1.28466E+00-5.28189E-03 4.06966E-01 8.25211E-14-1.34040E-14
 -1      3793 2.02864E+01 1.39654E+00 5.05452E-03 1.04357E-02 6.74882E-14-2.60720E-14
 -1      3794 2.02054E+01 1.63776E+00-1.73445E-03-2.63341E-02 5.62814E-14-4.44809E-14
 -1      3795 2.02142E+01 1.59335E+00-3.55302E-03-1.04279E-01 3.44117E-14-2.19470E-14
 -1      3796 1.37982E+01-4.48288E-01 8.71242E-02-2.85519E+00-8.20802E-14-3.81594E-13
 -1      3797 1.53986E+01-1.06099E+00-1.49735E-02-3.30149E+00-3.89975E-14-3.10380E-13
 -1      3798 1.40592E+01-1.57784E-02 3.31243E-02-2.07786E+00-1.90299E-14-4.26770E-13
 -1      3799 2.02472E+01 4.85167E-01-1.42642E-03 1.36430E-01 2.99798E-14 5.90411E-14
 -1      3800 2.02677E+01 5.97893E-01 2.24020E-03 2.24486E-01 4.24518E-14 5.93698E-14
 -1      3801 2.02885E+01 7.17170E-01-1.91006E-03 2.60101E-01 5.55697E-14 4.20306E-14
 -1      3802 2.02909E+01 5.22180E-01-4.35544E-04 1.23929E-01 5.45026E-14-6.79123E-15
 -1      3803 2.68803E+01 2.05472E+00-1.95558E-01-1.45611E+00 2.43201E-13 2.17985E-13
 -1      3804 2.03538E+01 7.04631E-01 5.18209E-04-1.46320E-01-7.79836E-14-4.58622E-14
 -1      3805 2.03497E+01 5.47496E-01-2.30071E-03-7.53824E-02-7.06922E-14-2.30632E-14
 -1      3806 2.03772E+01 5.33355E-01 9.44758E-04-5.43769E-02-5.66530E-14 3.83114E-14
 -1      3807 2.03243E+01 1.00539E+00-1.81693E-03-2.44103E-01-6.47897E-14-6.26036E-14
 -1      3808 2.03392E+01 8.33536E-01-6.82701E-04-1.80818E-01-7.78681E-14-5.70679E-14
 -1      3809 2.03616E+01 8.06590E-01 8.96038E-04-1.36753E-01-6.01679E-14 4.21545E-15
 -1      3810 2.03248E+01 1.08730E+00 5.00216E-04-2.05753E-01-4.64838E-14-1.22475E-14
 -1      3811 2.02502E+01 1.38693E+00-2.10174E-03 3.42556E-01 9.49659E-14-2.89364E-14
 -1      3812 2.01602E+01 5.62195E-02-6.89665E-04-1.34954E-01 8.99949E-15 5.94908E-14
 -1      3813 2.01814E+01 1.03698E-01 1.95255E-03-1.11228E-01 4.29094E-14 5.49893E-14
 -1      3814 2.02082E+01 5.25652E-02-7.30774E-04-1.26581E-01-1.12307E-14 5.32785E-14
 -1      3815 1.33498E+01 5.74197E-01 2.63570E-02 1.36491E-01 6.71607E-14-2.08592E-13
 -1      3816 1.35688E+01 4.99312E-01-1.30021E-02-6.82775E-01-1.99723E-14-3.83967E-13
 -1      3817 1.44088E+01 6.55390E-01 2.65228E-02 4.60965E-01 1.31568E-13-2.79186E-13
 -1      3818 2.02091E+01-2.50585E-02-1.81348E-04-1.34315E-01 2.20970E-14 9.67379E-15
 -1      3819 2.02283E+01 4.42965E-03 9.46936E-04-1.27547E-01-2.30404E-14 2.11405E-15
 -1      3820 2.02211E+01 1.57716E+00-1.21103E-03-1.60347E-01 2.11161E-14-2.65455E-14
 -1      3821 2.02346E+01 1.50407E+00-3.70417E-03-2.28885E-01 7.27315E-15-4.24742E-14
 -1      3822 2.02971E+01 1.29300E+00 3.39035E-03-1.93112E-01-3.96318E-15-3.70257E-14
 -1      3823 2.02932E+01 1.35431E+00 4.51178E-03-9.85236E-02 4.02302E-14-1.56715E-14
 -1      3824 2.03080E+01 1.19621E+00 4.04878E-03 2.47406E-01 8.93990E-14-4.62390E-14
 -1      3825 2.03208E+01 1.18598E+00-2.00562E-03 3.78363E-02 7.03001E-14-1.95770E-14
 -1      3826 2.03249E+01 1.16389E+00-2.83732E-03-1.53179E-02 6.49086E-14-2.99035E-14
 -1      3827 2.02437E+01 1.61764E-01-6.60205E-04-7.84939E-02 4.61244E-14 3.24224E-14
 -1      3828 2.01112E+01-7.28883E-02-5.37674E-04-1.43331E-01 5.58263E-14 4.62484E-14
 -1      3829 2.03126E+01 8.10006E-01-8.90691E-04 2.40738E-01 6.38796E-14 3.65436E-15
 -1      3830 2.03210E+01 1.13168E+00-3.72706E-03 1.38426E-01 6.95707E-14-5.00772E-14
 -1      3831 2.03211E+01 1.16750E+00-2.05565E-03 8.30484E-02 7.24139E-14-2.25778E-14
 -1      3832 2.03757E+01 9.74116E-01 4.48645E-03 5.08234E-02 5.22001E-14-1.94052E-14
 -1      3833 2.03086E+01 3.15889E-01-1.66847E-03-8.86924E-03 7.22769E-14-2.95396E-14
 -1      3834 2.03274E+01 4.27068E-01 1.66590E-03 4.76131E-02 6.85132E-14-5.10029E-14
 -1      3835 1.60756E+01-2.40802E-01 1.04518E-02 2.39087E+00-3.06719E-13-5.42604E-14
 -1      3836 1.50165E+01 4.01722E-02 4.74643E-02 2.17643E+00-2.29611E-13-9.25128E-14
 -1      3837 1.49321E+01 4.05858E-01-1.58355E-02 1.48773E+00-1.31948E-13-3.90722E-13
 -1      3838 1.61898E+01 1.00941E-01-2.74088E-02 2.04219E+00-3.10828E-13 1.80810E-14
 -1      3839 1.66673E+01-1.34473E+00 6.10070E-02-3.46330E+00-7.01386E-14-2.78603E-13
 -1      3840 1.82817E+01-1.84756E+00 8.98468E-03-3.24920E+00 9.39049E-15-1.68802E-13
 -1      3841 1.80455E+01-1.37200E+00-2.53114E-02-2.94255E+00 3.61408E-15-2.59705E-13
 -1      3842 1.61157E+01-7.60774E-01-1.36768E-02-2.91379E+00-4.50369E-14-3.14975E-13
 -1      3843 2.01141E+01-8.34052E-02 3.47668E-04-1.15240E-01 3.79347E-14 1.07724E-13
 -1      3844 2.01250E+01-8.31187E-02 2.24098E-04-1.21741E-01 3.91865E-14 6.24765E-14
 -1      3845 2.01317E+01-8.85839E-02-4.91678E-04-1.01328E-01 1.79638E-14 4.52191E-14
 -1      3846 2.01736E+01-6.26580E-02 8.48745E-05-1.35308E-01 6.13236E-14 2.50433E-14
 -1      3847 2.01900E+01-4.65887E-02 6.38765E-04-1.35682E-01 7.20749E-14 1.90627E-14
 -1      3848 2.02375E+01-3.34354E-02-5.67894E-04-1.18890E-01 4.01755E-14-1.58494E-14
 -1      3849 2.03496E+01 5.03206E-01-3.36729E-05 6.56363E-02 5.61932E-14-8.19552E-14
 -1      3850 2.03193E+01 5.09862E-01-1.88797E-03 8.73124E-02 7.53186E-14-4.78836E-14
 -1      3851 2.03255E+01 6.04757E-01 1.85627E-03 1.46939E-01 6.21453E-14-2.31666E-14
 -1      3852 2.02779E+01 3.33581E-02-4.41984E-04-1.06147E-01-1.69159E-14-4.39537E-14
 -1      3853 2.02466E+01 4.13936E-02-5.93418E-04-1.18623E-01-3.28500E-14 9.55774E-15
 -1      3854 2.02681E+01 9.00104E-02 1.38192E-03-1.00851E-01-2.74740E-14 1.48022E-15
 -1      3855 2.00481E+01-1.43126E-02 3.19683E-04-5.79142E-02 1.39825E-14 1.05067E-13
 -1      3856 2.00561E+01-2.85875E-02-1.65840E-04-5.86840E-02-9.38023E-16 1.30721E-13
 -1      3857 2.03760E+01 1.75261E-01 7.29251E-04 4.50363E-02-1.83598E-14-3.80262E-15
 -1      3858 2.03569E+01 1.05534E-01-6.90956E-04 6.33129E-02 1.83506E-14 3.91955E-15
 -1      3859 2.03397E+01 5.03446E-02 6.27177E-04 7.09715E-02 3.70239E-14 1.82651E-14
 -1      3860 2.03179E+01 5.98083E-03-2.88027E-04 8.01790E-02 3.00815E-14 4.54004E-14
 -1      3861 2.03699E+01 8.94603E-02-1.37393E-04 5.04715E-02 2.15188E-14 2.81189E-14
 -1      3862 2.02967E+01-2.78105E-02 5.18870E-04 8.25746E-02 1.00233E-14 4.51627E-14
 -1      3863 2.02747E+01-5.37196E-02-7.68910E-06 8.55601E-02 2.16787E-14 6.59100E-14
 -1      3864 2.03285E+01-6.06234E-03-3.76287E-04 6.24791E-02 2.24007E-14 4.35503E-14
 -1      3865 2.02524E+01-7.21702E-02 4.05319E-04 8.45799E-02 7.96119E-15 2.36932E-14
 -1      3866 2.02318E+01-8.49751E-02 1.66663E-04 8.36257E-02-2.77414E-14-1.97579E-14
 -1      3867 2.02833E+01-6.24451E-02-4.86032E-04 6.60280E-02-2.08587E-14 5.66473E-14
 -1      3868 2.02102E+01-9.26440E-02 2.95378E-04 8.06866E-02-3.12424E-14-4.59600E-15
 -1      3869 2.01918E+01-9.62511E-02 2.74903E-04 7.75265E-02-5.20949E-14 5.12609E-14
 -1      3870 2.02386E+01-9.09306E-02-5.26866E-04 6.42360E-02-2.91100E-14 3.44156E-14
 -1      3871 2.01718E+01-9.64275E-02 1.97546E-04 7.37426E-02-4.62528E-14 8.81441E-14
 -1      3872 2.01557E+01-9.36986E-02 3.29010E-04 6.96799E-02-3.20998E-14 1.18141E-13
 -1      3873 2.01969E+01-9.98431E-02-5.36555E-04 5.94086E-02 4.34741E-15 7.81083E-14
 -1      3874 2.01377E+01-8.86552E-02 1.08875E-04 6.57993E-02-6.37413E-14 7.94866E-14
 -1      3875 2.01240E+01-8.14797E-02 3.40682E-04 6.18117E-02-5.24204E-14 3.99733E-14
 -1      3876 2.01594E+01-9.50091E-02-4.80525E-04 5.34596E-02-6.11202E-14 6.22688E-14
 -1      3877 2.01079E+01-7.27108E-02 2.71178E-05 5.84319E-02-3.98503E-14-2.98741E-14
 -1      3878 2.00961E+01-6.22563E-02 3.27862E-04 5.52310E-02-3.77871E-14-4.63827E-14
 -1      3879 2.01261E+01-8.04839E-02-3.98314E-04 4.76357E-02-7.93715E-14-5.39922E-14
 -1      3880 2.00817E+01-5.06743E-02-5.56387E-05 5.28093E-02-6.11533E-15-3.08826E-14
 -1      3881 2.00713E+01-3.76029E-02 3.00694E-04 5.09077E-02-3.04343E-14-2.94225E-14
 -1      3882 2.00966E+01-5.88494E-02-2.90364E-04 4.29660E-02-2.73488E-14-8.65424E-14
 -1      3883 2.00578E+01-2.35909E-02-1.47340E-04 4.97394E-02-4.37271E-14 8.78233E-15
 -1      3884 2.00482E+01-8.08442E-03 2.68452E-04 4.95739E-02-4.21280E-14 9.57808E-14
 -1      3885 2.00699E+01-3.16084E-02-1.78184E-04 4.01703E-02 1.87144E-14 2.36818E-14
 -1      3886 2.00348E+01 8.36952E-03-2.48322E-04 4.99442E-02-5.45749E-14 1.58977E-13
 -1      3887 2.00251E+01 2.64753E-02 2.31920E-04 5.19238E-02-5.05462E-14 2.02342E-13
 -1      3888 2.00444E+01 8.71938E-04-5.01367E-05 3.98249E-02-3.53508E-15 1.43520E-13
 -1      3889 2.00109E+01 4.56445E-02-3.64193E-04 5.41370E-02-7.83949E-14 2.36517E-13
 -1      3890 2.00002E+01 6.67360E-02 1.89789E-04 5.86613E-02-2.25685E-14 2.22170E-13
 -1      3891 2.00183E+01 3.89086E-02 1.00784E-04 4.24816E-02-3.16331E-14 2.48675E-13
 -1      3892 1.99838E+01 8.90881E-02-5.01780E-04 6.30178E-02 1.38341E-14 1.83677E-13
 -1      3893 1.99710E+01 1.13711E-01 1.41427E-04 7.05033E-02 4.71419E-14 1.51367E-13
 -1      3894 1.99894E+01 8.32515E-02 2.77638E-04 4.87092E-02-4.35698E-14 2.04208E-13
 -1      3895 1.99510E+01 1.39831E-01-6.66865E-04 7.73287E-02 9.88670E-14 1.55017E-13
 -1      3896 1.99349E+01 1.68605E-01 8.38909E-05 8.82223E-02 1.05593E-13 1.57568E-13
 -1      3897 1.99550E+01 1.34992E-01 4.85351E-04 5.90570E-02 7.22878E-14 1.33439E-13
 -1      3898 1.99096E+01 1.99100E-01-8.63969E-04 9.78743E-02 3.91811E-14 1.74404E-13
 -1      3899 1.98886E+01 2.32615E-01 1.23360E-05 1.12649E-01-1.20019E-14 1.38065E-13
 -1      3900 1.99122E+01 1.95378E-01 7.32768E-04 7.41136E-02 8.15804E-14 5.01585E-14
 -1      3901 1.98560E+01 2.68003E-01-1.09780E-03 1.25506E-01-2.61707E-15 1.56434E-13
 -1      3902 1.98283E+01 3.06692E-01-7.93676E-05 1.44643E-01-3.85598E-14 1.82162E-13
 -1      3903 1.98571E+01 2.65584E-01 1.03013E-03 9.44880E-02 9.61090E-15 1.33010E-13
 -1      3904 1.97861E+01 3.47259E-01-1.37349E-03 1.61089E-01-7.30215E-14 1.82575E-13
 -1      3905 1.97497E+01 3.91233E-01-1.97820E-04 1.85054E-01-4.25958E-14 1.43954E-13
 -1      3906 1.97858E+01 3.46449E-01 1.38890E-03 1.20777E-01-2.09577E-14 1.82830E-13
 -1      3907 1.96953E+01 4.36847E-01-1.69788E-03 2.05457E-01-5.63378E-14 1.27235E-13
 -1      3908 1.96476E+01 4.85692E-01-3.48577E-04 2.34677E-01 3.95945E-15 1.01204E-13
 -1      3909 1.96932E+01 4.38148E-01 1.82224E-03 1.53526E-01-6.73603E-14 1.25417E-13
 -1      3910 1.95779E+01 5.35561E-01-2.08279E-03 2.59388E-01 1.45996E-14 5.59517E-15
 -1      3911 1.95162E+01 5.88070E-01-5.33348E-04 2.94253E-01 5.45761E-14 3.82824E-14
 -1      3912 1.95738E+01 5.39784E-01 2.34625E-03 1.93191E-01-5.00105E-14 5.74268E-14
 -1      3913 1.94275E+01 6.40445E-01-2.55152E-03 3.23632E-01 9.49282E-14-9.72774E-14
 -1      3914 1.93487E+01 6.94300E-01-7.45139E-04 3.64572E-01 1.57254E-13-4.39999E-14
 -1      3915 1.94210E+01 6.48895E-01 2.98286E-03 2.40158E-01-5.87204E-16-6.87127E-14
 -1      3916 1.92370E+01 7.46097E-01-3.15102E-03 3.99116E-01 1.69251E-13-1.31452E-13
 -1      3917 1.91377E+01 7.97500E-01-9.60174E-04 4.46812E-01 1.83250E-13-1.36756E-13
 -1      3918 1.92272E+01 7.60896E-01 3.76574E-03 2.94870E-01 1.09544E-13-1.68238E-13
 -1      3919 1.89975E+01 8.43871E-01-3.97316E-03 4.87455E-01 1.65964E-13-1.78608E-13
 -1      3920 1.88744E+01 8.87137E-01-1.12431E-03 5.43339E-01 7.95190E-14-1.96209E-13
 -1      3921 1.89833E+01 8.68503E-01 4.75219E-03 3.58205E-01 1.32828E-13-3.50034E-13
 -1      3922 1.86989E+01 9.20974E-01-5.18893E-03 5.92083E-01 3.64850E-15-1.61888E-13
 -1      3923 1.85486E+01 9.48098E-01-1.12830E-03 6.59300E-01-5.03164E-14-2.03365E-13
 -1      3924 1.86781E+01 9.61211E-01 6.04548E-03 4.32329E-01 4.19100E-14-3.80834E-13
 -1      3925 1.83278E+01 9.59446E-01-7.09539E-03 7.20449E-01 6.45992E-15-1.65320E-13
 -1      3926 1.81475E+01 9.59522E-01-7.85542E-04 8.05557E-01 1.18754E-13-5.96691E-14
 -1      3927 1.82964E+01 1.02490E+00 7.83082E-03 5.22401E-01 6.98234E-14-1.76409E-13
 -1      3928 1.78670E+01 9.34931E-01-1.01129E-02 8.87871E-01 1.15792E-13 2.80963E-14
 -1      3929 1.76561E+01 8.93242E-01 5.29932E-04 1.00342E+00 1.50183E-13 3.11143E-14
 -1      3930 1.78167E+01 1.04127E+00 1.03698E-02 6.39744E-01 1.75284E-13-1.72199E-13
 -1      3931 1.72939E+01 8.15140E-01-1.40751E-02 1.12451E+00 1.57197E-13-6.53448E-14
 -1      3932 1.70523E+01 7.12546E-01 5.28838E-03 1.29274E+00 1.61026E-14-1.91029E-13
 -1      3933 1.72023E+01 9.85546E-01 1.25447E-02 8.05717E-01 7.10430E-14-1.87966E-13
 -1      3934 2.00071E+01 5.41077E-02 2.79889E-04-6.63601E-02-2.49613E-14 1.90770E-13
 -1      3935 2.00153E+01 3.48347E-02-3.70036E-04-6.18631E-02-1.30249E-14 1.50767E-13
 -1      3936 1.99829E+01 9.67643E-02 2.59826E-04-7.90829E-02 2.79319E-14 1.37553E-13
 -1      3937 1.99926E+01 7.43843E-02-5.01439E-04-7.12202E-02 3.35670E-14 1.46375E-13
 -1      3938 1.99976E+01 6.97055E-02 2.07058E-04-5.86983E-02 1.51901E-14 1.49842E-13
 -1      3939 1.99535E+01 1.46303E-01 2.42462E-04-9.87836E-02-3.15761E-14 5.77924E-14
 -1      3940 1.99656E+01 1.20314E-01-6.59326E-04-8.69978E-02-8.32368E-15 9.61122E-14
 -1      3941 1.99680E+01 1.17272E-01 3.86001E-04-7.08758E-02 3.38776E-14 8.31943E-14
 -1      3942 1.99163E+01 2.03638E-01 2.27671E-04-1.26617E-01-9.78754E-14 7.69613E-14
 -1      3943 1.99318E+01 1.73594E-01-8.48580E-04-1.10283E-01-6.30411E-14 1.37031E-15
 -1      3944 1.99315E+01 1.72491E-01 5.95715E-04-8.92047E-02-1.87892E-14 6.21239E-14
 -1      3945 1.98682E+01 2.69360E-01 2.15928E-04-1.63896E-01 1.01141E-13-8.27107E-14
 -1      3946 1.98885E+01 2.35015E-01-1.07359E-03-1.42319E-01 3.04613E-16 3.68216E-15
 -1      3947 1.98850E+01 2.36280E-01 8.42366E-04-1.14739E-01-2.22478E-15-8.54621E-14
 -1      3948 1.98061E+01 3.43395E-01 2.09921E-04-2.12096E-01 4.61319E-14 1.49325E-16
 -1      3949 1.98326E+01 3.04879E-01-1.33820E-03-1.84521E-01 5.88253E-14-5.31599E-14
 -1      3950 1.98253E+01 3.09150E-01 1.13138E-03-1.48701E-01 6.54942E-14-1.28264E-14
 -1      3951 1.97266E+01 4.24553E-01 2.17183E-04-2.72867E-01-8.13800E-14 1.09916E-13
 -1      3952 1.97607E+01 3.82617E-01-1.64613E-03-2.38479E-01 1.64859E-15 9.23487E-14
 -1      3953 1.97484E+01 3.90841E-01 1.46651E-03-1.92510E-01-4.79121E-14 2.00166E-13
 -1      3954 1.96262E+01 5.09952E-01 2.54468E-04-3.48088E-01-3.13007E-14 8.71466E-14
 -1      3955 1.96691E+01 4.66267E-01-2.00225E-03-3.05996E-01-4.98114E-14 1.68038E-13
 -1      3956 1.96503E+01 4.79849E-01 1.84883E-03-2.47837E-01-4.26327E-14 2.29902E-13
 -1      3957 1.95016E+01 5.94262E-01 3.54872E-04-4.40010E-01-1.16053E-13 1.61909E-13
 -1      3958 1.95544E+01 5.51816E-01-2.41524E-03-3.89182E-01-7.51208E-14 1.25081E-13
 -1      3959 1.95267E+01 5.72834E-01 2.27572E-03-3.16732E-01-5.41099E-14 1.75893E-13
 -1      3960 1.93504E+01 6.68792E-01 5.78982E-04-5.51592E-01-1.24459E-13 2.51643E-14
 -1      3961 1.94133E+01 6.32355E-01-2.90245E-03-4.90687E-01-9.24668E-14 9.90428E-14
 -1      3962 1.93733E+01 6.63899E-01 2.73979E-03-4.01886E-01-6.12400E-14 1.55757E-13
 -1      3963 1.91718E+01 7.20361E-01 1.03172E-03-6.87155E-01-7.14062E-14 5.04354E-14
 -1      3964 1.92437E+01 6.97061E-01-3.49747E-03-6.14188E-01-1.58670E-13-3.47209E-14
 -1      3965 1.91861E+01 7.43743E-01 3.22721E-03-5.07138E-01-1.56086E-13 1.31918E-13
 -1      3966 1.89677E+01 7.29962E-01 1.88832E-03-8.53548E-01-5.15782E-14 2.11465E-13
 -1      3967 1.90450E+01 7.29954E-01-4.26038E-03-7.65303E-01-2.05344E-14 8.14796E-14
 -1      3968 1.89618E+01 7.98687E-01 3.71307E-03-6.38424E-01-6.55235E-14 5.97457E-14
 -1      3969 1.87450E+01 6.71059E-01 3.44345E-03-1.06203E+00-9.11122E-14 2.08907E-13
 -1      3970 1.88198E+01 7.08402E-01-5.28560E-03-9.53187E-01-9.25021E-14 2.12098E-13
 -1      3971 1.86984E+01 8.09554E-01 4.14593E-03-8.05420E-01-4.54852E-14 3.51370E-14
 -1      3972 1.85196E+01 5.06837E-01 6.11011E-03-1.33100E+00-3.20732E-13 2.59267E-13
 -1      3973 1.85763E+01 6.01085E-01-6.66939E-03-1.19317E+00-1.06838E-13 2.24268E-13
 -1      3974 1.83956E+01 7.50163E-01 4.38145E-03-1.02442E+00-1.34999E-13 1.59007E-13
 -1      3975 1.83219E+01 1.83644E-01 9.22068E-03-1.68876E+00-2.53691E-13 1.80577E-13
 -1      3976 1.83346E+01 3.63976E-01-8.32049E-03-1.50991E+00-3.72698E-13 1.63765E-13
 -1      3977 1.80573E+01 5.83577E-01 3.88145E-03-1.32337E+00-2.50661E-13 1.13282E-13
 -1      3978 1.81938E+01-3.71542E-01 9.50477E-03-2.17513E+00-5.15542E-14 4.24760E-14
 -1      3979 1.81371E+01-5.83195E-02-7.82415E-03-1.93083E+00-1.04638E-13 1.22904E-13
 -1      3980 1.77071E+01 2.51485E-01 3.26054E-03-1.74351E+00-1.21504E-13-9.46630E-14
 -1      3981 2.02819E+01 1.49123E-01-1.22950E-03-8.06240E-02 1.61727E-14-3.01630E-15
 -1      3982 2.03019E+01 2.25425E-01 1.81360E-03-4.61440E-02 5.62461E-14-6.91405E-15
 -1      3983 2.03429E+01 3.09455E-01 2.71314E-06-1.50725E-02 2.44959E-14-6.84435E-14
 -1      3984 2.03152E+01 1.42133E-01-2.55148E-04-7.46276E-02 5.96383E-15-5.94851E-14
 -1      3985 2.01418E+01-8.00056E-02 2.56755E-04-1.27477E-01 3.94563E-14 7.89899E-14
 -1      3986 2.01553E+01-7.33051E-02 4.05924E-04-1.32014E-01 4.53412E-14 6.87928E-14
 -1      3987 2.01986E+01-7.05517E-02-5.88226E-04-1.19154E-01 3.48595E-14 3.57872E-14
 -1      3988 2.01631E+01-8.67648E-02-5.40558E-04-1.12005E-01 4.37941E-14 7.82896E-14
 -1      3989 1.42307E+01 4.41262E-01 4.40627E-02-1.39208E+00 6.48656E-15-4.68617E-13
 -1      3990 1.51341E+01 4.66017E-02-2.04341E-02-2.04655E+00 5.19688E-14-3.85107E-13
 -1      3991 1.48169E+01 6.42084E-01 2.07457E-02-8.32721E-01 1.28402E-13-3.96206E-13
 -1      3992 2.03973E+01 3.62956E-01 7.08107E-04-7.19805E-04-3.48416E-14 2.95185E-14
 -1      3993 2.03849E+01 2.59503E-01-1.22875E-03 2.98561E-02-4.95066E-14 9.72944E-15
 -1      3994 2.04006E+01 2.38460E-01 3.23648E-04 2.63463E-02-3.74282E-14-8.31025E-15
 -1      3995 2.03758E+01 9.86610E-01 4.66951E-03-1.92431E-02 5.04061E-14-5.35862E-15
 -1      3996 2.03257E+01 1.16108E+00-1.71474E-03-5.13259E-02 5.53408E-14-1.38272E-15
 -1      3997 2.03262E+01 1.14141E+00-2.39039E-03-9.55853E-02 3.55708E-14-1.03094E-14
 -1      3998 2.00281E+01 1.73584E-02 3.02068E-04-5.96074E-02-3.12525E-14 1.15980E-13
 -1      3999 2.00359E+01 7.47820E-04-2.57989E-04-5.79767E-02-1.83038E-15 1.01564E-13
 -1      4000 2.00463E+01-6.46406E-03-7.64702E-05-4.92780E-02 2.30867E-15 1.10468E-13
 -1      4001 2.03934E+01 6.33820E-01 1.11609E-03-7.17367E-02-5.31239E-14 3.83299E-14
 -1      4002 2.03925E+01 4.86421E-01-1.67914E-03-2.52343E-02-2.57660E-14 4.25861E-14
 -1      4003 2.04108E+01 4.56974E-01 5.63978E-04-1.35788E-02-3.31497E-14 2.90637E-14
 -1      4004 2.01169E+01-8.11001E-02 3.62828E-04-7.48459E-02-1.36938E-14 1.24229E-13
 -1      4005 2.01294E+01-8.73632E-02 1.22910E-04-7.97543E-02-1.49111E-14 5.54905E-14
 -1      4006 2.03354E+01 8.01839E-01 3.33699E-04 1.95977E-01 8.05222E-14-3.59614E-14
 -1      4007 2.00229E+01 2.87570E-02 5.32986E-05-5.17640E-02-5.92343E-14 1.42191E-13
 -1      4008 1.67283E+01 5.52261E-01-2.15312E-02 1.49899E+00-1.51689E-14-7.55393E-14
 -1      4009 1.65540E+01 3.67305E-01 9.37715E-03 1.74247E+00-1.58988E-13-9.80672E-15
 -1      4010 1.59613E+01 5.30273E-01 2.65907E-02 1.54383E+00-2.09844E-13-3.55344E-13
 -1      4011 1.65592E+01 8.27012E-01 1.67069E-02 1.08299E+00 5.38373E-14-4.92486E-13
 -1      4012 2.00686E+01-4.14117E-02 3.37274E-04-6.04787E-02-3.29802E-15 9.48356E-14
 -1      4013 2.00776E+01-5.33962E-02-8.31275E-05-6.31759E-02-8.08037E-15 1.49903E-13
 -1      4014 2.00696E+01-3.66453E-02-2.06595E-04-5.04986E-02-1.83679E-14 1.09799E-13
 -1      4015 2.00912E+01-6.39145E-02 3.58697E-04-6.64351E-02-1.89355E-14 1.22362E-13
 -1      4016 2.01017E+01-7.33525E-02 6.44787E-06-7.05578E-02 6.60762E-15 1.56133E-13
 -1      4017 2.01225E+01-8.14576E-02-4.08585E-04-6.11621E-02-3.02636E-14 8.11591E-14
 -1      4018 2.00946E+01-6.18089E-02-3.07045E-04-5.47009E-02-2.27127E-14 7.56959E-14
 -1      4019 2.03248E+01 1.14100E+00-1.08677E-03-1.31469E-01 1.16595E-14 9.50308E-15
 -1      4020 2.03255E+01 1.10122E+00-2.02450E-03-1.72533E-01-2.81099E-14-9.89554E-15
 -1      4021 2.03559E+01 9.57016E-01 1.98051E-03-1.42320E-01-4.62199E-14 4.53082E-15
 -1      4022 2.03705E+01 9.76643E-01 3.70053E-03-8.12875E-02 9.34514E-15 2.39611E-14
 -1      4023 2.03649E+01 2.82733E-01-1.57503E-03-2.64751E-02 3.02630E-14-5.03874E-14
 -1      4024 2.03797E+01 3.91133E-01 1.61201E-03 1.26203E-02 2.92194E-14-6.89636E-14
 -1      4025 1.81593E+01-9.77682E-01 1.47203E-02-2.65159E+00 2.62356E-14-1.43916E-13
 -1      4026 1.80826E+01-6.49077E-01-1.14276E-02-2.40270E+00-4.13710E-15-1.01744E-13
 -1      4027 1.74069E+01-2.13530E-01-8.58564E-03-2.22967E+00 6.94983E-14-1.59616E-13
 -1      4028 1.72766E+01-7.14291E-01 2.51030E-02-2.74260E+00 6.26562E-14-2.70031E-13
 -1      4029 2.01465E+01-9.13242E-02 3.27058E-04-8.44211E-02 4.13431E-14 2.69658E-14
 -1      4030 2.01617E+01-9.30842E-02 3.53606E-04-8.90219E-02 3.30645E-14 7.89743E-14
 -1      4031 2.01537E+01-9.40711E-02-6.96438E-04-6.90648E-02-1.12575E-14 5.52539E-14
 -1      4032 2.03010E+01 1.71971E-02-4.12475E-04-9.42813E-02-1.58439E-14-3.88326E-14
 -1      4033 2.03228E+01 6.33147E-02 9.09236E-04-8.27260E-02-3.22990E-14-4.58632E-14
 -1      4034 1.57290E+01-9.83662E-02 3.91346E-02-2.35571E+00 1.09546E-13-3.45013E-13
 -1      4035 1.66310E+01-4.92457E-01 2.71023E-03-2.57002E+00 8.39903E-14-3.06371E-13
 -1      4036 1.67368E+01-2.10718E-01-6.19830E-03-2.29037E+00 1.50241E-13-2.89123E-13
 -1      4037 1.56913E+01 2.54385E-01-1.25868E-02-1.80046E+00 1.19063E-13-4.85087E-13
 -1      4038 2.03931E+01 8.11140E-01-2.02388E-03-4.50540E-05 2.61866E-14-1.24629E-14
 -1      4039 2.03933E+01 8.06118E-01-1.96586E-03-2.77457E-02-3.80770E-15 1.71170E-14
 -1      4040 1.54887E+01 5.83291E-01 5.10089E-03 1.22423E+00-1.43266E-13-5.50844E-13
 -1      4041 1.49876E+01 7.29922E-01 3.01456E-02 8.42338E-01-2.95250E-15-5.97310E-13
 -1      4042 1.57722E+01 7.35769E-01-2.45820E-02 9.72213E-01-6.77900E-14-6.62988E-13
 -1      4043 2.03942E+01 4.97140E-01-5.54931E-05 3.15062E-02 5.88455E-14-3.13612E-14
 -1      4044 2.03717E+01 5.19487E-01-1.79024E-03 4.86066E-02 6.42990E-14-7.21043E-14
 -1      4045 2.03903E+01 7.90253E-01-1.80560E-03 5.31436E-02 4.36005E-14 1.95030E-15
 -1      4046 2.03922E+01 8.07061E-01-1.73140E-03 2.19029E-02 3.12254E-14-1.17694E-14
 -1      4047 2.04211E+01 6.59793E-01 2.89227E-03 9.78356E-03 2.69140E-15-6.75495E-15
 -1      4048 2.02596E+01-4.51250E-02-5.45018E-05-1.02496E-01 3.97243E-14 2.05352E-14
 -1      4049 2.02807E+01-1.77065E-02 6.58842E-04-9.84162E-02 1.83694E-14-1.92261E-14
 -1      4050 2.03177E+01 6.04907E-03-4.37372E-04-7.79189E-02-1.98581E-14 3.46708E-15
 -1      4051 2.03663E+01 8.18235E-01-1.55624E-03-1.09714E-01-5.95217E-14 1.90188E-14
 -1      4052 2.03708E+01 6.21831E-01 1.48856E-03 9.26927E-02 7.89636E-14-6.95504E-14
 -1      4053 2.03403E+01 9.28804E-01-2.01984E-03 2.08628E-01 9.24491E-14-5.08218E-14
 -1      4054 2.03293E+01 1.08689E+00 7.11131E-04 1.71200E-01 8.52854E-14-6.44458E-14
 -1      4055 1.48498E+01 7.69367E-01-1.33538E-02 2.71085E-01 5.84763E-14-3.46755E-13
 -1      4056 2.03856E+01 7.71828E-01-2.24769E-04-7.53536E-02-4.56804E-14 5.49680E-14
 -1      4057 2.03747E+01 9.01941E-01 4.34269E-03 1.14074E-01 8.26779E-14-4.93804E-14
 -1      4058 2.00177E+01 3.98362E-02 1.55227E-04-4.12758E-02-6.92599E-14 1.38761E-13
 -1      4059 2.00296E+01 2.01217E-02-2.10116E-04-3.89422E-02-8.61466E-14 1.38184E-13
 -1      4060 2.04191E+01 5.34185E-01-3.71069E-04-2.22873E-02-3.18814E-14 6.25128E-14
 -1      4061 2.04203E+01 4.00936E-01-1.12879E-03 1.95217E-03-4.57286E-14 4.76403E-14
 -1      4062 2.03760E+01 7.35807E-01-1.40737E-03 1.00000E-01 1.00427E-13-3.45980E-14
 -1      4063 2.03553E+01 7.14906E-01-1.43795E-03 1.22079E-01 9.20903E-14-6.19302E-14
 -1      4064 2.03552E+01 1.37627E-02 2.77973E-04 4.03917E-02 4.03471E-14 2.72364E-14
 -1      4065 2.03328E+01-2.36437E-02 6.82561E-05 4.54912E-02 4.03984E-14 5.36639E-14
 -1      4066 2.03098E+01-5.23565E-02 3.38153E-04 4.49291E-02-5.91248E-15 9.13520E-14
 -1      4067 2.02865E+01-7.31612E-02 1.38455E-04 4.63753E-02-3.31867E-14 7.95859E-14
 -1      4068 2.03305E+01-3.61943E-02-6.48142E-04 2.53090E-02 8.51615E-15 4.48020E-14
 -1      4069 2.02632E+01-8.75873E-02 3.05435E-04 4.49883E-02-4.83810E-14 1.05399E-13
 -1      4070 2.02412E+01-9.65893E-02 2.51598E-04 4.42199E-02-2.39475E-14 9.24830E-14
 -1      4071 2.02833E+01-8.06473E-02-5.63527E-04 2.57094E-02-2.70716E-14 8.34543E-14
 -1      4072 2.02186E+01-1.00860E-01 2.40472E-04 4.23461E-02-2.08763E-14 3.36976E-14
 -1      4073 2.01991E+01-1.01416E-01 4.43368E-04 4.07529E-02-1.79987E-14 4.48316E-14
 -1      4074 2.02369E+01-1.00352E-01-7.13134E-04 2.40770E-02-6.16926E-14 9.94391E-14
 -1      4075 2.01782E+01-9.91308E-02 2.01123E-04 3.81595E-02-3.52246E-14-3.68106E-14
 -1      4076 2.01605E+01-9.37535E-02 3.68314E-04 3.61725E-02-1.12310E-13-6.33724E-14
 -1      4077 2.01950E+01-1.03269E-01-8.18387E-04 2.16096E-02-7.06195E-14-2.29699E-14
 -1      4078 2.01420E+01-8.64442E-02 1.60066E-04 3.40696E-02-1.18269E-13-8.63680E-15
 -1      4079 2.01260E+01-7.70036E-02 2.42243E-04 3.21364E-02-3.67019E-14-1.42625E-14
 -1      4080 2.01563E+01-9.25219E-02-6.39614E-04 1.97676E-02-5.91871E-14-3.50345E-14
 -1      4081 2.01097E+01-6.60015E-02 9.94716E-05 3.07741E-02 1.67423E-15 1.52400E-14
 -1      4082 2.00957E+01-5.34940E-02 2.36268E-04 2.93856E-02 2.66153E-14 4.00951E-14
 -1      4083 2.01217E+01-7.30731E-02-4.01461E-04 1.80312E-02-2.82814E-15 4.88797E-14
 -1      4084 2.00804E+01-3.96870E-02-1.44196E-05 2.84097E-02 8.99878E-14 7.86320E-14
 -1      4085 2.00677E+01-2.43939E-02 2.33453E-04 2.79727E-02 8.03212E-14 1.84405E-13
 -1      4086 2.00909E+01-4.75922E-02-2.78954E-04 1.64494E-02 8.40790E-14 1.53803E-13
 -1      4087 2.00528E+01-8.00065E-03-1.11795E-04 2.75098E-02 3.97055E-14 2.08950E-13
 -1      4088 2.00402E+01 1.00544E-02 1.68818E-04 2.82548E-02 1.45113E-14 2.30512E-13
 -1      4089 2.00622E+01-1.62962E-02-1.41088E-04 1.57349E-02 8.06739E-14 9.34084E-14
 -1      4090 2.00249E+01 2.92326E-02-2.22091E-04 2.86775E-02-2.10561E-14 2.60577E-13
 -1      4091 2.00116E+01 5.02834E-02 9.98042E-05 3.08253E-02-8.22607E-15 2.74471E-13
 -1      4092 2.00334E+01 2.10139E-02 9.22580E-05 1.63368E-02 8.69893E-15 8.39369E-14
 -1      4093 1.99945E+01 7.25955E-02-3.63038E-04 3.21862E-02-4.98901E-14 3.17414E-13
 -1      4094 1.99792E+01 9.71355E-02 1.82575E-05 3.59649E-02-7.22957E-14 2.69092E-13
 -1      4095 2.00028E+01 6.45529E-02 4.22698E-04 1.81890E-02 2.64087E-15 2.30224E-13
 -1      4096 1.99590E+01 1.23144E-01-5.28886E-04 3.83940E-02-3.46055E-14 2.16584E-13
 -1      4097 1.99402E+01 1.51787E-01-7.95103E-05 4.40356E-02 4.11961E-14 1.02462E-13
 -1      4098 1.99676E+01 1.15291E-01 8.17345E-04 2.14813E-02-6.78008E-14 2.57997E-13
 -1      4099 1.99151E+01 1.82111E-01-7.24347E-04 4.76756E-02 5.27785E-14 4.47815E-14
 -1      4100 1.98913E+01 2.15487E-01-2.00605E-04 5.54068E-02 2.12587E-14 3.72719E-15
 -1      4101 1.99248E+01 1.74450E-01 1.29099E-03 2.63979E-02-2.15172E-14 1.80178E-13
 -1      4102 1.98594E+01 2.50705E-01-9.54310E-04 6.04012E-02 3.09073E-14 3.09178E-14
 -1      4103 1.98285E+01 2.89337E-01-3.54313E-04 7.04262E-02-2.32564E-14 1.89244E-14
 -1      4104 1.98708E+01 2.43278E-01 1.86528E-03 3.30853E-02 2.34515E-14-5.91215E-14
 -1      4105 1.97875E+01 3.29854E-01-1.22383E-03 7.69065E-02-3.55331E-14-1.54607E-14
 -1      4106 1.97472E+01 3.74010E-01-5.52170E-04 8.93831E-02-6.78391E-14 7.41247E-15
 -1      4107 1.98013E+01 3.22801E-01 2.56621E-03 4.16286E-02-1.34285E-14-1.33544E-13
 -1      4108 1.96945E+01 4.19896E-01-1.53903E-03 9.74493E-02-9.22070E-14-2.57091E-14
 -1      4109 1.96422E+01 4.69405E-01-8.08140E-04 1.12461E-01-4.35268E-14-4.46110E-14
 -1      4110 1.97118E+01 4.13525E-01 3.42547E-03 5.20112E-02-1.04517E-13-1.69322E-13
 -1      4111 1.95748E+01 5.20188E-01-1.90950E-03 1.22161E-01-4.06307E-14-1.13526E-14
 -1      4112 1.95073E+01 5.74218E-01-1.13893E-03 1.39699E-01-7.52175E-14-3.39751E-14
 -1      4113 1.95965E+01 5.15067E-01 4.48407E-03 6.40614E-02-6.40254E-14-9.84367E-14
 -1      4114 1.94219E+01 6.28640E-01-2.35341E-03 1.51010E-01-8.43647E-14-2.82515E-14
 -1      4115 1.93355E+01 6.85448E-01-1.56482E-03 1.70980E-01-2.98168E-14-7.71194E-14
 -1      4116 1.94492E+01 6.25748E-01 5.80033E-03 7.73979E-02-7.15109E-14-9.21160E-14
 -1      4117 1.92279E+01 7.41200E-01-2.90758E-03 1.83821E-01-1.64521E-14-9.03869E-14
 -1      4118 1.91185E+01 7.97874E-01-2.11191E-03 2.06128E-01 3.92154E-14-2.28173E-13
 -1      4119 1.92624E+01 7.42142E-01 7.46542E-03 9.13911E-02-7.61385E-14-1.15020E-13
 -1      4120 1.89836E+01 8.51319E-01-3.64587E-03 2.20417E-01 7.64879E-14-2.41062E-13
 -1      4121 1.88459E+01 9.03557E-01-2.81818E-03 2.45182E-01 7.86984E-14-3.50284E-13
 -1      4122 1.90274E+01 8.58679E-01 9.63221E-03 1.05174E-01 2.74168E-14-2.56353E-13
 -1      4123 1.86770E+01 9.49511E-01-4.71108E-03 2.60993E-01 6.92634E-14-3.85897E-13
 -1      4124 1.85043E+01 9.91500E-01-3.74750E-03 2.89035E-01 5.42114E-14-2.17805E-13
 -1      4125 1.87330E+01 9.67405E-01 1.25659E-02 1.17745E-01 1.07041E-13-2.23875E-13
 -1      4126 1.82917E+01 1.02313E+00-6.36401E-03 3.06922E-01 8.93112E-16-1.46724E-13
 -1      4127 1.80748E+01 1.04759E+00-5.00734E-03 3.40690E-01 1.34310E-13-1.57170E-13
 -1      4128 1.83642E+01 1.05807E+00 1.67241E-02 1.28202E-01 1.29415E-13-9.71686E-14
 -1      4129 1.78028E+01 1.05668E+00-8.99476E-03 3.62417E-01 1.94897E-13-3.55265E-13
 -1      4130 1.75287E+01 1.05516E+00-6.44017E-03 4.07520E-01 1.37698E-13-3.25445E-13
 -1      4131 1.78984E+01 1.11863E+00 2.28163E-02 1.36050E-01 2.82528E-14-3.18709E-13
 -1      4132 1.71725E+01 1.03171E+00-1.26410E-02 4.39264E-01 4.72484E-14-3.36857E-13
 -1      4133 1.68329E+01 9.95090E-01-2.57039E-03 5.04400E-01-2.45017E-14-5.26364E-13
 -1      4134 1.72959E+01 1.13540E+00 3.10063E-02 1.41861E-01 8.01000E-14-5.82399E-13
 -1      4135 1.99539E+01 1.34645E-01 2.66831E-06-5.85411E-02 4.80727E-14 5.44136E-14
 -1      4136 1.99700E+01 1.08018E-01-4.90330E-04-5.15245E-02 3.75336E-14 7.97527E-14
 -1      4137 1.99885E+01 8.36763E-02 8.21005E-05-4.77764E-02 3.93372E-14 9.77486E-14
 -1      4138 2.00019E+01 6.07743E-02-3.38555E-04-4.32892E-02 4.08483E-16 1.00158E-13
 -1      4139 2.00095E+01 5.34656E-02 2.30689E-04-3.01396E-02-5.37029E-15 1.32899E-14
 -1      4140 1.99770E+01 1.01499E-01 5.81245E-04-3.53559E-02 5.23242E-14-1.64860E-14
 -1      4141 1.98561E+01 2.62169E-01-1.78055E-04-9.60267E-02 8.09637E-14 1.70328E-14
 -1      4142 1.98822E+01 2.26543E-01-8.99394E-04-8.26180E-02-3.16108E-15 8.58509E-14
 -1      4143 1.97857E+01 3.40111E-01-2.78897E-04-1.24696E-01 2.26742E-15 1.83774E-13
 -1      4144 1.98193E+01 2.99586E-01-1.17555E-03-1.07301E-01 4.41268E-14 5.94474E-14
 -1      4145 1.98261E+01 2.96990E-01 2.09290E-03-7.25743E-02 5.70548E-15 1.94183E-13
 -1      4146 1.96954E+01 4.27277E-01-3.82342E-04-1.61599E-01-7.97358E-14 1.82518E-13
 -1      4147 1.97384E+01 3.82141E-01-1.51490E-03-1.39587E-01-1.73233E-14 1.56840E-13
 -1      4148 1.97456E+01 3.82029E-01 2.81773E-03-9.46872E-02-5.88097E-14 2.09541E-13
 -1      4149 1.95805E+01 5.21972E-01-4.79019E-04-2.08288E-01-8.05484E-14 2.05828E-13
 -1      4150 1.96350E+01 4.73219E-01-1.93397E-03-1.80908E-01-1.35715E-13 1.66956E-13
 -1      4151 1.96423E+01 4.76812E-01 3.69829E-03-1.23393E-01-8.19105E-14 1.45279E-13
 -1      4152 1.94360E+01 6.20611E-01-5.50906E-04-2.66765E-01 2.24439E-14 2.41628E-13
 -1      4153 1.95041E+01 5.70236E-01-2.45775E-03-2.33063E-01-1.31730E-14 2.70986E-13
 -1      4154 1.95110E+01 5.79421E-01 4.77384E-03-1.60201E-01-9.17570E-14 1.58136E-13
 -1      4155 1.92566E+01 7.17054E-01-5.66497E-04-3.39784E-01-8.01212E-14 2.50762E-13
 -1      4156 1.93402E+01 6.68379E-01-3.12738E-03-2.98435E-01 3.76995E-14 3.27887E-13
 -1      4157 1.93457E+01 6.86026E-01 6.10237E-03-2.07177E-01-7.20750E-15 2.38577E-13
 -1      4158 1.90371E+01 8.01878E-01-4.74198E-04-4.31422E-01-1.22434E-13 1.07392E-13
 -1      4159 1.91376E+01 7.59903E-01-4.01370E-03-3.80404E-01-1.05646E-13 2.36321E-13
 -1      4160 1.91400E+01 7.90335E-01 7.77743E-03-2.67292E-01-5.57014E-14 3.15118E-13
 -1      4161 1.87718E+01 8.61619E-01-1.94994E-04-5.48074E-01 4.06490E-14-3.78993E-14
 -1      4162 1.88902E+01 8.33357E-01-5.24141E-03-4.84096E-01-2.76207E-14-1.92050E-14
 -1      4163 1.88864E+01 8.83077E-01 9.95729E-03-3.45045E-01-1.00503E-14 1.27219E-13
 -1      4164 1.84549E+01 8.78023E-01 3.81042E-04-7.00175E-01-4.77708E-14-4.63223E-14
 -1      4165 1.85911E+01 8.72817E-01-7.03201E-03-6.17686E-01-7.20252E-15-6.98688E-14
 -1      4166 1.85760E+01 9.51606E-01 1.29099E-02-4.47522E-01 3.29066E-14-6.79248E-14
 -1      4167 1.80796E+01 8.27201E-01 1.40574E-03-9.05111E-01-1.58111E-13 5.33274E-14
 -1      4168 1.82318E+01 8.57107E-01-9.77642E-03-7.94563E-01-1.21239E-13 2.71330E-14
 -1      4169 1.81970E+01 9.79669E-01 1.70697E-02-5.86092E-01-1.19283E-13-1.32115E-13
 -1      4170 1.76385E+01 6.77941E-01 3.56996E-03-1.19273E+00-1.80995E-13-7.43329E-15
 -1      4171 1.78001E+01 7.59263E-01-1.40856E-02-1.03736E+00-1.55920E-13 8.10792E-14
 -1      4172 1.77315E+01 9.47246E-01 2.29860E-02-7.79004E-01-1.37337E-13-1.22680E-13
 -1      4173 1.70852E+01 3.54861E-01-8.69639E-03-1.62569E+00-1.67917E-14-1.80951E-13
 -1      4174 1.72771E+01 5.42140E-01-2.11722E-02-1.39007E+00-7.73293E-14-1.15511E-13
 -1      4175 1.71429E+01 8.28582E-01 2.89614E-02-1.05701E+00-4.11030E-14-1.80568E-13
 -1      4176 2.03389E+01 1.21656E-01-9.64674E-04-7.12883E-02-1.61711E-14-7.65872E-14
 -1      4177 2.03582E+01 1.95102E-01 1.22192E-03-4.85707E-02 1.55385E-15-7.80635E-14
 -1      4178 2.03870E+01 2.68091E-01 3.85776E-04-2.61018E-02 1.41907E-14-4.35408E-14
 -1      4179 1.99109E+01 1.93834E-01-8.38700E-05-7.43271E-02-2.35130E-14 3.97332E-14
 -1      4180 1.99312E+01 1.62929E-01-6.74305E-04-6.43558E-02 4.55837E-14 9.07443E-14
 -1      4181 1.99378E+01 1.57376E-01 9.97132E-04-4.37374E-02 1.10181E-14 5.05515E-14
 -1      4182 2.03582E+01 1.07994E-01-1.63830E-04-6.07024E-02-4.42374E-14-3.65588E-14
 -1      4183 2.04207E+01 2.90558E-01 6.03352E-04 9.03843E-03-4.77745E-14 3.88533E-14
 -1      4184 2.04083E+01 1.98389E-01-3.65218E-04 2.61191E-02-2.36364E-14 4.91402E-14
 -1      4185 2.04277E+01 3.60585E-01-2.71791E-04 2.13624E-03-4.56350E-14 9.12083E-14
 -1      4186 2.03900E+01 7.71213E-01-1.59243E-03-5.00314E-02-2.54293E-14 4.66185E-14
 -1      4187 2.00441E+01 2.08279E-03 2.15445E-04-3.84001E-02-6.47783E-14 1.60216E-13
 -1      4188 2.00556E+01-1.48032E-02-6.85366E-05-3.78920E-02-1.67373E-14 1.02684E-13
 -1      4189 2.00383E+01 1.21884E-02-5.58950E-05-2.75611E-02-5.65259E-14 1.88625E-14
 -1      4190 2.03943E+01 1.23078E-01 2.32837E-04 2.94051E-02 2.21564E-14 3.58171E-14
 -1      4191 2.03757E+01 6.25184E-02-1.93061E-06 3.97727E-02 3.50680E-14 3.36249E-14
 -1      4192 2.03754E+01 4.31847E-02-6.40607E-04 2.18287E-02 5.51481E-14 8.80601E-15
 -1      4193 2.03805E+01 7.86637E-01-1.01210E-03 8.21666E-02 6.82705E-14-3.68578E-14
 -1      4194 1.50326E+01 8.45083E-01 2.17097E-02-3.45833E-01 1.39653E-13-2.44729E-13
 -1      4195 1.54160E+01 6.67070E-01-1.86700E-02-9.73084E-01 1.38104E-13-4.63093E-13
 -1      4196 1.55459E+01 8.68690E-01 7.08307E-03 2.03087E-02-1.61123E-15-4.30208E-13
 -1      4197 2.04084E+01 6.48023E-01 2.53346E-03 5.02113E-02 3.35071E-14-5.33189E-15
 -1      4198 2.04162E+01 6.30476E-01 1.93593E-03-2.56347E-02-3.33107E-14 4.74014E-14
 -1      4199 2.04238E+01 5.69393E-01 1.23182E-04-9.97151E-03-2.45858E-14 6.56307E-14
 -1      4200 1.64623E+01 9.33323E-01-2.37873E-02 6.30623E-01-2.84239E-14-5.30154E-13
 -1      4201 1.62158E+01 8.62747E-01 5.16682E-03 7.97036E-01-9.53344E-14-6.39270E-13
 -1      4202 1.59219E+01 9.51934E-01 3.23460E-02 4.72006E-01-1.31679E-13-6.84504E-13
 -1      4203 1.65948E+01 1.09060E+00 3.00178E-02 2.22072E-01-5.50096E-14-7.02128E-13
 -1      4204 1.98888E+01 2.22234E-01 1.49415E-03-5.58964E-02 7.38706E-15 1.46595E-13
 -1      4205 2.03689E+01 8.13675E-02-5.82167E-04-5.25564E-02-6.19067E-14 3.11103E-15
 -1      4206 2.03894E+01 1.49254E-01 9.80332E-04-3.84039E-02-3.08667E-14 7.42400E-15
 -1      4207 2.03293E+01-1.03639E-02 1.11745E-04-6.20712E-02-1.77489E-14-6.89978E-15
 -1      4208 2.03515E+01 3.01333E-02 8.22618E-04-5.56436E-02-5.67580E-14-2.36508E-14
 -1      4209 2.03756E+01 6.47341E-02-7.54966E-04-3.74403E-02-5.76836E-14 3.11789E-14
 -1      4210 2.03984E+01 2.28221E-01-1.59560E-03-3.05320E-02-3.37289E-16 5.38713E-15
 -1      4211 2.04121E+01 3.28229E-01 7.86748E-04-6.39521E-03 2.76904E-14 9.24220E-15
 -1      4212 2.04088E+01 2.05366E-01-1.12179E-04-2.27388E-02-2.40651E-14 6.54418E-14
 -1      4213 2.04106E+01 1.71075E-01-4.22115E-04 1.44092E-02-2.92616E-16 6.96315E-14
 -1      4214 1.68945E+01 6.41737E-02 1.45161E-02-2.04643E+00 3.21882E-14-2.66506E-13
 -1      4215 2.01599E+01-9.42862E-02 4.00581E-04-5.14736E-02-1.20019E-14 5.64548E-14
 -1      4216 2.01782E+01-9.86720E-02 5.43092E-04-5.49256E-02-6.71207E-15 5.56511E-14
 -1      4217 1.58773E+01 9.18700E-01-1.77777E-02-9.81717E-02-1.57825E-14-5.52583E-13
 -1      4218 2.00696E+01-3.03431E-02 1.97658E-04-3.85720E-02 2.50130E-14 1.05879E-13
 -1      4219 2.00815E+01-4.46175E-02-4.82480E-05-3.96108E-02 1.42987E-15 1.25344E-13
 -1      4220 2.00659E+01-2.30952E-02-1.09568E-04-2.71373E-02 3.04294E-14 4.77983E-14
 -1      4221 1.57532E+01 5.95555E-01 3.07304E-02-1.30596E+00 6.88661E-14-5.02186E-13
 -1      4222 1.60724E+01 3.41571E-01-1.35732E-02-1.66503E+00 1.09186E-13-4.43203E-13
 -1      4223 1.58271E+01 7.53307E-01-1.07906E-02-8.69406E-01 1.10095E-13-4.01594E-13
 -1      4224 2.02188E+01-7.87537E-02 1.97185E-04-1.01138E-01 3.39457E-14 1.59226E-14
 -1      4225 2.02381E+01-6.47008E-02 5.05701E-04-1.01834E-01 4.24810E-14 1.64997E-14
 -1      4226 2.02737E+01-5.43447E-02-8.17030E-04-8.38397E-02 3.69524E-14 6.63833E-14
 -1      4227 2.04237E+01 5.66733E-01-1.10427E-03 1.77057E-03-9.68733E-15 2.02463E-14
 -1      4228 2.04342E+01 4.83319E-01 1.72646E-03-1.54725E-03-6.69498E-15 5.20662E-14
 -1      4229 2.04234E+01 5.59562E-01-2.85292E-04 1.38264E-02 1.41740E-14 2.44058E-15
 -1      4230 2.01808E+01-9.21210E-02 3.26995E-04-9.40793E-02 3.13967E-14 5.82592E-14
 -1      4231 2.01981E+01-8.74235E-02 4.36972E-04-9.74830E-02 3.11399E-14 2.61644E-14
 -1      4232 2.02307E+01-8.63546E-02-1.04482E-03-8.27001E-02 1.64669E-14 3.67856E-14
 -1      4233 2.01906E+01-9.79015E-02-1.01033E-03-7.72490E-02 2.32819E-14 4.63846E-14
 -1      4234 1.67540E+01 3.43082E-01-1.45421E-03-1.65364E+00 1.58077E-14-3.30383E-13
 -1      4235 2.04099E+01 4.98181E-01-1.23530E-03 1.59322E-02 3.38689E-14 2.26326E-15
 -1      4236 2.01261E+01-7.91314E-02 3.40468E-04-4.55897E-02-4.05877E-14 1.10903E-13
 -1      4237 2.01413E+01-8.76177E-02 2.30685E-04-4.83619E-02-2.02094E-14 1.36550E-13
 -1      4238 2.01589E+01-9.46786E-02-8.02791E-04-3.53108E-02-2.37826E-14 1.57014E-13
 -1      4239 2.04217E+01 4.58156E-01-1.04749E-04 7.38131E-03 2.36586E-14 3.50576E-14
 -1      4240 1.98726E+01 2.29309E-01-1.26354E-03-1.57216E-02 3.75329E-14 1.01807E-13
 -1      4241 1.99015E+01 1.95676E-01-8.35704E-04-1.01955E-02 1.28242E-14 1.08933E-13
 -1      4242 2.03004E+01-7.33314E-02 4.04933E-04 4.79947E-03 1.30023E-14 4.05913E-14
 -1      4243 2.02763E+01-8.85405E-02 4.05997E-04 5.49116E-03-7.36972E-15 7.09468E-14
 -1      4244 2.02528E+01-9.82354E-02 2.98339E-04 4.36697E-03-4.78168E-14 1.11633E-13
 -1      4245 2.02316E+01-1.02893E-01 6.68544E-04 4.29039E-03-6.07170E-14 1.26423E-13
 -1      4246 2.02627E+01-9.43499E-02-9.56176E-04-1.59365E-02-7.39963E-15 7.60102E-14
 -1      4247 2.02006E+01-1.02444E-01 2.65217E-04-7.87657E-03-7.54803E-14 1.49393E-13
 -1      4248 2.01809E+01-9.88771E-02 5.47704E-04-7.52141E-03-6.54774E-14 1.05842E-13
 -1      4249 2.01624E+01-9.31191E-02 3.81237E-04-6.83891E-03-4.02654E-14 1.08490E-13
 -1      4250 2.01437E+01-8.51587E-02 3.39074E-04-6.81258E-03-3.49568E-15 1.15915E-13
 -1      4251 2.01002E+01-5.47029E-02 1.40836E-04 3.39673E-03 5.70925E-14 8.33437E-14
 -1      4252 2.00854E+01-4.05697E-02 1.62692E-04 3.18065E-03 9.08620E-14 3.99923E-14
 -1      4253 2.00655E+01-1.98258E-02 7.04261E-05-5.68980E-03 3.46088E-14-8.12603E-16
 -1      4254 2.00510E+01-2.50182E-03 6.17963E-05-5.38400E-03 1.12501E-15-3.57657E-14
 -1      4255 2.00365E+01 1.61769E-02-3.64602E-05-6.10130E-03-7.94275E-15-5.53227E-14
 -1      4256 2.00212E+01 3.63907E-02-8.81295E-05-5.59633E-03-2.56950E-15-9.64655E-15
 -1      4257 2.00054E+01 5.80332E-02-2.63156E-04-7.18060E-03 4.83403E-14-5.34835E-14
 -1      4258 1.99883E+01 8.16526E-02-2.89825E-04-6.35275E-03 2.41156E-14 4.35535E-14
 -1      4259 1.99697E+01 1.06736E-01-5.41250E-04-9.01243E-03-8.52842E-16 4.84187E-14
 -1      4260 1.99495E+01 1.34350E-01-5.35264E-04-7.81378E-03-6.88883E-14 3.17089E-14
 -1      4261 1.99266E+01 1.63440E-01-8.71179E-04-1.17737E-02-7.55760E-14 1.30197E-13
 -1      4262 1.98405E+01 2.66726E-01-1.20848E-03-1.37957E-02 4.08112E-14 7.22502E-14
 -1      4263 1.98034E+01 3.05283E-01-1.73220E-03-2.12159E-02-6.07651E-15 1.01643E-13
 -1      4264 1.97621E+01 3.48226E-01-1.67562E-03-1.90323E-02-8.27541E-14 5.76868E-14
 -1      4265 1.97145E+01 3.91762E-01-2.29383E-03-2.87625E-02-7.67685E-14 3.97045E-14
 -1      4266 1.96613E+01 4.40187E-01-2.26554E-03-2.64962E-02-8.53486E-14 5.50874E-14
 -1      4267 1.96005E+01 4.88227E-01-2.96984E-03-3.90806E-02-1.01123E-13 6.84494E-14
 -1      4268 1.95324E+01 5.41492E-01-3.01690E-03-3.70245E-02-5.30400E-14 3.13199E-14
 -1      4269 1.94554E+01 5.92790E-01-3.79114E-03-5.32037E-02-4.59692E-14 3.59736E-14
 -1      4270 1.93687E+01 6.49410E-01-3.98606E-03-5.18047E-02-5.73173E-14-1.13300E-14
 -1      4271 1.92721E+01 7.01680E-01-4.80798E-03-7.26338E-02-5.98229E-14 4.76933E-14
 -1      4272 1.91625E+01 7.59082E-01-5.26092E-03-7.25273E-02-3.66416E-14 2.46185E-14
 -1      4273 1.90426E+01 8.08713E-01-6.10805E-03-9.95775E-02-3.36332E-14 1.55820E-14
 -1      4274 1.89046E+01 8.63023E-01-6.98549E-03-1.01613E-01 2.67586E-14-8.63925E-15
 -1      4275 1.87565E+01 9.04833E-01-7.84678E-03-1.37315E-01 9.75830E-14-5.73557E-14
 -1      4276 1.85831E+01 9.50752E-01-9.39987E-03-1.42573E-01 1.42560E-13-1.01977E-13
 -1      4277 1.84006E+01 9.77817E-01-1.02850E-02-1.90777E-01 7.04353E-14-1.56410E-13
 -1      4278 1.81814E+01 1.00866E+00-1.28821E-02-2.00631E-01 3.73120E-14-1.25560E-13
 -1      4279 1.79558E+01 1.01231E+00-1.37587E-02-2.67428E-01-9.50417E-14-1.94480E-13
 -1      4280 1.76753E+01 1.02029E+00-1.78291E-02-2.83872E-01-1.07198E-13-3.15924E-13
 -1      4281 1.73945E+01 9.90613E-01-1.80998E-02-3.78469E-01-4.74921E-14-3.49170E-13
 -1      4282 1.70295E+01 9.68717E-01-2.29640E-02-4.05614E-01-1.15142E-16-4.37599E-13
 -1      4283 2.00965E+01-5.74955E-02 2.75722E-04-4.11061E-02-3.32523E-14 1.25088E-13
 -1      4284 2.01097E+01-6.92281E-02 4.25111E-05-4.32997E-02-4.24166E-14 6.97050E-14
 -1      4285 2.00940E+01-5.24735E-02-2.00038E-04-2.83776E-02-1.03597E-14 7.51171E-14
 -1      4286 2.04167E+01 1.84860E-01-3.50489E-04-8.29043E-03-5.11763E-14 7.99506E-14
 -1      4287 2.04288E+01 2.77575E-01 1.43304E-03-1.29092E-03-2.40050E-14 8.58513E-14
 -1      4288 1.66659E+01 9.07830E-01-1.75024E-02-5.34366E-01 1.06485E-13-5.90155E-13
 -1      4289 1.64808E+01 6.97548E-01 3.00754E-02-1.24391E+00 1.37986E-13-2.85620E-13
 -1      4290 2.04029E+01 1.11539E-01 8.04527E-04-4.04751E-03-8.88164E-15 5.89146E-14
 -1      4291 2.04306E+01 3.60759E-01-6.77618E-04 1.86269E-03-1.67099E-14 7.49147E-14
 -1      4292 2.03832E+01 5.30928E-02 1.22079E-04-9.82884E-03 6.76371E-15 1.09971E-14
 -1      4293 2.03618E+01 5.88458E-03 6.02668E-04-7.34526E-03 4.08372E-15 4.16090E-16
 -1      4294 2.02077E+01-1.02782E-01-8.80006E-04-2.62014E-02-4.96547E-14 1.09892E-13
 -1      4295 2.02100E+01-1.00329E-01 2.48039E-04-4.50737E-02-1.26520E-15 5.58561E-14
 -1      4296 2.03443E+01-2.58211E-02 3.40919E-04-2.85441E-03 3.78077E-14-2.03352E-15
 -1      4297 2.03197E+01-5.48365E-02 3.34949E-04-1.40686E-03 2.46937E-14 9.63749E-15
 -1      4298 2.03050E+01-6.65102E-02-1.00664E-03-2.42018E-02 3.45930E-14-2.63418E-14
 -1      4299 2.03398E+01-1.87689E-02-9.35482E-04-3.72908E-02-2.25566E-15-3.91232E-14
 -1      4300 1.63393E+01 8.78778E-01-9.27353E-03-4.86499E-01 6.81482E-14-5.17601E-13
 -1      4301 2.01330E+01-7.86112E-02 2.62069E-04 4.08683E-03-8.14994E-15 9.41927E-14
 -1      4302 2.01162E+01-6.75812E-02 1.93496E-04 3.50765E-03 2.61022E-14 1.02818E-13
 -1      4303 2.01075E+01-6.14452E-02-2.18806E-04-1.02538E-02 2.58157E-14 3.64679E-14
 -1      4304 2.01244E+01-7.65220E-02-3.48780E-04-3.11086E-02-2.12202E-14 9.84122E-14
 -1      4305 2.00719E+01-2.78083E-02-1.36182E-04-1.82319E-02 4.43364E-14-1.95733E-14
 -1      4306 2.03146E+01-3.72900E-02 6.52971E-04-5.56347E-02 1.65991E-14-2.22831E-15
 -1      4307 2.02309E+01-9.71034E-02 6.84742E-04-4.69793E-02-1.59616E-14 2.81262E-14
 -1      4308 2.02930E+01-6.11216E-02 4.75029E-04-5.72945E-02 4.29663E-14 3.37752E-14
 -1      4309 2.01330E+01-8.09285E-02-3.24280E-04-2.19218E-02-2.36160E-15 1.10673E-13
 -1      4310 1.61912E+01 8.10871E-01 1.02812E-02-9.24106E-01 1.40873E-13-3.49979E-13
 -1      4311 2.01168E+01-6.92997E-02 1.67964E-04-2.05590E-02-3.09941E-14 9.94917E-14
 -1      4312 2.01008E+01-5.70667E-02-4.13040E-05-1.93936E-02 1.79655E-15 3.14797E-14
 -1      4313 2.02756E+01-7.73283E-02 6.54656E-04-4.94100E-02 2.86858E-14 4.03943E-14
 -1      4314 2.02544E+01-8.92050E-02 5.13809E-04-4.87035E-02 6.83504E-15 1.61745E-14
 -1      4315 2.04275E+01 3.80387E-01-5.22111E-04-1.94470E-03 4.69118E-15 6.03017E-14
 -1      4316 2.00861E+01-4.30306E-02 1.14065E-04-1.86667E-02 6.53920E-14 2.43788E-14
 -3
    1PSTEP                         3           1           1          
  100CL  101 1.000000000        4316                     0    1           1
 -4  TOSTRAIN    6    1
 -5  EXX         1    4    1    1
 -5  EYY         1    4    2    2
 -5  EZZ         1    4    3    3
 -5  EXY         1    4    1    2
 -5  EYZ         1    4    2    3
 -5  EZX         1    4    3    1
 -1         1 5.81106E-05 2.55351E-05-3.50828E-05 7.63721E-05-9.09205E-18-8.08620E-18
 -1         2 4.39110E-05-1.34360E-04 2.41381E-05 6.02457E-07 1.98283E-18 2.58244E-18
 -1         3 9.52388E-05-2.85527E-05-2.84065E-05 1.43277E-07-3.29518E-18-3.05814E-18
 -1         4 9.51360E-05-2.86637E-05-2.82582E-05 1.32175E-08 2.02046E-18-7.13253E-19
 -1         5 1.43349E-04-2.14784E-05-4.25291E-05 3.85312E-05-1.35843E-19 8.61792E-18
 -1         6 1.45410E-04 2.57581E-10-4.41881E-05-5.35264E-05-4.13352E-19 6.30362E-18
 -1         7 9.06115E-05-5.11279E-07-3.90692E-05-2.92513E-05-7.41154E-20 1.15279E-18
 -1         8 8.51277E-05 8.63552E-08-3.63400E-05-2.02696E-05-5.85776E-20-4.29184E-19
 -1         9 8.28177E-05 7.59354E-08-3.53518E-05-1.56372E-05-5.04646E-20-1.26528E-18
 -1        10 8.17715E-05 3.97219E-08-3.48817E-05-1.20752E-05-3.01491E-20-1.64543E-18
 -1        11 8.12516E-05 1.93481E-08-3.46526E-05-9.01195E-06-2.70058E-20-1.79766E-18
 -1        12 8.09819E-05 9.14955E-09-3.45377E-05-6.28253E-06-1.08113E-20-1.80423E-18
 -1        13 8.08396E-05 4.60666E-09-3.44798E-05-3.68419E-06-3.11268E-21-1.73201E-18
 -1        14 8.07799E-05 2.77809E-09-3.44560E-05-1.18307E-06 3.16707E-20-1.63878E-18
 -1        15 8.07819E-05 2.77393E-09-3.44567E-05 1.28857E-06 3.31116E-20-1.52776E-18
 -1        16 8.08458E-05 4.56386E-09-3.44820E-05 3.79469E-06 5.65246E-20-1.40451E-18
 -1        17 8.09934E-05 8.43882E-09-3.45415E-05 6.40483E-06 5.96513E-20-1.13042E-18
 -1        18 8.12694E-05 1.81865E-08-3.46578E-05 9.15333E-06 6.09169E-20-7.71789E-19
 -1        19 8.17975E-05 3.81897E-08-3.48901E-05 1.22552E-05 9.50133E-20-3.38906E-19
 -1        20 8.28375E-05 8.14940E-08-3.53641E-05 1.58680E-05 1.16652E-19 4.15088E-19
 -1        21 8.50929E-05 1.69381E-07-3.63784E-05 2.04802E-05 1.09082E-19 1.80296E-18
 -1        22 9.16485E-05-9.98368E-08-3.87408E-05 2.79981E-05 1.79995E-21 4.13716E-18
 -1        23 1.12982E-04-3.81288E-05-3.53991E-05-4.40198E-06-2.58848E-19 4.84577E-18
 -1        24 9.28165E-05-2.77007E-05-2.90027E-05 3.91492E-07-6.44506E-20 3.79994E-18
 -1        25 8.91354E-05-2.68570E-05-2.69340E-05 3.76117E-07-3.74299E-20 2.53995E-18
 -1        26 8.80352E-05-2.64943E-05-2.63975E-05 2.03983E-07 4.52410E-20 1.65582E-18
 -1        27 8.80639E-05-2.64732E-05-2.63905E-05 1.40005E-07-3.17881E-20 1.11024E-18
 -1        28 8.86011E-05-2.66107E-05-2.65611E-05 1.01118E-07 4.30951E-20 1.21040E-18
 -1        29 8.93595E-05-2.68244E-05-2.67946E-05 7.53904E-08 2.96109E-20 9.14339E-19
 -1        30 9.01872E-05-2.70650E-05-2.70455E-05 5.70756E-08 1.22826E-19 5.52861E-19
 -1        31 9.09992E-05-2.73041E-05-2.72905E-05 4.33233E-08 5.32159E-20 3.36883E-19
 -1        32 9.17485E-05-2.75263E-05-2.75163E-05 3.26683E-08-2.73743E-19-4.06912E-19
 -1        33 9.24113E-05-2.77235E-05-2.77161E-05 2.42938E-08 2.36264E-19-9.07363E-19
 -1        34 9.29788E-05-2.78929E-05-2.78873E-05 1.76831E-08-7.51411E-20-7.28251E-19
 -1        35 9.34519E-05-2.80344E-05-2.80302E-05 1.24692E-08 1.18480E-19-1.53209E-18
 -1        36 9.38374E-05-2.81499E-05-2.81468E-05 8.37027E-09-7.22709E-20-1.05255E-18
 -1        37 9.41457E-05-2.82425E-05-2.82401E-05 5.16131E-09 4.46076E-20-9.34229E-19
 -1        38 9.43895E-05-2.83159E-05-2.83140E-05 2.66179E-09-1.59615E-19-1.57777E-18
 -1        39 9.45826E-05-2.83742E-05-2.83727E-05 7.30807E-10-1.50076E-19-2.75144E-18
 -1        40 9.47402E-05-2.84219E-05-2.84207E-05-7.34009E-10 1.01826E-19-2.56866E-18
 -1        41 9.48783E-05-2.84639E-05-2.84629E-05-1.79531E-09-6.45688E-20-2.86873E-18
 -1        42 9.50147E-05-2.85055E-05-2.85047E-05-2.47256E-09-2.73052E-19-4.70861E-18
 -1        43 9.51697E-05-2.85528E-05-2.85521E-05-2.73623E-09 4.26535E-20-3.11627E-18
 -1        44 9.53665E-05-2.86128E-05-2.86123E-05-2.49902E-09 7.58897E-21-2.62341E-18
 -1        45 9.56331E-05-2.86938E-05-2.86938E-05-1.60343E-09-9.05380E-20-2.22463E-18
 -1        46 9.60030E-05-2.88059E-05-2.88066E-05 1.95613E-10-2.32477E-19-3.07177E-18
 -1        47 9.65167E-05-2.89613E-05-2.89630E-05 3.25352E-09-4.61080E-20-3.40397E-18
 -1        48 9.72228E-05-2.91745E-05-2.91778E-05 8.06407E-09 3.02344E-19-1.78753E-18
 -1        49 9.81786E-05-2.94626E-05-2.94681E-05 1.52888E-08 3.29247E-19-1.63783E-18
 -1        50 9.94496E-05-2.98449E-05-2.98538E-05 2.57754E-08-1.61106E-19-2.45123E-18
 -1        51 1.01106E-04-3.03422E-05-3.03556E-05 4.05329E-08 7.30008E-21-2.24966E-18
 -1        52 1.03216E-04-3.09742E-05-3.09933E-05 6.05910E-08-5.07895E-20-1.49267E-18
 -1        53 1.05828E-04-3.17552E-05-3.17802E-05 8.65923E-08-4.81037E-19-3.18347E-18
 -1        54 1.08944E-04-3.26846E-05-3.27138E-05 1.17839E-07 5.17379E-19-2.99681E-18
 -1        55 1.12467E-04-3.37329E-05-3.37595E-05 1.50368E-07-1.97010E-19-5.50922E-19
 -1        56 1.16125E-04-3.48193E-05-3.48277E-05 1.73627E-07-6.03459E-20 4.11804E-20
 -1        57 1.19375E-04-3.57826E-05-3.57455E-05 1.66073E-07 9.23489E-20 1.20979E-18
 -1        58 1.21310E-04-3.63554E-05-3.62374E-05 9.26246E-08 2.05184E-19 1.17367E-18
 -1        59 1.20680E-04-3.61686E-05-3.59450E-05-8.79337E-08-4.71495E-19 5.10450E-19
 -1        60 1.16180E-04-3.48327E-05-3.45305E-05-3.91894E-07 9.21430E-20 6.90729E-19
 -1        61 1.07166E-04-3.21469E-05-3.18829E-05-7.53450E-07 4.30999E-19 1.00328E-18
 -1        62 9.46403E-05-2.83982E-05-2.83579E-05-9.86099E-07-2.31327E-19 1.65833E-18
 -1        63 8.17801E-05-2.45330E-05-2.48355E-05-8.62914E-07-5.76065E-19 3.66474E-19
 -1        64 7.29057E-05-2.18613E-05-2.24054E-05-3.38669E-07-1.77314E-20-7.66049E-19
 -1        65 7.09554E-05-2.12838E-05-2.17731E-05 3.22187E-07-6.54134E-19-1.33631E-18
 -1        66 7.54090E-05-2.26398E-05-2.28246E-05 7.27859E-07 8.61014E-19-6.56953E-19
 -1        67 8.27845E-05-2.48640E-05-2.47337E-05 7.14235E-07 7.97621E-20 2.35888E-18
 -1        68 8.92472E-05-2.67964E-05-2.65345E-05 4.26618E-07 4.05117E-19 3.33122E-18
 -1        69 9.28773E-05-2.78692E-05-2.76729E-05 1.30182E-07-1.21103E-19 2.34493E-18
 -1        70 9.41296E-05-2.82258E-05-2.81671E-05 3.84211E-08 6.00144E-19 1.22477E-18
 -1        71 9.46857E-05-2.83837E-05-2.83217E-05 1.22803E-07-9.00956E-19 3.11766E-19
 -1        72 1.02186E-04-3.05895E-05-3.41523E-05-1.92926E-06 4.58986E-20 8.56795E-18
 -1        73 9.25731E-05-2.75168E-05-2.89111E-05-3.33302E-07 4.81088E-21 7.42109E-18
 -1        74 8.91224E-05-2.67062E-05-2.69771E-05-1.25982E-07 5.40505E-20 6.04166E-18
 -1        75 8.80647E-05-2.64449E-05-2.64414E-05-9.56429E-08 6.14086E-20 5.09224E-18
 -1        76 8.80990E-05-2.64533E-05-2.64172E-05-7.66580E-08 1.73046E-20 4.55380E-18
 -1        77 8.86352E-05-2.66051E-05-2.65782E-05-6.26329E-08-4.20419E-20 4.50807E-18
 -1        78 8.93907E-05-2.68257E-05-2.68069E-05-5.18857E-08 2.60283E-21 5.02341E-18
 -1        79 9.02150E-05-2.70695E-05-2.70550E-05-4.30298E-08 4.34200E-20 4.99056E-18
 -1        80 9.10234E-05-2.73102E-05-2.72978E-05-3.54224E-08 2.77939E-20 4.03328E-18
 -1        81 9.17691E-05-2.75327E-05-2.75220E-05-2.87940E-08 1.67582E-19 3.28718E-18
 -1        82 9.24286E-05-2.77298E-05-2.77205E-05-2.30269E-08-1.16802E-19 3.82612E-18
 -1        83 9.29930E-05-2.78987E-05-2.78907E-05-1.80437E-08 2.03643E-19 3.85746E-18
 -1        84 9.34634E-05-2.80395E-05-2.80327E-05-1.37706E-08 3.05451E-20 3.28654E-18
 -1        85 9.38466E-05-2.81543E-05-2.81487E-05-1.01262E-08 4.90596E-20 3.06768E-18
 -1        86 9.41529E-05-2.82462E-05-2.82415E-05-7.02140E-09 1.04110E-19 2.96172E-18
 -1        87 9.43952E-05-2.83189E-05-2.83151E-05-4.36385E-09-8.47171E-20 2.31153E-18
 -1        88 9.45872E-05-2.83766E-05-2.83736E-05-2.06389E-09-2.08262E-20 2.31308E-18
 -1        89 9.47440E-05-2.84238E-05-2.84216E-05-4.01521E-11 3.26879E-19 1.12484E-18
 -1        90 9.48819E-05-2.84654E-05-2.84639E-05 1.77415E-09-1.70067E-19-1.19033E-18
 -1        91 9.50185E-05-2.85066E-05-2.85059E-05 3.42399E-09 2.15746E-21-1.22258E-19
 -1        92 9.51738E-05-2.85536E-05-2.85537E-05 4.92346E-09-4.73761E-20 1.40400E-18
 -1        93 9.53710E-05-2.86131E-05-2.86143E-05 6.24390E-09 1.18434E-19 1.61009E-18
 -1        94 9.56372E-05-2.86934E-05-2.86959E-05 7.29774E-09 7.48735E-20-1.02036E-18
 -1        95 9.60044E-05-2.88039E-05-2.88081E-05 7.91613E-09 9.28774E-20-1.09505E-18
 -1        96 9.65105E-05-2.89561E-05-2.89626E-05 7.81850E-09 1.03153E-19 1.07718E-18
 -1        97 9.71993E-05-2.91629E-05-2.91723E-05 6.57227E-09-3.01096E-19 3.18440E-18
 -1        98 9.81198E-05-2.94389E-05-2.94520E-05 3.54322E-09 1.91823E-20 3.37099E-18
 -1        99 9.93239E-05-2.97995E-05-2.98170E-05-2.15640E-09-2.00787E-19 1.47484E-18
 -1       100 1.00861E-04-3.02591E-05-3.02817E-05-1.16992E-08 1.28895E-20 1.29003E-18
 -1       101 1.02766E-04-3.08281E-05-3.08557E-05-2.64954E-08-2.68311E-19 2.01425E-18
 -1       102 1.05043E-04-3.15075E-05-3.15383E-05-4.79401E-08 2.78149E-19 6.84611E-19
 -1       103 1.07636E-04-3.22800E-05-3.23092E-05-7.67203E-08-2.38579E-19 1.98725E-18
 -1       104 1.10382E-04-3.30979E-05-3.31151E-05-1.11318E-07-1.07391E-19 2.78635E-18
 -1       105 1.12957E-04-3.38663E-05-3.38534E-05-1.45348E-07 3.37798E-19 1.35793E-18
 -1       106 1.14826E-04-3.44278E-05-3.43589E-05-1.63886E-07-7.00550E-19 8.38262E-19
 -1       107 1.15219E-04-3.45566E-05-3.44048E-05-1.40851E-07 3.22221E-19-3.13639E-19
 -1       108 1.13234E-04-3.39844E-05-3.37408E-05-4.34789E-08 1.55680E-19-2.64775E-18
 -1       109 1.08126E-04-3.24824E-05-3.21863E-05 1.48028E-07-2.18437E-19-4.52681E-18
 -1       110 9.98251E-05-3.00121E-05-2.97702E-05 4.04538E-07 1.53394E-19-4.16746E-18
 -1       111 8.94731E-05-2.68938E-05-2.68519E-05 6.20478E-07 3.32356E-19-3.98423E-18
 -1       112 7.95104E-05-2.38546E-05-2.41014E-05 6.52213E-07-7.21924E-19-3.02851E-18
 -1       113 7.28316E-05-2.17914E-05-2.22552E-05 4.27892E-07 3.18433E-19-7.89196E-19
 -1       114 7.12600E-05-2.12935E-05-2.17622E-05 4.25043E-08-6.16991E-19-7.76041E-19
 -1       115 7.44354E-05-2.22705E-05-2.25315E-05-2.97111E-07 4.40068E-19-1.60801E-18
 -1       116 8.01580E-05-2.40362E-05-2.40370E-05-4.34261E-07 5.28311E-19-7.57112E-18
 -1       117 8.58878E-05-2.57911E-05-2.56366E-05-3.71314E-07-1.67462E-19-9.72907E-18
 -1       118 9.01582E-05-2.70753E-05-2.69161E-05-2.34230E-07 6.92501E-19-9.77264E-18
 -1       119 9.29033E-05-2.78796E-05-2.77775E-05-1.57491E-07-5.31619E-19-1.12123E-17
 -1       120 9.46502E-05-2.84265E-05-2.82682E-05-1.84201E-07 1.40450E-18-6.48579E-18
 -1       121 9.53939E-05-2.91953E-05-2.83232E-05-2.77304E-07-3.76492E-18 1.47053E-18
 -1       122 9.58019E-05-3.05819E-05-2.80595E-05-2.99854E-07 7.29854E-18 1.16504E-18
 -1       123 9.57113E-05-3.02820E-05-2.83380E-05-1.38006E-07 3.10196E-18-2.07211E-18
 -1       124 9.44152E-05-2.59197E-05-2.97934E-05 2.19313E-07-1.90879E-18 1.31604E-18
 -1       125 9.14333E-05-1.58667E-05-3.28218E-05 7.35360E-07 3.41566E-18 8.63904E-19
 -1       126 8.68967E-05-6.31164E-07-3.71769E-05 1.18925E-06 5.86041E-19 6.18499E-19
 -1       127 8.15964E-05 1.70954E-05-4.20464E-05 1.30922E-06 1.69597E-18 2.30624E-18
 -1       128 7.73589E-05 3.12031E-05-4.58079E-05 8.22684E-07 2.24530E-18-4.42350E-19
 -1       129 7.59822E-05 3.57757E-05-4.70139E-05-1.22238E-07 1.84211E-18 1.01025E-18
 -1       130 7.80925E-05 2.87707E-05-4.51832E-05-9.89179E-07 8.01902E-18-5.78633E-19
 -1       131 8.26641E-05 1.35444E-05-4.11121E-05-1.31117E-06 2.34861E-18-1.08870E-19
 -1       132 8.77158E-05-3.38624E-06-3.64251E-05-1.07019E-06-2.59457E-19 1.34156E-18
 -1       133 9.18573E-05-1.72968E-05-3.23991E-05-5.63262E-07 1.87419E-18 1.31356E-18
 -1       134 9.43157E-05-2.56155E-05-2.98345E-05-1.05320E-07 5.41437E-18-8.24378E-19
 -1       135 9.52912E-05-2.87990E-05-2.86931E-05 1.21684E-07 1.94814E-18-5.60527E-19
 -1       136 9.52431E-05-2.89008E-05-2.84448E-05 3.73461E-07 2.93927E-19 1.24322E-18
 -1       137 3.15641E-05-1.06964E-04 1.91739E-05-2.77876E-05 1.90993E-17 6.95544E-18
 -1       138 1.00103E-05-4.12798E-05 4.33966E-06-2.07071E-05 2.39600E-17 9.72330E-18
 -1       139 1.20911E-05 1.59016E-05-1.56509E-05 2.47747E-05 1.67192E-17 1.18059E-17
 -1       140 6.22897E-05 3.17009E-05-3.80450E-05 8.66265E-05 8.72952E-18 8.51353E-18
 -1       141 1.61427E-04-1.80617E-06-6.05705E-05 1.26740E-04 3.72335E-18 8.16497E-18
 -1       142 2.62354E-04-5.75436E-05-7.61013E-05 1.11003E-04 2.64317E-18 1.22968E-17
 -1       143 3.26155E-04-9.82240E-05-8.41246E-05 4.27552E-05 1.74395E-18 8.80703E-18
 -1       144 3.16201E-04-9.34118E-05-8.25146E-05-4.73095E-05 1.15425E-18-1.37346E-18
 -1       145 2.34041E-04-4.66625E-05-7.05172E-05-1.07213E-04 1.83764E-18-5.60905E-18
 -1       146 1.29782E-04 5.56011E-06-5.28165E-05-1.11456E-04 6.24306E-18-7.97312E-18
 -1       147 4.70196E-05 2.77117E-05-3.18610E-05-6.88741E-05 9.19370E-18-1.03393E-17
 -1       148 9.45394E-06 4.81706E-06-1.08442E-05-1.33140E-05 9.95645E-18-8.08578E-18
 -1       149 1.14064E-05-5.24551E-05 8.54687E-06 2.65313E-05 1.10127E-17-4.46916E-18
 -1       150 3.20087E-05-1.05351E-04 1.97992E-05 2.34882E-05 5.41635E-18-1.50912E-18
 -1       151 3.93920E-05-1.22729E-04 2.33650E-05-5.19060E-06-6.49304E-19-1.38548E-18
 -1       152 2.72595E-05-9.55852E-05 1.80224E-05-2.80354E-05-8.38520E-18-1.26504E-18
 -1       153 7.83006E-06-3.97633E-05 5.22862E-06-2.32774E-05-6.63439E-18-3.75066E-18
 -1       154 1.10427E-05 1.06695E-05-1.35981E-05 1.91265E-05-1.12253E-17-8.71597E-18
 -1       155 1.52298E-04-5.23308E-06-5.68178E-05 1.14246E-04-4.53290E-18-1.05227E-17
 -1       156 2.54877E-04-5.84731E-05-7.35197E-05 1.01080E-04-3.37617E-18-1.07404E-17
 -1       157 3.24751E-04-9.86098E-05-8.33708E-05 3.40348E-05-7.49399E-19-4.22733E-18
 -1       158 3.22826E-04-9.50908E-05-8.37470E-05-5.48510E-05-1.71119E-18 5.50646E-18
 -1       159 2.53741E-04-5.15694E-05-7.50276E-05-1.16574E-04-4.05517E-18 1.06010E-17
 -1       160 1.52513E-04 2.78229E-06-5.90451E-05-1.26403E-04-7.22286E-18 1.37524E-17
 -1       161 5.93499E-05 3.29520E-05-3.75500E-05-8.54648E-05-1.62567E-17 1.65074E-17
 -1       162 1.10893E-05 1.43608E-05-1.48299E-05-2.25467E-05-1.98841E-17 1.49569E-17
 -1       163 9.78376E-06-4.20603E-05 4.64475E-06 2.24216E-05-1.35856E-17 7.39989E-18
 -1       164 3.12454E-05-1.05481E-04 1.86989E-05 2.79266E-05-7.61906E-18 1.34032E-18
 -1       165 9.48735E-05-1.23482E-05-3.55708E-05-2.23470E-05-8.76441E-19 3.70286E-19
 -1       166 8.92526E-05-8.45689E-06-3.47885E-05-1.73893E-05-8.09439E-19-6.18228E-19
 -1       167 8.65511E-05-6.50632E-06-3.44167E-05-1.35806E-05-5.81015E-19-1.11500E-18
 -1       168 8.51878E-05-5.51271E-06-3.42306E-05-1.03698E-05-3.68780E-19-1.43192E-18
 -1       169 8.44457E-05-4.94473E-06-3.41408E-05-7.54529E-06-1.61932E-19-1.48719E-18
 -1       170 8.40170E-05-4.59857E-06-3.40981E-05-4.90180E-06-3.43830E-20-1.42961E-18
 -1       171 8.37978E-05-4.41383E-06-3.40798E-05-2.39420E-06 2.24275E-19-1.31356E-18
 -1       172 8.37330E-05-4.35797E-06-3.40749E-05 5.13190E-08 3.76600E-19-1.25726E-18
 -1       173 8.38075E-05-4.42218E-06-3.40805E-05 2.49892E-06 5.42977E-19-1.19388E-18
 -1       174 8.40384E-05-4.61748E-06-3.40995E-05 5.01314E-06 6.31875E-19-1.00722E-18
 -1       175 8.44726E-05-4.97090E-06-3.41418E-05 7.62181E-06 7.90744E-19-6.85144E-19
 -1       176 8.52503E-05-5.57381E-06-3.42320E-05 1.05106E-05 1.05796E-18-3.29966E-19
 -1       177 8.66484E-05-6.60853E-06-3.44190E-05 1.37813E-05 1.17854E-18 1.74634E-19
 -1       178 8.93955E-05-8.60081E-06-3.47933E-05 1.76209E-05 1.18146E-18 1.12753E-18
 -1       179 9.57854E-05-1.36153E-05-3.54272E-05 2.18922E-05 9.50292E-19 2.61569E-18
 -1       180 1.05612E-04-2.61043E-05-3.52650E-05 1.86619E-05 5.17041E-19 4.49579E-18
 -1       181 1.03406E-04-2.73040E-05-3.26128E-05-1.21255E-05-7.10317E-19 1.53361E-18
 -1       182 9.71171E-05-2.82922E-05-2.95317E-05-4.72838E-06-7.36852E-19 1.14017E-18
 -1       183 9.35191E-05-2.76409E-05-2.81855E-05-1.76649E-06-5.13623E-19 8.71471E-19
 -1       184 9.19844E-05-2.74089E-05-2.76398E-05-4.20437E-07-4.07203E-19 5.16359E-19
 -1       185 9.14100E-05-2.73347E-05-2.74427E-05 2.45199E-07-7.66879E-21 5.29336E-19
 -1       186 9.13696E-05-2.73742E-05-2.74180E-05 5.70889E-07-1.47851E-19 4.33708E-19
 -1       187 9.16142E-05-2.74773E-05-2.74833E-05 7.09057E-07-3.00568E-19 3.50231E-19
 -1       188 9.19984E-05-2.76097E-05-2.75934E-05 7.39109E-07-1.60821E-19 9.94143E-20
 -1       189 9.24351E-05-2.77501E-05-2.77216E-05 7.06846E-07-3.21577E-19 2.06141E-19
 -1       190 9.28722E-05-2.78856E-05-2.78515E-05 6.40677E-07-4.76121E-19 2.30766E-19
 -1       191 9.32801E-05-2.80091E-05-2.79738E-05 5.58837E-07-1.80728E-19-7.15440E-19
 -1       192 9.36435E-05-2.81171E-05-2.80834E-05 4.73116E-07-3.59262E-19-7.37511E-19
 -1       193 9.39569E-05-2.82089E-05-2.81784E-05 3.91061E-07 2.23313E-19-7.62052E-19
 -1       194 9.42209E-05-2.82851E-05-2.82589E-05 3.17431E-07-3.66066E-19-8.04476E-19
 -1       195 9.44404E-05-2.83474E-05-2.83261E-05 2.55209E-07-4.93857E-19-8.99253E-19
 -1       196 9.46230E-05-2.83983E-05-2.83824E-05 2.06359E-07-4.99260E-19-1.07836E-18
 -1       197 9.47783E-05-2.84408E-05-2.84306E-05 1.72399E-07-1.60770E-19-1.00880E-18
 -1       198 9.49176E-05-2.84781E-05-2.84741E-05 1.54853E-07-2.66721E-19-1.90551E-18
 -1       199 9.50539E-05-2.85139E-05-2.85168E-05 1.55607E-07-8.71496E-19-1.64532E-18
 -1       200 9.52020E-05-2.85526E-05-2.85635E-05 1.77201E-07 3.21868E-19-1.87002E-18
 -1       201 9.53792E-05-2.85990E-05-2.86192E-05 2.23062E-07 2.99068E-19-1.73023E-18
 -1       202 9.56057E-05-2.86588E-05-2.86902E-05 2.97677E-07-1.41268E-19-1.31328E-18
 -1       203 9.59054E-05-2.87389E-05-2.87839E-05 4.06688E-07 1.78575E-19-1.51047E-18
 -1       204 9.63064E-05-2.88474E-05-2.89087E-05 5.56871E-07 1.74314E-19-8.55367E-19
 -1       205 9.68415E-05-2.89939E-05-2.90747E-05 7.55890E-07 1.81875E-19-9.72661E-19
 -1       206 9.75484E-05-2.91896E-05-2.92932E-05 1.01168E-06 4.23955E-20-1.71766E-18
 -1       207 9.84688E-05-2.94474E-05-2.95766E-05 1.33115E-06-5.15017E-19-2.06875E-18
 -1       208 9.96464E-05-2.97818E-05-2.99376E-05 1.71766E-06 2.83920E-19-1.85228E-18
 -1       209 1.01122E-04-3.02078E-05-3.03877E-05 2.16655E-06 1.12917E-19-1.25496E-18
 -1       210 1.02927E-04-3.07400E-05-3.09337E-05 2.65737E-06-7.14766E-19-9.19324E-19
 -1       211 1.05065E-04-3.13899E-05-3.15736E-05 3.14147E-06-3.56217E-19 1.36448E-20
 -1       212 1.07495E-04-3.21609E-05-3.22879E-05 3.52368E-06 8.92992E-19-4.85444E-19
 -1       213 1.10094E-04-3.30401E-05-3.30298E-05 3.63977E-06 2.00300E-19-1.96838E-19
 -1       214 1.12616E-04-3.39822E-05-3.37134E-05 3.23864E-06 8.42746E-19-1.33970E-20
 -1       215 1.14651E-04-3.48824E-05-3.42057E-05 1.99533E-06-2.33569E-19-2.60123E-19
 -1       216 1.15605E-04-3.55367E-05-3.43362E-05-3.95129E-07 1.76765E-19 3.79107E-19
 -1       217 1.14752E-04-3.56049E-05-3.39375E-05-3.98111E-06-4.13623E-20-2.67014E-21
 -1       218 1.11456E-04-3.46454E-05-3.29267E-05-8.17823E-06 1.32680E-20 5.33273E-19
 -1       219 1.05618E-04-3.23498E-05-3.13999E-05-1.14992E-05 3.67821E-19-3.11510E-19
 -1       220 9.82397E-05-2.90084E-05-2.96695E-05-1.19368E-05-7.58963E-19-7.98527E-19
 -1       221 9.15504E-05-2.58358E-05-2.81686E-05-8.37104E-06-9.32272E-19-1.74035E-18
 -1       222 8.79502E-05-2.43544E-05-2.72631E-05-2.04420E-06 3.20622E-19-1.43702E-18
 -1       223 8.83100E-05-2.51400E-05-2.70725E-05 3.80641E-06 5.09537E-19-4.61593E-19
 -1       224 9.12517E-05-2.72014E-05-2.74391E-05 6.42186E-06 1.30226E-18-1.16717E-18
 -1       225 9.44317E-05-2.90096E-05-2.80270E-05 5.52390E-06 7.07919E-19-5.90508E-19
 -1       226 9.62352E-05-2.97021E-05-2.85118E-05 2.90976E-06-4.34280E-19-1.63405E-18
 -1       227 9.63911E-05-2.93374E-05-2.87393E-05 7.23016E-07 2.17835E-19-3.20903E-19
 -1       228 9.56537E-05-2.86162E-05-2.87267E-05 6.99877E-08-6.30854E-19-9.36177E-19
 -1       229 9.95100E-05-2.85573E-05-3.05899E-05 7.20973E-06 6.27559E-19 3.92528E-18
 -1       230 9.44274E-05-2.77940E-05-2.85278E-05 2.74210E-06 7.18800E-19 3.34068E-18
 -1       231 9.21093E-05-2.74048E-05-2.76854E-05 9.28055E-07 5.39292E-19 2.73690E-18
 -1       232 9.11625E-05-2.72428E-05-2.73672E-05 6.58650E-08 3.11834E-19 2.36200E-18
 -1       233 9.09528E-05-2.72363E-05-2.72936E-05-3.62194E-07 3.06466E-20 2.10819E-18
 -1       234 9.11383E-05-2.73228E-05-2.73428E-05-5.62929E-07-1.49379E-19 1.76148E-18
 -1       235 9.15235E-05-2.74564E-05-2.74538E-05-6.35584E-07 1.48385E-19 2.08594E-18
 -1       236 9.19932E-05-2.76077E-05-2.75919E-05-6.34168E-07 3.16473E-19 2.08963E-18
 -1       237 9.24791E-05-2.77590E-05-2.77362E-05-5.90858E-07 2.64269E-19 2.00968E-18
 -1       238 9.29414E-05-2.79000E-05-2.78745E-05-5.25924E-07-2.30318E-19 2.29169E-18
 -1       239 9.33589E-05-2.80255E-05-2.79999E-05-4.52407E-07 4.49289E-19 2.06141E-18
 -1       240 9.37221E-05-2.81335E-05-2.81096E-05-3.78707E-07 8.58213E-20 1.80527E-18
 -1       241 9.40297E-05-2.82239E-05-2.82027E-05-3.10151E-07 3.63815E-19 1.81103E-18
 -1       242 9.42852E-05-2.82983E-05-2.82803E-05-2.50065E-07 9.97845E-20 1.60632E-18
 -1       243 9.44957E-05-2.83588E-05-2.83446E-05-2.00540E-07 2.41235E-19 1.82530E-18
 -1       244 9.46704E-05-2.84084E-05-2.83981E-05-1.63001E-07 4.32607E-19 9.26214E-19
 -1       245 9.48204E-05-2.84504E-05-2.84443E-05-1.38649E-07 1.00887E-18-2.86267E-20
 -1       246 9.49582E-05-2.84884E-05-2.84870E-05-1.28796E-07 4.93246E-19 2.40980E-20
 -1       247 9.50982E-05-2.85267E-05-2.85304E-05-1.35132E-07-6.63817E-19 9.93340E-20
 -1       248 9.52566E-05-2.85699E-05-2.85796E-05-1.59921E-07-8.07698E-19 3.42525E-21
 -1       249 9.54522E-05-2.86235E-05-2.86403E-05-2.06127E-07-1.35274E-19 4.11537E-19
 -1       250 9.57069E-05-2.86939E-05-2.87190E-05-2.77462E-07 9.76045E-19-4.50071E-20
 -1       251 9.60459E-05-2.87886E-05-2.88236E-05-3.78310E-07 1.39988E-19-2.09277E-19
 -1       252 9.64985E-05-2.89161E-05-2.89627E-05-5.13455E-07-1.42818E-18-1.89323E-19
 -1       253 9.70976E-05-2.90864E-05-2.91463E-05-6.87513E-07-1.09105E-18 1.44535E-18
 -1       254 9.78785E-05-2.93104E-05-2.93849E-05-9.03865E-07 1.89362E-20 1.88236E-18
 -1       255 9.88770E-05-2.95999E-05-2.96889E-05-1.16280E-06 8.50337E-19 2.20705E-18
 -1       256 1.00125E-04-2.99659E-05-3.00671E-05-1.45849E-06-4.36416E-20 1.47540E-18
 -1       257 1.01641E-04-3.04174E-05-3.05242E-05-1.77412E-06-1.65205E-19 1.20993E-18
 -1       258 1.03420E-04-3.09578E-05-3.10563E-05-2.07484E-06 3.70991E-19 1.44155E-18
 -1       259 1.05413E-04-3.15801E-05-3.16452E-05-2.29817E-06-1.20413E-18 1.04036E-18
 -1       260 1.07501E-04-3.22596E-05-3.22504E-05-2.34345E-06 7.19205E-19 1.26579E-18
 -1       261 1.09464E-04-3.29424E-05-3.28002E-05-2.06523E-06 1.24342E-18 1.30191E-18
 -1       262 1.10957E-04-3.35324E-05-3.31861E-05-1.28279E-06-6.55630E-19 1.94399E-19
 -1       263 1.11502E-04-3.38767E-05-3.32681E-05 1.72952E-07 1.09780E-18-9.97398E-20
 -1       264 1.10545E-04-3.37625E-05-3.29006E-05 2.34916E-06 1.39264E-18-1.08434E-18
 -1       265 1.07619E-04-3.29520E-05-3.19880E-05 4.99697E-06-2.91399E-20-1.51494E-18
 -1       266 1.02622E-04-3.12914E-05-3.05589E-05 7.42188E-06 3.07794E-19-1.98486E-18
 -1       267 9.61541E-05-2.89006E-05-2.88234E-05 8.55618E-06-8.65224E-19-9.67153E-19
 -1       268 8.96444E-05-2.63396E-05-2.71505E-05 7.47977E-06-9.00290E-19 4.92464E-19
 -1       269 8.49185E-05-2.44702E-05-2.59381E-05 4.20146E-06-1.65430E-19 8.35370E-20
 -1       270 8.32638E-05-2.39662E-05-2.54382E-05-8.58213E-09-8.59910E-19 1.04858E-18
 -1       271 8.46029E-05-2.47871E-05-2.56366E-05-3.32351E-06 2.29818E-18-1.45167E-19
 -1       272 8.76280E-05-2.62373E-05-2.62926E-05-4.61430E-06 2.80220E-18-2.28500E-18
 -1       273 9.07368E-05-2.75106E-05-2.70760E-05-4.07260E-06-2.17864E-19-2.75530E-18
 -1       274 9.29562E-05-2.82109E-05-2.77360E-05-2.76801E-06 6.44976E-19-1.40494E-18
 -1       275 9.41595E-05-2.84300E-05-2.81637E-05-1.71949E-06-7.72742E-19-1.83449E-19
 -1       276 9.48377E-05-2.86234E-05-2.83549E-05-1.10598E-06-1.13682E-18 7.47795E-19
 -1       277 9.54942E-05-2.91311E-05-2.84230E-05-1.10628E-06-1.32892E-19 5.94654E-18
 -1       278 9.62039E-05-2.91358E-05-2.87186E-05 5.72806E-07 1.10710E-18-1.78132E-18
 -1       279 9.63029E-05-2.74232E-05-2.95018E-05 4.42318E-06 3.51139E-18-1.43776E-18
 -1       280 9.52330E-05-2.28905E-05-3.09942E-05 9.77485E-06 1.94840E-18 2.74148E-18
 -1       281 9.25313E-05-1.52014E-05-3.31484E-05 1.48308E-05 5.05811E-19-2.25820E-18
 -1       282 8.80919E-05-4.87057E-06-3.56824E-05 1.69852E-05-3.42122E-20 1.09976E-18
 -1       283 8.31256E-05 5.32010E-06-3.79189E-05 1.35357E-05-1.17215E-18 1.18029E-18
 -1       284 7.99300E-05 1.14507E-05-3.91664E-05 4.39952E-06 1.82537E-18 3.64608E-19
 -1       285 8.03953E-05 1.06473E-05-3.90229E-05-6.71771E-06 1.18649E-18 1.54263E-18
 -1       286 8.42040E-05 3.38621E-06-3.75542E-05-1.45959E-05 1.35614E-18-2.17727E-18
 -1       287 8.90508E-05-6.72991E-06-3.52947E-05-1.64753E-05 3.13255E-18-1.77297E-18
 -1       288 9.30329E-05-1.63671E-05-3.28606E-05-1.33794E-05 3.47190E-18 1.41210E-18
 -1       289 9.52305E-05-2.31853E-05-3.08649E-05-8.14670E-06 1.82184E-18 1.54715E-18
 -1       290 9.58133E-05-2.68275E-05-2.95589E-05-3.32748E-06 1.30477E-18-1.95114E-18
 -1       291 9.61991E-05-2.82606E-05-2.90959E-05-1.14714E-06 4.08138E-19-2.26298E-18
 -1       292 1.51601E-05-5.60236E-05 1.36766E-05 9.67505E-06 5.91811E-18 1.02046E-17
 -1       293 3.25517E-05-5.06254E-05 4.87099E-06 2.91411E-05 7.72134E-18 4.21521E-18
 -1       294 6.03917E-05-4.33174E-05-9.27699E-06 4.00069E-05 9.96450E-18 2.25173E-18
 -1       295 9.88451E-05-3.50462E-05-2.75658E-05 5.10071E-05 7.72388E-18 2.06401E-18
 -1       296 1.47587E-04-3.55639E-05-4.66917E-05 4.96429E-05 3.45134E-18 3.11285E-18
 -1       297 1.88081E-04-3.31823E-05-6.34199E-05 4.68332E-05 8.82719E-19 5.01444E-18
 -1       298 2.18087E-04-3.70492E-05-7.36798E-05 2.92710E-05 2.16586E-18 2.58779E-18
 -1       299 2.22430E-04-3.66984E-05-7.59760E-05 3.84394E-06 4.62999E-18 1.19225E-18
 -1       300 1.98486E-04-3.27801E-05-6.87288E-05-1.32597E-05 2.50182E-18 2.60674E-19
 -1       301 1.74610E-04-3.54674E-05-5.74797E-05-4.04612E-05 3.45732E-18-2.25078E-18
 -1       302 1.30560E-04-3.39093E-05-4.06215E-05-4.63517E-05 3.68735E-18-2.15379E-18
 -1       303 8.68666E-05-3.64777E-05-2.23013E-05-4.20637E-05 4.66588E-18-3.47961E-18
 -1       304 5.73409E-05-4.70285E-05-5.72847E-06-3.73130E-05 2.80558E-18-4.34695E-18
 -1       305 2.41974E-05-5.18251E-05 8.75620E-06-1.79603E-05 1.85098E-18-3.72694E-18
 -1       306 1.21551E-05-5.27787E-05 1.44127E-05-6.20862E-06 2.97997E-19-2.81586E-18
 -1       307 1.36942E-05-5.01543E-05 1.30031E-05 9.67596E-06-4.85138E-19-4.33575E-18
 -1       308 2.86575E-05-5.08283E-05 6.53612E-06 1.90347E-05-4.31627E-18-2.39329E-18
 -1       309 5.73313E-05-4.39838E-05-7.52596E-06 3.31946E-05-3.69603E-18-5.80403E-18
 -1       310 9.34973E-05-3.68697E-05-2.48636E-05 4.16694E-05-5.29523E-18-3.11772E-18
 -1       311 1.39464E-04-3.48885E-05-4.37769E-05 4.47586E-05-3.79587E-18-4.76393E-18
 -1       312 1.84399E-04-3.72345E-05-6.05024E-05 3.63133E-05-2.55045E-18-3.39427E-18
 -1       313 2.16531E-04-3.96030E-05-7.21359E-05 1.74683E-05-4.21748E-18-1.64473E-18
 -1       314 2.18983E-04-3.44203E-05-7.55682E-05-7.95249E-06-4.83741E-18 8.02916E-19
 -1       315 2.15828E-04-3.67407E-05-7.28680E-05-3.22397E-05-3.63578E-18 1.55155E-18
 -1       316 1.85309E-04-3.33139E-05-6.21875E-05-4.84428E-05-5.82563E-18 5.10104E-18
 -1       317 1.43106E-04-3.21573E-05-4.60586E-05-5.45058E-05-9.81245E-18 7.13625E-18
 -1       318 9.79386E-05-3.56002E-05-2.70065E-05-5.07333E-05-9.34256E-18 8.55588E-18
 -1       319 5.93531E-05-4.36023E-05-8.81429E-06-3.93811E-05-7.67645E-18 9.22218E-18
 -1       320 3.16021E-05-5.28855E-05 5.66204E-06-2.49796E-05-4.00138E-18 7.24933E-18
 -1       321 1.47928E-05-5.36156E-05 1.30366E-05-1.07002E-05 2.08550E-18 5.70943E-18
 -1       322 9.16517E-05-1.43954E-05-3.31730E-05-1.30627E-05-8.11722E-19-5.33915E-19
 -1       323 9.57135E-05-1.91117E-05-3.28923E-05-1.46279E-05-9.33927E-19-2.26317E-21
 -1       324 8.80051E-05-1.03764E-05-3.33227E-05-8.15200E-06-2.84388E-19-1.04875E-18
 -1       325 8.71864E-05-9.45229E-06-3.33626E-05-5.71524E-06-8.29451E-20-1.08136E-18
 -1       326 8.67259E-05-8.92249E-06-3.33892E-05-3.36565E-06 1.05054E-19-8.81990E-19
 -1       327 8.65203E-05-8.68261E-06-3.34025E-05-1.07204E-06 3.50910E-19-8.57475E-19
 -1       328 8.65289E-05-8.69212E-06-3.34021E-05 1.20317E-06 6.12021E-19-7.57800E-19
 -1       329 8.67530E-05-8.95314E-06-3.33879E-05 3.49898E-06 7.20927E-19-7.83330E-19
 -1       330 8.72260E-05-9.49747E-06-3.33609E-05 5.81309E-06 8.75056E-19-5.31732E-19
 -1       331 8.80666E-05-1.04495E-05-3.33199E-05 8.25191E-06 1.11127E-18-1.12182E-19
 -1       332 8.94831E-05-1.20330E-05-3.32595E-05 1.07608E-05 1.33084E-18 2.18759E-19
 -1       333 9.19050E-05-1.47227E-05-3.31593E-05 1.31660E-05 1.36589E-18 6.66529E-19
 -1       334 9.58105E-05-1.94590E-05-3.28298E-05 1.43730E-05 1.21518E-18 1.64492E-18
 -1       335 9.87990E-05-2.44467E-05-3.19534E-05 1.18956E-05 1.01766E-18 2.44452E-18
 -1       336 9.63990E-05-2.68150E-05-2.97922E-05 5.73863E-06 9.46526E-19 2.00239E-18
 -1       337 9.64404E-05-2.60276E-05-3.01332E-05-6.34423E-06-7.28471E-19 2.19899E-19
 -1       338 9.49353E-05-2.70425E-05-2.90728E-05-2.83378E-06-6.25228E-19 2.19282E-19
 -1       339 9.39512E-05-2.74275E-05-2.84958E-05-9.16937E-07-3.23112E-19 1.90333E-19
 -1       340 9.34326E-05-2.76415E-05-2.81894E-05 1.40926E-07-2.06725E-19 1.10842E-21
 -1       341 9.32405E-05-2.77949E-05-2.80453E-05 7.04539E-07-1.85233E-19-9.27344E-20
 -1       342 9.32573E-05-2.79245E-05-2.79988E-05 9.71187E-07-1.83524E-19 9.29839E-20
 -1       343 9.33958E-05-2.80393E-05-2.80099E-05 1.05747E-06-1.40929E-20 1.20568E-19
 -1       344 9.35963E-05-2.81405E-05-2.80529E-05 1.03608E-06-5.80339E-19-2.78467E-19
 -1       345 9.38199E-05-2.82275E-05-2.81117E-05 9.53957E-07-8.92699E-19-5.74533E-19
 -1       346 9.40422E-05-2.83006E-05-2.81757E-05 8.41948E-07-4.24023E-19-8.55223E-19
 -1       347 9.42495E-05-2.83603E-05-2.82390E-05 7.20382E-07-1.80808E-19-9.66541E-19
 -1       348 9.44351E-05-2.84079E-05-2.82981E-05 6.02601E-07 5.61227E-21-9.32258E-19
 -1       349 9.45974E-05-2.84449E-05-2.83517E-05 4.97331E-07-2.93809E-19-5.45155E-19
 -1       350 9.47384E-05-2.84731E-05-2.83999E-05 4.10387E-07-5.34234E-19-4.23966E-19
 -1       351 9.48623E-05-2.84944E-05-2.84437E-05 3.45945E-07-1.44736E-19-3.29956E-19
 -1       352 9.49753E-05-2.85106E-05-2.84850E-05 3.07499E-07-3.47520E-19-2.99643E-19
 -1       353 9.50853E-05-2.85237E-05-2.85264E-05 2.98614E-07-3.97363E-19 1.26523E-19
 -1       354 9.52016E-05-2.85359E-05-2.85708E-05 3.23507E-07-4.96696E-19 4.25320E-19
 -1       355 9.53351E-05-2.85495E-05-2.86219E-05 3.87504E-07 2.46873E-20 1.76291E-19
 -1       356 9.54986E-05-2.85673E-05-2.86840E-05 4.97364E-07 3.75696E-19-7.60340E-19
 -1       357 9.57069E-05-2.85925E-05-2.87621E-05 6.61459E-07 1.98836E-19 9.56212E-20
 -1       358 9.59774E-05-2.86292E-05-2.88619E-05 8.89767E-07 3.81897E-19 4.62776E-19
 -1       359 9.63297E-05-2.86824E-05-2.89896E-05 1.19355E-06 1.73137E-19 9.54000E-20
 -1       360 9.67864E-05-2.87586E-05-2.91521E-05 1.58456E-06-1.35531E-19 2.63109E-19
 -1       361 9.73721E-05-2.88664E-05-2.93564E-05 2.07336E-06-2.55014E-19 3.06534E-19
 -1       362 9.81133E-05-2.90175E-05-2.96087E-05 2.66633E-06 2.37850E-19 1.10221E-18
 -1       363 9.90371E-05-2.92285E-05-2.99137E-05 3.36043E-06-1.45078E-19 1.05719E-19
 -1       364 1.00170E-04-2.95235E-05-3.02727E-05 4.13445E-06 1.61617E-19-4.98444E-19
 -1       365 1.01535E-04-2.99383E-05-3.06807E-05 4.93526E-06-3.14703E-19 1.52163E-19
 -1       366 1.03151E-04-3.05255E-05-3.11235E-05 5.65747E-06 9.01947E-19 9.52782E-19
 -1       367 1.05027E-04-3.13581E-05-3.15743E-05 6.11652E-06 6.12341E-20 1.64997E-18
 -1       368 1.07156E-04-3.25236E-05-3.19927E-05 6.02030E-06 6.98513E-20 2.07545E-18
 -1       369 1.09486E-04-3.40895E-05-3.23284E-05 4.95679E-06-4.41519E-19 7.30222E-19
 -1       370 1.11868E-04-3.60074E-05-3.25355E-05 2.44166E-06 5.54926E-19 7.27490E-19
 -1       371 1.13932E-04-3.79337E-05-3.26003E-05-1.89800E-06 1.75316E-19 2.11877E-18
 -1       372 1.14949E-04-3.90095E-05-3.25741E-05-7.90828E-06 2.73808E-19 2.62687E-18
 -1       373 1.13878E-04-3.79202E-05-3.25769E-05-1.42775E-05 3.48723E-20 1.99758E-18
 -1       374 1.10004E-04-3.37239E-05-3.27107E-05-1.82215E-05 1.39670E-19 2.66918E-18
 -1       375 1.04265E-04-2.75191E-05-3.29115E-05-1.65234E-05-1.06183E-18 2.80317E-18
 -1       376 9.96326E-05-2.29266E-05-3.29000E-05-8.67798E-06-1.38892E-18 2.50394E-18
 -1       377 9.88602E-05-2.32761E-05-3.24232E-05 1.41650E-06-4.36480E-19 1.01036E-18
 -1       378 1.01332E-04-2.77464E-05-3.15509E-05 7.89769E-06 3.15060E-19-3.85582E-19
 -1       379 1.03937E-04-3.24240E-05-3.06557E-05 8.30852E-06 1.16910E-18-1.83178E-18
 -1       380 1.04269E-04-3.42671E-05-3.00137E-05 4.63776E-06-7.33794E-19-1.40232E-18
 -1       381 1.02107E-04-3.29835E-05-2.96448E-05 4.86863E-07-5.45714E-19-1.65825E-18
 -1       382 9.90246E-05-3.04585E-05-2.93789E-05-1.35628E-06-8.63080E-21-2.29484E-18
 -1       383 9.43802E-05-2.73441E-05-2.86916E-05 2.46611E-06 8.10697E-19 1.83637E-18
 -1       384 9.31748E-05-2.74641E-05-2.81399E-05 7.41117E-07 4.93560E-19 1.61699E-18
 -1       385 9.26215E-05-2.75419E-05-2.78814E-05-1.80132E-07 2.45064E-19 1.32507E-18
 -1       386 9.24803E-05-2.76349E-05-2.77868E-05-6.55649E-07-5.36069E-20 1.03210E-18
 -1       387 9.25830E-05-2.77444E-05-2.77864E-05-8.72812E-07-6.18614E-20 6.89996E-19
 -1       388 9.28178E-05-2.78607E-05-2.78384E-05-9.36653E-07 3.84936E-19 9.43900E-19
 -1       389 9.31129E-05-2.79747E-05-2.79167E-05-9.10297E-07 2.64051E-19 1.17906E-18
 -1       390 9.34232E-05-2.80801E-05-2.80048E-05-8.33717E-07-2.60198E-19 1.40811E-18
 -1       391 9.37215E-05-2.81735E-05-2.80928E-05-7.32852E-07 4.68038E-19 1.02984E-18
 -1       392 9.39932E-05-2.82533E-05-2.81751E-05-6.24656E-07 2.42938E-19 1.19454E-18
 -1       393 9.42319E-05-2.83198E-05-2.82488E-05-5.20139E-07 6.07448E-19 1.09342E-18
 -1       394 9.44368E-05-2.83741E-05-2.83133E-05-4.26400E-07 2.13091E-19 1.31672E-18
 -1       395 9.46111E-05-2.84177E-05-2.83691E-05-3.48061E-07 4.25749E-19 5.51747E-19
 -1       396 9.47603E-05-2.84528E-05-2.84179E-05-2.88326E-07 1.00298E-18-1.06595E-19
 -1       397 9.48924E-05-2.84818E-05-2.84619E-05-2.49779E-07 1.30176E-18-3.16984E-19
 -1       398 9.50166E-05-2.85073E-05-2.85040E-05-2.34995E-07 4.43262E-19 7.49817E-19
 -1       399 9.51439E-05-2.85322E-05-2.85476E-05-2.47006E-07-4.93927E-19 3.24688E-19
 -1       400 9.52871E-05-2.85600E-05-2.85969E-05-2.89636E-07-4.21219E-19-4.41091E-19
 -1       401 9.54608E-05-2.85943E-05-2.86563E-05-3.67716E-07-3.20541E-19-6.50484E-19
 -1       402 9.56821E-05-2.86398E-05-2.87313E-05-4.87142E-07 1.11368E-18-5.45478E-19
 -1       403 9.59704E-05-2.87019E-05-2.88278E-05-6.54721E-07-2.49879E-19 4.88447E-19
 -1       404 9.63481E-05-2.87871E-05-2.89527E-05-8.77702E-07-1.42923E-18 1.33760E-18
 -1       405 9.68398E-05-2.89032E-05-2.91133E-05-1.16282E-06-1.15083E-18 7.48201E-19
 -1       406 9.74720E-05-2.90596E-05-2.93167E-05-1.51458E-06-3.33056E-19 5.73976E-19
 -1       407 9.82715E-05-2.92676E-05-2.95699E-05-1.93236E-06 1.06072E-18 1.89273E-18
 -1       408 9.92625E-05-2.95404E-05-2.98776E-05-2.40580E-06 7.46376E-19 1.70522E-18
 -1       409 1.00462E-04-2.98936E-05-3.02408E-05-2.90772E-06 6.65086E-20 2.38456E-18
 -1       410 1.01875E-04-3.03447E-05-3.06538E-05-3.38401E-06-6.70982E-20 2.81953E-18
 -1       411 1.03480E-04-3.09123E-05-3.11006E-05-3.74041E-06-2.75061E-20 1.65808E-18
 -1       412 1.05220E-04-3.16113E-05-3.15504E-05-3.82829E-06 2.50620E-19-2.14519E-19
 -1       413 1.06984E-04-3.24423E-05-3.19549E-05-3.43615E-06 7.43697E-19 1.35983E-18
 -1       414 1.08581E-04-3.33672E-05-3.22481E-05-2.30235E-06 1.80973E-19 1.67084E-18
 -1       415 1.09717E-04-3.42654E-05-3.23545E-05-1.76834E-07 1.26529E-18 1.61957E-18
 -1       416 1.09981E-04-3.48749E-05-3.22082E-05 3.03316E-06 1.43369E-18 2.42281E-18
 -1       417 1.08888E-04-3.47639E-05-3.17848E-05 7.01904E-06 9.67371E-19 1.65764E-18
 -1       418 1.06056E-04-3.34507E-05-3.11268E-05 1.08296E-05-2.40905E-19-4.54202E-19
 -1       419 1.01559E-04-3.07525E-05-3.03451E-05 1.29048E-05-1.46212E-18-6.13834E-19
 -1       420 9.63574E-05-2.73088E-05-2.95860E-05 1.17320E-05-7.11471E-19 8.74019E-19
 -1       421 9.21742E-05-2.45750E-05-2.89597E-05 7.09827E-06-8.11011E-19 1.04372E-18
 -1       422 9.05261E-05-2.39399E-05-2.85242E-05 7.66298E-07 1.30721E-19 9.46415E-19
 -1       423 9.15153E-05-2.54663E-05-2.82876E-05-4.40006E-06 2.41544E-18 4.18563E-19
 -1       424 9.37898E-05-2.78512E-05-2.82443E-05-6.51844E-06 2.73961E-18 2.42834E-18
 -1       425 9.56988E-05-2.95645E-05-2.83397E-05-5.76658E-06-3.06067E-19 2.91591E-18
 -1       426 9.63998E-05-2.99676E-05-2.84750E-05-3.74995E-06 7.20686E-19 2.48508E-18
 -1       427 9.60871E-05-2.94798E-05-2.85493E-05-2.06535E-06-1.74820E-18 4.77845E-18
 -1       428 9.58285E-05-2.92041E-05-2.85469E-05-1.39778E-06-2.00480E-18 5.63470E-18
 -1       429 1.01678E-04-3.06696E-05-3.03939E-05 1.06076E-05 1.93160E-18 1.18675E-18
 -1       430 1.00036E-04-3.09488E-05-2.95910E-05 3.58200E-06-1.08462E-18-5.64395E-19
 -1       431 9.77170E-05-3.00454E-05-2.89872E-05 3.24834E-08-2.22320E-18 3.46226E-18
 -1       432 1.00861E-04-2.80294E-05-3.11797E-05 1.90151E-05-7.52403E-20-2.15946E-18
 -1       433 9.58942E-05-2.17869E-05-3.17394E-05 2.57708E-05-8.83290E-19-1.73571E-18
 -1       434 8.67737E-05-1.23199E-05-3.18873E-05 2.57928E-05-3.32526E-18 2.04105E-18
 -1       435 7.73892E-05-3.23998E-06-3.17516E-05 1.56313E-05-2.50154E-18 2.65737E-18
 -1       436 7.40435E-05-4.78378E-08-3.16741E-05-2.07893E-06-8.37041E-20 1.56847E-18
 -1       437 7.94378E-05-5.06747E-06-3.18446E-05-1.85355E-05 7.06875E-20 5.11661E-19
 -1       438 8.91127E-05-1.44420E-05-3.19827E-05-2.59805E-05 3.54397E-18 9.01551E-19
 -1       439 9.73097E-05-2.31482E-05-3.17589E-05-2.39170E-05 5.81413E-18 5.80024E-19
 -1       440 1.00991E-04-2.82675E-05-3.11314E-05-1.64909E-05 4.00925E-18-6.69308E-19
 -1       441 1.00802E-04-3.00158E-05-3.02976E-05-8.33447E-06 6.62435E-19-1.15473E-18
 -1       442 7.09611E-05-4.87518E-05-9.54332E-06 5.28173E-05 7.97376E-19-1.91244E-18
 -1       443 1.77322E-05-2.15927E-05 1.84681E-06 8.42036E-07 3.05178E-18 9.81976E-18
 -1       444 2.85992E-05-3.33092E-05 1.62449E-06 3.21529E-05 3.99376E-19 4.89627E-18
 -1       445 1.04928E-04-5.92122E-05-1.97274E-05 5.06218E-05 2.75677E-18-4.29387E-18
 -1       446 1.43446E-04-6.12751E-05-3.52311E-05 3.40643E-05 1.91112E-18-2.84900E-18
 -1       447 8.93402E-05-1.18584E-05-3.32804E-05-1.06800E-05-6.21224E-19-8.64513E-19
 -1       448 1.70483E-04-2.65938E-05-6.13560E-05 6.77968E-06 1.22767E-18 5.71006E-19
 -1       449 1.70521E-04-1.47587E-05-6.64114E-05 5.20802E-06 2.77128E-18-1.47251E-19
 -1       450 1.60423E-04-1.31283E-05-6.32676E-05 8.99555E-06 4.08577E-18-3.34631E-19
 -1       451 1.60705E-04-3.44847E-05-5.43108E-05 7.23605E-06 2.39673E-18-2.69462E-19
 -1       452 1.56691E-04-5.07343E-05-4.54440E-05-6.15389E-06 2.01485E-18 9.60429E-19
 -1       453 1.34346E-04-6.22474E-05-3.09608E-05-2.63594E-05 1.63218E-18-4.63645E-19
 -1       454 1.04393E-04-6.02258E-05-1.88520E-05-4.02244E-05 1.22290E-18-1.68454E-19
 -1       455 4.93014E-05-4.21814E-05-3.13067E-06-4.07107E-05-6.16852E-19-2.75879E-18
 -1       456 2.33729E-05-3.15115E-05 3.47741E-06-2.57553E-05 1.16044E-19-3.94474E-18
 -1       457 1.21763E-05-2.81341E-05 6.65948E-06 2.14025E-06-4.73630E-19-3.56622E-18
 -1       458 3.10732E-05-3.56289E-05 1.89383E-06 3.07772E-05-1.20670E-18-3.24752E-18
 -1       459 6.02767E-05-4.79925E-05-5.41737E-06 4.15787E-05-1.35462E-18-2.86811E-18
 -1       460 1.07436E-04-6.17135E-05-1.95556E-05 3.80232E-05-2.40663E-19-9.54050E-19
 -1       461 1.37992E-04-6.04882E-05-3.32795E-05 2.34378E-05-3.09866E-18-4.66080E-19
 -1       462 1.60130E-04-4.80853E-05-4.78942E-05 6.56699E-06-1.01328E-18-3.41778E-19
 -1       463 1.69637E-04-3.04659E-05-5.94058E-05-5.37131E-06-3.34896E-18 9.92405E-19
 -1       464 1.65452E-04-1.50006E-05-6.44119E-05-9.35387E-06-5.13577E-18 1.72059E-18
 -1       465 1.65809E-04-1.46702E-05-6.46571E-05-4.10897E-06-3.98614E-18 9.97222E-19
 -1       466 1.72117E-04-2.93316E-05-6.07699E-05-8.70728E-06-4.78404E-18 1.85818E-19
 -1       467 1.63074E-04-4.76467E-05-4.93350E-05-1.66330E-05-5.59197E-18-7.45495E-19
 -1       468 1.44453E-04-6.16795E-05-3.54239E-05-3.33415E-05-4.08270E-18-5.96735E-19
 -1       469 1.05427E-04-5.83464E-05-2.03687E-05-4.99830E-05-3.38241E-18 4.56784E-18
 -1       470 6.48616E-05-4.88096E-05-7.27888E-06-5.01163E-05-2.91993E-18 9.42843E-18
 -1       471 3.17783E-05-3.42862E-05 7.62688E-07-3.48654E-05-9.56935E-19 1.02589E-17
 -1       472 1.63308E-04-4.48283E-05-5.06579E-05 1.27640E-05-8.77473E-19 7.53224E-19
 -1       473 8.64609E-05-5.31294E-05-1.39344E-05-4.37471E-05-2.71882E-18-3.59237E-18
 -1       474 9.58252E-05-2.51498E-05-3.02752E-05 6.01420E-06 9.71520E-19 1.03245E-18
 -1       475 8.95351E-05-1.33990E-05-3.26488E-05-3.92346E-06 2.94444E-20-7.81516E-19
 -1       476 9.02420E-05-1.43607E-05-3.25408E-05-5.88141E-06-1.58667E-19-9.04363E-19
 -1       477 8.90365E-05-1.27186E-05-3.27254E-05 5.47009E-08 4.41965E-19-6.02217E-19
 -1       478 8.91721E-05-1.29024E-05-3.27051E-05 2.04490E-06 5.61182E-19-6.89462E-19
 -1       479 8.95670E-05-1.34397E-05-3.26452E-05 3.99676E-06 7.32735E-19-6.21242E-19
 -1       480 9.02930E-05-1.44275E-05-3.25349E-05 5.94968E-06 9.90428E-19-1.73008E-19
 -1       481 9.14435E-05-1.60072E-05-3.23529E-05 7.77773E-06 1.10472E-18 8.01737E-20
 -1       482 9.32332E-05-1.84783E-05-3.20580E-05 9.29249E-06 1.20358E-18 4.54016E-19
 -1       483 9.51187E-05-2.65797E-05-2.93559E-05 2.87051E-06 8.10951E-19 9.25424E-19
 -1       484 9.54675E-05-2.44151E-05-3.04376E-05-5.81393E-06-5.99673E-19-2.08119E-19
 -1       485 1.47097E-04-3.39076E-05-4.90615E-05-7.22155E-06 3.00750E-19 1.38702E-18
 -1       486 9.53166E-05-2.62821E-05-2.95833E-05-2.89600E-06-5.36131E-19-4.34069E-20
 -1       487 9.49213E-05-2.71627E-05-2.90352E-05-1.02907E-06-4.09292E-19 1.05027E-19
 -1       488 9.46451E-05-2.76945E-05-2.86914E-05 9.44401E-08-2.54372E-19 5.95303E-20
 -1       489 9.44888E-05-2.80211E-05-2.84856E-05 7.29236E-07-1.88646E-19 5.65781E-20
 -1       490 9.44335E-05-2.82330E-05-2.83716E-05 1.04610E-06-3.72545E-19-3.06764E-19
 -1       491 9.44487E-05-2.83742E-05-2.83178E-05 1.16030E-06-5.55599E-19-9.94669E-19
 -1       492 9.45074E-05-2.84686E-05-2.83026E-05 1.14963E-06-1.01592E-18-1.03553E-18
 -1       493 9.45888E-05-2.85302E-05-2.83112E-05 1.06695E-06-8.22748E-19-8.18634E-19
 -1       494 9.46789E-05-2.85683E-05-2.83335E-05 9.48161E-07-2.48832E-19-3.78918E-19
 -1       495 9.47688E-05-2.85892E-05-2.83631E-05 8.17532E-07 3.94874E-20-2.58846E-19
 -1       496 9.48539E-05-2.85974E-05-2.83959E-05 6.91373E-07 2.03452E-19-4.02666E-19
 -1       497 9.49322E-05-2.85961E-05-2.84300E-05 5.80707E-07-2.66139E-20-7.05668E-20
 -1       498 9.50041E-05-2.85877E-05-2.84644E-05 4.93250E-07-4.68584E-19 3.46223E-19
 -1       499 9.50715E-05-2.85734E-05-2.84993E-05 4.34900E-07-3.08429E-19 6.49849E-20
 -1       500 9.51375E-05-2.85540E-05-2.85358E-05 4.10881E-07 1.77078E-19-1.59628E-19
 -1       501 9.52064E-05-2.85301E-05-2.85755E-05 4.26625E-07-2.79564E-19-5.31833E-20
 -1       502 9.52832E-05-2.85015E-05-2.86206E-05 4.88441E-07-4.23108E-19-7.50772E-20
 -1       503 9.53740E-05-2.84682E-05-2.86736E-05 6.04004E-07 1.07557E-19-4.36889E-19
 -1       504 9.54858E-05-2.84301E-05-2.87378E-05 7.82637E-07 8.89295E-19 9.62611E-20
 -1       505 9.56267E-05-2.83873E-05-2.88163E-05 1.03539E-06 2.71466E-19 1.69397E-19
 -1       506 9.58056E-05-2.83408E-05-2.89127E-05 1.37478E-06 1.48896E-20-6.64899E-19
 -1       507 9.60327E-05-2.82928E-05-2.90304E-05 1.81411E-06-1.27089E-19-1.12664E-18
 -1       508 9.63196E-05-2.82479E-05-2.91723E-05 2.36610E-06-2.73147E-19-6.69129E-19
 -1       509 9.66793E-05-2.82152E-05-2.93402E-05 3.04036E-06 7.41378E-20-1.11168E-19
 -1       510 9.71277E-05-2.82112E-05-2.95339E-05 3.83938E-06-3.46177E-19-1.17436E-18
 -1       511 9.76861E-05-2.82652E-05-2.97499E-05 4.75195E-06 3.31276E-19-3.36744E-19
 -1       512 9.83863E-05-2.84280E-05-2.99802E-05 5.74314E-06 8.16854E-19-8.78891E-20
 -1       513 9.92795E-05-2.87833E-05-3.02112E-05 6.73938E-06 2.33648E-19 1.27755E-18
 -1       514 1.00451E-04-2.94620E-05-3.04233E-05 7.60731E-06 2.89948E-19 1.18311E-19
 -1       515 1.02036E-04-3.06524E-05-3.05948E-05 8.12564E-06 2.62281E-19-3.26949E-19
 -1       516 1.04233E-04-3.25854E-05-3.07111E-05 7.95146E-06-1.02736E-18 5.08816E-19
 -1       517 1.07266E-04-3.54515E-05-3.07871E-05 6.59067E-06 1.59001E-20 1.17614E-18
 -1       518 1.11238E-04-3.91683E-05-3.09003E-05 3.42337E-06 1.25403E-18 1.80928E-18
 -1       519 1.15819E-04-4.29798E-05-3.12324E-05-2.12397E-06 8.36530E-19 2.27504E-18
 -1       520 1.19704E-04-4.48931E-05-3.20841E-05-9.97152E-06-2.47484E-19 2.10857E-18
 -1       521 1.20628E-04-4.20455E-05-3.37396E-05-1.81854E-05-2.75650E-20 2.38208E-18
 -1       522 1.16967E-04-3.30539E-05-3.60491E-05-2.22075E-05 4.76638E-19 2.45849E-18
 -1       523 1.10389E-04-2.19268E-05-3.81343E-05-1.71483E-05-1.56673E-18 1.81404E-18
 -1       524 1.07784E-04-1.77368E-05-3.87822E-05-4.17594E-06-2.94083E-18 8.13734E-19
 -1       525 1.10696E-04-2.40933E-05-3.72711E-05 7.14785E-06-1.30436E-18-3.72762E-19
 -1       526 1.15076E-04-3.44002E-05-3.46555E-05 9.78962E-06-6.84876E-19-1.72131E-18
 -1       527 1.15547E-04-4.02222E-05-3.23123E-05 4.98107E-06 3.12679E-19-2.69569E-18
 -1       528 1.11389E-04-3.93413E-05-3.08951E-05-1.49914E-06-4.57667E-19-2.90829E-18
 -1       529 9.41481E-05-2.76871E-05-2.84797E-05-1.23651E-07 3.10084E-19 9.02772E-19
 -1       530 9.39728E-05-2.79349E-05-2.83006E-05-7.32811E-07 6.15007E-20 7.68175E-19
 -1       531 9.39430E-05-2.81067E-05-2.82153E-05-1.03013E-06 1.34533E-19 8.02992E-19
 -1       532 9.40063E-05-2.82328E-05-2.81888E-05-1.13231E-06 3.75170E-19 6.73328E-19
 -1       533 9.41222E-05-2.83276E-05-2.81981E-05-1.11589E-06-6.82935E-20 4.11749E-19
 -1       534 9.42620E-05-2.83987E-05-2.82277E-05-1.03171E-06 8.94553E-20 3.65017E-19
 -1       535 9.44071E-05-2.84511E-05-2.82674E-05-9.13842E-07 4.03010E-19 8.18245E-19
 -1       536 9.45463E-05-2.84885E-05-2.83110E-05-7.85094E-07 3.87123E-19 5.64366E-19
 -1       537 9.46741E-05-2.85140E-05-2.83548E-05-6.60624E-07 3.58143E-19-1.58929E-20
 -1       538 9.47885E-05-2.85299E-05-2.83970E-05-5.50531E-07 6.11183E-19-2.59296E-19
 -1       539 9.48906E-05-2.85383E-05-2.84370E-05-4.61741E-07 8.24036E-19 2.37573E-19
 -1       540 9.49833E-05-2.85407E-05-2.84756E-05-3.99398E-07 1.25379E-18 3.39042E-19
 -1       541 9.50713E-05-2.85386E-05-2.85141E-05-3.67925E-07 5.22582E-19 1.07227E-18
 -1       542 9.51603E-05-2.85331E-05-2.85544E-05-3.71825E-07 8.28866E-20 6.34734E-19
 -1       543 9.52574E-05-2.85255E-05-2.85992E-05-4.16267E-07-6.86910E-19 8.00812E-19
 -1       544 9.53709E-05-2.85171E-05-2.86513E-05-5.07481E-07 3.13454E-19 6.12745E-19
 -1       545 9.55106E-05-2.85094E-05-2.87143E-05-6.52929E-07 4.27919E-19-4.49707E-19
 -1       546 9.56876E-05-2.85047E-05-2.87919E-05-8.61230E-07-6.44568E-20 4.55569E-19
 -1       547 9.59147E-05-2.85063E-05-2.88883E-05-1.14170E-06-7.93885E-19 1.14467E-20
 -1       548 9.62062E-05-2.85190E-05-2.90074E-05-1.50341E-06-9.94925E-19-5.29517E-19
 -1       549 9.65783E-05-2.85504E-05-2.91532E-05-1.95342E-06-5.52133E-19-9.52584E-19
 -1       550 9.70487E-05-2.86116E-05-2.93283E-05-2.49391E-06-4.80790E-20-4.73516E-19
 -1       551 9.76370E-05-2.87197E-05-2.95339E-05-3.11767E-06 6.59657E-19 8.03787E-20
 -1       552 9.83648E-05-2.89009E-05-2.97682E-05-3.80132E-06 1.36717E-19 5.26382E-19
 -1       553 9.92566E-05-2.91938E-05-3.00252E-05-4.49551E-06-5.83564E-19 3.03878E-19
 -1       554 1.00341E-04-2.96542E-05-3.02936E-05-5.11179E-06 5.96424E-19 9.19020E-19
 -1       555 1.01652E-04-3.03570E-05-3.05558E-05-5.50654E-06 3.48220E-19 9.25944E-19
 -1       556 1.03224E-04-3.13899E-05-3.07897E-05-5.46510E-06-6.85362E-19 2.42094E-18
 -1       557 1.05082E-04-3.28263E-05-3.09737E-05-4.69501E-06 3.71360E-19 4.58635E-18
 -1       558 1.07191E-04-3.46568E-05-3.10973E-05-2.84868E-06 6.66301E-19 4.84609E-18
 -1       559 1.09376E-04-3.66611E-05-3.11779E-05 3.87283E-07 1.11018E-18 4.59827E-18
 -1       560 1.11179E-04-3.82348E-05-3.12746E-05 5.07982E-06 2.44511E-18 3.42669E-18
 -1       561 1.11776E-04-3.83189E-05-3.14935E-05 1.06508E-05 1.19254E-18 3.99291E-18
 -1       562 1.10267E-04-3.58183E-05-3.19195E-05 1.54959E-05 2.37862E-19 3.42976E-18
 -1       563 1.06414E-04-3.05698E-05-3.25078E-05 1.70735E-05-1.94669E-18 1.35906E-18
 -1       564 1.01708E-04-2.46724E-05-3.30327E-05 1.34524E-05-4.01937E-19 9.84464E-19
 -1       565 9.88601E-05-2.16213E-05-3.31247E-05 5.39106E-06 7.22668E-19 6.10031E-19
 -1       566 9.94318E-05-2.34391E-05-3.25870E-05-2.93445E-06 1.44974E-18 9.73142E-19
 -1       567 1.02021E-04-2.82555E-05-3.16228E-05-7.50775E-06 1.48224E-18 2.36924E-18
 -1       568 1.03870E-04-3.24056E-05-3.06311E-05-7.23508E-06 8.53077E-19 3.12124E-18
 -1       569 1.03414E-04-3.36903E-05-2.98948E-05-4.28868E-06 9.00396E-19 2.49734E-18
 -1       570 1.01007E-04-3.23849E-05-2.94138E-05-1.29419E-06-2.59942E-18 4.12214E-18
 -1       571 1.08022E-04-3.74836E-05-3.01795E-05 2.71445E-05 6.87662E-19-4.00494E-18
 -1       572 9.65956E-05-3.02114E-05-2.83535E-05 3.49530E-05-1.79429E-18-2.43891E-18
 -1       573 1.07385E-04-3.62668E-05-3.04589E-05 6.12855E-06-1.73397E-18 2.08988E-18
 -1       574 1.10416E-04-3.85326E-05-3.07814E-05 1.58147E-05-1.39044E-19 2.33993E-19
 -1       575 7.73682E-05-1.70018E-05-2.56256E-05 3.07497E-05-4.40340E-18 1.93236E-18
 -1       576 6.29486E-05-6.91229E-06-2.37708E-05 1.04380E-05-4.03950E-18 4.52326E-18
 -1       577 6.53684E-05-8.60467E-06-2.40813E-05-1.61470E-05 3.00065E-19 2.66466E-18
 -1       578 8.22637E-05-2.04186E-05-2.63219E-05-3.24392E-05 4.88565E-18 4.04906E-18
 -1       579 1.00116E-04-3.24574E-05-2.89121E-05-3.30181E-05 4.64829E-18 5.65629E-19
 -1       580 1.09016E-04-3.79139E-05-3.04332E-05-2.36535E-05 3.86392E-18-5.31444E-19
 -1       581 1.09403E-04-3.76468E-05-3.07392E-05-1.25520E-05 1.85624E-18-3.62019E-18
 -1       582 3.50250E-05-1.80279E-05-6.64644E-06 2.30523E-05-1.57680E-18 4.20128E-18
 -1       583 5.87524E-05-3.30215E-05-1.05373E-05 4.63710E-05-2.59653E-18 5.02396E-19
 -1       584 3.88210E-05-1.64480E-05-8.90618E-06-2.32499E-05-4.97897E-19 1.08534E-17
 -1       585 9.45256E-05-2.72943E-05-2.88047E-05 9.80446E-07 4.70511E-19 9.87675E-19
 -1       586 1.03879E-04-5.61152E-05-2.00723E-05 5.13410E-05 1.49342E-19-4.51780E-18
 -1       587 9.45986E-05-2.07040E-05-3.16881E-05-9.56464E-06-7.41015E-19-3.80954E-19
 -1       588 1.51051E-04-5.93853E-05-3.95460E-05 9.05284E-06-7.26068E-19 5.00438E-19
 -1       589 2.59312E-05-1.80635E-05-2.66716E-06-1.22474E-05-6.66602E-19-3.65685E-18
 -1       590 1.40293E-04-2.07696E-05-5.19228E-05 1.87079E-05 2.51616E-18 3.59804E-18
 -1       591 8.91521E-05-1.28771E-05-3.27074E-05-1.93618E-06 1.85357E-19-6.96484E-19
 -1       592 1.39683E-04-7.15683E-06-5.73687E-05 4.92827E-06 2.60124E-18 3.82366E-19
 -1       593 2.91709E-05-2.04848E-05-3.08173E-06 1.82577E-05-4.14755E-19-4.99675E-18
 -1       594 1.42982E-04-1.54485E-05-5.53240E-05-4.78406E-06 1.96035E-18-3.43048E-19
 -1       595 1.46887E-04-4.60754E-05-4.36610E-05 1.38669E-05 8.91317E-19 1.25340E-18
 -1       596 1.44812E-04-6.22517E-05-3.55768E-05-3.80823E-06 5.70827E-19 1.63520E-18
 -1       597 1.30736E-04-6.59436E-05-2.77313E-05-2.22458E-05-2.79309E-19 1.00493E-18
 -1       598 5.01591E-05-3.02227E-05-7.87262E-06-3.52373E-05-1.95958E-18-3.33519E-20
 -1       599 1.32841E-04-6.74760E-05-2.79482E-05 2.04581E-05-6.46868E-19-8.50977E-19
 -1       600 5.84439E-05-3.80581E-05-8.20680E-06 3.89040E-05 4.92603E-19-4.70474E-19
 -1       601 9.57021E-05-5.69050E-05-1.63324E-05 3.95331E-05 1.42259E-18-1.29169E-18
 -1       602 1.48644E-04-6.12060E-05-3.77047E-05 1.31656E-06-2.16821E-18-2.46434E-19
 -1       603 1.50344E-04-4.02700E-05-4.76177E-05-1.70415E-05-2.57329E-18 6.88320E-19
 -1       604 1.44390E-04-2.10930E-05-5.34636E-05-1.90473E-05-3.64775E-18 1.16282E-18
 -1       605 1.37935E-04-7.85621E-06-5.64276E-05-6.48249E-06-4.49722E-18-5.78543E-19
 -1       606 1.44758E-04-2.10102E-05-5.36874E-05 6.44293E-06-3.44012E-18-9.63500E-19
 -1       607 1.52083E-04-4.02676E-05-4.83967E-05 4.58829E-06-4.32162E-18-1.66262E-18
 -1       608 1.52867E-04-6.01728E-05-3.99379E-05-1.05962E-05-3.42158E-18-1.92070E-18
 -1       609 1.31427E-04-6.69922E-05-2.75945E-05-3.87881E-05-4.98373E-19-7.74162E-19
 -1       610 1.01078E-04-5.60292E-05-1.89449E-05-5.14980E-05 2.94609E-19 1.81093E-18
 -1       611 6.20099E-05-3.65743E-05-1.04261E-05-4.81101E-05 1.66977E-18 9.21429E-18
 -1       612 9.61651E-05-2.31916E-05-3.12779E-05 9.57963E-06 1.14467E-18 1.27135E-18
 -1       613 1.34700E-04-6.64578E-05-2.91879E-05 3.62339E-05 1.48088E-18-3.69031E-18
 -1       614 9.13553E-05-1.58589E-05-3.23779E-05-7.78521E-06-3.45105E-19-7.71664E-19
 -1       615 4.21887E-05-1.00567E-05-1.31412E-05-2.28618E-06-2.73385E-18 7.74924E-18
 -1       616 1.26978E-04-1.16146E-05-4.99638E-05 1.32209E-05 2.30462E-18 4.52878E-18
 -1       617 1.14687E-04-6.19882E-05-2.24209E-05-3.15961E-05-2.26933E-18 1.03634E-18
 -1       618 1.06957E-04-3.60650E-05-3.03791E-05-4.55043E-06-8.72513E-19-1.90194E-18
 -1       619 9.15494E-05-1.68491E-05-3.20200E-05 2.44038E-06 5.81664E-19-6.33691E-19
 -1       620 9.12890E-05-1.64459E-05-3.20811E-05 8.38858E-07 4.31769E-19-4.84847E-19
 -1       621 9.28909E-05-1.89991E-05-3.16736E-05 5.26124E-06 9.25358E-19 2.94708E-20
 -1       622 9.39833E-05-2.09280E-05-3.13173E-05 6.14058E-06 9.49813E-19 1.94346E-19
 -1       623 9.52744E-05-2.40953E-05-3.04949E-05 5.14399E-06 8.96705E-19 6.44513E-19
 -1       624 9.53387E-05-2.59434E-05-2.97370E-05 2.59800E-06 6.08358E-19 5.51223E-19
 -1       625 8.87376E-05-3.83055E-05-2.12543E-05 4.61149E-05-6.49171E-19-2.01835E-18
 -1       626 9.54416E-05-2.57333E-05-2.98696E-05-2.43229E-06-3.59390E-19-2.13620E-19
 -1       627 9.54738E-05-2.69458E-05-2.93685E-05-8.61987E-07-3.95472E-19-1.61623E-19
 -1       628 9.54198E-05-2.77072E-05-2.90194E-05 1.37291E-07-2.91763E-19-4.45174E-19
 -1       629 9.53434E-05-2.81796E-05-2.87844E-05 7.23808E-07-5.32245E-19-7.37310E-19
 -1       630 9.52786E-05-2.84711E-05-2.86318E-05 1.02415E-06-7.48931E-19-6.01069E-19
 -1       631 9.52331E-05-2.86453E-05-2.85377E-05 1.13464E-06-5.96750E-19-1.56223E-19
 -1       632 9.52053E-05-2.87419E-05-2.84844E-05 1.12550E-06-2.95702E-19 7.81324E-19
 -1       633 9.51912E-05-2.87866E-05-2.84592E-05 1.04677E-06-3.45372E-19 8.91204E-19
 -1       634 9.51866E-05-2.87967E-05-2.84529E-05 9.33512E-07-2.29449E-19 6.01210E-19
 -1       635 9.51885E-05-2.87838E-05-2.84592E-05 8.09970E-07-7.76159E-20 3.99881E-19
 -1       636 9.51945E-05-2.87555E-05-2.84739E-05 6.92829E-07 1.19697E-19 2.13224E-19
 -1       637 9.52032E-05-2.87165E-05-2.84944E-05 5.93720E-07 5.73092E-20 1.49500E-19
 -1       638 9.52138E-05-2.86692E-05-2.85192E-05 5.21158E-07-6.32209E-19 1.10856E-18
 -1       639 9.52261E-05-2.86144E-05-2.85479E-05 4.82013E-07-1.00615E-18 9.13838E-19
 -1       640 9.52400E-05-2.85516E-05-2.85808E-05 4.82646E-07-4.06594E-19-3.21891E-19
 -1       641 9.52560E-05-2.84790E-05-2.86187E-05 5.29786E-07-1.14020E-19-8.91514E-19
 -1       642 9.52742E-05-2.83943E-05-2.86628E-05 6.31162E-07-1.82939E-19-2.34990E-19
 -1       643 9.52954E-05-2.82946E-05-2.87145E-05 7.95905E-07 4.89970E-19-7.19195E-19
 -1       644 9.53198E-05-2.81767E-05-2.87755E-05 1.03472E-06 5.98627E-19-1.16405E-18
 -1       645 9.53480E-05-2.80379E-05-2.88470E-05 1.35979E-06-1.59843E-19-3.07270E-19
 -1       646 9.53801E-05-2.78763E-05-2.89300E-05 1.78430E-06-4.88039E-19-6.89308E-20
 -1       647 9.54170E-05-2.76925E-05-2.90244E-05 2.32150E-06 4.59484E-19-1.93224E-19
 -1       648 9.54601E-05-2.74917E-05-2.91288E-05 2.98312E-06 1.51822E-19 6.65093E-19
 -1       649 9.55139E-05-2.72871E-05-2.92395E-05 3.77689E-06 1.06445E-19-1.80852E-19
 -1       650 9.55895E-05-2.71059E-05-2.93495E-05 4.70301E-06 2.68008E-19 8.29814E-19
 -1       651 9.57116E-05-2.69988E-05-2.94477E-05 5.74905E-06 3.86079E-20 3.75183E-19
 -1       652 9.59314E-05-2.70539E-05-2.95182E-05 6.88301E-06 1.40074E-18 3.57513E-19
 -1       653 9.63476E-05-2.74163E-05-2.95414E-05 8.04340E-06 5.44900E-19-2.45355E-19
 -1       654 9.71373E-05-2.83105E-05-2.94970E-05 9.12384E-06-6.41441E-20 7.60029E-19
 -1       655 9.85955E-05-3.00557E-05-2.93746E-05 9.94578E-06-6.75414E-19 1.24813E-18
 -1       656 1.01166E-04-3.30462E-05-2.91952E-05 1.02063E-05-1.15565E-19 1.61393E-18
 -1       657 1.05420E-04-3.76299E-05-2.90549E-05 9.36446E-06 1.48918E-19 1.86661E-18
 -1       658 1.11768E-04-4.36640E-05-2.91864E-05 6.56055E-06 1.37609E-18 1.30648E-18
 -1       659 1.19987E-04-4.98910E-05-3.00488E-05 5.10867E-07 1.73258E-19 1.65444E-18
 -1       660 1.27664E-04-5.22107E-05-3.23914E-05-9.22024E-06 8.05310E-20 2.53323E-18
 -1       661 1.30588E-04-4.54255E-05-3.66550E-05-2.00070E-05-5.21097E-19 3.75946E-18
 -1       662 1.18345E-04-1.42799E-05-4.50684E-05-1.22674E-05-2.40144E-18-1.61101E-18
 -1       663 1.19387E-04-1.54783E-05-4.50230E-05 4.12880E-06-3.21576E-18-1.65208E-18
 -1       664 1.25901E-04-3.26043E-05-4.03180E-05 1.12915E-05-1.92171E-18-1.98868E-18
 -1       665 1.28231E-04-4.59542E-05-3.53766E-05 4.99705E-06-1.29626E-18-4.02983E-18
 -1       666 1.22533E-04-4.75018E-05-3.21850E-05-4.69043E-06-1.36921E-18-5.57363E-18
 -1       667 9.49847E-05-2.81163E-05-2.86577E-05-7.38861E-07 2.27570E-19 5.34056E-19
 -1       668 9.50905E-05-2.77035E-05-2.88793E-05-1.29531E-07 2.96481E-19 7.42937E-19
 -1       669 9.49015E-05-2.85292E-05-2.84453E-05-1.15883E-06 3.08848E-19 3.61767E-19
 -1       670 9.49093E-05-2.86238E-05-2.84083E-05-1.14807E-06-1.02568E-20 3.36481E-19
 -1       671 9.49351E-05-2.86752E-05-2.83973E-05-1.06626E-06 1.79086E-19 4.29391E-19
 -1       672 9.49704E-05-2.86972E-05-2.84030E-05-9.49077E-07 5.19190E-19 3.47874E-19
 -1       673 9.50096E-05-2.86990E-05-2.84190E-05-8.20954E-07 3.99583E-19 3.50022E-19
 -1       674 9.50494E-05-2.86870E-05-2.84412E-05-6.98529E-07 4.61404E-19 6.37042E-19
 -1       675 9.50883E-05-2.86650E-05-2.84673E-05-5.93243E-07 4.51816E-19 4.77372E-19
 -1       676 9.51259E-05-2.86355E-05-2.84960E-05-5.13302E-07 8.62447E-19 2.04386E-19
 -1       677 9.51631E-05-2.85997E-05-2.85272E-05-4.65153E-07 4.16551E-19 9.93741E-19
 -1       678 9.52012E-05-2.85577E-05-2.85615E-05-4.54615E-07 1.30670E-19 1.43307E-18
 -1       679 9.52426E-05-2.85091E-05-2.86000E-05-4.87719E-07-7.19083E-20 1.57245E-18
 -1       680 9.52898E-05-2.84529E-05-2.86443E-05-5.71292E-07 3.73814E-20 5.45032E-20
 -1       681 9.53464E-05-2.83882E-05-2.86962E-05-7.13310E-07 6.18917E-19 4.05031E-19
 -1       682 9.54163E-05-2.83141E-05-2.87578E-05-9.22963E-07 1.76953E-19 8.90258E-19
 -1       683 9.55042E-05-2.82309E-05-2.88311E-05-1.21040E-06 2.69585E-19 9.16983E-19
 -1       684 9.56160E-05-2.81403E-05-2.89177E-05-1.58601E-06-8.46710E-19 6.65007E-19
 -1       685 9.57591E-05-2.80472E-05-2.90188E-05-2.05913E-06-5.38649E-19 6.01312E-19
 -1       686 9.59432E-05-2.79616E-05-2.91343E-05-2.63585E-06-3.83748E-19 7.14953E-19
 -1       687 9.61821E-05-2.79014E-05-2.92624E-05-3.31574E-06-1.06193E-19 1.31202E-19
 -1       688 9.64968E-05-2.78974E-05-2.93989E-05-4.08697E-06 2.68148E-19 5.78339E-19
 -1       689 9.69199E-05-2.79994E-05-2.95366E-05-4.91938E-06-1.88707E-19 3.75934E-19
 -1       690 9.75038E-05-2.82844E-05-2.96648E-05-5.75501E-06-5.84645E-19 6.21895E-19
 -1       691 9.83309E-05-2.88652E-05-2.97708E-05-6.49518E-06-2.64111E-20 1.55745E-18
 -1       692 9.95252E-05-2.98942E-05-2.98424E-05-6.98367E-06-1.07109E-18 1.86557E-18
 -1       693 1.01257E-04-3.15503E-05-2.98759E-05-6.98595E-06-1.22921E-18 8.09741E-19
 -1       694 1.03720E-04-3.39848E-05-2.98897E-05-6.16744E-06-1.97085E-19 1.41931E-18
 -1       695 1.07046E-04-3.71836E-05-2.99462E-05-4.08855E-06 1.51953E-18 2.52916E-18
 -1       696 1.11117E-04-4.07227E-05-3.01755E-05-2.74626E-07 2.41085E-18 2.56639E-18
 -1       697 1.15222E-04-4.33903E-05-3.07829E-05 5.55501E-06 1.33545E-18 4.04017E-18
 -1       698 1.17658E-04-4.29528E-05-3.20359E-05 1.26986E-05 5.77535E-19 4.98156E-18
 -1       699 1.16841E-04-3.75884E-05-3.40263E-05 1.88135E-05 6.26927E-19 4.43752E-18
 -1       700 1.12275E-04-2.78746E-05-3.62299E-05 1.93366E-05-3.62874E-19 2.17028E-18
 -1       701 1.06644E-04-1.85610E-05-3.79089E-05 1.21137E-05-3.34843E-21-1.63292E-19
 -1       702 1.06752E-04-1.89615E-05-3.77237E-05 3.87037E-07 1.64268E-18 4.29876E-19
 -1       703 1.09843E-04-2.56650E-05-3.61402E-05-7.52852E-06 6.28002E-19-1.65869E-18
 -1       704 1.13586E-04-3.46400E-05-3.38719E-05-8.12178E-06-4.70140E-19 4.07723E-19
 -1       705 1.13106E-04-3.87036E-05-3.18991E-05-3.63915E-06 1.83458E-19 2.89211E-18
 -1       706 1.11453E-04-3.90251E-05-3.10383E-05 1.65177E-06-3.59795E-19 2.82484E-18
 -1       707 5.89774E-05-1.61659E-05-1.77499E-05 2.94230E-05-3.56758E-18 3.27675E-18
 -1       708 1.15874E-04-4.32135E-05-3.11533E-05-9.76132E-06 1.39553E-18-5.44342E-18
 -1       709 1.14526E-04-4.86881E-05-2.81219E-05 3.51082E-05-1.66343E-19-3.13749E-18
 -1       710 6.52838E-05-2.11304E-05-1.83765E-05-3.56060E-05 2.83759E-18 7.14043E-18
 -1       711 9.66753E-05-3.90864E-05-2.43765E-05-4.18337E-05 4.35236E-18 2.08000E-18
 -1       712 1.15968E-04-4.79535E-05-2.90561E-05-3.03660E-05 9.24047E-19-2.49122E-18
 -1       713 1.18998E-04-4.73068E-05-3.06793E-05-1.92122E-05 1.00618E-18-2.05279E-18
 -1       714 8.81268E-05-4.14722E-05-1.95284E-05-4.69432E-05 2.23731E-18 4.39179E-18
 -1       715 1.32233E-04-3.25818E-05-4.30723E-05 2.13878E-05 1.97409E-18 6.65596E-18
 -1       716 9.46098E-05-2.22011E-05-3.10301E-05-6.02923E-06-4.50392E-19-3.68730E-19
 -1       717 3.51925E-05-1.48071E-05-8.16607E-06 3.18516E-06-1.02224E-18-4.20081E-18
 -1       718 1.38940E-04-6.32608E-05-3.24928E-05 8.54528E-07-6.08825E-19 1.40750E-18
 -1       719 9.52290E-05-2.70380E-05-2.92225E-05 9.20563E-07 4.35426E-19 4.75200E-19
 -1       720 9.49225E-05-2.83709E-05-2.85221E-05-1.04698E-06 3.89954E-19 1.89206E-19
 -1       721 1.33587E-04-6.21927E-05-3.05384E-05-6.07078E-06-2.15412E-18 2.67522E-18
 -1       722 1.40095E-04-4.56324E-05-4.08612E-05-4.67043E-06-1.03126E-19 3.26092E-18
 -1       723 1.42725E-04-4.96105E-05-4.02013E-05 3.63030E-06-3.15369E-18-4.06864E-18
 -1       724 9.20745E-05-1.76759E-05-3.18910E-05 3.94639E-06 8.43306E-19-9.08368E-20
 -1       725 9.20388E-05-1.76293E-05-3.18960E-05-3.88611E-06-1.13123E-19-6.87546E-19
 -1       726 4.47525E-05-1.93067E-05-1.03730E-05-2.03252E-05-1.65893E-18-1.14180E-18
 -1       727 5.23092E-05-2.55701E-05-1.09574E-05 2.80342E-05 4.06470E-19-7.72071E-19
 -1       728 1.38006E-04-5.53132E-05-3.56716E-05 9.78925E-06-1.64427E-19 2.99682E-18
 -1       729 1.25209E-04-1.35679E-05-4.84435E-05-1.57212E-05-3.04646E-18-6.89465E-19
 -1       730 7.93755E-05-4.28809E-05-1.52772E-05-3.76476E-05-2.64891E-18-1.62347E-18
 -1       731 8.47273E-05-4.45448E-05-1.68529E-05 3.51169E-05 1.08341E-19 3.84209E-19
 -1       732 1.22080E-04-5.91203E-05-2.67382E-05 3.93148E-05 2.06888E-19-2.99190E-18
 -1       733 1.18198E-04-6.23460E-05-2.37882E-05 2.53703E-05 1.74142E-18-1.58224E-18
 -1       734 1.31437E-04-3.11123E-05-4.34332E-05-2.41028E-05-2.40176E-18 2.76159E-19
 -1       735 1.40974E-04-6.43037E-05-3.29445E-05-1.97889E-05-7.96859E-19-2.68618E-18
 -1       736 1.18816E-04-5.81320E-05-2.58335E-05-4.05223E-05-1.09770E-19-8.03767E-19
 -1       737 1.38753E-04-6.17471E-05-3.30434E-05 1.93804E-05 1.50369E-18-8.98517E-19
 -1       738 9.28180E-05-1.89010E-05-3.16892E-05-5.22250E-06-2.41430E-19-7.72634E-19
 -1       739 9.12820E-05-1.64383E-05-3.20816E-05-7.84807E-07 2.52169E-19-4.35179E-19
 -1       740 1.21157E-04-4.88260E-05-3.09890E-05 1.96039E-05-1.47123E-18-1.91452E-18
 -1       741 6.54761E-05-2.96406E-05-1.50422E-05-3.00327E-05-1.38252E-18-1.08343E-18
 -1       742 1.17752E-04-4.42095E-05-3.15266E-05 8.93836E-06-2.04440E-18 3.71489E-18
 -1       743 1.21626E-04-2.21952E-05-4.30889E-05 2.13226E-05 1.82567E-18 4.10943E-18
 -1       744 1.22330E-04-1.10408E-05-4.81436E-05-1.66200E-06 2.02504E-18 2.73218E-18
 -1       745 1.32727E-04-3.19865E-05-4.37604E-05-9.60802E-06 2.37999E-18 1.70063E-18
 -1       746 9.15286E-05-1.68229E-05-3.20225E-05-2.37544E-06 5.23448E-20-5.23205E-19
 -1       747 1.36374E-04-5.37904E-05-3.54873E-05 4.11744E-06-1.07361E-18 3.57628E-18
 -1       748 1.27084E-04-1.93040E-05-4.65775E-05-6.92824E-06 1.91064E-18 3.07204E-18
 -1       749 1.41061E-04-5.18538E-05-3.85593E-05-1.56696E-05-1.17274E-18 6.09573E-19
 -1       750 7.29656E-05-3.06723E-05-1.78859E-05 2.66403E-05 1.46259E-19 8.67454E-19
 -1       751 9.46280E-05-2.27197E-05-3.08160E-05 3.90697E-06 7.06442E-19 1.82328E-19
 -1       752 4.74777E-05-1.51296E-05-1.35212E-05-6.15863E-06-1.85024E-18-2.06388E-18
 -1       753 9.58670E-05-2.68867E-05-2.95634E-05-5.81017E-07-4.82326E-19-9.92778E-19
 -1       754 9.59593E-05-2.77755E-05-2.92217E-05 2.20185E-07-5.44603E-19-8.60182E-19
 -1       755 9.59481E-05-2.83377E-05-2.89759E-05 6.96661E-07-3.95274E-19-7.82134E-19
 -1       756 9.58878E-05-2.86798E-05-2.88035E-05 9.40216E-07-2.27853E-20-2.97812E-19
 -1       757 9.58077E-05-2.88733E-05-2.86862E-05 1.02575E-06 1.74011E-20-2.18749E-19
 -1       758 9.57233E-05-2.89669E-05-2.86099E-05 1.01083E-06-1.76147E-19 4.80808E-19
 -1       759 9.56425E-05-2.89940E-05-2.85636E-05 9.37883E-07-6.18483E-19 6.38833E-19
 -1       760 9.55691E-05-2.89776E-05-2.85392E-05 8.37367E-07-2.00320E-19 8.19708E-19
 -1       761 9.55043E-05-2.89329E-05-2.85306E-05 7.30737E-07-1.54246E-19 4.62628E-19
 -1       762 9.54480E-05-2.88696E-05-2.85336E-05 6.33076E-07-2.39068E-19 1.37870E-19
 -1       763 9.53987E-05-2.87930E-05-2.85453E-05 5.55242E-07-3.05482E-19 9.36383E-20
 -1       764 9.53543E-05-2.87053E-05-2.85639E-05 5.05527E-07-8.94575E-19 1.35936E-19
 -1       765 9.53124E-05-2.86062E-05-2.85884E-05 4.90936E-07-1.49263E-18 2.60398E-19
 -1       766 9.52696E-05-2.84934E-05-2.86184E-05 5.18212E-07-4.38564E-19-1.30375E-19
 -1       767 9.52220E-05-2.83629E-05-2.86539E-05 5.94588E-07 1.69727E-19 3.94124E-19
 -1       768 9.51651E-05-2.82099E-05-2.86951E-05 7.28281E-07 1.38206E-19 8.05862E-19
 -1       769 9.50934E-05-2.80286E-05-2.87421E-05 9.28754E-07 4.81810E-19 5.55827E-19
 -1       770 9.50007E-05-2.78130E-05-2.87947E-05 1.20674E-06 7.40021E-19-3.49156E-19
 -1       771 9.48797E-05-2.75580E-05-2.88521E-05 1.57401E-06 1.52448E-19-1.19074E-19
 -1       772 9.47224E-05-2.72602E-05-2.89123E-05 2.04281E-06-3.23854E-19 1.42219E-19
 -1       773 9.45206E-05-2.69201E-05-2.89715E-05 2.62499E-06 4.73931E-19-3.75340E-19
 -1       774 9.42677E-05-2.65454E-05-2.90237E-05 3.33085E-06-7.55770E-20-4.71995E-19
 -1       775 9.39616E-05-2.61559E-05-2.90594E-05 4.16782E-06 9.72116E-19 5.60930E-19
 -1       776 9.36105E-05-2.57917E-05-2.90650E-05 5.13937E-06 1.79284E-19 1.32995E-18
 -1       777 9.32436E-05-2.55256E-05-2.90217E-05 6.24453E-06 2.81920E-19 1.98422E-18
 -1       778 9.29290E-05-2.54802E-05-2.89063E-05 7.47853E-06-2.69030E-21 1.38696E-18
 -1       779 9.28029E-05-2.58532E-05-2.86924E-05 8.83388E-06 5.85551E-19 3.35064E-19
 -1       780 9.31150E-05-2.69472E-05-2.83573E-05 1.02978E-05-2.28689E-19-8.52046E-20
 -1       781 9.42944E-05-2.92007E-05-2.78962E-05 1.18300E-05-6.08532E-20 8.13294E-19
 -1       782 9.70124E-05-3.31756E-05-2.73538E-05 1.32902E-05-4.93162E-20 4.37877E-19
 -1       783 1.02371E-04-3.95401E-05-2.69294E-05 1.41175E-05 4.37939E-19 5.32044E-19
 -1       784 1.11395E-04-4.83494E-05-2.69538E-05 1.32969E-05 5.21388E-19-3.17538E-20
 -1       785 1.25592E-04-5.92340E-05-2.84280E-05 8.81715E-06 1.00576E-18 4.63885E-19
 -1       786 1.33475E-04-5.76377E-05-3.24962E-05-5.91852E-06 4.42249E-19 1.81319E-18
 -1       787 9.55040E-05-2.88700E-05-2.85575E-05-1.07088E-06-5.36893E-21 4.03815E-19
 -1       788 9.55643E-05-2.87754E-05-2.86239E-05-1.08457E-06 1.65333E-19 7.81738E-19
 -1       789 9.54073E-05-2.88998E-05-2.85033E-05-8.86621E-07 3.45512E-19 2.16235E-19
 -1       790 9.53710E-05-2.88690E-05-2.85009E-05-7.71472E-07 3.81750E-19-3.26166E-20
 -1       791 9.53414E-05-2.88213E-05-2.85087E-05-6.64405E-07 4.37816E-19 4.07362E-19
 -1       792 9.53173E-05-2.87616E-05-2.85239E-05-5.76683E-07 2.39776E-19 6.20333E-19
 -1       793 9.52973E-05-2.86923E-05-2.85450E-05-5.16714E-07 2.06006E-20 1.75363E-18
 -1       794 9.52798E-05-2.86139E-05-2.85711E-05-4.91462E-07 1.54266E-19 1.26345E-18
 -1       795 9.52633E-05-2.85249E-05-2.86021E-05-5.07486E-07-2.25569E-19 1.43687E-18
 -1       796 9.52460E-05-2.84230E-05-2.86384E-05-5.71693E-07 5.16270E-19 1.28113E-18
 -1       797 9.52261E-05-2.83050E-05-2.86804E-05-6.91861E-07 2.04908E-19 1.40038E-18
 -1       798 9.52016E-05-2.81675E-05-2.87289E-05-8.76887E-07-1.23521E-19 2.01975E-18
 -1       799 9.51708E-05-2.80078E-05-2.87841E-05-1.13675E-06 8.14012E-20 2.42210E-18
 -1       800 9.51321E-05-2.78245E-05-2.88460E-05-1.48214E-06-2.04152E-19 2.36355E-18
 -1       801 9.50850E-05-2.76191E-05-2.89139E-05-1.92368E-06-5.53772E-19 1.56904E-18
 -1       802 9.50311E-05-2.73983E-05-2.89854E-05-2.47065E-06-6.11460E-19 2.00490E-18
 -1       803 9.49764E-05-2.71773E-05-2.90566E-05-3.12905E-06 1.25012E-19 7.06506E-19
 -1       804 9.49347E-05-2.69848E-05-2.91212E-05-3.89897E-06-2.15679E-19 7.07317E-19
 -1       805 9.49336E-05-2.68696E-05-2.91700E-05-4.77115E-06 9.02636E-20 1.22649E-18
 -1       806 9.50246E-05-2.69110E-05-2.91912E-05-5.72232E-06-8.25152E-20 1.28705E-18
 -1       807 9.52968E-05-2.72299E-05-2.91712E-05-6.70897E-06-8.30902E-19-1.44309E-19
 -1       808 9.58971E-05-2.80019E-05-2.90978E-05-7.65730E-06-8.71886E-19 2.29536E-19
 -1       809 9.70532E-05-2.94636E-05-2.89670E-05-8.44529E-06-6.23617E-19 1.08720E-18
 -1       810 9.90897E-05-3.18967E-05-2.87972E-05-8.86861E-06-9.35006E-19 3.91333E-19
 -1       811 1.02418E-04-3.55586E-05-2.86532E-05-8.57750E-06-1.14436E-20 1.46781E-19
 -1       812 1.07401E-04-4.04512E-05-2.86894E-05-6.95329E-06 4.96990E-19 1.39645E-18
 -1       813 1.14042E-04-4.58888E-05-2.92114E-05-3.09159E-06 2.12542E-19 3.96477E-18
 -1       814 1.21456E-04-5.01766E-05-3.05558E-05 3.59583E-06 5.97641E-19 4.75824E-18
 -1       815 1.25832E-04-4.78073E-05-3.34872E-05 1.29986E-05 8.20722E-19 4.29917E-18
 -1       816 1.23113E-04-3.46529E-05-3.82871E-05-1.01445E-05 2.35210E-19-2.01911E-19
 -1       817 1.24064E-04-4.41445E-05-3.42905E-05-2.98609E-06-1.28223E-18-9.57038E-19
 -1       818 1.22071E-04-4.58835E-05-3.26816E-05 3.31399E-06-1.74506E-18 9.70869E-19
 -1       819 9.31974E-05-1.97743E-05-3.14681E-05 1.23219E-06 4.95505E-19-3.16513E-19
 -1       820 1.29727E-04-5.51213E-05-3.19743E-05 5.23645E-06 5.90365E-19 1.42190E-18
 -1       821 9.55772E-05-2.55080E-05-3.00291E-05-1.81261E-06-4.23187E-19-6.04752E-19
 -1       822 9.54515E-05-2.89047E-05-2.85201E-05-9.94020E-07 3.65488E-19 2.53741E-19
 -1       823 9.57286E-05-2.77493E-05-2.91342E-05-1.97409E-07 4.03246E-19 5.48901E-19
 -1       824 9.47274E-05-2.28950E-05-3.07848E-05-3.48643E-06-2.83083E-19-6.11451E-19
 -1       825 1.17562E-04-5.79182E-05-2.55096E-05-1.97011E-05-1.35887E-18 3.94631E-19
 -1       826 5.19219E-05-1.75052E-05-1.44356E-05 1.37058E-05-3.21012E-19-1.70730E-18
 -1       827 1.26071E-04-5.55287E-05-3.02311E-05-2.44490E-05 3.67460E-19-2.12476E-18
 -1       828 9.52181E-05-2.44892E-05-3.03128E-05 3.41443E-06 6.94078E-19 3.93763E-19
 -1       829 1.32796E-04-5.51050E-05-3.33517E-05-8.09703E-06-1.14826E-18-3.15395E-18
 -1       830 1.30863E-04-5.76648E-05-3.14047E-05 2.18295E-05-3.64995E-19-3.83024E-19
 -1       831 1.05997E-04-5.13790E-05-2.33265E-05 2.39418E-05 1.02112E-18-1.39148E-18
 -1       832 1.25647E-04-4.17415E-05-3.61699E-05 1.97551E-05 1.43347E-18 3.95815E-18
 -1       833 9.44001E-05-4.46319E-05-2.11254E-05-2.90886E-05-1.80197E-18-3.38363E-19
 -1       834 9.30906E-05-1.95811E-05-3.15052E-05 2.14778E-08 3.05368E-19-3.16027E-19
 -1       835 9.40438E-05-2.13701E-05-3.11451E-05 3.32090E-06 6.54566E-19 2.00742E-20
 -1       836 5.83418E-05-2.05475E-05-1.59563E-05-1.87767E-05-1.09592E-18-2.37581E-18
 -1       837 9.56906E-05-2.82718E-05-2.88939E-05-7.21684E-07 5.04939E-19 3.67123E-19
 -1       838 9.41424E-05-2.16146E-05-3.10834E-05-2.85617E-06-2.47864E-19-5.90122E-19
 -1       839 9.56297E-05-2.85909E-05-2.87310E-05-9.89293E-07 8.38371E-20 3.13499E-19
 -1       840 9.35275E-05-2.03704E-05-3.13530E-05 2.37245E-06 7.08566E-19-2.65387E-19
 -1       841 9.37216E-05-2.07589E-05-3.12707E-05-1.94295E-06-1.55145E-19-4.96596E-19
 -1       842 9.55230E-05-2.61734E-05-2.97210E-05 1.59903E-06 3.75036E-19 4.39746E-19
 -1       843 9.56535E-05-2.70895E-05-2.93845E-05 5.26985E-07 1.66243E-19 7.63402E-19
 -1       844 9.24157E-05-3.94990E-05-2.26009E-05 2.34986E-05-2.33592E-19-7.89498E-19
 -1       845 9.61944E-05-2.69952E-05-2.96571E-05-2.90400E-07-4.56612E-19-5.31982E-19
 -1       846 9.63620E-05-2.79264E-05-2.93296E-05 2.91529E-07-3.01885E-19-5.20730E-19
 -1       847 9.63830E-05-2.85196E-05-2.90843E-05 6.35263E-07-5.25763E-21-2.50796E-19
 -1       848 9.63198E-05-2.88752E-05-2.89049E-05 8.05848E-07 1.58609E-19-3.04132E-19
 -1       849 9.62125E-05-2.90662E-05-2.87770E-05 8.58106E-07 2.24388E-19-3.94222E-19
 -1       850 9.60866E-05-2.91454E-05-2.86891E-05 8.35582E-07-1.35281E-19-2.58507E-19
 -1       851 9.59573E-05-2.91501E-05-2.86317E-05 7.70998E-07-5.80045E-19 2.61541E-19
 -1       852 9.58333E-05-2.91061E-05-2.85974E-05 6.88200E-07-3.54542E-19-8.74583E-20
 -1       853 9.57183E-05-2.90304E-05-2.85806E-05 6.04209E-07-1.76152E-19-3.68460E-19
 -1       854 9.56129E-05-2.89332E-05-2.85770E-05 5.31271E-07-1.77057E-19 3.75475E-21
 -1       855 9.55153E-05-2.88197E-05-2.85838E-05 4.78511E-07-6.76580E-19 4.05955E-19
 -1       856 9.54218E-05-2.86912E-05-2.85988E-05 4.53128E-07-1.09765E-18 3.55672E-19
 -1       857 9.53270E-05-2.85458E-05-2.86205E-05 4.61472E-07-9.41498E-19 1.44703E-18
 -1       858 9.52243E-05-2.83791E-05-2.86480E-05 5.09891E-07 3.02911E-19 1.19239E-18
 -1       859 9.51057E-05-2.81850E-05-2.86803E-05 6.05245E-07 1.67722E-20 1.00321E-18
 -1       860 9.49617E-05-2.79560E-05-2.87167E-05 7.55206E-07 5.04918E-19 8.07775E-19
 -1       861 9.47810E-05-2.76841E-05-2.87558E-05 9.68385E-07 1.58181E-19 1.06009E-18
 -1       862 9.45509E-05-2.73613E-05-2.87956E-05 1.25423E-06 1.41856E-19 5.07816E-19
 -1       863 9.42572E-05-2.69806E-05-2.88328E-05 1.62274E-06 2.09373E-19-6.77933E-19
 -1       864 9.38843E-05-2.65385E-05-2.88625E-05 2.08401E-06 1.63998E-20 1.88643E-21
 -1       865 9.34163E-05-2.60365E-05-2.88770E-05 2.64774E-06 1.22681E-19 1.63838E-19
 -1       866 9.28389E-05-2.54859E-05-2.88656E-05 3.32313E-06 9.30069E-19 2.07427E-19
 -1       867 9.21424E-05-2.49125E-05-2.88128E-05 4.11964E-06 7.32898E-19 7.62842E-19
 -1       868 9.13282E-05-2.43659E-05-2.86981E-05 5.04973E-06 8.74244E-19 9.64113E-19
 -1       869 9.04182E-05-2.39305E-05-2.84947E-05 6.13515E-06 2.22726E-19 1.27206E-18
 -1       870 8.94717E-05-2.37433E-05-2.81693E-05 7.41828E-06 4.79977E-20 1.13002E-18
 -1       871 8.86141E-05-2.40183E-05-2.76842E-05 8.97952E-06-3.44583E-19 4.67603E-20
 -1       872 8.80874E-05-2.50848E-05-2.70019E-05 1.09572E-05 7.40417E-19 1.03887E-18
 -1       873 8.83332E-05-2.74466E-05-2.60943E-05 1.35539E-05 4.58701E-20 6.69737E-19
 -1       874 9.01935E-05-3.18237E-05-2.49978E-05 1.69863E-05-8.23233E-19-6.01421E-19
 -1       875 9.55451E-05-2.89074E-05-2.85590E-05-5.80246E-07 4.51626E-20 5.12771E-19
 -1       876 9.56295E-05-2.89897E-05-2.85599E-05-6.64471E-07 2.14404E-20 8.11082E-19
 -1       877 9.57231E-05-2.90519E-05-2.85734E-05-7.59213E-07 3.99472E-19 6.89490E-19
 -1       878 9.54685E-05-2.88104E-05-2.85677E-05-5.16414E-07-3.87614E-19 6.60985E-19
 -1       879 9.53966E-05-2.87004E-05-2.85841E-05-4.80686E-07-1.23579E-19 1.02226E-18
 -1       880 9.53256E-05-2.85765E-05-2.86068E-05-4.79821E-07 3.03176E-19 1.35142E-18
 -1       881 9.52506E-05-2.84355E-05-2.86351E-05-5.20372E-07-2.00385E-19 6.22725E-19
 -1       882 9.51659E-05-2.82730E-05-2.86684E-05-6.09397E-07-1.34684E-19 1.47662E-18
 -1       883 9.50650E-05-2.80837E-05-2.87063E-05-7.54843E-07-4.15179E-19 1.91649E-18
 -1       884 9.49408E-05-2.78620E-05-2.87480E-05-9.65690E-07 2.18651E-19 1.18641E-18
 -1       885 9.47857E-05-2.76037E-05-2.87923E-05-1.25189E-06-4.35837E-19 1.46254E-18
 -1       886 9.45923E-05-2.73065E-05-2.88368E-05-1.62406E-06-2.14496E-19 1.54768E-18
 -1       887 9.43545E-05-2.69728E-05-2.88779E-05-2.09288E-06-1.80395E-19 6.01166E-20
 -1       888 9.40693E-05-2.66124E-05-2.89101E-05-2.66837E-06 9.38280E-20-8.89057E-20
 -1       889 9.37397E-05-2.62470E-05-2.89254E-05-3.35893E-06-2.29652E-19 3.59839E-19
 -1       890 9.33801E-05-2.59165E-05-2.89129E-05-4.17061E-06-8.03618E-19-1.54311E-19
 -1       891 9.30243E-05-2.56874E-05-2.88586E-05-5.10669E-06 2.54144E-19 1.04757E-18
 -1       892 9.27382E-05-2.56642E-05-2.87458E-05-6.16781E-06 6.04348E-19 1.03419E-18
 -1       893 9.26387E-05-2.60049E-05-2.85571E-05-7.35194E-06-1.04435E-18 4.32027E-19
 -1       894 9.29226E-05-2.69378E-05-2.82791E-05-8.65052E-06-1.03424E-18-2.51966E-19
 -1       895 9.39050E-05-2.87774E-05-2.79120E-05-1.00315E-05-7.37344E-19 3.75874E-19
 -1       896 9.60643E-05-3.19200E-05-2.74889E-05-1.13851E-05-1.60434E-18 3.97584E-19
 -1       897 1.00072E-04-3.67970E-05-2.71115E-05-1.24418E-05-4.01641E-19 8.55273E-19
 -1       898 1.06823E-04-4.36963E-05-2.70477E-05-1.24842E-05 7.49095E-20-1.50793E-19
 -1       899 5.77296E-05-1.56998E-05-1.78694E-05 2.45324E-06-5.30893E-19-1.58056E-18
 -1       900 1.27874E-04-5.16787E-05-3.26764E-05 1.08509E-05-2.84788E-18-5.38991E-21
 -1       901 9.57823E-05-2.55795E-05-3.00869E-05-1.17403E-06-6.29072E-19-6.54716E-19
 -1       902 1.13411E-04-5.12157E-05-2.66264E-05-1.43380E-05-2.68662E-19-2.45445E-18
 -1       903 9.33345E-05-2.00247E-05-3.14193E-05-1.02516E-06 1.09333E-19-2.75463E-19
 -1       904 9.54729E-05-2.50744E-05-3.01723E-05 2.14064E-06 4.00161E-19 3.28142E-19
 -1       905 6.80578E-05-2.16747E-05-1.97617E-05 1.60588E-05-6.08659E-19 1.71802E-19
 -1       906 9.60421E-05-2.89841E-05-2.87391E-05-9.41746E-07 4.51445E-19 4.95121E-19
 -1       907 7.82445E-05-3.09921E-05-2.01059E-05-2.46130E-05-6.18812E-19-1.46380E-18
 -1       908 6.11803E-05-1.70558E-05-1.88074E-05-8.10590E-06-8.32146E-19-3.03636E-18
 -1       909 9.61372E-05-2.87922E-05-2.88622E-05-8.76785E-07-2.46515E-19 3.61588E-19
 -1       910 9.45425E-05-2.22757E-05-3.09711E-05 4.35895E-07 4.99470E-19-9.54789E-20
 -1       911 9.60220E-05-2.69306E-05-2.96107E-05 4.16082E-07 4.18386E-19-9.49289E-20
 -1       912 8.03758E-05-2.76306E-05-2.25709E-05 1.82788E-05-1.54167E-18-5.81687E-19
 -1       913 9.58256E-05-2.90840E-05-2.86036E-05-8.50971E-07 3.77579E-19 2.83842E-19
 -1       914 9.51536E-05-2.38607E-05-3.05543E-05-1.99655E-06-3.70268E-19-7.21094E-19
 -1       915 9.61636E-05-2.78518E-05-2.92763E-05-2.70872E-07 5.02860E-19 1.19366E-19
 -1       916 9.48794E-05-2.30758E-05-3.07728E-05-1.47327E-06-2.18630E-19-2.48227E-19
 -1       917 9.46822E-05-2.26108E-05-3.08899E-05 1.22118E-06 5.20952E-19-4.00605E-19
 -1       918 9.66913E-05-4.05043E-05-2.40282E-05-2.09691E-05-9.09832E-20-5.64037E-19
 -1       919 9.59342E-05-2.90696E-05-2.86563E-05-9.20794E-07 3.45827E-19 2.41055E-19
 -1       920 9.64866E-05-2.72474E-05-2.96740E-05-6.07238E-08-2.48114E-19 2.60862E-19
 -1       921 9.55427E-05-2.88094E-05-2.86000E-05-4.23178E-07-8.97034E-20 5.99462E-19
 -1       922 9.66674E-05-2.81502E-05-2.93645E-05 3.11053E-07-1.31477E-19 7.13885E-20
 -1       923 9.66865E-05-2.87221E-05-2.91276E-05 5.26065E-07 1.88821E-19 8.67893E-20
 -1       924 9.66069E-05-2.90557E-05-2.89505E-05 6.25766E-07 6.80934E-20 3.29182E-19
 -1       925 9.64728E-05-2.92225E-05-2.88215E-05 6.47557E-07 2.76177E-19 2.26414E-19
 -1       926 9.63140E-05-2.92755E-05-2.87308E-05 6.21110E-07-1.85651E-19-1.17889E-19
 -1       927 9.61491E-05-2.92526E-05-2.86699E-05 5.68891E-07-6.00282E-19 1.16298E-19
 -1       928 9.59886E-05-2.91800E-05-2.86322E-05 5.07423E-07-3.80832E-19 4.77103E-19
 -1       929 9.58369E-05-2.90745E-05-2.86124E-05 4.48659E-07-1.61992E-20 4.36479E-19
 -1       930 9.56941E-05-2.89455E-05-2.86065E-05 4.01507E-07-3.12650E-20 3.66061E-20
 -1       931 9.55573E-05-2.87972E-05-2.86114E-05 3.72651E-07-5.39431E-19 3.41306E-19
 -1       932 9.54206E-05-2.86294E-05-2.86248E-05 3.67506E-07-4.83346E-19 1.30504E-18
 -1       933 9.52761E-05-2.84382E-05-2.86448E-05 3.91189E-07-5.56087E-19 1.52417E-18
 -1       934 9.51137E-05-2.82172E-05-2.86699E-05 4.48938E-07 1.25954E-19 6.75132E-19
 -1       935 9.49214E-05-2.79584E-05-2.86985E-05 5.46348E-07 3.23271E-19 9.99078E-19
 -1       936 9.46851E-05-2.76521E-05-2.87285E-05 6.89544E-07 4.50133E-19 1.41813E-18
 -1       937 9.43887E-05-2.72886E-05-2.87572E-05 8.85183E-07-1.19265E-19 1.15275E-18
 -1       938 9.40138E-05-2.68587E-05-2.87808E-05 1.14027E-06-6.45340E-19 8.69393E-19
 -1       939 9.35401E-05-2.63551E-05-2.87937E-05 1.46188E-06 2.53661E-19 4.77945E-19
 -1       940 9.29456E-05-2.57748E-05-2.87876E-05 1.85692E-06 2.34111E-19 3.73877E-20
 -1       941 9.22075E-05-2.51214E-05-2.87513E-05 2.33218E-06 5.50509E-19 2.73892E-19
 -1       942 9.13030E-05-2.44089E-05-2.86691E-05 2.89533E-06 1.16491E-18-2.71358E-20
 -1       943 9.02116E-05-2.36661E-05-2.85197E-05 3.55780E-06 1.40935E-18 2.88303E-19
 -1       944 8.89168E-05-2.29425E-05-2.82750E-05 4.34117E-06 2.56062E-19 4.46443E-20
 -1       945 8.74100E-05-2.23156E-05-2.78981E-05 5.28979E-06-2.10191E-19-4.97632E-19
 -1       946 8.56962E-05-2.19018E-05-2.73414E-05 6.49268E-06 3.52506E-19 8.75454E-19
 -1       947 8.38072E-05-2.18736E-05-2.65445E-05 8.11355E-06 1.32728E-18 1.30003E-18
 -1       948 8.17955E-05-2.24832E-05-2.54227E-05 1.04459E-05 5.90839E-20 1.17948E-18
 -1       949 8.05476E-05-2.42116E-05-2.41451E-05 1.37193E-05-1.54527E-18 1.22471E-18
 -1       950 9.57894E-05-2.90573E-05-2.85995E-05-5.20716E-07 8.48417E-20 8.69850E-19
 -1       951 9.56627E-05-2.89423E-05-2.85944E-05-4.62229E-07-2.04667E-19 8.44430E-19
 -1       952 6.77505E-05-1.79032E-05-2.13201E-05 6.63811E-06 1.92602E-19-2.72416E-18
 -1       953 9.59261E-05-2.91505E-05-2.86181E-05-5.91155E-07 2.19587E-19 2.88425E-19
 -1       954 9.54248E-05-2.86591E-05-2.86139E-05-4.10095E-07-5.96324E-20 5.13437E-19
 -1       955 9.53025E-05-2.84889E-05-2.86344E-05-4.28792E-07 1.41749E-19 1.01243E-18
 -1       956 9.51676E-05-2.82938E-05-2.86602E-05-4.85136E-07-1.92755E-19 1.47720E-18
 -1       957 9.50105E-05-2.80673E-05-2.86899E-05-5.85646E-07-3.76927E-20 7.77982E-19
 -1       958 9.48202E-05-2.78020E-05-2.87221E-05-7.37657E-07-1.20843E-19 2.13146E-19
 -1       959 9.45846E-05-2.74908E-05-2.87545E-05-9.49489E-07-2.92754E-19 1.26929E-18
 -1       960 9.42910E-05-2.71281E-05-2.87841E-05-1.23045E-06 3.82376E-19 2.77684E-20
 -1       961 9.39265E-05-2.67117E-05-2.88063E-05-1.59073E-06 5.60630E-19-4.72353E-19
 -1       962 9.34797E-05-2.62453E-05-2.88147E-05-2.04132E-06-3.13476E-19 8.94742E-20
 -1       963 9.29426E-05-2.57418E-05-2.88003E-05-2.59413E-06-3.47070E-19-1.23865E-19
 -1       964 9.23139E-05-2.52283E-05-2.87510E-05-3.26268E-06-7.89159E-19 2.39778E-19
 -1       965 9.16045E-05-2.47523E-05-2.86510E-05-4.06389E-06-9.35806E-19-5.64577E-19
 -1       966 9.08445E-05-2.43900E-05-2.84806E-05-5.02192E-06 3.13260E-19 5.21458E-19
 -1       967 9.00958E-05-2.42576E-05-2.82165E-05-6.17483E-06-1.04850E-19 1.55490E-18
 -1       968 8.94710E-05-2.45268E-05-2.78336E-05-7.58453E-06-3.06111E-19 9.14415E-19
 -1       969 8.91688E-05-2.54498E-05-2.73092E-05-9.34425E-06-2.10933E-18 9.62313E-19
 -1       970 8.95190E-05-2.73827E-05-2.66330E-05-1.15697E-05-1.08829E-18 2.14753E-18
 -1       971 9.11100E-05-3.08680E-05-2.58179E-05-1.43889E-05-6.44996E-19 1.37949E-19
 -1       972 9.29694E-05-3.48098E-05-2.49239E-05-1.74193E-05 9.29900E-20-1.12617E-18
 -1       973 9.53136E-05-2.41656E-05-3.04915E-05 1.79586E-06 4.71276E-19-1.44612E-19
 -1       974 9.46535E-05-2.24940E-05-3.09253E-05-3.01122E-07 3.56341E-19-1.07522E-19
 -1       975 7.26034E-05-2.33083E-05-2.10696E-05-1.66524E-05 7.53107E-21-2.28809E-18
 -1       976 9.57811E-05-2.61011E-05-2.98637E-05 1.14512E-06 2.70168E-19 9.86035E-20
 -1       977 9.60561E-05-2.58945E-05-3.00702E-05-6.37495E-07-4.19901E-19 1.16815E-19
 -1       978 9.55635E-05-2.46168E-05-3.04038E-05-1.05517E-06-3.59501E-19-3.17776E-20
 -1       979 9.61983E-05-2.84433E-05-2.90378E-05-6.77440E-07 2.23004E-20 2.97625E-19
 -1       980 6.71275E-05-1.68758E-05-2.14970E-05-7.79398E-07 9.96062E-19-1.14142E-18
 -1       981 9.64877E-05-2.89803E-05-2.89318E-05-7.16205E-07-8.80621E-22-2.59383E-19
 -1       982 9.47284E-05-2.26834E-05-3.08761E-05-9.17622E-07 1.85253E-19-1.25051E-19
 -1       983 9.56059E-05-2.44360E-05-3.05007E-05 7.70944E-08 3.49330E-19-1.62825E-19
 -1       984 9.56508E-05-2.46022E-05-3.04479E-05 5.46601E-07 4.08657E-19-2.34312E-19
 -1       985 9.63431E-05-2.71222E-05-2.96663E-05 1.58323E-07 2.53426E-19-5.59551E-19
 -1       986 7.37849E-05-2.08338E-05-2.26755E-05 1.13722E-05-1.99719E-18-1.31935E-18
 -1       987 8.32902E-05-2.96249E-05-2.29709E-05-1.89207E-05-2.36775E-21-1.90521E-18
 -1       988 9.60715E-05-2.92110E-05-2.86544E-05-6.62776E-07 1.82403E-19 4.78208E-19
 -1       989 9.63659E-05-2.91580E-05-2.88034E-05-7.49184E-07 3.54115E-19 1.80091E-20
 -1       990 9.60480E-05-2.62433E-05-2.99158E-05 6.74451E-07 4.49476E-19-4.43578E-19
 -1       991 9.65600E-05-2.86384E-05-2.91093E-05-5.88422E-07-1.78707E-19-3.20771E-19
 -1       992 9.55478E-05-2.87622E-05-2.86224E-05-3.04406E-07 5.05698E-20 6.54608E-19
 -1       993 9.68832E-05-2.84191E-05-2.93419E-05 2.56321E-07-3.72175E-20 4.23961E-20
 -1       994 9.68728E-05-2.89271E-05-2.91197E-05 3.63084E-07 2.17786E-19 2.05448E-19
 -1       995 9.67652E-05-2.92100E-05-2.89523E-05 4.06529E-07 4.48728E-20 4.73958E-19
 -1       996 9.66044E-05-2.93352E-05-2.88296E-05 4.08445E-07-2.39131E-19 2.04788E-19
 -1       997 9.64207E-05-2.93540E-05-2.87429E-05 3.85126E-07-5.56974E-20 2.64606E-19
 -1       998 9.62315E-05-2.93008E-05-2.86846E-05 3.50107E-07 1.02437E-20 6.30368E-19
 -1       999 9.60469E-05-2.92005E-05-2.86485E-05 3.12027E-07-7.83008E-19-1.55093E-20
 -1      1000 9.58706E-05-2.90677E-05-2.86298E-05 2.78357E-07-2.36911E-19-5.11340E-19
 -1      1001 9.57018E-05-2.89109E-05-2.86247E-05 2.54544E-07 1.07168E-19-3.18733E-19
 -1      1002 9.55355E-05-2.87322E-05-2.86300E-05 2.44128E-07 5.28317E-20 5.81970E-19
 -1      1003 9.53633E-05-2.85290E-05-2.86433E-05 2.50543E-07-1.42998E-19 1.35983E-18
 -1      1004 9.51749E-05-2.82958E-05-2.86625E-05 2.77367E-07-2.11006E-19 1.68121E-18
 -1      1005 9.49572E-05-2.80246E-05-2.86855E-05 3.27953E-07-1.13421E-19 1.14978E-18
 -1      1006 9.46950E-05-2.77054E-05-2.87099E-05 4.05826E-07 7.80863E-19 3.65168E-19
 -1      1007 9.43705E-05-2.73275E-05-2.87328E-05 5.14729E-07 2.06518E-19 5.67019E-19
 -1      1008 9.39634E-05-2.68803E-05-2.87500E-05 6.58442E-07-1.73149E-20 9.88973E-19
 -1      1009 9.34512E-05-2.63544E-05-2.87560E-05 8.40552E-07-4.49599E-19 1.12042E-18
 -1      1010 9.28090E-05-2.57436E-05-2.87426E-05 1.06418E-06-2.89139E-19 7.34570E-19
 -1      1011 9.20100E-05-2.50465E-05-2.86990E-05 1.33188E-06-3.01666E-19 4.46735E-20
 -1      1012 9.10252E-05-2.42693E-05-2.86101E-05 1.64590E-06 4.35992E-19-6.96708E-19
 -1      1013 8.98231E-05-2.34278E-05-2.84557E-05 2.00963E-06 7.78872E-19-1.65922E-18
 -1      1014 8.83680E-05-2.25496E-05-2.82086E-05 2.43100E-06 6.74432E-19-2.79239E-18
 -1      1015 8.66150E-05-2.16750E-05-2.78324E-05 2.92975E-06-1.37084E-19-1.65167E-18
 -1      1016 8.45003E-05-2.08552E-05-2.72780E-05 3.55178E-06 1.17908E-18-1.27520E-18
 -1      1017 8.19257E-05-2.01504E-05-2.64772E-05 4.39357E-06 7.61834E-19-5.04208E-19
 -1      1018 7.87394E-05-1.96527E-05-2.53253E-05 5.61114E-06 3.69655E-19-2.55400E-18
 -1      1019 9.52215E-05-2.83601E-05-2.86549E-05-3.35694E-07-2.00965E-19 8.89716E-19
 -1      1020 9.50288E-05-2.81124E-05-2.86785E-05-3.93761E-07 2.82552E-19 8.05546E-19
 -1      1021 9.47994E-05-2.78229E-05-2.87043E-05-4.86925E-07 2.03168E-19 5.34892E-19
 -1      1022 9.45184E-05-2.74827E-05-2.87296E-05-6.21234E-07-4.90154E-19 1.12107E-21
 -1      1023 9.41691E-05-2.70834E-05-2.87511E-05-8.03707E-07 6.07968E-19-8.78410E-19
 -1      1024 9.37340E-05-2.66187E-05-2.87638E-05-1.04247E-06 1.14846E-19 5.52529E-19
 -1      1025 9.31952E-05-2.60867E-05-2.87610E-05-1.34699E-06-5.81874E-19 1.35341E-18
 -1      1026 9.25357E-05-2.54919E-05-2.87333E-05-1.72857E-06-8.26681E-20 1.44723E-18
 -1      1027 9.17410E-05-2.48492E-05-2.86681E-05-2.20143E-06-1.72529E-19 1.31178E-18
 -1      1028 9.08015E-05-2.41877E-05-2.85491E-05-2.78490E-06-6.82902E-19 9.54828E-19
 -1      1029 8.97156E-05-2.35555E-05-2.83547E-05-3.50771E-06-9.04106E-19 2.20930E-19
 -1      1030 8.84930E-05-2.30253E-05-2.80581E-05-4.41550E-06-2.01957E-19 3.47356E-19
 -1      1031 8.71593E-05-2.27010E-05-2.76258E-05-5.58395E-06-5.80385E-19 6.06687E-19
 -1      1032 8.57638E-05-2.27279E-05-2.70173E-05-7.14248E-06-1.20695E-18 1.38003E-18
 -1      1033 8.44146E-05-2.33319E-05-2.61835E-05-9.31690E-06-1.45347E-18 4.46864E-21
 -1      1034 8.32873E-05-2.48320E-05-2.50631E-05-1.24144E-05-2.89464E-19-7.99644E-19
 -1      1035 9.65292E-05-2.80496E-05-2.93485E-05-3.19430E-07 1.47840E-19-3.54115E-19
 -1      1036 9.62216E-05-2.92225E-05-2.87139E-05-7.22227E-07 2.19994E-19 4.05395E-19
 -1      1037 7.21435E-05-1.95129E-05-2.25393E-05-9.00397E-06 6.45829E-19-3.17170E-18
 -1      1038 9.67343E-05-2.75991E-05-2.96296E-05 6.07271E-08-3.11557E-19 1.63497E-20
 -1      1039 9.56193E-05-2.44849E-05-3.04851E-05-3.13179E-07 1.78739E-19 9.66024E-20
 -1      1040 9.53908E-05-2.85744E-05-2.86356E-05-3.07526E-07-3.10185E-19 9.18341E-19
 -1      1041 9.63500E-05-2.63647E-05-2.99945E-05-2.51607E-07-2.56108E-19 3.42533E-19
 -1      1042 9.60263E-05-2.91941E-05-2.86423E-05-4.01443E-07-2.26634E-19 3.96359E-19
 -1      1043 7.62211E-05-1.98441E-05-2.41595E-05 7.93245E-06-2.03530E-19-2.80574E-18
 -1      1044 9.57018E-05-2.89278E-05-2.86174E-05-3.22245E-07-7.82126E-20 6.96054E-19
 -1      1045 9.58602E-05-2.90731E-05-2.86230E-05-3.56370E-07-1.91588E-19 4.61139E-19
 -1      1046 9.55749E-05-2.44788E-05-3.04681E-05-6.95781E-07-1.55795E-19 1.66373E-19
 -1      1047 9.66204E-05-2.74167E-05-2.96591E-05-1.07736E-08 2.61002E-19-1.73415E-19
 -1      1048 8.30827E-05-2.68335E-05-2.40994E-05-1.52852E-05 7.70053E-19-1.28939E-18
 -1      1049 9.62045E-05-2.92861E-05-2.86796E-05-4.53274E-07 2.22548E-19 3.72715E-19
 -1      1050 9.68002E-05-2.88449E-05-2.91237E-05-4.47776E-07-3.72540E-19-1.21605E-19
 -1      1051 7.69039E-05-2.28113E-05-2.31840E-05-1.29810E-05 1.08437E-18-2.36562E-18
 -1      1052 9.62926E-05-2.60405E-05-3.01087E-05-5.03297E-08-1.37996E-19 1.50506E-19
 -1      1053 7.23506E-05-1.80341E-05-2.32582E-05 3.90405E-06-4.10230E-19-4.12383E-18
 -1      1054 9.61917E-05-2.61015E-05-3.00389E-05 4.37907E-07 4.94933E-19-2.55533E-19
 -1      1055 9.63109E-05-2.61058E-05-3.00872E-05 1.64957E-07 1.16889E-19 5.55487E-20
 -1      1056 9.67042E-05-2.91467E-05-2.89531E-05-5.11382E-07 1.11404E-19 1.67995E-19
 -1      1057 9.57894E-05-2.50985E-05-3.02962E-05 8.36322E-07 6.39785E-19-3.33000E-19
 -1      1058 9.53099E-05-2.84573E-05-2.86511E-05-1.75075E-07-3.36948E-19 9.73038E-20
 -1      1059 9.66013E-05-2.69040E-05-2.98697E-05-4.31559E-08-2.00363E-19 5.32239E-19
 -1      1060 9.69444E-05-2.91044E-05-2.90742E-05 1.51635E-07 2.86145E-19 1.61709E-19
 -1      1061 9.68037E-05-2.93208E-05-2.89212E-05 1.61075E-07-8.68206E-20 4.26289E-19
 -1      1062 9.66204E-05-2.93971E-05-2.88100E-05 1.55945E-07-3.18860E-19 7.24111E-19
 -1      1063 9.64234E-05-2.93801E-05-2.87328E-05 1.42401E-07-4.30378E-19 3.83716E-19
 -1      1064 9.62224E-05-2.92972E-05-2.86822E-05 1.28568E-07-4.77308E-19-4.54394E-19
 -1      1065 9.60223E-05-2.91699E-05-2.86512E-05 1.17009E-07-2.77856E-19 1.89240E-19
 -1      1066 9.58344E-05-2.90165E-05-2.86362E-05 1.05946E-07 2.72165E-19 7.80661E-19
 -1      1067 9.56525E-05-2.88393E-05-2.86342E-05 9.83949E-08 7.47918E-19 7.71414E-19
 -1      1068 9.54666E-05-2.86355E-05-2.86419E-05 9.82648E-08 2.68934E-19 4.48630E-19
 -1      1069 9.52674E-05-2.84027E-05-2.86562E-05 1.05583E-07 9.85858E-20 7.60985E-19
 -1      1070 9.50433E-05-2.81342E-05-2.86753E-05 1.21143E-07-2.73213E-19 1.75245E-18
 -1      1071 9.47788E-05-2.78201E-05-2.86965E-05 1.46169E-07-5.36358E-19 1.19485E-18
 -1      1072 9.44561E-05-2.74497E-05-2.87169E-05 1.81661E-07 9.79994E-20 2.53461E-19
 -1      1073 9.40547E-05-2.70118E-05-2.87326E-05 2.28325E-07 1.65565E-19-4.60723E-19
 -1      1074 9.35521E-05-2.64960E-05-2.87382E-05 2.86365E-07-4.20818E-19-9.66625E-19
 -1      1075 9.29229E-05-2.58943E-05-2.87264E-05 3.55184E-07-6.91430E-19-8.70967E-19
 -1      1076 9.21400E-05-2.52028E-05-2.86872E-05 4.33027E-07-2.58663E-19-5.62772E-19
 -1      1077 9.11735E-05-2.44235E-05-2.86069E-05 5.16655E-07-5.36500E-19-6.49739E-19
 -1      1078 8.99903E-05-2.35661E-05-2.84672E-05 6.01191E-07-2.27022E-19-1.21909E-18
 -1      1079 8.85518E-05-2.26491E-05-2.82436E-05 6.80389E-07 5.13005E-19-1.49334E-18
 -1      1080 8.68075E-05-2.16989E-05-2.79032E-05 7.47578E-07 7.99943E-19-1.31606E-18
 -1      1081 8.46828E-05-2.07446E-05-2.74015E-05 7.97361E-07 2.81612E-19-6.92725E-19
 -1      1082 8.20536E-05-1.98071E-05-2.66760E-05 8.26804E-07 4.30595E-19-3.07610E-18
 -1      1083 7.86991E-05-1.88874E-05-2.56271E-05 8.26334E-07 9.57672E-20-4.37771E-18
 -1      1084 9.48547E-05-2.79077E-05-2.86916E-05-2.40160E-07 1.63643E-19-1.33469E-19
 -1      1085 9.50999E-05-2.82033E-05-2.86700E-05-1.98667E-07 2.76691E-19-2.10951E-19
 -1      1086 9.41911E-05-2.71513E-05-2.87314E-05-3.91500E-07 2.80377E-19 1.03865E-18
 -1      1087 9.37338E-05-2.66712E-05-2.87412E-05-5.10639E-07-3.18844E-19 1.44954E-18
 -1      1088 9.31641E-05-2.61135E-05-2.87361E-05-6.66839E-07-3.21953E-19 1.14943E-18
 -1      1089 9.24590E-05-2.54765E-05-2.87070E-05-8.68257E-07-8.39326E-19 8.64922E-19
 -1      1090 9.15952E-05-2.47652E-05-2.86417E-05-1.12574E-06-1.98616E-19 1.15602E-18
 -1      1091 9.05495E-05-2.39943E-05-2.85240E-05-1.45442E-06-9.68793E-20 1.98852E-18
 -1      1092 8.92987E-05-2.31908E-05-2.83324E-05-1.87661E-06-4.28104E-19 1.59571E-18
 -1      1093 8.78179E-05-2.23953E-05-2.80388E-05-2.42676E-06 5.19588E-19-1.75352E-21
 -1      1094 8.60764E-05-2.16627E-05-2.76067E-05-3.15974E-06-2.73391E-19-7.86623E-19
 -1      1095 8.40286E-05-2.10604E-05-2.69875E-05-4.16384E-06-1.15954E-18-8.35045E-19
 -1      1096 8.15919E-05-2.06581E-05-2.61153E-05-5.57877E-06-7.86494E-19-6.31868E-19
 -1      1097 7.85530E-05-2.04795E-05-2.48747E-05-7.76104E-06 6.61537E-19-1.59145E-18
 -1      1098 9.67920E-05-2.82897E-05-2.93583E-05-2.93775E-07-1.06679E-19-3.85973E-19
 -1      1099 9.45580E-05-2.75604E-05-2.87133E-05-3.03045E-07-3.72019E-20 6.56508E-19
 -1      1100 9.69218E-05-2.79968E-05-2.95393E-05 5.50463E-08-2.89578E-19 6.10404E-19
 -1      1101 9.54986E-05-2.86788E-05-2.86371E-05-1.66185E-07-2.27367E-19 1.90905E-19
 -1      1102 9.70022E-05-2.86881E-05-2.92771E-05 1.22621E-07 3.02418E-19 1.77467E-19
 -1      1103 7.30967E-05-1.81063E-05-2.36129E-05-3.35772E-06 6.69459E-19-2.23307E-18
 -1      1104 7.57751E-05-1.83350E-05-2.45888E-05 2.03503E-06-7.54126E-19-4.20150E-18
 -1      1105 9.69642E-05-2.85646E-05-2.93139E-05-1.91256E-07-3.43001E-19 3.85674E-19
 -1      1106 9.69342E-05-2.90297E-05-2.91018E-05-2.55316E-07-2.74346E-19-1.24072E-19
 -1      1107 9.68354E-05-2.77950E-05-2.95885E-05-6.99254E-08 5.46696E-20 3.88018E-19
 -1      1108 9.62366E-05-2.93053E-05-2.86847E-05-2.29222E-07-2.61013E-19 7.14508E-19
 -1      1109 9.56740E-05-2.88697E-05-2.86304E-05-1.70447E-07 3.10314E-19 4.35920E-19
 -1      1110 7.56441E-05-1.98601E-05-2.38647E-05-7.58187E-06 6.61767E-19-2.61481E-18
 -1      1111 9.65578E-05-2.92912E-05-2.88286E-05-5.20520E-07 2.55467E-19 4.03733E-19
 -1      1112 9.66163E-05-2.69189E-05-2.98721E-05 2.76007E-08 4.58636E-20 1.76093E-19
 -1      1113 9.63871E-05-2.93272E-05-2.87401E-05-4.96758E-07 3.06670E-20 6.84340E-20
 -1      1114 9.60430E-05-2.91902E-05-2.86514E-05-2.04878E-07-9.10776E-20 1.05013E-18
 -1      1115 9.67365E-05-2.93821E-05-2.88660E-05-1.00461E-07 1.40093E-19 1.92944E-19
 -1      1116 9.65380E-05-2.94042E-05-2.87714E-05-9.34470E-08-2.53486E-19 6.60574E-19
 -1      1117 9.57471E-05-2.89332E-05-2.86345E-05-5.99507E-08 4.43986E-19-5.00486E-20
 -1      1118 9.58524E-05-2.90401E-05-2.86339E-05-1.82685E-07-2.70958E-19 5.95970E-19
 -1      1119 9.68618E-05-2.92629E-05-2.89711E-05-1.90483E-07 2.59654E-19-2.42904E-19
 -1      1120 9.59362E-05-2.91010E-05-2.86433E-05-6.76749E-08-3.09852E-20 6.32630E-19
 -1      1121 1.16859E-04 2.57581E-10-4.18568E-05-4.14651E-05-1.26208E-19 3.66215E-18
 -1      1122 8.86538E-05 7.19252E-11-3.72524E-05-2.41662E-05-6.14099E-20 5.22831E-19
 -1      1123 8.40802E-05 4.14574E-11-3.57676E-05-1.78759E-05-3.98105E-20-8.01730E-19
 -1      1124 8.23348E-05 3.20287E-11-3.50731E-05-1.38331E-05-2.11758E-20-1.43057E-18
 -1      1125 8.15303E-05 2.73237E-11-3.47382E-05-1.05310E-05-1.24276E-20-1.69125E-18
 -1      1126 8.11275E-05 2.46061E-11-3.45724E-05-7.63877E-06-7.59021E-21-1.76649E-18
 -1      1127 8.09181E-05 2.29479E-11-3.44889E-05-4.97815E-06 7.37845E-22-1.73544E-18
 -1      1128 8.08157E-05 2.20513E-11-3.44495E-05-2.43117E-06 4.04326E-21-1.63807E-18
 -1      1129 8.07864E-05 2.17801E-11-3.44384E-05 5.26294E-08 1.17418E-20-1.55471E-18
 -1      1130 8.08198E-05 2.20946E-11-3.44509E-05 2.53889E-06 2.00790E-20-1.41626E-18
 -1      1131 8.09268E-05 2.30454E-11-3.44918E-05 5.09395E-06 2.65062E-20-1.23444E-18
 -1      1132 8.11433E-05 2.47635E-11-3.45768E-05 7.77034E-06 2.98844E-20-9.25814E-19
 -1      1133 8.15531E-05 2.76388E-11-3.47446E-05 1.06907E-05 3.93076E-20-5.13593E-19
 -1      1134 8.23589E-05 3.25002E-11-3.50830E-05 1.40400E-05 4.75662E-20 8.82899E-20
 -1      1135 8.40758E-05 4.19279E-11-3.57876E-05 1.81269E-05 5.60101E-20 1.12006E-18
 -1      1136 8.83518E-05 6.67514E-11-3.73227E-05 2.40087E-05 4.59515E-20 2.99214E-18
 -1      1137 1.06623E-04 1.63935E-10-4.06357E-05 3.61916E-05 4.82809E-20 6.27768E-18
 -1      1138 1.30226E-04-2.57579E-05-4.02754E-05-2.61056E-05-4.64386E-19 5.59465E-18
 -1      1139 9.74641E-05-2.88648E-05-3.15799E-05-6.80116E-07-1.67845E-19 4.61104E-18
 -1      1140 9.01688E-05-2.70294E-05-2.78958E-05 3.87231E-07-5.29925E-20 3.17186E-18
 -1      1141 8.82594E-05-2.65754E-05-2.66467E-05 2.50843E-07-1.11669E-20 2.04569E-18
 -1      1142 8.79012E-05-2.64488E-05-2.63906E-05 1.65802E-07-2.84881E-21 1.34252E-18
 -1      1143 8.82608E-05-2.65256E-05-2.64757E-05 1.18206E-07-1.44376E-20 1.18553E-18
 -1      1144 8.89482E-05-2.67103E-05-2.66786E-05 8.75966E-08 1.25918E-20 1.22277E-18
 -1      1145 8.97633E-05-2.69423E-05-2.69212E-05 6.63458E-08 5.07202E-20 7.25113E-19
 -1      1146 9.05958E-05-2.71848E-05-2.71694E-05 5.06427E-08 4.90445E-20 4.19308E-19
 -1      1147 9.13834E-05-2.74169E-05-2.74048E-05 3.85588E-08-3.88176E-20 8.37504E-20
 -1      1148 9.20929E-05-2.76272E-05-2.76176E-05 2.90591E-08-3.97847E-20-9.07864E-19
 -1      1149 9.27093E-05-2.78108E-05-2.78030E-05 2.15308E-08 8.04951E-20-6.68895E-19
 -1      1150 9.32294E-05-2.79662E-05-2.79600E-05 1.55602E-08 3.92197E-21-1.28064E-18
 -1      1151 9.36576E-05-2.80945E-05-2.80895E-05 1.08385E-08 2.26921E-20-1.36837E-18
 -1      1152 9.40028E-05-2.81983E-05-2.81943E-05 7.12151E-09-1.70748E-20-9.00318E-19
 -1      1153 9.42767E-05-2.82809E-05-2.82778E-05 4.21223E-09-1.04263E-19-1.35116E-18
 -1      1154 9.44929E-05-2.83463E-05-2.83439E-05 1.95391E-09-8.62579E-20-2.10369E-18
 -1      1155 9.46657E-05-2.83988E-05-2.83971E-05 2.27915E-10-1.56777E-20-2.90271E-18
 -1      1156 9.48107E-05-2.84432E-05-2.84420E-05-1.04553E-09-4.18413E-21-2.59817E-18
 -1      1157 9.49449E-05-2.84844E-05-2.84838E-05-1.90462E-09-1.78581E-19-3.95526E-18
 -1      1158 9.50870E-05-2.85282E-05-2.85281E-05-2.34096E-09 8.00470E-20-3.99465E-18
 -1      1159 9.52587E-05-2.85810E-05-2.85817E-05-2.29217E-09-2.37292E-20-2.79427E-18
 -1      1160 9.54853E-05-2.86505E-05-2.86522E-05-1.63122E-09 2.10470E-20-2.55043E-18
 -1      1161 9.57975E-05-2.87460E-05-2.87489E-05-1.51790E-10-1.95792E-19-2.45557E-18
 -1      1162 9.62320E-05-2.88784E-05-2.88830E-05 2.45094E-09-1.22597E-19-3.53648E-18
 -1      1163 9.68334E-05-2.90611E-05-2.90680E-05 6.60413E-09 1.34731E-19-2.55234E-18
 -1      1164 9.76546E-05-2.93099E-05-2.93199E-05 1.28828E-08 2.31231E-19-1.65068E-18
 -1      1165 9.87572E-05-2.96432E-05-2.96571E-05 2.20281E-08 3.58955E-20-2.25276E-18
 -1      1166 1.00210E-04-3.00812E-05-3.00999E-05 3.49352E-08-6.55764E-20-2.43095E-18
 -1      1167 1.02084E-04-3.06447E-05-3.06688E-05 5.25572E-08 1.13202E-19-1.59050E-18
 -1      1168 1.04442E-04-3.13513E-05-3.13805E-05 7.56146E-08-3.44415E-19-1.93086E-18
 -1      1169 1.07314E-04-3.22092E-05-3.22409E-05 1.03903E-07-1.30446E-20-4.03476E-18
 -1      1170 1.10663E-04-3.32054E-05-3.32323E-05 1.34865E-07 2.25774E-19-1.57289E-18
 -1      1171 1.14318E-04-3.42870E-05-3.42939E-05 1.61045E-07 1.03314E-19-9.83088E-20
 -1      1172 1.17885E-04-3.53346E-05-3.52959E-05 1.66404E-07 1.42804E-20 4.52236E-19
 -1      1173 1.20644E-04-3.61324E-05-3.60151E-05 1.23112E-07 9.08178E-20 1.41472E-18
 -1      1174 1.21493E-04-3.63541E-05-3.61331E-05-5.94398E-09-2.79044E-19 8.10875E-19
 -1      1175 1.19081E-04-3.56037E-05-3.52949E-05-2.48533E-07 2.07880E-19 2.41563E-19
 -1      1176 1.12300E-04-3.35685E-05-3.32634E-05-5.80303E-07 1.74965E-20 9.61912E-19
 -1      1177 1.01211E-04-3.02887E-05-3.01485E-05-8.76955E-07 4.56174E-20 1.45097E-18
 -1      1178 8.79393E-05-2.64087E-05-2.65708E-05-9.32139E-07-2.51264E-19 1.24281E-18
 -1      1179 7.65070E-05-2.30881E-05-2.35412E-05-6.07028E-07-6.32959E-20-3.87835E-19
 -1      1180 7.09048E-05-2.14491E-05-2.19925E-05-9.72742E-09-2.77324E-19-1.15684E-18
 -1      1181 7.24674E-05-2.18579E-05-2.22327E-05 5.27978E-07-1.34731E-20-1.59136E-19
 -1      1182 7.89488E-05-2.36990E-05-2.37677E-05 7.25407E-07 6.77057E-19 1.11290E-18
 -1      1183 8.63103E-05-2.58365E-05-2.56646E-05 5.76007E-07 1.74866E-19 2.79944E-18
 -1      1184 9.14667E-05-2.73718E-05-2.71435E-05 2.85545E-07-2.39389E-19 3.32402E-18
 -1      1185 9.37394E-05-2.80884E-05-2.79423E-05 8.51770E-08 1.84231E-19 1.76731E-18
 -1      1186 9.44682E-05-2.83772E-05-2.82416E-05 9.56217E-08 2.76361E-21 2.65876E-19
 -1      1187 9.49228E-05-2.84792E-05-2.83023E-05 8.55840E-08 2.67045E-19-1.63780E-19
 -1      1188 1.31060E-04-3.77399E-05-3.86610E-05 1.21746E-05-1.15011E-19 8.84726E-18
 -1      1189 9.65661E-05-2.81916E-05-3.13325E-05 8.01371E-07-2.22346E-20 8.16667E-18
 -1      1190 9.03827E-05-2.69319E-05-2.78767E-05 1.20130E-07-9.04605E-21 6.73950E-18
 -1      1191 8.83453E-05-2.65025E-05-2.66829E-05 8.99104E-09 6.53407E-20 5.63846E-18
 -1      1192 8.79416E-05-2.64114E-05-2.64176E-05-2.52911E-08 3.70792E-20 4.86721E-18
 -1      1193 8.82830E-05-2.65083E-05-2.64914E-05-3.43340E-08 2.41222E-20 4.44226E-18
 -1      1194 8.89612E-05-2.67035E-05-2.66888E-05-3.55454E-08 6.01526E-21 4.77081E-18
 -1      1195 8.97714E-05-2.69410E-05-2.69286E-05-3.38546E-08-9.03420E-20 5.26803E-18
 -1      1196 9.06010E-05-2.71864E-05-2.71750E-05-3.08258E-08 2.56106E-20 4.60992E-18
 -1      1197 9.13868E-05-2.74200E-05-2.74091E-05-2.71691E-08 1.16152E-19 3.71100E-18
 -1      1198 9.20952E-05-2.76310E-05-2.76209E-05-2.32980E-08 2.88350E-20 3.40148E-18
 -1      1199 9.27109E-05-2.78147E-05-2.78055E-05-1.94727E-08-3.00954E-21 3.99983E-18
 -1      1200 9.32305E-05-2.79700E-05-2.79619E-05-1.58490E-08 9.62385E-20 3.57353E-18
 -1      1201 9.36585E-05-2.80980E-05-2.80910E-05-1.25070E-08 3.26556E-20 3.14043E-18
 -1      1202 9.40037E-05-2.82014E-05-2.81954E-05-9.47159E-09-2.25630E-20 2.98368E-18
 -1      1203 9.42779E-05-2.82836E-05-2.82787E-05-6.72778E-09 7.79495E-20 2.53033E-18
 -1      1204 9.44945E-05-2.83487E-05-2.83447E-05-4.23434E-09 2.33561E-20 2.28879E-18
 -1      1205 9.46680E-05-2.84010E-05-2.83979E-05-1.93426E-09 2.98638E-20 2.02058E-18
 -1      1206 9.48140E-05-2.84452E-05-2.84430E-05 2.35973E-10 1.39096E-19-1.17164E-19
 -1      1207 9.49494E-05-2.84864E-05-2.84850E-05 2.33759E-09 5.77443E-20-8.79981E-19
 -1      1208 9.50931E-05-2.85302E-05-2.85298E-05 4.42015E-09 1.17149E-20 8.72001E-19
 -1      1209 9.52663E-05-2.85830E-05-2.85838E-05 6.51014E-09-6.96522E-20 1.71098E-18
 -1      1210 9.54941E-05-2.86525E-05-2.86546E-05 8.59598E-09 5.89591E-20 3.19559E-19
 -1      1211 9.58059E-05-2.87473E-05-2.87511E-05 1.06072E-08-2.46004E-21-1.27762E-18
 -1      1212 9.62364E-05-2.88779E-05-2.88839E-05 1.23844E-08 2.16280E-19-2.49056E-19
 -1      1213 9.68262E-05-2.90564E-05-2.90653E-05 1.36368E-08-1.19481E-19 2.52285E-18
 -1      1214 9.76219E-05-2.92967E-05-2.93092E-05 1.38831E-08-2.44623E-19 3.40315E-18
 -1      1215 9.86741E-05-2.96136E-05-2.96306E-05 1.23729E-08-4.97442E-20 2.13503E-18
 -1      1216 1.00034E-04-3.00220E-05-3.00442E-05 7.99579E-09 7.21103E-20 1.41169E-18
 -1      1217 1.01746E-04-3.05345E-05-3.05623E-05-7.97088E-10-2.61393E-19 1.73100E-18
 -1      1218 1.03832E-04-3.11569E-05-3.11895E-05-1.59825E-08 6.11812E-20 9.77172E-19
 -1      1219 1.06272E-04-3.18816E-05-3.19158E-05-3.96971E-08-1.04104E-19 9.46877E-19
 -1      1220 1.08963E-04-3.26767E-05-3.27053E-05-7.33912E-08-1.48400E-20 2.77874E-18
 -1      1221 1.11674E-04-3.34723E-05-3.34811E-05-1.15926E-07-2.57575E-19 2.20165E-18
 -1      1222 1.13984E-04-3.41443E-05-3.41109E-05-1.60204E-07-3.04072E-20 1.22669E-18
 -1      1223 1.15243E-04-3.45036E-05-3.43995E-05-1.88804E-07-2.07344E-19 5.41734E-19
 -1      1224 1.14601E-04-3.43052E-05-3.41075E-05-1.71915E-07 1.63461E-19-1.28163E-18
 -1      1225 1.11183E-04-3.32995E-05-3.30142E-05-7.49253E-08 2.09601E-19-3.80524E-18
 -1      1226 1.04503E-04-3.13437E-05-3.10344E-05 1.17253E-07-2.40213E-21-4.62184E-18
 -1      1227 9.50220E-05-2.85590E-05-2.83531E-05 3.63578E-07 1.10045E-19-4.08164E-18
 -1      1228 8.45347E-05-2.54459E-05-2.54851E-05 5.54450E-07-1.11401E-19-3.98074E-18
 -1      1229 7.58360E-05-2.28148E-05-2.31466E-05 5.66485E-07-4.30816E-19-8.53650E-19
 -1      1230 7.14778E-05-2.14463E-05-2.19519E-05 3.60609E-07 2.68536E-19-1.23810E-18
 -1      1231 7.23024E-05-2.16443E-05-2.20907E-05 3.96718E-08-5.45787E-19-3.93341E-19
 -1      1232 7.69679E-05-2.30433E-05-2.32490E-05-2.28557E-07 1.19149E-19-4.42178E-18
 -1      1233 8.29327E-05-2.48698E-05-2.48258E-05-3.32052E-07 7.08735E-19-9.12461E-18
 -1      1234 8.80568E-05-2.64460E-05-2.62781E-05-2.87431E-07-4.67225E-20-9.65697E-18
 -1      1235 9.15692E-05-2.75078E-05-2.73493E-05-2.02030E-07 6.36670E-19-1.09914E-17
 -1      1236 9.38207E-05-2.81481E-05-2.80253E-05-1.85436E-07 1.58066E-19-9.14282E-18
 -1      1237 9.50333E-05-2.85352E-05-2.83483E-05-5.21311E-08-2.82193E-19-4.55942E-18
 -1      1238 9.52659E-05-2.87779E-05-2.83887E-05-8.68523E-08-4.57042E-18-2.00661E-19
 -1      1239 9.56309E-05-3.00053E-05-2.81768E-05-2.57036E-07 1.13897E-18 1.05932E-18
 -1      1240 9.58398E-05-3.08938E-05-2.81614E-05-2.09522E-07 8.00618E-18-1.03557E-18
 -1      1241 9.51863E-05-2.88749E-05-2.89990E-05 4.92882E-08-8.60943E-19-3.37562E-19
 -1      1242 9.30438E-05-2.17758E-05-3.12289E-05 4.78095E-07 1.53604E-18 1.42934E-18
 -1      1243 8.92009E-05-8.84483E-06-3.49418E-05 9.62468E-07 2.14733E-18 9.45997E-19
 -1      1244 8.41882E-05 8.33657E-06-3.96147E-05 1.25170E-06 1.69407E-21 4.29161E-19
 -1      1245 7.93205E-05 2.52028E-05-4.40155E-05 1.06862E-06 3.34133E-18 2.46513E-19
 -1      1246 7.64681E-05 3.51792E-05-4.65568E-05 3.51924E-07 1.13169E-18 1.45650E-19
 -1      1247 7.68409E-05 3.38596E-05-4.62350E-05-5.58118E-07 5.21788E-18 1.08723E-18
 -1      1248 8.02374E-05 2.19704E-05-4.32123E-05-1.15148E-06 6.12818E-18-9.58060E-19
 -1      1249 8.51652E-05 4.96967E-06-3.87538E-05-1.18585E-06 2.43098E-19 6.57686E-19
 -1      1250 8.98518E-05-1.10414E-05-3.43454E-05-8.19820E-07-1.45584E-19 7.19243E-19
 -1      1251 9.32059E-05-2.22987E-05-3.10413E-05-3.34117E-07 4.37429E-18 6.36744E-19
 -1      1252 9.49825E-05-2.79759E-05-2.92053E-05-1.67015E-08 3.53908E-18-6.55703E-19
 -1      1253 9.52203E-05-2.91267E-05-2.85329E-05 2.90779E-07 1.91789E-18-3.60889E-19
 -1      1254 9.53237E-05-2.88804E-05-2.83745E-05 1.33177E-07 7.90361E-19 4.51205E-19
 -1      1255 4.17252E-05-1.30894E-04 2.19546E-05-1.58892E-05 1.09441E-17 4.40552E-18
 -1      1256 2.13320E-05-7.92096E-05 1.20406E-05-2.91215E-05 2.33273E-17 8.54190E-18
 -1      1257 8.57537E-06-1.24578E-05-5.57009E-06-1.87724E-06 2.09268E-17 1.15180E-17
 -1      1258 3.41333E-05 2.75346E-05-2.67935E-05 5.57116E-05 1.28275E-17 1.03050E-17
 -1      1259 1.11325E-04 1.86682E-05-4.94509E-05 1.10710E-04 5.66834E-18 7.90621E-18
 -1      1260 2.16821E-04-2.94348E-05-6.85511E-05 1.24812E-04 3.72356E-18 1.00899E-17
 -1      1261 3.03767E-04-8.09469E-05-8.03823E-05 8.10321E-05 2.30880E-18 1.13045E-17
 -1      1262 3.34031E-04-1.01071E-04-8.36562E-05-2.74743E-06 1.07631E-18 3.95988E-18
 -1      1263 2.83124E-04-7.13319E-05-7.68437E-05-8.17121E-05 1.52254E-18-4.32156E-18
 -1      1264 1.85560E-04-1.94255E-05-6.17592E-05-1.15433E-04 3.49994E-18-7.52673E-18
 -1      1265 8.68539E-05 2.00779E-05-4.23883E-05-9.27949E-05 8.29584E-18-9.59011E-18
 -1      1266 2.47686E-05 1.89832E-05-2.13659E-05-3.97391E-05 9.83575E-18-9.19878E-18
 -1      1267 8.29720E-06-2.42745E-05-9.37683E-07 1.04255E-05 1.10402E-17-6.03087E-18
 -1      1268 2.33548E-05-8.49526E-05 1.43770E-05 2.96497E-05 8.93874E-18-4.01282E-18
 -1      1269 3.90501E-05-1.22794E-04 2.18921E-05 1.05074E-05 2.31727E-18-8.68791E-19
 -1      1270 3.55042E-05-1.16514E-04 2.09413E-05-1.87535E-05-5.26135E-18-1.50152E-18
 -1      1271 1.83924E-05-7.27676E-05 1.18205E-05-3.04738E-05-7.56739E-18-2.55338E-18
 -1      1272 7.16042E-06-1.43875E-05-4.04180E-06-5.59334E-06-8.68886E-18-6.74238E-18
 -1      1273 3.13417E-05 2.10720E-05-2.43045E-05 4.71036E-05-1.10707E-17-9.00904E-18
 -1      1274 1.04248E-04 1.33238E-05-4.60296E-05 9.87727E-05-6.01139E-18-8.55673E-18
 -1      1275 2.07451E-04-3.12774E-05-6.53378E-05 1.12777E-04-4.52400E-18-1.16128E-17
 -1      1276 2.99543E-04-8.18226E-05-7.86951E-05 7.18665E-05-1.50497E-18-8.24078E-18
 -1      1277 3.34757E-04-1.00565E-04-8.39207E-05-1.07960E-05-1.20723E-18 6.99649E-19
 -1      1278 2.97780E-04-7.60672E-05-7.96140E-05-9.03353E-05-3.13667E-18 8.66854E-18
 -1      1279 2.07311E-04-2.36435E-05-6.72315E-05-1.27015E-04-4.92253E-18 1.20330E-17
 -1      1280 1.05296E-04 2.13184E-05-4.84116E-05-1.09839E-04-1.20660E-17 1.53889E-17
 -1      1281 3.21547E-05 2.70873E-05-2.61615E-05-5.36356E-05-1.91294E-17 1.69898E-17
 -1      1282 8.21924E-06-1.37272E-05-4.96979E-06 3.52303E-06-1.75336E-17 1.16213E-17
 -1      1283 2.12925E-05-7.89815E-05 1.18738E-05 3.01796E-05-1.07370E-17 3.63928E-18
 -1      1284 4.08437E-05-1.29095E-04 2.17845E-05 1.64581E-05-3.46945E-18 1.90101E-18
 -1      1285 1.04449E-04-2.20208E-05-3.78939E-05-1.72746E-05-1.78724E-19 2.94344E-18
 -1      1286 9.03227E-05-6.68175E-06-3.60182E-05-2.04702E-05-4.38287E-19-1.01856E-19
 -1      1287 9.26600E-05-6.74067E-06-3.72235E-05-2.57585E-05-5.92076E-19 6.06846E-19
 -1      1288 8.59063E-05-4.09706E-06-3.51305E-05-1.64316E-05-4.38551E-19-1.08322E-18
 -1      1289 8.71588E-05-4.08972E-06-3.56000E-05-1.88524E-05-4.97261E-19-6.73603E-19
 -1      1290 9.21368E-05-1.04636E-05-3.50943E-05-1.90339E-05-7.82711E-19-4.54751E-20
 -1      1291 8.40956E-05-3.19048E-06-3.46866E-05-1.28140E-05-3.03053E-19-1.51689E-18
 -1      1292 8.47088E-05-3.16126E-06-3.49115E-05-1.46290E-05-3.68645E-19-1.31012E-18
 -1      1293 8.78683E-05-7.39576E-06-3.45741E-05-1.54101E-05-6.81385E-19-8.40865E-19
 -1      1294 8.31822E-05-2.72684E-06-3.44694E-05-9.68532E-06-1.98715E-19-1.74461E-18
 -1      1295 8.34961E-05-2.70844E-06-3.45789E-05-1.12322E-05-2.31161E-19-1.66654E-18
 -1      1296 8.58650E-05-5.98171E-06-3.43050E-05-1.19530E-05-4.33099E-19-1.26552E-18
 -1      1297 8.26905E-05-2.45707E-06-3.43624E-05-6.91396E-06-7.36687E-20-1.77559E-18
 -1      1298 8.28601E-05-2.44865E-06-3.44171E-05-8.28495E-06-1.31720E-19-1.74315E-18
 -1      1299 8.48176E-05-5.21599E-06-3.41718E-05-8.94382E-06-2.83207E-19-1.42164E-18
 -1      1300 8.24140E-05-2.29130E-06-3.43093E-05-4.29395E-06-1.12000E-21-1.70181E-18
 -1      1301 8.25056E-05-2.28741E-06-3.43367E-05-5.59505E-06-3.22468E-20-1.76167E-18
 -1      1302 8.42313E-05-4.76095E-06-3.41081E-05-6.21557E-06-7.99751E-20-1.47932E-18
 -1      1303 8.22809E-05-2.20171E-06-3.42868E-05-1.78946E-06 1.49881E-19-1.62322E-18
 -1      1304 8.23201E-05-2.20016E-06-3.42980E-05-3.04030E-06 9.41729E-20-1.65598E-18
 -1      1305 8.39076E-05-4.49678E-06-3.40789E-05-3.64386E-06 8.43187E-20-1.32788E-18
 -1      1306 8.22546E-05-2.17413E-06-3.42841E-05 6.69843E-07 2.28035E-19-1.51582E-18
 -1      1307 8.22532E-05-2.17419E-06-3.42837E-05-5.65798E-07 2.04801E-19-1.58655E-18
 -1      1308 8.37656E-05-4.37695E-06-3.40678E-05-1.17019E-06 2.90597E-19-1.28876E-18
 -1      1309 8.23284E-05-2.20439E-06-3.42994E-05 3.14791E-06 3.34386E-19-1.41949E-18
 -1      1310 8.22864E-05-2.20602E-06-3.42876E-05 1.89452E-06 2.98437E-19-1.49010E-18
 -1      1311 8.37704E-05-4.38111E-06-3.40682E-05 1.27364E-06 4.33060E-19-1.20627E-18
 -1      1312 8.25224E-05-2.29749E-06-3.43394E-05 5.71171E-06 3.83597E-19-1.18238E-18
 -1      1313 8.24274E-05-2.30085E-06-3.43112E-05 4.40477E-06 3.55959E-19-1.32628E-18
 -1      1314 8.39228E-05-4.51011E-06-3.40799E-05 3.75157E-06 5.59252E-19-1.08264E-18
 -1      1315 8.28833E-05-2.46337E-06-3.44201E-05 8.39304E-06 4.82174E-19-8.41104E-19
 -1      1316 8.27098E-05-2.47204E-06-3.43649E-05 7.01344E-06 4.51029E-19-1.03145E-18
 -1      1317 8.42563E-05-4.78342E-06-3.41093E-05 6.30961E-06 6.82176E-19-8.41501E-19
 -1      1318 8.35430E-05-2.74090E-06-3.45841E-05 1.13931E-05 6.43361E-19-4.45963E-19
 -1      1319 8.32209E-05-2.75798E-06-3.44730E-05 9.82819E-06 5.88701E-19-6.71618E-19
 -1      1320 8.48606E-05-5.25695E-06-3.41730E-05 9.05231E-06 8.85738E-19-4.84582E-19
 -1      1321 8.47658E-05-3.20333E-06-3.49193E-05 1.48418E-05 7.34139E-19 2.03420E-19
 -1      1322 8.41526E-05-3.24004E-06-3.46923E-05 1.30014E-05 6.67965E-19-1.97438E-19
 -1      1323 8.59456E-05-6.06248E-06-3.43063E-05 1.21207E-05 1.05619E-18-6.10923E-20
 -1      1324 8.72580E-05-4.09076E-06-3.56217E-05 1.90894E-05 7.19660E-19 1.37121E-18
 -1      1325 8.59739E-05-4.15458E-06-3.51381E-05 1.66911E-05 6.89194E-19 6.74185E-19
 -1      1326 8.79925E-05-7.51741E-06-3.45762E-05 1.56484E-05 1.13497E-18 6.79162E-19
 -1      1327 9.34730E-05-6.79339E-06-3.71190E-05 2.50951E-05 5.41148E-19 3.29453E-18
 -1      1328 9.01384E-05-6.43880E-06-3.60409E-05 2.11473E-05 5.58354E-19 2.13886E-18
 -1      1329 9.23668E-05-1.06992E-05-3.50797E-05 1.96746E-05 1.00024E-18 1.88719E-18
 -1      1330 1.23634E-04-2.49255E-05-3.90175E-05 2.83663E-05 1.46325E-19 6.44804E-18
 -1      1331 1.00089E-04-1.44258E-05-3.73567E-05 2.40494E-05 1.95453E-19 4.32294E-18
 -1      1332 1.01687E-04-1.93446E-05-3.54049E-05 2.13971E-05 7.75194E-19 3.61260E-18
 -1      1333 1.02614E-04-2.78081E-05-3.47607E-05 7.32811E-06 3.36616E-19 6.46900E-18
 -1      1334 1.05157E-04-3.02335E-05-3.35282E-05-7.95858E-06-4.28175E-19 3.11835E-18
 -1      1335 9.82717E-05-2.78463E-05-3.07653E-05-4.98752E-06-4.02129E-19 2.62797E-18
 -1      1336 9.55141E-05-2.78525E-05-2.92579E-05-2.48839E-06-3.48263E-19 2.36964E-18
 -1      1337 9.32832E-05-2.75621E-05-2.82189E-05-2.04165E-06-3.64515E-19 1.85389E-18
 -1      1338 9.94946E-05-2.80547E-05-3.09858E-05-7.88491E-06-7.75988E-19 1.36478E-18
 -1      1339 9.15947E-05-2.72047E-05-2.75849E-05-8.37098E-07-2.76894E-19 1.64793E-18
 -1      1340 9.08790E-05-2.71097E-05-2.72829E-05-7.27177E-07-2.39512E-19 1.26719E-18
 -1      1341 9.47297E-05-2.77740E-05-2.88197E-05-3.11810E-06-6.48007E-19 1.06050E-18
 -1      1342 9.01293E-05-2.69267E-05-2.70400E-05-1.73499E-07-1.75693E-19 1.05736E-18
 -1      1343 9.00573E-05-2.69535E-05-2.70054E-05-1.15221E-07-2.00548E-19 7.44224E-19
 -1      1344 9.25321E-05-2.75031E-05-2.78995E-05-1.05194E-06-4.79441E-19 7.34007E-19
 -1      1345 8.97986E-05-2.68863E-05-2.69314E-05 1.55416E-07-1.94735E-20 8.03358E-19
 -1      1346 9.00142E-05-2.69768E-05-2.69933E-05 1.84123E-07 1.83171E-20 7.86457E-19
 -1      1347 9.15744E-05-2.73599E-05-2.75330E-05-6.84613E-08-2.10878E-19 5.10218E-19
 -1      1348 9.00187E-05-2.69803E-05-2.70000E-05 3.15099E-07-4.82817E-20 7.46044E-19
 -1      1349 9.03619E-05-2.71002E-05-2.70993E-05 3.26752E-07-9.95777E-20 6.60282E-19
 -1      1350 9.13228E-05-2.73485E-05-2.74254E-05 4.19102E-07-5.43805E-20 4.58291E-19
 -1      1351 9.05044E-05-2.71421E-05-2.71466E-05 3.80993E-07-7.37889E-20 6.34150E-19
 -1      1352 9.08926E-05-2.72705E-05-2.72588E-05 3.82597E-07-1.02221E-19 4.63029E-19
 -1      1353 9.14569E-05-2.74227E-05-2.74479E-05 6.46747E-07-2.07241E-19 5.01214E-19
 -1      1354 9.11009E-05-2.73309E-05-2.73253E-05 3.92785E-07 1.19181E-20 3.14696E-19
 -1      1355 9.14883E-05-2.74556E-05-2.74375E-05 3.88502E-07-5.63072E-20 2.11838E-19
 -1      1356 9.17902E-05-2.75418E-05-2.75370E-05 7.28363E-07-2.57415E-19 2.07717E-19
 -1      1357 9.17195E-05-2.75223E-05-2.75104E-05 3.73433E-07-1.33705E-19 2.61975E-19
 -1      1358 9.20805E-05-2.76365E-05-2.76154E-05 3.65922E-07-3.59878E-19-2.02759E-20
 -1      1359 9.22119E-05-2.76789E-05-2.76570E-05 7.25660E-07-2.23864E-19 1.10511E-19
 -1      1360 9.23091E-05-2.77023E-05-2.76872E-05 3.37229E-07-4.44262E-19-1.39066E-19
 -1      1361 9.26307E-05-2.78027E-05-2.77811E-05 3.28241E-07-1.70568E-19-3.91091E-19
 -1      1362 9.26555E-05-2.78173E-05-2.77865E-05 6.75365E-07-4.23031E-19 2.28061E-19
 -1      1363 9.28424E-05-2.78635E-05-2.78474E-05 2.93377E-07 6.07289E-20-6.77089E-19
 -1      1364 9.31193E-05-2.79492E-05-2.79285E-05 2.84061E-07-1.11705E-19-6.88280E-19
 -1      1365 9.30817E-05-2.79470E-05-2.79129E-05 6.00620E-07-3.23489E-19-2.00775E-19
 -1      1366 9.33069E-05-2.80029E-05-2.79871E-05 2.47830E-07-2.66685E-19-7.33239E-19
 -1      1367 9.35388E-05-2.80740E-05-2.80553E-05 2.38921E-07-2.45028E-19-1.12048E-18
 -1      1368 9.34691E-05-2.80629E-05-2.80290E-05 5.16331E-07-2.31427E-19-8.33827E-19
 -1      1369 9.36999E-05-2.81201E-05-2.81056E-05 2.04391E-07 2.14201E-19-1.07315E-18
 -1      1370 9.38896E-05-2.81778E-05-2.81615E-05 1.96343E-07 6.78602E-20-8.64354E-19
 -1      1371 9.38079E-05-2.81629E-05-2.81313E-05 4.32095E-07-7.07994E-20-7.72659E-19
 -1      1372 9.40248E-05-2.82164E-05-2.82037E-05 1.65437E-07-2.02605E-19-9.87176E-19
 -1      1373 9.41772E-05-2.82624E-05-2.82487E-05 1.58523E-07-1.89719E-19-9.51835E-19
 -1      1374 9.40962E-05-2.82469E-05-2.82191E-05 3.54016E-07-8.89682E-20-7.52843E-19
 -1      1375 9.42892E-05-2.82942E-05-2.82837E-05 1.32442E-07-1.71664E-19-1.02175E-18
 -1      1376 9.44103E-05-2.83304E-05-2.83196E-05 1.26825E-07-3.37694E-19-1.24170E-18
 -1      1377 9.43370E-05-2.83162E-05-2.82929E-05 2.85926E-07-4.25038E-19-9.80528E-19
 -1      1378 9.45030E-05-2.83567E-05-2.83485E-05 1.06353E-07-4.01391E-19-1.29331E-18
 -1      1379 9.45996E-05-2.83852E-05-2.83773E-05 1.02144E-07-4.52123E-19-1.79568E-18
 -1      1380 9.45367E-05-2.83728E-05-2.83546E-05 2.30270E-07-4.77957E-19-1.03031E-18
 -1      1381 9.46781E-05-2.84074E-05-2.84018E-05 8.78905E-08-2.36380E-19-1.83028E-18
 -1      1382 9.47575E-05-2.84304E-05-2.84256E-05 8.51907E-08-6.28565E-20-1.87620E-18
 -1      1383 9.47040E-05-2.84195E-05-2.84067E-05 1.88764E-07-3.61409E-19-9.11319E-19
 -1      1384 9.48276E-05-2.84501E-05-2.84474E-05 7.77715E-08-4.65837E-20-2.04340E-18
 -1      1385 9.48978E-05-2.84702E-05-2.84686E-05 7.67115E-08-2.69079E-19-2.30246E-18
 -1      1386 9.48494E-05-2.84594E-05-2.84524E-05 1.62913E-07-8.79041E-20-1.49531E-18
 -1      1387 9.49661E-05-2.84894E-05-2.84898E-05 7.68987E-08-4.34294E-19-2.28937E-18
 -1      1388 9.50358E-05-2.85090E-05-2.85109E-05 7.76657E-08-6.67777E-19-3.10325E-18
 -1      1389 9.49849E-05-2.84959E-05-2.84954E-05 1.54406E-07-6.24065E-19-1.94081E-18
 -1      1390 9.51099E-05-2.85298E-05-2.85340E-05 8.65081E-08 1.44496E-19-3.19293E-18
 -1      1391 9.51892E-05-2.85521E-05-2.85580E-05 8.93717E-08 3.05253E-19-2.70683E-18
 -1      1392 9.51246E-05-2.85332E-05-2.85399E-05 1.65447E-07-4.28159E-19-1.56497E-18
 -1      1393 9.52779E-05-2.85771E-05-2.85856E-05 1.08292E-07 1.79018E-19-2.22191E-18
 -1      1394 9.53783E-05-2.86055E-05-2.86160E-05 1.13624E-07 1.17105E-19-1.87230E-18
 -1      1395 9.52843E-05-2.85756E-05-2.85909E-05 1.99010E-07 4.75988E-19-2.11151E-18
 -1      1396 9.54920E-05-2.86374E-05-2.86513E-05 1.44490E-07-3.51949E-20-1.88219E-18
 -1      1397 9.56272E-05-2.86761E-05-2.86921E-05 1.52782E-07-1.01015E-19-2.00934E-18
 -1      1398 9.54826E-05-2.86287E-05-2.86540E-05 2.59048E-07 5.04415E-21-1.21492E-18
 -1      1399 9.57781E-05-2.87186E-05-2.87391E-05 1.97950E-07 4.91196E-20-1.86360E-18
 -1      1400 9.59648E-05-2.87725E-05-2.87952E-05 2.09820E-07-7.81115E-20-2.25902E-18
 -1      1401 9.57416E-05-2.86986E-05-2.87361E-05 3.50628E-07 2.40213E-20-1.53572E-18
 -1      1402 9.61671E-05-2.88296E-05-2.88582E-05 2.72127E-07-1.31773E-19-2.02001E-18
 -1      1403 9.64252E-05-2.89049E-05-2.89355E-05 2.88318E-07-3.76256E-20-2.14196E-18
 -1      1404 9.60871E-05-2.87928E-05-2.88450E-05 4.79967E-07 1.67774E-19-1.32932E-18
 -1      1405 9.66960E-05-2.89814E-05-2.90199E-05 3.70982E-07 1.51584E-19-2.12938E-18
 -1      1406 9.70494E-05-2.90854E-05-2.91254E-05 3.92336E-07 2.81523E-19-1.45206E-18
 -1      1407 9.65495E-05-2.89203E-05-2.89901E-05 6.54307E-07 1.86850E-19-1.00908E-18
 -1      1408 9.74080E-05-2.91869E-05-2.92372E-05 4.98700E-07 1.92391E-19-1.77278E-18
 -1      1409 9.78845E-05-2.93282E-05-2.93791E-05 5.26092E-07 2.75700E-19-1.81496E-18
 -1      1410 9.71643E-05-2.90913E-05-2.91819E-05 8.81494E-07 5.94941E-20-1.26049E-18
 -1      1411 9.83525E-05-2.94610E-05-2.95250E-05 6.59080E-07-1.85862E-19-1.89001E-18
 -1      1412 9.89838E-05-2.96495E-05-2.97126E-05 6.93272E-07-4.67710E-19-2.20071E-18
 -1      1413 9.79712E-05-2.93182E-05-2.94325E-05 1.16903E-06-2.20214E-19-2.09549E-18
 -1      1414 9.95839E-05-2.98204E-05-2.98996E-05 8.54344E-07 1.62008E-19-2.13615E-18
 -1      1415 1.00404E-04-3.00672E-05-3.01426E-05 8.95691E-07 1.37327E-19-2.04811E-18
 -1      1416 9.90137E-05-2.96145E-05-2.97543E-05 1.52221E-06-6.75922E-20-2.19350E-18
 -1      1417 1.01157E-04-3.02828E-05-3.03771E-05 1.08294E-06-5.77835E-20-1.61896E-18
 -1      1418 1.02197E-04-3.05986E-05-3.06845E-05 1.13086E-06 4.18719E-21-1.42172E-18
 -1      1419 1.00335E-04-2.99951E-05-3.01595E-05 1.94063E-06 4.53262E-20-1.23403E-18
 -1      1420 1.03120E-04-3.08647E-05-3.09710E-05 1.33577E-06-3.10582E-19-1.38851E-18
 -1      1421 1.04402E-04-3.12583E-05-3.13485E-05 1.38777E-06-6.21464E-19-1.57889E-18
 -1      1422 1.01973E-04-3.04750E-05-3.06575E-05 2.41219E-06-1.40990E-19-1.30957E-18
 -1      1423 1.05497E-04-3.15778E-05-3.16867E-05 1.58988E-06-3.67922E-19-1.42147E-18
 -1      1424 1.07019E-04-3.20515E-05-3.21322E-05 1.64001E-06 2.38509E-19-1.21247E-18
 -1      1425 1.03949E-04-3.10673E-05-3.12507E-05 2.90302E-06-7.72904E-19-3.82505E-19
 -1      1426 1.08264E-04-3.24218E-05-3.25129E-05 1.79923E-06 7.58722E-19-1.57741E-18
 -1      1427 1.09972E-04-3.29645E-05-3.30093E-05 1.83560E-06 2.76670E-19-7.24663E-19
 -1      1428 1.06247E-04-3.17796E-05-3.19288E-05 3.34216E-06 4.28318E-19-1.31361E-19
 -1      1429 1.11302E-04-3.33730E-05-3.34084E-05 1.88254E-06 1.54772E-19-2.15133E-19
 -1      1430 1.13061E-04-3.39486E-05-3.39127E-05 1.88432E-06 2.08817E-19-3.76268E-20
 -1      1431 1.08792E-04-3.26070E-05-3.26589E-05 3.60101E-06 5.18692E-19-4.70768E-19
 -1      1432 1.14345E-04-3.43660E-05-3.42839E-05 1.71286E-06 3.32738E-19 1.85818E-20
 -1      1433 1.15886E-04-3.48966E-05-3.47148E-05 1.64785E-06 5.69499E-19 6.60474E-19
 -1      1434 1.11406E-04-3.35198E-05-3.33750E-05 3.47244E-06 3.93824E-19-5.73752E-19
 -1      1435 1.16908E-04-3.52679E-05-3.49847E-05 1.12088E-06-2.22836E-19 6.19631E-19
 -1      1436 1.17796E-04-3.56170E-05-3.52146E-05 9.47924E-07-8.35717E-20 5.31473E-19
 -1      1437 1.13764E-04-3.44412E-05-3.39677E-05 2.66659E-06 3.42592E-19-7.74241E-21
 -1      1438 1.18242E-04-3.58501E-05-3.52852E-05-6.21737E-08 3.83673E-19 5.96510E-19
 -1      1439 1.17889E-04-3.58166E-05-3.51511E-05-3.78113E-07-1.57548E-19 5.67658E-19
 -1      1440 1.15357E-04-3.52139E-05-3.42848E-05 8.61202E-07-7.95417E-21-7.73844E-20
 -1      1441 1.17386E-04-3.57776E-05-3.49208E-05-1.88815E-06-2.09429E-19 3.40666E-19
 -1      1442 1.15198E-04-3.51303E-05-3.42718E-05-2.33838E-06 1.98259E-20-1.03894E-19
 -1      1443 1.15499E-04-3.55624E-05-3.41558E-05-2.13668E-06 1.25599E-20 4.89430E-19
 -1      1444 1.13429E-04-3.46648E-05-3.36821E-05-4.09615E-06-1.22833E-19 1.07864E-18
 -1      1445 1.09137E-04-3.32550E-05-3.24737E-05-4.57372E-06 1.22674E-19 8.02405E-19
 -1      1446 1.13459E-04-3.50964E-05-3.34528E-05-6.08127E-06 1.18280E-19 2.24662E-20
 -1      1447 1.06075E-04-3.22747E-05-3.15691E-05-5.94982E-06 4.08515E-19 4.78415E-19
 -1      1448 1.00182E-04-3.02226E-05-2.99668E-05-6.22774E-06-2.83154E-19 4.74709E-19
 -1      1449 1.08807E-04-3.34534E-05-3.21792E-05-9.94332E-06 2.53567E-19 1.31952E-20
 -1      1450 9.63613E-05-2.88642E-05-2.89294E-05-6.38815E-06-2.82135E-19 2.20758E-19
 -1      1451 9.03469E-05-2.66980E-05-2.73302E-05-6.22203E-06-6.79221E-19-5.87100E-19
 -1      1452 1.01968E-04-3.06479E-05-3.05381E-05-1.19298E-05-3.19444E-19-8.13681E-19
 -1      1453 8.69076E-05-2.54223E-05-2.64337E-05-4.71776E-06-8.16712E-19-1.06324E-18
 -1      1454 8.27432E-05-2.39277E-05-2.53230E-05-4.07987E-06-4.83285E-19-1.58260E-18
 -1      1455 9.46318E-05-2.74434E-05-2.89058E-05-1.03736E-05-9.90658E-19-1.28479E-18
 -1      1456 8.08958E-05-2.32947E-05-2.48103E-05-1.43673E-06 1.11266E-19-1.09660E-18
 -1      1457 7.99109E-05-2.30288E-05-2.45006E-05-6.35719E-07-1.87022E-19-1.57980E-18
 -1      1458 8.92823E-05-2.51650E-05-2.76911E-05-5.28585E-06-3.77168E-19-1.78174E-18
 -1      1459 8.00907E-05-2.32491E-05-2.44524E-05 1.81226E-06-1.44591E-19-7.83823E-19
 -1      1460 8.20563E-05-2.41065E-05-2.48948E-05 2.33387E-06 7.65043E-19-1.78724E-19
 -1      1461 8.76907E-05-2.48059E-05-2.71448E-05 1.00604E-06 5.17272E-19-1.11481E-18
 -1      1462 8.35756E-05-2.48275E-05-2.51949E-05 3.44499E-06 1.08774E-18-1.34075E-18
 -1      1463 8.69280E-05-2.61417E-05-2.60269E-05 3.48890E-06 7.99996E-19 4.08693E-20
 -1      1464 8.95675E-05-2.61694E-05-2.72446E-05 5.33209E-06 9.66200E-19-5.58870E-19
 -1      1465 8.86052E-05-2.68088E-05-2.64441E-05 3.13484E-06 1.02484E-19 3.67401E-19
 -1      1466 9.15989E-05-2.78831E-05-2.72376E-05 2.84384E-06 2.46506E-19 1.00098E-18
 -1      1467 9.28850E-05-2.80607E-05-2.77355E-05 6.13133E-06 1.14570E-18-9.03784E-19
 -1      1468 9.26036E-05-2.81702E-05-2.75652E-05 1.76078E-06-5.61689E-20 8.45921E-19
 -1      1469 9.43374E-05-2.86958E-05-2.80699E-05 1.42396E-06-4.34038E-19 3.82184E-19
 -1      1470 9.55130E-05-2.93111E-05-2.82789E-05 4.24988E-06 4.91676E-21-1.03504E-18
 -1      1471 9.45222E-05-2.86106E-05-2.82254E-05 5.09300E-07 2.29586E-19 8.11709E-19
 -1      1472 9.51579E-05-2.87107E-05-2.84426E-05 3.47359E-07 5.62572E-19 8.86910E-19
 -1      1473 9.64882E-05-2.95084E-05-2.86352E-05 1.75149E-06-2.92015E-19-1.15100E-18
 -1      1474 9.48780E-05-2.84798E-05-2.84556E-05 9.07308E-08-2.25496E-19 3.46777E-19
 -1      1475 9.51718E-05-2.85412E-05-2.85161E-05 1.05507E-07-8.34311E-19-4.63651E-20
 -1      1476 9.61168E-05-2.89647E-05-2.87376E-05 3.08542E-07-2.13677E-20-4.91603E-19
 -1      1477 9.50188E-05-2.86045E-05-2.84164E-05 2.06915E-07-6.71247E-19 1.12138E-18
 -1      1478 9.54326E-05-2.86465E-05-2.85996E-05 2.13605E-07-2.93153E-19 6.42852E-20
 -1      1479 9.65888E-05-2.83671E-05-2.97759E-05 2.99491E-06 3.70815E-19 5.64299E-18
 -1      1480 1.02547E-04-2.94016E-05-3.21590E-05 4.46198E-06 3.09326E-19 6.14469E-18
 -1      1481 1.02336E-04-2.67211E-05-3.27087E-05 1.27816E-05 5.46813E-19 4.33829E-18
 -1      1482 9.20438E-05-2.74332E-05-2.77657E-05 1.15117E-06 4.48239E-19 4.63232E-18
 -1      1483 9.39896E-05-2.75881E-05-2.86796E-05 1.47314E-06 3.70273E-19 5.23365E-18
 -1      1484 9.64979E-05-2.80336E-05-2.95371E-05 4.86615E-06 6.49912E-19 3.68782E-18
 -1      1485 9.02126E-05-2.70089E-05-2.70673E-05 3.30941E-07 2.46586E-19 3.90257E-18
 -1      1486 9.08267E-05-2.70261E-05-2.73397E-05 4.93843E-07 2.66716E-19 4.33710E-18
 -1      1487 9.30544E-05-2.75825E-05-2.81024E-05 1.85025E-06 6.66390E-19 3.09647E-18
 -1      1488 8.96967E-05-2.68911E-05-2.68920E-05-5.59458E-08 1.58855E-19 3.46230E-18
 -1      1489 8.97332E-05-2.68285E-05-2.69200E-05 3.32222E-08 1.81146E-19 3.63610E-18
 -1      1490 9.15024E-05-2.73117E-05-2.75191E-05 5.16277E-07 3.87134E-19 2.52307E-18
 -1      1491 8.98300E-05-2.69440E-05-2.69342E-05-2.43254E-07 1.74039E-20 3.28215E-18
 -1      1492 8.96006E-05-2.68361E-05-2.68689E-05-1.92958E-07 3.66135E-20 3.25143E-18
 -1      1493 9.09718E-05-2.72310E-05-2.73232E-05-1.33621E-07 1.60910E-19 2.28105E-18
 -1      1494 9.02837E-05-2.70867E-05-2.70728E-05-3.26322E-07-5.63376E-20 3.35599E-18
 -1      1495 8.99360E-05-2.69592E-05-2.69711E-05-2.98626E-07-1.35123E-19 3.11244E-18
 -1      1496 9.09902E-05-2.72744E-05-2.73126E-05-4.52307E-07-5.85702E-20 1.92477E-18
 -1      1497 9.08785E-05-2.72691E-05-2.72523E-05-3.50593E-07 1.11812E-19 3.46267E-18
 -1      1498 9.04904E-05-2.71386E-05-2.71386E-05-3.36895E-07-2.56840E-21 3.45726E-18
 -1      1499 9.12951E-05-2.73865E-05-2.73943E-05-5.92189E-07-1.23078E-19 2.00119E-18
 -1      1500 9.15115E-05-2.74612E-05-2.74429E-05-3.41066E-07 1.77314E-19 3.06705E-18
 -1      1501 9.11267E-05-2.73375E-05-2.73300E-05-3.36171E-07 2.17486E-19 3.45807E-18
 -1      1502 9.17354E-05-2.75302E-05-2.75201E-05-6.30080E-07 3.03237E-19 2.18724E-18
 -1      1503 9.21237E-05-2.76458E-05-2.76273E-05-3.12793E-07 1.93879E-19 2.70371E-18
 -1      1504 9.17664E-05-2.75343E-05-2.75222E-05-3.13349E-07 1.15552E-19 2.94107E-18
 -1      1505 9.22220E-05-2.76824E-05-2.76622E-05-6.09323E-07 2.69353E-19 1.98149E-18
 -1      1506 9.26825E-05-2.78135E-05-2.77960E-05-2.75309E-07-1.12841E-19 3.05604E-18
 -1      1507 9.23651E-05-2.77166E-05-2.77023E-05-2.79080E-07-5.12025E-22 2.72176E-18
 -1      1508 9.27020E-05-2.78291E-05-2.78041E-05-5.56334E-07 4.54536E-21 2.19939E-18
 -1      1509 9.31724E-05-2.79600E-05-2.79441E-05-2.34745E-07 3.94930E-19 2.85261E-18
 -1      1510 9.28998E-05-2.78781E-05-2.78634E-05-2.40219E-07 1.27796E-19 2.92715E-18
 -1      1511 9.31460E-05-2.79627E-05-2.79364E-05-4.87899E-07 3.77227E-20 2.27420E-18
 -1      1512 9.35888E-05-2.80840E-05-2.80701E-05-1.95023E-07 6.87681E-20 2.54318E-18
 -1      1513 9.33610E-05-2.80167E-05-2.80025E-05-2.01176E-07 1.32494E-19 2.65586E-18
 -1      1514 9.35390E-05-2.80796E-05-2.80543E-05-4.14830E-07 3.37607E-19 1.86702E-18
 -1      1515 9.39342E-05-2.81866E-05-2.81749E-05-1.58603E-07 1.08739E-19 2.49760E-18
 -1      1516 9.37481E-05-2.81323E-05-2.81195E-05-1.64745E-07 1.24414E-19 2.42967E-18
 -1      1517 9.38760E-05-2.81790E-05-2.81559E-05-3.44052E-07 2.95045E-19 1.77902E-18
 -1      1518 9.42155E-05-2.82699E-05-2.82604E-05-1.26994E-07 1.04327E-19 2.22826E-18
 -1      1519 9.40662E-05-2.82268E-05-2.82158E-05-1.32657E-07 8.83876E-20 2.26988E-18
 -1      1520 9.41585E-05-2.82614E-05-2.82414E-05-2.79936E-07 1.65725E-19 1.81889E-18
 -1      1521 9.44425E-05-2.83367E-05-2.83295E-05-1.01124E-07 4.18753E-20 2.00136E-18
 -1      1522 9.43239E-05-2.83030E-05-2.82939E-05-1.05983E-07 2.42400E-19 2.39990E-18
 -1      1523 9.43918E-05-2.83289E-05-2.83124E-05-2.25216E-07 2.05846E-19 1.75286E-18
 -1      1524 9.46266E-05-2.83907E-05-2.83857E-05-8.16269E-08 1.69019E-19 1.63183E-18
 -1      1525 9.45319E-05-2.83640E-05-2.83572E-05-8.54289E-08 9.83437E-20 1.64101E-18
 -1      1526 9.45843E-05-2.83840E-05-2.83714E-05-1.81667E-07 2.63882E-19 1.26427E-18
 -1      1527 9.47809E-05-2.84357E-05-2.84329E-05-6.90517E-08 6.65863E-19 6.19977E-19
 -1      1528 9.47029E-05-2.84137E-05-2.84092E-05-7.15680E-08 3.97686E-19 1.23033E-18
 -1      1529 9.47462E-05-2.84297E-05-2.84212E-05-1.50609E-07 6.51184E-19 4.68048E-19
 -1      1530 9.49198E-05-2.84760E-05-2.84755E-05-6.40354E-08 1.02915E-19-7.91870E-19
 -1      1531 9.48504E-05-2.84562E-05-2.84543E-05-6.50149E-08 5.62326E-19 3.15097E-19
 -1      1532 9.48893E-05-2.84697E-05-2.84656E-05-1.33296E-07 1.01095E-18 1.39909E-19
 -1      1533 9.50593E-05-2.85163E-05-2.85184E-05-6.74331E-08-1.59231E-19-8.70105E-20
 -1      1534 9.49898E-05-2.84959E-05-2.84971E-05-6.65654E-08-3.41892E-19-4.49818E-19
 -1      1535 9.50270E-05-2.85077E-05-2.85086E-05-1.31220E-07-2.90554E-19 5.62572E-20
 -1      1536 9.52177E-05-2.85620E-05-2.85670E-05-8.04182E-08-3.25588E-19 6.40028E-19
 -1      1537 9.51381E-05-2.85379E-05-2.85426E-05-7.73008E-08-4.76676E-19 1.62026E-19
 -1      1538 9.51745E-05-2.85484E-05-2.85548E-05-1.46341E-07-7.27791E-19 1.97849E-19
 -1      1539 9.54159E-05-2.86194E-05-2.86277E-05-1.04548E-07 1.87838E-19 9.26957E-19
 -1      1540 9.53148E-05-2.85880E-05-2.85967E-05-9.86602E-08-4.48423E-20 8.30740E-19
 -1      1541 9.53494E-05-2.85967E-05-2.86096E-05-1.81251E-07-4.14285E-19 1.34775E-19
 -1      1542 9.56785E-05-2.86957E-05-2.87080E-05-1.41788E-07 4.35505E-19-4.96125E-19
 -1      1543 9.55424E-05-2.86527E-05-2.86664E-05-1.32471E-07 4.55764E-19 8.19325E-19
 -1      1544 9.55718E-05-2.86586E-05-2.86791E-05-2.39266E-07 4.82791E-19 3.39096E-19
 -1      1545 9.60343E-05-2.87995E-05-2.88165E-05-1.94472E-07 1.28331E-19-6.77442E-19
 -1      1546 9.58473E-05-2.87399E-05-2.87596E-05-1.80926E-07 2.31984E-19-4.64230E-19
 -1      1547 9.58651E-05-2.87409E-05-2.87705E-05-3.24411E-07 5.76907E-19-2.30259E-19
 -1      1548 9.65168E-05-2.89409E-05-2.89633E-05-2.65166E-07-6.34941E-19 3.40233E-19
 -1      1549 9.62602E-05-2.88587E-05-2.88855E-05-2.46464E-07-5.65445E-19-5.89753E-19
 -1      1550 9.62567E-05-2.88517E-05-2.88920E-05-4.41255E-07-5.56686E-19-4.45783E-19
 -1      1551 9.71643E-05-2.91313E-05-2.91598E-05-3.56369E-07-6.64850E-19 2.34691E-18
 -1      1552 9.68167E-05-2.90196E-05-2.90548E-05-3.31516E-07-5.00261E-19 1.42392E-18
 -1      1553 9.67774E-05-2.90003E-05-2.90529E-05-5.94502E-07-1.27609E-18 8.78703E-19
 -1      1554 9.80190E-05-2.93837E-05-2.94187E-05-4.69951E-07-1.87241E-20 2.94634E-18
 -1      1555 9.75565E-05-2.92349E-05-2.92795E-05-4.38011E-07-3.54115E-19 2.60049E-18
 -1      1556 9.74614E-05-2.91971E-05-2.92635E-05-7.88196E-07-7.95350E-19 1.71123E-18
 -1      1557 9.91243E-05-2.97115E-05-2.97528E-05-6.06166E-07 1.96657E-19 1.70722E-18
 -1      1558 9.85220E-05-2.95175E-05-2.95722E-05-5.66518E-07 6.55104E-19 2.40154E-18
 -1      1559 9.83447E-05-2.94534E-05-2.95342E-05-1.02429E-06 7.78886E-19 1.92273E-18
 -1      1560 1.00520E-04-3.01274E-05-3.01736E-05-7.62015E-07-3.49782E-20 1.54383E-18
 -1      1561 9.97548E-05-2.98808E-05-2.99449E-05-7.14796E-07-1.85606E-19 1.44086E-18
 -1      1562 9.94613E-05-2.97805E-05-2.98746E-05-1.30025E-06 1.19781E-19 1.84217E-18
 -1      1563 1.02232E-04-3.06407E-05-3.06880E-05-9.28631E-07-3.14483E-19 1.76410E-18
 -1      1564 1.01289E-04-3.03367E-05-3.04073E-05-8.75505E-07-2.23646E-19 1.40924E-18
 -1      1565 1.00838E-04-3.01885E-05-3.02917E-05-1.60518E-06-1.25184E-19 1.43681E-18
 -1      1566 1.04259E-04-3.12530E-05-3.12939E-05-1.08738E-06 3.88748E-19 1.00733E-18
 -1      1567 1.03138E-04-3.08920E-05-3.09622E-05-1.03275E-06 2.39882E-19 1.60967E-18
 -1      1568 1.02483E-04-3.06837E-05-3.07858E-05-1.91398E-06 2.11540E-19 1.17841E-18
 -1      1569 1.06544E-04-3.19509E-05-3.19718E-05-1.20459E-06-6.30076E-19 1.31091E-18
 -1      1570 1.05277E-04-3.15439E-05-3.16002E-05-1.15736E-06-3.75796E-19 1.06134E-18
 -1      1571 1.04373E-04-3.12642E-05-3.13463E-05-2.17905E-06-3.50876E-19 1.13772E-18
 -1      1572 1.08942E-04-3.26957E-05-3.26752E-05-1.22562E-06 2.90809E-19 2.08673E-18
 -1      1573 1.07614E-04-3.22713E-05-3.22906E-05-1.20137E-06 9.28800E-20 1.78552E-18
 -1      1574 1.06428E-04-3.19145E-05-3.19443E-05-2.32026E-06-3.52211E-19 1.09885E-18
 -1      1575 1.11180E-04-3.34098E-05-3.33175E-05-1.07112E-06 7.05592E-19 1.30210E-18
 -1      1576 1.09954E-04-3.30231E-05-3.29702E-05-1.09396E-06 4.46762E-19 1.80853E-18
 -1      1577 1.08484E-04-3.25955E-05-3.25240E-05-2.21601E-06 9.78419E-19 1.40042E-18
 -1      1578 1.12812E-04-3.39621E-05-3.37629E-05-6.42242E-07-8.63563E-19 5.98733E-19
 -1      1579 1.11953E-04-3.37033E-05-3.35326E-05-7.44259E-07-9.20817E-20 3.89344E-19
 -1      1580 1.10264E-04-3.32329E-05-3.29962E-05-1.70389E-06 3.56217E-19 5.40526E-19
 -1      1581 1.13220E-04-3.41600E-05-3.38298E-05 1.53092E-07 5.65772E-19-5.51961E-20
 -1      1582 1.13100E-04-3.41561E-05-3.38233E-05-6.11738E-08 1.77526E-19 2.62256E-19
 -1      1583 1.11358E-04-3.37036E-05-3.32367E-05-6.07057E-07 3.15030E-19 5.98968E-19
 -1      1584 1.11691E-04-3.37655E-05-3.33218E-05 1.33812E-06 5.49817E-19-1.45976E-18
 -1      1585 1.12733E-04-3.41626E-05-3.36540E-05 9.96344E-07 6.26070E-19-8.97928E-19
 -1      1586 1.11239E-04-3.38266E-05-3.31019E-05 1.18956E-06 1.09676E-18-8.09596E-19
 -1      1587 1.07649E-04-3.25607E-05-3.21009E-05 2.77053E-06-3.09299E-20-2.74791E-18
 -1      1588 1.10182E-04-3.34716E-05-3.28497E-05 2.33455E-06 3.00233E-19-2.05392E-18
 -1      1589 1.09374E-04-3.33785E-05-3.24690E-05 3.59735E-06 9.49484E-19-8.19087E-19
 -1      1590 1.01042E-04-3.04807E-05-3.01926E-05 4.06144E-06 3.57891E-19-2.91819E-18
 -1      1591 1.05062E-04-3.18951E-05-3.13351E-05 3.64094E-06 1.29517E-19-3.08564E-18
 -1      1592 1.05436E-04-3.21617E-05-3.13008E-05 6.15738E-06 2.25556E-19-1.59099E-18
 -1      1593 9.27578E-05-2.77812E-05-2.78749E-05 4.62400E-06-2.49946E-19-2.36396E-18
 -1      1594 9.76851E-05-2.94744E-05-2.92352E-05 4.39282E-06-4.54943E-19-2.99987E-18
 -1      1595 9.96365E-05-3.01489E-05-2.97134E-05 7.98948E-06-3.71225E-19-2.42352E-18
 -1      1596 8.46966E-05-2.51084E-05-2.56605E-05 3.96884E-06-7.65791E-19-1.59602E-18
 -1      1597 8.93643E-05-2.66408E-05-2.69262E-05 4.07493E-06-8.71120E-20-1.63647E-18
 -1      1598 9.29882E-05-2.76643E-05-2.79974E-05 8.07268E-06-6.80234E-19 4.78230E-19
 -1      1599 7.91361E-05-2.32867E-05-2.41163E-05 2.13013E-06-1.83277E-19-4.98664E-19
 -1      1600 8.22049E-05-2.41775E-05-2.49531E-05 2.57398E-06-8.64318E-19-1.19802E-18
 -1      1601 8.71754E-05-2.54109E-05-2.65403E-05 5.91672E-06-8.75806E-19 1.70862E-19
 -1      1602 7.75526E-05-2.28600E-05-2.35996E-05-1.71907E-07-6.00302E-19-1.48482E-19
 -1      1603 7.82180E-05-2.28678E-05-2.38127E-05 4.16366E-07-1.48098E-20-2.59086E-19
 -1      1604 8.38468E-05-2.41768E-05-2.56746E-05 2.14291E-06-5.90408E-20 4.97010E-19
 -1      1605 7.97214E-05-2.37215E-05-2.40679E-05-1.93758E-06 1.35944E-18-9.39148E-19
 -1      1606 7.81960E-05-2.30059E-05-2.37082E-05-1.46728E-06 5.86041E-19-2.23484E-19
 -1      1607 8.36634E-05-2.43114E-05-2.55205E-05-1.66517E-06 4.60018E-19 6.26394E-19
 -1      1608 8.39587E-05-2.52209E-05-2.51427E-05-2.57558E-06 1.39668E-18-5.13302E-18
 -1      1609 8.12814E-05-2.42166E-05-2.44542E-05-2.37795E-06 1.73252E-18-2.26020E-18
 -1      1610 8.59149E-05-2.54622E-05-2.59499E-05-3.99295E-06 2.65540E-18-9.79435E-19
 -1      1611 8.82774E-05-2.66353E-05-2.63360E-05-2.22671E-06 6.66526E-20-5.89736E-18
 -1      1612 8.56146E-05-2.57541E-05-2.56103E-05-2.26503E-06 6.66620E-19-5.25902E-18
 -1      1613 8.90774E-05-2.68589E-05-2.66736E-05-4.35663E-06 1.53735E-18-3.03631E-18
 -1      1614 9.14949E-05-2.75895E-05-2.73100E-05-1.49711E-06 4.46985E-19-5.78767E-18
 -1      1615 8.95066E-05-2.70049E-05-2.67326E-05-1.62057E-06 1.29232E-19-5.40942E-18
 -1      1616 9.18038E-05-2.78716E-05-2.73978E-05-3.40666E-06 7.87145E-20-1.60473E-18
 -1      1617 9.34990E-05-2.81344E-05-2.79598E-05-9.26126E-07-8.54643E-19-5.73030E-18
 -1      1618 9.22134E-05-2.77773E-05-2.75752E-05-1.01200E-06 8.16460E-20-5.04575E-18
 -1      1619 9.35391E-05-2.83318E-05-2.79459E-05-2.20775E-06 2.40015E-20-1.20902E-18
 -1      1620 9.47112E-05-2.85162E-05-2.83094E-05-6.13015E-07-2.13207E-19-3.14154E-18
 -1      1621 9.38999E-05-2.82557E-05-2.80959E-05-6.33623E-07-9.09531E-19-5.28575E-18
 -1      1622 9.44950E-05-2.85144E-05-2.82576E-05-1.39009E-06-9.59596E-19 2.18978E-19
 -1      1623 9.50375E-05-2.87578E-05-2.83281E-05-2.72590E-07-1.50168E-18-2.06650E-18
 -1      1624 9.57192E-05-2.97425E-05-2.82667E-05-6.15787E-07 2.59136E-18 3.75372E-18
 -1      1625 9.54173E-05-2.91967E-05-2.83498E-05-6.15877E-07-1.46193E-18 3.45675E-18
 -1      1626 9.59624E-05-2.94329E-05-2.85378E-05 3.80162E-07 2.40936E-18-2.88865E-18
 -1      1627 9.58898E-05-2.97127E-05-2.83748E-05 9.13051E-08 3.93484E-18 1.05297E-19
 -1      1628 9.58588E-05-2.93414E-05-2.85610E-05-3.85974E-07 3.53001E-19 3.24492E-18
 -1      1629 9.52814E-05-2.62964E-05-2.96251E-05 2.52609E-06 8.83601E-19-2.05538E-19
 -1      1630 9.58531E-05-2.85078E-05-2.89225E-05 2.00187E-06 2.90485E-18-1.46224E-18
 -1      1631 9.62676E-05-2.86406E-05-2.90922E-05 2.40139E-06 2.96412E-18-2.64437E-18
 -1      1632 9.31747E-05-1.90624E-05-3.18444E-05 5.42868E-06 2.47207E-18 1.70858E-18
 -1      1633 9.46841E-05-2.39214E-05-3.04278E-05 4.77385E-06 7.39830E-20 2.21711E-18
 -1      1634 9.57353E-05-2.56116E-05-3.02228E-05 7.05400E-06 2.55607E-18 7.23790E-19
 -1      1635 8.95009E-05-7.85626E-06-3.50602E-05 8.05641E-06 9.85523E-19-6.88876E-20
 -1      1636 9.19397E-05-1.50641E-05-3.30546E-05 7.54497E-06 1.59274E-18-5.56825E-19
 -1      1637 9.38110E-05-1.94341E-05-3.20506E-05 1.23749E-05 7.56189E-19 1.73483E-19
 -1      1638 8.46654E-05 5.76133E-06-3.87531E-05 8.95882E-06 9.42218E-19 1.17093E-18
 -1      1639 8.76336E-05-2.52729E-06-3.65285E-05 8.93729E-06-5.90805E-20 4.09669E-20
 -1      1640 9.02476E-05-1.01597E-05-3.44095E-05 1.61506E-05 8.73503E-22-6.98382E-19
 -1      1641 8.02372E-05 1.75211E-05-4.17894E-05 6.76539E-06 6.57721E-19-5.69894E-19
 -1      1642 8.26713E-05 1.09790E-05-4.00807E-05 7.49634E-06 3.99800E-19 2.07287E-18
 -1      1643 8.55986E-05 5.69819E-07-3.68199E-05 1.56098E-05-2.45295E-19 2.02426E-18
 -1      1644 7.81831E-05 2.27606E-05-4.30888E-05 1.67822E-06 2.02149E-18 1.62948E-19
 -1      1645 7.89803E-05 2.06450E-05-4.25417E-05 2.95279E-06 1.45541E-18 1.92700E-20
 -1      1646 8.16140E-05 9.18005E-06-3.85866E-05 9.21819E-06 1.14561E-19 7.16008E-20
 -1      1647 7.95911E-05 1.91247E-05-4.21711E-05-4.13260E-06 3.78592E-18 7.21884E-19
 -1      1648 7.83595E-05 2.23542E-05-4.29988E-05-2.94880E-06 1.72042E-18 1.56381E-18
 -1      1649 8.02914E-05 1.19956E-05-3.91467E-05-1.20062E-06 2.25106E-18 1.41918E-18
 -1      1650 8.37014E-05 8.36030E-06-3.94319E-05-7.96037E-06 2.33622E-18-2.22087E-18
 -1      1651 8.10882E-05 1.54242E-05-4.12819E-05-7.43051E-06 4.65519E-18-2.09745E-18
 -1      1652 8.23559E-05 7.71839E-06-3.83264E-05-1.09587E-05 9.50106E-19-5.81806E-20
 -1      1653 8.84667E-05-4.74964E-06-3.59525E-05-8.59041E-06 1.71683E-18 3.58311E-19
 -1      1654 8.56612E-05 3.17762E-06-3.80953E-05-8.76741E-06 2.43363E-18-1.04797E-18
 -1      1655 8.66076E-05-1.45815E-06-3.64372E-05-1.58598E-05 1.76066E-18-3.03227E-18
 -1      1656 9.23704E-05-1.63529E-05-3.26893E-05-6.73322E-06 2.32389E-18 1.11108E-18
 -1      1657 9.01695E-05-9.73469E-06-3.45508E-05-7.31450E-06 1.76193E-18 1.54889E-18
 -1      1658 9.09685E-05-1.17509E-05-3.40668E-05-1.51274E-05 3.41537E-18 9.27534E-19
 -1      1659 9.46362E-05-2.39673E-05-3.03738E-05-3.93375E-06 3.05264E-18 1.66548E-19
 -1      1660 9.34106E-05-1.99070E-05-3.15808E-05-4.54052E-06 2.12960E-18 1.65115E-18
 -1      1661 9.40741E-05-2.01897E-05-3.18406E-05-1.07907E-05 2.69583E-18 1.44530E-18
 -1      1662 9.54633E-05-2.75002E-05-2.91286E-05-1.59656E-06 1.30450E-18-1.12483E-18
 -1      1663 9.49896E-05-2.58632E-05-2.96847E-05-1.91082E-06 3.33662E-18-1.52244E-18
 -1      1664 9.55520E-05-2.54423E-05-3.01888E-05-5.65686E-06 1.57190E-18-6.35579E-19
 -1      1665 9.56234E-05-2.84715E-05-2.87394E-05-3.49253E-07 4.62493E-19-6.62869E-19
 -1      1666 9.56952E-05-2.82781E-05-2.89126E-05-6.08848E-07 1.42292E-18-1.27971E-18
 -1      1667 9.61031E-05-2.77690E-05-2.93355E-05-2.13947E-06 1.01087E-18-1.94222E-18
 -1      1668 9.58730E-05-2.85592E-05-2.89076E-05-5.28398E-07-1.69691E-19-1.89985E-18
 -1      1669 2.45985E-05-7.96480E-05 1.65356E-05-6.73945E-06 1.20253E-17 7.74781E-18
 -1      1670 2.84374E-05-9.08023E-05 1.88881E-05 2.75704E-06 4.09149E-18 6.41776E-18
 -1      1671 2.44059E-05-4.67636E-05 4.86362E-06 5.53218E-06 1.56938E-17 6.55942E-18
 -1      1672 2.97390E-05-7.36686E-05 1.18671E-05 1.17417E-06 1.28359E-17 6.45550E-18
 -1      1673 3.78923E-05-1.40658E-05-1.22338E-05 3.09118E-05 1.36542E-17 6.43914E-18
 -1      1674 3.28418E-05-3.86390E-05-2.71051E-06 1.14576E-05 1.64053E-17 6.08720E-18
 -1      1675 7.94829E-05-1.06025E-06-3.25390E-05 6.59176E-05 8.74985E-18 5.15589E-18
 -1      1676 5.45315E-05-9.09496E-06-2.18697E-05 4.05008E-05 1.17153E-17 7.13710E-18
 -1      1677 1.51195E-04-1.71724E-05-5.33441E-05 8.50457E-05 4.04416E-18 5.75898E-18
 -1      1678 1.06702E-04-5.23105E-06-4.27045E-05 6.97414E-05 6.32564E-18 5.95972E-18
 -1      1679 2.20097E-04-4.26136E-05-6.96161E-05 7.85074E-05 1.95929E-18 8.54063E-18
 -1      1680 1.75116E-04-2.07712E-05-6.22130E-05 8.60467E-05 2.30944E-18 7.41747E-18
 -1      1681 2.66934E-04-6.59721E-05-7.88400E-05 3.79738E-05 1.99794E-18 5.77804E-18
 -1      1682 2.39165E-04-4.96377E-05-7.50192E-05 6.75496E-05 1.86315E-18 7.28533E-18
 -1      1683 2.65691E-04-6.57173E-05-7.93154E-05-1.83352E-05 3.08659E-18 2.88838E-19
 -1      1684 2.70660E-04-6.73114E-05-8.00912E-05 2.01903E-05 3.26002E-18 4.74645E-18
 -1      1685 2.16239E-04-4.31399E-05-6.98588E-05-5.68947E-05 2.09895E-18-2.39202E-18
 -1      1686 2.50746E-04-6.05159E-05-7.54834E-05-3.14085E-05 1.96829E-18-6.02664E-19
 -1      1687 1.52217E-04-1.75000E-05-5.53550E-05-7.61915E-05 4.55958E-18-5.11777E-18
 -1      1688 1.98600E-04-3.81956E-05-6.38095E-05-7.32432E-05 2.79563E-18-3.66935E-18
 -1      1689 8.88729E-05-4.55398E-06-3.64825E-05-5.96348E-05 6.20028E-18-6.18673E-18
 -1      1690 1.27542E-04-1.23811E-05-4.64724E-05-7.66510E-05 5.40068E-18-4.75016E-18
 -1      1691 4.64710E-05-1.38435E-05-1.68082E-05-3.01123E-05 7.06087E-18-6.14861E-18
 -1      1692 6.67319E-05-3.37307E-06-2.68533E-05-5.32480E-05 6.79320E-18-6.82370E-18
 -1      1693 3.24349E-05-4.60298E-05 1.20441E-06-8.08795E-06 6.56281E-18-3.90419E-18
 -1      1694 3.63930E-05-2.30265E-05-7.89127E-06-2.42378E-05 6.50606E-18-5.81319E-18
 -1      1695 2.58652E-05-7.43177E-05 1.41930E-05 3.55445E-06 3.76845E-18-2.76768E-18
 -1      1696 1.96527E-05-5.17777E-05 8.80213E-06 3.68722E-06 6.10626E-18-3.73393E-18
 -1      1697 2.51279E-05-8.40603E-05 1.88959E-05-3.84482E-06-1.14773E-19-1.75103E-18
 -1      1698 2.28081E-05-7.70221E-05 1.72075E-05 6.21905E-06 2.66604E-18-1.70381E-18
 -1      1699 2.17246E-05-7.11140E-05 1.56148E-05-6.65236E-06-4.13013E-18-2.56609E-18
 -1      1700 2.52964E-05-8.19561E-05 1.81302E-05 9.02969E-07-5.96099E-19-3.00167E-18
 -1      1701 2.03820E-05-4.52753E-05 6.05744E-06-1.55292E-06-5.79709E-18-2.78568E-18
 -1      1702 2.57697E-05-6.88933E-05 1.21772E-05-4.55623E-06-6.04443E-18-1.46876E-18
 -1      1703 3.65240E-05-1.76421E-05-1.02937E-05 2.49988E-05-7.04308E-18-7.03630E-18
 -1      1704 3.09536E-05-3.91773E-05-1.35516E-06 7.16299E-06-5.17198E-18-5.16097E-18
 -1      1705 7.55334E-05-5.03077E-06-2.97238E-05 5.64526E-05-7.41831E-18-5.72848E-18
 -1      1706 5.13033E-05-1.23141E-05-1.94748E-05 3.28288E-05-7.87487E-18-6.09694E-18
 -1      1707 1.42826E-04-1.81164E-05-5.00635E-05 7.72512E-05-4.00308E-18-7.49794E-18
 -1      1708 9.94288E-05-6.68153E-06-3.96902E-05 6.23269E-05-6.37223E-18-6.04104E-18
 -1      1709 2.14614E-04-4.52320E-05-6.68292E-05 6.81669E-05-3.25367E-18-7.06849E-18
 -1      1710 1.69218E-04-2.45709E-05-5.88765E-05 7.48017E-05-3.73287E-18-7.14642E-18
 -1      1711 2.65141E-04-6.72924E-05-7.76726E-05 2.79819E-05-2.41934E-18-3.06541E-18
 -1      1712 2.34887E-04-5.14022E-05-7.29745E-05 5.70661E-05-3.52355E-18-6.17402E-18
 -1      1713 2.67336E-04-6.51245E-05-7.97113E-05-2.78074E-05-2.96144E-18 2.58260E-18
 -1      1714 2.68164E-04-6.66562E-05-7.95344E-05 9.48690E-06-2.63512E-18-1.21337E-18
 -1      1715 2.33742E-04-4.65066E-05-7.40774E-05-7.21132E-05-3.96411E-18 5.99953E-18
 -1      1716 2.63482E-04-6.38917E-05-7.82287E-05-4.53594E-05-2.92756E-18 3.46013E-18
 -1      1717 1.69688E-04-1.87564E-05-6.08412E-05-8.66929E-05-5.97751E-18 9.34193E-18
 -1      1718 2.14478E-04-3.99912E-05-6.84456E-05-8.16094E-05-4.76456E-18 7.68259E-18
 -1      1719 1.01791E-04-1.81893E-06-4.20869E-05-7.16089E-05-1.20905E-17 1.14189E-17
 -1      1720 1.44564E-04-1.27864E-05-5.23244E-05-8.80301E-05-8.73714E-18 1.06006E-17
 -1      1721 5.38149E-05-1.01278E-05-2.11647E-05-3.94094E-05-1.39218E-17 1.15942E-17
 -1      1722 7.81641E-05-9.52334E-07-3.19826E-05-6.53175E-05-1.28630E-17 1.23184E-17
 -1      1723 3.27185E-05-3.97725E-05-2.31453E-06-1.06014E-05-1.04126E-17 8.53597E-18
 -1      1724 3.73787E-05-1.56613E-05-1.15726E-05-2.96369E-05-1.39201E-17 1.11944E-17
 -1      1725 2.89914E-05-7.42317E-05 1.20336E-05 1.67403E-06-5.55823E-18 3.88756E-18
 -1      1726 2.31393E-05-4.76984E-05 5.34051E-06-2.03332E-06-8.80067E-18 7.00729E-18
 -1      1727 2.82314E-05-8.95298E-05 1.85707E-05-2.78621E-06 1.75908E-18 4.33681E-18
 -1      1728 2.44385E-05-7.78973E-05 1.60081E-05 6.00782E-06-2.54872E-18 3.21555E-18
 -1      1729 1.24978E-04-3.47572E-05-3.72921E-05 5.18686E-05 6.05544E-18 2.48181E-18
 -1      1730 7.92653E-05-3.93956E-05-1.83487E-05 4.55286E-05 9.08697E-18 2.42463E-18
 -1      1731 9.51990E-05-2.89342E-05-2.83427E-05-7.04273E-07-1.87123E-18 1.11564E-18
 -1      1732 9.51402E-05-2.89023E-05-2.83857E-05-1.13803E-06-5.64455E-19 3.50069E-18
 -1      1733 2.30925E-05-5.65914E-05 9.49359E-06 1.90304E-05 7.00073E-18 7.39544E-18
 -1      1734 4.61164E-05-4.96933E-05-1.96999E-06 3.35513E-05 9.57063E-18 3.26579E-18
 -1      1735 1.39927E-05-5.83788E-05 1.36041E-05-4.70461E-07 3.61561E-18 9.12382E-18
 -1      1736 1.69435E-04-3.30196E-05-5.51064E-05 4.86999E-05 2.11208E-18 4.62565E-18
 -1      1737 2.07275E-04-3.44442E-05-6.87671E-05 3.94706E-05 1.34572E-18 3.63462E-18
 -1      1738 2.25892E-04-3.66380E-05-7.51066E-05 1.68540E-05 3.52450E-18 2.25628E-18
 -1      1739 2.14478E-04-3.34418E-05-7.25590E-05-5.36481E-06 3.56347E-18 6.92449E-19
 -1      1740 1.92058E-04-3.41679E-05-6.34206E-05-2.82026E-05 2.91739E-18-1.03084E-18
 -1      1741 1.54683E-04-3.37326E-05-4.91356E-05-4.47515E-05 3.76676E-18-2.99172E-18
 -1      1742 1.08874E-04-3.46680E-05-3.14794E-05-4.47821E-05 4.09286E-18-2.95106E-18
 -1      1743 7.11890E-05-4.38458E-05-1.36783E-05-3.75015E-05 4.29192E-18-4.20933E-18
 -1      1744 3.90942E-05-4.94596E-05 1.58152E-06-2.79159E-05 2.53263E-18-4.03230E-18
 -1      1745 1.76983E-05-5.58059E-05 1.18511E-05-1.15169E-05 1.26039E-18-3.74558E-18
 -1      1746 1.23779E-05-5.48071E-05 1.39186E-05 1.69281E-06-2.56598E-19-3.67951E-18
 -1      1747 2.07011E-05-5.39021E-05 1.00140E-05 1.35926E-05-2.24675E-18-2.78356E-18
 -1      1748 4.21369E-05-4.88384E-05-3.75129E-07 2.56580E-05-4.47488E-18-4.75154E-18
 -1      1749 7.49928E-05-4.11538E-05-1.60768E-05 3.67657E-05-4.37747E-18-4.46979E-18
 -1      1750 1.16982E-04-3.54511E-05-3.43523E-05 4.38618E-05-5.19019E-18-3.30766E-18
 -1      1751 1.64177E-04-3.53097E-05-5.22583E-05 4.16995E-05-2.81681E-18-4.81284E-18
 -1      1752 2.04579E-04-3.79010E-05-6.65033E-05 2.79761E-05-3.49486E-18-2.56990E-18
 -1      1753 2.23064E-04-3.64802E-05-7.41330E-05 4.69131E-06-4.51130E-18 7.41154E-21
 -1      1754 2.22528E-04-3.49147E-05-7.44739E-05-2.02140E-05-4.46895E-18 5.24949E-19
 -1      1755 2.04774E-04-3.44106E-05-6.77121E-05-4.17793E-05-4.67245E-18 3.51265E-18
 -1      1756 1.66528E-04-3.16804E-05-5.42670E-05-5.27912E-05-8.13194E-18 6.51453E-18
 -1      1757 1.21423E-04-3.33478E-05-3.65575E-05-5.30895E-05-1.01729E-17 7.92315E-18
 -1      1758 7.83385E-05-3.99766E-05-1.78282E-05-4.49261E-05-9.13102E-18 8.96881E-18
 -1      1759 4.48474E-05-5.00646E-05-1.44663E-06-3.16548E-05-5.96904E-18 8.91714E-18
 -1      1760 2.27763E-05-5.71292E-05 9.63653E-06-1.72745E-05-7.21672E-19 5.46887E-18
 -1      1761 1.06059E-04-2.31726E-05-3.56062E-05-1.68519E-05-5.74685E-19 2.43458E-18
 -1      1762 8.91553E-05-1.05882E-05-3.37969E-05-1.33260E-05-6.85756E-19-7.37025E-19
 -1      1763 9.04855E-05-1.16321E-05-3.39367E-05-1.51349E-05-8.21232E-19-4.58377E-19
 -1      1764 9.24936E-05-1.38763E-05-3.38552E-05-1.59993E-05-8.48608E-19-1.52625E-19
 -1      1765 9.42123E-05-1.58232E-05-3.40995E-05-1.76605E-05-9.00158E-19 2.96673E-19
 -1      1766 9.34212E-05-1.63485E-05-3.30458E-05-1.37680E-05-8.85159E-19-2.27561E-19
 -1      1767 8.62090E-05-7.67364E-06-3.37289E-05-7.86330E-06-2.40346E-19-1.15587E-18
 -1      1768 8.66127E-05-7.97164E-06-3.37632E-05-9.25253E-06-3.46165E-19-1.11327E-18
 -1      1769 8.55910E-05-7.03541E-06-3.37259E-05-5.31948E-06-4.27123E-20-1.10713E-18
 -1      1770 8.58262E-05-7.21434E-06-3.37411E-05-6.62394E-06-1.16438E-19-1.16148E-18
 -1      1771 8.75917E-05-9.86657E-06-3.33423E-05-6.92829E-06-2.03538E-19-1.08738E-18
 -1      1772 8.52556E-05-6.67658E-06-3.37290E-05-2.88845E-06 1.65918E-19-9.48439E-19
 -1      1773 8.53767E-05-6.77137E-06-3.37350E-05-4.12803E-06 2.75451E-20-1.02711E-18
 -1      1774 8.69546E-05-9.15416E-06-3.33754E-05-4.53699E-06 2.44746E-20-9.79713E-19
 -1      1775 8.51245E-05-6.52840E-06-3.37324E-05-5.17344E-07 3.74728E-19-9.34516E-19
 -1      1776 8.51602E-05-6.55695E-06-3.37339E-05-1.72687E-06 3.01007E-19-9.82757E-19
 -1      1777 8.66222E-05-8.77527E-06-3.33953E-05-2.21708E-06 2.32740E-19-8.74575E-19
 -1      1778 8.51699E-05-6.56588E-06-3.37340E-05 1.84508E-06 5.78787E-19-8.63643E-19
 -1      1779 8.51281E-05-6.53294E-06-3.37323E-05 6.34561E-07 5.06848E-19-8.92336E-19
 -1      1780 8.65238E-05-8.66171E-06-3.34018E-05 6.54912E-08 4.70586E-19-8.00585E-19
 -1      1781 8.54014E-05-6.79618E-06-3.37351E-05 4.25073E-06 6.77110E-19-7.86285E-19
 -1      1782 8.52732E-05-6.69545E-06-3.37289E-05 3.00803E-06 6.27647E-19-8.74085E-19
 -1      1783 8.66396E-05-8.79481E-06-3.33946E-05 2.34925E-06 6.37841E-19-7.55242E-19
 -1      1784 8.58594E-05-7.24966E-06-3.37409E-05 6.71166E-06 8.48629E-19-4.79844E-19
 -1      1785 8.56208E-05-7.06731E-06-3.37258E-05 5.42455E-06 7.55525E-19-6.55259E-19
 -1      1786 8.69885E-05-9.19195E-06-3.33739E-05 4.65227E-06 7.75875E-19-6.74040E-19
 -1      1787 8.66743E-05-8.03988E-06-3.37620E-05 9.37314E-06 1.09398E-18-1.09505E-19
 -1      1788 8.62527E-05-7.72313E-06-3.37280E-05 7.95238E-06 9.51800E-19-2.97229E-19
 -1      1789 8.76419E-05-9.92494E-06-3.33400E-05 7.02714E-06 9.89011E-19-3.06308E-19
 -1      1790 8.80886E-05-9.38803E-06-3.38179E-05 1.22519E-05 1.26266E-18 2.87594E-19
 -1      1791 8.73476E-05-8.82994E-06-3.37456E-05 1.06590E-05 1.17398E-18 4.06841E-20
 -1      1792 8.87648E-05-1.11603E-05-3.32899E-05 9.50125E-06 1.19227E-18 6.17408E-20
 -1      1793 9.06347E-05-1.18409E-05-3.39286E-05 1.53002E-05 1.29301E-18 9.64585E-19
 -1      1794 8.92532E-05-1.07412E-05-3.37885E-05 1.35106E-05 1.25115E-18 5.27834E-19
 -1      1795 9.06642E-05-1.32233E-05-3.32076E-05 1.19730E-05 1.31784E-18 4.70871E-19
 -1      1796 9.58818E-05-1.70363E-05-3.39949E-05 1.76882E-05 1.06892E-18 2.15210E-18
 -1      1797 9.28611E-05-1.43445E-05-3.38284E-05 1.61912E-05 1.16768E-18 1.44925E-18
 -1      1798 9.39739E-05-1.68882E-05-3.30255E-05 1.38918E-05 1.29091E-18 1.15414E-18
 -1      1799 1.01932E-04-2.50967E-05-3.33614E-05 1.44206E-05 7.89117E-19 3.49867E-18
 -1      1800 9.80831E-05-1.96186E-05-3.36272E-05 1.69621E-05 9.46149E-19 2.59774E-18
 -1      1801 9.73356E-05-2.18562E-05-3.24295E-05 1.32460E-05 1.11305E-18 2.05850E-18
 -1      1802 9.87600E-05-2.61378E-05-3.13447E-05 9.43300E-06 8.32898E-19 3.21456E-18
 -1      1803 1.00162E-04-1.95651E-05-3.42200E-05-1.88675E-05-7.57089E-19 1.11554E-18
 -1      1804 9.53199E-05-2.72883E-05-2.91879E-05 4.06492E-06 8.35280E-19 2.68459E-18
 -1      1805 9.77498E-05-2.73933E-05-3.01968E-05 6.39899E-06 7.70588E-19 2.90483E-18
 -1      1806 9.75839E-05-2.56172E-05-3.08349E-05 8.75760E-06 9.50715E-19 2.22694E-18
 -1      1807 9.98216E-05-2.25438E-05-3.28381E-05-1.44656E-05-8.11987E-19 7.63494E-19
 -1      1808 9.69655E-05-2.69796E-05-2.98793E-05-5.70144E-06-7.41127E-19 6.78561E-19
 -1      1809 9.51589E-05-2.70365E-05-2.91687E-05-3.89369E-06-6.05708E-19 5.21779E-19
 -1      1810 9.43446E-05-2.72419E-05-2.86613E-05-2.41980E-06-5.55482E-19 5.26947E-19
 -1      1811 9.35716E-05-2.73207E-05-2.83566E-05-1.56994E-06-5.14758E-19 3.93725E-19
 -1      1812 9.55152E-05-2.65569E-05-2.95771E-05-4.46791E-06-6.79532E-19 2.37675E-19
 -1      1813 9.30438E-05-2.73675E-05-2.80881E-05-7.40846E-07-3.67275E-19 3.67817E-19
 -1      1814 9.27432E-05-2.74320E-05-2.79660E-05-3.02167E-07-1.37186E-19 3.47093E-19
 -1      1815 9.43036E-05-2.72263E-05-2.87694E-05-1.82932E-06-4.96646E-19 2.06418E-19
 -1      1816 9.24678E-05-2.74604E-05-2.78296E-05 1.52667E-07-1.17288E-19 3.13126E-19
 -1      1817 9.24364E-05-2.75368E-05-2.77996E-05 3.76229E-07-1.26334E-19 2.37482E-19
 -1      1818 9.36013E-05-2.75289E-05-2.83332E-05-3.61873E-07-3.07499E-19 8.52956E-20
 -1      1819 9.23324E-05-2.75680E-05-2.77412E-05 6.14941E-07-1.52824E-19 2.32452E-19
 -1      1820 9.24466E-05-2.76530E-05-2.77601E-05 7.18062E-07-2.35540E-19 9.30264E-20
 -1      1821 9.32800E-05-2.77147E-05-2.81116E-05 4.38501E-07-1.89095E-19-8.97789E-20
 -1      1822 9.24510E-05-2.76907E-05-2.77479E-05 8.27979E-07-2.76603E-19 1.71798E-19
 -1      1823 9.26375E-05-2.77771E-05-2.77922E-05 8.60662E-07-1.75319E-19 8.61327E-20
 -1      1824 9.32148E-05-2.78573E-05-2.80186E-05 8.47486E-07-2.23499E-19 6.85356E-20
 -1      1825 9.27048E-05-2.78183E-05-2.78066E-05 8.92713E-07-1.42523E-19 1.22378E-19
 -1      1826 9.29192E-05-2.79005E-05-2.78623E-05 8.84063E-07-1.61093E-19 1.65882E-19
 -1      1827 9.33073E-05-2.79803E-05-2.80023E-05 1.02020E-06-9.84033E-20 1.05334E-19
 -1      1828 9.30187E-05-2.79416E-05-2.78908E-05 8.69932E-07-4.23397E-19 6.91624E-20
 -1      1829 9.32346E-05-2.80162E-05-2.79493E-05 8.38095E-07-4.74313E-19-2.90316E-20
 -1      1830 9.34864E-05-2.80888E-05-2.80303E-05 1.05023E-06-2.91975E-19 8.15176E-20
 -1      1831 9.33461E-05-2.80546E-05-2.79841E-05 7.98202E-07-6.61275E-19-1.89743E-19
 -1      1832 9.35482E-05-2.81197E-05-2.80402E-05 7.54879E-07-5.69150E-19-5.49051E-19
 -1      1833 9.37046E-05-2.81833E-05-2.80818E-05 9.96888E-07-7.65694E-19-6.39122E-19
 -1      1834 9.36596E-05-2.81540E-05-2.80765E-05 7.02609E-07-2.88030E-19-8.18462E-19
 -1      1835 9.38401E-05-2.82091E-05-2.81275E-05 6.55423E-07-2.23577E-19-8.09588E-19
 -1      1836 9.39313E-05-2.82636E-05-2.81436E-05 8.98764E-07-6.78488E-19-6.50391E-19
 -1      1837 9.39441E-05-2.82387E-05-2.81623E-05 5.99574E-07-2.25294E-19-7.96082E-19
 -1      1838 9.41001E-05-2.82841E-05-2.82071E-05 5.53463E-07-6.04679E-20-8.46156E-19
 -1      1839 9.41482E-05-2.83301E-05-2.82074E-05 7.81273E-07-2.06313E-19-9.00695E-19
 -1      1840 9.41934E-05-2.83089E-05-2.82389E-05 4.99782E-07 9.05895E-20-9.92114E-19
 -1      1841 9.43250E-05-2.83455E-05-2.82773E-05 4.57909E-07-1.54748E-19-6.56187E-19
 -1      1842 9.43455E-05-2.83839E-05-2.82687E-05 6.61136E-07-1.51903E-19-1.06641E-18
 -1      1843 9.44067E-05-2.83659E-05-2.83057E-05 4.10137E-07-3.02888E-19-4.99335E-19
 -1      1844 9.45163E-05-2.83949E-05-2.83380E-05 3.74528E-07-3.67995E-19-5.66664E-19
 -1      1845 9.45197E-05-2.84262E-05-2.83251E-05 5.49303E-07-1.25176E-19-6.98886E-19
 -1      1846 9.45874E-05-2.84114E-05-2.83632E-05 3.35142E-07-6.22725E-19-5.31292E-19
 -1      1847 9.46787E-05-2.84343E-05-2.83906E-05 3.07158E-07-4.81589E-19-8.01724E-19
 -1      1848 9.46709E-05-2.84589E-05-2.83760E-05 4.52985E-07-4.70404E-19-4.68340E-19
 -1      1849 9.47413E-05-2.84478E-05-2.84131E-05 2.77933E-07-1.72244E-19-7.88921E-19
 -1      1850 9.48191E-05-2.84660E-05-2.84368E-05 2.58621E-07-8.75090E-20-6.34990E-19
 -1      1851 9.48025E-05-2.84837E-05-2.84219E-05 3.77130E-07-3.09680E-19-5.91743E-19
 -1      1852 9.48763E-05-2.84773E-05-2.84578E-05 2.41050E-07-2.58373E-19-8.17570E-19
 -1      1853 9.49462E-05-2.84925E-05-2.84795E-05 2.31425E-07-2.13672E-19-1.09958E-18
 -1      1854 9.49198E-05-2.85024E-05-2.84644E-05 3.25536E-07-3.12898E-19-2.95629E-19
 -1      1855 9.50019E-05-2.85028E-05-2.85002E-05 2.27048E-07-2.83416E-19-1.17456E-18
 -1      1856 9.50704E-05-2.85168E-05-2.85217E-05 2.28307E-07-5.33589E-19-9.12162E-19
 -1      1857 9.50298E-05-2.85171E-05-2.85056E-05 3.01704E-07-3.70836E-19-1.03362E-19
 -1      1858 9.51293E-05-2.85272E-05-2.85439E-05 2.38974E-07-7.68970E-19-6.62055E-19
 -1      1859 9.52038E-05-2.85420E-05-2.85674E-05 2.52674E-07-3.56444E-19-5.07061E-19
 -1      1860 9.51412E-05-2.85297E-05-2.85483E-05 3.09505E-07-5.19395E-19 1.71766E-19
 -1      1861 9.52715E-05-2.85538E-05-2.85929E-05 2.80743E-07 2.44170E-19-8.23334E-19
 -1      1862 9.53606E-05-2.85717E-05-2.86210E-05 3.08935E-07 3.91744E-19-1.19482E-18
 -1      1863 9.52640E-05-2.85426E-05-2.85959E-05 3.53692E-07-2.88777E-19 3.72279E-19
 -1      1864 9.54435E-05-2.85865E-05-2.86520E-05 3.57421E-07 2.03459E-19-1.33430E-18
 -1      1865 9.55573E-05-2.86101E-05-2.86877E-05 4.02750E-07 2.24658E-20-9.24424E-19
 -1      1866 9.54101E-05-2.85583E-05-2.86524E-05 4.40297E-07 2.74842E-19-2.74305E-19
 -1      1867 9.56628E-05-2.86297E-05-2.87270E-05 4.75410E-07-4.33029E-21-3.86258E-19
 -1      1868 9.58132E-05-2.86622E-05-2.87736E-05 5.41160E-07 2.06368E-19-5.83284E-19
 -1      1869 9.55932E-05-2.85798E-05-2.87223E-05 5.76881E-07 3.19230E-19-3.24295E-19
 -1      1870 9.59501E-05-2.86888E-05-2.88241E-05 6.42494E-07 1.12335E-19-3.76344E-19
 -1      1871 9.61511E-05-2.87342E-05-2.88859E-05 7.32561E-07 3.31354E-19-1.72082E-19
 -1      1872 9.58294E-05-2.86107E-05-2.88109E-05 7.72624E-07 1.00860E-19 3.62865E-19
 -1      1873 9.63293E-05-2.87705E-05-2.89510E-05 8.67677E-07 2.46250E-19-1.50783E-19
 -1      1874 9.65972E-05-2.88335E-05-2.90326E-05 9.86406E-07 8.85046E-20-1.34291E-19
 -1      1875 9.61373E-05-2.86557E-05-2.89244E-05 1.03817E-06 3.97606E-19-2.99551E-20
 -1      1876 9.68280E-05-2.88826E-05-2.91161E-05 1.16067E-06-5.36882E-20-3.79371E-19
 -1      1877 9.71816E-05-2.89690E-05-2.92228E-05 1.31247E-06 2.26027E-20-5.33023E-19
 -1      1878 9.65379E-05-2.87204E-05-2.90693E-05 1.38508E-06-3.86190E-20 3.52429E-20
 -1      1879 9.74772E-05-2.90349E-05-2.93285E-05 1.53078E-06-2.51421E-19-7.10408E-19
 -1      1880 9.79372E-05-2.91517E-05-2.94661E-05 1.71931E-06-3.32991E-19-8.76044E-19
 -1      1881 9.70551E-05-2.88125E-05-2.92523E-05 1.82459E-06-1.13011E-19 3.38461E-19
 -1      1882 9.83108E-05-2.92393E-05-2.95976E-05 1.98477E-06-2.07129E-19-6.37718E-19
 -1      1883 9.88989E-05-2.93950E-05-2.97718E-05 2.21151E-06 1.57513E-19-5.17883E-19
 -1      1884 9.77148E-05-2.89421E-05-2.94804E-05 2.36536E-06-4.83289E-20 6.78137E-19
 -1      1885 9.93636E-05-2.95109E-05-2.99322E-05 2.52299E-06 1.36017E-19-9.64967E-19
 -1      1886 1.00100E-04-2.97153E-05-3.01480E-05 2.78461E-06 1.28144E-19-6.86153E-19
 -1      1887 9.85441E-05-2.91235E-05-2.97589E-05 3.00934E-06 2.02019E-19 6.05171E-19
 -1      1888 1.00669E-04-2.98683E-05-3.03386E-05 3.13287E-06 5.86157E-20-9.74119E-19
 -1      1889 1.01569E-04-3.01329E-05-3.05985E-05 3.41690E-06-2.04358E-19-8.66805E-19
 -1      1890 9.95708E-05-2.93768E-05-3.00910E-05 3.74489E-06-2.08345E-19 1.07778E-19
 -1      1891 1.02252E-04-3.03354E-05-3.08175E-05 3.77816E-06-6.68352E-19-5.19579E-19
 -1      1892 1.03318E-04-3.06728E-05-3.11196E-05 4.05608E-06-3.70928E-19-4.54159E-19
 -1      1893 1.00821E-04-2.97321E-05-3.04749E-05 4.53561E-06-2.53035E-21-3.04353E-19
 -1      1894 1.04123E-04-3.09422E-05-3.13605E-05 4.38257E-06-2.11886E-19 3.52279E-19
 -1      1895 1.05334E-04-3.13651E-05-3.16947E-05 4.59999E-06 6.00101E-19 5.67223E-19
 -1      1896 1.02316E-04-3.02335E-05-3.09011E-05 5.30332E-06 2.54067E-19 4.80923E-19
 -1      1897 1.06263E-04-3.17252E-05-3.19439E-05 4.80724E-06 4.56055E-19 7.74008E-19
 -1      1898 1.07560E-04-3.22414E-05-3.22872E-05 4.87204E-06 3.60662E-20 9.60567E-19
 -1      1899 1.04071E-04-3.09436E-05-3.13493E-05 5.90447E-06 5.74602E-19 1.10437E-18
 -1      1900 1.08605E-04-3.27205E-05-3.25229E-05 4.82520E-06-6.28161E-20 9.46248E-19
 -1      1901 1.09867E-04-3.33230E-05-3.28351E-05 4.59872E-06 4.10033E-19 1.07614E-18
 -1      1902 1.06089E-04-3.19427E-05-3.17856E-05 6.10208E-06-5.26637E-20 1.93188E-18
 -1      1903 1.11001E-04-3.39422E-05-3.30279E-05 4.10648E-06 1.21847E-19 3.99571E-19
 -1      1904 1.12025E-04-3.45857E-05-3.32490E-05 3.41132E-06-1.18194E-19 4.88037E-21
 -1      1905 1.08340E-04-3.33081E-05-3.21644E-05 5.54427E-06-1.05293E-19 1.33820E-18
 -1      1906 1.13173E-04-3.53251E-05-3.33674E-05 2.24863E-06 1.97987E-19 2.80801E-19
 -1      1907 1.13662E-04-3.58859E-05-3.34245E-05 9.19362E-07 2.11388E-19 1.00807E-18
 -1      1908 1.10726E-04-3.50497E-05-3.24367E-05 3.77888E-06 8.75289E-20 6.13993E-19
 -1      1909 1.14648E-04-3.66208E-05-3.34476E-05-1.08424E-06-1.40376E-19 1.38343E-18
 -1      1910 1.14234E-04-3.68484E-05-3.32751E-05-3.07703E-06-1.84971E-19 1.56254E-18
 -1      1911 1.12989E-04-3.69722E-05-3.25717E-05 3.65133E-07 4.25733E-19 1.32648E-18
 -1      1912 1.14716E-04-3.72673E-05-3.32109E-05-5.83754E-06 4.12293E-19 1.57834E-18
 -1      1913 1.13071E-04-3.67857E-05-3.27867E-05-8.18548E-06 4.23411E-19 1.64757E-18
 -1      1914 1.14580E-04-3.84712E-05-3.25882E-05-4.83439E-06 1.47384E-19 2.49356E-18
 -1      1915 1.12560E-04-3.64065E-05-3.26800E-05-1.10762E-05 2.48763E-19 1.14268E-18
 -1      1916 1.09626E-04-3.48927E-05-3.20602E-05-1.29751E-05 5.34630E-19 1.65056E-18
 -1      1917 1.14594E-04-3.84540E-05-3.25738E-05-1.11232E-05 7.75565E-20 1.83358E-18
 -1      1918 1.07793E-04-3.33666E-05-3.19662E-05-1.47079E-05 3.40744E-19 1.57527E-18
 -1      1919 1.04069E-04-3.09599E-05-3.12838E-05-1.50333E-05-3.77333E-19 1.53508E-18
 -1      1920 1.12113E-04-3.58023E-05-3.26446E-05-1.64582E-05 1.53922E-19 2.86143E-18
 -1      1921 1.01343E-04-2.86737E-05-3.12102E-05-1.41881E-05-1.00193E-18 1.20258E-18
 -1      1922 9.79723E-05-2.63323E-05-3.06192E-05-1.22521E-05-8.69413E-19 1.06529E-18
 -1      1923 1.07181E-04-3.05925E-05-3.28188E-05-1.77293E-05-5.65428E-19 2.26965E-18
 -1      1924 9.57642E-05-2.46204E-05-3.04972E-05-8.65807E-06-1.14588E-18 7.46302E-19
 -1      1925 9.39554E-05-2.36116E-05-3.01093E-05-5.13198E-06-7.19316E-19 9.42111E-19
 -1      1926 1.01841E-04-2.52492E-05-3.29198E-05-1.28811E-05-1.00396E-18 2.63052E-18
 -1      1927 9.35445E-05-2.36839E-05-2.98684E-05-5.51000E-07 2.18376E-19 3.27398E-20
 -1      1928 9.37506E-05-2.45037E-05-2.97161E-05 2.69712E-06 1.54822E-19 2.71051E-20
 -1      1929 9.90645E-05-2.31490E-05-3.26784E-05-3.57325E-06-8.57449E-19 1.82454E-18
 -1      1930 9.48621E-05-2.60735E-05-2.93812E-05 5.68283E-06 2.94635E-19-3.11801E-19
 -1      1931 9.63744E-05-2.78534E-05-2.94326E-05 7.08912E-06 9.81645E-19-2.20626E-20
 -1      1932 1.00009E-04-2.55219E-05-3.19975E-05 4.97011E-06-1.26089E-19 1.66893E-19
 -1      1933 9.75470E-05-2.94860E-05-2.91200E-05 7.34775E-06 1.01745E-18-8.33772E-19
 -1      1934 9.91684E-05-3.09373E-05-2.92823E-05 6.79494E-06 1.28118E-18-8.06494E-19
 -1      1935 1.02695E-04-3.00596E-05-3.11035E-05 8.40552E-06 5.45615E-19-1.15070E-18
 -1      1936 9.92770E-05-3.15269E-05-2.90674E-05 5.16434E-06 1.28378E-20-1.15832E-18
 -1      1937 1.00183E-04-3.19850E-05-2.92248E-05 3.69744E-06-4.55260E-19-1.39521E-18
 -1      1938 1.04229E-04-3.33275E-05-3.03277E-05 6.58317E-06 4.21755E-19-2.10199E-18
 -1      1939 9.91607E-05-3.14537E-05-2.90973E-05 1.79368E-06-2.01104E-19-2.26545E-18
 -1      1940 9.91891E-05-3.10287E-05-2.91753E-05 5.76414E-07-3.05627E-20-1.38076E-18
 -1      1941 1.03326E-04-3.36672E-05-2.98221E-05 2.49779E-06-8.13383E-19-1.37205E-18
 -1      1942 9.76721E-05-3.00481E-05-2.90619E-05-2.53469E-07 5.33366E-20-1.56051E-18
 -1      1943 9.73014E-05-2.93994E-05-2.90405E-05-6.85519E-07 5.69563E-20-1.81506E-18
 -1      1944 9.76867E-05-2.93905E-05-2.92460E-05-1.38604E-06 5.01867E-20-2.30824E-18
 -1      1945 1.00600E-04-3.16111E-05-2.95129E-05-5.50349E-07 1.23812E-20-1.71369E-18
 -1      1946 9.32214E-05-2.73656E-05-2.81960E-05 1.60343E-06 7.67405E-19 2.25507E-18
 -1      1947 9.44154E-05-2.74707E-05-2.86324E-05 2.67440E-06 7.70482E-19 2.54573E-18
 -1      1948 9.52382E-05-2.70496E-05-2.92291E-05 4.05168E-06 9.15166E-19 1.96010E-18
 -1      1949 9.21701E-05-2.73522E-05-2.77545E-05 3.46881E-07 4.33969E-19 1.98726E-18
 -1      1950 9.26639E-05-2.73844E-05-2.79267E-05 8.94914E-07 5.44775E-19 2.17789E-18
 -1      1951 9.36345E-05-2.73709E-05-2.84056E-05 1.58322E-06 6.42547E-19 1.78249E-18
 -1      1952 9.17951E-05-2.73901E-05-2.75865E-05-3.06137E-07 1.56218E-19 1.74197E-18
 -1      1953 9.19098E-05-2.73632E-05-2.76334E-05-1.37734E-08 2.47972E-19 1.92064E-18
 -1      1954 9.28037E-05-2.74862E-05-2.80032E-05 2.70840E-07 3.59820E-19 1.48089E-18
 -1      1955 9.18188E-05-2.74808E-05-2.75633E-05-6.31115E-07-2.28236E-20 1.36157E-18
 -1      1956 9.17308E-05-2.74187E-05-2.75470E-05-4.78635E-07-1.15772E-20 1.57984E-18
 -1      1957 9.24899E-05-2.75793E-05-2.78289E-05-4.22019E-07 1.15406E-19 1.20295E-18
 -1      1958 9.20624E-05-2.76027E-05-2.76186E-05-7.67679E-07 3.92766E-20 1.46497E-18
 -1      1959 9.18718E-05-2.75239E-05-2.75701E-05-6.96953E-07-1.62922E-19 1.29682E-18
 -1      1960 9.24928E-05-2.76845E-05-2.77832E-05-7.65767E-07-1.11394E-19 8.71654E-19
 -1      1961 9.24137E-05-2.77365E-05-2.77137E-05-7.93422E-07 3.16022E-19 1.55574E-18
 -1      1962 9.21792E-05-2.76533E-05-2.76506E-05-7.71846E-07 3.16896E-19 1.58262E-18
 -1      1963 9.26763E-05-2.77996E-05-2.78103E-05-9.04983E-07 2.18769E-19 7.77154E-19
 -1      1964 9.28030E-05-2.78690E-05-2.78251E-05-7.54971E-07 2.70707E-19 1.49664E-18
 -1      1965 9.25595E-05-2.77887E-05-2.77579E-05-7.62689E-07 2.46940E-19 1.51698E-18
 -1      1966 9.29510E-05-2.79161E-05-2.78763E-05-9.23059E-07 3.07023E-19 1.13762E-18
 -1      1967 9.31881E-05-2.79920E-05-2.79384E-05-6.81836E-07-3.08552E-19 1.80324E-18
 -1      1968 9.29559E-05-2.79188E-05-2.78734E-05-7.06111E-07-3.43363E-20 1.74885E-18
 -1      1969 9.32602E-05-2.80265E-05-2.79600E-05-8.71260E-07-5.51645E-20 1.41415E-18
 -1      1970 9.35449E-05-2.81011E-05-2.80454E-05-5.93129E-07 4.18608E-19 1.67308E-18
 -1      1971 9.33349E-05-2.80370E-05-2.79859E-05-6.25583E-07 1.05339E-19 1.72730E-18
 -1      1972 9.35687E-05-2.81264E-05-2.80485E-05-7.82390E-07 1.69089E-19 1.31068E-18
 -1      1973 9.38614E-05-2.81947E-05-2.81415E-05-5.01269E-07 2.01633E-19 1.74894E-18
 -1      1974 9.36785E-05-2.81403E-05-2.80892E-05-5.36364E-07 3.04703E-19 1.75057E-18
 -1      1975 9.38564E-05-2.82132E-05-2.81338E-05-6.77816E-07 2.29911E-19 8.87912E-19
 -1      1976 9.41337E-05-2.82729E-05-2.82251E-05-4.14255E-07 6.36343E-19 1.47034E-18
 -1      1977 9.39787E-05-2.82279E-05-2.81805E-05-4.48346E-07 3.33642E-19 1.49597E-18
 -1      1978 9.41131E-05-2.82866E-05-2.82120E-05-5.71468E-07 5.48381E-19 1.17364E-18
 -1      1979 9.43633E-05-2.83369E-05-2.82963E-05-3.37181E-07 1.83479E-19 1.46371E-18
 -1      1980 9.42343E-05-2.83003E-05-2.82589E-05-3.67873E-07 3.35208E-19 1.68406E-18
 -1      1981 9.43357E-05-2.83471E-05-2.82812E-05-4.72367E-07 2.98549E-19 1.31700E-18
 -1      1982 9.45552E-05-2.83887E-05-2.83565E-05-2.73327E-07 2.85604E-19 1.24785E-18
 -1      1983 9.44488E-05-2.83593E-05-2.83253E-05-2.99013E-07 1.17880E-19 1.14341E-18
 -1      1984 9.45254E-05-2.83960E-05-2.83413E-05-3.86347E-07 3.67186E-19 8.71318E-19
 -1      1985 9.47168E-05-2.84308E-05-2.84078E-05-2.24961E-07 6.81869E-19 3.44916E-19
 -1      1986 9.46284E-05-2.84070E-05-2.83816E-05-2.44472E-07 5.68330E-19 7.12576E-19
 -1      1987 9.46869E-05-2.84354E-05-2.83936E-05-3.17298E-07 7.71840E-19 1.30459E-19
 -1      1988 9.48577E-05-2.84660E-05-2.84530E-05-1.93957E-07 9.45382E-19-2.16037E-19
 -1      1989 9.47817E-05-2.84462E-05-2.84301E-05-2.06290E-07 8.79108E-19 2.30052E-19
 -1      1990 9.48269E-05-2.84674E-05-2.84399E-05-2.68099E-07 1.14835E-18-3.03420E-19
 -1      1991 9.49888E-05-2.84975E-05-2.84955E-05-1.82257E-07 4.60157E-19 6.14298E-19
 -1      1992 9.49188E-05-2.84798E-05-2.84741E-05-1.86368E-07 8.67313E-19 1.31096E-19
 -1      1993 9.49541E-05-2.84946E-05-2.84829E-05-2.41311E-07 8.87518E-19 1.84916E-19
 -1      1994 9.51227E-05-2.85289E-05-2.85392E-05-1.92238E-07-8.66332E-19 1.34361E-19
 -1      1995 9.50516E-05-2.85111E-05-2.85172E-05-1.86869E-07-1.68051E-19 1.25120E-19
 -1      1996 9.50786E-05-2.85197E-05-2.85257E-05-2.39721E-07 8.00325E-20 7.03987E-19
 -1      1997 9.52739E-05-2.85642E-05-2.85885E-05-2.26975E-07-7.33323E-19-3.77788E-19
 -1      1998 9.51935E-05-2.85439E-05-2.85634E-05-2.10529E-07-7.27615E-19-4.53849E-19
 -1      1999 9.52122E-05-2.85460E-05-2.85719E-05-2.66741E-07-5.08223E-19-1.87666E-19
 -1      2000 9.54593E-05-2.86080E-05-2.86487E-05-2.90404E-07-4.18772E-19-1.25357E-19
 -1      2001 9.53601E-05-2.85826E-05-2.86177E-05-2.60857E-07-5.60076E-19-4.64520E-19
 -1      2002 9.53687E-05-2.85769E-05-2.86261E-05-3.26684E-07-3.74409E-19-6.44629E-19
 -1      2003 9.56983E-05-2.86658E-05-2.87256E-05-3.87375E-07 1.07860E-18-2.83843E-19
 -1      2004 9.55693E-05-2.86320E-05-2.86856E-05-3.42236E-07 3.41822E-19-7.08112E-20
 -1      2005 9.55639E-05-2.86168E-05-2.86930E-05-4.24903E-07 3.98830E-19-6.45983E-19
 -1      2006 9.60135E-05-2.87442E-05-2.88263E-05-5.23521E-07-8.39770E-20-5.97781E-20
 -1      2007 9.58419E-05-2.86980E-05-2.87734E-05-4.59876E-07 5.54368E-19-4.08157E-20
 -1      2008 9.58159E-05-2.86705E-05-2.87785E-05-5.67743E-07 4.24464E-19-8.30477E-20
 -1      2009 9.64305E-05-2.88506E-05-2.89584E-05-7.04885E-07-1.57947E-18 5.37666E-19
 -1      2010 9.62017E-05-2.87877E-05-2.88884E-05-6.19546E-07-8.14481E-19 5.48042E-19
 -1      2011 9.61457E-05-2.87440E-05-2.88890E-05-7.62244E-07-7.65863E-19 8.36283E-19
 -1      2012 9.69781E-05-2.89941E-05-2.91306E-05-9.37128E-07-1.05934E-18 1.20763E-18
 -1      2013 9.66757E-05-2.89092E-05-2.90386E-05-8.26984E-07-1.50205E-18 4.53302E-19
 -1      2014 9.65768E-05-2.88447E-05-2.90313E-05-1.01543E-06-1.40817E-18 1.02729E-18
 -1      2015 9.76872E-05-2.91850E-05-2.93516E-05-1.22411E-06-1.56918E-19 1.09164E-18
 -1      2016 9.72935E-05-2.90721E-05-2.92328E-05-1.08677E-06-8.21517E-19 7.15800E-19
 -1      2017 9.71349E-05-2.89809E-05-2.92130E-05-1.33301E-06-6.85523E-19 6.04150E-19
 -1      2018 9.85890E-05-2.94347E-05-2.96301E-05-1.56545E-06 7.17123E-19 2.28852E-18
 -1      2019 9.80863E-05-2.92874E-05-2.94796E-05-1.40041E-06 7.11074E-19 1.46133E-18
 -1      2020 9.78471E-05-2.91633E-05-2.94409E-05-1.71708E-06 6.79044E-19 1.25838E-18
 -1      2021 9.97107E-05-2.97557E-05-2.99728E-05-1.95263E-06 3.68300E-19 1.56997E-18
 -1      2022 9.90838E-05-2.95675E-05-2.97867E-05-1.76314E-06 6.03008E-19 2.22692E-18
 -1      2023 9.87392E-05-2.94039E-05-2.97211E-05-2.16242E-06 7.36663E-19 2.01559E-18
 -1      2024 1.01070E-04-3.01603E-05-3.03824E-05-2.36295E-06 4.81626E-20 1.50590E-18
 -1      2025 1.00310E-04-2.99254E-05-3.01591E-05-2.15898E-06 1.46265E-19 1.75020E-18
 -1      2026 9.98330E-05-2.97174E-05-3.00564E-05-2.65071E-06 3.48563E-19 1.98843E-18
 -1      2027 1.02665E-04-3.06592E-05-3.08541E-05-2.75075E-06 5.64708E-20 2.07231E-18
 -1      2028 1.01776E-04-3.03739E-05-3.05960E-05-2.55341E-06 5.05143E-20 1.76660E-18
 -1      2029 1.01140E-04-3.01203E-05-3.04447E-05-3.14204E-06 9.72003E-20 2.38547E-18
 -1      2030 1.04459E-04-3.12580E-05-3.13705E-05-3.03588E-06-8.56796E-19 1.19813E-18
 -1      2031 1.03467E-04-3.09237E-05-3.10875E-05-2.88338E-06-6.39411E-20 1.73923E-18
 -1      2032 1.02654E-04-3.06306E-05-3.08752E-05-3.56319E-06-8.00645E-20 2.27968E-18
 -1      2033 1.06361E-04-3.19511E-05-3.18961E-05-3.09135E-06 7.28675E-19 5.50571E-20
 -1      2034 1.05328E-04-3.15785E-05-3.16087E-05-3.04554E-06-5.65187E-19 4.63764E-19
 -1      2035 1.04339E-04-3.12650E-05-3.13248E-05-3.79391E-06-7.50046E-21 7.39420E-19
 -1      2036 1.08204E-04-3.27107E-05-3.23710E-05-2.73604E-06 1.17442E-18 1.40485E-18
 -1      2037 1.07242E-04-3.23266E-05-3.21143E-05-2.88674E-06 9.21760E-19 1.26927E-18
 -1      2038 1.06111E-04-3.20310E-05-3.17542E-05-3.65510E-06 5.07398E-19 3.43833E-19
 -1      2039 1.09720E-04-3.34668E-05-3.27084E-05-1.74694E-06-3.81539E-19 7.85828E-19
 -1      2040 1.09001E-04-3.31242E-05-3.25341E-05-2.20659E-06 5.78828E-19 1.86994E-18
 -1      2041 1.07822E-04-3.29091E-05-3.21063E-05-2.90990E-06 4.20764E-19 1.92384E-18
 -1      2042 1.10527E-04-3.40786E-05-3.28016E-05 8.42479E-08 1.25823E-18 5.04299E-19
 -1      2043 1.10286E-04-3.38683E-05-3.27742E-05-7.91575E-07 2.54216E-19 8.56795E-19
 -1      2044 1.09228E-04-3.38188E-05-3.23100E-05-1.29900E-06 6.19022E-19 1.26204E-18
 -1      2045 1.10155E-04-3.43048E-05-3.25464E-05 2.81936E-06 1.61601E-18 2.28004E-19
 -1      2046 1.10658E-04-3.43605E-05-3.27298E-05 1.49205E-06 1.44602E-18 9.69337E-19
 -1      2047 1.09972E-04-3.45683E-05-3.22940E-05 1.35839E-06 1.54446E-18 2.13707E-18
 -1      2048 1.08143E-04-3.38111E-05-3.18846E-05 6.16117E-06 1.56661E-19-3.09591E-19
 -1      2049 1.09610E-04-3.42877E-05-3.23152E-05 4.52629E-06 1.40195E-18 1.38609E-19
 -1      2050 1.09594E-04-3.48084E-05-3.20115E-05 4.97074E-06 1.50175E-18 2.08679E-18
 -1      2051 1.04261E-04-3.22897E-05-3.08517E-05 9.26304E-06 1.06227E-19-8.20563E-19
 -1      2052 1.06732E-04-3.32872E-05-3.15075E-05 7.73658E-06-4.63168E-19-1.14666E-18
 -1      2053 1.07641E-04-3.40881E-05-3.14706E-05 8.92214E-06-1.38629E-19 3.45953E-19
 -1      2054 9.88360E-05-2.97312E-05-2.96052E-05 1.07951E-05-1.18715E-18-7.04996E-19
 -1      2055 1.02019E-04-3.11639E-05-3.03851E-05 1.00256E-05-6.91354E-19-1.22379E-18
 -1      2056 1.03938E-04-3.20824E-05-3.07471E-05 1.19520E-05-5.82888E-19-2.32252E-19
 -1      2057 9.30284E-05-2.67567E-05-2.83964E-05 9.56653E-06-7.05863E-19 7.84286E-19
 -1      2058 9.62383E-05-2.82462E-05-2.91373E-05 1.01068E-05-8.16484E-19 6.50071E-19
 -1      2059 9.90008E-05-2.90303E-05-2.99693E-05 1.24702E-05-1.37553E-18-5.56130E-20
 -1      2060 8.85781E-05-2.45154E-05-2.74751E-05 5.52947E-06-4.66867E-19 3.87274E-19
 -1      2061 9.09409E-05-2.55151E-05-2.80112E-05 7.36679E-06-1.07671E-18 4.99247E-19
 -1      2062 9.42095E-05-2.59791E-05-2.92692E-05 9.54747E-06-4.01738E-19 8.37682E-19
 -1      2063 8.69037E-05-2.40078E-05-2.69961E-05 2.47106E-07-6.86335E-19 1.27575E-18
 -1      2064 8.77773E-05-2.41357E-05-2.72274E-05 2.61468E-06 1.64033E-19 7.84094E-19
 -1      2065 9.12332E-05-2.43089E-05-2.87327E-05 3.94640E-06-4.23530E-19 8.06619E-19
 -1      2066 8.80521E-05-2.52037E-05-2.69630E-05-3.95412E-06 2.14997E-18 1.59732E-19
 -1      2067 8.74429E-05-2.45671E-05-2.68974E-05-2.10102E-06 4.41119E-19 8.44479E-19
 -1      2068 9.09116E-05-2.47242E-05-2.83963E-05-1.92191E-06 1.27887E-18 3.50926E-19
 -1      2069 9.07200E-05-2.71044E-05-2.72584E-05-5.60803E-06 2.63351E-18 1.61624E-19
 -1      2070 8.92410E-05-2.61854E-05-2.69930E-05-4.87834E-06 2.81475E-18 7.64315E-19
 -1      2071 9.25883E-05-2.66358E-05-2.82582E-05-5.59478E-06 2.76188E-18 1.63456E-18
 -1      2072 9.32683E-05-2.85666E-05-2.76931E-05-4.92996E-06-8.16836E-19-2.65982E-19
 -1      2073 9.17047E-05-2.78486E-05-2.73647E-05-5.18031E-06 1.00526E-18 2.28619E-19
 -1      2074 9.47219E-05-2.86661E-05-2.82873E-05-6.21317E-06 1.12269E-18 2.69308E-18
 -1      2075 9.47570E-05-2.90977E-05-2.80917E-05-3.26630E-06 4.38482E-19 9.55321E-19
 -1      2076 9.36131E-05-2.87637E-05-2.78099E-05-3.89599E-06-4.41417E-20-1.63160E-19
 -1      2077 9.60448E-05-2.97358E-05-2.84055E-05-4.74172E-06 4.13336E-19 2.60408E-18
 -1      2078 9.51763E-05-2.89462E-05-2.83440E-05-1.89568E-06-1.19839E-18 1.97601E-18
 -1      2079 9.45622E-05-2.88873E-05-2.81657E-05-2.36938E-06-4.68561E-19 1.47893E-18
 -1      2080 9.62306E-05-2.97126E-05-2.85125E-05-2.84212E-06-6.01592E-19 3.37838E-18
 -1      2081 9.52730E-05-2.88727E-05-2.84291E-05-1.22282E-06-1.61498E-18 3.27934E-18
 -1      2082 9.49663E-05-2.88302E-05-2.83598E-05-1.54607E-06-1.36683E-18 2.76241E-18
 -1      2083 9.59869E-05-2.94029E-05-2.85504E-05-1.72843E-06-1.75267E-18 5.22996E-18
 -1      2084 9.56993E-05-2.91171E-05-2.84874E-05-1.23355E-06-1.06868E-18 5.58337E-18
 -1      2085 9.85037E-05-2.66364E-05-3.06752E-05 1.03773E-05 2.96399E-18 1.72871E-18
 -1      2086 9.88771E-05-2.88871E-05-2.99792E-05 7.39777E-06 2.48738E-18 6.66694E-19
 -1      2087 9.83105E-05-2.90627E-05-2.95580E-05 4.16129E-06 1.57415E-18-1.42328E-18
 -1      2088 9.79319E-05-2.98883E-05-2.91566E-05 2.07138E-06 2.29744E-19-1.03123E-18
 -1      2089 1.00838E-04-3.09682E-05-2.99881E-05 6.92662E-06 3.94717E-19-4.95514E-20
 -1      2090 9.70912E-05-2.95148E-05-2.88716E-05 3.67797E-07-4.17806E-19 1.16603E-18
 -1      2091 9.64266E-05-2.94722E-05-2.86791E-05-5.78004E-07-1.01298E-18 4.90480E-18
 -1      2092 9.67074E-05-2.96181E-05-2.87558E-05-7.65638E-07-2.05721E-18 4.86508E-18
 -1      2093 9.89796E-05-3.06161E-05-2.92926E-05 1.71516E-06-1.74929E-18 1.56626E-18
 -1      2094 9.64860E-05-2.14715E-05-3.20982E-05 1.70552E-05-1.70108E-19-2.57914E-18
 -1      2095 9.81178E-05-2.53156E-05-3.11507E-05 1.42243E-05 8.06620E-19 1.24180E-18
 -1      2096 1.01251E-04-2.95684E-05-3.07912E-05 1.47810E-05 1.19213E-18-2.45256E-19
 -1      2097 9.14724E-05-1.32658E-05-3.35977E-05 2.13426E-05-6.33700E-19 1.77422E-20
 -1      2098 9.45745E-05-1.84472E-05-3.25390E-05 2.00925E-05-4.60733E-19-1.92589E-18
 -1      2099 9.83461E-05-2.51124E-05-3.14691E-05 2.25796E-05-4.87692E-19-2.46061E-18
 -1      2100 8.43158E-05-3.61386E-06-3.47781E-05 1.93646E-05-2.22304E-18 1.58071E-18
 -1      2101 8.80419E-05-8.73202E-06-3.38862E-05 2.12741E-05-1.69941E-18 2.22827E-18
 -1      2102 9.12781E-05-1.70733E-05-3.18216E-05 2.62518E-05-1.97392E-18 1.01684E-19
 -1      2103 7.83192E-05 3.80886E-06-3.53793E-05 9.53735E-06-1.76676E-19 1.34382E-18
 -1      2104 8.08006E-05 7.22110E-07-3.48984E-05 1.47351E-05-1.62493E-18 1.78057E-18
 -1      2105 8.21027E-05-7.47841E-06-3.18213E-05 2.12645E-05-2.79626E-18 1.81370E-18
 -1      2106 7.74500E-05 4.91734E-06-3.53544E-05-4.77092E-06 1.38133E-18 1.17513E-18
 -1      2107 7.70731E-05 5.32448E-06-3.54057E-05 1.58573E-06 1.17765E-18 1.60899E-18
 -1      2108 7.58035E-05-1.07208E-06-3.17114E-05 6.98749E-06-1.55359E-18 2.74211E-18
 -1      2109 8.24087E-05-1.12054E-06-3.47749E-05-1.66340E-05 3.38019E-19 5.25372E-19
 -1      2110 7.94586E-05 2.53863E-06-3.53377E-05-1.21765E-05 3.85883E-19 7.08702E-19
 -1      2111 7.68105E-05-2.02580E-06-3.17567E-05-1.06503E-05 3.33190E-19-2.02017E-19
 -1      2112 8.96388E-05-1.06788E-05-3.37387E-05-2.10746E-05 3.37768E-18-1.30629E-18
 -1      2113 8.60349E-05-5.59127E-06-3.46464E-05-2.00470E-05 1.96173E-18 7.92770E-20
 -1      2114 8.42891E-05-9.54551E-06-3.19184E-05-2.28018E-05 1.29940E-18 1.07318E-18
 -1      2115 9.54529E-05-1.96837E-05-3.23961E-05-1.84471E-05 4.58952E-18 1.12330E-18
 -1      2116 9.27425E-05-1.48590E-05-3.34248E-05-2.02176E-05 5.10386E-18-6.89141E-20
 -1      2117 9.31585E-05-1.88780E-05-3.18804E-05-2.53554E-05 5.47493E-18 3.34763E-19
 -1      2118 9.81175E-05-2.55771E-05-3.10519E-05-1.21586E-05 3.03698E-18 6.65887E-19
 -1      2119 9.68867E-05-2.21793E-05-3.19432E-05-1.50902E-05 4.12307E-18 4.89400E-19
 -1      2120 9.91271E-05-2.59273E-05-3.14542E-05-2.03233E-05 4.74137E-18 2.82178E-19
 -1      2121 9.81492E-05-2.82532E-05-2.99434E-05-5.75425E-06 1.10544E-18-1.52887E-18
 -1      2122 9.81070E-05-2.64959E-05-3.05737E-05-8.48961E-06 1.50163E-18 2.35422E-19
 -1      2123 1.00906E-04-2.93753E-05-3.07216E-05-1.24090E-05 1.98566E-18-8.81278E-19
 -1      2124 6.71639E-05-4.68822E-05-9.25481E-06 4.75820E-05 4.93990E-18-1.67077E-19
 -1      2125 5.15430E-05-4.82765E-05-2.68679E-06 4.08453E-05 4.34697E-18 7.46448E-19
 -1      2126 1.64256E-05-3.73961E-05 7.65498E-06 7.15611E-06 4.68430E-18 1.06468E-17
 -1      2127 1.59958E-05-3.59705E-05 7.38550E-06-6.62962E-06 2.71231E-18 8.48896E-18
 -1      2128 3.05705E-05-4.12323E-05 3.30634E-06 3.18103E-05 4.16528E-18 3.39660E-18
 -1      2129 2.14957E-05-4.32176E-05 7.44700E-06 1.97787E-05 3.36484E-18 7.27601E-18
 -1      2130 1.01720E-04-4.76223E-05-2.32321E-05 5.05503E-05 5.06865E-18-1.95156E-18
 -1      2131 8.25752E-05-5.11437E-05-1.47464E-05 4.52106E-05 5.72171E-18-1.15832E-18
 -1      2132 8.83701E-05-5.50629E-05-1.45333E-05 5.12829E-05 1.62292E-18-2.55248E-18
 -1      2133 1.43817E-04-4.79535E-05-4.05834E-05 4.18214E-05 2.27852E-18-1.82959E-19
 -1      2134 1.22488E-04-4.98277E-05-3.16632E-05 4.20860E-05 4.23559E-18-4.18434E-19
 -1      2135 8.72455E-05-8.72182E-06-3.37488E-05-1.05375E-05-4.77210E-19-1.03804E-18
 -1      2136 8.79544E-05-9.24225E-06-3.38213E-05-1.20930E-05-6.27016E-19-8.67428E-19
 -1      2137 9.04902E-05-1.30523E-05-3.32362E-05-1.18740E-05-7.16395E-19-7.04202E-19
 -1      2138 8.86841E-05-1.10552E-05-3.32945E-05-9.41241E-06-4.21333E-19-9.64532E-19
 -1      2139 1.91684E-04-3.07625E-05-6.73108E-05 1.91474E-05 1.83065E-18 1.56828E-18
 -1      2140 1.78880E-04-3.12071E-05-6.24990E-05 2.48984E-05 9.02725E-19 2.38863E-18
 -1      2141 1.94079E-04-2.55374E-05-7.10757E-05 6.13316E-06 3.32418E-18 5.54237E-19
 -1      2142 1.93054E-04-2.62182E-05-7.00156E-05 1.45683E-05 2.69992E-18 9.55030E-19
 -1      2143 1.78057E-04-2.30109E-05-6.61075E-05 7.38628E-09 3.39364E-18 2.39922E-19
 -1      2144 1.89505E-04-2.43441E-05-6.94186E-05 4.27384E-06 4.27286E-18 5.17325E-19
 -1      2145 1.68154E-04-3.68115E-05-5.59153E-05-1.38224E-05 3.04863E-18-9.34277E-19
 -1      2146 1.76567E-04-3.29543E-05-6.12202E-05-3.88212E-06 2.91358E-18-1.74489E-19
 -1      2147 1.44528E-04-4.40508E-05-4.33834E-05-2.51266E-05 2.56651E-18-8.79644E-19
 -1      2148 1.63804E-04-4.28792E-05-5.11269E-05-2.25270E-05 2.80977E-18-5.09067E-19
 -1      2149 1.60539E-04-4.22149E-05-4.98841E-05 4.00510E-07 2.13516E-18 4.38763E-19
 -1      2150 1.11631E-04-5.05166E-05-2.69683E-05-3.45426E-05 3.07812E-18-1.74828E-18
 -1      2151 1.32292E-04-4.84264E-05-3.54343E-05-3.56878E-05 2.58896E-18-9.40207E-19
 -1      2152 8.06848E-05-5.20320E-05-1.26401E-05-3.97125E-05 2.08921E-18-2.61018E-18
 -1      2153 9.71251E-05-4.93731E-05-2.02918E-05-4.18340E-05 3.23948E-18-1.16234E-18
 -1      2154 1.19396E-04-6.17779E-05-2.47984E-05-3.34302E-05 1.49713E-18-4.37069E-19
 -1      2155 3.68931E-05-4.68444E-05 2.55851E-06-2.88515E-05 6.24687E-19-3.44658E-18
 -1      2156 5.29539E-05-4.47586E-05-4.23954E-06-3.85889E-05 7.74188E-19-3.52366E-18
 -1      2157 1.73841E-05-4.07171E-05 8.78299E-06-1.50884E-05 1.77665E-19-3.74812E-18
 -1      2158 2.47517E-05-4.18026E-05 6.13963E-06-2.35772E-05 7.67412E-19-3.99397E-18
 -1      2159 3.67255E-05-3.82434E-05 2.59820E-07-3.33369E-05-1.66018E-19-3.64944E-18
 -1      2160 1.30770E-05-3.85499E-05 9.77598E-06 7.04138E-06-5.89747E-19-4.24025E-18
 -1      2161 1.24208E-05-3.97960E-05 1.04067E-05-3.43942E-06 3.95988E-20-3.14969E-18
 -1      2162 3.11807E-05-4.34732E-05 4.17403E-06 2.65144E-05-2.60547E-18-2.67324E-18
 -1      2163 2.19608E-05-4.15279E-05 7.27448E-06 1.95297E-05-8.62068E-19-3.71932E-18
 -1      2164 5.91047E-05-4.58494E-05-6.27491E-06 3.80100E-05-2.87398E-18-4.38353E-18
 -1      2165 4.40442E-05-4.83170E-05 3.02904E-07 3.01772E-05-2.88161E-18-3.18347E-18
 -1      2166 4.56497E-05-4.28740E-05-1.69160E-06 3.59676E-05-1.31248E-18-2.88309E-18
 -1      2167 1.01857E-04-5.05292E-05-2.19241E-05 3.98828E-05-3.02094E-18-1.60343E-18
 -1      2168 8.29747E-05-5.28368E-05-1.39180E-05 3.61438E-05-2.04389E-18-2.94979E-18
 -1      2169 1.38197E-04-4.75132E-05-3.82321E-05 3.37457E-05-3.33731E-18-2.25353E-18
 -1      2170 1.16259E-04-4.94574E-05-2.93655E-05 3.25907E-05-3.95310E-18-1.59412E-18
 -1      2171 1.70245E-04-4.17946E-05-5.39046E-05 2.16367E-05-1.55558E-18-1.57633E-18
 -1      2172 1.50192E-04-4.29100E-05-4.60442E-05 2.46296E-05-2.04326E-18-2.64359E-18
 -1      2173 1.90297E-04-3.42301E-05-6.55243E-05 6.88072E-06-3.58549E-18-3.60413E-19
 -1      2174 1.76566E-04-3.48213E-05-6.00875E-05 1.33441E-05-2.81681E-18-4.67986E-19
 -1      2175 1.89562E-04-2.43127E-05-6.98178E-05-6.63997E-06-5.09914E-18 1.83330E-18
 -1      2176 1.89594E-04-2.75978E-05-6.81843E-05 1.11114E-06-4.69172E-18 2.63427E-19
 -1      2177 1.89871E-04-2.63643E-05-6.86647E-05-1.52753E-05-3.57787E-18 7.55977E-19
 -1      2178 1.89540E-04-2.39257E-05-6.99495E-05-7.88459E-06-4.80861E-18 7.37130E-19
 -1      2179 1.78218E-04-3.23713E-05-6.15916E-05-2.68351E-05-5.47607E-18 2.25988E-18
 -1      2180 1.91347E-04-3.22135E-05-6.66182E-05-2.12756E-05-4.07931E-18 8.32633E-19
 -1      2181 1.53622E-04-4.15416E-05-4.79211E-05-3.43707E-05-6.99099E-18 3.12640E-18
 -1      2182 1.72192E-04-3.95536E-05-5.54579E-05-3.25797E-05-5.70225E-18 1.76818E-18
 -1      2183 1.22761E-04-5.03347E-05-3.15878E-05-4.18758E-05-6.30235E-18 4.37874E-18
 -1      2184 1.43234E-04-4.74199E-05-4.03338E-05-4.31304E-05-7.11381E-18 3.31825E-18
 -1      2185 8.17198E-05-5.03752E-05-1.48384E-05-4.42292E-05-5.84961E-18 7.38189E-18
 -1      2186 1.01458E-04-4.68781E-05-2.34820E-05-5.02044E-05-6.31548E-18 7.04858E-18
 -1      2187 4.77492E-05-4.94883E-05-1.09896E-06-3.73004E-05-3.38305E-18 9.30402E-18
 -1      2188 6.27785E-05-4.62603E-05-7.86615E-06-4.56252E-05-5.32276E-18 9.09345E-18
 -1      2189 2.26255E-05-4.20894E-05 6.70429E-06-2.18499E-05 1.15684E-18 7.19809E-18
 -1      2190 3.26868E-05-4.35661E-05 3.23315E-06-3.16897E-05-2.33569E-18 8.87860E-18
 -1      2191 1.73959E-04-3.82926E-05-5.67056E-05 2.97816E-05 2.45573E-19 2.24379E-18
 -1      2192 1.55665E-04-4.13667E-05-4.89388E-05 2.99490E-05 1.01189E-18 1.84696E-18
 -1      2193 1.25454E-04-6.05844E-05-2.74845E-05 4.33057E-05 2.53390E-18-4.11404E-18
 -1      2194 9.71951E-05-2.43161E-05-3.13070E-05-1.00010E-05-8.27763E-19 5.43504E-19
 -1      2195 1.68207E-04-3.50345E-05-5.60837E-05 9.54291E-06 4.15046E-20 5.49724E-19
 -1      2196 9.63523E-05-2.31056E-05-3.14569E-05-1.03844E-05-8.43565E-19 1.52241E-19
 -1      2197 4.92082E-05-4.19294E-05-3.72611E-06 4.35245E-05 9.74088E-19 1.91938E-18
 -1      2198 2.22576E-05-2.86134E-05 2.02362E-06 1.64559E-05 1.70084E-18 7.95703E-18
 -1      2199 9.83537E-05-2.89844E-05-2.96959E-05-4.37035E-06 7.18211E-19-1.75289E-18
 -1      2200 2.35513E-05-2.91785E-05 1.75119E-06-1.70623E-05 1.48824E-18 9.40715E-18
 -1      2201 1.55526E-04-5.36890E-05-4.30815E-05 2.36990E-05 6.23310E-19-3.87518E-19
 -1      2202 4.81239E-05-4.29076E-05-3.07324E-06-4.25744E-05-2.46275E-18 1.06896E-17
 -1      2203 8.52604E-05-5.45404E-05-1.36312E-05-5.01629E-05-3.76421E-18 6.16592E-18
 -1      2204 1.26380E-04-6.02962E-05-2.81023E-05-4.31692E-05-3.36272E-18 2.48774E-18
 -1      2205 1.55165E-04-5.49388E-05-4.23639E-05-2.46545E-05-5.01496E-18-4.81115E-19
 -1      2206 1.69363E-04-3.80085E-05-5.51858E-05-1.28556E-05-5.52382E-18-2.58769E-19
 -1      2207 1.71439E-04-2.15306E-05-6.29116E-05-6.54262E-06-4.11954E-18 4.77515E-19
 -1      2208 1.68406E-04-1.45073E-05-6.49239E-05-6.81408E-06-4.72560E-18 1.88523E-18
 -1      2209 1.69913E-04-2.22493E-05-6.20906E-05-7.29239E-06-4.20086E-18 4.25846E-19
 -1      2210 1.67036E-04-3.90016E-05-5.38388E-05 6.43680E-07-2.13293E-18 7.85200E-19
 -1      2211 1.50389E-04-5.45224E-05-4.06313E-05 1.53609E-05-2.27534E-18-6.16640E-19
 -1      2212 8.42264E-05-5.55146E-05-1.24398E-05 4.07674E-05-8.79220E-19-2.21786E-18
 -1      2213 1.72120E-05-3.09654E-05 5.32145E-06-1.20230E-05-2.27640E-20-3.61598E-18
 -1      2214 7.41566E-05-5.07770E-05-1.01973E-05-4.13481E-05-4.49351E-19-4.18316E-18
 -1      2215 9.45193E-05-5.73791E-05-1.62901E-05-4.12647E-05-7.24425E-19-2.14864E-18
 -1      2216 6.87773E-05-4.72305E-05-8.70575E-06-4.31867E-05-1.78216E-18-3.21364E-18
 -1      2217 1.47080E-04-5.68845E-05-3.82659E-05-1.67991E-05 1.89799E-18 1.71524E-19
 -1      2218 1.63760E-04-2.38119E-05-5.93370E-05 8.19094E-06 3.35298E-18-3.64224E-19
 -1      2219 1.73142E-04-2.01361E-05-6.41492E-05 6.24131E-06 2.18789E-18 6.07958E-19
 -1      2220 1.67271E-04-1.30684E-05-6.50891E-05 6.95529E-06 3.55500E-18 2.52231E-19
 -1      2221 2.07975E-05-3.28647E-05 4.62871E-06 1.67609E-05-7.41789E-19-3.89423E-18
 -1      2222 1.23114E-04-6.17868E-05-2.62757E-05 3.02123E-05-1.72096E-18-5.16902E-19
 -1      2223 9.52196E-05-2.63782E-05-2.94903E-05 4.19416E-06 8.43347E-19 1.48956E-18
 -1      2224 9.61941E-05-2.58635E-05-3.00681E-05 5.99940E-06 9.35720E-19 1.54694E-18
 -1      2225 8.81310E-05-1.11812E-05-3.30177E-05-3.66083E-06 9.07971E-20-8.12205E-19
 -1      2226 8.83652E-05-1.14513E-05-3.29999E-05-4.80174E-06-4.55061E-20-9.44117E-19
 -1      2227 8.87165E-05-1.19340E-05-3.29515E-05-5.81906E-06-1.15467E-19-1.02268E-18
 -1      2228 8.91262E-05-1.24085E-05-3.29232E-05-6.99071E-06-2.30490E-19-9.80242E-19
 -1      2229 8.98855E-05-1.38207E-05-3.25980E-05-4.90391E-06-7.42089E-20-8.55801E-19
 -1      2230 8.77849E-05-1.07228E-05-3.30606E-05 6.15623E-07 5.45299E-19-6.72829E-19
 -1      2231 8.77806E-05-1.07179E-05-3.30609E-05-4.95342E-07 3.72244E-19-7.21163E-19
 -1      2232 8.79661E-05-1.09479E-05-3.30422E-05 2.75768E-06 6.68200E-19-7.31572E-19
 -1      2233 8.78512E-05-1.08148E-05-3.30515E-05 1.63826E-06 5.76572E-19-7.23498E-19
 -1      2234 8.91025E-05-1.27691E-05-3.27175E-05 1.04967E-06 5.15640E-19-6.39728E-19
 -1      2235 8.84007E-05-1.14949E-05-3.29972E-05 4.88673E-06 8.28476E-19-5.79093E-19
 -1      2236 8.81609E-05-1.12181E-05-3.30152E-05 3.76371E-06 7.48742E-19-6.94878E-19
 -1      2237 8.93684E-05-1.31251E-05-3.26776E-05 3.02091E-06 6.18412E-19-6.57800E-19
 -1      2238 8.91815E-05-1.24779E-05-3.29188E-05 7.07392E-06 1.07907E-18-1.26440E-19
 -1      2239 8.87628E-05-1.19912E-05-3.29477E-05 5.90226E-06 8.94589E-19-3.60743E-19
 -1      2240 8.99263E-05-1.38732E-05-3.25934E-05 4.97462E-06 8.36870E-19-3.94009E-19
 -1      2241 9.04525E-05-1.40871E-05-3.27923E-05 9.22267E-06 1.24386E-18 1.43241E-19
 -1      2242 8.97714E-05-1.32761E-05-3.28374E-05 8.04380E-06 1.08263E-18-3.97047E-21
 -1      2243 9.08632E-05-1.51332E-05-3.24489E-05 6.87050E-06 1.05660E-18-2.07722E-20
 -1      2244 9.24513E-05-1.66589E-05-3.25829E-05 1.11065E-05 1.30862E-18 5.62390E-19
 -1      2245 9.13720E-05-1.53189E-05-3.26547E-05 1.00266E-05 1.26376E-18 3.41328E-19
 -1      2246 9.22879E-05-1.70870E-05-3.22082E-05 8.51611E-06 1.15532E-18 2.57591E-19
 -1      2247 9.42397E-05-2.71184E-05-2.87495E-05 1.76441E-06 6.65450E-19 1.31635E-18
 -1      2248 9.48400E-05-2.68950E-05-2.90480E-05 2.73713E-06 7.75604E-19 1.41493E-18
 -1      2249 9.53422E-05-2.58485E-05-2.97909E-05 4.36028E-06 8.91777E-19 9.68291E-19
 -1      2250 9.58977E-05-2.50794E-05-3.03050E-05-6.19426E-06-6.41035E-19 2.34605E-20
 -1      2251 9.52484E-05-2.58521E-05-2.97608E-05-4.25296E-06-6.26890E-19 1.33143E-20
 -1      2252 1.57537E-04-3.05316E-05-5.48411E-05 1.82986E-07 9.20513E-19 4.66715E-19
 -1      2253 1.54775E-04-3.89677E-05-5.00080E-05 1.43145E-06-4.17164E-19 7.52801E-19
 -1      2254 9.51630E-05-2.65439E-05-2.93449E-05-2.96488E-06-5.92753E-19 9.01379E-20
 -1      2255 9.46640E-05-2.68952E-05-2.90421E-05-1.87900E-06-4.13063E-19 1.02134E-19
 -1      2256 9.53565E-05-2.54449E-05-2.99958E-05-4.27204E-06-6.24861E-19-1.48536E-19
 -1      2257 9.44781E-05-2.72394E-05-2.87777E-05-1.02531E-06-3.56990E-19 2.00757E-19
 -1      2258 9.42178E-05-2.74527E-05-2.86110E-05-4.24022E-07-2.96845E-19 1.05221E-19
 -1      2259 9.50223E-05-2.66878E-05-2.92995E-05-1.91255E-06-4.27970E-19 3.44504E-20
 -1      2260 9.40684E-05-2.76331E-05-2.84496E-05 8.28311E-08-2.61495E-19 7.72320E-20
 -1      2261 9.39697E-05-2.77764E-05-2.83660E-05 4.12126E-07-2.45206E-19-7.50501E-21
 -1      2262 9.47291E-05-2.74287E-05-2.88557E-05-4.41303E-07-3.57402E-19 1.07615E-19
 -1      2263 9.38848E-05-2.78859E-05-2.82725E-05 6.94417E-07-1.59701E-19-3.02810E-20
 -1      2264 9.38901E-05-2.79929E-05-2.82395E-05 8.58009E-07-1.36354E-19 2.85491E-20
 -1      2265 9.45271E-05-2.78565E-05-2.85834E-05 4.28420E-07-2.48093E-19 3.20024E-20
 -1      2266 9.38583E-05-2.80649E-05-2.81906E-05 9.94656E-07-2.65664E-19-1.12349E-19
 -1      2267 9.39250E-05-2.81487E-05-2.81881E-05 1.05626E-06-1.40269E-19-1.83241E-19
 -1      2268 9.44339E-05-2.81258E-05-2.84252E-05 8.98284E-07-2.99772E-19-1.11822E-20
 -1      2269 9.39301E-05-2.81984E-05-2.81679E-05 1.10063E-06-2.19304E-19-4.18950E-19
 -1      2270 9.40283E-05-2.82650E-05-2.81830E-05 1.10044E-06-5.43821E-19-5.87216E-19
 -1      2271 9.44234E-05-2.83027E-05-2.83425E-05 1.10987E-06-3.95785E-19-7.10572E-19
 -1      2272 9.40562E-05-2.82997E-05-2.81809E-05 1.08843E-06-7.96622E-19-6.98519E-19
 -1      2273 9.41665E-05-2.83524E-05-2.82051E-05 1.05261E-06-9.20462E-19-7.91257E-19
 -1      2274 9.44672E-05-2.84207E-05-2.83088E-05 1.15896E-06-8.17265E-19-1.02158E-18
 -1      2275 9.42064E-05-2.83765E-05-2.82137E-05 1.00853E-06-8.23297E-19-7.29671E-19
 -1      2276 9.43165E-05-2.84175E-05-2.82417E-05 9.54418E-07-6.70156E-19-7.97770E-19
 -1      2277 9.45419E-05-2.84989E-05-2.83061E-05 1.11047E-06-9.20304E-19-1.05453E-18
 -1      2278 9.43612E-05-2.84336E-05-2.82562E-05 8.94703E-07-3.81937E-19-6.42444E-19
 -1      2279 9.44640E-05-2.84649E-05-2.82848E-05 8.33802E-07-1.43922E-19-6.29205E-19
 -1      2280 9.46308E-05-2.85489E-05-2.83219E-05 1.00850E-06-4.77099E-19-6.33070E-19
 -1      2281 9.45089E-05-2.84750E-05-2.83022E-05 7.69522E-07-1.47962E-21-7.27033E-19
 -1      2282 9.46012E-05-2.84981E-05-2.83295E-05 7.09453E-07 5.37430E-20-5.47858E-19
 -1      2283 9.47228E-05-2.85784E-05-2.83480E-05 8.82956E-07-1.26212E-19-2.92153E-19
 -1      2284 9.46439E-05-2.85037E-05-2.83478E-05 6.48012E-07 1.42934E-19-6.46809E-19
 -1      2285 9.47248E-05-2.85200E-05-2.83730E-05 5.93811E-07-5.67975E-20-5.38447E-19
 -1      2286 9.48113E-05-2.85931E-05-2.83794E-05 7.54000E-07 2.28743E-19-2.04996E-19
 -1      2287 9.47642E-05-2.85221E-05-2.83913E-05 5.40184E-07-3.40279E-19-3.41569E-19
 -1      2288 9.48345E-05-2.85330E-05-2.84144E-05 4.95245E-07-2.97533E-19-1.43313E-19
 -1      2289 9.48935E-05-2.85966E-05-2.84129E-05 6.35204E-07-4.91238E-20-3.44797E-19
 -1      2290 9.48708E-05-2.85323E-05-2.84324E-05 4.52900E-07-2.70816E-19-1.33832E-19
 -1      2291 9.49327E-05-2.85391E-05-2.84537E-05 4.19669E-07-2.13972E-19 9.74510E-20
 -1      2292 9.49685E-05-2.85918E-05-2.84472E-05 5.35863E-07-1.89619E-19 7.80283E-20
 -1      2293 9.49668E-05-2.85361E-05-2.84717E-05 3.91257E-07-2.56324E-19-1.37759E-19
 -1      2294 9.50234E-05-2.85397E-05-2.84920E-05 3.71768E-07-2.24762E-19-4.74734E-20
 -1      2295 9.50378E-05-2.85804E-05-2.84818E-05 4.62731E-07-5.50674E-19 1.69777E-19
 -1      2296 9.50569E-05-2.85349E-05-2.85106E-05 3.59658E-07-1.42475E-19-1.95511E-19
 -1      2297 9.51120E-05-2.85362E-05-2.85311E-05 3.55931E-07-1.19296E-19 1.71357E-19
 -1      2298 9.51039E-05-2.85636E-05-2.85175E-05 4.21326E-07-1.06348E-19-3.22012E-20
 -1      2299 9.51470E-05-2.85299E-05-2.85511E-05 3.62621E-07-4.29276E-19 3.42324E-19
 -1      2300 9.52052E-05-2.85299E-05-2.85732E-05 3.76992E-07-3.86291E-19 3.71354E-19
 -1      2301 9.51704E-05-2.85420E-05-2.85555E-05 4.16944E-07 5.71346E-20-2.13876E-19
 -1      2302 9.52443E-05-2.85222E-05-2.85959E-05 4.05422E-07-3.09206E-19 2.83493E-19
 -1      2303 9.53112E-05-2.85219E-05-2.86214E-05 4.40776E-07-2.92748E-19 3.29997E-20
 -1      2304 9.52421E-05-2.85157E-05-2.85977E-05 4.55430E-07-4.69121E-19 1.57250E-19
 -1      2305 9.53574E-05-2.85129E-05-2.86481E-05 4.94562E-07-9.45573E-20-5.88215E-20
 -1      2306 9.54393E-05-2.85135E-05-2.86790E-05 5.54507E-07 2.60334E-19-5.32143E-19
 -1      2307 9.53246E-05-2.84848E-05-2.86467E-05 5.43761E-07-9.56898E-20-3.69096E-19
 -1      2308 9.54962E-05-2.85035E-05-2.87115E-05 6.38081E-07 6.52860E-19-4.34335E-19
 -1      2309 9.56004E-05-2.85063E-05-2.87501E-05 7.27037E-07 7.08050E-19 5.64659E-20
 -1      2310 9.54244E-05-2.84491E-05-2.87051E-05 6.90427E-07 4.32047E-19-3.68576E-19
 -1      2311 9.56720E-05-2.84955E-05-2.87901E-05 8.45685E-07 1.93683E-19 4.98559E-20
 -1      2312 9.58073E-05-2.85023E-05-2.88392E-05 9.68863E-07 3.42842E-19 3.65986E-19
 -1      2313 9.55491E-05-2.84086E-05-2.87763E-05 9.05616E-07 6.88844E-19 4.04497E-19
 -1      2314 9.58980E-05-2.84914E-05-2.88886E-05 1.12863E-06 4.20432E-19-1.71660E-19
 -1      2315 9.60741E-05-2.85048E-05-2.89510E-05 1.29184E-06 2.69312E-19-2.90361E-19
 -1      2316 9.57072E-05-2.83640E-05-2.88636E-05 1.20113E-06-3.03068E-20-3.71098E-19
 -1      2317 9.61892E-05-2.84948E-05-2.90119E-05 1.49921E-06 9.09469E-20-6.85946E-19
 -1      2318 9.64173E-05-2.85180E-05-2.90908E-05 1.70843E-06-9.67334E-20-2.00060E-19
 -1      2319 9.59085E-05-2.83168E-05-2.89705E-05 1.58993E-06 4.08817E-20-1.14710E-18
 -1      2320 9.65623E-05-2.85111E-05-2.91649E-05 1.96966E-06-1.91707E-19-1.93047E-19
 -1      2321 9.68548E-05-2.85489E-05-2.92632E-05 2.23013E-06-1.31759E-19-9.10643E-20
 -1      2322 9.61638E-05-2.82704E-05-2.91002E-05 2.08509E-06-1.52689E-19-8.29605E-19
 -1      2323 9.70362E-05-2.85488E-05-2.93518E-05 2.55012E-06 6.99381E-21 7.23849E-20
 -1      2324 9.74062E-05-2.86082E-05-2.94725E-05 2.86475E-06 2.96306E-19 7.15423E-19
 -1      2325 9.64856E-05-2.82317E-05-2.92551E-05 2.69792E-06-1.89261E-20-4.74629E-19
 -1      2326 9.76319E-05-2.86215E-05-2.95760E-05 3.24504E-06 9.22724E-20 8.65323E-20
 -1      2327 9.80931E-05-2.87130E-05-2.97206E-05 3.61171E-06-2.10406E-19-4.20676E-19
 -1      2328 9.68885E-05-2.82134E-05-2.94359E-05 3.43469E-06-2.33212E-19-3.67469E-19
 -1      2329 9.83734E-05-2.87516E-05-2.98378E-05 4.04728E-06-1.69396E-19-2.65259E-19
 -1      2330 9.89392E-05-2.88909E-05-3.00065E-05 4.45444E-06 2.69494E-19-2.29961E-19
 -1      2331 9.73913E-05-2.82384E-05-2.96410E-05 4.29139E-06 7.35120E-20-1.07724E-18
 -1      2332 9.92895E-05-2.89752E-05-3.01340E-05 4.92865E-06 4.63254E-19-5.83929E-19
 -1      2333 9.99722E-05-2.91867E-05-3.03235E-05 5.34851E-06 4.19936E-19 2.55524E-19
 -1      2334 9.80202E-05-2.83467E-05-2.98646E-05 5.24547E-06 4.47118E-19-1.09716E-19
 -1      2335 1.00418E-04-2.93508E-05-3.04550E-05 5.82546E-06-1.07806E-19 6.55456E-19
 -1      2336 1.01227E-04-2.96704E-05-3.06579E-05 6.20411E-06 9.88195E-19 1.20850E-18
 -1      2337 9.88159E-05-2.86053E-05-3.00960E-05 6.24346E-06 5.64085E-19 4.43636E-19
 -1      2338 1.01809E-04-2.99681E-05-3.07838E-05 6.61759E-06 1.18535E-18 4.21271E-19
 -1      2339 1.02753E-04-3.04464E-05-3.09869E-05 6.86227E-06 4.66329E-19 7.82331E-19
 -1      2340 9.98450E-05-2.91214E-05-3.03184E-05 7.18300E-06 2.75998E-19 8.35726E-19
 -1      2341 1.03538E-04-3.09560E-05-3.10956E-05 7.10086E-06 2.04349E-19 5.97871E-19
 -1      2342 1.04613E-04-3.16549E-05-3.12801E-05 7.06679E-06 2.18384E-19 9.56510E-19
 -1      2343 1.01215E-04-3.00545E-05-3.05109E-05 7.88818E-06 2.01555E-19-8.32880E-20
 -1      2344 1.05699E-04-3.24727E-05-3.13624E-05 6.95627E-06-3.73231E-19 1.05055E-18
 -1      2345 1.06882E-04-3.34445E-05-3.15067E-05 6.44133E-06-5.45585E-19 7.32227E-19
 -1      2346 1.03090E-04-3.16146E-05-3.06546E-05 8.07859E-06-3.90639E-19 2.97033E-20
 -1      2347 1.08378E-04-3.46504E-05-3.15651E-05 5.73116E-06-2.80858E-19 7.56645E-19
 -1      2348 1.09593E-04-3.58770E-05-3.16535E-05 4.49675E-06 3.02110E-19 6.85279E-19
 -1      2349 1.05680E-04-3.40143E-05-3.07483E-05 7.33749E-06-4.11191E-19 8.50297E-19
 -1      2350 1.11548E-04-3.74374E-05-3.17182E-05 2.87946E-06 8.05427E-19 6.51526E-19
 -1      2351 1.12601E-04-3.87144E-05-3.17556E-05 7.36068E-07 9.82303E-19 1.63015E-18
 -1      2352 1.09155E-04-3.73107E-05-3.08370E-05 5.10463E-06 6.04256E-19 1.57181E-18
 -1      2353 1.14851E-04-4.03144E-05-3.19033E-05-2.05068E-06 6.37806E-19 2.05998E-18
 -1      2354 1.15360E-04-4.10893E-05-3.19328E-05-5.05897E-06 2.26250E-19 2.30352E-18
 -1      2355 1.13430E-04-4.10887E-05-3.10494E-05 7.76786E-07 1.13241E-18 2.30724E-18
 -1      2356 1.17270E-04-4.19194E-05-3.22921E-05-8.90871E-06 1.46973E-19 2.32374E-18
 -1      2357 1.16700E-04-4.12874E-05-3.23949E-05-1.21818E-05-2.48750E-20 1.93814E-18
 -1      2358 1.17727E-04-4.39645E-05-3.16298E-05-5.94758E-06 1.67534E-19 1.77617E-18
 -1      2359 1.17183E-04-4.02025E-05-3.30857E-05-1.60596E-05 1.39439E-19 1.91650E-18
 -1      2360 1.15159E-04-3.74336E-05-3.33199E-05-1.82319E-05 3.06209E-19 2.31041E-18
 -1      2361 1.20270E-04-4.34919E-05-3.28853E-05-1.41289E-05-3.15454E-20 2.14131E-18
 -1      2362 1.13435E-04-3.38839E-05-3.42846E-05-1.99486E-05 1.61347E-19 2.07331E-18
 -1      2363 1.10434E-04-2.95794E-05-3.45884E-05-1.92989E-05-5.06287E-19 2.51316E-18
 -1      2364 1.19031E-04-3.75810E-05-3.48998E-05-2.05317E-05-1.83264E-19 2.61870E-18
 -1      2365 1.07477E-04-2.53115E-05-3.54461E-05-1.65442E-05-1.19588E-18 2.80327E-18
 -1      2366 1.05160E-04-2.21351E-05-3.55801E-05-1.26534E-05-1.55473E-18 2.41203E-18
 -1      2367 1.13861E-04-2.72252E-05-3.71852E-05-2.02608E-05-2.00482E-19 2.93898E-18
 -1      2368 1.03727E-04-2.04267E-05-3.57877E-05-6.52435E-06-1.90466E-18 1.42150E-18
 -1      2369 1.03363E-04-2.07720E-05-3.55443E-05-1.32891E-06-1.63464E-18 1.16097E-18
 -1      2370 1.09368E-04-1.97401E-05-3.85727E-05-1.08865E-05-2.59340E-18 1.36806E-18
 -1      2371 1.04716E-04-2.32308E-05-3.48851E-05 4.13226E-06-1.05291E-18 4.58146E-19
 -1      2372 1.06046E-04-2.64922E-05-3.43171E-05 7.35387E-06-3.11470E-19-4.88827E-19
 -1      2373 1.09319E-04-2.08956E-05-3.80857E-05 1.84390E-06-2.06668E-18 8.03702E-19
 -1      2374 1.08067E-04-3.04834E-05-3.31882E-05 8.82158E-06-4.58192E-19-1.49890E-18
 -1      2375 1.09460E-04-3.38016E-05-3.25816E-05 8.83216E-06 2.96142E-19-1.93825E-18
 -1      2376 1.13099E-04-2.92388E-05-3.59871E-05 8.99720E-06-1.09265E-18-1.64887E-18
 -1      2377 1.09640E-04-3.60387E-05-3.15577E-05 6.71542E-06 9.02619E-19-2.20227E-18
 -1      2378 1.09847E-04-3.73093E-05-3.11281E-05 4.73246E-06 1.31707E-19-2.21329E-18
 -1      2379 1.15512E-04-3.73205E-05-3.34649E-05 7.60667E-06-2.35263E-19-2.25322E-18
 -1      2380 1.07828E-04-3.68704E-05-3.04886E-05 1.61218E-06-6.67115E-19-1.63306E-18
 -1      2381 1.06675E-04-3.60432E-05-3.02592E-05-4.76593E-07-7.76729E-19-1.50606E-18
 -1      2382 1.13581E-04-3.98925E-05-3.15640E-05 1.65923E-06 1.25821E-19-3.02249E-18
 -1      2383 9.33448E-05-2.76928E-05-2.81292E-05-4.11442E-07 9.02810E-20 9.31498E-19
 -1      2384 9.34225E-05-2.75876E-05-2.81906E-05-1.25593E-07 2.66267E-19 1.05310E-18
 -1      2385 9.32937E-05-2.78578E-05-2.80392E-05-8.17444E-07 3.47035E-20 5.83782E-19
 -1      2386 9.32485E-05-2.77666E-05-2.80507E-05-6.78315E-07 1.21993E-20 7.79336E-19
 -1      2387 9.40145E-05-2.78093E-05-2.83848E-05-4.44467E-07 1.93607E-19 8.18960E-19
 -1      2388 9.33872E-05-2.79936E-05-2.80227E-05-9.92871E-07 3.49130E-19 7.05370E-19
 -1      2389 9.32744E-05-2.79127E-05-2.80057E-05-9.42179E-07 9.56143E-20 6.73388E-19
 -1      2390 9.39277E-05-2.80192E-05-2.82546E-05-8.91719E-07 3.40220E-20 8.33576E-19
 -1      2391 9.35610E-05-2.81087E-05-2.80491E-05-1.02719E-06 2.91678E-19 9.34968E-19
 -1      2392 9.34168E-05-2.80378E-05-2.80171E-05-1.02950E-06 2.77498E-19 8.86218E-19
 -1      2393 9.39559E-05-2.81685E-05-2.81999E-05-1.08756E-06 2.99747E-19 7.54098E-19
 -1      2394 9.37709E-05-2.82056E-05-2.80983E-05-9.78213E-07-1.69847E-19 8.56609E-19
 -1      2395 9.36182E-05-2.81448E-05-2.80598E-05-1.01089E-06 1.50053E-19 8.19662E-19
 -1      2396 9.40535E-05-2.82793E-05-2.81922E-05-1.12792E-06 1.90697E-19 5.57398E-19
 -1      2397 9.39883E-05-2.82859E-05-2.81576E-05-8.84040E-07 3.14152E-19 7.43436E-19
 -1      2398 9.38408E-05-2.82351E-05-2.81178E-05-9.32241E-07 3.38985E-20 8.40921E-19
 -1      2399 9.41867E-05-2.83625E-05-2.82122E-05-1.07590E-06-8.82540E-21 3.24668E-19
 -1      2400 9.41961E-05-2.83509E-05-2.82191E-05-7.69971E-07 2.39035E-19 7.67808E-19
 -1      2401 9.40613E-05-2.83094E-05-2.81812E-05-8.23901E-07 4.49786E-19 7.72859E-19
 -1      2402 9.43325E-05-2.84244E-05-2.82473E-05-9.73718E-07 3.31463E-19 6.50467E-19
 -1      2403 9.43850E-05-2.84022E-05-2.82782E-05-6.52752E-07 5.83757E-19 8.28522E-19
 -1      2404 9.42663E-05-2.83692E-05-2.82437E-05-7.05969E-07 3.60322E-19 6.92359E-19
 -1      2405 9.44768E-05-2.84695E-05-2.82892E-05-8.49631E-07 2.60694E-19 4.73880E-19
 -1      2406 9.45517E-05-2.84417E-05-2.83328E-05-5.43402E-07 2.12931E-19 5.85654E-19
 -1      2407 9.44496E-05-2.84161E-05-2.83022E-05-5.91688E-07 4.54479E-19 6.83689E-19
 -1      2408 9.46113E-05-2.85010E-05-2.83330E-05-7.22499E-07 4.46530E-19 5.85641E-19
 -1      2409 9.46967E-05-2.84713E-05-2.83822E-05-4.49211E-07 7.01269E-19 2.40271E-19
 -1      2410 9.46097E-05-2.84519E-05-2.83553E-05-4.89765E-07 5.99669E-19 5.93276E-19
 -1      2411 9.47327E-05-2.85218E-05-2.83760E-05-6.04862E-07 4.77893E-19-2.56314E-19
 -1      2412 9.48233E-05-2.84931E-05-2.84269E-05-3.75198E-07 9.46774E-19 1.89936E-19
 -1      2413 9.47486E-05-2.84785E-05-2.84032E-05-4.06045E-07 6.63165E-19 2.95224E-19
 -1      2414 9.48408E-05-2.85340E-05-2.84171E-05-5.05167E-07 6.83956E-19-1.71231E-19
 -1      2415 9.49366E-05-2.85088E-05-2.84685E-05-3.25208E-07 1.40960E-18 7.55769E-20
 -1      2416 9.48705E-05-2.84978E-05-2.84468E-05-3.44751E-07 1.22231E-18 3.39979E-19
 -1      2417 9.49377E-05-2.85394E-05-2.84564E-05-4.29398E-07 1.04041E-18 4.63963E-19
 -1      2418 9.50438E-05-2.85204E-05-2.85090E-05-3.02737E-07 2.77181E-19 8.79810E-19
 -1      2419 9.49815E-05-2.85118E-05-2.84880E-05-3.09418E-07 1.08554E-18 6.12888E-19
 -1      2420 9.50272E-05-2.85395E-05-2.84948E-05-3.82301E-07 9.68819E-19 6.31925E-19
 -1      2421 9.51532E-05-2.85301E-05-2.85512E-05-3.11563E-07-1.05530E-19 7.07632E-19
 -1      2422 9.50893E-05-2.85224E-05-2.85293E-05-3.03604E-07 2.06898E-19 9.54429E-19
 -1      2423 9.51145E-05-2.85358E-05-2.85341E-05-3.68310E-07 1.61998E-19 7.36148E-19
 -1      2424 9.52746E-05-2.85401E-05-2.85983E-05-3.56204E-07-3.93955E-19 3.94045E-19
 -1      2425 9.52029E-05-2.85318E-05-2.85736E-05-3.31420E-07-3.98268E-19 6.72138E-19
 -1      2426 9.52062E-05-2.85292E-05-2.85765E-05-3.92241E-07-2.53384E-19 5.99660E-19
 -1      2427 9.54197E-05-2.85528E-05-2.86542E-05-4.42216E-07 6.77188E-20-6.65613E-20
 -1      2428 9.53328E-05-2.85422E-05-2.86245E-05-3.97896E-07 6.29950E-21 5.22482E-19
 -1      2429 9.53099E-05-2.85212E-05-2.86248E-05-4.59781E-07-3.77454E-19 9.01807E-19
 -1      2430 9.56017E-05-2.85715E-05-2.87232E-05-5.76302E-07 7.76687E-19-5.95664E-19
 -1      2431 9.54912E-05-2.85563E-05-2.86859E-05-5.09186E-07 2.35194E-19-5.24669E-19
 -1      2432 9.54347E-05-2.85131E-05-2.86822E-05-5.77773E-07 5.43764E-19-4.84512E-20
 -1      2433 9.58360E-05-2.85999E-05-2.88102E-05-7.66181E-07-3.27902E-19 6.31116E-19
 -1      2434 9.56923E-05-2.85776E-05-2.87626E-05-6.72551E-07 4.50977E-19 1.25212E-19
 -1      2435 9.55910E-05-2.85069E-05-2.87523E-05-7.54269E-07 8.00917E-20 2.45367E-20
 -1      2436 9.61399E-05-2.86431E-05-2.89207E-05-1.02012E-06-1.08187E-18 6.29236E-19
 -1      2437 9.59520E-05-2.86104E-05-2.88594E-05-8.96064E-07-5.79178E-19 4.96330E-19
 -1      2438 9.57908E-05-2.85054E-05-2.88391E-05-9.98267E-07-3.65454E-19 2.51780E-19
 -1      2439 9.65331E-05-2.87074E-05-2.90601E-05-1.34596E-06-1.05838E-18 1.77110E-19
 -1      2440 9.62887E-05-2.86601E-05-2.89820E-05-1.18790E-06-1.24253E-18 6.87988E-19
 -1      2441 9.60477E-05-2.85126E-05-2.89467E-05-1.31901E-06-1.03771E-18-3.47850E-19
 -1      2442 9.70366E-05-2.88016E-05-2.92341E-05-1.74932E-06-5.24942E-19-1.66500E-19
 -1      2443 9.67226E-05-2.87343E-05-2.91358E-05-1.55498E-06-7.60158E-19-2.68228E-19
 -1      2444 9.63772E-05-2.85348E-05-2.90790E-05-1.72466E-06-6.74369E-19-8.27013E-19
 -1      2445 9.76724E-05-2.89371E-05-2.94473E-05-2.23071E-06 5.64603E-19 7.02329E-19
 -1      2446 9.72756E-05-2.88430E-05-2.93258E-05-2.00067E-06-2.11710E-19-1.15831E-21
 -1      2447 9.67963E-05-2.85811E-05-2.92394E-05-2.21999E-06-4.34406E-19-7.82869E-19
 -1      2448 9.84620E-05-2.91296E-05-2.97026E-05-2.78089E-06 6.35318E-19 7.82160E-19
 -1      2449 9.79704E-05-2.89998E-05-2.95560E-05-2.52109E-06 9.31792E-19 7.24282E-19
 -1      2450 9.73240E-05-2.86659E-05-2.94298E-05-2.80273E-06 5.82690E-19-2.21298E-19
 -1      2451 9.94248E-05-2.94005E-05-2.99996E-05-3.37388E-06 4.33608E-20 1.83763E-18
 -1      2452 9.88294E-05-2.92237E-05-2.98279E-05-3.09935E-06 4.78180E-19 1.23068E-18
 -1      2453 9.79811E-05-2.88107E-05-2.96499E-05-3.45792E-06 1.87863E-19 3.24467E-19
 -1      2454 1.00574E-04-2.97791E-05-3.03323E-05-3.95694E-06-3.14419E-19 1.93882E-18
 -1      2455 9.98726E-05-2.95408E-05-3.01387E-05-3.69713E-06-2.94129E-19 1.75374E-18
 -1      2456 9.87911E-05-2.90479E-05-2.98959E-05-4.14970E-06-2.44644E-19 4.67596E-19
 -1      2457 1.01914E-04-3.03034E-05-3.06872E-05-4.43740E-06 5.37193E-19 1.44881E-18
 -1      2458 1.01115E-04-2.99866E-05-3.04799E-05-4.24294E-06 1.82194E-19 2.17011E-18
 -1      2459 9.97806E-05-2.94247E-05-3.01592E-05-4.80984E-06-9.22943E-20 5.86386E-19
 -1      2460 1.03433E-04-3.10192E-05-3.10407E-05-4.66757E-06 1.50805E-19 3.75351E-19
 -1      2461 1.02563E-04-3.06066E-05-3.08342E-05-4.61746E-06 3.70828E-19 1.39395E-18
 -1      2462 1.00981E-04-3.00063E-05-3.04253E-05-5.32306E-06 6.51758E-19 1.15881E-18
 -1      2463 1.05093E-04-3.19702E-05-3.13584E-05-4.43293E-06-4.95688E-20 1.75203E-18
 -1      2464 1.04206E-04-3.14517E-05-3.11749E-05-4.63852E-06-1.99580E-19 1.10507E-18
 -1      2465 1.02426E-04-3.08740E-05-3.06742E-05-5.51091E-06-1.88094E-19 1.28817E-18
 -1      2466 1.06809E-04-3.31704E-05-3.15982E-05-3.45584E-06 5.78029E-19 2.87154E-18
 -1      2467 1.05997E-04-3.25602E-05-3.14664E-05-4.05383E-06 5.67292E-19 2.90308E-18
 -1      2468 1.04146E-04-3.21087E-05-3.08838E-05-5.11988E-06-3.73674E-19 3.75949E-18
 -1      2469 1.08418E-04-3.45446E-05-3.17194E-05-1.43895E-06 7.26284E-19 3.02738E-18
 -1      2470 1.07827E-04-3.39142E-05-3.16699E-05-2.55959E-06 4.79169E-19 2.66743E-18
 -1      2471 1.06138E-04-3.37428E-05-3.10373E-05-3.82815E-06 8.18733E-19 5.02017E-18
 -1      2472 1.09625E-04-3.58325E-05-3.16997E-05 1.81561E-06 8.82519E-19 4.08286E-18
 -1      2473 1.09464E-04-3.53566E-05-3.17558E-05 1.22029E-07 9.32788E-19 4.00131E-18
 -1      2474 1.08300E-04-3.56615E-05-3.11377E-05-1.29967E-06 6.52293E-19 4.44879E-18
 -1      2475 1.09960E-04-3.64907E-05-3.15580E-05 6.17520E-06 1.95709E-18 3.24166E-18
 -1      2476 1.10483E-04-3.64768E-05-3.17208E-05 4.06222E-06 1.64788E-18 3.44703E-18
 -1      2477 1.10323E-04-3.74544E-05-3.12233E-05 2.66895E-06 1.87363E-18 3.80981E-18
 -1      2478 1.08834E-04-3.57442E-05-3.13647E-05 1.08498E-05 1.03447E-19 1.80433E-18
 -1      2479 1.10242E-04-3.65528E-05-3.16059E-05 8.80783E-06 9.70984E-19 3.03221E-18
 -1      2480 1.11566E-04-3.82747E-05-3.13781E-05 7.84780E-06 2.14504E-18 3.67484E-18
 -1      2481 1.05855E-04-3.29960E-05-3.12076E-05 1.42452E-05-6.52911E-19 1.16806E-18
 -1      2482 1.08116E-04-3.47947E-05-3.14781E-05 1.30880E-05 1.38311E-19 1.29562E-18
 -1      2483 1.11152E-04-3.70658E-05-3.17010E-05 1.31560E-05 5.95583E-19 3.93778E-18
 -1      2484 1.01398E-04-2.86162E-05-3.11235E-05 1.43306E-05-1.50685E-18 1.04910E-18
 -1      2485 1.04027E-04-3.09687E-05-3.13779E-05 1.48970E-05-1.77911E-18 8.41805E-20
 -1      2486 1.08460E-04-3.31769E-05-3.22169E-05 1.65115E-05-9.38268E-19 2.55793E-18
 -1      2487 9.70588E-05-2.44715E-05-3.10456E-05 1.01125E-05-5.01377E-19 1.39152E-18
 -1      2488 9.91741E-05-2.63273E-05-3.12704E-05 1.25373E-05-6.97287E-19 5.79367E-19
 -1      2489 1.04096E-04-2.75952E-05-3.27817E-05 1.55486E-05-1.26174E-18 6.96911E-19
 -1      2490 9.48500E-05-2.29242E-05-3.08242E-05 2.96100E-06 5.80098E-19 7.13116E-19
 -1      2491 9.57029E-05-2.32657E-05-3.10313E-05 6.29595E-06-1.33805E-20 1.07135E-18
 -1      2492 1.00237E-04-2.32021E-05-3.31003E-05 9.56677E-06 1.60334E-19 1.50931E-18
 -1      2493 9.55984E-05-2.47856E-05-3.03992E-05-3.66548E-06 2.13911E-18 5.69696E-19
 -1      2494 9.51095E-05-2.35978E-05-3.05775E-05-1.00973E-06 1.24367E-18 1.12065E-18
 -1      2495 9.90789E-05-2.25173E-05-3.28742E-05 1.10406E-06 1.17790E-18 7.22870E-19
 -1      2496 9.79214E-05-2.83414E-05-2.98799E-05-6.91090E-06 2.08853E-18 2.33311E-18
 -1      2497 9.67802E-05-2.66009E-05-2.99987E-05-5.89674E-06 2.07929E-18 1.72149E-18
 -1      2498 1.00748E-04-2.58661E-05-3.21170E-05-5.49150E-06 1.28476E-18 1.66047E-18
 -1      2499 9.97231E-05-3.11020E-05-2.94381E-05-6.42265E-06 6.02503E-19 3.21376E-18
 -1      2500 9.87621E-05-2.99098E-05-2.94790E-05-6.88088E-06 1.56734E-18 3.73210E-18
 -1      2501 1.03038E-04-3.03040E-05-3.11258E-05-7.57097E-06 1.30439E-18 3.06230E-18
 -1      2502 9.98348E-05-3.17894E-05-2.91499E-05-3.97601E-06 1.19516E-18 2.46832E-18
 -1      2503 9.94880E-05-3.15552E-05-2.91432E-05-5.04065E-06 8.68358E-19 3.30091E-18
 -1      2504 1.03779E-04-3.30689E-05-3.02541E-05-5.81375E-06 8.40529E-19 2.28039E-18
 -1      2505 9.84287E-05-3.07952E-05-2.89549E-05-1.71885E-06-2.52918E-18 4.62758E-18
 -1      2506 9.86271E-05-3.11824E-05-2.89543E-05-2.54376E-06-6.90987E-19 3.26591E-18
 -1      2507 1.02294E-04-3.30133E-05-2.96435E-05-2.73545E-06-5.66225E-19 3.55799E-18
 -1      2508 9.69276E-05-2.98258E-05-2.87764E-05-1.00931E-06-2.25654E-18 4.62743E-18
 -1      2509 1.01499E-04-2.95038E-05-3.08594E-05 2.65014E-05 1.89497E-19-3.08631E-18
 -1      2510 1.04622E-04-3.26727E-05-3.07340E-05 2.29246E-05 4.75139E-19-3.58193E-18
 -1      2511 9.06836E-05-2.11260E-05-2.99766E-05 3.02414E-05-2.63614E-18 1.55801E-19
 -1      2512 9.68239E-05-2.59253E-05-3.01358E-05 3.00257E-05-1.48208E-18-2.01694E-18
 -1      2513 1.02260E-04-3.40238E-05-2.92913E-05 3.13823E-05-2.91075E-19-3.28379E-18
 -1      2514 1.04801E-04-3.35160E-05-3.04114E-05 8.47130E-06-1.99577E-19 1.00518E-18
 -1      2515 1.03551E-04-3.36277E-05-3.00193E-05 4.81454E-06-9.75961E-19 6.27671E-19
 -1      2516 1.05643E-04-3.32292E-05-3.09301E-05 1.74865E-05-1.64642E-19-1.22335E-18
 -1      2517 1.05949E-04-3.45341E-05-3.06055E-05 1.31970E-05 3.96256E-19 1.04137E-18
 -1      2518 1.08918E-04-3.74438E-05-3.06525E-05 1.08721E-05-1.07196E-18 1.31422E-18
 -1      2519 1.09292E-04-3.81510E-05-3.05260E-05 2.14534E-05 6.70347E-21-2.27602E-18
 -1      2520 7.65291E-05-1.02023E-05-2.86132E-05 2.27920E-05-3.34169E-18 2.19816E-18
 -1      2521 8.31102E-05-1.48424E-05-2.89092E-05 2.80008E-05-4.03591E-18 2.14167E-18
 -1      2522 8.70661E-05-2.37815E-05-2.70012E-05 3.37188E-05-3.29798E-18 2.84815E-19
 -1      2523 6.83797E-05-3.68313E-06-2.77290E-05 3.76958E-06-2.32113E-18 3.59629E-18
 -1      2524 7.07552E-05-5.30776E-06-2.78516E-05 1.31595E-05-3.50755E-18 3.94744E-18
 -1      2525 7.00555E-05-1.17055E-05-2.46316E-05 2.12803E-05-3.68176E-18 2.89945E-18
 -1      2526 7.31560E-05-7.07829E-06-2.80704E-05-1.73543E-05 3.29681E-19 6.40966E-19
 -1      2527 6.93352E-05-4.47414E-06-2.78541E-05-8.65106E-06-4.30483E-19 1.30443E-18
 -1      2528 6.42070E-05-7.30250E-06-2.38534E-05-2.95131E-06-1.74657E-18 3.98497E-18
 -1      2529 8.66160E-05-1.75381E-05-2.92821E-05-2.89003E-05 3.65480E-18 2.62252E-18
 -1      2530 7.98952E-05-1.27198E-05-2.89800E-05-2.51560E-05 2.47360E-18 2.31280E-18
 -1      2531 7.37977E-05-1.43423E-05-2.51482E-05-2.50831E-05 2.69584E-18 3.20258E-18
 -1      2532 9.92299E-05-2.77517E-05-3.04178E-05-2.81829E-05 5.09374E-18 5.98780E-20
 -1      2533 9.37701E-05-2.33174E-05-3.03142E-05-2.94625E-05 4.21993E-18 9.93702E-19
 -1      2534 9.11971E-05-2.66447E-05-2.76254E-05-3.34339E-05 4.33903E-18 2.76583E-18
 -1      2535 1.05101E-04-3.30050E-05-3.08167E-05-1.99918E-05 4.16161E-18-7.39271E-19
 -1      2536 1.02857E-04-3.04613E-05-3.10013E-05-2.38692E-05 4.68349E-18 4.21457E-19
 -1      2537 1.04661E-04-3.54687E-05-2.97166E-05-2.85335E-05 4.21558E-18 3.92765E-19
 -1      2538 1.05013E-04-3.37481E-05-3.05187E-05-1.05781E-05 9.55936E-19-1.97118E-18
 -1      2539 1.05282E-04-3.29726E-05-3.08868E-05-1.45994E-05 2.83917E-18-2.40478E-18
 -1      2540 1.09358E-04-3.79833E-05-3.06359E-05-1.80198E-05 2.92279E-18-2.49589E-18
 -1      2541 3.19830E-05-2.57751E-05-2.56499E-06 2.81927E-05-8.64397E-19 4.46005E-18
 -1      2542 2.59369E-05-1.93021E-05-2.47976E-06 1.22816E-05 6.57298E-19 6.59034E-18
 -1      2543 6.37198E-05-4.08666E-05-9.83102E-06 4.98982E-05-8.55927E-19-7.55553E-19
 -1      2544 4.43130E-05-3.27021E-05-4.71267E-06 3.88424E-05-1.25806E-18 3.09569E-18
 -1      2545 2.79814E-05-1.83315E-05-3.66347E-06-1.17614E-05 8.42163E-19 9.74173E-18
 -1      2546 3.54254E-05-2.51682E-05-4.11184E-06-2.96698E-05-6.46286E-19 1.11486E-17
 -1      2547 9.36277E-05-2.74731E-05-2.83404E-05 3.69172E-07 3.88722E-19 1.12722E-18
 -1      2548 9.39099E-05-2.73372E-05-2.84874E-05 9.03053E-07 4.49632E-19 1.25316E-18
 -1      2549 9.42706E-05-2.74892E-05-2.86340E-05 4.03011E-07 4.33134E-19 9.54673E-19
 -1      2550 1.00073E-04-3.05957E-05-2.98286E-05-4.56677E-06 2.73003E-19-1.67177E-18
 -1      2551 1.04150E-04-5.79160E-05-1.98435E-05 5.15308E-05 1.40396E-18-3.57918E-18
 -1      2552 8.83200E-05-5.21075E-05-1.51185E-05 5.13208E-05 2.74015E-19-3.19485E-18
 -1      2553 9.50742E-05-2.00250E-05-3.22131E-05-1.17470E-05-8.13046E-19-1.77811E-19
 -1      2554 9.54842E-05-2.33677E-05-3.09287E-05-7.96186E-06-7.26099E-19-1.00337E-19
 -1      2555 9.50734E-05-2.25751E-05-3.10513E-05-7.64146E-06-6.26669E-19-3.16312E-19
 -1      2556 9.32145E-05-1.76199E-05-3.24164E-05-1.14078E-05-7.86344E-19-4.09977E-19
 -1      2557 1.55813E-04-5.25556E-05-4.47337E-05 1.13505E-05-1.16361E-18 6.61321E-19
 -1      2558 1.47929E-04-6.00155E-05-3.77287E-05 2.03398E-05 5.35960E-19-1.50602E-18
 -1      2559 1.90614E-05-2.24730E-05 1.82549E-06-4.58540E-06-7.74545E-19-3.72356E-18
 -1      2560 2.42172E-05-2.43814E-05 3.79458E-07-1.92926E-05-4.94455E-20-3.95014E-18
 -1      2561 1.50604E-04-2.68729E-05-5.33959E-05 1.37532E-05 2.35772E-18 1.39464E-18
 -1      2562 1.49364E-04-1.70345E-05-5.74246E-05 1.31425E-05 3.18019E-18 1.07256E-18
 -1      2563 8.78371E-05-1.07973E-05-3.30527E-05-1.51807E-06 2.65552E-19-7.96899E-19
 -1      2564 8.79427E-05-1.09195E-05-3.30441E-05-2.63667E-06 1.46209E-19-8.11841E-19
 -1      2565 8.93416E-05-1.30919E-05-3.26806E-05-2.93007E-06 1.54408E-19-6.96867E-19
 -1      2566 8.90927E-05-1.27569E-05-3.27186E-05-9.40844E-07 2.71066E-19-6.87827E-19
 -1      2567 1.49235E-04-9.74575E-06-6.02765E-05 6.96643E-06 3.27802E-18 4.05729E-19
 -1      2568 1.55156E-04-1.13589E-05-6.17879E-05 4.04689E-06 2.49197E-18 3.39554E-19
 -1      2569 2.96171E-05-2.77304E-05-5.60923E-07 2.48634E-05-7.74612E-19-4.49097E-18
 -1      2570 2.05874E-05-2.36168E-05 1.61409E-06 9.94492E-06-1.90212E-19-4.16528E-18
 -1      2571 1.55593E-04-1.50547E-05-6.06955E-05 1.04954E-06 2.46825E-18-5.36595E-19
 -1      2572 1.56152E-04-2.10301E-05-5.83592E-05 4.04823E-08 1.84886E-18-8.40680E-20
 -1      2573 1.45843E-04-2.44036E-05-5.22561E-05-6.27814E-06 1.41243E-18 3.04297E-19
 -1      2574 1.42715E-04-1.11698E-05-5.65310E-05 1.34251E-07 2.03796E-18-3.04402E-20
 -1      2575 1.51658E-04-4.83100E-05-4.45620E-05 4.82862E-06 1.40729E-18 1.11321E-18
 -1      2576 1.52516E-04-4.07223E-05-4.86563E-05 9.75793E-06 1.31004E-18 3.19755E-20
 -1      2577 1.39762E-04-6.19666E-05-3.35322E-05-1.44421E-05 8.39833E-19 6.31675E-19
 -1      2578 1.49624E-04-5.66610E-05-4.01878E-05-5.48625E-06 1.49385E-18 9.40207E-19
 -1      2579 1.47108E-04-5.46862E-05-3.96657E-05 4.63175E-06 1.03914E-18 1.40787E-18
 -1      2580 1.17680E-04-6.27336E-05-2.35540E-05-3.13702E-05 4.04458E-19 4.55280E-19
 -1      2581 1.32096E-04-6.39114E-05-2.92099E-05-2.49894E-05 7.84353E-19-2.37381E-19
 -1      2582 1.38779E-04-6.46553E-05-3.16784E-05-1.31003E-05 7.75565E-20 1.25255E-18
 -1      2583 3.73121E-05-3.01856E-05-2.52652E-06-3.02364E-05-9.64559E-19-1.98777E-18
 -1      2584 4.98369E-05-3.60673E-05-5.45903E-06-3.89720E-05-1.01326E-18-1.28495E-18
 -1      2585 1.34961E-04-6.43251E-05-3.04033E-05 2.24753E-05-2.06422E-18-6.83979E-19
 -1      2586 1.20356E-04-6.40250E-05-2.39939E-05 2.85461E-05-3.65071E-19-1.43106E-18
 -1      2587 5.92234E-05-4.30534E-05-6.81051E-06 4.07148E-05-3.49613E-19-1.44419E-18
 -1      2588 4.50292E-05-3.63294E-05-3.38701E-06 3.43698E-05-3.56177E-19-1.76141E-18
 -1      2589 1.00457E-04-5.91626E-05-1.77913E-05 3.92149E-05 6.56239E-19-1.59799E-18
 -1      2590 7.86803E-05-5.21444E-05-1.11768E-05 4.02488E-05 4.31140E-19-1.71598E-18
 -1      2591 7.75270E-05-4.79281E-05-1.22026E-05 3.94981E-05 9.46983E-19-5.25160E-19
 -1      2592 1.53283E-04-5.48228E-05-4.25133E-05 4.48485E-06-1.87986E-18-9.30042E-19
 -1      2593 1.43285E-04-6.04892E-05-3.56771E-05 1.17809E-05-2.82898E-18-6.62803E-19
 -1      2594 1.41355E-04-6.46493E-05-3.27757E-05 1.05016E-05-1.29151E-18-1.24302E-19
 -1      2595 1.58554E-04-3.54824E-05-5.32112E-05-1.05476E-05-3.08532E-18 7.76517E-19
 -1      2596 1.55482E-04-4.41800E-05-4.79476E-05-6.46654E-06-2.03701E-18-1.82112E-20
 -1      2597 1.53670E-04-1.80526E-05-5.87717E-05-1.35619E-05-4.58245E-18 5.28337E-19
 -1      2598 1.56648E-04-2.59715E-05-5.63299E-05-1.34046E-05-3.76083E-18 5.27278E-19
 -1      2599 1.48412E-04-3.07358E-05-5.05409E-05-1.80724E-05-2.80876E-18 9.32795E-19
 -1      2600 1.51435E-04-1.13407E-05-6.04764E-05-4.10330E-06-4.19832E-18 6.38769E-19
 -1      2601 1.51224E-04-1.13823E-05-6.03799E-05-8.92083E-06-5.01952E-18 6.53062E-19
 -1      2602 1.58433E-04-2.56151E-05-5.72025E-05 1.78925E-07-4.25825E-18-1.56913E-19
 -1      2603 1.54010E-04-1.77458E-05-5.90607E-05 5.35675E-07-3.97174E-18 3.35213E-19
 -1      2604 1.57412E-04-4.37637E-05-4.90554E-05-5.33513E-06-4.99506E-18-8.70326E-19
 -1      2605 1.60565E-04-3.46980E-05-5.42860E-05-2.68531E-06-4.40288E-18-3.22508E-19
 -1      2606 1.49583E-04-3.06216E-05-5.10608E-05 5.65538E-06-3.81948E-18-8.82185E-19
 -1      2607 1.49090E-04-6.05104E-05-3.79009E-05-2.08816E-05-3.70212E-18-1.36245E-18
 -1      2608 1.56822E-04-5.41628E-05-4.43362E-05-1.42152E-05-4.84071E-18-7.03884E-19
 -1      2609 1.19645E-04-6.29065E-05-2.42430E-05-4.37445E-05-1.23879E-18 1.37770E-18
 -1      2610 1.36352E-04-6.44868E-05-3.12136E-05-3.65865E-05-2.16163E-18-1.22057E-18
 -1      2611 8.36071E-05-5.19851E-05-1.34433E-05-5.06420E-05-8.90655E-19 5.45018E-18
 -1      2612 1.02809E-04-5.76518E-05-1.93973E-05-5.11833E-05-1.37685E-18 2.54761E-18
 -1      2613 1.16936E-04-6.19056E-05-2.32184E-05-4.53917E-05 4.10811E-20 8.89702E-19
 -1      2614 4.68581E-05-3.46947E-05-5.05386E-06-4.10535E-05 1.70889E-19 9.80949E-18
 -1      2615 6.32910E-05-4.27173E-05-8.80200E-06-4.96669E-05-6.39933E-19 9.27289E-18
 -1      2616 9.63389E-05-2.50967E-05-3.05582E-05 7.59191E-06 1.01996E-18 1.63800E-18
 -1      2617 9.74602E-05-2.37801E-05-3.15986E-05 1.06915E-05 1.06491E-18 1.82178E-18
 -1      2618 9.58938E-05-2.13044E-05-3.20228E-05 1.18933E-05 1.18073E-18 1.47569E-18
 -1      2619 9.58824E-05-2.41625E-05-3.07703E-05 7.68292E-06 1.07177E-18 1.15251E-18
 -1      2620 1.37805E-04-6.39087E-05-3.19657E-05 3.57227E-05 1.95538E-18-3.47834E-18
 -1      2621 1.20655E-04-6.25773E-05-2.48220E-05 4.30934E-05 1.82705E-18-3.93595E-18
 -1      2622 1.19931E-04-6.17953E-05-2.45891E-05 4.36985E-05 6.88214E-19-4.01997E-18
 -1      2623 1.44956E-04-3.31451E-05-4.81078E-05 1.71744E-05 1.83880E-18 1.75886E-18
 -1      2624 9.07988E-05-1.50384E-05-3.24571E-05-6.81079E-06-2.38310E-19-8.75078E-19
 -1      2625 8.96980E-05-1.31862E-05-3.28438E-05-7.95548E-06-2.75159E-19-9.03771E-19
 -1      2626 9.03309E-05-1.39093E-05-3.28168E-05-9.16957E-06-5.04949E-19-8.00717E-19
 -1      2627 9.47364E-05-2.69395E-05-2.90682E-05 1.88362E-06 6.41272E-19 1.00425E-18
 -1      2628 9.42485E-05-1.90823E-05-3.22593E-05 1.16023E-05 1.25724E-18 9.67444E-19
 -1      2629 1.44579E-04-6.35487E-05-3.45465E-05 2.29854E-05 8.22575E-19-2.16173E-18
 -1      2630 1.50509E-04-4.72293E-05-4.44618E-05 4.71967E-07-7.82711E-19 1.54139E-18
 -1      2631 8.17461E-05-4.53577E-05-1.51330E-05 5.01367E-05-9.87640E-19-2.19667E-18
 -1      2632 9.93625E-05-3.12728E-05-2.92014E-05-4.98645E-07-2.77145E-18 3.53517E-18
 -1      2633 1.00854E-04-3.18057E-05-2.95299E-05 1.21609E-06-2.09520E-18 2.04630E-18
 -1      2634 3.76570E-05-1.36086E-05-9.86003E-06 1.00354E-05-2.09455E-18 5.71345E-18
 -1      2635 3.19760E-05-1.59265E-05-6.14383E-06-8.74895E-07-5.18252E-19 8.78373E-18
 -1      2636 3.97468E-05-1.32975E-05-1.10291E-05-1.26218E-05-1.69465E-18 9.53632E-18
 -1      2637 4.70782E-05-2.60254E-05-8.46008E-06 3.50521E-05-2.05596E-18 2.61521E-18
 -1      2638 8.18886E-05-4.69428E-05-1.46233E-05-5.05326E-05 8.85149E-19 5.80832E-18
 -1      2639 5.03122E-05-2.71592E-05-9.38990E-06-3.55434E-05 9.91452E-19 1.04354E-17
 -1      2640 9.47179E-05-2.06035E-05-3.17189E-05 9.66915E-06 1.17695E-18 8.71617E-19
 -1      2641 9.20560E-05-1.62359E-05-3.25344E-05-1.03936E-05-6.86301E-19-5.95709E-19
 -1      2642 1.53715E-04-5.04850E-05-4.42905E-05-2.76516E-06-4.26296E-18-1.78089E-18
 -1      2643 2.70775E-05-1.93404E-05-2.66586E-06 3.04997E-06-5.46019E-19-3.67379E-18
 -1      2644 3.77713E-05-2.43216E-05-5.15726E-06-2.43894E-05-1.40078E-18-1.94796E-18
 -1      2645 1.42228E-04-1.38768E-05-5.53633E-05-1.31136E-05-4.55365E-18 2.13664E-19
 -1      2646 1.15189E-04-6.31209E-05-2.20554E-05 3.06838E-05 8.59738E-20-1.65494E-18
 -1      2647 1.51207E-04-5.12427E-05-4.28739E-05-7.86129E-06-2.59248E-18-1.26631E-19
 -1      2648 1.33960E-04-1.63787E-05-5.08866E-05 1.54383E-05 2.37910E-18 4.63478E-18
 -1      2649 1.42353E-04-1.25678E-05-5.60508E-05 1.16289E-05 2.95826E-18 1.70651E-18
 -1      2650 1.32595E-04-8.66231E-06-5.36015E-05 9.46097E-06 2.45047E-18 2.19487E-18
 -1      2651 6.75493E-05-4.24289E-05-1.04655E-05-3.95366E-05-1.99265E-18-2.02769E-18
 -1      2652 4.34803E-05-2.95059E-05-5.40574E-06 2.91472E-05-9.96323E-20-2.97393E-18
 -1      2653 1.10895E-04-6.19284E-05-2.07672E-05-3.51776E-05-1.44843E-19 3.66712E-19
 -1      2654 1.22325E-04-6.43580E-05-2.50458E-05-2.66818E-05-1.15662E-18 1.43895E-18
 -1      2655 1.00653E-04-5.66224E-05-1.83594E-05-3.77880E-05-2.07184E-18-1.16282E-18
 -1      2656 1.02832E-04-3.30613E-05-2.98646E-05-2.95438E-06-6.64688E-19-2.12145E-18
 -1      2657 1.04124E-04-3.31870E-05-3.03220E-05-6.67248E-06-2.95519E-20-1.89179E-18
 -1      2658 1.08133E-04-3.69716E-05-3.05709E-05-8.48847E-06 5.05617E-19-2.65465E-18
 -1      2659 1.04391E-04-3.46059E-05-3.00181E-05-2.00930E-06-1.17642E-18-1.18811E-18
 -1      2660 1.42610E-04-1.40114E-05-5.54168E-05 2.32012E-07-3.69306E-18-7.90282E-19
 -1      2661 1.43777E-04-6.46685E-05-3.38510E-05-2.52415E-05-2.03627E-18-1.46283E-18
 -1      2662 1.04171E-04-3.43275E-05-2.99562E-05 2.15767E-06-1.73765E-18 2.69576E-18
 -1      2663 1.09159E-04-3.75934E-05-3.06274E-05-3.09260E-06-6.87483E-19-1.95170E-18
 -1      2664 9.05549E-05-1.51728E-05-3.23290E-05 3.19536E-06 6.07143E-19-6.36094E-19
 -1      2665 9.03651E-05-1.49015E-05-3.23617E-05 2.26139E-06 5.62982E-19-6.36535E-19
 -1      2666 9.02304E-05-1.46984E-05-3.23907E-05 1.42205E-06 5.24469E-19-5.99072E-19
 -1      2667 9.01647E-05-1.46060E-05-3.24017E-05 4.64987E-07 4.68298E-19-5.30269E-19
 -1      2668 9.14171E-05-1.65942E-05-3.20539E-05 1.64098E-06 5.28603E-19-5.70305E-19
 -1      2669 9.21417E-05-1.75525E-05-3.20048E-05 6.47362E-06 1.03105E-18 1.71210E-20
 -1      2670 9.16153E-05-1.67570E-05-3.21046E-05 5.63385E-06 9.80184E-19-9.12992E-20
 -1      2671 9.35610E-05-1.97751E-05-3.16647E-05 7.59646E-06 1.09564E-18 3.05374E-19
 -1      2672 9.27709E-05-1.85212E-05-3.18383E-05 7.01926E-06 1.03404E-18 1.31690E-19
 -1      2673 9.34362E-05-1.98675E-05-3.15065E-05 5.73507E-06 9.22149E-19 7.26811E-20
 -1      2674 9.52207E-05-2.54101E-05-2.99310E-05 3.97690E-06 8.42242E-19 7.53021E-19
 -1      2675 9.55571E-05-2.45601E-05-3.03948E-05 5.60937E-06 9.29129E-19 8.32693E-19
 -1      2676 9.28799E-05-1.80086E-05-3.20747E-05-8.83238E-06-5.86264E-19-5.51551E-19
 -1      2677 9.49844E-05-2.66915E-05-2.92733E-05 1.78203E-06 5.46420E-19 7.89563E-19
 -1      2678 9.52498E-05-2.61960E-05-2.95582E-05 2.78715E-06 6.81438E-19 7.66307E-19
 -1      2679 9.52723E-05-2.50194E-05-3.01046E-05 3.81899E-06 7.31806E-19 6.29690E-19
 -1      2680 9.47204E-05-4.70421E-05-2.04164E-05 4.92382E-05-2.28699E-19-3.26743E-18
 -1      2681 7.48299E-05-3.53075E-05-1.61991E-05 4.58266E-05-1.82546E-18-3.53530E-19
 -1      2682 9.54109E-05-2.59408E-05-2.97321E-05-2.68543E-06-4.05429E-19-9.75424E-20
 -1      2683 9.52027E-05-2.65065E-05-2.94556E-05-1.71997E-06-3.89810E-19-1.12508E-19
 -1      2684 9.52162E-05-2.70061E-05-2.92092E-05-9.78809E-07-4.55272E-19-2.59861E-20
 -1      2685 9.50825E-05-2.73618E-05-2.90295E-05-3.75709E-07-3.12314E-19-1.11673E-19
 -1      2686 9.54196E-05-2.63332E-05-2.96133E-05-1.62491E-06-4.20675E-19-1.56534E-19
 -1      2687 9.50499E-05-2.76680E-05-2.88619E-05 9.01969E-08-1.92614E-19-2.09224E-19
 -1      2688 9.49721E-05-2.78928E-05-2.87512E-05 4.40216E-07-2.54481E-19-1.38574E-19
 -1      2689 9.54162E-05-2.73273E-05-2.91882E-05-3.41751E-07-3.41564E-19-2.89678E-19
 -1      2690 9.49299E-05-2.80784E-05-2.86404E-05 7.08231E-07-3.22727E-19-2.07001E-19
 -1      2691 9.49013E-05-2.82255E-05-2.85764E-05 8.90116E-07-4.16089E-19-3.92274E-19
 -1      2692 9.53555E-05-2.79432E-05-2.88977E-05 4.45180E-07-4.02492E-19-6.31462E-19
 -1      2693 9.48661E-05-2.83378E-05-2.85060E-05 1.02263E-06-5.79571E-19-5.47852E-19
 -1      2694 9.48725E-05-2.84351E-05-2.84732E-05 1.09586E-06-6.05471E-19-8.11752E-19
 -1      2695 9.52909E-05-2.83249E-05-2.87051E-05 8.83835E-07-6.74926E-19-7.22035E-19
 -1      2696 9.48479E-05-2.85009E-05-2.84311E-05 1.13927E-06-5.80429E-19-7.21059E-19
 -1      2697 9.48761E-05-2.85647E-05-2.84186E-05 1.14461E-06-8.46374E-19-7.20282E-19
 -1      2698 9.52411E-05-2.85578E-05-2.85826E-05 1.08575E-06-6.01466E-19-4.56964E-19
 -1      2699 9.48610E-05-2.86001E-05-2.83961E-05 1.13243E-06-6.61615E-19-2.30229E-19
 -1      2700 9.49007E-05-2.86404E-05-2.83964E-05 1.09788E-06-5.68991E-19-2.93904E-20
 -1      2701 9.52088E-05-2.86932E-05-2.85096E-05 1.13392E-06-4.64888E-19 3.31658E-19
 -1      2702 9.48929E-05-2.86558E-05-2.83872E-05 1.05387E-06-5.66222E-19 1.43360E-19
 -1      2703 9.49372E-05-2.86795E-05-2.83952E-05 9.98576E-07-2.28007E-19 2.11932E-19
 -1      2704 9.51911E-05-2.87639E-05-2.84708E-05 1.08823E-06-2.75615E-19 7.92181E-19
 -1      2705 9.49345E-05-2.86817E-05-2.83947E-05 9.39292E-07-2.54445E-19 2.84517E-19
 -1      2706 9.49789E-05-2.86934E-05-2.84071E-05 8.76304E-07-1.93195E-19 1.64426E-19
 -1      2707 9.51841E-05-2.87914E-05-2.84554E-05 9.91014E-07-2.89053E-19 8.02679E-19
 -1      2708 9.49797E-05-2.86869E-05-2.84122E-05 8.13142E-07-4.33447E-20 1.61123E-19
 -1      2709 9.50218E-05-2.86900E-05-2.84269E-05 7.51300E-07 1.64697E-19 7.47875E-20
 -1      2710 9.51844E-05-2.87901E-05-2.84556E-05 8.71774E-07-1.99019E-19 4.15649E-19
 -1      2711 9.50248E-05-2.86777E-05-2.84357E-05 6.92059E-07 6.02626E-20-1.34932E-19
 -1      2712 9.50637E-05-2.86744E-05-2.84514E-05 6.37385E-07 1.46359E-19 2.84333E-20
 -1      2713 9.51893E-05-2.87695E-05-2.84663E-05 7.50853E-07 5.31296E-20 2.32278E-19
 -1      2714 9.50681E-05-2.86581E-05-2.84627E-05 5.87474E-07 1.18221E-19 1.46600E-19
 -1      2715 9.51039E-05-2.86501E-05-2.84790E-05 5.44210E-07-2.82524E-19 3.73366E-19
 -1      2716 9.51973E-05-2.87359E-05-2.84839E-05 6.42317E-07 1.16033E-19 1.30699E-19
 -1      2717 9.51094E-05-2.86307E-05-2.84922E-05 5.07579E-07-5.85773E-19 6.45569E-19
 -1      2718 9.51430E-05-2.86189E-05-2.85090E-05 4.78967E-07-3.40730E-19 8.64809E-19
 -1      2719 9.52073E-05-2.86928E-05-2.85066E-05 5.56168E-07-3.45665E-19 3.34537E-19
 -1      2720 9.51494E-05-2.85966E-05-2.85239E-05 4.58815E-07-5.77106E-19 4.86574E-19
 -1      2721 9.51823E-05-2.85814E-05-2.85417E-05 4.47695E-07-3.94361E-19 3.70294E-19
 -1      2722 9.52188E-05-2.86417E-05-2.85334E-05 5.00044E-07-7.38911E-19 1.35865E-18
 -1      2723 9.51897E-05-2.85560E-05-2.85585E-05 4.47018E-07-7.90164E-20-4.38942E-19
 -1      2724 9.52240E-05-2.85375E-05-2.85781E-05 4.56286E-07-1.99485E-19-7.22282E-19
 -1      2725 9.52317E-05-2.85830E-05-2.85641E-05 4.80518E-07-7.64754E-19 2.89156E-19
 -1      2726 9.52324E-05-2.85083E-05-2.85973E-05 4.78296E-07-1.24499E-19-6.66409E-19
 -1      2727 9.52707E-05-2.84863E-05-2.86196E-05 5.11255E-07-2.23276E-19-4.73089E-19
 -1      2728 9.52463E-05-2.85153E-05-2.85995E-05 5.04105E-07-2.06527E-19-6.81188E-19
 -1      2729 9.52804E-05-2.84522E-05-2.86420E-05 5.59691E-07-2.88948E-19-7.87792E-20
 -1      2730 9.53257E-05-2.84267E-05-2.86682E-05 6.20296E-07-4.69854E-20-2.34702E-19
 -1      2731 9.52630E-05-2.84367E-05-2.86404E-05 5.78011E-07-7.31375E-20-4.48345E-19
 -1      2732 9.53369E-05-2.83864E-05-2.86946E-05 6.99625E-07 2.84249E-19-4.43228E-19
 -1      2733 9.53926E-05-2.83569E-05-2.87261E-05 7.92622E-07 7.04393E-19-4.01368E-19
 -1      2734 9.52823E-05-2.83445E-05-2.86883E-05 7.10653E-07 9.85358E-20-4.15460E-19
 -1      2735 9.54055E-05-2.83093E-05-2.87573E-05 9.08131E-07 6.23405E-19-4.37741E-19
 -1      2736 9.54757E-05-2.82757E-05-2.87957E-05 1.03908E-06 3.88756E-19-4.27428E-19
 -1      2737 9.53046E-05-2.82357E-05-2.87446E-05 9.11950E-07 5.52609E-19-1.09722E-18
 -1      2738 9.54905E-05-2.82193E-05-2.88326E-05 1.19684E-06 1.87411E-19-4.60189E-19
 -1      2739 9.55796E-05-2.81821E-05-2.88794E-05 1.37199E-06-9.04360E-20-4.37146E-19
 -1      2740 9.53305E-05-2.81073E-05-2.88107E-05 1.19336E-06 2.21597E-19-1.11566E-18
 -1      2741 9.55965E-05-2.81162E-05-2.89227E-05 1.57863E-06-3.99091E-19-5.28085E-19
 -1      2742 9.57096E-05-2.80763E-05-2.89794E-05 1.80451E-06-4.01749E-19-9.60200E-19
 -1      2743 9.53605E-05-2.79572E-05-2.88880E-05 1.56758E-06-5.03930E-19 1.42993E-19
 -1      2744 9.57289E-05-2.80011E-05-2.90293E-05 2.06679E-06 1.51163E-19-6.54940E-19
 -1      2745 9.58717E-05-2.79613E-05-2.90970E-05 2.34955E-06 4.03435E-20-5.63256E-19
 -1      2746 9.53951E-05-2.77845E-05-2.89767E-05 2.04790E-06 1.54901E-19-2.11611E-19
 -1      2747 9.58941E-05-2.78788E-05-2.91531E-05 2.67355E-06-1.12509E-19 2.29831E-20
 -1      2748 9.60731E-05-2.78442E-05-2.92324E-05 3.01765E-06 1.79108E-19 1.60827E-19
 -1      2749 9.54355E-05-2.75923E-05-2.90762E-05 2.64689E-06 2.16590E-19 1.47634E-19
 -1      2750 9.61009E-05-2.77600E-05-2.92932E-05 3.40755E-06 9.22142E-20-1.44212E-19
 -1      2751 9.63242E-05-2.77403E-05-2.93835E-05 3.81381E-06-3.23069E-19-4.39453E-19
 -1      2752 9.54847E-05-2.73896E-05-2.91840E-05 3.37440E-06 2.66840E-19 2.43710E-19
 -1      2753 9.63629E-05-2.76662E-05-2.94459E-05 4.27000E-06 1.59762E-19-2.39526E-19
 -1      2754 9.66413E-05-2.76787E-05-2.95450E-05 4.73245E-06 8.03440E-19 5.87283E-19
 -1      2755 9.55504E-05-2.71966E-05-2.92947E-05 4.23459E-06-1.65287E-20 5.59854E-20
 -1      2756 9.67032E-05-2.76368E-05-2.96041E-05 5.24878E-06 1.51424E-19 2.04681E-20
 -1      2757 9.70532E-05-2.77106E-05-2.97076E-05 5.74997E-06 3.84684E-19 3.05565E-19
 -1      2758 9.56499E-05-2.70522E-05-2.93994E-05 5.22158E-06 2.58283E-19 7.25775E-19
 -1      2759 9.71639E-05-2.77405E-05-2.97559E-05 6.30974E-06 1.19327E-18 9.05334E-20
 -1      2760 9.76122E-05-2.79236E-05-2.98563E-05 6.81401E-06 1.09062E-18 7.18060E-19
 -1      2761 9.58197E-05-2.70255E-05-2.94845E-05 6.31352E-06 6.61255E-19 3.47457E-19
 -1      2762 9.78213E-05-2.80902E-05-2.98843E-05 7.38399E-06 8.59221E-20 5.77821E-19
 -1      2763 9.84121E-05-2.84574E-05-2.99719E-05 7.82815E-06 7.60102E-20-5.72357E-20
 -1      2764 9.61321E-05-2.72329E-05-2.95322E-05 7.46414E-06 9.16873E-19 8.92274E-20
 -1      2765 9.88085E-05-2.88622E-05-2.99696E-05 8.34929E-06-2.25183E-19 4.64347E-19
 -1      2766 9.96126E-05-2.95211E-05-3.00338E-05 8.63041E-06-2.67875E-19 2.33693E-19
 -1      2767 9.67205E-05-2.78589E-05-2.95221E-05 8.59026E-06 4.46706E-19-1.02819E-19
 -1      2768 1.00344E-04-3.03075E-05-2.99958E-05 9.00200E-06-1.57248E-19 3.64148E-19
 -1      2769 1.01463E-04-3.13938E-05-3.00305E-05 8.96276E-06-8.01790E-19 6.88581E-19
 -1      2770 9.78140E-05-2.91752E-05-2.94383E-05 9.55089E-06-6.56570E-19 1.22898E-18
 -1      2771 1.02749E-04-3.27344E-05-2.99660E-05 9.01432E-06-7.55289E-19 1.05324E-18
 -1      2772 1.04298E-04-3.43722E-05-2.99815E-05 8.42990E-06 6.81233E-20 1.23925E-18
 -1      2773 9.97728E-05-3.15390E-05-2.92846E-05 1.01081E-05-2.32638E-19 1.37707E-18
 -1      2774 1.06415E-04-3.64051E-05-2.99352E-05 7.86911E-06 1.61937E-19 1.72765E-18
 -1      2775 1.08442E-04-3.85785E-05-2.99763E-05 6.44742E-06 7.91152E-19 1.87716E-18
 -1      2776 1.03097E-04-3.53243E-05-2.91165E-05 9.85155E-06 2.01686E-19 1.91890E-18
 -1      2777 1.11592E-04-4.12232E-05-3.00569E-05 4.83110E-06 1.35207E-18 1.97525E-18
 -1      2778 1.13922E-04-4.35536E-05-3.02249E-05 2.28792E-06 1.17770E-18 1.95876E-18
 -1      2779 1.08301E-04-4.06491E-05-2.90970E-05 8.07242E-06 7.22363E-19 1.44287E-18
 -1      2780 1.17943E-04-4.61918E-05-3.06449E-05-9.51790E-07 6.17687E-19 1.98692E-18
 -1      2781 1.19910E-04-4.75247E-05-3.11138E-05-4.66774E-06-3.85155E-19 2.00871E-18
 -1      2782 1.15501E-04-4.67951E-05-2.95674E-05 3.74225E-06 7.22177E-19 1.16596E-18
 -1      2783 1.23717E-04-4.85363E-05-3.21975E-05-9.66171E-06-4.90571E-19 2.13075E-18
 -1      2784 1.24111E-04-4.70145E-05-3.31535E-05-1.37671E-05-1.26631E-19 2.22118E-18
 -1      2785 1.23638E-04-5.11144E-05-3.11451E-05-4.23295E-06 1.12973E-19 2.21624E-18
 -1      2786 1.25529E-04-4.40194E-05-3.51091E-05-1.89342E-05-5.02542E-19 3.34872E-18
 -1      2787 1.23428E-04-3.86279E-05-3.64623E-05-2.09567E-05 9.43383E-20 2.76682E-18
 -1      2788 1.29263E-04-4.91695E-05-3.44156E-05-1.46231E-05-2.73009E-19 3.02945E-18
 -1      2789 1.14235E-04-1.84886E-05-4.13681E-05-1.47845E-05-2.37423E-18-5.26219E-19
 -1      2790 1.12737E-04-1.56569E-05-4.19213E-05-8.47349E-06-2.96154E-18-1.00662E-18
 -1      2791 1.13503E-04-1.65208E-05-4.18475E-05-9.09932E-08-3.25335E-18-2.12049E-19
 -1      2792 1.15252E-04-2.08757E-05-4.09376E-05 5.32108E-06-2.37810E-18-4.95130E-19
 -1      2793 1.18157E-04-2.74404E-05-3.89497E-05 9.01004E-06-1.83626E-18-1.62190E-18
 -1      2794 1.20562E-04-3.42187E-05-3.73991E-05 9.94553E-06-9.69323E-19-1.65032E-18
 -1      2795 1.23481E-04-2.44615E-05-4.26482E-05 8.24972E-06-2.76620E-18-1.67368E-18
 -1      2796 1.21467E-04-3.95975E-05-3.51384E-05 7.47509E-06-7.98249E-19-2.64502E-18
 -1      2797 1.21799E-04-4.32073E-05-3.38097E-05 4.80482E-06-4.85065E-19-2.85191E-18
 -1      2798 1.27504E-04-3.94851E-05-3.78737E-05 8.51322E-06-1.34959E-18-3.42244E-18
 -1      2799 1.18983E-04-4.37938E-05-3.23113E-05 1.62073E-07-3.46463E-19-4.26374E-18
 -1      2800 1.16937E-04-4.32687E-05-3.15526E-05-2.99770E-06-6.90067E-19-4.76228E-18
 -1      2801 1.25363E-04-4.68007E-05-3.37054E-05-1.64875E-08-1.14717E-18-4.71678E-18
 -1      2802 9.44783E-05-2.81309E-05-2.84344E-05-8.90562E-07 1.46955E-19 6.87452E-19
 -1      2803 9.44948E-05-2.80034E-05-2.84852E-05-7.15715E-07 1.60891E-19 8.34448E-19
 -1      2804 1.31244E-04-1.77409E-05-4.92240E-05 5.83949E-06-2.96440E-18-1.60290E-18
 -1      2805 1.27589E-04-1.16948E-05-5.04744E-05-1.38633E-06-3.51625E-18-1.33311E-18
 -1      2806 9.45564E-05-2.78529E-05-2.85881E-05-4.41148E-07 1.99531E-19 7.77376E-19
 -1      2807 9.46413E-05-2.76643E-05-2.86869E-05-9.93694E-08 3.10983E-19 8.86840E-19
 -1      2808 9.50102E-05-2.79135E-05-2.87638E-05-4.49259E-07 2.64040E-19 6.88579E-19
 -1      2809 9.45175E-05-2.84359E-05-2.83199E-05-1.13968E-06 1.27646E-19 4.08388E-19
 -1      2810 9.44611E-05-2.83720E-05-2.83208E-05-1.13735E-06 4.36926E-19 4.51021E-19
 -1      2811 9.45888E-05-2.85154E-05-2.83163E-05-1.09115E-06-1.22363E-20 3.95378E-19
 -1      2812 9.45201E-05-2.84704E-05-2.83060E-05-1.12717E-06-1.77190E-20 4.48071E-19
 -1      2813 9.48948E-05-2.85760E-05-2.84254E-05-1.15739E-06 1.29712E-19 2.64365E-19
 -1      2814 9.46726E-05-2.85650E-05-2.83310E-05-9.90652E-07 3.76821E-19 6.81751E-19
 -1      2815 9.46010E-05-2.85342E-05-2.83146E-05-1.04648E-06 1.77284E-19 4.38588E-19
 -1      2816 9.49155E-05-2.86491E-05-2.84018E-05-1.10931E-06 8.68233E-20 3.31566E-19
 -1      2817 9.47589E-05-2.85932E-05-2.83559E-05-8.67323E-07 3.46645E-19 5.34595E-19
 -1      2818 9.46899E-05-2.85731E-05-2.83367E-05-9.30463E-07 3.83921E-19 7.99905E-19
 -1      2819 9.49487E-05-2.86859E-05-2.83995E-05-1.00858E-06 3.55033E-19 3.69628E-19
 -1      2820 9.48418E-05-2.86058E-05-2.83860E-05-7.40887E-07 4.52571E-19 2.07951E-19
 -1      2821 9.47784E-05-2.85940E-05-2.83661E-05-8.02954E-07 4.42218E-19 5.46669E-19
 -1      2822 9.49877E-05-2.86979E-05-2.84106E-05-8.85079E-07 4.41015E-19 1.45913E-19
 -1      2823 9.49187E-05-2.86070E-05-2.84184E-05-6.24662E-07 4.11903E-19-1.12578E-20
 -1      2824 9.48618E-05-2.86015E-05-2.83988E-05-6.80022E-07 4.24305E-19 2.43655E-19
 -1      2825 9.50283E-05-2.86928E-05-2.84299E-05-7.59230E-07 4.78973E-19 7.54521E-19
 -1      2826 9.49892E-05-2.85997E-05-2.84517E-05-5.27796E-07 6.89032E-19 2.35055E-19
 -1      2827 9.49384E-05-2.85990E-05-2.84326E-05-5.72558E-07 5.27629E-19 1.20757E-19
 -1      2828 9.50682E-05-2.86758E-05-2.84541E-05-6.44972E-07 4.84424E-19 3.81595E-19
 -1      2829 9.50546E-05-2.85858E-05-2.84855E-05-4.56942E-07 9.77313E-19 2.85565E-19
 -1      2830 9.50083E-05-2.85889E-05-2.84669E-05-4.88213E-07 8.07654E-19 3.20669E-19
 -1      2831 9.51065E-05-2.86501E-05-2.84815E-05-5.52059E-07 6.13490E-19 3.37342E-19
 -1      2832 9.51174E-05-2.85665E-05-2.85205E-05-4.17527E-07 5.20379E-19 9.33565E-19
 -1      2833 9.50735E-05-2.85727E-05-2.85017E-05-4.32842E-07 8.83571E-19 5.21266E-19
 -1      2834 9.51438E-05-2.86175E-05-2.85115E-05-4.87762E-07 7.23114E-19 5.88594E-19
 -1      2835 9.51814E-05-2.85423E-05-2.85579E-05-4.14705E-07 9.73513E-20 9.93611E-19
 -1      2836 9.51370E-05-2.85510E-05-2.85380E-05-4.11608E-07 3.70898E-19 1.05560E-18
 -1      2837 9.51810E-05-2.85786E-05-2.85442E-05-4.58174E-07 2.62010E-19 1.02790E-18
 -1      2838 9.52512E-05-2.85138E-05-2.85996E-05-4.54075E-07-4.64020E-19 1.12497E-18
 -1      2839 9.52026E-05-2.85245E-05-2.85774E-05-4.29803E-07 2.86065E-20 1.09402E-18
 -1      2840 9.52202E-05-2.85334E-05-2.85805E-05-4.69189E-07-4.52575E-20 1.47370E-18
 -1      2841 9.53322E-05-2.84809E-05-2.86479E-05-5.42161E-07-2.75570E-21 2.15909E-19
 -1      2842 9.52754E-05-2.84931E-05-2.86220E-05-4.93443E-07-5.19891E-19 4.15896E-19
 -1      2843 9.52638E-05-2.84810E-05-2.86219E-05-5.27216E-07 1.65122E-20 8.83687E-19
 -1      2844 9.54310E-05-2.84440E-05-2.87053E-05-6.86673E-07 6.57414E-19 1.69932E-19
 -1      2845 9.53612E-05-2.84571E-05-2.86742E-05-6.09641E-07 6.83586E-19 3.04501E-19
 -1      2846 9.53148E-05-2.84205E-05-2.86699E-05-6.39649E-07 2.38112E-19 1.56442E-19
 -1      2847 9.55551E-05-2.84040E-05-2.87748E-05-8.96496E-07 1.36070E-20 5.46656E-19
 -1      2848 9.54667E-05-2.84169E-05-2.87367E-05-7.86730E-07 1.20496E-19 4.84563E-19
 -1      2849 9.53771E-05-2.83511E-05-2.87265E-05-8.15073E-07 5.82952E-19 7.51383E-19
 -1      2850 9.57133E-05-2.83625E-05-2.88594E-05-1.18132E-06-2.84258E-19 5.24130E-19
 -1      2851 9.56000E-05-2.83737E-05-2.88124E-05-1.03410E-06 2.03551E-19 6.41266E-19
 -1      2852 9.54550E-05-2.82725E-05-2.87939E-05-1.06318E-06 2.13470E-19 7.82686E-19
 -1      2853 9.59157E-05-2.83230E-05-2.89620E-05-1.55082E-06-9.33562E-19-6.75126E-20
 -1      2854 9.57703E-05-2.83298E-05-2.89043E-05-1.36160E-06-7.85311E-19 2.21238E-19
 -1      2855 9.55540E-05-2.81856E-05-2.88738E-05-1.39427E-06-3.85894E-19 8.76880E-19
 -1      2856 9.61740E-05-2.82918E-05-2.90850E-05-2.01309E-06-4.38360E-19-2.67430E-19
 -1      2857 9.59883E-05-2.82900E-05-2.90149E-05-1.77845E-06-5.04197E-19-1.01258E-19
 -1      2858 9.56806E-05-2.80938E-05-2.89676E-05-1.81830E-06-6.51496E-19 7.83956E-19
 -1      2859 9.65018E-05-2.82799E-05-2.92296E-05-2.57215E-06-2.52678E-19 7.60593E-20
 -1      2860 9.62671E-05-2.82628E-05-2.91462E-05-2.29120E-06-2.46568E-19 5.83573E-20
 -1      2861 9.58434E-05-2.80045E-05-2.90760E-05-2.34307E-06-4.03040E-19 7.57038E-19
 -1      2862 9.69160E-05-2.83053E-05-2.93956E-05-3.22402E-06 5.16875E-19 2.59711E-19
 -1      2863 9.66223E-05-2.82623E-05-2.92985E-05-2.90069E-06 1.82671E-19 4.27906E-20
 -1      2864 9.60543E-05-2.79316E-05-2.91979E-05-2.97161E-06-3.52006E-19 4.54447E-19
 -1      2865 9.74378E-05-2.83969E-05-2.95798E-05-3.95092E-06 1.08895E-19 3.28383E-19
 -1      2866 9.70741E-05-2.83121E-05-2.94705E-05-3.59730E-06 4.43672E-19 4.82600E-19
 -1      2867 9.63304E-05-2.78994E-05-2.93304E-05-3.69801E-06 2.36265E-19 9.25762E-20
 -1      2868 9.80960E-05-2.86000E-05-2.97757E-05-4.71302E-06-1.90217E-19-1.63321E-19
 -1      2869 9.76496E-05-2.84494E-05-2.96574E-05-4.35405E-06 2.46161E-19 4.78954E-19
 -1      2870 9.66982E-05-2.79482E-05-2.94679E-05-4.50165E-06 6.02189E-20 6.54669E-19
 -1      2871 9.89318E-05-2.89822E-05-2.99725E-05-5.43712E-06-6.61168E-20 3.12141E-19
 -1      2872 9.83875E-05-2.87311E-05-2.98510E-05-5.11687E-06-4.46240E-19 2.17394E-19
 -1      2873 9.71995E-05-2.81413E-05-2.96013E-05-5.33893E-06-4.47812E-19 4.98524E-19
 -1      2874 1.00004E-04-2.96386E-05-3.01552E-05-6.00233E-06 2.81619E-19 1.07254E-18
 -1      2875 9.93438E-05-2.92405E-05-3.00390E-05-5.79149E-06 3.73288E-19 1.01883E-18
 -1      2876 9.79001E-05-2.85735E-05-2.97189E-05-6.13216E-06-3.49793E-19 9.70350E-19
 -1      2877 1.01392E-04-3.06905E-05-3.03072E-05-6.22374E-06-7.81717E-19 1.75363E-18
 -1      2878 1.00598E-04-3.00899E-05-3.02064E-05-6.22696E-06-2.08820E-19 1.53429E-18
 -1      2879 9.89013E-05-2.93775E-05-2.98079E-05-6.75473E-06-2.93875E-19 1.84170E-18
 -1      2880 1.03194E-04-3.22641E-05-3.04167E-05-5.83851E-06-6.71040E-19 2.65118E-18
 -1      2881 1.02252E-04-3.14120E-05-3.03401E-05-6.19761E-06-8.50946E-19 2.22929E-18
 -1      2882 1.00348E-04-3.07190E-05-2.98600E-05-7.01229E-06-1.21140E-18 1.38237E-18
 -1      2883 1.05487E-04-3.44265E-05-3.04890E-05-4.50543E-06 4.88161E-19 3.84036E-18
 -1      2884 1.04416E-04-3.33200E-05-3.04378E-05-5.38988E-06 5.99292E-20 3.16902E-18
 -1      2885 1.02421E-04-3.27644E-05-2.98818E-05-6.62147E-06-7.97363E-19 8.81340E-19
 -1      2886 1.08243E-04-3.70485E-05-3.05656E-05-1.84633E-06 1.68351E-18 3.21604E-18
 -1      2887 1.07134E-04-3.58082E-05-3.05249E-05-3.41400E-06 1.25766E-18 4.02141E-18
 -1      2888 1.05290E-04-3.55842E-05-2.99126E-05-5.19506E-06 5.34224E-19 2.35486E-18
 -1      2889 1.11158E-04-3.95859E-05-3.07422E-05 2.41374E-06 2.31497E-18 2.48154E-18
 -1      2890 1.10249E-04-3.85656E-05-3.06735E-05 1.12227E-07 2.12812E-18 3.26379E-18
 -1      2891 1.08970E-04-3.89558E-05-3.00482E-05-2.27349E-06 2.11514E-18 2.27680E-18
 -1      2892 1.13461E-04-4.08518E-05-3.11778E-05 8.14356E-06 1.82838E-18 3.52642E-18
 -1      2893 1.13178E-04-4.07278E-05-3.10143E-05 5.34167E-06 2.19399E-18 3.50139E-18
 -1      2894 1.13093E-04-4.20895E-05-3.04573E-05 2.53918E-06 1.71754E-18 3.66986E-18
 -1      2895 1.13875E-04-3.92017E-05-3.20389E-05 1.41150E-05 5.30759E-19 4.17846E-18
 -1      2896 1.14673E-04-4.07023E-05-3.17272E-05 1.16060E-05 9.31012E-19 4.38534E-18
 -1      2897 1.16462E-04-4.31659E-05-3.13836E-05 9.11890E-06 9.89005E-19 4.31065E-18
 -1      2898 1.11421E-04-3.35901E-05-3.33250E-05 1.79365E-05-4.60786E-19 2.77880E-18
 -1      2899 1.13497E-04-3.70067E-05-3.28889E-05 1.69527E-05 4.95398E-19 3.77043E-18
 -1      2900 1.17458E-04-4.04396E-05-3.29919E-05 1.58257E-05 4.97718E-19 4.90781E-18
 -1      2901 1.06865E-04-2.58038E-05-3.46808E-05 1.63395E-05-3.53742E-19 1.26112E-18
 -1      2902 1.09302E-04-2.97053E-05-3.42780E-05 1.79464E-05-1.18305E-18 1.90006E-18
 -1      2903 1.14632E-04-3.25114E-05-3.51676E-05 1.93783E-05 2.19461E-19 3.74119E-18
 -1      2904 1.02825E-04-2.01339E-05-3.55218E-05 8.71866E-06 5.09146E-19-3.06983E-20
 -1      2905 1.04414E-04-2.22218E-05-3.53933E-05 1.27241E-05 1.02412E-19 9.98956E-19
 -1      2906 1.09803E-04-2.33271E-05-3.71002E-05 1.62254E-05-2.84047E-19 9.95648E-19
 -1      2907 1.03045E-04-2.13641E-05-3.51468E-05-1.17279E-06 1.37093E-18 5.05450E-19
 -1      2908 1.02712E-04-1.99985E-05-3.54588E-05 2.86554E-06 1.14216E-18 2.92968E-19
 -1      2909 1.06615E-04-1.84451E-05-3.78843E-05 5.98495E-06 9.22207E-19-1.93931E-19
 -1      2910 1.05968E-04-2.74013E-05-3.38612E-05-7.37255E-06 9.20487E-19-1.01525E-19
 -1      2911 1.04585E-04-2.40853E-05-3.44565E-05-5.14352E-06 1.05257E-18-4.32609E-19
 -1      2912 1.08407E-04-2.25195E-05-3.69176E-05-3.60728E-06 1.44369E-18-1.94343E-19
 -1      2913 1.08648E-04-3.37732E-05-3.22041E-05-7.51391E-06 5.97693E-19 1.64565E-18
 -1      2914 1.07699E-04-3.10171E-05-3.28122E-05-7.84491E-06 8.32547E-19 1.44087E-18
 -1      2915 1.11987E-04-3.00970E-05-3.50715E-05-8.29448E-06-2.11374E-19-1.09130E-18
 -1      2916 1.08131E-04-3.62262E-05-3.08753E-05-3.89697E-06 1.79184E-19 2.81829E-18
 -1      2917 1.08409E-04-3.53890E-05-3.13121E-05-5.46156E-06 5.16056E-19 2.47701E-18
 -1      2918 1.13575E-04-3.67556E-05-3.28626E-05-5.98455E-06-6.36367E-20 1.60400E-18
 -1      2919 1.06027E-04-3.56153E-05-3.02002E-05 1.18877E-07-1.41376E-18 3.28385E-18
 -1      2920 1.07357E-04-3.63220E-05-3.05030E-05-1.42180E-06-2.63310E-19 2.96669E-18
 -1      2921 1.12524E-04-3.89171E-05-3.14636E-05-9.86253E-07-2.42668E-19 3.90151E-18
 -1      2922 1.09525E-04-3.75638E-05-3.07355E-05 3.87072E-06-1.09744E-18 2.30470E-18
 -1      2923 5.98760E-05-1.15150E-05-2.07257E-05 1.97310E-05-3.83838E-18 4.15925E-18
 -1      2924 6.92589E-05-1.67603E-05-2.18164E-05 2.97744E-05-4.10417E-18 3.37617E-18
 -1      2925 1.13669E-04-4.14331E-05-3.10531E-05-5.66101E-06 5.28476E-19-4.42192E-18
 -1      2926 1.11485E-04-3.95688E-05-3.07835E-05-6.99599E-06 7.65248E-19-3.54550E-18
 -1      2927 1.12527E-04-4.02691E-05-3.09270E-05-1.11134E-05 1.63162E-18-4.71803E-18
 -1      2928 1.19161E-04-4.54811E-05-3.16375E-05-7.43069E-06-7.95913E-21-5.05018E-18
 -1      2929 1.04828E-04-3.91881E-05-2.80966E-05 3.50001E-05-6.29187E-19-3.84949E-18
 -1      2930 1.11562E-04-4.30305E-05-2.91851E-05 3.09464E-05 3.79338E-19-3.01832E-18
 -1      2931 5.42053E-05-9.27916E-06-1.87802E-05-9.71401E-06-8.35998E-19 5.82028E-18
 -1      2932 5.29036E-05-8.46637E-06-1.86194E-05 4.42792E-06-3.71898E-18 5.95041E-18
 -1      2933 8.12614E-05-2.70699E-05-2.32290E-05 3.80685E-05-3.04897E-18-1.23879E-19
 -1      2934 9.39498E-05-3.43284E-05-2.50900E-05 3.98060E-05-1.03219E-18-2.06155E-18
 -1      2935 9.47090E-05-2.19077E-05-3.12073E-05 7.84129E-06 1.10102E-18 7.23211E-19
 -1      2936 7.52719E-05-2.10365E-05-2.25672E-05-3.34361E-05 4.59452E-18 5.54897E-18
 -1      2937 6.40092E-05-1.46287E-05-2.11610E-05-2.53971E-05 1.71077E-18 5.49322E-18
 -1      2938 9.94529E-05-3.58059E-05-2.67871E-05-3.69901E-05 4.34496E-18 1.37778E-18
 -1      2939 8.81755E-05-2.95512E-05-2.52000E-05-3.71015E-05 5.01859E-18 3.38252E-18
 -1      2940 8.13446E-05-3.06446E-05-2.13921E-05-3.95538E-05 4.33083E-18 5.19925E-18
 -1      2941 1.12651E-04-4.28026E-05-2.97466E-05-2.68602E-05 2.22813E-18-1.73582E-18
 -1      2942 1.07491E-04-4.02155E-05-2.88582E-05-3.17839E-05 3.31234E-18-1.17084E-18
 -1      2943 1.06840E-04-4.41155E-05-2.68383E-05-3.64832E-05 2.41823E-18-2.84735E-19
 -1      2944 1.14192E-04-4.22931E-05-3.07698E-05-1.57073E-05 1.91821E-18-2.86622E-18
 -1      2945 1.13721E-04-4.23852E-05-3.05298E-05-2.12905E-05 2.15044E-18-1.59255E-18
 -1      2946 1.17255E-04-4.74518E-05-2.99272E-05-2.47248E-05 1.08314E-19-2.55473E-18
 -1      2947 1.17594E-04-4.51723E-05-3.09875E-05-1.43034E-05 1.24073E-18-3.48809E-18
 -1      2948 7.53986E-05-3.86771E-05-1.52115E-05-4.69416E-05 2.10996E-18 6.74545E-18
 -1      2949 9.35252E-05-4.86808E-05-1.91099E-05-4.96004E-05 1.01813E-18 2.62961E-18
 -1      2950 5.28061E-05-1.85588E-05-1.37627E-05-2.94138E-05 8.06905E-19 8.31236E-18
 -1      2951 6.33066E-05-2.85737E-05-1.44216E-05-4.19689E-05 2.00662E-18 8.19970E-18
 -1      2952 1.39613E-04-3.83252E-05-4.35671E-05 1.84628E-05 1.15260E-18 4.73396E-18
 -1      2953 1.35487E-04-2.70075E-05-4.73199E-05 1.97496E-05 2.01615E-18 5.31788E-18
 -1      2954 9.44584E-05-2.14308E-05-3.13395E-05-7.64979E-06-6.28108E-19-4.04630E-19
 -1      2955 9.50214E-05-2.31936E-05-3.07381E-05-5.99084E-06-5.19745E-19-2.67826E-19
 -1      2956 9.50503E-05-2.43894E-05-3.03017E-05-4.46874E-06-4.92846E-19-2.19265E-19
 -1      2957 9.30733E-05-1.90542E-05-3.17220E-05-7.04950E-06-4.19601E-19-5.72760E-19
 -1      2958 3.19919E-05-1.76804E-05-5.66116E-06 1.07597E-05-1.02938E-18-4.37514E-18
 -1      2959 3.03137E-05-1.64529E-05-5.45631E-06-4.55570E-06-7.71065E-19-3.03153E-18
 -1      2960 1.43053E-04-6.25504E-05-3.49105E-05 1.57528E-06-1.22942E-18 1.15747E-18
 -1      2961 1.36330E-04-6.47607E-05-3.04573E-05 9.58306E-06-5.80641E-19 8.01081E-19
 -1      2962 9.47278E-05-2.74152E-05-2.88505E-05 3.87774E-07 4.05952E-19 7.18391E-19
 -1      2963 9.49041E-05-2.71219E-05-2.90230E-05 9.89548E-07 4.67450E-19 7.50067E-19
 -1      2964 9.52550E-05-2.64990E-05-2.94712E-05 1.73376E-06 5.56975E-19 5.06809E-19
 -1      2965 9.51300E-05-2.73775E-05-2.90443E-05 3.76776E-07 3.64352E-19 6.25679E-19
 -1      2966 5.76549E-05-2.41839E-05-1.41252E-05 3.79206E-05-3.07971E-18 1.49967E-18
 -1      2967 4.80114E-05-1.69022E-05-1.24009E-05 2.58349E-05-2.47461E-18 3.45886E-18
 -1      2968 9.44737E-05-2.83142E-05-2.83534E-05-1.09354E-06 4.94620E-19 3.74843E-19
 -1      2969 9.44438E-05-2.82244E-05-2.83734E-05-1.02538E-06 2.78399E-19 5.73254E-19
 -1      2970 9.49306E-05-2.82428E-05-2.85867E-05-9.03118E-07 2.83092E-19 2.66532E-19
 -1      2971 9.48960E-05-2.84494E-05-2.84816E-05-1.10944E-06 3.84830E-19 3.04276E-19
 -1      2972 1.32931E-04-6.40552E-05-2.92529E-05-1.34403E-05-1.42249E-18 2.06358E-18
 -1      2973 1.38032E-04-6.22629E-05-3.27845E-05-5.35006E-06-9.75808E-19 2.36200E-18
 -1      2974 1.43472E-04-4.02543E-05-4.47983E-05-5.45070E-06-2.56651E-19 2.88383E-18
 -1      2975 1.45686E-04-5.17179E-05-4.04315E-05 1.85922E-06-4.63274E-19 2.86837E-18
 -1      2976 1.47876E-04-5.39205E-05-4.02491E-05-2.19964E-06-3.29162E-18-3.35383E-18
 -1      2977 1.46420E-04-4.48937E-05-4.41438E-05 3.81040E-06-3.87031E-18-3.17966E-18
 -1      2978 9.11743E-05-1.60889E-05-3.22076E-05 4.91672E-06 9.35295E-19-1.58367E-19
 -1      2979 9.08305E-05-1.55894E-05-3.22680E-05 3.99417E-06 7.52779E-19-3.55703E-19
 -1      2980 9.18098E-05-1.72009E-05-3.19595E-05 3.19852E-06 6.55152E-19-3.68198E-19
 -1      2981 9.24801E-05-1.82621E-05-3.17878E-05 4.61444E-06 9.02631E-19-1.46212E-20
 -1      2982 9.07955E-05-1.55405E-05-3.22734E-05-3.93095E-06-3.42369E-20-7.65066E-19
 -1      2983 9.11292E-05-1.60299E-05-3.22142E-05-4.85877E-06-1.49567E-19-7.69387E-19
 -1      2984 3.60731E-05-1.87681E-05-6.66514E-06-1.62421E-05-1.39287E-18-2.22537E-18
 -1      2985 4.65377E-05-2.45359E-05-9.08588E-06-2.74381E-05-2.58038E-18-2.89050E-19
 -1      2986 5.46210E-05-3.18247E-05-9.53714E-06 3.35959E-05 5.44007E-19-6.96896E-19
 -1      2987 4.11403E-05-2.29745E-05-7.14373E-06 2.30362E-05 3.27696E-20-3.27103E-18
 -1      2988 1.41391E-04-5.82867E-05-3.56768E-05 3.47687E-06 9.66147E-20 2.96292E-18
 -1      2989 1.41738E-04-5.14613E-05-3.94093E-05 1.10997E-05-7.11243E-20 2.54290E-18
 -1      2990 1.36380E-04-5.91422E-05-3.30461E-05 1.64095E-06-1.01488E-18 2.81591E-18
 -1      2991 1.30966E-04-1.04069E-05-5.23799E-05-1.08667E-05-3.63398E-18-5.92658E-19
 -1      2992 1.34592E-04-1.67747E-05-5.10338E-05-1.81026E-05-3.30724E-18 1.03105E-18
 -1      2993 6.46828E-05-3.64231E-05-1.16411E-05-3.67079E-05-1.81053E-18-7.57565E-19
 -1      2994 8.23746E-05-4.79254E-05-1.44746E-05-4.07715E-05-2.69018E-18-2.54565E-18
 -1      2995 8.89969E-05-5.05750E-05-1.64505E-05 3.78189E-05 8.71491E-19-5.90805E-19
 -1      2996 7.22787E-05-4.11053E-05-1.27451E-05 3.65618E-05 5.78524E-19-2.99638E-20
 -1      2997 1.26938E-04-6.26820E-05-2.77555E-05 3.83575E-05 6.52004E-19-3.22682E-18
 -1      2998 1.13311E-04-5.73565E-05-2.35404E-05 4.42689E-05-3.44107E-19-3.84801E-18
 -1      2999 1.24446E-04-6.52186E-05-2.56991E-05 2.34786E-05 6.92238E-19-1.55563E-18
 -1      3000 1.07501E-04-5.92576E-05-2.02245E-05 3.18294E-05 1.41402E-18-1.79652E-18
 -1      3001 1.37211E-04-2.67529E-05-4.81483E-05-2.08398E-05-2.69971E-18 1.05244E-18
 -1      3002 1.40569E-04-3.52147E-05-4.55463E-05-2.11638E-05-2.55370E-18 1.17854E-18
 -1      3003 1.36949E-04-6.49247E-05-3.05206E-05-2.84978E-05-1.10019E-18-1.96829E-18
 -1      3004 1.45926E-04-6.28237E-05-3.62326E-05-1.59446E-05-2.12936E-18-2.47492E-18
 -1      3005 1.38183E-04-3.60340E-05-4.42512E-05 8.82378E-06-3.14450E-18-2.14776E-18
 -1      3006 1.33977E-04-2.73867E-05-4.64530E-05 8.51487E-06-2.49398E-18-1.50835E-18
 -1      3007 1.10581E-04-5.66155E-05-2.26012E-05-4.50421E-05 1.95029E-19 4.58907E-19
 -1      3008 1.23786E-04-6.25082E-05-2.65311E-05-4.03532E-05-1.70889E-19-5.36542E-20
 -1      3009 1.43736E-04-6.06161E-05-3.60145E-05 1.47047E-05 6.01890E-19-2.52628E-19
 -1      3010 1.37625E-04-6.40526E-05-3.13059E-05 2.69681E-05 1.69195E-18-2.51812E-18
 -1      3011 9.15705E-05-1.66896E-05-3.21137E-05-5.57185E-06-1.95882E-19-8.42116E-19
 -1      3012 9.20520E-05-1.74567E-05-3.20234E-05-6.46442E-06-2.97161E-19-8.00843E-19
 -1      3013 9.24293E-05-1.81921E-05-3.17961E-05-4.54972E-06-1.81735E-19-7.34906E-19
 -1      3014 1.34589E-04-4.03877E-05-4.05181E-05 7.48679E-06-2.44369E-18-2.52620E-18
 -1      3015 9.12817E-05-1.63892E-05-3.20847E-05 2.67639E-08 3.55051E-19-3.87030E-19
 -1      3016 9.01611E-05-1.46000E-05-3.24023E-05-3.82353E-07 3.60429E-19-4.96778E-19
 -1      3017 9.02177E-05-1.46823E-05-3.23924E-05-1.34084E-06 1.93805E-19-5.65198E-19
 -1      3018 7.36087E-05-2.73138E-05-1.93072E-05 3.85003E-05-2.66927E-18 8.83667E-19
 -1      3019 3.98057E-05-1.69591E-05-9.13353E-06-9.04481E-06-9.59582E-19-2.24813E-18
 -1      3020 1.30869E-04-6.20313E-05-2.93296E-05-3.04867E-05-5.97476E-19-1.86511E-18
 -1      3021 1.28783E-04-2.20249E-05-4.60409E-05-2.08833E-05-3.16303E-18-3.33784E-19
 -1      3022 1.29723E-04-6.35849E-05-2.82254E-05 1.32869E-05 4.16899E-19-5.84453E-20
 -1      3023 1.05639E-04-4.94314E-05-2.37447E-05 4.34477E-05-1.77136E-19-2.89725E-18
 -1      3024 1.31525E-04-6.10105E-05-2.99600E-05 2.94402E-05 1.12115E-18-2.06573E-18
 -1      3025 1.19007E-04-1.39707E-05-4.53846E-05-4.45899E-06-2.60749E-18-1.54863E-18
 -1      3026 1.01696E-04-5.38798E-05-2.01114E-05 3.08935E-05 1.01390E-18-8.28332E-19
 -1      3027 1.31030E-04-3.85609E-05-3.99048E-05-2.22167E-05-1.44843E-18 1.84939E-18
 -1      3028 1.23916E-04-3.26509E-05-3.94822E-05-2.28817E-05-3.74256E-19 1.21867E-18
 -1      3029 1.20313E-04-2.51919E-05-4.09809E-05-2.06277E-05-1.70746E-18 3.59036E-19
 -1      3030 1.18275E-04-4.90036E-05-2.96813E-05 2.72119E-05-8.83045E-19-2.00798E-18
 -1      3031 1.14622E-04-4.32226E-05-3.04993E-05 2.33987E-05-6.74490E-19-3.10313E-18
 -1      3032 1.15687E-04-4.36683E-05-3.08675E-05 1.78008E-05-4.53891E-19-1.25667E-18
 -1      3033 1.24949E-04-6.25012E-05-2.68040E-05-1.90177E-05-2.21716E-18 2.00616E-18
 -1      3034 4.99786E-05-1.27233E-05-1.52800E-05 1.46631E-05-2.85440E-18 4.59134E-18
 -1      3035 5.90805E-05-3.01491E-05-1.17006E-05-3.20043E-05-1.79005E-18-2.74439E-19
 -1      3036 7.14469E-05-3.58937E-05-1.51328E-05-3.37780E-05-2.21933E-18-1.07616E-18
 -1      3037 5.49959E-05-2.44845E-05-1.27036E-05-2.56194E-05-1.14863E-18-1.15514E-18
 -1      3038 1.03495E-04-5.01014E-05-2.26165E-05-4.48191E-05 6.21087E-19 1.24466E-18
 -1      3039 1.14272E-04-4.14382E-05-3.11185E-05 1.23468E-05-7.18218E-19 2.12293E-18
 -1      3040 1.12383E-04-4.02152E-05-3.09790E-05 7.65833E-06-2.14080E-18 3.30435E-18
 -1      3041 1.14421E-04-4.14738E-05-3.13091E-05 5.27150E-06-9.59695E-19 2.74082E-18
 -1      3042 1.19440E-04-4.63925E-05-3.13155E-05 1.41308E-05-1.95630E-18 6.03202E-19
 -1      3043 9.43554E-05-2.14241E-05-3.12605E-05 7.21481E-06 1.04828E-18 5.47322E-19
 -1      3044 6.87550E-05-3.52380E-05-1.38271E-05 3.22303E-05 2.16946E-19 8.01505E-20
 -1      3045 1.43097E-04-5.78768E-05-3.67202E-05-7.78874E-06-2.05636E-18-3.40126E-18
 -1      3046 1.26988E-04-2.67705E-05-4.29926E-05 2.08772E-05 2.14225E-18 5.37363E-18
 -1      3047 1.30866E-04-2.21771E-05-4.71676E-05 2.01105E-05 1.83933E-18 4.80247E-18
 -1      3048 1.24206E-04-1.75906E-05-4.66264E-05 1.76894E-05 2.02589E-18 4.74624E-18
 -1      3049 9.50402E-05-2.40672E-05-3.04196E-05-4.14563E-06-3.56774E-19-2.53513E-19
 -1      3050 1.36356E-04-4.45845E-05-3.95052E-05 1.64478E-05 8.86764E-19 4.77578E-18
 -1      3051 1.30873E-04-1.00005E-05-5.27048E-05 2.83954E-06 2.46423E-18 1.48192E-18
 -1      3052 1.32640E-04-1.38977E-05-5.17012E-05-3.79885E-06 1.80164E-18 1.33524E-18
 -1      3053 1.39586E-04-3.26289E-05-4.63213E-05-8.32288E-06 1.49099E-18 1.75188E-18
 -1      3054 1.36767E-04-3.87934E-05-4.24229E-05-7.45705E-06 1.43080E-18 1.84696E-18
 -1      3055 4.32190E-05-1.98128E-05-9.35358E-06 1.60755E-05-3.39396E-19-3.25398E-18
 -1      3056 9.03438E-05-1.48713E-05-3.23649E-05-2.17577E-06 1.53062E-19-5.93601E-19
 -1      3057 9.05290E-05-1.51383E-05-3.23328E-05-3.12819E-06 6.84846E-20-6.84922E-19
 -1      3058 9.17797E-05-1.71598E-05-3.19639E-05-3.13348E-06-1.51556E-20-6.24935E-19
 -1      3059 9.14015E-05-1.65733E-05-3.20558E-05-1.58126E-06 1.15237E-19-4.99916E-19
 -1      3060 1.38273E-04-5.00952E-05-3.80481E-05-6.60224E-07-4.25502E-19 3.62255E-18
 -1      3061 1.43427E-04-5.68440E-05-3.73561E-05 6.49271E-06-2.83432E-19 3.38951E-18
 -1      3062 1.37730E-04-5.73664E-05-3.43612E-05 1.17149E-05 2.86744E-19 2.86384E-18
 -1      3063 9.70285E-05-5.31800E-05-1.85871E-05-3.53348E-05-2.85514E-18-8.61380E-19
 -1      3064 1.34671E-04-1.75908E-05-5.07749E-05-5.33251E-06 1.54181E-18 1.49951E-18
 -1      3065 1.36501E-04-2.56371E-05-4.80485E-05-7.18596E-06 1.23699E-18 1.75749E-18
 -1      3066 1.29965E-04-2.56065E-05-4.52114E-05-8.31993E-06 2.23945E-18 2.35724E-18
 -1      3067 1.25584E-04-1.50484E-05-4.73600E-05-5.35610E-06 1.99953E-18 2.88992E-18
 -1      3068 1.44920E-04-4.63871E-05-4.28725E-05-1.59877E-05-1.59586E-18 9.43806E-19
 -1      3069 1.44976E-04-5.59431E-05-3.83289E-05-8.01444E-06-1.43400E-18 5.37231E-19
 -1      3070 9.46134E-05-2.24659E-05-3.09130E-05 5.69079E-06 9.44737E-19 4.20803E-19
 -1      3071 1.24818E-04-9.61393E-06-4.95580E-05 6.27684E-06 1.87872E-18 3.66478E-18
 -1      3072 1.37369E-04-4.18781E-05-4.11936E-05-1.99694E-05-2.06274E-18 8.73503E-19
 -1      3073 1.40362E-04-5.77600E-05-3.55614E-05-7.51823E-06-7.59967E-19 9.95528E-19
 -1      3074 7.77527E-05-3.72428E-05-1.72841E-05 3.06745E-05 1.94712E-19 1.10924E-18
 -1      3075 6.35555E-05-2.82779E-05-1.45784E-05 2.72350E-05-1.59904E-19 6.33316E-19
 -1      3076 9.42721E-05-2.18499E-05-3.10596E-05 4.97200E-06 8.11461E-19 1.54345E-19
 -1      3077 9.38112E-05-2.09084E-05-3.12452E-05 4.62400E-06 8.02678E-19 1.08653E-19
 -1      3078 4.14992E-05-1.49769E-05-1.09190E-05-1.61966E-06-1.19997E-18-2.77912E-18
 -1      3079 4.55690E-05-1.72272E-05-1.18979E-05-1.30511E-05-1.37090E-18-1.22163E-18
 -1      3080 1.35519E-04-4.80628E-05-3.76567E-05 4.28668E-06-2.35131E-18-4.03868E-18
 -1      3081 1.36028E-04-4.84924E-05-3.76316E-05-1.80657E-05-1.07563E-18 2.06660E-18
 -1      3082 9.56795E-05-2.68807E-05-2.94713E-05-7.43706E-07-4.09075E-19-5.58962E-19
 -1      3083 9.56564E-05-2.73290E-05-2.92914E-05-2.18928E-07-4.61223E-19-6.59675E-19
 -1      3084 9.56999E-05-2.77144E-05-2.91254E-05 1.60825E-07-5.15791E-19-7.16568E-19
 -1      3085 9.56627E-05-2.80010E-05-2.90025E-05 4.75266E-07-6.14455E-19-9.48573E-19
 -1      3086 9.58963E-05-2.73320E-05-2.93879E-05-1.63797E-07-5.38058E-19-8.16918E-19
 -1      3087 9.56549E-05-2.82397E-05-2.88843E-05 6.96406E-07-5.50124E-19-7.89529E-19
 -1      3088 9.56226E-05-2.84208E-05-2.88030E-05 8.63631E-07-6.11087E-19-6.11756E-19
 -1      3089 9.59372E-05-2.80569E-05-2.90952E-05 4.70230E-07-4.43039E-19-8.53427E-19
 -1      3090 9.55907E-05-2.85628E-05-2.87211E-05 9.71958E-07-4.57619E-19-3.22845E-19
 -1      3091 9.55676E-05-2.86734E-05-2.86696E-05 1.04033E-06-3.58901E-19-1.77555E-20
 -1      3092 9.59035E-05-2.85087E-05-2.88869E-05 8.26598E-07-2.40151E-19-6.23433E-19
 -1      3093 9.55263E-05-2.87513E-05-2.86147E-05 1.07289E-06-2.58474E-19 1.78508E-19
 -1      3094 9.55118E-05-2.88143E-05-2.85844E-05 1.07814E-06-2.26783E-19 4.37484E-19
 -1      3095 9.58359E-05-2.87764E-05-2.87428E-05 9.88315E-07 6.06997E-20-1.84799E-19
 -1      3096 9.54687E-05-2.88497E-05-2.85493E-05 1.06311E-06-3.00535E-19 6.09218E-19
 -1      3097 9.54611E-05-2.88805E-05-2.85337E-05 1.03094E-06-2.42858E-19 6.36269E-19
 -1      3098 9.57560E-05-2.89199E-05-2.86465E-05 1.02152E-06-1.68916E-19 7.33544E-21
 -1      3099 9.54201E-05-2.88880E-05-2.85131E-05 9.88957E-07-5.32932E-19 7.71415E-19
 -1      3100 9.54173E-05-2.88971E-05-2.85076E-05 9.37533E-07-3.41297E-19 5.55347E-19
 -1      3101 9.56755E-05-2.89803E-05-2.85857E-05 9.76070E-07-3.67016E-19 5.88848E-19
 -1      3102 9.53803E-05-2.88866E-05-2.84974E-05 8.83288E-07-2.20757E-19 4.80259E-19
 -1      3103 9.53808E-05-2.88809E-05-2.84987E-05 8.25265E-07-1.50454E-19 6.30984E-19
 -1      3104 9.56001E-05-2.89857E-05-2.85506E-05 8.88270E-07-4.51803E-19 6.16701E-19
 -1      3105 9.53482E-05-2.88589E-05-2.84959E-05 7.69067E-07-1.82793E-19 4.40719E-19
 -1      3106 9.53508E-05-2.88434E-05-2.85018E-05 7.13215E-07-3.01435E-20 4.16956E-19
 -1      3107 9.55324E-05-2.89551E-05-2.85343E-05 7.83950E-07-1.24808E-19 8.23247E-19
 -1      3108 9.53226E-05-2.88139E-05-2.85045E-05 6.62266E-07-1.16930E-19 2.34482E-19
 -1      3109 9.53266E-05-2.87915E-05-2.85137E-05 6.14741E-07-8.43638E-20-4.86017E-20
 -1      3110 9.54728E-05-2.89011E-05-2.85317E-05 6.81275E-07-1.74293E-19 2.57306E-19
 -1      3111 9.53020E-05-2.87567E-05-2.85204E-05 5.74203E-07-1.18306E-19 1.10003E-19
 -1      3112 9.53071E-05-2.87289E-05-2.85320E-05 5.39525E-07-5.40778E-19 2.43689E-19
 -1      3113 9.54208E-05-2.88312E-05-2.85391E-05 5.93137E-07-3.27182E-19 1.90225E-19
 -1      3114 9.52850E-05-2.86898E-05-2.85419E-05 5.13341E-07-8.84110E-19 5.62806E-19
 -1      3115 9.52909E-05-2.86572E-05-2.85558E-05 4.95142E-07-1.02982E-18 4.09887E-19
 -1      3116 9.53745E-05-2.87491E-05-2.85543E-05 5.29050E-07-4.77778E-19-1.34086E-19
 -1      3117 9.52701E-05-2.86133E-05-2.85684E-05 4.86667E-07-1.29816E-18 5.90477E-19
 -1      3118 9.52769E-05-2.85757E-05-2.85845E-05 4.88270E-07-1.02100E-18 1.50095E-19
 -1      3119 9.53318E-05-2.86557E-05-2.85759E-05 4.96617E-07-1.23516E-18 2.71538E-19
 -1      3120 9.52556E-05-2.85260E-05-2.85999E-05 5.00773E-07-4.30911E-19 1.97922E-19
 -1      3121 9.52634E-05-2.84824E-05-2.86185E-05 5.25634E-07-3.73830E-19-3.43771E-19
 -1      3122 9.52897E-05-2.85498E-05-2.86031E-05 5.02671E-07-9.50773E-19-1.40346E-19
 -1      3123 9.52398E-05-2.84251E-05-2.86366E-05 5.62676E-07-3.96926E-21-1.53700E-19
 -1      3124 9.52487E-05-2.83742E-05-2.86583E-05 6.14699E-07 5.40849E-20 3.99542E-20
 -1      3125 9.52449E-05-2.84282E-05-2.86359E-05 5.54175E-07-1.23901E-19 5.40324E-20
 -1      3126 9.52205E-05-2.83069E-05-2.86793E-05 6.80380E-07-1.32719E-19 1.10309E-19
 -1      3127 9.52308E-05-2.82471E-05-2.87047E-05 7.64117E-07 2.99657E-19 1.00935E-19
 -1      3128 9.51930E-05-2.82865E-05-2.86742E-05 6.58841E-07 6.49111E-20 5.97387E-19
 -1      3129 9.51953E-05-2.81671E-05-2.87288E-05 8.63213E-07 5.07971E-19-1.56214E-19
 -1      3130 9.52070E-05-2.80967E-05-2.87585E-05 9.83937E-07 7.76701E-19-3.59983E-19
 -1      3131 9.51292E-05-2.81193E-05-2.87183E-05 8.25500E-07 1.83680E-19 8.10190E-19
 -1      3132 9.51610E-05-2.80012E-05-2.87858E-05 1.12193E-06 6.48493E-19-5.91246E-19
 -1      3133 9.51745E-05-2.79185E-05-2.88203E-05 1.28557E-06 2.36824E-19-2.98946E-19
 -1      3134 9.50477E-05-2.79209E-05-2.87682E-05 1.06426E-06 6.07943E-19 2.12653E-19
 -1      3135 9.51144E-05-2.78051E-05-2.88505E-05 1.46853E-06-9.62417E-20 1.27226E-19
 -1      3136 9.51297E-05-2.77093E-05-2.88902E-05 1.68143E-06-1.74393E-19 3.92262E-19
 -1      3137 9.49418E-05-2.76857E-05-2.88233E-05 1.38638E-06 5.85058E-19-6.73397E-19
 -1      3138 9.50514E-05-2.75762E-05-2.89224E-05 1.91577E-06-2.29439E-19 3.56141E-19
 -1      3139 9.50689E-05-2.74677E-05-2.89670E-05 2.18419E-06 6.30808E-20 2.80252E-19
 -1      3140 9.48041E-05-2.74093E-05-2.88822E-05 1.80391E-06-1.20439E-19 1.48792E-19
 -1      3141 9.49683E-05-2.73150E-05-2.89997E-05 2.47621E-06 3.86403E-19-2.96104E-19
 -1      3142 9.49887E-05-2.71966E-05-2.90482E-05 2.80557E-06 3.06857E-19 1.32203E-20
 -1      3143 9.46264E-05-2.70904E-05-2.89421E-05 2.32894E-06 4.71576E-21-1.16142E-19
 -1      3144 9.48626E-05-2.70276E-05-2.90785E-05 3.16084E-06-5.03867E-20-4.04772E-20
 -1      3145 9.48882E-05-2.69067E-05-2.91287E-05 3.55454E-06 6.66884E-20-1.51376E-19
 -1      3146 9.44015E-05-2.67330E-05-2.89982E-05 2.97260E-06 1.24682E-19-8.11589E-19
 -1      3147 9.47355E-05-2.67305E-05-2.91523E-05 3.97717E-06 5.89289E-19 1.07280E-19
 -1      3148 9.47721E-05-2.66217E-05-2.92003E-05 4.43493E-06 3.31458E-19 3.43244E-19
 -1      3149 9.41249E-05-2.63508E-05-2.90426E-05 3.74382E-06 6.08418E-19 1.85649E-19
 -1      3150 9.45971E-05-2.64571E-05-2.92108E-05 4.92678E-06-2.41618E-19 9.35263E-19
 -1      3151 9.46572E-05-2.63874E-05-2.92506E-05 5.44252E-06 2.19229E-19 8.68520E-19
 -1      3152 9.37991E-05-2.59738E-05-2.90639E-05 4.64809E-06 4.10827E-19 7.05152E-19
 -1      3153 9.44749E-05-2.62689E-05-2.92392E-05 6.00244E-06 5.63237E-20 1.17547E-18
 -1      3154 9.45849E-05-2.62846E-05-2.92625E-05 6.56143E-06 8.90399E-19 1.22488E-18
 -1      3155 9.34419E-05-2.56581E-05-2.90460E-05 5.68665E-06 2.18797E-19 1.61650E-18
 -1      3156 9.44301E-05-2.62712E-05-2.92179E-05 7.18467E-06 2.73000E-19 1.13201E-18
 -1      3157 9.46405E-05-2.64480E-05-2.92143E-05 7.75978E-06 3.30955E-19 6.78977E-19
 -1      3158 9.30998E-05-2.55013E-05-2.89677E-05 6.85656E-06 3.51703E-19 2.02734E-18
 -1      3159 9.45827E-05-2.66348E-05-2.91240E-05 8.43687E-06 6.61025E-19 3.09136E-19
 -1      3160 9.49842E-05-2.70899E-05-2.90832E-05 8.98292E-06 4.81154E-19 3.71593E-19
 -1      3161 9.28709E-05-2.56630E-05-2.88040E-05 8.15156E-06 2.58565E-19 9.12740E-19
 -1      3162 9.51502E-05-2.76221E-05-2.89364E-05 9.69559E-06-3.66157E-21 5.93840E-19
 -1      3163 9.58937E-05-2.85253E-05-2.88529E-05 1.01388E-05-7.47745E-19 8.47014E-19
 -1      3164 9.29409E-05-2.63928E-05-2.85299E-05 9.56153E-06 2.44487E-19-4.08309E-19
 -1      3165 9.65001E-05-2.96079E-05-2.86483E-05 1.08445E-05-4.10270E-19 1.22640E-18
 -1      3166 9.78134E-05-3.11786E-05-2.85321E-05 1.10600E-05-2.38948E-20 1.04428E-18
 -1      3167 9.36373E-05-2.80606E-05-2.81307E-05 1.10614E-05-3.54634E-19 7.90933E-19
 -1      3168 9.91999E-05-3.30634E-05-2.82939E-05 1.16485E-05 1.81215E-20 1.03333E-18
 -1      3169 1.01381E-04-3.55318E-05-2.81927E-05 1.14195E-05 8.45991E-20 1.31022E-18
 -1      3170 9.54972E-05-3.11690E-05-2.76242E-05 1.25596E-05 1.61602E-19 1.93441E-19
 -1      3171 1.04033E-04-3.84376E-05-2.80074E-05 1.15858E-05 1.62389E-19 1.09943E-18
 -1      3172 1.07307E-04-4.18196E-05-2.80408E-05 1.05500E-05 1.05808E-18 1.02659E-18
 -1      3173 9.93144E-05-3.63121E-05-2.71111E-05 1.37490E-05 4.96143E-20 3.53368E-19
 -1      3174 1.11811E-04-4.57645E-05-2.81144E-05 9.55250E-06 9.55852E-19 9.26841E-19
 -1      3175 1.15962E-04-4.94889E-05-2.85099E-05 7.05712E-06 4.14914E-19 9.84981E-19
 -1      3176 1.06362E-04-4.39917E-05-2.69131E-05 1.38219E-05 5.93224E-19 3.12793E-19
 -1      3177 1.31335E-04-6.13637E-05-3.02557E-05 5.38534E-06 2.33093E-19 6.76938E-19
 -1      3178 1.22497E-04-6.03830E-05-2.63119E-05 1.64393E-05 1.20824E-18-4.29035E-19
 -1      3179 1.32513E-04-5.19605E-05-3.46711E-05-1.28327E-05 1.42775E-19 3.01470E-18
 -1      3180 1.36796E-04-5.49790E-05-3.53238E-05-1.02775E-05-4.91875E-19 7.70112E-19
 -1      3181 1.35938E-04-5.98781E-05-3.24634E-05-3.02900E-06 4.03796E-20 1.33249E-18
 -1      3182 1.30727E-04-5.48655E-05-3.24972E-05-7.57368E-06 3.76959E-19 2.43633E-18
 -1      3183 1.22354E-04-1.34516E-05-4.71116E-05-5.55284E-06-2.74693E-18-1.39136E-18
 -1      3184 9.52233E-05-2.87767E-05-2.84763E-05-1.07050E-06 2.11032E-21 4.17114E-19
 -1      3185 9.52112E-05-2.87420E-05-2.84852E-05-1.10439E-06 7.07697E-20 4.68094E-19
 -1      3186 9.52424E-05-2.87068E-05-2.85149E-05-1.11880E-06 5.72547E-20 5.19382E-19
 -1      3187 9.52392E-05-2.86439E-05-2.85376E-05-1.11402E-06 1.71591E-19 5.41591E-19
 -1      3188 9.55243E-05-2.88224E-05-2.85892E-05-1.08124E-06 1.70814E-19 5.55234E-19
 -1      3189 9.52101E-05-2.87997E-05-2.84604E-05-8.55048E-07 2.94806E-19 2.06105E-19
 -1      3190 9.51910E-05-2.87978E-05-2.84545E-05-9.15952E-07 6.02055E-19 1.90591E-19
 -1      3191 9.52113E-05-2.87773E-05-2.84705E-05-7.36106E-07 3.91928E-19 5.17942E-19
 -1      3192 9.51918E-05-2.87846E-05-2.84609E-05-7.95208E-07 3.11203E-19 4.45103E-19
 -1      3193 9.53853E-05-2.88842E-05-2.85015E-05-8.28995E-07 2.25104E-19 2.55049E-19
 -1      3194 9.52156E-05-2.87416E-05-2.84876E-05-6.29877E-07 3.58395E-19 3.37887E-19
 -1      3195 9.51965E-05-2.87555E-05-2.84757E-05-6.81046E-07 5.18446E-19 5.44269E-19
 -1      3196 9.53534E-05-2.88450E-05-2.85044E-05-7.17332E-07 4.37059E-19 6.49440E-20
 -1      3197 9.52222E-05-2.86965E-05-2.85097E-05-5.46084E-07 6.50370E-19 3.71563E-19
 -1      3198 9.52037E-05-2.87152E-05-2.84961E-05-5.84902E-07 3.28486E-19 4.90936E-19
 -1      3199 9.53272E-05-2.87913E-05-2.85160E-05-6.19536E-07 2.66170E-19 3.98580E-19
 -1      3200 9.52307E-05-2.86434E-05-2.85359E-05-4.92145E-07 1.19072E-19 1.53374E-18
 -1      3201 9.52124E-05-2.86664E-05-2.85209E-05-5.15153E-07 4.37452E-19 9.99979E-19
 -1      3202 9.53056E-05-2.87269E-05-2.85342E-05-5.45378E-07 8.98363E-20 1.18836E-18
 -1      3203 9.52411E-05-2.85827E-05-2.85662E-05-4.74447E-07 1.93705E-19 1.31710E-18
 -1      3204 9.52222E-05-2.86097E-05-2.85495E-05-4.78552E-07 2.89377E-19 1.30743E-18
 -1      3205 9.52871E-05-2.86531E-05-2.85578E-05-5.02490E-07 1.45504E-19 1.58935E-18
 -1      3206 9.52536E-05-2.85134E-05-2.86010E-05-4.99275E-07-2.19896E-19 1.48046E-18
 -1      3207 9.52331E-05-2.85447E-05-2.85821E-05-4.81330E-07-3.98718E-21 1.54798E-18
 -1      3208 9.52702E-05-2.85694E-05-2.85864E-05-4.97599E-07-9.37685E-20 1.14897E-18
 -1      3209 9.52688E-05-2.84338E-05-2.86413E-05-5.73485E-07 4.64650E-19 6.83756E-19
 -1      3210 9.52453E-05-2.84699E-05-2.86195E-05-5.29986E-07 3.05802E-19 1.61245E-18
 -1      3211 9.52533E-05-2.84739E-05-2.86200E-05-5.37409E-07 1.54295E-20 1.43372E-18
 -1      3212 9.52873E-05-2.83417E-05-2.86883E-05-7.04940E-07 9.49646E-20 8.07809E-19
 -1      3213 9.52592E-05-2.83835E-05-2.86627E-05-6.31846E-07 2.71144E-19 7.30704E-19
 -1      3214 9.52347E-05-2.83640E-05-2.86592E-05-6.29246E-07 5.28039E-19 1.30282E-18
 -1      3215 9.53102E-05-2.82353E-05-2.87432E-05-9.02659E-07 2.18451E-19 1.25621E-18
 -1      3216 9.52755E-05-2.82830E-05-2.87130E-05-7.95368E-07 2.61996E-19 1.05601E-18
 -1      3217 9.52125E-05-2.82363E-05-2.87044E-05-7.81446E-07-6.98165E-21 1.52037E-18
 -1      3218 9.53389E-05-2.81130E-05-2.88072E-05-1.17667E-06 1.95052E-19 1.59561E-18
 -1      3219 9.52952E-05-2.81669E-05-2.87716E-05-1.03015E-06 1.66840E-19 1.61071E-18
 -1      3220 9.51850E-05-2.80877E-05-2.87562E-05-1.00345E-06-4.20946E-20 2.23202E-18
 -1      3221 9.53755E-05-2.79753E-05-2.88812E-05-1.53747E-06-7.07736E-19 1.49279E-18
 -1      3222 9.53200E-05-2.80343E-05-2.88395E-05-1.34662E-06-3.14178E-20 1.79224E-18
 -1      3223 9.51504E-05-2.79162E-05-2.88148E-05-1.30563E-06 9.75536E-20 2.39183E-18
 -1      3224 9.54235E-05-2.78255E-05-2.89653E-05-1.99499E-06-5.71312E-19 9.91604E-19
 -1      3225 9.53525E-05-2.78869E-05-2.89171E-05-1.75528E-06-5.27536E-19 1.16254E-18
 -1      3226 9.51078E-05-2.77219E-05-2.88797E-05-1.69867E-06-4.87177E-19 1.93383E-18
 -1      3227 9.54886E-05-2.76722E-05-2.90582E-05-2.55685E-06-7.11764E-19 1.16857E-18
 -1      3228 9.53971E-05-2.77302E-05-2.90038E-05-2.26541E-06-6.12752E-19 1.33348E-18
 -1      3229 9.50579E-05-2.75087E-05-2.89495E-05-2.19259E-06-6.84339E-19 2.00192E-18
 -1      3230 9.55808E-05-2.75321E-05-2.91570E-05-3.22581E-06-2.08906E-19 5.23175E-19
 -1      3231 9.54618E-05-2.75768E-05-2.90977E-05-2.88299E-06-2.40909E-19 7.44339E-19
 -1      3232 9.50041E-05-2.72878E-05-2.90211E-05-2.79514E-06-1.09640E-19 1.40061E-18
 -1      3233 9.57176E-05-2.74354E-05-2.92566E-05-3.99602E-06 1.50319E-19 5.23776E-19
 -1      3234 9.55605E-05-2.74494E-05-2.91947E-05-3.60768E-06-1.45418E-20 2.74073E-19
 -1      3235 9.49563E-05-2.70809E-05-2.90893E-05-3.50949E-06-2.96010E-20 4.83435E-19
 -1      3236 9.59298E-05-2.74320E-05-2.93486E-05-4.84794E-06-3.72217E-19 9.11962E-19
 -1      3237 9.57178E-05-2.73877E-05-2.92881E-05-4.42864E-06 2.00925E-19 8.30616E-19
 -1      3238 9.49345E-05-2.69269E-05-2.91465E-05-4.33122E-06-4.28889E-20 7.22759E-19
 -1      3239 9.62699E-05-2.76009E-05-2.94221E-05-5.74135E-06-4.86135E-19 8.86142E-19
 -1      3240 9.59762E-05-2.74555E-05-2.93683E-05-5.31857E-06-3.39977E-19 1.04810E-18
 -1      3241 9.49773E-05-2.68895E-05-2.91820E-05-5.24428E-06-8.61935E-20 1.56562E-18
 -1      3242 9.68252E-05-2.80600E-05-2.94637E-05-6.60592E-06-5.58336E-19 1.04521E-18
 -1      3243 9.64074E-05-2.77511E-05-2.94234E-05-6.22575E-06-6.53742E-19 3.89821E-19
 -1      3244 9.51529E-05-2.70687E-05-2.91832E-05-6.21559E-06-4.79659E-19 3.32416E-19
 -1      3245 9.77328E-05-2.89750E-05-2.94618E-05-7.32785E-06-9.40934E-19 1.24133E-18
 -1      3246 9.71275E-05-2.84175E-05-2.94407E-05-7.06234E-06-5.45964E-19 1.01277E-18
 -1      3247 9.55764E-05-2.76126E-05-2.91367E-05-7.18697E-06-9.36087E-19-8.19851E-20
 -1      3248 9.91936E-05-3.05562E-05-2.94131E-05-7.73040E-06-1.05217E-18 6.84961E-19
 -1      3249 9.83139E-05-2.96476E-05-2.94123E-05-7.68689E-06-1.07157E-18 1.43557E-18
 -1      3250 9.64306E-05-2.87274E-05-2.90341E-05-8.06150E-06-6.75604E-19 7.30613E-19
 -1      3251 1.01468E-04-3.30232E-05-2.93368E-05-7.54531E-06-4.32522E-19 5.93635E-19
 -1      3252 1.00215E-04-3.16688E-05-2.93457E-05-7.87706E-06-1.03639E-18 5.46209E-19
 -1      3253 9.79865E-05-3.06725E-05-2.88818E-05-8.67786E-06-7.70600E-19 1.00147E-18
 -1      3254 1.04822E-04-3.64985E-05-2.92979E-05-6.37566E-06 6.75290E-19 9.02555E-19
 -1      3255 1.03130E-04-3.46806E-05-2.92824E-05-7.28773E-06-1.38683E-19 5.05312E-19
 -1      3256 1.00607E-04-3.37174E-05-2.87199E-05-8.76308E-06-6.13628E-19 1.01534E-19
 -1      3257 1.09368E-04-4.07544E-05-2.94406E-05-3.67065E-06 1.63041E-18 1.76031E-18
 -1      3258 1.07297E-04-3.86798E-05-2.93292E-05-5.39797E-06 1.11238E-18 1.75311E-18
 -1      3259 1.04692E-04-3.80029E-05-2.86556E-05-7.83932E-06 4.38600E-19 5.27974E-19
 -1      3260 1.14699E-04-4.48227E-05-3.00057E-05 1.08951E-06 5.80290E-19 4.14647E-18
 -1      3261 1.12600E-04-4.31170E-05-2.96880E-05-1.59795E-06 1.36362E-18 3.41217E-18
 -1      3262 1.10366E-04-4.31456E-05-2.89084E-05-5.14120E-06 4.27391E-19 2.71254E-18
 -1      3263 1.19590E-04-4.65125E-05-3.13689E-05 8.34401E-06 5.76446E-19 4.89588E-18
 -1      3264 1.18359E-04-4.66010E-05-3.06726E-05 4.76017E-06 8.07878E-19 4.68310E-18
 -1      3265 1.17495E-04-4.80777E-05-2.98491E-05 2.07279E-08 4.66225E-19 4.35783E-18
 -1      3266 1.21376E-04-4.27169E-05-3.38560E-05 1.58274E-05 5.25902E-19 4.63648E-18
 -1      3267 1.21709E-04-4.54971E-05-3.27143E-05 1.28422E-05 3.76281E-19 4.95154E-18
 -1      3268 1.23682E-04-4.90030E-05-3.19283E-05 8.52818E-06 5.14831E-19 4.47077E-18
 -1      3269 1.13514E-04-1.92775E-05-4.06255E-05 1.64724E-05 5.36331E-19 1.79407E-18
 -1      3270 1.16963E-04-2.58627E-05-3.93999E-05 1.97912E-05 9.92286E-19 2.47049E-18
 -1      3271 1.13789E-04-1.51073E-05-4.24919E-05-1.81885E-07 1.86601E-18 1.48716E-18
 -1      3272 1.13558E-04-1.42221E-05-4.29774E-05 6.18366E-06 6.98273E-19 9.75610E-19
 -1      3273 1.15916E-04-1.96568E-05-4.16117E-05-5.33012E-06 1.79211E-18 1.10337E-18
 -1      3274 1.18499E-04-3.52590E-05-3.60100E-05-8.52537E-06-7.09853E-19-2.50709E-19
 -1      3275 1.16277E-04-2.93243E-05-3.72922E-05-8.81181E-06 9.26442E-20-8.46255E-19
 -1      3276 1.18439E-04-4.14561E-05-3.31153E-05-3.21220E-06-7.83734E-19 9.29440E-19
 -1      3277 1.18796E-04-3.90038E-05-3.41947E-05-5.60544E-06-1.26031E-18-3.60204E-19
 -1      3278 1.24236E-04-3.96777E-05-3.62420E-05-6.39731E-06-6.75588E-19-8.67190E-19
 -1      3279 1.16609E-04-4.24652E-05-3.18477E-05 2.58569E-06-8.35411E-19 1.80944E-18
 -1      3280 1.17462E-04-4.20600E-05-3.23493E-05-2.07402E-07-6.76045E-19 1.98442E-18
 -1      3281 1.23210E-04-4.50196E-05-3.35150E-05 1.94792E-08-1.60961E-18 3.76691E-19
 -1      3282 1.20015E-04-4.50747E-05-3.20888E-05 6.04769E-06-1.59918E-18 2.43781E-18
 -1      3283 1.21080E-04-4.79320E-05-3.14197E-05-1.21355E-05-3.40792E-19-3.17316E-18
 -1      3284 9.23696E-05-1.83414E-05-3.17415E-05 1.81067E-06 5.59950E-19-5.43254E-19
 -1      3285 9.22479E-05-1.81382E-05-3.17733E-05 1.05711E-06 4.29138E-19-4.49578E-19
 -1      3286 5.27547E-05-1.49815E-05-1.55209E-05-1.99519E-05 3.53107E-20 7.82870E-18
 -1      3287 1.02510E-04-4.38957E-05-2.49302E-05 4.11060E-05 1.70254E-19-3.33588E-18
 -1      3288 7.58969E-05-3.14862E-05-1.88042E-05-4.11400E-05 2.82242E-18 6.41342E-18
 -1      3289 9.33021E-05-4.00948E-05-2.20011E-05-4.43356E-05 3.43096E-18 3.28082E-18
 -1      3290 1.31916E-04-5.81329E-05-3.13264E-05 2.91111E-07-4.87759E-19 1.62429E-18
 -1      3291 1.32889E-04-5.52546E-05-3.37039E-05 6.77480E-06 2.44753E-19 1.67652E-18
 -1      3292 9.55004E-05-2.55756E-05-2.99569E-05-2.15744E-06-4.11196E-19-4.99056E-19
 -1      3293 9.55333E-05-2.62667E-05-2.96990E-05-1.32569E-06-3.82216E-19-5.02713E-19
 -1      3294 9.57121E-05-2.62051E-05-2.97896E-05-1.16984E-06-4.04530E-19-8.45669E-19
 -1      3295 1.06354E-04-4.83957E-05-2.48629E-05-4.12883E-05 1.63626E-18 2.65942E-19
 -1      3296 9.37055E-05-2.04134E-05-3.13891E-05-5.70958E-06-3.82334E-19-5.64198E-19
 -1      3297 1.18089E-04-5.40038E-05-2.73934E-05 3.74754E-05 1.25890E-19-2.92851E-18
 -1      3298 9.52135E-05-2.88028E-05-2.84606E-05-9.73077E-07 5.55510E-19 3.06711E-19
 -1      3299 9.51964E-05-2.87875E-05-2.84605E-05-1.02693E-06 2.25568E-19 5.90136E-19
 -1      3300 9.54705E-05-2.88871E-05-2.85377E-05-1.03433E-06 4.77053E-20 2.99613E-19
 -1      3301 9.54241E-05-2.89020E-05-2.85109E-05-9.41057E-07 5.09678E-19 2.10415E-19
 -1      3302 9.53695E-05-2.79569E-05-2.88949E-05-4.73822E-07 3.12912E-19 5.29675E-19
 -1      3303 9.54199E-05-2.76974E-05-2.90125E-05-1.40803E-07 3.23826E-19 7.08776E-19
 -1      3304 9.46224E-05-2.25313E-05-3.09044E-05-4.71034E-06-3.38664E-19-4.90556E-19
 -1      3305 9.50888E-05-2.43425E-05-3.03327E-05-2.96988E-06-3.38568E-19-4.57859E-19
 -1      3306 9.51703E-05-2.42148E-05-3.04014E-05-2.63651E-06-3.85302E-19-5.61739E-19
 -1      3307 9.38071E-05-2.09069E-05-3.12342E-05-4.41008E-06-2.46019E-19-6.45408E-19
 -1      3308 1.16279E-04-5.94310E-05-2.40495E-05-2.49371E-05-2.31563E-18 1.08859E-18
 -1      3309 1.25060E-04-6.01742E-05-2.79639E-05-1.34082E-05-1.69453E-18 1.83262E-18
 -1      3310 1.27476E-04-3.33461E-05-4.09638E-05-9.92167E-06 1.25305E-18 4.65603E-19
 -1      3311 1.31404E-04-3.90947E-05-3.97146E-05-7.33313E-06 3.84765E-19 1.08558E-18
 -1      3312 5.13092E-05-2.13930E-05-1.26815E-05 2.07122E-05 1.14244E-19-8.86843E-19
 -1      3313 4.37425E-05-1.61059E-05-1.13995E-05 8.60903E-06-8.00883E-19-3.56050E-18
 -1      3314 1.23182E-04-5.67391E-05-2.82841E-05-3.19869E-05-1.98523E-20-2.27792E-18
 -1      3315 1.32622E-04-5.99274E-05-3.13909E-05-2.27943E-05-1.71709E-19-2.51687E-18
 -1      3316 9.52131E-05-2.42802E-05-3.04024E-05 4.26899E-06 7.82755E-19 4.92600E-19
 -1      3317 9.46378E-05-2.27319E-05-3.08059E-05 4.77098E-06 8.06048E-19 3.11553E-19
 -1      3318 9.49117E-05-2.35895E-05-3.05669E-05 3.66533E-06 7.15952E-19 2.66243E-19
 -1      3319 9.52404E-05-2.52059E-05-3.00280E-05 2.99660E-06 6.39778E-19 4.60127E-19
 -1      3320 1.37125E-04-5.90795E-05-3.32746E-05-1.32021E-05-5.15903E-19-2.60341E-18
 -1      3321 1.37593E-04-5.30791E-05-3.65077E-05-2.35996E-06-2.47516E-18-3.70685E-18
 -1      3322 1.30591E-04-5.06776E-05-3.44176E-05-1.81113E-06-1.97218E-18-3.72194E-18
 -1      3323 1.30000E-04-5.60063E-05-3.18040E-05-1.65922E-05 2.66021E-21-1.70917E-18
 -1      3324 1.34420E-04-6.00248E-05-3.21900E-05 2.08972E-05 8.44518E-19-5.30137E-19
 -1      3325 1.26785E-04-5.80192E-05-2.92913E-05 3.01484E-05 3.08982E-19-1.71831E-18
 -1      3326 1.23020E-04-5.34040E-05-2.96699E-05 2.83873E-05-6.75218E-19-1.83556E-18
 -1      3327 1.34271E-04-5.62344E-05-3.34920E-05 1.30057E-05-8.09221E-19 2.48768E-18
 -1      3328 1.11228E-04-5.68435E-05-2.34412E-05 2.51140E-05 1.46028E-18-1.17036E-18
 -1      3329 9.58503E-05-4.79859E-05-2.02397E-05 2.95033E-05 2.09535E-19-5.69047E-19
 -1      3330 1.16678E-04-5.59894E-05-2.58486E-05 1.67465E-05 1.11803E-18-8.20495E-19
 -1      3331 1.31807E-04-4.74100E-05-3.61055E-05 1.53124E-05 9.76523E-19 3.20922E-18
 -1      3332 1.28831E-04-3.83933E-05-3.93694E-05 2.01817E-05 2.01430E-18 4.72790E-18
 -1      3333 8.77542E-05-4.35070E-05-1.83447E-05-3.29059E-05-2.33334E-18-9.01402E-19
 -1      3334 1.02556E-04-5.25298E-05-2.13850E-05-3.07144E-05-2.76217E-18 1.92806E-19
 -1      3335 1.05835E-04-5.14036E-05-2.31641E-05-2.46728E-05-1.86530E-18 8.67944E-20
 -1      3336 1.17930E-04-5.29557E-05-2.75741E-05-3.50958E-05 6.22516E-19-1.49645E-18
 -1      3337 1.20754E-04-5.14316E-05-2.96434E-05-2.68992E-05 4.71480E-19-2.29025E-18
 -1      3338 9.21907E-05-1.80395E-05-3.17916E-05 4.09463E-07 3.40773E-19-3.28092E-19
 -1      3339 9.21864E-05-1.80422E-05-3.17915E-05-3.62030E-07 2.67542E-19-3.34934E-19
 -1      3340 9.31398E-05-1.96203E-05-3.14907E-05 6.29327E-07 3.87642E-19-2.92279E-19
 -1      3341 9.43522E-05-2.19822E-05-3.09887E-05 3.64096E-06 7.16374E-19 1.20680E-19
 -1      3342 9.34289E-05-2.02126E-05-3.14041E-05 4.24128E-06 8.08786E-19 4.07661E-20
 -1      3343 9.30708E-05-1.95530E-05-3.15175E-05 3.65704E-06 7.49493E-19-5.05718E-20
 -1      3344 5.28157E-05-1.77979E-05-1.46874E-05-1.29173E-05-1.37649E-18-2.06570E-18
 -1      3345 5.24178E-05-2.00467E-05-1.32776E-05-1.93194E-05-1.12663E-18-1.95781E-18
 -1      3346 6.08907E-05-2.48740E-05-1.54060E-05-2.40635E-05-1.03071E-18-1.90725E-18
 -1      3347 1.17344E-04-1.84687E-05-4.29307E-05-1.62925E-05-2.71792E-18-9.18157E-19
 -1      3348 1.17408E-04-5.35771E-05-2.75243E-05 1.13460E-05 9.03175E-19 2.82300E-19
 -1      3349 1.22896E-04-5.41817E-05-2.92951E-05 4.09627E-06 7.19105E-19 1.38349E-18
 -1      3350 1.29716E-04-5.87003E-05-3.04506E-05 1.58947E-06 5.73071E-19 1.32778E-18
 -1      3351 1.27250E-04-5.59712E-05-3.05965E-05-3.68913E-07 6.78050E-19 2.00783E-18
 -1      3352 1.25725E-04-5.32608E-05-3.11555E-05 2.09264E-05-9.83710E-19-9.54183E-19
 -1      3353 1.27754E-04-5.11323E-05-3.27789E-05-6.40359E-06-1.59249E-18-4.89723E-18
 -1      3354 9.53491E-05-2.81738E-05-2.87806E-05-7.14645E-07 3.62683E-19 3.96676E-19
 -1      3355 9.56894E-05-2.80117E-05-2.90098E-05-4.74797E-07 4.64082E-19 4.68457E-19
 -1      3356 9.53176E-05-2.83389E-05-2.87070E-05-8.88459E-07 4.15611E-19 2.46699E-19
 -1      3357 9.31316E-05-1.96857E-05-3.14847E-05-3.39223E-06-1.83179E-19-6.17372E-19
 -1      3358 9.34594E-05-2.03123E-05-3.13752E-05-3.98203E-06-2.51932E-19-7.31100E-19
 -1      3359 9.44144E-05-2.21886E-05-3.09399E-05-3.18633E-06-2.63024E-19-6.62734E-19
 -1      3360 9.55840E-05-2.86829E-05-2.86753E-05-1.04269E-06 8.33975E-20 6.00784E-19
 -1      3361 9.52734E-05-2.85717E-05-2.85869E-05-1.07724E-06 1.93453E-19 3.31252E-19
 -1      3362 9.52846E-05-2.84674E-05-2.86303E-05-1.00703E-06 2.37139E-19 1.68226E-19
 -1      3363 1.21111E-04-3.96088E-05-3.51066E-05 1.91381E-05 9.73095E-19 4.12529E-18
 -1      3364 1.25801E-04-4.50421E-05-3.48338E-05 1.60785E-05 1.13817E-18 3.84643E-18
 -1      3365 1.18828E-04-3.40481E-05-3.63558E-05 1.95589E-05 6.51368E-19 3.58697E-18
 -1      3366 1.21596E-04-1.42781E-05-4.63959E-05 1.08546E-05 1.40353E-18 2.90331E-18
 -1      3367 1.23413E-04-2.35437E-05-4.31268E-05-7.51778E-06 1.73499E-18 1.85257E-18
 -1      3368 9.25379E-05-1.86320E-05-3.16855E-05 2.42153E-06 6.44724E-19-4.54001E-19
 -1      3369 9.33549E-05-2.00034E-05-3.14146E-05 1.80875E-06 6.11581E-19-3.66890E-19
 -1      3370 9.27791E-05-1.90529E-05-3.16182E-05 3.11312E-06 7.82542E-19-1.55706E-19
 -1      3371 9.28743E-05-1.92420E-05-3.15774E-05-2.87631E-06-1.54590E-19-6.30096E-19
 -1      3372 9.39243E-05-2.11245E-05-3.11827E-05-2.40316E-06-2.31335E-19-5.37080E-19
 -1      3373 9.26536E-05-1.88421E-05-3.16426E-05-2.17779E-06-6.77809E-20-5.16629E-19
 -1      3374 1.22738E-04-5.12693E-05-3.04501E-05-2.17899E-05 6.62525E-19-2.34896E-18
 -1      3375 1.24326E-04-5.71062E-05-2.89093E-05-7.23557E-06 1.33461E-19 7.42371E-19
 -1      3376 9.54260E-05-2.60345E-05-2.97293E-05 2.10583E-06 5.18455E-19 3.95699E-19
 -1      3377 9.53667E-05-2.53291E-05-3.00104E-05 2.49253E-06 5.67233E-19 3.74823E-19
 -1      3378 9.53664E-05-2.66185E-05-2.94728E-05 1.24842E-06 3.82515E-19 4.54374E-19
 -1      3379 9.53811E-05-2.74216E-05-2.91316E-05 1.90113E-07 2.45540E-19 7.43433E-19
 -1      3380 9.54457E-05-2.70342E-05-2.93073E-05 7.42856E-07 3.02869E-19 6.50053E-19
 -1      3381 9.55664E-05-2.66218E-05-2.95493E-05 1.05093E-06 2.45438E-19 7.22003E-19
 -1      3382 9.56701E-05-2.74196E-05-2.92563E-05 1.48206E-07 2.59727E-19 6.75329E-19
 -1      3383 6.25145E-05-2.41839E-05-1.60402E-05 2.08505E-05-1.82747E-19 1.54584E-20
 -1      3384 8.93247E-05-4.20787E-05-1.99490E-05 2.86252E-05-3.28278E-19 2.65545E-19
 -1      3385 8.28395E-05-3.52569E-05-2.03016E-05 2.54616E-05 1.80868E-19-2.29784E-19
 -1      3386 9.85156E-05-4.52552E-05-2.29112E-05 2.36870E-05 1.63788E-19-7.28978E-19
 -1      3387 1.31927E-04-4.56332E-05-3.72894E-05-3.44877E-06-5.92314E-19 8.25037E-19
 -1      3388 4.95078E-05-1.60388E-05-1.38509E-05 3.83486E-06-1.17793E-18-2.35639E-18
 -1      3389 1.25685E-04-5.15859E-05-3.18324E-05-1.40584E-05 3.72125E-19-2.72641E-18
 -1      3390 8.02842E-05-3.75374E-05-1.81312E-05-3.02349E-05-1.76649E-18-7.95735E-19
 -1      3391 9.60348E-05-2.69153E-05-2.96141E-05-4.48542E-07-4.60741E-19-7.84005E-19
 -1      3392 9.60837E-05-2.74088E-05-2.94398E-05-3.50034E-08-4.63425E-19-6.57191E-19
 -1      3393 1.09453E-04-4.97915E-05-2.52213E-05 1.82716E-05 8.37567E-19-1.06937E-18
 -1      3394 9.61666E-05-2.78304E-05-2.92793E-05 2.43935E-07-4.23318E-19-6.99729E-19
 -1      3395 9.61621E-05-2.81500E-05-2.91527E-05 4.95413E-07-3.42501E-19-6.09321E-19
 -1      3396 9.62694E-05-2.74614E-05-2.94896E-05 1.28346E-08-4.23707E-19-5.75103E-19
 -1      3397 9.61716E-05-2.84138E-05-2.90333E-05 6.55911E-07-1.71544E-19-5.90045E-19
 -1      3398 9.61419E-05-2.86124E-05-2.89436E-05 7.89901E-07 5.15257E-20-3.65386E-19
 -1      3399 9.63621E-05-2.82234E-05-2.92039E-05 4.72114E-07-1.47804E-19-3.31045E-19
 -1      3400 9.61094E-05-2.87674E-05-2.88569E-05 8.65007E-07 1.74804E-19-3.02752E-19
 -1      3401 9.60694E-05-2.88827E-05-2.87951E-05 9.18305E-07 1.02429E-19-2.72328E-19
 -1      3402 9.63409E-05-2.86975E-05-2.89921E-05 7.26667E-07 1.15820E-19-1.87373E-19
 -1      3403 9.60150E-05-2.89633E-05-2.87338E-05 9.35743E-07 9.82417E-20-4.49339E-19
 -1      3404 9.59726E-05-2.90218E-05-2.86930E-05 9.37036E-07 4.09064E-20 6.25092E-20
 -1      3405 9.62565E-05-2.89707E-05-2.88390E-05 8.35967E-07 1.05772E-19-3.94415E-19
 -1      3406 9.59091E-05-2.90525E-05-2.86513E-05 9.18564E-07-1.36339E-19 9.71131E-20
 -1      3407 9.58684E-05-2.90726E-05-2.86259E-05 8.89203E-07-3.91623E-19 2.21214E-19
 -1      3408 9.61410E-05-2.91058E-05-2.87315E-05 8.49225E-07 9.10491E-20-3.68276E-19
 -1      3409 9.58033E-05-2.90704E-05-2.85991E-05 8.51051E-07-7.06935E-19 3.93578E-19
 -1      3410 9.57662E-05-2.90650E-05-2.85851E-05 8.06476E-07-4.33083E-19 5.02490E-19
 -1      3411 9.60147E-05-2.91477E-05-2.86592E-05 8.04492E-07-4.17791E-19 3.89161E-20
 -1      3412 9.57039E-05-2.90416E-05-2.85694E-05 7.60379E-07-2.48577E-19 4.40600E-19
 -1      3413 9.56712E-05-2.90194E-05-2.85637E-05 7.11554E-07-2.15181E-19 1.65395E-19
 -1      3414 9.58893E-05-2.91280E-05-2.86136E-05 7.29958E-07-4.25873E-19 2.05175E-19
 -1      3415 9.56135E-05-2.89824E-05-2.85564E-05 6.65842E-07-2.32542E-19 1.29580E-20
 -1      3416 9.55850E-05-2.89490E-05-2.85569E-05 6.20525E-07-1.20341E-19-1.63840E-20
 -1      3417 9.57709E-05-2.90681E-05-2.85883E-05 6.45966E-07-3.49922E-19-2.88672E-19
 -1      3418 9.55322E-05-2.89029E-05-2.85560E-05 5.81149E-07-1.89571E-19 1.09655E-19
 -1      3419 9.55072E-05-2.88614E-05-2.85610E-05 5.44959E-07-3.49105E-19 2.34062E-19
 -1      3420 9.56618E-05-2.89817E-05-2.85783E-05 5.67064E-07 2.76120E-20-2.67370E-19
 -1      3421 9.54583E-05-2.88084E-05-2.85650E-05 5.16341E-07-6.09984E-19 2.38161E-19
 -1      3422 9.54359E-05-2.87603E-05-2.85738E-05 4.93566E-07-6.82238E-19 4.05153E-19
 -1      3423 9.55612E-05-2.88764E-05-2.85800E-05 5.03881E-07-5.93897E-19 3.05328E-19
 -1      3424 9.53891E-05-2.87008E-05-2.85817E-05 4.79211E-07-9.99064E-19 4.31166E-19
 -1      3425 9.53678E-05-2.86460E-05-2.85935E-05 4.73448E-07-1.37170E-18 5.55176E-19
 -1      3426 9.54664E-05-2.87554E-05-2.85910E-05 4.64536E-07-6.88411E-19 1.23807E-19
 -1      3427 9.53204E-05-2.85790E-05-2.86048E-05 4.76478E-07-1.26378E-18 8.11115E-19
 -1      3428 9.52987E-05-2.85163E-05-2.86194E-05 4.91143E-07-7.38698E-19 6.30201E-19
 -1      3429 9.53731E-05-2.86185E-05-2.86094E-05 4.55756E-07-1.11282E-18 8.73329E-19
 -1      3430 9.52474E-05-2.84397E-05-2.86335E-05 5.14723E-07-3.33473E-20 4.80091E-19
 -1      3431 9.52232E-05-2.83672E-05-2.86508E-05 5.53423E-07 3.33779E-19 7.01928E-19
 -1      3432 9.52752E-05-2.84624E-05-2.86340E-05 4.83864E-07-3.76020E-19 1.49152E-18
 -1      3433 9.51639E-05-2.82780E-05-2.86674E-05 6.01034E-07 2.07218E-20 7.95320E-19
 -1      3434 9.51350E-05-2.81930E-05-2.86875E-05 6.67799E-07 1.55434E-19 8.14710E-19
 -1      3435 9.51655E-05-2.82821E-05-2.86640E-05 5.55447E-07 2.60566E-19 1.14524E-18
 -1      3436 9.50630E-05-2.80877E-05-2.87062E-05 7.43395E-07 3.75431E-19 7.30539E-19
 -1      3437 9.50266E-05-2.79871E-05-2.87291E-05 8.42800E-07 4.21494E-19 8.24273E-19
 -1      3438 9.50353E-05-2.80706E-05-2.86984E-05 6.77765E-07 1.82759E-19 4.80880E-19
 -1      3439 9.49363E-05-2.78617E-05-2.87494E-05 9.50882E-07 1.91871E-19 8.29569E-19
 -1      3440 9.48892E-05-2.77426E-05-2.87748E-05 1.08805E-06 4.49588E-19 3.41843E-19
 -1      3441 9.48744E-05-2.78202E-05-2.87362E-05 8.58957E-07 3.72797E-19 1.08693E-18
 -1      3442 9.47742E-05-2.75932E-05-2.87958E-05 1.23363E-06 6.64838E-19-1.58803E-20
 -1      3443 9.47128E-05-2.74529E-05-2.88231E-05 1.41410E-06 2.16652E-19-8.44818E-20
 -1      3444 9.46708E-05-2.75229E-05-2.87758E-05 1.10806E-06 3.53936E-19 8.51957E-19
 -1      3445 9.45659E-05-2.72762E-05-2.88433E-05 1.60257E-06 6.71621E-20-2.94473E-19
 -1      3446 9.44861E-05-2.71128E-05-2.88714E-05 1.83200E-06-1.52844E-20-2.06084E-19
 -1      3447 9.44113E-05-2.71712E-05-2.88145E-05 1.43482E-06-3.66803E-21-1.44338E-19
 -1      3448 9.42995E-05-2.69069E-05-2.88885E-05 2.06889E-06-1.91512E-19 5.71006E-20
 -1      3449 9.41972E-05-2.67210E-05-2.89152E-05 2.35265E-06 2.26755E-19 9.55925E-20
 -1      3450 9.40809E-05-2.67598E-05-2.88482E-05 1.84931E-06 9.70866E-20-3.09427E-19
 -1      3451 9.39630E-05-2.64864E-05-2.89257E-05 2.64341E-06 1.69504E-19-1.17243E-19
 -1      3452 9.38350E-05-2.62820E-05-2.89478E-05 2.98601E-06-7.20102E-20-5.13762E-20
 -1      3453 9.36642E-05-2.62878E-05-2.88707E-05 2.36144E-06-2.10170E-20 1.37633E-19
 -1      3454 9.35460E-05-2.60242E-05-2.89464E-05 3.33587E-06 4.51472E-19 1.35155E-19
 -1      3455 9.33911E-05-2.58114E-05-2.89589E-05 3.74042E-06 1.05988E-18 6.58855E-19
 -1      3456 9.31460E-05-2.57615E-05-2.88728E-05 2.98066E-06 5.13941E-19 2.28610E-19
 -1      3457 9.30428E-05-2.55431E-05-2.89383E-05 4.15465E-06 7.62335E-19 5.74292E-19
 -1      3458 9.28653E-05-2.53423E-05-2.89340E-05 4.62252E-06 5.57867E-19 9.69857E-19
 -1      3459 9.25142E-05-2.51995E-05-2.88415E-05 3.71625E-06 9.11339E-19 2.91998E-19
 -1      3460 9.24586E-05-2.50884E-05-2.88842E-05 5.10749E-06 5.18842E-19 9.63371E-19
 -1      3461 9.22733E-05-2.49353E-05-2.88534E-05 5.63849E-06 5.32897E-19 1.07735E-18
 -1      3462 9.17645E-05-2.46393E-05-2.87588E-05 4.57900E-06 7.19406E-19 1.06601E-18
 -1      3463 9.18199E-05-2.47389E-05-2.87615E-05 6.20430E-06 7.46506E-20 1.10715E-18
 -1      3464 9.16612E-05-2.46937E-05-2.86920E-05 6.79777E-06 2.40592E-19 1.07614E-18
 -1      3465 9.09072E-05-2.41478E-05-2.86010E-05 5.58562E-06 6.02455E-19 9.68405E-19
 -1      3466 9.11924E-05-2.46256E-05-2.85421E-05 7.46286E-06 4.20783E-20 9.90645E-19
 -1      3467 9.11293E-05-2.47845E-05-2.84202E-05 8.11959E-06 5.05043E-19 8.33760E-19
 -1      3468 8.99813E-05-2.38355E-05-2.83381E-05 6.76753E-06 1.10260E-20 1.52844E-18
 -1      3469 9.07104E-05-2.49552E-05-2.81942E-05 8.91751E-06 1.15975E-19-5.43449E-20
 -1      3470 9.08694E-05-2.54664E-05-2.80075E-05 9.64081E-06-1.19115E-19-2.88089E-19
 -1      3471 8.90751E-05-2.38775E-05-2.79344E-05 8.18510E-06-2.18695E-19 3.04230E-19
 -1      3472 9.06254E-05-2.60431E-05-2.76885E-05 1.06272E-05 2.28781E-19 2.31052E-19
 -1      3473 9.12244E-05-2.71259E-05-2.74329E-05 1.14161E-05 5.21772E-20 7.94161E-19
 -1      3474 8.83637E-05-2.45435E-05-2.73518E-05 9.94721E-06 5.17788E-19 4.96695E-19
 -1      3475 9.13909E-05-2.83628E-05-2.70117E-05 1.26640E-05 1.87252E-19 3.13612E-19
 -1      3476 9.27718E-05-3.03125E-05-2.67068E-05 1.34680E-05-4.94075E-21 4.07459E-19
 -1      3477 8.81761E-05-2.62470E-05-2.65577E-05 1.22257E-05 9.87008E-20 5.25071E-19
 -1      3478 9.37885E-05-3.25617E-05-2.62016E-05 1.50353E-05-3.69531E-19 1.08319E-19
 -1      3479 9.66042E-05-3.58033E-05-2.59589E-05 1.55837E-05-1.98275E-20 5.48388E-20
 -1      3480 8.91454E-05-2.95958E-05-2.55471E-05 1.52223E-05-4.96527E-19-2.04264E-19
 -1      3481 9.79502E-05-3.95833E-05-2.48842E-05 1.85296E-05-7.94259E-20-2.73418E-19
 -1      3482 1.02559E-04-4.44603E-05-2.47827E-05 1.87866E-05-1.23349E-19-6.68840E-19
 -1      3483 1.21818E-04-1.42792E-05-4.67062E-05-1.32931E-05-2.51071E-18-1.03620E-18
 -1      3484 9.54325E-05-2.88329E-05-2.85412E-05-5.80031E-07 1.61547E-19 6.40124E-19
 -1      3485 9.54449E-05-2.88658E-05-2.85345E-05-6.21438E-07 2.07336E-19 6.64605E-19
 -1      3486 9.54872E-05-2.89046E-05-2.85340E-05-6.66143E-07 1.67808E-20 5.23301E-19
 -1      3487 9.55023E-05-2.89301E-05-2.85313E-05-7.16490E-07 1.40870E-19 2.52791E-19
 -1      3488 9.55837E-05-2.89485E-05-2.85590E-05-6.21678E-07-4.31882E-20 5.63137E-19
 -1      3489 9.55493E-05-2.89605E-05-2.85367E-05-7.67234E-07 4.64123E-19 1.21841E-19
 -1      3490 9.55678E-05-2.89754E-05-2.85395E-05-8.20629E-07 2.80635E-19 3.11191E-19
 -1      3491 9.56716E-05-2.90207E-05-2.85660E-05-7.11661E-07 2.79562E-19 9.78059E-19
 -1      3492 9.53838E-05-2.87492E-05-2.85562E-05-5.18036E-07-1.79523E-19 1.33663E-18
 -1      3493 9.53942E-05-2.87881E-05-2.85463E-05-5.46120E-07-1.51142E-19 9.68946E-19
 -1      3494 9.55040E-05-2.88589E-05-2.85630E-05-5.47303E-07-7.18738E-20 6.56490E-19
 -1      3495 9.53389E-05-2.86544E-05-2.85775E-05-4.87499E-07-1.05663E-20 1.41090E-18
 -1      3496 9.53480E-05-2.86990E-05-2.85649E-05-4.98626E-07 4.51390E-20 1.40146E-18
 -1      3497 9.54304E-05-2.87554E-05-2.85756E-05-4.97223E-07-2.56899E-19 5.95819E-19
 -1      3498 9.52950E-05-2.85475E-05-2.86044E-05-4.95065E-07-4.33474E-20 1.32993E-18
 -1      3499 9.53035E-05-2.85982E-05-2.85893E-05-4.85867E-07 6.19907E-20 1.42532E-18
 -1      3500 9.53596E-05-2.86384E-05-2.85952E-05-4.78655E-07-9.99052E-21 1.47119E-18
 -1      3501 9.52486E-05-2.84255E-05-2.86367E-05-5.47455E-07-7.07440E-21 8.95426E-19
 -1      3502 9.52576E-05-2.84837E-05-2.86189E-05-5.14438E-07-1.07465E-19 9.48553E-19
 -1      3503 9.52873E-05-2.85060E-05-2.86207E-05-4.98219E-07 1.95001E-19 8.08592E-19
 -1      3504 9.51961E-05-2.82846E-05-2.86743E-05-6.52068E-07 5.98689E-20 1.70535E-18
 -1      3505 9.52064E-05-2.83521E-05-2.86537E-05-5.91352E-07 2.46054E-19 1.41697E-18
 -1      3506 9.52081E-05-2.83543E-05-2.86515E-05-5.62694E-07-2.38711E-19 9.55049E-19
 -1      3507 9.51332E-05-2.81205E-05-2.87174E-05-8.17300E-07-3.72302E-19 2.09139E-18
 -1      3508 9.51458E-05-2.81990E-05-2.86937E-05-7.24502E-07-1.84252E-19 1.75693E-18
 -1      3509 9.51160E-05-2.81784E-05-2.86872E-05-6.79576E-07-3.76811E-19 1.71208E-18
 -1      3510 9.50553E-05-2.79290E-05-2.87657E-05-1.05260E-06-1.56548E-20 1.63694E-18
 -1      3511 9.50712E-05-2.80202E-05-2.87389E-05-9.22853E-07-1.52363E-19 1.80231E-18
 -1      3512 9.50043E-05-2.79729E-05-2.87270E-05-8.57326E-07-3.77725E-20 1.69652E-18
 -1      3513 9.49580E-05-2.77074E-05-2.88185E-05-1.36825E-06-1.37388E-19 1.83236E-18
 -1      3514 9.49779E-05-2.78119E-05-2.87888E-05-1.19639E-06-4.41428E-20 1.70440E-18
 -1      3515 9.48657E-05-2.77330E-05-2.87701E-05-1.10542E-06-5.45884E-20 1.13197E-18
 -1      3516 9.48372E-05-2.74554E-05-2.88743E-05-1.77484E-06-5.52343E-19 1.53567E-18
 -1      3517 9.48615E-05-2.75723E-05-2.88423E-05-1.55576E-06-2.44014E-19 2.08365E-18
 -1      3518 9.46928E-05-2.74552E-05-2.88146E-05-1.43416E-06-2.67606E-19 1.73311E-18
 -1      3519 9.46907E-05-2.71775E-05-2.89301E-05-2.28233E-06-4.45498E-19 1.02496E-18
 -1      3520 9.47185E-05-2.73033E-05-2.88970E-05-2.01163E-06-4.70539E-19 1.17374E-18
 -1      3521 9.44788E-05-2.71397E-05-2.88576E-05-1.85422E-06-3.70092E-19 9.85711E-19
 -1      3522 9.45202E-05-2.68866E-05-2.89811E-05-2.89872E-06 2.51111E-19 3.58532E-19
 -1      3523 9.45483E-05-2.70131E-05-2.89492E-05-2.57357E-06 5.17249E-20 8.78850E-19
 -1      3524 9.42191E-05-2.67927E-05-2.88946E-05-2.37601E-06 1.58685E-19-1.84483E-19
 -1      3525 9.43341E-05-2.66078E-05-2.90202E-05-3.62838E-06-3.34017E-19 6.98566E-19
 -1      3526 9.43557E-05-2.67201E-05-2.89928E-05-3.24867E-06-5.58389E-20 3.65586E-19
 -1      3527 9.39135E-05-2.64297E-05-2.89187E-05-3.00875E-06-1.33036E-19 2.50235E-19
 -1      3528 9.41540E-05-2.63859E-05-2.90373E-05-4.46990E-06-3.27934E-19 7.37693E-19
 -1      3529 9.41549E-05-2.64582E-05-2.90194E-05-4.03977E-06-6.16852E-19 5.54866E-19
 -1      3530 9.35704E-05-2.60816E-05-2.89206E-05-3.75972E-06-4.62416E-19-7.19914E-20
 -1      3531 9.40233E-05-2.62938E-05-2.90195E-05-5.41380E-06 1.25241E-19 1.19044E-18
 -1      3532 9.39773E-05-2.62851E-05-2.90173E-05-4.94342E-06 2.22819E-19 1.53370E-18
 -1      3533 9.32128E-05-2.58014E-05-2.88879E-05-4.63356E-06-4.56351E-19 7.29512E-19
 -1      3534 9.40208E-05-2.64449E-05-2.89518E-05-6.43952E-06-8.84476E-20 2.62384E-19
 -1      3535 9.38826E-05-2.62926E-05-2.89723E-05-5.94750E-06 2.46389E-19 1.29155E-18
 -1      3536 9.28892E-05-2.56744E-05-2.88051E-05-5.63222E-06 3.39449E-19 1.06368E-18
 -1      3537 9.42805E-05-2.70070E-05-2.88194E-05-7.51066E-06-9.66917E-19-6.55870E-20
 -1      3538 9.39753E-05-2.66196E-05-2.88690E-05-7.02781E-06-8.65198E-19-1.35893E-19
 -1      3539 9.26880E-05-2.58318E-05-2.86549E-05-6.75495E-06-1.73656E-20 7.40682E-19
 -1      3540 9.50181E-05-2.82149E-05-2.86139E-05-8.56408E-06-8.40732E-19 3.82725E-19
 -1      3541 9.44301E-05-2.74672E-05-2.86948E-05-8.14068E-06-1.11223E-18 3.29056E-19
 -1      3542 9.27617E-05-2.64664E-05-2.84217E-05-7.99667E-06-1.28288E-18 1.16125E-19
 -1      3543 9.65577E-05-3.03716E-05-2.83451E-05-9.48418E-06-8.99429E-19 5.53090E-19
 -1      3544 9.55213E-05-2.91080E-05-2.84484E-05-9.20503E-06-4.98736E-19 1.08813E-18
 -1      3545 9.33588E-05-2.78489E-05-2.80982E-05-9.33803E-06-6.64030E-19-1.95144E-19
 -1      3546 9.93503E-05-3.38109E-05-2.80627E-05-1.00421E-05-9.82939E-19 8.24551E-19
 -1      3547 9.76536E-05-3.18757E-05-2.81562E-05-1.00585E-05-1.29549E-18 3.22952E-19
 -1      3548 9.48663E-05-3.03358E-05-2.76998E-05-1.07130E-05-1.02568E-18 5.15836E-19
 -1      3549 1.03937E-04-3.87825E-05-2.78984E-05-9.77842E-06-1.45650E-20 1.40808E-18
 -1      3550 1.01371E-04-3.61135E-05-2.79036E-05-1.03819E-05-1.94666E-19 1.03813E-18
 -1      3551 9.78304E-05-3.43132E-05-2.72927E-05-1.19315E-05-1.31422E-18 7.95281E-19
 -1      3552 1.10880E-04-4.50150E-05-2.81648E-05-7.67142E-06-6.72407E-20 2.43822E-18
 -1      3553 1.07316E-04-4.19647E-05-2.79001E-05-9.46705E-06-1.36993E-19 1.31841E-18
 -1      3554 1.03054E-04-4.01593E-05-2.70447E-05-1.25603E-05-4.09885E-20 2.94665E-19
 -1      3555 1.27628E-04-5.09833E-05-3.27736E-05 9.25919E-06 8.23098E-19 2.68025E-18
 -1      3556 1.25449E-04-5.28054E-05-3.11560E-05 3.95787E-06 4.45950E-19 3.08934E-18
 -1      3557 1.24216E-04-3.27111E-05-3.94289E-05 2.07407E-05 2.11303E-18 3.87978E-18
 -1      3558 5.43897E-05-1.65406E-05-1.61545E-05 7.86488E-06-6.33051E-19-1.95739E-18
 -1      3559 5.26901E-05-1.54929E-05-1.57426E-05-1.72390E-06-1.45024E-18-2.37164E-18
 -1      3560 1.24759E-04-5.03718E-05-3.18005E-05 1.50217E-05-2.31701E-18-5.92930E-19
 -1      3561 1.22802E-04-4.81023E-05-3.20877E-05 1.00063E-05-2.53170E-18 1.25858E-18
 -1      3562 1.24896E-04-4.86709E-05-3.27003E-05 7.22294E-06-2.33571E-18 5.25549E-19
 -1      3563 1.29450E-04-5.44605E-05-3.21045E-05 1.60742E-05-1.64389E-18 4.32318E-19
 -1      3564 1.28008E-04-4.82473E-05-3.41832E-05 1.27486E-05 6.19896E-19 2.88957E-18
 -1      3565 9.56737E-05-2.55244E-05-3.00613E-05-1.50343E-06-5.33641E-19-5.57643E-19
 -1      3566 9.58297E-05-2.62619E-05-2.98251E-05-8.75935E-07-5.59551E-19-8.83934E-19
 -1      3567 9.59902E-05-2.62986E-05-2.98663E-05-7.13542E-07-5.32156E-19-5.74905E-19
 -1      3568 1.15466E-04-5.44665E-05-2.60619E-05-1.70591E-05-6.64180E-19-1.21782E-18
 -1      3569 1.22039E-04-5.40982E-05-2.91277E-05-4.97228E-06 4.78673E-19-2.08238E-19
 -1      3570 1.18033E-04-5.11526E-05-2.86608E-05-5.31906E-06 2.51767E-19 1.04859E-18
 -1      3571 9.23219E-05-1.82662E-05-3.17482E-05-9.25982E-07 2.02180E-19-4.34913E-19
 -1      3572 9.24288E-05-1.84631E-05-3.17175E-05-1.67543E-06 5.15093E-20-3.66340E-19
 -1      3573 9.35294E-05-2.03397E-05-3.13490E-05-1.48850E-06-3.60868E-20-3.37618E-19
 -1      3574 9.32161E-05-1.97537E-05-3.14656E-05-5.06104E-07 2.32602E-19-3.30030E-19
 -1      3575 1.29673E-04-4.81333E-05-3.49246E-05 7.02559E-07-6.93376E-19 4.47538E-19
 -1      3576 9.53378E-05-2.47675E-05-3.02424E-05 2.76380E-06 5.88328E-19 3.55235E-19
 -1      3577 9.50564E-05-2.39358E-05-3.04875E-05 2.99493E-06 5.61319E-19 2.68010E-19
 -1      3578 9.54766E-05-2.56093E-05-2.99486E-05 1.86374E-06 4.40880E-19 3.58187E-19
 -1      3579 6.98492E-05-2.59599E-05-1.87745E-05 2.11023E-05-1.13274E-19 4.42575E-19
 -1      3580 6.05785E-05-1.96381E-05-1.72101E-05 1.49837E-05-2.84153E-19-4.60362E-19
 -1      3581 1.04289E-04-4.81444E-05-2.40365E-05-2.18240E-05-1.05542E-18-9.63460E-19
 -1      3582 9.57780E-05-2.89330E-05-2.86476E-05-1.00883E-06 2.61467E-19 5.48657E-19
 -1      3583 9.58085E-05-2.88726E-05-2.86840E-05-1.00652E-06 3.80505E-19 7.68397E-19
 -1      3584 7.27565E-05-3.02386E-05-1.76861E-05-2.72516E-05-1.08415E-18-1.34009E-18
 -1      3585 8.55163E-05-3.76268E-05-2.05320E-05-2.66718E-05-1.10551E-18-1.15390E-18
 -1      3586 1.28849E-04-4.96881E-05-3.40085E-05 4.00797E-06-2.00107E-18 1.20467E-18
 -1      3587 9.48118E-05-2.32894E-05-3.06600E-05 2.77855E-06 4.91229E-19 1.71216E-19
 -1      3588 5.48558E-05-1.61712E-05-1.62944E-05-7.00275E-06-1.59113E-18-2.52501E-18
 -1      3589 5.91934E-05-1.87101E-05-1.73707E-05-1.31482E-05-7.88384E-19-2.61635E-18
 -1      3590 5.96075E-05-1.64416E-05-1.83062E-05-3.11849E-06-7.67743E-19-2.28855E-18
 -1      3591 1.31866E-04-5.29401E-05-3.40050E-05 7.76134E-06-2.37045E-18 1.33735E-18
 -1      3592 9.09727E-05-3.54074E-05-2.38101E-05 2.00212E-05-2.89861E-19-6.11650E-19
 -1      3593 9.56439E-05-2.84308E-05-2.88097E-05-8.64553E-07 3.12114E-19 2.18191E-19
 -1      3594 9.58570E-05-2.87933E-05-2.87424E-05-9.83294E-07-1.18095E-19 6.55058E-19
 -1      3595 9.58898E-05-2.86803E-05-2.87996E-05-9.24110E-07-1.39469E-19 5.31829E-19
 -1      3596 9.60791E-05-2.88881E-05-2.87987E-05-9.13812E-07 3.64291E-20 3.92260E-19
 -1      3597 1.14002E-04-4.83539E-05-2.80391E-05-8.10622E-06-1.82800E-19 9.35918E-19
 -1      3598 1.09592E-04-4.72189E-05-2.68133E-05-1.34107E-05-1.41717E-19-1.67447E-18
 -1      3599 6.26772E-05-1.85426E-05-1.87115E-05 9.70291E-06-6.10750E-19-6.64894E-19
 -1      3600 9.37991E-05-2.08048E-05-3.12536E-05 2.86487E-06 6.59762E-19-5.63370E-20
 -1      3601 9.38653E-05-2.10514E-05-3.12177E-05 8.09250E-07 4.98352E-19-1.25435E-19
 -1      3602 9.38152E-05-2.09559E-05-3.12365E-05 2.46888E-07 3.86201E-19-2.83403E-19
 -1      3603 9.58902E-05-2.73690E-05-2.93715E-05 1.12631E-07 3.56986E-19 2.00652E-19
 -1      3604 9.58453E-05-2.69835E-05-2.95027E-05 4.89560E-07 2.27171E-19 2.83501E-19
 -1      3605 6.84335E-05-2.59489E-05-1.80310E-05-2.23140E-05-8.39807E-19-1.76487E-18
 -1      3606 8.57792E-05-3.31886E-05-2.24899E-05 2.07580E-05-6.55991E-19-1.23918E-18
 -1      3607 7.73605E-05-2.92225E-05-2.03826E-05 2.20264E-05-3.54549E-19-3.28225E-19
 -1      3608 7.42772E-05-2.48715E-05-2.11930E-05 1.75191E-05-9.73790E-19-1.62710E-19
 -1      3609 8.50396E-05-2.97610E-05-2.37715E-05 1.76977E-05-1.53349E-18-5.65206E-19
 -1      3610 9.56194E-05-2.89932E-05-2.85529E-05-8.70893E-07 3.87213E-19 2.22123E-19
 -1      3611 9.56419E-05-2.89924E-05-2.85633E-05-9.19128E-07 4.34681E-19 2.05114E-19
 -1      3612 9.57685E-05-2.90678E-05-2.85876E-05-8.05564E-07 3.15915E-19 3.51818E-19
 -1      3613 9.49182E-05-2.33828E-05-3.06678E-05-2.71065E-06-3.00612E-19-6.98573E-19
 -1      3614 9.53624E-05-2.46767E-05-3.02971E-05-1.92202E-06-3.77809E-19-6.07942E-19
 -1      3615 9.54722E-05-2.47130E-05-3.03186E-05-1.59185E-06-4.74835E-19-6.68711E-19
 -1      3616 9.46606E-05-2.27390E-05-3.08173E-05-2.44731E-06-2.97318E-19-6.41774E-19
 -1      3617 9.59348E-05-2.80830E-05-2.90842E-05-4.98302E-07 4.46825E-19 3.29472E-19
 -1      3618 9.59535E-05-2.77789E-05-2.92083E-05-2.22024E-07 4.29724E-19 2.66182E-19
 -1      3619 9.60849E-05-2.74008E-05-2.94384E-05 5.85607E-08 4.79032E-19-3.23200E-21
 -1      3620 9.43106E-05-2.19303E-05-3.10206E-05-1.72876E-06-1.51176E-19-3.88363E-19
 -1      3621 9.44900E-05-2.23522E-05-3.09287E-05-2.14355E-06-2.39104E-19-4.01153E-19
 -1      3622 9.50057E-05-2.34346E-05-3.06679E-05-1.73681E-06-3.53587E-19-4.30879E-19
 -1      3623 9.41018E-05-2.15325E-05-3.11189E-05 1.77801E-06 6.58517E-19-4.26632E-19
 -1      3624 9.39541E-05-2.12266E-05-3.11767E-05 1.24452E-06 5.37689E-19-3.23075E-19
 -1      3625 9.46124E-05-2.23907E-05-3.09340E-05 8.31346E-07 4.87278E-19-1.59743E-19
 -1      3626 9.60628E-05-4.25511E-05-2.26881E-05-2.44850E-05-8.73317E-19-5.60749E-19
 -1      3627 1.04870E-04-4.56415E-05-2.52765E-05-1.78343E-05-3.34744E-19-1.66702E-18
 -1      3628 1.01837E-04-4.22225E-05-2.55686E-05-1.65854E-05 2.98983E-19-8.32210E-19
 -1      3629 8.74090E-05-3.60577E-05-2.20714E-05-2.31512E-05-5.62364E-19-1.01350E-18
 -1      3630 9.57233E-05-2.89657E-05-2.86088E-05-9.91041E-07 1.18572E-19 3.28175E-19
 -1      3631 9.59793E-05-2.90268E-05-2.86962E-05-9.34024E-07 4.34348E-19 4.18682E-19
 -1      3632 9.56967E-05-2.89904E-05-2.85876E-05-9.59717E-07 2.19349E-19 6.74912E-20
 -1      3633 9.63417E-05-2.71027E-05-2.96686E-05-1.82637E-07-4.15765E-19-1.47779E-19
 -1      3634 9.64275E-05-2.76030E-05-2.95024E-05 1.14046E-07-3.08289E-19-2.13815E-19
 -1      3635 9.54706E-05-2.87528E-05-2.85920E-05-4.53441E-07-1.62982E-19 4.89336E-19
 -1      3636 9.55069E-05-2.88119E-05-2.85843E-05-4.69232E-07-2.70858E-19 2.64317E-19
 -1      3637 9.65181E-05-2.80239E-05-2.93499E-05 2.93460E-07-1.32043E-19-2.03188E-19
 -1      3638 9.65297E-05-2.83474E-05-2.92247E-05 4.73865E-07-5.05105E-20-1.48878E-19
 -1      3639 9.65725E-05-2.76994E-05-2.95160E-05 1.32760E-07-2.37563E-19 2.20977E-19
 -1      3640 9.65390E-05-2.86103E-05-2.91085E-05 5.73480E-07 9.46437E-20-8.64375E-20
 -1      3641 9.65080E-05-2.88076E-05-2.90163E-05 6.67818E-07 1.43632E-19-1.07986E-19
 -1      3642 9.66699E-05-2.84365E-05-2.92433E-05 4.24398E-07 7.89068E-20 1.00354E-20
 -1      3643 9.64678E-05-2.89583E-05-2.89298E-05 7.09597E-07 9.34879E-20-1.98303E-20
 -1      3644 9.64144E-05-2.90669E-05-2.88637E-05 7.44422E-07 9.85734E-20-5.31226E-20
 -1      3645 9.66385E-05-2.88891E-05-2.90368E-05 5.79965E-07 9.47930E-20 2.86653E-19
 -1      3646 9.63469E-05-2.91399E-05-2.88010E-05 7.47669E-07 2.75389E-19-3.24577E-20
 -1      3647 9.62839E-05-2.91876E-05-2.87552E-05 7.44299E-07 6.76258E-20-9.53128E-20
 -1      3648 9.65315E-05-2.91392E-05-2.88842E-05 6.39263E-07 1.57471E-19 2.46971E-19
 -1      3649 9.62042E-05-2.92080E-05-2.87114E-05 7.24192E-07-1.87561E-19-9.32796E-21
 -1      3650 9.61394E-05-2.92147E-05-2.86811E-05 6.98764E-07-3.60594E-19 1.80795E-19
 -1      3651 9.63855E-05-2.92491E-05-2.87747E-05 6.35848E-07 6.63585E-21-9.99968E-21
 -1      3652 9.60566E-05-2.92004E-05-2.86519E-05 6.66696E-07-5.44006E-19 1.33041E-19
 -1      3653 9.59943E-05-2.91799E-05-2.86335E-05 6.31102E-07-5.26192E-19-2.07001E-20
 -1      3654 9.62245E-05-2.92640E-05-2.86992E-05 5.95675E-07-3.77912E-19-5.22188E-20
 -1      3655 9.59138E-05-2.91432E-05-2.86157E-05 5.95368E-07-4.57637E-19 1.81772E-20
 -1      3656 9.58560E-05-2.91049E-05-2.86063E-05 5.58139E-07-3.43275E-19-1.59195E-19
 -1      3657 9.60628E-05-2.92163E-05-2.86502E-05 5.38261E-07-5.54278E-19 2.64571E-19
 -1      3658 9.57799E-05-2.90533E-05-2.85972E-05 5.24683E-07-2.20838E-20 1.20822E-19
 -1      3659 9.57269E-05-2.90028E-05-2.85947E-05 4.92013E-07-4.16631E-20 1.77878E-19
 -1      3660 9.59077E-05-2.91272E-05-2.86216E-05 4.77730E-07-1.16622E-19 5.43507E-19
 -1      3661 9.56553E-05-2.89408E-05-2.85923E-05 4.65236E-07-1.43855E-19 1.28165E-19
 -1      3662 9.56062E-05-2.88810E-05-2.85951E-05 4.41762E-07-3.27824E-19 3.80268E-19
 -1      3663 9.57615E-05-2.90100E-05-2.86089E-05 4.24437E-07-1.10360E-19 4.53975E-20
 -1      3664 9.55376E-05-2.88104E-05-2.85980E-05 4.24992E-07-6.09689E-19 3.95389E-19
 -1      3665 9.54905E-05-2.87422E-05-2.86051E-05 4.14335E-07-7.79261E-19 4.90499E-19
 -1      3666 9.56228E-05-2.88713E-05-2.86086E-05 3.86189E-07-2.61716E-19 7.04045E-20
 -1      3667 9.54220E-05-2.86626E-05-2.86121E-05 4.10279E-07-7.27460E-19 9.28223E-19
 -1      3668 9.53742E-05-2.85851E-05-2.86226E-05 4.15616E-07-5.77659E-19 1.32712E-18
 -1      3669 9.54872E-05-2.87133E-05-2.86178E-05 3.68978E-07-4.89453E-19 9.82941E-19
 -1      3670 9.53018E-05-2.84947E-05-2.86330E-05 4.26856E-07-5.73528E-19 1.49555E-18
 -1      3671 9.52501E-05-2.84057E-05-2.86463E-05 4.51321E-07-1.88871E-19 1.35834E-18
 -1      3672 9.53479E-05-2.85338E-05-2.86346E-05 3.78031E-07-5.02302E-19 1.40842E-18
 -1      3673 9.51687E-05-2.83013E-05-2.86592E-05 4.80562E-07 1.58280E-19 8.08296E-19
 -1      3674 9.51089E-05-2.81977E-05-2.86750E-05 5.27467E-07 1.70022E-19 6.89819E-19
 -1      3675 9.51957E-05-2.83278E-05-2.86572E-05 4.18521E-07-3.78505E-19 1.03608E-18
 -1      3676 9.50126E-05-2.80753E-05-2.86897E-05 5.77668E-07 8.03264E-20 9.85844E-19
 -1      3677 9.49399E-05-2.79532E-05-2.87073E-05 6.50651E-07 3.68495E-19 9.77260E-19
 -1      3678 9.50199E-05-2.80879E-05-2.86841E-05 4.95856E-07 2.83434E-19 5.32625E-19
 -1      3679 9.48215E-05-2.78082E-05-2.87229E-05 7.25115E-07 4.74403E-19 1.30262E-18
 -1      3680 9.47304E-05-2.76635E-05-2.87417E-05 8.28191E-07 2.81418E-19 1.15609E-18
 -1      3681 9.48075E-05-2.78054E-05-2.87135E-05 6.15891E-07 4.93414E-19 1.34403E-18
 -1      3682 9.45819E-05-2.74911E-05-2.87569E-05 9.30585E-07 8.41523E-20 1.16042E-18
 -1      3683 9.44660E-05-2.73197E-05-2.87758E-05 1.06808E-06 4.13725E-20 9.88038E-19
 -1      3684 9.45435E-05-2.74706E-05-2.87430E-05 7.85022E-07 5.61883E-20 1.21414E-18
 -1      3685 9.42781E-05-2.71152E-05-2.87887E-05 1.20236E-06-4.42662E-19 6.29122E-19
 -1      3686 9.41301E-05-2.69137E-05-2.88058E-05 1.37876E-06-1.58161E-19-4.18777E-20
 -1      3687 9.42107E-05-2.70739E-05-2.87694E-05 1.01009E-06-3.23019E-19 9.60895E-19
 -1      3688 9.38927E-05-2.66736E-05-2.88138E-05 1.54902E-06 4.98522E-19-3.02763E-19
 -1      3689 9.37048E-05-2.64402E-05-2.88266E-05 1.76872E-06 3.98860E-19 7.03914E-20
 -1      3690 9.37900E-05-2.66072E-05-2.87880E-05 1.29816E-06-1.00387E-19 6.46291E-19
 -1      3691 9.34069E-05-2.61628E-05-2.88257E-05 1.97913E-06 9.71306E-20-2.05519E-19
 -1      3692 9.31712E-05-2.58985E-05-2.88302E-05 2.24622E-06 2.55869E-19 6.60084E-20
 -1      3693 9.32603E-05-2.60653E-05-2.87918E-05 1.65622E-06 2.27164E-19 3.21730E-19
 -1      3694 9.28012E-05-2.55857E-05-2.88150E-05 2.50099E-06 4.35507E-19 2.09828E-19
 -1      3695 9.25104E-05-2.52958E-05-2.88055E-05 2.81921E-06 6.34269E-19 2.99001E-19
 -1      3696 9.25995E-05-2.54486E-05-2.87712E-05 2.09111E-06 4.77953E-19 3.30122E-19
 -1      3697 9.20573E-05-2.49547E-05-2.87683E-05 3.12312E-06 9.84886E-19 2.04034E-20
 -1      3698 9.17065E-05-2.46519E-05-2.87369E-05 3.49629E-06 9.60572E-19 4.40124E-19
 -1      3699 9.17849E-05-2.47657E-05-2.87127E-05 2.61000E-06 6.77637E-19-4.26555E-20
 -1      3700 9.11600E-05-2.42977E-05-2.86673E-05 3.85602E-06 1.12928E-18 5.69534E-19
 -1      3701 9.07497E-05-2.40055E-05-2.86035E-05 4.28954E-06 1.24764E-18 1.05745E-18
 -1      3702 9.07951E-05-2.40382E-05-2.85980E-05 3.22228E-06 1.37580E-18-2.82123E-19
 -1      3703 9.01020E-05-2.36649E-05-2.84879E-05 4.71678E-06 5.97622E-19 5.67053E-19
 -1      3704 8.96430E-05-2.34225E-05-2.83777E-05 5.22101E-06 4.46278E-19 8.52799E-19
 -1      3705 8.96118E-05-2.33051E-05-2.84024E-05 3.94406E-06 6.85064E-19 4.13145E-19
 -1      3706 8.88908E-05-2.31386E-05-2.81980E-05 5.73845E-06 1.27219E-19 6.90229E-19
 -1      3707 8.84124E-05-2.30089E-05-2.80244E-05 6.33484E-06 6.80083E-20 6.85937E-19
 -1      3708 8.82226E-05-2.26299E-05-2.80935E-05 4.80760E-06 7.84122E-20-3.04296E-19
 -1      3709 8.75598E-05-2.28476E-05-2.77575E-05 6.98649E-06-4.16698E-20 1.03417E-18
 -1      3710 8.71241E-05-2.29280E-05-2.75005E-05 7.71728E-06-2.87585E-19 7.37044E-19
 -1      3711 8.66255E-05-2.21095E-05-2.76290E-05 5.87827E-06 6.44624E-20 2.01096E-19
 -1      3712 8.61893E-05-2.29867E-05-2.71179E-05 8.58349E-06 3.94162E-19 1.05251E-18
 -1      3713 8.59171E-05-2.34256E-05-2.67568E-05 9.52373E-06 1.19008E-18 1.69546E-18
 -1      3714 8.48373E-05-2.18883E-05-2.69550E-05 7.28203E-06 6.96618E-19 9.42417E-19
 -1      3715 8.49425E-05-2.38509E-05-2.62221E-05 1.07524E-05 5.81037E-19 1.59444E-18
 -1      3716 8.50376E-05-2.48764E-05-2.57355E-05 1.20291E-05-3.69777E-20 1.45272E-18
 -1      3717 8.28965E-05-2.21758E-05-2.60022E-05 9.24083E-06 8.78210E-19 9.73820E-19
 -1      3718 8.44447E-05-2.59333E-05-2.51311E-05 1.36878E-05-6.49520E-19 1.25886E-18
 -1      3719 8.52718E-05-2.78678E-05-2.45283E-05 1.54419E-05-1.48370E-18-8.43658E-20
 -1      3720 8.05075E-05-2.58590E-05-2.33555E-05 1.58912E-05-1.64413E-18 2.95757E-19
 -1      3721 8.12661E-05-2.33357E-05-2.48021E-05 1.20113E-05-8.01251E-19 1.42390E-18
 -1      3722 9.56692E-05-2.89814E-05-2.85791E-05-5.52477E-07-6.45926E-20 5.01274E-19
 -1      3723 9.57118E-05-2.90244E-05-2.85804E-05-5.90879E-07 2.07379E-19 5.94265E-19
 -1      3724 9.55670E-05-2.88747E-05-2.85810E-05-4.91067E-07-2.71594E-19 4.77595E-19
 -1      3725 9.56057E-05-2.89263E-05-2.85773E-05-5.20151E-07-1.53526E-19 4.23481E-19
 -1      3726 9.57221E-05-2.89998E-05-2.85964E-05-4.90830E-07-1.54776E-19 8.85017E-19
 -1      3727 9.55998E-05-2.88758E-05-2.85968E-05-4.41739E-07-9.09684E-20 6.84952E-19
 -1      3728 6.75330E-05-1.96942E-05-2.04984E-05 1.11659E-05-4.36639E-19-1.27604E-18
 -1      3729 6.29342E-05-1.67956E-05-1.96415E-05 4.76404E-06-3.71669E-20-1.63902E-18
 -1      3730 9.57802E-05-2.90697E-05-2.85888E-05-6.29969E-07 2.82500E-19 7.27286E-19
 -1      3731 9.58273E-05-2.91010E-05-2.85967E-05-6.72712E-07 2.34153E-19 7.92617E-19
 -1      3732 9.58526E-05-2.91038E-05-2.86081E-05-5.55489E-07 2.57801E-19 4.89777E-19
 -1      3733 9.53758E-05-2.86152E-05-2.86103E-05-4.46244E-07 5.03233E-20 8.30660E-19
 -1      3734 9.54116E-05-2.86822E-05-2.85993E-05-4.45315E-07-1.26515E-19 7.03263E-19
 -1      3735 9.54818E-05-2.87342E-05-2.86066E-05-4.15419E-07-6.49151E-20 7.27601E-19
 -1      3736 9.52767E-05-2.84591E-05-2.86347E-05-4.75633E-07 6.20882E-20 9.94726E-19
 -1      3737 9.53146E-05-2.85356E-05-2.86209E-05-4.54719E-07 5.28864E-19 1.04961E-18
 -1      3738 9.53627E-05-2.85740E-05-2.86239E-05-4.17999E-07 5.29404E-20 5.36129E-19
 -1      3739 9.51664E-05-2.82798E-05-2.86642E-05-5.48060E-07-2.86703E-19 1.23924E-18
 -1      3740 9.52092E-05-2.83680E-05-2.86479E-05-5.03681E-07-2.50690E-19 1.25042E-18
 -1      3741 9.52352E-05-2.83914E-05-2.86471E-05-4.55257E-07-6.93987E-20 1.57132E-18
 -1      3742 9.50368E-05-2.80712E-05-2.86979E-05-6.70731E-07-2.53587E-19 1.05235E-18
 -1      3743 9.50877E-05-2.81740E-05-2.86794E-05-5.99031E-07-6.37040E-20 1.13387E-18
 -1      3744 9.50905E-05-2.81806E-05-2.86749E-05-5.33398E-07-7.94677E-20 1.12814E-18
 -1      3745 9.48788E-05-2.78270E-05-2.87347E-05-8.51773E-07 2.64756E-19 8.97674E-19
 -1      3746 9.49415E-05-2.79473E-05-2.87145E-05-7.48443E-07-1.05985E-19 1.13147E-18
 -1      3747 9.49182E-05-2.79347E-05-2.87060E-05-6.59334E-07-1.75227E-19 2.08360E-19
 -1      3748 9.46826E-05-2.75415E-05-2.87728E-05-1.10029E-06-4.18285E-19 1.36508E-18
 -1      3749 9.47609E-05-2.76815E-05-2.87517E-05-9.60597E-07 2.42499E-19 1.29448E-18
 -1      3750 9.47070E-05-2.76465E-05-2.87384E-05-8.40890E-07-8.00179E-20 7.89476E-19
 -1      3751 9.44381E-05-2.72108E-05-2.88096E-05-1.42621E-06 1.12154E-19 7.98991E-19
 -1      3752 9.45357E-05-2.73717E-05-2.87887E-05-1.24514E-06-2.14293E-19 1.07635E-18
 -1      3753 9.44444E-05-2.73096E-05-2.87696E-05-1.08688E-06 2.16471E-20 9.07360E-19
 -1      3754 9.41358E-05-2.68350E-05-2.88408E-05-1.83995E-06 1.58551E-19-2.23505E-19
 -1      3755 9.42557E-05-2.70156E-05-2.88222E-05-1.61250E-06 1.88195E-19 4.04706E-19
 -1      3756 9.41178E-05-2.69201E-05-2.87957E-05-1.40707E-06 3.51772E-19-3.28612E-19
 -1      3757 9.37685E-05-2.64208E-05-2.88605E-05-2.35202E-06-2.19479E-19-2.95712E-19
 -1      3758 9.39122E-05-2.66163E-05-2.88471E-05-2.07349E-06-6.35119E-20-1.63546E-19
 -1      3759 9.37151E-05-2.64787E-05-2.88114E-05-1.81204E-06 2.23645E-19-2.80021E-19
 -1      3760 9.33338E-05-2.59857E-05-2.88602E-05-2.97265E-06-3.26554E-19-2.32318E-19
 -1      3761 9.34998E-05-2.61850E-05-2.88563E-05-2.63903E-06-3.41640E-19-8.97808E-20
 -1      3762 9.32264E-05-2.59937E-05-2.88089E-05-2.31325E-06-4.17325E-19 2.13597E-19
 -1      3763 9.28386E-05-2.55630E-05-2.88284E-05-3.71181E-06-6.00233E-19-1.11080E-19
 -1      3764 9.30196E-05-2.57463E-05-2.88395E-05-3.31996E-06-4.91434E-19 3.14882E-19
 -1      3765 9.26469E-05-2.54852E-05-2.87776E-05-2.92335E-06-6.94130E-19-1.76049E-19
 -1      3766 9.23056E-05-2.52095E-05-2.87501E-05-4.57996E-06-3.47250E-19 2.02160E-19
 -1      3767 9.24845E-05-2.53440E-05-2.87836E-05-4.12757E-06-9.00694E-19-1.28579E-19
 -1      3768 9.19809E-05-2.49902E-05-2.87037E-05-3.65746E-06-9.00617E-19-2.23158E-19
 -1      3769 9.17837E-05-2.50156E-05-2.86072E-05-5.59018E-06 5.36494E-19 6.70042E-19
 -1      3770 9.19272E-05-2.50497E-05-2.86717E-05-5.07514E-06 4.69958E-19 6.09941E-19
 -1      3771 9.12483E-05-2.45707E-05-2.85694E-05-4.53590E-06-3.39972E-19-9.68422E-21
 -1      3772 9.13639E-05-2.51181E-05-2.83792E-05-6.76169E-06-4.88014E-19 8.95994E-19
 -1      3773 9.14130E-05-2.49742E-05-2.84840E-05-6.18126E-06 3.35415E-19 9.86380E-19
 -1      3774 9.04936E-05-2.43226E-05-2.83531E-05-5.58937E-06 2.36613E-19 1.21747E-18
 -1      3775 9.12038E-05-2.57177E-05-2.80469E-05-8.12323E-06-7.02702E-19 9.40616E-20
 -1      3776 9.10589E-05-2.52829E-05-2.81995E-05-7.47433E-06-8.53073E-19 9.25442E-19
 -1      3777 8.98010E-05-2.43895E-05-2.80306E-05-6.86724E-06-3.10560E-19 1.22805E-18
 -1      3778 9.15649E-05-2.71001E-05-2.75993E-05-9.70861E-06-1.36329E-18-6.44936E-20
 -1      3779 9.10661E-05-2.62150E-05-2.78005E-05-8.99364E-06-9.48013E-19-1.23391E-19
 -1      3780 8.93207E-05-2.49827E-05-2.75775E-05-8.44693E-06-8.97685E-19 5.83362E-19
 -1      3781 9.28602E-05-2.96490E-05-2.70475E-05-1.15276E-05-1.02753E-18 7.53994E-19
 -1      3782 9.17662E-05-2.81058E-05-2.72830E-05-1.07772E-05-9.89552E-19 1.17625E-18
 -1      3783 8.93097E-05-2.64071E-05-2.69766E-05-1.04334E-05-2.02920E-18 1.81475E-18
 -1      3784 9.57375E-05-3.38411E-05-2.64561E-05-1.34617E-05-6.01840E-19-1.54158E-19
 -1      3785 9.37061E-05-3.14269E-05-2.66759E-05-1.28055E-05-1.17126E-18 1.46160E-19
 -1      3786 9.02079E-05-2.90971E-05-2.62307E-05-1.29623E-05-6.20112E-19 1.46094E-18
 -1      3787 1.00034E-04-3.92985E-05-2.59515E-05-1.52036E-05 4.47710E-19-1.16806E-18
 -1      3788 9.67518E-05-3.59081E-05-2.60510E-05-1.48550E-05-7.68823E-21-2.69381E-19
 -1      3789 9.19540E-05-3.28120E-05-2.53818E-05-1.58480E-05-3.61238E-19-5.92233E-19
 -1      3790 9.47640E-05-3.75927E-05-2.44666E-05-1.90798E-05 1.78109E-19-1.14700E-18
 -1      3791 9.54030E-05-2.45583E-05-3.03411E-05 2.00570E-06 3.36024E-19 1.20601E-19
 -1      3792 9.46711E-05-2.28246E-05-3.08100E-05 2.51931E-06 5.10845E-19-8.29776E-20
 -1      3793 9.45996E-05-2.23376E-05-3.09516E-05 6.46018E-08 4.17784E-19-1.61398E-19
 -1      3794 9.38790E-05-2.10635E-05-3.12128E-05-1.63021E-07 3.48409E-19-2.75358E-19
 -1      3795 9.39869E-05-2.12849E-05-3.11706E-05-6.45535E-07 2.13025E-19-1.35862E-19
 -1      3796 6.62215E-05-2.19708E-05-1.86564E-05-1.76750E-05-5.08137E-19-2.36224E-18
 -1      3797 7.48635E-05-2.70289E-05-2.05535E-05-2.04378E-05-2.41420E-19-1.92140E-18
 -1      3798 6.69238E-05-2.02070E-05-1.99043E-05-1.28629E-05-1.17804E-19-2.64190E-18
 -1      3799 9.57244E-05-2.66123E-05-2.96245E-05 8.44565E-07 1.85589E-19 3.65492E-19
 -1      3800 9.56554E-05-2.61099E-05-2.97973E-05 1.38967E-06 2.62797E-19 3.67527E-19
 -1      3801 9.55901E-05-2.55658E-05-3.00172E-05 1.61015E-06 3.44003E-19 2.60189E-19
 -1      3802 9.58778E-05-2.64997E-05-2.97350E-05 7.67179E-07 3.37397E-19-4.20406E-20
 -1      3803 1.25346E-04-2.83367E-05-4.22670E-05-9.01404E-06 1.50544E-18 1.34943E-18
 -1      3804 9.59157E-05-2.57223E-05-3.00811E-05-9.05789E-07-4.82756E-19-2.83909E-19
 -1      3805 9.61245E-05-2.64606E-05-2.98641E-05-4.66653E-07-4.37618E-19-1.42772E-19
 -1      3806 9.62712E-05-2.65719E-05-2.98678E-05-3.36619E-07-3.50709E-19 2.37166E-19
 -1      3807 9.53489E-05-2.42446E-05-3.04797E-05-1.51111E-06-4.01079E-19-3.87545E-19
 -1      3808 9.56636E-05-2.50858E-05-3.02500E-05-1.11935E-06-4.82041E-19-3.53277E-19
 -1      3809 9.58065E-05-2.52484E-05-3.02360E-05-8.46564E-07-3.72468E-19 2.60958E-20
 -1      3810 9.52307E-05-2.38585E-05-3.05863E-05-1.27371E-06-2.87757E-19-7.58180E-20
 -1      3811 9.44513E-05-2.23214E-05-3.09202E-05 2.12058E-06 5.87884E-19-1.79129E-19
 -1      3812 9.59216E-05-2.85316E-05-2.88839E-05-8.35429E-07 5.57112E-20 3.68276E-19
 -1      3813 9.59511E-05-2.83396E-05-2.89694E-05-6.88555E-07 2.65630E-19 3.40410E-19
 -1      3814 9.61556E-05-2.86175E-05-2.89475E-05-7.83596E-07-6.95233E-20 3.29819E-19
 -1      3815 6.27128E-05-1.63746E-05-1.97660E-05 8.44943E-07 4.15761E-19-1.29126E-18
 -1      3816 6.39188E-05-1.69878E-05-2.01593E-05-4.22670E-06-1.23632E-19-2.37693E-18
 -1      3817 6.76392E-05-1.75010E-05-2.13940E-05 2.85359E-06 8.14472E-19-1.72829E-18
 -1      3818 9.62699E-05-2.89892E-05-2.88352E-05-8.31471E-07 1.36791E-19 5.98855E-20
 -1      3819 9.63174E-05-2.88778E-05-2.88993E-05-7.89578E-07-1.42631E-19 1.30871E-20
 -1      3820 9.40396E-05-2.13753E-05-3.11461E-05-9.92621E-07 1.30719E-19-1.64330E-19
 -1      3821 9.42121E-05-2.17391E-05-3.10730E-05-1.41691E-06 4.50243E-20-2.62935E-19
 -1      3822 9.48010E-05-2.28436E-05-3.08269E-05-1.19546E-06-2.45340E-20-2.29206E-19
 -1      3823 9.46929E-05-2.25476E-05-3.09035E-05-6.09908E-07 2.49044E-19-9.70140E-20
 -1      3824 9.49901E-05-2.33210E-05-3.07010E-05 1.53156E-06 5.53422E-19-2.86241E-19
 -1      3825 9.50742E-05-2.33793E-05-3.07335E-05 2.34225E-07 4.35191E-19-1.21191E-19
 -1      3826 9.51266E-05-2.34892E-05-3.07118E-05-9.48254E-08 4.01815E-19-1.85117E-19
 -1      3827 9.61685E-05-2.81483E-05-2.91538E-05-4.85914E-07 2.85532E-19 2.00710E-19
 -1      3828 9.58727E-05-2.90767E-05-2.86288E-05-8.87290E-07 3.45591E-19 2.86300E-19
 -1      3829 9.55706E-05-2.51595E-05-3.01793E-05 1.49029E-06 3.95445E-19 2.26221E-20
 -1      3830 9.51555E-05-2.36358E-05-3.06645E-05 8.56926E-07 4.30676E-19-3.10002E-19
 -1      3831 9.51020E-05-2.34676E-05-3.07077E-05 5.14109E-07 4.48276E-19-1.39767E-19
 -1      3832 9.56290E-05-2.44759E-05-3.04783E-05 3.14621E-07 3.23144E-19-1.20128E-19
 -1      3833 9.62585E-05-2.75056E-05-2.94714E-05-5.49048E-08 4.47429E-19-1.82864E-19
 -1      3834 9.61848E-05-2.70079E-05-2.96414E-05 2.94748E-07 4.24129E-19-3.15732E-19
 -1      3835 7.68797E-05-2.41268E-05-2.25714E-05 1.48006E-05-1.89874E-18-3.35898E-19
 -1      3836 7.13818E-05-2.13286E-05-2.12835E-05 1.34731E-05-1.42141E-18-5.72680E-19
 -1      3837 7.05481E-05-1.93763E-05-2.19868E-05 9.20974E-06-8.16824E-19-2.41876E-18
 -1      3838 7.69892E-05-2.26085E-05-2.34030E-05 1.26421E-05-1.92418E-18 1.11927E-19
 -1      3839 8.12022E-05-3.03011E-05-2.15989E-05-2.14395E-05-4.34184E-19-1.72470E-18
 -1      3840 8.96823E-05-3.49275E-05-2.34346E-05-2.01141E-05 5.81343E-20-1.04497E-18
 -1      3841 8.79273E-05-3.22765E-05-2.39399E-05-1.82158E-05 2.23719E-20-1.60770E-18
 -1      3842 7.78480E-05-2.66257E-05-2.20008E-05-1.80377E-05-2.78793E-19-1.94984E-18
 -1      3843 9.59003E-05-2.91322E-05-2.86137E-05-7.13390E-07 2.34834E-19 6.66866E-19
 -1      3844 9.59519E-05-2.91462E-05-2.86302E-05-7.53638E-07 2.42583E-19 3.86759E-19
 -1      3845 9.59925E-05-2.91807E-05-2.86354E-05-6.27266E-07 1.11205E-19 2.79928E-19
 -1      3846 9.61544E-05-2.91180E-05-2.87296E-05-8.37623E-07 3.79622E-19 1.55030E-19
 -1      3847 9.62084E-05-2.90656E-05-2.87732E-05-8.39935E-07 4.46178E-19 1.18007E-19
 -1      3848 9.64178E-05-2.90692E-05-2.88657E-05-7.35988E-07 2.48705E-19-9.81152E-20
 -1      3849 9.61842E-05-2.66746E-05-2.97899E-05 4.06320E-07 3.47863E-19-5.07342E-19
 -1      3850 9.60328E-05-2.65969E-05-2.97649E-05 5.40505E-07 4.66258E-19-2.96422E-19
 -1      3851 9.59216E-05-2.61593E-05-2.98916E-05 9.09622E-07 3.84709E-19-1.43413E-19
 -1      3852 9.65145E-05-2.88090E-05-2.90182E-05-6.57099E-07-1.04717E-19-2.72094E-19
 -1      3853 9.63540E-05-2.87257E-05-2.89857E-05-7.34331E-07-2.03357E-19 5.91670E-20
 -1      3854 9.63840E-05-2.85277E-05-2.90764E-05-6.24313E-07-1.70077E-19 9.16330E-21
 -1      3855 9.54870E-05-2.87087E-05-2.86181E-05-3.58516E-07 8.65585E-20 6.50418E-19
 -1      3856 9.55464E-05-2.87875E-05-2.86116E-05-3.63282E-07-5.80682E-21 8.09225E-19
 -1      3857 9.67769E-05-2.82750E-05-2.93554E-05 2.78796E-07-1.13656E-19-2.35401E-20
 -1      3858 9.67877E-05-2.85777E-05-2.92353E-05 3.91937E-07 1.13599E-19 2.42638E-20
 -1      3859 9.67827E-05-2.88178E-05-2.91256E-05 4.39347E-07 2.29196E-19 1.13070E-19
 -1      3860 9.67436E-05-2.89966E-05-2.90354E-05 4.96346E-07 1.86218E-19 2.81050E-19
 -1      3861 9.68717E-05-2.86736E-05-2.92282E-05 3.12442E-07 1.33212E-19 1.74070E-19
 -1      3862 9.66897E-05-2.91284E-05-2.89530E-05 5.11176E-07 6.20490E-20 2.79579E-19
 -1      3863 9.66230E-05-2.92197E-05-2.88872E-05 5.29658E-07 1.34201E-19 4.08014E-19
 -1      3864 9.68116E-05-2.90690E-05-2.90338E-05 3.86775E-07 1.38671E-19 2.69597E-19
 -1      3865 9.65425E-05-2.92762E-05-2.88270E-05 5.23590E-07 4.92836E-20 1.46672E-19
 -1      3866 9.64631E-05-2.93075E-05-2.87804E-05 5.17683E-07-1.71732E-19-1.22311E-19
 -1      3867 9.66770E-05-2.92728E-05-2.88892E-05 4.08745E-07-1.29125E-19 3.50674E-19
 -1      3868 9.63709E-05-2.93133E-05-2.87380E-05 4.99488E-07-1.93405E-19-2.84515E-20
 -1      3869 9.62883E-05-2.93041E-05-2.87066E-05 4.79926E-07-3.22492E-19 3.17330E-19
 -1      3870 9.65049E-05-2.93445E-05-2.87849E-05 3.97651E-07-1.80205E-19 2.13049E-19
 -1      3871 9.61935E-05-2.92763E-05-2.86781E-05 4.56502E-07-2.86327E-19 5.45654E-19
 -1      3872 9.61131E-05-2.92406E-05-2.86585E-05 4.31352E-07-1.98713E-19 7.31348E-19
 -1      3873 9.63191E-05-2.93274E-05-2.87126E-05 3.67767E-07 2.69125E-20 4.83528E-19
 -1      3874 9.60205E-05-2.91905E-05-2.86410E-05 4.07329E-07-3.94589E-19 4.92060E-19
 -1      3875 9.59444E-05-2.91370E-05-2.86305E-05 3.82644E-07-3.24507E-19 2.47454E-19
 -1      3876 9.61334E-05-2.92508E-05-2.86656E-05 3.30941E-07-3.78363E-19 3.85473E-19
 -1      3877 9.58559E-05-2.90719E-05-2.86216E-05 3.61721E-07-2.46693E-19-1.84935E-19
 -1      3878 9.57842E-05-2.90056E-05-2.86182E-05 3.41906E-07-2.33920E-19-2.87131E-19
 -1      3879 9.59539E-05-2.91342E-05-2.86384E-05 2.94888E-07-4.91348E-19-3.34238E-19
 -1      3880 9.56996E-05-2.89294E-05-2.86160E-05 3.26915E-07-3.78568E-20-1.91178E-19
 -1      3881 9.56308E-05-2.88527E-05-2.86181E-05 3.15143E-07-1.88403E-19-1.82139E-19
 -1      3882 9.57824E-05-2.89892E-05-2.86267E-05 2.65980E-07-1.69302E-19-5.35739E-19
 -1      3883 9.55474E-05-2.87662E-05-2.86210E-05 3.07911E-07-2.70691E-19 5.43668E-20
 -1      3884 9.54787E-05-2.86791E-05-2.86274E-05 3.06886E-07-2.60793E-19 5.92929E-19
 -1      3885 9.56162E-05-2.88215E-05-2.86269E-05 2.48673E-07 1.15851E-19 1.46601E-19
 -1      3886 9.53923E-05-2.85810E-05-2.86343E-05 3.09179E-07-3.37845E-19 9.84142E-19
 -1      3887 9.53197E-05-2.84816E-05-2.86441E-05 3.21433E-07-3.12905E-19 1.25260E-18
 -1      3888 9.54484E-05-2.86306E-05-2.86364E-05 2.46535E-07-2.18838E-20 8.88458E-19
 -1      3889 9.52251E-05-2.83691E-05-2.86539E-05 3.35134E-07-4.85302E-19 1.46415E-18
 -1      3890 9.51434E-05-2.82542E-05-2.86661E-05 3.63141E-07-1.39710E-19 1.37534E-18
 -1      3891 9.52696E-05-2.84125E-05-2.86527E-05 2.62981E-07-1.95824E-19 1.53942E-18
 -1      3892 9.50342E-05-2.81233E-05-2.86779E-05 3.90110E-07 8.56398E-20 1.13705E-18
 -1      3893 9.49375E-05-2.79888E-05-2.86918E-05 4.36449E-07 2.91831E-19 9.37036E-19
 -1      3894 9.50683E-05-2.81603E-05-2.86739E-05 3.01533E-07-2.69718E-19 1.26414E-18
 -1      3895 9.48059E-05-2.78346E-05-2.87044E-05 4.78702E-07 6.12034E-19 9.59629E-19
 -1      3896 9.46871E-05-2.76757E-05-2.87189E-05 5.46138E-07 6.53674E-19 9.75423E-19
 -1      3897 9.48305E-05-2.78651E-05-2.86977E-05 3.65591E-07 4.47496E-19 8.26051E-19
 -1      3898 9.45243E-05-2.74929E-05-2.87308E-05 6.05889E-07 2.42549E-19 1.07964E-18
 -1      3899 9.43753E-05-2.73046E-05-2.87445E-05 6.97349E-07-7.42976E-20 8.54691E-19
 -1      3900 9.45397E-05-2.75166E-05-2.87216E-05 4.58799E-07 5.05021E-19 3.10505E-19
 -1      3901 9.41710E-05-2.70879E-05-2.87538E-05 7.76943E-07-1.62010E-20 9.68402E-19
 -1      3902 9.39826E-05-2.68656E-05-2.87647E-05 8.95408E-07-2.38703E-19 1.12767E-18
 -1      3903 9.41770E-05-2.71041E-05-2.87419E-05 5.84926E-07 5.94961E-20 8.23396E-19
 -1      3904 9.37256E-05-2.66103E-05-2.87685E-05 9.97216E-07-4.52038E-19 1.13022E-18
 -1      3905 9.34875E-05-2.63505E-05-2.87737E-05 1.14557E-06-2.63688E-19 8.91144E-19
 -1      3906 9.37212E-05-2.66177E-05-2.87537E-05 7.47670E-07-1.29738E-19 1.13180E-18
 -1      3907 9.31654E-05-2.60535E-05-2.87683E-05 1.27188E-06-3.48758E-19 7.87646E-19
 -1      3908 9.28666E-05-2.57547E-05-2.87635E-05 1.45276E-06 2.45107E-20 6.26501E-19
 -1      3909 9.31488E-05-2.60494E-05-2.87504E-05 9.50398E-07-4.16992E-19 7.76389E-19
 -1      3910 9.24658E-05-2.54151E-05-2.87434E-05 1.60573E-06 9.03787E-20 3.46368E-20
 -1      3911 9.20948E-05-2.50791E-05-2.87229E-05 1.82157E-06 3.37852E-19 2.36987E-19
 -1      3912 9.24342E-05-2.53955E-05-2.87225E-05 1.19595E-06-3.09589E-19 3.55499E-19
 -1      3913 9.16008E-05-2.47002E-05-2.86807E-05 2.00344E-06 5.87651E-19-6.02194E-19
 -1      3914 9.11461E-05-2.43338E-05-2.86365E-05 2.25687E-06 9.73475E-19-2.72380E-19
 -1      3915 9.15497E-05-2.46586E-05-2.86571E-05 1.48669E-06-3.63520E-21-4.25364E-19
 -1      3916 9.05432E-05-2.39240E-05-2.85622E-05 2.47072E-06 1.04774E-18-8.13751E-19
 -1      3917 8.99942E-05-2.35406E-05-2.84835E-05 2.76598E-06 1.13441E-18-8.46586E-19
 -1      3918 9.04657E-05-2.38495E-05-2.85365E-05 1.82538E-06 6.78129E-19-1.04147E-18
 -1      3919 8.92646E-05-2.31152E-05-2.83638E-05 3.01758E-06 1.02740E-18-1.10567E-18
 -1      3920 8.86125E-05-2.27374E-05-2.82362E-05 3.36352E-06 4.92260E-19-1.21463E-18
 -1      3921 8.91492E-05-2.29901E-05-2.83371E-05 2.21746E-06 8.22271E-19-2.16688E-18
 -1      3922 8.77340E-05-2.23197E-05-2.80531E-05 3.66528E-06 2.25863E-20-1.00216E-18
 -1      3923 8.69737E-05-2.19816E-05-2.78577E-05 4.08138E-06-3.11482E-19-1.25893E-18
 -1      3924 8.75615E-05-2.21144E-05-2.80273E-05 2.67632E-06 2.59443E-19-2.35754E-18
 -1      3925 8.59149E-05-2.16037E-05-2.75870E-05 4.45993E-06 3.99905E-20-1.02341E-18
 -1      3926 8.50470E-05-2.13547E-05-2.72995E-05 4.98678E-06 7.35147E-19-3.69380E-19
 -1      3927 8.56506E-05-2.12685E-05-2.75646E-05 3.23391E-06 4.32240E-19-1.09206E-18
 -1      3928 8.37596E-05-2.10577E-05-2.69080E-05 5.49635E-06 7.16806E-19 1.73930E-19
 -1      3929 8.27999E-05-2.09702E-05-2.64965E-05 6.21166E-06 9.29701E-19 1.92613E-19
 -1      3930 8.33392E-05-2.05088E-05-2.68906E-05 3.96032E-06 1.08509E-18-1.06599E-18
 -1      3931 8.12075E-05-2.08038E-05-2.59371E-05 6.96123E-06 9.73127E-19-4.04515E-19
 -1      3932 8.01761E-05-2.09750E-05-2.53532E-05 8.00269E-06 9.96835E-20-1.18256E-18
 -1      3933 8.04898E-05-1.98995E-05-2.59229E-05 4.98777E-06 4.39790E-19-1.16360E-18
 -1      3934 9.51940E-05-2.83242E-05-2.86575E-05-4.10801E-07-1.54523E-19 1.18096E-18
 -1      3935 9.52619E-05-2.84269E-05-2.86449E-05-3.82962E-07-8.06302E-20 9.33321E-19
 -1      3936 9.50183E-05-2.80867E-05-2.86841E-05-4.89561E-07 1.72912E-19 8.51516E-19
 -1      3937 9.50974E-05-2.82060E-05-2.86695E-05-4.40887E-07 2.07796E-19 9.06131E-19
 -1      3938 9.51267E-05-2.82363E-05-2.86666E-05-3.63370E-07 9.40336E-20 9.27592E-19
 -1      3939 9.48075E-05-2.78087E-05-2.87129E-05-6.11517E-07-1.95471E-19 3.57763E-19
 -1      3940 9.49033E-05-2.79484E-05-2.86973E-05-5.38558E-07-5.15275E-20 5.94980E-19
 -1      3941 9.49175E-05-2.79678E-05-2.86914E-05-4.38755E-07 2.09718E-19 5.15012E-19
 -1      3942 9.45481E-05-2.74824E-05-2.87416E-05-7.83820E-07-6.05895E-19 4.76427E-19
 -1      3943 9.46667E-05-2.76462E-05-2.87261E-05-6.82701E-07-3.90254E-19 8.48292E-21
 -1      3944 9.46644E-05-2.76530E-05-2.87171E-05-5.52219E-07-1.16314E-19 3.84577E-19
 -1      3945 9.42254E-05-2.71008E-05-2.87669E-05-1.01460E-06 6.26111E-19-5.12019E-19
 -1      3946 9.43731E-05-2.72915E-05-2.87530E-05-8.81023E-07 1.88574E-21 2.27943E-20
 -1      3947 9.43518E-05-2.72832E-05-2.87407E-05-7.10290E-07-1.37724E-20-5.29051E-19
 -1      3948 9.38240E-05-2.66596E-05-2.87840E-05-1.31298E-06 2.85578E-19 9.24426E-22
 -1      3949 9.40074E-05-2.68786E-05-2.87742E-05-1.14227E-06 3.64156E-19-3.29085E-19
 -1      3950 9.39628E-05-2.68513E-05-2.87581E-05-9.20532E-07 4.05440E-19-7.94015E-20
 -1      3951 9.33295E-05-2.61595E-05-2.87864E-05-1.68918E-06-5.03781E-19 6.80431E-19
 -1      3952 9.35542E-05-2.64052E-05-2.87840E-05-1.47630E-06 1.02057E-20 5.71682E-19
 -1      3953 9.34795E-05-2.63529E-05-2.87634E-05-1.19173E-06-2.96599E-19 1.23912E-18
 -1      3954 9.27291E-05-2.56094E-05-2.87647E-05-2.15483E-06-1.93766E-19 5.39479E-19
 -1      3955 9.29992E-05-2.58755E-05-2.87743E-05-1.89426E-06-3.08356E-19 1.04023E-18
 -1      3956 9.28847E-05-2.57895E-05-2.87486E-05-1.53423E-06-2.63917E-19 1.42320E-18
 -1      3957 9.20153E-05-2.50301E-05-2.87067E-05-2.72387E-06-7.18426E-19 1.00229E-18
 -1      3958 9.23313E-05-2.53037E-05-2.87346E-05-2.40922E-06-4.65033E-19 7.74313E-19
 -1      3959 9.21627E-05-2.51708E-05-2.87028E-05-1.96072E-06-3.34966E-19 1.08886E-18
 -1      3960 9.11886E-05-2.44596E-05-2.85961E-05-3.41462E-06-7.70460E-19 1.55779E-19
 -1      3961 9.15452E-05-2.47180E-05-2.86505E-05-3.03759E-06-5.72414E-19 6.13122E-19
 -1      3962 9.13014E-05-2.45186E-05-2.86115E-05-2.48786E-06-3.79105E-19 9.64210E-19
 -1      3963 9.02637E-05-2.39595E-05-2.84125E-05-4.25381E-06-4.42038E-19 3.12220E-19
 -1      3964 9.06458E-05-2.41667E-05-2.85034E-05-3.80212E-06-9.82240E-19-2.14939E-19
 -1      3965 9.02952E-05-2.38717E-05-2.84558E-05-3.13943E-06-9.66246E-19 8.16638E-19
 -1      3966 8.92767E-05-2.36234E-05-2.81305E-05-5.28387E-06-3.19294E-19 1.30907E-18
 -1      3967 8.96536E-05-2.37250E-05-2.82702E-05-4.73759E-06-1.27117E-19 5.04398E-19
 -1      3968 8.91481E-05-2.32903E-05-2.82116E-05-3.95215E-06-4.05622E-19 3.69854E-19
 -1      3969 8.82981E-05-2.35879E-05-2.77208E-05-6.57450E-06-5.64028E-19 1.29324E-18
 -1      3970 8.86134E-05-2.35045E-05-2.79225E-05-5.90068E-06-5.72633E-19 1.31299E-18
 -1      3971 8.78776E-05-2.28629E-05-2.78488E-05-4.98593E-06-2.81575E-19 2.17515E-19
 -1      3972 8.74556E-05-2.40517E-05-2.71515E-05-8.23954E-06-1.98548E-18 1.60498E-18
 -1      3973 8.76093E-05-2.36657E-05-2.74280E-05-7.38631E-06-6.61379E-19 1.38832E-18
 -1      3974 8.65203E-05-2.27135E-05-2.73303E-05-6.34164E-06-8.35708E-19 9.84332E-19
 -1      3975 8.69716E-05-2.53128E-05-2.63926E-05-1.04542E-05-1.57047E-18 1.11786E-18
 -1      3976 8.67997E-05-2.44472E-05-2.67519E-05-9.34703E-06-2.30717E-18 1.01378E-18
 -1      3977 8.51478E-05-2.30227E-05-2.66113E-05-8.19227E-06-1.55171E-18 7.01268E-19
 -1      3978 8.71543E-05-2.77740E-05-2.54151E-05-1.34651E-05-3.19146E-19 2.62946E-19
 -1      3979 8.64617E-05-2.61767E-05-2.58641E-05-1.19528E-05-6.47759E-19 7.60829E-19
 -1      3980 8.39556E-05-2.41030E-05-2.56396E-05-1.07932E-05-7.52171E-19-5.86009E-19
 -1      3981 9.63692E-05-2.82623E-05-2.91930E-05-4.99101E-07 1.00116E-19-1.86722E-20
 -1      3982 9.63511E-05-2.79319E-05-2.93161E-05-2.85653E-07 3.48190E-19-4.28012E-20
 -1      3983 9.64288E-05-2.75877E-05-2.95033E-05-9.33062E-08 1.51641E-19-4.23698E-19
 -1      3984 9.65362E-05-2.83445E-05-2.92259E-05-4.61980E-07 3.69189E-20-3.68241E-19
 -1      3985 9.60272E-05-2.91553E-05-2.86585E-05-7.89143E-07 2.44254E-19 4.88985E-19
 -1      3986 9.60818E-05-2.91429E-05-2.86866E-05-8.17227E-07 2.80684E-19 4.25860E-19
 -1      3987 9.62855E-05-2.91903E-05-2.87572E-05-7.37620E-07 2.15797E-19 2.21540E-19
 -1      3988 9.61394E-05-2.92168E-05-2.86830E-05-6.93366E-07 2.71106E-19 4.84650E-19
 -1      3989 6.70718E-05-1.82912E-05-2.07501E-05-8.61766E-06 4.01538E-20-2.90096E-18
 -1      3990 7.20297E-05-2.13690E-05-2.17840E-05-1.26691E-05 3.21710E-19-2.38399E-18
 -1      3991 6.96100E-05-1.81392E-05-2.19855E-05-5.15494E-06 7.94868E-19-2.45271E-18
 -1      3992 9.66105E-05-2.74116E-05-2.96541E-05-4.45593E-09-2.15686E-19 1.82733E-19
 -1      3993 9.67020E-05-2.78838E-05-2.94979E-05 1.84823E-07-3.06470E-19 6.02297E-20
 -1      3994 9.68047E-05-2.80087E-05-2.94829E-05 1.63096E-07-2.31698E-19-5.14444E-20
 -1      3995 9.56115E-05-2.44168E-05-3.04955E-05-1.19124E-07 3.12038E-19-3.31723E-20
 -1      3996 9.51329E-05-2.35054E-05-3.07036E-05-3.17732E-07 3.42586E-19-8.55935E-21
 -1      3997 9.51645E-05-2.35988E-05-3.06795E-05-5.91718E-07 2.20200E-19-6.38198E-20
 -1      3998 9.53468E-05-2.85294E-05-2.86350E-05-3.68998E-07-1.93468E-19 7.17971E-19
 -1      3999 9.54083E-05-2.86188E-05-2.86250E-05-3.58903E-07-1.13310E-20 6.28731E-19
 -1      4000 9.54679E-05-2.86682E-05-2.86287E-05-3.05054E-07 1.42917E-20 6.83852E-19
 -1      4001 9.62045E-05-2.61169E-05-3.00336E-05-4.44084E-07-3.28862E-19 2.37280E-19
 -1      4002 9.64147E-05-2.68135E-05-2.98351E-05-1.56212E-07-1.59504E-19 2.63628E-19
 -1      4003 9.65405E-05-2.69830E-05-2.98084E-05-8.40594E-08-2.05213E-19 1.79918E-19
 -1      4004 9.59103E-05-2.91252E-05-2.86209E-05-4.63332E-07-8.47710E-20 7.69035E-19
 -1      4005 9.59791E-05-2.91725E-05-2.86310E-05-4.93717E-07-9.23066E-20 3.43513E-19
 -1      4006 9.56894E-05-2.52328E-05-3.01945E-05 1.21319E-06 4.98471E-19-2.22618E-19
 -1      4007 9.53061E-05-2.84673E-05-2.86450E-05-3.20444E-07-3.66688E-19 8.80232E-19
 -1      4008 7.89003E-05-2.12370E-05-2.47890E-05 9.27945E-06-9.39032E-20-4.67625E-19
 -1      4009 7.82905E-05-2.19129E-05-2.41287E-05 1.07867E-05-9.84215E-19-6.07089E-20
 -1      4010 7.52109E-05-2.03148E-05-2.34328E-05 9.55705E-06-1.29904E-18-2.19975E-18
 -1      4011 7.76479E-05-1.97417E-05-2.47579E-05 6.70425E-06 3.33280E-19-3.04872E-18
 -1      4012 9.56236E-05-2.88672E-05-2.86087E-05-3.74392E-07-2.04163E-20 5.87077E-19
 -1      4013 9.56840E-05-2.89364E-05-2.86064E-05-3.91089E-07-5.00214E-20 9.27969E-19
 -1      4014 9.56222E-05-2.88451E-05-2.86195E-05-3.12611E-07-1.13706E-19 6.79708E-19
 -1      4015 9.57633E-05-2.90066E-05-2.86087E-05-4.11265E-07-1.17220E-19 7.57480E-19
 -1      4016 9.58270E-05-2.90660E-05-2.86118E-05-4.36786E-07 4.09043E-20 9.66539E-19
 -1      4017 9.59384E-05-2.91337E-05-2.86320E-05-3.78622E-07-1.87346E-19 5.02413E-19
 -1      4018 9.57772E-05-2.90004E-05-2.86197E-05-3.38625E-07-1.40602E-19 4.68594E-19
 -1      4019 9.51563E-05-2.36005E-05-3.06706E-05-8.13858E-07 7.21780E-20 5.88287E-20
 -1      4020 9.52179E-05-2.37897E-05-3.06193E-05-1.06806E-06-1.74013E-19-6.12581E-20
 -1      4021 9.55629E-05-2.45255E-05-3.04376E-05-8.81029E-07-2.86123E-19 2.80482E-20
 -1      4022 9.56017E-05-2.44553E-05-3.04782E-05-5.03208E-07 5.78511E-20 1.48331E-19
 -1      4023 9.65741E-05-2.77441E-05-2.95041E-05-1.63894E-07 1.87342E-19-3.11922E-19
 -1      4024 9.64852E-05-2.72537E-05-2.96650E-05 7.81255E-08 1.80882E-19-4.26918E-19
 -1      4025 8.78485E-05-3.06185E-05-2.44751E-05-1.64146E-05 1.62411E-19-8.90903E-19
 -1      4026 8.70514E-05-2.89068E-05-2.49595E-05-1.48739E-05-2.56112E-20-6.29845E-19
 -1      4027 8.32074E-05-2.58716E-05-2.46029E-05-1.38027E-05 4.30229E-19-9.88102E-19
 -1      4028 8.32541E-05-2.81181E-05-2.35409E-05-1.69780E-05 3.87871E-19-1.67162E-18
 -1      4029 9.60655E-05-2.92160E-05-2.86486E-05-5.22607E-07 2.55934E-19 1.66931E-19
 -1      4030 9.61406E-05-2.92462E-05-2.86678E-05-5.51088E-07 2.04685E-19 4.88889E-19
 -1      4031 9.61053E-05-2.92379E-05-2.86599E-05-4.27544E-07-6.96896E-20 3.42048E-19
 -1      4032 9.66477E-05-2.89190E-05-2.90280E-05-5.83646E-07-9.80815E-20-2.40392E-19
 -1      4033 9.66834E-05-2.87323E-05-2.91187E-05-5.12113E-07-1.99946E-19-2.83915E-19
 -1      4034 7.49846E-05-2.29943E-05-2.21431E-05-1.45829E-05 6.78141E-19-2.13579E-18
 -1      4035 7.98949E-05-2.61075E-05-2.30422E-05-1.59096E-05 5.19939E-19-1.89658E-18
 -1      4036 8.00091E-05-2.49043E-05-2.36383E-05-1.41785E-05 9.30068E-19-1.78981E-18
 -1      4037 7.43750E-05-2.11868E-05-2.28395E-05-1.11457E-05 7.37056E-19-3.00292E-18
 -1      4038 9.59539E-05-2.52675E-05-3.03013E-05-2.78906E-10 1.62108E-19-7.71514E-20
 -1      4039 9.59622E-05-2.52918E-05-3.02943E-05-1.71759E-07-2.35714E-20 1.05963E-19
 -1      4040 7.29154E-05-1.93565E-05-2.29358E-05 7.57859E-06-8.86888E-19-3.41000E-18
 -1      4041 7.02837E-05-1.79781E-05-2.23101E-05 5.21448E-06-1.82757E-20-3.69763E-18
 -1      4042 7.40899E-05-1.89930E-05-2.36999E-05 6.01846E-06-4.19652E-19-4.10422E-18
 -1      4043 9.64053E-05-2.67672E-05-2.98451E-05 1.95038E-07 3.64282E-19-1.94141E-19
 -1      4044 9.62686E-05-2.66261E-05-2.98531E-05 3.00898E-07 3.98041E-19-4.46360E-19
 -1      4045 9.59702E-05-2.53633E-05-3.02665E-05 3.28984E-07 2.69908E-19 1.20732E-20
 -1      4046 9.59552E-05-2.52861E-05-3.02929E-05 1.35589E-07 1.93300E-19-7.28585E-20
 -1      4047 9.62965E-05-2.60352E-05-3.01017E-05 6.05649E-08 1.66610E-20-4.18163E-20
 -1      4048 9.65388E-05-2.91571E-05-2.88781E-05-6.34499E-07 2.45912E-19 1.27123E-19
 -1      4049 9.65991E-05-2.90577E-05-2.89440E-05-6.09243E-07 1.13715E-19-1.19019E-19
 -1      4050 9.67429E-05-2.89959E-05-2.90360E-05-4.82355E-07-1.22931E-19 2.14631E-20
 -1      4051 9.58157E-05-2.51961E-05-3.02710E-05-6.79183E-07-3.68468E-19 1.17736E-19
 -1      4052 9.61136E-05-2.61422E-05-2.99824E-05 5.73812E-07 4.88822E-19-4.30550E-19
 -1      4053 9.55346E-05-2.46318E-05-3.03941E-05 1.29150E-06 5.72304E-19-3.14611E-19
 -1      4054 9.52523E-05-2.38671E-05-3.05911E-05 1.05981E-06 5.27958E-19-3.98950E-19
 -1      4055 6.96331E-05-1.75312E-05-2.23766E-05 1.67815E-06 3.61997E-19-2.14658E-18
 -1      4056 9.59720E-05-2.54466E-05-3.02260E-05-4.66475E-07-2.82783E-19 3.40278E-19
 -1      4057 9.57279E-05-2.48180E-05-3.03746E-05 7.06172E-07 5.11816E-19-3.05688E-19
 -1      4058 9.52652E-05-2.84072E-05-2.86529E-05-2.55517E-07-4.28752E-19 8.58995E-19
 -1      4059 9.53504E-05-2.85176E-05-2.86434E-05-2.41071E-07-5.33288E-19 8.55425E-19
 -1      4060 9.64710E-05-2.66258E-05-2.99350E-05-1.37969E-07-1.97361E-19 3.86984E-19
 -1      4061 9.66686E-05-2.72611E-05-2.97501E-05 1.20849E-08-2.83082E-19 2.94916E-19
 -1      4062 9.59796E-05-2.56028E-05-3.01665E-05 6.19049E-07 6.21693E-19-2.14178E-19
 -1      4063 9.59108E-05-2.56726E-05-3.01072E-05 7.55726E-07 5.70083E-19-3.83378E-19
 -1      4064 9.69094E-05-2.90137E-05-2.90972E-05 2.50044E-07 2.49767E-19 1.68606E-19
 -1      4065 9.68564E-05-2.91595E-05-2.90127E-05 2.81612E-07 2.50085E-19 3.32205E-19
 -1      4066 9.67875E-05-2.92638E-05-2.89376E-05 2.78133E-07-3.66010E-20 5.65512E-19
 -1      4067 9.67067E-05-2.93293E-05-2.88756E-05 2.87085E-07-2.05442E-19 4.92674E-19
 -1      4068 9.68646E-05-2.92150E-05-2.89950E-05 1.56675E-07 5.27190E-20 2.77346E-19
 -1      4069 9.66160E-05-2.93649E-05-2.88208E-05 2.78499E-07-2.99501E-19 6.52473E-19
 -1      4070 9.65243E-05-2.93763E-05-2.87768E-05 2.73742E-07-1.48246E-19 5.72514E-19
 -1      4071 9.67033E-05-2.93594E-05-2.88637E-05 1.59153E-07-1.67586E-19 5.16622E-19
 -1      4072 9.64228E-05-2.93643E-05-2.87385E-05 2.62143E-07-1.29234E-19 2.08604E-19
 -1      4073 9.63303E-05-2.93394E-05-2.87088E-05 2.52280E-07-1.11421E-19 2.77529E-19
 -1      4074 9.65107E-05-2.93867E-05-2.87699E-05 1.49048E-07-3.81907E-19 6.15575E-19
 -1      4075 9.62281E-05-2.92984E-05-2.86835E-05 2.36225E-07-2.18057E-19-2.27875E-19
 -1      4076 9.61358E-05-2.92477E-05-2.86650E-05 2.23925E-07-6.95250E-19-3.92306E-19
 -1      4077 9.63155E-05-2.93406E-05-2.87064E-05 1.33774E-07-4.37168E-19-1.42195E-19
 -1      4078 9.60374E-05-2.91861E-05-2.86500E-05 2.10907E-07-7.32138E-19-5.34658E-20
 -1      4079 9.59480E-05-2.91185E-05-2.86403E-05 1.98940E-07-2.27202E-19-8.82917E-20
 -1      4080 9.61157E-05-2.92344E-05-2.86657E-05 1.22371E-07-3.66396E-19-2.16880E-19
 -1      4081 9.58545E-05-2.90426E-05-2.86334E-05 1.90506E-07 1.03643E-20 9.43427E-20
 -1      4082 9.57698E-05-2.89632E-05-2.86306E-05 1.81911E-07 1.64761E-19 2.48208E-19
 -1      4083 9.59224E-05-2.90926E-05-2.86428E-05 1.11622E-07-1.75076E-20 3.02588E-19
 -1      4084 9.56778E-05-2.88753E-05-2.86297E-05 1.75870E-07 5.57067E-19 4.86769E-19
 -1      4085 9.55949E-05-2.87846E-05-2.86322E-05 1.73164E-07 4.97226E-19 1.14155E-18
 -1      4086 9.57395E-05-2.89276E-05-2.86347E-05 1.01829E-07 5.20489E-19 9.52117E-19
 -1      4087 9.55012E-05-2.86848E-05-2.86360E-05 1.70299E-07 2.45796E-19 1.29350E-18
 -1      4088 9.54152E-05-2.85813E-05-2.86425E-05 1.74910E-07 8.98316E-20 1.42698E-18
 -1      4089 9.55578E-05-2.87377E-05-2.86377E-05 9.74068E-08 4.99410E-19 5.78243E-19
 -1      4090 9.53154E-05-2.84675E-05-2.86499E-05 1.77528E-07-1.30348E-19 1.61310E-18
 -1      4091 9.52212E-05-2.83486E-05-2.86593E-05 1.90823E-07-5.09233E-20 1.69910E-18
 -1      4092 9.53670E-05-2.85192E-05-2.86487E-05 1.01132E-07 5.38506E-20 5.19610E-19
 -1      4093 9.51088E-05-2.82174E-05-2.86690E-05 1.99248E-07-3.08844E-19 1.96494E-18
 -1      4094 9.50002E-05-2.80792E-05-2.86804E-05 2.22640E-07-4.47545E-19 1.66581E-18
 -1      4095 9.51586E-05-2.82686E-05-2.86656E-05 1.12599E-07 1.63482E-20 1.42520E-18
 -1      4096 9.48675E-05-2.79256E-05-2.86912E-05 2.37677E-07-2.14224E-19 1.34076E-18
 -1      4097 9.47367E-05-2.77631E-05-2.87032E-05 2.72601E-07 2.55023E-19 6.34290E-19
 -1      4098 9.49180E-05-2.79773E-05-2.86860E-05 1.32980E-07-4.19719E-19 1.59712E-18
 -1      4099 9.45748E-05-2.75819E-05-2.87138E-05 2.95135E-07 3.26724E-19 2.77219E-19
 -1      4100 9.44128E-05-2.73897E-05-2.87249E-05 3.42995E-07 1.31601E-19 2.30731E-20
 -1      4101 9.46290E-05-2.76351E-05-2.87071E-05 1.63416E-07-1.33202E-19 1.11539E-18
 -1      4102 9.42116E-05-2.71753E-05-2.87332E-05 3.73912E-07 1.91331E-19 1.91396E-19
 -1      4103 9.40084E-05-2.69481E-05-2.87414E-05 4.35972E-07-1.43968E-19 1.17151E-19
 -1      4104 9.42725E-05-2.72310E-05-2.87255E-05 2.04814E-07 1.45176E-19-3.65990E-19
 -1      4105 9.37565E-05-2.66953E-05-2.87448E-05 4.76088E-07-2.19966E-19-9.57089E-20
 -1      4106 9.35007E-05-2.64285E-05-2.87472E-05 5.53324E-07-4.19956E-19 4.58867E-20
 -1      4107 9.38273E-05-2.67542E-05-2.87366E-05 2.57701E-07-8.31290E-20-8.26701E-19
 -1      4108 9.31857E-05-2.61333E-05-2.87422E-05 6.03257E-07-5.70805E-19-1.59152E-19
 -1      4109 9.28647E-05-2.58238E-05-2.87347E-05 6.96189E-07-2.69452E-19-2.76163E-19
 -1      4110 9.32699E-05-2.61954E-05-2.87341E-05 3.21974E-07-6.47010E-19-1.04819E-18
 -1      4111 9.24731E-05-2.54842E-05-2.87163E-05 7.56232E-07-2.51523E-19-7.02779E-20
 -1      4112 9.20733E-05-2.51316E-05-2.86933E-05 8.64800E-07-4.65633E-19-2.10322E-19
 -1      4113 9.25744E-05-2.55487E-05-2.87095E-05 3.96570E-07-3.96349E-19-6.09371E-19
 -1      4114 9.15905E-05-2.47487E-05-2.86548E-05 9.34821E-07-5.22258E-19-1.74890E-19
 -1      4115 9.10970E-05-2.43559E-05-2.86089E-05 1.05845E-06-1.84580E-19-4.77406E-19
 -1      4116 9.17130E-05-2.48131E-05-2.86509E-05 4.79130E-07-4.42686E-19-5.70242E-19
 -1      4117 9.05068E-05-2.39348E-05-2.85412E-05 1.13794E-06-1.01847E-19-5.59538E-19
 -1      4118 8.99036E-05-2.35097E-05-2.84620E-05 1.27603E-06 2.42761E-19-1.41250E-18
 -1      4119 9.06550E-05-2.39944E-05-2.85424E-05 5.65754E-07-4.71334E-19-7.12030E-19
 -1      4120 8.91871E-05-2.30603E-05-2.83530E-05 1.36448E-06 4.73497E-19-1.49229E-18
 -1      4121 8.84555E-05-2.26160E-05-2.82269E-05 1.51780E-06 4.87181E-19-2.16842E-18
 -1      4122 8.93663E-05-2.31068E-05-2.83628E-05 6.51075E-07 1.69724E-19-1.58695E-18
 -1      4123 8.75884E-05-2.21532E-05-2.80603E-05 1.61567E-06 4.28773E-19-2.38888E-18
 -1      4124 8.67049E-05-2.17080E-05-2.78691E-05 1.78926E-06 3.35594E-19-1.34832E-18
 -1      4125 8.78049E-05-2.21727E-05-2.80836E-05 7.28896E-07 6.62634E-19-1.38589E-18
 -1      4126 8.56507E-05-2.12498E-05-2.76229E-05 1.89999E-06 5.52825E-21-9.08293E-19
 -1      4127 8.45812E-05-2.08255E-05-2.73416E-05 2.10903E-06 8.31446E-19-9.72954E-19
 -1      4128 8.59133E-05-2.12201E-05-2.76665E-05 7.93630E-07 8.01137E-19-6.01520E-19
 -1      4129 8.32787E-05-2.03880E-05-2.69850E-05 2.24354E-06 1.20651E-18-2.19926E-18
 -1      4130 8.19717E-05-2.00072E-05-2.65790E-05 2.52274E-06 8.52418E-19-2.01466E-18
 -1      4131 8.36000E-05-2.02750E-05-2.70586E-05 8.42212E-07 1.74900E-19-1.97296E-18
 -1      4132 8.03178E-05-1.96011E-05-2.60662E-05 2.71925E-06 2.92491E-19-2.08531E-18
 -1      4133 7.87386E-05-1.93047E-05-2.54807E-05 3.12248E-06-1.51675E-19-3.25844E-18
 -1      4134 8.06952E-05-1.93461E-05-2.61828E-05 8.78189E-07 4.95853E-19-3.60533E-18
 -1      4135 9.48261E-05-2.78644E-05-2.86979E-05-3.62397E-07 2.97593E-19 3.36846E-19
 -1      4136 9.49417E-05-2.80135E-05-2.86852E-05-3.18961E-07 2.32351E-19 4.93707E-19
 -1      4137 9.50636E-05-2.81566E-05-2.86741E-05-2.95759E-07 2.43516E-19 6.05110E-19
 -1      4138 9.51607E-05-2.82842E-05-2.86625E-05-2.67981E-07 2.52868E-21 6.20027E-19
 -1      4139 9.52069E-05-2.83308E-05-2.86603E-05-1.86578E-07-3.32446E-20 8.22712E-20
 -1      4140 9.49828E-05-2.80561E-05-2.86808E-05-2.18870E-07 3.23912E-19-1.02056E-19
 -1      4141 9.41786E-05-2.71172E-05-2.87412E-05-5.94451E-07 5.01204E-19 1.05441E-19
 -1      4142 9.43546E-05-2.73230E-05-2.87310E-05-5.11445E-07-1.95687E-20 5.31458E-19
 -1      4143 9.37321E-05-2.66453E-05-2.87525E-05-7.71927E-07 1.40364E-20 1.13765E-18
 -1      4144 9.39512E-05-2.68850E-05-2.87468E-05-6.64245E-07 2.73166E-19 3.68008E-19
 -1      4145 9.39829E-05-2.69118E-05-2.87374E-05-4.49270E-07 3.53198E-20 1.20208E-18
 -1      4146 9.31777E-05-2.61011E-05-2.87485E-05-1.00037E-06-4.93602E-19 1.12987E-18
 -1      4147 9.34488E-05-2.63759E-05-2.87509E-05-8.64108E-07-1.07239E-19 9.70911E-19
 -1      4148 9.34767E-05-2.63928E-05-2.87403E-05-5.86159E-07-3.64060E-19 1.29716E-18
 -1      4149 9.24955E-05-2.54859E-05-2.87201E-05-1.28940E-06-4.98633E-19 1.27418E-18
 -1      4150 9.28270E-05-2.57939E-05-2.87353E-05-1.11991E-06-8.40140E-19 1.03354E-18
 -1      4151 9.28482E-05-2.57952E-05-2.87240E-05-7.63858E-07-5.07065E-19 8.99350E-19
 -1      4152 9.16665E-05-2.48096E-05-2.86549E-05-1.65140E-06 1.38938E-19 1.49579E-18
 -1      4153 9.20655E-05-2.51441E-05-2.86893E-05-1.44277E-06-8.15474E-20 1.67753E-18
 -1      4154 9.20748E-05-2.51205E-05-2.86778E-05-9.91722E-07-5.68020E-19 9.78940E-19
 -1      4155 9.06748E-05-2.40941E-05-2.85366E-05-2.10343E-06-4.95988E-19 1.55234E-18
 -1      4156 9.11458E-05-2.44416E-05-2.85986E-05-1.84746E-06 2.33378E-19 2.02978E-18
 -1      4157 9.11337E-05-2.43787E-05-2.85877E-05-1.28253E-06-4.46169E-20 1.47690E-18
 -1      4158 8.95079E-05-2.33767E-05-2.83436E-05-2.67071E-06-7.57923E-19 6.64807E-19
 -1      4159 9.00518E-05-2.37152E-05-2.84442E-05-2.35488E-06-6.53999E-19 1.46294E-18
 -1      4160 9.00028E-05-2.35905E-05-2.84349E-05-1.65467E-06-3.44819E-19 1.95073E-18
 -1      4161 8.81589E-05-2.27136E-05-2.80487E-05-3.39284E-06 2.51637E-19-2.34615E-19
 -1      4162 8.87705E-05-2.30102E-05-2.82015E-05-2.99679E-06-1.70985E-19-1.18888E-19
 -1      4163 8.86597E-05-2.27897E-05-2.81947E-05-2.13600E-06-6.22164E-20 7.87545E-19
 -1      4164 8.66257E-05-2.21837E-05-2.76167E-05-4.33441E-06-2.95723E-19-2.86758E-19
 -1      4165 8.72922E-05-2.23924E-05-2.78391E-05-3.82377E-06-4.45869E-20-4.32521E-19
 -1      4166 8.70793E-05-2.20242E-05-2.78351E-05-2.77037E-06 2.03709E-19-4.20487E-19
 -1      4167 8.49096E-05-2.18909E-05-2.70030E-05-5.60307E-06-9.78783E-19 3.30120E-19
 -1      4168 8.56074E-05-2.19499E-05-2.73164E-05-4.91872E-06-7.50527E-19 1.67967E-19
 -1      4169 8.52283E-05-2.13550E-05-2.73139E-05-3.62819E-06-7.38418E-19-8.17854E-19
 -1      4170 8.30194E-05-2.19747E-05-2.61494E-05-7.38358E-06-1.12045E-18-4.60161E-20
 -1      4171 8.36978E-05-2.17930E-05-2.65804E-05-6.42175E-06-9.65216E-19 5.01919E-19
 -1      4172 8.30495E-05-2.08528E-05-2.65744E-05-4.82241E-06-8.50185E-19-7.59453E-19
 -1      4173 8.08637E-05-2.27052E-05-2.49558E-05-1.00638E-05-1.03948E-19-1.12017E-18
 -1      4174 8.15276E-05-2.20697E-05-2.55569E-05-8.60517E-06-4.78706E-19-7.15069E-19
 -1      4175 8.04079E-05-2.05856E-05-2.55357E-05-6.54339E-06-2.54446E-19-1.11780E-18
 -1      4176 9.66796E-05-2.84749E-05-2.92340E-05-4.41308E-07-1.00107E-19-4.74111E-19
 -1      4177 9.66633E-05-2.81558E-05-2.93560E-05-3.00676E-07 9.61908E-21-4.83250E-19
 -1      4178 9.66976E-05-2.78483E-05-2.95055E-05-1.61583E-07 8.78473E-20-2.69538E-19
 -1      4179 9.45369E-05-2.75210E-05-2.87214E-05-4.60120E-07-1.45556E-19 2.45967E-19
 -1      4180 9.46786E-05-2.76963E-05-2.87091E-05-3.98393E-07 2.82185E-19 5.61750E-19
 -1      4181 9.47159E-05-2.77347E-05-2.87027E-05-2.70755E-07 6.82074E-20 3.12938E-19
 -1      4182 9.67898E-05-2.85687E-05-2.92382E-05-3.75777E-07-2.73850E-19-2.26317E-19
 -1      4183 9.68253E-05-2.77896E-05-2.95846E-05 5.59522E-08-2.95747E-19 2.40520E-19
 -1      4184 9.68995E-05-2.82095E-05-2.94399E-05 1.61690E-07-1.46321E-19 3.04201E-19
 -1      4185 9.67601E-05-2.74650E-05-2.96989E-05 1.32244E-08-2.82502E-19 5.64622E-19
 -1      4186 9.59958E-05-2.54539E-05-3.02379E-05-3.09718E-07-1.57419E-19 2.88591E-19
 -1      4187 9.54447E-05-2.86248E-05-2.86363E-05-2.37715E-07-4.01009E-19 9.91812E-19
 -1      4188 9.55239E-05-2.87212E-05-2.86300E-05-2.34570E-07-1.03612E-19 6.35661E-19
 -1      4189 9.54034E-05-2.85681E-05-2.86439E-05-1.70617E-07-3.49922E-19 1.16768E-19
 -1      4190 9.69397E-05-2.85490E-05-2.93095E-05 1.82031E-07 1.37159E-19 2.21725E-19
 -1      4191 9.69380E-05-2.88105E-05-2.91975E-05 2.46212E-07 2.17088E-19 2.08154E-19
 -1      4192 9.69648E-05-2.89011E-05-2.91724E-05 1.35130E-07 3.41393E-19 5.45135E-20
 -1      4193 9.59275E-05-2.53676E-05-3.02435E-05 5.08650E-07 4.22627E-19-2.28167E-19
 -1      4194 7.03457E-05-1.74820E-05-2.25791E-05-2.14087E-06 8.64514E-19-1.51499E-18
 -1      4195 7.24833E-05-1.88197E-05-2.30647E-05-6.02385E-06 8.54924E-19-2.86677E-18
 -1      4196 7.27772E-05-1.80820E-05-2.34158E-05 1.25721E-07-9.97497E-21-2.66319E-18
 -1      4197 9.62535E-05-2.60727E-05-3.00685E-05 3.10832E-07 2.07425E-19-3.30070E-20
 -1      4198 9.63167E-05-2.61666E-05-3.00575E-05-1.58691E-07-2.06209E-19 2.93437E-19
 -1      4199 9.64428E-05-2.64657E-05-2.99897E-05-6.17284E-08-1.52198E-19 4.06285E-19
 -1      4200 7.70925E-05-1.90392E-05-2.49641E-05 3.90386E-06-1.75957E-19-3.28191E-18
 -1      4201 7.59783E-05-1.90645E-05-2.43733E-05 4.93403E-06-5.90168E-19-3.95738E-18
 -1      4202 7.44123E-05-1.82587E-05-2.39514E-05 2.92194E-06-8.15156E-19-4.23740E-18
 -1      4203 7.74218E-05-1.85564E-05-2.51219E-05 1.37473E-06-3.40529E-19-4.34650E-18
 -1      4204 9.43890E-05-2.73565E-05-2.87230E-05-3.46026E-07 4.57294E-20 9.07496E-19
 -1      4205 9.68795E-05-2.87102E-05-2.92175E-05-3.25349E-07-3.83232E-19 1.92588E-20
 -1      4206 9.68777E-05-2.84184E-05-2.93362E-05-2.37738E-07-1.91080E-19 4.59582E-20
 -1      4207 9.68208E-05-2.90914E-05-2.90265E-05-3.84250E-07-1.09874E-19-4.27130E-20
 -1      4208 9.68676E-05-2.89312E-05-2.91127E-05-3.44460E-07-3.51359E-19-1.46409E-19
 -1      4209 9.69354E-05-2.87987E-05-2.92041E-05-2.31773E-07-3.57088E-19 1.93013E-19
 -1      4210 9.68115E-05-2.80515E-05-2.94742E-05-1.89008E-07-2.08811E-21 3.33488E-20
 -1      4211 9.67302E-05-2.75982E-05-2.96252E-05-3.95894E-08 1.71417E-19 5.72136E-20
 -1      4212 9.68917E-05-2.81774E-05-2.94494E-05-1.40764E-07-1.48974E-19 4.05116E-19
 -1      4213 9.69494E-05-2.83427E-05-2.94044E-05 8.92000E-08-1.81153E-21 4.31052E-19
 -1      4214 8.03376E-05-2.38502E-05-2.41576E-05-1.26684E-05 1.99261E-19-1.64980E-18
 -1      4215 9.61336E-05-2.92494E-05-2.86633E-05-3.18646E-07-7.42974E-20 3.49482E-19
 -1      4216 9.62268E-05-2.92966E-05-2.86825E-05-3.40016E-07-4.15509E-20 3.44507E-19
 -1      4217 7.43194E-05-1.82818E-05-2.40790E-05-6.07730E-07-9.77000E-20-3.42075E-18
 -1      4218 9.56127E-05-2.88157E-05-2.86266E-05-2.38779E-07 1.54842E-19 6.55438E-19
 -1      4219 9.56901E-05-2.89003E-05-2.86244E-05-2.45210E-07 8.85161E-21 7.75938E-19
 -1      4220 9.55852E-05-2.87754E-05-2.86331E-05-1.67993E-07 1.88373E-19 2.95894E-19
 -1      4221 7.41206E-05-1.97125E-05-2.32090E-05-8.08451E-06 4.26314E-19-3.10877E-18
 -1      4222 7.60666E-05-2.13146E-05-2.35131E-05-1.03073E-05 6.75912E-19-2.74364E-18
 -1      4223 7.43064E-05-1.90075E-05-2.37377E-05-5.38204E-06 6.81536E-19-2.48605E-18
 -1      4224 9.63922E-05-2.92593E-05-2.87705E-05-6.26094E-07 2.10140E-19 9.85683E-20
 -1      4225 9.64638E-05-2.92205E-05-2.88168E-05-6.30398E-07 2.62978E-19 1.02141E-19
 -1      4226 9.66202E-05-2.92200E-05-2.88887E-05-5.19008E-07 2.28753E-19 4.10944E-19
 -1      4227 9.64476E-05-2.64764E-05-2.99916E-05 1.09607E-08-5.99693E-20 1.25334E-19
 -1      4228 9.66126E-05-2.68926E-05-2.98739E-05-9.57824E-09-4.14451E-20 3.22314E-19
 -1      4229 9.64553E-05-2.65113E-05-2.99770E-05 8.55918E-08 8.77438E-20 1.51084E-20
 -1      4230 9.62300E-05-2.92688E-05-2.86965E-05-5.82396E-07 1.94361E-19 3.60652E-19
 -1      4231 9.63056E-05-2.92713E-05-2.87274E-05-6.03466E-07 1.92771E-19 1.61970E-19
 -1      4232 9.64613E-05-2.93107E-05-2.87826E-05-5.11953E-07 1.01938E-19 2.27720E-19
 -1      4233 9.62869E-05-2.93084E-05-2.87086E-05-4.78208E-07 1.44126E-19 2.87142E-19
 -1      4234 7.92930E-05-2.22985E-05-2.44314E-05-1.02368E-05 9.78538E-20-2.04523E-18
 -1      4235 9.64799E-05-2.67829E-05-2.98745E-05 9.86279E-08 2.09665E-19 1.40107E-20
 -1      4236 9.59512E-05-2.91289E-05-2.86369E-05-2.82222E-07-2.51257E-19 6.86543E-19
 -1      4237 9.60358E-05-2.91908E-05-2.86470E-05-2.99383E-07-1.25106E-19 8.45309E-19
 -1      4238 9.61313E-05-2.92482E-05-2.86670E-05-2.18591E-07-1.47226E-19 9.71990E-19
 -1      4239 9.65920E-05-2.69921E-05-2.98289E-05 4.56938E-08 1.46458E-19 2.17023E-19
 -1      4240 9.43054E-05-2.72956E-05-2.87230E-05-9.73242E-08 2.32347E-19 6.30237E-19
 -1      4241 9.44906E-05-2.74977E-05-2.87142E-05-6.31149E-08 7.93880E-20 6.74347E-19
 -1      4242 9.67728E-05-2.93504E-05-2.88939E-05 2.97110E-08 8.04907E-20 2.51279E-19
 -1      4243 9.66797E-05-2.93883E-05-2.88377E-05 3.39929E-08-4.56222E-20 4.39195E-19
 -1      4244 9.65818E-05-2.94008E-05-2.87908E-05 2.70336E-08-2.96009E-19 6.91064E-19
 -1      4245 9.64869E-05-2.93932E-05-2.87521E-05 2.65596E-08-3.75867E-19 7.82618E-19
 -1      4246 9.66254E-05-2.93947E-05-2.88166E-05-9.86547E-08-4.58073E-20 4.70539E-19
 -1      4247 9.63391E-05-2.93461E-05-2.87103E-05-4.87597E-08-4.67259E-19 9.24816E-19
 -1      4248 9.62399E-05-2.93014E-05-2.86860E-05-4.65611E-08-4.05337E-19 6.55214E-19
 -1      4249 9.61437E-05-2.92473E-05-2.86685E-05-4.23361E-08-2.49262E-19 6.71606E-19
 -1      4250 9.60438E-05-2.91828E-05-2.86535E-05-4.21731E-08-2.16399E-20 7.17572E-19
 -1      4251 9.57932E-05-2.89753E-05-2.86358E-05 2.10274E-08 3.53430E-19 5.15937E-19
 -1      4252 9.57024E-05-2.88868E-05-2.86347E-05 1.96897E-08 5.62479E-19 2.47571E-19
 -1      4253 9.55782E-05-2.87595E-05-2.86363E-05-3.52226E-08 2.14245E-19-5.03045E-21
 -1      4254 9.54844E-05-2.86563E-05-2.86404E-05-3.33295E-08 6.96433E-21-2.21407E-19
 -1      4255 9.53891E-05-2.85466E-05-2.86469E-05-3.77699E-08-4.91694E-20-3.42474E-19
 -1      4256 9.52873E-05-2.84283E-05-2.86541E-05-3.46440E-08-1.59064E-20-5.97166E-20
 -1      4257 9.51811E-05-2.83024E-05-2.86633E-05-4.44513E-08 2.99249E-19-3.31089E-19
 -1      4258 9.50661E-05-2.81655E-05-2.86727E-05-3.93265E-08 1.49287E-19 2.69617E-19
 -1      4259 9.49423E-05-2.80192E-05-2.86833E-05-5.57912E-08-5.27956E-21 2.99735E-19
 -1      4260 9.48063E-05-2.78587E-05-2.86937E-05-4.83710E-08-4.26451E-19 1.96293E-19
 -1      4261 9.46565E-05-2.76871E-05-2.87043E-05-7.28847E-08-4.67852E-19 8.05982E-19
 -1      4262 9.40992E-05-2.70717E-05-2.87304E-05-8.54017E-08 2.52641E-19 4.47263E-19
 -1      4263 9.38683E-05-2.68344E-05-2.87349E-05-1.31337E-07-3.76164E-20 6.29216E-19
 -1      4264 9.36103E-05-2.65710E-05-2.87371E-05-1.17819E-07-5.12287E-19 3.57108E-19
 -1      4265 9.33222E-05-2.62948E-05-2.87342E-05-1.78054E-07-4.75234E-19 2.45790E-19
 -1      4266 9.29999E-05-2.59883E-05-2.87273E-05-1.64024E-07-5.28348E-19 3.41017E-19
 -1      4267 9.26426E-05-2.56716E-05-2.87124E-05-2.41927E-07-6.26001E-19 4.23734E-19
 -1      4268 9.22421E-05-2.53206E-05-2.86913E-05-2.29199E-07-3.28343E-19 1.93884E-19
 -1      4269 9.18033E-05-2.49652E-05-2.86583E-05-3.29356E-07-2.84572E-19 2.22693E-19
 -1      4270 9.13098E-05-2.45714E-05-2.86162E-05-3.20696E-07-3.54820E-19-7.01379E-20
 -1      4271 9.07766E-05-2.41834E-05-2.85569E-05-4.49638E-07-3.70332E-19 2.95244E-19
 -1      4272 9.01732E-05-2.37528E-05-2.84845E-05-4.48978E-07-2.26829E-19 1.52400E-19
 -1      4273 8.95322E-05-2.33439E-05-2.83880E-05-6.16432E-07-2.08204E-19 9.64608E-20
 -1      4274 8.87992E-05-2.28870E-05-2.82728E-05-6.29030E-07 1.65649E-19-5.34814E-20
 -1      4275 8.80353E-05-2.24751E-05-2.81250E-05-8.50044E-07 6.04086E-19-3.55057E-19
 -1      4276 8.71462E-05-2.20065E-05-2.79503E-05-8.82595E-07 8.82516E-19-6.31281E-19
 -1      4277 8.62397E-05-2.16156E-05-2.77324E-05-1.18100E-06 4.36026E-19-9.68250E-19
 -1      4278 8.51557E-05-2.11519E-05-2.74758E-05-1.24200E-06 2.30978E-19-7.77277E-19
 -1      4279 8.40774E-05-2.08110E-05-2.71628E-05-1.65551E-06-5.88352E-19-1.20393E-18
 -1      4280 8.27359E-05-2.03664E-05-2.67928E-05-1.75730E-06-6.63607E-19-1.95572E-18
 -1      4281 8.14416E-05-2.01062E-05-2.63506E-05-2.34290E-06-2.94001E-19-2.16153E-18
 -1      4282 7.97419E-05-1.96822E-05-2.58211E-05-2.51094E-06-7.11375E-22-2.70895E-18
 -1      4283 9.57795E-05-2.89835E-05-2.86259E-05-2.54466E-07-2.05848E-19 7.74353E-19
 -1      4284 9.58592E-05-2.90578E-05-2.86290E-05-2.68046E-07-2.62579E-19 4.31507E-19
 -1      4285 9.57610E-05-2.89553E-05-2.86317E-05-1.75671E-07-6.41313E-20 4.65011E-19
 -1      4286 9.69589E-05-2.82860E-05-2.94325E-05-5.13217E-08-3.16806E-19 4.94932E-19
 -1      4287 9.68812E-05-2.78642E-05-2.95736E-05-7.99140E-09-1.48602E-19 5.31460E-19
 -1      4288 7.80893E-05-1.94604E-05-2.51886E-05-3.30798E-06 6.59198E-19-3.65334E-18
 -1      4289 7.74405E-05-2.02653E-05-2.43973E-05-7.70040E-06 8.54195E-19-1.76813E-18
 -1      4290 9.69960E-05-2.86170E-05-2.93025E-05-2.50560E-08-5.49816E-20 3.64709E-19
 -1      4291 9.67740E-05-2.74676E-05-2.97051E-05 1.15310E-08-1.03442E-19 4.63758E-19
 -1      4292 9.69867E-05-2.88662E-05-2.91941E-05-6.08452E-08 4.18708E-20 6.80774E-20
 -1      4293 9.69517E-05-2.90611E-05-2.90938E-05-4.54706E-08 2.52802E-20 2.57569E-21
 -1      4294 9.63751E-05-2.93563E-05-2.87255E-05-1.62199E-07-3.07386E-19 6.80282E-19
 -1      4295 9.63812E-05-2.93496E-05-2.87270E-05-2.79027E-07-7.83195E-21 3.45776E-19
 -1      4296 9.69140E-05-2.91867E-05-2.90248E-05-1.76702E-08 2.34048E-19-1.25883E-20
 -1      4297 9.68382E-05-2.92897E-05-2.89482E-05-8.70914E-09 1.52866E-19 5.96607E-20
 -1      4298 9.67867E-05-2.93224E-05-2.89169E-05-1.49821E-07 2.14147E-19-1.63068E-19
 -1      4299 9.68846E-05-2.91450E-05-2.90346E-05-2.30848E-07-1.39635E-20-2.42191E-19
 -1      4300 7.65640E-05-1.91439E-05-2.46414E-05-3.01166E-06 4.21870E-19-3.20420E-18
 -1      4301 9.59836E-05-2.91362E-05-2.86479E-05 2.52994E-08-5.04520E-20 5.83098E-19
 -1      4302 9.58877E-05-2.90595E-05-2.86400E-05 2.17140E-08 1.61585E-19 6.36491E-19
 -1      4303 9.58381E-05-2.90173E-05-2.86383E-05-6.34758E-08 1.59812E-19 2.25754E-19
 -1      4304 9.59402E-05-2.91130E-05-2.86415E-05-1.92577E-07-1.31363E-19 6.09218E-19
 -1      4305 9.56202E-05-2.88063E-05-2.86350E-05-1.12864E-07 2.74463E-19-1.21168E-19
 -1      4306 9.67884E-05-2.91993E-05-2.89644E-05-3.44405E-07 1.02757E-19-1.37943E-20
 -1      4307 9.64755E-05-2.93647E-05-2.87593E-05-2.90824E-07-9.88100E-20 1.74115E-19
 -1      4308 9.67200E-05-2.92818E-05-2.89004E-05-3.54680E-07 2.65982E-19 2.09085E-19
 -1      4309 9.59873E-05-2.91463E-05-2.86473E-05-1.35706E-07-1.46194E-20 6.85120E-19
 -1      4310 7.59278E-05-1.92836E-05-2.42397E-05-5.72066E-06 8.72070E-19-2.16654E-18
 -1      4311 9.58928E-05-2.90685E-05-2.86384E-05-1.27270E-07-1.91868E-19 6.15901E-19
 -1      4312 9.57999E-05-2.89872E-05-2.86342E-05-1.20056E-07 1.11215E-20 1.94874E-19
 -1      4313 9.66600E-05-2.93343E-05-2.88515E-05-3.05871E-07 1.77579E-19 2.50060E-19
 -1      4314 9.65761E-05-2.93603E-05-2.88049E-05-3.01498E-07 4.23123E-20 1.00128E-19
 -1      4315 9.67310E-05-2.73700E-05-2.97280E-05-1.20386E-08 2.90407E-20 3.73296E-19
 -1      4316 9.57092E-05-2.88994E-05-2.86324E-05-1.15556E-07 4.04808E-19 1.50917E-19
 -3
    1PSTEP                         4           1           1          
  100CL  101 1.000000000        4316                     0    1           1
 -4  ERROR       1    1
 -5  STR(%)      1    1    0    0
 -1         1 2.22898E+01
 -1         2 2.52810E+01
 -1         3 1.40523E-01
 -1         4 1.55530E-01
 -1         5 1.40390E+01
 -1         6 1.31432E+01
 -1         7 1.31432E+01
 -1         8 3.66364E+00
 -1         9 1.82391E+00
 -1        10 1.29223E+00
 -1        11 1.04593E+00
 -1        12 8.99324E-01
 -1        13 8.08882E-01
 -1        14 7.53860E-01
 -1        15 7.55780E-01
 -1        16 8.13160E-01
 -1        17 9.00896E-01
 -1        18 1.05271E+00
 -1        19 1.30788E+00
 -1        20 1.83590E+00
 -1        21 3.50550E+00
 -1        22 8.64115E+00
 -1        23 1.31432E+01
 -1        24 4.31769E+00
 -1        25 3.34035E+00
 -1        26 2.11080E+00
 -1        27 1.36237E+00
 -1        28 1.01400E+00
 -1        29 7.74881E-01
 -1        30 5.94947E-01
 -1        31 4.54654E-01
 -1        32 3.47145E-01
 -1        33 2.68268E-01
 -1        34 2.04886E-01
 -1        35 1.54954E-01
 -1        36 1.16508E-01
 -1        37 8.77645E-02
 -1        38 6.71626E-02
 -1        39 5.33716E-02
 -1        40 4.52813E-02
 -1        41 4.58214E-02
 -1        42 5.47524E-02
 -1        43 6.71891E-02
 -1        44 8.25831E-02
 -1        45 1.01137E-01
 -1        46 1.38485E-01
 -1        47 1.86889E-01
 -1        48 2.47548E-01
 -1        49 3.20941E-01
 -1        50 4.06076E-01
 -1        51 4.99344E-01
 -1        52 5.92899E-01
 -1        53 7.74283E-01
 -1        54 9.81542E-01
 -1        55 1.23742E+00
 -1        56 1.49922E+00
 -1        57 1.66775E+00
 -1        58 1.67331E+00
 -1        59 1.85643E+00
 -1        60 1.89817E+00
 -1        61 2.68894E+00
 -1        62 4.50182E+00
 -1        63 6.23131E+00
 -1        64 6.30130E+00
 -1        65 6.30130E+00
 -1        66 5.92842E+00
 -1        67 4.48277E+00
 -1        68 2.63784E+00
 -1        69 1.36709E+00
 -1        70 7.15539E-01
 -1        71 3.68683E-01
 -1        72 1.40390E+01
 -1        73 3.39459E+00
 -1        74 2.41290E+00
 -1        75 1.66566E+00
 -1        76 1.14454E+00
 -1        77 9.05864E-01
 -1        78 7.31162E-01
 -1        79 5.87635E-01
 -1        80 4.67992E-01
 -1        81 3.68385E-01
 -1        82 2.94072E-01
 -1        83 2.32183E-01
 -1        84 1.81084E-01
 -1        85 1.39999E-01
 -1        86 1.07960E-01
 -1        87 8.39818E-02
 -1        88 6.71541E-02
 -1        89 5.66992E-02
 -1        90 5.53724E-02
 -1        91 6.55073E-02
 -1        92 8.10142E-02
 -1        93 1.01726E-01
 -1        94 1.27304E-01
 -1        95 1.57009E-01
 -1        96 1.89397E-01
 -1        97 2.35920E-01
 -1        98 3.00366E-01
 -1        99 3.71570E-01
 -1       100 4.44168E-01
 -1       101 5.08653E-01
 -1       102 5.49982E-01
 -1       103 5.71639E-01
 -1       104 7.69456E-01
 -1       105 9.62578E-01
 -1       106 1.09445E+00
 -1       107 1.41181E+00
 -1       108 1.69483E+00
 -1       109 1.81741E+00
 -1       110 2.32276E+00
 -1       111 2.85532E+00
 -1       112 4.09964E+00
 -1       113 4.45222E+00
 -1       114 4.60276E+00
 -1       115 4.60276E+00
 -1       116 3.99978E+00
 -1       117 2.78734E+00
 -1       118 1.76107E+00
 -1       119 1.01126E+00
 -1       120 4.79430E-01
 -1       121 2.72582E-01
 -1       122 4.24534E-01
 -1       123 7.36376E-01
 -1       124 9.84876E-01
 -1       125 1.02099E+00
 -1       126 1.02099E+00
 -1       127 6.24330E-01
 -1       128 1.61581E+00
 -1       129 1.61581E+00
 -1       130 1.45423E+00
 -1       131 7.14849E-01
 -1       132 1.02363E+00
 -1       133 1.02363E+00
 -1       134 9.00301E-01
 -1       135 5.48518E-01
 -1       136 4.32253E-01
 -1       137 2.47594E+01
 -1       138 4.78327E+01
 -1       139 4.78327E+01
 -1       140 2.07194E+01
 -1       141 1.19428E+01
 -1       142 1.21024E+01
 -1       143 1.21509E+01
 -1       144 1.35967E+01
 -1       145 1.35967E+01
 -1       146 1.21790E+01
 -1       147 2.51734E+01
 -1       148 2.93593E+01
 -1       149 2.93593E+01
 -1       150 2.43553E+01
 -1       151 2.52108E+01
 -1       152 2.52108E+01
 -1       153 4.82783E+01
 -1       154 4.82783E+01
 -1       155 1.20800E+01
 -1       156 1.22995E+01
 -1       157 1.24161E+01
 -1       158 1.24161E+01
 -1       159 1.23036E+01
 -1       160 1.18961E+01
 -1       161 2.14947E+01
 -1       162 4.77966E+01
 -1       163 4.77966E+01
 -1       164 2.52810E+01
 -1       165 6.07779E+00
 -1       166 2.29817E+00
 -1       167 1.50867E+00
 -1       168 1.15773E+00
 -1       169 9.73207E-01
 -1       170 8.64134E-01
 -1       171 7.96066E-01
 -1       172 7.55780E-01
 -1       173 7.99431E-01
 -1       174 8.67255E-01
 -1       175 9.81087E-01
 -1       176 1.17261E+00
 -1       177 1.52769E+00
 -1       178 2.26092E+00
 -1       179 3.93112E+00
 -1       180 1.40390E+01
 -1       181 4.31769E+00
 -1       182 3.34035E+00
 -1       183 2.11080E+00
 -1       184 1.44695E+00
 -1       185 1.02529E+00
 -1       186 7.74881E-01
 -1       187 5.94947E-01
 -1       188 4.67511E-01
 -1       189 3.67412E-01
 -1       190 2.89483E-01
 -1       191 2.32779E-01
 -1       192 1.84715E-01
 -1       193 1.45128E-01
 -1       194 1.13399E-01
 -1       195 8.86896E-02
 -1       196 7.00823E-02
 -1       197 5.66538E-02
 -1       198 4.75069E-02
 -1       199 4.58214E-02
 -1       200 5.47524E-02
 -1       201 6.71891E-02
 -1       202 8.39941E-02
 -1       203 1.12261E-01
 -1       204 1.48811E-01
 -1       205 1.94482E-01
 -1       206 2.49612E-01
 -1       207 3.26306E-01
 -1       208 4.42569E-01
 -1       209 5.80960E-01
 -1       210 7.35853E-01
 -1       211 8.93617E-01
 -1       212 1.03414E+00
 -1       213 1.23742E+00
 -1       214 1.49922E+00
 -1       215 1.66775E+00
 -1       216 1.67331E+00
 -1       217 1.85643E+00
 -1       218 1.89817E+00
 -1       219 2.78326E+00
 -1       220 4.50182E+00
 -1       221 6.23131E+00
 -1       222 6.30130E+00
 -1       223 5.92842E+00
 -1       224 4.48277E+00
 -1       225 3.13856E+00
 -1       226 1.96897E+00
 -1       227 1.33418E+00
 -1       228 8.67640E-01
 -1       229 3.39459E+00
 -1       230 2.41290E+00
 -1       231 1.66566E+00
 -1       232 1.14454E+00
 -1       233 9.05864E-01
 -1       234 7.31162E-01
 -1       235 5.87635E-01
 -1       236 4.67992E-01
 -1       237 3.68385E-01
 -1       238 2.94072E-01
 -1       239 2.32183E-01
 -1       240 1.84018E-01
 -1       241 1.44898E-01
 -1       242 1.13562E-01
 -1       243 8.93600E-02
 -1       244 7.15869E-02
 -1       245 5.95603E-02
 -1       246 5.37059E-02
 -1       247 6.00469E-02
 -1       248 7.07514E-02
 -1       249 8.54360E-02
 -1       250 1.03542E-01
 -1       251 1.27304E-01
 -1       252 1.63434E-01
 -1       253 2.09625E-01
 -1       254 2.62650E-01
 -1       255 3.20068E-01
 -1       256 3.77484E-01
 -1       257 4.44168E-01
 -1       258 5.08653E-01
 -1       259 5.49982E-01
 -1       260 6.63397E-01
 -1       261 7.87148E-01
 -1       262 9.62578E-01
 -1       263 1.09445E+00
 -1       264 1.41181E+00
 -1       265 1.69483E+00
 -1       266 1.81741E+00
 -1       267 2.32276E+00
 -1       268 3.00490E+00
 -1       269 4.09964E+00
 -1       270 4.45222E+00
 -1       271 4.60276E+00
 -1       272 3.99978E+00
 -1       273 2.78734E+00
 -1       274 1.77287E+00
 -1       275 1.04460E+00
 -1       276 5.41637E-01
 -1       277 6.45148E-01
 -1       278 1.07707E+00
 -1       279 1.62101E+00
 -1       280 1.77020E+00
 -1       281 1.77020E+00
 -1       282 1.72487E+00
 -1       283 2.89095E+00
 -1       284 3.53318E+00
 -1       285 3.53318E+00
 -1       286 2.36400E+00
 -1       287 1.77341E+00
 -1       288 1.77341E+00
 -1       289 1.74495E+00
 -1       290 1.39900E+00
 -1       291 1.08930E+00
 -1       292 3.30362E+01
 -1       293 2.83676E+01
 -1       294 4.78327E+01
 -1       295 2.26653E+01
 -1       296 1.14445E+01
 -1       297 1.19428E+01
 -1       298 1.21024E+01
 -1       299 1.21509E+01
 -1       300 1.35967E+01
 -1       301 1.19556E+01
 -1       302 1.21790E+01
 -1       303 2.55747E+01
 -1       304 2.93593E+01
 -1       305 2.39872E+01
 -1       306 2.72347E+01
 -1       307 2.72347E+01
 -1       308 3.01186E+01
 -1       309 4.82783E+01
 -1       310 2.36763E+01
 -1       311 1.20800E+01
 -1       312 1.17840E+01
 -1       313 1.22995E+01
 -1       314 1.24161E+01
 -1       315 1.23036E+01
 -1       316 1.18961E+01
 -1       317 1.13112E+01
 -1       318 2.35052E+01
 -1       319 4.77966E+01
 -1       320 2.95409E+01
 -1       321 3.30362E+01
 -1       322 1.04662E+00
 -1       323 2.48008E+00
 -1       324 7.91376E-01
 -1       325 6.94084E-01
 -1       326 6.31770E-01
 -1       327 5.87628E-01
 -1       328 5.90836E-01
 -1       329 6.34551E-01
 -1       330 7.01334E-01
 -1       331 7.96554E-01
 -1       332 9.31963E-01
 -1       333 1.16030E+00
 -1       334 1.32926E+00
 -1       335 2.20055E+00
 -1       336 1.91401E+00
 -1       337 1.72880E+00
 -1       338 1.26723E+00
 -1       339 9.06475E-01
 -1       340 6.55626E-01
 -1       341 5.38155E-01
 -1       342 4.40938E-01
 -1       343 3.55309E-01
 -1       344 2.89911E-01
 -1       345 2.34674E-01
 -1       346 1.87273E-01
 -1       347 1.51909E-01
 -1       348 1.22757E-01
 -1       349 9.83978E-02
 -1       350 7.85893E-02
 -1       351 6.28371E-02
 -1       352 5.04910E-02
 -1       353 4.24555E-02
 -1       354 4.32872E-02
 -1       355 4.83189E-02
 -1       356 6.29895E-02
 -1       357 8.39941E-02
 -1       358 1.12261E-01
 -1       359 1.60972E-01
 -1       360 2.26068E-01
 -1       361 3.08687E-01
 -1       362 4.10415E-01
 -1       363 5.30908E-01
 -1       364 6.66251E-01
 -1       365 8.06638E-01
 -1       366 9.33567E-01
 -1       367 1.05141E+00
 -1       368 1.18878E+00
 -1       369 1.26301E+00
 -1       370 1.16558E+00
 -1       371 9.77842E-01
 -1       372 1.13109E+00
 -1       373 1.91690E+00
 -1       374 2.80139E+00
 -1       375 3.67835E+00
 -1       376 3.98033E+00
 -1       377 3.62846E+00
 -1       378 3.55032E+00
 -1       379 3.00099E+00
 -1       380 2.55403E+00
 -1       381 2.12227E+00
 -1       382 1.83403E+00
 -1       383 1.13023E+00
 -1       384 8.90890E-01
 -1       385 7.03346E-01
 -1       386 5.44515E-01
 -1       387 4.37283E-01
 -1       388 3.70662E-01
 -1       389 3.06804E-01
 -1       390 2.51296E-01
 -1       391 2.05948E-01
 -1       392 1.66268E-01
 -1       393 1.32755E-01
 -1       394 1.05286E-01
 -1       395 8.37948E-02
 -1       396 6.77946E-02
 -1       397 5.65727E-02
 -1       398 4.97034E-02
 -1       399 4.86569E-02
 -1       400 5.35549E-02
 -1       401 6.23279E-02
 -1       402 8.12549E-02
 -1       403 1.05805E-01
 -1       404 1.36289E-01
 -1       405 1.90160E-01
 -1       406 2.61071E-01
 -1       407 3.46982E-01
 -1       408 4.46171E-01
 -1       409 5.53338E-01
 -1       410 6.57810E-01
 -1       411 7.47402E-01
 -1       412 8.31916E-01
 -1       413 8.50737E-01
 -1       414 8.50737E-01
 -1       415 7.54799E-01
 -1       416 7.31407E-01
 -1       417 8.57989E-01
 -1       418 1.61118E+00
 -1       419 2.39657E+00
 -1       420 2.80041E+00
 -1       421 2.80041E+00
 -1       422 2.74195E+00
 -1       423 2.62862E+00
 -1       424 2.60889E+00
 -1       425 2.17985E+00
 -1       426 1.69920E+00
 -1       427 1.08488E+00
 -1       428 5.02863E-01
 -1       429 2.12344E+00
 -1       430 1.83192E+00
 -1       431 1.08488E+00
 -1       432 2.50804E+00
 -1       433 2.70228E+00
 -1       434 3.59935E+00
 -1       435 6.17724E+00
 -1       436 6.17724E+00
 -1       437 5.66911E+00
 -1       438 3.46947E+00
 -1       439 2.61688E+00
 -1       440 2.35239E+00
 -1       441 2.02288E+00
 -1       442 2.83676E+01
 -1       443 3.30362E+01
 -1       444 2.90284E+01
 -1       445 1.64554E+01
 -1       446 9.58020E+00
 -1       447 9.19963E-01
 -1       448 9.95070E+00
 -1       449 1.04522E+01
 -1       450 1.14048E+01
 -1       451 8.96830E+00
 -1       452 6.97986E+00
 -1       453 1.10386E+01
 -1       454 1.86404E+01
 -1       455 2.21293E+01
 -1       456 2.98588E+01
 -1       457 2.98588E+01
 -1       458 2.60461E+01
 -1       459 3.01186E+01
 -1       460 1.76727E+01
 -1       461 1.03745E+01
 -1       462 7.23780E+00
 -1       463 9.74889E+00
 -1       464 1.07311E+01
 -1       465 1.08280E+01
 -1       466 9.67653E+00
 -1       467 7.13623E+00
 -1       468 9.75910E+00
 -1       469 1.71211E+01
 -1       470 2.95409E+01
 -1       471 2.83652E+01
 -1       472 7.33393E+00
 -1       473 1.73380E+01
 -1       474 1.04747E+00
 -1       475 4.86231E-01
 -1       476 5.09911E-01
 -1       477 4.31606E-01
 -1       478 4.57537E-01
 -1       479 4.87208E-01
 -1       480 5.11417E-01
 -1       481 5.11417E-01
 -1       482 6.09361E-01
 -1       483 8.90890E-01
 -1       484 8.03270E-01
 -1       485 6.12659E+00
 -1       486 7.04512E-01
 -1       487 5.88605E-01
 -1       488 4.76131E-01
 -1       489 3.77391E-01
 -1       490 3.22513E-01
 -1       491 2.72449E-01
 -1       492 2.25116E-01
 -1       493 1.86634E-01
 -1       494 1.53056E-01
 -1       495 1.23855E-01
 -1       496 9.92754E-02
 -1       497 7.97301E-02
 -1       498 6.39921E-02
 -1       499 5.05975E-02
 -1       500 4.11040E-02
 -1       501 3.58776E-02
 -1       502 3.86117E-02
 -1       503 4.83189E-02
 -1       504 6.68279E-02
 -1       505 1.00088E-01
 -1       506 1.43349E-01
 -1       507 1.98949E-01
 -1       508 2.69202E-01
 -1       509 3.56076E-01
 -1       510 4.60644E-01
 -1       511 5.82193E-01
 -1       512 7.16892E-01
 -1       513 8.56001E-01
 -1       514 9.84307E-01
 -1       515 1.08842E+00
 -1       516 1.23384E+00
 -1       517 1.40361E+00
 -1       518 1.51830E+00
 -1       519 1.77980E+00
 -1       520 2.26684E+00
 -1       521 2.43566E+00
 -1       522 3.36899E+00
 -1       523 5.03665E+00
 -1       524 4.08794E+00
 -1       525 3.71645E+00
 -1       526 2.95056E+00
 -1       527 2.86107E+00
 -1       528 2.55403E+00
 -1       529 5.44515E-01
 -1       530 4.37283E-01
 -1       531 3.70662E-01
 -1       532 3.06804E-01
 -1       533 2.51296E-01
 -1       534 2.06659E-01
 -1       535 1.67533E-01
 -1       536 1.34181E-01
 -1       537 1.08778E-01
 -1       538 8.79302E-02
 -1       539 7.05118E-02
 -1       540 5.61500E-02
 -1       541 4.42728E-02
 -1       542 3.91264E-02
 -1       543 3.87879E-02
 -1       544 4.83170E-02
 -1       545 6.22741E-02
 -1       546 8.76861E-02
 -1       547 1.26858E-01
 -1       548 1.76842E-01
 -1       549 2.39120E-01
 -1       550 3.14400E-01
 -1       551 4.01916E-01
 -1       552 4.98422E-01
 -1       553 5.96890E-01
 -1       554 6.85039E-01
 -1       555 7.70290E-01
 -1       556 8.31916E-01
 -1       557 8.64808E-01
 -1       558 8.57754E-01
 -1       559 8.42141E-01
 -1       560 1.05246E+00
 -1       561 1.34251E+00
 -1       562 2.00862E+00
 -1       563 2.44686E+00
 -1       564 2.82355E+00
 -1       565 2.80315E+00
 -1       566 2.99197E+00
 -1       567 2.60889E+00
 -1       568 2.41064E+00
 -1       569 2.29879E+00
 -1       570 2.41787E+00
 -1       571 3.97848E+00
 -1       572 6.02309E+00
 -1       573 2.41787E+00
 -1       574 2.51174E+00
 -1       575 7.31530E+00
 -1       576 1.14394E+01
 -1       577 1.14394E+01
 -1       578 6.81698E+00
 -1       579 5.34303E+00
 -1       580 3.38134E+00
 -1       581 2.16009E+00
 -1       582 2.90284E+01
 -1       583 2.07826E+01
 -1       584 2.83652E+01
 -1       585 7.03346E-01
 -1       586 1.34856E+01
 -1       587 8.73547E-01
 -1       588 5.17823E+00
 -1       589 2.98588E+01
 -1       590 6.44865E+00
 -1       591 4.57515E-01
 -1       592 8.25348E+00
 -1       593 2.60461E+01
 -1       594 7.91181E+00
 -1       595 3.96353E+00
 -1       596 4.77588E+00
 -1       597 8.23775E+00
 -1       598 2.21293E+01
 -1       599 9.32661E+00
 -1       600 1.95991E+01
 -1       601 1.38851E+01
 -1       602 4.90273E+00
 -1       603 5.23612E+00
 -1       604 7.00999E+00
 -1       605 8.24264E+00
 -1       606 7.68052E+00
 -1       607 6.04000E+00
 -1       608 6.18578E+00
 -1       609 7.93235E+00
 -1       610 1.32397E+01
 -1       611 2.05062E+01
 -1       612 1.32793E+00
 -1       613 7.97141E+00
 -1       614 7.26093E-01
 -1       615 1.89184E+01
 -1       616 7.47411E+00
 -1       617 9.18769E+00
 -1       618 2.12227E+00
 -1       619 3.58310E-01
 -1       620 3.42875E-01
 -1       621 3.61913E-01
 -1       622 3.38053E-01
 -1       623 5.43855E-01
 -1       624 5.14643E-01
 -1       625 1.05982E+01
 -1       626 3.97868E-01
 -1       627 3.83391E-01
 -1       628 3.42940E-01
 -1       629 2.93359E-01
 -1       630 2.43746E-01
 -1       631 2.12539E-01
 -1       632 1.80119E-01
 -1       633 1.49213E-01
 -1       634 1.21349E-01
 -1       635 9.83910E-02
 -1       636 7.97301E-02
 -1       637 6.39921E-02
 -1       638 5.05975E-02
 -1       639 3.98242E-02
 -1       640 3.09257E-02
 -1       641 2.66461E-02
 -1       642 3.22679E-02
 -1       643 5.24883E-02
 -1       644 7.98470E-02
 -1       645 1.14781E-01
 -1       646 1.59279E-01
 -1       647 2.15500E-01
 -1       648 2.85714E-01
 -1       649 3.72205E-01
 -1       650 4.77123E-01
 -1       651 6.02296E-01
 -1       652 7.54121E-01
 -1       653 9.23702E-01
 -1       654 1.10015E+00
 -1       655 1.29004E+00
 -1       656 1.53010E+00
 -1       657 1.95791E+00
 -1       658 2.39312E+00
 -1       659 2.95675E+00
 -1       660 2.43566E+00
 -1       661 3.36899E+00
 -1       662 4.30886E+00
 -1       663 7.27044E+00
 -1       664 6.04000E+00
 -1       665 3.27293E+00
 -1       666 2.98899E+00
 -1       667 3.27499E-01
 -1       668 3.95876E-01
 -1       669 2.33144E-01
 -1       670 1.96001E-01
 -1       671 1.61972E-01
 -1       672 1.34149E-01
 -1       673 1.09458E-01
 -1       674 8.82624E-02
 -1       675 7.05118E-02
 -1       676 5.61500E-02
 -1       677 4.42728E-02
 -1       678 3.57091E-02
 -1       679 2.96919E-02
 -1       680 3.56714E-02
 -1       681 4.79454E-02
 -1       682 7.41094E-02
 -1       683 1.07425E-01
 -1       684 1.49576E-01
 -1       685 2.02171E-01
 -1       686 2.66530E-01
 -1       687 3.43327E-01
 -1       688 4.32079E-01
 -1       689 5.30399E-01
 -1       690 6.33011E-01
 -1       691 7.34398E-01
 -1       692 8.14753E-01
 -1       693 9.39667E-01
 -1       694 1.08382E+00
 -1       695 1.19360E+00
 -1       696 1.35902E+00
 -1       697 1.91780E+00
 -1       698 1.87063E+00
 -1       699 2.16278E+00
 -1       700 2.82355E+00
 -1       701 5.01271E+00
 -1       702 3.79302E+00
 -1       703 4.10458E+00
 -1       704 2.51169E+00
 -1       705 2.53474E+00
 -1       706 2.42459E+00
 -1       707 1.30225E+01
 -1       708 2.40289E+00
 -1       709 6.49752E+00
 -1       710 1.43572E+01
 -1       711 9.78114E+00
 -1       712 5.13482E+00
 -1       713 2.98899E+00
 -1       714 1.03548E+01
 -1       715 3.24232E+00
 -1       716 4.64712E-01
 -1       717 1.40589E+01
 -1       718 5.99715E+00
 -1       719 4.63417E-01
 -1       720 2.72828E-01
 -1       721 5.94468E+00
 -1       722 3.65434E+00
 -1       723 3.55107E+00
 -1       724 3.61913E-01
 -1       725 3.65570E-01
 -1       726 1.45564E+01
 -1       727 1.56992E+01
 -1       728 2.91644E+00
 -1       729 5.95600E+00
 -1       730 1.25267E+01
 -1       731 1.10093E+01
 -1       732 7.21804E+00
 -1       733 8.12582E+00
 -1       734 5.03665E+00
 -1       735 5.33286E+00
 -1       736 7.62285E+00
 -1       737 4.76125E+00
 -1       738 4.64712E-01
 -1       739 3.42635E-01
 -1       740 2.98553E+00
 -1       741 1.02351E+01
 -1       742 2.42459E+00
 -1       743 5.04464E+00
 -1       744 6.39176E+00
 -1       745 3.36425E+00
 -1       746 3.57756E-01
 -1       747 3.65434E+00
 -1       748 4.78158E+00
 -1       749 2.70499E+00
 -1       750 8.45381E+00
 -1       751 2.41893E-01
 -1       752 1.09031E+01
 -1       753 2.55974E-01
 -1       754 2.48524E-01
 -1       755 2.26664E-01
 -1       756 1.98354E-01
 -1       757 1.71734E-01
 -1       758 1.50585E-01
 -1       759 1.28337E-01
 -1       760 1.06872E-01
 -1       761 8.71882E-02
 -1       762 6.96708E-02
 -1       763 5.42729E-02
 -1       764 4.06476E-02
 -1       765 2.82392E-02
 -1       766 1.71665E-02
 -1       767 1.90086E-02
 -1       768 3.58960E-02
 -1       769 5.85449E-02
 -1       770 8.75556E-02
 -1       771 1.26352E-01
 -1       772 1.77014E-01
 -1       773 2.41411E-01
 -1       774 3.21969E-01
 -1       775 4.20764E-01
 -1       776 5.38891E-01
 -1       777 6.75266E-01
 -1       778 8.24456E-01
 -1       779 1.03065E+00
 -1       780 1.30845E+00
 -1       781 1.72287E+00
 -1       782 2.20448E+00
 -1       783 3.10995E+00
 -1       784 5.06975E+00
 -1       785 4.80368E+00
 -1       786 3.36848E+00
 -1       787 1.63032E-01
 -1       788 1.88653E-01
 -1       789 1.13236E-01
 -1       790 9.16557E-02
 -1       791 7.28210E-02
 -1       792 5.65590E-02
 -1       793 4.32031E-02
 -1       794 3.27640E-02
 -1       795 2.30075E-02
 -1       796 2.14355E-02
 -1       797 3.35514E-02
 -1       798 5.46842E-02
 -1       799 8.10951E-02
 -1       800 1.14300E-01
 -1       801 1.55946E-01
 -1       802 2.07785E-01
 -1       803 2.71635E-01
 -1       804 3.51544E-01
 -1       805 4.49281E-01
 -1       806 5.63544E-01
 -1       807 6.92159E-01
 -1       808 8.28229E-01
 -1       809 9.79664E-01
 -1       810 1.16103E+00
 -1       811 1.47458E+00
 -1       812 1.79076E+00
 -1       813 1.95811E+00
 -1       814 3.70387E+00
 -1       815 2.07485E+00
 -1       816 4.10458E+00
 -1       817 3.65434E+00
 -1       818 2.96114E+00
 -1       819 2.88077E-01
 -1       820 4.41211E+00
 -1       821 2.31774E-01
 -1       822 1.37312E-01
 -1       823 2.85625E-01
 -1       824 2.54812E-01
 -1       825 5.44624E+00
 -1       826 1.09031E+01
 -1       827 3.57914E+00
 -1       828 2.82022E-01
 -1       829 3.27293E+00
 -1       830 3.05882E+00
 -1       831 6.93907E+00
 -1       832 2.49252E+00
 -1       833 9.01816E+00
 -1       834 3.05689E-01
 -1       835 2.81898E-01
 -1       836 7.52772E+00
 -1       837 2.53798E-01
 -1       838 2.99149E-01
 -1       839 2.17121E-01
 -1       840 2.88077E-01
 -1       841 3.22863E-01
 -1       842 2.39521E-01
 -1       843 2.74052E-01
 -1       844 5.98146E+00
 -1       845 1.74380E-01
 -1       846 1.82399E-01
 -1       847 1.75226E-01
 -1       848 1.59556E-01
 -1       849 1.39931E-01
 -1       850 1.23330E-01
 -1       851 1.06904E-01
 -1       852 9.02384E-02
 -1       853 7.43849E-02
 -1       854 5.98452E-02
 -1       855 4.67049E-02
 -1       856 3.47850E-02
 -1       857 2.59833E-02
 -1       858 2.79387E-02
 -1       859 3.47196E-02
 -1       860 5.48805E-02
 -1       861 8.24980E-02
 -1       862 1.18294E-01
 -1       863 1.64271E-01
 -1       864 2.22874E-01
 -1       865 2.96905E-01
 -1       866 3.89598E-01
 -1       867 5.04713E-01
 -1       868 6.46637E-01
 -1       869 8.20315E-01
 -1       870 1.03065E+00
 -1       871 1.27983E+00
 -1       872 1.68897E+00
 -1       873 2.25574E+00
 -1       874 3.05041E+00
 -1       875 6.42022E-02
 -1       876 8.00644E-02
 -1       877 9.75621E-02
 -1       878 5.00303E-02
 -1       879 3.72908E-02
 -1       880 2.54899E-02
 -1       881 2.30474E-02
 -1       882 2.73913E-02
 -1       883 4.62619E-02
 -1       884 7.04527E-02
 -1       885 1.02682E-01
 -1       886 1.43524E-01
 -1       887 1.94629E-01
 -1       888 2.57485E-01
 -1       889 3.33147E-01
 -1       890 4.21776E-01
 -1       891 5.21865E-01
 -1       892 6.28853E-01
 -1       893 7.79357E-01
 -1       894 9.78704E-01
 -1       895 1.28639E+00
 -1       896 1.66371E+00
 -1       897 2.48528E+00
 -1       898 3.42062E+00
 -1       899 7.22919E+00
 -1       900 2.96114E+00
 -1       901 1.37823E-01
 -1       902 4.79825E+00
 -1       903 3.22863E-01
 -1       904 1.65733E-01
 -1       905 7.22919E+00
 -1       906 1.52100E-01
 -1       907 7.52772E+00
 -1       908 6.89370E+00
 -1       909 1.75746E-01
 -1       910 2.30218E-01
 -1       911 2.00378E-01
 -1       912 4.15323E+00
 -1       913 1.16227E-01
 -1       914 1.41524E-01
 -1       915 2.03178E-01
 -1       916 1.73882E-01
 -1       917 2.33604E-01
 -1       918 5.23850E+00
 -1       919 1.34999E-01
 -1       920 1.23405E-01
 -1       921 4.19150E-02
 -1       922 1.35998E-01
 -1       923 1.35379E-01
 -1       924 1.26585E-01
 -1       925 1.13319E-01
 -1       926 9.81434E-02
 -1       927 8.56408E-02
 -1       928 7.27482E-02
 -1       929 6.02982E-02
 -1       930 4.87267E-02
 -1       931 3.82213E-02
 -1       932 3.21589E-02
 -1       933 3.35141E-02
 -1       934 3.75952E-02
 -1       935 4.71351E-02
 -1       936 7.01184E-02
 -1       937 9.97962E-02
 -1       938 1.37957E-01
 -1       939 1.86733E-01
 -1       940 2.48740E-01
 -1       941 3.27331E-01
 -1       942 4.27099E-01
 -1       943 5.54815E-01
 -1       944 7.21117E-01
 -1       945 9.43254E-01
 -1       946 1.24876E+00
 -1       947 1.68897E+00
 -1       948 2.09318E+00
 -1       949 2.47315E+00
 -1       950 6.64748E-02
 -1       951 5.35918E-02
 -1       952 4.43406E+00
 -1       953 8.05362E-02
 -1       954 3.12338E-02
 -1       955 3.02909E-02
 -1       956 3.32957E-02
 -1       957 4.17448E-02
 -1       958 6.37674E-02
 -1       959 9.23099E-02
 -1       960 1.28746E-01
 -1       961 1.74884E-01
 -1       962 2.32718E-01
 -1       963 3.04424E-01
 -1       964 3.92376E-01
 -1       965 4.99137E-01
 -1       966 6.27379E-01
 -1       967 7.79357E-01
 -1       968 9.54544E-01
 -1       969 1.24863E+00
 -1       970 1.71842E+00
 -1       971 2.32170E+00
 -1       972 3.35944E+00
 -1       973 2.33604E-01
 -1       974 2.30218E-01
 -1       975 5.56099E+00
 -1       976 1.78256E-01
 -1       977 9.10074E-02
 -1       978 1.06457E-01
 -1       979 1.96296E-01
 -1       980 4.58414E+00
 -1       981 1.40615E-01
 -1       982 2.07654E-01
 -1       983 1.55945E-01
 -1       984 1.58886E-01
 -1       985 1.49440E-01
 -1       986 3.26650E+00
 -1       987 3.55614E+00
 -1       988 9.51189E-02
 -1       989 1.24782E-01
 -1       990 1.07728E-01
 -1       991 1.52295E-01
 -1       992 3.38905E-02
 -1       993 1.01722E-01
 -1       994 1.03223E-01
 -1       995 9.78525E-02
 -1       996 8.84975E-02
 -1       997 7.72791E-02
 -1       998 6.55806E-02
 -1       999 5.53483E-02
 -1      1000 4.59856E-02
 -1      1001 3.79245E-02
 -1      1002 3.62323E-02
 -1      1003 3.63952E-02
 -1      1004 3.96219E-02
 -1      1005 4.60633E-02
 -1      1006 5.84187E-02
 -1      1007 7.66015E-02
 -1      1008 1.04573E-01
 -1      1009 1.41107E-01
 -1      1010 1.87607E-01
 -1      1011 2.46633E-01
 -1      1012 3.21821E-01
 -1      1013 4.18846E-01
 -1      1014 5.47353E-01
 -1      1015 7.24912E-01
 -1      1016 9.84355E-01
 -1      1017 1.40078E+00
 -1      1018 1.63466E+00
 -1      1019 3.66035E-02
 -1      1020 4.16997E-02
 -1      1021 5.20775E-02
 -1      1022 7.49597E-02
 -1      1023 1.04522E-01
 -1      1024 1.42473E-01
 -1      1025 1.90874E-01
 -1      1026 2.52304E-01
 -1      1027 3.30142E-01
 -1      1028 4.29089E-01
 -1      1029 5.56079E-01
 -1      1030 7.21853E-01
 -1      1031 9.43827E-01
 -1      1032 1.24863E+00
 -1      1033 1.64857E+00
 -1      1034 2.61357E+00
 -1      1035 1.53421E-01
 -1      1036 1.09113E-01
 -1      1037 4.58414E+00
 -1      1038 8.97125E-02
 -1      1039 1.40096E-01
 -1      1040 3.45065E-02
 -1      1041 9.13467E-02
 -1      1042 6.12237E-02
 -1      1043 1.99995E+00
 -1      1044 4.24849E-02
 -1      1045 5.24647E-02
 -1      1046 1.30498E-01
 -1      1047 1.06383E-01
 -1      1048 2.32170E+00
 -1      1049 9.88903E-02
 -1      1050 1.17240E-01
 -1      1051 2.61357E+00
 -1      1052 9.58799E-02
 -1      1053 2.64300E+00
 -1      1054 9.36367E-02
 -1      1055 9.58799E-02
 -1      1056 1.10344E-01
 -1      1057 1.58886E-01
 -1      1058 3.66035E-02
 -1      1059 5.15218E-02
 -1      1060 7.58571E-02
 -1      1061 7.18456E-02
 -1      1062 6.50402E-02
 -1      1063 8.52576E-02
 -1      1064 5.60811E-02
 -1      1065 4.74140E-02
 -1      1066 4.09959E-02
 -1      1067 4.91153E-02
 -1      1068 3.63952E-02
 -1      1069 3.96219E-02
 -1      1070 4.60633E-02
 -1      1071 5.82274E-02
 -1      1072 7.55167E-02
 -1      1073 9.86462E-02
 -1      1074 1.28704E-01
 -1      1075 1.67008E-01
 -1      1076 2.15242E-01
 -1      1077 2.75731E-01
 -1      1078 3.52011E-01
 -1      1079 4.49944E-01
 -1      1080 5.79909E-01
 -1      1081 7.61239E-01
 -1      1082 1.03640E+00
 -1      1083 1.50126E+00
 -1      1084 5.16248E-02
 -1      1085 4.16997E-02
 -1      1086 8.72039E-02
 -1      1087 1.13961E-01
 -1      1088 1.48082E-01
 -1      1089 1.90809E-01
 -1      1090 2.45042E-01
 -1      1091 3.23291E-01
 -1      1092 4.27158E-01
 -1      1093 5.68700E-01
 -1      1094 7.68496E-01
 -1      1095 1.06347E+00
 -1      1096 1.54578E+00
 -1      1097 2.17732E+00
 -1      1098 1.16911E-01
 -1      1099 6.67399E-02
 -1      1100 6.58980E-02
 -1      1101 4.91153E-02
 -1      1102 7.91454E-02
 -1      1103 2.64300E+00
 -1      1104 1.78951E+00
 -1      1105 8.78727E-02
 -1      1106 9.04972E-02
 -1      1107 7.61427E-02
 -1      1108 8.52576E-02
 -1      1109 4.74962E-02
 -1      1110 2.61357E+00
 -1      1111 1.12906E-01
 -1      1112 5.15218E-02
 -1      1113 1.12906E-01
 -1      1114 5.60811E-02
 -1      1115 1.12906E-01
 -1      1116 9.88903E-02
 -1      1117 4.91153E-02
 -1      1118 4.15476E-02
 -1      1119 1.05804E-01
 -1      1120 4.07087E-02
 -1      1121 1.31432E+01
 -1      1122 8.40342E+00
 -1      1123 2.74378E+00
 -1      1124 1.55807E+00
 -1      1125 1.16908E+00
 -1      1126 9.72628E-01
 -1      1127 8.54103E-01
 -1      1128 7.81371E-01
 -1      1129 7.54820E-01
 -1      1130 7.84470E-01
 -1      1131 8.57028E-01
 -1      1132 9.76803E-01
 -1      1133 1.18029E+00
 -1      1134 1.57189E+00
 -1      1135 2.67070E+00
 -1      1136 6.07332E+00
 -1      1137 1.13401E+01
 -1      1138 1.31432E+01
 -1      1139 8.73044E+00
 -1      1140 3.82902E+00
 -1      1141 2.72558E+00
 -1      1142 1.73659E+00
 -1      1143 1.18818E+00
 -1      1144 8.94440E-01
 -1      1145 6.84914E-01
 -1      1146 5.24800E-01
 -1      1147 4.00900E-01
 -1      1148 3.07707E-01
 -1      1149 2.36577E-01
 -1      1150 1.79920E-01
 -1      1151 1.35731E-01
 -1      1152 1.02136E-01
 -1      1153 7.74636E-02
 -1      1154 6.02671E-02
 -1      1155 4.93264E-02
 -1      1156 4.55514E-02
 -1      1157 5.02869E-02
 -1      1158 6.09708E-02
 -1      1159 7.48861E-02
 -1      1160 9.18599E-02
 -1      1161 1.19811E-01
 -1      1162 1.62687E-01
 -1      1163 2.17219E-01
 -1      1164 2.84245E-01
 -1      1165 3.63509E-01
 -1      1166 4.52710E-01
 -1      1167 5.46122E-01
 -1      1168 6.83591E-01
 -1      1169 8.77912E-01
 -1      1170 1.10948E+00
 -1      1171 1.36832E+00
 -1      1172 1.58348E+00
 -1      1173 1.67053E+00
 -1      1174 1.76487E+00
 -1      1175 1.87730E+00
 -1      1176 2.29356E+00
 -1      1177 3.59538E+00
 -1      1178 5.36657E+00
 -1      1179 6.26631E+00
 -1      1180 6.30130E+00
 -1      1181 6.11486E+00
 -1      1182 5.20559E+00
 -1      1183 3.56031E+00
 -1      1184 2.00247E+00
 -1      1185 1.04132E+00
 -1      1186 5.42111E-01
 -1      1187 2.62106E-01
 -1      1188 1.40390E+01
 -1      1189 8.71678E+00
 -1      1190 2.90375E+00
 -1      1191 2.03928E+00
 -1      1192 1.40510E+00
 -1      1193 1.02520E+00
 -1      1194 8.18513E-01
 -1      1195 6.59398E-01
 -1      1196 5.27813E-01
 -1      1197 4.18188E-01
 -1      1198 3.31229E-01
 -1      1199 2.63128E-01
 -1      1200 2.06633E-01
 -1      1201 1.60541E-01
 -1      1202 1.23979E-01
 -1      1203 9.59709E-02
 -1      1204 7.55679E-02
 -1      1205 6.19266E-02
 -1      1206 5.60358E-02
 -1      1207 6.04398E-02
 -1      1208 7.32607E-02
 -1      1209 9.13702E-02
 -1      1210 1.14515E-01
 -1      1211 1.42156E-01
 -1      1212 1.73203E-01
 -1      1213 2.12659E-01
 -1      1214 2.68143E-01
 -1      1215 3.35968E-01
 -1      1216 4.07869E-01
 -1      1217 4.76411E-01
 -1      1218 5.29318E-01
 -1      1219 5.60810E-01
 -1      1220 6.70547E-01
 -1      1221 8.66017E-01
 -1      1222 1.02852E+00
 -1      1223 1.25313E+00
 -1      1224 1.55332E+00
 -1      1225 1.75612E+00
 -1      1226 2.07008E+00
 -1      1227 2.58904E+00
 -1      1228 3.47748E+00
 -1      1229 4.27593E+00
 -1      1230 4.52749E+00
 -1      1231 4.60276E+00
 -1      1232 4.30127E+00
 -1      1233 3.39356E+00
 -1      1234 2.27420E+00
 -1      1235 1.38616E+00
 -1      1236 7.45343E-01
 -1      1237 3.09976E-01
 -1      1238 2.06553E-01
 -1      1239 3.48558E-01
 -1      1240 5.80455E-01
 -1      1241 8.60626E-01
 -1      1242 1.00293E+00
 -1      1243 1.02099E+00
 -1      1244 8.22659E-01
 -1      1245 1.12007E+00
 -1      1246 1.61581E+00
 -1      1247 1.53502E+00
 -1      1248 1.08454E+00
 -1      1249 8.69242E-01
 -1      1250 1.02363E+00
 -1      1251 9.61967E-01
 -1      1252 7.24409E-01
 -1      1253 4.90385E-01
 -1      1254 2.93891E-01
 -1      1255 2.50202E+01
 -1      1256 3.62960E+01
 -1      1257 4.78327E+01
 -1      1258 3.42760E+01
 -1      1259 1.63311E+01
 -1      1260 1.20226E+01
 -1      1261 1.21267E+01
 -1      1262 1.28738E+01
 -1      1263 1.35967E+01
 -1      1264 1.28878E+01
 -1      1265 1.86762E+01
 -1      1266 2.72664E+01
 -1      1267 2.93593E+01
 -1      1268 2.68573E+01
 -1      1269 2.47831E+01
 -1      1270 2.52108E+01
 -1      1271 3.67446E+01
 -1      1272 4.82783E+01
 -1      1273 3.52840E+01
 -1      1274 1.71849E+01
 -1      1275 1.21898E+01
 -1      1276 1.23578E+01
 -1      1277 1.24161E+01
 -1      1278 1.23599E+01
 -1      1279 1.20998E+01
 -1      1280 1.66954E+01
 -1      1281 3.46457E+01
 -1      1282 4.77966E+01
 -1      1283 3.65388E+01
 -1      1284 2.52810E+01
 -1      1285 1.31432E+01
 -1      1286 4.87072E+00
 -1      1287 9.61049E+00
 -1      1288 2.06104E+00
 -1      1289 2.98091E+00
 -1      1290 4.18798E+00
 -1      1291 1.40045E+00
 -1      1292 1.66629E+00
 -1      1293 1.90342E+00
 -1      1294 1.10183E+00
 -1      1295 1.22498E+00
 -1      1296 1.33320E+00
 -1      1297 9.36265E-01
 -1      1298 1.00957E+00
 -1      1299 1.06547E+00
 -1      1300 8.36508E-01
 -1      1301 8.81729E-01
 -1      1302 9.18670E-01
 -1      1303 7.74963E-01
 -1      1304 8.02474E-01
 -1      1305 8.30100E-01
 -1      1306 7.55780E-01
 -1      1307 7.54820E-01
 -1      1308 7.75923E-01
 -1      1309 8.06296E-01
 -1      1310 7.77605E-01
 -1      1311 7.77605E-01
 -1      1312 8.84075E-01
 -1      1313 8.40208E-01
 -1      1314 8.33343E-01
 -1      1315 1.01690E+00
 -1      1316 9.40991E-01
 -1      1317 9.24171E-01
 -1      1318 1.24024E+00
 -1      1319 1.11266E+00
 -1      1320 1.07685E+00
 -1      1321 1.68179E+00
 -1      1322 1.41779E+00
 -1      1323 1.35015E+00
 -1      1324 2.88321E+00
 -1      1325 2.04841E+00
 -1      1326 1.89431E+00
 -1      1327 6.28613E+00
 -1      1328 3.71831E+00
 -1      1329 3.09602E+00
 -1      1330 1.40390E+01
 -1      1331 1.13401E+01
 -1      1332 8.98504E+00
 -1      1333 1.40390E+01
 -1      1334 8.73044E+00
 -1      1335 4.31769E+00
 -1      1336 3.82902E+00
 -1      1337 3.34035E+00
 -1      1338 3.82902E+00
 -1      1339 2.72558E+00
 -1      1340 2.11080E+00
 -1      1341 2.72558E+00
 -1      1342 1.77888E+00
 -1      1343 1.40466E+00
 -1      1344 1.77888E+00
 -1      1345 1.19383E+00
 -1      1346 1.01964E+00
 -1      1347 1.23612E+00
 -1      1348 8.94440E-01
 -1      1349 7.74881E-01
 -1      1350 9.00083E-01
 -1      1351 6.84914E-01
 -1      1352 5.94947E-01
 -1      1353 6.84914E-01
 -1      1354 5.31229E-01
 -1      1355 4.61082E-01
 -1      1356 5.31229E-01
 -1      1357 4.11033E-01
 -1      1358 3.57279E-01
 -1      1359 4.17461E-01
 -1      1360 3.18314E-01
 -1      1361 2.78875E-01
 -1      1362 3.28447E-01
 -1      1363 2.50523E-01
 -1      1364 2.18833E-01
 -1      1365 2.61131E-01
 -1      1366 1.94800E-01
 -1      1367 1.69834E-01
 -1      1368 2.08747E-01
 -1      1369 1.50041E-01
 -1      1370 1.30818E-01
 -1      1371 1.64921E-01
 -1      1372 1.14953E-01
 -1      1373 1.00582E-01
 -1      1374 1.29263E-01
 -1      1375 8.82270E-02
 -1      1376 7.79261E-02
 -1      1377 1.01044E-01
 -1      1378 6.86225E-02
 -1      1379 6.17270E-02
 -1      1380 7.93860E-02
 -1      1381 5.50127E-02
 -1      1382 5.09676E-02
 -1      1383 6.33681E-02
 -1      1384 4.63941E-02
 -1      1385 4.66642E-02
 -1      1386 5.20804E-02
 -1      1387 4.58214E-02
 -1      1388 5.02869E-02
 -1      1389 4.66642E-02
 -1      1390 5.47524E-02
 -1      1391 6.09708E-02
 -1      1392 5.02869E-02
 -1      1393 6.71891E-02
 -1      1394 7.48861E-02
 -1      1395 6.09708E-02
 -1      1396 8.32886E-02
 -1      1397 9.25654E-02
 -1      1398 7.55916E-02
 -1      1399 1.06699E-01
 -1      1400 1.25373E-01
 -1      1401 9.81276E-02
 -1      1402 1.43648E-01
 -1      1403 1.67850E-01
 -1      1404 1.30536E-01
 -1      1405 1.90686E-01
 -1      1406 2.21015E-01
 -1      1407 1.71647E-01
 -1      1408 2.48580E-01
 -1      1409 2.85276E-01
 -1      1410 2.22047E-01
 -1      1411 3.23623E-01
 -1      1412 3.66191E-01
 -1      1413 2.87959E-01
 -1      1414 4.24322E-01
 -1      1415 4.70956E-01
 -1      1416 3.84437E-01
 -1      1417 5.40152E-01
 -1      1418 5.86930E-01
 -1      1419 5.11764E-01
 -1      1420 6.64376E-01
 -1      1421 7.55068E-01
 -1      1422 6.58407E-01
 -1      1423 8.33950E-01
 -1      1424 9.37579E-01
 -1      1425 8.14735E-01
 -1      1426 1.00784E+00
 -1      1427 1.13578E+00
 -1      1428 9.63879E-01
 -1      1429 1.23742E+00
 -1      1430 1.36832E+00
 -1      1431 1.13578E+00
 -1      1432 1.49922E+00
 -1      1433 1.58348E+00
 -1      1434 1.36832E+00
 -1      1435 1.66775E+00
 -1      1436 1.67053E+00
 -1      1437 1.58348E+00
 -1      1438 1.67331E+00
 -1      1439 1.76487E+00
 -1      1440 1.67053E+00
 -1      1441 1.85643E+00
 -1      1442 1.87730E+00
 -1      1443 1.76487E+00
 -1      1444 1.89817E+00
 -1      1445 2.29356E+00
 -1      1446 1.87730E+00
 -1      1447 2.73610E+00
 -1      1448 3.64254E+00
 -1      1449 2.34072E+00
 -1      1450 4.50182E+00
 -1      1451 5.36657E+00
 -1      1452 3.64254E+00
 -1      1453 6.23131E+00
 -1      1454 6.26631E+00
 -1      1455 5.36657E+00
 -1      1456 6.30130E+00
 -1      1457 6.30130E+00
 -1      1458 6.26631E+00
 -1      1459 6.11486E+00
 -1      1460 5.92842E+00
 -1      1461 6.11486E+00
 -1      1462 5.20559E+00
 -1      1463 4.48277E+00
 -1      1464 5.20559E+00
 -1      1465 3.81066E+00
 -1      1466 2.88820E+00
 -1      1467 3.81066E+00
 -1      1468 2.30341E+00
 -1      1469 1.66803E+00
 -1      1470 2.55376E+00
 -1      1471 1.35063E+00
 -1      1472 1.02486E+00
 -1      1473 1.65157E+00
 -1      1474 7.91589E-01
 -1      1475 6.18161E-01
 -1      1476 1.10091E+00
 -1      1477 4.00468E-01
 -1      1478 6.49946E-01
 -1      1479 3.39459E+00
 -1      1480 8.71678E+00
 -1      1481 8.71678E+00
 -1      1482 2.41290E+00
 -1      1483 2.90375E+00
 -1      1484 2.90375E+00
 -1      1485 1.66566E+00
 -1      1486 2.03928E+00
 -1      1487 2.03928E+00
 -1      1488 1.14454E+00
 -1      1489 1.40510E+00
 -1      1490 1.40510E+00
 -1      1491 9.05864E-01
 -1      1492 1.02520E+00
 -1      1493 1.02520E+00
 -1      1494 7.31162E-01
 -1      1495 8.18513E-01
 -1      1496 8.18513E-01
 -1      1497 5.87635E-01
 -1      1498 6.59398E-01
 -1      1499 6.59398E-01
 -1      1500 4.67992E-01
 -1      1501 5.27813E-01
 -1      1502 5.27813E-01
 -1      1503 3.68385E-01
 -1      1504 4.18188E-01
 -1      1505 4.18188E-01
 -1      1506 2.94072E-01
 -1      1507 3.31229E-01
 -1      1508 3.31229E-01
 -1      1509 2.32183E-01
 -1      1510 2.63128E-01
 -1      1511 2.63128E-01
 -1      1512 1.82551E-01
 -1      1513 2.08100E-01
 -1      1514 2.08100E-01
 -1      1515 1.42448E-01
 -1      1516 1.62991E-01
 -1      1517 1.64458E-01
 -1      1518 1.10761E-01
 -1      1519 1.26780E-01
 -1      1520 1.29230E-01
 -1      1521 8.66709E-02
 -1      1522 9.86601E-02
 -1      1523 1.01461E-01
 -1      1524 6.93705E-02
 -1      1525 7.77843E-02
 -1      1526 8.04735E-02
 -1      1527 5.81297E-02
 -1      1528 6.33572E-02
 -1      1529 6.55736E-02
 -1      1530 5.45391E-02
 -1      1531 5.52025E-02
 -1      1532 5.66331E-02
 -1      1533 6.27771E-02
 -1      1534 5.77096E-02
 -1      1535 5.68764E-02
 -1      1536 7.58828E-02
 -1      1537 6.81293E-02
 -1      1538 6.53991E-02
 -1      1539 9.35811E-02
 -1      1540 8.32251E-02
 -1      1541 7.80937E-02
 -1      1542 1.15423E-01
 -1      1543 1.02634E-01
 -1      1544 9.44888E-02
 -1      1545 1.42156E-01
 -1      1546 1.27304E-01
 -1      1547 1.15423E-01
 -1      1548 1.76415E-01
 -1      1549 1.60222E-01
 -1      1550 1.45369E-01
 -1      1551 2.22773E-01
 -1      1552 1.99511E-01
 -1      1553 1.86530E-01
 -1      1554 2.81508E-01
 -1      1555 2.49285E-01
 -1      1556 2.36138E-01
 -1      1557 3.45819E-01
 -1      1558 3.10217E-01
 -1      1559 2.91359E-01
 -1      1560 4.10826E-01
 -1      1561 3.74527E-01
 -1      1562 3.48776E-01
 -1      1563 4.76411E-01
 -1      1564 4.44168E-01
 -1      1565 4.10826E-01
 -1      1566 5.29318E-01
 -1      1567 5.08653E-01
 -1      1568 4.76411E-01
 -1      1569 5.60810E-01
 -1      1570 5.49982E-01
 -1      1571 5.29318E-01
 -1      1572 7.16427E-01
 -1      1573 6.17518E-01
 -1      1574 6.06690E-01
 -1      1575 8.74863E-01
 -1      1576 7.78302E-01
 -1      1577 7.25273E-01
 -1      1578 1.02852E+00
 -1      1579 9.62578E-01
 -1      1580 8.74863E-01
 -1      1581 1.25313E+00
 -1      1582 1.09445E+00
 -1      1583 1.02852E+00
 -1      1584 1.55332E+00
 -1      1585 1.41181E+00
 -1      1586 1.25313E+00
 -1      1587 1.75612E+00
 -1      1588 1.69483E+00
 -1      1589 1.55332E+00
 -1      1590 2.07008E+00
 -1      1591 1.81741E+00
 -1      1592 1.75612E+00
 -1      1593 2.58904E+00
 -1      1594 2.32276E+00
 -1      1595 2.07008E+00
 -1      1596 3.55227E+00
 -1      1597 2.93011E+00
 -1      1598 2.66383E+00
 -1      1599 4.27593E+00
 -1      1600 4.09964E+00
 -1      1601 3.55227E+00
 -1      1602 4.52749E+00
 -1      1603 4.45222E+00
 -1      1604 4.27593E+00
 -1      1605 4.60276E+00
 -1      1606 4.60276E+00
 -1      1607 4.52749E+00
 -1      1608 3.99978E+00
 -1      1609 4.30127E+00
 -1      1610 4.30127E+00
 -1      1611 2.78734E+00
 -1      1612 3.39356E+00
 -1      1613 3.39356E+00
 -1      1614 1.76697E+00
 -1      1615 2.28010E+00
 -1      1616 2.28010E+00
 -1      1617 1.02793E+00
 -1      1618 1.40283E+00
 -1      1619 1.40874E+00
 -1      1620 5.10533E-01
 -1      1621 7.76447E-01
 -1      1622 7.93118E-01
 -1      1623 3.76006E-01
 -1      1624 5.34841E-01
 -1      1625 4.58865E-01
 -1      1626 9.06724E-01
 -1      1627 7.50803E-01
 -1      1628 8.61110E-01
 -1      1629 1.30295E+00
 -1      1630 1.17870E+00
 -1      1631 1.34904E+00
 -1      1632 1.39560E+00
 -1      1633 1.37754E+00
 -1      1634 1.69561E+00
 -1      1635 1.39560E+00
 -1      1636 1.39560E+00
 -1      1637 1.77020E+00
 -1      1638 1.17460E+00
 -1      1639 1.37293E+00
 -1      1640 1.74754E+00
 -1      1641 2.25338E+00
 -1      1642 1.75764E+00
 -1      1643 2.30791E+00
 -1      1644 2.57450E+00
 -1      1645 2.57450E+00
 -1      1646 3.21206E+00
 -1      1647 2.49371E+00
 -1      1648 2.57450E+00
 -1      1649 3.53318E+00
 -1      1650 1.53943E+00
 -1      1651 1.90912E+00
 -1      1652 2.94859E+00
 -1      1653 1.39852E+00
 -1      1654 1.24413E+00
 -1      1655 2.06871E+00
 -1      1656 1.39852E+00
 -1      1657 1.39852E+00
 -1      1658 1.77341E+00
 -1      1659 1.32262E+00
 -1      1660 1.38429E+00
 -1      1661 1.75918E+00
 -1      1662 9.73759E-01
 -1      1663 1.14965E+00
 -1      1664 1.57197E+00
 -1      1665 7.60778E-01
 -1      1666 8.18911E-01
 -1      1667 1.24415E+00
 -1      1668 9.78472E-01
 -1      1669 2.88978E+01
 -1      1670 2.91586E+01
 -1      1671 3.81001E+01
 -1      1672 2.65635E+01
 -1      1673 4.78327E+01
 -1      1674 4.78327E+01
 -1      1675 2.16923E+01
 -1      1676 3.52490E+01
 -1      1677 1.16937E+01
 -1      1678 1.60820E+01
 -1      1679 1.20226E+01
 -1      1680 1.19428E+01
 -1      1681 1.21267E+01
 -1      1682 1.21024E+01
 -1      1683 1.28738E+01
 -1      1684 1.21509E+01
 -1      1685 1.35967E+01
 -1      1686 1.35967E+01
 -1      1687 1.20673E+01
 -1      1688 1.27761E+01
 -1      1689 1.86762E+01
 -1      1690 1.21790E+01
 -1      1691 2.74670E+01
 -1      1692 2.53740E+01
 -1      1693 2.93593E+01
 -1      1694 2.93593E+01
 -1      1695 2.41712E+01
 -1      1696 2.66732E+01
 -1      1697 2.62228E+01
 -1      1698 2.57950E+01
 -1      1699 2.62228E+01
 -1      1700 2.62228E+01
 -1      1701 3.91985E+01
 -1      1702 2.76647E+01
 -1      1703 4.82783E+01
 -1      1704 4.82783E+01
 -1      1705 2.29830E+01
 -1      1706 3.59773E+01
 -1      1707 1.20800E+01
 -1      1708 1.71849E+01
 -1      1709 1.20418E+01
 -1      1710 1.19320E+01
 -1      1711 1.23578E+01
 -1      1712 1.22995E+01
 -1      1713 1.24161E+01
 -1      1714 1.24161E+01
 -1      1715 1.23036E+01
 -1      1716 1.23599E+01
 -1      1717 1.18961E+01
 -1      1718 1.20998E+01
 -1      1719 1.64029E+01
 -1      1720 1.16036E+01
 -1      1721 3.56509E+01
 -1      1722 2.24999E+01
 -1      1723 4.77966E+01
 -1      1724 4.77966E+01
 -1      1725 2.74110E+01
 -1      1726 3.86688E+01
 -1      1727 2.91586E+01
 -1      1728 2.91586E+01
 -1      1729 1.70549E+01
 -1      1730 3.52490E+01
 -1      1731 4.07110E-01
 -1      1732 5.93392E-01
 -1      1733 3.07019E+01
 -1      1734 3.81001E+01
 -1      1735 3.30362E+01
 -1      1736 1.16937E+01
 -1      1737 1.20226E+01
 -1      1738 1.21267E+01
 -1      1739 1.28738E+01
 -1      1740 1.27761E+01
 -1      1741 1.20673E+01
 -1      1742 1.88768E+01
 -1      1743 2.74670E+01
 -1      1744 2.66732E+01
 -1      1745 2.56109E+01
 -1      1746 2.72347E+01
 -1      1747 2.86767E+01
 -1      1748 3.91985E+01
 -1      1749 3.59773E+01
 -1      1750 1.78781E+01
 -1      1751 1.19320E+01
 -1      1752 1.20418E+01
 -1      1753 1.23578E+01
 -1      1754 1.23599E+01
 -1      1755 1.20998E+01
 -1      1756 1.16036E+01
 -1      1757 1.74082E+01
 -1      1758 3.56509E+01
 -1      1759 3.86688E+01
 -1      1760 3.12886E+01
 -1      1761 9.61049E+00
 -1      1762 1.27764E+00
 -1      1763 1.67240E+00
 -1      1764 2.38913E+00
 -1      1765 4.27894E+00
 -1      1766 1.76335E+00
 -1      1767 8.82291E-01
 -1      1768 9.74554E-01
 -1      1769 7.79109E-01
 -1      1770 8.33645E-01
 -1      1771 7.42730E-01
 -1      1772 7.13918E-01
 -1      1773 7.47952E-01
 -1      1774 6.62927E-01
 -1      1775 6.71704E-01
 -1      1776 6.91847E-01
 -1      1777 6.09699E-01
 -1      1778 6.95134E-01
 -1      1779 6.73308E-01
 -1      1780 5.89232E-01
 -1      1781 7.50903E-01
 -1      1782 7.16991E-01
 -1      1783 6.12693E-01
 -1      1784 8.41210E-01
 -1      1785 7.84294E-01
 -1      1786 6.67942E-01
 -1      1787 9.84581E-01
 -1      1788 8.88820E-01
 -1      1789 7.48944E-01
 -1      1790 1.22983E+00
 -1      1791 1.05229E+00
 -1      1792 8.64258E-01
 -1      1793 1.71061E+00
 -1      1794 1.34400E+00
 -1      1795 1.04613E+00
 -1      1796 2.63019E+00
 -1      1797 1.79509E+00
 -1      1798 1.24478E+00
 -1      1799 8.11976E+00
 -1      1800 3.06584E+00
 -1      1801 1.76491E+00
 -1      1802 2.79757E+00
 -1      1803 5.19774E+00
 -1      1804 2.16346E+00
 -1      1805 2.65430E+00
 -1      1806 2.05728E+00
 -1      1807 3.39889E+00
 -1      1808 2.53458E+00
 -1      1809 1.91980E+00
 -1      1810 1.68902E+00
 -1      1811 1.35709E+00
 -1      1812 1.49802E+00
 -1      1813 1.17671E+00
 -1      1814 9.65880E-01
 -1      1815 1.08685E+00
 -1      1816 8.40456E-01
 -1      1817 7.15254E-01
 -1      1818 7.81051E-01
 -1      1819 6.56518E-01
 -1      1820 5.66551E-01
 -1      1821 5.96891E-01
 -1      1822 5.17942E-01
 -1      1823 4.54225E-01
 -1      1824 4.89547E-01
 -1      1825 4.11410E-01
 -1      1826 3.61360E-01
 -1      1827 3.98124E-01
 -1      1828 3.28661E-01
 -1      1829 2.89697E-01
 -1      1830 3.22610E-01
 -1      1831 2.62079E-01
 -1      1832 2.33727E-01
 -1      1833 2.62293E-01
 -1      1834 2.10026E-01
 -1      1835 1.85994E-01
 -1      1836 2.10974E-01
 -1      1837 1.68312E-01
 -1      1838 1.48518E-01
 -1      1839 1.69591E-01
 -1      1840 1.33942E-01
 -1      1841 1.18078E-01
 -1      1842 1.37333E-01
 -1      1843 1.05898E-01
 -1      1844 9.35437E-02
 -1      1845 1.10577E-01
 -1      1846 8.36395E-02
 -1      1847 7.43358E-02
 -1      1848 8.84936E-02
 -1      1849 6.64597E-02
 -1      1850 5.97454E-02
 -1      1851 7.07132E-02
 -1      1852 5.35724E-02
 -1      1853 4.89989E-02
 -1      1854 5.66640E-02
 -1      1855 4.49812E-02
 -1      1856 4.41385E-02
 -1      1857 4.64733E-02
 -1      1858 4.45543E-02
 -1      1859 4.90198E-02
 -1      1860 4.28714E-02
 -1      1861 5.15357E-02
 -1      1862 5.77540E-02
 -1      1863 4.58031E-02
 -1      1864 6.50893E-02
 -1      1865 7.34918E-02
 -1      1866 5.56542E-02
 -1      1867 8.39941E-02
 -1      1868 9.81276E-02
 -1      1869 7.34918E-02
 -1      1870 1.12261E-01
 -1      1871 1.30536E-01
 -1      1872 9.81276E-02
 -1      1873 1.54892E-01
 -1      1874 1.77727E-01
 -1      1875 1.36617E-01
 -1      1876 2.10275E-01
 -1      1877 2.37840E-01
 -1      1878 1.93520E-01
 -1      1879 2.79150E-01
 -1      1880 3.17497E-01
 -1      1881 2.67377E-01
 -1      1882 3.68360E-01
 -1      1883 4.26492E-01
 -1      1884 3.59551E-01
 -1      1885 4.86738E-01
 -1      1886 5.55934E-01
 -1      1887 4.70661E-01
 -1      1888 6.23606E-01
 -1      1889 7.01052E-01
 -1      1890 5.98579E-01
 -1      1891 7.71245E-01
 -1      1892 8.50128E-01
 -1      1893 7.36444E-01
 -1      1894 9.13592E-01
 -1      1895 9.83854E-01
 -1      1896 8.70102E-01
 -1      1897 1.04277E+00
 -1      1898 1.14441E+00
 -1      1899 9.92486E-01
 -1      1900 1.21310E+00
 -1      1901 1.34400E+00
 -1      1902 1.12009E+00
 -1      1903 1.38111E+00
 -1      1904 1.46538E+00
 -1      1905 1.22590E+00
 -1      1906 1.41667E+00
 -1      1907 1.41945E+00
 -1      1908 1.21430E+00
 -1      1909 1.32558E+00
 -1      1910 1.41714E+00
 -1      1911 1.07171E+00
 -1      1912 1.49376E+00
 -1      1913 1.51463E+00
 -1      1914 1.05447E+00
 -1      1915 1.90754E+00
 -1      1916 2.35008E+00
 -1      1917 1.52400E+00
 -1      1918 2.79233E+00
 -1      1919 3.65161E+00
 -1      1920 2.35915E+00
 -1      1921 4.09009E+00
 -1      1922 4.95483E+00
 -1      1923 3.23987E+00
 -1      1924 5.10582E+00
 -1      1925 5.14081E+00
 -1      1926 3.82934E+00
 -1      1927 4.96488E+00
 -1      1928 4.77844E+00
 -1      1929 3.80439E+00
 -1      1930 4.73937E+00
 -1      1931 4.01655E+00
 -1      1932 3.58939E+00
 -1      1933 3.74188E+00
 -1      1934 3.06977E+00
 -1      1935 3.27566E+00
 -1      1936 2.84629E+00
 -1      1937 2.26150E+00
 -1      1938 2.77751E+00
 -1      1939 2.04562E+00
 -1      1940 1.72822E+00
 -1      1941 2.33815E+00
 -1      1942 1.58410E+00
 -1      1943 1.35084E+00
 -1      1944 1.46167E+00
 -1      1945 1.97815E+00
 -1      1946 1.39794E+00
 -1      1947 1.77156E+00
 -1      1948 1.52212E+00
 -1      1949 1.01771E+00
 -1      1950 1.27827E+00
 -1      1951 1.01056E+00
 -1      1952 8.04605E-01
 -1      1953 9.23943E-01
 -1      1954 7.97118E-01
 -1      1955 6.37838E-01
 -1      1956 7.25189E-01
 -1      1957 6.23931E-01
 -1      1958 5.12459E-01
 -1      1959 5.84222E-01
 -1      1960 4.90899E-01
 -1      1961 4.19327E-01
 -1      1962 4.79148E-01
 -1      1963 4.03972E-01
 -1      1964 3.37595E-01
 -1      1965 3.87398E-01
 -1      1966 3.38733E-01
 -1      1967 2.72684E-01
 -1      1968 3.09841E-01
 -1      1969 2.79050E-01
 -1      1970 2.19065E-01
 -1      1971 2.50010E-01
 -1      1972 2.28622E-01
 -1      1973 1.75143E-01
 -1      1974 1.99225E-01
 -1      1975 1.86108E-01
 -1      1976 1.38827E-01
 -1      1977 1.58387E-01
 -1      1978 1.49512E-01
 -1      1979 1.09424E-01
 -1      1980 1.25092E-01
 -1      1981 1.19021E-01
 -1      1982 8.65774E-02
 -1      1983 9.86782E-02
 -1      1984 9.45404E-02
 -1      1985 6.96907E-02
 -1      1986 7.85773E-02
 -1      1987 7.57947E-02
 -1      1988 5.80665E-02
 -1      1989 6.40798E-02
 -1      1990 6.21836E-02
 -1      1991 5.17046E-02
 -1      1992 5.46318E-02
 -1      1993 5.31380E-02
 -1      1994 5.43519E-02
 -1      1995 5.11814E-02
 -1      1996 4.91802E-02
 -1      1997 6.21531E-02
 -1      1998 5.68009E-02
 -1      1999 5.11059E-02
 -1      2000 7.38819E-02
 -1      2001 6.65396E-02
 -1      2002 5.79414E-02
 -1      2003 9.23982E-02
 -1      2004 8.33454E-02
 -1      2005 7.17914E-02
 -1      2006 1.16554E-01
 -1      2007 1.04673E-01
 -1      2008 9.35298E-02
 -1      2009 1.49861E-01
 -1      2010 1.31796E-01
 -1      2011 1.21047E-01
 -1      2012 1.99893E-01
 -1      2013 1.76797E-01
 -1      2014 1.63224E-01
 -1      2015 2.61861E-01
 -1      2016 2.35348E-01
 -1      2017 2.25616E-01
 -1      2018 3.33525E-01
 -1      2019 3.04816E-01
 -1      2020 3.04027E-01
 -1      2021 4.11828E-01
 -1      2022 3.83119E-01
 -1      2023 3.96576E-01
 -1      2024 4.98753E-01
 -1      2025 4.65411E-01
 -1      2026 4.99754E-01
 -1      2027 5.83232E-01
 -1      2028 5.50989E-01
 -1      2029 6.05574E-01
 -1      2030 6.48692E-01
 -1      2031 6.28027E-01
 -1      2032 7.02606E-01
 -1      2033 7.47657E-01
 -1      2034 6.90949E-01
 -1      2035 7.89659E-01
 -1      2036 8.18943E-01
 -1      2037 7.57067E-01
 -1      2038 8.41326E-01
 -1      2039 9.06657E-01
 -1      2040 8.18943E-01
 -1      2041 8.50737E-01
 -1      2042 9.24626E-01
 -1      2043 8.58689E-01
 -1      2044 8.02768E-01
 -1      2045 1.07161E+00
 -1      2046 9.12930E-01
 -1      2047 7.43103E-01
 -1      2048 1.27641E+00
 -1      2049 1.13490E+00
 -1      2050 7.94698E-01
 -1      2051 1.71430E+00
 -1      2052 1.65301E+00
 -1      2053 1.23459E+00
 -1      2054 2.35967E+00
 -1      2055 2.10699E+00
 -1      2056 2.00388E+00
 -1      2057 2.90266E+00
 -1      2058 2.56159E+00
 -1      2059 2.59849E+00
 -1      2060 3.45003E+00
 -1      2061 2.90266E+00
 -1      2062 2.80041E+00
 -1      2063 3.59709E+00
 -1      2064 3.42080E+00
 -1      2065 2.77118E+00
 -1      2066 3.61569E+00
 -1      2067 3.54042E+00
 -1      2068 2.68529E+00
 -1      2069 3.30433E+00
 -1      2070 3.60582E+00
 -1      2071 2.61875E+00
 -1      2072 2.48359E+00
 -1      2073 3.08981E+00
 -1      2074 2.39437E+00
 -1      2075 1.73604E+00
 -1      2076 2.24327E+00
 -1      2077 1.93952E+00
 -1      2078 1.06474E+00
 -1      2079 1.42888E+00
 -1      2080 1.39204E+00
 -1      2081 5.22250E-01
 -1      2082 7.73731E-01
 -1      2083 7.93874E-01
 -1      2084 5.74005E-01
 -1      2085 1.94682E+00
 -1      2086 1.87223E+00
 -1      2087 1.72647E+00
 -1      2088 1.45450E+00
 -1      2089 1.97768E+00
 -1      2090 1.08098E+00
 -1      2091 8.65016E-01
 -1      2092 7.93874E-01
 -1      2093 1.45840E+00
 -1      2094 2.13912E+00
 -1      2095 2.13912E+00
 -1      2096 2.31574E+00
 -1      2097 2.21357E+00
 -1      2098 2.23624E+00
 -1      2099 2.60516E+00
 -1      2100 3.24515E+00
 -1      2101 2.66211E+00
 -1      2102 3.15081E+00
 -1      2103 4.85521E+00
 -1      2104 4.53409E+00
 -1      2105 4.88829E+00
 -1      2106 4.85521E+00
 -1      2107 4.85521E+00
 -1      2108 6.17724E+00
 -1      2109 4.01656E+00
 -1      2110 4.60114E+00
 -1      2111 5.92318E+00
 -1      2112 2.62144E+00
 -1      2113 2.91673E+00
 -1      2114 4.56929E+00
 -1      2115 2.19515E+00
 -1      2116 2.19515E+00
 -1      2117 3.04317E+00
 -1      2118 2.04867E+00
 -1      2119 2.06290E+00
 -1      2120 2.48463E+00
 -1      2121 1.71094E+00
 -1      2122 1.88391E+00
 -1      2123 2.18763E+00
 -1      2124 3.81001E+01
 -1      2125 2.83676E+01
 -1      2126 3.30362E+01
 -1      2127 3.30362E+01
 -1      2128 2.86980E+01
 -1      2129 3.10323E+01
 -1      2130 1.95604E+01
 -1      2131 3.21440E+01
 -1      2132 2.24115E+01
 -1      2133 1.05124E+01
 -1      2134 1.61227E+01
 -1      2135 1.03885E+00
 -1      2136 1.21431E+00
 -1      2137 9.83293E-01
 -1      2138 8.55669E-01
 -1      2139 1.10266E+01
 -1      2140 1.09467E+01
 -1      2141 1.13016E+01
 -1      2142 1.12773E+01
 -1      2143 1.25007E+01
 -1      2144 1.17778E+01
 -1      2145 1.04619E+01
 -1      2146 1.12825E+01
 -1      2147 9.57941E+00
 -1      2148 9.46771E+00
 -1      2149 7.97408E+00
 -1      2150 1.83066E+01
 -1      2151 1.16088E+01
 -1      2152 2.39998E+01
 -1      2153 2.21075E+01
 -1      2154 1.48395E+01
 -1      2155 2.30582E+01
 -1      2156 2.57443E+01
 -1      2157 2.85468E+01
 -1      2158 2.69230E+01
 -1      2159 2.59941E+01
 -1      2160 2.85468E+01
 -1      2161 2.85468E+01
 -1      2162 2.80824E+01
 -1      2163 2.66404E+01
 -1      2164 3.91985E+01
 -1      2165 3.01186E+01
 -1      2166 2.80824E+01
 -1      2167 2.06745E+01
 -1      2168 3.29755E+01
 -1      2169 1.12273E+01
 -1      2170 1.70254E+01
 -1      2171 9.51089E+00
 -1      2172 9.65890E+00
 -1      2173 1.10242E+01
 -1      2174 1.07664E+01
 -1      2175 1.15736E+01
 -1      2176 1.15153E+01
 -1      2177 1.15658E+01
 -1      2178 1.16220E+01
 -1      2179 1.07863E+01
 -1      2180 1.09901E+01
 -1      2181 9.22371E+00
 -1      2182 9.51615E+00
 -1      2183 1.66321E+01
 -1      2184 1.05351E+01
 -1      2185 3.24589E+01
 -1      2186 2.03131E+01
 -1      2187 2.95409E+01
 -1      2188 3.86688E+01
 -1      2189 3.07007E+01
 -1      2190 2.89530E+01
 -1      2191 9.63836E+00
 -1      2192 9.38923E+00
 -1      2193 1.30178E+01
 -1      2194 2.91022E+00
 -1      2195 8.64232E+00
 -1      2196 2.10444E+00
 -1      2197 2.86980E+01
 -1      2198 3.10323E+01
 -1      2199 1.55609E+00
 -1      2200 3.07007E+01
 -1      2201 8.45706E+00
 -1      2202 2.89530E+01
 -1      2203 2.33310E+01
 -1      2204 1.34401E+01
 -1      2205 8.44766E+00
 -1      2206 8.40638E+00
 -1      2207 1.02522E+01
 -1      2208 1.07795E+01
 -1      2209 1.02400E+01
 -1      2210 8.49335E+00
 -1      2211 8.80616E+00
 -1      2212 2.38957E+01
 -1      2213 2.98588E+01
 -1      2214 2.33487E+01
 -1      2215 1.79892E+01
 -1      2216 1.97336E+01
 -1      2217 9.00924E+00
 -1      2218 1.01865E+01
 -1      2219 1.02015E+01
 -1      2220 1.09285E+01
 -1      2221 2.79524E+01
 -1      2222 1.40236E+01
 -1      2223 1.08885E+00
 -1      2224 1.48074E+00
 -1      2225 5.59000E-01
 -1      2226 5.90157E-01
 -1      2227 6.01997E-01
 -1      2228 6.50643E-01
 -1      2229 4.98071E-01
 -1      2230 5.11221E-01
 -1      2231 5.09617E-01
 -1      2232 5.46044E-01
 -1      2233 5.24186E-01
 -1      2234 4.44571E-01
 -1      2235 5.94271E-01
 -1      2236 5.60879E-01
 -1      2237 4.72372E-01
 -1      2238 6.53985E-01
 -1      2239 6.06375E-01
 -1      2240 4.99312E-01
 -1      2241 7.21690E-01
 -1      2242 6.53985E-01
 -1      2243 5.11417E-01
 -1      2244 8.84833E-01
 -1      2245 7.70662E-01
 -1      2246 5.60389E-01
 -1      2247 8.90890E-01
 -1      2248 1.01056E+00
 -1      2249 9.69182E-01
 -1      2250 1.26604E+00
 -1      2251 1.03525E+00
 -1      2252 8.03865E+00
 -1      2253 6.73026E+00
 -1      2254 9.85872E-01
 -1      2255 8.05493E-01
 -1      2256 7.53891E-01
 -1      2257 7.47540E-01
 -1      2258 6.22116E-01
 -1      2259 6.46558E-01
 -1      2260 5.65879E-01
 -1      2261 5.07143E-01
 -1      2262 5.32368E-01
 -1      2263 4.57773E-01
 -1      2264 4.09165E-01
 -1      2265 4.26761E-01
 -1      2266 3.81726E-01
 -1      2267 3.38911E-01
 -1      2268 3.49952E-01
 -1      2269 3.13879E-01
 -1      2270 2.81180E-01
 -1      2271 2.97481E-01
 -1      2272 2.57514E-01
 -1      2273 2.29895E-01
 -1      2274 2.48783E-01
 -1      2275 2.10654E-01
 -1      2276 1.86954E-01
 -1      2277 2.05875E-01
 -1      2278 1.70165E-01
 -1      2279 1.52482E-01
 -1      2280 1.69845E-01
 -1      2281 1.37882E-01
 -1      2282 1.23306E-01
 -1      2283 1.38456E-01
 -1      2284 1.11016E-01
 -1      2285 9.88366E-02
 -1      2286 1.11565E-01
 -1      2287 8.90639E-02
 -1      2288 7.91597E-02
 -1      2289 8.95028E-02
 -1      2290 7.12907E-02
 -1      2291 6.34146E-02
 -1      2292 7.18611E-02
 -1      2293 5.67173E-02
 -1      2294 5.05443E-02
 -1      2295 5.72948E-02
 -1      2296 4.57975E-02
 -1      2297 4.17798E-02
 -1      2298 4.58508E-02
 -1      2299 3.91666E-02
 -1      2300 3.95824E-02
 -1      2301 3.84908E-02
 -1      2302 4.09494E-02
 -1      2303 4.34653E-02
 -1      2304 3.72446E-02
 -1      2305 4.83189E-02
 -1      2306 5.56542E-02
 -1      2307 4.34653E-02
 -1      2308 6.49087E-02
 -1      2309 7.54110E-02
 -1      2310 5.75734E-02
 -1      2311 9.20412E-02
 -1      2312 1.06175E-01
 -1      2313 8.34581E-02
 -1      2314 1.27805E-01
 -1      2315 1.52161E-01
 -1      2316 1.21719E-01
 -1      2317 1.79961E-01
 -1      2318 2.12508E-01
 -1      2319 1.71149E-01
 -1      2320 2.47635E-01
 -1      2321 2.88945E-01
 -1      2322 2.34075E-01
 -1      2323 3.32382E-01
 -1      2324 3.83245E-01
 -1      2325 3.12639E-01
 -1      2326 4.35530E-01
 -1      2327 4.95776E-01
 -1      2328 4.08360E-01
 -1      2329 5.56550E-01
 -1      2330 6.24222E-01
 -1      2331 5.21418E-01
 -1      2332 6.91572E-01
 -1      2333 7.61765E-01
 -1      2334 6.49543E-01
 -1      2335 8.31319E-01
 -1      2336 8.94784E-01
 -1      2337 7.86447E-01
 -1      2338 9.58937E-01
 -1      2339 1.01786E+00
 -1      2340 9.20154E-01
 -1      2341 1.06991E+00
 -1      2342 1.13860E+00
 -1      2343 1.03636E+00
 -1      2344 1.21131E+00
 -1      2345 1.24843E+00
 -1      2346 1.16113E+00
 -1      2347 1.33331E+00
 -1      2348 1.28460E+00
 -1      2349 1.31873E+00
 -1      2350 1.34194E+00
 -1      2351 1.24807E+00
 -1      2352 1.46096E+00
 -1      2353 1.37882E+00
 -1      2354 1.45545E+00
 -1      2355 1.64905E+00
 -1      2356 1.69897E+00
 -1      2357 2.09187E+00
 -1      2358 2.02332E+00
 -1      2359 2.17628E+00
 -1      2360 2.61853E+00
 -1      2361 2.35125E+00
 -1      2362 3.08519E+00
 -1      2363 3.52367E+00
 -1      2364 2.90232E+00
 -1      2365 4.35750E+00
 -1      2366 4.50849E+00
 -1      2367 4.20282E+00
 -1      2368 4.03413E+00
 -1      2369 3.85820E+00
 -1      2370 4.56229E+00
 -1      2371 3.67245E+00
 -1      2372 3.63339E+00
 -1      2373 3.90219E+00
 -1      2374 3.25044E+00
 -1      2375 2.97577E+00
 -1      2376 3.33350E+00
 -1      2377 2.93103E+00
 -1      2378 2.70755E+00
 -1      2379 2.90582E+00
 -1      2380 2.55403E+00
 -1      2381 2.33815E+00
 -1      2382 2.70755E+00
 -1      2383 5.44515E-01
 -1      2384 6.23931E-01
 -1      2385 4.37283E-01
 -1      2386 4.90899E-01
 -1      2387 4.90899E-01
 -1      2388 3.70662E-01
 -1      2389 4.03972E-01
 -1      2390 4.03972E-01
 -1      2391 3.06804E-01
 -1      2392 3.38733E-01
 -1      2393 3.38733E-01
 -1      2394 2.51296E-01
 -1      2395 2.79050E-01
 -1      2396 2.79050E-01
 -1      2397 2.06303E-01
 -1      2398 2.28977E-01
 -1      2399 2.28977E-01
 -1      2400 1.66900E-01
 -1      2401 1.86740E-01
 -1      2402 1.87096E-01
 -1      2403 1.33468E-01
 -1      2404 1.50225E-01
 -1      2405 1.50857E-01
 -1      2406 1.07032E-01
 -1      2407 1.20767E-01
 -1      2408 1.21480E-01
 -1      2409 8.58625E-02
 -1      2410 9.66081E-02
 -1      2411 9.83540E-02
 -1      2412 6.91532E-02
 -1      2413 7.71533E-02
 -1      2414 7.92210E-02
 -1      2415 5.63613E-02
 -1      2416 6.19723E-02
 -1      2417 6.33309E-02
 -1      2418 4.69881E-02
 -1      2419 5.04228E-02
 -1      2420 5.02114E-02
 -1      2421 4.38916E-02
 -1      2422 4.44149E-02
 -1      2423 4.16996E-02
 -1      2424 4.61714E-02
 -1      2425 4.37224E-02
 -1      2426 3.89572E-02
 -1      2427 5.53225E-02
 -1      2428 5.09360E-02
 -1      2429 4.35525E-02
 -1      2430 7.17645E-02
 -1      2431 6.23010E-02
 -1      2432 5.52956E-02
 -1      2433 9.67454E-02
 -1      2434 8.44705E-02
 -1      2435 7.49801E-02
 -1      2436 1.31574E-01
 -1      2437 1.16331E-01
 -1      2438 1.07272E-01
 -1      2439 1.83501E-01
 -1      2440 1.56565E-01
 -1      2441 1.51850E-01
 -1      2442 2.50096E-01
 -1      2443 2.14640E-01
 -1      2444 2.07981E-01
 -1      2445 3.30691E-01
 -1      2446 2.87736E-01
 -1      2447 2.76760E-01
 -1      2448 4.24043E-01
 -1      2449 3.74449E-01
 -1      2450 3.58158E-01
 -1      2451 5.25880E-01
 -1      2452 4.72296E-01
 -1      2453 4.50169E-01
 -1      2454 6.27350E-01
 -1      2455 5.75114E-01
 -1      2456 5.47656E-01
 -1      2457 7.16220E-01
 -1      2458 6.71424E-01
 -1      2459 6.40964E-01
 -1      2460 8.01103E-01
 -1      2461 7.58846E-01
 -1      2462 7.27664E-01
 -1      2463 8.41326E-01
 -1      2464 8.31916E-01
 -1      2465 8.01103E-01
 -1      2466 8.57772E-01
 -1      2467 8.57772E-01
 -1      2468 8.48362E-01
 -1      2469 8.06277E-01
 -1      2470 8.54245E-01
 -1      2471 8.61281E-01
 -1      2472 7.86774E-01
 -1      2473 7.98470E-01
 -1      2474 8.49948E-01
 -1      2475 9.55224E-01
 -1      2476 8.91934E-01
 -1      2477 9.47301E-01
 -1      2478 1.47685E+00
 -1      2479 1.10025E+00
 -1      2480 1.19749E+00
 -1      2481 2.20260E+00
 -1      2482 1.80990E+00
 -1      2483 1.67557E+00
 -1      2484 2.62364E+00
 -1      2485 2.42172E+00
 -1      2486 2.22774E+00
 -1      2487 2.81198E+00
 -1      2488 2.81198E+00
 -1      2489 2.63521E+00
 -1      2490 2.77255E+00
 -1      2491 2.80178E+00
 -1      2492 2.81335E+00
 -1      2493 2.81030E+00
 -1      2494 2.86696E+00
 -1      2495 2.89756E+00
 -1      2496 2.60889E+00
 -1      2497 2.61875E+00
 -1      2498 2.80043E+00
 -1      2499 2.29524E+00
 -1      2500 2.50976E+00
 -1      2501 2.50976E+00
 -1      2502 1.99900E+00
 -1      2503 2.23932E+00
 -1      2504 2.35472E+00
 -1      2505 1.75138E+00
 -1      2506 2.05853E+00
 -1      2507 2.35833E+00
 -1      2508 1.08488E+00
 -1      2509 3.34038E+00
 -1      2510 3.24326E+00
 -1      2511 4.81122E+00
 -1      2512 4.36268E+00
 -1      2513 5.00078E+00
 -1      2514 2.27065E+00
 -1      2515 2.12489E+00
 -1      2516 2.50989E+00
 -1      2517 2.31759E+00
 -1      2518 2.46480E+00
 -1      2519 3.24511E+00
 -1      2520 6.74627E+00
 -1      2521 5.45733E+00
 -1      2522 6.66920E+00
 -1      2523 8.80834E+00
 -1      2524 8.80834E+00
 -1      2525 9.37737E+00
 -1      2526 8.55427E+00
 -1      2527 8.80834E+00
 -1      2528 1.14394E+01
 -1      2529 5.14322E+00
 -1      2530 6.24304E+00
 -1      2531 9.12821E+00
 -1      2532 3.97995E+00
 -1      2533 4.40625E+00
 -1      2534 6.08000E+00
 -1      2535 2.86686E+00
 -1      2536 2.99911E+00
 -1      2537 4.36218E+00
 -1      2538 2.09148E+00
 -1      2539 2.25624E+00
 -1      2540 2.77071E+00
 -1      2541 2.90284E+01
 -1      2542 3.10323E+01
 -1      2543 2.45751E+01
 -1      2544 2.49055E+01
 -1      2545 3.07007E+01
 -1      2546 2.83652E+01
 -1      2547 7.03346E-01
 -1      2548 7.97118E-01
 -1      2549 6.23931E-01
 -1      2550 1.92845E+00
 -1      2551 1.49705E+01
 -1      2552 2.09266E+01
 -1      2553 1.67682E+00
 -1      2554 1.30118E+00
 -1      2555 8.38409E-01
 -1      2556 9.60085E-01
 -1      2557 6.25608E+00
 -1      2558 7.37921E+00
 -1      2559 2.98588E+01
 -1      2560 2.98588E+01
 -1      2561 7.70848E+00
 -1      2562 8.92671E+00
 -1      2563 5.22572E-01
 -1      2564 5.44643E-01
 -1      2565 4.71873E-01
 -1      2566 4.44560E-01
 -1      2567 9.82912E+00
 -1      2568 9.35285E+00
 -1      2569 2.60461E+01
 -1      2570 2.79524E+01
 -1      2571 9.18201E+00
 -1      2572 8.93126E+00
 -1      2573 7.01920E+00
 -1      2574 8.08264E+00
 -1      2575 5.47169E+00
 -1      2576 6.46592E+00
 -1      2577 7.90725E+00
 -1      2578 5.87787E+00
 -1      2579 4.36970E+00
 -1      2580 1.34391E+01
 -1      2581 9.63819E+00
 -1      2582 6.50681E+00
 -1      2583 2.59941E+01
 -1      2584 2.21293E+01
 -1      2585 9.85056E+00
 -1      2586 1.34996E+01
 -1      2587 2.48589E+01
 -1      2588 2.28226E+01
 -1      2589 1.57789E+01
 -1      2590 2.20019E+01
 -1      2591 1.67421E+01
 -1      2592 6.07027E+00
 -1      2593 7.63863E+00
 -1      2594 7.11467E+00
 -1      2595 7.49251E+00
 -1      2596 6.23696E+00
 -1      2597 8.87054E+00
 -1      2598 8.37944E+00
 -1      2599 6.12306E+00
 -1      2600 9.53530E+00
 -1      2601 9.48687E+00
 -1      2602 8.67853E+00
 -1      2603 9.25424E+00
 -1      2604 6.58811E+00
 -1      2605 7.85826E+00
 -1      2606 6.86026E+00
 -1      2607 7.97244E+00
 -1      2608 6.66100E+00
 -1      2609 1.25267E+01
 -1      2610 8.84573E+00
 -1      2611 2.13903E+01
 -1      2612 1.51804E+01
 -1      2613 1.05860E+01
 -1      2614 2.44357E+01
 -1      2615 2.50236E+01
 -1      2616 1.62097E+00
 -1      2617 1.76424E+00
 -1      2618 1.32860E+00
 -1      2619 1.18770E+00
 -1      2620 8.77580E+00
 -1      2621 1.22134E+01
 -1      2622 1.07285E+01
 -1      2623 5.20609E+00
 -1      2624 6.18002E-01
 -1      2625 7.58734E-01
 -1      2626 8.23028E-01
 -1      2627 7.97118E-01
 -1      2628 1.24412E+00
 -1      2629 6.57482E+00
 -1      2630 5.65241E+00
 -1      2631 1.71341E+01
 -1      2632 1.75138E+00
 -1      2633 2.12489E+00
 -1      2634 2.39734E+01
 -1      2635 2.59773E+01
 -1      2636 2.36418E+01
 -1      2637 2.49055E+01
 -1      2638 1.68730E+01
 -1      2639 2.44357E+01
 -1      2640 9.68647E-01
 -1      2641 8.96755E-01
 -1      2642 6.11289E+00
 -1      2643 2.79524E+01
 -1      2644 2.59941E+01
 -1      2645 7.62632E+00
 -1      2646 1.16059E+01
 -1      2647 5.06943E+00
 -1      2648 6.96138E+00
 -1      2649 9.43943E+00
 -1      2650 7.86379E+00
 -1      2651 1.97336E+01
 -1      2652 2.28226E+01
 -1      2653 1.39140E+01
 -1      2654 8.71272E+00
 -1      2655 1.32628E+01
 -1      2656 1.97815E+00
 -1      2657 2.07257E+00
 -1      2658 2.14118E+00
 -1      2659 2.12227E+00
 -1      2660 7.96158E+00
 -1      2661 7.05907E+00
 -1      2662 2.41787E+00
 -1      2663 2.33815E+00
 -1      2664 4.22759E-01
 -1      2665 4.07923E-01
 -1      2666 4.00206E-01
 -1      2667 3.87240E-01
 -1      2668 3.50593E-01
 -1      2669 4.36665E-01
 -1      2670 4.36665E-01
 -1      2671 4.73707E-01
 -1      2672 4.24735E-01
 -1      2673 3.49983E-01
 -1      2674 7.17372E-01
 -1      2675 7.95664E-01
 -1      2676 7.99820E-01
 -1      2677 6.08995E-01
 -1      2678 7.02766E-01
 -1      2679 5.29249E-01
 -1      2680 1.20419E+01
 -1      2681 1.56904E+01
 -1      2682 5.51190E-01
 -1      2683 4.93236E-01
 -1      2684 4.85998E-01
 -1      2685 4.29761E-01
 -1      2686 3.90629E-01
 -1      2687 4.09536E-01
 -1      2688 3.60166E-01
 -1      2689 3.63166E-01
 -1      2690 3.35375E-01
 -1      2691 3.07936E-01
 -1      2692 3.18150E-01
 -1      2693 2.83130E-01
 -1      2694 2.58098E-01
 -1      2695 2.68553E-01
 -1      2696 2.42494E-01
 -1      2697 2.18828E-01
 -1      2698 2.28143E-01
 -1      2699 2.02618E-01
 -1      2700 1.83377E-01
 -1      2701 1.96329E-01
 -1      2702 1.67924E-01
 -1      2703 1.51135E-01
 -1      2704 1.64666E-01
 -1      2705 1.37203E-01
 -1      2706 1.22602E-01
 -1      2707 1.35281E-01
 -1      2708 1.11123E-01
 -1      2709 9.88332E-02
 -1      2710 1.09870E-01
 -1      2711 8.95028E-02
 -1      2712 7.97301E-02
 -1      2713 8.90605E-02
 -1      2714 7.18611E-02
 -1      2715 6.39921E-02
 -1      2716 7.18611E-02
 -1      2717 5.72948E-02
 -1      2718 5.05975E-02
 -1      2719 5.72948E-02
 -1      2720 4.52109E-02
 -1      2721 4.04641E-02
 -1      2722 4.52109E-02
 -1      2723 3.60148E-02
 -1      2724 3.34017E-02
 -1      2725 3.53750E-02
 -1      2726 3.12618E-02
 -1      2727 3.26289E-02
 -1      2728 2.87859E-02
 -1      2729 3.54398E-02
 -1      2730 4.02934E-02
 -1      2731 2.94570E-02
 -1      2732 5.04036E-02
 -1      2733 5.96581E-02
 -1      2734 4.23781E-02
 -1      2735 7.33375E-02
 -1      2736 8.99677E-02
 -1      2737 6.61676E-02
 -1      2738 1.07435E-01
 -1      2739 1.29065E-01
 -1      2740 9.73139E-02
 -1      2741 1.51314E-01
 -1      2742 1.79114E-01
 -1      2743 1.37030E-01
 -1      2744 2.07224E-01
 -1      2745 2.42351E-01
 -1      2746 1.87389E-01
 -1      2747 2.77458E-01
 -1      2748 3.20895E-01
 -1      2749 2.50607E-01
 -1      2750 3.64140E-01
 -1      2751 4.16424E-01
 -1      2752 3.28959E-01
 -1      2753 4.68884E-01
 -1      2754 5.29658E-01
 -1      2755 4.24664E-01
 -1      2756 5.92244E-01
 -1      2757 6.59594E-01
 -1      2758 5.39709E-01
 -1      2759 7.35507E-01
 -1      2760 8.05061E-01
 -1      2761 6.78208E-01
 -1      2762 8.89851E-01
 -1      2763 9.54004E-01
 -1      2764 8.38911E-01
 -1      2765 1.04223E+00
 -1      2766 1.09429E+00
 -1      2767 1.01193E+00
 -1      2768 1.18923E+00
 -1      2769 1.26194E+00
 -1      2770 1.19509E+00
 -1      2771 1.38197E+00
 -1      2772 1.46685E+00
 -1      2773 1.41007E+00
 -1      2774 1.68076E+00
 -1      2775 1.73810E+00
 -1      2776 1.74400E+00
 -1      2777 1.95571E+00
 -1      2778 2.08646E+00
 -1      2779 2.17551E+00
 -1      2780 2.36828E+00
 -1      2781 2.61179E+00
 -1      2782 2.67494E+00
 -1      2783 2.35125E+00
 -1      2784 2.43566E+00
 -1      2785 2.69620E+00
 -1      2786 2.90232E+00
 -1      2787 3.36899E+00
 -1      2788 2.90232E+00
 -1      2789 4.67275E+00
 -1      2790 4.19840E+00
 -1      2791 5.67919E+00
 -1      2792 5.49344E+00
 -1      2793 4.87822E+00
 -1      2794 4.49528E+00
 -1      2795 6.65522E+00
 -1      2796 3.11175E+00
 -1      2797 3.06700E+00
 -1      2798 4.65646E+00
 -1      2799 2.92503E+00
 -1      2800 2.77151E+00
 -1      2801 3.13096E+00
 -1      2802 3.49080E-01
 -1      2803 3.82391E-01
 -1      2804 7.47548E+00
 -1      2805 7.75654E+00
 -1      2806 4.16579E-01
 -1      2807 4.70196E-01
 -1      2808 3.61688E-01
 -1      2809 2.42220E-01
 -1      2810 2.69974E-01
 -1      2811 2.01330E-01
 -1      2812 2.23649E-01
 -1      2813 2.14573E-01
 -1      2814 1.64752E-01
 -1      2815 1.84315E-01
 -1      2816 1.78987E-01
 -1      2817 1.34165E-01
 -1      2818 1.50841E-01
 -1      2819 1.48061E-01
 -1      2820 1.09118E-01
 -1      2821 1.21819E-01
 -1      2822 1.21803E-01
 -1      2823 8.80963E-02
 -1      2824 9.85201E-02
 -1      2825 9.88600E-02
 -1      2826 7.05118E-02
 -1      2827 7.92210E-02
 -1      2828 7.93871E-02
 -1      2829 5.61500E-02
 -1      2830 6.33309E-02
 -1      2831 6.33309E-02
 -1      2832 4.42728E-02
 -1      2833 5.02114E-02
 -1      2834 5.02114E-02
 -1      2835 3.74178E-02
 -1      2836 3.99910E-02
 -1      2837 3.99910E-02
 -1      2838 3.42399E-02
 -1      2839 3.44091E-02
 -1      2840 3.27005E-02
 -1      2841 4.19942E-02
 -1      2842 3.72297E-02
 -1      2843 3.26816E-02
 -1      2844 5.51098E-02
 -1      2845 4.81312E-02
 -1      2846 4.18084E-02
 -1      2847 8.08977E-02
 -1      2848 6.81917E-02
 -1      2849 6.10274E-02
 -1      2850 1.17142E-01
 -1      2851 9.75555E-02
 -1      2852 9.07671E-02
 -1      2853 1.63209E-01
 -1      2854 1.38217E-01
 -1      2855 1.28500E-01
 -1      2856 2.20646E-01
 -1      2857 1.89507E-01
 -1      2858 1.75873E-01
 -1      2859 2.90465E-01
 -1      2860 2.52825E-01
 -1      2861 2.34351E-01
 -1      2862 3.72622E-01
 -1      2863 3.28864E-01
 -1      2864 3.04929E-01
 -1      2865 4.65251E-01
 -1      2866 4.16998E-01
 -1      2867 3.87703E-01
 -1      2868 5.63644E-01
 -1      2869 5.14410E-01
 -1      2870 4.81239E-01
 -1      2871 6.59025E-01
 -1      2872 6.14950E-01
 -1      2873 5.81705E-01
 -1      2874 7.52344E-01
 -1      2875 7.09718E-01
 -1      2876 6.83704E-01
 -1      2877 8.23335E-01
 -1      2878 7.92522E-01
 -1      2879 7.74576E-01
 -1      2880 9.02238E-01
 -1      2881 8.85792E-01
 -1      2882 8.77210E-01
 -1      2883 9.70788E-01
 -1      2884 9.74315E-01
 -1      2885 1.01174E+00
 -1      2886 1.01787E+00
 -1      2887 1.02568E+00
 -1      2888 1.13871E+00
 -1      2889 1.20574E+00
 -1      2890 1.10058E+00
 -1      2891 1.27631E+00
 -1      2892 1.63016E+00
 -1      2893 1.48513E+00
 -1      2894 1.63841E+00
 -1      2895 1.93962E+00
 -1      2896 1.60657E+00
 -1      2897 1.89422E+00
 -1      2898 2.30482E+00
 -1      2899 2.08570E+00
 -1      2900 2.01670E+00
 -1      2901 2.82355E+00
 -1      2902 2.63521E+00
 -1      2903 2.49316E+00
 -1      2904 3.90793E+00
 -1      2905 3.91813E+00
 -1      2906 3.91813E+00
 -1      2907 3.39249E+00
 -1      2908 3.29808E+00
 -1      2909 4.40287E+00
 -1      2910 3.35673E+00
 -1      2911 3.54827E+00
 -1      2912 3.94880E+00
 -1      2913 2.46116E+00
 -1      2914 2.56029E+00
 -1      2915 3.30814E+00
 -1      2916 2.41677E+00
 -1      2917 2.47269E+00
 -1      2918 2.52321E+00
 -1      2919 2.42123E+00
 -1      2920 2.36169E+00
 -1      2921 2.47967E+00
 -1      2922 2.42123E+00
 -1      2923 1.22310E+01
 -1      2924 1.01689E+01
 -1      2925 2.47846E+00
 -1      2926 2.26258E+00
 -1      2927 2.28149E+00
 -1      2928 2.69594E+00
 -1      2929 6.26030E+00
 -1      2930 5.23800E+00
 -1      2931 1.51789E+01
 -1      2932 1.51789E+01
 -1      2933 8.95674E+00
 -1      2934 8.31063E+00
 -1      2935 8.28417E-01
 -1      2936 1.05871E+01
 -1      2937 1.28983E+01
 -1      2938 7.56208E+00
 -1      2939 8.29906E+00
 -1      2940 1.20692E+01
 -1      2941 4.25808E+00
 -1      2942 5.23892E+00
 -1      2943 7.45798E+00
 -1      2944 2.57454E+00
 -1      2945 3.18516E+00
 -1      2946 4.06190E+00
 -1      2947 2.69594E+00
 -1      2948 1.54305E+01
 -1      2949 1.17972E+01
 -1      2950 2.13612E+01
 -1      2951 1.74317E+01
 -1      2952 3.60292E+00
 -1      2953 4.84548E+00
 -1      2954 6.69130E-01
 -1      2955 6.33991E-01
 -1      2956 5.84612E-01
 -1      2957 5.95402E-01
 -1      2958 2.00525E+01
 -1      2959 2.19588E+01
 -1      2960 5.44994E+00
 -1      2961 7.66188E+00
 -1      2962 5.03966E-01
 -1      2963 5.83381E-01
 -1      2964 4.89030E-01
 -1      2965 4.29646E-01
 -1      2966 1.69025E+01
 -1      2967 2.10255E+01
 -1      2968 2.89816E-01
 -1      2969 3.21745E-01
 -1      2970 3.00163E-01
 -1      2971 2.52986E-01
 -1      2972 7.09122E+00
 -1      2973 5.36028E+00
 -1      2974 4.89047E+00
 -1      2975 4.41629E+00
 -1      2976 4.86843E+00
 -1      2977 4.79553E+00
 -1      2978 4.36665E-01
 -1      2979 4.24560E-01
 -1      2980 3.60112E-01
 -1      2981 3.61913E-01
 -1      2982 4.25900E-01
 -1      2983 4.37740E-01
 -1      2984 2.22076E+01
 -1      2985 1.83429E+01
 -1      2986 1.76491E+01
 -1      2987 2.08726E+01
 -1      2988 3.84616E+00
 -1      2989 3.43999E+00
 -1      2990 4.43056E+00
 -1      2991 7.09932E+00
 -1      2992 6.48299E+00
 -1      2993 1.73280E+01
 -1      2994 1.49323E+01
 -1      2995 1.24472E+01
 -1      2996 1.53042E+01
 -1      2997 7.59472E+00
 -1      2998 1.03518E+01
 -1      2999 8.72621E+00
 -1      3000 1.10055E+01
 -1      3001 6.02332E+00
 -1      3002 5.13639E+00
 -1      3003 6.63261E+00
 -1      3004 5.75932E+00
 -1      3005 6.04000E+00
 -1      3006 6.86026E+00
 -1      3007 1.04313E+01
 -1      3008 7.77760E+00
 -1      3009 4.96974E+00
 -1      3010 6.36633E+00
 -1      3011 4.87311E-01
 -1      3012 5.95402E-01
 -1      3013 4.15141E-01
 -1      3014 4.79553E+00
 -1      3015 3.42755E-01
 -1      3016 3.87121E-01
 -1      3017 4.00075E-01
 -1      3018 1.18104E+01
 -1      3019 1.43076E+01
 -1      3020 6.47785E+00
 -1      3021 5.49633E+00
 -1      3022 7.06148E+00
 -1      3023 8.90811E+00
 -1      3024 5.98965E+00
 -1      3025 5.78965E+00
 -1      3026 9.56755E+00
 -1      3027 4.20282E+00
 -1      3028 4.20282E+00
 -1      3029 5.03665E+00
 -1      3030 4.74152E+00
 -1      3031 3.48200E+00
 -1      3032 2.74863E+00
 -1      3033 7.56619E+00
 -1      3034 1.59705E+01
 -1      3035 1.61822E+01
 -1      3036 1.13809E+01
 -1      3037 1.23958E+01
 -1      3038 8.98880E+00
 -1      3039 2.46816E+00
 -1      3040 2.42123E+00
 -1      3041 2.42459E+00
 -1      3042 2.70506E+00
 -1      3043 5.76608E-01
 -1      3044 1.33542E+01
 -1      3045 4.44196E+00
 -1      3046 4.14348E+00
 -1      3047 5.74665E+00
 -1      3048 6.25937E+00
 -1      3049 4.31290E-01
 -1      3050 3.07938E+00
 -1      3051 7.32262E+00
 -1      3052 7.15178E+00
 -1      3053 4.74542E+00
 -1      3054 3.50930E+00
 -1      3055 1.48790E+01
 -1      3056 4.07635E-01
 -1      3057 4.21993E-01
 -1      3058 3.61663E-01
 -1      3059 3.50196E-01
 -1      3060 3.65434E+00
 -1      3061 4.41629E+00
 -1      3062 4.20780E+00
 -1      3063 1.08572E+01
 -1      3064 6.34669E+00
 -1      3065 5.45409E+00
 -1      3066 4.07292E+00
 -1      3067 5.58667E+00
 -1      3068 3.97056E+00
 -1      3069 3.80386E+00
 -1      3070 4.40954E-01
 -1      3071 6.93293E+00
 -1      3072 3.87082E+00
 -1      3073 4.35107E+00
 -1      3074 9.73155E+00
 -1      3075 1.20765E+01
 -1      3076 2.89973E-01
 -1      3077 3.01903E-01
 -1      3078 1.24810E+01
 -1      3079 1.27298E+01
 -1      3080 3.41200E+00
 -1      3081 3.03699E+00
 -1      3082 3.19682E-01
 -1      3083 2.99457E-01
 -1      3084 2.95732E-01
 -1      3085 2.70942E-01
 -1      3086 2.52249E-01
 -1      3087 2.60012E-01
 -1      3088 2.35205E-01
 -1      3089 2.37594E-01
 -1      3090 2.21050E-01
 -1      3091 2.05447E-01
 -1      3092 2.12509E-01
 -1      3093 1.92137E-01
 -1      3094 1.75927E-01
 -1      3095 1.85044E-01
 -1      3096 1.65352E-01
 -1      3097 1.49899E-01
 -1      3098 1.61160E-01
 -1      3099 1.38775E-01
 -1      3100 1.24843E-01
 -1      3101 1.39461E-01
 -1      3102 1.14110E-01
 -1      3103 1.02631E-01
 -1      3104 1.17604E-01
 -1      3105 9.27896E-02
 -1      3106 8.34592E-02
 -1      3107 9.70301E-02
 -1      3108 7.47004E-02
 -1      3109 6.68314E-02
 -1      3110 7.84295E-02
 -1      3111 5.91325E-02
 -1      3112 5.24352E-02
 -1      3113 6.19718E-02
 -1      3114 4.56226E-02
 -1      3115 4.02359E-02
 -1      3116 4.74603E-02
 -1      3117 3.40317E-02
 -1      3118 2.95824E-02
 -1      3119 3.44434E-02
 -1      3120 2.40461E-02
 -1      3121 2.19063E-02
 -1      3122 2.27028E-02
 -1      3123 2.28273E-02
 -1      3124 2.56383E-02
 -1      3125 1.80875E-02
 -1      3126 3.40820E-02
 -1      3127 4.41921E-02
 -1      3128 2.74523E-02
 -1      3129 5.55166E-02
 -1      3130 6.91960E-02
 -1      3131 4.72205E-02
 -1      3132 8.37013E-02
 -1      3133 1.01168E-01
 -1      3134 7.30502E-02
 -1      3135 1.20566E-01
 -1      3136 1.42815E-01
 -1      3137 1.06954E-01
 -1      3138 1.68146E-01
 -1      3139 1.96257E-01
 -1      3140 1.51683E-01
 -1      3141 2.28455E-01
 -1      3142 2.63562E-01
 -1      3143 2.09212E-01
 -1      3144 3.03841E-01
 -1      3145 3.47087E-01
 -1      3146 2.81690E-01
 -1      3147 3.96484E-01
 -1      3148 4.48944E-01
 -1      3149 3.71366E-01
 -1      3150 5.08007E-01
 -1      3151 5.70593E-01
 -1      3152 4.79827E-01
 -1      3153 6.38781E-01
 -1      3154 7.14694E-01
 -1      3155 6.07078E-01
 -1      3156 7.89289E-01
 -1      3157 8.74079E-01
 -1      3158 7.49861E-01
 -1      3159 9.77175E-01
 -1      3160 1.06540E+00
 -1      3161 9.27552E-01
 -1      3162 1.20430E+00
 -1      3163 1.29924E+00
 -1      3164 1.16955E+00
 -1      3165 1.50645E+00
 -1      3166 1.62648E+00
 -1      3167 1.51566E+00
 -1      3168 1.86729E+00
 -1      3169 2.08119E+00
 -1      3170 1.96367E+00
 -1      3171 2.53393E+00
 -1      3172 2.75154E+00
 -1      3173 2.65722E+00
 -1      3174 3.73143E+00
 -1      3175 4.01325E+00
 -1      3176 4.08985E+00
 -1      3177 5.40041E+00
 -1      3178 6.46475E+00
 -1      3179 3.36873E+00
 -1      3180 3.03673E+00
 -1      3181 4.68281E+00
 -1      3182 2.90207E+00
 -1      3183 6.61322E+00
 -1      3184 1.62502E-01
 -1      3185 1.79517E-01
 -1      3186 1.92327E-01
 -1      3187 2.10898E-01
 -1      3188 1.75842E-01
 -1      3189 1.11347E-01
 -1      3190 1.23693E-01
 -1      3191 8.99590E-02
 -1      3192 1.00557E-01
 -1      3193 1.02446E-01
 -1      3194 7.16664E-02
 -1      3195 8.05417E-02
 -1      3196 8.22383E-02
 -1      3197 5.63545E-02
 -1      3198 6.35354E-02
 -1      3199 6.46900E-02
 -1      3200 4.37379E-02
 -1      3201 4.96765E-02
 -1      3202 4.98810E-02
 -1      3203 3.42366E-02
 -1      3204 3.85184E-02
 -1      3205 3.79836E-02
 -1      3206 2.63497E-02
 -1      3207 2.93583E-02
 -1      3208 2.78858E-02
 -1      3209 2.85535E-02
 -1      3210 2.55637E-02
 -1      3211 2.22215E-02
 -1      3212 4.07484E-02
 -1      3213 3.46114E-02
 -1      3214 2.74935E-02
 -1      3215 6.43968E-02
 -1      3216 5.13148E-02
 -1      3217 4.41178E-02
 -1      3218 9.42600E-02
 -1      3219 7.76022E-02
 -1      3220 6.78896E-02
 -1      3221 1.31938E-01
 -1      3222 1.10862E-01
 -1      3223 9.76974E-02
 -1      3224 1.79058E-01
 -1      3225 1.52761E-01
 -1      3226 1.35123E-01
 -1      3227 2.37157E-01
 -1      3228 2.04978E-01
 -1      3229 1.81865E-01
 -1      3230 3.07481E-01
 -1      3231 2.69082E-01
 -1      3232 2.39710E-01
 -1      3233 3.91811E-01
 -1      3234 3.47436E-01
 -1      3235 3.11589E-01
 -1      3236 4.89840E-01
 -1      3237 4.40680E-01
 -1      3238 4.00412E-01
 -1      3239 5.98277E-01
 -1      3240 5.46971E-01
 -1      3241 5.06413E-01
 -1      3242 7.13278E-01
 -1      3243 6.62585E-01
 -1      3244 6.27851E-01
 -1      3245 8.21491E-01
 -1      3246 7.81314E-01
 -1      3247 7.60194E-01
 -1      3248 9.59665E-01
 -1      3249 8.97208E-01
 -1      3250 9.03946E-01
 -1      3251 1.12243E+00
 -1      3252 1.05035E+00
 -1      3253 1.07035E+00
 -1      3254 1.33409E+00
 -1      3255 1.27920E+00
 -1      3256 1.31780E+00
 -1      3257 1.57489E+00
 -1      3258 1.49218E+00
 -1      3259 1.63267E+00
 -1      3260 1.93796E+00
 -1      3261 1.65857E+00
 -1      3262 1.87444E+00
 -1      3263 2.78725E+00
 -1      3264 2.81084E+00
 -1      3265 2.83099E+00
 -1      3266 2.11881E+00
 -1      3267 1.97274E+00
 -1      3268 2.88936E+00
 -1      3269 5.02868E+00
 -1      3270 3.93410E+00
 -1      3271 5.09239E+00
 -1      3272 5.70224E+00
 -1      3273 5.24817E+00
 -1      3274 3.30814E+00
 -1      3275 4.10458E+00
 -1      3276 3.09454E+00
 -1      3277 3.08301E+00
 -1      3278 3.87946E+00
 -1      3279 2.69287E+00
 -1      3280 2.74794E+00
 -1      3281 3.30774E+00
 -1      3282 2.69287E+00
 -1      3283 2.98899E+00
 -1      3284 3.23193E-01
 -1      3285 3.15476E-01
 -1      3286 1.66378E+01
 -1      3287 8.54785E+00
 -1      3288 1.23560E+01
 -1      3289 1.00679E+01
 -1      3290 5.17840E+00
 -1      3291 3.66428E+00
 -1      3292 3.14821E-01
 -1      3293 3.07582E-01
 -1      3294 2.43874E-01
 -1      3295 8.70199E+00
 -1      3296 4.64712E-01
 -1      3297 6.85778E+00
 -1      3298 1.35730E-01
 -1      3299 1.49642E-01
 -1      3300 1.50172E-01
 -1      3301 1.25274E-01
 -1      3302 3.06562E-01
 -1      3303 3.40751E-01
 -1      3304 3.59762E-01
 -1      3305 3.26340E-01
 -1      3306 2.43293E-01
 -1      3307 3.59762E-01
 -1      3308 7.31696E+00
 -1      3309 5.69546E+00
 -1      3310 3.73442E+00
 -1      3311 3.87946E+00
 -1      3312 1.33011E+01
 -1      3313 1.24810E+01
 -1      3314 5.60099E+00
 -1      3315 4.45600E+00
 -1      3316 4.12938E-01
 -1      3317 3.10037E-01
 -1      3318 2.61957E-01
 -1      3319 3.98332E-01
 -1      3320 4.30289E+00
 -1      3321 3.41200E+00
 -1      3322 3.27293E+00
 -1      3323 3.42604E+00
 -1      3324 3.91004E+00
 -1      3325 5.13843E+00
 -1      3326 4.77817E+00
 -1      3327 3.35658E+00
 -1      3328 7.53244E+00
 -1      3329 8.97418E+00
 -1      3330 5.87137E+00
 -1      3331 2.70448E+00
 -1      3332 2.86742E+00
 -1      3333 1.07724E+01
 -1      3334 9.10292E+00
 -1      3335 7.23220E+00
 -1      3336 6.37883E+00
 -1      3337 4.35698E+00
 -1      3338 3.24282E-01
 -1      3339 3.24162E-01
 -1      3340 2.96883E-01
 -1      3341 2.61896E-01
 -1      3342 3.21906E-01
 -1      3343 3.21906E-01
 -1      3344 9.21541E+00
 -1      3345 1.10421E+01
 -1      3346 8.88140E+00
 -1      3347 5.49633E+00
 -1      3348 4.93671E+00
 -1      3349 3.88021E+00
 -1      3350 4.08608E+00
 -1      3351 3.61967E+00
 -1      3352 3.02217E+00
 -1      3353 3.13096E+00
 -1      3354 2.90649E-01
 -1      3355 2.69712E-01
 -1      3356 2.63313E-01
 -1      3357 3.32359E-01
 -1      3358 3.81930E-01
 -1      3359 2.76981E-01
 -1      3360 2.02887E-01
 -1      3361 2.25133E-01
 -1      3362 2.44974E-01
 -1      3363 2.32765E+00
 -1      3364 2.28369E+00
 -1      3365 2.65804E+00
 -1      3366 5.71820E+00
 -1      3367 5.24817E+00
 -1      3368 3.23193E-01
 -1      3369 2.88077E-01
 -1      3370 3.24995E-01
 -1      3371 3.44216E-01
 -1      3372 3.11006E-01
 -1      3373 3.40310E-01
 -1      3374 3.28407E+00
 -1      3375 4.92917E+00
 -1      3376 3.77082E-01
 -1      3377 2.60771E-01
 -1      3378 3.51469E-01
 -1      3379 3.34964E-01
 -1      3380 3.68734E-01
 -1      3381 2.56786E-01
 -1      3382 2.79838E-01
 -1      3383 9.67846E+00
 -1      3384 8.49538E+00
 -1      3385 7.21763E+00
 -1      3386 6.46027E+00
 -1      3387 3.65434E+00
 -1      3388 1.09031E+01
 -1      3389 3.13096E+00
 -1      3390 9.62662E+00
 -1      3391 2.15177E-01
 -1      3392 2.11452E-01
 -1      3393 6.00441E+00
 -1      3394 2.15461E-01
 -1      3395 2.04532E-01
 -1      3396 1.78389E-01
 -1      3397 2.00945E-01
 -1      3398 1.86790E-01
 -1      3399 1.78813E-01
 -1      3400 1.78955E-01
 -1      3401 1.65645E-01
 -1      3402 1.67391E-01
 -1      3403 1.55833E-01
 -1      3404 1.45258E-01
 -1      3405 1.49744E-01
 -1      3406 1.36958E-01
 -1      3407 1.25833E-01
 -1      3408 1.31631E-01
 -1      3409 1.17620E-01
 -1      3410 1.06888E-01
 -1      3411 1.15117E-01
 -1      3412 9.85551E-02
 -1      3413 8.87133E-02
 -1      3414 9.85710E-02
 -1      3415 8.07866E-02
 -1      3416 7.20278E-02
 -1      3417 8.23116E-02
 -1      3418 6.47580E-02
 -1      3419 5.70590E-02
 -1      3420 6.71150E-02
 -1      3421 5.04889E-02
 -1      3422 4.36763E-02
 -1      3423 5.32751E-02
 -1      3424 3.77163E-02
 -1      3425 3.15121E-02
 -1      3426 4.07450E-02
 -1      3427 2.71112E-02
 -1      3428 2.15749E-02
 -1      3429 3.03841E-02
 -1      3430 2.25526E-02
 -1      3431 2.34737E-02
 -1      3432 2.69610E-02
 -1      3433 2.68641E-02
 -1      3434 3.53078E-02
 -1      3435 3.13292E-02
 -1      3436 4.53882E-02
 -1      3437 5.67127E-02
 -1      3438 4.48000E-02
 -1      3439 7.05215E-02
 -1      3440 8.50268E-02
 -1      3441 6.86893E-02
 -1      3442 1.02925E-01
 -1      3443 1.22323E-01
 -1      3444 1.00396E-01
 -1      3445 1.45312E-01
 -1      3446 1.70642E-01
 -1      3447 1.41282E-01
 -1      3448 1.99944E-01
 -1      3449 2.32142E-01
 -1      3450 1.93573E-01
 -1      3451 2.69158E-01
 -1      3452 3.09437E-01
 -1      3453 2.59890E-01
 -1      3454 3.55783E-01
 -1      3455 4.05181E-01
 -1      3456 3.43252E-01
 -1      3457 4.62739E-01
 -1      3458 5.21802E-01
 -1      3459 4.47156E-01
 -1      3460 5.92764E-01
 -1      3461 6.60951E-01
 -1      3462 5.75675E-01
 -1      3463 7.47790E-01
 -1      3464 8.22385E-01
 -1      3465 7.33476E-01
 -1      3466 9.27552E-01
 -1      3467 1.03065E+00
 -1      3468 9.25481E-01
 -1      3469 1.15524E+00
 -1      3470 1.29414E+00
 -1      3471 1.15524E+00
 -1      3472 1.49871E+00
 -1      3473 1.70592E+00
 -1      3474 1.48440E+00
 -1      3475 1.98931E+00
 -1      3476 2.23011E+00
 -1      3477 1.97235E+00
 -1      3478 2.62745E+00
 -1      3479 3.08018E+00
 -1      3480 2.65308E+00
 -1      3481 4.54571E+00
 -1      3482 5.52560E+00
 -1      3483 5.13243E+00
 -1      3484 6.03806E-02
 -1      3485 6.85116E-02
 -1      3486 7.64427E-02
 -1      3487 8.58600E-02
 -1      3488 7.21333E-02
 -1      3489 9.46089E-02
 -1      3490 1.05399E-01
 -1      3491 8.88132E-02
 -1      3492 4.66167E-02
 -1      3493 5.32946E-02
 -1      3494 5.71163E-02
 -1      3495 3.50274E-02
 -1      3496 4.02469E-02
 -1      3497 4.36606E-02
 -1      3498 2.42487E-02
 -1      3499 2.91270E-02
 -1      3500 3.13903E-02
 -1      3501 2.22415E-02
 -1      3502 2.30274E-02
 -1      3503 2.42686E-02
 -1      3504 3.04714E-02
 -1      3505 2.44134E-02
 -1      3506 2.52194E-02
 -1      3507 5.04731E-02
 -1      3508 3.99066E-02
 -1      3509 3.68266E-02
 -1      3510 7.57739E-02
 -1      3511 6.25684E-02
 -1      3512 5.83573E-02
 -1      3513 1.08491E-01
 -1      3514 9.18885E-02
 -1      3515 8.65673E-02
 -1      3516 1.49735E-01
 -1      3517 1.28912E-01
 -1      3518 1.23103E-01
 -1      3519 2.01207E-01
 -1      3520 1.75287E-01
 -1      3521 1.69077E-01
 -1      3522 2.64560E-01
 -1      3523 2.32635E-01
 -1      3524 2.26057E-01
 -1      3525 3.42345E-01
 -1      3526 3.02391E-01
 -1      3527 2.95316E-01
 -1      3528 4.35529E-01
 -1      3529 3.86660E-01
 -1      3530 3.77461E-01
 -1      3531 5.42704E-01
 -1      3532 4.85573E-01
 -1      3533 4.71821E-01
 -1      3534 6.60506E-01
 -1      3535 5.96198E-01
 -1      3536 5.75359E-01
 -1      3537 8.03793E-01
 -1      3538 7.35758E-01
 -1      3539 7.04105E-01
 -1      3540 9.79184E-01
 -1      3541 9.03466E-01
 -1      3542 8.79030E-01
 -1      3543 1.22371E+00
 -1      3544 1.13303E+00
 -1      3545 1.13255E+00
 -1      3546 1.56914E+00
 -1      3547 1.41237E+00
 -1      3548 1.47505E+00
 -1      3549 2.13802E+00
 -1      3550 1.97993E+00
 -1      3551 2.07449E+00
 -1      3552 2.68937E+00
 -1      3553 2.60569E+00
 -1      3554 2.95295E+00
 -1      3555 3.24348E+00
 -1      3556 4.05799E+00
 -1      3557 3.76858E+00
 -1      3558 9.06615E+00
 -1      3559 9.06615E+00
 -1      3560 2.97333E+00
 -1      3561 2.69287E+00
 -1      3562 2.96114E+00
 -1      3563 3.00998E+00
 -1      3564 3.45232E+00
 -1      3565 1.84799E-01
 -1      3566 1.96899E-01
 -1      3567 1.56102E-01
 -1      3568 5.12224E+00
 -1      3569 4.60518E+00
 -1      3570 4.25106E+00
 -1      3571 3.32749E-01
 -1      3572 3.40310E-01
 -1      3573 3.22863E-01
 -1      3574 3.14276E-01
 -1      3575 3.65434E+00
 -1      3576 2.23877E-01
 -1      3577 2.03813E-01
 -1      3578 2.02627E-01
 -1      3579 7.84150E+00
 -1      3580 9.06615E+00
 -1      3581 6.90820E+00
 -1      3582 1.57566E-01
 -1      3583 1.70376E-01
 -1      3584 8.88140E+00
 -1      3585 8.27294E+00
 -1      3586 3.30774E+00
 -1      3587 2.23816E-01
 -1      3588 8.89840E+00
 -1      3589 7.21071E+00
 -1      3590 7.06145E+00
 -1      3591 3.30774E+00
 -1      3592 4.51594E+00
 -1      3593 2.35460E-01
 -1      3594 1.82199E-01
 -1      3595 1.96434E-01
 -1      3596 1.63923E-01
 -1      3597 3.37818E+00
 -1      3598 4.10943E+00
 -1      3599 7.22919E+00
 -1      3600 2.84988E-01
 -1      3601 2.59147E-01
 -1      3602 2.67953E-01
 -1      3603 2.43001E-01
 -1      3604 2.37215E-01
 -1      3605 7.52772E+00
 -1      3606 5.06735E+00
 -1      3607 6.30352E+00
 -1      3608 5.69121E+00
 -1      3609 3.60182E+00
 -1      3610 1.14732E-01
 -1      3611 1.26770E-01
 -1      3612 1.06895E-01
 -1      3613 1.98168E-01
 -1      3614 1.86649E-01
 -1      3615 1.39674E-01
 -1      3616 2.20336E-01
 -1      3617 2.28488E-01
 -1      3618 2.44402E-01
 -1      3619 2.01778E-01
 -1      3620 2.48373E-01
 -1      3621 2.36516E-01
 -1      3622 1.57703E-01
 -1      3623 2.60841E-01
 -1      3624 2.60841E-01
 -1      3625 2.31911E-01
 -1      3626 7.12833E+00
 -1      3627 5.01837E+00
 -1      3628 4.32956E+00
 -1      3629 6.38311E+00
 -1      3630 1.49016E-01
 -1      3631 1.43549E-01
 -1      3632 1.36155E-01
 -1      3633 1.48892E-01
 -1      3634 1.52902E-01
 -1      3635 3.96029E-02
 -1      3636 4.59727E-02
 -1      3637 1.59199E-01
 -1      3638 1.55612E-01
 -1      3639 1.29702E-01
 -1      3640 1.55303E-01
 -1      3641 1.47467E-01
 -1      3642 1.35689E-01
 -1      3643 1.43070E-01
 -1      3644 1.33258E-01
 -1      3645 1.30982E-01
 -1      3646 1.26625E-01
 -1      3647 1.18324E-01
 -1      3648 1.19952E-01
 -1      3649 1.10737E-01
 -1      3650 1.02524E-01
 -1      3651 1.05731E-01
 -1      3652 9.62723E-02
 -1      3653 8.79396E-02
 -1      3654 9.18921E-02
 -1      3655 8.14933E-02
 -1      3656 7.35666E-02
 -1      3657 7.91945E-02
 -1      3658 6.73416E-02
 -1      3659 6.00717E-02
 -1      3660 6.65232E-02
 -1      3661 5.42859E-02
 -1      3662 4.77158E-02
 -1      3663 5.45125E-02
 -1      3664 4.24631E-02
 -1      3665 3.65032E-02
 -1      3666 4.34740E-02
 -1      3667 3.34719E-02
 -1      3668 2.90711E-02
 -1      3669 3.51901E-02
 -1      3670 2.97487E-02
 -1      3671 3.07264E-02
 -1      3672 3.28365E-02
 -1      3673 3.27670E-02
 -1      3674 3.61574E-02
 -1      3675 3.55547E-02
 -1      3676 4.09273E-02
 -1      3677 5.10078E-02
 -1      3678 4.23651E-02
 -1      3679 6.24994E-02
 -1      3680 7.63082E-02
 -1      3681 5.86267E-02
 -1      3682 9.11471E-02
 -1      3683 1.09045E-01
 -1      3684 8.49573E-02
 -1      3685 1.28125E-01
 -1      3686 1.51114E-01
 -1      3687 1.18877E-01
 -1      3688 1.75502E-01
 -1      3689 2.04804E-01
 -1      3690 1.62345E-01
 -1      3691 2.35807E-01
 -1      3692 2.72823E-01
 -1      3693 2.17737E-01
 -1      3694 3.12118E-01
 -1      3695 3.58465E-01
 -1      3696 2.88036E-01
 -1      3697 4.08349E-01
 -1      3698 4.65906E-01
 -1      3699 3.77215E-01
 -1      3700 5.29764E-01
 -1      3701 6.00726E-01
 -1      3702 4.90957E-01
 -1      3703 6.83877E-01
 -1      3704 7.70716E-01
 -1      3705 6.37966E-01
 -1      3706 8.81784E-01
 -1      3707 9.86951E-01
 -1      3708 8.32186E-01
 -1      3709 1.13971E+00
 -1      3710 1.26430E+00
 -1      3711 1.09601E+00
 -1      3712 1.48440E+00
 -1      3713 1.68897E+00
 -1      3714 1.46887E+00
 -1      3715 1.89107E+00
 -1      3716 2.17446E+00
 -1      3717 1.89107E+00
 -1      3718 2.36445E+00
 -1      3719 2.76178E+00
 -1      3720 3.31319E+00
 -1      3721 2.28317E+00
 -1      3722 6.53385E-02
 -1      3723 7.32696E-02
 -1      3724 5.18110E-02
 -1      3725 5.88970E-02
 -1      3726 6.00333E-02
 -1      3727 4.77534E-02
 -1      3728 5.83163E+00
 -1      3729 5.83163E+00
 -1      3730 8.03003E-02
 -1      3731 8.90491E-02
 -1      3732 7.35055E-02
 -1      3733 2.83619E-02
 -1      3734 3.42623E-02
 -1      3735 3.65744E-02
 -1      3736 2.66691E-02
 -1      3737 2.78904E-02
 -1      3738 3.07623E-02
 -1      3739 3.03435E-02
 -1      3740 2.81715E-02
 -1      3741 3.17933E-02
 -1      3742 4.40034E-02
 -1      3743 3.45681E-02
 -1      3744 3.75203E-02
 -1      3745 6.71100E-02
 -1      3746 5.50147E-02
 -1      3747 5.27561E-02
 -1      3748 9.74959E-02
 -1      3749 8.13813E-02
 -1      3750 7.80386E-02
 -1      3751 1.36135E-01
 -1      3752 1.15714E-01
 -1      3753 1.10528E-01
 -1      3754 1.84757E-01
 -1      3755 1.59204E-01
 -1      3756 1.51815E-01
 -1      3757 2.45101E-01
 -1      3758 2.13673E-01
 -1      3759 2.03801E-01
 -1      3760 3.18786E-01
 -1      3761 2.80955E-01
 -1      3762 2.68571E-01
 -1      3763 4.07076E-01
 -1      3764 3.62761E-01
 -1      3765 3.48400E-01
 -1      3766 5.10501E-01
 -1      3767 4.60456E-01
 -1      3768 4.45756E-01
 -1      3769 6.28116E-01
 -1      3770 5.74622E-01
 -1      3771 5.63258E-01
 -1      3772 7.79357E-01
 -1      3773 7.04105E-01
 -1      3774 7.03368E-01
 -1      3775 9.66624E-01
 -1      3776 8.66951E-01
 -1      3777 8.66951E-01
 -1      3778 1.26751E+00
 -1      3779 1.11366E+00
 -1      3780 1.10159E+00
 -1      3781 1.69107E+00
 -1      3782 1.50241E+00
 -1      3783 1.48353E+00
 -1      3784 2.40349E+00
 -1      3785 1.99270E+00
 -1      3786 2.02006E+00
 -1      3787 3.39003E+00
 -1      3788 2.92236E+00
 -1      3789 2.84057E+00
 -1      3790 4.29897E+00
 -1      3791 1.99669E-01
 -1      3792 2.57751E-01
 -1      3793 2.30218E-01
 -1      3794 2.67953E-01
 -1      3795 2.76540E-01
 -1      3796 6.54436E+00
 -1      3797 6.54436E+00
 -1      3798 6.22735E+00
 -1      3799 2.26154E-01
 -1      3800 2.08889E-01
 -1      3801 1.71995E-01
 -1      3802 1.89317E-01
 -1      3803 4.44308E+00
 -1      3804 1.14415E-01
 -1      3805 1.32694E-01
 -1      3806 1.07206E-01
 -1      3807 1.23990E-01
 -1      3808 1.22140E-01
 -1      3809 9.87320E-02
 -1      3810 1.40169E-01
 -1      3811 2.60841E-01
 -1      3812 2.06709E-01
 -1      3813 2.25047E-01
 -1      3814 1.86021E-01
 -1      3815 5.90667E+00
 -1      3816 5.73892E+00
 -1      3817 4.50910E+00
 -1      3818 1.46357E-01
 -1      3819 1.58181E-01
 -1      3820 2.65259E-01
 -1      3821 2.65259E-01
 -1      3822 1.90768E-01
 -1      3823 2.18936E-01
 -1      3824 2.33604E-01
 -1      3825 1.93081E-01
 -1      3826 1.93081E-01
 -1      3827 1.99737E-01
 -1      3828 1.25613E-01
 -1      3829 2.05930E-01
 -1      3830 1.96245E-01
 -1      3831 1.94552E-01
 -1      3832 1.57416E-01
 -1      3833 1.76309E-01
 -1      3834 1.74909E-01
 -1      3835 3.70987E+00
 -1      3836 5.24785E+00
 -1      3837 3.85028E+00
 -1      3838 2.86983E+00
 -1      3839 5.54193E+00
 -1      3840 4.39732E+00
 -1      3841 3.45779E+00
 -1      3842 4.55857E+00
 -1      3843 9.63405E-02
 -1      3844 1.05673E-01
 -1      3845 8.78275E-02
 -1      3846 1.29890E-01
 -1      3847 1.38441E-01
 -1      3848 1.32698E-01
 -1      3849 1.28584E-01
 -1      3850 1.54053E-01
 -1      3851 1.42992E-01
 -1      3852 1.46455E-01
 -1      3853 1.64021E-01
 -1      3854 1.74295E-01
 -1      3855 3.25621E-02
 -1      3856 3.79027E-02
 -1      3857 1.18860E-01
 -1      3858 1.18551E-01
 -1      3859 1.19301E-01
 -1      3860 1.14904E-01
 -1      3861 1.02473E-01
 -1      3862 1.12219E-01
 -1      3863 1.05586E-01
 -1      3864 1.00538E-01
 -1      3865 1.00908E-01
 -1      3866 9.33204E-02
 -1      3867 9.31750E-02
 -1      3868 8.77112E-02
 -1      3869 8.14599E-02
 -1      3870 8.28883E-02
 -1      3871 7.56107E-02
 -1      3872 6.91644E-02
 -1      3873 7.14298E-02
 -1      3874 6.40482E-02
 -1      3875 5.78232E-02
 -1      3876 6.04644E-02
 -1      3877 5.31419E-02
 -1      3878 4.73562E-02
 -1      3879 5.06670E-02
 -1      3880 4.33256E-02
 -1      3881 3.80729E-02
 -1      3882 4.19551E-02
 -1      3883 3.72268E-02
 -1      3884 3.41956E-02
 -1      3885 3.70784E-02
 -1      3886 3.42771E-02
 -1      3887 3.49547E-02
 -1      3888 3.63138E-02
 -1      3889 3.65680E-02
 -1      3890 3.86086E-02
 -1      3891 3.80086E-02
 -1      3892 4.18293E-02
 -1      3893 4.65992E-02
 -1      3894 4.28426E-02
 -1      3895 5.27769E-02
 -1      3896 6.42686E-02
 -1      3897 5.22410E-02
 -1      3898 7.33599E-02
 -1      3899 8.81988E-02
 -1      3900 6.75101E-02
 -1      3901 1.02185E-01
 -1      3902 1.21265E-01
 -1      3903 9.05874E-02
 -1      3904 1.39532E-01
 -1      3905 1.63920E-01
 -1      3906 1.22840E-01
 -1      3907 1.87170E-01
 -1      3908 2.18174E-01
 -1      3909 1.64357E-01
 -1      3910 2.47686E-01
 -1      3911 2.86982E-01
 -1      3912 2.17120E-01
 -1      3913 3.24576E-01
 -1      3914 3.74460E-01
 -1      3915 2.84227E-01
 -1      3916 4.22972E-01
 -1      3917 4.86831E-01
 -1      3918 3.70334E-01
 -1      3919 5.51084E-01
 -1      3920 6.34235E-01
 -1      3921 4.83099E-01
 -1      3922 7.23014E-01
 -1      3923 8.34083E-01
 -1      3924 6.36132E-01
 -1      3925 9.63804E-01
 -1      3926 1.11656E+00
 -1      3927 8.54633E-01
 -1      3928 1.32477E+00
 -1      3929 1.54487E+00
 -1      3930 1.19257E+00
 -1      3931 1.66181E+00
 -1      3932 1.86392E+00
 -1      3933 1.51772E+00
 -1      3934 3.49496E-02
 -1      3935 3.34472E-02
 -1      3936 4.17223E-02
 -1      3937 3.74977E-02
 -1      3938 3.91516E-02
 -1      3939 5.79225E-02
 -1      3940 4.69112E-02
 -1      3941 4.68886E-02
 -1      3942 8.36348E-02
 -1      3943 6.93635E-02
 -1      3944 6.35186E-02
 -1      3945 1.16634E-01
 -1      3946 9.84161E-02
 -1      3947 8.97410E-02
 -1      3948 1.58678E-01
 -1      3949 1.35609E-01
 -1      3950 1.23497E-01
 -1      3951 2.11796E-01
 -1      3952 1.82879E-01
 -1      3953 1.66673E-01
 -1      3954 2.78364E-01
 -1      3955 2.42511E-01
 -1      3956 2.21589E-01
 -1      3957 3.61259E-01
 -1      3958 3.17283E-01
 -1      3959 2.91223E-01
 -1      3960 4.64113E-01
 -1      3961 4.10733E-01
 -1      3962 3.79616E-01
 -1      3963 5.91729E-01
 -1      3964 5.27608E-01
 -1      3965 4.92584E-01
 -1      3966 7.50605E-01
 -1      3967 6.74616E-01
 -1      3968 6.38966E-01
 -1      3969 9.49186E-01
 -1      3970 8.61592E-01
 -1      3971 8.32840E-01
 -1      3972 1.24863E+00
 -1      3973 1.10159E+00
 -1      3974 1.09623E+00
 -1      3975 1.68350E+00
 -1      3976 1.44860E+00
 -1      3977 1.44860E+00
 -1      3978 2.46764E+00
 -1      3979 2.16600E+00
 -1      3980 2.13107E+00
 -1      3981 1.74859E-01
 -1      3982 1.78300E-01
 -1      3983 1.51430E-01
 -1      3984 1.52858E-01
 -1      3985 1.12670E-01
 -1      3986 1.22056E-01
 -1      3987 1.16947E-01
 -1      3988 1.02116E-01
 -1      3989 5.73892E+00
 -1      3990 5.07257E+00
 -1      3991 4.58414E+00
 -1      3992 1.06559E-01
 -1      3993 1.12855E-01
 -1      3994 9.57175E-02
 -1      3995 1.48021E-01
 -1      3996 1.85157E-01
 -1      3997 1.73875E-01
 -1      3998 3.23987E-02
 -1      3999 3.28702E-02
 -1      4000 3.41985E-02
 -1      4001 9.11770E-02
 -1      4002 1.07376E-01
 -1      4003 9.05296E-02
 -1      4004 6.38493E-02
 -1      4005 7.08799E-02
 -1      4006 1.70666E-01
 -1      4007 3.55550E-02
 -1      4008 2.04657E+00
 -1      4009 2.23655E+00
 -1      4010 2.63323E+00
 -1      4011 1.81730E+00
 -1      4012 4.21999E-02
 -1      4013 4.80383E-02
 -1      4014 3.81877E-02
 -1      4015 5.30282E-02
 -1      4016 5.94698E-02
 -1      4017 5.68442E-02
 -1      4018 4.74748E-02
 -1      4019 1.69076E-01
 -1      4020 1.52190E-01
 -1      4021 1.18477E-01
 -1      4022 1.35297E-01
 -1      4023 1.29902E-01
 -1      4024 1.27912E-01
 -1      4025 2.84057E+00
 -1      4026 2.32170E+00
 -1      4027 2.46764E+00
 -1      4028 2.93892E+00
 -1      4029 8.97132E-02
 -1      4030 9.70046E-02
 -1      4031 8.00570E-02
 -1      4032 1.28928E-01
 -1      4033 1.34768E-01
 -1      4034 4.08728E+00
 -1      4035 3.08486E+00
 -1      4036 2.46764E+00
 -1      4037 3.59886E+00
 -1      4038 1.25912E-01
 -1      4039 1.17988E-01
 -1      4040 2.95475E+00
 -1      4041 3.53853E+00
 -1      4042 2.32148E+00
 -1      4043 1.00010E-01
 -1      4044 1.21538E-01
 -1      4045 1.27383E-01
 -1      4046 1.25912E-01
 -1      4047 9.58799E-02
 -1      4048 1.17563E-01
 -1      4049 1.25479E-01
 -1      4050 1.13792E-01
 -1      4051 1.10753E-01
 -1      4052 1.00682E-01
 -1      4053 1.96245E-01
 -1      4054 1.96245E-01
 -1      4055 3.61357E+00
 -1      4056 1.10922E-01
 -1      4057 1.58886E-01
 -1      4058 3.66035E-02
 -1      4059 3.55550E-02
 -1      4060 7.14343E-02
 -1      4061 7.06172E-02
 -1      4062 1.26262E-01
 -1      4063 1.33307E-01
 -1      4064 8.95399E-02
 -1      4065 8.68548E-02
 -1      4066 8.48491E-02
 -1      4067 8.01716E-02
 -1      4068 7.38513E-02
 -1      4069 7.67688E-02
 -1      4070 7.11596E-02
 -1      4071 6.84429E-02
 -1      4072 8.12684E-02
 -1      4073 7.54191E-02
 -1      4074 7.51489E-02
 -1      4075 6.08309E-02
 -1      4076 5.57147E-02
 -1      4077 7.06694E-02
 -1      4078 5.13811E-02
 -1      4079 4.66998E-02
 -1      4080 5.17475E-02
 -1      4081 4.34908E-02
 -1      4082 3.94602E-02
 -1      4083 4.42050E-02
 -1      4084 4.35199E-02
 -1      4085 4.26738E-02
 -1      4086 4.50556E-02
 -1      4087 3.63138E-02
 -1      4088 3.63952E-02
 -1      4089 4.27552E-02
 -1      4090 3.80086E-02
 -1      4091 3.96219E-02
 -1      4092 3.80086E-02
 -1      4093 4.28426E-02
 -1      4094 4.60633E-02
 -1      4095 4.28426E-02
 -1      4096 5.21453E-02
 -1      4097 5.83231E-02
 -1      4098 5.21453E-02
 -1      4099 6.69677E-02
 -1      4100 7.60591E-02
 -1      4101 6.68721E-02
 -1      4102 8.76238E-02
 -1      4103 1.01610E-01
 -1      4104 8.70815E-02
 -1      4105 1.16639E-01
 -1      4106 1.34906E-01
 -1      4107 1.13675E-01
 -1      4108 1.54058E-01
 -1      4109 1.77308E-01
 -1      4110 1.47856E-01
 -1      4111 2.01425E-01
 -1      4112 2.30937E-01
 -1      4113 1.91125E-01
 -1      4114 2.61182E-01
 -1      4115 2.98776E-01
 -1      4116 2.45487E-01
 -1      4117 3.36916E-01
 -1      4118 3.85428E-01
 -1      4119 3.13871E-01
 -1      4120 4.34395E-01
 -1      4121 4.98648E-01
 -1      4122 4.00977E-01
 -1      4123 5.63631E-01
 -1      4124 6.52411E-01
 -1      4125 5.14927E-01
 -1      4126 7.43075E-01
 -1      4127 8.72797E-01
 -1      4128 6.70574E-01
 -1      4129 1.01038E+00
 -1      4130 1.21859E+00
 -1      4131 8.98821E-01
 -1      4132 1.45102E+00
 -1      4133 1.56796E+00
 -1      4134 1.26883E+00
 -1      4135 5.18512E-02
 -1      4136 4.66623E-02
 -1      4137 4.16997E-02
 -1      4138 3.91516E-02
 -1      4139 3.91516E-02
 -1      4140 4.66623E-02
 -1      4141 9.58632E-02
 -1      4142 8.10818E-02
 -1      4143 1.28217E-01
 -1      4144 1.09242E-01
 -1      4145 1.00582E-01
 -1      4146 1.69478E-01
 -1      4147 1.45277E-01
 -1      4148 1.31022E-01
 -1      4149 2.21557E-01
 -1      4150 1.90842E-01
 -1      4151 1.69446E-01
 -1      4152 2.87592E-01
 -1      4153 2.48673E-01
 -1      4154 2.17926E-01
 -1      4155 3.76190E-01
 -1      4156 3.26717E-01
 -1      4157 2.84166E-01
 -1      4158 4.91618E-01
 -1      4159 4.28124E-01
 -1      4160 3.75224E-01
 -1      4161 6.45276E-01
 -1      4162 5.62389E-01
 -1      4163 4.97929E-01
 -1      4164 8.56161E-01
 -1      4165 7.45174E-01
 -1      4166 6.68598E-01
 -1      4167 1.15605E+00
 -1      4168 1.00365E+00
 -1      4169 9.15985E-01
 -1      4170 1.59718E+00
 -1      4171 1.39720E+00
 -1      4172 1.30463E+00
 -1      4173 2.39545E+00
 -1      4174 1.91295E+00
 -1      4175 1.86155E+00
 -1      4176 1.34603E-01
 -1      4177 1.35166E-01
 -1      4178 1.11647E-01
 -1      4179 7.08498E-02
 -1      4180 5.94087E-02
 -1      4181 5.91824E-02
 -1      4182 1.17076E-01
 -1      4183 7.78053E-02
 -1      4184 8.38102E-02
 -1      4185 5.87099E-02
 -1      4186 1.15722E-01
 -1      4187 4.18109E-02
 -1      4188 4.15029E-02
 -1      4189 4.28594E-02
 -1      4190 9.04339E-02
 -1      4191 9.11840E-02
 -1      4192 7.75012E-02
 -1      4193 1.26262E-01
 -1      4194 3.61357E+00
 -1      4195 3.61357E+00
 -1      4196 2.64300E+00
 -1      4197 9.47583E-02
 -1      4198 9.36133E-02
 -1      4199 7.37009E-02
 -1      4200 1.71208E+00
 -1      4201 1.89473E+00
 -1      4202 2.21626E+00
 -1      4203 1.64539E+00
 -1      4204 7.69719E-02
 -1      4205 1.02556E-01
 -1      4206 1.02392E-01
 -1      4207 1.00420E-01
 -1      4208 1.03869E-01
 -1      4209 8.91850E-02
 -1      4210 9.65268E-02
 -1      4211 9.12630E-02
 -1      4212 8.20077E-02
 -1      4213 7.25217E-02
 -1      4214 2.61357E+00
 -1      4215 7.32407E-02
 -1      4216 9.20740E-02
 -1      4217 2.21626E+00
 -1      4218 4.06933E-02
 -1      4219 4.49905E-02
 -1      4220 4.83057E-02
 -1      4221 3.59886E+00
 -1      4222 2.61357E+00
 -1      4223 2.62829E+00
 -1      4224 1.11009E-01
 -1      4225 1.18844E-01
 -1      4226 1.11625E-01
 -1      4227 7.37009E-02
 -1      4228 5.15218E-02
 -1      4229 7.37009E-02
 -1      4230 1.04013E-01
 -1      4231 1.11009E-01
 -1      4232 1.12906E-01
 -1      4233 1.05898E-01
 -1      4234 2.61357E+00
 -1      4235 1.01132E-01
 -1      4236 5.42729E-02
 -1      4237 5.86524E-02
 -1      4238 7.06694E-02
 -1      4239 8.60113E-02
 -1      4240 8.13603E-02
 -1      4241 7.11283E-02
 -1      4242 9.23759E-02
 -1      4243 8.89732E-02
 -1      4244 8.19652E-02
 -1      4245 9.20740E-02
 -1      4246 1.05898E-01
 -1      4247 8.52576E-02
 -1      4248 7.06694E-02
 -1      4249 5.60811E-02
 -1      4250 5.17475E-02
 -1      4251 4.50556E-02
 -1      4252 4.91153E-02
 -1      4253 4.91153E-02
 -1      4254 4.27552E-02
 -1      4255 3.64993E-02
 -1      4256 3.81127E-02
 -1      4257 4.06608E-02
 -1      4258 4.38815E-02
 -1      4259 4.88441E-02
 -1      4260 5.49261E-02
 -1      4261 6.24837E-02
 -1      4262 9.29251E-02
 -1      4263 1.06304E-01
 -1      4264 1.21332E-01
 -1      4265 1.38393E-01
 -1      4266 1.57545E-01
 -1      4267 1.78909E-01
 -1      4268 2.03026E-01
 -1      4269 2.30142E-01
 -1      4270 2.60387E-01
 -1      4271 2.99511E-01
 -1      4272 3.37651E-01
 -1      4273 3.89584E-01
 -1      4274 4.38551E-01
 -1      4275 5.09322E-01
 -1      4276 5.74305E-01
 -1      4277 6.74202E-01
 -1      4278 7.64867E-01
 -1      4279 9.12356E-01
 -1      4280 1.04994E+00
 -1      4281 1.29109E+00
 -1      4282 1.52352E+00
 -1      4283 4.20162E-02
 -1      4284 4.70062E-02
 -1      4285 4.45219E-02
 -1      4286 7.68854E-02
 -1      4287 7.10204E-02
 -1      4288 1.83929E+00
 -1      4289 2.39545E+00
 -1      4290 8.35091E-02
 -1      4291 5.87099E-02
 -1      4292 8.48213E-02
 -1      4293 8.31771E-02
 -1      4294 9.20740E-02
 -1      4295 9.88903E-02
 -1      4296 9.08307E-02
 -1      4297 8.88250E-02
 -1      4298 1.09355E-01
 -1      4299 9.81508E-02
 -1      4300 1.98342E+00
 -1      4301 4.40613E-02
 -1      4302 4.08523E-02
 -1      4303 4.49120E-02
 -1      4304 4.88143E-02
 -1      4305 4.91153E-02
 -1      4306 1.08074E-01
 -1      4307 1.05898E-01
 -1      4308 1.09355E-01
 -1      4309 4.83949E-02
 -1      4310 2.41016E+00
 -1      4311 4.11282E-02
 -1      4312 4.53314E-02
 -1      4313 1.12906E-01
 -1      4314 1.12906E-01
 -1      4315 6.38323E-02
 -1      4316 4.83057E-02
 -3
 9999
