    1C
    1UUSER                                                              
    1UDATE              27.october.2022                                 
    1UTIME              00:11:24                                        
    1UHOST                                                              
    1UPGM               CalculiX                                        
    1UVERSION           Version 2.17                             
    1UCOMPILETIME       Thu Jul 23 21:43:50 CEST 2020                    
    1UDIR                                                               
    1UDBN                                                               
    1UMAT    1SOLIDMATERIAL                                             
    2C                          4297                                     1
 -1         1 1.25424E+02 3.15988E+01 0.00000E+00
 -1         2 1.26779E+02 2.74593E+01 0.00000E+00
 -1         3 1.50000E+02 0.00000E+00 0.00000E+00
 -1         4 1.50000E+02 5.00000E+01 0.00000E+00
 -1         5 0.00000E+00 0.00000E+00 0.00000E+00
 -1         6 0.00000E+00 5.00000E+01 0.00000E+00
 -1         7 0.00000E+00 4.70500E+01 0.00000E+00
 -1         8 0.00000E+00 4.41000E+01 0.00000E+00
 -1         9 0.00000E+00 4.11500E+01 0.00000E+00
 -1        10 0.00000E+00 3.82000E+01 0.00000E+00
 -1        11 0.00000E+00 3.52500E+01 0.00000E+00
 -1        12 0.00000E+00 3.23500E+01 0.00000E+00
 -1        13 0.00000E+00 2.94000E+01 0.00000E+00
 -1        14 0.00000E+00 2.64500E+01 0.00000E+00
 -1        15 0.00000E+00 2.35000E+01 0.00000E+00
 -1        16 0.00000E+00 2.05500E+01 0.00000E+00
 -1        17 0.00000E+00 1.76000E+01 0.00000E+00
 -1        18 0.00000E+00 1.47000E+01 0.00000E+00
 -1        19 0.00000E+00 1.17500E+01 0.00000E+00
 -1        20 0.00000E+00 8.80000E+00 0.00000E+00
 -1        21 0.00000E+00 5.85000E+00 0.00000E+00
 -1        22 0.00000E+00 2.90000E+00 0.00000E+00
 -1        23 3.15000E+00 5.00000E+01 0.00000E+00
 -1        24 6.15000E+00 5.00000E+01 0.00000E+00
 -1        25 9.15000E+00 5.00000E+01 0.00000E+00
 -1        26 1.21500E+01 5.00000E+01 0.00000E+00
 -1        27 1.51500E+01 5.00000E+01 0.00000E+00
 -1        28 1.81500E+01 5.00000E+01 0.00000E+00
 -1        29 2.11500E+01 5.00000E+01 0.00000E+00
 -1        30 2.41500E+01 5.00000E+01 0.00000E+00
 -1        31 2.71500E+01 5.00000E+01 0.00000E+00
 -1        32 3.01500E+01 5.00000E+01 0.00000E+00
 -1        33 3.31500E+01 5.00000E+01 0.00000E+00
 -1        34 3.61500E+01 5.00000E+01 0.00000E+00
 -1        35 3.91500E+01 5.00000E+01 0.00000E+00
 -1        36 4.21500E+01 5.00000E+01 0.00000E+00
 -1        37 4.51500E+01 5.00000E+01 0.00000E+00
 -1        38 4.81500E+01 5.00000E+01 0.00000E+00
 -1        39 5.11500E+01 5.00000E+01 0.00000E+00
 -1        40 5.41500E+01 5.00000E+01 0.00000E+00
 -1        41 5.71500E+01 5.00000E+01 0.00000E+00
 -1        42 6.01500E+01 5.00000E+01 0.00000E+00
 -1        43 6.31500E+01 5.00000E+01 0.00000E+00
 -1        44 6.61500E+01 5.00000E+01 0.00000E+00
 -1        45 6.91500E+01 5.00000E+01 0.00000E+00
 -1        46 7.21500E+01 5.00000E+01 0.00000E+00
 -1        47 7.51500E+01 5.00000E+01 0.00000E+00
 -1        48 7.81500E+01 5.00000E+01 0.00000E+00
 -1        49 8.11500E+01 5.00000E+01 0.00000E+00
 -1        50 8.41500E+01 5.00000E+01 0.00000E+00
 -1        51 8.71500E+01 5.00000E+01 0.00000E+00
 -1        52 9.01500E+01 5.00000E+01 0.00000E+00
 -1        53 9.31500E+01 5.00000E+01 0.00000E+00
 -1        54 9.61500E+01 5.00000E+01 0.00000E+00
 -1        55 9.91500E+01 5.00000E+01 0.00000E+00
 -1        56 1.02150E+02 5.00000E+01 0.00000E+00
 -1        57 1.05150E+02 5.00000E+01 0.00000E+00
 -1        58 1.08150E+02 5.00000E+01 0.00000E+00
 -1        59 1.11150E+02 5.00000E+01 0.00000E+00
 -1        60 1.14150E+02 5.00000E+01 0.00000E+00
 -1        61 1.17150E+02 5.00000E+01 0.00000E+00
 -1        62 1.20150E+02 5.00000E+01 0.00000E+00
 -1        63 1.23150E+02 5.00000E+01 0.00000E+00
 -1        64 1.26150E+02 5.00000E+01 0.00000E+00
 -1        65 1.29150E+02 5.00000E+01 0.00000E+00
 -1        66 1.32150E+02 5.00000E+01 0.00000E+00
 -1        67 1.35150E+02 5.00000E+01 0.00000E+00
 -1        68 1.38150E+02 5.00000E+01 0.00000E+00
 -1        69 1.41150E+02 5.00000E+01 0.00000E+00
 -1        70 1.44150E+02 5.00000E+01 0.00000E+00
 -1        71 1.47150E+02 5.00000E+01 0.00000E+00
 -1        72 3.15000E+00 0.00000E+00 0.00000E+00
 -1        73 6.15000E+00 0.00000E+00 0.00000E+00
 -1        74 9.15000E+00 0.00000E+00 0.00000E+00
 -1        75 1.21500E+01 0.00000E+00 0.00000E+00
 -1        76 1.51500E+01 0.00000E+00 0.00000E+00
 -1        77 1.81500E+01 0.00000E+00 0.00000E+00
 -1        78 2.11500E+01 0.00000E+00 0.00000E+00
 -1        79 2.41500E+01 0.00000E+00 0.00000E+00
 -1        80 2.71500E+01 0.00000E+00 0.00000E+00
 -1        81 3.01500E+01 0.00000E+00 0.00000E+00
 -1        82 3.31500E+01 0.00000E+00 0.00000E+00
 -1        83 3.61500E+01 0.00000E+00 0.00000E+00
 -1        84 3.91500E+01 0.00000E+00 0.00000E+00
 -1        85 4.21500E+01 0.00000E+00 0.00000E+00
 -1        86 4.51500E+01 0.00000E+00 0.00000E+00
 -1        87 4.81500E+01 0.00000E+00 0.00000E+00
 -1        88 5.11500E+01 0.00000E+00 0.00000E+00
 -1        89 5.41500E+01 0.00000E+00 0.00000E+00
 -1        90 5.71500E+01 0.00000E+00 0.00000E+00
 -1        91 6.01500E+01 0.00000E+00 0.00000E+00
 -1        92 6.31500E+01 0.00000E+00 0.00000E+00
 -1        93 6.61500E+01 0.00000E+00 0.00000E+00
 -1        94 6.91500E+01 0.00000E+00 0.00000E+00
 -1        95 7.21500E+01 0.00000E+00 0.00000E+00
 -1        96 7.51500E+01 0.00000E+00 0.00000E+00
 -1        97 7.81500E+01 0.00000E+00 0.00000E+00
 -1        98 8.11500E+01 0.00000E+00 0.00000E+00
 -1        99 8.41500E+01 0.00000E+00 0.00000E+00
 -1       100 8.71500E+01 0.00000E+00 0.00000E+00
 -1       101 9.01500E+01 0.00000E+00 0.00000E+00
 -1       102 9.31500E+01 0.00000E+00 0.00000E+00
 -1       103 9.61500E+01 0.00000E+00 0.00000E+00
 -1       104 9.91500E+01 0.00000E+00 0.00000E+00
 -1       105 1.02150E+02 0.00000E+00 0.00000E+00
 -1       106 1.05150E+02 0.00000E+00 0.00000E+00
 -1       107 1.08150E+02 0.00000E+00 0.00000E+00
 -1       108 1.11150E+02 0.00000E+00 0.00000E+00
 -1       109 1.14150E+02 0.00000E+00 0.00000E+00
 -1       110 1.17150E+02 0.00000E+00 0.00000E+00
 -1       111 1.20150E+02 0.00000E+00 0.00000E+00
 -1       112 1.23150E+02 0.00000E+00 0.00000E+00
 -1       113 1.26150E+02 0.00000E+00 0.00000E+00
 -1       114 1.29150E+02 0.00000E+00 0.00000E+00
 -1       115 1.32150E+02 0.00000E+00 0.00000E+00
 -1       116 1.35150E+02 0.00000E+00 0.00000E+00
 -1       117 1.38150E+02 0.00000E+00 0.00000E+00
 -1       118 1.41150E+02 0.00000E+00 0.00000E+00
 -1       119 1.44150E+02 0.00000E+00 0.00000E+00
 -1       120 1.47150E+02 0.00000E+00 0.00000E+00
 -1       121 1.50000E+02 2.95000E+00 0.00000E+00
 -1       122 1.50000E+02 5.90000E+00 0.00000E+00
 -1       123 1.50000E+02 8.85000E+00 0.00000E+00
 -1       124 1.50000E+02 1.18000E+01 0.00000E+00
 -1       125 1.50000E+02 1.47500E+01 0.00000E+00
 -1       126 1.50000E+02 1.76500E+01 0.00000E+00
 -1       127 1.50000E+02 2.06000E+01 0.00000E+00
 -1       128 1.50000E+02 2.35500E+01 0.00000E+00
 -1       129 1.50000E+02 2.65000E+01 0.00000E+00
 -1       130 1.50000E+02 2.94500E+01 0.00000E+00
 -1       131 1.50000E+02 3.24000E+01 0.00000E+00
 -1       132 1.50000E+02 3.53000E+01 0.00000E+00
 -1       133 1.50000E+02 3.82500E+01 0.00000E+00
 -1       134 1.50000E+02 4.12000E+01 0.00000E+00
 -1       135 1.50000E+02 4.41500E+01 0.00000E+00
 -1       136 1.50000E+02 4.71000E+01 0.00000E+00
 -1       137 1.26615E+02 2.59538E+01 0.00000E+00
 -1       138 1.26175E+02 2.46141E+01 0.00000E+00
 -1       139 1.25351E+02 2.32229E+01 0.00000E+00
 -1       140 1.24265E+02 2.20856E+01 0.00000E+00
 -1       141 1.22913E+02 2.12000E+01 0.00000E+00
 -1       142 1.21537E+02 2.06837E+01 0.00000E+00
 -1       143 1.20061E+02 2.04650E+01 0.00000E+00
 -1       144 1.18513E+02 2.05747E+01 0.00000E+00
 -1       145 1.16997E+02 2.10357E+01 0.00000E+00
 -1       146 1.15673E+02 2.17902E+01 0.00000E+00
 -1       147 1.14563E+02 2.27910E+01 0.00000E+00
 -1       148 1.13667E+02 2.40477E+01 0.00000E+00
 -1       149 1.13060E+02 2.54948E+01 0.00000E+00
 -1       150 1.12799E+02 2.69260E+01 0.00000E+00
 -1       151 1.12862E+02 2.85361E+01 0.00000E+00
 -1       152 1.13251E+02 2.99866E+01 0.00000E+00
 -1       153 1.13933E+02 3.13099E+01 0.00000E+00
 -1       154 1.14888E+02 3.24674E+01 0.00000E+00
 -1       155 1.16022E+02 3.33660E+01 0.00000E+00
 -1       156 1.17378E+02 3.40347E+01 0.00000E+00
 -1       157 1.18801E+02 3.43907E+01 0.00000E+00
 -1       158 1.20214E+02 3.44458E+01 0.00000E+00
 -1       159 1.21725E+02 3.41834E+01 0.00000E+00
 -1       160 1.23113E+02 3.36141E+01 0.00000E+00
 -1       161 1.24334E+02 3.27749E+01 0.00000E+00
 -1       162 1.26172E+02 3.03116E+01 0.00000E+00
 -1       163 1.26616E+02 2.89592E+01 0.00000E+00
 -1       164 2.59800E+00 4.55750E+01 0.00000E+00
 -1       165 2.59800E+00 4.26250E+01 0.00000E+00
 -1       166 2.59800E+00 3.96750E+01 0.00000E+00
 -1       167 2.59800E+00 3.67250E+01 0.00000E+00
 -1       168 2.59800E+00 3.38250E+01 0.00000E+00
 -1       169 2.59800E+00 3.08750E+01 0.00000E+00
 -1       170 2.59800E+00 2.79250E+01 0.00000E+00
 -1       171 2.59800E+00 2.49750E+01 0.00000E+00
 -1       172 2.59800E+00 2.20250E+01 0.00000E+00
 -1       173 2.59800E+00 1.90750E+01 0.00000E+00
 -1       174 2.59800E+00 1.61750E+01 0.00000E+00
 -1       175 2.59800E+00 1.32250E+01 0.00000E+00
 -1       176 2.59800E+00 1.02750E+01 0.00000E+00
 -1       177 2.59800E+00 7.32500E+00 0.00000E+00
 -1       178 2.59800E+00 4.37500E+00 0.00000E+00
 -1       179 2.87400E+00 2.18750E+00 0.00000E+00
 -1       180 4.65000E+00 4.74020E+01 0.00000E+00
 -1       181 7.65000E+00 4.74020E+01 0.00000E+00
 -1       182 1.06500E+01 4.74020E+01 0.00000E+00
 -1       183 1.36500E+01 4.74020E+01 0.00000E+00
 -1       184 1.66500E+01 4.74020E+01 0.00000E+00
 -1       185 1.96500E+01 4.74020E+01 0.00000E+00
 -1       186 2.26500E+01 4.74020E+01 0.00000E+00
 -1       187 2.56500E+01 4.74020E+01 0.00000E+00
 -1       188 2.86500E+01 4.74020E+01 0.00000E+00
 -1       189 3.16500E+01 4.74020E+01 0.00000E+00
 -1       190 3.46500E+01 4.74020E+01 0.00000E+00
 -1       191 3.76500E+01 4.74020E+01 0.00000E+00
 -1       192 4.06500E+01 4.74020E+01 0.00000E+00
 -1       193 4.36500E+01 4.74020E+01 0.00000E+00
 -1       194 4.66500E+01 4.74020E+01 0.00000E+00
 -1       195 4.96500E+01 4.74020E+01 0.00000E+00
 -1       196 5.26500E+01 4.74020E+01 0.00000E+00
 -1       197 5.56500E+01 4.74020E+01 0.00000E+00
 -1       198 5.86500E+01 4.74020E+01 0.00000E+00
 -1       199 6.16500E+01 4.74020E+01 0.00000E+00
 -1       200 6.46500E+01 4.74020E+01 0.00000E+00
 -1       201 6.76500E+01 4.74020E+01 0.00000E+00
 -1       202 7.06500E+01 4.74020E+01 0.00000E+00
 -1       203 7.36500E+01 4.74020E+01 0.00000E+00
 -1       204 7.66500E+01 4.74020E+01 0.00000E+00
 -1       205 7.96500E+01 4.74020E+01 0.00000E+00
 -1       206 8.26500E+01 4.74020E+01 0.00000E+00
 -1       207 8.56500E+01 4.74020E+01 0.00000E+00
 -1       208 8.86500E+01 4.74020E+01 0.00000E+00
 -1       209 9.16500E+01 4.74020E+01 0.00000E+00
 -1       210 9.46500E+01 4.74020E+01 0.00000E+00
 -1       211 9.76500E+01 4.74020E+01 0.00000E+00
 -1       212 1.00650E+02 4.74020E+01 0.00000E+00
 -1       213 1.03650E+02 4.74020E+01 0.00000E+00
 -1       214 1.06650E+02 4.74020E+01 0.00000E+00
 -1       215 1.09650E+02 4.74020E+01 0.00000E+00
 -1       216 1.12650E+02 4.74020E+01 0.00000E+00
 -1       217 1.15650E+02 4.74020E+01 0.00000E+00
 -1       218 1.18650E+02 4.74020E+01 0.00000E+00
 -1       219 1.21650E+02 4.74020E+01 0.00000E+00
 -1       220 1.24650E+02 4.74020E+01 0.00000E+00
 -1       221 1.27650E+02 4.74020E+01 0.00000E+00
 -1       222 1.30650E+02 4.74020E+01 0.00000E+00
 -1       223 1.33650E+02 4.74020E+01 0.00000E+00
 -1       224 1.36650E+02 4.74020E+01 0.00000E+00
 -1       225 1.39650E+02 4.74020E+01 0.00000E+00
 -1       226 1.42650E+02 4.74020E+01 0.00000E+00
 -1       227 1.45650E+02 4.74020E+01 0.00000E+00
 -1       228 5.87400E+00 2.18750E+00 0.00000E+00
 -1       229 8.87400E+00 2.18750E+00 0.00000E+00
 -1       230 1.18740E+01 2.18750E+00 0.00000E+00
 -1       231 1.48740E+01 2.18750E+00 0.00000E+00
 -1       232 1.78740E+01 2.18750E+00 0.00000E+00
 -1       233 2.08740E+01 2.18750E+00 0.00000E+00
 -1       234 2.38740E+01 2.18750E+00 0.00000E+00
 -1       235 2.68740E+01 2.18750E+00 0.00000E+00
 -1       236 2.98740E+01 2.18750E+00 0.00000E+00
 -1       237 3.28740E+01 2.18750E+00 0.00000E+00
 -1       238 3.58740E+01 2.18750E+00 0.00000E+00
 -1       239 3.88740E+01 2.18750E+00 0.00000E+00
 -1       240 4.18740E+01 2.18750E+00 0.00000E+00
 -1       241 4.48740E+01 2.18750E+00 0.00000E+00
 -1       242 4.78740E+01 2.18750E+00 0.00000E+00
 -1       243 5.08740E+01 2.18750E+00 0.00000E+00
 -1       244 5.38740E+01 2.18750E+00 0.00000E+00
 -1       245 5.68740E+01 2.18750E+00 0.00000E+00
 -1       246 5.98740E+01 2.18750E+00 0.00000E+00
 -1       247 6.28740E+01 2.18750E+00 0.00000E+00
 -1       248 6.58740E+01 2.18750E+00 0.00000E+00
 -1       249 6.88740E+01 2.18750E+00 0.00000E+00
 -1       250 7.18740E+01 2.18750E+00 0.00000E+00
 -1       251 7.48740E+01 2.18750E+00 0.00000E+00
 -1       252 7.78740E+01 2.18750E+00 0.00000E+00
 -1       253 8.08740E+01 2.18750E+00 0.00000E+00
 -1       254 8.38740E+01 2.18750E+00 0.00000E+00
 -1       255 8.68740E+01 2.18750E+00 0.00000E+00
 -1       256 8.98740E+01 2.18750E+00 0.00000E+00
 -1       257 9.28740E+01 2.18750E+00 0.00000E+00
 -1       258 9.58740E+01 2.18750E+00 0.00000E+00
 -1       259 9.88740E+01 2.18750E+00 0.00000E+00
 -1       260 1.01874E+02 2.18750E+00 0.00000E+00
 -1       261 1.04874E+02 2.18750E+00 0.00000E+00
 -1       262 1.07874E+02 2.18750E+00 0.00000E+00
 -1       263 1.10874E+02 2.18750E+00 0.00000E+00
 -1       264 1.13874E+02 2.18750E+00 0.00000E+00
 -1       265 1.16874E+02 2.18750E+00 0.00000E+00
 -1       266 1.19874E+02 2.18750E+00 0.00000E+00
 -1       267 1.22874E+02 2.18750E+00 0.00000E+00
 -1       268 1.25874E+02 2.18750E+00 0.00000E+00
 -1       269 1.28874E+02 2.18750E+00 0.00000E+00
 -1       270 1.31874E+02 2.18750E+00 0.00000E+00
 -1       271 1.34874E+02 2.18750E+00 0.00000E+00
 -1       272 1.37874E+02 2.18750E+00 0.00000E+00
 -1       273 1.40874E+02 2.18750E+00 0.00000E+00
 -1       274 1.43874E+02 2.18750E+00 0.00000E+00
 -1       275 1.46874E+02 2.18750E+00 0.00000E+00
 -1       276 1.47402E+02 4.42500E+00 0.00000E+00
 -1       277 1.47402E+02 7.37500E+00 0.00000E+00
 -1       278 1.47402E+02 1.03250E+01 0.00000E+00
 -1       279 1.47402E+02 1.32750E+01 0.00000E+00
 -1       280 1.47402E+02 1.61750E+01 0.00000E+00
 -1       281 1.47402E+02 1.91250E+01 0.00000E+00
 -1       282 1.47402E+02 2.20750E+01 0.00000E+00
 -1       283 1.47402E+02 2.50250E+01 0.00000E+00
 -1       284 1.47402E+02 2.79750E+01 0.00000E+00
 -1       285 1.47402E+02 3.09250E+01 0.00000E+00
 -1       286 1.47402E+02 3.38250E+01 0.00000E+00
 -1       287 1.47402E+02 3.67750E+01 0.00000E+00
 -1       288 1.47402E+02 3.97250E+01 0.00000E+00
 -1       289 1.47402E+02 4.26750E+01 0.00000E+00
 -1       290 1.46526E+02 4.50385E+01 0.00000E+00
 -1       291 1.27986E+02 2.65663E+01 0.00000E+00
 -1       292 1.27547E+02 2.49052E+01 0.00000E+00
 -1       293 1.27023E+02 2.31730E+01 0.00000E+00
 -1       294 1.25685E+02 2.18167E+01 0.00000E+00
 -1       295 1.24345E+02 2.04884E+01 0.00000E+00
 -1       296 1.22681E+02 1.97283E+01 0.00000E+00
 -1       297 1.20989E+02 1.92922E+01 0.00000E+00
 -1       298 1.19190E+02 1.91433E+01 0.00000E+00
 -1       299 1.17305E+02 1.93246E+01 0.00000E+00
 -1       300 1.15694E+02 2.02866E+01 0.00000E+00
 -1       301 1.14306E+02 2.13902E+01 0.00000E+00
 -1       302 1.12991E+02 2.26181E+01 0.00000E+00
 -1       303 1.12091E+02 2.42380E+01 0.00000E+00
 -1       304 1.11655E+02 2.59779E+01 0.00000E+00
 -1       305 1.11284E+02 2.77915E+01 0.00000E+00
 -1       306 1.11805E+02 2.95970E+01 0.00000E+00
 -1       307 1.12515E+02 3.12037E+01 0.00000E+00
 -1       308 1.13476E+02 3.26603E+01 0.00000E+00
 -1       309 1.14702E+02 3.38670E+01 0.00000E+00
 -1       310 1.16127E+02 3.48628E+01 0.00000E+00
 -1       311 1.17795E+02 3.53889E+01 0.00000E+00
 -1       312 1.19460E+02 3.56297E+01 0.00000E+00
 -1       313 1.21191E+02 3.55917E+01 0.00000E+00
 -1       314 1.22879E+02 3.50205E+01 0.00000E+00
 -1       315 1.24458E+02 3.42624E+01 0.00000E+00
 -1       316 1.25939E+02 3.31700E+01 0.00000E+00
 -1       317 1.26903E+02 3.15974E+01 0.00000E+00
 -1       318 1.27546E+02 3.00143E+01 0.00000E+00
 -1       319 1.27969E+02 2.83471E+01 0.00000E+00
 -1       320 5.19600E+00 4.11500E+01 0.00000E+00
 -1       321 5.19600E+00 4.41000E+01 0.00000E+00
 -1       322 5.19600E+00 3.52750E+01 0.00000E+00
 -1       323 5.19600E+00 3.23250E+01 0.00000E+00
 -1       324 5.19600E+00 2.93750E+01 0.00000E+00
 -1       325 5.19600E+00 2.64250E+01 0.00000E+00
 -1       326 5.19600E+00 2.34750E+01 0.00000E+00
 -1       327 5.19600E+00 2.05250E+01 0.00000E+00
 -1       328 5.19600E+00 1.76250E+01 0.00000E+00
 -1       329 5.19600E+00 1.46750E+01 0.00000E+00
 -1       330 5.19600E+00 1.17250E+01 0.00000E+00
 -1       331 5.19600E+00 8.77500E+00 0.00000E+00
 -1       332 5.19600E+00 5.82500E+00 0.00000E+00
 -1       333 5.53500E+00 4.00625E+00 0.00000E+00
 -1       334 8.53500E+00 4.00625E+00 0.00000E+00
 -1       335 9.15000E+00 4.48040E+01 0.00000E+00
 -1       336 1.21500E+01 4.48040E+01 0.00000E+00
 -1       337 1.51500E+01 4.48040E+01 0.00000E+00
 -1       338 1.81500E+01 4.48040E+01 0.00000E+00
 -1       339 2.11500E+01 4.48040E+01 0.00000E+00
 -1       340 2.41500E+01 4.48040E+01 0.00000E+00
 -1       341 2.71500E+01 4.48040E+01 0.00000E+00
 -1       342 3.01500E+01 4.48040E+01 0.00000E+00
 -1       343 3.31500E+01 4.48040E+01 0.00000E+00
 -1       344 3.61500E+01 4.48040E+01 0.00000E+00
 -1       345 3.91500E+01 4.48040E+01 0.00000E+00
 -1       346 4.21500E+01 4.48040E+01 0.00000E+00
 -1       347 4.51500E+01 4.48040E+01 0.00000E+00
 -1       348 4.81500E+01 4.48040E+01 0.00000E+00
 -1       349 5.11500E+01 4.48040E+01 0.00000E+00
 -1       350 5.41500E+01 4.48040E+01 0.00000E+00
 -1       351 5.71500E+01 4.48040E+01 0.00000E+00
 -1       352 6.01500E+01 4.48040E+01 0.00000E+00
 -1       353 6.31500E+01 4.48040E+01 0.00000E+00
 -1       354 6.61500E+01 4.48040E+01 0.00000E+00
 -1       355 6.91500E+01 4.48040E+01 0.00000E+00
 -1       356 7.21500E+01 4.48040E+01 0.00000E+00
 -1       357 7.51500E+01 4.48040E+01 0.00000E+00
 -1       358 7.81500E+01 4.48040E+01 0.00000E+00
 -1       359 8.11500E+01 4.48040E+01 0.00000E+00
 -1       360 8.41500E+01 4.48040E+01 0.00000E+00
 -1       361 8.71500E+01 4.48040E+01 0.00000E+00
 -1       362 9.01500E+01 4.48040E+01 0.00000E+00
 -1       363 9.31500E+01 4.48040E+01 0.00000E+00
 -1       364 9.61500E+01 4.48040E+01 0.00000E+00
 -1       365 9.91500E+01 4.48040E+01 0.00000E+00
 -1       366 1.02150E+02 4.48040E+01 0.00000E+00
 -1       367 1.05150E+02 4.48040E+01 0.00000E+00
 -1       368 1.08150E+02 4.48040E+01 0.00000E+00
 -1       369 1.11150E+02 4.48040E+01 0.00000E+00
 -1       370 1.14150E+02 4.48040E+01 0.00000E+00
 -1       371 1.17150E+02 4.48040E+01 0.00000E+00
 -1       372 1.20150E+02 4.48040E+01 0.00000E+00
 -1       373 1.23150E+02 4.48040E+01 0.00000E+00
 -1       374 1.26150E+02 4.48040E+01 0.00000E+00
 -1       375 1.29150E+02 4.48040E+01 0.00000E+00
 -1       376 1.32150E+02 4.48040E+01 0.00000E+00
 -1       377 1.35150E+02 4.48040E+01 0.00000E+00
 -1       378 1.38150E+02 4.48040E+01 0.00000E+00
 -1       379 1.41150E+02 4.48040E+01 0.00000E+00
 -1       380 1.43838E+02 4.49212E+01 0.00000E+00
 -1       381 1.15350E+01 4.00625E+00 0.00000E+00
 -1       382 1.45350E+01 4.00625E+00 0.00000E+00
 -1       383 1.75350E+01 4.00625E+00 0.00000E+00
 -1       384 2.05350E+01 4.00625E+00 0.00000E+00
 -1       385 2.35350E+01 4.00625E+00 0.00000E+00
 -1       386 2.65350E+01 4.00625E+00 0.00000E+00
 -1       387 2.95350E+01 4.00625E+00 0.00000E+00
 -1       388 3.25350E+01 4.00625E+00 0.00000E+00
 -1       389 3.55350E+01 4.00625E+00 0.00000E+00
 -1       390 3.85350E+01 4.00625E+00 0.00000E+00
 -1       391 4.15350E+01 4.00625E+00 0.00000E+00
 -1       392 4.45350E+01 4.00625E+00 0.00000E+00
 -1       393 4.75350E+01 4.00625E+00 0.00000E+00
 -1       394 5.05350E+01 4.00625E+00 0.00000E+00
 -1       395 5.35350E+01 4.00625E+00 0.00000E+00
 -1       396 5.65350E+01 4.00625E+00 0.00000E+00
 -1       397 5.95350E+01 4.00625E+00 0.00000E+00
 -1       398 6.25350E+01 4.00625E+00 0.00000E+00
 -1       399 6.55350E+01 4.00625E+00 0.00000E+00
 -1       400 6.85350E+01 4.00625E+00 0.00000E+00
 -1       401 7.15350E+01 4.00625E+00 0.00000E+00
 -1       402 7.45350E+01 4.00625E+00 0.00000E+00
 -1       403 7.75350E+01 4.00625E+00 0.00000E+00
 -1       404 8.05350E+01 4.00625E+00 0.00000E+00
 -1       405 8.35350E+01 4.00625E+00 0.00000E+00
 -1       406 8.65350E+01 4.00625E+00 0.00000E+00
 -1       407 8.95350E+01 4.00625E+00 0.00000E+00
 -1       408 9.25350E+01 4.00625E+00 0.00000E+00
 -1       409 9.55350E+01 4.00625E+00 0.00000E+00
 -1       410 9.85350E+01 4.00625E+00 0.00000E+00
 -1       411 1.01535E+02 4.00625E+00 0.00000E+00
 -1       412 1.04535E+02 4.00625E+00 0.00000E+00
 -1       413 1.07535E+02 4.00625E+00 0.00000E+00
 -1       414 1.10535E+02 4.00625E+00 0.00000E+00
 -1       415 1.13535E+02 4.00625E+00 0.00000E+00
 -1       416 1.16535E+02 4.00625E+00 0.00000E+00
 -1       417 1.19535E+02 4.00625E+00 0.00000E+00
 -1       418 1.22535E+02 4.00625E+00 0.00000E+00
 -1       419 1.25535E+02 4.00625E+00 0.00000E+00
 -1       420 1.28535E+02 4.00625E+00 0.00000E+00
 -1       421 1.31535E+02 4.00625E+00 0.00000E+00
 -1       422 1.34535E+02 4.00625E+00 0.00000E+00
 -1       423 1.37535E+02 4.00625E+00 0.00000E+00
 -1       424 1.40535E+02 4.00625E+00 0.00000E+00
 -1       425 1.43535E+02 4.00625E+00 0.00000E+00
 -1       426 1.45469E+02 4.21562E+00 0.00000E+00
 -1       427 1.44804E+02 1.18000E+01 0.00000E+00
 -1       428 1.44804E+02 8.85000E+00 0.00000E+00
 -1       429 1.45136E+02 6.53281E+00 0.00000E+00
 -1       430 1.44804E+02 1.47000E+01 0.00000E+00
 -1       431 1.44804E+02 1.76500E+01 0.00000E+00
 -1       432 1.44804E+02 2.06000E+01 0.00000E+00
 -1       433 1.44804E+02 2.35500E+01 0.00000E+00
 -1       434 1.44804E+02 2.65000E+01 0.00000E+00
 -1       435 1.44804E+02 2.94500E+01 0.00000E+00
 -1       436 1.44804E+02 3.23500E+01 0.00000E+00
 -1       437 1.44804E+02 3.53000E+01 0.00000E+00
 -1       438 1.44804E+02 3.82500E+01 0.00000E+00
 -1       439 1.44804E+02 4.12000E+01 0.00000E+00
 -1       440 1.28846E+02 2.35669E+01 0.00000E+00
 -1       441 1.29507E+02 2.74712E+01 0.00000E+00
 -1       442 1.29285E+02 2.52280E+01 0.00000E+00
 -1       443 1.27455E+02 2.14081E+01 0.00000E+00
 -1       444 1.26116E+02 2.00798E+01 0.00000E+00
 -1       445 5.19600E+00 3.82125E+01 0.00000E+00
 -1       446 1.22200E+02 1.80929E+01 0.00000E+00
 -1       447 1.20210E+02 1.77590E+01 0.00000E+00
 -1       448 1.18115E+02 1.78603E+01 0.00000E+00
 -1       449 1.15835E+02 1.86927E+01 0.00000E+00
 -1       450 1.14141E+02 1.97584E+01 0.00000E+00
 -1       451 1.12707E+02 2.09956E+01 0.00000E+00
 -1       452 1.11042E+02 2.25946E+01 0.00000E+00
 -1       453 1.10372E+02 2.47317E+01 0.00000E+00
 -1       454 1.10001E+02 2.65454E+01 0.00000E+00
 -1       455 1.10299E+02 2.90532E+01 0.00000E+00
 -1       456 1.10821E+02 3.09918E+01 0.00000E+00
 -1       457 1.11773E+02 3.27382E+01 0.00000E+00
 -1       458 1.12886E+02 3.44864E+01 0.00000E+00
 -1       459 1.14311E+02 3.54822E+01 0.00000E+00
 -1       460 1.16521E+02 3.65218E+01 0.00000E+00
 -1       461 1.18430E+02 3.68750E+01 0.00000E+00
 -1       462 1.20360E+02 3.71579E+01 0.00000E+00
 -1       463 1.22558E+02 3.68514E+01 0.00000E+00
 -1       464 1.24230E+02 3.58100E+01 0.00000E+00
 -1       465 1.25968E+02 3.47593E+01 0.00000E+00
 -1       466 1.27797E+02 3.32270E+01 0.00000E+00
 -1       467 1.28487E+02 3.13181E+01 0.00000E+00
 -1       468 1.29014E+02 2.94995E+01 0.00000E+00
 -1       469 1.24225E+02 1.85483E+01 0.00000E+00
 -1       470 1.16645E+02 1.72284E+01 0.00000E+00
 -1       471 1.09016E+02 2.78070E+01 0.00000E+00
 -1       472 1.00350E+01 6.60425E+00 0.00000E+00
 -1       473 7.79400E+00 3.08500E+01 0.00000E+00
 -1       474 7.79400E+00 3.38000E+01 0.00000E+00
 -1       475 7.79400E+00 2.49500E+01 0.00000E+00
 -1       476 7.79400E+00 2.20000E+01 0.00000E+00
 -1       477 7.79400E+00 1.91000E+01 0.00000E+00
 -1       478 7.79400E+00 1.61500E+01 0.00000E+00
 -1       479 7.79400E+00 1.32000E+01 0.00000E+00
 -1       480 7.79400E+00 1.02500E+01 0.00000E+00
 -1       481 1.30350E+01 6.60425E+00 0.00000E+00
 -1       482 1.06500E+01 4.22060E+01 0.00000E+00
 -1       483 1.36500E+01 4.22060E+01 0.00000E+00
 -1       484 1.66500E+01 4.22060E+01 0.00000E+00
 -1       485 1.96500E+01 4.22060E+01 0.00000E+00
 -1       486 2.26500E+01 4.22060E+01 0.00000E+00
 -1       487 2.56500E+01 4.22060E+01 0.00000E+00
 -1       488 2.86500E+01 4.22060E+01 0.00000E+00
 -1       489 3.16500E+01 4.22060E+01 0.00000E+00
 -1       490 3.46500E+01 4.22060E+01 0.00000E+00
 -1       491 3.76500E+01 4.22060E+01 0.00000E+00
 -1       492 4.06500E+01 4.22060E+01 0.00000E+00
 -1       493 4.36500E+01 4.22060E+01 0.00000E+00
 -1       494 4.66500E+01 4.22060E+01 0.00000E+00
 -1       495 4.96500E+01 4.22060E+01 0.00000E+00
 -1       496 5.26500E+01 4.22060E+01 0.00000E+00
 -1       497 5.56500E+01 4.22060E+01 0.00000E+00
 -1       498 5.86500E+01 4.22060E+01 0.00000E+00
 -1       499 6.16500E+01 4.22060E+01 0.00000E+00
 -1       500 6.46500E+01 4.22060E+01 0.00000E+00
 -1       501 6.76500E+01 4.22060E+01 0.00000E+00
 -1       502 7.06500E+01 4.22060E+01 0.00000E+00
 -1       503 7.36500E+01 4.22060E+01 0.00000E+00
 -1       504 7.66500E+01 4.22060E+01 0.00000E+00
 -1       505 7.96500E+01 4.22060E+01 0.00000E+00
 -1       506 8.26500E+01 4.22060E+01 0.00000E+00
 -1       507 8.56500E+01 4.22060E+01 0.00000E+00
 -1       508 8.86500E+01 4.22060E+01 0.00000E+00
 -1       509 9.16500E+01 4.22060E+01 0.00000E+00
 -1       510 9.46500E+01 4.22060E+01 0.00000E+00
 -1       511 9.76500E+01 4.22060E+01 0.00000E+00
 -1       512 1.00650E+02 4.22060E+01 0.00000E+00
 -1       513 1.03650E+02 4.22060E+01 0.00000E+00
 -1       514 1.06650E+02 4.22060E+01 0.00000E+00
 -1       515 1.09650E+02 4.22060E+01 0.00000E+00
 -1       516 1.12650E+02 4.22060E+01 0.00000E+00
 -1       517 1.15650E+02 4.22060E+01 0.00000E+00
 -1       518 1.18650E+02 4.22060E+01 0.00000E+00
 -1       519 1.21650E+02 4.22060E+01 0.00000E+00
 -1       520 1.24650E+02 4.22060E+01 0.00000E+00
 -1       521 1.27650E+02 4.22060E+01 0.00000E+00
 -1       522 1.30650E+02 4.22060E+01 0.00000E+00
 -1       523 1.33650E+02 4.22060E+01 0.00000E+00
 -1       524 1.36650E+02 4.22060E+01 0.00000E+00
 -1       525 1.39650E+02 4.22060E+01 0.00000E+00
 -1       526 1.30724E+02 2.39592E+01 0.00000E+00
 -1       527 1.90350E+01 6.60425E+00 0.00000E+00
 -1       528 2.20350E+01 6.60425E+00 0.00000E+00
 -1       529 2.50350E+01 6.60425E+00 0.00000E+00
 -1       530 2.80350E+01 6.60425E+00 0.00000E+00
 -1       531 3.10350E+01 6.60425E+00 0.00000E+00
 -1       532 3.40350E+01 6.60425E+00 0.00000E+00
 -1       533 3.70350E+01 6.60425E+00 0.00000E+00
 -1       534 4.00350E+01 6.60425E+00 0.00000E+00
 -1       535 4.30350E+01 6.60425E+00 0.00000E+00
 -1       536 4.60350E+01 6.60425E+00 0.00000E+00
 -1       537 4.90350E+01 6.60425E+00 0.00000E+00
 -1       538 5.20350E+01 6.60425E+00 0.00000E+00
 -1       539 5.50350E+01 6.60425E+00 0.00000E+00
 -1       540 5.80350E+01 6.60425E+00 0.00000E+00
 -1       541 6.10350E+01 6.60425E+00 0.00000E+00
 -1       542 6.40350E+01 6.60425E+00 0.00000E+00
 -1       543 6.70350E+01 6.60425E+00 0.00000E+00
 -1       544 7.00350E+01 6.60425E+00 0.00000E+00
 -1       545 7.30350E+01 6.60425E+00 0.00000E+00
 -1       546 7.60350E+01 6.60425E+00 0.00000E+00
 -1       547 7.90350E+01 6.60425E+00 0.00000E+00
 -1       548 8.20350E+01 6.60425E+00 0.00000E+00
 -1       549 8.50350E+01 6.60425E+00 0.00000E+00
 -1       550 8.80350E+01 6.60425E+00 0.00000E+00
 -1       551 9.10350E+01 6.60425E+00 0.00000E+00
 -1       552 9.40350E+01 6.60425E+00 0.00000E+00
 -1       553 9.70350E+01 6.60425E+00 0.00000E+00
 -1       554 1.00035E+02 6.60425E+00 0.00000E+00
 -1       555 1.03035E+02 6.60425E+00 0.00000E+00
 -1       556 1.06035E+02 6.60425E+00 0.00000E+00
 -1       557 1.09035E+02 6.60425E+00 0.00000E+00
 -1       558 1.12035E+02 6.60425E+00 0.00000E+00
 -1       559 1.15035E+02 6.60425E+00 0.00000E+00
 -1       560 1.18035E+02 6.60425E+00 0.00000E+00
 -1       561 1.21035E+02 6.60425E+00 0.00000E+00
 -1       562 1.24035E+02 6.60425E+00 0.00000E+00
 -1       563 1.27035E+02 6.60425E+00 0.00000E+00
 -1       564 1.30035E+02 6.60425E+00 0.00000E+00
 -1       565 1.33035E+02 6.60425E+00 0.00000E+00
 -1       566 1.36035E+02 6.60425E+00 0.00000E+00
 -1       567 1.39035E+02 6.60425E+00 0.00000E+00
 -1       568 1.42035E+02 6.60425E+00 0.00000E+00
 -1       569 1.42206E+02 1.61750E+01 0.00000E+00
 -1       570 1.42206E+02 1.91250E+01 0.00000E+00
 -1       571 1.42206E+02 1.03250E+01 0.00000E+00
 -1       572 1.42206E+02 1.32500E+01 0.00000E+00
 -1       573 1.42206E+02 2.20750E+01 0.00000E+00
 -1       574 1.42206E+02 2.50250E+01 0.00000E+00
 -1       575 1.42206E+02 2.79750E+01 0.00000E+00
 -1       576 1.42206E+02 3.08750E+01 0.00000E+00
 -1       577 1.42206E+02 3.38250E+01 0.00000E+00
 -1       578 1.42206E+02 3.67750E+01 0.00000E+00
 -1       579 1.42206E+02 3.97250E+01 0.00000E+00
 -1       580 1.30764E+02 2.88512E+01 0.00000E+00
 -1       581 1.60350E+01 6.60425E+00 0.00000E+00
 -1       582 1.29593E+02 2.15587E+01 0.00000E+00
 -1       583 1.28229E+02 1.92879E+01 0.00000E+00
 -1       584 7.92300E+00 4.16780E+01 0.00000E+00
 -1       585 1.30360E+02 3.08750E+01 0.00000E+00
 -1       586 1.10742E+02 3.46234E+01 0.00000E+00
 -1       587 1.08910E+02 2.30997E+01 0.00000E+00
 -1       588 7.79400E+00 2.79000E+01 0.00000E+00
 -1       589 1.19080E+02 1.60965E+01 0.00000E+00
 -1       590 1.09065E+02 3.04245E+01 0.00000E+00
 -1       591 1.23626E+02 1.64838E+01 0.00000E+00
 -1       592 1.21636E+02 1.61499E+01 0.00000E+00
 -1       593 1.14164E+02 1.79156E+01 0.00000E+00
 -1       594 1.12303E+02 1.90784E+01 0.00000E+00
 -1       595 1.10639E+02 2.06774E+01 0.00000E+00
 -1       596 1.08752E+02 2.53458E+01 0.00000E+00
 -1       597 1.17194E+02 3.82202E+01 0.00000E+00
 -1       598 1.09789E+02 3.28770E+01 0.00000E+00
 -1       599 1.12520E+02 3.65273E+01 0.00000E+00
 -1       600 1.14686E+02 3.75540E+01 0.00000E+00
 -1       601 1.19124E+02 3.85030E+01 0.00000E+00
 -1       602 1.21673E+02 3.85373E+01 0.00000E+00
 -1       603 1.24301E+02 3.77864E+01 0.00000E+00
 -1       604 1.26039E+02 3.67358E+01 0.00000E+00
 -1       605 1.27868E+02 3.52034E+01 0.00000E+00
 -1       606 1.29670E+02 3.27840E+01 0.00000E+00
 -1       607 1.30946E+02 2.62024E+01 0.00000E+00
 -1       608 7.61550E+00 6.21462E+00 0.00000E+00
 -1       609 1.26339E+02 1.77564E+01 0.00000E+00
 -1       610 7.79400E+00 3.67375E+01 0.00000E+00
 -1       611 1.14974E+02 1.64513E+01 0.00000E+00
 -1       612 1.17610E+02 1.54646E+01 0.00000E+00
 -1       613 1.41678E+02 4.22645E+01 0.00000E+00
 -1       614 1.29741E+02 3.47604E+01 0.00000E+00
 -1       615 7.85850E+00 3.92077E+01 0.00000E+00
 -1       616 1.08507E+02 2.11824E+01 0.00000E+00
 -1       617 1.07782E+02 2.91784E+01 0.00000E+00
 -1       618 1.07767E+02 2.66074E+01 0.00000E+00
 -1       619 1.03920E+01 2.05500E+01 0.00000E+00
 -1       620 1.03920E+01 2.35000E+01 0.00000E+00
 -1       621 1.03920E+01 1.46750E+01 0.00000E+00
 -1       622 1.03920E+01 1.17250E+01 0.00000E+00
 -1       623 1.15350E+01 9.20225E+00 0.00000E+00
 -1       624 1.30669E+02 1.93678E+01 0.00000E+00
 -1       625 1.51500E+01 3.96080E+01 0.00000E+00
 -1       626 1.81500E+01 3.96080E+01 0.00000E+00
 -1       627 2.11500E+01 3.96080E+01 0.00000E+00
 -1       628 2.41500E+01 3.96080E+01 0.00000E+00
 -1       629 2.71500E+01 3.96080E+01 0.00000E+00
 -1       630 3.01500E+01 3.96080E+01 0.00000E+00
 -1       631 3.31500E+01 3.96080E+01 0.00000E+00
 -1       632 3.61500E+01 3.96080E+01 0.00000E+00
 -1       633 3.91500E+01 3.96080E+01 0.00000E+00
 -1       634 4.21500E+01 3.96080E+01 0.00000E+00
 -1       635 4.51500E+01 3.96080E+01 0.00000E+00
 -1       636 4.81500E+01 3.96080E+01 0.00000E+00
 -1       637 5.11500E+01 3.96080E+01 0.00000E+00
 -1       638 5.41500E+01 3.96080E+01 0.00000E+00
 -1       639 5.71500E+01 3.96080E+01 0.00000E+00
 -1       640 6.01500E+01 3.96080E+01 0.00000E+00
 -1       641 6.31500E+01 3.96080E+01 0.00000E+00
 -1       642 6.61500E+01 3.96080E+01 0.00000E+00
 -1       643 6.91500E+01 3.96080E+01 0.00000E+00
 -1       644 7.21500E+01 3.96080E+01 0.00000E+00
 -1       645 7.51500E+01 3.96080E+01 0.00000E+00
 -1       646 7.81500E+01 3.96080E+01 0.00000E+00
 -1       647 8.11500E+01 3.96080E+01 0.00000E+00
 -1       648 8.41500E+01 3.96080E+01 0.00000E+00
 -1       649 8.71500E+01 3.96080E+01 0.00000E+00
 -1       650 9.01500E+01 3.96080E+01 0.00000E+00
 -1       651 9.31500E+01 3.96080E+01 0.00000E+00
 -1       652 9.61500E+01 3.96080E+01 0.00000E+00
 -1       653 9.91500E+01 3.96080E+01 0.00000E+00
 -1       654 1.02150E+02 3.96080E+01 0.00000E+00
 -1       655 1.05150E+02 3.96080E+01 0.00000E+00
 -1       656 1.08150E+02 3.96080E+01 0.00000E+00
 -1       657 1.11150E+02 3.96080E+01 0.00000E+00
 -1       658 1.20150E+02 4.01557E+01 0.00000E+00
 -1       659 1.23150E+02 4.01557E+01 0.00000E+00
 -1       660 1.26150E+02 3.99882E+01 0.00000E+00
 -1       661 1.29150E+02 3.99882E+01 0.00000E+00
 -1       662 1.32150E+02 3.99882E+01 0.00000E+00
 -1       663 1.35150E+02 3.99882E+01 0.00000E+00
 -1       664 1.38150E+02 3.99882E+01 0.00000E+00
 -1       665 1.40178E+02 3.96665E+01 0.00000E+00
 -1       666 2.05350E+01 9.20225E+00 0.00000E+00
 -1       667 2.95350E+01 9.20225E+00 0.00000E+00
 -1       668 3.25350E+01 9.20225E+00 0.00000E+00
 -1       669 3.55350E+01 9.20225E+00 0.00000E+00
 -1       670 3.85350E+01 9.20225E+00 0.00000E+00
 -1       671 4.15350E+01 9.20225E+00 0.00000E+00
 -1       672 4.45350E+01 9.20225E+00 0.00000E+00
 -1       673 4.75350E+01 9.20225E+00 0.00000E+00
 -1       674 5.05350E+01 9.20225E+00 0.00000E+00
 -1       675 5.35350E+01 9.20225E+00 0.00000E+00
 -1       676 5.65350E+01 9.20225E+00 0.00000E+00
 -1       677 5.95350E+01 9.20225E+00 0.00000E+00
 -1       678 6.25350E+01 9.20225E+00 0.00000E+00
 -1       679 6.55350E+01 9.20225E+00 0.00000E+00
 -1       680 6.85350E+01 9.20225E+00 0.00000E+00
 -1       681 7.15350E+01 9.20225E+00 0.00000E+00
 -1       682 7.45350E+01 9.20225E+00 0.00000E+00
 -1       683 7.75350E+01 9.20225E+00 0.00000E+00
 -1       684 8.05350E+01 9.20225E+00 0.00000E+00
 -1       685 8.35350E+01 9.20225E+00 0.00000E+00
 -1       686 8.65350E+01 9.20225E+00 0.00000E+00
 -1       687 8.95350E+01 9.20225E+00 0.00000E+00
 -1       688 9.25350E+01 9.20225E+00 0.00000E+00
 -1       689 9.55350E+01 9.20225E+00 0.00000E+00
 -1       690 9.85350E+01 9.20225E+00 0.00000E+00
 -1       691 1.01535E+02 9.20225E+00 0.00000E+00
 -1       692 1.04535E+02 9.20225E+00 0.00000E+00
 -1       693 1.07535E+02 9.20225E+00 0.00000E+00
 -1       694 1.10535E+02 9.20225E+00 0.00000E+00
 -1       695 1.13535E+02 9.20225E+00 0.00000E+00
 -1       696 1.16535E+02 9.20225E+00 0.00000E+00
 -1       697 1.19535E+02 9.20225E+00 0.00000E+00
 -1       698 1.22535E+02 9.20225E+00 0.00000E+00
 -1       699 1.25535E+02 9.20225E+00 0.00000E+00
 -1       700 1.28535E+02 9.20225E+00 0.00000E+00
 -1       701 1.31535E+02 9.20225E+00 0.00000E+00
 -1       702 1.34535E+02 9.20225E+00 0.00000E+00
 -1       703 1.37535E+02 9.20225E+00 0.00000E+00
 -1       704 1.39870E+02 9.76363E+00 0.00000E+00
 -1       705 1.39608E+02 2.35500E+01 0.00000E+00
 -1       706 1.39608E+02 1.76500E+01 0.00000E+00
 -1       707 1.39608E+02 2.65000E+01 0.00000E+00
 -1       708 1.39608E+02 2.06000E+01 0.00000E+00
 -1       709 1.20397E+02 1.42409E+01 0.00000E+00
 -1       710 1.39608E+02 2.94000E+01 0.00000E+00
 -1       711 1.39608E+02 3.23500E+01 0.00000E+00
 -1       712 1.39608E+02 3.53000E+01 0.00000E+00
 -1       713 1.75350E+01 9.20225E+00 0.00000E+00
 -1       714 1.28163E+02 3.74128E+01 0.00000E+00
 -1       715 1.05855E+01 3.97357E+01 0.00000E+00
 -1       716 1.08760E+02 3.45715E+01 0.00000E+00
 -1       717 1.10132E+02 3.69748E+01 0.00000E+00
 -1       718 1.32079E+02 3.01662E+01 0.00000E+00
 -1       719 1.07120E+02 2.41023E+01 0.00000E+00
 -1       720 2.65350E+01 9.20225E+00 0.00000E+00
 -1       721 2.35350E+01 9.20225E+00 0.00000E+00
 -1       722 1.28678E+01 3.96719E+01 0.00000E+00
 -1       723 1.45350E+01 9.20225E+00 0.00000E+00
 -1       724 1.03920E+01 1.76125E+01 0.00000E+00
 -1       725 1.03920E+01 3.23250E+01 0.00000E+00
 -1       726 1.07782E+02 3.21362E+01 0.00000E+00
 -1       727 1.22970E+02 1.42948E+01 0.00000E+00
 -1       728 1.10051E+02 1.83993E+01 0.00000E+00
 -1       729 1.31861E+02 2.19564E+01 0.00000E+00
 -1       730 1.12147E+02 1.67584E+01 0.00000E+00
 -1       731 1.25782E+02 1.54156E+01 0.00000E+00
 -1       732 1.28469E+02 1.70593E+01 0.00000E+00
 -1       733 1.32566E+02 2.76442E+01 0.00000E+00
 -1       734 1.31769E+02 3.24633E+01 0.00000E+00
 -1       735 1.32542E+02 2.49120E+01 0.00000E+00
 -1       736 1.03920E+01 3.52625E+01 0.00000E+00
 -1       737 1.03920E+01 2.64500E+01 0.00000E+00
 -1       738 1.15938E+02 1.46875E+01 0.00000E+00
 -1       739 1.18927E+02 1.36090E+01 0.00000E+00
 -1       740 1.30036E+02 3.69697E+01 0.00000E+00
 -1       741 1.39870E+02 1.26886E+01 0.00000E+00
 -1       742 1.38879E+02 3.76441E+01 0.00000E+00
 -1       743 1.31840E+02 3.44397E+01 0.00000E+00
 -1       744 1.17922E+02 4.02131E+01 0.00000E+00
 -1       745 1.06717E+02 2.21851E+01 0.00000E+00
 -1       746 1.06499E+02 3.08900E+01 0.00000E+00
 -1       747 1.06533E+02 2.79788E+01 0.00000E+00
 -1       748 1.03920E+01 2.93875E+01 0.00000E+00
 -1       749 1.39739E+02 1.51693E+01 0.00000E+00
 -1       750 1.07375E+02 3.69562E+01 0.00000E+00
 -1       751 1.29900E+01 1.32000E+01 0.00000E+00
 -1       752 1.34319E+02 2.92902E+01 0.00000E+00
 -1       753 1.34269E+02 2.62628E+01 0.00000E+00
 -1       754 1.96500E+01 3.70100E+01 0.00000E+00
 -1       755 2.26500E+01 3.70100E+01 0.00000E+00
 -1       756 2.56500E+01 3.70100E+01 0.00000E+00
 -1       757 2.86500E+01 3.70100E+01 0.00000E+00
 -1       758 3.16500E+01 3.70100E+01 0.00000E+00
 -1       759 3.46500E+01 3.70100E+01 0.00000E+00
 -1       760 3.76500E+01 3.70100E+01 0.00000E+00
 -1       761 4.06500E+01 3.70100E+01 0.00000E+00
 -1       762 4.36500E+01 3.70100E+01 0.00000E+00
 -1       763 4.66500E+01 3.70100E+01 0.00000E+00
 -1       764 4.96500E+01 3.70100E+01 0.00000E+00
 -1       765 5.26500E+01 3.70100E+01 0.00000E+00
 -1       766 5.56500E+01 3.70100E+01 0.00000E+00
 -1       767 5.86500E+01 3.70100E+01 0.00000E+00
 -1       768 6.16500E+01 3.70100E+01 0.00000E+00
 -1       769 6.46500E+01 3.70100E+01 0.00000E+00
 -1       770 6.76500E+01 3.70100E+01 0.00000E+00
 -1       771 7.06500E+01 3.70100E+01 0.00000E+00
 -1       772 7.36500E+01 3.70100E+01 0.00000E+00
 -1       773 7.66500E+01 3.70100E+01 0.00000E+00
 -1       774 7.96500E+01 3.70100E+01 0.00000E+00
 -1       775 8.26500E+01 3.70100E+01 0.00000E+00
 -1       776 8.56500E+01 3.70100E+01 0.00000E+00
 -1       777 8.86500E+01 3.70100E+01 0.00000E+00
 -1       778 9.16500E+01 3.70100E+01 0.00000E+00
 -1       779 9.46500E+01 3.70100E+01 0.00000E+00
 -1       780 9.76500E+01 3.70100E+01 0.00000E+00
 -1       781 1.00650E+02 3.70100E+01 0.00000E+00
 -1       782 1.03650E+02 3.70100E+01 0.00000E+00
 -1       783 1.33650E+02 3.73902E+01 0.00000E+00
 -1       784 1.36264E+02 3.75171E+01 0.00000E+00
 -1       785 2.80350E+01 1.18003E+01 0.00000E+00
 -1       786 3.10350E+01 1.18003E+01 0.00000E+00
 -1       787 4.00350E+01 1.18003E+01 0.00000E+00
 -1       788 4.30350E+01 1.18003E+01 0.00000E+00
 -1       789 4.60350E+01 1.18003E+01 0.00000E+00
 -1       790 4.90350E+01 1.18003E+01 0.00000E+00
 -1       791 5.20350E+01 1.18003E+01 0.00000E+00
 -1       792 5.50350E+01 1.18003E+01 0.00000E+00
 -1       793 5.80350E+01 1.18003E+01 0.00000E+00
 -1       794 6.10350E+01 1.18003E+01 0.00000E+00
 -1       795 6.40350E+01 1.18003E+01 0.00000E+00
 -1       796 6.70350E+01 1.18003E+01 0.00000E+00
 -1       797 7.00350E+01 1.18003E+01 0.00000E+00
 -1       798 7.30350E+01 1.18003E+01 0.00000E+00
 -1       799 7.60350E+01 1.18003E+01 0.00000E+00
 -1       800 7.90350E+01 1.18003E+01 0.00000E+00
 -1       801 8.20350E+01 1.18003E+01 0.00000E+00
 -1       802 8.50350E+01 1.18003E+01 0.00000E+00
 -1       803 8.80350E+01 1.18003E+01 0.00000E+00
 -1       804 9.10350E+01 1.18003E+01 0.00000E+00
 -1       805 9.40350E+01 1.18003E+01 0.00000E+00
 -1       806 9.70350E+01 1.18003E+01 0.00000E+00
 -1       807 1.00035E+02 1.18003E+01 0.00000E+00
 -1       808 1.03035E+02 1.18003E+01 0.00000E+00
 -1       809 1.06035E+02 1.18003E+01 0.00000E+00
 -1       810 1.09035E+02 1.18003E+01 0.00000E+00
 -1       811 1.12035E+02 1.18003E+01 0.00000E+00
 -1       812 1.15035E+02 1.18003E+01 0.00000E+00
 -1       813 1.24035E+02 1.18003E+01 0.00000E+00
 -1       814 1.27035E+02 1.18003E+01 0.00000E+00
 -1       815 1.30035E+02 1.18003E+01 0.00000E+00
 -1       816 1.33035E+02 1.18003E+01 0.00000E+00
 -1       817 1.36035E+02 1.18003E+01 0.00000E+00
 -1       818 1.37953E+02 1.22444E+01 0.00000E+00
 -1       819 1.29900E+01 2.20250E+01 0.00000E+00
 -1       820 1.21730E+02 1.20505E+01 0.00000E+00
 -1       821 1.37223E+02 2.50250E+01 0.00000E+00
 -1       822 1.05783E+02 2.57834E+01 0.00000E+00
 -1       823 1.37010E+02 3.38250E+01 0.00000E+00
 -1       824 1.37223E+02 2.79250E+01 0.00000E+00
 -1       825 1.90350E+01 1.18003E+01 0.00000E+00
 -1       826 2.20350E+01 1.18003E+01 0.00000E+00
 -1       827 1.37010E+02 3.08750E+01 0.00000E+00
 -1       828 3.70350E+01 1.18003E+01 0.00000E+00
 -1       829 1.04888E+01 3.74991E+01 0.00000E+00
 -1       830 3.40350E+01 1.18003E+01 0.00000E+00
 -1       831 1.06213E+02 3.41799E+01 0.00000E+00
 -1       832 1.33431E+02 1.96638E+01 0.00000E+00
 -1       833 2.50350E+01 1.18003E+01 0.00000E+00
 -1       834 1.28283E+02 1.43455E+01 0.00000E+00
 -1       835 1.66500E+01 3.70100E+01 0.00000E+00
 -1       836 1.34008E+02 3.15873E+01 0.00000E+00
 -1       837 1.13339E+02 1.45666E+01 0.00000E+00
 -1       838 1.09629E+02 1.57004E+01 0.00000E+00
 -1       839 1.37625E+01 1.12011E+01 0.00000E+00
 -1       840 1.31174E+02 1.66836E+01 0.00000E+00
 -1       841 1.07193E+02 1.86338E+01 0.00000E+00
 -1       842 1.34363E+02 2.29368E+01 0.00000E+00
 -1       843 1.29900E+01 2.49750E+01 0.00000E+00
 -1       844 1.29900E+01 1.61375E+01 0.00000E+00
 -1       845 1.29900E+01 3.37938E+01 0.00000E+00
 -1       846 1.29900E+01 1.90812E+01 0.00000E+00
 -1       847 1.37010E+02 1.91250E+01 0.00000E+00
 -1       848 1.27710E+01 3.74352E+01 0.00000E+00
 -1       849 1.05110E+02 2.38750E+01 0.00000E+00
 -1       850 1.37010E+02 2.20750E+01 0.00000E+00
 -1       851 1.04930E+02 3.29338E+01 0.00000E+00
 -1       852 1.37141E+02 1.66443E+01 0.00000E+00
 -1       853 1.34079E+02 3.35637E+01 0.00000E+00
 -1       854 1.05403E+02 1.96365E+01 0.00000E+00
 -1       855 1.05250E+02 2.96904E+01 0.00000E+00
 -1       856 1.63988E+01 1.15007E+01 0.00000E+00
 -1       857 1.36637E+02 3.56711E+01 0.00000E+00
 -1       858 1.29900E+01 3.08563E+01 0.00000E+00
 -1       859 1.32105E+02 1.42419E+01 0.00000E+00
 -1       860 3.25350E+01 1.43982E+01 0.00000E+00
 -1       861 2.41500E+01 3.44120E+01 0.00000E+00
 -1       862 2.71500E+01 3.44120E+01 0.00000E+00
 -1       863 3.01500E+01 3.44120E+01 0.00000E+00
 -1       864 3.31500E+01 3.44120E+01 0.00000E+00
 -1       865 3.61500E+01 3.44120E+01 0.00000E+00
 -1       866 3.91500E+01 3.44120E+01 0.00000E+00
 -1       867 4.21500E+01 3.44120E+01 0.00000E+00
 -1       868 4.51500E+01 3.44120E+01 0.00000E+00
 -1       869 4.81500E+01 3.44120E+01 0.00000E+00
 -1       870 5.11500E+01 3.44120E+01 0.00000E+00
 -1       871 5.41500E+01 3.44120E+01 0.00000E+00
 -1       872 5.71500E+01 3.44120E+01 0.00000E+00
 -1       873 6.01500E+01 3.44120E+01 0.00000E+00
 -1       874 6.31500E+01 3.44120E+01 0.00000E+00
 -1       875 6.61500E+01 3.44120E+01 0.00000E+00
 -1       876 6.91500E+01 3.44120E+01 0.00000E+00
 -1       877 7.21500E+01 3.44120E+01 0.00000E+00
 -1       878 7.51500E+01 3.44120E+01 0.00000E+00
 -1       879 7.81500E+01 3.44120E+01 0.00000E+00
 -1       880 8.11500E+01 3.44120E+01 0.00000E+00
 -1       881 8.41500E+01 3.44120E+01 0.00000E+00
 -1       882 8.71500E+01 3.44120E+01 0.00000E+00
 -1       883 9.01500E+01 3.44120E+01 0.00000E+00
 -1       884 9.31500E+01 3.44120E+01 0.00000E+00
 -1       885 9.61500E+01 3.44120E+01 0.00000E+00
 -1       886 9.91500E+01 3.44120E+01 0.00000E+00
 -1       887 1.02150E+02 3.44120E+01 0.00000E+00
 -1       888 4.75350E+01 1.43982E+01 0.00000E+00
 -1       889 4.45350E+01 1.43982E+01 0.00000E+00
 -1       890 4.15350E+01 1.43982E+01 0.00000E+00
 -1       891 5.05350E+01 1.43982E+01 0.00000E+00
 -1       892 5.35350E+01 1.43982E+01 0.00000E+00
 -1       893 5.65350E+01 1.43982E+01 0.00000E+00
 -1       894 5.95350E+01 1.43982E+01 0.00000E+00
 -1       895 6.25350E+01 1.43982E+01 0.00000E+00
 -1       896 6.55350E+01 1.43982E+01 0.00000E+00
 -1       897 6.85350E+01 1.43982E+01 0.00000E+00
 -1       898 7.15350E+01 1.43982E+01 0.00000E+00
 -1       899 7.45350E+01 1.43982E+01 0.00000E+00
 -1       900 7.75350E+01 1.43982E+01 0.00000E+00
 -1       901 8.05350E+01 1.43982E+01 0.00000E+00
 -1       902 8.35350E+01 1.43982E+01 0.00000E+00
 -1       903 8.65350E+01 1.43982E+01 0.00000E+00
 -1       904 8.95350E+01 1.43982E+01 0.00000E+00
 -1       905 9.25350E+01 1.43982E+01 0.00000E+00
 -1       906 9.55350E+01 1.43982E+01 0.00000E+00
 -1       907 9.85350E+01 1.43982E+01 0.00000E+00
 -1       908 1.01535E+02 1.43982E+01 0.00000E+00
 -1       909 1.04535E+02 1.43982E+01 0.00000E+00
 -1       910 1.44274E+01 3.46401E+01 0.00000E+00
 -1       911 1.03671E+02 2.54557E+01 0.00000E+00
 -1       912 2.05350E+01 1.43982E+01 0.00000E+00
 -1       913 3.55350E+01 1.43982E+01 0.00000E+00
 -1       914 3.85350E+01 1.43982E+01 0.00000E+00
 -1       915 2.65350E+01 1.43982E+01 0.00000E+00
 -1       916 2.35350E+01 1.43982E+01 0.00000E+00
 -1       917 1.29900E+01 2.79188E+01 0.00000E+00
 -1       918 1.81500E+01 3.44120E+01 0.00000E+00
 -1       919 2.11500E+01 3.44120E+01 0.00000E+00
 -1       920 1.06576E+02 1.56433E+01 0.00000E+00
 -1       921 1.04461E+02 2.75731E+01 0.00000E+00
 -1       922 1.34338E+02 1.66324E+01 0.00000E+00
 -1       923 2.95350E+01 1.43982E+01 0.00000E+00
 -1       924 1.37547E+02 1.44444E+01 0.00000E+00
 -1       925 1.03795E+02 2.13265E+01 0.00000E+00
 -1       926 1.55880E+01 1.46687E+01 0.00000E+00
 -1       927 1.55880E+01 2.35000E+01 0.00000E+00
 -1       928 1.55880E+01 2.05562E+01 0.00000E+00
 -1       929 1.02357E+02 2.29072E+01 0.00000E+00
 -1       930 1.03681E+02 3.17342E+01 0.00000E+00
 -1       931 1.34535E+02 1.43982E+01 0.00000E+00
 -1       932 1.44274E+01 3.17026E+01 0.00000E+00
 -1       933 1.04969E+02 1.70174E+01 0.00000E+00
 -1       934 1.75351E+01 1.43983E+01 0.00000E+00
 -1       935 1.55880E+01 2.64438E+01 0.00000E+00
 -1       936 2.56500E+01 3.18140E+01 0.00000E+00
 -1       937 2.86500E+01 3.18140E+01 0.00000E+00
 -1       938 3.16500E+01 3.18140E+01 0.00000E+00
 -1       939 3.46500E+01 3.18140E+01 0.00000E+00
 -1       940 3.76500E+01 3.18140E+01 0.00000E+00
 -1       941 4.06500E+01 3.18140E+01 0.00000E+00
 -1       942 4.36500E+01 3.18140E+01 0.00000E+00
 -1       943 4.66500E+01 3.18140E+01 0.00000E+00
 -1       944 4.96500E+01 3.18140E+01 0.00000E+00
 -1       945 5.26500E+01 3.18140E+01 0.00000E+00
 -1       946 5.56500E+01 3.18140E+01 0.00000E+00
 -1       947 5.86500E+01 3.18140E+01 0.00000E+00
 -1       948 6.16500E+01 3.18140E+01 0.00000E+00
 -1       949 6.46500E+01 3.18140E+01 0.00000E+00
 -1       950 6.76500E+01 3.18140E+01 0.00000E+00
 -1       951 7.06500E+01 3.18140E+01 0.00000E+00
 -1       952 7.36500E+01 3.18140E+01 0.00000E+00
 -1       953 7.66500E+01 3.18140E+01 0.00000E+00
 -1       954 7.96500E+01 3.18140E+01 0.00000E+00
 -1       955 8.26500E+01 3.18140E+01 0.00000E+00
 -1       956 8.56500E+01 3.18140E+01 0.00000E+00
 -1       957 8.86500E+01 3.18140E+01 0.00000E+00
 -1       958 9.16500E+01 3.18140E+01 0.00000E+00
 -1       959 9.46500E+01 3.18140E+01 0.00000E+00
 -1       960 9.76500E+01 3.18140E+01 0.00000E+00
 -1       961 1.00650E+02 3.18140E+01 0.00000E+00
 -1       962 4.60350E+01 1.69963E+01 0.00000E+00
 -1       963 5.20350E+01 1.69963E+01 0.00000E+00
 -1       964 1.55880E+01 1.76125E+01 0.00000E+00
 -1       965 4.90350E+01 1.69963E+01 0.00000E+00
 -1       966 4.30350E+01 1.69963E+01 0.00000E+00
 -1       967 5.50350E+01 1.69963E+01 0.00000E+00
 -1       968 5.80350E+01 1.69963E+01 0.00000E+00
 -1       969 6.10350E+01 1.69963E+01 0.00000E+00
 -1       970 6.40350E+01 1.69963E+01 0.00000E+00
 -1       971 6.70350E+01 1.69963E+01 0.00000E+00
 -1       972 7.00350E+01 1.69963E+01 0.00000E+00
 -1       973 7.30350E+01 1.69963E+01 0.00000E+00
 -1       974 7.60350E+01 1.69963E+01 0.00000E+00
 -1       975 7.90350E+01 1.69963E+01 0.00000E+00
 -1       976 8.20350E+01 1.69963E+01 0.00000E+00
 -1       977 8.50350E+01 1.69963E+01 0.00000E+00
 -1       978 8.80350E+01 1.69963E+01 0.00000E+00
 -1       979 9.10350E+01 1.69963E+01 0.00000E+00
 -1       980 9.40350E+01 1.69963E+01 0.00000E+00
 -1       981 9.70350E+01 1.69963E+01 0.00000E+00
 -1       982 1.00035E+02 1.69963E+01 0.00000E+00
 -1       983 1.02502E+02 1.70068E+01 0.00000E+00
 -1       984 1.55880E+01 2.93813E+01 0.00000E+00
 -1       985 1.96500E+01 3.18140E+01 0.00000E+00
 -1       986 2.26500E+01 3.18140E+01 0.00000E+00
 -1       987 3.40350E+01 1.69963E+01 0.00000E+00
 -1       988 2.20350E+01 1.69963E+01 0.00000E+00
 -1       989 2.50350E+01 1.69963E+01 0.00000E+00
 -1       990 1.90351E+01 1.69963E+01 0.00000E+00
 -1       991 1.73115E+01 1.73044E+01 0.00000E+00
 -1       992 1.01312E+02 2.05112E+01 0.00000E+00
 -1       993 4.00350E+01 1.69963E+01 0.00000E+00
 -1       994 3.10350E+01 1.69963E+01 0.00000E+00
 -1       995 1.01192E+02 2.51211E+01 0.00000E+00
 -1       996 1.81860E+01 2.49719E+01 0.00000E+00
 -1       997 1.03149E+02 1.91666E+01 0.00000E+00
 -1       998 1.81860E+01 2.20281E+01 0.00000E+00
 -1       999 1.02891E+02 2.96168E+01 0.00000E+00
 -1      1000 2.80350E+01 1.69963E+01 0.00000E+00
 -1      1001 1.01981E+02 2.72385E+01 0.00000E+00
 -1      1002 3.70350E+01 1.69963E+01 0.00000E+00
 -1      1003 1.81860E+01 2.79094E+01 0.00000E+00
 -1      1004 5.35350E+01 1.95942E+01 0.00000E+00
 -1      1005 3.01500E+01 2.92160E+01 0.00000E+00
 -1      1006 3.31500E+01 2.92160E+01 0.00000E+00
 -1      1007 3.61500E+01 2.92160E+01 0.00000E+00
 -1      1008 3.91500E+01 2.92160E+01 0.00000E+00
 -1      1009 4.21500E+01 2.92160E+01 0.00000E+00
 -1      1010 4.51500E+01 2.92160E+01 0.00000E+00
 -1      1011 4.81500E+01 2.92160E+01 0.00000E+00
 -1      1012 5.11500E+01 2.92160E+01 0.00000E+00
 -1      1013 5.41500E+01 2.92160E+01 0.00000E+00
 -1      1014 5.71500E+01 2.92160E+01 0.00000E+00
 -1      1015 6.01500E+01 2.92160E+01 0.00000E+00
 -1      1016 6.31500E+01 2.92160E+01 0.00000E+00
 -1      1017 6.61500E+01 2.92160E+01 0.00000E+00
 -1      1018 6.91500E+01 2.92160E+01 0.00000E+00
 -1      1019 7.21500E+01 2.92160E+01 0.00000E+00
 -1      1020 7.51500E+01 2.92160E+01 0.00000E+00
 -1      1021 7.81500E+01 2.92160E+01 0.00000E+00
 -1      1022 8.11500E+01 2.92160E+01 0.00000E+00
 -1      1023 8.41500E+01 2.92160E+01 0.00000E+00
 -1      1024 8.71500E+01 2.92160E+01 0.00000E+00
 -1      1025 9.01500E+01 2.92160E+01 0.00000E+00
 -1      1026 9.31500E+01 2.92160E+01 0.00000E+00
 -1      1027 9.61500E+01 2.92160E+01 0.00000E+00
 -1      1028 9.91500E+01 2.92160E+01 0.00000E+00
 -1      1029 4.45350E+01 1.95942E+01 0.00000E+00
 -1      1030 1.77488E+01 1.96663E+01 0.00000E+00
 -1      1031 5.95350E+01 1.95942E+01 0.00000E+00
 -1      1032 6.25350E+01 1.95942E+01 0.00000E+00
 -1      1033 6.55350E+01 1.95942E+01 0.00000E+00
 -1      1034 6.85350E+01 1.95942E+01 0.00000E+00
 -1      1035 7.15350E+01 1.95942E+01 0.00000E+00
 -1      1036 7.45350E+01 1.95942E+01 0.00000E+00
 -1      1037 7.75350E+01 1.95942E+01 0.00000E+00
 -1      1038 8.05350E+01 1.95942E+01 0.00000E+00
 -1      1039 8.35350E+01 1.95942E+01 0.00000E+00
 -1      1040 8.65350E+01 1.95942E+01 0.00000E+00
 -1      1041 8.95350E+01 1.95942E+01 0.00000E+00
 -1      1042 9.25350E+01 1.95942E+01 0.00000E+00
 -1      1043 9.55350E+01 1.95942E+01 0.00000E+00
 -1      1044 9.85350E+01 1.95942E+01 0.00000E+00
 -1      1045 2.11500E+01 2.92160E+01 0.00000E+00
 -1      1046 2.41500E+01 2.92160E+01 0.00000E+00
 -1      1047 2.35350E+01 1.95942E+01 0.00000E+00
 -1      1048 2.71500E+01 2.92160E+01 0.00000E+00
 -1      1049 9.98115E+01 2.29812E+01 0.00000E+00
 -1      1050 5.65350E+01 1.95942E+01 0.00000E+00
 -1      1051 2.07840E+01 2.64406E+01 0.00000E+00
 -1      1052 4.15350E+01 1.95942E+01 0.00000E+00
 -1      1053 4.75350E+01 1.95942E+01 0.00000E+00
 -1      1054 3.25350E+01 1.95942E+01 0.00000E+00
 -1      1055 5.05350E+01 1.95942E+01 0.00000E+00
 -1      1056 3.55350E+01 1.95942E+01 0.00000E+00
 -1      1057 2.65350E+01 1.95942E+01 0.00000E+00
 -1      1058 2.07840E+01 2.34969E+01 0.00000E+00
 -1      1059 2.05351E+01 1.95943E+01 0.00000E+00
 -1      1060 9.84969E+01 2.53440E+01 0.00000E+00
 -1      1061 3.46500E+01 2.66180E+01 0.00000E+00
 -1      1062 3.76500E+01 2.66180E+01 0.00000E+00
 -1      1063 4.06500E+01 2.66180E+01 0.00000E+00
 -1      1064 4.36500E+01 2.66180E+01 0.00000E+00
 -1      1065 4.66500E+01 2.66180E+01 0.00000E+00
 -1      1066 4.96500E+01 2.66180E+01 0.00000E+00
 -1      1067 5.26500E+01 2.66180E+01 0.00000E+00
 -1      1068 5.56500E+01 2.66180E+01 0.00000E+00
 -1      1069 5.86500E+01 2.66180E+01 0.00000E+00
 -1      1070 6.16500E+01 2.66180E+01 0.00000E+00
 -1      1071 6.46500E+01 2.66180E+01 0.00000E+00
 -1      1072 6.76500E+01 2.66180E+01 0.00000E+00
 -1      1073 7.06500E+01 2.66180E+01 0.00000E+00
 -1      1074 7.36500E+01 2.66180E+01 0.00000E+00
 -1      1075 7.66500E+01 2.66180E+01 0.00000E+00
 -1      1076 7.96500E+01 2.66180E+01 0.00000E+00
 -1      1077 8.26500E+01 2.66180E+01 0.00000E+00
 -1      1078 8.56500E+01 2.66180E+01 0.00000E+00
 -1      1079 8.86500E+01 2.66180E+01 0.00000E+00
 -1      1080 9.16500E+01 2.66180E+01 0.00000E+00
 -1      1081 9.46500E+01 2.66180E+01 0.00000E+00
 -1      1082 6.70350E+01 2.21922E+01 0.00000E+00
 -1      1083 6.10350E+01 2.21922E+01 0.00000E+00
 -1      1084 7.00350E+01 2.21922E+01 0.00000E+00
 -1      1085 7.30350E+01 2.21922E+01 0.00000E+00
 -1      1086 7.60350E+01 2.21922E+01 0.00000E+00
 -1      1087 7.90350E+01 2.21922E+01 0.00000E+00
 -1      1088 8.20350E+01 2.21922E+01 0.00000E+00
 -1      1089 8.50350E+01 2.21922E+01 0.00000E+00
 -1      1090 8.80350E+01 2.21922E+01 0.00000E+00
 -1      1091 9.10350E+01 2.21922E+01 0.00000E+00
 -1      1092 9.40350E+01 2.21922E+01 0.00000E+00
 -1      1093 9.69233E+01 2.25867E+01 0.00000E+00
 -1      1094 5.20350E+01 2.21922E+01 0.00000E+00
 -1      1095 6.40350E+01 2.21922E+01 0.00000E+00
 -1      1096 5.50350E+01 2.21922E+01 0.00000E+00
 -1      1097 2.56500E+01 2.66180E+01 0.00000E+00
 -1      1098 2.32170E+01 2.65293E+01 0.00000E+00
 -1      1099 2.20350E+01 2.21923E+01 0.00000E+00
 -1      1100 3.85350E+01 1.95942E+01 0.00000E+00
 -1      1101 2.86500E+01 2.66180E+01 0.00000E+00
 -1      1102 3.16500E+01 2.66180E+01 0.00000E+00
 -1      1103 5.80350E+01 2.21922E+01 0.00000E+00
 -1      1104 2.95350E+01 1.95942E+01 0.00000E+00
 -1      1105 3.40350E+01 2.21922E+01 0.00000E+00
 -1      1106 4.90350E+01 2.21922E+01 0.00000E+00
 -1      1107 2.50350E+01 2.21923E+01 0.00000E+00
 -1      1108 4.30350E+01 2.21922E+01 0.00000E+00
 -1      1109 4.60350E+01 2.21922E+01 0.00000E+00
 -1      1110 3.10350E+01 2.21922E+01 0.00000E+00
 -1      1111 3.70350E+01 2.21922E+01 0.00000E+00
 -1      1112 3.91500E+01 2.40200E+01 0.00000E+00
 -1      1113 2.80350E+01 2.21923E+01 0.00000E+00
 -1      1114 4.00350E+01 2.21922E+01 0.00000E+00
 -1      1115 2.40269E+01 2.33873E+01 0.00000E+00
 -1      1116 0.00000E+00 4.85250E+01 0.00000E+00
 -1      1117 0.00000E+00 4.55750E+01 0.00000E+00
 -1      1118 0.00000E+00 4.26250E+01 0.00000E+00
 -1      1119 0.00000E+00 3.96750E+01 0.00000E+00
 -1      1120 0.00000E+00 3.67250E+01 0.00000E+00
 -1      1121 0.00000E+00 3.38000E+01 0.00000E+00
 -1      1122 0.00000E+00 3.08750E+01 0.00000E+00
 -1      1123 0.00000E+00 2.79250E+01 0.00000E+00
 -1      1124 0.00000E+00 2.49750E+01 0.00000E+00
 -1      1125 0.00000E+00 2.20250E+01 0.00000E+00
 -1      1126 0.00000E+00 1.90750E+01 0.00000E+00
 -1      1127 0.00000E+00 1.61500E+01 0.00000E+00
 -1      1128 0.00000E+00 1.32250E+01 0.00000E+00
 -1      1129 0.00000E+00 1.02750E+01 0.00000E+00
 -1      1130 0.00000E+00 7.32500E+00 0.00000E+00
 -1      1131 0.00000E+00 4.37500E+00 0.00000E+00
 -1      1132 0.00000E+00 1.45000E+00 0.00000E+00
 -1      1133 1.57500E+00 5.00000E+01 0.00000E+00
 -1      1134 4.65000E+00 5.00000E+01 0.00000E+00
 -1      1135 7.65000E+00 5.00000E+01 0.00000E+00
 -1      1136 1.06500E+01 5.00000E+01 0.00000E+00
 -1      1137 1.36500E+01 5.00000E+01 0.00000E+00
 -1      1138 1.66500E+01 5.00000E+01 0.00000E+00
 -1      1139 1.96500E+01 5.00000E+01 0.00000E+00
 -1      1140 2.26500E+01 5.00000E+01 0.00000E+00
 -1      1141 2.56500E+01 5.00000E+01 0.00000E+00
 -1      1142 2.86500E+01 5.00000E+01 0.00000E+00
 -1      1143 3.16500E+01 5.00000E+01 0.00000E+00
 -1      1144 3.46500E+01 5.00000E+01 0.00000E+00
 -1      1145 3.76500E+01 5.00000E+01 0.00000E+00
 -1      1146 4.06500E+01 5.00000E+01 0.00000E+00
 -1      1147 4.36500E+01 5.00000E+01 0.00000E+00
 -1      1148 4.66500E+01 5.00000E+01 0.00000E+00
 -1      1149 4.96500E+01 5.00000E+01 0.00000E+00
 -1      1150 5.26500E+01 5.00000E+01 0.00000E+00
 -1      1151 5.56500E+01 5.00000E+01 0.00000E+00
 -1      1152 5.86500E+01 5.00000E+01 0.00000E+00
 -1      1153 6.16500E+01 5.00000E+01 0.00000E+00
 -1      1154 6.46500E+01 5.00000E+01 0.00000E+00
 -1      1155 6.76500E+01 5.00000E+01 0.00000E+00
 -1      1156 7.06500E+01 5.00000E+01 0.00000E+00
 -1      1157 7.36500E+01 5.00000E+01 0.00000E+00
 -1      1158 7.66500E+01 5.00000E+01 0.00000E+00
 -1      1159 7.96500E+01 5.00000E+01 0.00000E+00
 -1      1160 8.26500E+01 5.00000E+01 0.00000E+00
 -1      1161 8.56500E+01 5.00000E+01 0.00000E+00
 -1      1162 8.86500E+01 5.00000E+01 0.00000E+00
 -1      1163 9.16500E+01 5.00000E+01 0.00000E+00
 -1      1164 9.46500E+01 5.00000E+01 0.00000E+00
 -1      1165 9.76500E+01 5.00000E+01 0.00000E+00
 -1      1166 1.00650E+02 5.00000E+01 0.00000E+00
 -1      1167 1.03650E+02 5.00000E+01 0.00000E+00
 -1      1168 1.06650E+02 5.00000E+01 0.00000E+00
 -1      1169 1.09650E+02 5.00000E+01 0.00000E+00
 -1      1170 1.12650E+02 5.00000E+01 0.00000E+00
 -1      1171 1.15650E+02 5.00000E+01 0.00000E+00
 -1      1172 1.18650E+02 5.00000E+01 0.00000E+00
 -1      1173 1.21650E+02 5.00000E+01 0.00000E+00
 -1      1174 1.24650E+02 5.00000E+01 0.00000E+00
 -1      1175 1.27650E+02 5.00000E+01 0.00000E+00
 -1      1176 1.30650E+02 5.00000E+01 0.00000E+00
 -1      1177 1.33650E+02 5.00000E+01 0.00000E+00
 -1      1178 1.36650E+02 5.00000E+01 0.00000E+00
 -1      1179 1.39650E+02 5.00000E+01 0.00000E+00
 -1      1180 1.42650E+02 5.00000E+01 0.00000E+00
 -1      1181 1.45650E+02 5.00000E+01 0.00000E+00
 -1      1182 1.48575E+02 5.00000E+01 0.00000E+00
 -1      1183 1.57500E+00 0.00000E+00 0.00000E+00
 -1      1184 4.65000E+00 0.00000E+00 0.00000E+00
 -1      1185 7.65000E+00 0.00000E+00 0.00000E+00
 -1      1186 1.06500E+01 0.00000E+00 0.00000E+00
 -1      1187 1.36500E+01 0.00000E+00 0.00000E+00
 -1      1188 1.66500E+01 0.00000E+00 0.00000E+00
 -1      1189 1.96500E+01 0.00000E+00 0.00000E+00
 -1      1190 2.26500E+01 0.00000E+00 0.00000E+00
 -1      1191 2.56500E+01 0.00000E+00 0.00000E+00
 -1      1192 2.86500E+01 0.00000E+00 0.00000E+00
 -1      1193 3.16500E+01 0.00000E+00 0.00000E+00
 -1      1194 3.46500E+01 0.00000E+00 0.00000E+00
 -1      1195 3.76500E+01 0.00000E+00 0.00000E+00
 -1      1196 4.06500E+01 0.00000E+00 0.00000E+00
 -1      1197 4.36500E+01 0.00000E+00 0.00000E+00
 -1      1198 4.66500E+01 0.00000E+00 0.00000E+00
 -1      1199 4.96500E+01 0.00000E+00 0.00000E+00
 -1      1200 5.26500E+01 0.00000E+00 0.00000E+00
 -1      1201 5.56500E+01 0.00000E+00 0.00000E+00
 -1      1202 5.86500E+01 0.00000E+00 0.00000E+00
 -1      1203 6.16500E+01 0.00000E+00 0.00000E+00
 -1      1204 6.46500E+01 0.00000E+00 0.00000E+00
 -1      1205 6.76500E+01 0.00000E+00 0.00000E+00
 -1      1206 7.06500E+01 0.00000E+00 0.00000E+00
 -1      1207 7.36500E+01 0.00000E+00 0.00000E+00
 -1      1208 7.66500E+01 0.00000E+00 0.00000E+00
 -1      1209 7.96500E+01 0.00000E+00 0.00000E+00
 -1      1210 8.26500E+01 0.00000E+00 0.00000E+00
 -1      1211 8.56500E+01 0.00000E+00 0.00000E+00
 -1      1212 8.86500E+01 0.00000E+00 0.00000E+00
 -1      1213 9.16500E+01 0.00000E+00 0.00000E+00
 -1      1214 9.46500E+01 0.00000E+00 0.00000E+00
 -1      1215 9.76500E+01 0.00000E+00 0.00000E+00
 -1      1216 1.00650E+02 0.00000E+00 0.00000E+00
 -1      1217 1.03650E+02 0.00000E+00 0.00000E+00
 -1      1218 1.06650E+02 0.00000E+00 0.00000E+00
 -1      1219 1.09650E+02 0.00000E+00 0.00000E+00
 -1      1220 1.12650E+02 0.00000E+00 0.00000E+00
 -1      1221 1.15650E+02 0.00000E+00 0.00000E+00
 -1      1222 1.18650E+02 0.00000E+00 0.00000E+00
 -1      1223 1.21650E+02 0.00000E+00 0.00000E+00
 -1      1224 1.24650E+02 0.00000E+00 0.00000E+00
 -1      1225 1.27650E+02 0.00000E+00 0.00000E+00
 -1      1226 1.30650E+02 0.00000E+00 0.00000E+00
 -1      1227 1.33650E+02 0.00000E+00 0.00000E+00
 -1      1228 1.36650E+02 0.00000E+00 0.00000E+00
 -1      1229 1.39650E+02 0.00000E+00 0.00000E+00
 -1      1230 1.42650E+02 0.00000E+00 0.00000E+00
 -1      1231 1.45650E+02 0.00000E+00 0.00000E+00
 -1      1232 1.48575E+02 0.00000E+00 0.00000E+00
 -1      1233 1.50000E+02 1.47500E+00 0.00000E+00
 -1      1234 1.50000E+02 4.42500E+00 0.00000E+00
 -1      1235 1.50000E+02 7.37500E+00 0.00000E+00
 -1      1236 1.50000E+02 1.03250E+01 0.00000E+00
 -1      1237 1.50000E+02 1.32750E+01 0.00000E+00
 -1      1238 1.50000E+02 1.62000E+01 0.00000E+00
 -1      1239 1.50000E+02 1.91250E+01 0.00000E+00
 -1      1240 1.50000E+02 2.20750E+01 0.00000E+00
 -1      1241 1.50000E+02 2.50250E+01 0.00000E+00
 -1      1242 1.50000E+02 2.79750E+01 0.00000E+00
 -1      1243 1.50000E+02 3.09250E+01 0.00000E+00
 -1      1244 1.50000E+02 3.38500E+01 0.00000E+00
 -1      1245 1.50000E+02 3.67750E+01 0.00000E+00
 -1      1246 1.50000E+02 3.97250E+01 0.00000E+00
 -1      1247 1.50000E+02 4.26750E+01 0.00000E+00
 -1      1248 1.50000E+02 4.56250E+01 0.00000E+00
 -1      1249 1.50000E+02 4.85500E+01 0.00000E+00
 -1      1250 1.26738E+02 2.67021E+01 0.00000E+00
 -1      1251 1.26429E+02 2.52728E+01 0.00000E+00
 -1      1252 1.25803E+02 2.38946E+01 0.00000E+00
 -1      1253 1.24840E+02 2.26236E+01 0.00000E+00
 -1      1254 1.23615E+02 2.16037E+01 0.00000E+00
 -1      1255 1.22239E+02 2.09057E+01 0.00000E+00
 -1      1256 1.20805E+02 2.05349E+01 0.00000E+00
 -1      1257 1.19284E+02 2.04768E+01 0.00000E+00
 -1      1258 1.17742E+02 2.07621E+01 0.00000E+00
 -1      1259 1.16314E+02 2.13768E+01 0.00000E+00
 -1      1260 1.15091E+02 2.22609E+01 0.00000E+00
 -1      1261 1.14080E+02 2.33946E+01 0.00000E+00
 -1      1262 1.13323E+02 2.47542E+01 0.00000E+00
 -1      1263 1.12893E+02 2.62036E+01 0.00000E+00
 -1      1264 1.12784E+02 2.77329E+01 0.00000E+00
 -1      1265 1.13018E+02 2.92718E+01 0.00000E+00
 -1      1266 1.13557E+02 3.06664E+01 0.00000E+00
 -1      1267 1.14380E+02 3.19143E+01 0.00000E+00
 -1      1268 1.15432E+02 3.29461E+01 0.00000E+00
 -1      1269 1.16682E+02 3.37370E+01 0.00000E+00
 -1      1270 1.18080E+02 3.42501E+01 0.00000E+00
 -1      1271 1.19506E+02 3.44540E+01 0.00000E+00
 -1      1272 1.20977E+02 3.43561E+01 0.00000E+00
 -1      1273 1.22434E+02 3.39361E+01 0.00000E+00
 -1      1274 1.23746E+02 3.32268E+01 0.00000E+00
 -1      1275 1.24913E+02 3.22182E+01 0.00000E+00
 -1      1276 1.25832E+02 3.09751E+01 0.00000E+00
 -1      1277 1.26428E+02 2.96468E+01 0.00000E+00
 -1      1278 1.26738E+02 2.82137E+01 0.00000E+00
 -1      1279 1.57500E+00 4.85250E+01 0.00000E+00
 -1      1280 1.29900E+00 4.48375E+01 0.00000E+00
 -1      1281 1.29900E+00 4.63125E+01 0.00000E+00
 -1      1282 1.29900E+00 4.18875E+01 0.00000E+00
 -1      1283 1.29900E+00 4.33625E+01 0.00000E+00
 -1      1284 2.59800E+00 4.41000E+01 0.00000E+00
 -1      1285 1.29900E+00 3.89375E+01 0.00000E+00
 -1      1286 1.29900E+00 4.04125E+01 0.00000E+00
 -1      1287 2.59800E+00 4.11500E+01 0.00000E+00
 -1      1288 1.29900E+00 3.59875E+01 0.00000E+00
 -1      1289 1.29900E+00 3.74625E+01 0.00000E+00
 -1      1290 2.59800E+00 3.82000E+01 0.00000E+00
 -1      1291 1.29900E+00 3.30875E+01 0.00000E+00
 -1      1292 1.29900E+00 3.45375E+01 0.00000E+00
 -1      1293 2.59800E+00 3.52750E+01 0.00000E+00
 -1      1294 1.29900E+00 3.01375E+01 0.00000E+00
 -1      1295 1.29900E+00 3.16125E+01 0.00000E+00
 -1      1296 2.59800E+00 3.23500E+01 0.00000E+00
 -1      1297 1.29900E+00 2.71875E+01 0.00000E+00
 -1      1298 1.29900E+00 2.86625E+01 0.00000E+00
 -1      1299 2.59800E+00 2.94000E+01 0.00000E+00
 -1      1300 1.29900E+00 2.42375E+01 0.00000E+00
 -1      1301 1.29900E+00 2.57125E+01 0.00000E+00
 -1      1302 2.59800E+00 2.64500E+01 0.00000E+00
 -1      1303 1.29900E+00 2.12875E+01 0.00000E+00
 -1      1304 1.29900E+00 2.27625E+01 0.00000E+00
 -1      1305 2.59800E+00 2.35000E+01 0.00000E+00
 -1      1306 1.29900E+00 1.83375E+01 0.00000E+00
 -1      1307 1.29900E+00 1.98125E+01 0.00000E+00
 -1      1308 2.59800E+00 2.05500E+01 0.00000E+00
 -1      1309 1.29900E+00 1.54375E+01 0.00000E+00
 -1      1310 1.29900E+00 1.68875E+01 0.00000E+00
 -1      1311 2.59800E+00 1.76250E+01 0.00000E+00
 -1      1312 1.29900E+00 1.24875E+01 0.00000E+00
 -1      1313 1.29900E+00 1.39625E+01 0.00000E+00
 -1      1314 2.59800E+00 1.47000E+01 0.00000E+00
 -1      1315 1.29900E+00 9.53750E+00 0.00000E+00
 -1      1316 1.29900E+00 1.10125E+01 0.00000E+00
 -1      1317 2.59800E+00 1.17500E+01 0.00000E+00
 -1      1318 1.29900E+00 6.58750E+00 0.00000E+00
 -1      1319 1.29900E+00 8.06250E+00 0.00000E+00
 -1      1320 2.59800E+00 8.80000E+00 0.00000E+00
 -1      1321 1.29900E+00 3.63750E+00 0.00000E+00
 -1      1322 1.29900E+00 5.11250E+00 0.00000E+00
 -1      1323 2.59800E+00 5.85000E+00 0.00000E+00
 -1      1324 1.43700E+00 1.09375E+00 0.00000E+00
 -1      1325 1.43700E+00 2.54375E+00 0.00000E+00
 -1      1326 2.73600E+00 3.28125E+00 0.00000E+00
 -1      1327 3.01200E+00 1.09375E+00 0.00000E+00
 -1      1328 3.90000E+00 4.87010E+01 0.00000E+00
 -1      1329 5.40000E+00 4.87010E+01 0.00000E+00
 -1      1330 6.90000E+00 4.87010E+01 0.00000E+00
 -1      1331 8.40000E+00 4.87010E+01 0.00000E+00
 -1      1332 6.15000E+00 4.74020E+01 0.00000E+00
 -1      1333 9.90000E+00 4.87010E+01 0.00000E+00
 -1      1334 1.14000E+01 4.87010E+01 0.00000E+00
 -1      1335 9.15000E+00 4.74020E+01 0.00000E+00
 -1      1336 1.29000E+01 4.87010E+01 0.00000E+00
 -1      1337 1.44000E+01 4.87010E+01 0.00000E+00
 -1      1338 1.21500E+01 4.74020E+01 0.00000E+00
 -1      1339 1.59000E+01 4.87010E+01 0.00000E+00
 -1      1340 1.74000E+01 4.87010E+01 0.00000E+00
 -1      1341 1.51500E+01 4.74020E+01 0.00000E+00
 -1      1342 1.89000E+01 4.87010E+01 0.00000E+00
 -1      1343 2.04000E+01 4.87010E+01 0.00000E+00
 -1      1344 1.81500E+01 4.74020E+01 0.00000E+00
 -1      1345 2.19000E+01 4.87010E+01 0.00000E+00
 -1      1346 2.34000E+01 4.87010E+01 0.00000E+00
 -1      1347 2.11500E+01 4.74020E+01 0.00000E+00
 -1      1348 2.49000E+01 4.87010E+01 0.00000E+00
 -1      1349 2.64000E+01 4.87010E+01 0.00000E+00
 -1      1350 2.41500E+01 4.74020E+01 0.00000E+00
 -1      1351 2.79000E+01 4.87010E+01 0.00000E+00
 -1      1352 2.94000E+01 4.87010E+01 0.00000E+00
 -1      1353 2.71500E+01 4.74020E+01 0.00000E+00
 -1      1354 3.09000E+01 4.87010E+01 0.00000E+00
 -1      1355 3.24000E+01 4.87010E+01 0.00000E+00
 -1      1356 3.01500E+01 4.74020E+01 0.00000E+00
 -1      1357 3.39000E+01 4.87010E+01 0.00000E+00
 -1      1358 3.54000E+01 4.87010E+01 0.00000E+00
 -1      1359 3.31500E+01 4.74020E+01 0.00000E+00
 -1      1360 3.69000E+01 4.87010E+01 0.00000E+00
 -1      1361 3.84000E+01 4.87010E+01 0.00000E+00
 -1      1362 3.61500E+01 4.74020E+01 0.00000E+00
 -1      1363 3.99000E+01 4.87010E+01 0.00000E+00
 -1      1364 4.14000E+01 4.87010E+01 0.00000E+00
 -1      1365 3.91500E+01 4.74020E+01 0.00000E+00
 -1      1366 4.29000E+01 4.87010E+01 0.00000E+00
 -1      1367 4.44000E+01 4.87010E+01 0.00000E+00
 -1      1368 4.21500E+01 4.74020E+01 0.00000E+00
 -1      1369 4.59000E+01 4.87010E+01 0.00000E+00
 -1      1370 4.74000E+01 4.87010E+01 0.00000E+00
 -1      1371 4.51500E+01 4.74020E+01 0.00000E+00
 -1      1372 4.89000E+01 4.87010E+01 0.00000E+00
 -1      1373 5.04000E+01 4.87010E+01 0.00000E+00
 -1      1374 4.81500E+01 4.74020E+01 0.00000E+00
 -1      1375 5.19000E+01 4.87010E+01 0.00000E+00
 -1      1376 5.34000E+01 4.87010E+01 0.00000E+00
 -1      1377 5.11500E+01 4.74020E+01 0.00000E+00
 -1      1378 5.49000E+01 4.87010E+01 0.00000E+00
 -1      1379 5.64000E+01 4.87010E+01 0.00000E+00
 -1      1380 5.41500E+01 4.74020E+01 0.00000E+00
 -1      1381 5.79000E+01 4.87010E+01 0.00000E+00
 -1      1382 5.94000E+01 4.87010E+01 0.00000E+00
 -1      1383 5.71500E+01 4.74020E+01 0.00000E+00
 -1      1384 6.09000E+01 4.87010E+01 0.00000E+00
 -1      1385 6.24000E+01 4.87010E+01 0.00000E+00
 -1      1386 6.01500E+01 4.74020E+01 0.00000E+00
 -1      1387 6.39000E+01 4.87010E+01 0.00000E+00
 -1      1388 6.54000E+01 4.87010E+01 0.00000E+00
 -1      1389 6.31500E+01 4.74020E+01 0.00000E+00
 -1      1390 6.69000E+01 4.87010E+01 0.00000E+00
 -1      1391 6.84000E+01 4.87010E+01 0.00000E+00
 -1      1392 6.61500E+01 4.74020E+01 0.00000E+00
 -1      1393 6.99000E+01 4.87010E+01 0.00000E+00
 -1      1394 7.14000E+01 4.87010E+01 0.00000E+00
 -1      1395 6.91500E+01 4.74020E+01 0.00000E+00
 -1      1396 7.29000E+01 4.87010E+01 0.00000E+00
 -1      1397 7.44000E+01 4.87010E+01 0.00000E+00
 -1      1398 7.21500E+01 4.74020E+01 0.00000E+00
 -1      1399 7.59000E+01 4.87010E+01 0.00000E+00
 -1      1400 7.74000E+01 4.87010E+01 0.00000E+00
 -1      1401 7.51500E+01 4.74020E+01 0.00000E+00
 -1      1402 7.89000E+01 4.87010E+01 0.00000E+00
 -1      1403 8.04000E+01 4.87010E+01 0.00000E+00
 -1      1404 7.81500E+01 4.74020E+01 0.00000E+00
 -1      1405 8.19000E+01 4.87010E+01 0.00000E+00
 -1      1406 8.34000E+01 4.87010E+01 0.00000E+00
 -1      1407 8.11500E+01 4.74020E+01 0.00000E+00
 -1      1408 8.49000E+01 4.87010E+01 0.00000E+00
 -1      1409 8.64000E+01 4.87010E+01 0.00000E+00
 -1      1410 8.41500E+01 4.74020E+01 0.00000E+00
 -1      1411 8.79000E+01 4.87010E+01 0.00000E+00
 -1      1412 8.94000E+01 4.87010E+01 0.00000E+00
 -1      1413 8.71500E+01 4.74020E+01 0.00000E+00
 -1      1414 9.09000E+01 4.87010E+01 0.00000E+00
 -1      1415 9.24000E+01 4.87010E+01 0.00000E+00
 -1      1416 9.01500E+01 4.74020E+01 0.00000E+00
 -1      1417 9.39000E+01 4.87010E+01 0.00000E+00
 -1      1418 9.54000E+01 4.87010E+01 0.00000E+00
 -1      1419 9.31500E+01 4.74020E+01 0.00000E+00
 -1      1420 9.69000E+01 4.87010E+01 0.00000E+00
 -1      1421 9.84000E+01 4.87010E+01 0.00000E+00
 -1      1422 9.61500E+01 4.74020E+01 0.00000E+00
 -1      1423 9.99000E+01 4.87010E+01 0.00000E+00
 -1      1424 1.01400E+02 4.87010E+01 0.00000E+00
 -1      1425 9.91500E+01 4.74020E+01 0.00000E+00
 -1      1426 1.02900E+02 4.87010E+01 0.00000E+00
 -1      1427 1.04400E+02 4.87010E+01 0.00000E+00
 -1      1428 1.02150E+02 4.74020E+01 0.00000E+00
 -1      1429 1.05900E+02 4.87010E+01 0.00000E+00
 -1      1430 1.07400E+02 4.87010E+01 0.00000E+00
 -1      1431 1.05150E+02 4.74020E+01 0.00000E+00
 -1      1432 1.08900E+02 4.87010E+01 0.00000E+00
 -1      1433 1.10400E+02 4.87010E+01 0.00000E+00
 -1      1434 1.08150E+02 4.74020E+01 0.00000E+00
 -1      1435 1.11900E+02 4.87010E+01 0.00000E+00
 -1      1436 1.13400E+02 4.87010E+01 0.00000E+00
 -1      1437 1.11150E+02 4.74020E+01 0.00000E+00
 -1      1438 1.14900E+02 4.87010E+01 0.00000E+00
 -1      1439 1.16400E+02 4.87010E+01 0.00000E+00
 -1      1440 1.14150E+02 4.74020E+01 0.00000E+00
 -1      1441 1.17900E+02 4.87010E+01 0.00000E+00
 -1      1442 1.19400E+02 4.87010E+01 0.00000E+00
 -1      1443 1.17150E+02 4.74020E+01 0.00000E+00
 -1      1444 1.20900E+02 4.87010E+01 0.00000E+00
 -1      1445 1.22400E+02 4.87010E+01 0.00000E+00
 -1      1446 1.20150E+02 4.74020E+01 0.00000E+00
 -1      1447 1.23900E+02 4.87010E+01 0.00000E+00
 -1      1448 1.25400E+02 4.87010E+01 0.00000E+00
 -1      1449 1.23150E+02 4.74020E+01 0.00000E+00
 -1      1450 1.26900E+02 4.87010E+01 0.00000E+00
 -1      1451 1.28400E+02 4.87010E+01 0.00000E+00
 -1      1452 1.26150E+02 4.74020E+01 0.00000E+00
 -1      1453 1.29900E+02 4.87010E+01 0.00000E+00
 -1      1454 1.31400E+02 4.87010E+01 0.00000E+00
 -1      1455 1.29150E+02 4.74020E+01 0.00000E+00
 -1      1456 1.32900E+02 4.87010E+01 0.00000E+00
 -1      1457 1.34400E+02 4.87010E+01 0.00000E+00
 -1      1458 1.32150E+02 4.74020E+01 0.00000E+00
 -1      1459 1.35900E+02 4.87010E+01 0.00000E+00
 -1      1460 1.37400E+02 4.87010E+01 0.00000E+00
 -1      1461 1.35150E+02 4.74020E+01 0.00000E+00
 -1      1462 1.38900E+02 4.87010E+01 0.00000E+00
 -1      1463 1.40400E+02 4.87010E+01 0.00000E+00
 -1      1464 1.38150E+02 4.74020E+01 0.00000E+00
 -1      1465 1.41900E+02 4.87010E+01 0.00000E+00
 -1      1466 1.43400E+02 4.87010E+01 0.00000E+00
 -1      1467 1.41150E+02 4.74020E+01 0.00000E+00
 -1      1468 1.44900E+02 4.87010E+01 0.00000E+00
 -1      1469 1.46400E+02 4.87010E+01 0.00000E+00
 -1      1470 1.44150E+02 4.74020E+01 0.00000E+00
 -1      1471 1.48575E+02 4.85500E+01 0.00000E+00
 -1      1472 1.47825E+02 4.72510E+01 0.00000E+00
 -1      1473 6.01200E+00 1.09375E+00 0.00000E+00
 -1      1474 4.51200E+00 1.09375E+00 0.00000E+00
 -1      1475 4.37400E+00 2.18750E+00 0.00000E+00
 -1      1476 9.01200E+00 1.09375E+00 0.00000E+00
 -1      1477 7.51200E+00 1.09375E+00 0.00000E+00
 -1      1478 7.37400E+00 2.18750E+00 0.00000E+00
 -1      1479 1.20120E+01 1.09375E+00 0.00000E+00
 -1      1480 1.05120E+01 1.09375E+00 0.00000E+00
 -1      1481 1.03740E+01 2.18750E+00 0.00000E+00
 -1      1482 1.50120E+01 1.09375E+00 0.00000E+00
 -1      1483 1.35120E+01 1.09375E+00 0.00000E+00
 -1      1484 1.33740E+01 2.18750E+00 0.00000E+00
 -1      1485 1.80120E+01 1.09375E+00 0.00000E+00
 -1      1486 1.65120E+01 1.09375E+00 0.00000E+00
 -1      1487 1.63740E+01 2.18750E+00 0.00000E+00
 -1      1488 2.10120E+01 1.09375E+00 0.00000E+00
 -1      1489 1.95120E+01 1.09375E+00 0.00000E+00
 -1      1490 1.93740E+01 2.18750E+00 0.00000E+00
 -1      1491 2.40120E+01 1.09375E+00 0.00000E+00
 -1      1492 2.25120E+01 1.09375E+00 0.00000E+00
 -1      1493 2.23740E+01 2.18750E+00 0.00000E+00
 -1      1494 2.70120E+01 1.09375E+00 0.00000E+00
 -1      1495 2.55120E+01 1.09375E+00 0.00000E+00
 -1      1496 2.53740E+01 2.18750E+00 0.00000E+00
 -1      1497 3.00120E+01 1.09375E+00 0.00000E+00
 -1      1498 2.85120E+01 1.09375E+00 0.00000E+00
 -1      1499 2.83740E+01 2.18750E+00 0.00000E+00
 -1      1500 3.30120E+01 1.09375E+00 0.00000E+00
 -1      1501 3.15120E+01 1.09375E+00 0.00000E+00
 -1      1502 3.13740E+01 2.18750E+00 0.00000E+00
 -1      1503 3.60120E+01 1.09375E+00 0.00000E+00
 -1      1504 3.45120E+01 1.09375E+00 0.00000E+00
 -1      1505 3.43740E+01 2.18750E+00 0.00000E+00
 -1      1506 3.90120E+01 1.09375E+00 0.00000E+00
 -1      1507 3.75120E+01 1.09375E+00 0.00000E+00
 -1      1508 3.73740E+01 2.18750E+00 0.00000E+00
 -1      1509 4.20120E+01 1.09375E+00 0.00000E+00
 -1      1510 4.05120E+01 1.09375E+00 0.00000E+00
 -1      1511 4.03740E+01 2.18750E+00 0.00000E+00
 -1      1512 4.50120E+01 1.09375E+00 0.00000E+00
 -1      1513 4.35120E+01 1.09375E+00 0.00000E+00
 -1      1514 4.33740E+01 2.18750E+00 0.00000E+00
 -1      1515 4.80120E+01 1.09375E+00 0.00000E+00
 -1      1516 4.65120E+01 1.09375E+00 0.00000E+00
 -1      1517 4.63740E+01 2.18750E+00 0.00000E+00
 -1      1518 5.10120E+01 1.09375E+00 0.00000E+00
 -1      1519 4.95120E+01 1.09375E+00 0.00000E+00
 -1      1520 4.93740E+01 2.18750E+00 0.00000E+00
 -1      1521 5.40120E+01 1.09375E+00 0.00000E+00
 -1      1522 5.25120E+01 1.09375E+00 0.00000E+00
 -1      1523 5.23740E+01 2.18750E+00 0.00000E+00
 -1      1524 5.70120E+01 1.09375E+00 0.00000E+00
 -1      1525 5.55120E+01 1.09375E+00 0.00000E+00
 -1      1526 5.53740E+01 2.18750E+00 0.00000E+00
 -1      1527 6.00120E+01 1.09375E+00 0.00000E+00
 -1      1528 5.85120E+01 1.09375E+00 0.00000E+00
 -1      1529 5.83740E+01 2.18750E+00 0.00000E+00
 -1      1530 6.30120E+01 1.09375E+00 0.00000E+00
 -1      1531 6.15120E+01 1.09375E+00 0.00000E+00
 -1      1532 6.13740E+01 2.18750E+00 0.00000E+00
 -1      1533 6.60120E+01 1.09375E+00 0.00000E+00
 -1      1534 6.45120E+01 1.09375E+00 0.00000E+00
 -1      1535 6.43740E+01 2.18750E+00 0.00000E+00
 -1      1536 6.90120E+01 1.09375E+00 0.00000E+00
 -1      1537 6.75120E+01 1.09375E+00 0.00000E+00
 -1      1538 6.73740E+01 2.18750E+00 0.00000E+00
 -1      1539 7.20120E+01 1.09375E+00 0.00000E+00
 -1      1540 7.05120E+01 1.09375E+00 0.00000E+00
 -1      1541 7.03740E+01 2.18750E+00 0.00000E+00
 -1      1542 7.50120E+01 1.09375E+00 0.00000E+00
 -1      1543 7.35120E+01 1.09375E+00 0.00000E+00
 -1      1544 7.33740E+01 2.18750E+00 0.00000E+00
 -1      1545 7.80120E+01 1.09375E+00 0.00000E+00
 -1      1546 7.65120E+01 1.09375E+00 0.00000E+00
 -1      1547 7.63740E+01 2.18750E+00 0.00000E+00
 -1      1548 8.10120E+01 1.09375E+00 0.00000E+00
 -1      1549 7.95120E+01 1.09375E+00 0.00000E+00
 -1      1550 7.93740E+01 2.18750E+00 0.00000E+00
 -1      1551 8.40120E+01 1.09375E+00 0.00000E+00
 -1      1552 8.25120E+01 1.09375E+00 0.00000E+00
 -1      1553 8.23740E+01 2.18750E+00 0.00000E+00
 -1      1554 8.70120E+01 1.09375E+00 0.00000E+00
 -1      1555 8.55120E+01 1.09375E+00 0.00000E+00
 -1      1556 8.53740E+01 2.18750E+00 0.00000E+00
 -1      1557 9.00120E+01 1.09375E+00 0.00000E+00
 -1      1558 8.85120E+01 1.09375E+00 0.00000E+00
 -1      1559 8.83740E+01 2.18750E+00 0.00000E+00
 -1      1560 9.30120E+01 1.09375E+00 0.00000E+00
 -1      1561 9.15120E+01 1.09375E+00 0.00000E+00
 -1      1562 9.13740E+01 2.18750E+00 0.00000E+00
 -1      1563 9.60120E+01 1.09375E+00 0.00000E+00
 -1      1564 9.45120E+01 1.09375E+00 0.00000E+00
 -1      1565 9.43740E+01 2.18750E+00 0.00000E+00
 -1      1566 9.90120E+01 1.09375E+00 0.00000E+00
 -1      1567 9.75120E+01 1.09375E+00 0.00000E+00
 -1      1568 9.73740E+01 2.18750E+00 0.00000E+00
 -1      1569 1.02012E+02 1.09375E+00 0.00000E+00
 -1      1570 1.00512E+02 1.09375E+00 0.00000E+00
 -1      1571 1.00374E+02 2.18750E+00 0.00000E+00
 -1      1572 1.05012E+02 1.09375E+00 0.00000E+00
 -1      1573 1.03512E+02 1.09375E+00 0.00000E+00
 -1      1574 1.03374E+02 2.18750E+00 0.00000E+00
 -1      1575 1.08012E+02 1.09375E+00 0.00000E+00
 -1      1576 1.06512E+02 1.09375E+00 0.00000E+00
 -1      1577 1.06374E+02 2.18750E+00 0.00000E+00
 -1      1578 1.11012E+02 1.09375E+00 0.00000E+00
 -1      1579 1.09512E+02 1.09375E+00 0.00000E+00
 -1      1580 1.09374E+02 2.18750E+00 0.00000E+00
 -1      1581 1.14012E+02 1.09375E+00 0.00000E+00
 -1      1582 1.12512E+02 1.09375E+00 0.00000E+00
 -1      1583 1.12374E+02 2.18750E+00 0.00000E+00
 -1      1584 1.17012E+02 1.09375E+00 0.00000E+00
 -1      1585 1.15512E+02 1.09375E+00 0.00000E+00
 -1      1586 1.15374E+02 2.18750E+00 0.00000E+00
 -1      1587 1.20012E+02 1.09375E+00 0.00000E+00
 -1      1588 1.18512E+02 1.09375E+00 0.00000E+00
 -1      1589 1.18374E+02 2.18750E+00 0.00000E+00
 -1      1590 1.23012E+02 1.09375E+00 0.00000E+00
 -1      1591 1.21512E+02 1.09375E+00 0.00000E+00
 -1      1592 1.21374E+02 2.18750E+00 0.00000E+00
 -1      1593 1.26012E+02 1.09375E+00 0.00000E+00
 -1      1594 1.24512E+02 1.09375E+00 0.00000E+00
 -1      1595 1.24374E+02 2.18750E+00 0.00000E+00
 -1      1596 1.29012E+02 1.09375E+00 0.00000E+00
 -1      1597 1.27512E+02 1.09375E+00 0.00000E+00
 -1      1598 1.27374E+02 2.18750E+00 0.00000E+00
 -1      1599 1.32012E+02 1.09375E+00 0.00000E+00
 -1      1600 1.30512E+02 1.09375E+00 0.00000E+00
 -1      1601 1.30374E+02 2.18750E+00 0.00000E+00
 -1      1602 1.35012E+02 1.09375E+00 0.00000E+00
 -1      1603 1.33512E+02 1.09375E+00 0.00000E+00
 -1      1604 1.33374E+02 2.18750E+00 0.00000E+00
 -1      1605 1.38012E+02 1.09375E+00 0.00000E+00
 -1      1606 1.36512E+02 1.09375E+00 0.00000E+00
 -1      1607 1.36374E+02 2.18750E+00 0.00000E+00
 -1      1608 1.41012E+02 1.09375E+00 0.00000E+00
 -1      1609 1.39512E+02 1.09375E+00 0.00000E+00
 -1      1610 1.39374E+02 2.18750E+00 0.00000E+00
 -1      1611 1.44012E+02 1.09375E+00 0.00000E+00
 -1      1612 1.42512E+02 1.09375E+00 0.00000E+00
 -1      1613 1.42374E+02 2.18750E+00 0.00000E+00
 -1      1614 1.47012E+02 1.09375E+00 0.00000E+00
 -1      1615 1.45512E+02 1.09375E+00 0.00000E+00
 -1      1616 1.45374E+02 2.18750E+00 0.00000E+00
 -1      1617 1.48575E+02 1.47500E+00 0.00000E+00
 -1      1618 1.48701E+02 5.16250E+00 0.00000E+00
 -1      1619 1.48701E+02 3.68750E+00 0.00000E+00
 -1      1620 1.48701E+02 8.11250E+00 0.00000E+00
 -1      1621 1.48701E+02 6.63750E+00 0.00000E+00
 -1      1622 1.47402E+02 5.90000E+00 0.00000E+00
 -1      1623 1.48701E+02 1.10625E+01 0.00000E+00
 -1      1624 1.48701E+02 9.58750E+00 0.00000E+00
 -1      1625 1.47402E+02 8.85000E+00 0.00000E+00
 -1      1626 1.48701E+02 1.40125E+01 0.00000E+00
 -1      1627 1.48701E+02 1.25375E+01 0.00000E+00
 -1      1628 1.47402E+02 1.18000E+01 0.00000E+00
 -1      1629 1.48701E+02 1.69125E+01 0.00000E+00
 -1      1630 1.48701E+02 1.54625E+01 0.00000E+00
 -1      1631 1.47402E+02 1.47250E+01 0.00000E+00
 -1      1632 1.48701E+02 1.98625E+01 0.00000E+00
 -1      1633 1.48701E+02 1.83875E+01 0.00000E+00
 -1      1634 1.47402E+02 1.76500E+01 0.00000E+00
 -1      1635 1.48701E+02 2.28125E+01 0.00000E+00
 -1      1636 1.48701E+02 2.13375E+01 0.00000E+00
 -1      1637 1.47402E+02 2.06000E+01 0.00000E+00
 -1      1638 1.48701E+02 2.57625E+01 0.00000E+00
 -1      1639 1.48701E+02 2.42875E+01 0.00000E+00
 -1      1640 1.47402E+02 2.35500E+01 0.00000E+00
 -1      1641 1.48701E+02 2.87125E+01 0.00000E+00
 -1      1642 1.48701E+02 2.72375E+01 0.00000E+00
 -1      1643 1.47402E+02 2.65000E+01 0.00000E+00
 -1      1644 1.48701E+02 3.16625E+01 0.00000E+00
 -1      1645 1.48701E+02 3.01875E+01 0.00000E+00
 -1      1646 1.47402E+02 2.94500E+01 0.00000E+00
 -1      1647 1.48701E+02 3.45625E+01 0.00000E+00
 -1      1648 1.48701E+02 3.31125E+01 0.00000E+00
 -1      1649 1.47402E+02 3.23750E+01 0.00000E+00
 -1      1650 1.48701E+02 3.75125E+01 0.00000E+00
 -1      1651 1.48701E+02 3.60375E+01 0.00000E+00
 -1      1652 1.47402E+02 3.53000E+01 0.00000E+00
 -1      1653 1.48701E+02 4.04625E+01 0.00000E+00
 -1      1654 1.48701E+02 3.89875E+01 0.00000E+00
 -1      1655 1.47402E+02 3.82500E+01 0.00000E+00
 -1      1656 1.48701E+02 4.34125E+01 0.00000E+00
 -1      1657 1.48701E+02 4.19375E+01 0.00000E+00
 -1      1658 1.47402E+02 4.12000E+01 0.00000E+00
 -1      1659 1.48263E+02 4.60692E+01 0.00000E+00
 -1      1660 1.48263E+02 4.45942E+01 0.00000E+00
 -1      1661 1.46964E+02 4.38568E+01 0.00000E+00
 -1      1662 1.46088E+02 4.62202E+01 0.00000E+00
 -1      1663 1.27300E+02 2.62601E+01 0.00000E+00
 -1      1664 1.27382E+02 2.70128E+01 0.00000E+00
 -1      1665 1.26861E+02 2.47596E+01 0.00000E+00
 -1      1666 1.27081E+02 2.54295E+01 0.00000E+00
 -1      1667 1.26187E+02 2.31980E+01 0.00000E+00
 -1      1668 1.26599E+02 2.38936E+01 0.00000E+00
 -1      1669 1.24975E+02 2.19512E+01 0.00000E+00
 -1      1670 1.25518E+02 2.25198E+01 0.00000E+00
 -1      1671 1.23629E+02 2.08442E+01 0.00000E+00
 -1      1672 1.24305E+02 2.12870E+01 0.00000E+00
 -1      1673 1.22109E+02 2.02060E+01 0.00000E+00
 -1      1674 1.22797E+02 2.04642E+01 0.00000E+00
 -1      1675 1.20525E+02 1.98786E+01 0.00000E+00
 -1      1676 1.21263E+02 1.99880E+01 0.00000E+00
 -1      1677 1.18852E+02 1.98590E+01 0.00000E+00
 -1      1678 1.19625E+02 1.98042E+01 0.00000E+00
 -1      1679 1.17151E+02 2.01801E+01 0.00000E+00
 -1      1680 1.17909E+02 1.99496E+01 0.00000E+00
 -1      1681 1.15683E+02 2.10384E+01 0.00000E+00
 -1      1682 1.16346E+02 2.06612E+01 0.00000E+00
 -1      1683 1.14434E+02 2.20906E+01 0.00000E+00
 -1      1684 1.14989E+02 2.15902E+01 0.00000E+00
 -1      1685 1.13329E+02 2.33329E+01 0.00000E+00
 -1      1686 1.13777E+02 2.27045E+01 0.00000E+00
 -1      1687 1.12576E+02 2.48664E+01 0.00000E+00
 -1      1688 1.12879E+02 2.41428E+01 0.00000E+00
 -1      1689 1.12227E+02 2.64520E+01 0.00000E+00
 -1      1690 1.12357E+02 2.57363E+01 0.00000E+00
 -1      1691 1.12073E+02 2.81638E+01 0.00000E+00
 -1      1692 1.12042E+02 2.73588E+01 0.00000E+00
 -1      1693 1.12528E+02 2.97918E+01 0.00000E+00
 -1      1694 1.12334E+02 2.90665E+01 0.00000E+00
 -1      1695 1.13224E+02 3.12568E+01 0.00000E+00
 -1      1696 1.12883E+02 3.05952E+01 0.00000E+00
 -1      1697 1.14182E+02 3.25638E+01 0.00000E+00
 -1      1698 1.13704E+02 3.19851E+01 0.00000E+00
 -1      1699 1.15362E+02 3.36165E+01 0.00000E+00
 -1      1700 1.14795E+02 3.31672E+01 0.00000E+00
 -1      1701 1.16752E+02 3.44488E+01 0.00000E+00
 -1      1702 1.16075E+02 3.41144E+01 0.00000E+00
 -1      1703 1.18298E+02 3.48898E+01 0.00000E+00
 -1      1704 1.17587E+02 3.47118E+01 0.00000E+00
 -1      1705 1.19837E+02 3.50378E+01 0.00000E+00
 -1      1706 1.19131E+02 3.50102E+01 0.00000E+00
 -1      1707 1.21458E+02 3.48876E+01 0.00000E+00
 -1      1708 1.20702E+02 3.50187E+01 0.00000E+00
 -1      1709 1.22996E+02 3.43173E+01 0.00000E+00
 -1      1710 1.22302E+02 3.46020E+01 0.00000E+00
 -1      1711 1.24396E+02 3.35186E+01 0.00000E+00
 -1      1712 1.23786E+02 3.39383E+01 0.00000E+00
 -1      1713 1.25682E+02 3.23844E+01 0.00000E+00
 -1      1714 1.25136E+02 3.29724E+01 0.00000E+00
 -1      1715 1.26537E+02 3.09545E+01 0.00000E+00
 -1      1716 1.26164E+02 3.15981E+01 0.00000E+00
 -1      1717 1.27081E+02 2.94868E+01 0.00000E+00
 -1      1718 1.26859E+02 3.01629E+01 0.00000E+00
 -1      1719 1.27374E+02 2.79032E+01 0.00000E+00
 -1      1720 1.27293E+02 2.86532E+01 0.00000E+00
 -1      1721 1.25015E+02 2.11526E+01 0.00000E+00
 -1      1722 1.26354E+02 2.24949E+01 0.00000E+00
 -1      1723 1.48437E+02 2.56875E+00 0.00000E+00
 -1      1724 1.47138E+02 3.30625E+00 0.00000E+00
 -1      1725 1.27766E+02 2.57358E+01 0.00000E+00
 -1      1726 1.27285E+02 2.40391E+01 0.00000E+00
 -1      1727 1.27977E+02 2.74567E+01 0.00000E+00
 -1      1728 1.23513E+02 2.01084E+01 0.00000E+00
 -1      1729 1.21835E+02 1.95103E+01 0.00000E+00
 -1      1730 1.20089E+02 1.92177E+01 0.00000E+00
 -1      1731 1.18247E+02 1.92339E+01 0.00000E+00
 -1      1732 1.16499E+02 1.98056E+01 0.00000E+00
 -1      1733 1.15000E+02 2.08384E+01 0.00000E+00
 -1      1734 1.13649E+02 2.20042E+01 0.00000E+00
 -1      1735 1.12541E+02 2.34280E+01 0.00000E+00
 -1      1736 1.11873E+02 2.51079E+01 0.00000E+00
 -1      1737 1.11470E+02 2.68847E+01 0.00000E+00
 -1      1738 1.11545E+02 2.86942E+01 0.00000E+00
 -1      1739 1.12160E+02 3.04003E+01 0.00000E+00
 -1      1740 1.12995E+02 3.19320E+01 0.00000E+00
 -1      1741 1.14089E+02 3.32636E+01 0.00000E+00
 -1      1742 1.15415E+02 3.43649E+01 0.00000E+00
 -1      1743 1.16961E+02 3.51258E+01 0.00000E+00
 -1      1744 1.18628E+02 3.55093E+01 0.00000E+00
 -1      1745 1.20326E+02 3.56107E+01 0.00000E+00
 -1      1746 1.22035E+02 3.53061E+01 0.00000E+00
 -1      1747 1.23669E+02 3.46415E+01 0.00000E+00
 -1      1748 1.25199E+02 3.37162E+01 0.00000E+00
 -1      1749 1.26421E+02 3.23837E+01 0.00000E+00
 -1      1750 1.27224E+02 3.08058E+01 0.00000E+00
 -1      1751 1.27757E+02 2.91807E+01 0.00000E+00
 -1      1752 2.87400E+00 4.77875E+01 0.00000E+00
 -1      1753 3.89700E+00 4.04125E+01 0.00000E+00
 -1      1754 3.89700E+00 4.18875E+01 0.00000E+00
 -1      1755 3.89700E+00 4.33625E+01 0.00000E+00
 -1      1756 3.89700E+00 4.48375E+01 0.00000E+00
 -1      1757 5.19600E+00 4.26250E+01 0.00000E+00
 -1      1758 3.89700E+00 3.45500E+01 0.00000E+00
 -1      1759 3.89700E+00 3.60000E+01 0.00000E+00
 -1      1760 3.89700E+00 3.16000E+01 0.00000E+00
 -1      1761 3.89700E+00 3.30750E+01 0.00000E+00
 -1      1762 5.19600E+00 3.38000E+01 0.00000E+00
 -1      1763 3.89700E+00 2.86500E+01 0.00000E+00
 -1      1764 3.89700E+00 3.01250E+01 0.00000E+00
 -1      1765 5.19600E+00 3.08500E+01 0.00000E+00
 -1      1766 3.89700E+00 2.57000E+01 0.00000E+00
 -1      1767 3.89700E+00 2.71750E+01 0.00000E+00
 -1      1768 5.19600E+00 2.79000E+01 0.00000E+00
 -1      1769 3.89700E+00 2.27500E+01 0.00000E+00
 -1      1770 3.89700E+00 2.42250E+01 0.00000E+00
 -1      1771 5.19600E+00 2.49500E+01 0.00000E+00
 -1      1772 3.89700E+00 1.98000E+01 0.00000E+00
 -1      1773 3.89700E+00 2.12750E+01 0.00000E+00
 -1      1774 5.19600E+00 2.20000E+01 0.00000E+00
 -1      1775 3.89700E+00 1.69000E+01 0.00000E+00
 -1      1776 3.89700E+00 1.83500E+01 0.00000E+00
 -1      1777 5.19600E+00 1.90750E+01 0.00000E+00
 -1      1778 3.89700E+00 1.39500E+01 0.00000E+00
 -1      1779 3.89700E+00 1.54250E+01 0.00000E+00
 -1      1780 5.19600E+00 1.61500E+01 0.00000E+00
 -1      1781 3.89700E+00 1.10000E+01 0.00000E+00
 -1      1782 3.89700E+00 1.24750E+01 0.00000E+00
 -1      1783 5.19600E+00 1.32000E+01 0.00000E+00
 -1      1784 3.89700E+00 8.05000E+00 0.00000E+00
 -1      1785 3.89700E+00 9.52500E+00 0.00000E+00
 -1      1786 5.19600E+00 1.02500E+01 0.00000E+00
 -1      1787 3.89700E+00 5.10000E+00 0.00000E+00
 -1      1788 3.89700E+00 6.57500E+00 0.00000E+00
 -1      1789 5.19600E+00 7.30000E+00 0.00000E+00
 -1      1790 4.20450E+00 3.09687E+00 0.00000E+00
 -1      1791 4.06650E+00 4.19063E+00 0.00000E+00
 -1      1792 5.36550E+00 4.91563E+00 0.00000E+00
 -1      1793 5.70450E+00 3.09687E+00 0.00000E+00
 -1      1794 3.62400E+00 4.64885E+01 0.00000E+00
 -1      1795 8.70450E+00 3.09687E+00 0.00000E+00
 -1      1796 7.20450E+00 3.09687E+00 0.00000E+00
 -1      1797 7.03500E+00 4.00625E+00 0.00000E+00
 -1      1798 4.92300E+00 4.57510E+01 0.00000E+00
 -1      1799 8.40000E+00 4.61030E+01 0.00000E+00
 -1      1800 9.90000E+00 4.61030E+01 0.00000E+00
 -1      1801 1.14000E+01 4.61030E+01 0.00000E+00
 -1      1802 1.29000E+01 4.61030E+01 0.00000E+00
 -1      1803 1.06500E+01 4.48040E+01 0.00000E+00
 -1      1804 1.44000E+01 4.61030E+01 0.00000E+00
 -1      1805 1.59000E+01 4.61030E+01 0.00000E+00
 -1      1806 1.36500E+01 4.48040E+01 0.00000E+00
 -1      1807 1.74000E+01 4.61030E+01 0.00000E+00
 -1      1808 1.89000E+01 4.61030E+01 0.00000E+00
 -1      1809 1.66500E+01 4.48040E+01 0.00000E+00
 -1      1810 2.04000E+01 4.61030E+01 0.00000E+00
 -1      1811 2.19000E+01 4.61030E+01 0.00000E+00
 -1      1812 1.96500E+01 4.48040E+01 0.00000E+00
 -1      1813 2.34000E+01 4.61030E+01 0.00000E+00
 -1      1814 2.49000E+01 4.61030E+01 0.00000E+00
 -1      1815 2.26500E+01 4.48040E+01 0.00000E+00
 -1      1816 2.64000E+01 4.61030E+01 0.00000E+00
 -1      1817 2.79000E+01 4.61030E+01 0.00000E+00
 -1      1818 2.56500E+01 4.48040E+01 0.00000E+00
 -1      1819 2.94000E+01 4.61030E+01 0.00000E+00
 -1      1820 3.09000E+01 4.61030E+01 0.00000E+00
 -1      1821 2.86500E+01 4.48040E+01 0.00000E+00
 -1      1822 3.24000E+01 4.61030E+01 0.00000E+00
 -1      1823 3.39000E+01 4.61030E+01 0.00000E+00
 -1      1824 3.16500E+01 4.48040E+01 0.00000E+00
 -1      1825 3.54000E+01 4.61030E+01 0.00000E+00
 -1      1826 3.69000E+01 4.61030E+01 0.00000E+00
 -1      1827 3.46500E+01 4.48040E+01 0.00000E+00
 -1      1828 3.84000E+01 4.61030E+01 0.00000E+00
 -1      1829 3.99000E+01 4.61030E+01 0.00000E+00
 -1      1830 3.76500E+01 4.48040E+01 0.00000E+00
 -1      1831 4.14000E+01 4.61030E+01 0.00000E+00
 -1      1832 4.29000E+01 4.61030E+01 0.00000E+00
 -1      1833 4.06500E+01 4.48040E+01 0.00000E+00
 -1      1834 4.44000E+01 4.61030E+01 0.00000E+00
 -1      1835 4.59000E+01 4.61030E+01 0.00000E+00
 -1      1836 4.36500E+01 4.48040E+01 0.00000E+00
 -1      1837 4.74000E+01 4.61030E+01 0.00000E+00
 -1      1838 4.89000E+01 4.61030E+01 0.00000E+00
 -1      1839 4.66500E+01 4.48040E+01 0.00000E+00
 -1      1840 5.04000E+01 4.61030E+01 0.00000E+00
 -1      1841 5.19000E+01 4.61030E+01 0.00000E+00
 -1      1842 4.96500E+01 4.48040E+01 0.00000E+00
 -1      1843 5.34000E+01 4.61030E+01 0.00000E+00
 -1      1844 5.49000E+01 4.61030E+01 0.00000E+00
 -1      1845 5.26500E+01 4.48040E+01 0.00000E+00
 -1      1846 5.64000E+01 4.61030E+01 0.00000E+00
 -1      1847 5.79000E+01 4.61030E+01 0.00000E+00
 -1      1848 5.56500E+01 4.48040E+01 0.00000E+00
 -1      1849 5.94000E+01 4.61030E+01 0.00000E+00
 -1      1850 6.09000E+01 4.61030E+01 0.00000E+00
 -1      1851 5.86500E+01 4.48040E+01 0.00000E+00
 -1      1852 6.24000E+01 4.61030E+01 0.00000E+00
 -1      1853 6.39000E+01 4.61030E+01 0.00000E+00
 -1      1854 6.16500E+01 4.48040E+01 0.00000E+00
 -1      1855 6.54000E+01 4.61030E+01 0.00000E+00
 -1      1856 6.69000E+01 4.61030E+01 0.00000E+00
 -1      1857 6.46500E+01 4.48040E+01 0.00000E+00
 -1      1858 6.84000E+01 4.61030E+01 0.00000E+00
 -1      1859 6.99000E+01 4.61030E+01 0.00000E+00
 -1      1860 6.76500E+01 4.48040E+01 0.00000E+00
 -1      1861 7.14000E+01 4.61030E+01 0.00000E+00
 -1      1862 7.29000E+01 4.61030E+01 0.00000E+00
 -1      1863 7.06500E+01 4.48040E+01 0.00000E+00
 -1      1864 7.44000E+01 4.61030E+01 0.00000E+00
 -1      1865 7.59000E+01 4.61030E+01 0.00000E+00
 -1      1866 7.36500E+01 4.48040E+01 0.00000E+00
 -1      1867 7.74000E+01 4.61030E+01 0.00000E+00
 -1      1868 7.89000E+01 4.61030E+01 0.00000E+00
 -1      1869 7.66500E+01 4.48040E+01 0.00000E+00
 -1      1870 8.04000E+01 4.61030E+01 0.00000E+00
 -1      1871 8.19000E+01 4.61030E+01 0.00000E+00
 -1      1872 7.96500E+01 4.48040E+01 0.00000E+00
 -1      1873 8.34000E+01 4.61030E+01 0.00000E+00
 -1      1874 8.49000E+01 4.61030E+01 0.00000E+00
 -1      1875 8.26500E+01 4.48040E+01 0.00000E+00
 -1      1876 8.64000E+01 4.61030E+01 0.00000E+00
 -1      1877 8.79000E+01 4.61030E+01 0.00000E+00
 -1      1878 8.56500E+01 4.48040E+01 0.00000E+00
 -1      1879 8.94000E+01 4.61030E+01 0.00000E+00
 -1      1880 9.09000E+01 4.61030E+01 0.00000E+00
 -1      1881 8.86500E+01 4.48040E+01 0.00000E+00
 -1      1882 9.24000E+01 4.61030E+01 0.00000E+00
 -1      1883 9.39000E+01 4.61030E+01 0.00000E+00
 -1      1884 9.16500E+01 4.48040E+01 0.00000E+00
 -1      1885 9.54000E+01 4.61030E+01 0.00000E+00
 -1      1886 9.69000E+01 4.61030E+01 0.00000E+00
 -1      1887 9.46500E+01 4.48040E+01 0.00000E+00
 -1      1888 9.84000E+01 4.61030E+01 0.00000E+00
 -1      1889 9.99000E+01 4.61030E+01 0.00000E+00
 -1      1890 9.76500E+01 4.48040E+01 0.00000E+00
 -1      1891 1.01400E+02 4.61030E+01 0.00000E+00
 -1      1892 1.02900E+02 4.61030E+01 0.00000E+00
 -1      1893 1.00650E+02 4.48040E+01 0.00000E+00
 -1      1894 1.04400E+02 4.61030E+01 0.00000E+00
 -1      1895 1.05900E+02 4.61030E+01 0.00000E+00
 -1      1896 1.03650E+02 4.48040E+01 0.00000E+00
 -1      1897 1.07400E+02 4.61030E+01 0.00000E+00
 -1      1898 1.08900E+02 4.61030E+01 0.00000E+00
 -1      1899 1.06650E+02 4.48040E+01 0.00000E+00
 -1      1900 1.10400E+02 4.61030E+01 0.00000E+00
 -1      1901 1.11900E+02 4.61030E+01 0.00000E+00
 -1      1902 1.09650E+02 4.48040E+01 0.00000E+00
 -1      1903 1.13400E+02 4.61030E+01 0.00000E+00
 -1      1904 1.14900E+02 4.61030E+01 0.00000E+00
 -1      1905 1.12650E+02 4.48040E+01 0.00000E+00
 -1      1906 1.16400E+02 4.61030E+01 0.00000E+00
 -1      1907 1.17900E+02 4.61030E+01 0.00000E+00
 -1      1908 1.15650E+02 4.48040E+01 0.00000E+00
 -1      1909 1.19400E+02 4.61030E+01 0.00000E+00
 -1      1910 1.20900E+02 4.61030E+01 0.00000E+00
 -1      1911 1.18650E+02 4.48040E+01 0.00000E+00
 -1      1912 1.22400E+02 4.61030E+01 0.00000E+00
 -1      1913 1.23900E+02 4.61030E+01 0.00000E+00
 -1      1914 1.21650E+02 4.48040E+01 0.00000E+00
 -1      1915 1.25400E+02 4.61030E+01 0.00000E+00
 -1      1916 1.26900E+02 4.61030E+01 0.00000E+00
 -1      1917 1.24650E+02 4.48040E+01 0.00000E+00
 -1      1918 1.28400E+02 4.61030E+01 0.00000E+00
 -1      1919 1.29900E+02 4.61030E+01 0.00000E+00
 -1      1920 1.27650E+02 4.48040E+01 0.00000E+00
 -1      1921 1.31400E+02 4.61030E+01 0.00000E+00
 -1      1922 1.32900E+02 4.61030E+01 0.00000E+00
 -1      1923 1.30650E+02 4.48040E+01 0.00000E+00
 -1      1924 1.34400E+02 4.61030E+01 0.00000E+00
 -1      1925 1.35900E+02 4.61030E+01 0.00000E+00
 -1      1926 1.33650E+02 4.48040E+01 0.00000E+00
 -1      1927 1.37400E+02 4.61030E+01 0.00000E+00
 -1      1928 1.38900E+02 4.61030E+01 0.00000E+00
 -1      1929 1.36650E+02 4.48040E+01 0.00000E+00
 -1      1930 1.40400E+02 4.61030E+01 0.00000E+00
 -1      1931 1.41900E+02 4.61030E+01 0.00000E+00
 -1      1932 1.39650E+02 4.48040E+01 0.00000E+00
 -1      1933 1.43244E+02 4.61616E+01 0.00000E+00
 -1      1934 1.44744E+02 4.61616E+01 0.00000E+00
 -1      1935 1.45182E+02 4.49799E+01 0.00000E+00
 -1      1936 1.42494E+02 4.48626E+01 0.00000E+00
 -1      1937 1.17045E+01 3.09687E+00 0.00000E+00
 -1      1938 1.02045E+01 3.09687E+00 0.00000E+00
 -1      1939 1.00350E+01 4.00625E+00 0.00000E+00
 -1      1940 1.47045E+01 3.09687E+00 0.00000E+00
 -1      1941 1.32045E+01 3.09687E+00 0.00000E+00
 -1      1942 1.30350E+01 4.00625E+00 0.00000E+00
 -1      1943 1.77045E+01 3.09687E+00 0.00000E+00
 -1      1944 1.62045E+01 3.09687E+00 0.00000E+00
 -1      1945 1.60350E+01 4.00625E+00 0.00000E+00
 -1      1946 2.07045E+01 3.09687E+00 0.00000E+00
 -1      1947 1.92045E+01 3.09687E+00 0.00000E+00
 -1      1948 1.90350E+01 4.00625E+00 0.00000E+00
 -1      1949 2.37045E+01 3.09687E+00 0.00000E+00
 -1      1950 2.22045E+01 3.09687E+00 0.00000E+00
 -1      1951 2.20350E+01 4.00625E+00 0.00000E+00
 -1      1952 2.67045E+01 3.09687E+00 0.00000E+00
 -1      1953 2.52045E+01 3.09687E+00 0.00000E+00
 -1      1954 2.50350E+01 4.00625E+00 0.00000E+00
 -1      1955 2.97045E+01 3.09687E+00 0.00000E+00
 -1      1956 2.82045E+01 3.09687E+00 0.00000E+00
 -1      1957 2.80350E+01 4.00625E+00 0.00000E+00
 -1      1958 3.27045E+01 3.09687E+00 0.00000E+00
 -1      1959 3.12045E+01 3.09687E+00 0.00000E+00
 -1      1960 3.10350E+01 4.00625E+00 0.00000E+00
 -1      1961 3.57045E+01 3.09687E+00 0.00000E+00
 -1      1962 3.42045E+01 3.09687E+00 0.00000E+00
 -1      1963 3.40350E+01 4.00625E+00 0.00000E+00
 -1      1964 3.87045E+01 3.09687E+00 0.00000E+00
 -1      1965 3.72045E+01 3.09687E+00 0.00000E+00
 -1      1966 3.70350E+01 4.00625E+00 0.00000E+00
 -1      1967 4.17045E+01 3.09687E+00 0.00000E+00
 -1      1968 4.02045E+01 3.09687E+00 0.00000E+00
 -1      1969 4.00350E+01 4.00625E+00 0.00000E+00
 -1      1970 4.47045E+01 3.09687E+00 0.00000E+00
 -1      1971 4.32045E+01 3.09687E+00 0.00000E+00
 -1      1972 4.30350E+01 4.00625E+00 0.00000E+00
 -1      1973 4.77045E+01 3.09687E+00 0.00000E+00
 -1      1974 4.62045E+01 3.09687E+00 0.00000E+00
 -1      1975 4.60350E+01 4.00625E+00 0.00000E+00
 -1      1976 5.07045E+01 3.09687E+00 0.00000E+00
 -1      1977 4.92045E+01 3.09687E+00 0.00000E+00
 -1      1978 4.90350E+01 4.00625E+00 0.00000E+00
 -1      1979 5.37045E+01 3.09687E+00 0.00000E+00
 -1      1980 5.22045E+01 3.09687E+00 0.00000E+00
 -1      1981 5.20350E+01 4.00625E+00 0.00000E+00
 -1      1982 5.67045E+01 3.09687E+00 0.00000E+00
 -1      1983 5.52045E+01 3.09687E+00 0.00000E+00
 -1      1984 5.50350E+01 4.00625E+00 0.00000E+00
 -1      1985 5.97045E+01 3.09687E+00 0.00000E+00
 -1      1986 5.82045E+01 3.09687E+00 0.00000E+00
 -1      1987 5.80350E+01 4.00625E+00 0.00000E+00
 -1      1988 6.27045E+01 3.09687E+00 0.00000E+00
 -1      1989 6.12045E+01 3.09687E+00 0.00000E+00
 -1      1990 6.10350E+01 4.00625E+00 0.00000E+00
 -1      1991 6.57045E+01 3.09687E+00 0.00000E+00
 -1      1992 6.42045E+01 3.09687E+00 0.00000E+00
 -1      1993 6.40350E+01 4.00625E+00 0.00000E+00
 -1      1994 6.87045E+01 3.09687E+00 0.00000E+00
 -1      1995 6.72045E+01 3.09687E+00 0.00000E+00
 -1      1996 6.70350E+01 4.00625E+00 0.00000E+00
 -1      1997 7.17045E+01 3.09687E+00 0.00000E+00
 -1      1998 7.02045E+01 3.09687E+00 0.00000E+00
 -1      1999 7.00350E+01 4.00625E+00 0.00000E+00
 -1      2000 7.47045E+01 3.09687E+00 0.00000E+00
 -1      2001 7.32045E+01 3.09687E+00 0.00000E+00
 -1      2002 7.30350E+01 4.00625E+00 0.00000E+00
 -1      2003 7.77045E+01 3.09687E+00 0.00000E+00
 -1      2004 7.62045E+01 3.09687E+00 0.00000E+00
 -1      2005 7.60350E+01 4.00625E+00 0.00000E+00
 -1      2006 8.07045E+01 3.09687E+00 0.00000E+00
 -1      2007 7.92045E+01 3.09687E+00 0.00000E+00
 -1      2008 7.90350E+01 4.00625E+00 0.00000E+00
 -1      2009 8.37045E+01 3.09687E+00 0.00000E+00
 -1      2010 8.22045E+01 3.09687E+00 0.00000E+00
 -1      2011 8.20350E+01 4.00625E+00 0.00000E+00
 -1      2012 8.67045E+01 3.09687E+00 0.00000E+00
 -1      2013 8.52045E+01 3.09687E+00 0.00000E+00
 -1      2014 8.50350E+01 4.00625E+00 0.00000E+00
 -1      2015 8.97045E+01 3.09687E+00 0.00000E+00
 -1      2016 8.82045E+01 3.09687E+00 0.00000E+00
 -1      2017 8.80350E+01 4.00625E+00 0.00000E+00
 -1      2018 9.27045E+01 3.09687E+00 0.00000E+00
 -1      2019 9.12045E+01 3.09687E+00 0.00000E+00
 -1      2020 9.10350E+01 4.00625E+00 0.00000E+00
 -1      2021 9.57045E+01 3.09687E+00 0.00000E+00
 -1      2022 9.42045E+01 3.09687E+00 0.00000E+00
 -1      2023 9.40350E+01 4.00625E+00 0.00000E+00
 -1      2024 9.87045E+01 3.09687E+00 0.00000E+00
 -1      2025 9.72045E+01 3.09687E+00 0.00000E+00
 -1      2026 9.70350E+01 4.00625E+00 0.00000E+00
 -1      2027 1.01704E+02 3.09687E+00 0.00000E+00
 -1      2028 1.00204E+02 3.09687E+00 0.00000E+00
 -1      2029 1.00035E+02 4.00625E+00 0.00000E+00
 -1      2030 1.04704E+02 3.09687E+00 0.00000E+00
 -1      2031 1.03204E+02 3.09687E+00 0.00000E+00
 -1      2032 1.03035E+02 4.00625E+00 0.00000E+00
 -1      2033 1.07704E+02 3.09687E+00 0.00000E+00
 -1      2034 1.06204E+02 3.09687E+00 0.00000E+00
 -1      2035 1.06035E+02 4.00625E+00 0.00000E+00
 -1      2036 1.10704E+02 3.09687E+00 0.00000E+00
 -1      2037 1.09204E+02 3.09687E+00 0.00000E+00
 -1      2038 1.09035E+02 4.00625E+00 0.00000E+00
 -1      2039 1.13704E+02 3.09687E+00 0.00000E+00
 -1      2040 1.12204E+02 3.09687E+00 0.00000E+00
 -1      2041 1.12035E+02 4.00625E+00 0.00000E+00
 -1      2042 1.16704E+02 3.09687E+00 0.00000E+00
 -1      2043 1.15204E+02 3.09687E+00 0.00000E+00
 -1      2044 1.15035E+02 4.00625E+00 0.00000E+00
 -1      2045 1.19704E+02 3.09687E+00 0.00000E+00
 -1      2046 1.18204E+02 3.09687E+00 0.00000E+00
 -1      2047 1.18035E+02 4.00625E+00 0.00000E+00
 -1      2048 1.22704E+02 3.09687E+00 0.00000E+00
 -1      2049 1.21204E+02 3.09687E+00 0.00000E+00
 -1      2050 1.21035E+02 4.00625E+00 0.00000E+00
 -1      2051 1.25704E+02 3.09687E+00 0.00000E+00
 -1      2052 1.24204E+02 3.09687E+00 0.00000E+00
 -1      2053 1.24035E+02 4.00625E+00 0.00000E+00
 -1      2054 1.28704E+02 3.09687E+00 0.00000E+00
 -1      2055 1.27204E+02 3.09687E+00 0.00000E+00
 -1      2056 1.27035E+02 4.00625E+00 0.00000E+00
 -1      2057 1.31704E+02 3.09687E+00 0.00000E+00
 -1      2058 1.30204E+02 3.09687E+00 0.00000E+00
 -1      2059 1.30035E+02 4.00625E+00 0.00000E+00
 -1      2060 1.34704E+02 3.09687E+00 0.00000E+00
 -1      2061 1.33204E+02 3.09687E+00 0.00000E+00
 -1      2062 1.33035E+02 4.00625E+00 0.00000E+00
 -1      2063 1.37704E+02 3.09687E+00 0.00000E+00
 -1      2064 1.36204E+02 3.09687E+00 0.00000E+00
 -1      2065 1.36035E+02 4.00625E+00 0.00000E+00
 -1      2066 1.40704E+02 3.09687E+00 0.00000E+00
 -1      2067 1.39204E+02 3.09687E+00 0.00000E+00
 -1      2068 1.39035E+02 4.00625E+00 0.00000E+00
 -1      2069 1.43704E+02 3.09687E+00 0.00000E+00
 -1      2070 1.42204E+02 3.09687E+00 0.00000E+00
 -1      2071 1.42035E+02 4.00625E+00 0.00000E+00
 -1      2072 1.46171E+02 3.20156E+00 0.00000E+00
 -1      2073 1.44671E+02 3.20156E+00 0.00000E+00
 -1      2074 1.44502E+02 4.11094E+00 0.00000E+00
 -1      2075 1.46435E+02 4.32031E+00 0.00000E+00
 -1      2076 1.46103E+02 1.25375E+01 0.00000E+00
 -1      2077 1.46103E+02 1.10625E+01 0.00000E+00
 -1      2078 1.46103E+02 9.58750E+00 0.00000E+00
 -1      2079 1.46103E+02 8.11250E+00 0.00000E+00
 -1      2080 1.44804E+02 1.03250E+01 0.00000E+00
 -1      2081 1.46269E+02 6.95391E+00 0.00000E+00
 -1      2082 1.46269E+02 5.47891E+00 0.00000E+00
 -1      2083 1.45302E+02 5.37422E+00 0.00000E+00
 -1      2084 1.44970E+02 7.69141E+00 0.00000E+00
 -1      2085 1.46103E+02 1.54375E+01 0.00000E+00
 -1      2086 1.46103E+02 1.39875E+01 0.00000E+00
 -1      2087 1.44804E+02 1.32500E+01 0.00000E+00
 -1      2088 1.46103E+02 1.83875E+01 0.00000E+00
 -1      2089 1.46103E+02 1.69125E+01 0.00000E+00
 -1      2090 1.44804E+02 1.61750E+01 0.00000E+00
 -1      2091 1.46103E+02 2.13375E+01 0.00000E+00
 -1      2092 1.46103E+02 1.98625E+01 0.00000E+00
 -1      2093 1.44804E+02 1.91250E+01 0.00000E+00
 -1      2094 1.46103E+02 2.42875E+01 0.00000E+00
 -1      2095 1.46103E+02 2.28125E+01 0.00000E+00
 -1      2096 1.44804E+02 2.20750E+01 0.00000E+00
 -1      2097 1.46103E+02 2.72375E+01 0.00000E+00
 -1      2098 1.46103E+02 2.57625E+01 0.00000E+00
 -1      2099 1.44804E+02 2.50250E+01 0.00000E+00
 -1      2100 1.46103E+02 3.01875E+01 0.00000E+00
 -1      2101 1.46103E+02 2.87125E+01 0.00000E+00
 -1      2102 1.44804E+02 2.79750E+01 0.00000E+00
 -1      2103 1.46103E+02 3.30875E+01 0.00000E+00
 -1      2104 1.46103E+02 3.16375E+01 0.00000E+00
 -1      2105 1.44804E+02 3.09000E+01 0.00000E+00
 -1      2106 1.46103E+02 3.60375E+01 0.00000E+00
 -1      2107 1.46103E+02 3.45625E+01 0.00000E+00
 -1      2108 1.44804E+02 3.38250E+01 0.00000E+00
 -1      2109 1.46103E+02 3.89875E+01 0.00000E+00
 -1      2110 1.46103E+02 3.75125E+01 0.00000E+00
 -1      2111 1.44804E+02 3.67750E+01 0.00000E+00
 -1      2112 1.46103E+02 4.19375E+01 0.00000E+00
 -1      2113 1.46103E+02 4.04625E+01 0.00000E+00
 -1      2114 1.44804E+02 3.97250E+01 0.00000E+00
 -1      2115 1.27934E+02 2.33700E+01 0.00000E+00
 -1      2116 1.28196E+02 2.42361E+01 0.00000E+00
 -1      2117 1.28746E+02 2.70188E+01 0.00000E+00
 -1      2118 1.28738E+02 2.79091E+01 0.00000E+00
 -1      2119 1.28416E+02 2.50666E+01 0.00000E+00
 -1      2120 1.28635E+02 2.58972E+01 0.00000E+00
 -1      2121 1.29066E+02 2.43975E+01 0.00000E+00
 -1      2122 1.26570E+02 2.16124E+01 0.00000E+00
 -1      2123 1.27239E+02 2.22906E+01 0.00000E+00
 -1      2124 1.25230E+02 2.02841E+01 0.00000E+00
 -1      2125 1.25900E+02 2.09483E+01 0.00000E+00
 -1      2126 1.26786E+02 2.07439E+01 0.00000E+00
 -1      2127 3.89700E+00 3.74688E+01 0.00000E+00
 -1      2128 3.89700E+00 3.89437E+01 0.00000E+00
 -1      2129 5.19600E+00 3.96813E+01 0.00000E+00
 -1      2130 5.19600E+00 3.67438E+01 0.00000E+00
 -1      2131 1.21595E+02 1.86925E+01 0.00000E+00
 -1      2132 1.22440E+02 1.89106E+01 0.00000E+00
 -1      2133 1.19700E+02 1.84511E+01 0.00000E+00
 -1      2134 1.20599E+02 1.85256E+01 0.00000E+00
 -1      2135 1.17710E+02 1.85925E+01 0.00000E+00
 -1      2136 1.18652E+02 1.85018E+01 0.00000E+00
 -1      2137 1.15764E+02 1.94897E+01 0.00000E+00
 -1      2138 1.16570E+02 1.90086E+01 0.00000E+00
 -1      2139 1.14223E+02 2.05743E+01 0.00000E+00
 -1      2140 1.14917E+02 2.00225E+01 0.00000E+00
 -1      2141 1.12849E+02 2.18068E+01 0.00000E+00
 -1      2142 1.13506E+02 2.11929E+01 0.00000E+00
 -1      2143 1.11566E+02 2.34163E+01 0.00000E+00
 -1      2144 1.12017E+02 2.26063E+01 0.00000E+00
 -1      2145 1.11013E+02 2.53548E+01 0.00000E+00
 -1      2146 1.11231E+02 2.44849E+01 0.00000E+00
 -1      2147 1.10643E+02 2.71684E+01 0.00000E+00
 -1      2148 1.10828E+02 2.62616E+01 0.00000E+00
 -1      2149 1.10186E+02 2.56386E+01 0.00000E+00
 -1      2150 1.11052E+02 2.93251E+01 0.00000E+00
 -1      2151 1.10792E+02 2.84223E+01 0.00000E+00
 -1      2152 1.11668E+02 3.10978E+01 0.00000E+00
 -1      2153 1.11313E+02 3.02944E+01 0.00000E+00
 -1      2154 1.12624E+02 3.26992E+01 0.00000E+00
 -1      2155 1.12144E+02 3.19710E+01 0.00000E+00
 -1      2156 1.13794E+02 3.41767E+01 0.00000E+00
 -1      2157 1.13181E+02 3.35733E+01 0.00000E+00
 -1      2158 1.15219E+02 3.51725E+01 0.00000E+00
 -1      2159 1.14507E+02 3.46746E+01 0.00000E+00
 -1      2160 1.13599E+02 3.49843E+01 0.00000E+00
 -1      2161 1.17158E+02 3.59554E+01 0.00000E+00
 -1      2162 1.16324E+02 3.56923E+01 0.00000E+00
 -1      2163 1.18945E+02 3.62524E+01 0.00000E+00
 -1      2164 1.18113E+02 3.61320E+01 0.00000E+00
 -1      2165 1.20775E+02 3.63748E+01 0.00000E+00
 -1      2166 1.19910E+02 3.63938E+01 0.00000E+00
 -1      2167 1.22719E+02 3.59360E+01 0.00000E+00
 -1      2168 1.21875E+02 3.62215E+01 0.00000E+00
 -1      2169 1.24344E+02 3.50362E+01 0.00000E+00
 -1      2170 1.23554E+02 3.54153E+01 0.00000E+00
 -1      2171 1.25954E+02 3.39646E+01 0.00000E+00
 -1      2172 1.25213E+02 3.45109E+01 0.00000E+00
 -1      2173 1.27350E+02 3.24122E+01 0.00000E+00
 -1      2174 1.26868E+02 3.31985E+01 0.00000E+00
 -1      2175 1.28016E+02 3.06662E+01 0.00000E+00
 -1      2176 1.27695E+02 3.14577E+01 0.00000E+00
 -1      2177 1.28491E+02 2.89233E+01 0.00000E+00
 -1      2178 1.28280E+02 2.97569E+01 0.00000E+00
 -1      2179 1.23453E+02 1.91383E+01 0.00000E+00
 -1      2180 1.24285E+02 1.95183E+01 0.00000E+00
 -1      2181 1.25170E+02 1.93140E+01 0.00000E+00
 -1      2182 6.42300E+00 4.57510E+01 0.00000E+00
 -1      2183 1.16975E+02 1.82765E+01 0.00000E+00
 -1      2184 1.17380E+02 1.75444E+01 0.00000E+00
 -1      2185 1.16240E+02 1.79605E+01 0.00000E+00
 -1      2186 1.23213E+02 1.83206E+01 0.00000E+00
 -1      2187 7.17300E+00 4.44520E+01 0.00000E+00
 -1      2188 1.29396E+02 2.63496E+01 0.00000E+00
 -1      2189 1.28151E+02 2.24875E+01 0.00000E+00
 -1      2190 1.45665E+02 4.31193E+01 0.00000E+00
 -1      2191 1.29260E+02 2.84854E+01 0.00000E+00
 -1      2192 1.28750E+02 3.04088E+01 0.00000E+00
 -1      2193 1.28142E+02 3.22725E+01 0.00000E+00
 -1      2194 1.26883E+02 3.39932E+01 0.00000E+00
 -1      2195 1.25099E+02 3.52847E+01 0.00000E+00
 -1      2196 1.23394E+02 3.63307E+01 0.00000E+00
 -1      2197 1.21459E+02 3.70046E+01 0.00000E+00
 -1      2198 1.19395E+02 3.70165E+01 0.00000E+00
 -1      2199 1.15416E+02 3.60020E+01 0.00000E+00
 -1      2200 1.12330E+02 3.36123E+01 0.00000E+00
 -1      2201 1.11297E+02 3.18650E+01 0.00000E+00
 -1      2202 1.10150E+02 2.77993E+01 0.00000E+00
 -1      2203 1.09509E+02 2.71762E+01 0.00000E+00
 -1      2204 1.09658E+02 2.84301E+01 0.00000E+00
 -1      2205 1.10707E+02 2.36632E+01 0.00000E+00
 -1      2206 1.11874E+02 2.17951E+01 0.00000E+00
 -1      2207 1.13424E+02 2.03770E+01 0.00000E+00
 -1      2208 1.14988E+02 1.92255E+01 0.00000E+00
 -1      2209 1.21205E+02 1.79259E+01 0.00000E+00
 -1      2210 1.19163E+02 1.78096E+01 0.00000E+00
 -1      2211 1.10560E+02 3.00225E+01 0.00000E+00
 -1      2212 1.17476E+02 3.66984E+01 0.00000E+00
 -1      2213 1.07850E+01 5.30525E+00 0.00000E+00
 -1      2214 9.28500E+00 5.30525E+00 0.00000E+00
 -1      2215 6.49500E+00 3.01125E+01 0.00000E+00
 -1      2216 6.49500E+00 3.15875E+01 0.00000E+00
 -1      2217 6.49500E+00 3.30625E+01 0.00000E+00
 -1      2218 6.49500E+00 3.45375E+01 0.00000E+00
 -1      2219 7.79400E+00 3.23250E+01 0.00000E+00
 -1      2220 6.49500E+00 2.42125E+01 0.00000E+00
 -1      2221 6.49500E+00 2.56875E+01 0.00000E+00
 -1      2222 6.49500E+00 2.12625E+01 0.00000E+00
 -1      2223 6.49500E+00 2.27375E+01 0.00000E+00
 -1      2224 7.79400E+00 2.34750E+01 0.00000E+00
 -1      2225 6.49500E+00 1.83625E+01 0.00000E+00
 -1      2226 6.49500E+00 1.98125E+01 0.00000E+00
 -1      2227 7.79400E+00 2.05500E+01 0.00000E+00
 -1      2228 6.49500E+00 1.54125E+01 0.00000E+00
 -1      2229 6.49500E+00 1.68875E+01 0.00000E+00
 -1      2230 7.79400E+00 1.76250E+01 0.00000E+00
 -1      2231 6.49500E+00 1.24625E+01 0.00000E+00
 -1      2232 6.49500E+00 1.39375E+01 0.00000E+00
 -1      2233 7.79400E+00 1.46750E+01 0.00000E+00
 -1      2234 6.49500E+00 9.51250E+00 0.00000E+00
 -1      2235 6.49500E+00 1.09875E+01 0.00000E+00
 -1      2236 7.79400E+00 1.17250E+01 0.00000E+00
 -1      2237 1.37850E+01 5.30525E+00 0.00000E+00
 -1      2238 1.22850E+01 5.30525E+00 0.00000E+00
 -1      2239 1.15350E+01 6.60425E+00 0.00000E+00
 -1      2240 9.90000E+00 4.35050E+01 0.00000E+00
 -1      2241 1.14000E+01 4.35050E+01 0.00000E+00
 -1      2242 1.29000E+01 4.35050E+01 0.00000E+00
 -1      2243 1.44000E+01 4.35050E+01 0.00000E+00
 -1      2244 1.21500E+01 4.22060E+01 0.00000E+00
 -1      2245 1.59000E+01 4.35050E+01 0.00000E+00
 -1      2246 1.74000E+01 4.35050E+01 0.00000E+00
 -1      2247 1.51500E+01 4.22060E+01 0.00000E+00
 -1      2248 1.89000E+01 4.35050E+01 0.00000E+00
 -1      2249 2.04000E+01 4.35050E+01 0.00000E+00
 -1      2250 1.81500E+01 4.22060E+01 0.00000E+00
 -1      2251 2.19000E+01 4.35050E+01 0.00000E+00
 -1      2252 2.34000E+01 4.35050E+01 0.00000E+00
 -1      2253 2.11500E+01 4.22060E+01 0.00000E+00
 -1      2254 2.49000E+01 4.35050E+01 0.00000E+00
 -1      2255 2.64000E+01 4.35050E+01 0.00000E+00
 -1      2256 2.41500E+01 4.22060E+01 0.00000E+00
 -1      2257 2.79000E+01 4.35050E+01 0.00000E+00
 -1      2258 2.94000E+01 4.35050E+01 0.00000E+00
 -1      2259 2.71500E+01 4.22060E+01 0.00000E+00
 -1      2260 3.09000E+01 4.35050E+01 0.00000E+00
 -1      2261 3.24000E+01 4.35050E+01 0.00000E+00
 -1      2262 3.01500E+01 4.22060E+01 0.00000E+00
 -1      2263 3.39000E+01 4.35050E+01 0.00000E+00
 -1      2264 3.54000E+01 4.35050E+01 0.00000E+00
 -1      2265 3.31500E+01 4.22060E+01 0.00000E+00
 -1      2266 3.69000E+01 4.35050E+01 0.00000E+00
 -1      2267 3.84000E+01 4.35050E+01 0.00000E+00
 -1      2268 3.61500E+01 4.22060E+01 0.00000E+00
 -1      2269 3.99000E+01 4.35050E+01 0.00000E+00
 -1      2270 4.14000E+01 4.35050E+01 0.00000E+00
 -1      2271 3.91500E+01 4.22060E+01 0.00000E+00
 -1      2272 4.29000E+01 4.35050E+01 0.00000E+00
 -1      2273 4.44000E+01 4.35050E+01 0.00000E+00
 -1      2274 4.21500E+01 4.22060E+01 0.00000E+00
 -1      2275 4.59000E+01 4.35050E+01 0.00000E+00
 -1      2276 4.74000E+01 4.35050E+01 0.00000E+00
 -1      2277 4.51500E+01 4.22060E+01 0.00000E+00
 -1      2278 4.89000E+01 4.35050E+01 0.00000E+00
 -1      2279 5.04000E+01 4.35050E+01 0.00000E+00
 -1      2280 4.81500E+01 4.22060E+01 0.00000E+00
 -1      2281 5.19000E+01 4.35050E+01 0.00000E+00
 -1      2282 5.34000E+01 4.35050E+01 0.00000E+00
 -1      2283 5.11500E+01 4.22060E+01 0.00000E+00
 -1      2284 5.49000E+01 4.35050E+01 0.00000E+00
 -1      2285 5.64000E+01 4.35050E+01 0.00000E+00
 -1      2286 5.41500E+01 4.22060E+01 0.00000E+00
 -1      2287 5.79000E+01 4.35050E+01 0.00000E+00
 -1      2288 5.94000E+01 4.35050E+01 0.00000E+00
 -1      2289 5.71500E+01 4.22060E+01 0.00000E+00
 -1      2290 6.09000E+01 4.35050E+01 0.00000E+00
 -1      2291 6.24000E+01 4.35050E+01 0.00000E+00
 -1      2292 6.01500E+01 4.22060E+01 0.00000E+00
 -1      2293 6.39000E+01 4.35050E+01 0.00000E+00
 -1      2294 6.54000E+01 4.35050E+01 0.00000E+00
 -1      2295 6.31500E+01 4.22060E+01 0.00000E+00
 -1      2296 6.69000E+01 4.35050E+01 0.00000E+00
 -1      2297 6.84000E+01 4.35050E+01 0.00000E+00
 -1      2298 6.61500E+01 4.22060E+01 0.00000E+00
 -1      2299 6.99000E+01 4.35050E+01 0.00000E+00
 -1      2300 7.14000E+01 4.35050E+01 0.00000E+00
 -1      2301 6.91500E+01 4.22060E+01 0.00000E+00
 -1      2302 7.29000E+01 4.35050E+01 0.00000E+00
 -1      2303 7.44000E+01 4.35050E+01 0.00000E+00
 -1      2304 7.21500E+01 4.22060E+01 0.00000E+00
 -1      2305 7.59000E+01 4.35050E+01 0.00000E+00
 -1      2306 7.74000E+01 4.35050E+01 0.00000E+00
 -1      2307 7.51500E+01 4.22060E+01 0.00000E+00
 -1      2308 7.89000E+01 4.35050E+01 0.00000E+00
 -1      2309 8.04000E+01 4.35050E+01 0.00000E+00
 -1      2310 7.81500E+01 4.22060E+01 0.00000E+00
 -1      2311 8.19000E+01 4.35050E+01 0.00000E+00
 -1      2312 8.34000E+01 4.35050E+01 0.00000E+00
 -1      2313 8.11500E+01 4.22060E+01 0.00000E+00
 -1      2314 8.49000E+01 4.35050E+01 0.00000E+00
 -1      2315 8.64000E+01 4.35050E+01 0.00000E+00
 -1      2316 8.41500E+01 4.22060E+01 0.00000E+00
 -1      2317 8.79000E+01 4.35050E+01 0.00000E+00
 -1      2318 8.94000E+01 4.35050E+01 0.00000E+00
 -1      2319 8.71500E+01 4.22060E+01 0.00000E+00
 -1      2320 9.09000E+01 4.35050E+01 0.00000E+00
 -1      2321 9.24000E+01 4.35050E+01 0.00000E+00
 -1      2322 9.01500E+01 4.22060E+01 0.00000E+00
 -1      2323 9.39000E+01 4.35050E+01 0.00000E+00
 -1      2324 9.54000E+01 4.35050E+01 0.00000E+00
 -1      2325 9.31500E+01 4.22060E+01 0.00000E+00
 -1      2326 9.69000E+01 4.35050E+01 0.00000E+00
 -1      2327 9.84000E+01 4.35050E+01 0.00000E+00
 -1      2328 9.61500E+01 4.22060E+01 0.00000E+00
 -1      2329 9.99000E+01 4.35050E+01 0.00000E+00
 -1      2330 1.01400E+02 4.35050E+01 0.00000E+00
 -1      2331 9.91500E+01 4.22060E+01 0.00000E+00
 -1      2332 1.02900E+02 4.35050E+01 0.00000E+00
 -1      2333 1.04400E+02 4.35050E+01 0.00000E+00
 -1      2334 1.02150E+02 4.22060E+01 0.00000E+00
 -1      2335 1.05900E+02 4.35050E+01 0.00000E+00
 -1      2336 1.07400E+02 4.35050E+01 0.00000E+00
 -1      2337 1.05150E+02 4.22060E+01 0.00000E+00
 -1      2338 1.08900E+02 4.35050E+01 0.00000E+00
 -1      2339 1.10400E+02 4.35050E+01 0.00000E+00
 -1      2340 1.08150E+02 4.22060E+01 0.00000E+00
 -1      2341 1.11900E+02 4.35050E+01 0.00000E+00
 -1      2342 1.13400E+02 4.35050E+01 0.00000E+00
 -1      2343 1.11150E+02 4.22060E+01 0.00000E+00
 -1      2344 1.14900E+02 4.35050E+01 0.00000E+00
 -1      2345 1.16400E+02 4.35050E+01 0.00000E+00
 -1      2346 1.14150E+02 4.22060E+01 0.00000E+00
 -1      2347 1.17900E+02 4.35050E+01 0.00000E+00
 -1      2348 1.19400E+02 4.35050E+01 0.00000E+00
 -1      2349 1.17150E+02 4.22060E+01 0.00000E+00
 -1      2350 1.20900E+02 4.35050E+01 0.00000E+00
 -1      2351 1.22400E+02 4.35050E+01 0.00000E+00
 -1      2352 1.20150E+02 4.22060E+01 0.00000E+00
 -1      2353 1.23900E+02 4.35050E+01 0.00000E+00
 -1      2354 1.25400E+02 4.35050E+01 0.00000E+00
 -1      2355 1.23150E+02 4.22060E+01 0.00000E+00
 -1      2356 1.26900E+02 4.35050E+01 0.00000E+00
 -1      2357 1.28400E+02 4.35050E+01 0.00000E+00
 -1      2358 1.26150E+02 4.22060E+01 0.00000E+00
 -1      2359 1.29900E+02 4.35050E+01 0.00000E+00
 -1      2360 1.31400E+02 4.35050E+01 0.00000E+00
 -1      2361 1.29150E+02 4.22060E+01 0.00000E+00
 -1      2362 1.32900E+02 4.35050E+01 0.00000E+00
 -1      2363 1.34400E+02 4.35050E+01 0.00000E+00
 -1      2364 1.32150E+02 4.22060E+01 0.00000E+00
 -1      2365 1.35900E+02 4.35050E+01 0.00000E+00
 -1      2366 1.37400E+02 4.35050E+01 0.00000E+00
 -1      2367 1.35150E+02 4.22060E+01 0.00000E+00
 -1      2368 1.38900E+02 4.35050E+01 0.00000E+00
 -1      2369 1.40400E+02 4.35050E+01 0.00000E+00
 -1      2370 1.38150E+02 4.22060E+01 0.00000E+00
 -1      2371 1.29785E+02 2.37631E+01 0.00000E+00
 -1      2372 1.30005E+02 2.45936E+01 0.00000E+00
 -1      2373 1.97850E+01 5.30525E+00 0.00000E+00
 -1      2374 1.82850E+01 5.30525E+00 0.00000E+00
 -1      2375 2.27850E+01 5.30525E+00 0.00000E+00
 -1      2376 2.12850E+01 5.30525E+00 0.00000E+00
 -1      2377 2.05350E+01 6.60425E+00 0.00000E+00
 -1      2378 2.57850E+01 5.30525E+00 0.00000E+00
 -1      2379 2.42850E+01 5.30525E+00 0.00000E+00
 -1      2380 2.35350E+01 6.60425E+00 0.00000E+00
 -1      2381 2.87850E+01 5.30525E+00 0.00000E+00
 -1      2382 2.72850E+01 5.30525E+00 0.00000E+00
 -1      2383 2.65350E+01 6.60425E+00 0.00000E+00
 -1      2384 3.17850E+01 5.30525E+00 0.00000E+00
 -1      2385 3.02850E+01 5.30525E+00 0.00000E+00
 -1      2386 2.95350E+01 6.60425E+00 0.00000E+00
 -1      2387 3.47850E+01 5.30525E+00 0.00000E+00
 -1      2388 3.32850E+01 5.30525E+00 0.00000E+00
 -1      2389 3.25350E+01 6.60425E+00 0.00000E+00
 -1      2390 3.77850E+01 5.30525E+00 0.00000E+00
 -1      2391 3.62850E+01 5.30525E+00 0.00000E+00
 -1      2392 3.55350E+01 6.60425E+00 0.00000E+00
 -1      2393 4.07850E+01 5.30525E+00 0.00000E+00
 -1      2394 3.92850E+01 5.30525E+00 0.00000E+00
 -1      2395 3.85350E+01 6.60425E+00 0.00000E+00
 -1      2396 4.37850E+01 5.30525E+00 0.00000E+00
 -1      2397 4.22850E+01 5.30525E+00 0.00000E+00
 -1      2398 4.15350E+01 6.60425E+00 0.00000E+00
 -1      2399 4.67850E+01 5.30525E+00 0.00000E+00
 -1      2400 4.52850E+01 5.30525E+00 0.00000E+00
 -1      2401 4.45350E+01 6.60425E+00 0.00000E+00
 -1      2402 4.97850E+01 5.30525E+00 0.00000E+00
 -1      2403 4.82850E+01 5.30525E+00 0.00000E+00
 -1      2404 4.75350E+01 6.60425E+00 0.00000E+00
 -1      2405 5.27850E+01 5.30525E+00 0.00000E+00
 -1      2406 5.12850E+01 5.30525E+00 0.00000E+00
 -1      2407 5.05350E+01 6.60425E+00 0.00000E+00
 -1      2408 5.57850E+01 5.30525E+00 0.00000E+00
 -1      2409 5.42850E+01 5.30525E+00 0.00000E+00
 -1      2410 5.35350E+01 6.60425E+00 0.00000E+00
 -1      2411 5.87850E+01 5.30525E+00 0.00000E+00
 -1      2412 5.72850E+01 5.30525E+00 0.00000E+00
 -1      2413 5.65350E+01 6.60425E+00 0.00000E+00
 -1      2414 6.17850E+01 5.30525E+00 0.00000E+00
 -1      2415 6.02850E+01 5.30525E+00 0.00000E+00
 -1      2416 5.95350E+01 6.60425E+00 0.00000E+00
 -1      2417 6.47850E+01 5.30525E+00 0.00000E+00
 -1      2418 6.32850E+01 5.30525E+00 0.00000E+00
 -1      2419 6.25350E+01 6.60425E+00 0.00000E+00
 -1      2420 6.77850E+01 5.30525E+00 0.00000E+00
 -1      2421 6.62850E+01 5.30525E+00 0.00000E+00
 -1      2422 6.55350E+01 6.60425E+00 0.00000E+00
 -1      2423 7.07850E+01 5.30525E+00 0.00000E+00
 -1      2424 6.92850E+01 5.30525E+00 0.00000E+00
 -1      2425 6.85350E+01 6.60425E+00 0.00000E+00
 -1      2426 7.37850E+01 5.30525E+00 0.00000E+00
 -1      2427 7.22850E+01 5.30525E+00 0.00000E+00
 -1      2428 7.15350E+01 6.60425E+00 0.00000E+00
 -1      2429 7.67850E+01 5.30525E+00 0.00000E+00
 -1      2430 7.52850E+01 5.30525E+00 0.00000E+00
 -1      2431 7.45350E+01 6.60425E+00 0.00000E+00
 -1      2432 7.97850E+01 5.30525E+00 0.00000E+00
 -1      2433 7.82850E+01 5.30525E+00 0.00000E+00
 -1      2434 7.75350E+01 6.60425E+00 0.00000E+00
 -1      2435 8.27850E+01 5.30525E+00 0.00000E+00
 -1      2436 8.12850E+01 5.30525E+00 0.00000E+00
 -1      2437 8.05350E+01 6.60425E+00 0.00000E+00
 -1      2438 8.57850E+01 5.30525E+00 0.00000E+00
 -1      2439 8.42850E+01 5.30525E+00 0.00000E+00
 -1      2440 8.35350E+01 6.60425E+00 0.00000E+00
 -1      2441 8.87850E+01 5.30525E+00 0.00000E+00
 -1      2442 8.72850E+01 5.30525E+00 0.00000E+00
 -1      2443 8.65350E+01 6.60425E+00 0.00000E+00
 -1      2444 9.17850E+01 5.30525E+00 0.00000E+00
 -1      2445 9.02850E+01 5.30525E+00 0.00000E+00
 -1      2446 8.95350E+01 6.60425E+00 0.00000E+00
 -1      2447 9.47850E+01 5.30525E+00 0.00000E+00
 -1      2448 9.32850E+01 5.30525E+00 0.00000E+00
 -1      2449 9.25350E+01 6.60425E+00 0.00000E+00
 -1      2450 9.77850E+01 5.30525E+00 0.00000E+00
 -1      2451 9.62850E+01 5.30525E+00 0.00000E+00
 -1      2452 9.55350E+01 6.60425E+00 0.00000E+00
 -1      2453 1.00785E+02 5.30525E+00 0.00000E+00
 -1      2454 9.92850E+01 5.30525E+00 0.00000E+00
 -1      2455 9.85350E+01 6.60425E+00 0.00000E+00
 -1      2456 1.03785E+02 5.30525E+00 0.00000E+00
 -1      2457 1.02285E+02 5.30525E+00 0.00000E+00
 -1      2458 1.01535E+02 6.60425E+00 0.00000E+00
 -1      2459 1.06785E+02 5.30525E+00 0.00000E+00
 -1      2460 1.05285E+02 5.30525E+00 0.00000E+00
 -1      2461 1.04535E+02 6.60425E+00 0.00000E+00
 -1      2462 1.09785E+02 5.30525E+00 0.00000E+00
 -1      2463 1.08285E+02 5.30525E+00 0.00000E+00
 -1      2464 1.07535E+02 6.60425E+00 0.00000E+00
 -1      2465 1.12785E+02 5.30525E+00 0.00000E+00
 -1      2466 1.11285E+02 5.30525E+00 0.00000E+00
 -1      2467 1.10535E+02 6.60425E+00 0.00000E+00
 -1      2468 1.15785E+02 5.30525E+00 0.00000E+00
 -1      2469 1.14285E+02 5.30525E+00 0.00000E+00
 -1      2470 1.13535E+02 6.60425E+00 0.00000E+00
 -1      2471 1.18785E+02 5.30525E+00 0.00000E+00
 -1      2472 1.17285E+02 5.30525E+00 0.00000E+00
 -1      2473 1.16535E+02 6.60425E+00 0.00000E+00
 -1      2474 1.21785E+02 5.30525E+00 0.00000E+00
 -1      2475 1.20285E+02 5.30525E+00 0.00000E+00
 -1      2476 1.19535E+02 6.60425E+00 0.00000E+00
 -1      2477 1.24785E+02 5.30525E+00 0.00000E+00
 -1      2478 1.23285E+02 5.30525E+00 0.00000E+00
 -1      2479 1.22535E+02 6.60425E+00 0.00000E+00
 -1      2480 1.27785E+02 5.30525E+00 0.00000E+00
 -1      2481 1.26285E+02 5.30525E+00 0.00000E+00
 -1      2482 1.25535E+02 6.60425E+00 0.00000E+00
 -1      2483 1.30785E+02 5.30525E+00 0.00000E+00
 -1      2484 1.29285E+02 5.30525E+00 0.00000E+00
 -1      2485 1.28535E+02 6.60425E+00 0.00000E+00
 -1      2486 1.33785E+02 5.30525E+00 0.00000E+00
 -1      2487 1.32285E+02 5.30525E+00 0.00000E+00
 -1      2488 1.31535E+02 6.60425E+00 0.00000E+00
 -1      2489 1.36785E+02 5.30525E+00 0.00000E+00
 -1      2490 1.35285E+02 5.30525E+00 0.00000E+00
 -1      2491 1.34535E+02 6.60425E+00 0.00000E+00
 -1      2492 1.39785E+02 5.30525E+00 0.00000E+00
 -1      2493 1.38285E+02 5.30525E+00 0.00000E+00
 -1      2494 1.37535E+02 6.60425E+00 0.00000E+00
 -1      2495 1.42785E+02 5.30525E+00 0.00000E+00
 -1      2496 1.41285E+02 5.30525E+00 0.00000E+00
 -1      2497 1.40535E+02 6.60425E+00 0.00000E+00
 -1      2498 1.44336E+02 5.26953E+00 0.00000E+00
 -1      2499 1.43505E+02 1.69125E+01 0.00000E+00
 -1      2500 1.43505E+02 1.54375E+01 0.00000E+00
 -1      2501 1.43505E+02 1.98625E+01 0.00000E+00
 -1      2502 1.43505E+02 1.83875E+01 0.00000E+00
 -1      2503 1.42206E+02 1.76500E+01 0.00000E+00
 -1      2504 1.43505E+02 1.10625E+01 0.00000E+00
 -1      2505 1.43505E+02 9.58750E+00 0.00000E+00
 -1      2506 1.43505E+02 1.39750E+01 0.00000E+00
 -1      2507 1.43505E+02 1.25250E+01 0.00000E+00
 -1      2508 1.42206E+02 1.17875E+01 0.00000E+00
 -1      2509 1.42206E+02 1.47125E+01 0.00000E+00
 -1      2510 1.43505E+02 2.28125E+01 0.00000E+00
 -1      2511 1.43505E+02 2.13375E+01 0.00000E+00
 -1      2512 1.42206E+02 2.06000E+01 0.00000E+00
 -1      2513 1.43505E+02 2.57625E+01 0.00000E+00
 -1      2514 1.43505E+02 2.42875E+01 0.00000E+00
 -1      2515 1.42206E+02 2.35500E+01 0.00000E+00
 -1      2516 1.43505E+02 2.87125E+01 0.00000E+00
 -1      2517 1.43505E+02 2.72375E+01 0.00000E+00
 -1      2518 1.42206E+02 2.65000E+01 0.00000E+00
 -1      2519 1.43505E+02 3.16125E+01 0.00000E+00
 -1      2520 1.43505E+02 3.01625E+01 0.00000E+00
 -1      2521 1.42206E+02 2.94250E+01 0.00000E+00
 -1      2522 1.43505E+02 3.45625E+01 0.00000E+00
 -1      2523 1.43505E+02 3.30875E+01 0.00000E+00
 -1      2524 1.42206E+02 3.23500E+01 0.00000E+00
 -1      2525 1.43505E+02 3.75125E+01 0.00000E+00
 -1      2526 1.43505E+02 3.60375E+01 0.00000E+00
 -1      2527 1.42206E+02 3.53000E+01 0.00000E+00
 -1      2528 1.43505E+02 4.04625E+01 0.00000E+00
 -1      2529 1.43505E+02 3.89875E+01 0.00000E+00
 -1      2530 1.42206E+02 3.82500E+01 0.00000E+00
 -1      2531 1.44321E+02 4.30606E+01 0.00000E+00
 -1      2532 1.30136E+02 2.81612E+01 0.00000E+00
 -1      2533 1.29889E+02 2.91754E+01 0.00000E+00
 -1      2534 1.67850E+01 5.30525E+00 0.00000E+00
 -1      2535 1.52850E+01 5.30525E+00 0.00000E+00
 -1      2536 1.75350E+01 6.60425E+00 0.00000E+00
 -1      2537 1.28524E+02 2.14834E+01 0.00000E+00
 -1      2538 1.29219E+02 2.25628E+01 0.00000E+00
 -1      2539 1.27172E+02 1.96839E+01 0.00000E+00
 -1      2540 1.27842E+02 2.03480E+01 0.00000E+00
 -1      2541 6.55950E+00 4.28890E+01 0.00000E+00
 -1      2542 8.53650E+00 4.32410E+01 0.00000E+00
 -1      2543 9.28650E+00 4.19420E+01 0.00000E+00
 -1      2544 6.55950E+00 4.14140E+01 0.00000E+00
 -1      2545 1.29687E+02 3.01873E+01 0.00000E+00
 -1      2546 1.29423E+02 3.10965E+01 0.00000E+00
 -1      2547 1.11814E+02 3.45549E+01 0.00000E+00
 -1      2548 1.11257E+02 3.36808E+01 0.00000E+00
 -1      2549 1.09641E+02 2.39157E+01 0.00000E+00
 -1      2550 1.09976E+02 2.28471E+01 0.00000E+00
 -1      2551 6.49500E+00 2.71625E+01 0.00000E+00
 -1      2552 6.49500E+00 2.86375E+01 0.00000E+00
 -1      2553 7.79400E+00 2.93750E+01 0.00000E+00
 -1      2554 7.79400E+00 2.64250E+01 0.00000E+00
 -1      2555 1.18597E+02 1.69784E+01 0.00000E+00
 -1      2556 1.19645E+02 1.69277E+01 0.00000E+00
 -1      2557 1.09943E+02 3.07082E+01 0.00000E+00
 -1      2558 1.09682E+02 2.97389E+01 0.00000E+00
 -1      2559 1.22913E+02 1.72883E+01 0.00000E+00
 -1      2560 1.23925E+02 1.75160E+01 0.00000E+00
 -1      2561 1.20923E+02 1.69544E+01 0.00000E+00
 -1      2562 1.21918E+02 1.71214E+01 0.00000E+00
 -1      2563 1.22631E+02 1.63168E+01 0.00000E+00
 -1      2564 1.14152E+02 1.88370E+01 0.00000E+00
 -1      2565 1.14999E+02 1.83041E+01 0.00000E+00
 -1      2566 1.12505E+02 2.00370E+01 0.00000E+00
 -1      2567 1.13222E+02 1.94184E+01 0.00000E+00
 -1      2568 1.10840E+02 2.16360E+01 0.00000E+00
 -1      2569 1.11673E+02 2.08365E+01 0.00000E+00
 -1      2570 1.11471E+02 1.98779E+01 0.00000E+00
 -1      2571 1.09377E+02 2.59456E+01 0.00000E+00
 -1      2572 1.09562E+02 2.50388E+01 0.00000E+00
 -1      2573 1.17812E+02 3.75476E+01 0.00000E+00
 -1      2574 1.16858E+02 3.73710E+01 0.00000E+00
 -1      2575 1.10781E+02 3.28076E+01 0.00000E+00
 -1      2576 1.10305E+02 3.19344E+01 0.00000E+00
 -1      2577 1.10265E+02 3.37502E+01 0.00000E+00
 -1      2578 1.13415E+02 3.60047E+01 0.00000E+00
 -1      2579 1.12703E+02 3.55068E+01 0.00000E+00
 -1      2580 1.15603E+02 3.70379E+01 0.00000E+00
 -1      2581 1.14498E+02 3.65181E+01 0.00000E+00
 -1      2582 1.19742E+02 3.78304E+01 0.00000E+00
 -1      2583 1.18777E+02 3.76890E+01 0.00000E+00
 -1      2584 1.18159E+02 3.83616E+01 0.00000E+00
 -1      2585 1.22115E+02 3.76944E+01 0.00000E+00
 -1      2586 1.21016E+02 3.78476E+01 0.00000E+00
 -1      2587 1.24265E+02 3.67982E+01 0.00000E+00
 -1      2588 1.23429E+02 3.73189E+01 0.00000E+00
 -1      2589 1.26004E+02 3.57476E+01 0.00000E+00
 -1      2590 1.25134E+02 3.62729E+01 0.00000E+00
 -1      2591 1.25170E+02 3.72611E+01 0.00000E+00
 -1      2592 1.27833E+02 3.42152E+01 0.00000E+00
 -1      2593 1.26918E+02 3.49814E+01 0.00000E+00
 -1      2594 1.26954E+02 3.59696E+01 0.00000E+00
 -1      2595 1.29078E+02 3.20510E+01 0.00000E+00
 -1      2596 1.28734E+02 3.30055E+01 0.00000E+00
 -1      2597 1.30015E+02 3.18295E+01 0.00000E+00
 -1      2598 1.30115E+02 2.57152E+01 0.00000E+00
 -1      2599 1.30226E+02 2.68368E+01 0.00000E+00
 -1      2600 1.30835E+02 2.50808E+01 0.00000E+00
 -1      2601 8.07525E+00 5.11044E+00 0.00000E+00
 -1      2602 6.57525E+00 5.11044E+00 0.00000E+00
 -1      2603 6.40575E+00 6.01981E+00 0.00000E+00
 -1      2604 8.82525E+00 6.40944E+00 0.00000E+00
 -1      2605 1.25282E+02 1.81523E+01 0.00000E+00
 -1      2606 1.26227E+02 1.89181E+01 0.00000E+00
 -1      2607 1.27284E+02 1.85222E+01 0.00000E+00
 -1      2608 1.20358E+02 1.61232E+01 0.00000E+00
 -1      2609 7.79400E+00 3.52687E+01 0.00000E+00
 -1      2610 6.49500E+00 3.60062E+01 0.00000E+00
 -1      2611 6.49500E+00 3.74750E+01 0.00000E+00
 -1      2612 1.45350E+01 6.60425E+00 0.00000E+00
 -1      2613 6.40575E+00 7.49481E+00 0.00000E+00
 -1      2614 1.24982E+02 1.71201E+01 0.00000E+00
 -1      2615 1.15404E+02 1.75720E+01 0.00000E+00
 -1      2616 1.15809E+02 1.68399E+01 0.00000E+00
 -1      2617 1.14569E+02 1.71835E+01 0.00000E+00
 -1      2618 1.30562E+02 2.98631E+01 0.00000E+00
 -1      2619 1.17127E+02 1.63465E+01 0.00000E+00
 -1      2620 1.17862E+02 1.66625E+01 0.00000E+00
 -1      2621 1.18345E+02 1.57806E+01 0.00000E+00
 -1      2622 1.30158E+02 2.27589E+01 0.00000E+00
 -1      2623 1.43586E+02 6.56853E+00 0.00000E+00
 -1      2624 1.43419E+02 7.72713E+00 0.00000E+00
 -1      2625 1.42758E+02 4.35929E+01 0.00000E+00
 -1      2626 1.43241E+02 4.17323E+01 0.00000E+00
 -1      2627 1.41942E+02 4.09948E+01 0.00000E+00
 -1      2628 1.41414E+02 4.35342E+01 0.00000E+00
 -1      2629 1.29706E+02 3.37722E+01 0.00000E+00
 -1      2630 1.28769E+02 3.39937E+01 0.00000E+00
 -1      2631 1.28805E+02 3.49819E+01 0.00000E+00
 -1      2632 1.30855E+02 2.75268E+01 0.00000E+00
 -1      2633 7.70475E+00 8.23231E+00 0.00000E+00
 -1      2634 1.28911E+02 2.04233E+01 0.00000E+00
 -1      2635 1.20398E+02 3.85202E+01 0.00000E+00
 -1      2636 6.52725E+00 3.87101E+01 0.00000E+00
 -1      2637 6.52725E+00 4.01789E+01 0.00000E+00
 -1      2638 7.89075E+00 4.04429E+01 0.00000E+00
 -1      2639 7.82625E+00 3.79726E+01 0.00000E+00
 -1      2640 1.11631E+02 3.55753E+01 0.00000E+00
 -1      2641 1.15940E+02 3.78871E+01 0.00000E+00
 -1      2642 1.09775E+02 2.18885E+01 0.00000E+00
 -1      2643 1.09573E+02 2.09299E+01 0.00000E+00
 -1      2644 1.08709E+02 2.21410E+01 0.00000E+00
 -1      2645 1.08831E+02 2.42227E+01 0.00000E+00
 -1      2646 1.09041E+02 2.91158E+01 0.00000E+00
 -1      2647 1.08399E+02 2.84927E+01 0.00000E+00
 -1      2648 1.08424E+02 2.98015E+01 0.00000E+00
 -1      2649 1.09427E+02 3.16508E+01 0.00000E+00
 -1      2650 1.13234E+02 1.84970E+01 0.00000E+00
 -1      2651 1.08884E+02 2.65764E+01 0.00000E+00
 -1      2652 1.08260E+02 2.59766E+01 0.00000E+00
 -1      2653 1.08391E+02 2.72072E+01 0.00000E+00
 -1      2654 1.13603E+02 3.70407E+01 0.00000E+00
 -1      2655 1.22987E+02 3.81619E+01 0.00000E+00
 -1      2656 1.42120E+02 8.46463E+00 0.00000E+00
 -1      2657 1.40664E+02 4.22352E+01 0.00000E+00
 -1      2658 9.09300E+00 1.98250E+01 0.00000E+00
 -1      2659 9.09300E+00 2.12750E+01 0.00000E+00
 -1      2660 9.09300E+00 2.27500E+01 0.00000E+00
 -1      2661 9.09300E+00 2.42250E+01 0.00000E+00
 -1      2662 1.03920E+01 2.20250E+01 0.00000E+00
 -1      2663 9.09300E+00 1.39375E+01 0.00000E+00
 -1      2664 9.09300E+00 1.54125E+01 0.00000E+00
 -1      2665 9.09300E+00 1.09875E+01 0.00000E+00
 -1      2666 9.09300E+00 1.24625E+01 0.00000E+00
 -1      2667 1.03920E+01 1.32000E+01 0.00000E+00
 -1      2668 1.22850E+01 7.90325E+00 0.00000E+00
 -1      2669 1.07850E+01 7.90325E+00 0.00000E+00
 -1      2670 1.29449E+02 1.93279E+01 0.00000E+00
 -1      2671 1.30131E+02 2.04632E+01 0.00000E+00
 -1      2672 1.44000E+01 4.09070E+01 0.00000E+00
 -1      2673 1.59000E+01 4.09070E+01 0.00000E+00
 -1      2674 1.74000E+01 4.09070E+01 0.00000E+00
 -1      2675 1.89000E+01 4.09070E+01 0.00000E+00
 -1      2676 1.66500E+01 3.96080E+01 0.00000E+00
 -1      2677 2.04000E+01 4.09070E+01 0.00000E+00
 -1      2678 2.19000E+01 4.09070E+01 0.00000E+00
 -1      2679 1.96500E+01 3.96080E+01 0.00000E+00
 -1      2680 2.34000E+01 4.09070E+01 0.00000E+00
 -1      2681 2.49000E+01 4.09070E+01 0.00000E+00
 -1      2682 2.26500E+01 3.96080E+01 0.00000E+00
 -1      2683 2.64000E+01 4.09070E+01 0.00000E+00
 -1      2684 2.79000E+01 4.09070E+01 0.00000E+00
 -1      2685 2.56500E+01 3.96080E+01 0.00000E+00
 -1      2686 2.94000E+01 4.09070E+01 0.00000E+00
 -1      2687 3.09000E+01 4.09070E+01 0.00000E+00
 -1      2688 2.86500E+01 3.96080E+01 0.00000E+00
 -1      2689 3.24000E+01 4.09070E+01 0.00000E+00
 -1      2690 3.39000E+01 4.09070E+01 0.00000E+00
 -1      2691 3.16500E+01 3.96080E+01 0.00000E+00
 -1      2692 3.54000E+01 4.09070E+01 0.00000E+00
 -1      2693 3.69000E+01 4.09070E+01 0.00000E+00
 -1      2694 3.46500E+01 3.96080E+01 0.00000E+00
 -1      2695 3.84000E+01 4.09070E+01 0.00000E+00
 -1      2696 3.99000E+01 4.09070E+01 0.00000E+00
 -1      2697 3.76500E+01 3.96080E+01 0.00000E+00
 -1      2698 4.14000E+01 4.09070E+01 0.00000E+00
 -1      2699 4.29000E+01 4.09070E+01 0.00000E+00
 -1      2700 4.06500E+01 3.96080E+01 0.00000E+00
 -1      2701 4.44000E+01 4.09070E+01 0.00000E+00
 -1      2702 4.59000E+01 4.09070E+01 0.00000E+00
 -1      2703 4.36500E+01 3.96080E+01 0.00000E+00
 -1      2704 4.74000E+01 4.09070E+01 0.00000E+00
 -1      2705 4.89000E+01 4.09070E+01 0.00000E+00
 -1      2706 4.66500E+01 3.96080E+01 0.00000E+00
 -1      2707 5.04000E+01 4.09070E+01 0.00000E+00
 -1      2708 5.19000E+01 4.09070E+01 0.00000E+00
 -1      2709 4.96500E+01 3.96080E+01 0.00000E+00
 -1      2710 5.34000E+01 4.09070E+01 0.00000E+00
 -1      2711 5.49000E+01 4.09070E+01 0.00000E+00
 -1      2712 5.26500E+01 3.96080E+01 0.00000E+00
 -1      2713 5.64000E+01 4.09070E+01 0.00000E+00
 -1      2714 5.79000E+01 4.09070E+01 0.00000E+00
 -1      2715 5.56500E+01 3.96080E+01 0.00000E+00
 -1      2716 5.94000E+01 4.09070E+01 0.00000E+00
 -1      2717 6.09000E+01 4.09070E+01 0.00000E+00
 -1      2718 5.86500E+01 3.96080E+01 0.00000E+00
 -1      2719 6.24000E+01 4.09070E+01 0.00000E+00
 -1      2720 6.39000E+01 4.09070E+01 0.00000E+00
 -1      2721 6.16500E+01 3.96080E+01 0.00000E+00
 -1      2722 6.54000E+01 4.09070E+01 0.00000E+00
 -1      2723 6.69000E+01 4.09070E+01 0.00000E+00
 -1      2724 6.46500E+01 3.96080E+01 0.00000E+00
 -1      2725 6.84000E+01 4.09070E+01 0.00000E+00
 -1      2726 6.99000E+01 4.09070E+01 0.00000E+00
 -1      2727 6.76500E+01 3.96080E+01 0.00000E+00
 -1      2728 7.14000E+01 4.09070E+01 0.00000E+00
 -1      2729 7.29000E+01 4.09070E+01 0.00000E+00
 -1      2730 7.06500E+01 3.96080E+01 0.00000E+00
 -1      2731 7.44000E+01 4.09070E+01 0.00000E+00
 -1      2732 7.59000E+01 4.09070E+01 0.00000E+00
 -1      2733 7.36500E+01 3.96080E+01 0.00000E+00
 -1      2734 7.74000E+01 4.09070E+01 0.00000E+00
 -1      2735 7.89000E+01 4.09070E+01 0.00000E+00
 -1      2736 7.66500E+01 3.96080E+01 0.00000E+00
 -1      2737 8.04000E+01 4.09070E+01 0.00000E+00
 -1      2738 8.19000E+01 4.09070E+01 0.00000E+00
 -1      2739 7.96500E+01 3.96080E+01 0.00000E+00
 -1      2740 8.34000E+01 4.09070E+01 0.00000E+00
 -1      2741 8.49000E+01 4.09070E+01 0.00000E+00
 -1      2742 8.26500E+01 3.96080E+01 0.00000E+00
 -1      2743 8.64000E+01 4.09070E+01 0.00000E+00
 -1      2744 8.79000E+01 4.09070E+01 0.00000E+00
 -1      2745 8.56500E+01 3.96080E+01 0.00000E+00
 -1      2746 8.94000E+01 4.09070E+01 0.00000E+00
 -1      2747 9.09000E+01 4.09070E+01 0.00000E+00
 -1      2748 8.86500E+01 3.96080E+01 0.00000E+00
 -1      2749 9.24000E+01 4.09070E+01 0.00000E+00
 -1      2750 9.39000E+01 4.09070E+01 0.00000E+00
 -1      2751 9.16500E+01 3.96080E+01 0.00000E+00
 -1      2752 9.54000E+01 4.09070E+01 0.00000E+00
 -1      2753 9.69000E+01 4.09070E+01 0.00000E+00
 -1      2754 9.46500E+01 3.96080E+01 0.00000E+00
 -1      2755 9.84000E+01 4.09070E+01 0.00000E+00
 -1      2756 9.99000E+01 4.09070E+01 0.00000E+00
 -1      2757 9.76500E+01 3.96080E+01 0.00000E+00
 -1      2758 1.01400E+02 4.09070E+01 0.00000E+00
 -1      2759 1.02900E+02 4.09070E+01 0.00000E+00
 -1      2760 1.00650E+02 3.96080E+01 0.00000E+00
 -1      2761 1.04400E+02 4.09070E+01 0.00000E+00
 -1      2762 1.05900E+02 4.09070E+01 0.00000E+00
 -1      2763 1.03650E+02 3.96080E+01 0.00000E+00
 -1      2764 1.07400E+02 4.09070E+01 0.00000E+00
 -1      2765 1.08900E+02 4.09070E+01 0.00000E+00
 -1      2766 1.06650E+02 3.96080E+01 0.00000E+00
 -1      2767 1.10400E+02 4.09070E+01 0.00000E+00
 -1      2768 1.11900E+02 4.09070E+01 0.00000E+00
 -1      2769 1.09650E+02 3.96080E+01 0.00000E+00
 -1      2770 1.13668E+02 3.98800E+01 0.00000E+00
 -1      2771 1.15168E+02 3.98800E+01 0.00000E+00
 -1      2772 1.19400E+02 4.11809E+01 0.00000E+00
 -1      2773 1.20900E+02 4.11809E+01 0.00000E+00
 -1      2774 1.22400E+02 4.11809E+01 0.00000E+00
 -1      2775 1.23900E+02 4.11809E+01 0.00000E+00
 -1      2776 1.25400E+02 4.10971E+01 0.00000E+00
 -1      2777 1.26900E+02 4.10971E+01 0.00000E+00
 -1      2778 1.28400E+02 4.10971E+01 0.00000E+00
 -1      2779 1.29900E+02 4.10971E+01 0.00000E+00
 -1      2780 1.27650E+02 3.99882E+01 0.00000E+00
 -1      2781 1.31400E+02 4.10971E+01 0.00000E+00
 -1      2782 1.32900E+02 4.10971E+01 0.00000E+00
 -1      2783 1.30650E+02 3.99882E+01 0.00000E+00
 -1      2784 1.34400E+02 4.10971E+01 0.00000E+00
 -1      2785 1.35900E+02 4.10971E+01 0.00000E+00
 -1      2786 1.33650E+02 3.99882E+01 0.00000E+00
 -1      2787 1.37400E+02 4.10971E+01 0.00000E+00
 -1      2788 1.38900E+02 4.10971E+01 0.00000E+00
 -1      2789 1.36650E+02 3.99882E+01 0.00000E+00
 -1      2790 1.40928E+02 4.09655E+01 0.00000E+00
 -1      2791 1.41192E+02 3.96958E+01 0.00000E+00
 -1      2792 1.39914E+02 4.09362E+01 0.00000E+00
 -1      2793 2.12850E+01 7.90325E+00 0.00000E+00
 -1      2794 1.97850E+01 7.90325E+00 0.00000E+00
 -1      2795 3.02850E+01 7.90325E+00 0.00000E+00
 -1      2796 2.87850E+01 7.90325E+00 0.00000E+00
 -1      2797 3.32850E+01 7.90325E+00 0.00000E+00
 -1      2798 3.17850E+01 7.90325E+00 0.00000E+00
 -1      2799 3.10350E+01 9.20225E+00 0.00000E+00
 -1      2800 3.62850E+01 7.90325E+00 0.00000E+00
 -1      2801 3.47850E+01 7.90325E+00 0.00000E+00
 -1      2802 3.40350E+01 9.20225E+00 0.00000E+00
 -1      2803 3.92850E+01 7.90325E+00 0.00000E+00
 -1      2804 3.77850E+01 7.90325E+00 0.00000E+00
 -1      2805 3.70350E+01 9.20225E+00 0.00000E+00
 -1      2806 4.22850E+01 7.90325E+00 0.00000E+00
 -1      2807 4.07850E+01 7.90325E+00 0.00000E+00
 -1      2808 4.00350E+01 9.20225E+00 0.00000E+00
 -1      2809 4.52850E+01 7.90325E+00 0.00000E+00
 -1      2810 4.37850E+01 7.90325E+00 0.00000E+00
 -1      2811 4.30350E+01 9.20225E+00 0.00000E+00
 -1      2812 4.82850E+01 7.90325E+00 0.00000E+00
 -1      2813 4.67850E+01 7.90325E+00 0.00000E+00
 -1      2814 4.60350E+01 9.20225E+00 0.00000E+00
 -1      2815 5.12850E+01 7.90325E+00 0.00000E+00
 -1      2816 4.97850E+01 7.90325E+00 0.00000E+00
 -1      2817 4.90350E+01 9.20225E+00 0.00000E+00
 -1      2818 5.42850E+01 7.90325E+00 0.00000E+00
 -1      2819 5.27850E+01 7.90325E+00 0.00000E+00
 -1      2820 5.20350E+01 9.20225E+00 0.00000E+00
 -1      2821 5.72850E+01 7.90325E+00 0.00000E+00
 -1      2822 5.57850E+01 7.90325E+00 0.00000E+00
 -1      2823 5.50350E+01 9.20225E+00 0.00000E+00
 -1      2824 6.02850E+01 7.90325E+00 0.00000E+00
 -1      2825 5.87850E+01 7.90325E+00 0.00000E+00
 -1      2826 5.80350E+01 9.20225E+00 0.00000E+00
 -1      2827 6.32850E+01 7.90325E+00 0.00000E+00
 -1      2828 6.17850E+01 7.90325E+00 0.00000E+00
 -1      2829 6.10350E+01 9.20225E+00 0.00000E+00
 -1      2830 6.62850E+01 7.90325E+00 0.00000E+00
 -1      2831 6.47850E+01 7.90325E+00 0.00000E+00
 -1      2832 6.40350E+01 9.20225E+00 0.00000E+00
 -1      2833 6.92850E+01 7.90325E+00 0.00000E+00
 -1      2834 6.77850E+01 7.90325E+00 0.00000E+00
 -1      2835 6.70350E+01 9.20225E+00 0.00000E+00
 -1      2836 7.22850E+01 7.90325E+00 0.00000E+00
 -1      2837 7.07850E+01 7.90325E+00 0.00000E+00
 -1      2838 7.00350E+01 9.20225E+00 0.00000E+00
 -1      2839 7.52850E+01 7.90325E+00 0.00000E+00
 -1      2840 7.37850E+01 7.90325E+00 0.00000E+00
 -1      2841 7.30350E+01 9.20225E+00 0.00000E+00
 -1      2842 7.82850E+01 7.90325E+00 0.00000E+00
 -1      2843 7.67850E+01 7.90325E+00 0.00000E+00
 -1      2844 7.60350E+01 9.20225E+00 0.00000E+00
 -1      2845 8.12850E+01 7.90325E+00 0.00000E+00
 -1      2846 7.97850E+01 7.90325E+00 0.00000E+00
 -1      2847 7.90350E+01 9.20225E+00 0.00000E+00
 -1      2848 8.42850E+01 7.90325E+00 0.00000E+00
 -1      2849 8.27850E+01 7.90325E+00 0.00000E+00
 -1      2850 8.20350E+01 9.20225E+00 0.00000E+00
 -1      2851 8.72850E+01 7.90325E+00 0.00000E+00
 -1      2852 8.57850E+01 7.90325E+00 0.00000E+00
 -1      2853 8.50350E+01 9.20225E+00 0.00000E+00
 -1      2854 9.02850E+01 7.90325E+00 0.00000E+00
 -1      2855 8.87850E+01 7.90325E+00 0.00000E+00
 -1      2856 8.80350E+01 9.20225E+00 0.00000E+00
 -1      2857 9.32850E+01 7.90325E+00 0.00000E+00
 -1      2858 9.17850E+01 7.90325E+00 0.00000E+00
 -1      2859 9.10350E+01 9.20225E+00 0.00000E+00
 -1      2860 9.62850E+01 7.90325E+00 0.00000E+00
 -1      2861 9.47850E+01 7.90325E+00 0.00000E+00
 -1      2862 9.40350E+01 9.20225E+00 0.00000E+00
 -1      2863 9.92850E+01 7.90325E+00 0.00000E+00
 -1      2864 9.77850E+01 7.90325E+00 0.00000E+00
 -1      2865 9.70350E+01 9.20225E+00 0.00000E+00
 -1      2866 1.02285E+02 7.90325E+00 0.00000E+00
 -1      2867 1.00785E+02 7.90325E+00 0.00000E+00
 -1      2868 1.00035E+02 9.20225E+00 0.00000E+00
 -1      2869 1.05285E+02 7.90325E+00 0.00000E+00
 -1      2870 1.03785E+02 7.90325E+00 0.00000E+00
 -1      2871 1.03035E+02 9.20225E+00 0.00000E+00
 -1      2872 1.08285E+02 7.90325E+00 0.00000E+00
 -1      2873 1.06785E+02 7.90325E+00 0.00000E+00
 -1      2874 1.06035E+02 9.20225E+00 0.00000E+00
 -1      2875 1.11285E+02 7.90325E+00 0.00000E+00
 -1      2876 1.09785E+02 7.90325E+00 0.00000E+00
 -1      2877 1.09035E+02 9.20225E+00 0.00000E+00
 -1      2878 1.14285E+02 7.90325E+00 0.00000E+00
 -1      2879 1.12785E+02 7.90325E+00 0.00000E+00
 -1      2880 1.12035E+02 9.20225E+00 0.00000E+00
 -1      2881 1.17285E+02 7.90325E+00 0.00000E+00
 -1      2882 1.15785E+02 7.90325E+00 0.00000E+00
 -1      2883 1.15035E+02 9.20225E+00 0.00000E+00
 -1      2884 1.20285E+02 7.90325E+00 0.00000E+00
 -1      2885 1.18785E+02 7.90325E+00 0.00000E+00
 -1      2886 1.18035E+02 9.20225E+00 0.00000E+00
 -1      2887 1.23285E+02 7.90325E+00 0.00000E+00
 -1      2888 1.21785E+02 7.90325E+00 0.00000E+00
 -1      2889 1.21035E+02 9.20225E+00 0.00000E+00
 -1      2890 1.26285E+02 7.90325E+00 0.00000E+00
 -1      2891 1.24785E+02 7.90325E+00 0.00000E+00
 -1      2892 1.24035E+02 9.20225E+00 0.00000E+00
 -1      2893 1.29285E+02 7.90325E+00 0.00000E+00
 -1      2894 1.27785E+02 7.90325E+00 0.00000E+00
 -1      2895 1.27035E+02 9.20225E+00 0.00000E+00
 -1      2896 1.32285E+02 7.90325E+00 0.00000E+00
 -1      2897 1.30785E+02 7.90325E+00 0.00000E+00
 -1      2898 1.30035E+02 9.20225E+00 0.00000E+00
 -1      2899 1.35285E+02 7.90325E+00 0.00000E+00
 -1      2900 1.33785E+02 7.90325E+00 0.00000E+00
 -1      2901 1.33035E+02 9.20225E+00 0.00000E+00
 -1      2902 1.38285E+02 7.90325E+00 0.00000E+00
 -1      2903 1.36785E+02 7.90325E+00 0.00000E+00
 -1      2904 1.36035E+02 9.20225E+00 0.00000E+00
 -1      2905 1.40953E+02 8.18394E+00 0.00000E+00
 -1      2906 1.39453E+02 8.18394E+00 0.00000E+00
 -1      2907 1.38703E+02 9.48294E+00 0.00000E+00
 -1      2908 1.41038E+02 1.00443E+01 0.00000E+00
 -1      2909 1.40907E+02 2.42875E+01 0.00000E+00
 -1      2910 1.40907E+02 2.28125E+01 0.00000E+00
 -1      2911 1.40907E+02 1.83875E+01 0.00000E+00
 -1      2912 1.40907E+02 1.69125E+01 0.00000E+00
 -1      2913 1.40907E+02 2.72375E+01 0.00000E+00
 -1      2914 1.40907E+02 2.57625E+01 0.00000E+00
 -1      2915 1.39608E+02 2.50250E+01 0.00000E+00
 -1      2916 1.40907E+02 2.13375E+01 0.00000E+00
 -1      2917 1.40907E+02 1.98625E+01 0.00000E+00
 -1      2918 1.39608E+02 1.91250E+01 0.00000E+00
 -1      2919 1.39608E+02 2.20750E+01 0.00000E+00
 -1      2920 1.19738E+02 1.51687E+01 0.00000E+00
 -1      2921 1.21016E+02 1.51954E+01 0.00000E+00
 -1      2922 1.40907E+02 3.01375E+01 0.00000E+00
 -1      2923 1.40907E+02 2.86875E+01 0.00000E+00
 -1      2924 1.39608E+02 2.79500E+01 0.00000E+00
 -1      2925 1.40907E+02 3.30875E+01 0.00000E+00
 -1      2926 1.40907E+02 3.16125E+01 0.00000E+00
 -1      2927 1.39608E+02 3.08750E+01 0.00000E+00
 -1      2928 1.40907E+02 3.60375E+01 0.00000E+00
 -1      2929 1.40907E+02 3.45625E+01 0.00000E+00
 -1      2930 1.39608E+02 3.38250E+01 0.00000E+00
 -1      2931 1.41192E+02 3.82207E+01 0.00000E+00
 -1      2932 1.82850E+01 7.90325E+00 0.00000E+00
 -1      2933 1.67850E+01 7.90325E+00 0.00000E+00
 -1      2934 1.90350E+01 9.20225E+00 0.00000E+00
 -1      2935 1.28015E+02 3.63081E+01 0.00000E+00
 -1      2936 1.27101E+02 3.70743E+01 0.00000E+00
 -1      2937 1.20911E+02 3.93465E+01 0.00000E+00
 -1      2938 1.19637E+02 3.93294E+01 0.00000E+00
 -1      2939 9.25425E+00 4.07069E+01 0.00000E+00
 -1      2940 1.06178E+01 4.09709E+01 0.00000E+00
 -1      2941 9.22200E+00 3.94717E+01 0.00000E+00
 -1      2942 1.09751E+02 3.45975E+01 0.00000E+00
 -1      2943 1.09274E+02 3.37243E+01 0.00000E+00
 -1      2944 1.11326E+02 3.67510E+01 0.00000E+00
 -1      2945 1.10437E+02 3.57991E+01 0.00000E+00
 -1      2946 1.31422E+02 2.95087E+01 0.00000E+00
 -1      2947 1.31220E+02 3.05206E+01 0.00000E+00
 -1      2948 1.07936E+02 2.47241E+01 0.00000E+00
 -1      2949 1.08015E+02 2.36010E+01 0.00000E+00
 -1      2950 2.72850E+01 7.90325E+00 0.00000E+00
 -1      2951 2.57850E+01 7.90325E+00 0.00000E+00
 -1      2952 2.80350E+01 9.20225E+00 0.00000E+00
 -1      2953 2.42850E+01 7.90325E+00 0.00000E+00
 -1      2954 2.27850E+01 7.90325E+00 0.00000E+00
 -1      2955 2.50350E+01 9.20225E+00 0.00000E+00
 -1      2956 1.17589E+01 4.09389E+01 0.00000E+00
 -1      2957 1.32589E+01 4.09389E+01 0.00000E+00
 -1      2958 1.40089E+01 3.96399E+01 0.00000E+00
 -1      2959 1.17266E+01 3.97038E+01 0.00000E+00
 -1      2960 8.91450E+00 8.42712E+00 0.00000E+00
 -1      2961 1.52850E+01 7.90325E+00 0.00000E+00
 -1      2962 1.37850E+01 7.90325E+00 0.00000E+00
 -1      2963 1.30350E+01 9.20225E+00 0.00000E+00
 -1      2964 1.60350E+01 9.20225E+00 0.00000E+00
 -1      2965 9.09300E+00 1.68813E+01 0.00000E+00
 -1      2966 9.09300E+00 1.83563E+01 0.00000E+00
 -1      2967 1.03920E+01 1.90812E+01 0.00000E+00
 -1      2968 1.03920E+01 1.61437E+01 0.00000E+00
 -1      2969 9.09300E+00 3.15875E+01 0.00000E+00
 -1      2970 9.09300E+00 3.30625E+01 0.00000E+00
 -1      2971 1.08786E+02 3.25066E+01 0.00000E+00
 -1      2972 1.08424E+02 3.12804E+01 0.00000E+00
 -1      2973 1.22303E+02 1.52223E+01 0.00000E+00
 -1      2974 1.23298E+02 1.53893E+01 0.00000E+00
 -1      2975 1.10345E+02 1.95383E+01 0.00000E+00
 -1      2976 1.11177E+02 1.87388E+01 0.00000E+00
 -1      2977 1.30727E+02 2.17575E+01 0.00000E+00
 -1      2978 1.31293E+02 2.29578E+01 0.00000E+00
 -1      2979 1.12225E+02 1.79184E+01 0.00000E+00
 -1      2980 1.13155E+02 1.73370E+01 0.00000E+00
 -1      2981 1.23725E+02 3.89711E+01 0.00000E+00
 -1      2982 1.22411E+02 3.93465E+01 0.00000E+00
 -1      2983 1.24704E+02 1.59497E+01 0.00000E+00
 -1      2984 1.26060E+02 1.65860E+01 0.00000E+00
 -1      2985 1.27404E+02 1.74078E+01 0.00000E+00
 -1      2986 1.28349E+02 1.81736E+01 0.00000E+00
 -1      2987 1.31756E+02 2.69233E+01 0.00000E+00
 -1      2988 1.31665E+02 2.82477E+01 0.00000E+00
 -1      2989 1.31064E+02 3.16691E+01 0.00000E+00
 -1      2990 1.30719E+02 3.26236E+01 0.00000E+00
 -1      2991 1.31633E+02 2.44356E+01 0.00000E+00
 -1      2992 1.31744E+02 2.55572E+01 0.00000E+00
 -1      2993 1.16422E+02 4.02131E+01 0.00000E+00
 -1      2994 9.09300E+00 3.45313E+01 0.00000E+00
 -1      2995 9.09300E+00 3.60000E+01 0.00000E+00
 -1      2996 1.03920E+01 3.37938E+01 0.00000E+00
 -1      2997 1.32554E+02 2.62781E+01 0.00000E+00
 -1      2998 1.03920E+01 2.49750E+01 0.00000E+00
 -1      2999 9.09300E+00 2.57000E+01 0.00000E+00
 -1      3000 9.09300E+00 2.71750E+01 0.00000E+00
 -1      3001 1.31265E+02 2.06621E+01 0.00000E+00
 -1      3002 1.27125E+02 1.62375E+01 0.00000E+00
 -1      3003 1.24376E+02 1.48552E+01 0.00000E+00
 -1      3004 1.13560E+02 1.66049E+01 0.00000E+00
 -1      3005 1.25225E+02 3.88873E+01 0.00000E+00
 -1      3006 1.24650E+02 4.00720E+01 0.00000E+00
 -1      3007 1.16292E+02 1.59580E+01 0.00000E+00
 -1      3008 1.16774E+02 1.50761E+01 0.00000E+00
 -1      3009 1.15456E+02 1.55694E+01 0.00000E+00
 -1      3010 1.11099E+02 1.75788E+01 0.00000E+00
 -1      3011 1.18268E+02 1.45368E+01 0.00000E+00
 -1      3012 1.19003E+02 1.48528E+01 0.00000E+00
 -1      3013 1.19662E+02 1.39250E+01 0.00000E+00
 -1      3014 1.12918E+02 3.85810E+01 0.00000E+00
 -1      3015 1.21650E+02 4.01557E+01 0.00000E+00
 -1      3016 1.39164E+02 3.98273E+01 0.00000E+00
 -1      3017 1.29888E+02 3.58650E+01 0.00000E+00
 -1      3018 1.28952E+02 3.60866E+01 0.00000E+00
 -1      3019 1.29099E+02 3.71912E+01 0.00000E+00
 -1      3020 2.20350E+01 9.20225E+00 0.00000E+00
 -1      3021 1.41038E+02 1.15068E+01 0.00000E+00
 -1      3022 1.39870E+02 1.12261E+01 0.00000E+00
 -1      3023 1.41038E+02 1.29693E+01 0.00000E+00
 -1      3024 1.07444E+02 2.53549E+01 0.00000E+00
 -1      3025 1.39529E+02 3.86553E+01 0.00000E+00
 -1      3026 1.40542E+02 3.72095E+01 0.00000E+00
 -1      3027 1.39243E+02 3.64720E+01 0.00000E+00
 -1      3028 1.38514E+02 3.88161E+01 0.00000E+00
 -1      3029 1.32323E+02 2.89052E+01 0.00000E+00
 -1      3030 1.30755E+02 3.36118E+01 0.00000E+00
 -1      3031 1.30791E+02 3.46001E+01 0.00000E+00
 -1      3032 1.31804E+02 3.34515E+01 0.00000E+00
 -1      3033 1.19036E+02 4.01844E+01 0.00000E+00
 -1      3034 1.18523E+02 3.93580E+01 0.00000E+00
 -1      3035 1.17558E+02 3.92166E+01 0.00000E+00
 -1      3036 1.18286E+02 4.12095E+01 0.00000E+00
 -1      3037 9.66450E+00 9.72612E+00 0.00000E+00
 -1      3038 1.09446E+02 3.57731E+01 0.00000E+00
 -1      3039 1.07814E+02 2.26424E+01 0.00000E+00
 -1      3040 1.07612E+02 2.16837E+01 0.00000E+00
 -1      3041 1.06919E+02 2.31437E+01 0.00000E+00
 -1      3042 1.08271E+02 3.33538E+01 0.00000E+00
 -1      3043 1.07782E+02 3.06573E+01 0.00000E+00
 -1      3044 1.07141E+02 3.00342E+01 0.00000E+00
 -1      3045 1.07141E+02 3.15131E+01 0.00000E+00
 -1      3046 1.31924E+02 3.13148E+01 0.00000E+00
 -1      3047 1.07158E+02 2.85786E+01 0.00000E+00
 -1      3048 1.07775E+02 2.78929E+01 0.00000E+00
 -1      3049 1.07150E+02 2.72931E+01 0.00000E+00
 -1      3050 1.09635E+01 1.04636E+01 0.00000E+00
 -1      3051 9.09300E+00 2.86437E+01 0.00000E+00
 -1      3052 9.09300E+00 3.01187E+01 0.00000E+00
 -1      3053 1.03920E+01 3.08563E+01 0.00000E+00
 -1      3054 1.03920E+01 2.79188E+01 0.00000E+00
 -1      3055 1.40973E+02 1.56722E+01 0.00000E+00
 -1      3056 1.40973E+02 1.42097E+01 0.00000E+00
 -1      3057 1.39805E+02 1.39290E+01 0.00000E+00
 -1      3058 1.39674E+02 1.64097E+01 0.00000E+00
 -1      3059 1.21683E+02 1.42679E+01 0.00000E+00
 -1      3060 1.09279E+02 1.97908E+01 0.00000E+00
 -1      3061 1.29569E+02 1.82135E+01 0.00000E+00
 -1      3062 1.26095E+02 3.83620E+01 0.00000E+00
 -1      3063 1.27156E+02 3.87005E+01 0.00000E+00
 -1      3064 1.08754E+02 3.69655E+01 0.00000E+00
 -1      3065 1.08067E+02 3.57639E+01 0.00000E+00
 -1      3066 1.16910E+01 1.24625E+01 0.00000E+00
 -1      3067 1.16910E+01 1.39375E+01 0.00000E+00
 -1      3068 1.33442E+02 2.84672E+01 0.00000E+00
 -1      3069 1.33199E+02 2.97282E+01 0.00000E+00
 -1      3070 1.28656E+02 3.87005E+01 0.00000E+00
 -1      3071 1.33405E+02 2.55874E+01 0.00000E+00
 -1      3072 1.33417E+02 2.69535E+01 0.00000E+00
 -1      3073 1.89000E+01 3.83090E+01 0.00000E+00
 -1      3074 2.04000E+01 3.83090E+01 0.00000E+00
 -1      3075 2.19000E+01 3.83090E+01 0.00000E+00
 -1      3076 2.34000E+01 3.83090E+01 0.00000E+00
 -1      3077 2.11500E+01 3.70100E+01 0.00000E+00
 -1      3078 2.49000E+01 3.83090E+01 0.00000E+00
 -1      3079 2.64000E+01 3.83090E+01 0.00000E+00
 -1      3080 2.41500E+01 3.70100E+01 0.00000E+00
 -1      3081 2.79000E+01 3.83090E+01 0.00000E+00
 -1      3082 2.94000E+01 3.83090E+01 0.00000E+00
 -1      3083 2.71500E+01 3.70100E+01 0.00000E+00
 -1      3084 3.09000E+01 3.83090E+01 0.00000E+00
 -1      3085 3.24000E+01 3.83090E+01 0.00000E+00
 -1      3086 3.01500E+01 3.70100E+01 0.00000E+00
 -1      3087 3.39000E+01 3.83090E+01 0.00000E+00
 -1      3088 3.54000E+01 3.83090E+01 0.00000E+00
 -1      3089 3.31500E+01 3.70100E+01 0.00000E+00
 -1      3090 3.69000E+01 3.83090E+01 0.00000E+00
 -1      3091 3.84000E+01 3.83090E+01 0.00000E+00
 -1      3092 3.61500E+01 3.70100E+01 0.00000E+00
 -1      3093 3.99000E+01 3.83090E+01 0.00000E+00
 -1      3094 4.14000E+01 3.83090E+01 0.00000E+00
 -1      3095 3.91500E+01 3.70100E+01 0.00000E+00
 -1      3096 4.29000E+01 3.83090E+01 0.00000E+00
 -1      3097 4.44000E+01 3.83090E+01 0.00000E+00
 -1      3098 4.21500E+01 3.70100E+01 0.00000E+00
 -1      3099 4.59000E+01 3.83090E+01 0.00000E+00
 -1      3100 4.74000E+01 3.83090E+01 0.00000E+00
 -1      3101 4.51500E+01 3.70100E+01 0.00000E+00
 -1      3102 4.89000E+01 3.83090E+01 0.00000E+00
 -1      3103 5.04000E+01 3.83090E+01 0.00000E+00
 -1      3104 4.81500E+01 3.70100E+01 0.00000E+00
 -1      3105 5.19000E+01 3.83090E+01 0.00000E+00
 -1      3106 5.34000E+01 3.83090E+01 0.00000E+00
 -1      3107 5.11500E+01 3.70100E+01 0.00000E+00
 -1      3108 5.49000E+01 3.83090E+01 0.00000E+00
 -1      3109 5.64000E+01 3.83090E+01 0.00000E+00
 -1      3110 5.41500E+01 3.70100E+01 0.00000E+00
 -1      3111 5.79000E+01 3.83090E+01 0.00000E+00
 -1      3112 5.94000E+01 3.83090E+01 0.00000E+00
 -1      3113 5.71500E+01 3.70100E+01 0.00000E+00
 -1      3114 6.09000E+01 3.83090E+01 0.00000E+00
 -1      3115 6.24000E+01 3.83090E+01 0.00000E+00
 -1      3116 6.01500E+01 3.70100E+01 0.00000E+00
 -1      3117 6.39000E+01 3.83090E+01 0.00000E+00
 -1      3118 6.54000E+01 3.83090E+01 0.00000E+00
 -1      3119 6.31500E+01 3.70100E+01 0.00000E+00
 -1      3120 6.69000E+01 3.83090E+01 0.00000E+00
 -1      3121 6.84000E+01 3.83090E+01 0.00000E+00
 -1      3122 6.61500E+01 3.70100E+01 0.00000E+00
 -1      3123 6.99000E+01 3.83090E+01 0.00000E+00
 -1      3124 7.14000E+01 3.83090E+01 0.00000E+00
 -1      3125 6.91500E+01 3.70100E+01 0.00000E+00
 -1      3126 7.29000E+01 3.83090E+01 0.00000E+00
 -1      3127 7.44000E+01 3.83090E+01 0.00000E+00
 -1      3128 7.21500E+01 3.70100E+01 0.00000E+00
 -1      3129 7.59000E+01 3.83090E+01 0.00000E+00
 -1      3130 7.74000E+01 3.83090E+01 0.00000E+00
 -1      3131 7.51500E+01 3.70100E+01 0.00000E+00
 -1      3132 7.89000E+01 3.83090E+01 0.00000E+00
 -1      3133 8.04000E+01 3.83090E+01 0.00000E+00
 -1      3134 7.81500E+01 3.70100E+01 0.00000E+00
 -1      3135 8.19000E+01 3.83090E+01 0.00000E+00
 -1      3136 8.34000E+01 3.83090E+01 0.00000E+00
 -1      3137 8.11500E+01 3.70100E+01 0.00000E+00
 -1      3138 8.49000E+01 3.83090E+01 0.00000E+00
 -1      3139 8.64000E+01 3.83090E+01 0.00000E+00
 -1      3140 8.41500E+01 3.70100E+01 0.00000E+00
 -1      3141 8.79000E+01 3.83090E+01 0.00000E+00
 -1      3142 8.94000E+01 3.83090E+01 0.00000E+00
 -1      3143 8.71500E+01 3.70100E+01 0.00000E+00
 -1      3144 9.09000E+01 3.83090E+01 0.00000E+00
 -1      3145 9.24000E+01 3.83090E+01 0.00000E+00
 -1      3146 9.01500E+01 3.70100E+01 0.00000E+00
 -1      3147 9.39000E+01 3.83090E+01 0.00000E+00
 -1      3148 9.54000E+01 3.83090E+01 0.00000E+00
 -1      3149 9.31500E+01 3.70100E+01 0.00000E+00
 -1      3150 9.69000E+01 3.83090E+01 0.00000E+00
 -1      3151 9.84000E+01 3.83090E+01 0.00000E+00
 -1      3152 9.61500E+01 3.70100E+01 0.00000E+00
 -1      3153 9.99000E+01 3.83090E+01 0.00000E+00
 -1      3154 1.01400E+02 3.83090E+01 0.00000E+00
 -1      3155 9.91500E+01 3.70100E+01 0.00000E+00
 -1      3156 1.02900E+02 3.83090E+01 0.00000E+00
 -1      3157 1.04400E+02 3.83090E+01 0.00000E+00
 -1      3158 1.02150E+02 3.70100E+01 0.00000E+00
 -1      3159 1.06262E+02 3.82821E+01 0.00000E+00
 -1      3160 1.07762E+02 3.82821E+01 0.00000E+00
 -1      3161 1.09141E+02 3.82914E+01 0.00000E+00
 -1      3162 1.10641E+02 3.82914E+01 0.00000E+00
 -1      3163 1.16786E+02 4.12095E+01 0.00000E+00
 -1      3164 1.32900E+02 3.86892E+01 0.00000E+00
 -1      3165 1.34400E+02 3.86892E+01 0.00000E+00
 -1      3166 1.35707E+02 3.87527E+01 0.00000E+00
 -1      3167 1.37207E+02 3.87527E+01 0.00000E+00
 -1      3168 1.37572E+02 3.75806E+01 0.00000E+00
 -1      3169 1.34957E+02 3.74537E+01 0.00000E+00
 -1      3170 2.87850E+01 1.05013E+01 0.00000E+00
 -1      3171 2.72850E+01 1.05013E+01 0.00000E+00
 -1      3172 3.17850E+01 1.05013E+01 0.00000E+00
 -1      3173 3.02850E+01 1.05013E+01 0.00000E+00
 -1      3174 2.95350E+01 1.18003E+01 0.00000E+00
 -1      3175 4.07850E+01 1.05013E+01 0.00000E+00
 -1      3176 3.92850E+01 1.05013E+01 0.00000E+00
 -1      3177 4.37850E+01 1.05013E+01 0.00000E+00
 -1      3178 4.22850E+01 1.05013E+01 0.00000E+00
 -1      3179 4.15350E+01 1.18003E+01 0.00000E+00
 -1      3180 4.67850E+01 1.05013E+01 0.00000E+00
 -1      3181 4.52850E+01 1.05013E+01 0.00000E+00
 -1      3182 4.45350E+01 1.18003E+01 0.00000E+00
 -1      3183 4.97850E+01 1.05013E+01 0.00000E+00
 -1      3184 4.82850E+01 1.05013E+01 0.00000E+00
 -1      3185 4.75350E+01 1.18003E+01 0.00000E+00
 -1      3186 5.27850E+01 1.05013E+01 0.00000E+00
 -1      3187 5.12850E+01 1.05013E+01 0.00000E+00
 -1      3188 5.05350E+01 1.18003E+01 0.00000E+00
 -1      3189 5.57850E+01 1.05013E+01 0.00000E+00
 -1      3190 5.42850E+01 1.05013E+01 0.00000E+00
 -1      3191 5.35350E+01 1.18003E+01 0.00000E+00
 -1      3192 5.87850E+01 1.05013E+01 0.00000E+00
 -1      3193 5.72850E+01 1.05013E+01 0.00000E+00
 -1      3194 5.65350E+01 1.18003E+01 0.00000E+00
 -1      3195 6.17850E+01 1.05013E+01 0.00000E+00
 -1      3196 6.02850E+01 1.05013E+01 0.00000E+00
 -1      3197 5.95350E+01 1.18003E+01 0.00000E+00
 -1      3198 6.47850E+01 1.05013E+01 0.00000E+00
 -1      3199 6.32850E+01 1.05013E+01 0.00000E+00
 -1      3200 6.25350E+01 1.18003E+01 0.00000E+00
 -1      3201 6.77850E+01 1.05013E+01 0.00000E+00
 -1      3202 6.62850E+01 1.05013E+01 0.00000E+00
 -1      3203 6.55350E+01 1.18003E+01 0.00000E+00
 -1      3204 7.07850E+01 1.05013E+01 0.00000E+00
 -1      3205 6.92850E+01 1.05013E+01 0.00000E+00
 -1      3206 6.85350E+01 1.18003E+01 0.00000E+00
 -1      3207 7.37850E+01 1.05013E+01 0.00000E+00
 -1      3208 7.22850E+01 1.05013E+01 0.00000E+00
 -1      3209 7.15350E+01 1.18003E+01 0.00000E+00
 -1      3210 7.67850E+01 1.05013E+01 0.00000E+00
 -1      3211 7.52850E+01 1.05013E+01 0.00000E+00
 -1      3212 7.45350E+01 1.18003E+01 0.00000E+00
 -1      3213 7.97850E+01 1.05013E+01 0.00000E+00
 -1      3214 7.82850E+01 1.05013E+01 0.00000E+00
 -1      3215 7.75350E+01 1.18003E+01 0.00000E+00
 -1      3216 8.27850E+01 1.05013E+01 0.00000E+00
 -1      3217 8.12850E+01 1.05013E+01 0.00000E+00
 -1      3218 8.05350E+01 1.18003E+01 0.00000E+00
 -1      3219 8.57850E+01 1.05013E+01 0.00000E+00
 -1      3220 8.42850E+01 1.05013E+01 0.00000E+00
 -1      3221 8.35350E+01 1.18003E+01 0.00000E+00
 -1      3222 8.87850E+01 1.05013E+01 0.00000E+00
 -1      3223 8.72850E+01 1.05013E+01 0.00000E+00
 -1      3224 8.65350E+01 1.18003E+01 0.00000E+00
 -1      3225 9.17850E+01 1.05013E+01 0.00000E+00
 -1      3226 9.02850E+01 1.05013E+01 0.00000E+00
 -1      3227 8.95350E+01 1.18003E+01 0.00000E+00
 -1      3228 9.47850E+01 1.05013E+01 0.00000E+00
 -1      3229 9.32850E+01 1.05013E+01 0.00000E+00
 -1      3230 9.25350E+01 1.18003E+01 0.00000E+00
 -1      3231 9.77850E+01 1.05013E+01 0.00000E+00
 -1      3232 9.62850E+01 1.05013E+01 0.00000E+00
 -1      3233 9.55350E+01 1.18003E+01 0.00000E+00
 -1      3234 1.00785E+02 1.05013E+01 0.00000E+00
 -1      3235 9.92850E+01 1.05013E+01 0.00000E+00
 -1      3236 9.85350E+01 1.18003E+01 0.00000E+00
 -1      3237 1.03785E+02 1.05013E+01 0.00000E+00
 -1      3238 1.02285E+02 1.05013E+01 0.00000E+00
 -1      3239 1.01535E+02 1.18003E+01 0.00000E+00
 -1      3240 1.06785E+02 1.05013E+01 0.00000E+00
 -1      3241 1.05285E+02 1.05013E+01 0.00000E+00
 -1      3242 1.04535E+02 1.18003E+01 0.00000E+00
 -1      3243 1.09785E+02 1.05013E+01 0.00000E+00
 -1      3244 1.08285E+02 1.05013E+01 0.00000E+00
 -1      3245 1.07535E+02 1.18003E+01 0.00000E+00
 -1      3246 1.12785E+02 1.05013E+01 0.00000E+00
 -1      3247 1.11285E+02 1.05013E+01 0.00000E+00
 -1      3248 1.10535E+02 1.18003E+01 0.00000E+00
 -1      3249 1.15785E+02 1.05013E+01 0.00000E+00
 -1      3250 1.14285E+02 1.05013E+01 0.00000E+00
 -1      3251 1.13535E+02 1.18003E+01 0.00000E+00
 -1      3252 1.19231E+02 1.14056E+01 0.00000E+00
 -1      3253 1.17731E+02 1.14056E+01 0.00000E+00
 -1      3254 1.24785E+02 1.05013E+01 0.00000E+00
 -1      3255 1.23285E+02 1.05013E+01 0.00000E+00
 -1      3256 1.27785E+02 1.05013E+01 0.00000E+00
 -1      3257 1.26285E+02 1.05013E+01 0.00000E+00
 -1      3258 1.25535E+02 1.18003E+01 0.00000E+00
 -1      3259 1.30785E+02 1.05013E+01 0.00000E+00
 -1      3260 1.29285E+02 1.05013E+01 0.00000E+00
 -1      3261 1.28535E+02 1.18003E+01 0.00000E+00
 -1      3262 1.33785E+02 1.05013E+01 0.00000E+00
 -1      3263 1.32285E+02 1.05013E+01 0.00000E+00
 -1      3264 1.31535E+02 1.18003E+01 0.00000E+00
 -1      3265 1.36785E+02 1.05013E+01 0.00000E+00
 -1      3266 1.35285E+02 1.05013E+01 0.00000E+00
 -1      3267 1.34535E+02 1.18003E+01 0.00000E+00
 -1      3268 1.38912E+02 1.10040E+01 0.00000E+00
 -1      3269 1.37744E+02 1.07233E+01 0.00000E+00
 -1      3270 1.36994E+02 1.20223E+01 0.00000E+00
 -1      3271 1.38912E+02 1.24665E+01 0.00000E+00
 -1      3272 1.12409E+02 3.72644E+01 0.00000E+00
 -1      3273 1.16910E+01 2.12875E+01 0.00000E+00
 -1      3274 1.16910E+01 2.27625E+01 0.00000E+00
 -1      3275 1.21063E+02 1.31457E+01 0.00000E+00
 -1      3276 1.22350E+02 1.31727E+01 0.00000E+00
 -1      3277 1.38415E+02 2.57625E+01 0.00000E+00
 -1      3278 1.38415E+02 2.42875E+01 0.00000E+00
 -1      3279 1.06775E+02 2.61954E+01 0.00000E+00
 -1      3280 1.06452E+02 2.49429E+01 0.00000E+00
 -1      3281 1.38309E+02 3.45625E+01 0.00000E+00
 -1      3282 1.38309E+02 3.30875E+01 0.00000E+00
 -1      3283 1.38415E+02 2.86625E+01 0.00000E+00
 -1      3284 1.38415E+02 2.72125E+01 0.00000E+00
 -1      3285 1.37223E+02 2.64750E+01 0.00000E+00
 -1      3286 1.97850E+01 1.05013E+01 0.00000E+00
 -1      3287 1.82850E+01 1.05013E+01 0.00000E+00
 -1      3288 2.27850E+01 1.05013E+01 0.00000E+00
 -1      3289 2.12850E+01 1.05013E+01 0.00000E+00
 -1      3290 2.05350E+01 1.18003E+01 0.00000E+00
 -1      3291 1.38309E+02 3.16125E+01 0.00000E+00
 -1      3292 1.38309E+02 3.01375E+01 0.00000E+00
 -1      3293 1.37010E+02 3.23500E+01 0.00000E+00
 -1      3294 3.77850E+01 1.05013E+01 0.00000E+00
 -1      3295 3.62850E+01 1.05013E+01 0.00000E+00
 -1      3296 3.85350E+01 1.18003E+01 0.00000E+00
 -1      3297 9.14137E+00 3.71183E+01 0.00000E+00
 -1      3298 9.17362E+00 3.83534E+01 0.00000E+00
 -1      3299 1.05371E+01 3.86174E+01 0.00000E+00
 -1      3300 1.04404E+01 3.63808E+01 0.00000E+00
 -1      3301 3.47850E+01 1.05013E+01 0.00000E+00
 -1      3302 3.32850E+01 1.05013E+01 0.00000E+00
 -1      3303 3.55350E+01 1.18003E+01 0.00000E+00
 -1      3304 1.07486E+02 3.43757E+01 0.00000E+00
 -1      3305 1.06998E+02 3.31580E+01 0.00000E+00
 -1      3306 1.32050E+02 1.95158E+01 0.00000E+00
 -1      3307 1.32646E+02 2.08101E+01 0.00000E+00
 -1      3308 2.57850E+01 1.05013E+01 0.00000E+00
 -1      3309 2.42850E+01 1.05013E+01 0.00000E+00
 -1      3310 2.65350E+01 1.18003E+01 0.00000E+00
 -1      3311 1.27032E+02 1.48806E+01 0.00000E+00
 -1      3312 1.28376E+02 1.57024E+01 0.00000E+00
 -1      3313 1.59000E+01 3.83090E+01 0.00000E+00
 -1      3314 1.74000E+01 3.83090E+01 0.00000E+00
 -1      3315 1.81500E+01 3.70100E+01 0.00000E+00
 -1      3316 1.33044E+02 3.08768E+01 0.00000E+00
 -1      3317 1.32888E+02 3.20253E+01 0.00000E+00
 -1      3318 1.34163E+02 3.04388E+01 0.00000E+00
 -1      3319 1.12743E+02 1.56625E+01 0.00000E+00
 -1      3320 1.14157E+02 1.55090E+01 0.00000E+00
 -1      3321 1.09840E+02 1.70498E+01 0.00000E+00
 -1      3322 1.10888E+02 1.62294E+01 0.00000E+00
 -1      3323 1.26488E+01 1.02017E+01 0.00000E+00
 -1      3324 1.20772E+01 1.14631E+01 0.00000E+00
 -1      3325 1.33763E+01 1.22006E+01 0.00000E+00
 -1      3326 1.41488E+01 1.02017E+01 0.00000E+00
 -1      3327 1.32201E+02 2.34342E+01 0.00000E+00
 -1      3328 1.29822E+02 1.68715E+01 0.00000E+00
 -1      3329 1.30921E+02 1.80257E+01 0.00000E+00
 -1      3330 1.23502E+02 1.30475E+01 0.00000E+00
 -1      3331 1.24908E+02 1.36079E+01 0.00000E+00
 -1      3332 1.07850E+02 1.99081E+01 0.00000E+00
 -1      3333 1.08622E+02 1.85166E+01 0.00000E+00
 -1      3334 1.33112E+02 2.24466E+01 0.00000E+00
 -1      3335 1.33452E+02 2.39244E+01 0.00000E+00
 -1      3336 1.29593E+02 3.84789E+01 0.00000E+00
 -1      3337 1.16910E+01 2.42375E+01 0.00000E+00
 -1      3338 1.16910E+01 2.57125E+01 0.00000E+00
 -1      3339 1.29900E+01 2.35000E+01 0.00000E+00
 -1      3340 1.29900E+01 1.46687E+01 0.00000E+00
 -1      3341 1.16910E+01 1.54063E+01 0.00000E+00
 -1      3342 1.16910E+01 1.68750E+01 0.00000E+00
 -1      3343 1.14639E+02 1.46271E+01 0.00000E+00
 -1      3344 1.34316E+02 2.45998E+01 0.00000E+00
 -1      3345 1.05512E+02 3.69831E+01 0.00000E+00
 -1      3346 1.16910E+01 3.30594E+01 0.00000E+00
 -1      3347 1.16910E+01 3.45281E+01 0.00000E+00
 -1      3348 3.25350E+01 1.18003E+01 0.00000E+00
 -1      3349 1.31093E+02 3.84789E+01 0.00000E+00
 -1      3350 1.31843E+02 3.71799E+01 0.00000E+00
 -1      3351 1.30938E+02 3.57047E+01 0.00000E+00
 -1      3352 1.16910E+01 1.83469E+01 0.00000E+00
 -1      3353 1.16910E+01 1.98156E+01 0.00000E+00
 -1      3354 1.29900E+01 2.05531E+01 0.00000E+00
 -1      3355 1.29900E+01 1.76094E+01 0.00000E+00
 -1      3356 1.16981E+02 1.27046E+01 0.00000E+00
 -1      3357 1.22882E+02 1.19254E+01 0.00000E+00
 -1      3358 1.22132E+02 1.06264E+01 0.00000E+00
 -1      3359 1.20632E+02 1.06264E+01 0.00000E+00
 -1      3360 1.38309E+02 1.98625E+01 0.00000E+00
 -1      3361 1.38309E+02 1.83875E+01 0.00000E+00
 -1      3362 1.16299E+01 3.74672E+01 0.00000E+00
 -1      3363 1.16783E+01 3.85855E+01 0.00000E+00
 -1      3364 1.28194E+01 3.85536E+01 0.00000E+00
 -1      3365 1.06794E+02 3.55681E+01 0.00000E+00
 -1      3366 1.05446E+02 2.48292E+01 0.00000E+00
 -1      3367 1.06115E+02 2.39887E+01 0.00000E+00
 -1      3368 1.38309E+02 2.28125E+01 0.00000E+00
 -1      3369 1.38309E+02 2.13375E+01 0.00000E+00
 -1      3370 1.37010E+02 2.06000E+01 0.00000E+00
 -1      3371 1.05571E+02 3.35568E+01 0.00000E+00
 -1      3372 1.06356E+02 3.25350E+01 0.00000E+00
 -1      3373 1.05714E+02 3.19119E+01 0.00000E+00
 -1      3374 1.37116E+02 2.94000E+01 0.00000E+00
 -1      3375 1.38375E+02 1.71472E+01 0.00000E+00
 -1      3376 1.38440E+02 1.59068E+01 0.00000E+00
 -1      3377 1.37076E+02 1.78847E+01 0.00000E+00
 -1      3378 1.32924E+02 3.30135E+01 0.00000E+00
 -1      3379 1.32960E+02 3.40017E+01 0.00000E+00
 -1      3380 1.34044E+02 3.25755E+01 0.00000E+00
 -1      3381 1.29729E+02 1.55146E+01 0.00000E+00
 -1      3382 1.08411E+02 1.71671E+01 0.00000E+00
 -1      3383 1.32303E+02 1.81737E+01 0.00000E+00
 -1      3384 1.05913E+02 2.30301E+01 0.00000E+00
 -1      3385 2.35350E+01 1.18003E+01 0.00000E+00
 -1      3386 1.06060E+02 2.09108E+01 0.00000E+00
 -1      3387 1.06955E+02 2.04095E+01 0.00000E+00
 -1      3388 1.06298E+02 1.91352E+01 0.00000E+00
 -1      3389 1.06516E+02 2.94344E+01 0.00000E+00
 -1      3390 1.05892E+02 2.88346E+01 0.00000E+00
 -1      3391 1.05875E+02 3.02902E+01 0.00000E+00
 -1      3392 1.33897E+02 2.13003E+01 0.00000E+00
 -1      3393 1.39605E+01 3.85216E+01 0.00000E+00
 -1      3394 1.34294E+02 2.77765E+01 0.00000E+00
 -1      3395 1.06158E+02 2.68811E+01 0.00000E+00
 -1      3396 1.69669E+01 1.03515E+01 0.00000E+00
 -1      3397 1.54669E+01 1.03515E+01 0.00000E+00
 -1      3398 1.50806E+01 1.13509E+01 0.00000E+00
 -1      3399 1.77169E+01 1.16505E+01 0.00000E+00
 -1      3400 1.11484E+02 1.51335E+01 0.00000E+00
 -1      3401 1.37758E+02 3.66576E+01 0.00000E+00
 -1      3402 1.38123E+02 3.54855E+01 0.00000E+00
 -1      3403 1.36824E+02 3.47480E+01 0.00000E+00
 -1      3404 1.36451E+02 3.65941E+01 0.00000E+00
 -1      3405 1.26408E+02 1.36079E+01 0.00000E+00
 -1      3406 1.47105E+01 3.72226E+01 0.00000E+00
 -1      3407 1.16910E+01 3.01219E+01 0.00000E+00
 -1      3408 1.16910E+01 3.15906E+01 0.00000E+00
 -1      3409 1.29900E+01 3.23250E+01 0.00000E+00
 -1      3410 1.27659E+02 1.30729E+01 0.00000E+00
 -1      3411 1.37116E+02 2.35500E+01 0.00000E+00
 -1      3412 1.35793E+02 2.39809E+01 0.00000E+00
 -1      3413 1.35746E+02 2.56439E+01 0.00000E+00
 -1      3414 1.17433E+02 1.41483E+01 0.00000E+00
 -1      3415 1.29159E+02 1.30729E+01 0.00000E+00
 -1      3416 1.31070E+02 1.30211E+01 0.00000E+00
 -1      3417 1.30194E+02 1.42937E+01 0.00000E+00
 -1      3418 1.31640E+02 1.54628E+01 0.00000E+00
 -1      3419 1.32570E+02 1.30211E+01 0.00000E+00
 -1      3420 3.32850E+01 1.30992E+01 0.00000E+00
 -1      3421 3.17850E+01 1.30992E+01 0.00000E+00
 -1      3422 1.15487E+02 1.32439E+01 0.00000E+00
 -1      3423 2.34000E+01 3.57110E+01 0.00000E+00
 -1      3424 2.49000E+01 3.57110E+01 0.00000E+00
 -1      3425 2.64000E+01 3.57110E+01 0.00000E+00
 -1      3426 2.79000E+01 3.57110E+01 0.00000E+00
 -1      3427 2.56500E+01 3.44120E+01 0.00000E+00
 -1      3428 2.94000E+01 3.57110E+01 0.00000E+00
 -1      3429 3.09000E+01 3.57110E+01 0.00000E+00
 -1      3430 2.86500E+01 3.44120E+01 0.00000E+00
 -1      3431 3.24000E+01 3.57110E+01 0.00000E+00
 -1      3432 3.39000E+01 3.57110E+01 0.00000E+00
 -1      3433 3.16500E+01 3.44120E+01 0.00000E+00
 -1      3434 3.54000E+01 3.57110E+01 0.00000E+00
 -1      3435 3.69000E+01 3.57110E+01 0.00000E+00
 -1      3436 3.46500E+01 3.44120E+01 0.00000E+00
 -1      3437 3.84000E+01 3.57110E+01 0.00000E+00
 -1      3438 3.99000E+01 3.57110E+01 0.00000E+00
 -1      3439 3.76500E+01 3.44120E+01 0.00000E+00
 -1      3440 4.14000E+01 3.57110E+01 0.00000E+00
 -1      3441 4.29000E+01 3.57110E+01 0.00000E+00
 -1      3442 4.06500E+01 3.44120E+01 0.00000E+00
 -1      3443 4.44000E+01 3.57110E+01 0.00000E+00
 -1      3444 4.59000E+01 3.57110E+01 0.00000E+00
 -1      3445 4.36500E+01 3.44120E+01 0.00000E+00
 -1      3446 4.74000E+01 3.57110E+01 0.00000E+00
 -1      3447 4.89000E+01 3.57110E+01 0.00000E+00
 -1      3448 4.66500E+01 3.44120E+01 0.00000E+00
 -1      3449 5.04000E+01 3.57110E+01 0.00000E+00
 -1      3450 5.19000E+01 3.57110E+01 0.00000E+00
 -1      3451 4.96500E+01 3.44120E+01 0.00000E+00
 -1      3452 5.34000E+01 3.57110E+01 0.00000E+00
 -1      3453 5.49000E+01 3.57110E+01 0.00000E+00
 -1      3454 5.26500E+01 3.44120E+01 0.00000E+00
 -1      3455 5.64000E+01 3.57110E+01 0.00000E+00
 -1      3456 5.79000E+01 3.57110E+01 0.00000E+00
 -1      3457 5.56500E+01 3.44120E+01 0.00000E+00
 -1      3458 5.94000E+01 3.57110E+01 0.00000E+00
 -1      3459 6.09000E+01 3.57110E+01 0.00000E+00
 -1      3460 5.86500E+01 3.44120E+01 0.00000E+00
 -1      3461 6.24000E+01 3.57110E+01 0.00000E+00
 -1      3462 6.39000E+01 3.57110E+01 0.00000E+00
 -1      3463 6.16500E+01 3.44120E+01 0.00000E+00
 -1      3464 6.54000E+01 3.57110E+01 0.00000E+00
 -1      3465 6.69000E+01 3.57110E+01 0.00000E+00
 -1      3466 6.46500E+01 3.44120E+01 0.00000E+00
 -1      3467 6.84000E+01 3.57110E+01 0.00000E+00
 -1      3468 6.99000E+01 3.57110E+01 0.00000E+00
 -1      3469 6.76500E+01 3.44120E+01 0.00000E+00
 -1      3470 7.14000E+01 3.57110E+01 0.00000E+00
 -1      3471 7.29000E+01 3.57110E+01 0.00000E+00
 -1      3472 7.06500E+01 3.44120E+01 0.00000E+00
 -1      3473 7.44000E+01 3.57110E+01 0.00000E+00
 -1      3474 7.59000E+01 3.57110E+01 0.00000E+00
 -1      3475 7.36500E+01 3.44120E+01 0.00000E+00
 -1      3476 7.74000E+01 3.57110E+01 0.00000E+00
 -1      3477 7.89000E+01 3.57110E+01 0.00000E+00
 -1      3478 7.66500E+01 3.44120E+01 0.00000E+00
 -1      3479 8.04000E+01 3.57110E+01 0.00000E+00
 -1      3480 8.19000E+01 3.57110E+01 0.00000E+00
 -1      3481 7.96500E+01 3.44120E+01 0.00000E+00
 -1      3482 8.34000E+01 3.57110E+01 0.00000E+00
 -1      3483 8.49000E+01 3.57110E+01 0.00000E+00
 -1      3484 8.26500E+01 3.44120E+01 0.00000E+00
 -1      3485 8.64000E+01 3.57110E+01 0.00000E+00
 -1      3486 8.79000E+01 3.57110E+01 0.00000E+00
 -1      3487 8.56500E+01 3.44120E+01 0.00000E+00
 -1      3488 8.94000E+01 3.57110E+01 0.00000E+00
 -1      3489 9.09000E+01 3.57110E+01 0.00000E+00
 -1      3490 8.86500E+01 3.44120E+01 0.00000E+00
 -1      3491 9.24000E+01 3.57110E+01 0.00000E+00
 -1      3492 9.39000E+01 3.57110E+01 0.00000E+00
 -1      3493 9.16500E+01 3.44120E+01 0.00000E+00
 -1      3494 9.54000E+01 3.57110E+01 0.00000E+00
 -1      3495 9.69000E+01 3.57110E+01 0.00000E+00
 -1      3496 9.46500E+01 3.44120E+01 0.00000E+00
 -1      3497 9.84000E+01 3.57110E+01 0.00000E+00
 -1      3498 9.99000E+01 3.57110E+01 0.00000E+00
 -1      3499 9.76500E+01 3.44120E+01 0.00000E+00
 -1      3500 1.01400E+02 3.57110E+01 0.00000E+00
 -1      3501 1.02900E+02 3.57110E+01 0.00000E+00
 -1      3502 1.00650E+02 3.44120E+01 0.00000E+00
 -1      3503 1.04931E+02 3.55950E+01 0.00000E+00
 -1      3504 1.32745E+02 3.59149E+01 0.00000E+00
 -1      3505 4.82850E+01 1.30992E+01 0.00000E+00
 -1      3506 4.67850E+01 1.30992E+01 0.00000E+00
 -1      3507 4.52850E+01 1.30992E+01 0.00000E+00
 -1      3508 4.37850E+01 1.30992E+01 0.00000E+00
 -1      3509 4.60350E+01 1.43982E+01 0.00000E+00
 -1      3510 4.22850E+01 1.30992E+01 0.00000E+00
 -1      3511 4.07850E+01 1.30992E+01 0.00000E+00
 -1      3512 4.30350E+01 1.43982E+01 0.00000E+00
 -1      3513 5.12850E+01 1.30992E+01 0.00000E+00
 -1      3514 4.97850E+01 1.30992E+01 0.00000E+00
 -1      3515 4.90350E+01 1.43982E+01 0.00000E+00
 -1      3516 5.42850E+01 1.30992E+01 0.00000E+00
 -1      3517 5.27850E+01 1.30992E+01 0.00000E+00
 -1      3518 5.20350E+01 1.43982E+01 0.00000E+00
 -1      3519 5.72850E+01 1.30992E+01 0.00000E+00
 -1      3520 5.57850E+01 1.30992E+01 0.00000E+00
 -1      3521 5.50350E+01 1.43982E+01 0.00000E+00
 -1      3522 6.02850E+01 1.30992E+01 0.00000E+00
 -1      3523 5.87850E+01 1.30992E+01 0.00000E+00
 -1      3524 5.80350E+01 1.43982E+01 0.00000E+00
 -1      3525 6.32850E+01 1.30992E+01 0.00000E+00
 -1      3526 6.17850E+01 1.30992E+01 0.00000E+00
 -1      3527 6.10350E+01 1.43982E+01 0.00000E+00
 -1      3528 6.62850E+01 1.30992E+01 0.00000E+00
 -1      3529 6.47850E+01 1.30992E+01 0.00000E+00
 -1      3530 6.40350E+01 1.43982E+01 0.00000E+00
 -1      3531 6.92850E+01 1.30992E+01 0.00000E+00
 -1      3532 6.77850E+01 1.30992E+01 0.00000E+00
 -1      3533 6.70350E+01 1.43982E+01 0.00000E+00
 -1      3534 7.22850E+01 1.30992E+01 0.00000E+00
 -1      3535 7.07850E+01 1.30992E+01 0.00000E+00
 -1      3536 7.00350E+01 1.43982E+01 0.00000E+00
 -1      3537 7.52850E+01 1.30992E+01 0.00000E+00
 -1      3538 7.37850E+01 1.30992E+01 0.00000E+00
 -1      3539 7.30350E+01 1.43982E+01 0.00000E+00
 -1      3540 7.82850E+01 1.30992E+01 0.00000E+00
 -1      3541 7.67850E+01 1.30992E+01 0.00000E+00
 -1      3542 7.60350E+01 1.43982E+01 0.00000E+00
 -1      3543 8.12850E+01 1.30992E+01 0.00000E+00
 -1      3544 7.97850E+01 1.30992E+01 0.00000E+00
 -1      3545 7.90350E+01 1.43982E+01 0.00000E+00
 -1      3546 8.42850E+01 1.30992E+01 0.00000E+00
 -1      3547 8.27850E+01 1.30992E+01 0.00000E+00
 -1      3548 8.20350E+01 1.43982E+01 0.00000E+00
 -1      3549 8.72850E+01 1.30992E+01 0.00000E+00
 -1      3550 8.57850E+01 1.30992E+01 0.00000E+00
 -1      3551 8.50350E+01 1.43982E+01 0.00000E+00
 -1      3552 9.02850E+01 1.30992E+01 0.00000E+00
 -1      3553 8.87850E+01 1.30992E+01 0.00000E+00
 -1      3554 8.80350E+01 1.43982E+01 0.00000E+00
 -1      3555 9.32850E+01 1.30992E+01 0.00000E+00
 -1      3556 9.17850E+01 1.30992E+01 0.00000E+00
 -1      3557 9.10350E+01 1.43982E+01 0.00000E+00
 -1      3558 9.62850E+01 1.30992E+01 0.00000E+00
 -1      3559 9.47850E+01 1.30992E+01 0.00000E+00
 -1      3560 9.40350E+01 1.43982E+01 0.00000E+00
 -1      3561 9.92850E+01 1.30992E+01 0.00000E+00
 -1      3562 9.77850E+01 1.30992E+01 0.00000E+00
 -1      3563 9.70350E+01 1.43982E+01 0.00000E+00
 -1      3564 1.02285E+02 1.30992E+01 0.00000E+00
 -1      3565 1.00785E+02 1.30992E+01 0.00000E+00
 -1      3566 1.00035E+02 1.43982E+01 0.00000E+00
 -1      3567 1.05285E+02 1.30992E+01 0.00000E+00
 -1      3568 1.03785E+02 1.30992E+01 0.00000E+00
 -1      3569 1.03035E+02 1.43982E+01 0.00000E+00
 -1      3570 1.10832E+02 1.37503E+01 0.00000E+00
 -1      3571 1.09332E+02 1.37503E+01 0.00000E+00
 -1      3572 1.14187E+02 1.31834E+01 0.00000E+00
 -1      3573 1.12687E+02 1.31834E+01 0.00000E+00
 -1      3574 1.35686E+02 2.25059E+01 0.00000E+00
 -1      3575 1.20328E+02 1.28298E+01 0.00000E+00
 -1      3576 1.35992E+01 3.60377E+01 0.00000E+00
 -1      3577 1.55387E+01 3.58251E+01 0.00000E+00
 -1      3578 1.35746E+02 2.70939E+01 0.00000E+00
 -1      3579 1.35771E+02 2.86076E+01 0.00000E+00
 -1      3580 1.04727E+02 2.56196E+01 0.00000E+00
 -1      3581 1.04390E+02 2.46654E+01 0.00000E+00
 -1      3582 1.35221E+02 2.08694E+01 0.00000E+00
 -1      3583 1.35221E+02 1.93944E+01 0.00000E+00
 -1      3584 2.12850E+01 1.30992E+01 0.00000E+00
 -1      3585 1.97850E+01 1.30992E+01 0.00000E+00
 -1      3586 1.35509E+02 3.27061E+01 0.00000E+00
 -1      3587 1.35509E+02 3.12311E+01 0.00000E+00
 -1      3588 3.62850E+01 1.30992E+01 0.00000E+00
 -1      3589 3.47850E+01 1.30992E+01 0.00000E+00
 -1      3590 3.40350E+01 1.43982E+01 0.00000E+00
 -1      3591 3.92850E+01 1.30992E+01 0.00000E+00
 -1      3592 3.77850E+01 1.30992E+01 0.00000E+00
 -1      3593 3.70350E+01 1.43982E+01 0.00000E+00
 -1      3594 4.00350E+01 1.43982E+01 0.00000E+00
 -1      3595 1.15815E+01 3.63489E+01 0.00000E+00
 -1      3596 2.72850E+01 1.30992E+01 0.00000E+00
 -1      3597 2.57850E+01 1.30992E+01 0.00000E+00
 -1      3598 2.42850E+01 1.30992E+01 0.00000E+00
 -1      3599 2.27850E+01 1.30992E+01 0.00000E+00
 -1      3600 2.20350E+01 1.43982E+01 0.00000E+00
 -1      3601 1.35664E+02 3.00826E+01 0.00000E+00
 -1      3602 1.16910E+01 2.71844E+01 0.00000E+00
 -1      3603 1.16910E+01 2.86531E+01 0.00000E+00
 -1      3604 1.29900E+01 2.93875E+01 0.00000E+00
 -1      3605 1.74000E+01 3.57110E+01 0.00000E+00
 -1      3606 1.89000E+01 3.57110E+01 0.00000E+00
 -1      3607 2.04000E+01 3.57110E+01 0.00000E+00
 -1      3608 2.19000E+01 3.57110E+01 0.00000E+00
 -1      3609 2.26500E+01 3.44120E+01 0.00000E+00
 -1      3610 1.06884E+02 1.71386E+01 0.00000E+00
 -1      3611 1.08102E+02 1.56719E+01 0.00000E+00
 -1      3612 1.05497E+02 2.77760E+01 0.00000E+00
 -1      3613 1.05122E+02 2.66782E+01 0.00000E+00
 -1      3614 1.04066E+02 2.65144E+01 0.00000E+00
 -1      3615 1.04855E+02 2.86318E+01 0.00000E+00
 -1      3616 1.32756E+02 1.66580E+01 0.00000E+00
 -1      3617 1.33885E+02 1.81481E+01 0.00000E+00
 -1      3618 3.02850E+01 1.30992E+01 0.00000E+00
 -1      3619 2.87850E+01 1.30992E+01 0.00000E+00
 -1      3620 2.80350E+01 1.43982E+01 0.00000E+00
 -1      3621 3.10350E+01 1.43982E+01 0.00000E+00
 -1      3622 1.33865E+02 3.54769E+01 0.00000E+00
 -1      3623 1.38643E+02 1.48068E+01 0.00000E+00
 -1      3624 1.38709E+02 1.35665E+01 0.00000E+00
 -1      3625 1.37750E+02 1.33444E+01 0.00000E+00
 -1      3626 1.37344E+02 1.55443E+01 0.00000E+00
 -1      3627 1.04452E+02 2.26008E+01 0.00000E+00
 -1      3628 1.05256E+02 2.17558E+01 0.00000E+00
 -1      3629 1.04599E+02 2.04815E+01 0.00000E+00
 -1      3630 1.04181E+02 3.42960E+01 0.00000E+00
 -1      3631 1.07805E+02 1.37218E+01 0.00000E+00
 -1      3632 1.35674E+02 1.78787E+01 0.00000E+00
 -1      3633 1.42890E+01 1.39344E+01 0.00000E+00
 -1      3634 1.42890E+01 1.54031E+01 0.00000E+00
 -1      3635 1.42890E+01 2.27625E+01 0.00000E+00
 -1      3636 1.42890E+01 2.42375E+01 0.00000E+00
 -1      3637 1.06305E+02 1.37218E+01 0.00000E+00
 -1      3638 1.28805E+01 3.56145E+01 0.00000E+00
 -1      3639 1.35172E+02 3.55404E+01 0.00000E+00
 -1      3640 1.29900E+01 2.64469E+01 0.00000E+00
 -1      3641 1.33221E+02 1.54372E+01 0.00000E+00
 -1      3642 1.42890E+01 2.12906E+01 0.00000E+00
 -1      3643 1.55880E+01 2.20281E+01 0.00000E+00
 -1      3644 1.42890E+01 1.98188E+01 0.00000E+00
 -1      3645 1.05555E+02 1.50208E+01 0.00000E+00
 -1      3646 1.03014E+02 2.41814E+01 0.00000E+00
 -1      3647 1.03733E+02 2.33911E+01 0.00000E+00
 -1      3648 1.03076E+02 2.21168E+01 0.00000E+00
 -1      3649 1.37087E+01 3.42169E+01 0.00000E+00
 -1      3650 1.35740E+02 1.66384E+01 0.00000E+00
 -1      3651 1.62887E+01 3.45261E+01 0.00000E+00
 -1      3652 1.04305E+02 3.23340E+01 0.00000E+00
 -1      3653 1.05090E+02 3.13121E+01 0.00000E+00
 -1      3654 1.04465E+02 3.07123E+01 0.00000E+00
 -1      3655 1.35285E+02 1.30992E+01 0.00000E+00
 -1      3656 1.33785E+02 1.30992E+01 0.00000E+00
 -1      3657 1.36791E+02 1.31223E+01 0.00000E+00
 -1      3658 1.37087E+01 3.27482E+01 0.00000E+00
 -1      3659 1.44274E+01 3.31713E+01 0.00000E+00
 -1      3660 1.37087E+01 3.12794E+01 0.00000E+00
 -1      3661 1.35545E+02 3.36944E+01 0.00000E+00
 -1      3662 1.96500E+01 3.44120E+01 0.00000E+00
 -1      3663 1.06081E+02 1.78256E+01 0.00000E+00
 -1      3664 1.05772E+02 1.63303E+01 0.00000E+00
 -1      3665 1.04752E+02 1.57078E+01 0.00000E+00
 -1      3666 1.05186E+02 1.83269E+01 0.00000E+00
 -1      3667 1.90350E+01 1.43983E+01 0.00000E+00
 -1      3668 1.82850E+01 1.30993E+01 0.00000E+00
 -1      3669 1.33320E+02 1.43201E+01 0.00000E+00
 -1      3670 1.69669E+01 1.29495E+01 0.00000E+00
 -1      3671 2.50350E+01 1.43982E+01 0.00000E+00
 -1      3672 1.36041E+02 1.44213E+01 0.00000E+00
 -1      3673 1.55880E+01 2.49719E+01 0.00000E+00
 -1      3674 1.42890E+01 2.57094E+01 0.00000E+00
 -1      3675 1.42890E+01 2.71812E+01 0.00000E+00
 -1      3676 1.65615E+01 1.45335E+01 0.00000E+00
 -1      3677 1.59934E+01 1.30847E+01 0.00000E+00
 -1      3678 2.49000E+01 3.31130E+01 0.00000E+00
 -1      3679 2.64000E+01 3.31130E+01 0.00000E+00
 -1      3680 2.79000E+01 3.31130E+01 0.00000E+00
 -1      3681 2.94000E+01 3.31130E+01 0.00000E+00
 -1      3682 2.71500E+01 3.18140E+01 0.00000E+00
 -1      3683 3.09000E+01 3.31130E+01 0.00000E+00
 -1      3684 3.24000E+01 3.31130E+01 0.00000E+00
 -1      3685 3.01500E+01 3.18140E+01 0.00000E+00
 -1      3686 3.39000E+01 3.31130E+01 0.00000E+00
 -1      3687 3.54000E+01 3.31130E+01 0.00000E+00
 -1      3688 3.31500E+01 3.18140E+01 0.00000E+00
 -1      3689 3.69000E+01 3.31130E+01 0.00000E+00
 -1      3690 3.84000E+01 3.31130E+01 0.00000E+00
 -1      3691 3.61500E+01 3.18140E+01 0.00000E+00
 -1      3692 3.99000E+01 3.31130E+01 0.00000E+00
 -1      3693 4.14000E+01 3.31130E+01 0.00000E+00
 -1      3694 3.91500E+01 3.18140E+01 0.00000E+00
 -1      3695 4.29000E+01 3.31130E+01 0.00000E+00
 -1      3696 4.44000E+01 3.31130E+01 0.00000E+00
 -1      3697 4.21500E+01 3.18140E+01 0.00000E+00
 -1      3698 4.59000E+01 3.31130E+01 0.00000E+00
 -1      3699 4.74000E+01 3.31130E+01 0.00000E+00
 -1      3700 4.51500E+01 3.18140E+01 0.00000E+00
 -1      3701 4.89000E+01 3.31130E+01 0.00000E+00
 -1      3702 5.04000E+01 3.31130E+01 0.00000E+00
 -1      3703 4.81500E+01 3.18140E+01 0.00000E+00
 -1      3704 5.19000E+01 3.31130E+01 0.00000E+00
 -1      3705 5.34000E+01 3.31130E+01 0.00000E+00
 -1      3706 5.11500E+01 3.18140E+01 0.00000E+00
 -1      3707 5.49000E+01 3.31130E+01 0.00000E+00
 -1      3708 5.64000E+01 3.31130E+01 0.00000E+00
 -1      3709 5.41500E+01 3.18140E+01 0.00000E+00
 -1      3710 5.79000E+01 3.31130E+01 0.00000E+00
 -1      3711 5.94000E+01 3.31130E+01 0.00000E+00
 -1      3712 5.71500E+01 3.18140E+01 0.00000E+00
 -1      3713 6.09000E+01 3.31130E+01 0.00000E+00
 -1      3714 6.24000E+01 3.31130E+01 0.00000E+00
 -1      3715 6.01500E+01 3.18140E+01 0.00000E+00
 -1      3716 6.39000E+01 3.31130E+01 0.00000E+00
 -1      3717 6.54000E+01 3.31130E+01 0.00000E+00
 -1      3718 6.31500E+01 3.18140E+01 0.00000E+00
 -1      3719 6.69000E+01 3.31130E+01 0.00000E+00
 -1      3720 6.84000E+01 3.31130E+01 0.00000E+00
 -1      3721 6.61500E+01 3.18140E+01 0.00000E+00
 -1      3722 6.99000E+01 3.31130E+01 0.00000E+00
 -1      3723 7.14000E+01 3.31130E+01 0.00000E+00
 -1      3724 6.91500E+01 3.18140E+01 0.00000E+00
 -1      3725 7.29000E+01 3.31130E+01 0.00000E+00
 -1      3726 7.44000E+01 3.31130E+01 0.00000E+00
 -1      3727 7.21500E+01 3.18140E+01 0.00000E+00
 -1      3728 7.59000E+01 3.31130E+01 0.00000E+00
 -1      3729 7.74000E+01 3.31130E+01 0.00000E+00
 -1      3730 7.51500E+01 3.18140E+01 0.00000E+00
 -1      3731 7.89000E+01 3.31130E+01 0.00000E+00
 -1      3732 8.04000E+01 3.31130E+01 0.00000E+00
 -1      3733 7.81500E+01 3.18140E+01 0.00000E+00
 -1      3734 8.19000E+01 3.31130E+01 0.00000E+00
 -1      3735 8.34000E+01 3.31130E+01 0.00000E+00
 -1      3736 8.11500E+01 3.18140E+01 0.00000E+00
 -1      3737 8.49000E+01 3.31130E+01 0.00000E+00
 -1      3738 8.64000E+01 3.31130E+01 0.00000E+00
 -1      3739 8.41500E+01 3.18140E+01 0.00000E+00
 -1      3740 8.79000E+01 3.31130E+01 0.00000E+00
 -1      3741 8.94000E+01 3.31130E+01 0.00000E+00
 -1      3742 8.71500E+01 3.18140E+01 0.00000E+00
 -1      3743 9.09000E+01 3.31130E+01 0.00000E+00
 -1      3744 9.24000E+01 3.31130E+01 0.00000E+00
 -1      3745 9.01500E+01 3.18140E+01 0.00000E+00
 -1      3746 9.39000E+01 3.31130E+01 0.00000E+00
 -1      3747 9.54000E+01 3.31130E+01 0.00000E+00
 -1      3748 9.31500E+01 3.18140E+01 0.00000E+00
 -1      3749 9.69000E+01 3.31130E+01 0.00000E+00
 -1      3750 9.84000E+01 3.31130E+01 0.00000E+00
 -1      3751 9.61500E+01 3.18140E+01 0.00000E+00
 -1      3752 9.99000E+01 3.31130E+01 0.00000E+00
 -1      3753 1.01400E+02 3.31130E+01 0.00000E+00
 -1      3754 9.91500E+01 3.18140E+01 0.00000E+00
 -1      3755 4.67850E+01 1.56973E+01 0.00000E+00
 -1      3756 4.52850E+01 1.56973E+01 0.00000E+00
 -1      3757 5.27850E+01 1.56973E+01 0.00000E+00
 -1      3758 5.12850E+01 1.56973E+01 0.00000E+00
 -1      3759 1.42890E+01 1.68750E+01 0.00000E+00
 -1      3760 1.42890E+01 1.83469E+01 0.00000E+00
 -1      3761 1.55880E+01 1.90844E+01 0.00000E+00
 -1      3762 4.97850E+01 1.56973E+01 0.00000E+00
 -1      3763 4.82850E+01 1.56973E+01 0.00000E+00
 -1      3764 4.75350E+01 1.69963E+01 0.00000E+00
 -1      3765 5.05350E+01 1.69963E+01 0.00000E+00
 -1      3766 4.37850E+01 1.56973E+01 0.00000E+00
 -1      3767 4.22850E+01 1.56973E+01 0.00000E+00
 -1      3768 4.45350E+01 1.69963E+01 0.00000E+00
 -1      3769 5.57850E+01 1.56973E+01 0.00000E+00
 -1      3770 5.42850E+01 1.56973E+01 0.00000E+00
 -1      3771 5.35350E+01 1.69963E+01 0.00000E+00
 -1      3772 5.87850E+01 1.56973E+01 0.00000E+00
 -1      3773 5.72850E+01 1.56973E+01 0.00000E+00
 -1      3774 5.65350E+01 1.69963E+01 0.00000E+00
 -1      3775 6.17850E+01 1.56973E+01 0.00000E+00
 -1      3776 6.02850E+01 1.56973E+01 0.00000E+00
 -1      3777 5.95350E+01 1.69963E+01 0.00000E+00
 -1      3778 6.47850E+01 1.56973E+01 0.00000E+00
 -1      3779 6.32850E+01 1.56973E+01 0.00000E+00
 -1      3780 6.25350E+01 1.69963E+01 0.00000E+00
 -1      3781 6.77850E+01 1.56973E+01 0.00000E+00
 -1      3782 6.62850E+01 1.56973E+01 0.00000E+00
 -1      3783 6.55350E+01 1.69963E+01 0.00000E+00
 -1      3784 7.07850E+01 1.56973E+01 0.00000E+00
 -1      3785 6.92850E+01 1.56973E+01 0.00000E+00
 -1      3786 6.85350E+01 1.69963E+01 0.00000E+00
 -1      3787 7.37850E+01 1.56973E+01 0.00000E+00
 -1      3788 7.22850E+01 1.56973E+01 0.00000E+00
 -1      3789 7.15350E+01 1.69963E+01 0.00000E+00
 -1      3790 7.67850E+01 1.56973E+01 0.00000E+00
 -1      3791 7.52850E+01 1.56973E+01 0.00000E+00
 -1      3792 7.45350E+01 1.69963E+01 0.00000E+00
 -1      3793 7.97850E+01 1.56973E+01 0.00000E+00
 -1      3794 7.82850E+01 1.56973E+01 0.00000E+00
 -1      3795 7.75350E+01 1.69963E+01 0.00000E+00
 -1      3796 8.27850E+01 1.56973E+01 0.00000E+00
 -1      3797 8.12850E+01 1.56973E+01 0.00000E+00
 -1      3798 8.05350E+01 1.69963E+01 0.00000E+00
 -1      3799 8.57850E+01 1.56973E+01 0.00000E+00
 -1      3800 8.42850E+01 1.56973E+01 0.00000E+00
 -1      3801 8.35350E+01 1.69963E+01 0.00000E+00
 -1      3802 8.87850E+01 1.56973E+01 0.00000E+00
 -1      3803 8.72850E+01 1.56973E+01 0.00000E+00
 -1      3804 8.65350E+01 1.69963E+01 0.00000E+00
 -1      3805 9.17850E+01 1.56973E+01 0.00000E+00
 -1      3806 9.02850E+01 1.56973E+01 0.00000E+00
 -1      3807 8.95350E+01 1.69963E+01 0.00000E+00
 -1      3808 9.47850E+01 1.56973E+01 0.00000E+00
 -1      3809 9.32850E+01 1.56973E+01 0.00000E+00
 -1      3810 9.25350E+01 1.69963E+01 0.00000E+00
 -1      3811 9.77850E+01 1.56973E+01 0.00000E+00
 -1      3812 9.62850E+01 1.56973E+01 0.00000E+00
 -1      3813 9.55350E+01 1.69963E+01 0.00000E+00
 -1      3814 1.00785E+02 1.56973E+01 0.00000E+00
 -1      3815 9.92850E+01 1.56973E+01 0.00000E+00
 -1      3816 9.85350E+01 1.69963E+01 0.00000E+00
 -1      3817 1.03518E+02 1.57025E+01 0.00000E+00
 -1      3818 1.02018E+02 1.57025E+01 0.00000E+00
 -1      3819 1.01268E+02 1.70015E+01 0.00000E+00
 -1      3820 1.03735E+02 1.70121E+01 0.00000E+00
 -1      3821 1.42890E+01 2.86500E+01 0.00000E+00
 -1      3822 1.42890E+01 3.01187E+01 0.00000E+00
 -1      3823 1.55880E+01 2.79125E+01 0.00000E+00
 -1      3824 1.34437E+02 1.55153E+01 0.00000E+00
 -1      3825 1.35838E+02 1.55213E+01 0.00000E+00
 -1      3826 1.46944E+01 1.23503E+01 0.00000E+00
 -1      3827 1.62887E+01 3.30573E+01 0.00000E+00
 -1      3828 1.89000E+01 3.31130E+01 0.00000E+00
 -1      3829 2.04000E+01 3.31130E+01 0.00000E+00
 -1      3830 2.19000E+01 3.31130E+01 0.00000E+00
 -1      3831 2.34000E+01 3.31130E+01 0.00000E+00
 -1      3832 2.41500E+01 3.18140E+01 0.00000E+00
 -1      3833 3.47850E+01 1.56973E+01 0.00000E+00
 -1      3834 3.32850E+01 1.56973E+01 0.00000E+00
 -1      3835 2.27850E+01 1.56973E+01 0.00000E+00
 -1      3836 2.12850E+01 1.56973E+01 0.00000E+00
 -1      3837 2.57850E+01 1.56973E+01 0.00000E+00
 -1      3838 2.42850E+01 1.56973E+01 0.00000E+00
 -1      3839 2.35350E+01 1.69963E+01 0.00000E+00
 -1      3840 1.35358E+02 3.46174E+01 0.00000E+00
 -1      3841 1.55880E+01 1.61406E+01 0.00000E+00
 -1      3842 1.97850E+01 1.56973E+01 0.00000E+00
 -1      3843 1.82851E+01 1.56973E+01 0.00000E+00
 -1      3844 2.05350E+01 1.69963E+01 0.00000E+00
 -1      3845 1.74233E+01 1.58513E+01 0.00000E+00
 -1      3846 1.64498E+01 1.59866E+01 0.00000E+00
 -1      3847 1.64498E+01 1.74584E+01 0.00000E+00
 -1      3848 1.81733E+01 1.71503E+01 0.00000E+00
 -1      3849 1.01834E+02 2.17092E+01 0.00000E+00
 -1      3850 1.02554E+02 2.09188E+01 0.00000E+00
 -1      3851 1.02165E+02 3.17741E+01 0.00000E+00
 -1      3852 1.02915E+02 3.30731E+01 0.00000E+00
 -1      3853 1.03540E+02 3.36729E+01 0.00000E+00
 -1      3854 4.15350E+01 1.69963E+01 0.00000E+00
 -1      3855 4.07850E+01 1.56973E+01 0.00000E+00
 -1      3856 3.92850E+01 1.56973E+01 0.00000E+00
 -1      3857 3.25350E+01 1.69963E+01 0.00000E+00
 -1      3858 3.17850E+01 1.56973E+01 0.00000E+00
 -1      3859 3.02850E+01 1.56973E+01 0.00000E+00
 -1      3860 1.02431E+02 2.52884E+01 0.00000E+00
 -1      3861 1.01774E+02 2.40141E+01 0.00000E+00
 -1      3862 2.11500E+01 3.18140E+01 0.00000E+00
 -1      3863 1.68870E+01 2.42359E+01 0.00000E+00
 -1      3864 1.68870E+01 2.57078E+01 0.00000E+00
 -1      3865 1.50077E+01 3.05419E+01 0.00000E+00
 -1      3866 1.04276E+02 1.94016E+01 0.00000E+00
 -1      3867 1.04059E+02 1.80920E+01 0.00000E+00
 -1      3868 1.02825E+02 1.80867E+01 0.00000E+00
 -1      3869 1.03472E+02 2.02466E+01 0.00000E+00
 -1      3870 1.68870E+01 2.12922E+01 0.00000E+00
 -1      3871 1.68870E+01 2.27641E+01 0.00000E+00
 -1      3872 1.81860E+01 2.35000E+01 0.00000E+00
 -1      3873 1.70387E+01 3.17583E+01 0.00000E+00
 -1      3874 1.03286E+02 3.06755E+01 0.00000E+00
 -1      3875 1.04071E+02 2.96536E+01 0.00000E+00
 -1      3876 1.03676E+02 2.85950E+01 0.00000E+00
 -1      3877 2.72850E+01 1.56973E+01 0.00000E+00
 -1      3878 2.65350E+01 1.69963E+01 0.00000E+00
 -1      3879 2.87850E+01 1.56973E+01 0.00000E+00
 -1      3880 1.02230E+02 1.98389E+01 0.00000E+00
 -1      3881 1.03221E+02 2.74058E+01 0.00000E+00
 -1      3882 1.02826E+02 2.63471E+01 0.00000E+00
 -1      3883 1.01586E+02 2.61798E+01 0.00000E+00
 -1      3884 3.77850E+01 1.56973E+01 0.00000E+00
 -1      3885 3.62850E+01 1.56973E+01 0.00000E+00
 -1      3886 3.55350E+01 1.69963E+01 0.00000E+00
 -1      3887 1.01771E+02 3.07154E+01 0.00000E+00
 -1      3888 1.81860E+01 2.64406E+01 0.00000E+00
 -1      3889 1.68870E+01 2.71766E+01 0.00000E+00
 -1      3890 1.68870E+01 2.86453E+01 0.00000E+00
 -1      3891 5.42850E+01 1.82952E+01 0.00000E+00
 -1      3892 5.27850E+01 1.82952E+01 0.00000E+00
 -1      3893 2.94000E+01 3.05150E+01 0.00000E+00
 -1      3894 3.09000E+01 3.05150E+01 0.00000E+00
 -1      3895 3.24000E+01 3.05150E+01 0.00000E+00
 -1      3896 3.39000E+01 3.05150E+01 0.00000E+00
 -1      3897 3.16500E+01 2.92160E+01 0.00000E+00
 -1      3898 3.54000E+01 3.05150E+01 0.00000E+00
 -1      3899 3.69000E+01 3.05150E+01 0.00000E+00
 -1      3900 3.46500E+01 2.92160E+01 0.00000E+00
 -1      3901 3.84000E+01 3.05150E+01 0.00000E+00
 -1      3902 3.99000E+01 3.05150E+01 0.00000E+00
 -1      3903 3.76500E+01 2.92160E+01 0.00000E+00
 -1      3904 4.14000E+01 3.05150E+01 0.00000E+00
 -1      3905 4.29000E+01 3.05150E+01 0.00000E+00
 -1      3906 4.06500E+01 2.92160E+01 0.00000E+00
 -1      3907 4.44000E+01 3.05150E+01 0.00000E+00
 -1      3908 4.59000E+01 3.05150E+01 0.00000E+00
 -1      3909 4.36500E+01 2.92160E+01 0.00000E+00
 -1      3910 4.74000E+01 3.05150E+01 0.00000E+00
 -1      3911 4.89000E+01 3.05150E+01 0.00000E+00
 -1      3912 4.66500E+01 2.92160E+01 0.00000E+00
 -1      3913 5.04000E+01 3.05150E+01 0.00000E+00
 -1      3914 5.19000E+01 3.05150E+01 0.00000E+00
 -1      3915 4.96500E+01 2.92160E+01 0.00000E+00
 -1      3916 5.34000E+01 3.05150E+01 0.00000E+00
 -1      3917 5.49000E+01 3.05150E+01 0.00000E+00
 -1      3918 5.26500E+01 2.92160E+01 0.00000E+00
 -1      3919 5.64000E+01 3.05150E+01 0.00000E+00
 -1      3920 5.79000E+01 3.05150E+01 0.00000E+00
 -1      3921 5.56500E+01 2.92160E+01 0.00000E+00
 -1      3922 5.94000E+01 3.05150E+01 0.00000E+00
 -1      3923 6.09000E+01 3.05150E+01 0.00000E+00
 -1      3924 5.86500E+01 2.92160E+01 0.00000E+00
 -1      3925 6.24000E+01 3.05150E+01 0.00000E+00
 -1      3926 6.39000E+01 3.05150E+01 0.00000E+00
 -1      3927 6.16500E+01 2.92160E+01 0.00000E+00
 -1      3928 6.54000E+01 3.05150E+01 0.00000E+00
 -1      3929 6.69000E+01 3.05150E+01 0.00000E+00
 -1      3930 6.46500E+01 2.92160E+01 0.00000E+00
 -1      3931 6.84000E+01 3.05150E+01 0.00000E+00
 -1      3932 6.99000E+01 3.05150E+01 0.00000E+00
 -1      3933 6.76500E+01 2.92160E+01 0.00000E+00
 -1      3934 7.14000E+01 3.05150E+01 0.00000E+00
 -1      3935 7.29000E+01 3.05150E+01 0.00000E+00
 -1      3936 7.06500E+01 2.92160E+01 0.00000E+00
 -1      3937 7.44000E+01 3.05150E+01 0.00000E+00
 -1      3938 7.59000E+01 3.05150E+01 0.00000E+00
 -1      3939 7.36500E+01 2.92160E+01 0.00000E+00
 -1      3940 7.74000E+01 3.05150E+01 0.00000E+00
 -1      3941 7.89000E+01 3.05150E+01 0.00000E+00
 -1      3942 7.66500E+01 2.92160E+01 0.00000E+00
 -1      3943 8.04000E+01 3.05150E+01 0.00000E+00
 -1      3944 8.19000E+01 3.05150E+01 0.00000E+00
 -1      3945 7.96500E+01 2.92160E+01 0.00000E+00
 -1      3946 8.34000E+01 3.05150E+01 0.00000E+00
 -1      3947 8.49000E+01 3.05150E+01 0.00000E+00
 -1      3948 8.26500E+01 2.92160E+01 0.00000E+00
 -1      3949 8.64000E+01 3.05150E+01 0.00000E+00
 -1      3950 8.79000E+01 3.05150E+01 0.00000E+00
 -1      3951 8.56500E+01 2.92160E+01 0.00000E+00
 -1      3952 8.94000E+01 3.05150E+01 0.00000E+00
 -1      3953 9.09000E+01 3.05150E+01 0.00000E+00
 -1      3954 8.86500E+01 2.92160E+01 0.00000E+00
 -1      3955 9.24000E+01 3.05150E+01 0.00000E+00
 -1      3956 9.39000E+01 3.05150E+01 0.00000E+00
 -1      3957 9.16500E+01 2.92160E+01 0.00000E+00
 -1      3958 9.54000E+01 3.05150E+01 0.00000E+00
 -1      3959 9.69000E+01 3.05150E+01 0.00000E+00
 -1      3960 9.46500E+01 2.92160E+01 0.00000E+00
 -1      3961 9.84000E+01 3.05150E+01 0.00000E+00
 -1      3962 9.99000E+01 3.05150E+01 0.00000E+00
 -1      3963 9.76500E+01 2.92160E+01 0.00000E+00
 -1      3964 4.52850E+01 1.82952E+01 0.00000E+00
 -1      3965 4.37850E+01 1.82952E+01 0.00000E+00
 -1      3966 1.66684E+01 1.86394E+01 0.00000E+00
 -1      3967 1.66684E+01 2.01113E+01 0.00000E+00
 -1      3968 1.79674E+01 2.08472E+01 0.00000E+00
 -1      3969 1.75302E+01 1.84853E+01 0.00000E+00
 -1      3970 6.02850E+01 1.82952E+01 0.00000E+00
 -1      3971 5.87850E+01 1.82952E+01 0.00000E+00
 -1      3972 6.32850E+01 1.82952E+01 0.00000E+00
 -1      3973 6.17850E+01 1.82952E+01 0.00000E+00
 -1      3974 6.10350E+01 1.95942E+01 0.00000E+00
 -1      3975 6.62850E+01 1.82952E+01 0.00000E+00
 -1      3976 6.47850E+01 1.82952E+01 0.00000E+00
 -1      3977 6.40350E+01 1.95942E+01 0.00000E+00
 -1      3978 6.92850E+01 1.82952E+01 0.00000E+00
 -1      3979 6.77850E+01 1.82952E+01 0.00000E+00
 -1      3980 6.70350E+01 1.95942E+01 0.00000E+00
 -1      3981 7.22850E+01 1.82952E+01 0.00000E+00
 -1      3982 7.07850E+01 1.82952E+01 0.00000E+00
 -1      3983 7.00350E+01 1.95942E+01 0.00000E+00
 -1      3984 7.52850E+01 1.82952E+01 0.00000E+00
 -1      3985 7.37850E+01 1.82952E+01 0.00000E+00
 -1      3986 7.30350E+01 1.95942E+01 0.00000E+00
 -1      3987 7.82850E+01 1.82952E+01 0.00000E+00
 -1      3988 7.67850E+01 1.82952E+01 0.00000E+00
 -1      3989 7.60350E+01 1.95942E+01 0.00000E+00
 -1      3990 8.12850E+01 1.82952E+01 0.00000E+00
 -1      3991 7.97850E+01 1.82952E+01 0.00000E+00
 -1      3992 7.90350E+01 1.95942E+01 0.00000E+00
 -1      3993 8.42850E+01 1.82952E+01 0.00000E+00
 -1      3994 8.27850E+01 1.82952E+01 0.00000E+00
 -1      3995 8.20350E+01 1.95942E+01 0.00000E+00
 -1      3996 8.72850E+01 1.82952E+01 0.00000E+00
 -1      3997 8.57850E+01 1.82952E+01 0.00000E+00
 -1      3998 8.50350E+01 1.95942E+01 0.00000E+00
 -1      3999 9.02850E+01 1.82952E+01 0.00000E+00
 -1      4000 8.87850E+01 1.82952E+01 0.00000E+00
 -1      4001 8.80350E+01 1.95942E+01 0.00000E+00
 -1      4002 9.32850E+01 1.82952E+01 0.00000E+00
 -1      4003 9.17850E+01 1.82952E+01 0.00000E+00
 -1      4004 9.10350E+01 1.95942E+01 0.00000E+00
 -1      4005 9.62850E+01 1.82952E+01 0.00000E+00
 -1      4006 9.47850E+01 1.82952E+01 0.00000E+00
 -1      4007 9.40350E+01 1.95942E+01 0.00000E+00
 -1      4008 9.92850E+01 1.82952E+01 0.00000E+00
 -1      4009 9.77850E+01 1.82952E+01 0.00000E+00
 -1      4010 9.70350E+01 1.95942E+01 0.00000E+00
 -1      4011 2.04000E+01 3.05150E+01 0.00000E+00
 -1      4012 2.19000E+01 3.05150E+01 0.00000E+00
 -1      4013 2.34000E+01 3.05150E+01 0.00000E+00
 -1      4014 2.49000E+01 3.05150E+01 0.00000E+00
 -1      4015 2.26500E+01 2.92160E+01 0.00000E+00
 -1      4016 2.42850E+01 1.82952E+01 0.00000E+00
 -1      4017 2.27850E+01 1.82952E+01 0.00000E+00
 -1      4018 2.64000E+01 3.05150E+01 0.00000E+00
 -1      4019 2.79000E+01 3.05150E+01 0.00000E+00
 -1      4020 2.56500E+01 2.92160E+01 0.00000E+00
 -1      4021 1.00502E+02 2.40512E+01 0.00000E+00
 -1      4022 1.01084E+02 2.29442E+01 0.00000E+00
 -1      4023 1.00562E+02 2.17462E+01 0.00000E+00
 -1      4024 5.72850E+01 1.82952E+01 0.00000E+00
 -1      4025 5.57850E+01 1.82952E+01 0.00000E+00
 -1      4026 5.50350E+01 1.95942E+01 0.00000E+00
 -1      4027 1.94850E+01 2.57062E+01 0.00000E+00
 -1      4028 1.94850E+01 2.71750E+01 0.00000E+00
 -1      4029 4.30350E+01 1.95942E+01 0.00000E+00
 -1      4030 4.22850E+01 1.82952E+01 0.00000E+00
 -1      4031 4.07850E+01 1.82952E+01 0.00000E+00
 -1      4032 1.76190E+01 3.05976E+01 0.00000E+00
 -1      4033 1.01021E+02 2.94164E+01 0.00000E+00
 -1      4034 4.67850E+01 1.82952E+01 0.00000E+00
 -1      4035 4.60350E+01 1.95942E+01 0.00000E+00
 -1      4036 4.82850E+01 1.82952E+01 0.00000E+00
 -1      4037 1.89180E+01 2.98617E+01 0.00000E+00
 -1      4038 3.32850E+01 1.82952E+01 0.00000E+00
 -1      4039 3.17850E+01 1.82952E+01 0.00000E+00
 -1      4040 5.12850E+01 1.82952E+01 0.00000E+00
 -1      4041 4.97850E+01 1.82952E+01 0.00000E+00
 -1      4042 4.90350E+01 1.95942E+01 0.00000E+00
 -1      4043 3.62850E+01 1.82952E+01 0.00000E+00
 -1      4044 3.47850E+01 1.82952E+01 0.00000E+00
 -1      4045 3.40350E+01 1.95942E+01 0.00000E+00
 -1      4046 1.00673E+02 1.87537E+01 0.00000E+00
 -1      4047 9.99235E+01 2.00527E+01 0.00000E+00
 -1      4048 5.20350E+01 1.95942E+01 0.00000E+00
 -1      4049 3.85350E+01 1.69963E+01 0.00000E+00
 -1      4050 2.57850E+01 1.82952E+01 0.00000E+00
 -1      4051 2.50350E+01 1.95942E+01 0.00000E+00
 -1      4052 2.72850E+01 1.82952E+01 0.00000E+00
 -1      4053 5.80350E+01 1.95942E+01 0.00000E+00
 -1      4054 2.95350E+01 1.69963E+01 0.00000E+00
 -1      4055 2.86500E+01 2.92160E+01 0.00000E+00
 -1      4056 1.02436E+02 2.84276E+01 0.00000E+00
 -1      4057 1.94850E+01 2.27625E+01 0.00000E+00
 -1      4058 1.94850E+01 2.42344E+01 0.00000E+00
 -1      4059 2.07840E+01 2.49688E+01 0.00000E+00
 -1      4060 2.12850E+01 1.82953E+01 0.00000E+00
 -1      4061 1.97851E+01 1.82953E+01 0.00000E+00
 -1      4062 9.98442E+01 2.52326E+01 0.00000E+00
 -1      4063 9.91542E+01 2.41626E+01 0.00000E+00
 -1      4064 9.91733E+01 2.12877E+01 0.00000E+00
 -1      4065 1.01592E+02 1.80814E+01 0.00000E+00
 -1      4066 1.83919E+01 1.83313E+01 0.00000E+00
 -1      4067 1.91419E+01 1.96303E+01 0.00000E+00
 -1      4068 1.00171E+02 2.71685E+01 0.00000E+00
 -1      4069 9.88234E+01 2.72800E+01 0.00000E+00
 -1      4070 2.20350E+01 1.95943E+01 0.00000E+00
 -1      4071 2.09670E+01 2.78283E+01 0.00000E+00
 -1      4072 1.96680E+01 2.85627E+01 0.00000E+00
 -1      4073 3.39000E+01 2.79170E+01 0.00000E+00
 -1      4074 3.54000E+01 2.79170E+01 0.00000E+00
 -1      4075 3.69000E+01 2.79170E+01 0.00000E+00
 -1      4076 3.84000E+01 2.79170E+01 0.00000E+00
 -1      4077 3.61500E+01 2.66180E+01 0.00000E+00
 -1      4078 3.99000E+01 2.79170E+01 0.00000E+00
 -1      4079 4.14000E+01 2.79170E+01 0.00000E+00
 -1      4080 3.91500E+01 2.66180E+01 0.00000E+00
 -1      4081 4.29000E+01 2.79170E+01 0.00000E+00
 -1      4082 4.44000E+01 2.79170E+01 0.00000E+00
 -1      4083 4.21500E+01 2.66180E+01 0.00000E+00
 -1      4084 4.59000E+01 2.79170E+01 0.00000E+00
 -1      4085 4.74000E+01 2.79170E+01 0.00000E+00
 -1      4086 4.51500E+01 2.66180E+01 0.00000E+00
 -1      4087 4.89000E+01 2.79170E+01 0.00000E+00
 -1      4088 5.04000E+01 2.79170E+01 0.00000E+00
 -1      4089 4.81500E+01 2.66180E+01 0.00000E+00
 -1      4090 5.19000E+01 2.79170E+01 0.00000E+00
 -1      4091 5.34000E+01 2.79170E+01 0.00000E+00
 -1      4092 5.11500E+01 2.66180E+01 0.00000E+00
 -1      4093 5.49000E+01 2.79170E+01 0.00000E+00
 -1      4094 5.64000E+01 2.79170E+01 0.00000E+00
 -1      4095 5.41500E+01 2.66180E+01 0.00000E+00
 -1      4096 5.79000E+01 2.79170E+01 0.00000E+00
 -1      4097 5.94000E+01 2.79170E+01 0.00000E+00
 -1      4098 5.71500E+01 2.66180E+01 0.00000E+00
 -1      4099 6.09000E+01 2.79170E+01 0.00000E+00
 -1      4100 6.24000E+01 2.79170E+01 0.00000E+00
 -1      4101 6.01500E+01 2.66180E+01 0.00000E+00
 -1      4102 6.39000E+01 2.79170E+01 0.00000E+00
 -1      4103 6.54000E+01 2.79170E+01 0.00000E+00
 -1      4104 6.31500E+01 2.66180E+01 0.00000E+00
 -1      4105 6.69000E+01 2.79170E+01 0.00000E+00
 -1      4106 6.84000E+01 2.79170E+01 0.00000E+00
 -1      4107 6.61500E+01 2.66180E+01 0.00000E+00
 -1      4108 6.99000E+01 2.79170E+01 0.00000E+00
 -1      4109 7.14000E+01 2.79170E+01 0.00000E+00
 -1      4110 6.91500E+01 2.66180E+01 0.00000E+00
 -1      4111 7.29000E+01 2.79170E+01 0.00000E+00
 -1      4112 7.44000E+01 2.79170E+01 0.00000E+00
 -1      4113 7.21500E+01 2.66180E+01 0.00000E+00
 -1      4114 7.59000E+01 2.79170E+01 0.00000E+00
 -1      4115 7.74000E+01 2.79170E+01 0.00000E+00
 -1      4116 7.51500E+01 2.66180E+01 0.00000E+00
 -1      4117 7.89000E+01 2.79170E+01 0.00000E+00
 -1      4118 8.04000E+01 2.79170E+01 0.00000E+00
 -1      4119 7.81500E+01 2.66180E+01 0.00000E+00
 -1      4120 8.19000E+01 2.79170E+01 0.00000E+00
 -1      4121 8.34000E+01 2.79170E+01 0.00000E+00
 -1      4122 8.11500E+01 2.66180E+01 0.00000E+00
 -1      4123 8.49000E+01 2.79170E+01 0.00000E+00
 -1      4124 8.64000E+01 2.79170E+01 0.00000E+00
 -1      4125 8.41500E+01 2.66180E+01 0.00000E+00
 -1      4126 8.79000E+01 2.79170E+01 0.00000E+00
 -1      4127 8.94000E+01 2.79170E+01 0.00000E+00
 -1      4128 8.71500E+01 2.66180E+01 0.00000E+00
 -1      4129 9.09000E+01 2.79170E+01 0.00000E+00
 -1      4130 9.24000E+01 2.79170E+01 0.00000E+00
 -1      4131 9.01500E+01 2.66180E+01 0.00000E+00
 -1      4132 9.39000E+01 2.79170E+01 0.00000E+00
 -1      4133 9.54000E+01 2.79170E+01 0.00000E+00
 -1      4134 9.31500E+01 2.66180E+01 0.00000E+00
 -1      4135 9.73234E+01 2.72800E+01 0.00000E+00
 -1      4136 1.93605E+01 2.08112E+01 0.00000E+00
 -1      4137 6.77850E+01 2.08932E+01 0.00000E+00
 -1      4138 6.62850E+01 2.08932E+01 0.00000E+00
 -1      4139 6.17850E+01 2.08932E+01 0.00000E+00
 -1      4140 6.02850E+01 2.08932E+01 0.00000E+00
 -1      4141 7.07850E+01 2.08932E+01 0.00000E+00
 -1      4142 6.92850E+01 2.08932E+01 0.00000E+00
 -1      4143 6.85350E+01 2.21922E+01 0.00000E+00
 -1      4144 7.37850E+01 2.08932E+01 0.00000E+00
 -1      4145 7.22850E+01 2.08932E+01 0.00000E+00
 -1      4146 7.15350E+01 2.21922E+01 0.00000E+00
 -1      4147 7.67850E+01 2.08932E+01 0.00000E+00
 -1      4148 7.52850E+01 2.08932E+01 0.00000E+00
 -1      4149 7.45350E+01 2.21922E+01 0.00000E+00
 -1      4150 7.97850E+01 2.08932E+01 0.00000E+00
 -1      4151 7.82850E+01 2.08932E+01 0.00000E+00
 -1      4152 7.75350E+01 2.21922E+01 0.00000E+00
 -1      4153 8.27850E+01 2.08932E+01 0.00000E+00
 -1      4154 8.12850E+01 2.08932E+01 0.00000E+00
 -1      4155 8.05350E+01 2.21922E+01 0.00000E+00
 -1      4156 8.57850E+01 2.08932E+01 0.00000E+00
 -1      4157 8.42850E+01 2.08932E+01 0.00000E+00
 -1      4158 8.35350E+01 2.21922E+01 0.00000E+00
 -1      4159 8.87850E+01 2.08932E+01 0.00000E+00
 -1      4160 8.72850E+01 2.08932E+01 0.00000E+00
 -1      4161 8.65350E+01 2.21922E+01 0.00000E+00
 -1      4162 9.17850E+01 2.08932E+01 0.00000E+00
 -1      4163 9.02850E+01 2.08932E+01 0.00000E+00
 -1      4164 8.95350E+01 2.21922E+01 0.00000E+00
 -1      4165 9.47850E+01 2.08932E+01 0.00000E+00
 -1      4166 9.32850E+01 2.08932E+01 0.00000E+00
 -1      4167 9.25350E+01 2.21922E+01 0.00000E+00
 -1      4168 9.77291E+01 2.10905E+01 0.00000E+00
 -1      4169 9.62291E+01 2.10905E+01 0.00000E+00
 -1      4170 9.54791E+01 2.23895E+01 0.00000E+00
 -1      4171 9.83674E+01 2.27840E+01 0.00000E+00
 -1      4172 5.27850E+01 2.08932E+01 0.00000E+00
 -1      4173 5.12850E+01 2.08932E+01 0.00000E+00
 -1      4174 1.00566E+02 2.82272E+01 0.00000E+00
 -1      4175 6.47850E+01 2.08932E+01 0.00000E+00
 -1      4176 6.32850E+01 2.08932E+01 0.00000E+00
 -1      4177 6.55350E+01 2.21922E+01 0.00000E+00
 -1      4178 5.57850E+01 2.08932E+01 0.00000E+00
 -1      4179 5.42850E+01 2.08932E+01 0.00000E+00
 -1      4180 5.35350E+01 2.21922E+01 0.00000E+00
 -1      4181 2.49000E+01 2.79170E+01 0.00000E+00
 -1      4182 2.64000E+01 2.79170E+01 0.00000E+00
 -1      4183 2.21835E+01 2.78727E+01 0.00000E+00
 -1      4184 2.36835E+01 2.78727E+01 0.00000E+00
 -1      4185 2.44335E+01 2.65737E+01 0.00000E+00
 -1      4186 2.20005E+01 2.64850E+01 0.00000E+00
 -1      4187 2.27850E+01 2.08933E+01 0.00000E+00
 -1      4188 2.12851E+01 2.08933E+01 0.00000E+00
 -1      4189 3.92850E+01 1.82952E+01 0.00000E+00
 -1      4190 3.77850E+01 1.82952E+01 0.00000E+00
 -1      4191 4.00350E+01 1.95942E+01 0.00000E+00
 -1      4192 2.79000E+01 2.79170E+01 0.00000E+00
 -1      4193 2.94000E+01 2.79170E+01 0.00000E+00
 -1      4194 2.71500E+01 2.66180E+01 0.00000E+00
 -1      4195 3.09000E+01 2.79170E+01 0.00000E+00
 -1      4196 3.24000E+01 2.79170E+01 0.00000E+00
 -1      4197 3.01500E+01 2.66180E+01 0.00000E+00
 -1      4198 5.87850E+01 2.08932E+01 0.00000E+00
 -1      4199 5.72850E+01 2.08932E+01 0.00000E+00
 -1      4200 5.65350E+01 2.21922E+01 0.00000E+00
 -1      4201 5.95350E+01 2.21922E+01 0.00000E+00
 -1      4202 9.77101E+01 2.39654E+01 0.00000E+00
 -1      4203 3.02850E+01 1.82952E+01 0.00000E+00
 -1      4204 2.87850E+01 1.82952E+01 0.00000E+00
 -1      4205 2.80350E+01 1.95942E+01 0.00000E+00
 -1      4206 3.10350E+01 1.95942E+01 0.00000E+00
 -1      4207 9.65734E+01 2.59810E+01 0.00000E+00
 -1      4208 3.47850E+01 2.08932E+01 0.00000E+00
 -1      4209 3.32850E+01 2.08932E+01 0.00000E+00
 -1      4210 3.31500E+01 2.66180E+01 0.00000E+00
 -1      4211 4.97850E+01 2.08932E+01 0.00000E+00
 -1      4212 4.82850E+01 2.08932E+01 0.00000E+00
 -1      4213 5.05350E+01 2.21922E+01 0.00000E+00
 -1      4214 3.70350E+01 1.95942E+01 0.00000E+00
 -1      4215 6.25350E+01 2.21922E+01 0.00000E+00
 -1      4216 2.20005E+01 2.50131E+01 0.00000E+00
 -1      4217 9.57866E+01 2.46024E+01 0.00000E+00
 -1      4218 2.42850E+01 2.08933E+01 0.00000E+00
 -1      4219 2.35350E+01 2.21923E+01 0.00000E+00
 -1      4220 2.57850E+01 2.08933E+01 0.00000E+00
 -1      4221 4.37850E+01 2.08932E+01 0.00000E+00
 -1      4222 4.22850E+01 2.08932E+01 0.00000E+00
 -1      4223 4.67850E+01 2.08932E+01 0.00000E+00
 -1      4224 4.52850E+01 2.08932E+01 0.00000E+00
 -1      4225 4.75350E+01 2.21922E+01 0.00000E+00
 -1      4226 3.17850E+01 2.08932E+01 0.00000E+00
 -1      4227 3.02850E+01 2.08932E+01 0.00000E+00
 -1      4228 3.25350E+01 2.21922E+01 0.00000E+00
 -1      4229 2.01105E+01 2.21102E+01 0.00000E+00
 -1      4230 4.45350E+01 2.21922E+01 0.00000E+00
 -1      4231 3.28425E+01 2.44051E+01 0.00000E+00
 -1      4232 3.43425E+01 2.44051E+01 0.00000E+00
 -1      4233 3.62850E+01 2.08932E+01 0.00000E+00
 -1      4234 3.55350E+01 2.21922E+01 0.00000E+00
 -1      4235 3.77850E+01 2.08932E+01 0.00000E+00
 -1      4236 3.84000E+01 2.53190E+01 0.00000E+00
 -1      4237 3.99000E+01 2.53190E+01 0.00000E+00
 -1      4238 4.18425E+01 2.44051E+01 0.00000E+00
 -1      4239 4.33425E+01 2.44051E+01 0.00000E+00
 -1      4240 4.48425E+01 2.44051E+01 0.00000E+00
 -1      4241 4.63425E+01 2.44051E+01 0.00000E+00
 -1      4242 4.78425E+01 2.44051E+01 0.00000E+00
 -1      4243 4.93425E+01 2.44051E+01 0.00000E+00
 -1      4244 5.08425E+01 2.44051E+01 0.00000E+00
 -1      4245 5.23425E+01 2.44051E+01 0.00000E+00
 -1      4246 5.38425E+01 2.44051E+01 0.00000E+00
 -1      4247 5.53425E+01 2.44051E+01 0.00000E+00
 -1      4248 5.68425E+01 2.44051E+01 0.00000E+00
 -1      4249 5.83425E+01 2.44051E+01 0.00000E+00
 -1      4250 5.98425E+01 2.44051E+01 0.00000E+00
 -1      4251 6.13425E+01 2.44051E+01 0.00000E+00
 -1      4252 6.28425E+01 2.44051E+01 0.00000E+00
 -1      4253 6.43425E+01 2.44051E+01 0.00000E+00
 -1      4254 6.58425E+01 2.44051E+01 0.00000E+00
 -1      4255 6.73425E+01 2.44051E+01 0.00000E+00
 -1      4256 6.88425E+01 2.44051E+01 0.00000E+00
 -1      4257 7.03425E+01 2.44051E+01 0.00000E+00
 -1      4258 7.18425E+01 2.44051E+01 0.00000E+00
 -1      4259 7.33425E+01 2.44051E+01 0.00000E+00
 -1      4260 7.48425E+01 2.44051E+01 0.00000E+00
 -1      4261 7.63425E+01 2.44051E+01 0.00000E+00
 -1      4262 7.78425E+01 2.44051E+01 0.00000E+00
 -1      4263 7.93425E+01 2.44051E+01 0.00000E+00
 -1      4264 8.08425E+01 2.44051E+01 0.00000E+00
 -1      4265 8.23425E+01 2.44051E+01 0.00000E+00
 -1      4266 8.38425E+01 2.44051E+01 0.00000E+00
 -1      4267 8.53425E+01 2.44051E+01 0.00000E+00
 -1      4268 8.68425E+01 2.44051E+01 0.00000E+00
 -1      4269 8.83425E+01 2.44051E+01 0.00000E+00
 -1      4270 8.98425E+01 2.44051E+01 0.00000E+00
 -1      4271 9.13425E+01 2.44051E+01 0.00000E+00
 -1      4272 9.28425E+01 2.44051E+01 0.00000E+00
 -1      4273 9.43425E+01 2.44051E+01 0.00000E+00
 -1      4274 3.58425E+01 2.44051E+01 0.00000E+00
 -1      4275 3.73425E+01 2.44051E+01 0.00000E+00
 -1      4276 2.87850E+01 2.08933E+01 0.00000E+00
 -1      4277 2.72850E+01 2.08933E+01 0.00000E+00
 -1      4278 2.65350E+01 2.21923E+01 0.00000E+00
 -1      4279 2.95350E+01 2.21923E+01 0.00000E+00
 -1      4280 3.13425E+01 2.44051E+01 0.00000E+00
 -1      4281 4.07850E+01 2.08932E+01 0.00000E+00
 -1      4282 3.92850E+01 2.08932E+01 0.00000E+00
 -1      4283 3.85350E+01 2.21922E+01 0.00000E+00
 -1      4284 4.15350E+01 2.21922E+01 0.00000E+00
 -1      4285 2.68425E+01 2.44051E+01 0.00000E+00
 -1      4286 2.83425E+01 2.44051E+01 0.00000E+00
 -1      4287 2.98425E+01 2.44051E+01 0.00000E+00
 -1      4288 2.14095E+01 2.28446E+01 0.00000E+00
 -1      4289 2.24054E+01 2.34421E+01 0.00000E+00
 -1      4290 2.36219E+01 2.49583E+01 0.00000E+00
 -1      4291 2.48384E+01 2.50026E+01 0.00000E+00
 -1      4292 4.10925E+01 2.31061E+01 0.00000E+00
 -1      4293 2.30310E+01 2.27898E+01 0.00000E+00
 -1      4294 3.80925E+01 2.31061E+01 0.00000E+00
 -1      4295 2.45310E+01 2.27898E+01 0.00000E+00
 -1      4296 3.95925E+01 2.31061E+01 0.00000E+00
 -1      4297 2.53425E+01 2.44051E+01 0.00000E+00
 -3
    3C                          2067                                     1
 -1       164    8    0    1
 -2         6         7        23      1116      1279      1133
 -1       165    8    0    1
 -2         7         8       164      1117      1280      1281
 -1       166    8    0    1
 -2         8         9       165      1118      1282      1283
 -1       167    8    0    1
 -2         8       165       164      1283      1284      1280
 -1       168    8    0    1
 -2         9        10       166      1119      1285      1286
 -1       169    8    0    1
 -2         9       166       165      1286      1287      1282
 -1       170    8    0    1
 -2        10        11       167      1120      1288      1289
 -1       171    8    0    1
 -2        10       167       166      1289      1290      1285
 -1       172    8    0    1
 -2        11        12       168      1121      1291      1292
 -1       173    8    0    1
 -2        11       168       167      1292      1293      1288
 -1       174    8    0    1
 -2        12        13       169      1122      1294      1295
 -1       175    8    0    1
 -2        12       169       168      1295      1296      1291
 -1       176    8    0    1
 -2        13        14       170      1123      1297      1298
 -1       177    8    0    1
 -2        13       170       169      1298      1299      1294
 -1       178    8    0    1
 -2        14        15       171      1124      1300      1301
 -1       179    8    0    1
 -2        14       171       170      1301      1302      1297
 -1       180    8    0    1
 -2        15        16       172      1125      1303      1304
 -1       181    8    0    1
 -2        15       172       171      1304      1305      1300
 -1       182    8    0    1
 -2        16        17       173      1126      1306      1307
 -1       183    8    0    1
 -2        16       173       172      1307      1308      1303
 -1       184    8    0    1
 -2        17        18       174      1127      1309      1310
 -1       185    8    0    1
 -2        17       174       173      1310      1311      1306
 -1       186    8    0    1
 -2        18        19       175      1128      1312      1313
 -1       187    8    0    1
 -2        18       175       174      1313      1314      1309
 -1       188    8    0    1
 -2        19        20       176      1129      1315      1316
 -1       189    8    0    1
 -2        19       176       175      1316      1317      1312
 -1       190    8    0    1
 -2        20        21       177      1130      1318      1319
 -1       191    8    0    1
 -2        20       177       176      1319      1320      1315
 -1       192    8    0    1
 -2        21        22       178      1131      1321      1322
 -1       193    8    0    1
 -2        21       178       177      1322      1323      1318
 -1       194    8    0    1
 -2        22         5       179      1132      1324      1325
 -1       195    8    0    1
 -2       178        22       179      1321      1325      1326
 -1       196    8    0    1
 -2         5        72       179      1183      1327      1324
 -1       197    8    0    1
 -2        24        23       180      1134      1328      1329
 -1       198    8    0    1
 -2        25        24       181      1135      1330      1331
 -1       199    8    0    1
 -2        24       180       181      1329      1332      1330
 -1       200    8    0    1
 -2        26        25       182      1136      1333      1334
 -1       201    8    0    1
 -2        25       181       182      1331      1335      1333
 -1       202    8    0    1
 -2        27        26       183      1137      1336      1337
 -1       203    8    0    1
 -2        26       182       183      1334      1338      1336
 -1       204    8    0    1
 -2        28        27       184      1138      1339      1340
 -1       205    8    0    1
 -2        27       183       184      1337      1341      1339
 -1       206    8    0    1
 -2        29        28       185      1139      1342      1343
 -1       207    8    0    1
 -2        28       184       185      1340      1344      1342
 -1       208    8    0    1
 -2        30        29       186      1140      1345      1346
 -1       209    8    0    1
 -2        29       185       186      1343      1347      1345
 -1       210    8    0    1
 -2        31        30       187      1141      1348      1349
 -1       211    8    0    1
 -2        30       186       187      1346      1350      1348
 -1       212    8    0    1
 -2        32        31       188      1142      1351      1352
 -1       213    8    0    1
 -2        31       187       188      1349      1353      1351
 -1       214    8    0    1
 -2        33        32       189      1143      1354      1355
 -1       215    8    0    1
 -2        32       188       189      1352      1356      1354
 -1       216    8    0    1
 -2        34        33       190      1144      1357      1358
 -1       217    8    0    1
 -2        33       189       190      1355      1359      1357
 -1       218    8    0    1
 -2        35        34       191      1145      1360      1361
 -1       219    8    0    1
 -2        34       190       191      1358      1362      1360
 -1       220    8    0    1
 -2        36        35       192      1146      1363      1364
 -1       221    8    0    1
 -2        35       191       192      1361      1365      1363
 -1       222    8    0    1
 -2        37        36       193      1147      1366      1367
 -1       223    8    0    1
 -2        36       192       193      1364      1368      1366
 -1       224    8    0    1
 -2        38        37       194      1148      1369      1370
 -1       225    8    0    1
 -2        37       193       194      1367      1371      1369
 -1       226    8    0    1
 -2        39        38       195      1149      1372      1373
 -1       227    8    0    1
 -2        38       194       195      1370      1374      1372
 -1       228    8    0    1
 -2        40        39       196      1150      1375      1376
 -1       229    8    0    1
 -2        39       195       196      1373      1377      1375
 -1       230    8    0    1
 -2        41        40       197      1151      1378      1379
 -1       231    8    0    1
 -2        40       196       197      1376      1380      1378
 -1       232    8    0    1
 -2        42        41       198      1152      1381      1382
 -1       233    8    0    1
 -2        41       197       198      1379      1383      1381
 -1       234    8    0    1
 -2        43        42       199      1153      1384      1385
 -1       235    8    0    1
 -2        42       198       199      1382      1386      1384
 -1       236    8    0    1
 -2        44        43       200      1154      1387      1388
 -1       237    8    0    1
 -2        43       199       200      1385      1389      1387
 -1       238    8    0    1
 -2        45        44       201      1155      1390      1391
 -1       239    8    0    1
 -2        44       200       201      1388      1392      1390
 -1       240    8    0    1
 -2        46        45       202      1156      1393      1394
 -1       241    8    0    1
 -2        45       201       202      1391      1395      1393
 -1       242    8    0    1
 -2        47        46       203      1157      1396      1397
 -1       243    8    0    1
 -2        46       202       203      1394      1398      1396
 -1       244    8    0    1
 -2        48        47       204      1158      1399      1400
 -1       245    8    0    1
 -2        47       203       204      1397      1401      1399
 -1       246    8    0    1
 -2        49        48       205      1159      1402      1403
 -1       247    8    0    1
 -2        48       204       205      1400      1404      1402
 -1       248    8    0    1
 -2        50        49       206      1160      1405      1406
 -1       249    8    0    1
 -2        49       205       206      1403      1407      1405
 -1       250    8    0    1
 -2        51        50       207      1161      1408      1409
 -1       251    8    0    1
 -2        50       206       207      1406      1410      1408
 -1       252    8    0    1
 -2        52        51       208      1162      1411      1412
 -1       253    8    0    1
 -2        51       207       208      1409      1413      1411
 -1       254    8    0    1
 -2        53        52       209      1163      1414      1415
 -1       255    8    0    1
 -2        52       208       209      1412      1416      1414
 -1       256    8    0    1
 -2        54        53       210      1164      1417      1418
 -1       257    8    0    1
 -2        53       209       210      1415      1419      1417
 -1       258    8    0    1
 -2        55        54       211      1165      1420      1421
 -1       259    8    0    1
 -2        54       210       211      1418      1422      1420
 -1       260    8    0    1
 -2        56        55       212      1166      1423      1424
 -1       261    8    0    1
 -2        55       211       212      1421      1425      1423
 -1       262    8    0    1
 -2        57        56       213      1167      1426      1427
 -1       263    8    0    1
 -2        56       212       213      1424      1428      1426
 -1       264    8    0    1
 -2        58        57       214      1168      1429      1430
 -1       265    8    0    1
 -2        57       213       214      1427      1431      1429
 -1       266    8    0    1
 -2        59        58       215      1169      1432      1433
 -1       267    8    0    1
 -2        58       214       215      1430      1434      1432
 -1       268    8    0    1
 -2        60        59       216      1170      1435      1436
 -1       269    8    0    1
 -2        59       215       216      1433      1437      1435
 -1       270    8    0    1
 -2        61        60       217      1171      1438      1439
 -1       271    8    0    1
 -2        60       216       217      1436      1440      1438
 -1       272    8    0    1
 -2        62        61       218      1172      1441      1442
 -1       273    8    0    1
 -2        61       217       218      1439      1443      1441
 -1       274    8    0    1
 -2        63        62       219      1173      1444      1445
 -1       275    8    0    1
 -2        62       218       219      1442      1446      1444
 -1       276    8    0    1
 -2        64        63       220      1174      1447      1448
 -1       277    8    0    1
 -2        63       219       220      1445      1449      1447
 -1       278    8    0    1
 -2        65        64       221      1175      1450      1451
 -1       279    8    0    1
 -2        64       220       221      1448      1452      1450
 -1       280    8    0    1
 -2        66        65       222      1176      1453      1454
 -1       281    8    0    1
 -2        65       221       222      1451      1455      1453
 -1       282    8    0    1
 -2        67        66       223      1177      1456      1457
 -1       283    8    0    1
 -2        66       222       223      1454      1458      1456
 -1       284    8    0    1
 -2        68        67       224      1178      1459      1460
 -1       285    8    0    1
 -2        67       223       224      1457      1461      1459
 -1       286    8    0    1
 -2        69        68       225      1179      1462      1463
 -1       287    8    0    1
 -2        68       224       225      1460      1464      1462
 -1       288    8    0    1
 -2        70        69       226      1180      1465      1466
 -1       289    8    0    1
 -2        69       225       226      1463      1467      1465
 -1       290    8    0    1
 -2        71        70       227      1181      1468      1469
 -1       291    8    0    1
 -2        70       226       227      1466      1470      1468
 -1       292    8    0    1
 -2         4        71       136      1182      1471      1249
 -1       293    8    0    1
 -2       136        71       227      1471      1469      1472
 -1       294    8    0    1
 -2        72        73       228      1184      1473      1474
 -1       295    8    0    1
 -2        72       228       179      1474      1475      1327
 -1       296    8    0    1
 -2        73        74       229      1185      1476      1477
 -1       297    8    0    1
 -2        73       229       228      1477      1478      1473
 -1       298    8    0    1
 -2        74        75       230      1186      1479      1480
 -1       299    8    0    1
 -2        74       230       229      1480      1481      1476
 -1       300    8    0    1
 -2        75        76       231      1187      1482      1483
 -1       301    8    0    1
 -2        75       231       230      1483      1484      1479
 -1       302    8    0    1
 -2        76        77       232      1188      1485      1486
 -1       303    8    0    1
 -2        76       232       231      1486      1487      1482
 -1       304    8    0    1
 -2        77        78       233      1189      1488      1489
 -1       305    8    0    1
 -2        77       233       232      1489      1490      1485
 -1       306    8    0    1
 -2        78        79       234      1190      1491      1492
 -1       307    8    0    1
 -2        78       234       233      1492      1493      1488
 -1       308    8    0    1
 -2        79        80       235      1191      1494      1495
 -1       309    8    0    1
 -2        79       235       234      1495      1496      1491
 -1       310    8    0    1
 -2        80        81       236      1192      1497      1498
 -1       311    8    0    1
 -2        80       236       235      1498      1499      1494
 -1       312    8    0    1
 -2        81        82       237      1193      1500      1501
 -1       313    8    0    1
 -2        81       237       236      1501      1502      1497
 -1       314    8    0    1
 -2        82        83       238      1194      1503      1504
 -1       315    8    0    1
 -2        82       238       237      1504      1505      1500
 -1       316    8    0    1
 -2        83        84       239      1195      1506      1507
 -1       317    8    0    1
 -2        83       239       238      1507      1508      1503
 -1       318    8    0    1
 -2        84        85       240      1196      1509      1510
 -1       319    8    0    1
 -2        84       240       239      1510      1511      1506
 -1       320    8    0    1
 -2        85        86       241      1197      1512      1513
 -1       321    8    0    1
 -2        85       241       240      1513      1514      1509
 -1       322    8    0    1
 -2        86        87       242      1198      1515      1516
 -1       323    8    0    1
 -2        86       242       241      1516      1517      1512
 -1       324    8    0    1
 -2        87        88       243      1199      1518      1519
 -1       325    8    0    1
 -2        87       243       242      1519      1520      1515
 -1       326    8    0    1
 -2        88        89       244      1200      1521      1522
 -1       327    8    0    1
 -2        88       244       243      1522      1523      1518
 -1       328    8    0    1
 -2        89        90       245      1201      1524      1525
 -1       329    8    0    1
 -2        89       245       244      1525      1526      1521
 -1       330    8    0    1
 -2        90        91       246      1202      1527      1528
 -1       331    8    0    1
 -2        90       246       245      1528      1529      1524
 -1       332    8    0    1
 -2        91        92       247      1203      1530      1531
 -1       333    8    0    1
 -2        91       247       246      1531      1532      1527
 -1       334    8    0    1
 -2        92        93       248      1204      1533      1534
 -1       335    8    0    1
 -2        92       248       247      1534      1535      1530
 -1       336    8    0    1
 -2        93        94       249      1205      1536      1537
 -1       337    8    0    1
 -2        93       249       248      1537      1538      1533
 -1       338    8    0    1
 -2        94        95       250      1206      1539      1540
 -1       339    8    0    1
 -2        94       250       249      1540      1541      1536
 -1       340    8    0    1
 -2        95        96       251      1207      1542      1543
 -1       341    8    0    1
 -2        95       251       250      1543      1544      1539
 -1       342    8    0    1
 -2        96        97       252      1208      1545      1546
 -1       343    8    0    1
 -2        96       252       251      1546      1547      1542
 -1       344    8    0    1
 -2        97        98       253      1209      1548      1549
 -1       345    8    0    1
 -2        97       253       252      1549      1550      1545
 -1       346    8    0    1
 -2        98        99       254      1210      1551      1552
 -1       347    8    0    1
 -2        98       254       253      1552      1553      1548
 -1       348    8    0    1
 -2        99       100       255      1211      1554      1555
 -1       349    8    0    1
 -2        99       255       254      1555      1556      1551
 -1       350    8    0    1
 -2       100       101       256      1212      1557      1558
 -1       351    8    0    1
 -2       100       256       255      1558      1559      1554
 -1       352    8    0    1
 -2       101       102       257      1213      1560      1561
 -1       353    8    0    1
 -2       101       257       256      1561      1562      1557
 -1       354    8    0    1
 -2       102       103       258      1214      1563      1564
 -1       355    8    0    1
 -2       102       258       257      1564      1565      1560
 -1       356    8    0    1
 -2       103       104       259      1215      1566      1567
 -1       357    8    0    1
 -2       103       259       258      1567      1568      1563
 -1       358    8    0    1
 -2       104       105       260      1216      1569      1570
 -1       359    8    0    1
 -2       104       260       259      1570      1571      1566
 -1       360    8    0    1
 -2       105       106       261      1217      1572      1573
 -1       361    8    0    1
 -2       105       261       260      1573      1574      1569
 -1       362    8    0    1
 -2       106       107       262      1218      1575      1576
 -1       363    8    0    1
 -2       106       262       261      1576      1577      1572
 -1       364    8    0    1
 -2       107       108       263      1219      1578      1579
 -1       365    8    0    1
 -2       107       263       262      1579      1580      1575
 -1       366    8    0    1
 -2       108       109       264      1220      1581      1582
 -1       367    8    0    1
 -2       108       264       263      1582      1583      1578
 -1       368    8    0    1
 -2       109       110       265      1221      1584      1585
 -1       369    8    0    1
 -2       109       265       264      1585      1586      1581
 -1       370    8    0    1
 -2       110       111       266      1222      1587      1588
 -1       371    8    0    1
 -2       110       266       265      1588      1589      1584
 -1       372    8    0    1
 -2       111       112       267      1223      1590      1591
 -1       373    8    0    1
 -2       111       267       266      1591      1592      1587
 -1       374    8    0    1
 -2       112       113       268      1224      1593      1594
 -1       375    8    0    1
 -2       112       268       267      1594      1595      1590
 -1       376    8    0    1
 -2       113       114       269      1225      1596      1597
 -1       377    8    0    1
 -2       113       269       268      1597      1598      1593
 -1       378    8    0    1
 -2       114       115       270      1226      1599      1600
 -1       379    8    0    1
 -2       114       270       269      1600      1601      1596
 -1       380    8    0    1
 -2       115       116       271      1227      1602      1603
 -1       381    8    0    1
 -2       115       271       270      1603      1604      1599
 -1       382    8    0    1
 -2       116       117       272      1228      1605      1606
 -1       383    8    0    1
 -2       116       272       271      1606      1607      1602
 -1       384    8    0    1
 -2       117       118       273      1229      1608      1609
 -1       385    8    0    1
 -2       117       273       272      1609      1610      1605
 -1       386    8    0    1
 -2       118       119       274      1230      1611      1612
 -1       387    8    0    1
 -2       118       274       273      1612      1613      1608
 -1       388    8    0    1
 -2       119       120       275      1231      1614      1615
 -1       389    8    0    1
 -2       119       275       274      1615      1616      1611
 -1       390    8    0    1
 -2       120         3       121      1232      1233      1617
 -1       391    8    0    1
 -2       121       122       276      1234      1618      1619
 -1       392    8    0    1
 -2       122       123       277      1235      1620      1621
 -1       393    8    0    1
 -2       122       277       276      1621      1622      1618
 -1       394    8    0    1
 -2       123       124       278      1236      1623      1624
 -1       395    8    0    1
 -2       123       278       277      1624      1625      1620
 -1       396    8    0    1
 -2       124       125       279      1237      1626      1627
 -1       397    8    0    1
 -2       124       279       278      1627      1628      1623
 -1       398    8    0    1
 -2       125       126       280      1238      1629      1630
 -1       399    8    0    1
 -2       125       280       279      1630      1631      1626
 -1       400    8    0    1
 -2       126       127       281      1239      1632      1633
 -1       401    8    0    1
 -2       126       281       280      1633      1634      1629
 -1       402    8    0    1
 -2       127       128       282      1240      1635      1636
 -1       403    8    0    1
 -2       127       282       281      1636      1637      1632
 -1       404    8    0    1
 -2       128       129       283      1241      1638      1639
 -1       405    8    0    1
 -2       128       283       282      1639      1640      1635
 -1       406    8    0    1
 -2       129       130       284      1242      1641      1642
 -1       407    8    0    1
 -2       129       284       283      1642      1643      1638
 -1       408    8    0    1
 -2       130       131       285      1243      1644      1645
 -1       409    8    0    1
 -2       130       285       284      1645      1646      1641
 -1       410    8    0    1
 -2       131       132       286      1244      1647      1648
 -1       411    8    0    1
 -2       131       286       285      1648      1649      1644
 -1       412    8    0    1
 -2       132       133       287      1245      1650      1651
 -1       413    8    0    1
 -2       132       287       286      1651      1652      1647
 -1       414    8    0    1
 -2       133       134       288      1246      1653      1654
 -1       415    8    0    1
 -2       133       288       287      1654      1655      1650
 -1       416    8    0    1
 -2       134       135       289      1247      1656      1657
 -1       417    8    0    1
 -2       134       289       288      1657      1658      1653
 -1       418    8    0    1
 -2       135       136       290      1248      1659      1660
 -1       419    8    0    1
 -2       289       135       290      1656      1660      1661
 -1       420    8    0    1
 -2       136       227       290      1472      1662      1659
 -1       421    8    0    1
 -2         2       137       291      1250      1663      1664
 -1       422    8    0    1
 -2       137       138       292      1251      1665      1666
 -1       423    8    0    1
 -2       138       139       293      1252      1667      1668
 -1       424    8    0    1
 -2       139       140       294      1253      1669      1670
 -1       425    8    0    1
 -2       140       141       295      1254      1671      1672
 -1       426    8    0    1
 -2       141       142       296      1255      1673      1674
 -1       427    8    0    1
 -2       142       143       297      1256      1675      1676
 -1       428    8    0    1
 -2       143       144       298      1257      1677      1678
 -1       429    8    0    1
 -2       144       145       299      1258      1679      1680
 -1       430    8    0    1
 -2       145       146       300      1259      1681      1682
 -1       431    8    0    1
 -2       146       147       301      1260      1683      1684
 -1       432    8    0    1
 -2       147       148       302      1261      1685      1686
 -1       433    8    0    1
 -2       148       149       303      1262      1687      1688
 -1       434    8    0    1
 -2       149       150       304      1263      1689      1690
 -1       435    8    0    1
 -2       150       151       305      1264      1691      1692
 -1       436    8    0    1
 -2       151       152       306      1265      1693      1694
 -1       437    8    0    1
 -2       152       153       307      1266      1695      1696
 -1       438    8    0    1
 -2       153       154       308      1267      1697      1698
 -1       439    8    0    1
 -2       154       155       309      1268      1699      1700
 -1       440    8    0    1
 -2       155       156       310      1269      1701      1702
 -1       441    8    0    1
 -2       156       157       311      1270      1703      1704
 -1       442    8    0    1
 -2       157       158       312      1271      1705      1706
 -1       443    8    0    1
 -2       158       159       313      1272      1707      1708
 -1       444    8    0    1
 -2       159       160       314      1273      1709      1710
 -1       445    8    0    1
 -2       160       161       315      1274      1711      1712
 -1       446    8    0    1
 -2       161         1       316      1275      1713      1714
 -1       447    8    0    1
 -2         1       162       317      1276      1715      1716
 -1       448    8    0    1
 -2       162       163       318      1277      1717      1718
 -1       449    8    0    1
 -2       163         2       319      1278      1719      1720
 -1       450    8    0    1
 -2       294       140       295      1669      1672      1721
 -1       451    8    0    1
 -2       293       139       294      1667      1670      1722
 -1       452    8    0    1
 -2       120       121       275      1617      1723      1614
 -1       453    8    0    1
 -2       121       276       275      1619      1724      1723
 -1       454    8    0    1
 -2       291       137       292      1663      1666      1725
 -1       455    8    0    1
 -2       292       138       293      1665      1668      1726
 -1       456    8    0    1
 -2         2       291       319      1664      1727      1719
 -1       457    8    0    1
 -2       141       296       295      1674      1728      1671
 -1       458    8    0    1
 -2       142       297       296      1676      1729      1673
 -1       459    8    0    1
 -2       143       298       297      1678      1730      1675
 -1       460    8    0    1
 -2       144       299       298      1680      1731      1677
 -1       461    8    0    1
 -2       145       300       299      1682      1732      1679
 -1       462    8    0    1
 -2       146       301       300      1684      1733      1681
 -1       463    8    0    1
 -2       147       302       301      1686      1734      1683
 -1       464    8    0    1
 -2       148       303       302      1688      1735      1685
 -1       465    8    0    1
 -2       149       304       303      1690      1736      1687
 -1       466    8    0    1
 -2       150       305       304      1692      1737      1689
 -1       467    8    0    1
 -2       151       306       305      1694      1738      1691
 -1       468    8    0    1
 -2       152       307       306      1696      1739      1693
 -1       469    8    0    1
 -2       153       308       307      1698      1740      1695
 -1       470    8    0    1
 -2       154       309       308      1700      1741      1697
 -1       471    8    0    1
 -2       155       310       309      1702      1742      1699
 -1       472    8    0    1
 -2       156       311       310      1704      1743      1701
 -1       473    8    0    1
 -2       157       312       311      1706      1744      1703
 -1       474    8    0    1
 -2       158       313       312      1708      1745      1705
 -1       475    8    0    1
 -2       159       314       313      1710      1746      1707
 -1       476    8    0    1
 -2       160       315       314      1712      1747      1709
 -1       477    8    0    1
 -2       161       316       315      1714      1748      1711
 -1       478    8    0    1
 -2         1       317       316      1716      1749      1713
 -1       479    8    0    1
 -2       162       318       317      1718      1750      1715
 -1       480    8    0    1
 -2       163       319       318      1720      1751      1717
 -1       481    8    0    1
 -2        23         7       164      1279      1281      1752
 -1       482    8    0    1
 -2       165       166       320      1287      1753      1754
 -1       483    8    0    1
 -2       164       165       321      1284      1755      1756
 -1       484    8    0    1
 -2       165       320       321      1754      1757      1755
 -1       485    8    0    1
 -2       167       168       322      1293      1758      1759
 -1       486    8    0    1
 -2       168       169       323      1296      1760      1761
 -1       487    8    0    1
 -2       168       323       322      1761      1762      1758
 -1       488    8    0    1
 -2       169       170       324      1299      1763      1764
 -1       489    8    0    1
 -2       169       324       323      1764      1765      1760
 -1       490    8    0    1
 -2       170       171       325      1302      1766      1767
 -1       491    8    0    1
 -2       170       325       324      1767      1768      1763
 -1       492    8    0    1
 -2       171       172       326      1305      1769      1770
 -1       493    8    0    1
 -2       171       326       325      1770      1771      1766
 -1       494    8    0    1
 -2       172       173       327      1308      1772      1773
 -1       495    8    0    1
 -2       172       327       326      1773      1774      1769
 -1       496    8    0    1
 -2       173       174       328      1311      1775      1776
 -1       497    8    0    1
 -2       173       328       327      1776      1777      1772
 -1       498    8    0    1
 -2       174       175       329      1314      1778      1779
 -1       499    8    0    1
 -2       174       329       328      1779      1780      1775
 -1       500    8    0    1
 -2       175       176       330      1317      1781      1782
 -1       501    8    0    1
 -2       175       330       329      1782      1783      1778
 -1       502    8    0    1
 -2       176       177       331      1320      1784      1785
 -1       503    8    0    1
 -2       176       331       330      1785      1786      1781
 -1       504    8    0    1
 -2       177       178       332      1323      1787      1788
 -1       505    8    0    1
 -2       177       332       331      1788      1789      1784
 -1       506    8    0    1
 -2       178       179       333      1326      1790      1791
 -1       507    8    0    1
 -2       332       178       333      1787      1791      1792
 -1       508    8    0    1
 -2       179       228       333      1475      1793      1790
 -1       509    8    0    1
 -2       180        23       164      1328      1752      1794
 -1       510    8    0    1
 -2       228       229       334      1478      1795      1796
 -1       511    8    0    1
 -2       228       334       333      1796      1797      1793
 -1       512    8    0    1
 -2       180       164       321      1794      1756      1798
 -1       513    8    0    1
 -2       182       181       335      1335      1799      1800
 -1       514    8    0    1
 -2       183       182       336      1338      1801      1802
 -1       515    8    0    1
 -2       182       335       336      1800      1803      1801
 -1       516    8    0    1
 -2       184       183       337      1341      1804      1805
 -1       517    8    0    1
 -2       183       336       337      1802      1806      1804
 -1       518    8    0    1
 -2       185       184       338      1344      1807      1808
 -1       519    8    0    1
 -2       184       337       338      1805      1809      1807
 -1       520    8    0    1
 -2       186       185       339      1347      1810      1811
 -1       521    8    0    1
 -2       185       338       339      1808      1812      1810
 -1       522    8    0    1
 -2       187       186       340      1350      1813      1814
 -1       523    8    0    1
 -2       186       339       340      1811      1815      1813
 -1       524    8    0    1
 -2       188       187       341      1353      1816      1817
 -1       525    8    0    1
 -2       187       340       341      1814      1818      1816
 -1       526    8    0    1
 -2       189       188       342      1356      1819      1820
 -1       527    8    0    1
 -2       188       341       342      1817      1821      1819
 -1       528    8    0    1
 -2       190       189       343      1359      1822      1823
 -1       529    8    0    1
 -2       189       342       343      1820      1824      1822
 -1       530    8    0    1
 -2       191       190       344      1362      1825      1826
 -1       531    8    0    1
 -2       190       343       344      1823      1827      1825
 -1       532    8    0    1
 -2       192       191       345      1365      1828      1829
 -1       533    8    0    1
 -2       191       344       345      1826      1830      1828
 -1       534    8    0    1
 -2       193       192       346      1368      1831      1832
 -1       535    8    0    1
 -2       192       345       346      1829      1833      1831
 -1       536    8    0    1
 -2       194       193       347      1371      1834      1835
 -1       537    8    0    1
 -2       193       346       347      1832      1836      1834
 -1       538    8    0    1
 -2       195       194       348      1374      1837      1838
 -1       539    8    0    1
 -2       194       347       348      1835      1839      1837
 -1       540    8    0    1
 -2       196       195       349      1377      1840      1841
 -1       541    8    0    1
 -2       195       348       349      1838      1842      1840
 -1       542    8    0    1
 -2       197       196       350      1380      1843      1844
 -1       543    8    0    1
 -2       196       349       350      1841      1845      1843
 -1       544    8    0    1
 -2       198       197       351      1383      1846      1847
 -1       545    8    0    1
 -2       197       350       351      1844      1848      1846
 -1       546    8    0    1
 -2       199       198       352      1386      1849      1850
 -1       547    8    0    1
 -2       198       351       352      1847      1851      1849
 -1       548    8    0    1
 -2       200       199       353      1389      1852      1853
 -1       549    8    0    1
 -2       199       352       353      1850      1854      1852
 -1       550    8    0    1
 -2       201       200       354      1392      1855      1856
 -1       551    8    0    1
 -2       200       353       354      1853      1857      1855
 -1       552    8    0    1
 -2       202       201       355      1395      1858      1859
 -1       553    8    0    1
 -2       201       354       355      1856      1860      1858
 -1       554    8    0    1
 -2       203       202       356      1398      1861      1862
 -1       555    8    0    1
 -2       202       355       356      1859      1863      1861
 -1       556    8    0    1
 -2       204       203       357      1401      1864      1865
 -1       557    8    0    1
 -2       203       356       357      1862      1866      1864
 -1       558    8    0    1
 -2       205       204       358      1404      1867      1868
 -1       559    8    0    1
 -2       204       357       358      1865      1869      1867
 -1       560    8    0    1
 -2       206       205       359      1407      1870      1871
 -1       561    8    0    1
 -2       205       358       359      1868      1872      1870
 -1       562    8    0    1
 -2       207       206       360      1410      1873      1874
 -1       563    8    0    1
 -2       206       359       360      1871      1875      1873
 -1       564    8    0    1
 -2       208       207       361      1413      1876      1877
 -1       565    8    0    1
 -2       207       360       361      1874      1878      1876
 -1       566    8    0    1
 -2       209       208       362      1416      1879      1880
 -1       567    8    0    1
 -2       208       361       362      1877      1881      1879
 -1       568    8    0    1
 -2       210       209       363      1419      1882      1883
 -1       569    8    0    1
 -2       209       362       363      1880      1884      1882
 -1       570    8    0    1
 -2       211       210       364      1422      1885      1886
 -1       571    8    0    1
 -2       210       363       364      1883      1887      1885
 -1       572    8    0    1
 -2       212       211       365      1425      1888      1889
 -1       573    8    0    1
 -2       211       364       365      1886      1890      1888
 -1       574    8    0    1
 -2       213       212       366      1428      1891      1892
 -1       575    8    0    1
 -2       212       365       366      1889      1893      1891
 -1       576    8    0    1
 -2       214       213       367      1431      1894      1895
 -1       577    8    0    1
 -2       213       366       367      1892      1896      1894
 -1       578    8    0    1
 -2       215       214       368      1434      1897      1898
 -1       579    8    0    1
 -2       214       367       368      1895      1899      1897
 -1       580    8    0    1
 -2       216       215       369      1437      1900      1901
 -1       581    8    0    1
 -2       215       368       369      1898      1902      1900
 -1       582    8    0    1
 -2       217       216       370      1440      1903      1904
 -1       583    8    0    1
 -2       216       369       370      1901      1905      1903
 -1       584    8    0    1
 -2       218       217       371      1443      1906      1907
 -1       585    8    0    1
 -2       217       370       371      1904      1908      1906
 -1       586    8    0    1
 -2       219       218       372      1446      1909      1910
 -1       587    8    0    1
 -2       218       371       372      1907      1911      1909
 -1       588    8    0    1
 -2       220       219       373      1449      1912      1913
 -1       589    8    0    1
 -2       219       372       373      1910      1914      1912
 -1       590    8    0    1
 -2       221       220       374      1452      1915      1916
 -1       591    8    0    1
 -2       220       373       374      1913      1917      1915
 -1       592    8    0    1
 -2       222       221       375      1455      1918      1919
 -1       593    8    0    1
 -2       221       374       375      1916      1920      1918
 -1       594    8    0    1
 -2       223       222       376      1458      1921      1922
 -1       595    8    0    1
 -2       222       375       376      1919      1923      1921
 -1       596    8    0    1
 -2       224       223       377      1461      1924      1925
 -1       597    8    0    1
 -2       223       376       377      1922      1926      1924
 -1       598    8    0    1
 -2       225       224       378      1464      1927      1928
 -1       599    8    0    1
 -2       224       377       378      1925      1929      1927
 -1       600    8    0    1
 -2       226       225       379      1467      1930      1931
 -1       601    8    0    1
 -2       225       378       379      1928      1932      1930
 -1       602    8    0    1
 -2       227       226       380      1470      1933      1934
 -1       603    8    0    1
 -2       290       227       380      1662      1934      1935
 -1       604    8    0    1
 -2       226       379       380      1931      1936      1933
 -1       605    8    0    1
 -2       229       230       381      1481      1937      1938
 -1       606    8    0    1
 -2       229       381       334      1938      1939      1795
 -1       607    8    0    1
 -2       230       231       382      1484      1940      1941
 -1       608    8    0    1
 -2       230       382       381      1941      1942      1937
 -1       609    8    0    1
 -2       231       232       383      1487      1943      1944
 -1       610    8    0    1
 -2       231       383       382      1944      1945      1940
 -1       611    8    0    1
 -2       232       233       384      1490      1946      1947
 -1       612    8    0    1
 -2       232       384       383      1947      1948      1943
 -1       613    8    0    1
 -2       233       234       385      1493      1949      1950
 -1       614    8    0    1
 -2       233       385       384      1950      1951      1946
 -1       615    8    0    1
 -2       234       235       386      1496      1952      1953
 -1       616    8    0    1
 -2       234       386       385      1953      1954      1949
 -1       617    8    0    1
 -2       235       236       387      1499      1955      1956
 -1       618    8    0    1
 -2       235       387       386      1956      1957      1952
 -1       619    8    0    1
 -2       236       237       388      1502      1958      1959
 -1       620    8    0    1
 -2       236       388       387      1959      1960      1955
 -1       621    8    0    1
 -2       237       238       389      1505      1961      1962
 -1       622    8    0    1
 -2       237       389       388      1962      1963      1958
 -1       623    8    0    1
 -2       238       239       390      1508      1964      1965
 -1       624    8    0    1
 -2       238       390       389      1965      1966      1961
 -1       625    8    0    1
 -2       239       240       391      1511      1967      1968
 -1       626    8    0    1
 -2       239       391       390      1968      1969      1964
 -1       627    8    0    1
 -2       240       241       392      1514      1970      1971
 -1       628    8    0    1
 -2       240       392       391      1971      1972      1967
 -1       629    8    0    1
 -2       241       242       393      1517      1973      1974
 -1       630    8    0    1
 -2       241       393       392      1974      1975      1970
 -1       631    8    0    1
 -2       242       243       394      1520      1976      1977
 -1       632    8    0    1
 -2       242       394       393      1977      1978      1973
 -1       633    8    0    1
 -2       243       244       395      1523      1979      1980
 -1       634    8    0    1
 -2       243       395       394      1980      1981      1976
 -1       635    8    0    1
 -2       244       245       396      1526      1982      1983
 -1       636    8    0    1
 -2       244       396       395      1983      1984      1979
 -1       637    8    0    1
 -2       245       246       397      1529      1985      1986
 -1       638    8    0    1
 -2       245       397       396      1986      1987      1982
 -1       639    8    0    1
 -2       246       247       398      1532      1988      1989
 -1       640    8    0    1
 -2       246       398       397      1989      1990      1985
 -1       641    8    0    1
 -2       247       248       399      1535      1991      1992
 -1       642    8    0    1
 -2       247       399       398      1992      1993      1988
 -1       643    8    0    1
 -2       248       249       400      1538      1994      1995
 -1       644    8    0    1
 -2       248       400       399      1995      1996      1991
 -1       645    8    0    1
 -2       249       250       401      1541      1997      1998
 -1       646    8    0    1
 -2       249       401       400      1998      1999      1994
 -1       647    8    0    1
 -2       250       251       402      1544      2000      2001
 -1       648    8    0    1
 -2       250       402       401      2001      2002      1997
 -1       649    8    0    1
 -2       251       252       403      1547      2003      2004
 -1       650    8    0    1
 -2       251       403       402      2004      2005      2000
 -1       651    8    0    1
 -2       252       253       404      1550      2006      2007
 -1       652    8    0    1
 -2       252       404       403      2007      2008      2003
 -1       653    8    0    1
 -2       253       254       405      1553      2009      2010
 -1       654    8    0    1
 -2       253       405       404      2010      2011      2006
 -1       655    8    0    1
 -2       254       255       406      1556      2012      2013
 -1       656    8    0    1
 -2       254       406       405      2013      2014      2009
 -1       657    8    0    1
 -2       255       256       407      1559      2015      2016
 -1       658    8    0    1
 -2       255       407       406      2016      2017      2012
 -1       659    8    0    1
 -2       256       257       408      1562      2018      2019
 -1       660    8    0    1
 -2       256       408       407      2019      2020      2015
 -1       661    8    0    1
 -2       257       258       409      1565      2021      2022
 -1       662    8    0    1
 -2       257       409       408      2022      2023      2018
 -1       663    8    0    1
 -2       258       259       410      1568      2024      2025
 -1       664    8    0    1
 -2       258       410       409      2025      2026      2021
 -1       665    8    0    1
 -2       259       260       411      1571      2027      2028
 -1       666    8    0    1
 -2       259       411       410      2028      2029      2024
 -1       667    8    0    1
 -2       260       261       412      1574      2030      2031
 -1       668    8    0    1
 -2       260       412       411      2031      2032      2027
 -1       669    8    0    1
 -2       261       262       413      1577      2033      2034
 -1       670    8    0    1
 -2       261       413       412      2034      2035      2030
 -1       671    8    0    1
 -2       262       263       414      1580      2036      2037
 -1       672    8    0    1
 -2       262       414       413      2037      2038      2033
 -1       673    8    0    1
 -2       263       264       415      1583      2039      2040
 -1       674    8    0    1
 -2       263       415       414      2040      2041      2036
 -1       675    8    0    1
 -2       264       265       416      1586      2042      2043
 -1       676    8    0    1
 -2       264       416       415      2043      2044      2039
 -1       677    8    0    1
 -2       265       266       417      1589      2045      2046
 -1       678    8    0    1
 -2       265       417       416      2046      2047      2042
 -1       679    8    0    1
 -2       266       267       418      1592      2048      2049
 -1       680    8    0    1
 -2       266       418       417      2049      2050      2045
 -1       681    8    0    1
 -2       267       268       419      1595      2051      2052
 -1       682    8    0    1
 -2       267       419       418      2052      2053      2048
 -1       683    8    0    1
 -2       268       269       420      1598      2054      2055
 -1       684    8    0    1
 -2       268       420       419      2055      2056      2051
 -1       685    8    0    1
 -2       269       270       421      1601      2057      2058
 -1       686    8    0    1
 -2       269       421       420      2058      2059      2054
 -1       687    8    0    1
 -2       270       271       422      1604      2060      2061
 -1       688    8    0    1
 -2       270       422       421      2061      2062      2057
 -1       689    8    0    1
 -2       271       272       423      1607      2063      2064
 -1       690    8    0    1
 -2       271       423       422      2064      2065      2060
 -1       691    8    0    1
 -2       272       273       424      1610      2066      2067
 -1       692    8    0    1
 -2       272       424       423      2067      2068      2063
 -1       693    8    0    1
 -2       273       274       425      1613      2069      2070
 -1       694    8    0    1
 -2       273       425       424      2070      2071      2066
 -1       695    8    0    1
 -2       274       275       426      1616      2072      2073
 -1       696    8    0    1
 -2       425       274       426      2069      2073      2074
 -1       697    8    0    1
 -2       275       276       426      1724      2075      2072
 -1       698    8    0    1
 -2       278       279       427      1628      2076      2077
 -1       699    8    0    1
 -2       277       278       428      1625      2078      2079
 -1       700    8    0    1
 -2       278       427       428      2077      2080      2078
 -1       701    8    0    1
 -2       276       277       429      1622      2081      2082
 -1       702    8    0    1
 -2       426       276       429      2075      2082      2083
 -1       703    8    0    1
 -2       277       428       429      2079      2084      2081
 -1       704    8    0    1
 -2       279       280       430      1631      2085      2086
 -1       705    8    0    1
 -2       279       430       427      2086      2087      2076
 -1       706    8    0    1
 -2       280       281       431      1634      2088      2089
 -1       707    8    0    1
 -2       280       431       430      2089      2090      2085
 -1       708    8    0    1
 -2       281       282       432      1637      2091      2092
 -1       709    8    0    1
 -2       281       432       431      2092      2093      2088
 -1       710    8    0    1
 -2       282       283       433      1640      2094      2095
 -1       711    8    0    1
 -2       282       433       432      2095      2096      2091
 -1       712    8    0    1
 -2       283       284       434      1643      2097      2098
 -1       713    8    0    1
 -2       283       434       433      2098      2099      2094
 -1       714    8    0    1
 -2       284       285       435      1646      2100      2101
 -1       715    8    0    1
 -2       284       435       434      2101      2102      2097
 -1       716    8    0    1
 -2       285       286       436      1649      2103      2104
 -1       717    8    0    1
 -2       285       436       435      2104      2105      2100
 -1       718    8    0    1
 -2       286       287       437      1652      2106      2107
 -1       719    8    0    1
 -2       286       437       436      2107      2108      2103
 -1       720    8    0    1
 -2       287       288       438      1655      2109      2110
 -1       721    8    0    1
 -2       287       438       437      2110      2111      2106
 -1       722    8    0    1
 -2       288       289       439      1658      2112      2113
 -1       723    8    0    1
 -2       288       439       438      2113      2114      2109
 -1       724    8    0    1
 -2       292       293       440      1726      2115      2116
 -1       725    8    0    1
 -2       319       291       441      1727      2117      2118
 -1       726    8    0    1
 -2       291       292       442      1725      2119      2120
 -1       727    8    0    1
 -2       292       440       442      2116      2121      2119
 -1       728    8    0    1
 -2       293       294       443      1722      2122      2123
 -1       729    8    0    1
 -2       294       295       444      1721      2124      2125
 -1       730    8    0    1
 -2       294       444       443      2125      2126      2122
 -1       731    8    0    1
 -2       166       167       445      1290      2127      2128
 -1       732    8    0    1
 -2       320       166       445      1753      2128      2129
 -1       733    8    0    1
 -2       167       322       445      1759      2130      2127
 -1       734    8    0    1
 -2       296       297       446      1729      2131      2132
 -1       735    8    0    1
 -2       297       298       447      1730      2133      2134
 -1       736    8    0    1
 -2       298       299       448      1731      2135      2136
 -1       737    8    0    1
 -2       299       300       449      1732      2137      2138
 -1       738    8    0    1
 -2       300       301       450      1733      2139      2140
 -1       739    8    0    1
 -2       301       302       451      1734      2141      2142
 -1       740    8    0    1
 -2       302       303       452      1735      2143      2144
 -1       741    8    0    1
 -2       303       304       453      1736      2145      2146
 -1       742    8    0    1
 -2       304       305       454      1737      2147      2148
 -1       743    8    0    1
 -2       304       454       453      2148      2149      2145
 -1       744    8    0    1
 -2       305       306       455      1738      2150      2151
 -1       745    8    0    1
 -2       306       307       456      1739      2152      2153
 -1       746    8    0    1
 -2       307       308       457      1740      2154      2155
 -1       747    8    0    1
 -2       308       309       458      1741      2156      2157
 -1       748    8    0    1
 -2       309       310       459      1742      2158      2159
 -1       749    8    0    1
 -2       309       459       458      2159      2160      2156
 -1       750    8    0    1
 -2       310       311       460      1743      2161      2162
 -1       751    8    0    1
 -2       311       312       461      1744      2163      2164
 -1       752    8    0    1
 -2       312       313       462      1745      2165      2166
 -1       753    8    0    1
 -2       313       314       463      1746      2167      2168
 -1       754    8    0    1
 -2       314       315       464      1747      2169      2170
 -1       755    8    0    1
 -2       315       316       465      1748      2171      2172
 -1       756    8    0    1
 -2       316       317       466      1749      2173      2174
 -1       757    8    0    1
 -2       317       318       467      1750      2175      2176
 -1       758    8    0    1
 -2       318       319       468      1751      2177      2178
 -1       759    8    0    1
 -2       295       296       469      1728      2179      2180
 -1       760    8    0    1
 -2       444       295       469      2124      2180      2181
 -1       761    8    0    1
 -2       180       321       181      1798      2182      1332
 -1       762    8    0    1
 -2       448       299       470      2135      2183      2184
 -1       763    8    0    1
 -2       299       449       470      2138      2185      2183
 -1       764    8    0    1
 -2       296       446       469      2132      2186      2179
 -1       765    8    0    1
 -2       335       181       321      1799      2182      2187
 -1       766    8    0    1
 -2       441       291       442      2117      2120      2188
 -1       767    8    0    1
 -2       293       443       440      2123      2189      2115
 -1       768    8    0    1
 -2       439       289       290      2112      1661      2190
 -1       769    8    0    1
 -2       319       441       468      2118      2191      2177
 -1       770    8    0    1
 -2       467       318       468      2175      2178      2192
 -1       771    8    0    1
 -2       466       317       467      2173      2176      2193
 -1       772    8    0    1
 -2       465       316       466      2171      2174      2194
 -1       773    8    0    1
 -2       464       315       465      2169      2172      2195
 -1       774    8    0    1
 -2       463       314       464      2167      2170      2196
 -1       775    8    0    1
 -2       462       313       463      2165      2168      2197
 -1       776    8    0    1
 -2       461       312       462      2163      2166      2198
 -1       777    8    0    1
 -2       459       310       460      2158      2162      2199
 -1       778    8    0    1
 -2       457       308       458      2154      2157      2200
 -1       779    8    0    1
 -2       456       307       457      2152      2155      2201
 -1       780    8    0    1
 -2       454       305       471      2147      2202      2203
 -1       781    8    0    1
 -2       305       455       471      2151      2204      2202
 -1       782    8    0    1
 -2       452       303       453      2143      2146      2205
 -1       783    8    0    1
 -2       451       302       452      2141      2144      2206
 -1       784    8    0    1
 -2       450       301       451      2139      2142      2207
 -1       785    8    0    1
 -2       449       300       450      2137      2140      2208
 -1       786    8    0    1
 -2       446       297       447      2131      2134      2209
 -1       787    8    0    1
 -2       447       298       448      2133      2136      2210
 -1       788    8    0    1
 -2       455       306       456      2150      2153      2211
 -1       789    8    0    1
 -2       460       311       461      2161      2164      2212
 -1       790    8    0    1
 -2       334       381       472      1939      2213      2214
 -1       791    8    0    1
 -2       323       324       473      1765      2215      2216
 -1       792    8    0    1
 -2       322       323       474      1762      2217      2218
 -1       793    8    0    1
 -2       323       473       474      2216      2219      2217
 -1       794    8    0    1
 -2       325       326       475      1771      2220      2221
 -1       795    8    0    1
 -2       326       327       476      1774      2222      2223
 -1       796    8    0    1
 -2       326       476       475      2223      2224      2220
 -1       797    8    0    1
 -2       327       328       477      1777      2225      2226
 -1       798    8    0    1
 -2       327       477       476      2226      2227      2222
 -1       799    8    0    1
 -2       328       329       478      1780      2228      2229
 -1       800    8    0    1
 -2       328       478       477      2229      2230      2225
 -1       801    8    0    1
 -2       329       330       479      1783      2231      2232
 -1       802    8    0    1
 -2       329       479       478      2232      2233      2228
 -1       803    8    0    1
 -2       330       331       480      1786      2234      2235
 -1       804    8    0    1
 -2       330       480       479      2235      2236      2231
 -1       805    8    0    1
 -2       381       382       481      1942      2237      2238
 -1       806    8    0    1
 -2       381       481       472      2238      2239      2213
 -1       807    8    0    1
 -2       336       335       482      1803      2240      2241
 -1       808    8    0    1
 -2       337       336       483      1806      2242      2243
 -1       809    8    0    1
 -2       336       482       483      2241      2244      2242
 -1       810    8    0    1
 -2       338       337       484      1809      2245      2246
 -1       811    8    0    1
 -2       337       483       484      2243      2247      2245
 -1       812    8    0    1
 -2       339       338       485      1812      2248      2249
 -1       813    8    0    1
 -2       338       484       485      2246      2250      2248
 -1       814    8    0    1
 -2       340       339       486      1815      2251      2252
 -1       815    8    0    1
 -2       339       485       486      2249      2253      2251
 -1       816    8    0    1
 -2       341       340       487      1818      2254      2255
 -1       817    8    0    1
 -2       340       486       487      2252      2256      2254
 -1       818    8    0    1
 -2       342       341       488      1821      2257      2258
 -1       819    8    0    1
 -2       341       487       488      2255      2259      2257
 -1       820    8    0    1
 -2       343       342       489      1824      2260      2261
 -1       821    8    0    1
 -2       342       488       489      2258      2262      2260
 -1       822    8    0    1
 -2       344       343       490      1827      2263      2264
 -1       823    8    0    1
 -2       343       489       490      2261      2265      2263
 -1       824    8    0    1
 -2       345       344       491      1830      2266      2267
 -1       825    8    0    1
 -2       344       490       491      2264      2268      2266
 -1       826    8    0    1
 -2       346       345       492      1833      2269      2270
 -1       827    8    0    1
 -2       345       491       492      2267      2271      2269
 -1       828    8    0    1
 -2       347       346       493      1836      2272      2273
 -1       829    8    0    1
 -2       346       492       493      2270      2274      2272
 -1       830    8    0    1
 -2       348       347       494      1839      2275      2276
 -1       831    8    0    1
 -2       347       493       494      2273      2277      2275
 -1       832    8    0    1
 -2       349       348       495      1842      2278      2279
 -1       833    8    0    1
 -2       348       494       495      2276      2280      2278
 -1       834    8    0    1
 -2       350       349       496      1845      2281      2282
 -1       835    8    0    1
 -2       349       495       496      2279      2283      2281
 -1       836    8    0    1
 -2       351       350       497      1848      2284      2285
 -1       837    8    0    1
 -2       350       496       497      2282      2286      2284
 -1       838    8    0    1
 -2       352       351       498      1851      2287      2288
 -1       839    8    0    1
 -2       351       497       498      2285      2289      2287
 -1       840    8    0    1
 -2       353       352       499      1854      2290      2291
 -1       841    8    0    1
 -2       352       498       499      2288      2292      2290
 -1       842    8    0    1
 -2       354       353       500      1857      2293      2294
 -1       843    8    0    1
 -2       353       499       500      2291      2295      2293
 -1       844    8    0    1
 -2       355       354       501      1860      2296      2297
 -1       845    8    0    1
 -2       354       500       501      2294      2298      2296
 -1       846    8    0    1
 -2       356       355       502      1863      2299      2300
 -1       847    8    0    1
 -2       355       501       502      2297      2301      2299
 -1       848    8    0    1
 -2       357       356       503      1866      2302      2303
 -1       849    8    0    1
 -2       356       502       503      2300      2304      2302
 -1       850    8    0    1
 -2       358       357       504      1869      2305      2306
 -1       851    8    0    1
 -2       357       503       504      2303      2307      2305
 -1       852    8    0    1
 -2       359       358       505      1872      2308      2309
 -1       853    8    0    1
 -2       358       504       505      2306      2310      2308
 -1       854    8    0    1
 -2       360       359       506      1875      2311      2312
 -1       855    8    0    1
 -2       359       505       506      2309      2313      2311
 -1       856    8    0    1
 -2       361       360       507      1878      2314      2315
 -1       857    8    0    1
 -2       360       506       507      2312      2316      2314
 -1       858    8    0    1
 -2       362       361       508      1881      2317      2318
 -1       859    8    0    1
 -2       361       507       508      2315      2319      2317
 -1       860    8    0    1
 -2       363       362       509      1884      2320      2321
 -1       861    8    0    1
 -2       362       508       509      2318      2322      2320
 -1       862    8    0    1
 -2       364       363       510      1887      2323      2324
 -1       863    8    0    1
 -2       363       509       510      2321      2325      2323
 -1       864    8    0    1
 -2       365       364       511      1890      2326      2327
 -1       865    8    0    1
 -2       364       510       511      2324      2328      2326
 -1       866    8    0    1
 -2       366       365       512      1893      2329      2330
 -1       867    8    0    1
 -2       365       511       512      2327      2331      2329
 -1       868    8    0    1
 -2       367       366       513      1896      2332      2333
 -1       869    8    0    1
 -2       366       512       513      2330      2334      2332
 -1       870    8    0    1
 -2       368       367       514      1899      2335      2336
 -1       871    8    0    1
 -2       367       513       514      2333      2337      2335
 -1       872    8    0    1
 -2       369       368       515      1902      2338      2339
 -1       873    8    0    1
 -2       368       514       515      2336      2340      2338
 -1       874    8    0    1
 -2       370       369       516      1905      2341      2342
 -1       875    8    0    1
 -2       369       515       516      2339      2343      2341
 -1       876    8    0    1
 -2       371       370       517      1908      2344      2345
 -1       877    8    0    1
 -2       370       516       517      2342      2346      2344
 -1       878    8    0    1
 -2       372       371       518      1911      2347      2348
 -1       879    8    0    1
 -2       371       517       518      2345      2349      2347
 -1       880    8    0    1
 -2       373       372       519      1914      2350      2351
 -1       881    8    0    1
 -2       372       518       519      2348      2352      2350
 -1       882    8    0    1
 -2       374       373       520      1917      2353      2354
 -1       883    8    0    1
 -2       373       519       520      2351      2355      2353
 -1       884    8    0    1
 -2       375       374       521      1920      2356      2357
 -1       885    8    0    1
 -2       374       520       521      2354      2358      2356
 -1       886    8    0    1
 -2       376       375       522      1923      2359      2360
 -1       887    8    0    1
 -2       375       521       522      2357      2361      2359
 -1       888    8    0    1
 -2       377       376       523      1926      2362      2363
 -1       889    8    0    1
 -2       376       522       523      2360      2364      2362
 -1       890    8    0    1
 -2       378       377       524      1929      2365      2366
 -1       891    8    0    1
 -2       377       523       524      2363      2367      2365
 -1       892    8    0    1
 -2       379       378       525      1932      2368      2369
 -1       893    8    0    1
 -2       378       524       525      2366      2370      2368
 -1       894    8    0    1
 -2       442       440       526      2121      2371      2372
 -1       895    8    0    1
 -2       383       384       527      1948      2373      2374
 -1       896    8    0    1
 -2       384       385       528      1951      2375      2376
 -1       897    8    0    1
 -2       384       528       527      2376      2377      2373
 -1       898    8    0    1
 -2       385       386       529      1954      2378      2379
 -1       899    8    0    1
 -2       385       529       528      2379      2380      2375
 -1       900    8    0    1
 -2       386       387       530      1957      2381      2382
 -1       901    8    0    1
 -2       386       530       529      2382      2383      2378
 -1       902    8    0    1
 -2       387       388       531      1960      2384      2385
 -1       903    8    0    1
 -2       387       531       530      2385      2386      2381
 -1       904    8    0    1
 -2       388       389       532      1963      2387      2388
 -1       905    8    0    1
 -2       388       532       531      2388      2389      2384
 -1       906    8    0    1
 -2       389       390       533      1966      2390      2391
 -1       907    8    0    1
 -2       389       533       532      2391      2392      2387
 -1       908    8    0    1
 -2       390       391       534      1969      2393      2394
 -1       909    8    0    1
 -2       390       534       533      2394      2395      2390
 -1       910    8    0    1
 -2       391       392       535      1972      2396      2397
 -1       911    8    0    1
 -2       391       535       534      2397      2398      2393
 -1       912    8    0    1
 -2       392       393       536      1975      2399      2400
 -1       913    8    0    1
 -2       392       536       535      2400      2401      2396
 -1       914    8    0    1
 -2       393       394       537      1978      2402      2403
 -1       915    8    0    1
 -2       393       537       536      2403      2404      2399
 -1       916    8    0    1
 -2       394       395       538      1981      2405      2406
 -1       917    8    0    1
 -2       394       538       537      2406      2407      2402
 -1       918    8    0    1
 -2       395       396       539      1984      2408      2409
 -1       919    8    0    1
 -2       395       539       538      2409      2410      2405
 -1       920    8    0    1
 -2       396       397       540      1987      2411      2412
 -1       921    8    0    1
 -2       396       540       539      2412      2413      2408
 -1       922    8    0    1
 -2       397       398       541      1990      2414      2415
 -1       923    8    0    1
 -2       397       541       540      2415      2416      2411
 -1       924    8    0    1
 -2       398       399       542      1993      2417      2418
 -1       925    8    0    1
 -2       398       542       541      2418      2419      2414
 -1       926    8    0    1
 -2       399       400       543      1996      2420      2421
 -1       927    8    0    1
 -2       399       543       542      2421      2422      2417
 -1       928    8    0    1
 -2       400       401       544      1999      2423      2424
 -1       929    8    0    1
 -2       400       544       543      2424      2425      2420
 -1       930    8    0    1
 -2       401       402       545      2002      2426      2427
 -1       931    8    0    1
 -2       401       545       544      2427      2428      2423
 -1       932    8    0    1
 -2       402       403       546      2005      2429      2430
 -1       933    8    0    1
 -2       402       546       545      2430      2431      2426
 -1       934    8    0    1
 -2       403       404       547      2008      2432      2433
 -1       935    8    0    1
 -2       403       547       546      2433      2434      2429
 -1       936    8    0    1
 -2       404       405       548      2011      2435      2436
 -1       937    8    0    1
 -2       404       548       547      2436      2437      2432
 -1       938    8    0    1
 -2       405       406       549      2014      2438      2439
 -1       939    8    0    1
 -2       405       549       548      2439      2440      2435
 -1       940    8    0    1
 -2       406       407       550      2017      2441      2442
 -1       941    8    0    1
 -2       406       550       549      2442      2443      2438
 -1       942    8    0    1
 -2       407       408       551      2020      2444      2445
 -1       943    8    0    1
 -2       407       551       550      2445      2446      2441
 -1       944    8    0    1
 -2       408       409       552      2023      2447      2448
 -1       945    8    0    1
 -2       408       552       551      2448      2449      2444
 -1       946    8    0    1
 -2       409       410       553      2026      2450      2451
 -1       947    8    0    1
 -2       409       553       552      2451      2452      2447
 -1       948    8    0    1
 -2       410       411       554      2029      2453      2454
 -1       949    8    0    1
 -2       410       554       553      2454      2455      2450
 -1       950    8    0    1
 -2       411       412       555      2032      2456      2457
 -1       951    8    0    1
 -2       411       555       554      2457      2458      2453
 -1       952    8    0    1
 -2       412       413       556      2035      2459      2460
 -1       953    8    0    1
 -2       412       556       555      2460      2461      2456
 -1       954    8    0    1
 -2       413       414       557      2038      2462      2463
 -1       955    8    0    1
 -2       413       557       556      2463      2464      2459
 -1       956    8    0    1
 -2       414       415       558      2041      2465      2466
 -1       957    8    0    1
 -2       414       558       557      2466      2467      2462
 -1       958    8    0    1
 -2       415       416       559      2044      2468      2469
 -1       959    8    0    1
 -2       415       559       558      2469      2470      2465
 -1       960    8    0    1
 -2       416       417       560      2047      2471      2472
 -1       961    8    0    1
 -2       416       560       559      2472      2473      2468
 -1       962    8    0    1
 -2       417       418       561      2050      2474      2475
 -1       963    8    0    1
 -2       417       561       560      2475      2476      2471
 -1       964    8    0    1
 -2       418       419       562      2053      2477      2478
 -1       965    8    0    1
 -2       418       562       561      2478      2479      2474
 -1       966    8    0    1
 -2       419       420       563      2056      2480      2481
 -1       967    8    0    1
 -2       419       563       562      2481      2482      2477
 -1       968    8    0    1
 -2       420       421       564      2059      2483      2484
 -1       969    8    0    1
 -2       420       564       563      2484      2485      2480
 -1       970    8    0    1
 -2       421       422       565      2062      2486      2487
 -1       971    8    0    1
 -2       421       565       564      2487      2488      2483
 -1       972    8    0    1
 -2       422       423       566      2065      2489      2490
 -1       973    8    0    1
 -2       422       566       565      2490      2491      2486
 -1       974    8    0    1
 -2       423       424       567      2068      2492      2493
 -1       975    8    0    1
 -2       423       567       566      2493      2494      2489
 -1       976    8    0    1
 -2       424       425       568      2071      2495      2496
 -1       977    8    0    1
 -2       424       568       567      2496      2497      2492
 -1       978    8    0    1
 -2       425       426       429      2074      2083      2498
 -1       979    8    0    1
 -2       430       431       569      2090      2499      2500
 -1       980    8    0    1
 -2       431       432       570      2093      2501      2502
 -1       981    8    0    1
 -2       431       570       569      2502      2503      2499
 -1       982    8    0    1
 -2       428       427       571      2080      2504      2505
 -1       983    8    0    1
 -2       427       430       572      2087      2506      2507
 -1       984    8    0    1
 -2       571       427       572      2504      2507      2508
 -1       985    8    0    1
 -2       430       569       572      2500      2509      2506
 -1       986    8    0    1
 -2       432       433       573      2096      2510      2511
 -1       987    8    0    1
 -2       432       573       570      2511      2512      2501
 -1       988    8    0    1
 -2       433       434       574      2099      2513      2514
 -1       989    8    0    1
 -2       433       574       573      2514      2515      2510
 -1       990    8    0    1
 -2       434       435       575      2102      2516      2517
 -1       991    8    0    1
 -2       434       575       574      2517      2518      2513
 -1       992    8    0    1
 -2       435       436       576      2105      2519      2520
 -1       993    8    0    1
 -2       435       576       575      2520      2521      2516
 -1       994    8    0    1
 -2       436       437       577      2108      2522      2523
 -1       995    8    0    1
 -2       436       577       576      2523      2524      2519
 -1       996    8    0    1
 -2       437       438       578      2111      2525      2526
 -1       997    8    0    1
 -2       437       578       577      2526      2527      2522
 -1       998    8    0    1
 -2       438       439       579      2114      2528      2529
 -1       999    8    0    1
 -2       438       579       578      2529      2530      2525
 -1      1000    8    0    1
 -2       439       290       380      2190      1935      2531
 -1      1001    8    0    1
 -2       468       441       580      2191      2532      2533
 -1      1002    8    0    1
 -2       382       383       581      1945      2534      2535
 -1      1003    8    0    1
 -2       383       527       581      2374      2536      2534
 -1      1004    8    0    1
 -2       440       443       582      2189      2537      2538
 -1      1005    8    0    1
 -2       443       444       583      2126      2539      2540
 -1      1006    8    0    1
 -2       335       321       584      2187      2541      2542
 -1      1007    8    0    1
 -2       482       335       584      2240      2542      2543
 -1      1008    8    0    1
 -2       321       320       584      1757      2544      2541
 -1      1009    8    0    1
 -2       467       468       585      2192      2545      2546
 -1      1010    8    0    1
 -2       457       458       586      2200      2547      2548
 -1      1011    8    0    1
 -2       452       453       587      2205      2549      2550
 -1      1012    8    0    1
 -2       324       325       588      1768      2551      2552
 -1      1013    8    0    1
 -2       473       324       588      2215      2552      2553
 -1      1014    8    0    1
 -2       325       475       588      2221      2554      2551
 -1      1015    8    0    1
 -2       447       448       589      2210      2555      2556
 -1      1016    8    0    1
 -2       455       456       590      2211      2557      2558
 -1      1017    8    0    1
 -2       469       446       591      2186      2559      2560
 -1      1018    8    0    1
 -2       446       447       592      2209      2561      2562
 -1      1019    8    0    1
 -2       446       592       591      2562      2563      2559
 -1      1020    8    0    1
 -2       449       450       593      2208      2564      2565
 -1      1021    8    0    1
 -2       450       451       594      2207      2566      2567
 -1      1022    8    0    1
 -2       451       452       595      2206      2568      2569
 -1      1023    8    0    1
 -2       451       595       594      2569      2570      2566
 -1      1024    8    0    1
 -2       453       454       596      2149      2571      2572
 -1      1025    8    0    1
 -2       460       461       597      2212      2573      2574
 -1      1026    8    0    1
 -2       456       457       598      2201      2575      2576
 -1      1027    8    0    1
 -2       457       586       598      2548      2577      2575
 -1      1028    8    0    1
 -2       458       459       599      2160      2578      2579
 -1      1029    8    0    1
 -2       459       460       600      2199      2580      2581
 -1      1030    8    0    1
 -2       461       462       601      2198      2582      2583
 -1      1031    8    0    1
 -2       461       601       597      2583      2584      2573
 -1      1032    8    0    1
 -2       462       463       602      2197      2585      2586
 -1      1033    8    0    1
 -2       463       464       603      2196      2587      2588
 -1      1034    8    0    1
 -2       464       465       604      2195      2589      2590
 -1      1035    8    0    1
 -2       464       604       603      2590      2591      2587
 -1      1036    8    0    1
 -2       465       466       605      2194      2592      2593
 -1      1037    8    0    1
 -2       465       605       604      2593      2594      2589
 -1      1038    8    0    1
 -2       466       467       606      2193      2595      2596
 -1      1039    8    0    1
 -2       467       585       606      2546      2597      2595
 -1      1040    8    0    1
 -2       441       442       607      2188      2598      2599
 -1      1041    8    0    1
 -2       442       526       607      2372      2600      2598
 -1      1042    8    0    1
 -2       333       334       608      1797      2601      2602
 -1      1043    8    0    1
 -2       332       333       608      1792      2602      2603
 -1      1044    8    0    1
 -2       334       472       608      2214      2604      2601
 -1      1045    8    0    1
 -2       444       469       609      2181      2605      2606
 -1      1046    8    0    1
 -2       444       609       583      2606      2607      2539
 -1      1047    8    0    1
 -2       447       589       592      2556      2608      2561
 -1      1048    8    0    1
 -2       322       474       610      2218      2609      2610
 -1      1049    8    0    1
 -2       322       610       445      2610      2611      2130
 -1      1050    8    0    1
 -2       481       382       581      2237      2535      2612
 -1      1051    8    0    1
 -2       331       332       608      1789      2603      2613
 -1      1052    8    0    1
 -2       609       469       591      2605      2560      2614
 -1      1053    8    0    1
 -2       470       449       611      2185      2615      2616
 -1      1054    8    0    1
 -2       449       593       611      2565      2617      2615
 -1      1055    8    0    1
 -2       585       468       580      2545      2533      2618
 -1      1056    8    0    1
 -2       448       470       612      2184      2619      2620
 -1      1057    8    0    1
 -2       448       612       589      2620      2621      2555
 -1      1058    8    0    1
 -2       526       440       582      2371      2538      2622
 -1      1059    8    0    1
 -2       425       429       568      2498      2623      2495
 -1      1060    8    0    1
 -2       429       428       568      2084      2624      2623
 -1      1061    8    0    1
 -2       439       380       613      2531      2625      2626
 -1      1062    8    0    1
 -2       579       439       613      2528      2626      2627
 -1      1063    8    0    1
 -2       380       379       613      1936      2628      2625
 -1      1064    8    0    1
 -2       466       606       614      2596      2629      2630
 -1      1065    8    0    1
 -2       466       614       605      2630      2631      2592
 -1      1066    8    0    1
 -2       580       441       607      2532      2599      2632
 -1      1067    8    0    1
 -2       331       608       480      2613      2633      2234
 -1      1068    8    0    1
 -2       582       443       583      2537      2540      2634
 -1      1069    8    0    1
 -2       601       462       602      2582      2586      2635
 -1      1070    8    0    1
 -2       320       445       615      2129      2636      2637
 -1      1071    8    0    1
 -2       584       320       615      2544      2637      2638
 -1      1072    8    0    1
 -2       445       610       615      2611      2639      2636
 -1      1073    8    0    1
 -2       586       458       599      2547      2579      2640
 -1      1074    8    0    1
 -2       600       460       597      2580      2574      2641
 -1      1075    8    0    1
 -2       595       452       616      2568      2642      2643
 -1      1076    8    0    1
 -2       452       587       616      2550      2644      2642
 -1      1077    8    0    1
 -2       453       596       587      2572      2645      2549
 -1      1078    8    0    1
 -2       471       455       617      2204      2646      2647
 -1      1079    8    0    1
 -2       455       590       617      2558      2648      2646
 -1      1080    8    0    1
 -2       590       456       598      2557      2576      2649
 -1      1081    8    0    1
 -2       593       450       594      2564      2567      2650
 -1      1082    8    0    1
 -2       596       454       618      2571      2651      2652
 -1      1083    8    0    1
 -2       454       471       618      2203      2653      2651
 -1      1084    8    0    1
 -2       599       459       600      2578      2581      2654
 -1      1085    8    0    1
 -2       602       463       603      2585      2588      2655
 -1      1086    8    0    1
 -2       568       428       571      2624      2505      2656
 -1      1087    8    0    1
 -2       613       379       525      2628      2369      2657
 -1      1088    8    0    1
 -2       476       477       619      2227      2658      2659
 -1      1089    8    0    1
 -2       475       476       620      2224      2660      2661
 -1      1090    8    0    1
 -2       476       619       620      2659      2662      2660
 -1      1091    8    0    1
 -2       478       479       621      2233      2663      2664
 -1      1092    8    0    1
 -2       479       480       622      2236      2665      2666
 -1      1093    8    0    1
 -2       479       622       621      2666      2667      2663
 -1      1094    8    0    1
 -2       472       481       623      2239      2668      2669
 -1      1095    8    0    1
 -2       582       583       624      2634      2670      2671
 -1      1096    8    0    1
 -2       484       483       625      2247      2672      2673
 -1      1097    8    0    1
 -2       485       484       626      2250      2674      2675
 -1      1098    8    0    1
 -2       484       625       626      2673      2676      2674
 -1      1099    8    0    1
 -2       486       485       627      2253      2677      2678
 -1      1100    8    0    1
 -2       485       626       627      2675      2679      2677
 -1      1101    8    0    1
 -2       487       486       628      2256      2680      2681
 -1      1102    8    0    1
 -2       486       627       628      2678      2682      2680
 -1      1103    8    0    1
 -2       488       487       629      2259      2683      2684
 -1      1104    8    0    1
 -2       487       628       629      2681      2685      2683
 -1      1105    8    0    1
 -2       489       488       630      2262      2686      2687
 -1      1106    8    0    1
 -2       488       629       630      2684      2688      2686
 -1      1107    8    0    1
 -2       490       489       631      2265      2689      2690
 -1      1108    8    0    1
 -2       489       630       631      2687      2691      2689
 -1      1109    8    0    1
 -2       491       490       632      2268      2692      2693
 -1      1110    8    0    1
 -2       490       631       632      2690      2694      2692
 -1      1111    8    0    1
 -2       492       491       633      2271      2695      2696
 -1      1112    8    0    1
 -2       491       632       633      2693      2697      2695
 -1      1113    8    0    1
 -2       493       492       634      2274      2698      2699
 -1      1114    8    0    1
 -2       492       633       634      2696      2700      2698
 -1      1115    8    0    1
 -2       494       493       635      2277      2701      2702
 -1      1116    8    0    1
 -2       493       634       635      2699      2703      2701
 -1      1117    8    0    1
 -2       495       494       636      2280      2704      2705
 -1      1118    8    0    1
 -2       494       635       636      2702      2706      2704
 -1      1119    8    0    1
 -2       496       495       637      2283      2707      2708
 -1      1120    8    0    1
 -2       495       636       637      2705      2709      2707
 -1      1121    8    0    1
 -2       497       496       638      2286      2710      2711
 -1      1122    8    0    1
 -2       496       637       638      2708      2712      2710
 -1      1123    8    0    1
 -2       498       497       639      2289      2713      2714
 -1      1124    8    0    1
 -2       497       638       639      2711      2715      2713
 -1      1125    8    0    1
 -2       499       498       640      2292      2716      2717
 -1      1126    8    0    1
 -2       498       639       640      2714      2718      2716
 -1      1127    8    0    1
 -2       500       499       641      2295      2719      2720
 -1      1128    8    0    1
 -2       499       640       641      2717      2721      2719
 -1      1129    8    0    1
 -2       501       500       642      2298      2722      2723
 -1      1130    8    0    1
 -2       500       641       642      2720      2724      2722
 -1      1131    8    0    1
 -2       502       501       643      2301      2725      2726
 -1      1132    8    0    1
 -2       501       642       643      2723      2727      2725
 -1      1133    8    0    1
 -2       503       502       644      2304      2728      2729
 -1      1134    8    0    1
 -2       502       643       644      2726      2730      2728
 -1      1135    8    0    1
 -2       504       503       645      2307      2731      2732
 -1      1136    8    0    1
 -2       503       644       645      2729      2733      2731
 -1      1137    8    0    1
 -2       505       504       646      2310      2734      2735
 -1      1138    8    0    1
 -2       504       645       646      2732      2736      2734
 -1      1139    8    0    1
 -2       506       505       647      2313      2737      2738
 -1      1140    8    0    1
 -2       505       646       647      2735      2739      2737
 -1      1141    8    0    1
 -2       507       506       648      2316      2740      2741
 -1      1142    8    0    1
 -2       506       647       648      2738      2742      2740
 -1      1143    8    0    1
 -2       508       507       649      2319      2743      2744
 -1      1144    8    0    1
 -2       507       648       649      2741      2745      2743
 -1      1145    8    0    1
 -2       509       508       650      2322      2746      2747
 -1      1146    8    0    1
 -2       508       649       650      2744      2748      2746
 -1      1147    8    0    1
 -2       510       509       651      2325      2749      2750
 -1      1148    8    0    1
 -2       509       650       651      2747      2751      2749
 -1      1149    8    0    1
 -2       511       510       652      2328      2752      2753
 -1      1150    8    0    1
 -2       510       651       652      2750      2754      2752
 -1      1151    8    0    1
 -2       512       511       653      2331      2755      2756
 -1      1152    8    0    1
 -2       511       652       653      2753      2757      2755
 -1      1153    8    0    1
 -2       513       512       654      2334      2758      2759
 -1      1154    8    0    1
 -2       512       653       654      2756      2760      2758
 -1      1155    8    0    1
 -2       514       513       655      2337      2761      2762
 -1      1156    8    0    1
 -2       513       654       655      2759      2763      2761
 -1      1157    8    0    1
 -2       515       514       656      2340      2764      2765
 -1      1158    8    0    1
 -2       514       655       656      2762      2766      2764
 -1      1159    8    0    1
 -2       516       515       657      2343      2767      2768
 -1      1160    8    0    1
 -2       515       656       657      2765      2769      2767
 -1      1161    8    0    1
 -2       517       516       600      2346      2770      2771
 -1      1162    8    0    1
 -2       519       518       658      2352      2772      2773
 -1      1163    8    0    1
 -2       520       519       659      2355      2774      2775
 -1      1164    8    0    1
 -2       521       520       660      2358      2776      2777
 -1      1165    8    0    1
 -2       522       521       661      2361      2778      2779
 -1      1166    8    0    1
 -2       521       660       661      2777      2780      2778
 -1      1167    8    0    1
 -2       523       522       662      2364      2781      2782
 -1      1168    8    0    1
 -2       522       661       662      2779      2783      2781
 -1      1169    8    0    1
 -2       524       523       663      2367      2784      2785
 -1      1170    8    0    1
 -2       523       662       663      2782      2786      2784
 -1      1171    8    0    1
 -2       525       524       664      2370      2787      2788
 -1      1172    8    0    1
 -2       524       663       664      2785      2789      2787
 -1      1173    8    0    1
 -2       579       613       665      2627      2790      2791
 -1      1174    8    0    1
 -2       613       525       665      2657      2792      2790
 -1      1175    8    0    1
 -2       527       528       666      2377      2793      2794
 -1      1176    8    0    1
 -2       530       531       667      2386      2795      2796
 -1      1177    8    0    1
 -2       531       532       668      2389      2797      2798
 -1      1178    8    0    1
 -2       531       668       667      2798      2799      2795
 -1      1179    8    0    1
 -2       532       533       669      2392      2800      2801
 -1      1180    8    0    1
 -2       532       669       668      2801      2802      2797
 -1      1181    8    0    1
 -2       533       534       670      2395      2803      2804
 -1      1182    8    0    1
 -2       533       670       669      2804      2805      2800
 -1      1183    8    0    1
 -2       534       535       671      2398      2806      2807
 -1      1184    8    0    1
 -2       534       671       670      2807      2808      2803
 -1      1185    8    0    1
 -2       535       536       672      2401      2809      2810
 -1      1186    8    0    1
 -2       535       672       671      2810      2811      2806
 -1      1187    8    0    1
 -2       536       537       673      2404      2812      2813
 -1      1188    8    0    1
 -2       536       673       672      2813      2814      2809
 -1      1189    8    0    1
 -2       537       538       674      2407      2815      2816
 -1      1190    8    0    1
 -2       537       674       673      2816      2817      2812
 -1      1191    8    0    1
 -2       538       539       675      2410      2818      2819
 -1      1192    8    0    1
 -2       538       675       674      2819      2820      2815
 -1      1193    8    0    1
 -2       539       540       676      2413      2821      2822
 -1      1194    8    0    1
 -2       539       676       675      2822      2823      2818
 -1      1195    8    0    1
 -2       540       541       677      2416      2824      2825
 -1      1196    8    0    1
 -2       540       677       676      2825      2826      2821
 -1      1197    8    0    1
 -2       541       542       678      2419      2827      2828
 -1      1198    8    0    1
 -2       541       678       677      2828      2829      2824
 -1      1199    8    0    1
 -2       542       543       679      2422      2830      2831
 -1      1200    8    0    1
 -2       542       679       678      2831      2832      2827
 -1      1201    8    0    1
 -2       543       544       680      2425      2833      2834
 -1      1202    8    0    1
 -2       543       680       679      2834      2835      2830
 -1      1203    8    0    1
 -2       544       545       681      2428      2836      2837
 -1      1204    8    0    1
 -2       544       681       680      2837      2838      2833
 -1      1205    8    0    1
 -2       545       546       682      2431      2839      2840
 -1      1206    8    0    1
 -2       545       682       681      2840      2841      2836
 -1      1207    8    0    1
 -2       546       547       683      2434      2842      2843
 -1      1208    8    0    1
 -2       546       683       682      2843      2844      2839
 -1      1209    8    0    1
 -2       547       548       684      2437      2845      2846
 -1      1210    8    0    1
 -2       547       684       683      2846      2847      2842
 -1      1211    8    0    1
 -2       548       549       685      2440      2848      2849
 -1      1212    8    0    1
 -2       548       685       684      2849      2850      2845
 -1      1213    8    0    1
 -2       549       550       686      2443      2851      2852
 -1      1214    8    0    1
 -2       549       686       685      2852      2853      2848
 -1      1215    8    0    1
 -2       550       551       687      2446      2854      2855
 -1      1216    8    0    1
 -2       550       687       686      2855      2856      2851
 -1      1217    8    0    1
 -2       551       552       688      2449      2857      2858
 -1      1218    8    0    1
 -2       551       688       687      2858      2859      2854
 -1      1219    8    0    1
 -2       552       553       689      2452      2860      2861
 -1      1220    8    0    1
 -2       552       689       688      2861      2862      2857
 -1      1221    8    0    1
 -2       553       554       690      2455      2863      2864
 -1      1222    8    0    1
 -2       553       690       689      2864      2865      2860
 -1      1223    8    0    1
 -2       554       555       691      2458      2866      2867
 -1      1224    8    0    1
 -2       554       691       690      2867      2868      2863
 -1      1225    8    0    1
 -2       555       556       692      2461      2869      2870
 -1      1226    8    0    1
 -2       555       692       691      2870      2871      2866
 -1      1227    8    0    1
 -2       556       557       693      2464      2872      2873
 -1      1228    8    0    1
 -2       556       693       692      2873      2874      2869
 -1      1229    8    0    1
 -2       557       558       694      2467      2875      2876
 -1      1230    8    0    1
 -2       557       694       693      2876      2877      2872
 -1      1231    8    0    1
 -2       558       559       695      2470      2878      2879
 -1      1232    8    0    1
 -2       558       695       694      2879      2880      2875
 -1      1233    8    0    1
 -2       559       560       696      2473      2881      2882
 -1      1234    8    0    1
 -2       559       696       695      2882      2883      2878
 -1      1235    8    0    1
 -2       560       561       697      2476      2884      2885
 -1      1236    8    0    1
 -2       560       697       696      2885      2886      2881
 -1      1237    8    0    1
 -2       561       562       698      2479      2887      2888
 -1      1238    8    0    1
 -2       561       698       697      2888      2889      2884
 -1      1239    8    0    1
 -2       562       563       699      2482      2890      2891
 -1      1240    8    0    1
 -2       562       699       698      2891      2892      2887
 -1      1241    8    0    1
 -2       563       564       700      2485      2893      2894
 -1      1242    8    0    1
 -2       563       700       699      2894      2895      2890
 -1      1243    8    0    1
 -2       564       565       701      2488      2896      2897
 -1      1244    8    0    1
 -2       564       701       700      2897      2898      2893
 -1      1245    8    0    1
 -2       565       566       702      2491      2899      2900
 -1      1246    8    0    1
 -2       565       702       701      2900      2901      2896
 -1      1247    8    0    1
 -2       566       567       703      2494      2902      2903
 -1      1248    8    0    1
 -2       566       703       702      2903      2904      2899
 -1      1249    8    0    1
 -2       567       568       704      2497      2905      2906
 -1      1250    8    0    1
 -2       703       567       704      2902      2906      2907
 -1      1251    8    0    1
 -2       568       571       704      2656      2908      2905
 -1      1252    8    0    1
 -2       573       574       705      2515      2909      2910
 -1      1253    8    0    1
 -2       569       570       706      2503      2911      2912
 -1      1254    8    0    1
 -2       574       575       707      2518      2913      2914
 -1      1255    8    0    1
 -2       574       707       705      2914      2915      2909
 -1      1256    8    0    1
 -2       570       573       708      2512      2916      2917
 -1      1257    8    0    1
 -2       706       570       708      2911      2917      2918
 -1      1258    8    0    1
 -2       573       705       708      2910      2919      2916
 -1      1259    8    0    1
 -2       592       589       709      2608      2920      2921
 -1      1260    8    0    1
 -2       575       576       710      2521      2922      2923
 -1      1261    8    0    1
 -2       575       710       707      2923      2924      2913
 -1      1262    8    0    1
 -2       576       577       711      2524      2925      2926
 -1      1263    8    0    1
 -2       576       711       710      2926      2927      2922
 -1      1264    8    0    1
 -2       577       578       712      2527      2928      2929
 -1      1265    8    0    1
 -2       577       712       711      2929      2930      2925
 -1      1266    8    0    1
 -2       578       579       665      2530      2791      2931
 -1      1267    8    0    1
 -2       581       527       713      2536      2932      2933
 -1      1268    8    0    1
 -2       527       666       713      2794      2934      2932
 -1      1269    8    0    1
 -2       604       605       714      2594      2935      2936
 -1      1270    8    0    1
 -2       601       602       658      2635      2937      2938
 -1      1271    8    0    1
 -2       482       584       715      2543      2939      2940
 -1      1272    8    0    1
 -2       584       615       715      2638      2941      2939
 -1      1273    8    0    1
 -2       598       586       716      2577      2942      2943
 -1      1274    8    0    1
 -2       586       599       717      2640      2944      2945
 -1      1275    8    0    1
 -2       585       580       718      2618      2946      2947
 -1      1276    8    0    1
 -2       587       596       719      2645      2948      2949
 -1      1277    8    0    1
 -2       529       530       720      2383      2950      2951
 -1      1278    8    0    1
 -2       530       667       720      2796      2952      2950
 -1      1279    8    0    1
 -2       528       529       721      2380      2953      2954
 -1      1280    8    0    1
 -2       529       720       721      2951      2955      2953
 -1      1281    8    0    1
 -2       483       482       722      2244      2956      2957
 -1      1282    8    0    1
 -2       625       483       722      2672      2957      2958
 -1      1283    8    0    1
 -2       482       715       722      2940      2959      2956
 -1      1284    8    0    1
 -2       480       608       472      2633      2604      2960
 -1      1285    8    0    1
 -2       481       581       723      2612      2961      2962
 -1      1286    8    0    1
 -2       623       481       723      2668      2962      2963
 -1      1287    8    0    1
 -2       581       713       723      2933      2964      2961
 -1      1288    8    0    1
 -2       477       478       724      2230      2965      2966
 -1      1289    8    0    1
 -2       619       477       724      2658      2966      2967
 -1      1290    8    0    1
 -2       478       621       724      2664      2968      2965
 -1      1291    8    0    1
 -2       474       473       725      2219      2969      2970
 -1      1292    8    0    1
 -2       590       598       726      2649      2971      2972
 -1      1293    8    0    1
 -2       591       592       727      2563      2973      2974
 -1      1294    8    0    1
 -2       594       595       728      2570      2975      2976
 -1      1295    8    0    1
 -2       526       582       729      2622      2977      2978
 -1      1296    8    0    1
 -2       593       594       730      2650      2979      2980
 -1      1297    8    0    1
 -2       602       603       659      2655      2981      2982
 -1      1298    8    0    1
 -2       609       591       731      2614      2983      2984
 -1      1299    8    0    1
 -2       583       609       732      2607      2985      2986
 -1      1300    8    0    1
 -2       580       607       733      2632      2987      2988
 -1      1301    8    0    1
 -2       606       585       734      2597      2989      2990
 -1      1302    8    0    1
 -2       607       526       735      2600      2991      2992
 -1      1303    8    0    1
 -2       517       600       597      2771      2641      2993
 -1      1304    8    0    1
 -2       610       474       736      2609      2994      2995
 -1      1305    8    0    1
 -2       474       725       736      2970      2996      2994
 -1      1306    8    0    1
 -2       733       607       735      2987      2992      2997
 -1      1307    8    0    1
 -2       475       620       737      2661      2998      2999
 -1      1308    8    0    1
 -2       475       737       588      2999      3000      2554
 -1      1309    8    0    1
 -2       582       624       729      2671      3001      2977
 -1      1310    8    0    1
 -2       732       609       731      2985      2984      3002
 -1      1311    8    0    1
 -2       731       591       727      2983      2974      3003
 -1      1312    8    0    1
 -2       611       593       730      2617      2980      3004
 -1      1313    8    0    1
 -2       659       603       660      2981      3005      3006
 -1      1314    8    0    1
 -2       612       470       738      2619      3007      3008
 -1      1315    8    0    1
 -2       470       611       738      2616      3009      3007
 -1      1316    8    0    1
 -2       730       594       728      2979      2976      3010
 -1      1317    8    0    1
 -2       589       612       739      2621      3011      3012
 -1      1318    8    0    1
 -2       589       739       709      3012      3013      2920
 -1      1319    8    0    1
 -2       600       516       657      2770      2768      3014
 -1      1320    8    0    1
 -2       519       658       659      2773      3015      2774
 -1      1321    8    0    1
 -2       520       659       660      2775      3006      2776
 -1      1322    8    0    1
 -2       525       664       665      2788      3016      2792
 -1      1323    8    0    1
 -2       605       614       740      2631      3017      3018
 -1      1324    8    0    1
 -2       605       740       714      3018      3019      2935
 -1      1325    8    0    1
 -2       666       528       721      2793      2954      3020
 -1      1326    8    0    1
 -2       704       571       741      2908      3021      3022
 -1      1327    8    0    1
 -2       571       572       741      2508      3023      3021
 -1      1328    8    0    1
 -2       719       596       618      2948      2652      3024
 -1      1329    8    0    1
 -2       578       665       742      2931      3025      3026
 -1      1330    8    0    1
 -2       712       578       742      2928      3026      3027
 -1      1331    8    0    1
 -2       665       664       742      3016      3028      3025
 -1      1332    8    0    1
 -2       658       602       659      2937      2982      3015
 -1      1333    8    0    1
 -2       718       580       733      2946      2988      3029
 -1      1334    8    0    1
 -2       614       606       743      2629      3030      3031
 -1      1335    8    0    1
 -2       606       734       743      2990      3032      3030
 -1      1336    8    0    1
 -2       601       658       744      2938      3033      3034
 -1      1337    8    0    1
 -2       597       601       744      2584      3034      3035
 -1      1338    8    0    1
 -2       658       518       744      2772      3036      3033
 -1      1339    8    0    1
 -2       480       472       623      2960      2669      3037
 -1      1340    8    0    1
 -2       716       586       717      2942      2945      3038
 -1      1341    8    0    1
 -2       616       587       745      2644      3039      3040
 -1      1342    8    0    1
 -2       587       719       745      2949      3041      3039
 -1      1343    8    0    1
 -2       598       716       726      2943      3042      2971
 -1      1344    8    0    1
 -2       617       590       746      2648      3043      3044
 -1      1345    8    0    1
 -2       590       726       746      2972      3045      3043
 -1      1346    8    0    1
 -2       585       718       734      2947      3046      2989
 -1      1347    8    0    1
 -2       471       617       747      2647      3047      3048
 -1      1348    8    0    1
 -2       471       747       618      3048      3049      2653
 -1      1349    8    0    1
 -2       480       623       622      3037      3050      2665
 -1      1350    8    0    1
 -2       473       588       748      2553      3051      3052
 -1      1351    8    0    1
 -2       725       473       748      2969      3052      3053
 -1      1352    8    0    1
 -2       588       737       748      3000      3054      3051
 -1      1353    8    0    1
 -2       572       569       749      2509      3055      3056
 -1      1354    8    0    1
 -2       741       572       749      3023      3056      3057
 -1      1355    8    0    1
 -2       569       706       749      2912      3058      3055
 -1      1356    8    0    1
 -2       727       592       709      2973      2921      3059
 -1      1357    8    0    1
 -2       728       595       616      2975      2643      3060
 -1      1358    8    0    1
 -2       624       583       732      2670      2986      3061
 -1      1359    8    0    1
 -2       603       604       660      2591      3062      3005
 -1      1360    8    0    1
 -2       660       604       714      3062      2936      3063
 -1      1361    8    0    1
 -2       716       717       750      3038      3064      3065
 -1      1362    8    0    1
 -2       621       622       751      2667      3066      3067
 -1      1363    8    0    1
 -2       718       733       752      3029      3068      3069
 -1      1364    8    0    1
 -2       660       714       661      3063      3070      2780
 -1      1365    8    0    1
 -2       733       735       753      2997      3071      3072
 -1      1366    8    0    1
 -2       627       626       754      2679      3073      3074
 -1      1367    8    0    1
 -2       628       627       755      2682      3075      3076
 -1      1368    8    0    1
 -2       627       754       755      3074      3077      3075
 -1      1369    8    0    1
 -2       629       628       756      2685      3078      3079
 -1      1370    8    0    1
 -2       628       755       756      3076      3080      3078
 -1      1371    8    0    1
 -2       630       629       757      2688      3081      3082
 -1      1372    8    0    1
 -2       629       756       757      3079      3083      3081
 -1      1373    8    0    1
 -2       631       630       758      2691      3084      3085
 -1      1374    8    0    1
 -2       630       757       758      3082      3086      3084
 -1      1375    8    0    1
 -2       632       631       759      2694      3087      3088
 -1      1376    8    0    1
 -2       631       758       759      3085      3089      3087
 -1      1377    8    0    1
 -2       633       632       760      2697      3090      3091
 -1      1378    8    0    1
 -2       632       759       760      3088      3092      3090
 -1      1379    8    0    1
 -2       634       633       761      2700      3093      3094
 -1      1380    8    0    1
 -2       633       760       761      3091      3095      3093
 -1      1381    8    0    1
 -2       635       634       762      2703      3096      3097
 -1      1382    8    0    1
 -2       634       761       762      3094      3098      3096
 -1      1383    8    0    1
 -2       636       635       763      2706      3099      3100
 -1      1384    8    0    1
 -2       635       762       763      3097      3101      3099
 -1      1385    8    0    1
 -2       637       636       764      2709      3102      3103
 -1      1386    8    0    1
 -2       636       763       764      3100      3104      3102
 -1      1387    8    0    1
 -2       638       637       765      2712      3105      3106
 -1      1388    8    0    1
 -2       637       764       765      3103      3107      3105
 -1      1389    8    0    1
 -2       639       638       766      2715      3108      3109
 -1      1390    8    0    1
 -2       638       765       766      3106      3110      3108
 -1      1391    8    0    1
 -2       640       639       767      2718      3111      3112
 -1      1392    8    0    1
 -2       639       766       767      3109      3113      3111
 -1      1393    8    0    1
 -2       641       640       768      2721      3114      3115
 -1      1394    8    0    1
 -2       640       767       768      3112      3116      3114
 -1      1395    8    0    1
 -2       642       641       769      2724      3117      3118
 -1      1396    8    0    1
 -2       641       768       769      3115      3119      3117
 -1      1397    8    0    1
 -2       643       642       770      2727      3120      3121
 -1      1398    8    0    1
 -2       642       769       770      3118      3122      3120
 -1      1399    8    0    1
 -2       644       643       771      2730      3123      3124
 -1      1400    8    0    1
 -2       643       770       771      3121      3125      3123
 -1      1401    8    0    1
 -2       645       644       772      2733      3126      3127
 -1      1402    8    0    1
 -2       644       771       772      3124      3128      3126
 -1      1403    8    0    1
 -2       646       645       773      2736      3129      3130
 -1      1404    8    0    1
 -2       645       772       773      3127      3131      3129
 -1      1405    8    0    1
 -2       647       646       774      2739      3132      3133
 -1      1406    8    0    1
 -2       646       773       774      3130      3134      3132
 -1      1407    8    0    1
 -2       648       647       775      2742      3135      3136
 -1      1408    8    0    1
 -2       647       774       775      3133      3137      3135
 -1      1409    8    0    1
 -2       649       648       776      2745      3138      3139
 -1      1410    8    0    1
 -2       648       775       776      3136      3140      3138
 -1      1411    8    0    1
 -2       650       649       777      2748      3141      3142
 -1      1412    8    0    1
 -2       649       776       777      3139      3143      3141
 -1      1413    8    0    1
 -2       651       650       778      2751      3144      3145
 -1      1414    8    0    1
 -2       650       777       778      3142      3146      3144
 -1      1415    8    0    1
 -2       652       651       779      2754      3147      3148
 -1      1416    8    0    1
 -2       651       778       779      3145      3149      3147
 -1      1417    8    0    1
 -2       653       652       780      2757      3150      3151
 -1      1418    8    0    1
 -2       652       779       780      3148      3152      3150
 -1      1419    8    0    1
 -2       654       653       781      2760      3153      3154
 -1      1420    8    0    1
 -2       653       780       781      3151      3155      3153
 -1      1421    8    0    1
 -2       655       654       782      2763      3156      3157
 -1      1422    8    0    1
 -2       654       781       782      3154      3158      3156
 -1      1423    8    0    1
 -2       656       655       750      2766      3159      3160
 -1      1424    8    0    1
 -2       657       656       717      2769      3161      3162
 -1      1425    8    0    1
 -2       518       517       744      2349      3163      3036
 -1      1426    8    0    1
 -2       663       662       783      2786      3164      3165
 -1      1427    8    0    1
 -2       664       663       784      2789      3166      3167
 -1      1428    8    0    1
 -2       742       664       784      3028      3167      3168
 -1      1429    8    0    1
 -2       663       783       784      3165      3169      3166
 -1      1430    8    0    1
 -2       720       667       785      2952      3170      3171
 -1      1431    8    0    1
 -2       717       656       750      3161      3160      3064
 -1      1432    8    0    1
 -2       667       668       786      2799      3172      3173
 -1      1433    8    0    1
 -2       667       786       785      3173      3174      3170
 -1      1434    8    0    1
 -2       670       671       787      2808      3175      3176
 -1      1435    8    0    1
 -2       671       672       788      2811      3177      3178
 -1      1436    8    0    1
 -2       671       788       787      3178      3179      3175
 -1      1437    8    0    1
 -2       672       673       789      2814      3180      3181
 -1      1438    8    0    1
 -2       672       789       788      3181      3182      3177
 -1      1439    8    0    1
 -2       673       674       790      2817      3183      3184
 -1      1440    8    0    1
 -2       673       790       789      3184      3185      3180
 -1      1441    8    0    1
 -2       674       675       791      2820      3186      3187
 -1      1442    8    0    1
 -2       674       791       790      3187      3188      3183
 -1      1443    8    0    1
 -2       675       676       792      2823      3189      3190
 -1      1444    8    0    1
 -2       675       792       791      3190      3191      3186
 -1      1445    8    0    1
 -2       676       677       793      2826      3192      3193
 -1      1446    8    0    1
 -2       676       793       792      3193      3194      3189
 -1      1447    8    0    1
 -2       677       678       794      2829      3195      3196
 -1      1448    8    0    1
 -2       677       794       793      3196      3197      3192
 -1      1449    8    0    1
 -2       678       679       795      2832      3198      3199
 -1      1450    8    0    1
 -2       678       795       794      3199      3200      3195
 -1      1451    8    0    1
 -2       679       680       796      2835      3201      3202
 -1      1452    8    0    1
 -2       679       796       795      3202      3203      3198
 -1      1453    8    0    1
 -2       680       681       797      2838      3204      3205
 -1      1454    8    0    1
 -2       680       797       796      3205      3206      3201
 -1      1455    8    0    1
 -2       681       682       798      2841      3207      3208
 -1      1456    8    0    1
 -2       681       798       797      3208      3209      3204
 -1      1457    8    0    1
 -2       682       683       799      2844      3210      3211
 -1      1458    8    0    1
 -2       682       799       798      3211      3212      3207
 -1      1459    8    0    1
 -2       683       684       800      2847      3213      3214
 -1      1460    8    0    1
 -2       683       800       799      3214      3215      3210
 -1      1461    8    0    1
 -2       684       685       801      2850      3216      3217
 -1      1462    8    0    1
 -2       684       801       800      3217      3218      3213
 -1      1463    8    0    1
 -2       685       686       802      2853      3219      3220
 -1      1464    8    0    1
 -2       685       802       801      3220      3221      3216
 -1      1465    8    0    1
 -2       686       687       803      2856      3222      3223
 -1      1466    8    0    1
 -2       686       803       802      3223      3224      3219
 -1      1467    8    0    1
 -2       687       688       804      2859      3225      3226
 -1      1468    8    0    1
 -2       687       804       803      3226      3227      3222
 -1      1469    8    0    1
 -2       688       689       805      2862      3228      3229
 -1      1470    8    0    1
 -2       688       805       804      3229      3230      3225
 -1      1471    8    0    1
 -2       689       690       806      2865      3231      3232
 -1      1472    8    0    1
 -2       689       806       805      3232      3233      3228
 -1      1473    8    0    1
 -2       690       691       807      2868      3234      3235
 -1      1474    8    0    1
 -2       690       807       806      3235      3236      3231
 -1      1475    8    0    1
 -2       691       692       808      2871      3237      3238
 -1      1476    8    0    1
 -2       691       808       807      3238      3239      3234
 -1      1477    8    0    1
 -2       692       693       809      2874      3240      3241
 -1      1478    8    0    1
 -2       692       809       808      3241      3242      3237
 -1      1479    8    0    1
 -2       693       694       810      2877      3243      3244
 -1      1480    8    0    1
 -2       693       810       809      3244      3245      3240
 -1      1481    8    0    1
 -2       694       695       811      2880      3246      3247
 -1      1482    8    0    1
 -2       694       811       810      3247      3248      3243
 -1      1483    8    0    1
 -2       695       696       812      2883      3249      3250
 -1      1484    8    0    1
 -2       695       812       811      3250      3251      3246
 -1      1485    8    0    1
 -2       696       697       739      2886      3252      3253
 -1      1486    8    0    1
 -2       698       699       813      2892      3254      3255
 -1      1487    8    0    1
 -2       699       700       814      2895      3256      3257
 -1      1488    8    0    1
 -2       699       814       813      3257      3258      3254
 -1      1489    8    0    1
 -2       700       701       815      2898      3259      3260
 -1      1490    8    0    1
 -2       700       815       814      3260      3261      3256
 -1      1491    8    0    1
 -2       701       702       816      2901      3262      3263
 -1      1492    8    0    1
 -2       701       816       815      3263      3264      3259
 -1      1493    8    0    1
 -2       702       703       817      2904      3265      3266
 -1      1494    8    0    1
 -2       702       817       816      3266      3267      3262
 -1      1495    8    0    1
 -2       703       704       818      2907      3268      3269
 -1      1496    8    0    1
 -2       817       703       818      3265      3269      3270
 -1      1497    8    0    1
 -2       704       741       818      3022      3271      3268
 -1      1498    8    0    1
 -2       600       657       717      3014      3162      3272
 -1      1499    8    0    1
 -2       620       619       819      2662      3273      3274
 -1      1500    8    0    1
 -2       727       709       820      3059      3275      3276
 -1      1501    8    0    1
 -2       705       707       821      2915      3277      3278
 -1      1502    8    0    1
 -2       719       618       822      3024      3279      3280
 -1      1503    8    0    1
 -2       711       712       823      2930      3281      3282
 -1      1504    8    0    1
 -2       707       710       824      2924      3283      3284
 -1      1505    8    0    1
 -2       707       824       821      3284      3285      3277
 -1      1506    8    0    1
 -2       713       666       825      2934      3286      3287
 -1      1507    8    0    1
 -2       666       721       826      3020      3288      3289
 -1      1508    8    0    1
 -2       666       826       825      3289      3290      3286
 -1      1509    8    0    1
 -2       710       711       827      2927      3291      3292
 -1      1510    8    0    1
 -2       711       823       827      3282      3293      3291
 -1      1511    8    0    1
 -2       669       670       828      2805      3294      3295
 -1      1512    8    0    1
 -2       670       787       828      3176      3296      3294
 -1      1513    8    0    1
 -2       615       610       829      2639      3297      3298
 -1      1514    8    0    1
 -2       715       615       829      2941      3298      3299
 -1      1515    8    0    1
 -2       610       736       829      2995      3300      3297
 -1      1516    8    0    1
 -2       668       669       830      2802      3301      3302
 -1      1517    8    0    1
 -2       669       828       830      3295      3303      3301
 -1      1518    8    0    1
 -2       726       716       831      3042      3304      3305
 -1      1519    8    0    1
 -2       729       624       832      3001      3306      3307
 -1      1520    8    0    1
 -2       721       720       833      2955      3308      3309
 -1      1521    8    0    1
 -2       720       785       833      3171      3310      3308
 -1      1522    8    0    1
 -2       732       731       834      3002      3311      3312
 -1      1523    8    0    1
 -2       626       625       835      2676      3313      3314
 -1      1524    8    0    1
 -2       626       835       754      3314      3315      3073
 -1      1525    8    0    1
 -2       734       718       836      3046      3316      3317
 -1      1526    8    0    1
 -2       718       752       836      3069      3318      3316
 -1      1527    8    0    1
 -2       611       730       837      3004      3319      3320
 -1      1528    8    0    1
 -2       730       728       838      3010      3321      3322
 -1      1529    8    0    1
 -2       622       623       839      3050      3323      3324
 -1      1530    8    0    1
 -2       751       622       839      3066      3324      3325
 -1      1531    8    0    1
 -2       623       723       839      2963      3326      3323
 -1      1532    8    0    1
 -2       526       729       735      2978      3327      2991
 -1      1533    8    0    1
 -2       624       732       840      3061      3328      3329
 -1      1534    8    0    1
 -2       731       727       813      3003      3330      3331
 -1      1535    8    0    1
 -2       728       616       841      3060      3332      3333
 -1      1536    8    0    1
 -2       517       597       744      2993      3035      3163
 -1      1537    8    0    1
 -2       735       729       842      3327      3334      3335
 -1      1538    8    0    1
 -2       661       714       740      3070      3019      3336
 -1      1539    8    0    1
 -2       737       620       843      2998      3337      3338
 -1      1540    8    0    1
 -2       620       819       843      3274      3339      3337
 -1      1541    8    0    1
 -2       621       751       844      3067      3340      3341
 -1      1542    8    0    1
 -2       621       844       724      3341      3342      2968
 -1      1543    8    0    1
 -2       611       837       738      3320      3343      3009
 -1      1544    8    0    1
 -2       753       735       842      3071      3335      3344
 -1      1545    8    0    1
 -2       655       782       750      3157      3345      3159
 -1      1546    8    0    1
 -2       736       725       845      2996      3346      3347
 -1      1547    8    0    1
 -2       786       668       830      3172      3302      3348
 -1      1548    8    0    1
 -2       783       662       740      3164      3349      3350
 -1      1549    8    0    1
 -2       740       614       743      3017      3031      3351
 -1      1550    8    0    1
 -2       619       724       846      2967      3352      3353
 -1      1551    8    0    1
 -2       819       619       846      3273      3353      3354
 -1      1552    8    0    1
 -2       724       844       846      3342      3355      3352
 -1      1553    8    0    1
 -2       662       661       740      2783      3336      3349
 -1      1554    8    0    1
 -2       696       739       812      3253      3356      3249
 -1      1555    8    0    1
 -2       698       813       820      3255      3357      3358
 -1      1556    8    0    1
 -2       697       698       820      2889      3358      3359
 -1      1557    8    0    1
 -2       706       708       847      2918      3360      3361
 -1      1558    8    0    1
 -2       715       829       848      3299      3362      3363
 -1      1559    8    0    1
 -2       715       848       722      3363      3364      2959
 -1      1560    8    0    1
 -2       727       820       813      3276      3357      3330
 -1      1561    8    0    1
 -2       716       750       831      3065      3365      3304
 -1      1562    8    0    1
 -2       719       822       849      3280      3366      3367
 -1      1563    8    0    1
 -2       708       705       850      2919      3368      3369
 -1      1564    8    0    1
 -2       708       850       847      3369      3370      3360
 -1      1565    8    0    1
 -2       726       831       851      3305      3371      3372
 -1      1566    8    0    1
 -2       726       851       746      3372      3373      3045
 -1      1567    8    0    1
 -2       710       827       824      3292      3374      3283
 -1      1568    8    0    1
 -2       749       706       852      3058      3375      3376
 -1      1569    8    0    1
 -2       706       847       852      3361      3377      3375
 -1      1570    8    0    1
 -2       743       734       853      3032      3378      3379
 -1      1571    8    0    1
 -2       734       836       853      3317      3380      3378
 -1      1572    8    0    1
 -2       732       834       840      3312      3381      3328
 -1      1573    8    0    1
 -2       838       728       841      3321      3333      3382
 -1      1574    8    0    1
 -2       832       624       840      3306      3329      3383
 -1      1575    8    0    1
 -2       719       849       745      3367      3384      3041
 -1      1576    8    0    1
 -2       826       721       833      3288      3309      3385
 -1      1577    8    0    1
 -2       616       745       854      3040      3386      3387
 -1      1578    8    0    1
 -2       616       854       841      3387      3388      3332
 -1      1579    8    0    1
 -2       747       617       855      3047      3389      3390
 -1      1580    8    0    1
 -2       617       746       855      3044      3391      3389
 -1      1581    8    0    1
 -2       729       832       842      3307      3392      3334
 -1      1582    8    0    1
 -2       625       722       848      2958      3364      3393
 -1      1583    8    0    1
 -2       733       753       752      3072      3394      3068
 -1      1584    8    0    1
 -2       822       618       747      3279      3049      3395
 -1      1585    8    0    1
 -2       723       713       856      2964      3396      3397
 -1      1586    8    0    1
 -2       839       723       856      3326      3397      3398
 -1      1587    8    0    1
 -2       713       825       856      3287      3399      3396
 -1      1588    8    0    1
 -2       837       730       838      3319      3322      3400
 -1      1589    8    0    1
 -2       712       742       857      3027      3401      3402
 -1      1590    8    0    1
 -2       823       712       857      3281      3402      3403
 -1      1591    8    0    1
 -2       742       784       857      3168      3404      3401
 -1      1592    8    0    1
 -2       731       813       814      3331      3258      3405
 -1      1593    8    0    1
 -2       835       625       848      3313      3393      3406
 -1      1594    8    0    1
 -2       725       748       858      3053      3407      3408
 -1      1595    8    0    1
 -2       725       858       845      3408      3409      3346
 -1      1596    8    0    1
 -2       731       814       834      3405      3410      3311
 -1      1597    8    0    1
 -2       850       705       821      3368      3278      3411
 -1      1598    8    0    1
 -2       753       842       821      3344      3412      3413
 -1      1599    8    0    1
 -2       612       738       739      3008      3414      3011
 -1      1600    8    0    1
 -2       834       814       815      3410      3261      3415
 -1      1601    8    0    1
 -2       834       815       859      3415      3416      3417
 -1      1602    8    0    1
 -2       840       834       859      3381      3417      3418
 -1      1603    8    0    1
 -2       815       816       859      3264      3419      3416
 -1      1604    8    0    1
 -2       786       830       860      3348      3420      3421
 -1      1605    8    0    1
 -2       812       739       738      3356      3414      3422
 -1      1606    8    0    1
 -2       756       755       861      3080      3423      3424
 -1      1607    8    0    1
 -2       757       756       862      3083      3425      3426
 -1      1608    8    0    1
 -2       756       861       862      3424      3427      3425
 -1      1609    8    0    1
 -2       758       757       863      3086      3428      3429
 -1      1610    8    0    1
 -2       757       862       863      3426      3430      3428
 -1      1611    8    0    1
 -2       759       758       864      3089      3431      3432
 -1      1612    8    0    1
 -2       758       863       864      3429      3433      3431
 -1      1613    8    0    1
 -2       760       759       865      3092      3434      3435
 -1      1614    8    0    1
 -2       759       864       865      3432      3436      3434
 -1      1615    8    0    1
 -2       761       760       866      3095      3437      3438
 -1      1616    8    0    1
 -2       760       865       866      3435      3439      3437
 -1      1617    8    0    1
 -2       762       761       867      3098      3440      3441
 -1      1618    8    0    1
 -2       761       866       867      3438      3442      3440
 -1      1619    8    0    1
 -2       763       762       868      3101      3443      3444
 -1      1620    8    0    1
 -2       762       867       868      3441      3445      3443
 -1      1621    8    0    1
 -2       764       763       869      3104      3446      3447
 -1      1622    8    0    1
 -2       763       868       869      3444      3448      3446
 -1      1623    8    0    1
 -2       765       764       870      3107      3449      3450
 -1      1624    8    0    1
 -2       764       869       870      3447      3451      3449
 -1      1625    8    0    1
 -2       766       765       871      3110      3452      3453
 -1      1626    8    0    1
 -2       765       870       871      3450      3454      3452
 -1      1627    8    0    1
 -2       767       766       872      3113      3455      3456
 -1      1628    8    0    1
 -2       766       871       872      3453      3457      3455
 -1      1629    8    0    1
 -2       768       767       873      3116      3458      3459
 -1      1630    8    0    1
 -2       767       872       873      3456      3460      3458
 -1      1631    8    0    1
 -2       769       768       874      3119      3461      3462
 -1      1632    8    0    1
 -2       768       873       874      3459      3463      3461
 -1      1633    8    0    1
 -2       770       769       875      3122      3464      3465
 -1      1634    8    0    1
 -2       769       874       875      3462      3466      3464
 -1      1635    8    0    1
 -2       771       770       876      3125      3467      3468
 -1      1636    8    0    1
 -2       770       875       876      3465      3469      3467
 -1      1637    8    0    1
 -2       772       771       877      3128      3470      3471
 -1      1638    8    0    1
 -2       771       876       877      3468      3472      3470
 -1      1639    8    0    1
 -2       773       772       878      3131      3473      3474
 -1      1640    8    0    1
 -2       772       877       878      3471      3475      3473
 -1      1641    8    0    1
 -2       774       773       879      3134      3476      3477
 -1      1642    8    0    1
 -2       773       878       879      3474      3478      3476
 -1      1643    8    0    1
 -2       775       774       880      3137      3479      3480
 -1      1644    8    0    1
 -2       774       879       880      3477      3481      3479
 -1      1645    8    0    1
 -2       776       775       881      3140      3482      3483
 -1      1646    8    0    1
 -2       775       880       881      3480      3484      3482
 -1      1647    8    0    1
 -2       777       776       882      3143      3485      3486
 -1      1648    8    0    1
 -2       776       881       882      3483      3487      3485
 -1      1649    8    0    1
 -2       778       777       883      3146      3488      3489
 -1      1650    8    0    1
 -2       777       882       883      3486      3490      3488
 -1      1651    8    0    1
 -2       779       778       884      3149      3491      3492
 -1      1652    8    0    1
 -2       778       883       884      3489      3493      3491
 -1      1653    8    0    1
 -2       780       779       885      3152      3494      3495
 -1      1654    8    0    1
 -2       779       884       885      3492      3496      3494
 -1      1655    8    0    1
 -2       781       780       886      3155      3497      3498
 -1      1656    8    0    1
 -2       780       885       886      3495      3499      3497
 -1      1657    8    0    1
 -2       782       781       887      3158      3500      3501
 -1      1658    8    0    1
 -2       781       886       887      3498      3502      3500
 -1      1659    8    0    1
 -2       750       782       831      3345      3503      3365
 -1      1660    8    0    1
 -2       740       743       783      3351      3504      3350
 -1      1661    8    0    1
 -2       789       790       888      3185      3505      3506
 -1      1662    8    0    1
 -2       788       789       889      3182      3507      3508
 -1      1663    8    0    1
 -2       789       888       889      3506      3509      3507
 -1      1664    8    0    1
 -2       787       788       890      3179      3510      3511
 -1      1665    8    0    1
 -2       788       889       890      3508      3512      3510
 -1      1666    8    0    1
 -2       790       791       891      3188      3513      3514
 -1      1667    8    0    1
 -2       790       891       888      3514      3515      3505
 -1      1668    8    0    1
 -2       791       792       892      3191      3516      3517
 -1      1669    8    0    1
 -2       791       892       891      3517      3518      3513
 -1      1670    8    0    1
 -2       792       793       893      3194      3519      3520
 -1      1671    8    0    1
 -2       792       893       892      3520      3521      3516
 -1      1672    8    0    1
 -2       793       794       894      3197      3522      3523
 -1      1673    8    0    1
 -2       793       894       893      3523      3524      3519
 -1      1674    8    0    1
 -2       794       795       895      3200      3525      3526
 -1      1675    8    0    1
 -2       794       895       894      3526      3527      3522
 -1      1676    8    0    1
 -2       795       796       896      3203      3528      3529
 -1      1677    8    0    1
 -2       795       896       895      3529      3530      3525
 -1      1678    8    0    1
 -2       796       797       897      3206      3531      3532
 -1      1679    8    0    1
 -2       796       897       896      3532      3533      3528
 -1      1680    8    0    1
 -2       797       798       898      3209      3534      3535
 -1      1681    8    0    1
 -2       797       898       897      3535      3536      3531
 -1      1682    8    0    1
 -2       798       799       899      3212      3537      3538
 -1      1683    8    0    1
 -2       798       899       898      3538      3539      3534
 -1      1684    8    0    1
 -2       799       800       900      3215      3540      3541
 -1      1685    8    0    1
 -2       799       900       899      3541      3542      3537
 -1      1686    8    0    1
 -2       800       801       901      3218      3543      3544
 -1      1687    8    0    1
 -2       800       901       900      3544      3545      3540
 -1      1688    8    0    1
 -2       801       802       902      3221      3546      3547
 -1      1689    8    0    1
 -2       801       902       901      3547      3548      3543
 -1      1690    8    0    1
 -2       802       803       903      3224      3549      3550
 -1      1691    8    0    1
 -2       802       903       902      3550      3551      3546
 -1      1692    8    0    1
 -2       803       804       904      3227      3552      3553
 -1      1693    8    0    1
 -2       803       904       903      3553      3554      3549
 -1      1694    8    0    1
 -2       804       805       905      3230      3555      3556
 -1      1695    8    0    1
 -2       804       905       904      3556      3557      3552
 -1      1696    8    0    1
 -2       805       806       906      3233      3558      3559
 -1      1697    8    0    1
 -2       805       906       905      3559      3560      3555
 -1      1698    8    0    1
 -2       806       807       907      3236      3561      3562
 -1      1699    8    0    1
 -2       806       907       906      3562      3563      3558
 -1      1700    8    0    1
 -2       807       808       908      3239      3564      3565
 -1      1701    8    0    1
 -2       807       908       907      3565      3566      3561
 -1      1702    8    0    1
 -2       808       809       909      3242      3567      3568
 -1      1703    8    0    1
 -2       808       909       908      3568      3569      3564
 -1      1704    8    0    1
 -2       810       811       838      3248      3570      3571
 -1      1705    8    0    1
 -2       811       812       837      3251      3572      3573
 -1      1706    8    0    1
 -2       821       842       850      3412      3574      3411
 -1      1707    8    0    1
 -2       739       697       820      3252      3359      3575
 -1      1708    8    0    1
 -2       835       848       910      3406      3576      3577
 -1      1709    8    0    1
 -2       820       709       739      3275      3013      3575
 -1      1710    8    0    1
 -2       837       838       811      3400      3570      3573
 -1      1711    8    0    1
 -2       752       753       824      3394      3578      3579
 -1      1712    8    0    1
 -2       753       821       824      3413      3285      3578
 -1      1713    8    0    1
 -2       849       822       911      3366      3580      3581
 -1      1714    8    0    1
 -2       847       850       832      3370      3582      3583
 -1      1715    8    0    1
 -2       825       826       912      3290      3584      3585
 -1      1716    8    0    1
 -2       827       823       836      3293      3586      3587
 -1      1717    8    0    1
 -2       830       828       913      3303      3588      3589
 -1      1718    8    0    1
 -2       830       913       860      3589      3590      3420
 -1      1719    8    0    1
 -2       828       787       914      3296      3591      3592
 -1      1720    8    0    1
 -2       913       828       914      3588      3592      3593
 -1      1721    8    0    1
 -2       787       890       914      3511      3594      3591
 -1      1722    8    0    1
 -2       829       736       848      3300      3595      3362
 -1      1723    8    0    1
 -2       833       785       915      3310      3596      3597
 -1      1724    8    0    1
 -2       826       833       916      3385      3598      3599
 -1      1725    8    0    1
 -2       826       916       912      3599      3600      3584
 -1      1726    8    0    1
 -2       824       827       752      3374      3601      3579
 -1      1727    8    0    1
 -2       748       737       917      3054      3602      3603
 -1      1728    8    0    1
 -2       748       917       858      3603      3604      3407
 -1      1729    8    0    1
 -2       754       835       918      3315      3605      3606
 -1      1730    8    0    1
 -2       836       752       827      3318      3601      3587
 -1      1731    8    0    1
 -2       755       754       919      3077      3607      3608
 -1      1732    8    0    1
 -2       755       919       861      3608      3609      3423
 -1      1733    8    0    1
 -2       842       832       850      3392      3582      3574
 -1      1734    8    0    1
 -2       838       841       920      3382      3610      3611
 -1      1735    8    0    1
 -2       822       747       921      3395      3612      3613
 -1      1736    8    0    1
 -2       911       822       921      3580      3613      3614
 -1      1737    8    0    1
 -2       747       855       921      3390      3615      3612
 -1      1738    8    0    1
 -2       832       840       922      3383      3616      3617
 -1      1739    8    0    1
 -2       785       786       923      3174      3618      3619
 -1      1740    8    0    1
 -2       915       785       923      3596      3619      3620
 -1      1741    8    0    1
 -2       786       860       923      3421      3621      3618
 -1      1742    8    0    1
 -2       783       743       853      3504      3379      3622
 -1      1743    8    0    1
 -2       741       749       924      3057      3623      3624
 -1      1744    8    0    1
 -2       818       741       924      3271      3624      3625
 -1      1745    8    0    1
 -2       749       852       924      3376      3626      3623
 -1      1746    8    0    1
 -2       745       849       925      3384      3627      3628
 -1      1747    8    0    1
 -2       745       925       854      3628      3629      3386
 -1      1748    8    0    1
 -2       812       738       837      3422      3343      3572
 -1      1749    8    0    1
 -2       831       782       887      3503      3501      3630
 -1      1750    8    0    1
 -2       810       838       920      3571      3611      3631
 -1      1751    8    0    1
 -2       847       832       922      3583      3617      3632
 -1      1752    8    0    1
 -2       844       751       926      3340      3633      3634
 -1      1753    8    0    1
 -2       843       819       927      3339      3635      3636
 -1      1754    8    0    1
 -2       810       920       809      3631      3637      3245
 -1      1755    8    0    1
 -2       736       845       848      3347      3638      3595
 -1      1756    8    0    1
 -2       783       853       784      3622      3639      3169
 -1      1757    8    0    1
 -2       737       843       917      3338      3640      3602
 -1      1758    8    0    1
 -2       840       859       922      3418      3641      3616
 -1      1759    8    0    1
 -2       927       819       928      3635      3642      3643
 -1      1760    8    0    1
 -2       819       846       928      3354      3644      3642
 -1      1761    8    0    1
 -2       909       809       920      3567      3637      3645
 -1      1762    8    0    1
 -2       849       911       929      3581      3646      3647
 -1      1763    8    0    1
 -2       849       929       925      3647      3648      3627
 -1      1764    8    0    1
 -2       848       845       910      3638      3649      3576
 -1      1765    8    0    1
 -2       847       922       852      3632      3650      3377
 -1      1766    8    0    1
 -2       835       910       918      3577      3651      3605
 -1      1767    8    0    1
 -2       746       851       930      3373      3652      3653
 -1      1768    8    0    1
 -2       746       930       855      3653      3654      3391
 -1      1769    8    0    1
 -2       816       817       931      3267      3655      3656
 -1      1770    8    0    1
 -2       817       818       924      3270      3625      3657
 -1      1771    8    0    1
 -2       910       845       932      3649      3658      3659
 -1      1772    8    0    1
 -2       845       858       932      3409      3660      3658
 -1      1773    8    0    1
 -2       836       823       853      3586      3661      3380
 -1      1774    8    0    1
 -2       919       754       918      3607      3606      3662
 -1      1775    8    0    1
 -2       920       841       933      3610      3663      3664
 -1      1776    8    0    1
 -2       909       920       933      3645      3664      3665
 -1      1777    8    0    1
 -2       841       854       933      3388      3666      3663
 -1      1778    8    0    1
 -2       825       912       934      3585      3667      3668
 -1      1779    8    0    1
 -2       816       931       859      3656      3669      3419
 -1      1780    8    0    1
 -2       825       934       856      3668      3670      3399
 -1      1781    8    0    1
 -2       916       833       915      3598      3597      3671
 -1      1782    8    0    1
 -2       599       600       717      2654      3272      2944
 -1      1783    8    0    1
 -2       931       817       924      3655      3657      3672
 -1      1784    8    0    1
 -2       843       927       935      3636      3673      3674
 -1      1785    8    0    1
 -2       843       935       917      3674      3675      3640
 -1      1786    8    0    1
 -2       856       934       926      3670      3676      3677
 -1      1787    8    0    1
 -2       862       861       936      3427      3678      3679
 -1      1788    8    0    1
 -2       863       862       937      3430      3680      3681
 -1      1789    8    0    1
 -2       862       936       937      3679      3682      3680
 -1      1790    8    0    1
 -2       864       863       938      3433      3683      3684
 -1      1791    8    0    1
 -2       863       937       938      3681      3685      3683
 -1      1792    8    0    1
 -2       865       864       939      3436      3686      3687
 -1      1793    8    0    1
 -2       864       938       939      3684      3688      3686
 -1      1794    8    0    1
 -2       866       865       940      3439      3689      3690
 -1      1795    8    0    1
 -2       865       939       940      3687      3691      3689
 -1      1796    8    0    1
 -2       867       866       941      3442      3692      3693
 -1      1797    8    0    1
 -2       866       940       941      3690      3694      3692
 -1      1798    8    0    1
 -2       868       867       942      3445      3695      3696
 -1      1799    8    0    1
 -2       867       941       942      3693      3697      3695
 -1      1800    8    0    1
 -2       869       868       943      3448      3698      3699
 -1      1801    8    0    1
 -2       868       942       943      3696      3700      3698
 -1      1802    8    0    1
 -2       870       869       944      3451      3701      3702
 -1      1803    8    0    1
 -2       869       943       944      3699      3703      3701
 -1      1804    8    0    1
 -2       871       870       945      3454      3704      3705
 -1      1805    8    0    1
 -2       870       944       945      3702      3706      3704
 -1      1806    8    0    1
 -2       872       871       946      3457      3707      3708
 -1      1807    8    0    1
 -2       871       945       946      3705      3709      3707
 -1      1808    8    0    1
 -2       873       872       947      3460      3710      3711
 -1      1809    8    0    1
 -2       872       946       947      3708      3712      3710
 -1      1810    8    0    1
 -2       874       873       948      3463      3713      3714
 -1      1811    8    0    1
 -2       873       947       948      3711      3715      3713
 -1      1812    8    0    1
 -2       875       874       949      3466      3716      3717
 -1      1813    8    0    1
 -2       874       948       949      3714      3718      3716
 -1      1814    8    0    1
 -2       876       875       950      3469      3719      3720
 -1      1815    8    0    1
 -2       875       949       950      3717      3721      3719
 -1      1816    8    0    1
 -2       877       876       951      3472      3722      3723
 -1      1817    8    0    1
 -2       876       950       951      3720      3724      3722
 -1      1818    8    0    1
 -2       878       877       952      3475      3725      3726
 -1      1819    8    0    1
 -2       877       951       952      3723      3727      3725
 -1      1820    8    0    1
 -2       879       878       953      3478      3728      3729
 -1      1821    8    0    1
 -2       878       952       953      3726      3730      3728
 -1      1822    8    0    1
 -2       880       879       954      3481      3731      3732
 -1      1823    8    0    1
 -2       879       953       954      3729      3733      3731
 -1      1824    8    0    1
 -2       881       880       955      3484      3734      3735
 -1      1825    8    0    1
 -2       880       954       955      3732      3736      3734
 -1      1826    8    0    1
 -2       882       881       956      3487      3737      3738
 -1      1827    8    0    1
 -2       881       955       956      3735      3739      3737
 -1      1828    8    0    1
 -2       883       882       957      3490      3740      3741
 -1      1829    8    0    1
 -2       882       956       957      3738      3742      3740
 -1      1830    8    0    1
 -2       884       883       958      3493      3743      3744
 -1      1831    8    0    1
 -2       883       957       958      3741      3745      3743
 -1      1832    8    0    1
 -2       885       884       959      3496      3746      3747
 -1      1833    8    0    1
 -2       884       958       959      3744      3748      3746
 -1      1834    8    0    1
 -2       886       885       960      3499      3749      3750
 -1      1835    8    0    1
 -2       885       959       960      3747      3751      3749
 -1      1836    8    0    1
 -2       887       886       961      3502      3752      3753
 -1      1837    8    0    1
 -2       886       960       961      3750      3754      3752
 -1      1838    8    0    1
 -2       889       888       962      3509      3755      3756
 -1      1839    8    0    1
 -2       891       892       963      3518      3757      3758
 -1      1840    8    0    1
 -2       846       844       964      3355      3759      3760
 -1      1841    8    0    1
 -2       846       964       928      3760      3761      3644
 -1      1842    8    0    1
 -2       888       891       965      3515      3762      3763
 -1      1843    8    0    1
 -2       962       888       965      3755      3763      3764
 -1      1844    8    0    1
 -2       891       963       965      3758      3765      3762
 -1      1845    8    0    1
 -2       890       889       966      3512      3766      3767
 -1      1846    8    0    1
 -2       889       962       966      3756      3768      3766
 -1      1847    8    0    1
 -2       892       893       967      3521      3769      3770
 -1      1848    8    0    1
 -2       892       967       963      3770      3771      3757
 -1      1849    8    0    1
 -2       893       894       968      3524      3772      3773
 -1      1850    8    0    1
 -2       893       968       967      3773      3774      3769
 -1      1851    8    0    1
 -2       894       895       969      3527      3775      3776
 -1      1852    8    0    1
 -2       894       969       968      3776      3777      3772
 -1      1853    8    0    1
 -2       895       896       970      3530      3778      3779
 -1      1854    8    0    1
 -2       895       970       969      3779      3780      3775
 -1      1855    8    0    1
 -2       896       897       971      3533      3781      3782
 -1      1856    8    0    1
 -2       896       971       970      3782      3783      3778
 -1      1857    8    0    1
 -2       897       898       972      3536      3784      3785
 -1      1858    8    0    1
 -2       897       972       971      3785      3786      3781
 -1      1859    8    0    1
 -2       898       899       973      3539      3787      3788
 -1      1860    8    0    1
 -2       898       973       972      3788      3789      3784
 -1      1861    8    0    1
 -2       899       900       974      3542      3790      3791
 -1      1862    8    0    1
 -2       899       974       973      3791      3792      3787
 -1      1863    8    0    1
 -2       900       901       975      3545      3793      3794
 -1      1864    8    0    1
 -2       900       975       974      3794      3795      3790
 -1      1865    8    0    1
 -2       901       902       976      3548      3796      3797
 -1      1866    8    0    1
 -2       901       976       975      3797      3798      3793
 -1      1867    8    0    1
 -2       902       903       977      3551      3799      3800
 -1      1868    8    0    1
 -2       902       977       976      3800      3801      3796
 -1      1869    8    0    1
 -2       903       904       978      3554      3802      3803
 -1      1870    8    0    1
 -2       903       978       977      3803      3804      3799
 -1      1871    8    0    1
 -2       904       905       979      3557      3805      3806
 -1      1872    8    0    1
 -2       904       979       978      3806      3807      3802
 -1      1873    8    0    1
 -2       905       906       980      3560      3808      3809
 -1      1874    8    0    1
 -2       905       980       979      3809      3810      3805
 -1      1875    8    0    1
 -2       906       907       981      3563      3811      3812
 -1      1876    8    0    1
 -2       906       981       980      3812      3813      3808
 -1      1877    8    0    1
 -2       907       908       982      3566      3814      3815
 -1      1878    8    0    1
 -2       907       982       981      3815      3816      3811
 -1      1879    8    0    1
 -2       908       909       983      3569      3817      3818
 -1      1880    8    0    1
 -2       982       908       983      3814      3818      3819
 -1      1881    8    0    1
 -2       909       933       983      3665      3820      3817
 -1      1882    8    0    1
 -2       858       917       984      3604      3821      3822
 -1      1883    8    0    1
 -2       917       935       984      3675      3823      3821
 -1      1884    8    0    1
 -2       852       922       931      3650      3824      3825
 -1      1885    8    0    1
 -2       852       931       924      3825      3672      3626
 -1      1886    8    0    1
 -2       926       751       856      3633      3826      3677
 -1      1887    8    0    1
 -2       859       931       922      3669      3824      3641
 -1      1888    8    0    1
 -2       918       910       932      3651      3659      3827
 -1      1889    8    0    1
 -2       919       918       985      3662      3828      3829
 -1      1890    8    0    1
 -2       861       919       986      3609      3830      3831
 -1      1891    8    0    1
 -2       861       986       936      3831      3832      3678
 -1      1892    8    0    1
 -2       860       913       987      3590      3833      3834
 -1      1893    8    0    1
 -2       912       916       988      3600      3835      3836
 -1      1894    8    0    1
 -2       916       915       989      3671      3837      3838
 -1      1895    8    0    1
 -2       916       989       988      3838      3839      3835
 -1      1896    8    0    1
 -2       823       857       853      3403      3840      3661
 -1      1897    8    0    1
 -2       751       839       856      3325      3398      3826
 -1      1898    8    0    1
 -2       844       926       964      3634      3841      3759
 -1      1899    8    0    1
 -2       934       912       990      3667      3842      3843
 -1      1900    8    0    1
 -2       912       988       990      3836      3844      3842
 -1      1901    8    0    1
 -2       926       934       991      3676      3845      3846
 -1      1902    8    0    1
 -2       964       926       991      3841      3846      3847
 -1      1903    8    0    1
 -2       934       990       991      3843      3848      3845
 -1      1904    8    0    1
 -2       925       929       992      3648      3849      3850
 -1      1905    8    0    1
 -2       887       961       930      3753      3851      3852
 -1      1906    8    0    1
 -2       831       887       851      3630      3853      3371
 -1      1907    8    0    1
 -2       890       966       993      3767      3854      3855
 -1      1908    8    0    1
 -2       890       993       914      3855      3856      3594
 -1      1909    8    0    1
 -2       860       987       994      3834      3857      3858
 -1      1910    8    0    1
 -2       860       994       923      3858      3859      3621
 -1      1911    8    0    1
 -2       929       911       995      3646      3860      3861
 -1      1912    8    0    1
 -2       986       919       985      3830      3829      3862
 -1      1913    8    0    1
 -2       930       851       887      3652      3853      3852
 -1      1914    8    0    1
 -2       935       927       996      3673      3863      3864
 -1      1915    8    0    1
 -2       932       858       984      3660      3822      3865
 -1      1916    8    0    1
 -2       933       854       997      3666      3866      3867
 -1      1917    8    0    1
 -2       983       933       997      3820      3867      3868
 -1      1918    8    0    1
 -2       854       925       997      3629      3869      3866
 -1      1919    8    0    1
 -2       927       928       998      3643      3870      3871
 -1      1920    8    0    1
 -2       927       998       996      3871      3872      3863
 -1      1921    8    0    1
 -2       985       918       932      3828      3827      3873
 -1      1922    8    0    1
 -2       855       930       999      3654      3874      3875
 -1      1923    8    0    1
 -2       855       999       921      3875      3876      3615
 -1      1924    8    0    1
 -2       989       915      1000      3837      3877      3878
 -1      1925    8    0    1
 -2       915       923      1000      3620      3879      3877
 -1      1926    8    0    1
 -2       925       992       997      3850      3880      3869
 -1      1927    8    0    1
 -2       911       921      1001      3614      3881      3882
 -1      1928    8    0    1
 -2       911      1001       995      3882      3883      3860
 -1      1929    8    0    1
 -2       913       914      1002      3593      3884      3885
 -1      1930    8    0    1
 -2       913      1002       987      3885      3886      3833
 -1      1931    8    0    1
 -2       930       961       999      3851      3887      3874
 -1      1932    8    0    1
 -2       935       996      1003      3864      3888      3889
 -1      1933    8    0    1
 -2       935      1003       984      3889      3890      3823
 -1      1934    8    0    1
 -2       963       967      1004      3771      3891      3892
 -1      1935    8    0    1
 -2       938       937      1005      3685      3893      3894
 -1      1936    8    0    1
 -2       939       938      1006      3688      3895      3896
 -1      1937    8    0    1
 -2       938      1005      1006      3894      3897      3895
 -1      1938    8    0    1
 -2       940       939      1007      3691      3898      3899
 -1      1939    8    0    1
 -2       939      1006      1007      3896      3900      3898
 -1      1940    8    0    1
 -2       941       940      1008      3694      3901      3902
 -1      1941    8    0    1
 -2       940      1007      1008      3899      3903      3901
 -1      1942    8    0    1
 -2       942       941      1009      3697      3904      3905
 -1      1943    8    0    1
 -2       941      1008      1009      3902      3906      3904
 -1      1944    8    0    1
 -2       943       942      1010      3700      3907      3908
 -1      1945    8    0    1
 -2       942      1009      1010      3905      3909      3907
 -1      1946    8    0    1
 -2       944       943      1011      3703      3910      3911
 -1      1947    8    0    1
 -2       943      1010      1011      3908      3912      3910
 -1      1948    8    0    1
 -2       945       944      1012      3706      3913      3914
 -1      1949    8    0    1
 -2       944      1011      1012      3911      3915      3913
 -1      1950    8    0    1
 -2       946       945      1013      3709      3916      3917
 -1      1951    8    0    1
 -2       945      1012      1013      3914      3918      3916
 -1      1952    8    0    1
 -2       947       946      1014      3712      3919      3920
 -1      1953    8    0    1
 -2       946      1013      1014      3917      3921      3919
 -1      1954    8    0    1
 -2       948       947      1015      3715      3922      3923
 -1      1955    8    0    1
 -2       947      1014      1015      3920      3924      3922
 -1      1956    8    0    1
 -2       949       948      1016      3718      3925      3926
 -1      1957    8    0    1
 -2       948      1015      1016      3923      3927      3925
 -1      1958    8    0    1
 -2       950       949      1017      3721      3928      3929
 -1      1959    8    0    1
 -2       949      1016      1017      3926      3930      3928
 -1      1960    8    0    1
 -2       951       950      1018      3724      3931      3932
 -1      1961    8    0    1
 -2       950      1017      1018      3929      3933      3931
 -1      1962    8    0    1
 -2       952       951      1019      3727      3934      3935
 -1      1963    8    0    1
 -2       951      1018      1019      3932      3936      3934
 -1      1964    8    0    1
 -2       953       952      1020      3730      3937      3938
 -1      1965    8    0    1
 -2       952      1019      1020      3935      3939      3937
 -1      1966    8    0    1
 -2       954       953      1021      3733      3940      3941
 -1      1967    8    0    1
 -2       953      1020      1021      3938      3942      3940
 -1      1968    8    0    1
 -2       955       954      1022      3736      3943      3944
 -1      1969    8    0    1
 -2       954      1021      1022      3941      3945      3943
 -1      1970    8    0    1
 -2       956       955      1023      3739      3946      3947
 -1      1971    8    0    1
 -2       955      1022      1023      3944      3948      3946
 -1      1972    8    0    1
 -2       957       956      1024      3742      3949      3950
 -1      1973    8    0    1
 -2       956      1023      1024      3947      3951      3949
 -1      1974    8    0    1
 -2       958       957      1025      3745      3952      3953
 -1      1975    8    0    1
 -2       957      1024      1025      3950      3954      3952
 -1      1976    8    0    1
 -2       959       958      1026      3748      3955      3956
 -1      1977    8    0    1
 -2       958      1025      1026      3953      3957      3955
 -1      1978    8    0    1
 -2       960       959      1027      3751      3958      3959
 -1      1979    8    0    1
 -2       959      1026      1027      3956      3960      3958
 -1      1980    8    0    1
 -2       961       960      1028      3754      3961      3962
 -1      1981    8    0    1
 -2       960      1027      1028      3959      3963      3961
 -1      1982    8    0    1
 -2       966       962      1029      3768      3964      3965
 -1      1983    8    0    1
 -2       928       964      1030      3761      3966      3967
 -1      1984    8    0    1
 -2       998       928      1030      3870      3967      3968
 -1      1985    8    0    1
 -2       964       991      1030      3847      3969      3966
 -1      1986    8    0    1
 -2       968       969      1031      3777      3970      3971
 -1      1987    8    0    1
 -2       969       970      1032      3780      3972      3973
 -1      1988    8    0    1
 -2       969      1032      1031      3973      3974      3970
 -1      1989    8    0    1
 -2       970       971      1033      3783      3975      3976
 -1      1990    8    0    1
 -2       970      1033      1032      3976      3977      3972
 -1      1991    8    0    1
 -2       971       972      1034      3786      3978      3979
 -1      1992    8    0    1
 -2       971      1034      1033      3979      3980      3975
 -1      1993    8    0    1
 -2       972       973      1035      3789      3981      3982
 -1      1994    8    0    1
 -2       972      1035      1034      3982      3983      3978
 -1      1995    8    0    1
 -2       973       974      1036      3792      3984      3985
 -1      1996    8    0    1
 -2       973      1036      1035      3985      3986      3981
 -1      1997    8    0    1
 -2       974       975      1037      3795      3987      3988
 -1      1998    8    0    1
 -2       974      1037      1036      3988      3989      3984
 -1      1999    8    0    1
 -2       975       976      1038      3798      3990      3991
 -1      2000    8    0    1
 -2       975      1038      1037      3991      3992      3987
 -1      2001    8    0    1
 -2       976       977      1039      3801      3993      3994
 -1      2002    8    0    1
 -2       976      1039      1038      3994      3995      3990
 -1      2003    8    0    1
 -2       977       978      1040      3804      3996      3997
 -1      2004    8    0    1
 -2       977      1040      1039      3997      3998      3993
 -1      2005    8    0    1
 -2       978       979      1041      3807      3999      4000
 -1      2006    8    0    1
 -2       978      1041      1040      4000      4001      3996
 -1      2007    8    0    1
 -2       979       980      1042      3810      4002      4003
 -1      2008    8    0    1
 -2       979      1042      1041      4003      4004      3999
 -1      2009    8    0    1
 -2       980       981      1043      3813      4005      4006
 -1      2010    8    0    1
 -2       980      1043      1042      4006      4007      4002
 -1      2011    8    0    1
 -2       981       982      1044      3816      4008      4009
 -1      2012    8    0    1
 -2       981      1044      1043      4009      4010      4005
 -1      2013    8    0    1
 -2       986       985      1045      3862      4011      4012
 -1      2014    8    0    1
 -2       936       986      1046      3832      4013      4014
 -1      2015    8    0    1
 -2       986      1045      1046      4012      4015      4013
 -1      2016    8    0    1
 -2       988       989      1047      3839      4016      4017
 -1      2017    8    0    1
 -2       937       936      1048      3682      4018      4019
 -1      2018    8    0    1
 -2       936      1046      1048      4014      4020      4018
 -1      2019    8    0    1
 -2       929       995      1049      3861      4021      4022
 -1      2020    8    0    1
 -2       992       929      1049      3849      4022      4023
 -1      2021    8    0    1
 -2       967       968      1050      3774      4024      4025
 -1      2022    8    0    1
 -2       967      1050      1004      4025      4026      3891
 -1      2023    8    0    1
 -2      1003       996      1051      3888      4027      4028
 -1      2024    8    0    1
 -2       966      1029      1052      3965      4029      4030
 -1      2025    8    0    1
 -2       966      1052       993      4030      4031      3854
 -1      2026    8    0    1
 -2       985       932       984      3873      3865      4032
 -1      2027    8    0    1
 -2       961      1028       999      3962      4033      3887
 -1      2028    8    0    1
 -2      1029       962      1053      3964      4034      4035
 -1      2029    8    0    1
 -2       962       965      1053      3764      4036      4034
 -1      2030    8    0    1
 -2       985       984      1003      4032      3890      4037
 -1      2031    8    0    1
 -2       994       987      1054      3857      4038      4039
 -1      2032    8    0    1
 -2       965       963      1055      3765      4040      4041
 -1      2033    8    0    1
 -2       965      1055      1053      4041      4042      4036
 -1      2034    8    0    1
 -2       987      1002      1056      3886      4043      4044
 -1      2035    8    0    1
 -2       987      1056      1054      4044      4045      4038
 -1      2036    8    0    1
 -2      1044       982       992      4008      4046      4047
 -1      2037    8    0    1
 -2       963      1004      1055      3892      4048      4040
 -1      2038    8    0    1
 -2       853       857       784      3840      3404      3639
 -1      2039    8    0    1
 -2       914       993      1002      3856      4049      3884
 -1      2040    8    0    1
 -2      1047       989      1057      4016      4050      4051
 -1      2041    8    0    1
 -2       989      1000      1057      3878      4052      4050
 -1      2042    8    0    1
 -2       968      1031      1050      3971      4053      4024
 -1      2043    8    0    1
 -2       923       994      1000      3859      4054      3879
 -1      2044    8    0    1
 -2       937      1048      1005      4019      4055      3893
 -1      2045    8    0    1
 -2       921       999      1001      3876      4056      3881
 -1      2046    8    0    1
 -2       996       998      1058      3872      4057      4058
 -1      2047    8    0    1
 -2       996      1058      1051      4058      4059      4027
 -1      2048    8    0    1
 -2       990       988      1059      3844      4060      4061
 -1      2049    8    0    1
 -2      1049       995      1060      4021      4062      4063
 -1      2050    8    0    1
 -2       992      1049      1044      4023      4064      4047
 -1      2051    8    0    1
 -2       997       992       982      3880      4046      4065
 -1      2052    8    0    1
 -2       991       990      1030      3848      4066      3969
 -1      2053    8    0    1
 -2       990      1059      1030      4061      4067      4066
 -1      2054    8    0    1
 -2       997       982       983      4065      3819      3868
 -1      2055    8    0    1
 -2      1060       995      1028      4062      4068      4069
 -1      2056    8    0    1
 -2      1059       988      1047      4060      4017      4070
 -1      2057    8    0    1
 -2      1003      1051      1045      4028      4071      4072
 -1      2058    8    0    1
 -2      1007      1006      1061      3900      4073      4074
 -1      2059    8    0    1
 -2      1008      1007      1062      3903      4075      4076
 -1      2060    8    0    1
 -2      1007      1061      1062      4074      4077      4075
 -1      2061    8    0    1
 -2      1009      1008      1063      3906      4078      4079
 -1      2062    8    0    1
 -2      1008      1062      1063      4076      4080      4078
 -1      2063    8    0    1
 -2      1010      1009      1064      3909      4081      4082
 -1      2064    8    0    1
 -2      1009      1063      1064      4079      4083      4081
 -1      2065    8    0    1
 -2      1011      1010      1065      3912      4084      4085
 -1      2066    8    0    1
 -2      1010      1064      1065      4082      4086      4084
 -1      2067    8    0    1
 -2      1012      1011      1066      3915      4087      4088
 -1      2068    8    0    1
 -2      1011      1065      1066      4085      4089      4087
 -1      2069    8    0    1
 -2      1013      1012      1067      3918      4090      4091
 -1      2070    8    0    1
 -2      1012      1066      1067      4088      4092      4090
 -1      2071    8    0    1
 -2      1014      1013      1068      3921      4093      4094
 -1      2072    8    0    1
 -2      1013      1067      1068      4091      4095      4093
 -1      2073    8    0    1
 -2      1015      1014      1069      3924      4096      4097
 -1      2074    8    0    1
 -2      1014      1068      1069      4094      4098      4096
 -1      2075    8    0    1
 -2      1016      1015      1070      3927      4099      4100
 -1      2076    8    0    1
 -2      1015      1069      1070      4097      4101      4099
 -1      2077    8    0    1
 -2      1017      1016      1071      3930      4102      4103
 -1      2078    8    0    1
 -2      1016      1070      1071      4100      4104      4102
 -1      2079    8    0    1
 -2      1018      1017      1072      3933      4105      4106
 -1      2080    8    0    1
 -2      1017      1071      1072      4103      4107      4105
 -1      2081    8    0    1
 -2      1019      1018      1073      3936      4108      4109
 -1      2082    8    0    1
 -2      1018      1072      1073      4106      4110      4108
 -1      2083    8    0    1
 -2      1020      1019      1074      3939      4111      4112
 -1      2084    8    0    1
 -2      1019      1073      1074      4109      4113      4111
 -1      2085    8    0    1
 -2      1021      1020      1075      3942      4114      4115
 -1      2086    8    0    1
 -2      1020      1074      1075      4112      4116      4114
 -1      2087    8    0    1
 -2      1022      1021      1076      3945      4117      4118
 -1      2088    8    0    1
 -2      1021      1075      1076      4115      4119      4117
 -1      2089    8    0    1
 -2      1023      1022      1077      3948      4120      4121
 -1      2090    8    0    1
 -2      1022      1076      1077      4118      4122      4120
 -1      2091    8    0    1
 -2      1024      1023      1078      3951      4123      4124
 -1      2092    8    0    1
 -2      1023      1077      1078      4121      4125      4123
 -1      2093    8    0    1
 -2      1025      1024      1079      3954      4126      4127
 -1      2094    8    0    1
 -2      1024      1078      1079      4124      4128      4126
 -1      2095    8    0    1
 -2      1026      1025      1080      3957      4129      4130
 -1      2096    8    0    1
 -2      1025      1079      1080      4127      4131      4129
 -1      2097    8    0    1
 -2      1027      1026      1081      3960      4132      4133
 -1      2098    8    0    1
 -2      1026      1080      1081      4130      4134      4132
 -1      2099    8    0    1
 -2      1028      1027      1060      3963      4135      4069
 -1      2100    8    0    1
 -2       998      1030      1059      3968      4067      4136
 -1      2101    8    0    1
 -2      1033      1034      1082      3980      4137      4138
 -1      2102    8    0    1
 -2       985      1003      1045      4037      4072      4011
 -1      2103    8    0    1
 -2      1031      1032      1083      3974      4139      4140
 -1      2104    8    0    1
 -2      1034      1035      1084      3983      4141      4142
 -1      2105    8    0    1
 -2      1034      1084      1082      4142      4143      4137
 -1      2106    8    0    1
 -2      1035      1036      1085      3986      4144      4145
 -1      2107    8    0    1
 -2      1035      1085      1084      4145      4146      4141
 -1      2108    8    0    1
 -2      1036      1037      1086      3989      4147      4148
 -1      2109    8    0    1
 -2      1036      1086      1085      4148      4149      4144
 -1      2110    8    0    1
 -2      1037      1038      1087      3992      4150      4151
 -1      2111    8    0    1
 -2      1037      1087      1086      4151      4152      4147
 -1      2112    8    0    1
 -2      1038      1039      1088      3995      4153      4154
 -1      2113    8    0    1
 -2      1038      1088      1087      4154      4155      4150
 -1      2114    8    0    1
 -2      1039      1040      1089      3998      4156      4157
 -1      2115    8    0    1
 -2      1039      1089      1088      4157      4158      4153
 -1      2116    8    0    1
 -2      1040      1041      1090      4001      4159      4160
 -1      2117    8    0    1
 -2      1040      1090      1089      4160      4161      4156
 -1      2118    8    0    1
 -2      1041      1042      1091      4004      4162      4163
 -1      2119    8    0    1
 -2      1041      1091      1090      4163      4164      4159
 -1      2120    8    0    1
 -2      1042      1043      1092      4007      4165      4166
 -1      2121    8    0    1
 -2      1042      1092      1091      4166      4167      4162
 -1      2122    8    0    1
 -2      1043      1044      1093      4010      4168      4169
 -1      2123    8    0    1
 -2      1092      1043      1093      4165      4169      4170
 -1      2124    8    0    1
 -2      1044      1049      1093      4064      4171      4168
 -1      2125    8    0    1
 -2      1055      1004      1094      4048      4172      4173
 -1      2126    8    0    1
 -2      1028       995      1001      4068      3883      4174
 -1      2127    8    0    1
 -2      1032      1033      1095      3977      4175      4176
 -1      2128    8    0    1
 -2      1033      1082      1095      4138      4177      4175
 -1      2129    8    0    1
 -2      1004      1050      1096      4026      4178      4179
 -1      2130    8    0    1
 -2      1004      1096      1094      4179      4180      4172
 -1      2131    8    0    1
 -2      1048      1046      1097      4020      4181      4182
 -1      2132    8    0    1
 -2       999      1028      1001      4033      4174      4056
 -1      2133    8    0    1
 -2      1046      1045      1098      4015      4183      4184
 -1      2134    8    0    1
 -2      1097      1046      1098      4181      4184      4185
 -1      2135    8    0    1
 -2      1045      1051      1098      4071      4186      4183
 -1      2136    8    0    1
 -2      1059      1047      1099      4070      4187      4188
 -1      2137    8    0    1
 -2      1002       993      1100      4049      4189      4190
 -1      2138    8    0    1
 -2       993      1052      1100      4031      4191      4189
 -1      2139    8    0    1
 -2      1005      1048      1101      4055      4192      4193
 -1      2140    8    0    1
 -2      1048      1097      1101      4182      4194      4192
 -1      2141    8    0    1
 -2      1006      1005      1102      3897      4195      4196
 -1      2142    8    0    1
 -2      1005      1101      1102      4193      4197      4195
 -1      2143    8    0    1
 -2      1050      1031      1103      4053      4198      4199
 -1      2144    8    0    1
 -2      1096      1050      1103      4178      4199      4200
 -1      2145    8    0    1
 -2      1031      1083      1103      4140      4201      4198
 -1      2146    8    0    1
 -2      1049      1060      1093      4063      4202      4171
 -1      2147    8    0    1
 -2      1000       994      1104      4054      4203      4204
 -1      2148    8    0    1
 -2      1057      1000      1104      4052      4204      4205
 -1      2149    8    0    1
 -2       994      1054      1104      4039      4206      4203
 -1      2150    8    0    1
 -2      1060      1027      1081      4135      4133      4207
 -1      2151    8    0    1
 -2      1054      1056      1105      4045      4208      4209
 -1      2152    8    0    1
 -2      1061      1006      1102      4073      4196      4210
 -1      2153    8    0    1
 -2      1053      1055      1106      4042      4211      4212
 -1      2154    8    0    1
 -2      1055      1094      1106      4173      4213      4211
 -1      2155    8    0    1
 -2      1056      1002      1100      4043      4190      4214
 -1      2156    8    0    1
 -2      1083      1032      1095      4139      4176      4215
 -1      2157    8    0    1
 -2      1098      1051      1058      4186      4059      4216
 -1      2158    8    0    1
 -2      1093      1060      1081      4202      4207      4217
 -1      2159    8    0    1
 -2      1099      1047      1107      4187      4218      4219
 -1      2160    8    0    1
 -2      1047      1057      1107      4051      4220      4218
 -1      2161    8    0    1
 -2      1052      1029      1108      4029      4221      4222
 -1      2162    8    0    1
 -2      1029      1053      1109      4035      4223      4224
 -1      2163    8    0    1
 -2      1053      1106      1109      4212      4225      4223
 -1      2164    8    0    1
 -2      1104      1054      1110      4206      4226      4227
 -1      2165    8    0    1
 -2      1054      1105      1110      4209      4228      4226
 -1      2166    8    0    1
 -2       998      1059      1099      4136      4188      4229
 -1      2167    8    0    1
 -2      1108      1029      1109      4221      4224      4230
 -1      2168    8    0    1
 -2      1061      1102      1105      4210      4231      4232
 -1      2169    8    0    1
 -2      1105      1056      1111      4208      4233      4234
 -1      2170    8    0    1
 -2      1056      1100      1111      4214      4235      4233
 -1      2171    8    0    1
 -2      1063      1062      1112      4080      4236      4237
 -1      2172    8    0    1
 -2      1064      1063      1108      4083      4238      4239
 -1      2173    8    0    1
 -2      1065      1064      1109      4086      4240      4241
 -1      2174    8    0    1
 -2      1066      1065      1106      4089      4242      4243
 -1      2175    8    0    1
 -2      1067      1066      1094      4092      4244      4245
 -1      2176    8    0    1
 -2      1068      1067      1096      4095      4246      4247
 -1      2177    8    0    1
 -2      1069      1068      1103      4098      4248      4249
 -1      2178    8    0    1
 -2      1070      1069      1083      4101      4250      4251
 -1      2179    8    0    1
 -2      1071      1070      1095      4104      4252      4253
 -1      2180    8    0    1
 -2      1072      1071      1082      4107      4254      4255
 -1      2181    8    0    1
 -2      1073      1072      1084      4110      4256      4257
 -1      2182    8    0    1
 -2      1074      1073      1085      4113      4258      4259
 -1      2183    8    0    1
 -2      1075      1074      1086      4116      4260      4261
 -1      2184    8    0    1
 -2      1076      1075      1087      4119      4262      4263
 -1      2185    8    0    1
 -2      1077      1076      1088      4122      4264      4265
 -1      2186    8    0    1
 -2      1078      1077      1089      4125      4266      4267
 -1      2187    8    0    1
 -2      1079      1078      1090      4128      4268      4269
 -1      2188    8    0    1
 -2      1080      1079      1091      4131      4270      4271
 -1      2189    8    0    1
 -2      1081      1080      1092      4134      4272      4273
 -1      2190    8    0    1
 -2      1088      1076      1087      4264      4263      4155
 -1      2191    8    0    1
 -2      1087      1075      1086      4262      4261      4152
 -1      2192    8    0    1
 -2      1084      1085      1073      4146      4258      4257
 -1      2193    8    0    1
 -2      1094      1066      1106      4244      4243      4213
 -1      2194    8    0    1
 -2      1086      1074      1085      4260      4259      4149
 -1      2195    8    0    1
 -2      1062      1061      1111      4077      4274      4275
 -1      2196    8    0    1
 -2      1082      1084      1072      4143      4256      4255
 -1      2197    8    0    1
 -2      1088      1089      1077      4158      4266      4265
 -1      2198    8    0    1
 -2      1089      1090      1078      4161      4268      4267
 -1      2199    8    0    1
 -2      1090      1091      1079      4164      4270      4269
 -1      2200    8    0    1
 -2      1091      1092      1080      4167      4272      4271
 -1      2201    8    0    1
 -2      1092      1093      1081      4170      4217      4273
 -1      2202    8    0    1
 -2      1057      1104      1113      4205      4276      4277
 -1      2203    8    0    1
 -2      1107      1057      1113      4220      4277      4278
 -1      2204    8    0    1
 -2      1104      1110      1113      4227      4279      4276
 -1      2205    8    0    1
 -2      1109      1064      1108      4240      4239      4230
 -1      2206    8    0    1
 -2      1095      1082      1071      4177      4254      4253
 -1      2207    8    0    1
 -2      1083      1069      1103      4250      4249      4201
 -1      2208    8    0    1
 -2      1105      1102      1110      4231      4280      4228
 -1      2209    8    0    1
 -2      1061      1105      1111      4232      4234      4274
 -1      2210    8    0    1
 -2      1100      1052      1114      4191      4281      4282
 -1      2211    8    0    1
 -2      1111      1100      1114      4235      4282      4283
 -1      2212    8    0    1
 -2      1052      1108      1114      4222      4284      4281
 -1      2213    8    0    1
 -2      1096      1067      1094      4246      4245      4180
 -1      2214    8    0    1
 -2      1083      1095      1070      4215      4252      4251
 -1      2215    8    0    1
 -2      1101      1097      1113      4194      4285      4286
 -1      2216    8    0    1
 -2      1102      1101      1110      4197      4287      4280
 -1      2217    8    0    1
 -2      1065      1109      1106      4241      4225      4242
 -1      2218    8    0    1
 -2      1068      1096      1103      4247      4200      4248
 -1      2219    8    0    1
 -2       998      1099      1058      4229      4288      4057
 -1      2220    8    0    1
 -2      1101      1113      1110      4286      4279      4287
 -1      2221    8    0    1
 -2      1098      1058      1115      4216      4289      4290
 -1      2222    8    0    1
 -2      1098      1115      1097      4290      4291      4185
 -1      2223    8    0    1
 -2      1108      1063      1112      4238      4237      4292
 -1      2224    8    0    1
 -2      1058      1099      1115      4288      4293      4289
 -1      2225    8    0    1
 -2      1112      1062      1111      4236      4275      4294
 -1      2226    8    0    1
 -2      1099      1107      1115      4219      4295      4293
 -1      2227    8    0    1
 -2      1114      1108      1112      4284      4292      4296
 -1      2228    8    0    1
 -2      1111      1114      1112      4283      4296      4294
 -1      2229    8    0    1
 -2      1113      1097      1107      4285      4297      4278
 -1      2230    8    0    1
 -2      1097      1115      1107      4291      4295      4297
 -3
    1PSTEP                         1           1           1          
  100CL  101 1.000000000        4297                     0    1           1
 -4  DISP        4    1
 -5  D1          1    2    1    0
 -5  D2          1    2    2    0
 -5  D3          1    2    3    0
 -5  ALL         1    2    0    0    1ALL
 -1         1 1.37599E-02-8.00835E-04-9.63649E-14
 -1         2 1.41935E-02-2.63718E-04-9.80151E-14
 -1         3 1.44683E-02-1.97589E-05-1.29602E-13
 -1         4 1.49800E-02-6.45089E-04-1.32137E-13
 -1         5 0.00000E+00 0.00000E+00 0.00000E+00
 -1         6 0.00000E+00 0.00000E+00 0.00000E+00
 -1         7 0.00000E+00 0.00000E+00 0.00000E+00
 -1         8 0.00000E+00 0.00000E+00 0.00000E+00
 -1         9 0.00000E+00 0.00000E+00 0.00000E+00
 -1        10 0.00000E+00 0.00000E+00 0.00000E+00
 -1        11 0.00000E+00 0.00000E+00 0.00000E+00
 -1        12 0.00000E+00 0.00000E+00 0.00000E+00
 -1        13 0.00000E+00 0.00000E+00 0.00000E+00
 -1        14 0.00000E+00 0.00000E+00 0.00000E+00
 -1        15 0.00000E+00 0.00000E+00 0.00000E+00
 -1        16 0.00000E+00 0.00000E+00 0.00000E+00
 -1        17 0.00000E+00 0.00000E+00 0.00000E+00
 -1        18 0.00000E+00 0.00000E+00 0.00000E+00
 -1        19 0.00000E+00 0.00000E+00 0.00000E+00
 -1        20 0.00000E+00 0.00000E+00 0.00000E+00
 -1        21 0.00000E+00 0.00000E+00 0.00000E+00
 -1        22 0.00000E+00 0.00000E+00 0.00000E+00
 -1        23 4.11410E-04-2.60751E-04 4.17248E-17
 -1        24 7.03418E-04-4.01015E-04-5.79133E-17
 -1        25 9.73508E-04-4.98413E-04-2.95133E-16
 -1        26 1.23802E-03-5.67180E-04-6.68082E-16
 -1        27 1.50157E-03-6.16463E-04-1.17416E-15
 -1        28 1.76625E-03-6.51648E-04-1.81205E-15
 -1        29 2.03302E-03-6.76443E-04-2.58100E-15
 -1        30 2.30223E-03-6.93544E-04-3.48057E-15
 -1        31 2.57394E-03-7.04968E-04-4.50988E-15
 -1        32 2.84800E-03-7.12238E-04-5.66587E-15
 -1        33 3.12418E-03-7.16504E-04-6.94477E-15
 -1        34 3.40220E-03-7.18617E-04-8.34190E-15
 -1        35 3.68178E-03-7.19201E-04-9.86129E-15
 -1        36 3.96265E-03-7.18694E-04-1.14988E-14
 -1        37 4.24457E-03-7.17390E-04-1.32480E-14
 -1        38 4.52735E-03-7.15468E-04-1.51074E-14
 -1        39 4.81086E-03-7.13021E-04-1.70759E-14
 -1        40 5.09500E-03-7.10073E-04-1.91556E-14
 -1        41 5.37976E-03-7.06601E-04-2.13443E-14
 -1        42 5.66520E-03-7.02546E-04-2.36421E-14
 -1        43 5.95145E-03-6.97840E-04-2.60457E-14
 -1        44 6.23876E-03-6.92415E-04-2.85542E-14
 -1        45 6.52751E-03-6.86241E-04-3.11704E-14
 -1        46 6.81821E-03-6.79353E-04-3.38969E-14
 -1        47 7.11157E-03-6.71904E-04-3.67308E-14
 -1        48 7.40850E-03-6.64232E-04-3.96704E-14
 -1        49 7.71017E-03-6.56960E-04-4.27117E-14
 -1        50 8.01803E-03-6.51129E-04-4.58542E-14
 -1        51 8.33376E-03-6.48374E-04-4.90839E-14
 -1        52 8.65925E-03-6.51152E-04-5.24000E-14
 -1        53 8.99633E-03-6.62985E-04-5.57987E-14
 -1        54 9.34633E-03-6.88653E-04-5.92797E-14
 -1        55 9.70929E-03-7.34122E-04-6.28405E-14
 -1        56 1.00826E-02-8.05850E-04-6.64833E-14
 -1        57 1.04598E-02-9.08861E-04-7.02026E-14
 -1        58 1.08292E-02-1.04312E-03-7.39786E-14
 -1        59 1.11758E-02-1.19869E-03-7.78143E-14
 -1        60 1.14864E-02-1.35246E-03-8.17101E-14
 -1        61 1.17580E-02-1.47139E-03-8.56686E-14
 -1        62 1.20034E-02-1.52513E-03-8.96963E-14
 -1        63 1.22473E-02-1.50209E-03-9.37902E-14
 -1        64 1.25130E-02-1.41599E-03-9.79324E-14
 -1        65 1.28104E-02-1.29665E-03-1.02127E-13
 -1        66 1.31336E-02-1.17349E-03-1.06388E-13
 -1        67 1.34683E-02-1.06423E-03-1.10703E-13
 -1        68 1.37998E-02-9.73019E-04-1.15014E-13
 -1        69 1.41182E-02-8.94227E-04-1.19327E-13
 -1        70 1.44203E-02-8.17682E-04-1.23648E-13
 -1        71 1.47095E-02-7.33931E-04-1.27985E-13
 -1        72 4.13853E-04 2.61456E-04 5.92381E-17
 -1        73 7.03238E-04 4.03719E-04-1.05913E-17
 -1        74 9.74042E-04 5.00183E-04-2.06290E-16
 -1        75 1.23885E-03 5.68891E-04-5.30571E-16
 -1        76 1.50252E-03 6.18223E-04-9.83900E-16
 -1        77 1.76727E-03 6.53498E-04-1.56650E-15
 -1        78 2.03408E-03 6.78403E-04-2.27630E-15
 -1        79 2.30332E-03 6.95625E-04-3.10996E-15
 -1        80 2.57504E-03 7.07176E-04-4.06667E-15
 -1        81 2.84911E-03 7.14577E-04-5.14640E-15
 -1        82 3.12530E-03 7.18975E-04-6.35067E-15
 -1        83 3.40333E-03 7.21222E-04-7.67458E-15
 -1        84 3.68292E-03 7.21940E-04-9.11836E-15
 -1        85 3.96379E-03 7.21569E-04-1.06842E-14
 -1        86 4.24572E-03 7.20402E-04-1.23695E-14
 -1        87 4.52852E-03 7.18622E-04-1.41769E-14
 -1        88 4.81205E-03 7.16326E-04-1.61019E-14
 -1        89 5.09622E-03 7.13544E-04-1.81473E-14
 -1        90 5.38103E-03 7.10262E-04-2.03161E-14
 -1        91 5.66651E-03 7.06438E-04-2.25959E-14
 -1        92 5.95282E-03 7.02023E-04-2.49829E-14
 -1        93 6.24018E-03 6.96988E-04-2.74711E-14
 -1        94 6.52894E-03 6.91348E-04-3.00666E-14
 -1        95 6.81956E-03 6.85199E-04-3.27675E-14
 -1        96 7.11262E-03 6.78775E-04-3.55739E-14
 -1        97 7.40888E-03 6.72502E-04-3.84755E-14
 -1        98 7.70917E-03 6.67080E-04-4.14672E-14
 -1        99 8.01444E-03 6.63571E-04-4.45464E-14
 -1       100 8.32560E-03 6.63489E-04-4.77149E-14
 -1       101 8.64337E-03 6.68871E-04-5.09552E-14
 -1       102 8.96806E-03 6.82269E-04-5.42671E-14
 -1       103 9.29910E-03 7.06594E-04-5.76573E-14
 -1       104 9.63460E-03 7.44684E-04-6.11246E-14
 -1       105 9.97087E-03 7.98444E-04-6.46745E-14
 -1       106 1.03023E-02 8.67524E-04-6.83023E-14
 -1       107 1.06216E-02 9.47691E-04-7.20115E-14
 -1       108 1.09220E-02 1.02961E-03-7.57914E-14
 -1       109 1.11994E-02 1.09915E-03-7.96296E-14
 -1       110 1.14552E-02 1.14033E-03-8.35308E-14
 -1       111 1.16973E-02 1.14034E-03-8.74928E-14
 -1       112 1.19378E-02 1.09457E-03-9.15174E-14
 -1       113 1.21880E-02 1.00826E-03-9.56046E-14
 -1       114 1.24542E-02 8.93716E-04-9.97607E-14
 -1       115 1.27364E-02 7.64910E-04-1.03965E-13
 -1       116 1.30293E-02 6.32623E-04-1.08192E-13
 -1       117 1.33262E-02 5.02171E-04-1.12454E-13
 -1       118 1.36211E-02 3.73733E-04-1.16767E-13
 -1       119 1.39113E-02 2.44344E-04-1.21109E-13
 -1       120 1.41974E-02 1.10790E-04-1.25466E-13
 -1       121 1.46044E-02-1.04579E-04-1.29823E-13
 -1       122 1.47449E-02-1.88509E-04-1.30061E-13
 -1       123 1.48917E-02-2.67339E-04-1.30297E-13
 -1       124 1.50434E-02-3.35939E-04-1.30521E-13
 -1       125 1.51958E-02-3.88844E-04-1.30710E-13
 -1       126 1.53384E-02-4.20905E-04-1.30886E-13
 -1       127 1.54654E-02-4.30907E-04-1.31055E-13
 -1       128 1.55614E-02-4.19923E-04-1.31235E-13
 -1       129 1.56155E-02-3.94778E-04-1.31405E-13
 -1       130 1.56220E-02-3.66262E-04-1.31560E-13
 -1       131 1.55823E-02-3.46360E-04-1.31682E-13
 -1       132 1.55064E-02-3.44789E-04-1.31803E-13
 -1       133 1.54043E-02-3.66883E-04-1.31889E-13
 -1       134 1.52906E-02-4.13411E-04-1.31948E-13
 -1       135 1.51777E-02-4.80924E-04-1.32021E-13
 -1       136 1.50733E-02-5.61351E-04-1.32081E-13
 -1       137 1.41296E-02-6.75852E-05-9.77124E-14
 -1       138 1.39739E-02 1.09735E-04-9.70439E-14
 -1       139 1.36908E-02 2.95025E-04-9.58633E-14
 -1       140 1.33233E-02 4.50914E-04-9.43376E-14
 -1       141 1.28739E-02 5.75398E-04-9.24714E-14
 -1       142 1.24216E-02 6.50974E-04-9.06049E-14
 -1       143 1.19409E-02 6.87137E-04-8.86218E-14
 -1       144 1.14425E-02 6.79250E-04-8.65754E-14
 -1       145 1.09615E-02 6.24554E-04-8.45974E-14
 -1       146 1.05422E-02 5.33027E-04-8.28953E-14
 -1       147 1.01944E-02 4.11045E-04-8.14949E-14
 -1       148 9.91589E-03 2.59324E-04-8.03882E-14
 -1       149 9.72851E-03 8.54067E-05-7.96707E-14
 -1       150 9.64890E-03-8.90369E-05-7.94020E-14
 -1       151 9.67027E-03-2.85349E-04-7.95537E-14
 -1       152 9.79345E-03-4.70593E-04-8.01202E-14
 -1       153 1.00096E-02-6.46806E-04-8.10582E-14
 -1       154 1.03138E-02-8.10007E-04-8.23395E-14
 -1       155 1.06779E-02-9.46097E-04-8.38502E-14
 -1       156 1.11162E-02-1.05737E-03-8.56533E-14
 -1       157 1.15808E-02-1.12627E-03-8.75474E-14
 -1       158 1.20446E-02-1.15098E-03-8.94303E-14
 -1       159 1.25412E-02-1.12901E-03-9.14499E-14
 -1       160 1.29997E-02-1.06072E-03-9.33027E-14
 -1       161 1.34017E-02-9.53188E-04-9.49265E-14
 -1       162 1.40044E-02-6.33863E-04-9.73325E-14
 -1       163 1.41469E-02-4.58188E-04-9.78727E-14
 -1       164 2.40415E-04-1.25521E-04-2.31376E-17
 -1       165 2.25273E-04-9.46207E-05-4.28023E-17
 -1       166 2.19527E-04-7.27863E-05-5.37154E-17
 -1       167 2.16711E-04-5.51086E-05-5.97395E-17
 -1       168 2.15215E-04-3.99693E-05-6.28295E-17
 -1       169 2.14378E-04-2.59172E-05-6.43101E-17
 -1       170 2.13959E-04-1.26453E-05-6.49911E-17
 -1       171 2.13837E-04 2.72764E-07-6.50962E-17
 -1       172 2.13979E-04 1.32032E-05-6.43000E-17
 -1       173 2.14420E-04 2.65151E-05-6.25856E-17
 -1       174 2.15265E-04 4.03959E-05-5.96752E-17
 -1       175 2.16815E-04 5.59168E-05-5.49521E-17
 -1       176 2.19674E-04 7.38201E-05-4.72611E-17
 -1       177 2.25450E-04 9.60226E-05-3.42337E-17
 -1       178 2.39346E-04 1.27602E-04-1.16958E-17
 -1       179 2.97725E-04 1.85511E-04 1.23464E-17
 -1       180 4.68653E-04-2.63569E-04-6.48319E-17
 -1       181 7.66812E-04-3.82181E-04-2.60849E-16
 -1       182 1.05067E-03-4.65082E-04-5.86052E-16
 -1       183 1.32808E-03-5.23879E-04-1.04117E-15
 -1       184 1.60269E-03-5.65595E-04-1.62545E-15
 -1       185 1.87658E-03-5.94918E-04-2.33790E-15
 -1       186 2.15089E-03-6.15149E-04-3.17943E-15
 -1       187 2.42620E-03-6.28711E-04-4.14914E-15
 -1       188 2.70278E-03-6.37413E-04-5.24491E-15
 -1       189 2.98068E-03-6.42610E-04-6.46362E-15
 -1       190 3.25987E-03-6.45311E-04-7.80231E-15
 -1       191 3.54022E-03-6.46251E-04-9.25960E-15
 -1       192 3.82160E-03-6.45955E-04-1.08354E-14
 -1       193 4.10386E-03-6.44778E-04-1.25265E-14
 -1       194 4.38689E-03-6.42947E-04-1.43295E-14
 -1       195 4.67058E-03-6.40584E-04-1.62418E-14
 -1       196 4.95488E-03-6.37731E-04-1.82637E-14
 -1       197 5.23976E-03-6.34372E-04-2.03923E-14
 -1       198 5.52526E-03-6.30448E-04-2.26317E-14
 -1       199 5.81149E-03-6.25872E-04-2.49784E-14
 -1       200 6.09860E-03-6.20551E-04-2.74329E-14
 -1       201 6.38687E-03-6.14403E-04-2.99916E-14
 -1       202 6.67666E-03-6.07392E-04-3.26603E-14
 -1       203 6.96843E-03-5.99563E-04-3.54359E-14
 -1       204 7.26283E-03-5.91107E-04-3.83167E-14
 -1       205 7.56063E-03-5.82434E-04-4.12987E-14
 -1       206 7.86276E-03-5.74301E-04-4.43806E-14
 -1       207 8.17032E-03-5.67965E-04-4.75569E-14
 -1       208 8.48453E-03-5.65403E-04-5.08200E-14
 -1       209 8.80660E-03-5.69577E-04-5.41682E-14
 -1       210 9.13755E-03-5.84712E-04-5.75977E-14
 -1       211 9.47787E-03-6.16458E-04-6.11087E-14
 -1       212 9.82699E-03-6.71667E-04-6.46970E-14
 -1       213 1.01826E-02-7.57230E-04-6.83634E-14
 -1       214 1.05399E-02-8.77301E-04-7.20994E-14
 -1       215 1.08916E-02-1.02850E-03-7.58971E-14
 -1       216 1.12293E-02-1.19444E-03-7.97521E-14
 -1       217 1.15470E-02-1.34399E-03-8.36688E-14
 -1       218 1.18462E-02-1.43949E-03-8.76499E-14
 -1       219 1.21368E-02-1.45496E-03-9.17055E-14
 -1       220 1.24324E-02-1.39209E-03-9.58206E-14
 -1       221 1.27417E-02-1.27821E-03-9.99866E-14
 -1       222 1.30643E-02-1.14864E-03-1.04207E-13
 -1       223 1.33936E-02-1.02939E-03-1.08485E-13
 -1       224 1.37212E-02-9.30815E-04-1.12789E-13
 -1       225 1.40407E-02-8.50322E-04-1.17105E-13
 -1       226 1.43490E-02-7.78032E-04-1.21426E-13
 -1       227 1.46460E-02-7.02072E-04-1.25761E-13
 -1       228 6.04599E-04 3.31061E-04-7.75781E-17
 -1       229 8.93709E-04 4.32695E-04-2.85985E-16
 -1       230 1.17261E-03 5.04461E-04-6.18192E-16
 -1       231 1.44697E-03 5.55572E-04-1.07602E-15
 -1       232 1.71979E-03 5.91847E-04-1.66001E-15
 -1       233 1.99269E-03 6.17266E-04-2.37046E-15
 -1       234 2.26652E-03 6.34701E-04-3.20510E-15
 -1       235 2.54166E-03 6.46281E-04-4.16100E-15
 -1       236 2.81827E-03 6.53605E-04-5.23796E-15
 -1       237 3.09631E-03 6.57870E-04-6.43585E-15
 -1       238 3.37568E-03 6.59962E-04-7.75589E-15
 -1       239 3.65624E-03 6.60524E-04-9.19516E-15
 -1       240 3.93782E-03 6.60007E-04-1.07542E-14
 -1       241 4.22029E-03 6.58713E-04-1.24317E-14
 -1       242 4.50350E-03 6.56824E-04-1.42281E-14
 -1       243 4.78737E-03 6.54433E-04-1.61441E-14
 -1       244 5.07185E-03 6.51564E-04-1.81795E-14
 -1       245 5.35693E-03 6.48194E-04-2.03336E-14
 -1       246 5.64268E-03 6.44267E-04-2.25998E-14
 -1       247 5.92922E-03 6.39719E-04-2.49765E-14
 -1       248 6.21674E-03 6.34496E-04-2.74562E-14
 -1       249 6.50551E-03 6.28584E-04-3.00421E-14
 -1       250 6.79592E-03 6.22049E-04-3.27305E-14
 -1       251 7.08843E-03 6.15081E-04-3.55219E-14
 -1       252 7.38361E-03 6.08061E-04-3.84131E-14
 -1       253 7.68209E-03 6.01640E-04-4.13950E-14
 -1       254 7.98457E-03 5.96833E-04-4.44659E-14
 -1       255 8.29170E-03 5.95123E-04-4.76219E-14
 -1       256 8.60400E-03 5.98547E-04-5.08544E-14
 -1       257 8.92165E-03 6.09722E-04-5.41626E-14
 -1       258 9.24427E-03 6.31730E-04-5.75440E-14
 -1       259 9.57061E-03 6.67726E-04-6.10032E-14
 -1       260 9.89830E-03 7.20119E-04-6.45458E-14
 -1       261 1.02237E-02 7.89208E-04-6.81660E-14
 -1       262 1.05423E-02 8.71404E-04-7.18646E-14
 -1       263 1.08494E-02 9.57676E-04-7.56295E-14
 -1       264 1.11423E-02 1.03350E-03-7.94566E-14
 -1       265 1.14211E-02 1.08160E-03-8.33486E-14
 -1       266 1.16905E-02 1.08744E-03-8.73021E-14
 -1       267 1.19575E-02 1.04505E-03-9.13231E-14
 -1       268 1.22293E-02 9.59411E-04-9.54050E-14
 -1       269 1.25101E-02 8.43665E-04-9.95492E-14
 -1       270 1.28001E-02 7.13076E-04-1.03741E-13
 -1       271 1.30962E-02 5.79517E-04-1.07966E-13
 -1       272 1.33941E-02 4.48848E-04-1.12224E-13
 -1       273 1.36903E-02 3.21229E-04-1.16532E-13
 -1       274 1.39826E-02 1.93225E-04-1.20872E-13
 -1       275 1.42709E-02 6.08604E-05-1.25227E-13
 -1       276 1.44266E-02-2.59722E-05-1.26165E-13
 -1       277 1.45714E-02-1.05878E-04-1.26390E-13
 -1       278 1.47233E-02-1.79831E-04-1.26607E-13
 -1       279 1.48797E-02-2.44617E-04-1.26812E-13
 -1       280 1.50317E-02-2.96171E-04-1.27000E-13
 -1       281 1.51746E-02-3.33971E-04-1.27182E-13
 -1       282 1.52926E-02-3.56829E-04-1.27363E-13
 -1       283 1.53721E-02-3.67659E-04-1.27533E-13
 -1       284 1.54035E-02-3.72454E-04-1.27691E-13
 -1       285 1.53842E-02-3.78988E-04-1.27830E-13
 -1       286 1.53214E-02-3.94318E-04-1.27949E-13
 -1       287 1.52246E-02-4.24022E-04-1.28050E-13
 -1       288 1.51094E-02-4.69881E-04-1.28131E-13
 -1       289 1.49900E-02-5.30899E-04-1.28201E-13
 -1       290 1.48150E-02-6.13583E-04-1.26979E-13
 -1       291 1.41998E-02-2.17959E-04-9.96900E-14
 -1       292 1.40437E-02-9.84327E-05-9.90002E-14
 -1       293 1.37471E-02 3.51090E-05-9.82007E-14
 -1       294 1.33658E-02 2.49412E-04-9.62898E-14
 -1       295 1.29148E-02 4.51498E-04-9.44003E-14
 -1       296 1.24994E-02 6.32077E-04-9.21053E-14
 -1       297 1.21074E-02 7.41625E-04-8.98111E-14
 -1       298 1.17170E-02 7.68602E-04-8.74092E-14
 -1       299 1.13258E-02 6.98199E-04-8.49372E-14
 -1       300 1.09072E-02 5.49427E-04-8.28783E-14
 -1       301 1.05089E-02 3.78656E-04-8.11335E-14
 -1       302 1.01543E-02 1.95067E-04-7.95030E-14
 -1       303 9.84909E-03 4.47000E-05-7.84215E-14
 -1       304 9.66344E-03-6.67115E-05-7.79368E-14
 -1       305 9.61371E-03-1.64529E-04-7.75426E-14
 -1       306 9.72288E-03-2.77747E-04-7.82677E-14
 -1       307 9.95294E-03-4.19573E-04-7.92342E-14
 -1       308 1.02794E-02-5.92876E-04-8.05198E-14
 -1       309 1.06576E-02-7.88716E-04-8.21465E-14
 -1       310 1.10658E-02-9.83015E-04-8.40350E-14
 -1       311 1.14599E-02-1.14064E-03-8.62478E-14
 -1       312 1.18406E-02-1.22079E-03-8.84669E-14
 -1       313 1.22248E-02-1.21391E-03-9.07852E-14
 -1       314 1.26333E-02-1.11001E-03-9.30483E-14
 -1       315 1.30328E-02-9.45853E-04-9.51741E-14
 -1       316 1.34348E-02-7.43687E-04-9.71660E-14
 -1       317 1.38121E-02-5.73617E-04-9.84271E-14
 -1       318 1.40720E-02-4.38336E-04-9.92416E-14
 -1       319 1.42097E-02-3.22446E-04-9.97501E-14
 -1       320 4.55301E-04-1.64754E-04-1.85233E-16
 -1       321 4.74275E-04-2.12993E-04-1.52734E-16
 -1       322 4.40440E-04-9.40225E-05-2.16990E-16
 -1       323 4.37473E-04-6.49176E-05-2.23366E-16
 -1       324 4.35850E-04-3.79100E-05-2.26449E-16
 -1       325 4.35139E-04-1.20189E-05-2.27245E-16
 -1       326 4.35171E-04 1.35377E-05-2.25927E-16
 -1       327 4.35949E-04 3.94864E-05-2.22014E-16
 -1       328 4.37616E-04 6.61456E-05-2.15309E-16
 -1       329 4.40675E-04 9.54229E-05-2.04372E-16
 -1       330 4.46067E-04 1.28337E-04-1.88268E-16
 -1       331 4.55907E-04 1.67318E-04-1.63582E-16
 -1       332 4.75907E-04 2.17062E-04-1.24998E-16
 -1       333 5.32041E-04 2.69992E-04-1.08359E-16
 -1       334 8.24533E-04 3.73542E-04-3.23289E-16
 -1       335 8.63307E-04-3.57443E-04-4.88802E-16
 -1       336 1.14967E-03-4.26217E-04-8.96696E-16
 -1       337 1.43246E-03-4.75409E-04-1.43070E-15
 -1       338 1.71318E-03-5.10170E-04-2.08978E-15
 -1       339 1.99296E-03-5.34295E-04-2.87557E-15
 -1       340 2.27256E-03-5.50604E-04-3.78722E-15
 -1       341 2.55244E-03-5.61212E-04-4.82444E-15
 -1       342 2.83286E-03-5.67705E-04-5.98403E-15
 -1       343 3.11394E-03-5.71265E-04-7.26535E-15
 -1       344 3.39570E-03-5.72762E-04-8.66377E-15
 -1       345 3.67813E-03-5.72822E-04-1.01780E-14
 -1       346 3.96117E-03-5.71877E-04-1.18102E-14
 -1       347 4.24476E-03-5.70209E-04-1.35550E-14
 -1       348 4.52886E-03-5.67983E-04-1.54116E-14
 -1       349 4.81342E-03-5.65271E-04-1.73768E-14
 -1       350 5.09844E-03-5.62074E-04-1.94487E-14
 -1       351 5.38393E-03-5.58344E-04-2.16284E-14
 -1       352 5.66996E-03-5.53992E-04-2.39168E-14
 -1       353 5.95662E-03-5.48913E-04-2.63164E-14
 -1       354 6.24408E-03-5.43001E-04-2.88208E-14
 -1       355 6.53255E-03-5.36171E-04-3.14316E-14
 -1       356 6.82231E-03-5.28400E-04-3.41497E-14
 -1       357 7.11374E-03-5.19766E-04-3.69729E-14
 -1       358 7.40730E-03-5.10522E-04-3.98964E-14
 -1       359 7.70353E-03-5.01189E-04-4.29213E-14
 -1       360 8.00308E-03-4.92688E-04-4.60410E-14
 -1       361 8.30672E-03-4.86526E-04-4.92533E-14
 -1       362 8.61531E-03-4.85029E-04-5.25506E-14
 -1       363 8.92981E-03-4.91625E-04-5.59292E-14
 -1       364 9.25128E-03-5.11109E-04-5.93871E-14
 -1       365 9.58082E-03-5.49762E-04-6.29281E-14
 -1       366 9.91932E-03-6.14985E-04-6.65444E-14
 -1       367 1.02669E-02-7.13864E-04-7.02335E-14
 -1       368 1.06215E-02-8.49734E-04-7.39868E-14
 -1       369 1.09777E-02-1.01615E-03-7.78015E-14
 -1       370 1.13266E-02-1.18975E-03-8.16809E-14
 -1       371 1.16612E-02-1.32963E-03-8.56209E-14
 -1       372 1.19833E-02-1.39228E-03-8.96313E-14
 -1       373 1.23046E-02-1.36034E-03-9.37122E-14
 -1       374 1.26356E-02-1.25559E-03-9.78507E-14
 -1       375 1.29766E-02-1.12070E-03-1.02041E-13
 -1       376 1.33194E-02-9.91715E-04-1.06286E-13
 -1       377 1.36556E-02-8.85557E-04-1.10570E-13
 -1       378 1.39806E-02-8.02692E-04-1.14877E-13
 -1       379 1.42929E-02-7.34156E-04-1.19197E-13
 -1       380 1.45579E-02-6.77901E-04-1.23084E-13
 -1       381 1.11002E-03 4.47880E-04-6.58250E-16
 -1       382 1.39078E-03 5.00964E-04-1.11568E-15
 -1       383 1.66910E-03 5.38601E-04-1.69743E-15
 -1       384 1.94651E-03 5.64910E-04-2.40470E-15
 -1       385 2.22393E-03 5.82900E-04-3.23519E-15
 -1       386 2.50191E-03 5.94804E-04-4.18593E-15
 -1       387 2.78071E-03 6.02297E-04-5.25666E-15
 -1       388 3.06045E-03 6.06631E-04-6.44722E-15
 -1       389 3.34111E-03 6.08730E-04-7.75878E-15
 -1       390 3.62265E-03 6.09265E-04-9.18871E-15
 -1       391 3.90498E-03 6.08706E-04-1.07381E-14
 -1       392 4.18800E-03 6.07365E-04-1.24046E-14
 -1       393 4.47164E-03 6.05433E-04-1.41900E-14
 -1       394 4.75583E-03 6.03005E-04-1.60941E-14
 -1       395 5.04056E-03 6.00107E-04-1.81161E-14
 -1       396 5.32582E-03 5.96709E-04-2.02547E-14
 -1       397 5.61166E-03 5.92751E-04-2.25076E-14
 -1       398 5.89818E-03 5.88156E-04-2.48715E-14
 -1       399 6.18554E-03 5.82857E-04-2.73393E-14
 -1       400 6.47397E-03 5.76819E-04-2.99116E-14
 -1       401 6.76375E-03 5.70079E-04-3.25880E-14
 -1       402 7.05525E-03 5.62793E-04-3.53675E-14
 -1       403 7.34892E-03 5.55297E-04-3.82449E-14
 -1       404 7.64525E-03 5.48186E-04-4.12140E-14
 -1       405 7.94481E-03 5.42412E-04-4.42745E-14
 -1       406 8.24814E-03 5.39388E-04-4.74194E-14
 -1       407 8.55573E-03 5.41088E-04-5.06443E-14
 -1       408 8.86792E-03 5.50097E-04-5.39447E-14
 -1       409 9.18472E-03 5.69537E-04-5.73179E-14
 -1       410 9.50560E-03 6.02748E-04-6.07687E-14
 -1       411 9.82929E-03 6.52560E-04-6.42985E-14
 -1       412 1.01535E-02 7.19993E-04-6.79095E-14
 -1       413 1.04750E-02 8.02430E-04-7.15960E-14
 -1       414 1.07898E-02 8.91708E-04-7.53492E-14
 -1       415 1.10945E-02 9.73439E-04-7.91659E-14
 -1       416 1.13881E-02 1.02921E-03-8.30450E-14
 -1       417 1.16734E-02 1.04228E-03-8.69909E-14
 -1       418 1.19561E-02 1.00465E-03-9.10054E-14
 -1       419 1.22423E-02 9.20684E-04-9.50807E-14
 -1       420 1.25355E-02 8.04394E-04-9.92157E-14
 -1       421 1.28351E-02 6.72522E-04-1.03398E-13
 -1       422 1.31380E-02 5.38127E-04-1.07618E-13
 -1       423 1.34407E-02 4.07631E-04-1.11873E-13
 -1       424 1.37400E-02 2.81254E-04-1.16176E-13
 -1       425 1.40343E-02 1.55239E-04-1.20514E-13
 -1       426 1.42313E-02 6.59773E-05-1.23336E-13
 -1       427 1.45547E-02-1.10547E-04-1.22916E-13
 -1       428 1.43982E-02-3.37587E-05-1.22709E-13
 -1       429 1.43123E-02 1.56827E-05-1.23025E-13
 -1       430 1.47121E-02-1.79277E-04-1.23111E-13
 -1       431 1.48678E-02-2.39306E-04-1.23301E-13
 -1       432 1.50064E-02-2.87126E-04-1.23485E-13
 -1       433 1.51125E-02-3.22770E-04-1.23658E-13
 -1       434 1.51721E-02-3.49643E-04-1.23824E-13
 -1       435 1.51772E-02-3.74156E-04-1.23976E-13
 -1       436 1.51311E-02-4.03061E-04-1.24103E-13
 -1       437 1.50427E-02-4.42834E-04-1.24215E-13
 -1       438 1.49284E-02-4.95348E-04-1.24308E-13
 -1       439 1.48041E-02-5.59910E-04-1.24390E-13
 -1       440 1.39219E-02-1.23285E-04-1.00784E-13
 -1       441 1.42463E-02-2.78198E-04-1.01888E-13
 -1       442 1.41319E-02-2.05745E-04-1.01474E-13
 -1       443 1.34699E-02 8.17741E-05-9.87420E-14
 -1       444 1.30907E-02 2.79552E-04-9.68243E-14
 -1       445 4.45680E-04-1.26497E-04-2.05104E-16
 -1       446 1.22423E-02 7.13196E-04-9.13901E-14
 -1       447 1.19012E-02 7.98810E-04-8.87046E-14
 -1       448 1.15589E-02 7.74469E-04-8.59381E-14
 -1       449 1.11376E-02 6.17780E-04-8.30007E-14
 -1       450 1.07610E-02 4.29094E-04-8.08662E-14
 -1       451 1.04000E-02 2.43372E-04-7.90898E-14
 -1       452 1.00120E-02 5.40203E-05-7.70537E-14
 -1       453 9.72968E-03-5.83493E-05-7.62920E-14
 -1       454 9.60754E-03-1.18184E-04-7.58949E-14
 -1       455 9.64788E-03-1.91444E-04-7.63559E-14
 -1       456 9.84453E-03-2.79936E-04-7.70778E-14
 -1       457 1.01531E-02-4.22258E-04-7.83435E-14
 -1       458 1.05445E-02-6.16136E-04-7.98207E-14
 -1       459 1.08813E-02-8.14565E-04-8.16878E-14
 -1       460 1.13455E-02-1.07939E-03-8.46025E-14
 -1       461 1.16871E-02-1.22040E-03-8.71363E-14
 -1       462 1.20155E-02-1.26721E-03-8.97208E-14
 -1       463 1.23891E-02-1.18839E-03-9.26835E-14
 -1       464 1.27547E-02-1.02786E-03-9.49267E-14
 -1       465 1.31572E-02-8.16244E-04-9.72797E-14
 -1       466 1.36136E-02-5.78620E-04-9.97548E-14
 -1       467 1.39472E-02-4.40157E-04-1.00630E-13
 -1       468 1.41635E-02-3.46816E-04-1.01284E-13
 -1       469 1.26059E-02 5.38278E-04-9.41626E-14
 -1       470 1.13554E-02 7.18106E-04-8.39893E-14
 -1       471 9.57781E-03-1.43177E-04-7.47135E-14
 -1       472 9.31279E-04 3.46073E-04-5.61491E-16
 -1       473 6.65827E-04-7.51485E-05-4.80745E-16
 -1       474 6.69788E-04-1.15913E-04-4.71960E-16
 -1       475 6.63160E-04 1.10521E-06-4.83486E-16
 -1       476 6.63880E-04 3.87748E-05-4.78143E-16
 -1       477 6.66018E-04 7.68351E-05-4.68003E-16
 -1       478 6.70109E-04 1.17753E-04-4.51713E-16
 -1       479 6.77117E-04 1.62375E-04-4.27609E-16
 -1       480 6.89033E-04 2.12742E-04-3.92817E-16
 -1       481 1.21717E-03 4.06580E-04-9.78692E-16
 -1       482 9.76321E-04-3.28683E-04-7.44210E-16
 -1       483 1.26222E-03-3.83568E-04-1.22973E-15
 -1       484 1.54726E-03-4.23345E-04-1.83807E-15
 -1       485 1.83139E-03-4.51428E-04-2.56977E-15
 -1       486 2.11493E-03-4.70719E-04-3.42575E-15
 -1       487 2.39820E-03-4.83508E-04-4.40565E-15
 -1       488 2.68145E-03-4.91561E-04-5.50817E-15
 -1       489 2.96483E-03-4.96215E-04-6.72971E-15
 -1       490 3.24844E-03-4.98468E-04-8.07069E-15
 -1       491 3.53233E-03-4.99049E-04-9.52720E-15
 -1       492 3.81651E-03-4.98470E-04-1.11000E-14
 -1       493 4.10097E-03-4.97076E-04-1.27864E-14
 -1       494 4.38571E-03-4.95080E-04-1.45843E-14
 -1       495 4.67071E-03-4.92592E-04-1.64925E-14
 -1       496 4.95598E-03-4.89641E-04-1.85082E-14
 -1       497 5.24151E-03-4.86199E-04-2.06314E-14
 -1       498 5.52735E-03-4.82189E-04-2.28614E-14
 -1       499 5.81354E-03-4.77509E-04-2.52046E-14
 -1       500 6.10014E-03-4.72046E-04-2.76561E-14
 -1       501 6.38726E-03-4.65694E-04-3.02124E-14
 -1       502 6.67502E-03-4.58386E-04-3.28727E-14
 -1       503 6.96359E-03-4.50127E-04-3.56388E-14
 -1       504 7.25315E-03-4.41052E-04-3.85069E-14
 -1       505 7.54395E-03-4.31493E-04-4.14759E-14
 -1       506 7.83627E-03-4.22085E-04-4.45387E-14
 -1       507 8.13051E-03-4.13900E-04-4.76964E-14
 -1       508 8.42716E-03-4.08626E-04-5.09454E-14
 -1       509 8.72698E-03-4.08789E-04-5.42757E-14
 -1       510 9.03114E-03-4.18013E-04-5.76835E-14
 -1       511 9.34151E-03-4.41283E-04-6.11735E-14
 -1       512 9.66088E-03-4.85142E-04-6.47399E-14
 -1       513 9.99292E-03-5.57585E-04-6.83797E-14
 -1       514 1.03412E-02-6.66969E-04-7.20912E-14
 -1       515 1.07060E-02-8.18260E-04-7.58647E-14
 -1       516 1.10802E-02-1.00413E-03-7.96981E-14
 -1       517 1.14496E-02-1.18973E-03-8.36031E-14
 -1       518 1.18050E-02-1.31589E-03-8.75684E-14
 -1       519 1.21514E-02-1.32904E-03-9.16087E-14
 -1       520 1.25065E-02-1.23412E-03-9.57149E-14
 -1       521 1.28741E-02-1.08729E-03-9.98753E-14
 -1       522 1.32418E-02-9.44084E-04-1.04089E-13
 -1       523 1.35962E-02-8.29990E-04-1.08352E-13
 -1       524 1.39317E-02-7.46428E-04-1.12646E-13
 -1       525 1.42492E-02-6.83427E-04-1.16960E-13
 -1       526 1.40765E-02-1.98743E-04-1.03456E-13
 -1       527 1.78403E-03 4.81186E-04-2.17781E-15
 -1       528 2.06602E-03 5.02560E-04-2.96121E-15
 -1       529 2.34777E-03 5.16896E-04-3.86394E-15
 -1       530 2.62960E-03 5.26100E-04-4.88557E-15
 -1       531 2.91173E-03 5.31613E-04-6.02653E-15
 -1       532 3.19427E-03 5.34510E-04-7.28618E-15
 -1       533 3.47726E-03 5.35577E-04-8.66401E-15
 -1       534 3.76069E-03 5.35374E-04-1.01588E-14
 -1       535 4.04454E-03 5.34281E-04-1.17717E-14
 -1       536 4.32879E-03 5.32541E-04-1.35026E-14
 -1       537 4.61341E-03 5.30288E-04-1.53505E-14
 -1       538 4.89839E-03 5.27574E-04-1.73151E-14
 -1       539 5.18372E-03 5.24386E-04-1.93959E-14
 -1       540 5.46944E-03 5.20670E-04-2.15913E-14
 -1       541 5.75560E-03 5.16346E-04-2.38990E-14
 -1       542 6.04229E-03 5.11328E-04-2.63142E-14
 -1       543 6.32964E-03 5.05546E-04-2.88329E-14
 -1       544 6.61780E-03 4.98978E-04-3.14562E-14
 -1       545 6.90701E-03 4.91691E-04-3.41833E-14
 -1       546 7.19753E-03 4.83889E-04-3.70106E-14
 -1       547 7.48969E-03 4.75984E-04-3.99300E-14
 -1       548 7.78389E-03 4.68681E-04-4.29463E-14
 -1       549 8.08059E-03 4.63077E-04-4.60492E-14
 -1       550 8.38035E-03 4.60768E-04-4.92348E-14
 -1       551 8.68376E-03 4.63948E-04-5.24994E-14
 -1       552 8.99150E-03 4.75442E-04-5.58370E-14
 -1       553 9.30422E-03 4.98611E-04-5.92503E-14
 -1       554 9.62233E-03 5.36990E-04-6.27381E-14
 -1       555 9.94566E-03 5.93449E-04-6.63027E-14
 -1       556 1.02729E-02 6.68678E-04-6.99491E-14
 -1       557 1.06007E-02 7.58888E-04-7.36660E-14
 -1       558 1.09245E-02 8.53201E-04-7.74457E-14
 -1       559 1.12397E-02 9.33044E-04-8.12878E-14
 -1       560 1.15452E-02 9.75962E-04-8.51986E-14
 -1       561 1.18452E-02 9.64870E-04-8.91783E-14
 -1       562 1.21469E-02 8.97573E-04-9.32263E-14
 -1       563 1.24556E-02 7.87484E-04-9.73292E-14
 -1       564 1.27709E-02 6.55169E-04-1.01489E-13
 -1       565 1.30885E-02 5.18415E-04-1.05688E-13
 -1       566 1.34035E-02 3.86937E-04-1.09924E-13
 -1       567 1.37122E-02 2.62505E-04-1.14204E-13
 -1       568 1.40130E-02 1.41568E-04-1.18529E-13
 -1       569 1.45446E-02-1.40509E-04-1.19431E-13
 -1       570 1.47026E-02-2.11144E-04-1.19617E-13
 -1       571 1.42213E-02 2.43119E-05-1.19040E-13
 -1       572 1.43812E-02-6.07185E-05-1.19236E-13
 -1       573 1.48378E-02-2.68467E-04-1.19794E-13
 -1       574 1.49306E-02-3.12695E-04-1.19962E-13
 -1       575 1.49659E-02-3.49304E-04-1.20119E-13
 -1       576 1.49402E-02-3.86668E-04-1.20256E-13
 -1       577 1.48613E-02-4.34197E-04-1.20378E-13
 -1       578 1.47473E-02-4.95029E-04-1.20485E-13
 -1       579 1.46176E-02-5.67922E-04-1.20575E-13
 -1       580 1.42509E-02-3.11526E-04-1.03731E-13
 -1       581 1.50128E-03 4.50274E-04-1.51683E-15
 -1       582 1.37113E-02-5.80740E-05-1.01747E-13
 -1       583 1.32663E-02 1.53667E-04-9.97270E-14
 -1       584 7.12689E-04-2.51903E-04-4.17584E-16
 -1       585 1.41018E-02-3.69763E-04-1.03250E-13
 -1       586 1.03062E-02-4.60901E-04-7.70916E-14
 -1       587 9.80442E-03-2.52643E-05-7.44171E-14
 -1       588 6.63767E-04-3.65289E-05-4.84571E-16
 -1       589 1.17209E-02 8.19439E-04-8.71300E-14
 -1       590 9.70742E-03-2.02992E-04-7.48600E-14
 -1       591 1.23588E-02 6.57697E-04-9.32526E-14
 -1       592 1.20688E-02 7.77307E-04-9.05423E-14
 -1       593 1.09501E-02 5.21459E-04-8.08200E-14
 -1       594 1.05863E-02 3.25137E-04-7.85031E-14
 -1       595 1.02106E-02 1.38541E-04-7.64757E-14
 -1       596 9.62751E-03-9.40004E-05-7.43025E-14
 -1       597 1.15484E-02-1.17798E-03-8.55394E-14
 -1       598 1.00037E-02-3.18400E-04-7.58409E-14
 -1       599 1.07451E-02-7.07512E-04-7.94086E-14
 -1       600 1.11462E-02-9.54525E-04-8.22337E-14
 -1       601 1.18320E-02-1.27155E-03-8.81068E-14
 -1       602 1.21910E-02-1.26345E-03-9.15366E-14
 -1       603 1.26009E-02-1.10238E-03-9.50989E-14
 -1       604 1.29351E-02-9.20425E-04-9.74573E-14
 -1       605 1.33539E-02-6.94380E-04-9.99413E-14
 -1       606 1.38499E-02-4.65940E-04-1.02363E-13
 -1       607 1.42477E-02-2.60808E-04-1.03872E-13
 -1       608 7.03835E-04 2.90924E-04-3.02926E-16
 -1       609 1.28420E-02 3.88774E-04-9.70311E-14
 -1       610 6.76586E-04-1.60089E-04-4.56249E-16
 -1       611 1.11476E-02 6.39712E-04-8.17945E-14
 -1       612 1.15285E-02 7.95650E-04-8.51664E-14
 -1       613 1.44527E-02-6.47398E-04-1.19887E-13
 -1       614 1.36325E-02-5.73017E-04-1.02547E-13
 -1       615 6.91815E-04-2.02921E-04-4.42046E-16
 -1       616 9.94659E-03 5.09586E-05-7.38431E-14
 -1       617 9.58131E-03-1.57009E-04-7.32306E-14
 -1       618 9.54918E-03-1.16192E-04-7.31291E-14
 -1       619 8.99779E-04 7.41335E-05-8.16269E-16
 -1       620 8.97692E-04 2.51871E-05-8.28635E-16
 -1       621 9.11841E-04 1.78270E-04-7.65376E-16
 -1       622 9.24211E-04 2.36841E-04-7.22180E-16
 -1       623 1.04890E-03 3.13979E-04-8.30289E-16
 -1       624 1.35749E-02 2.03795E-05-1.03152E-13
 -1       625 1.38332E-03-3.37147E-04-1.58538E-15
 -1       626 1.66950E-03-3.68073E-04-2.26472E-15
 -1       627 1.95572E-03-3.89874E-04-3.06613E-15
 -1       628 2.24176E-03-4.04689E-04-3.99027E-15
 -1       629 2.52762E-03-4.14305E-04-5.03528E-15
 -1       630 2.81333E-03-4.20133E-04-6.19962E-15
 -1       631 3.09896E-03-4.23257E-04-7.48178E-15
 -1       632 3.38453E-03-4.24482E-04-8.88001E-15
 -1       633 3.67009E-03-4.24389E-04-1.03947E-14
 -1       634 3.95566E-03-4.23382E-04-1.20237E-14
 -1       635 4.24125E-03-4.21720E-04-1.37624E-14
 -1       636 4.52687E-03-4.19555E-04-1.56132E-14
 -1       637 4.81254E-03-4.16947E-04-1.75711E-14
 -1       638 5.09825E-03-4.13895E-04-1.96377E-14
 -1       639 5.38402E-03-4.10346E-04-2.18128E-14
 -1       640 5.66985E-03-4.06211E-04-2.40990E-14
 -1       641 5.95575E-03-4.01386E-04-2.64974E-14
 -1       642 6.24172E-03-3.95763E-04-2.90005E-14
 -1       643 6.52777E-03-3.89255E-04-3.16054E-14
 -1       644 6.81390E-03-3.81827E-04-3.43152E-14
 -1       645 7.10010E-03-3.73530E-04-3.71274E-14
 -1       646 7.38635E-03-3.64563E-04-4.00398E-14
 -1       647 7.67267E-03-3.55334E-04-4.30492E-14
 -1       648 7.95907E-03-3.46561E-04-4.61516E-14
 -1       649 8.24569E-03-3.39382E-04-4.93497E-14
 -1       650 8.53285E-03-3.35498E-04-5.26313E-14
 -1       651 8.82135E-03-3.37347E-04-5.59955E-14
 -1       652 9.11278E-03-3.48326E-04-5.94353E-14
 -1       653 9.41008E-03-3.73131E-04-6.29519E-14
 -1       654 9.71824E-03-4.18327E-04-6.65422E-14
 -1       655 1.00445E-02-4.93221E-04-7.02058E-14
 -1       656 1.03970E-02-6.10203E-04-7.39367E-14
 -1       657 1.07786E-02-7.81057E-04-7.77290E-14
 -1       658 1.19762E-02-1.30589E-03-8.95280E-14
 -1       659 1.23569E-02-1.24072E-03-9.36008E-14
 -1       660 1.27568E-02-1.07338E-03-9.77256E-14
 -1       661 1.31525E-02-9.05536E-04-1.01910E-13
 -1       662 1.35282E-02-7.77985E-04-1.06147E-13
 -1       663 1.38756E-02-6.92561E-04-1.10424E-13
 -1       664 1.41980E-02-6.35250E-04-1.14729E-13
 -1       665 1.44202E-02-5.94769E-04-1.17641E-13
 -1       666 1.90569E-03 4.20811E-04-2.67904E-15
 -1       667 2.76013E-03 4.55467E-04-5.59987E-15
 -1       668 3.04480E-03 4.59328E-04-6.80875E-15
 -1       669 3.32954E-03 4.61084E-04-8.13510E-15
 -1       670 3.61439E-03 4.61377E-04-9.57875E-15
 -1       671 3.89937E-03 4.60657E-04-1.11375E-14
 -1       672 4.18448E-03 4.59220E-04-1.28141E-14
 -1       673 4.46973E-03 4.57241E-04-1.46081E-14
 -1       674 4.75512E-03 4.54806E-04-1.65163E-14
 -1       675 5.04066E-03 4.51928E-04-1.85415E-14
 -1       676 5.32635E-03 4.48568E-04-2.06819E-14
 -1       677 5.61223E-03 4.44655E-04-2.29327E-14
 -1       678 5.89832E-03 4.40097E-04-2.52923E-14
 -1       679 6.18467E-03 4.34807E-04-2.77586E-14
 -1       680 6.47135E-03 4.28723E-04-3.03306E-14
 -1       681 6.75846E-03 4.21841E-04-3.30059E-14
 -1       682 7.04612E-03 4.14254E-04-3.57796E-14
 -1       683 7.33450E-03 4.06209E-04-3.86523E-14
 -1       684 7.62387E-03 3.98171E-04-4.16188E-14
 -1       685 7.91455E-03 3.90906E-04-4.46796E-14
 -1       686 8.20705E-03 3.85581E-04-4.78258E-14
 -1       687 8.50208E-03 3.83868E-04-5.10528E-14
 -1       688 8.80066E-03 3.88040E-04-5.43571E-14
 -1       689 9.10417E-03 4.01046E-04-5.77308E-14
 -1       690 9.41430E-03 4.26477E-04-6.11799E-14
 -1       691 9.73282E-03 4.68318E-04-6.47040E-14
 -1       692 1.00608E-02 5.30158E-04-6.83079E-14
 -1       693 1.03974E-02 6.13379E-04-7.19881E-14
 -1       694 1.07382E-02 7.13704E-04-7.57310E-14
 -1       695 1.10756E-02 8.16503E-04-7.95361E-14
 -1       696 1.14028E-02 8.95421E-04-8.34112E-14
 -1       697 1.17200E-02 9.19893E-04-8.73550E-14
 -1       698 1.20354E-02 8.74980E-04-9.13679E-14
 -1       699 1.23590E-02 7.70228E-04-9.54464E-14
 -1       700 1.26924E-02 6.33123E-04-9.95793E-14
 -1       701 1.30294E-02 4.90185E-04-1.03758E-13
 -1       702 1.33618E-02 3.56264E-04-1.07978E-13
 -1       703 1.36841E-02 2.34335E-04-1.12241E-13
 -1       704 1.39558E-02 1.26824E-04-1.15628E-13
 -1       705 1.46761E-02-2.67876E-04-1.16120E-13
 -1       706 1.43766E-02-1.23481E-04-1.15770E-13
 -1       707 1.47522E-02-3.15188E-04-1.16279E-13
 -1       708 1.45421E-02-2.04676E-04-1.15952E-13
 -1       709 1.18715E-02 8.33369E-04-8.87891E-14
 -1       710 1.47547E-02-3.56722E-04-1.16419E-13
 -1       711 1.46871E-02-4.07565E-04-1.16551E-13
 -1       712 1.45703E-02-4.75117E-04-1.16667E-13
 -1       713 1.62034E-03 3.96311E-04-1.94241E-15
 -1       714 1.31811E-02-8.13846E-04-1.00438E-13
 -1       715 9.50406E-04-2.70082E-04-7.81310E-16
 -1       716 1.00877E-02-3.65204E-04-7.45970E-14
 -1       717 1.04668E-02-5.66356E-04-7.63802E-14
 -1       718 1.42436E-02-3.40166E-04-1.05656E-13
 -1       719 9.62300E-03-6.43045E-05-7.22474E-14
 -1       720 2.47545E-03 4.48615E-04-4.50863E-15
 -1       721 2.19069E-03 4.37582E-04-3.53522E-15
 -1       722 1.16639E-03-3.07582E-04-1.14812E-15
 -1       723 1.33464E-03 3.61625E-04-1.32622E-15
 -1       724 9.04225E-04 1.24650E-04-7.95794E-16
 -1       725 9.03850E-04-1.22238E-04-8.22506E-16
 -1       726 9.77751E-03-2.33085E-04-7.33162E-14
 -1       727 1.21875E-02 7.50005E-04-9.22535E-14
 -1       728 1.03563E-02 2.47994E-04-7.56416E-14
 -1       729 1.39609E-02-1.45454E-04-1.04971E-13
 -1       730 1.07424E-02 4.48235E-04-7.82005E-14
 -1       731 1.25982E-02 5.43695E-04-9.61508E-14
 -1       732 1.30774E-02 2.73933E-04-9.99497E-14
 -1       733 1.43349E-02-2.95354E-04-1.06237E-13
 -1       734 1.40559E-02-4.12991E-04-1.05316E-13
 -1       735 1.42481E-02-2.47826E-04-1.06082E-13
 -1       736 9.11234E-04-1.75669E-04-8.04485E-16
 -1       737 8.97629E-04-2.31630E-05-8.33782E-16
 -1       738 1.13220E-02 7.46614E-04-8.29537E-14
 -1       739 1.16907E-02 8.46518E-04-8.68052E-14
 -1       740 1.34628E-02-6.93164E-04-1.03051E-13
 -1       741 1.41146E-02 2.97465E-05-1.15828E-13
 -1       742 1.43890E-02-5.47426E-04-1.15701E-13
 -1       743 1.38886E-02-4.98925E-04-1.05501E-13
 -1       744 1.16967E-02-1.25583E-03-8.65545E-14
 -1       745 9.71866E-03-6.30467E-06-7.16799E-14
 -1       746 9.60885E-03-1.80655E-04-7.16989E-14
 -1       747 9.50261E-03-1.29171E-04-7.16570E-14
 -1       748 8.99570E-04-7.18462E-05-8.31820E-16
 -1       749 1.42438E-02-4.83895E-05-1.15802E-13
 -1       750 1.01364E-02-4.39998E-04-7.29201E-14
 -1       751 1.16154E-03 2.43685E-04-1.15104E-15
 -1       752 1.43982E-02-3.29369E-04-1.08808E-13
 -1       753 1.43958E-02-2.83084E-04-1.08604E-13
 -1       754 1.79732E-03-3.09594E-04-2.71094E-15
 -1       755 2.08499E-03-3.25686E-04-3.57945E-15
 -1       756 2.37279E-03-3.36470E-04-4.56834E-15
 -1       757 2.66050E-03-3.43290E-04-5.67519E-15
 -1       758 2.94801E-03-3.47227E-04-6.89942E-15
 -1       759 3.23528E-03-3.49112E-04-8.23947E-15
 -1       760 3.52231E-03-3.49563E-04-9.69553E-15
 -1       761 3.80911E-03-3.49020E-04-1.12652E-14
 -1       762 4.09570E-03-3.47779E-04-1.29472E-14
 -1       763 4.38210E-03-3.46024E-04-1.47389E-14
 -1       764 4.66831E-03-3.43849E-04-1.66405E-14
 -1       765 4.95436E-03-3.41281E-04-1.86496E-14
 -1       766 5.24022E-03-3.38292E-04-2.07697E-14
 -1       767 5.52589E-03-3.34820E-04-2.30011E-14
 -1       768 5.81134E-03-3.30776E-04-2.53431E-14
 -1       769 6.09649E-03-3.26067E-04-2.77934E-14
 -1       770 6.38127E-03-3.20606E-04-3.03463E-14
 -1       771 6.66557E-03-3.14339E-04-3.30009E-14
 -1       772 6.94922E-03-3.07274E-04-3.57585E-14
 -1       773 7.23206E-03-2.99519E-04-3.86157E-14
 -1       774 7.51383E-03-2.91327E-04-4.15705E-14
 -1       775 7.79429E-03-2.83160E-04-4.46226E-14
 -1       776 8.07319E-03-2.75751E-04-4.77655E-14
 -1       777 8.35039E-03-2.70177E-04-5.09967E-14
 -1       778 8.62600E-03-2.67933E-04-5.43165E-14
 -1       779 8.90066E-03-2.71032E-04-5.77120E-14
 -1       780 9.17609E-03-2.82193E-04-6.11817E-14
 -1       781 9.45585E-03-3.05324E-04-6.47244E-14
 -1       782 9.74672E-03-3.47062E-04-6.83351E-14
 -1       783 1.38596E-02-6.08283E-04-1.08188E-13
 -1       784 1.41325E-02-5.71523E-04-1.11931E-13
 -1       785 2.60673E-03 3.78408E-04-5.16930E-15
 -1       786 2.89348E-03 3.83235E-04-6.32842E-15
 -1       787 3.75274E-03 3.86365E-04-1.05025E-14
 -1       788 4.03890E-03 3.85328E-04-1.21258E-14
 -1       789 4.32495E-03 3.83722E-04-1.38651E-14
 -1       790 4.61092E-03 3.81663E-04-1.57208E-14
 -1       791 4.89682E-03 3.79194E-04-1.76916E-14
 -1       792 5.18264E-03 3.76299E-04-1.97756E-14
 -1       793 5.46839E-03 3.72922E-04-2.19715E-14
 -1       794 5.75406E-03 3.68982E-04-2.42760E-14
 -1       795 6.03965E-03 3.64386E-04-2.66894E-14
 -1       796 6.32514E-03 3.59050E-04-2.92091E-14
 -1       797 6.61052E-03 3.52924E-04-3.18326E-14
 -1       798 6.89581E-03 3.46017E-04-3.45575E-14
 -1       799 7.18103E-03 3.38438E-04-3.73783E-14
 -1       800 7.46627E-03 3.30443E-04-4.02971E-14
 -1       801 7.75170E-03 3.22498E-04-4.33134E-14
 -1       802 8.03768E-03 3.15349E-04-4.64176E-14
 -1       803 8.32480E-03 3.10110E-04-4.96028E-14
 -1       804 8.61406E-03 3.08371E-04-5.28711E-14
 -1       805 8.90703E-03 3.12329E-04-5.62116E-14
 -1       806 9.20600E-03 3.24962E-04-5.96234E-14
 -1       807 9.51405E-03 3.50236E-04-6.31108E-14
 -1       808 9.83474E-03 3.93244E-04-6.66726E-14
 -1       809 1.01704E-02 4.59658E-04-7.03119E-14
 -1       810 1.05219E-02 5.53803E-04-7.40207E-14
 -1       811 1.08811E-02 6.70299E-04-7.77914E-14
 -1       812 1.12364E-02 7.88218E-04-8.16278E-14
 -1       813 1.22514E-02 7.60578E-04-9.35609E-14
 -1       814 1.26050E-02 6.11693E-04-9.76716E-14
 -1       815 1.29655E-02 4.53997E-04-1.01831E-13
 -1       816 1.33191E-02 3.13189E-04-1.06033E-13
 -1       817 1.36576E-02 1.93032E-04-1.10280E-13
 -1       818 1.38894E-02 1.07974E-04-1.13046E-13
 -1       819 1.13829E-03 5.90754E-05-1.25740E-15
 -1       820 1.19930E-02 8.37437E-04-9.04555E-14
 -1       821 1.45454E-02-2.77812E-04-1.12769E-13
 -1       822 9.48650E-03-9.29767E-05-7.06691E-14
 -1       823 1.44063E-02-4.41337E-04-1.12865E-13
 -1       824 1.45926E-02-3.22941E-04-1.12909E-13
 -1       825 1.74571E-03 3.39183E-04-2.39224E-15
 -1       826 2.03275E-03 3.57754E-04-3.20072E-15
 -1       827 1.45298E-02-3.70904E-04-1.12738E-13
 -1       828 3.46646E-03 3.86615E-04-8.99564E-15
 -1       829 9.28911E-04-2.20936E-04-7.97356E-16
 -1       830 3.18005E-03 3.85738E-04-7.60307E-15
 -1       831 9.81330E-03-2.81432E-04-7.14255E-14
 -1       832 1.39014E-02-7.79646E-05-1.07074E-13
 -1       833 2.31980E-03 3.70321E-04-4.12725E-15
 -1       834 1.28715E-02 4.31267E-04-9.95430E-14
 -1       835 1.51024E-03-2.86579E-04-1.96352E-15
 -1       836 1.42833E-02-3.77921E-04-1.08467E-13
 -1       837 1.09893E-02 6.19433E-04-7.96072E-14
 -1       838 1.04676E-02 3.84027E-04-7.49819E-14
 -1       839 1.24622E-03 3.00917E-04-1.24257E-15
 -1       840 1.33972E-02 1.51150E-04-1.03714E-13
 -1       841 1.00087E-02 1.54056E-04-7.21104E-14
 -1       842 1.42396E-02-2.13067E-04-1.08578E-13
 -1       843 1.13692E-03 1.19947E-06-1.27005E-15
 -1       844 1.14982E-03 1.79163E-04-1.19964E-15
 -1       845 1.14926E-03-1.76171E-04-1.24749E-15
 -1       846 1.14240E-03 1.17973E-04-1.23459E-15
 -1       847 1.42152E-02-1.23915E-04-1.12136E-13
 -1       848 1.14349E-03-2.53650E-04-1.16811E-15
 -1       849 9.51474E-03-5.23638E-05-6.97832E-14
 -1       850 1.43964E-02-2.13022E-04-1.12309E-13
 -1       851 9.62481E-03-2.20899E-04-6.98259E-14
 -1       852 1.40674E-02-3.57999E-05-1.12171E-13
 -1       853 1.41660E-02-4.39810E-04-1.08653E-13
 -1       854 9.76627E-03 8.68177E-05-6.99650E-14
 -1       855 9.48536E-03-1.47695E-04-7.01388E-14
 -1       856 1.49561E-03 3.24230E-04-1.77021E-15
 -1       857 1.42732E-02-5.00519E-04-1.12401E-13
 -1       858 1.14205E-03-1.15244E-04-1.26549E-15
 -1       859 1.33444E-02 2.39270E-04-1.04877E-13
 -1       860 3.02950E-03 3.09676E-04-7.07096E-15
 -1       861 2.21840E-03-2.58955E-04-4.10844E-15
 -1       862 2.50748E-03-2.66249E-04-5.15839E-15
 -1       863 2.79651E-03-2.70705E-04-6.32470E-15
 -1       864 3.08528E-03-2.73104E-04-7.60756E-15
 -1       865 3.37371E-03-2.74046E-04-9.00479E-15
 -1       866 3.66174E-03-2.73972E-04-1.05153E-14
 -1       867 3.94938E-03-2.73190E-04-1.21383E-14
 -1       868 4.23663E-03-2.71902E-04-1.38724E-14
 -1       869 4.52351E-03-2.70224E-04-1.57170E-14
 -1       870 4.81002E-03-2.68207E-04-1.76695E-14
 -1       871 5.09616E-03-2.65851E-04-1.97317E-14
 -1       872 5.38188E-03-2.63119E-04-2.19072E-14
 -1       873 5.66714E-03-2.59948E-04-2.41940E-14
 -1       874 5.95184E-03-2.56265E-04-2.65898E-14
 -1       875 6.23585E-03-2.51999E-04-2.90915E-14
 -1       876 6.51897E-03-2.47096E-04-3.16951E-14
 -1       877 6.80098E-03-2.41547E-04-3.43984E-14
 -1       878 7.08155E-03-2.35409E-04-3.72004E-14
 -1       879 7.36032E-03-2.28842E-04-4.01028E-14
 -1       880 7.63682E-03-2.22142E-04-4.31030E-14
 -1       881 7.91055E-03-2.15783E-04-4.61949E-14
 -1       882 8.18095E-03-2.10443E-04-4.93755E-14
 -1       883 8.44749E-03-2.07022E-04-5.26455E-14
 -1       884 8.70979E-03-2.06632E-04-5.59975E-14
 -1       885 8.96786E-03-2.10602E-04-5.94243E-14
 -1       886 9.22251E-03-2.20627E-04-6.29235E-14
 -1       887 9.47646E-03-2.39459E-04-6.64877E-14
 -1       888 4.46600E-03 3.08014E-04-1.49275E-14
 -1       889 4.17932E-03 3.09619E-04-1.31239E-14
 -1       890 3.89234E-03 3.10782E-04-1.14379E-14
 -1       891 4.75239E-03 3.06036E-04-1.68433E-14
 -1       892 5.03851E-03 3.03694E-04-1.88732E-14
 -1       893 5.32432E-03 3.00954E-04-2.10141E-14
 -1       894 5.60981E-03 2.97751E-04-2.32650E-14
 -1       895 5.89492E-03 2.94001E-04-2.56240E-14
 -1       896 6.17959E-03 2.89616E-04-2.80917E-14
 -1       897 6.46374E-03 2.84521E-04-3.06637E-14
 -1       898 6.74726E-03 2.78671E-04-3.33379E-14
 -1       899 7.03006E-03 2.72075E-04-3.61093E-14
 -1       900 7.31208E-03 2.64831E-04-3.89801E-14
 -1       901 7.59330E-03 2.57162E-04-4.19498E-14
 -1       902 7.87384E-03 2.49459E-04-4.50095E-14
 -1       903 8.15401E-03 2.42340E-04-4.81534E-14
 -1       904 8.43451E-03 2.36723E-04-5.13807E-14
 -1       905 8.71656E-03 2.33941E-04-5.46879E-14
 -1       906 9.00225E-03 2.35942E-04-5.80667E-14
 -1       907 9.29481E-03 2.45658E-04-6.15192E-14
 -1       908 9.59890E-03 2.67608E-04-6.50429E-14
 -1       909 9.92049E-03 3.08881E-04-6.86397E-14
 -1       910 1.28776E-03-2.08590E-04-1.51703E-15
 -1       911 9.38004E-03-7.52211E-05-6.81007E-14
 -1       912 1.87593E-03 2.78831E-04-2.86496E-15
 -1       913 3.31744E-03 3.11113E-04-8.41121E-15
 -1       914 3.60506E-03 3.11361E-04-9.86758E-15
 -1       915 2.45279E-03 3.00988E-04-4.73683E-15
 -1       916 2.16425E-03 2.92130E-04-3.74312E-15
 -1       917 1.13813E-03-5.65269E-05-1.27266E-15
 -1       918 1.64167E-03-2.31835E-04-2.36319E-15
 -1       919 1.92959E-03-2.47857E-04-3.17600E-15
 -1       920 1.01011E-02 2.92084E-04-7.11982E-14
 -1       921 9.40509E-03-1.11547E-04-6.91207E-14
 -1       922 1.37650E-02 3.92337E-05-1.08178E-13
 -1       923 2.74126E-03 3.06534E-04-5.84654E-15
 -1       924 1.39735E-02 3.78223E-05-1.12611E-13
 -1       925 9.53594E-03 2.16485E-05-6.80932E-14
 -1       926 1.40132E-03 2.37131E-04-1.67726E-15
 -1       927 1.38108E-03 3.41198E-05-1.78915E-15
 -1       928 1.38424E-03 1.00019E-04-1.76591E-15
 -1       929 9.36276E-03-1.64210E-05-6.64311E-14
 -1       930 9.47163E-03-1.79844E-04-6.82844E-14
 -1       931 1.36394E-02 1.35966E-04-1.08317E-13
 -1       932 1.27882E-03-1.42582E-04-1.54114E-15
 -1       933 9.86028E-03 1.97224E-04-6.93095E-14
 -1       934 1.58835E-03 2.59775E-04-2.10378E-15
 -1       935 1.38098E-03-3.12668E-05-1.79940E-15
 -1       936 2.35537E-03-1.89811E-04-4.65033E-15
 -1       937 2.64539E-03-1.94225E-04-5.75868E-15
 -1       938 2.93531E-03-1.96792E-04-6.98233E-15
 -1       939 3.22490E-03-1.98027E-04-8.32174E-15
 -1       940 3.51405E-03-1.98324E-04-9.77356E-15
 -1       941 3.80268E-03-1.97968E-04-1.13374E-14
 -1       942 4.09079E-03-1.97150E-04-1.30132E-14
 -1       943 4.37838E-03-1.95994E-04-1.48010E-14
 -1       944 4.66544E-03-1.94561E-04-1.66981E-14
 -1       945 4.95197E-03-1.92873E-04-1.87031E-14
 -1       946 5.23794E-03-1.90917E-04-2.08212E-14
 -1       947 5.52327E-03-1.88655E-04-2.30512E-14
 -1       948 5.80786E-03-1.86041E-04-2.53917E-14
 -1       949 6.09155E-03-1.83025E-04-2.78390E-14
 -1       950 6.37413E-03-1.79569E-04-3.03905E-14
 -1       951 6.65531E-03-1.75662E-04-3.30438E-14
 -1       952 6.93473E-03-1.71341E-04-3.57950E-14
 -1       953 7.21193E-03-1.66714E-04-3.86440E-14
 -1       954 7.48636E-03-1.61983E-04-4.15935E-14
 -1       955 7.75735E-03-1.57469E-04-4.46351E-14
 -1       956 8.02413E-03-1.53627E-04-4.77660E-14
 -1       957 8.28578E-03-1.51042E-04-5.09858E-14
 -1       958 8.54124E-03-1.50395E-04-5.42910E-14
 -1       959 8.78925E-03-1.52386E-04-5.76752E-14
 -1       960 9.02834E-03-1.57658E-04-6.11304E-14
 -1       961 9.25683E-03-1.66926E-04-6.46553E-14
 -1       962 4.32059E-03 2.33770E-04-1.41356E-14
 -1       963 4.89412E-03 2.30604E-04-1.79735E-14
 -1       964 1.39077E-03 1.67380E-04-1.72934E-15
 -1       965 4.60759E-03 2.32335E-04-1.59990E-14
 -1       966 4.03314E-03 2.34880E-04-1.23845E-14
 -1       967 5.18018E-03 2.28564E-04-2.00602E-14
 -1       968 5.46571E-03 2.26171E-04-2.22563E-14
 -1       969 5.75066E-03 2.23361E-04-2.45620E-14
 -1       970 6.03490E-03 2.20055E-04-2.69781E-14
 -1       971 6.31832E-03 2.16174E-04-2.95007E-14
 -1       972 6.60074E-03 2.11646E-04-3.21228E-14
 -1       973 6.88196E-03 2.06424E-04-3.48459E-14
 -1       974 7.16178E-03 2.00501E-04-3.76675E-14
 -1       975 7.44001E-03 1.93928E-04-4.05909E-14
 -1       976 7.71652E-03 1.86840E-04-4.36061E-14
 -1       977 7.99129E-03 1.79478E-04-4.67071E-14
 -1       978 8.26454E-03 1.72228E-04-4.98912E-14
 -1       979 8.53687E-03 1.65671E-04-5.31613E-14
 -1       980 8.80950E-03 1.60713E-04-5.65064E-14
 -1       981 9.08469E-03 1.58860E-04-5.99270E-14
 -1       982 9.36630E-03 1.62845E-04-6.34144E-14
 -1       983 9.60650E-03 1.73600E-04-6.63371E-14
 -1       984 1.38391E-03-9.69527E-05-1.79769E-15
 -1       985 1.77683E-03-1.72739E-04-2.78279E-15
 -1       986 2.06565E-03-1.82905E-04-3.65748E-15
 -1       987 3.16799E-03 2.35050E-04-7.82846E-15
 -1       988 2.01022E-03 2.15271E-04-3.36029E-15
 -1       989 2.29955E-03 2.24045E-04-4.30528E-15
 -1       990 1.72177E-03 2.02536E-04-2.53017E-15
 -1       991 1.55580E-03 1.85445E-04-2.11123E-15
 -1       992 9.36251E-03 5.09213E-05-6.50885E-14
 -1       993 3.74522E-03 2.35580E-04-1.07511E-14
 -1       994 2.87873E-03 2.33227E-04-6.53933E-15
 -1       995 9.22912E-03-5.54268E-05-6.51231E-14
 -1       996 1.62760E-03 1.55694E-06-2.40893E-15
 -1       997 9.57852E-03 9.47803E-05-6.72182E-14
 -1       998 1.62934E-03 7.32856E-05-2.38822E-15
 -1       999 9.34780E-03-1.34574E-04-6.72850E-14
 -1      1000 2.58918E-03 2.29769E-04-5.36468E-15
 -1      1001 9.26453E-03-9.34585E-05-6.61311E-14
 -1      1002 3.45683E-03 2.35717E-04-9.23288E-15
 -1      1003 1.62916E-03-7.00255E-05-2.41480E-15
 -1      1004 5.03608E-03 1.55600E-04-1.91098E-14
 -1      1005 2.78612E-03-1.20646E-04-6.36849E-15
 -1      1006 3.07655E-03-1.21820E-04-7.64776E-15
 -1      1007 3.36657E-03-1.22272E-04-9.04151E-15
 -1      1008 3.65605E-03-1.22218E-04-1.05463E-14
 -1      1009 3.94493E-03-1.21808E-04-1.21632E-14
 -1      1010 4.23319E-03-1.21145E-04-1.38930E-14
 -1      1011 4.52082E-03-1.20287E-04-1.57352E-14
 -1      1012 4.80782E-03-1.19263E-04-1.76852E-14
 -1      1013 5.09414E-03-1.18074E-04-1.97430E-14
 -1      1014 5.37974E-03-1.16708E-04-2.19156E-14
 -1      1015 5.66450E-03-1.15142E-04-2.41985E-14
 -1      1016 5.94827E-03-1.13351E-04-2.65906E-14
 -1      1017 6.23083E-03-1.11319E-04-2.90902E-14
 -1      1018 6.51189E-03-1.09047E-04-3.16913E-14
 -1      1019 6.79108E-03-1.06568E-04-3.43923E-14
 -1      1020 7.06793E-03-1.03963E-04-3.71922E-14
 -1      1021 7.34188E-03-1.01381E-04-4.00896E-14
 -1      1022 7.61224E-03-9.90551E-05-4.30826E-14
 -1      1023 7.87817E-03-9.73159E-05-4.61654E-14
 -1      1024 8.13866E-03-9.65926E-05-4.93374E-14
 -1      1025 8.39242E-03-9.73898E-05-5.25956E-14
 -1      1026 8.63778E-03-1.00238E-04-5.59345E-14
 -1      1027 8.87265E-03-1.05503E-04-5.93468E-14
 -1      1028 9.09271E-03-1.13783E-04-6.28326E-14
 -1      1029 4.17500E-03 1.58905E-04-1.33463E-14
 -1      1030 1.59142E-03 1.29677E-04-2.25245E-15
 -1      1031 5.60689E-03 1.52206E-04-2.35035E-14
 -1      1032 5.89108E-03 1.50029E-04-2.58657E-14
 -1      1033 6.17425E-03 1.47446E-04-2.83378E-14
 -1      1034 6.45619E-03 1.44384E-04-3.09133E-14
 -1      1035 6.73665E-03 1.40773E-04-3.35876E-14
 -1      1036 7.01531E-03 1.36553E-04-3.63619E-14
 -1      1037 7.29185E-03 1.31676E-04-3.92372E-14
 -1      1038 7.56594E-03 1.26117E-04-4.22076E-14
 -1      1039 7.83725E-03 1.19877E-04-4.52663E-14
 -1      1040 8.10555E-03 1.12993E-04-4.84079E-14
 -1      1041 8.37077E-03 1.05543E-04-5.16374E-14
 -1      1042 8.63308E-03 9.76840E-05-5.49489E-14
 -1      1043 8.89321E-03 8.97354E-05-5.83323E-14
 -1      1044 9.15292E-03 8.26213E-05-6.17878E-14
 -1      1045 1.91543E-03-1.09551E-04-3.22027E-15
 -1      1046 2.20506E-03-1.14911E-04-4.15392E-15
 -1      1047 2.14803E-03 1.48600E-04-3.87623E-15
 -1      1048 2.49549E-03-1.18463E-04-5.20375E-15
 -1      1049 9.17142E-03-5.93702E-06-6.34167E-14
 -1      1050 5.32185E-03 1.54044E-04-2.12512E-14
 -1      1051 1.87720E-03-3.64535E-05-3.11528E-15
 -1      1052 3.88679E-03 1.59531E-04-1.16487E-14
 -1      1053 4.46262E-03 1.58021E-04-1.51578E-14
 -1      1054 3.01879E-03 1.58744E-04-7.24851E-15
 -1      1055 4.74966E-03 1.56918E-04-1.70781E-14
 -1      1056 3.30865E-03 1.59624E-04-8.60103E-15
 -1      1057 2.43817E-03 1.53667E-04-4.88566E-15
 -1      1058 1.87730E-03 3.99940E-05-3.09911E-15
 -1      1059 1.85874E-03 1.41103E-04-2.98053E-15
 -1      1060 9.03931E-03-4.59081E-05-6.19613E-14
 -1      1061 3.21987E-03-4.61039E-05-8.31911E-15
 -1      1062 3.50996E-03-4.61296E-05-9.76520E-15
 -1      1063 3.79942E-03-4.59945E-05-1.13236E-14
 -1      1064 4.08824E-03-4.57385E-05-1.29941E-14
 -1      1065 4.37638E-03-4.53981E-05-1.47786E-14
 -1      1066 4.66383E-03-4.49892E-05-1.66738E-14
 -1      1067 4.95057E-03-4.45195E-05-1.86751E-14
 -1      1068 5.23654E-03-4.39899E-05-2.07866E-14
 -1      1069 5.52166E-03-4.33982E-05-2.30122E-14
 -1      1070 5.80578E-03-4.27438E-05-2.53469E-14
 -1      1071 6.08872E-03-4.20317E-05-2.77941E-14
 -1      1072 6.37019E-03-4.12802E-05-3.03434E-14
 -1      1073 6.64987E-03-4.05282E-05-3.29932E-14
 -1      1074 6.92731E-03-3.98461E-05-3.57436E-14
 -1      1075 7.20200E-03-3.93483E-05-3.85934E-14
 -1      1076 7.47331E-03-3.92069E-05-4.15369E-14
 -1      1077 7.74050E-03-3.96652E-05-4.45704E-14
 -1      1078 8.00264E-03-4.10482E-05-4.76956E-14
 -1      1079 8.25862E-03-4.37651E-05-5.09080E-14
 -1      1080 8.50696E-03-4.82999E-05-5.42022E-14
 -1      1081 8.74543E-03-5.52614E-05-5.75711E-14
 -1      1082 6.31335E-03 7.63924E-05-2.97050E-14
 -1      1083 5.74801E-03 7.92665E-05-2.47587E-14
 -1      1084 6.59376E-03 7.44707E-05-3.23325E-14
 -1      1085 6.87222E-03 7.21296E-05-3.50578E-14
 -1      1086 7.14831E-03 6.92814E-05-3.78855E-14
 -1      1087 7.42156E-03 6.58229E-05-4.08096E-14
 -1      1088 7.69145E-03 6.16297E-05-4.38231E-14
 -1      1089 7.95741E-03 5.65491E-05-4.69245E-14
 -1      1090 8.21888E-03 5.03936E-05-5.01141E-14
 -1      1091 8.47523E-03 4.29414E-05-5.33878E-14
 -1      1092 8.72587E-03 3.39893E-05-5.67380E-14
 -1      1093 8.95440E-03 1.49854E-05-6.00442E-14
 -1      1094 4.89213E-03 8.19721E-05-1.81645E-14
 -1      1095 6.03134E-03 7.79695E-05-2.71782E-14
 -1      1096 5.17826E-03 8.12284E-05-2.02507E-14
 -1      1097 2.34752E-03-4.41730E-05-4.66196E-15
 -1      1098 2.11198E-03-4.04576E-05-3.85069E-15
 -1      1099 1.99899E-03 7.57007E-05-3.45251E-15
 -1      1100 3.59800E-03 1.59818E-04-1.00677E-14
 -1      1101 2.63838E-03-4.52383E-05-5.76694E-15
 -1      1102 2.92928E-03-4.58387E-05-6.98589E-15
 -1      1103 5.46359E-03 8.03379E-05-2.24492E-14
 -1      1104 2.72856E-03 1.56887E-04-6.00983E-15
 -1      1105 3.16110E-03 8.33824E-05-7.97367E-15
 -1      1106 4.60527E-03 8.25911E-05-1.61877E-14
 -1      1107 2.28903E-03 7.90594E-05-4.41152E-15
 -1      1108 4.02953E-03 8.34684E-05-1.25603E-14
 -1      1109 4.31774E-03 8.30931E-05-1.43193E-14
 -1      1110 2.87054E-03 8.26382E-05-6.67281E-15
 -1      1111 3.45118E-03 8.36889E-05-9.38843E-15
 -1      1112 3.65468E-03 3.01230E-05-1.04930E-14
 -1      1113 2.57974E-03 8.12753E-05-5.48461E-15
 -1      1114 3.74067E-03 8.36829E-05-1.09171E-14
 -1      1115 2.19043E-03 4.52788E-05-4.09072E-15
 -1      1116 0.00000E+00 0.00000E+00 0.00000E+00
 -1      1117 0.00000E+00 0.00000E+00 0.00000E+00
 -1      1118 0.00000E+00 0.00000E+00 0.00000E+00
 -1      1119 0.00000E+00 0.00000E+00 0.00000E+00
 -1      1120 0.00000E+00 0.00000E+00 0.00000E+00
 -1      1121 0.00000E+00 0.00000E+00 0.00000E+00
 -1      1122 0.00000E+00 0.00000E+00 0.00000E+00
 -1      1123 0.00000E+00 0.00000E+00 0.00000E+00
 -1      1124 0.00000E+00 0.00000E+00 0.00000E+00
 -1      1125 0.00000E+00 0.00000E+00 0.00000E+00
 -1      1126 0.00000E+00 0.00000E+00 0.00000E+00
 -1      1127 0.00000E+00 0.00000E+00 0.00000E+00
 -1      1128 0.00000E+00 0.00000E+00 0.00000E+00
 -1      1129 0.00000E+00 0.00000E+00 0.00000E+00
 -1      1130 0.00000E+00 0.00000E+00 0.00000E+00
 -1      1131 0.00000E+00 0.00000E+00 0.00000E+00
 -1      1132 0.00000E+00 0.00000E+00 0.00000E+00
 -1      1133 2.11677E-04-1.48336E-04 1.84585E-17
 -1      1134 5.51667E-04-3.37528E-04-2.66036E-17
 -1      1135 8.33504E-04-4.59033E-04-1.92378E-16
 -1      1136 1.10310E-03-5.40729E-04-4.98597E-16
 -1      1137 1.36853E-03-5.97993E-04-9.39393E-16
 -1      1138 1.63336E-03-6.38725E-04-1.51215E-15
 -1      1139 1.89943E-03-6.67571E-04-2.21549E-15
 -1      1140 2.16760E-03-6.87650E-04-3.04990E-15
 -1      1141 2.43816E-03-7.01247E-04-4.01359E-15
 -1      1142 2.71109E-03-7.10083E-04-5.10545E-15
 -1      1143 2.98623E-03-7.15461E-04-6.32259E-15
 -1      1144 3.26333E-03-7.18358E-04-7.66124E-15
 -1      1145 3.54213E-03-7.19491E-04-9.11871E-15
 -1      1146 3.82234E-03-7.19376E-04-1.06969E-14
 -1      1147 4.10372E-03-7.18366E-04-1.23897E-14
 -1      1148 4.38607E-03-7.16688E-04-1.41945E-14
 -1      1149 4.66921E-03-7.14467E-04-1.61074E-14
 -1      1150 4.95303E-03-7.11756E-04-1.81308E-14
 -1      1151 5.23749E-03-7.08546E-04-2.02643E-14
 -1      1152 5.52261E-03-7.04789E-04-2.25081E-14
 -1      1153 5.80848E-03-7.00413E-04-2.48611E-14
 -1      1154 6.09531E-03-6.95340E-04-2.73177E-14
 -1      1155 6.38339E-03-6.89507E-04-2.98792E-14
 -1      1156 6.67319E-03-6.82899E-04-3.25488E-14
 -1      1157 6.96531E-03-6.75585E-04-3.53291E-14
 -1      1158 7.26056E-03-6.67778E-04-3.82182E-14
 -1      1159 7.55998E-03-6.59917E-04-4.12056E-14
 -1      1160 7.86486E-03-6.52777E-04-4.42943E-14
 -1      1161 8.17677E-03-6.47631E-04-4.74830E-14
 -1      1162 8.49744E-03-6.46462E-04-5.07568E-14
 -1      1163 8.82871E-03-6.52221E-04-5.41121E-14
 -1      1164 9.17211E-03-6.69103E-04-5.75506E-14
 -1      1165 9.52830E-03-7.02709E-04-6.10700E-14
 -1      1166 9.89604E-03-7.59795E-04-6.46715E-14
 -1      1167 1.02709E-02-8.47060E-04-6.83545E-14
 -1      1168 1.06441E-02-9.68254E-04-7.20992E-14
 -1      1169 1.10026E-02-1.11936E-03-7.59031E-14
 -1      1170 1.13318E-02-1.28342E-03-7.97721E-14
 -1      1171 1.16230E-02-1.42973E-03-8.36999E-14
 -1      1172 1.18808E-02-1.52248E-03-8.76905E-14
 -1      1173 1.21243E-02-1.53762E-03-9.17503E-14
 -1      1174 1.23786E-02-1.47660E-03-9.58686E-14
 -1      1175 1.26604E-02-1.36472E-03-1.00039E-13
 -1      1176 1.29713E-02-1.23563E-03-1.04267E-13
 -1      1177 1.33007E-02-1.11519E-03-1.08556E-13
 -1      1178 1.36339E-02-1.01441E-03-1.12864E-13
 -1      1179 1.39588E-02-9.31332E-04-1.17174E-13
 -1      1180 1.42688E-02-8.56476E-04-1.21492E-13
 -1      1181 1.45640E-02-7.78250E-04-1.25820E-13
 -1      1182 1.48429E-02-6.91962E-04-1.30067E-13
 -1      1183 2.28436E-04 1.60715E-04 3.03577E-17
 -1      1184 5.53836E-04 3.42158E-04 9.70361E-18
 -1      1185 8.34431E-04 4.61197E-04-1.23572E-16
 -1      1186 1.10399E-03 5.42413E-04-3.84688E-16
 -1      1187 1.36943E-03 5.99674E-04-7.74852E-16
 -1      1188 1.63431E-03 6.40494E-04-1.29316E-15
 -1      1189 1.90044E-03 6.69445E-04-1.94021E-15
 -1      1190 2.16865E-03 6.89642E-04-2.71082E-15
 -1      1191 2.43923E-03 7.03365E-04-3.60542E-15
 -1      1192 2.71218E-03 7.12334E-04-4.62397E-15
 -1      1193 2.98733E-03 7.17847E-04-5.76698E-15
 -1      1194 3.26445E-03 7.20879E-04-7.03143E-15
 -1      1195 3.54325E-03 7.22149E-04-8.41429E-15
 -1      1196 3.82347E-03 7.22171E-04-9.91922E-15
 -1      1197 4.10487E-03 7.21300E-04-1.15440E-14
 -1      1198 4.38723E-03 7.19763E-04-1.32911E-14
 -1      1199 4.67039E-03 7.17689E-04-1.51573E-14
 -1      1200 4.95424E-03 7.15135E-04-1.71420E-14
 -1      1201 5.23873E-03 7.12100E-04-1.92491E-14
 -1      1202 5.52389E-03 7.08548E-04-2.14750E-14
 -1      1203 5.80982E-03 7.04426E-04-2.38074E-14
 -1      1204 6.09668E-03 6.99682E-04-2.62435E-14
 -1      1205 6.38479E-03 6.94296E-04-2.87820E-14
 -1      1206 6.67453E-03 6.88308E-04-3.14299E-14
 -1      1207 6.96643E-03 6.81861E-04-3.41862E-14
 -1      1208 7.26116E-03 6.75260E-04-3.70402E-14
 -1      1209 7.55950E-03 6.69041E-04-3.99833E-14
 -1      1210 7.86233E-03 6.64059E-04-4.30179E-14
 -1      1211 8.17056E-03 6.61586E-04-4.61432E-14
 -1      1212 8.48501E-03 6.63404E-04-4.93479E-14
 -1      1213 8.80615E-03 6.71862E-04-5.26206E-14
 -1      1214 9.13384E-03 6.89829E-04-5.59738E-14
 -1      1215 9.46688E-03 7.20428E-04-5.94044E-14
 -1      1216 9.80251E-03 7.66410E-04-6.29132E-14
 -1      1217 1.01361E-02 8.29008E-04-6.64973E-14
 -1      1218 1.04614E-02 9.06309E-04-7.01639E-14
 -1      1219 1.07714E-02 9.91551E-04-7.39086E-14
 -1      1220 1.10604E-02 1.07240E-03-7.77201E-14
 -1      1221 1.13271E-02 1.13250E-03-8.15873E-14
 -1      1222 1.15760E-02 1.15592E-03-8.55216E-14
 -1      1223 1.18172E-02 1.13297E-03-8.95166E-14
 -1      1224 1.20625E-02 1.06413E-03-9.35719E-14
 -1      1225 1.23208E-02 9.59412E-04-9.76894E-14
 -1      1226 1.25952E-02 8.33568E-04-1.01872E-13
 -1      1227 1.28829E-02 7.00140E-04-1.06082E-13
 -1      1228 1.31778E-02 5.67549E-04-1.10326E-13
 -1      1229 1.34737E-02 4.38219E-04-1.14617E-13
 -1      1230 1.37661E-02 3.10026E-04-1.18943E-13
 -1      1231 1.40539E-02 1.79044E-04-1.23290E-13
 -1      1232 1.43321E-02 4.66612E-05-1.27539E-13
 -1      1233 1.45354E-02-6.11398E-05-1.29711E-13
 -1      1234 1.46731E-02-1.45622E-04-1.29940E-13
 -1      1235 1.48170E-02-2.26899E-04-1.30176E-13
 -1      1236 1.49675E-02-3.00437E-04-1.30411E-13
 -1      1237 1.51219E-02-3.61101E-04-1.30619E-13
 -1      1238 1.52728E-02-4.03575E-04-1.30803E-13
 -1      1239 1.54116E-02-4.24941E-04-1.30972E-13
 -1      1240 1.55269E-02-4.24795E-04-1.31145E-13
 -1      1241 1.56046E-02-4.07104E-04-1.31322E-13
 -1      1242 1.56356E-02-3.80643E-04-1.31482E-13
 -1      1243 1.56174E-02-3.56799E-04-1.31619E-13
 -1      1244 1.55560E-02-3.46498E-04-1.31742E-13
 -1      1245 1.54628E-02-3.56930E-04-1.31848E-13
 -1      1246 1.53505E-02-3.91354E-04-1.31916E-13
 -1      1247 1.52335E-02-4.48337E-04-1.31980E-13
 -1      1248 1.51230E-02-5.22531E-04-1.32054E-13
 -1      1249 1.50243E-02-6.05365E-04-1.32117E-13
 -1      1250 1.42176E-02-1.79749E-04-9.79207E-14
 -1      1251 1.40893E-02-1.44772E-05-9.74243E-14
 -1      1252 1.38434E-02 1.60457E-04-9.65124E-14
 -1      1253 1.34885E-02 3.43106E-04-9.51542E-14
 -1      1254 1.30635E-02 5.09583E-04-9.34559E-14
 -1      1255 1.26133E-02 6.38127E-04-9.15835E-14
 -1      1256 1.21646E-02 7.13263E-04-8.96513E-14
 -1      1257 1.17006E-02 7.30269E-04-8.76238E-14
 -1      1258 1.12316E-02 6.83355E-04-8.55924E-14
 -1      1259 1.07883E-02 5.83516E-04-8.37381E-14
 -1      1260 1.03947E-02 4.49542E-04-8.21702E-14
 -1      1261 1.00574E-02 2.96317E-04-8.09002E-14
 -1      1262 9.79500E-03 1.34128E-04-7.99788E-14
 -1      1263 9.64082E-03-2.32498E-05-7.94934E-14
 -1      1264 9.60333E-03-1.82564E-04-7.94236E-14
 -1      1265 9.68853E-03-3.48911E-04-7.97954E-14
 -1      1266 9.88296E-03-5.16988E-04-8.05591E-14
 -1      1267 1.01712E-02-6.91278E-04-8.16762E-14
 -1      1268 1.05271E-02-8.60537E-04-8.30844E-14
 -1      1269 1.09343E-02-1.01256E-03-8.47503E-14
 -1      1270 1.13758E-02-1.12893E-03-8.66126E-14
 -1      1271 1.18184E-02-1.18837E-03-8.85069E-14
 -1      1272 1.22743E-02-1.18495E-03-9.04689E-14
 -1      1273 1.27351E-02-1.11838E-03-9.24181E-14
 -1      1274 1.31648E-02-1.00121E-03-9.41572E-14
 -1      1275 1.35642E-02-8.45912E-04-9.56958E-14
 -1      1276 1.38937E-02-6.74919E-04-9.69017E-14
 -1      1277 1.41141E-02-5.10813E-04-9.76530E-14
 -1      1278 1.42265E-02-3.47470E-04-9.80017E-14
 -1      1279 1.66708E-04-1.10343E-04-1.51788E-18
 -1      1280 1.12544E-04-5.69735E-05-2.57498E-17
 -1      1281 1.17627E-04-6.75820E-05-1.91768E-17
 -1      1282 1.08417E-04-4.34922E-05-3.65783E-17
 -1      1283 1.10280E-04-4.96039E-05-3.32443E-17
 -1      1284 2.26328E-04-1.07622E-04-7.84014E-17
 -1      1285 1.06847E-04-3.36215E-05-4.25278E-17
 -1      1286 1.07691E-04-3.83466E-05-4.08880E-17
 -1      1287 2.19099E-04-8.24731E-05-9.79441E-17
 -1      1288 1.06066E-04-2.53509E-05-4.60515E-17
 -1      1289 1.06499E-04-2.93832E-05-4.50893E-17
 -1      1290 2.15881E-04-6.32865E-05-1.09382E-16
 -1      1291 1.05657E-04-1.80932E-05-4.80166E-17
 -1      1292 1.05887E-04-2.16611E-05-4.76100E-17
 -1      1293 2.14210E-04-4.71905E-05-1.16118E-16
 -1      1294 1.05436E-04-1.12408E-05-4.91686E-17
 -1      1295 1.05560E-04-1.46264E-05-4.89382E-17
 -1      1296 2.13289E-04-3.27569E-05-1.19940E-16
 -1      1297 1.05337E-04-4.68998E-06-4.96565E-17
 -1      1298 1.05389E-04-7.94375E-06-4.95751E-17
 -1      1299 2.12792E-04-1.91929E-05-1.21959E-16
 -1      1300 1.05325E-04 1.74316E-06-4.95887E-17
 -1      1301 1.05323E-04-1.47080E-06-4.96022E-17
 -1      1302 2.12578E-04-6.16146E-06-1.22556E-16
 -1      1303 1.05398E-04 8.22597E-06-4.88704E-17
 -1      1304 1.05341E-04 4.96564E-06-4.91008E-17
 -1      1305 2.12586E-04 6.70946E-06-1.21810E-16
 -1      1306 1.05576E-04 1.49341E-05-4.75829E-17
 -1      1307 1.05448E-04 1.15337E-05-4.79353E-17
 -1      1308 2.12818E-04 1.97672E-05-1.19533E-16
 -1      1309 1.05910E-04 2.19536E-05-4.52248E-17
 -1      1310 1.05675E-04 1.83621E-05-4.59566E-17
 -1      1311 2.13330E-04 3.32711E-05-1.15630E-16
 -1      1312 1.06535E-04 2.98207E-05-4.17418E-17
 -1      1313 1.06095E-04 2.57436E-05-4.29344E-17
 -1      1314 2.14273E-04 4.78001E-05-1.09491E-16
 -1      1315 1.07727E-04 3.89197E-05-3.62801E-17
 -1      1316 1.06875E-04 3.41260E-05-3.83537E-17
 -1      1317 2.15979E-04 6.42136E-05-1.00384E-16
 -1      1318 1.10267E-04 5.03468E-05-2.72812E-17
 -1      1319 1.08429E-04 4.41629E-05-3.11979E-17
 -1      1320 2.19208E-04 8.37120E-05-8.63296E-17
 -1      1321 1.16942E-04 6.76200E-05-1.26716E-17
 -1      1322 1.12191E-04 5.77753E-05-1.97189E-17
 -1      1323 2.26324E-04 1.09448E-04-6.45100E-17
 -1      1324 1.57586E-04 1.09861E-04 1.02593E-17
 -1      1325 1.35667E-04 8.60922E-05-4.09286E-18
 -1      1326 2.56050E-04 1.52096E-04-3.82994E-17
 -1      1327 3.35100E-04 2.20743E-04-3.52366E-19
 -1      1328 4.21562E-04-2.61746E-04-4.39373E-17
 -1      1329 5.74667E-04-3.36812E-04-9.88657E-17
 -1      1330 7.21862E-04-3.97421E-04-1.90237E-16
 -1      1331 8.65037E-04-4.46722E-04-3.15313E-16
 -1      1332 6.12102E-04-3.30908E-04-1.81943E-16
 -1      1333 1.00507E-03-4.87801E-04-4.72943E-16
 -1      1334 1.14292E-03-5.21796E-04-6.63993E-16
 -1      1335 9.05347E-04-4.31618E-04-4.42585E-16
 -1      1336 1.27942E-03-5.50577E-04-8.87623E-16
 -1      1337 1.41507E-03-5.74622E-04-1.14471E-15
 -1      1338 1.18779E-03-5.01052E-04-8.33087E-16
 -1      1339 1.55032E-03-5.94998E-04-1.43367E-15
 -1      1340 1.68542E-03-6.12036E-04-1.75523E-15
 -1      1341 1.46473E-03-5.49843E-04-1.35283E-15
 -1      1342 1.82061E-03-6.26366E-04-2.10951E-15
 -1      1343 1.95600E-03-6.38279E-04-2.49587E-15
 -1      1344 1.73942E-03-5.84170E-04-2.00150E-15
 -1      1345 2.09172E-03-6.48178E-04-2.91434E-15
 -1      1346 2.22780E-03-6.56312E-04-3.36580E-15
 -1      1347 2.01374E-03-6.08013E-04-2.77821E-15
 -1      1348 2.36431E-03-6.62956E-04-3.84935E-15
 -1      1349 2.50124E-03-6.68314E-04-4.36409E-15
 -1      1350 2.28865E-03-6.24183E-04-3.68370E-15
 -1      1351 2.63863E-03-6.72582E-04-4.91065E-15
 -1      1352 2.77644E-03-6.75922E-04-5.48853E-15
 -1      1353 2.56465E-03-6.34750E-04-4.71576E-15
 -1      1354 2.91469E-03-6.78474E-04-6.09713E-15
 -1      1355 3.05335E-03-6.80365E-04-6.73669E-15
 -1      1356 2.84191E-03-6.41265E-04-5.87224E-15
 -1      1357 3.19240E-03-6.81693E-04-7.40575E-15
 -1      1358 3.33182E-03-6.82556E-04-8.10498E-15
 -1      1359 3.12045E-03-6.44883E-04-7.15118E-15
 -1      1360 3.47158E-03-6.83020E-04-8.83392E-15
 -1      1361 3.61165E-03-6.83159E-04-9.59199E-15
 -1      1362 3.40021E-03-6.46456E-04-8.54887E-15
 -1      1363 3.75202E-03-6.83016E-04-1.03804E-14
 -1      1364 3.89267E-03-6.82645E-04-1.11980E-14
 -1      1365 3.68105E-03-6.46598E-04-1.00655E-14
 -1      1366 4.03355E-03-6.82070E-04-1.20436E-14
 -1      1367 4.17467E-03-6.81328E-04-1.29174E-14
 -1      1368 3.96286E-03-6.45736E-04-1.16985E-14
 -1      1369 4.31600E-03-6.80431E-04-1.38188E-14
 -1      1370 4.45751E-03-6.79403E-04-1.47480E-14
 -1      1371 4.24549E-03-6.44149E-04-1.34443E-14
 -1      1372 4.59921E-03-6.78245E-04-1.57045E-14
 -1      1373 4.74107E-03-6.76970E-04-1.66878E-14
 -1      1374 4.52884E-03-6.42002E-04-1.53015E-14
 -1      1375 4.88310E-03-6.75571E-04-1.76994E-14
 -1      1376 5.02529E-03-6.74055E-04-1.87377E-14
 -1      1377 4.81283E-03-6.39368E-04-1.72690E-14
 -1      1378 5.16763E-03-6.72408E-04-1.98041E-14
 -1      1379 5.31013E-03-6.70632E-04-2.08974E-14
 -1      1380 5.09742E-03-6.36255E-04-1.93446E-14
 -1      1381 5.45280E-03-6.68708E-04-2.20175E-14
 -1      1382 5.59566E-03-6.66636E-04-2.31652E-14
 -1      1383 5.38263E-03-6.32615E-04-2.15287E-14
 -1      1384 5.73871E-03-6.64392E-04-2.43395E-14
 -1      1385 5.88199E-03-6.61979E-04-2.55422E-14
 -1      1386 5.66852E-03-6.28370E-04-2.38212E-14
 -1      1387 6.02552E-03-6.59371E-04-2.67696E-14
 -1      1388 6.16934E-03-6.56573E-04-2.80225E-14
 -1      1389 5.95523E-03-6.23418E-04-2.62219E-14
 -1      1390 6.31349E-03-6.53560E-04-2.93036E-14
 -1      1391 6.45802E-03-6.50348E-04-3.06111E-14
 -1      1392 6.24297E-03-6.17662E-04-2.87293E-14
 -1      1393 6.60301E-03-6.46912E-04-3.19455E-14
 -1      1394 6.74850E-03-6.43286E-04-3.33064E-14
 -1      1395 6.53206E-03-6.11026E-04-3.13430E-14
 -1      1396 6.89458E-03-6.39450E-04-3.46955E-14
 -1      1397 7.04134E-03-6.35463E-04-3.61122E-14
 -1      1398 6.82293E-03-6.03496E-04-3.40650E-14
 -1      1399 7.18890E-03-6.31321E-04-3.75542E-14
 -1      1400 7.33734E-03-6.27115E-04-3.90219E-14
 -1      1401 7.11613E-03-5.95162E-04-3.68928E-14
 -1      1402 7.48681E-03-6.22869E-04-4.05144E-14
 -1      1403 7.63744E-03-6.18722E-04-4.20295E-14
 -1      1404 7.41235E-03-5.86286E-04-3.98234E-14
 -1      1405 7.78939E-03-6.14743E-04-4.35725E-14
 -1      1406 7.94282E-03-6.11137E-04-4.51409E-14
 -1      1407 7.71246E-03-5.77407E-04-4.28544E-14
 -1      1408 8.09790E-03-6.08046E-04-4.67304E-14
 -1      1409 8.25481E-03-6.05761E-04-4.83438E-14
 -1      1410 8.01746E-03-5.69472E-04-4.59828E-14
 -1      1411 8.41373E-03-6.04537E-04-4.99782E-14
 -1      1412 8.57486E-03-6.04775E-04-5.16326E-14
 -1      1413 8.32848E-03-5.64033E-04-4.92018E-14
 -1      1414 8.73835E-03-6.06896E-04-5.33088E-14
 -1      1415 8.90435E-03-6.11429E-04-5.50050E-14
 -1      1416 8.64669E-03-5.63503E-04-5.25072E-14
 -1      1417 9.07298E-03-6.19019E-04-5.67228E-14
 -1      1418 9.24427E-03-6.30329E-04-5.84596E-14
 -1      1419 8.97316E-03-5.71465E-04-5.58959E-14
 -1      1420 9.41821E-03-6.46263E-04-6.02168E-14
 -1      1421 9.59465E-03-6.67574E-04-6.19931E-14
 -1      1422 9.30857E-03-5.92958E-04-5.93652E-14
 -1      1423 9.77334E-03-6.95380E-04-6.37912E-14
 -1      1424 9.95383E-03-7.30383E-04-6.56105E-14
 -1      1425 9.65286E-03-6.34561E-04-6.29152E-14
 -1      1426 1.01355E-02-7.73668E-04-6.74458E-14
 -1      1427 1.03175E-02-8.25573E-04-6.92990E-14
 -1      1428 1.00046E-02-7.03847E-04-6.65426E-14
 -1      1429 1.04989E-02-8.86582E-04-7.11694E-14
 -1      1430 1.06784E-02-9.56109E-04-7.30523E-14
 -1      1431 1.03605E-02-8.07485E-04-7.02416E-14
 -1      1432 1.08547E-02-1.03318E-03-7.49535E-14
 -1      1433 1.10265E-02-1.11565E-03-7.68699E-14
 -1      1434 1.07148E-02-9.47208E-04-7.40058E-14
 -1      1435 1.11926E-02-1.20036E-03-7.88012E-14
 -1      1436 1.13521E-02-1.28332E-03-8.07491E-14
 -1      1437 1.10598E-02-1.11384E-03-7.78328E-14
 -1      1438 1.15048E-02-1.35959E-03-8.27095E-14
 -1      1439 1.16510E-02-1.42437E-03-8.46851E-14
 -1      1440 1.13881E-02-1.28233E-03-8.17208E-14
 -1      1441 1.17917E-02-1.47287E-03-8.66814E-14
 -1      1442 1.19288E-02-1.50185E-03-8.86917E-14
 -1      1443 1.16966E-02-1.41435E-03-8.56712E-14
 -1      1444 1.20641E-02-1.50948E-03-9.07174E-14
 -1      1445 1.22003E-02-1.49593E-03-9.27611E-14
 -1      1446 1.19910E-02-1.47346E-03-8.96885E-14
 -1      1447 1.23390E-02-1.46351E-03-9.48188E-14
 -1      1448 1.24821E-02-1.41564E-03-9.68904E-14
 -1      1449 1.22837E-02-1.44568E-03-9.37713E-14
 -1      1450 1.26300E-02-1.35712E-03-9.89751E-14
 -1      1451 1.27831E-02-1.29236E-03-1.01073E-13
 -1      1452 1.25863E-02-1.34814E-03-9.79124E-14
 -1      1453 1.29407E-02-1.22587E-03-1.03188E-13
 -1      1454 1.31018E-02-1.16094E-03-1.05312E-13
 -1      1455 1.29028E-02-1.21697E-03-1.02107E-13
 -1      1456 1.32652E-02-1.09997E-03-1.07448E-13
 -1      1457 1.34296E-02-1.04436E-03-1.09599E-13
 -1      1458 1.32291E-02-1.08635E-03-1.06353E-13
 -1      1459 1.35937E-02-9.94286E-04-1.11754E-13
 -1      1460 1.37564E-02-9.49607E-04-1.13904E-13
 -1      1461 1.35574E-02-9.75363E-04-1.10642E-13
 -1      1462 1.39169E-02-9.09044E-04-1.16060E-13
 -1      1463 1.40745E-02-8.71577E-04-1.18219E-13
 -1      1464 1.38806E-02-8.86941E-04-1.14950E-13
 -1      1465 1.42291E-02-8.35354E-04-1.20381E-13
 -1      1466 1.43805E-02-7.99042E-04-1.22543E-13
 -1      1467 1.41942E-02-8.13315E-04-1.19267E-13
 -1      1468 1.45290E-02-7.60980E-04-1.24710E-13
 -1      1469 1.46750E-02-7.20051E-04-1.26882E-13
 -1      1470 1.44968E-02-7.42143E-04-1.23598E-13
 -1      1471 1.48884E-02-6.50760E-04-1.30039E-13
 -1      1472 1.48592E-02-6.37453E-04-1.28922E-13
 -1      1473 6.43109E-04 3.72026E-04-7.80761E-17
 -1      1474 4.92975E-04 3.03699E-04-2.32832E-17
 -1      1475 4.44902E-04 2.65901E-04-5.14047E-17
 -1      1476 9.28710E-04 4.72001E-04-2.82055E-16
 -1      1477 7.87839E-04 4.26504E-04-1.64568E-16
 -1      1478 7.44777E-04 3.90731E-04-1.98775E-16
 -1      1479 1.20361E-03 5.41436E-04-6.10826E-16
 -1      1480 1.06694E-03 5.09749E-04-4.30401E-16
 -1      1481 1.03084E-03 4.76185E-04-4.69798E-16
 -1      1482 1.47417E-03 5.90652E-04-1.06736E-15
 -1      1483 1.33911E-03 5.68183E-04-8.23235E-16
 -1      1484 1.30876E-03 5.36026E-04-8.65559E-16
 -1      1485 1.74371E-03 6.25568E-04-1.65075E-15
 -1      1486 1.60890E-03 6.09656E-04-1.34285E-15
 -1      1487 1.58300E-03 5.78333E-04-1.38675E-15
 -1      1488 2.01392E-03 6.50053E-04-2.36019E-15
 -1      1489 1.87865E-03 6.38942E-04-1.98967E-15
 -1      1490 1.85617E-03 6.08083E-04-2.03415E-15
 -1      1491 2.28560E-03 6.66851E-04-3.19284E-15
 -1      1492 2.14954E-03 6.59282E-04-2.76131E-15
 -1      1493 2.12968E-03 6.28657E-04-2.80597E-15
 -1      1494 2.55907E-03 6.78003E-04-4.14878E-15
 -1      1495 2.42210E-03 6.73033E-04-3.65550E-15
 -1      1496 2.40424E-03 6.42503E-04-3.70045E-15
 -1      1497 2.83438E-03 6.85045E-04-5.22816E-15
 -1      1498 2.69650E-03 6.81961E-04-4.67324E-15
 -1      1499 2.68014E-03 6.51444E-04-4.71701E-15
 -1      1500 3.11144E-03 6.89130E-04-6.42992E-15
 -1      1501 2.97270E-03 6.87400E-04-5.81403E-15
 -1      1502 2.95747E-03 6.56846E-04-5.85559E-15
 -1      1503 3.39006E-03 6.91114E-04-7.75092E-15
 -1      1504 3.25057E-03 6.90342E-04-7.07492E-15
 -1      1505 3.23617E-03 6.59728E-04-7.11448E-15
 -1      1506 3.67005E-03 6.91618E-04-9.19244E-15
 -1      1507 3.52990E-03 6.91521E-04-8.45661E-15
 -1      1508 3.51612E-03 6.60837E-04-8.49340E-15
 -1      1509 3.95121E-03 6.91076E-04-1.07538E-14
 -1      1510 3.81050E-03 6.91457E-04-9.95803E-15
 -1      1511 3.79717E-03 6.60702E-04-9.99229E-15
 -1      1512 4.23335E-03 6.89779E-04-1.24352E-14
 -1      1513 4.09217E-03 6.90509E-04-1.15797E-14
 -1      1514 4.07918E-03 6.59689E-04-1.16098E-14
 -1      1515 4.51631E-03 6.87902E-04-1.42379E-14
 -1      1516 4.37474E-03 6.88906E-04-1.33212E-14
 -1      1517 4.36200E-03 6.58027E-04-1.33474E-14
 -1      1518 4.79999E-03 6.85533E-04-1.61578E-14
 -1      1519 4.65807E-03 6.86776E-04-1.51832E-14
 -1      1520 4.64554E-03 6.55846E-04-1.52039E-14
 -1      1521 5.08432E-03 6.82694E-04-1.81990E-14
 -1      1522 4.94208E-03 6.84172E-04-1.71637E-14
 -1      1523 4.92971E-03 6.53197E-04-1.71803E-14
 -1      1524 5.36929E-03 6.79360E-04-2.03586E-14
 -1      1525 5.22672E-03 6.81090E-04-1.92640E-14
 -1      1526 5.21450E-03 6.50071E-04-1.92747E-14
 -1      1527 5.65496E-03 6.75475E-04-2.26319E-14
 -1      1528 5.51203E-03 6.77487E-04-2.14812E-14
 -1      1529 5.49993E-03 6.46421E-04-2.14849E-14
 -1      1530 5.94147E-03 6.70976E-04-2.50111E-14
 -1      1531 5.79810E-03 6.73301E-04-2.38081E-14
 -1      1532 5.78610E-03 6.42178E-04-2.38053E-14
 -1      1533 6.22904E-03 6.65812E-04-2.74948E-14
 -1      1534 6.08511E-03 6.68472E-04-2.62402E-14
 -1      1535 6.07316E-03 6.37272E-04-2.62327E-14
 -1      1536 6.51797E-03 6.59973E-04-3.00820E-14
 -1      1537 6.37331E-03 6.62966E-04-2.87754E-14
 -1      1538 6.36136E-03 6.31658E-04-2.87636E-14
 -1      1539 6.80869E-03 6.53528E-04-3.27792E-14
 -1      1540 6.66308E-03 6.56806E-04-3.14173E-14
 -1      1541 6.65101E-03 6.25345E-04-3.14002E-14
 -1      1542 7.10172E-03 6.46672E-04-3.55787E-14
 -1      1543 6.95488E-03 6.50118E-04-3.41660E-14
 -1      1544 6.94255E-03 6.18441E-04-3.41422E-14
 -1      1545 7.39770E-03 6.39792E-04-3.84712E-14
 -1      1546 7.24930E-03 6.43184E-04-3.70133E-14
 -1      1547 7.23647E-03 6.11208E-04-3.69833E-14
 -1      1548 7.69736E-03 6.33548E-04-4.14561E-14
 -1      1549 7.54702E-03 6.36517E-04-3.99530E-14
 -1      1550 7.53338E-03 6.04137E-04-3.99179E-14
 -1      1551 8.00148E-03 6.28965E-04-4.45313E-14
 -1      1552 7.84882E-03 6.30948E-04-4.29819E-14
 -1      1553 7.83394E-03 5.98036E-04-4.29431E-14
 -1      1554 8.31078E-03 6.27545E-04-4.76915E-14
 -1      1555 8.15544E-03 6.27730E-04-4.61009E-14
 -1      1556 8.13879E-03 5.94135E-04-4.60565E-14
 -1      1557 8.62580E-03 6.31352E-04-5.09280E-14
 -1      1558 8.46754E-03 6.28637E-04-4.93013E-14
 -1      1559 8.44849E-03 5.94199E-04-4.92517E-14
 -1      1560 8.94668E-03 6.43041E-04-5.42353E-14
 -1      1561 8.78551E-03 6.36036E-04-5.25723E-14
 -1      1562 8.76339E-03 6.00600E-04-5.25204E-14
 -1      1563 9.27282E-03 6.65746E-04-5.76245E-14
 -1      1564 9.10914E-03 6.52853E-04-5.59200E-14
 -1      1565 9.08334E-03 6.16306E-04-5.58655E-14
 -1      1566 9.60260E-03 7.02678E-04-6.10918E-14
 -1      1567 9.43739E-03 6.82331E-04-5.93476E-14
 -1      1568 9.40753E-03 6.44657E-04-5.92876E-14
 -1      1569 9.93300E-03 7.56267E-04-6.46335E-14
 -1      1570 9.76796E-03 7.27424E-04-6.28524E-14
 -1      1571 9.73417E-03 6.88784E-04-6.27884E-14
 -1      1572 1.02596E-02 8.26750E-04-6.82535E-14
 -1      1573 1.00971E-02 7.89664E-04-6.64339E-14
 -1      1574 1.00603E-02 7.50487E-04-6.63663E-14
 -1      1575 1.05770E-02 9.10326E-04-7.19554E-14
 -1      1576 1.04199E-02 8.67484E-04-7.00950E-14
 -1      1577 1.03820E-02 8.28537E-04-7.00233E-14
 -1      1578 1.08801E-02 9.97590E-04-7.57270E-14
 -1      1579 1.07307E-02 9.54395E-04-7.38325E-14
 -1      1580 1.06948E-02 9.16749E-04-7.37539E-14
 -1      1581 1.11658E-02 1.07360E-03-7.95613E-14
 -1      1582 1.10252E-02 1.03807E-03-7.76374E-14
 -1      1583 1.09949E-02 1.00287E-03-7.75517E-14
 -1      1584 1.14351E-02 1.12081E-03-8.34563E-14
 -1      1585 1.13023E-02 1.10173E-03-8.15014E-14
 -1      1586 1.12810E-02 1.06978E-03-8.14102E-14
 -1      1587 1.16936E-02 1.12475E-03-8.74163E-14
 -1      1588 1.15652E-02 1.12861E-03-8.54282E-14
 -1      1589 1.15553E-02 1.09998E-03-8.53339E-14
 -1      1590 1.19499E-02 1.07987E-03-9.14420E-14
 -1      1591 1.18214E-02 1.10816E-03-8.94209E-14
 -1      1592 1.18237E-02 1.08204E-03-8.93228E-14
 -1      1593 1.22124E-02 9.91647E-04-9.55232E-14
 -1      1594 1.20799E-02 1.04036E-03-9.34752E-14
 -1      1595 1.20934E-02 1.01546E-03-9.33751E-14
 -1      1596 1.24860E-02 8.73703E-04-9.96681E-14
 -1      1597 1.23476E-02 9.35392E-04-9.75878E-14
 -1      1598 1.23700E-02 9.10503E-04-9.74847E-14
 -1      1599 1.27709E-02 7.41556E-04-1.03863E-13
 -1      1600 1.26271E-02 8.08589E-04-1.01762E-13
 -1      1601 1.26555E-02 7.83040E-04-1.01651E-13
 -1      1602 1.30638E-02 6.07088E-04-1.08086E-13
 -1      1603 1.29166E-02 6.74178E-04-1.05972E-13
 -1      1604 1.29485E-02 6.47895E-04-1.05858E-13
 -1      1605 1.33597E-02 4.75962E-04-1.12356E-13
 -1      1606 1.32117E-02 5.41049E-04-1.10216E-13
 -1      1607 1.32453E-02 5.14383E-04-1.10102E-13
 -1      1608 1.36545E-02 3.48048E-04-1.16660E-13
 -1      1609 1.35075E-02 4.11791E-04-1.14502E-13
 -1      1610 1.35422E-02 3.85253E-04-1.14387E-13
 -1      1611 1.39457E-02 2.19656E-04-1.20996E-13
 -1      1612 1.38006E-02 2.84164E-04-1.18825E-13
 -1      1613 1.38363E-02 2.58198E-04-1.18706E-13
 -1      1614 1.42332E-02 8.67784E-05-1.25349E-13
 -1      1615 1.40898E-02 1.53901E-04-1.23171E-13
 -1      1616 1.41264E-02 1.28690E-04-1.23052E-13
 -1      1617 1.43996E-02 4.58893E-06-1.27645E-13
 -1      1618 1.45849E-02-1.04785E-04-1.28108E-13
 -1      1619 1.45145E-02-6.38783E-05-1.27994E-13
 -1      1620 1.47313E-02-1.82868E-04-1.28338E-13
 -1      1621 1.46572E-02-1.44587E-04-1.28225E-13
 -1      1622 1.44974E-02-6.49650E-05-1.26274E-13
 -1      1623 1.48846E-02-2.52964E-04-1.28561E-13
 -1      1624 1.48073E-02-2.19158E-04-1.28451E-13
 -1      1625 1.46466E-02-1.41587E-04-1.26498E-13
 -1      1626 1.50412E-02-3.11124E-04-1.28761E-13
 -1      1627 1.49628E-02-2.83782E-04-1.28665E-13
 -1      1628 1.48024E-02-2.10693E-04-1.26711E-13
 -1      1629 1.51914E-02-3.53161E-04-1.28946E-13
 -1      1630 1.51173E-02-3.34192E-04-1.28854E-13
 -1      1631 1.49594E-02-2.68710E-04-1.26907E-13
 -1      1632 1.53294E-02-3.78521E-04-1.29119E-13
 -1      1633 1.52630E-02-3.68064E-04-1.29031E-13
 -1      1634 1.51107E-02-3.13575E-04-1.27090E-13
 -1      1635 1.54389E-02-3.87162E-04-1.29294E-13
 -1      1636 1.53885E-02-3.84745E-04-1.29206E-13
 -1      1637 1.52452E-02-3.44244E-04-1.27267E-13
 -1      1638 1.55070E-02-3.83516E-04-1.29465E-13
 -1      1639 1.54788E-02-3.86467E-04-1.29384E-13
 -1      1640 1.53475E-02-3.61576E-04-1.27444E-13
 -1      1641 1.55256E-02-3.75180E-04-1.29619E-13
 -1      1642 1.55227E-02-3.79384E-04-1.29544E-13
 -1      1643 1.54048E-02-3.69942E-04-1.27609E-13
 -1      1644 1.54942E-02-3.71171E-04-1.29753E-13
 -1      1645 1.55159E-02-3.72088E-04-1.29689E-13
 -1      1646 1.54103E-02-3.76173E-04-1.27758E-13
 -1      1647 1.54219E-02-3.79259E-04-1.29868E-13
 -1      1648 1.54625E-02-3.73337E-04-1.29813E-13
 -1      1649 1.53664E-02-3.87687E-04-1.27886E-13
 -1      1650 1.53190E-02-4.04817E-04-1.29968E-13
 -1      1651 1.53733E-02-3.89676E-04-1.29922E-13
 -1      1652 1.52826E-02-4.10568E-04-1.27998E-13
 -1      1653 1.52014E-02-4.49356E-04-1.30037E-13
 -1      1654 1.52612E-02-4.24753E-04-1.30008E-13
 -1      1655 1.51721E-02-4.48562E-04-1.28091E-13
 -1      1656 1.50828E-02-5.11047E-04-1.30111E-13
 -1      1657 1.51416E-02-4.78284E-04-1.30073E-13
 -1      1658 1.50507E-02-5.01938E-04-1.28167E-13
 -1      1659 1.49421E-02-5.91917E-04-1.29534E-13
 -1      1660 1.49960E-02-5.53654E-04-1.29502E-13
 -1      1661 1.49015E-02-5.74032E-04-1.27595E-13
 -1      1662 1.47281E-02-6.59107E-04-1.26378E-13
 -1      1663 1.42083E-02-1.84574E-04-9.87039E-14
 -1      1664 1.42491E-02-2.37059E-04-9.88548E-14
 -1      1665 1.40263E-02-5.58424E-05-9.80244E-14
 -1      1666 1.41246E-02-1.15982E-04-9.83585E-14
 -1      1667 1.36966E-02 9.90044E-05-9.70390E-14
 -1      1668 1.38642E-02 1.49330E-05-9.76317E-14
 -1      1669 1.33002E-02 3.15183E-04-9.53250E-14
 -1      1670 1.34941E-02 2.20450E-04-9.60909E-14
 -1      1671 1.28431E-02 5.16667E-04-9.34558E-14
 -1      1672 1.30507E-02 4.21258E-04-9.43875E-14
 -1      1673 1.24287E-02 6.78984E-04-9.13831E-14
 -1      1674 1.26146E-02 6.13303E-04-9.23178E-14
 -1      1675 1.20289E-02 7.68652E-04-8.92496E-14
 -1      1676 1.22115E-02 7.37056E-04-9.02407E-14
 -1      1677 1.16262E-02 7.71977E-04-8.70216E-14
 -1      1678 1.18106E-02 7.83297E-04-8.80470E-14
 -1      1679 1.12198E-02 6.80396E-04-8.47949E-14
 -1      1680 1.14075E-02 7.35361E-04-8.57817E-14
 -1      1681 1.07947E-02 5.23209E-04-8.29079E-14
 -1      1682 1.09820E-02 6.00527E-04-8.37581E-14
 -1      1683 1.03976E-02 3.49853E-04-8.13252E-14
 -1      1684 1.05747E-02 4.31753E-04-8.20267E-14
 -1      1685 1.00478E-02 1.70003E-04-7.99525E-14
 -1      1686 1.02070E-02 2.47384E-04-8.05036E-14
 -1      1687 9.76339E-03 2.27169E-05-7.90516E-14
 -1      1688 9.88147E-03 8.61891E-05-7.94089E-14
 -1      1689 9.60875E-03-8.80893E-05-7.86754E-14
 -1      1690 9.66230E-03-3.98802E-05-7.88099E-14
 -1      1691 9.59414E-03-1.93767E-04-7.85540E-14
 -1      1692 9.58044E-03-1.46594E-04-7.84823E-14
 -1      1693 9.73334E-03-3.17356E-04-7.92049E-14
 -1      1694 9.65331E-03-2.60780E-04-7.89227E-14
 -1      1695 9.98849E-03-4.70371E-04-8.01608E-14
 -1      1696 9.85692E-03-3.97421E-04-7.96945E-14
 -1      1697 1.03338E-02-6.53683E-04-8.14459E-14
 -1      1698 1.01648E-02-5.64950E-04-8.08066E-14
 -1      1699 1.07200E-02-8.50831E-04-8.30162E-14
 -1      1700 1.05395E-02-7.59568E-04-8.22625E-14
 -1      1701 1.11366E-02-1.04064E-03-8.48679E-14
 -1      1702 1.09448E-02-9.53963E-04-8.39646E-14
 -1      1703 1.15374E-02-1.18191E-03-8.69208E-14
 -1      1704 1.13526E-02-1.12541E-03-8.59759E-14
 -1      1705 1.19229E-02-1.24110E-03-8.89664E-14
 -1      1706 1.17474E-02-1.22465E-03-8.80272E-14
 -1      1707 1.23257E-02-1.21004E-03-9.11400E-14
 -1      1708 1.21360E-02-1.23765E-03-9.01256E-14
 -1      1709 1.27450E-02-1.09114E-03-9.31962E-14
 -1      1710 1.25531E-02-1.15461E-03-9.22681E-14
 -1      1711 1.31515E-02-9.18800E-04-9.50617E-14
 -1      1712 1.29628E-02-1.00242E-03-9.42517E-14
 -1      1713 1.35606E-02-7.14449E-04-9.67699E-14
 -1      1714 1.33694E-02-8.07493E-04-9.60493E-14
 -1      1715 1.39150E-02-5.48774E-04-9.78872E-14
 -1      1716 1.37687E-02-6.23724E-04-9.73991E-14
 -1      1717 1.41479E-02-4.15615E-04-9.85627E-14
 -1      1718 1.40560E-02-4.74328E-04-9.82911E-14
 -1      1719 1.42544E-02-2.97527E-04-9.88893E-14
 -1      1720 1.42225E-02-3.49451E-04-9.88146E-14
 -1      1721 1.31044E-02 3.27696E-04-9.53594E-14
 -1      1722 1.35483E-02 9.74033E-05-9.72532E-14
 -1      1723 1.44370E-02-2.01684E-05-1.27529E-13
 -1      1724 1.43475E-02 1.83906E-05-1.25695E-13
 -1      1725 1.41695E-02-1.88064E-04-9.93455E-14
 -1      1726 1.39183E-02-7.57297E-05-9.86050E-14
 -1      1727 1.42631E-02-2.70307E-04-9.97241E-14
 -1      1728 1.26659E-02 5.50628E-04-9.32736E-14
 -1      1729 1.22731E-02 7.22309E-04-9.09869E-14
 -1      1730 1.19054E-02 8.03365E-04-8.86379E-14
 -1      1731 1.15410E-02 7.75871E-04-8.61983E-14
 -1      1732 1.11620E-02 6.40127E-04-8.39293E-14
 -1      1733 1.07482E-02 4.49864E-04-8.20194E-14
 -1      1734 1.03511E-02 2.48843E-04-8.03247E-14
 -1      1735 9.99204E-03 7.32705E-05-7.89662E-14
 -1      1736 9.71835E-03-4.61343E-05-7.81845E-14
 -1      1737 9.58399E-03-1.29650E-04-7.77479E-14
 -1      1738 9.61626E-03-1.97799E-04-7.79168E-14
 -1      1739 9.80770E-03-3.05989E-04-7.87667E-14
 -1      1740 1.01150E-02-4.59396E-04-7.98949E-14
 -1      1741 1.04951E-02-6.56817E-04-8.13502E-14
 -1      1742 1.09043E-02-8.77596E-04-8.31105E-14
 -1      1743 1.13001E-02-1.08472E-03-8.51622E-14
 -1      1744 1.16699E-02-1.22535E-03-8.73758E-14
 -1      1745 1.20267E-02-1.26651E-03-8.96425E-14
 -1      1746 1.23949E-02-1.19618E-03-9.19347E-14
 -1      1747 1.27915E-02-1.03471E-03-9.41252E-14
 -1      1748 1.32011E-02-8.20376E-04-9.61762E-14
 -1      1749 1.36155E-02-6.13823E-04-9.78008E-14
 -1      1750 1.39657E-02-4.60640E-04-9.88402E-14
 -1      1751 1.41893E-02-3.51123E-04-9.95014E-14
 -1      1752 2.85255E-04-1.76232E-04-4.21755E-17
 -1      1753 3.32149E-04-1.16792E-04-1.56477E-16
 -1      1754 3.36253E-04-1.32995E-04-1.45635E-16
 -1      1755 3.42209E-04-1.51997E-04-1.32652E-16
 -1      1756 3.51776E-04-1.74008E-04-1.14654E-16
 -1      1757 4.58305E-04-1.88066E-04-2.11663E-16
 -1      1758 3.24555E-04-6.53810E-05-1.79720E-16
 -1      1759 3.25703E-04-7.66745E-05-1.75966E-16
 -1      1760 3.23066E-04-4.38880E-05-1.84369E-16
 -1      1761 3.23718E-04-5.43765E-05-1.82281E-16
 -1      1762 4.36497E-04-7.92883E-05-2.67798E-16
 -1      1763 3.22284E-04-2.37708E-05-1.86632E-16
 -1      1764 3.22615E-04-3.36837E-05-1.85683E-16
 -1      1765 4.34505E-04-5.13162E-05-2.73327E-16
 -1      1766 3.21992E-04-4.33709E-06-1.86916E-16
 -1      1767 3.22088E-04-1.39891E-05-1.86998E-16
 -1      1768 4.33487E-04-2.49233E-05-2.75686E-16
 -1      1769 3.22114E-04 1.49803E-05-1.85263E-16
 -1      1770 3.22000E-04 5.31815E-06-1.86442E-16
 -1      1771 4.33191E-04 7.57331E-07-2.75360E-16
 -1      1772 3.22679E-04 3.47286E-05-1.81523E-16
 -1      1773 3.22328E-04 2.47830E-05-1.83786E-16
 -1      1774 4.33547E-04 2.64668E-05-2.72257E-16
 -1      1775 3.23806E-04 5.51648E-05-1.74977E-16
 -1      1776 3.23144E-04 4.48028E-05-1.78717E-16
 -1      1777 4.34621E-04 5.27213E-05-2.66104E-16
 -1      1778 3.25862E-04 7.78145E-05-1.64921E-16
 -1      1779 3.24665E-04 6.62344E-05-1.70477E-16
 -1      1780 4.36674E-04 8.05995E-05-2.55736E-16
 -1      1781 3.29550E-04 1.03651E-04-1.49986E-16
 -1      1782 3.27402E-04 9.03014E-05-1.58321E-16
 -1      1783 4.40320E-04 1.11567E-04-2.40354E-16
 -1      1784 3.36584E-04 1.35108E-04-1.27001E-16
 -1      1785 3.32402E-04 1.18610E-04-1.40038E-16
 -1      1786 4.46790E-04 1.47335E-04-2.17572E-16
 -1      1787 3.52312E-04 1.77603E-04-9.16557E-17
 -1      1788 3.42816E-04 1.54757E-04-1.11497E-16
 -1      1789 4.59325E-04 1.91456E-04-1.83271E-16
 -1      1790 4.07715E-04 2.33687E-04-6.71392E-17
 -1      1791 3.78102E-04 2.02662E-04-8.33345E-17
 -1      1792 4.95870E-04 2.43996E-04-1.52208E-16
 -1      1793 5.58568E-04 3.02507E-04-1.26960E-16
 -1      1794 3.40038E-04-1.90908E-04-7.99735E-17
 -1      1795 8.53602E-04 4.07126E-04-3.40236E-16
 -1      1796 7.07192E-04 3.59382E-04-2.18467E-16
 -1      1797 6.73424E-04 3.28813E-04-2.34662E-16
 -1      1798 4.58975E-04-2.36721E-04-1.48156E-16
 -1      1799 8.07263E-04-3.74129E-04-4.07904E-16
 -1      1800 9.52535E-04-4.15316E-04-5.75793E-16
 -1      1801 1.09538E-03-4.50004E-04-7.75069E-16
 -1      1802 1.23705E-03-4.78903E-04-1.00660E-15
 -1      1803 1.00396E-03-3.97932E-04-7.14557E-16
 -1      1804 1.37746E-03-5.03392E-04-1.26990E-15
 -1      1805 1.51716E-03-5.23770E-04-1.56502E-15
 -1      1806 1.28965E-03-4.55900E-04-1.18486E-15
 -1      1807 1.65632E-03-5.40954E-04-1.89203E-15
 -1      1808 1.79517E-03-5.55184E-04-2.25097E-15
 -1      1809 1.57207E-03-4.96857E-04-1.78109E-15
 -1      1810 1.93389E-03-5.67069E-04-2.64127E-15
 -1      1811 2.07255E-03-5.76810E-04-3.06328E-15
 -1      1812 1.85269E-03-5.25413E-04-2.50326E-15
 -1      1813 2.21130E-03-5.84825E-04-3.51792E-15
 -1      1814 2.35014E-03-5.91284E-04-4.00386E-15
 -1      1815 2.13259E-03-5.44904E-04-3.35181E-15
 -1      1816 2.48918E-03-5.96485E-04-4.52066E-15
 -1      1817 2.62839E-03-6.00565E-04-5.06874E-15
 -1      1818 2.41246E-03-5.57781E-04-4.32580E-15
 -1      1819 2.76785E-03-6.03737E-04-5.64788E-15
 -1      1820 2.90752E-03-6.06111E-04-6.25734E-15
 -1      1821 2.69268E-03-5.65872E-04-5.42379E-15
 -1      1822 3.04744E-03-6.07840E-04-6.89689E-15
 -1      1823 3.18758E-03-6.09008E-04-7.56624E-15
 -1      1824 2.97347E-03-5.70541E-04-6.64353E-15
 -1      1825 3.32797E-03-6.09723E-04-8.26520E-15
 -1      1826 3.46856E-03-6.10048E-04-8.99382E-15
 -1      1827 3.25491E-03-5.72796E-04-7.98256E-15
 -1      1828 3.60938E-03-6.10057E-04-9.75183E-15
 -1      1829 3.75038E-03-6.09796E-04-1.05387E-14
 -1      1830 3.53702E-03-5.73371E-04-9.43925E-15
 -1      1831 3.89159E-03-6.09312E-04-1.13545E-14
 -1      1832 4.03296E-03-6.08639E-04-1.21991E-14
 -1      1833 3.81975E-03-5.72780E-04-1.10123E-14
 -1      1834 4.17451E-03-6.07801E-04-1.30720E-14
 -1      1835 4.31621E-03-6.06821E-04-1.39722E-14
 -1      1836 4.10307E-03-5.71371E-04-1.27001E-14
 -1      1837 4.45807E-03-6.05709E-04-1.48998E-14
 -1      1838 4.60007E-03-6.04479E-04-1.58555E-14
 -1      1839 4.38691E-03-5.69356E-04-1.44998E-14
 -1      1840 4.74221E-03-6.03128E-04-1.68388E-14
 -1      1841 4.88448E-03-6.01664E-04-1.78487E-14
 -1      1842 4.67124E-03-5.66847E-04-1.64095E-14
 -1      1843 5.02689E-03-6.00075E-04-1.88851E-14
 -1      1844 5.16943E-03-5.98364E-04-1.99491E-14
 -1      1845 4.95604E-03-5.63871E-04-1.84280E-14
 -1      1846 5.31212E-03-5.96510E-04-2.10415E-14
 -1      1847 5.45496E-03-5.94515E-04-2.21590E-14
 -1      1848 5.24130E-03-5.60399E-04-2.05542E-14
 -1      1849 5.59795E-03-5.92353E-04-2.33048E-14
 -1      1850 5.74113E-03-5.90024E-04-2.44777E-14
 -1      1851 5.52708E-03-5.56354E-04-2.27901E-14
 -1      1852 5.88450E-03-5.87500E-04-2.56768E-14
 -1      1853 6.02810E-03-5.84782E-04-2.69036E-14
 -1      1854 5.81346E-03-5.51631E-04-2.51336E-14
 -1      1855 6.17194E-03-5.81840E-04-2.81564E-14
 -1      1856 6.31608E-03-5.78682E-04-2.94359E-14
 -1      1857 6.10056E-03-5.46113E-04-2.75854E-14
 -1      1858 6.46051E-03-5.75281E-04-3.07422E-14
 -1      1859 6.60534E-03-5.71652E-04-3.20752E-14
 -1      1860 6.38857E-03-5.39693E-04-3.01426E-14
 -1      1861 6.75056E-03-5.67775E-04-3.34358E-14
 -1      1862 6.89628E-03-5.63681E-04-3.48218E-14
 -1      1863 6.67775E-03-5.32299E-04-3.28085E-14
 -1      1864 7.04251E-03-5.59366E-04-3.62337E-14
 -1      1865 7.18938E-03-5.54881E-04-3.76721E-14
 -1      1866 6.96842E-03-5.23936E-04-3.55776E-14
 -1      1867 7.33691E-03-5.50249E-04-3.91366E-14
 -1      1868 7.48527E-03-5.45553E-04-4.06241E-14
 -1      1869 7.26100E-03-5.14741E-04-3.84511E-14
 -1      1870 7.63444E-03-5.40861E-04-4.21387E-14
 -1      1871 7.78465E-03-5.36299E-04-4.36767E-14
 -1      1872 7.55598E-03-5.05061E-04-4.14256E-14
 -1      1873 7.93588E-03-5.32007E-04-4.52381E-14
 -1      1874 8.08838E-03-5.28171E-04-4.68232E-14
 -1      1875 7.85395E-03-4.95569E-04-4.44970E-14
 -1      1876 8.24213E-03-5.25039E-04-4.84298E-14
 -1      1877 8.39739E-03-5.22879E-04-5.00591E-14
 -1      1878 8.15560E-03-4.87426E-04-4.76616E-14
 -1      1879 8.55415E-03-5.22094E-04-5.17100E-14
 -1      1880 8.71266E-03-5.23064E-04-5.33809E-14
 -1      1881 8.46172E-03-4.82493E-04-5.09156E-14
 -1      1882 8.87292E-03-5.26392E-04-5.50727E-14
 -1      1883 9.03512E-03-5.32607E-04-5.67851E-14
 -1      1884 8.77317E-03-4.83612E-04-5.42537E-14
 -1      1885 9.19930E-03-5.42548E-04-5.85186E-14
 -1      1886 9.36548E-03-5.56919E-04-6.02703E-14
 -1      1887 9.09093E-03-4.94919E-04-5.76736E-14
 -1      1888 9.53385E-03-5.76763E-04-6.20398E-14
 -1      1889 9.70404E-03-6.02953E-04-6.38324E-14
 -1      1890 9.41607E-03-5.22106E-04-6.11717E-14
 -1      1891 9.87652E-03-6.36572E-04-6.56440E-14
 -1      1892 1.00503E-02-6.78525E-04-6.74720E-14
 -1      1893 9.74969E-03-5.72415E-04-6.47472E-14
 -1      1894 1.02261E-02-7.29530E-04-6.93189E-14
 -1      1895 1.04023E-02-7.90123E-04-7.11814E-14
 -1      1896 1.00926E-02-6.53881E-04-6.83991E-14
 -1      1897 1.05797E-02-8.59991E-04-7.30606E-14
 -1      1898 1.07558E-02-9.38427E-04-7.49563E-14
 -1      1899 1.04442E-02-7.73009E-04-7.21195E-14
 -1      1900 1.09314E-02-1.02330E-03-7.68667E-14
 -1      1901 1.11039E-02-1.11167E-03-7.87932E-14
 -1      1902 1.08012E-02-9.29733E-04-7.59044E-14
 -1      1903 1.12733E-02-1.19929E-03-8.07338E-14
 -1      1904 1.14387E-02-1.28060E-03-8.26902E-14
 -1      1905 1.11557E-02-1.10984E-03-7.97500E-14
 -1      1906 1.15990E-02-1.35026E-03-8.46643E-14
 -1      1907 1.17565E-02-1.40257E-03-8.66554E-14
 -1      1908 1.14979E-02-1.27862E-03-8.36605E-14
 -1      1909 1.19094E-02-1.43367E-03-8.86643E-14
 -1      1910 1.20631E-02-1.44128E-03-9.06858E-14
 -1      1911 1.18236E-02-1.38830E-03-8.76380E-14
 -1      1912 1.22156E-02-1.42564E-03-9.27240E-14
 -1      1913 1.23716E-02-1.38972E-03-9.47801E-14
 -1      1914 1.21412E-02-1.40316E-03-9.16827E-14
 -1      1915 1.25297E-02-1.33752E-03-9.68488E-14
 -1      1916 1.26915E-02-1.27477E-03-9.89327E-14
 -1      1917 1.24654E-02-1.32612E-03-9.57883E-14
 -1      1918 1.28561E-02-1.20650E-03-1.01030E-13
 -1      1919 1.30220E-02-1.13751E-03-1.03141E-13
 -1      1920 1.28023E-02-1.19520E-03-9.99534E-14
 -1      1921 1.31896E-02-1.07133E-03-1.05264E-13
 -1      1922 1.33562E-02-1.01017E-03-1.07394E-13
 -1      1923 1.31463E-02-1.05502E-03-1.04171E-13
 -1      1924 1.35225E-02-9.55299E-04-1.09533E-13
 -1      1925 1.36863E-02-9.06701E-04-1.11684E-13
 -1      1926 1.34873E-02-9.33822E-04-1.08432E-13
 -1      1927 1.38485E-02-8.63834E-04-1.13838E-13
 -1      1928 1.40075E-02-8.25543E-04-1.15993E-13
 -1      1929 1.38186E-02-8.39444E-04-1.12723E-13
 -1      1930 1.41641E-02-7.90282E-04-1.18154E-13
 -1      1931 1.43176E-02-7.56481E-04-1.20318E-13
 -1      1932 1.41373E-02-7.66034E-04-1.17040E-13
 -1      1933 1.44507E-02-7.27741E-04-1.22258E-13
 -1      1934 1.45993E-02-6.91969E-04-1.24428E-13
 -1      1935 1.46864E-02-6.48692E-04-1.25034E-13
 -1      1936 1.44256E-02-7.06598E-04-1.21142E-13
 -1      1937 1.13867E-03 4.80098E-04-6.74320E-16
 -1      1938 9.96890E-04 4.46842E-04-4.91875E-16
 -1      1939 9.64503E-04 4.17386E-04-5.09792E-16
 -1      1940 1.41779E-03 5.31590E-04-1.13264E-15
 -1      1941 1.27863E-03 5.08136E-04-8.87813E-16
 -1      1942 1.24899E-03 4.79998E-04-9.06434E-16
 -1      1943 1.69418E-03 5.67896E-04-1.71566E-15
 -1      1944 1.55614E-03 5.51397E-04-1.40835E-15
 -1      1945 1.52927E-03 5.24223E-04-1.42612E-15
 -1      1946 1.96975E-03 5.93195E-04-2.42363E-15
 -1      1947 1.83197E-03 5.81752E-04-2.05403E-15
 -1      1948 1.80751E-03 5.55217E-04-2.07041E-15
 -1      1949 2.24558E-03 6.10440E-04-3.25495E-15
 -1      1950 2.10759E-03 6.02699E-04-2.82405E-15
 -1      1951 2.08513E-03 5.76570E-04-2.83854E-15
 -1      1952 2.52224E-03 6.21804E-04-4.20768E-15
 -1      1953 2.38379E-03 6.16764E-04-3.71621E-15
 -1      1954 2.36295E-03 5.90882E-04-3.72842E-15
 -1      1955 2.79997E-03 6.28912E-04-5.28196E-15
 -1      1956 2.66097E-03 6.25820E-04-4.72940E-15
 -1      1957 2.64140E-03 6.00081E-04-4.73880E-15
 -1      1958 3.07884E-03 6.32976E-04-6.47716E-15
 -1      1959 2.93926E-03 6.31273E-04-5.86437E-15
 -1      1960 2.92070E-03 6.05606E-04-5.86975E-15
 -1      1961 3.35882E-03 6.34890E-04-7.79161E-15
 -1      1962 3.21870E-03 6.34164E-04-7.11944E-15
 -1      1963 3.20091E-03 6.08526E-04-7.12085E-15
 -1      1964 3.63982E-03 6.35303E-04-9.22668E-15
 -1      1965 3.49920E-03 6.35258E-04-8.49420E-15
 -1      1966 3.48201E-03 6.09621E-04-8.49172E-15
 -1      1967 3.92173E-03 6.34664E-04-1.07795E-14
 -1      1968 3.78067E-03 6.35097E-04-9.98821E-15
 -1      1969 3.76393E-03 6.09447E-04-9.98062E-15
 -1      1970 4.20443E-03 6.33276E-04-1.24522E-14
 -1      1971 4.06299E-03 6.34053E-04-1.16012E-14
 -1      1972 4.04660E-03 6.08383E-04-1.15887E-14
 -1      1973 4.48782E-03 6.31316E-04-1.42434E-14
 -1      1974 4.34605E-03 6.32362E-04-1.33329E-14
 -1      1975 4.32992E-03 6.06671E-04-1.33156E-14
 -1      1976 4.77184E-03 6.28875E-04-1.61532E-14
 -1      1977 4.62976E-03 6.30154E-04-1.51831E-14
 -1      1978 4.61384E-03 6.04445E-04-1.51597E-14
 -1      1979 5.05645E-03 6.25970E-04-1.81824E-14
 -1      1980 4.91407E-03 6.27481E-04-1.71533E-14
 -1      1981 4.89830E-03 6.01756E-04-1.71235E-14
 -1      1982 5.34164E-03 6.22569E-04-2.03280E-14
 -1      1983 5.19897E-03 6.24333E-04-1.92407E-14
 -1      1984 5.18330E-03 5.98596E-04-1.92037E-14
 -1      1985 5.62748E-03 6.18609E-04-2.25868E-14
 -1      1986 5.48447E-03 6.20661E-04-2.14434E-14
 -1      1987 5.46886E-03 5.94911E-04-2.13998E-14
 -1      1988 5.91408E-03 6.14011E-04-2.49550E-14
 -1      1989 5.77067E-03 6.16391E-04-2.37574E-14
 -1      1990 5.75507E-03 5.90625E-04-2.37071E-14
 -1      1991 6.20161E-03 6.08707E-04-2.74283E-14
 -1      1992 6.05771E-03 6.11446E-04-2.61789E-14
 -1      1993 6.04204E-03 5.85655E-04-2.61223E-14
 -1      1994 6.49033E-03 6.02662E-04-3.00059E-14
 -1      1995 6.34580E-03 6.05771E-04-2.87048E-14
 -1      1996 6.32998E-03 5.79938E-04-2.86419E-14
 -1      1997 6.78058E-03 5.95917E-04-3.26891E-14
 -1      1998 6.63524E-03 5.99364E-04-3.13343E-14
 -1      1999 6.61914E-03 5.73460E-04-3.12664E-14
 -1      2000 7.07276E-03 5.88630E-04-3.54743E-14
 -1      2001 6.92639E-03 5.92317E-04-3.40679E-14
 -1      2002 6.90984E-03 5.66300E-04-3.39933E-14
 -1      2003 7.36737E-03 5.81146E-04-3.83555E-14
 -1      2004 7.21972E-03 5.84875E-04-3.69038E-14
 -1      2005 7.20249E-03 5.58680E-04-3.68212E-14
 -1      2006 7.66497E-03 5.74076E-04-4.13309E-14
 -1      2007 7.51575E-03 5.77502E-04-3.98321E-14
 -1      2008 7.49755E-03 5.51043E-04-3.97439E-14
 -1      2009 7.96615E-03 5.68394E-04-4.43951E-14
 -1      2010 7.81506E-03 5.70980E-04-4.28518E-14
 -1      2011 7.79554E-03 5.44137E-04-4.27587E-14
 -1      2012 8.27148E-03 5.65554E-04-4.75431E-14
 -1      2013 8.11824E-03 5.66509E-04-4.59588E-14
 -1      2014 8.09699E-03 5.39129E-04-4.58600E-14
 -1      2015 8.58140E-03 5.67590E-04-5.07733E-14
 -1      2016 8.42583E-03 5.65823E-04-4.91491E-14
 -1      2017 8.40243E-03 5.37713E-04-4.90447E-14
 -1      2018 8.89612E-03 5.77171E-04-5.40749E-14
 -1      2019 8.73815E-03 5.71272E-04-5.24146E-14
 -1      2020 8.71222E-03 5.42204E-04-5.23065E-14
 -1      2021 9.21538E-03 5.97522E-04-5.74534E-14
 -1      2022 9.05523E-03 5.85827E-04-5.57550E-14
 -1      2023 9.02653E-03 5.55559E-04-5.56440E-14
 -1      2024 9.53829E-03 6.32077E-04-6.09123E-14
 -1      2025 9.37650E-03 6.12880E-04-5.91730E-14
 -1      2026 9.34512E-03 5.81209E-04-5.90573E-14
 -1      2027 9.86305E-03 6.83690E-04-6.44457E-14
 -1      2028 9.70066E-03 6.55705E-04-6.26697E-14
 -1      2029 9.66716E-03 6.22560E-04-6.25480E-14
 -1      2030 1.01869E-02 7.53247E-04-6.80581E-14
 -1      2031 1.00254E-02 7.16376E-04-6.62425E-14
 -1      2032 9.99095E-03 6.81974E-04-6.61166E-14
 -1      2033 1.05061E-02 8.37738E-04-7.17477E-14
 -1      2034 1.03474E-02 7.94083E-04-6.98933E-14
 -1      2035 1.03138E-02 7.59102E-04-6.97623E-14
 -1      2036 1.08166E-02 9.28369E-04-7.55054E-14
 -1      2037 1.06628E-02 8.83097E-04-7.36179E-14
 -1      2038 1.06322E-02 8.48763E-04-7.34806E-14
 -1      2039 1.11157E-02 1.01015E-03-7.93287E-14
 -1      2040 1.09677E-02 9.71425E-04-7.74099E-14
 -1      2041 1.09423E-02 9.39303E-04-7.72665E-14
 -1      2042 1.14028E-02 1.06443E-03-8.32146E-14
 -1      2043 1.12605E-02 1.04172E-03-8.12630E-14
 -1      2044 1.12416E-02 1.01315E-03-8.11147E-14
 -1      2045 1.16815E-02 1.07490E-03-8.71650E-14
 -1      2046 1.15427E-02 1.07567E-03-8.51815E-14
 -1      2047 1.15307E-02 1.05106E-03-8.50284E-14
 -1      2048 1.19576E-02 1.03435E-03-9.11842E-14
 -1      2049 1.18192E-02 1.06081E-03-8.91653E-14
 -1      2050 1.18142E-02 1.03937E-03-8.90083E-14
 -1      2051 1.22375E-02 9.47690E-04-9.52602E-14
 -1      2052 1.20966E-02 9.95968E-04-9.32150E-14
 -1      2053 1.20983E-02 9.76167E-04-9.30529E-14
 -1      2054 1.25247E-02 8.29254E-04-9.93951E-14
 -1      2055 1.23801E-02 8.91426E-04-9.73202E-14
 -1      2056 1.23881E-02 8.71824E-04-9.71543E-14
 -1      2057 1.28190E-02 6.95797E-04-1.03580E-13
 -1      2058 1.26711E-02 7.63578E-04-1.01484E-13
 -1      2059 1.26848E-02 7.43437E-04-1.01314E-13
 -1      2060 1.31177E-02 5.60296E-04-1.07804E-13
 -1      2061 1.29681E-02 6.27878E-04-1.05689E-13
 -1      2062 1.29865E-02 6.07180E-04-1.05517E-13
 -1      2063 1.34171E-02 4.29013E-04-1.12066E-13
 -1      2064 1.32676E-02 4.94091E-04-1.09927E-13
 -1      2065 1.32896E-02 4.73249E-04-1.09755E-13
 -1      2066 1.37143E-02 3.01947E-04-1.16366E-13
 -1      2067 1.35662E-02 3.65179E-04-1.14212E-13
 -1      2068 1.35906E-02 3.44746E-04-1.14033E-13
 -1      2069 1.40074E-02 1.75119E-04-1.20698E-13
 -1      2070 1.38615E-02 2.38808E-04-1.18528E-13
 -1      2071 1.38873E-02 2.19266E-04-1.18350E-13
 -1      2072 1.42501E-02 6.46351E-05-1.24286E-13
 -1      2073 1.41058E-02 1.30481E-04-1.22107E-13
 -1      2074 1.41324E-02 1.11838E-04-1.21929E-13
 -1      2075 1.43285E-02 2.15554E-05-1.24750E-13
 -1      2076 1.47199E-02-1.74645E-04-1.24867E-13
 -1      2077 1.46402E-02-1.40545E-04-1.24765E-13
 -1      2078 1.45617E-02-1.04221E-04-1.24659E-13
 -1      2079 1.44849E-02-6.65028E-05-1.24550E-13
 -1      2080 1.44764E-02-7.12488E-05-1.22820E-13
 -1      2081 1.44418E-02-4.29515E-05-1.24707E-13
 -1      2082 1.43686E-02-3.13096E-06-1.24595E-13
 -1      2083 1.42707E-02 4.18455E-05-1.23184E-13
 -1      2084 1.43545E-02-7.80625E-06-1.22872E-13
 -1      2085 1.48770E-02-2.34809E-04-1.25058E-13
 -1      2086 1.47987E-02-2.06124E-04-1.24963E-13
 -1      2087 1.46355E-02-1.44200E-04-1.23021E-13
 -1      2088 1.50290E-02-2.84288E-04-1.25243E-13
 -1      2089 1.49547E-02-2.61186E-04-1.25152E-13
 -1      2090 1.47953E-02-2.09045E-04-1.23212E-13
 -1      2091 1.51596E-02-3.20809E-04-1.25422E-13
 -1      2092 1.50978E-02-3.04087E-04-1.25333E-13
 -1      2093 1.49464E-02-2.63434E-04-1.23398E-13
 -1      2094 1.52539E-02-3.45776E-04-1.25597E-13
 -1      2095 1.52122E-02-3.34347E-04-1.25510E-13
 -1      2096 1.50728E-02-3.05418E-04-1.23576E-13
 -1      2097 1.52996E-02-3.63652E-04-1.25754E-13
 -1      2098 1.52834E-02-3.54952E-04-1.25677E-13
 -1      2099 1.51585E-02-3.36561E-04-1.23744E-13
 -1      2100 1.52914E-02-3.81148E-04-1.25898E-13
 -1      2101 1.53022E-02-3.71719E-04-1.25827E-13
 -1      2102 1.51916E-02-3.61871E-04-1.23899E-13
 -1      2103 1.52347E-02-4.04686E-04-1.26022E-13
 -1      2104 1.52685E-02-3.91568E-04-1.25963E-13
 -1      2105 1.51692E-02-3.88283E-04-1.24037E-13
 -1      2106 1.51395E-02-4.40008E-04-1.26131E-13
 -1      2107 1.51910E-02-4.20621E-04-1.26078E-13
 -1      2108 1.50985E-02-4.22557E-04-1.24159E-13
 -1      2109 1.50220E-02-4.88810E-04-1.26218E-13
 -1      2110 1.50826E-02-4.62728E-04-1.26176E-13
 -1      2111 1.49927E-02-4.68965E-04-1.24261E-13
 -1      2112 1.48977E-02-5.50449E-04-1.26296E-13
 -1      2113 1.49599E-02-5.18238E-04-1.26258E-13
 -1      2114 1.48691E-02-5.27829E-04-1.24349E-13
 -1      2115 1.38376E-02-1.01310E-04-9.94967E-14
 -1      2116 1.39951E-02-1.55052E-04-9.98962E-14
 -1      2117 1.42646E-02-2.64650E-04-1.00794E-13
 -1      2118 1.42697E-02-2.84168E-04-1.00825E-13
 -1      2119 1.41134E-02-1.98235E-04-1.00241E-13
 -1      2120 1.42027E-02-2.30226E-04-1.00586E-13
 -1      2121 1.40557E-02-1.99535E-04-1.01133E-13
 -1      2122 1.33856E-02 1.15471E-04-9.75262E-14
 -1      2123 1.35889E-02 9.75944E-06-9.84833E-14
 -1      2124 1.29601E-02 3.43634E-04-9.56238E-14
 -1      2125 1.31760E-02 2.26626E-04-9.65706E-14
 -1      2126 1.32561E-02 1.47442E-04-9.77908E-14
 -1      2127 3.27203E-04-8.89778E-05-1.71046E-16
 -1      2128 3.29312E-04-1.02154E-04-1.64501E-16
 -1      2129 4.46338E-04-1.45131E-04-2.39690E-16
 -1      2130 4.40034E-04-1.09955E-04-2.57362E-16
 -1      2131 1.21577E-02 7.63841E-04-9.06281E-14
 -1      2132 1.23173E-02 6.96161E-04-9.17762E-14
 -1      2133 1.18249E-02 8.26691E-04-8.80846E-14
 -1      2134 1.19771E-02 8.11156E-04-8.92878E-14
 -1      2135 1.14857E-02 7.67220E-04-8.54644E-14
 -1      2136 1.16449E-02 8.11327E-04-8.67005E-14
 -1      2137 1.10840E-02 5.84047E-04-8.29630E-14
 -1      2138 1.12660E-02 6.76831E-04-8.39919E-14
 -1      2139 1.06911E-02 3.75383E-04-8.10150E-14
 -1      2140 1.08796E-02 4.77486E-04-8.18879E-14
 -1      2141 1.03079E-02 1.74296E-04-7.93067E-14
 -1      2142 1.04926E-02 2.70836E-04-8.01212E-14
 -1      2143 9.93222E-03 1.96633E-06-7.77474E-14
 -1      2144 1.00955E-02 6.78507E-05-7.82857E-14
 -1      2145 9.66949E-03-9.04012E-05-7.71231E-14
 -1      2146 9.77207E-03-5.66850E-05-7.73637E-14
 -1      2147 9.56974E-03-1.39127E-04-7.67288E-14
 -1      2148 9.60150E-03-1.20137E-04-7.69256E-14
 -1      2149 9.62961E-03-1.11475E-04-7.61059E-14
 -1      2150 9.65486E-03-1.98896E-04-7.73252E-14
 -1      2151 9.59121E-03-1.70332E-04-7.69633E-14
 -1      2152 9.89129E-03-2.94301E-04-7.81747E-14
 -1      2153 9.76269E-03-2.42949E-04-7.76943E-14
 -1      2154 1.02360E-02-4.53116E-04-7.94505E-14
 -1      2155 1.00618E-02-3.70966E-04-7.88122E-14
 -1      2156 1.06448E-02-6.65701E-04-8.10016E-14
 -1      2157 1.04557E-02-5.58850E-04-8.01919E-14
 -1      2158 1.10174E-02-8.92354E-04-8.28813E-14
 -1      2159 1.08300E-02-7.77471E-04-8.19380E-14
 -1      2160 1.07463E-02-6.92759E-04-8.07747E-14
 -1      2161 1.14355E-02-1.13606E-03-8.54474E-14
 -1      2162 1.12670E-02-1.03981E-03-8.43420E-14
 -1      2163 1.17675E-02-1.26440E-03-8.78206E-14
 -1      2164 1.16168E-02-1.21573E-03-8.67144E-14
 -1      2165 1.20891E-02-1.28209E-03-9.02759E-14
 -1      2166 1.19413E-02-1.28993E-03-8.91133E-14
 -1      2167 1.24515E-02-1.16980E-03-9.28858E-14
 -1      2168 1.22870E-02-1.23670E-03-9.17512E-14
 -1      2169 1.28328E-02-9.78330E-04-9.50662E-14
 -1      2170 1.26513E-02-1.07910E-03-9.40042E-14
 -1      2171 1.32504E-02-7.44282E-04-9.72318E-14
 -1      2172 1.30497E-02-8.58112E-04-9.62369E-14
 -1      2173 1.36931E-02-5.23801E-04-9.91015E-14
 -1      2174 1.34991E-02-6.10641E-04-9.84661E-14
 -1      2175 1.40247E-02-3.96388E-04-9.99462E-14
 -1      2176 1.38824E-02-4.50283E-04-9.95358E-14
 -1      2177 1.42246E-02-3.16964E-04-1.00527E-13
 -1      2178 1.41461E-02-3.48459E-04-1.00270E-13
 -1      2179 1.25108E-02 5.96802E-04-9.31532E-14
 -1      2180 1.26948E-02 4.87914E-04-9.42988E-14
 -1      2181 1.28064E-02 4.03009E-04-9.55008E-14
 -1      2182 6.07906E-04-2.98138E-04-2.44420E-16
 -1      2183 1.13852E-02 7.29887E-04-8.44885E-14
 -1      2184 1.14771E-02 7.72119E-04-8.49853E-14
 -1      2185 1.12899E-02 6.83724E-04-8.35183E-14
 -1      2186 1.23913E-02 6.47365E-04-9.27922E-14
 -1      2187 6.63627E-04-2.92429E-04-3.34571E-16
 -1      2188 1.42440E-02-2.57218E-04-1.01687E-13
 -1      2189 1.37073E-02-6.78850E-05-9.97670E-14
 -1      2190 1.48072E-02-5.88928E-04-1.25690E-13
 -1      2191 1.42578E-02-2.95639E-04-1.01594E-13
 -1      2192 1.40885E-02-3.56806E-04-1.00968E-13
 -1      2193 1.37857E-02-4.66038E-04-1.00205E-13
 -1      2194 1.33676E-02-6.60632E-04-9.85272E-14
 -1      2195 1.29168E-02-9.12990E-04-9.61148E-14
 -1      2196 1.25291E-02-1.12761E-03-9.38204E-14
 -1      2197 1.21830E-02-1.27116E-03-9.12182E-14
 -1      2198 1.18606E-02-1.29010E-03-8.84466E-14
 -1      2199 1.11531E-02-9.54877E-04-8.31628E-14
 -1      2200 1.03642E-02-4.79891E-04-7.91062E-14
 -1      2201 9.98543E-03-3.06427E-04-7.77360E-14
 -1      2202 9.56558E-03-1.48851E-04-7.61393E-14
 -1      2203 9.55734E-03-1.37330E-04-7.53199E-14
 -1      2204 9.57750E-03-1.52314E-04-7.55505E-14
 -1      2205 9.84809E-03-4.17957E-05-7.66843E-14
 -1      2206 1.02095E-02 1.04328E-04-7.80812E-14
 -1      2207 1.06121E-02 3.09786E-04-7.99895E-14
 -1      2208 1.09912E-02 5.22525E-04-8.19505E-14
 -1      2209 1.20535E-02 7.96760E-04-9.00692E-14
 -1      2210 1.17377E-02 8.30886E-04-8.73433E-14
 -1      2211 9.70924E-03-2.04165E-04-7.67382E-14
 -1      2212 1.15440E-02-1.18310E-03-8.58879E-14
 -1      2213 1.01661E-03 3.99828E-04-6.47093E-16
 -1      2214 8.72146E-04 3.63440E-04-4.73525E-16
 -1      2215 5.47776E-04-5.53061E-05-3.89947E-16
 -1      2216 5.48812E-04-7.20238E-05-3.87345E-16
 -1      2217 5.50230E-04-8.93481E-05-3.83618E-16
 -1      2218 5.52096E-04-1.07326E-04-3.78563E-16
 -1      2219 6.65276E-04-9.55054E-05-5.23304E-16
 -1      2220 5.46395E-04 8.85764E-06-3.90272E-16
 -1      2221 5.46375E-04-6.98193E-06-3.91614E-16
 -1      2222 5.47151E-04 4.08725E-05-3.84919E-16
 -1      2223 5.46650E-04 2.47961E-05-3.88077E-16
 -1      2224 6.61332E-04 1.99337E-05-5.27681E-16
 -1      2225 5.48978E-04 7.34973E-05-3.75432E-16
 -1      2226 5.47915E-04 5.70035E-05-3.80948E-16
 -1      2227 6.62659E-04 5.77942E-05-5.19482E-16
 -1      2228 5.52372E-04 1.08972E-04-3.60145E-16
 -1      2229 5.50447E-04 9.08961E-05-3.68602E-16
 -1      2230 6.65521E-04 9.72668E-05-5.05347E-16
 -1      2231 5.58255E-04 1.48306E-04-3.37526E-16
 -1      2232 5.54934E-04 1.28082E-04-3.49926E-16
 -1      2233 6.70614E-04 1.40040E-04-4.83744E-16
 -1      2234 5.68589E-04 1.93905E-04-3.04674E-16
 -1      2235 5.62747E-04 1.70187E-04-3.22713E-16
 -1      2236 6.79269E-04 1.87584E-04-4.52478E-16
 -1      2237 1.30208E-03 4.56776E-04-1.08439E-15
 -1      2238 1.15975E-03 4.30831E-04-8.50462E-16
 -1      2239 1.07179E-03 3.81351E-04-7.91034E-16
 -1      2240 9.15213E-04-3.46391E-04-6.51280E-16
 -1      2241 1.05931E-03-3.79720E-04-8.59190E-16
 -1      2242 1.20256E-03-4.08105E-04-1.09794E-15
 -1      2243 1.34536E-03-4.31984E-04-1.36801E-15
 -1      2244 1.11700E-03-3.60546E-04-1.00989E-15
 -1      2245 1.48754E-03-4.52198E-04-1.66894E-15
 -1      2246 1.62932E-03-4.69039E-04-2.00136E-15
 -1      2247 1.40331E-03-4.07302E-04-1.55625E-15
 -1      2248 1.77074E-03-4.83175E-04-2.36497E-15
 -1      2249 1.91192E-03-4.94815E-04-2.75969E-15
 -1      2250 1.68844E-03-4.40543E-04-2.22598E-15
 -1      2251 2.05294E-03-5.04456E-04-3.18544E-15
 -1      2252 2.19386E-03-5.12274E-04-3.64278E-15
 -1      2253 1.97262E-03-4.63592E-04-3.01941E-15
 -1      2254 2.33475E-03-5.18627E-04-4.13116E-15
 -1      2255 2.47563E-03-5.23660E-04-4.65045E-15
 -1      2256 2.25625E-03-4.79083E-04-3.93668E-15
 -1      2257 2.61657E-03-5.27634E-04-5.19997E-15
 -1      2258 2.75756E-03-5.30663E-04-5.78011E-15
 -1      2259 2.53966E-03-4.89051E-04-4.97730E-15
 -1      2260 2.89865E-03-5.32938E-04-6.39060E-15
 -1      2261 3.03982E-03-5.34547E-04-7.03083E-15
 -1      2262 2.82307E-03-4.95041E-04-6.13841E-15
 -1      2263 3.18112E-03-5.35626E-04-7.70041E-15
 -1      2264 3.32251E-03-5.36242E-04-8.39961E-15
 -1      2265 3.10663E-03-4.98210E-04-7.41926E-15
 -1      2266 3.46402E-03-5.36490E-04-9.12806E-15
 -1      2267 3.60564E-03-5.36420E-04-9.88525E-15
 -1      2268 3.39042E-03-4.99408E-04-8.81740E-15
 -1      2269 3.74738E-03-5.36095E-04-1.06712E-14
 -1      2270 3.88921E-03-5.35549E-04-1.14862E-14
 -1      2271 3.67448E-03-4.99245E-04-1.03316E-14
 -1      2272 4.03116E-03-5.34821E-04-1.23292E-14
 -1      2273 4.17321E-03-5.33935E-04-1.32010E-14
 -1      2274 3.95881E-03-4.98140E-04-1.19605E-14
 -1      2275 4.31536E-03-5.32911E-04-1.41011E-14
 -1      2276 4.45760E-03-5.31763E-04-1.50275E-14
 -1      2277 4.24342E-03-4.96362E-04-1.37021E-14
 -1      2278 4.59993E-03-5.30496E-04-1.59814E-14
 -1      2279 4.74236E-03-5.29116E-04-1.69638E-14
 -1      2280 4.52830E-03-4.94066E-04-1.55552E-14
 -1      2281 4.88488E-03-5.27620E-04-1.79719E-14
 -1      2282 5.02749E-03-5.26007E-04-1.90066E-14
 -1      2283 4.81344E-03-4.91313E-04-1.75162E-14
 -1      2284 5.17021E-03-5.24264E-04-2.00689E-14
 -1      2285 5.31302E-03-5.22388E-04-2.11593E-14
 -1      2286 5.09886E-03-4.88098E-04-1.95854E-14
 -1      2287 5.45594E-03-5.20358E-04-2.22772E-14
 -1      2288 5.59897E-03-5.18171E-04-2.34209E-14
 -1      2289 5.38457E-03-4.84359E-04-2.17639E-14
 -1      2290 5.74213E-03-5.15801E-04-2.45921E-14
 -1      2291 5.88543E-03-5.13244E-04-2.57903E-14
 -1      2292 5.67060E-03-4.80001E-04-2.40516E-14
 -1      2293 6.02888E-03-5.10473E-04-2.70154E-14
 -1      2294 6.17251E-03-5.07486E-04-2.82678E-14
 -1      2295 5.95703E-03-4.74907E-04-2.64480E-14
 -1      2296 6.31633E-03-5.04258E-04-2.95464E-14
 -1      2297 6.46037E-03-5.00792E-04-3.08509E-14
 -1      2298 6.24393E-03-4.68955E-04-2.89514E-14
 -1      2299 6.60464E-03-4.97068E-04-3.21837E-14
 -1      2300 6.74920E-03-4.93099E-04-3.35411E-14
 -1      2301 6.53141E-03-4.62047E-04-3.15603E-14
 -1      2302 6.89405E-03-4.88877E-04-3.49240E-14
 -1      2303 7.03927E-03-4.84430E-04-3.63333E-14
 -1      2304 6.81963E-03-4.54132E-04-3.42729E-14
 -1      2305 7.18484E-03-4.79772E-04-3.77693E-14
 -1      2306 7.33089E-03-4.74952E-04-3.92300E-14
 -1      2307 7.10874E-03-4.45258E-04-3.70897E-14
 -1      2308 7.47737E-03-4.70023E-04-4.07155E-14
 -1      2309 7.62443E-03-4.65063E-04-4.22254E-14
 -1      2310 7.39897E-03-4.35626E-04-4.00080E-14
 -1      2311 7.77204E-03-4.60183E-04-4.37589E-14
 -1      2312 7.92036E-03-4.55508E-04-4.53154E-14
 -1      2313 7.69056E-03-4.25685E-04-4.30238E-14
 -1      2314 8.06935E-03-4.51230E-04-4.68952E-14
 -1      2315 8.21922E-03-4.47541E-04-4.84979E-14
 -1      2316 7.98383E-03-4.16243E-04-4.61317E-14
 -1      2317 8.36990E-03-4.44751E-04-5.01233E-14
 -1      2318 8.52165E-03-4.43148E-04-5.17700E-14
 -1      2319 8.27920E-03-4.08633E-04-4.93342E-14
 -1      2320 8.67445E-03-4.43191E-04-5.34376E-14
 -1      2321 8.82854E-03-4.45313E-04-5.51244E-14
 -1      2322 8.57726E-03-4.04917E-04-5.26238E-14
 -1      2323 8.98400E-03-4.50142E-04-5.68307E-14
 -1      2324 9.14104E-03-4.58321E-04-5.85590E-14
 -1      2325 8.87895E-03-4.08143E-04-5.59933E-14
 -1      2326 9.29994E-03-4.70639E-04-6.03059E-14
 -1      2327 9.46080E-03-4.88021E-04-6.20704E-14
 -1      2328 9.18579E-03-4.22636E-04-5.94416E-14
 -1      2329 9.62420E-03-5.11329E-04-6.38565E-14
 -1      2330 9.79000E-03-5.41836E-04-6.56615E-14
 -1      2331 9.50019E-03-4.54276E-04-6.29698E-14
 -1      2332 9.95919E-03-5.80272E-04-6.74844E-14
 -1      2333 1.01310E-02-6.28120E-04-6.93245E-14
 -1      2334 9.82569E-03-5.10673E-04-6.65720E-14
 -1      2335 1.03069E-02-6.85613E-04-7.11813E-14
 -1      2336 1.04851E-02-7.53856E-04-7.30544E-14
 -1      2337 1.01665E-02-6.00831E-04-7.02472E-14
 -1      2338 1.06669E-02-8.32044E-04-7.49434E-14
 -1      2339 1.08492E-02-9.19202E-04-7.68488E-14
 -1      2340 1.05255E-02-7.33132E-04-7.39867E-14
 -1      2341 1.10325E-02-1.01289E-03-7.87701E-14
 -1      2342 1.12134E-02-1.10791E-03-8.07065E-14
 -1      2343 1.08991E-02-9.08930E-04-7.77915E-14
 -1      2344 1.13914E-02-1.19926E-03-8.26598E-14
 -1      2345 1.15651E-02-1.27832E-03-8.46300E-14
 -1      2346 1.12746E-02-1.10867E-03-8.16609E-14
 -1      2347 1.17324E-02-1.33952E-03-8.66167E-14
 -1      2348 1.18983E-02-1.37446E-03-8.86219E-14
 -1      2349 1.16349E-02-1.28078E-03-8.55977E-14
 -1      2350 1.20604E-02-1.38121E-03-9.06410E-14
 -1      2351 1.22263E-02-1.36069E-03-9.26757E-14
 -1      2352 1.19771E-02-1.35694E-03-8.96003E-14
 -1      2353 1.23938E-02-1.31552E-03-9.47291E-14
 -1      2354 1.25666E-02-1.25441E-03-9.67960E-14
 -1      2355 1.23200E-02-1.30758E-03-9.36712E-14
 -1      2356 1.27429E-02-1.18235E-03-9.88780E-14
 -1      2357 1.29210E-02-1.10799E-03-1.00975E-13
 -1      2358 1.26804E-02-1.17140E-03-9.78047E-14
 -1      2359 1.31005E-02-1.03538E-03-1.03080E-13
 -1      2360 1.32774E-02-9.68328E-04-1.05200E-13
 -1      2361 1.30522E-02-1.01440E-03-1.01990E-13
 -1      2362 1.34526E-02-9.08780E-04-1.07330E-13
 -1      2363 1.36234E-02-8.56669E-04-1.09466E-13
 -1      2364 1.34175E-02-8.80650E-04-1.06225E-13
 -1      2365 1.37910E-02-8.12143E-04-1.11611E-13
 -1      2366 1.39540E-02-7.73459E-04-1.13764E-13
 -1      2367 1.37649E-02-7.81663E-04-1.10499E-13
 -1      2368 1.41136E-02-7.39691E-04-1.15923E-13
 -1      2369 1.42692E-02-7.08685E-04-1.18085E-13
 -1      2370 1.40923E-02-7.10737E-04-1.14806E-13
 -1      2371 1.40146E-02-1.99099E-04-1.02121E-13
 -1      2372 1.41223E-02-2.28858E-04-1.02469E-13
 -1      2373 1.86524E-03 5.25279E-04-2.32752E-15
 -1      2374 1.72501E-03 5.12535E-04-1.97055E-15
 -1      2375 2.14530E-03 5.44537E-04-3.13313E-15
 -1      2376 2.00532E-03 5.35886E-04-2.71521E-15
 -1      2377 1.92456E-03 4.94659E-04-2.58948E-15
 -1      2378 2.42534E-03 5.57286E-04-4.05864E-15
 -1      2379 2.28531E-03 5.51620E-04-3.58066E-15
 -1      2380 2.20665E-03 5.11894E-04-3.43147E-15
 -1      2381 2.70573E-03 5.65322E-04-5.10517E-15
 -1      2382 2.56548E-03 5.61812E-04-4.56724E-15
 -1      2383 2.48857E-03 5.23160E-04-4.39330E-15
 -1      2384 2.98666E-03 5.69992E-04-6.27120E-15
 -1      2385 2.84613E-03 5.68016E-04-5.67259E-15
 -1      2386 2.77064E-03 5.30116E-04-5.47456E-15
 -1      2387 3.26823E-03 5.72288E-04-7.55566E-15
 -1      2388 3.12737E-03 5.71390E-04-6.89860E-15
 -1      2389 3.05303E-03 5.34007E-04-6.67455E-15
 -1      2390 3.55044E-03 5.72931E-04-8.95944E-15
 -1      2391 3.40926E-03 5.72782E-04-8.24258E-15
 -1      2392 3.33582E-03 5.35747E-04-7.99275E-15
 -1      2393 3.83327E-03 5.72429E-04-1.04812E-14
 -1      2394 3.69179E-03 5.72799E-04-9.70604E-15
 -1      2395 3.61905E-03 5.35998E-04-9.42967E-15
 -1      2396 4.11665E-03 5.71123E-04-1.21212E-14
 -1      2397 3.97490E-03 5.71861E-04-1.12862E-14
 -1      2398 3.90270E-03 5.35219E-04-1.09840E-14
 -1      2399 4.40056E-03 5.69222E-04-1.38790E-14
 -1      2400 4.25855E-03 5.70237E-04-1.29851E-14
 -1      2401 4.18675E-03 5.33712E-04-1.26548E-14
 -1      2402 4.68494E-03 5.66834E-04-1.57544E-14
 -1      2403 4.54269E-03 5.68084E-04-1.48023E-14
 -1      2404 4.47119E-03 5.31655E-04-1.44444E-14
 -1      2405 4.96978E-03 5.63992E-04-1.77479E-14
 -1      2406 4.82730E-03 5.65468E-04-1.67362E-14
 -1      2407 4.75600E-03 5.29134E-04-1.63505E-14
 -1      2408 5.25508E-03 5.60668E-04-1.98570E-14
 -1      2409 5.11237E-03 5.62391E-04-1.87878E-14
 -1      2410 5.04116E-03 5.26161E-04-1.83734E-14
 -1      2411 5.54088E-03 5.56799E-04-2.20807E-14
 -1      2412 5.39791E-03 5.58804E-04-2.09547E-14
 -1      2413 5.32670E-03 5.22695E-04-2.05116E-14
 -1      2414 5.82726E-03 5.52297E-04-2.44148E-14
 -1      2415 5.68399E-03 5.54629E-04-2.32344E-14
 -1      2416 5.61266E-03 5.18662E-04-2.27632E-14
 -1      2417 6.11434E-03 5.47077E-04-2.68553E-14
 -1      2418 5.97070E-03 5.49778E-04-2.56217E-14
 -1      2419 5.89911E-03 5.13969E-04-2.51231E-14
 -1      2420 6.40229E-03 5.41077E-04-2.94012E-14
 -1      2421 6.25819E-03 5.44173E-04-2.81153E-14
 -1      2422 6.18616E-03 5.08528E-04-2.75900E-14
 -1      2423 6.69135E-03 5.34293E-04-3.20515E-14
 -1      2424 6.54666E-03 5.37777E-04-3.07129E-14
 -1      2425 6.47395E-03 5.02280E-04-3.01611E-14
 -1      2426 6.98179E-03 5.26819E-04-3.48026E-14
 -1      2427 6.83636E-03 5.30628E-04-3.34140E-14
 -1      2428 6.76267E-03 4.95233E-04-3.28366E-14
 -1      2429 7.27396E-03 5.18914E-04-3.76522E-14
 -1      2430 7.12762E-03 5.22895E-04-3.62151E-14
 -1      2431 7.05257E-03 4.87503E-04-3.56111E-14
 -1      2432 7.56827E-03 5.11067E-04-4.05990E-14
 -1      2433 7.42080E-03 5.14941E-04-3.91143E-14
 -1      2434 7.34394E-03 4.79378E-04-3.84848E-14
 -1      2435 7.86517E-03 5.04097E-04-4.36340E-14
 -1      2436 7.71635E-03 5.07408E-04-4.21048E-14
 -1      2437 7.63713E-03 4.71395E-04-4.14528E-14
 -1      2438 8.16517E-03 4.99264E-04-4.67564E-14
 -1      2439 8.01474E-03 5.01322E-04-4.51854E-14
 -1      2440 7.93256E-03 4.64435E-04-4.45105E-14
 -1      2441 8.46875E-03 4.98380E-04-4.99617E-14
 -1      2442 8.31647E-03 4.98203E-04-4.83484E-14
 -1      2443 8.23073E-03 4.59837E-04-4.76546E-14
 -1      2444 8.77638E-03 5.03899E-04-5.32422E-14
 -1      2445 8.62204E-03 5.00175E-04-5.15922E-14
 -1      2446 8.53219E-03 4.59507E-04-5.08786E-14
 -1      2447 9.08843E-03 5.18919E-04-5.65979E-14
 -1      2448 8.93187E-03 5.10023E-04-5.49101E-14
 -1      2449 8.83760E-03 4.66006E-04-5.41784E-14
 -1      2450 9.40500E-03 5.46989E-04-6.00322E-14
 -1      2451 9.24623E-03 5.31108E-04-5.83052E-14
 -1      2452 9.14764E-03 4.82544E-04-5.75536E-14
 -1      2453 9.72577E-03 5.91562E-04-6.35399E-14
 -1      2454 9.56503E-03 5.67031E-04-6.17768E-14
 -1      2455 9.46292E-03 5.12786E-04-6.10059E-14
 -1      2456 1.00496E-02 6.54879E-04-6.71268E-14
 -1      2457 9.88759E-03 6.20819E-04-6.53240E-14
 -1      2458 9.78369E-03 5.60281E-04-6.45331E-14
 -1      2459 1.03743E-02 7.36170E-04-7.07899E-14
 -1      2460 1.02123E-02 6.93490E-04-6.89493E-14
 -1      2461 1.01094E-02 6.27286E-04-6.81385E-14
 -1      2462 1.06962E-02 8.29295E-04-7.45217E-14
 -1      2463 1.05360E-02 7.81909E-04-7.26467E-14
 -1      2464 1.04377E-02 7.12790E-04-7.18164E-14
 -1      2465 1.10109E-02 9.20919E-04-7.83215E-14
 -1      2466 1.08547E-02 8.76422E-04-7.64137E-14
 -1      2467 1.07646E-02 8.09672E-04-7.55633E-14
 -1      2468 1.13155E-02 9.91466E-04-8.21833E-14
 -1      2469 1.11644E-02 9.60214E-04-8.02449E-14
 -1      2470 1.10847E-02 9.02589E-04-7.93756E-14
 -1      2471 1.16109E-02 1.02038E-03-8.61145E-14
 -1      2472 1.14638E-02 1.01219E-03-8.41413E-14
 -1      2473 1.13943E-02 9.69269E-04-8.32539E-14
 -1      2474 1.19021E-02 9.95312E-04-9.01099E-14
 -1      2475 1.17562E-02 1.01490E-03-8.81026E-14
 -1      2476 1.16952E-02 9.87800E-04-8.72007E-14
 -1      2477 1.21962E-02 9.17630E-04-9.41697E-14
 -1      2478 1.20482E-02 9.62299E-04-9.21326E-14
 -1      2479 1.19940E-02 9.47369E-04-9.12108E-14
 -1      2480 1.24971E-02 8.02042E-04-9.82848E-14
 -1      2481 1.23456E-02 8.63345E-04-9.62195E-14
 -1      2482 1.22983E-02 8.54269E-04-9.52860E-14
 -1      2483 1.28043E-02 6.67808E-04-1.02452E-13
 -1      2484 1.26502E-02 7.36103E-04-1.00363E-13
 -1      2485 1.26108E-02 7.27845E-04-9.94135E-14
 -1      2486 1.31141E-02 5.30731E-04-1.06665E-13
 -1      2487 1.29593E-02 5.98940E-04-1.04554E-13
 -1      2488 1.29284E-02 5.89199E-04-1.03593E-13
 -1      2489 1.34223E-02 3.98938E-04-1.10914E-13
 -1      2490 1.32688E-02 4.63978E-04-1.08785E-13
 -1      2491 1.32458E-02 4.52899E-04-1.07813E-13
 -1      2492 1.37257E-02 2.73331E-04-1.15203E-13
 -1      2493 1.35748E-02 3.35526E-04-1.13053E-13
 -1      2494 1.35583E-02 3.24498E-04-1.12074E-13
 -1      2495 1.40229E-02 1.49901E-04-1.19529E-13
 -1      2496 1.38752E-02 2.11717E-04-1.17363E-13
 -1      2497 1.38633E-02 2.02565E-04-1.16375E-13
 -1      2498 1.41722E-02 8.60807E-05-1.21772E-13
 -1      2499 1.47128E-02-1.90193E-04-1.21371E-13
 -1      2500 1.46319E-02-1.56088E-04-1.21276E-13
 -1      2501 1.48637E-02-2.49897E-04-1.21553E-13
 -1      2502 1.47907E-02-2.21619E-04-1.21461E-13
 -1      2503 1.46302E-02-1.77708E-04-1.19534E-13
 -1      2504 1.43900E-02-4.25367E-05-1.20983E-13
 -1      2505 1.43108E-02-1.80804E-06-1.20880E-13
 -1      2506 1.45507E-02-1.19759E-04-1.21180E-13
 -1      2507 1.44701E-02-8.21306E-05-1.21083E-13
 -1      2508 1.43016E-02-1.80942E-05-1.19151E-13
 -1      2509 1.44656E-02-1.01423E-04-1.19345E-13
 -1      2510 1.49860E-02-2.96719E-04-1.21729E-13
 -1      2511 1.49296E-02-2.74785E-04-1.21643E-13
 -1      2512 1.47815E-02-2.42306E-04-1.19715E-13
 -1      2513 1.50627E-02-3.32566E-04-1.21896E-13
 -1      2514 1.50310E-02-3.15488E-04-1.21814E-13
 -1      2515 1.48997E-02-2.92674E-04-1.19887E-13
 -1      2516 1.50820E-02-3.63561E-04-1.22045E-13
 -1      2517 1.50798E-02-3.47875E-04-1.21970E-13
 -1      2518 1.49662E-02-3.31626E-04-1.20047E-13
 -1      2519 1.50442E-02-3.97285E-04-1.22178E-13
 -1      2520 1.50697E-02-3.79293E-04-1.22113E-13
 -1      2521 1.49701E-02-3.66831E-04-1.20191E-13
 -1      2522 1.49584E-02-4.41533E-04-1.22296E-13
 -1      2523 1.50063E-02-4.17743E-04-1.22239E-13
 -1      2524 1.49147E-02-4.08062E-04-1.20320E-13
 -1      2525 1.48419E-02-4.98469E-04-1.22397E-13
 -1      2526 1.49028E-02-4.68394E-04-1.22349E-13
 -1      2527 1.48135E-02-4.62135E-04-1.20437E-13
 -1      2528 1.47127E-02-5.66917E-04-1.22485E-13
 -1      2529 1.47779E-02-5.31506E-04-1.22440E-13
 -1      2530 1.46867E-02-5.29726E-04-1.20536E-13
 -1      2531 1.46799E-02-6.17710E-04-1.23737E-13
 -1      2532 1.42846E-02-2.90959E-04-1.02815E-13
 -1      2533 1.42373E-02-3.04670E-04-1.02513E-13
 -1      2534 1.58450E-03 4.97106E-04-1.64438E-15
 -1      2535 1.44356E-03 4.78780E-04-1.34888E-15
 -1      2536 1.64183E-03 4.69250E-04-1.86804E-15
 -1      2537 1.35831E-02-3.27567E-05-1.00248E-13
 -1      2538 1.38144E-02-1.27642E-04-1.01270E-13
 -1      2539 1.31490E-02 1.85196E-04-9.82843E-14
 -1      2540 1.33349E-02 8.48357E-05-9.92477E-14
 -1      2541 5.88533E-04-2.38003E-04-3.10177E-16
 -1      2542 7.81325E-04-3.04864E-04-4.95331E-16
 -1      2543 8.40790E-04-2.93616E-04-6.08752E-16
 -1      2544 5.78964E-04-2.10178E-04-3.31034E-16
 -1      2545 1.41529E-02-3.30990E-04-1.02278E-13
 -1      2546 1.40405E-02-3.63392E-04-1.01950E-13
 -1      2547 1.04443E-02-5.00264E-04-7.84733E-14
 -1      2548 1.02532E-02-4.02917E-04-7.77416E-14
 -1      2549 9.75870E-03-7.21625E-05-7.53671E-14
 -1      2550 9.89972E-03-2.69598E-05-7.57459E-14
 -1      2551 5.46588E-04-2.29038E-05-3.92061E-16
 -1      2552 5.47046E-04-3.89465E-05-3.91411E-16
 -1      2553 6.62507E-04-5.58235E-05-5.29836E-16
 -1      2554 6.61279E-04-1.77077E-05-5.31124E-16
 -1      2555 1.16625E-02 8.29628E-04-8.65597E-14
 -1      2556 1.18040E-02 8.43309E-04-8.79434E-14
 -1      2557 9.75708E-03-2.05052E-04-7.59891E-14
 -1      2558 9.65454E-03-1.76668E-04-7.56268E-14
 -1      2559 1.22756E-02 7.04309E-04-9.23407E-14
 -1      2560 1.24368E-02 6.10231E-04-9.37228E-14
 -1      2561 1.19824E-02 8.21132E-04-8.96457E-14
 -1      2562 1.21241E-02 7.73045E-04-9.09901E-14
 -1      2563 1.21931E-02 7.44170E-04-9.19113E-14
 -1      2564 1.09053E-02 4.65584E-04-8.08607E-14
 -1      2565 1.10786E-02 5.69482E-04-8.19288E-14
 -1      2566 1.05327E-02 2.55331E-04-7.88118E-14
 -1      2567 1.07081E-02 3.53037E-04-7.96984E-14
 -1      2568 1.01250E-02 6.05992E-05-7.67793E-14
 -1      2569 1.03251E-02 1.49912E-04-7.77926E-14
 -1      2570 1.04147E-02 2.02450E-04-7.75026E-14
 -1      2571 9.59143E-03-1.19522E-04-7.51125E-14
 -1      2572 9.65574E-03-1.04362E-04-7.53094E-14
 -1      2573 1.16347E-02-1.22808E-03-8.63567E-14
 -1      2574 1.14874E-02-1.15027E-03-8.50920E-14
 -1      2575 1.00828E-02-3.25422E-04-7.71122E-14
 -1      2576 9.92281E-03-2.62598E-04-7.64839E-14
 -1      2577 1.01565E-02-3.55539E-04-7.64870E-14
 -1      2578 1.08488E-02-7.41537E-04-8.05674E-14
 -1      2579 1.06858E-02-6.39224E-04-7.96385E-14
 -1      2580 1.12766E-02-1.02364E-03-8.34387E-14
 -1      2581 1.10640E-02-8.80720E-04-8.19833E-14
 -1      2582 1.19168E-02-1.30649E-03-8.89370E-14
 -1      2583 1.17803E-02-1.28033E-03-8.76442E-14
 -1      2584 1.17058E-02-1.26011E-03-8.68416E-14
 -1      2585 1.22569E-02-1.25455E-03-9.21301E-14
 -1      2586 1.20985E-02-1.29968E-03-9.06493E-14
 -1      2587 1.26277E-02-1.07115E-03-9.50301E-14
 -1      2588 1.24682E-02-1.16242E-03-9.39050E-14
 -1      2589 1.29981E-02-8.52200E-04-9.73821E-14
 -1      2590 1.28083E-02-9.66892E-04-9.62052E-14
 -1      2591 1.27347E-02-1.01611E-03-9.62908E-14
 -1      2592 1.34569E-02-6.03958E-04-9.98631E-14
 -1      2593 1.32262E-02-7.24113E-04-9.86212E-14
 -1      2594 1.31170E-02-7.89982E-04-9.87118E-14
 -1      2595 1.38965E-02-4.13918E-04-1.01511E-13
 -1      2596 1.37303E-02-4.78495E-04-1.01070E-13
 -1      2597 1.39945E-02-3.83752E-04-1.02819E-13
 -1      2598 1.42220E-02-2.57140E-04-1.02678E-13
 -1      2599 1.42812E-02-2.72564E-04-1.02886E-13
 -1      2600 1.41997E-02-2.50725E-04-1.03668E-13
 -1      2601 7.57903E-04 3.34232E-04-3.50346E-16
 -1      2602 6.11486E-04 2.84867E-04-2.31138E-16
 -1      2603 5.84761E-04 2.58097E-04-2.39473E-16
 -1      2604 8.13726E-04 3.22906E-04-4.57913E-16
 -1      2605 1.26922E-02 4.57551E-04-9.56068E-14
 -1      2606 1.29160E-02 3.18913E-04-9.69406E-14
 -1      2607 1.30288E-02 2.55412E-04-9.83869E-14
 -1      2608 1.18904E-02 8.39987E-04-8.88522E-14
 -1      2609 6.70201E-04-1.37984E-04-5.09982E-16
 -1      2610 5.54574E-04-1.26229E-04-3.71583E-16
 -1      2611 5.57784E-04-1.46203E-04-3.62489E-16
 -1      2612 1.35781E-03 4.32761E-04-1.26857E-15
 -1      2613 5.72259E-04 2.27901E-04-2.67581E-16
 -1      2614 1.25674E-02 5.34904E-04-9.51495E-14
 -1      2615 1.11870E-02 6.33670E-04-8.24204E-14
 -1      2616 1.12758E-02 6.90688E-04-8.29107E-14
 -1      2617 1.10845E-02 5.85121E-04-8.13254E-14
 -1      2618 1.42132E-02-3.18168E-04-1.03497E-13
 -1      2619 1.14708E-02 7.80478E-04-8.46004E-14
 -1      2620 1.15644E-02 8.09554E-04-8.55773E-14
 -1      2621 1.16323E-02 8.34584E-04-8.61699E-14
 -1      2622 1.39163E-02-1.64872E-04-1.02603E-13
 -1      2623 1.41633E-02 8.04332E-05-1.20780E-13
 -1      2624 1.42057E-02 5.42232E-05-1.20622E-13
 -1      2625 1.45039E-02-6.64420E-04-1.21492E-13
 -1      2626 1.46312E-02-6.04213E-04-1.22140E-13
 -1      2627 1.45362E-02-6.06136E-04-1.20237E-13
 -1      2628 1.43715E-02-6.89523E-04-1.19549E-13
 -1      2629 1.37343E-02-4.89588E-04-1.02472E-13
 -1      2630 1.36001E-02-5.37235E-04-1.01165E-13
 -1      2631 1.34826E-02-6.03263E-04-1.01258E-13
 -1      2632 1.43035E-02-2.84927E-04-1.03806E-13
 -1      2633 6.89542E-04 2.51257E-04-3.89581E-16
 -1      2634 1.34804E-02 1.56328E-05-1.00742E-13
 -1      2635 1.20078E-02-1.31303E-03-8.98376E-14
 -1      2636 5.64281E-04-1.64970E-04-3.56188E-16
 -1      2637 5.69717E-04-1.88038E-04-3.42350E-16
 -1      2638 6.97835E-04-2.27786E-04-4.72807E-16
 -1      2639 6.80699E-04-1.81690E-04-4.93407E-16
 -1      2640 1.05433E-02-5.58644E-04-7.82686E-14
 -1      2641 1.13754E-02-1.08679E-03-8.39015E-14
 -1      2642 9.99281E-03 1.37484E-05-7.54599E-14
 -1      2643 1.00794E-02 6.20252E-05-7.51714E-14
 -1      2644 9.87351E-03-1.32223E-05-7.41482E-14
 -1      2645 9.69044E-03-8.48531E-05-7.43764E-14
 -1      2646 9.59518E-03-1.55357E-04-7.48066E-14
 -1      2647 9.55233E-03-1.43597E-04-7.39906E-14
 -1      2648 9.61757E-03-1.60117E-04-7.40637E-14
 -1      2649 9.83143E-03-2.26702E-04-7.53709E-14
 -1      2650 1.07986E-02 4.11628E-04-7.96746E-14
 -1      2651 9.55616E-03-1.27790E-04-7.45243E-14
 -1      2652 9.56072E-03-1.18161E-04-7.37326E-14
 -1      2653 9.53545E-03-1.30242E-04-7.39381E-14
 -1      2654 1.09728E-02-8.23520E-04-8.08385E-14
 -1      2655 1.23689E-02-1.21589E-03-9.33313E-14
 -1      2656 1.41156E-02 8.34322E-05-1.18796E-13
 -1      2657 1.43520E-02-6.64191E-04-1.18429E-13
 -1      2658 7.80196E-04 7.73477E-05-6.74807E-16
 -1      2659 7.78936E-04 5.54826E-05-6.81651E-16
 -1      2660 7.78089E-04 3.35669E-05-6.86923E-16
 -1      2661 7.77667E-04 1.18989E-05-6.90637E-16
 -1      2662 8.96503E-04 4.96912E-05-8.67308E-16
 -1      2663 7.91535E-04 1.73155E-04-6.25720E-16
 -1      2664 7.87531E-04 1.47738E-04-6.41766E-16
 -1      2665 8.03398E-04 2.28355E-04-5.84534E-16
 -1      2666 7.96776E-04 1.99962E-04-6.07099E-16
 -1      2667 9.14835E-04 2.07856E-04-7.85897E-16
 -1      2668 1.12981E-03 3.61991E-04-9.42334E-16
 -1      2669 9.86211E-04 3.32919E-04-7.28801E-16
 -1      2670 1.34126E-02 5.90591E-05-1.01447E-13
 -1      2671 1.36289E-02-4.42981E-05-1.02457E-13
 -1      2672 1.32014E-03-3.62796E-04-1.44292E-15
 -1      2673 1.46336E-03-3.81790E-04-1.74967E-15
 -1      2674 1.60640E-03-3.97882E-04-2.08690E-15
 -1      2675 1.74933E-03-4.11295E-04-2.45485E-15
 -1      2676 1.52497E-03-3.55466E-04-1.94823E-15
 -1      2677 1.89210E-03-4.22502E-04-2.85371E-15
 -1      2678 2.03475E-03-4.31693E-04-3.28295E-15
 -1      2679 1.81165E-03-3.81377E-04-2.68836E-15
 -1      2680 2.17730E-03-4.39242E-04-3.74300E-15
 -1      2681 2.31976E-03-4.45302E-04-4.23403E-15
 -1      2682 2.09811E-03-3.99227E-04-3.55052E-15
 -1      2683 2.46218E-03-4.50160E-04-4.75508E-15
 -1      2684 2.60454E-03-4.53937E-04-5.30607E-15
 -1      2685 2.38428E-03-4.11034E-04-4.53403E-15
 -1      2686 2.74689E-03-4.56851E-04-5.88765E-15
 -1      2687 2.88922E-03-4.58996E-04-6.49887E-15
 -1      2688 2.67023E-03-4.18412E-04-5.63792E-15
 -1      2689 3.03156E-03-4.60530E-04-7.13938E-15
 -1      2690 3.17391E-03-4.61525E-04-7.80876E-15
 -1      2691 2.95601E-03-4.22609E-04-6.86089E-15
 -1      2692 3.31629E-03-4.62095E-04-8.50798E-15
 -1      2693 3.45868E-03-4.62293E-04-9.23667E-15
 -1      2694 3.24168E-03-4.24562E-04-8.20028E-15
 -1      2695 3.60111E-03-4.62199E-04-9.99347E-15
 -1      2696 3.74356E-03-4.61848E-04-1.07791E-14
 -1      2697 3.52730E-03-4.24957E-04-9.65637E-15
 -1      2698 3.88605E-03-4.61294E-04-1.15932E-14
 -1      2699 4.02857E-03-4.60561E-04-1.24353E-14
 -1      2700 3.81290E-03-4.24280E-04-1.12268E-14
 -1      2701 4.17113E-03-4.59679E-04-1.33052E-14
 -1      2702 4.31373E-03-4.58664E-04-1.42038E-14
 -1      2703 4.09851E-03-4.22854E-04-1.29102E-14
 -1      2704 4.45636E-03-4.57529E-04-1.51294E-14
 -1      2705 4.59903E-03-4.56283E-04-1.60818E-14
 -1      2706 4.38414E-03-4.20876E-04-1.47045E-14
 -1      2707 4.74174E-03-4.54926E-04-1.70619E-14
 -1      2708 4.88449E-03-4.53460E-04-1.80683E-14
 -1      2709 4.66980E-03-4.18446E-04-1.66089E-14
 -1      2710 5.02728E-03-4.51877E-04-1.91029E-14
 -1      2711 5.17012E-03-4.50174E-04-2.01639E-14
 -1      2712 4.95550E-03-4.15589E-04-1.86214E-14
 -1      2713 5.31300E-03-4.48335E-04-2.12529E-14
 -1      2714 5.45592E-03-4.46354E-04-2.23698E-14
 -1      2715 5.24126E-03-4.12269E-04-2.07437E-14
 -1      2716 5.59890E-03-4.44212E-04-2.35124E-14
 -1      2717 5.74194E-03-4.41899E-04-2.46838E-14
 -1      2718 5.52709E-03-4.08410E-04-2.29756E-14
 -1      2719 5.88504E-03-4.39395E-04-2.58814E-14
 -1      2720 6.02821E-03-4.36691E-04-2.71057E-14
 -1      2721 5.81298E-03-4.03907E-04-2.53161E-14
 -1      2722 6.17144E-03-4.33765E-04-2.83571E-14
 -1      2723 6.31476E-03-4.30613E-04-2.96349E-14
 -1      2724 6.09894E-03-3.98645E-04-2.77649E-14
 -1      2725 6.45816E-03-4.27216E-04-3.09386E-14
 -1      2726 6.60167E-03-4.23575E-04-3.22684E-14
 -1      2727 6.38499E-03-3.92515E-04-3.03193E-14
 -1      2728 6.74527E-03-4.19683E-04-3.36250E-14
 -1      2729 6.88900E-03-4.15546E-04-3.50059E-14
 -1      2730 6.67111E-03-3.85443E-04-3.29773E-14
 -1      2731 7.03284E-03-4.11178E-04-3.64129E-14
 -1      2732 7.17684E-03-4.06599E-04-3.78457E-14
 -1      2733 6.95730E-03-3.77417E-04-3.57390E-14
 -1      2734 7.32096E-03-4.01851E-04-3.93026E-14
 -1      2735 7.46528E-03-3.96974E-04-4.07846E-14
 -1      2736 7.24355E-03-3.68542E-04-3.86006E-14
 -1      2737 7.60974E-03-3.92055E-04-4.22913E-14
 -1      2738 7.75445E-03-3.87164E-04-4.38205E-14
 -1      2739 7.52983E-03-3.59091E-04-4.15609E-14
 -1      2740 7.89934E-03-3.82450E-04-4.53725E-14
 -1      2741 8.04454E-03-3.78028E-04-4.69479E-14
 -1      2742 7.81614E-03-3.49595E-04-4.46161E-14
 -1      2743 8.18997E-03-3.74130E-04-4.85485E-14
 -1      2744 8.33583E-03-3.70942E-04-5.01706E-14
 -1      2745 8.10254E-03-3.40944E-04-4.77659E-14
 -1      2746 8.48206E-03-3.68796E-04-5.18133E-14
 -1      2747 8.62889E-03-3.67985E-04-5.34772E-14
 -1      2748 8.38921E-03-3.34515E-04-5.10059E-14
 -1      2749 8.77635E-03-3.68955E-04-5.51593E-14
 -1      2750 8.92476E-03-3.72172E-04-5.68616E-14
 -1      2751 8.67668E-03-3.32332E-04-5.43282E-14
 -1      2752 9.07428E-03-3.78180E-04-5.85826E-14
 -1      2753 9.22534E-03-3.87731E-04-6.03238E-14
 -1      2754 8.96612E-03-3.37261E-04-5.77280E-14
 -1      2755 9.37837E-03-4.01418E-04-6.20857E-14
 -1      2756 9.53388E-03-4.20444E-04-6.38659E-14
 -1      2757 9.25984E-03-3.53288E-04-6.12056E-14
 -1      2758 9.69274E-03-4.45344E-04-6.56646E-14
 -1      2759 9.85543E-03-4.78052E-04-6.74809E-14
 -1      2760 9.56200E-03-3.85956E-04-6.47604E-14
 -1      2761 1.00233E-02-5.18937E-04-6.93155E-14
 -1      2762 1.01963E-02-5.70605E-04-7.11666E-14
 -1      2763 9.87927E-03-4.43330E-04-6.83871E-14
 -1      2764 1.03765E-02-6.32822E-04-7.30328E-14
 -1      2765 1.05618E-02-7.08619E-04-7.49154E-14
 -1      2766 1.02207E-02-5.37051E-04-7.20828E-14
 -1      2767 1.07549E-02-7.96505E-04-7.68170E-14
 -1      2768 1.09495E-02-8.96360E-04-7.87327E-14
 -1      2769 1.05943E-02-6.82112E-04-7.58443E-14
 -1      2770 1.11464E-02-9.77370E-04-8.09906E-14
 -1      2771 1.13478E-02-1.09286E-03-8.29416E-14
 -1      2772 1.18879E-02-1.33552E-03-8.85698E-14
 -1      2773 1.20633E-02-1.34074E-03-9.05872E-14
 -1      2774 1.22384E-02-1.30931E-03-9.26213E-14
 -1      2775 1.24209E-02-1.25072E-03-9.46717E-14
 -1      2776 1.26104E-02-1.16873E-03-9.67344E-14
 -1      2777 1.28026E-02-1.08373E-03-9.88136E-14
 -1      2778 1.29973E-02-9.99260E-04-1.00909E-13
 -1      2779 1.31883E-02-9.23003E-04-1.03013E-13
 -1      2780 1.29426E-02-9.86453E-04-9.98244E-14
 -1      2781 1.33766E-02-8.57111E-04-1.05128E-13
 -1      2782 1.35575E-02-8.01009E-04-1.07256E-13
 -1      2783 1.33363E-02-8.31265E-04-1.04035E-13
 -1      2784 1.37330E-02-7.55084E-04-1.09395E-13
 -1      2785 1.39016E-02-7.16855E-04-1.11540E-13
 -1      2786 1.37029E-02-7.25299E-04-1.08289E-13
 -1      2787 1.40650E-02-6.85508E-04-1.13690E-13
 -1      2788 1.42232E-02-6.58118E-04-1.15851E-13
 -1      2789 1.40397E-02-6.57186E-04-1.12579E-13
 -1      2790 1.44365E-02-6.21129E-04-1.18772E-13
 -1      2791 1.45217E-02-5.80387E-04-1.19113E-13
 -1      2792 1.43353E-02-6.36257E-04-1.17308E-13
 -1      2793 1.98542E-03 4.63310E-04-2.85625E-15
 -1      2794 1.84338E-03 4.53057E-04-2.46176E-15
 -1      2795 2.83618E-03 4.94449E-04-5.84763E-15
 -1      2796 2.69442E-03 4.91887E-04-5.27506E-15
 -1      2797 3.11984E-03 4.97642E-04-7.08118E-15
 -1      2798 2.97800E-03 4.96341E-04-6.44947E-15
 -1      2799 2.90235E-03 4.58411E-04-6.22388E-15
 -1      2800 3.40372E-03 4.98900E-04-8.43284E-15
 -1      2801 3.26176E-03 4.98475E-04-7.74238E-15
 -1      2802 3.18713E-03 4.60971E-04-7.49067E-15
 -1      2803 3.68786E-03 4.98822E-04-9.90194E-15
 -1      2804 3.54576E-03 4.99001E-04-9.15255E-15
 -1      2805 3.47197E-03 4.61805E-04-8.87548E-15
 -1      2806 3.97226E-03 4.97818E-04-1.14881E-14
 -1      2807 3.83003E-03 4.98418E-04-1.06807E-14
 -1      2808 3.75692E-03 4.61449E-04-1.03764E-14
 -1      2809 4.25692E-03 4.96155E-04-1.31916E-14
 -1      2810 4.11456E-03 4.97058E-04-1.23253E-14
 -1      2811 4.04198E-03 4.60267E-04-1.19951E-14
 -1      2812 4.54184E-03 4.93982E-04-1.50117E-14
 -1      2813 4.39935E-03 4.95126E-04-1.40866E-14
 -1      2814 4.32718E-03 4.58487E-04-1.37295E-14
 -1      2815 4.82701E-03 4.91361E-04-1.69482E-14
 -1      2816 4.68440E-03 4.92726E-04-1.59659E-14
 -1      2817 4.61251E-03 4.56232E-04-1.55807E-14
 -1      2818 5.11244E-03 4.88289E-04-1.90003E-14
 -1      2819 4.96969E-03 4.89883E-04-1.79595E-14
 -1      2820 4.89799E-03 4.53544E-04-1.75472E-14
 -1      2821 5.39816E-03 4.84712E-04-2.11681E-14
 -1      2822 5.25526E-03 4.86567E-04-2.00702E-14
 -1      2823 5.18362E-03 4.50405E-04-1.96294E-14
 -1      2824 5.68418E-03 4.80549E-04-2.34462E-14
 -1      2825 5.54113E-03 4.82708E-04-2.22934E-14
 -1      2826 5.46943E-03 4.46751E-04-2.18246E-14
 -1      2827 5.97059E-03 4.75701E-04-2.58319E-14
 -1      2828 5.82733E-03 4.78215E-04-2.46261E-14
 -1      2829 5.75543E-03 4.42493E-04-2.41292E-14
 -1      2830 6.25746E-03 4.70083E-04-2.83251E-14
 -1      2831 6.11396E-03 4.72991E-04-2.70649E-14
 -1      2832 6.04167E-03 4.37535E-04-2.65423E-14
 -1      2833 6.54491E-03 4.63641E-04-3.09225E-14
 -1      2834 6.40110E-03 4.66965E-04-2.96109E-14
 -1      2835 6.32821E-03 4.31790E-04-2.90610E-14
 -1      2836 6.83308E-03 4.56394E-04-3.36222E-14
 -1      2837 6.68888E-03 4.60112E-04-3.22601E-14
 -1      2838 6.61513E-03 4.25213E-04-3.16847E-14
 -1      2839 7.12217E-03 4.48478E-04-3.64200E-14
 -1      2840 6.97749E-03 4.52506E-04-3.50090E-14
 -1      2841 6.90253E-03 4.17834E-04-3.44084E-14
 -1      2842 7.41243E-03 4.40209E-04-3.93176E-14
 -1      2843 7.26713E-03 4.44361E-04-3.78564E-14
 -1      2844 7.19056E-03 4.09805E-04-3.72308E-14
 -1      2845 7.70417E-03 4.32161E-04-4.23085E-14
 -1      2846 7.55808E-03 4.36113E-04-4.08019E-14
 -1      2847 7.47941E-03 4.01464E-04-4.01499E-14
 -1      2848 7.99779E-03 4.25259E-04-4.53877E-14
 -1      2849 7.85070E-03 4.28497E-04-4.38364E-14
 -1      2850 7.76938E-03 3.93408E-04-4.31641E-14
 -1      2851 8.29381E-03 4.20896E-04-4.85519E-14
 -1      2852 8.14545E-03 4.22658E-04-4.69595E-14
 -1      2853 8.06087E-03 3.86587E-04-4.62657E-14
 -1      2854 8.59294E-03 4.21034E-04-5.17955E-14
 -1      2855 8.44294E-03 4.20258E-04-5.01628E-14
 -1      2856 8.35448E-03 3.82414E-04-4.94486E-14
 -1      2857 8.89606E-03 4.28301E-04-5.51149E-14
 -1      2858 8.74395E-03 4.23584E-04-5.34472E-14
 -1      2859 8.65108E-03 3.82873E-04-5.27133E-14
 -1      2860 9.20428E-03 4.45993E-04-5.85113E-14
 -1      2861 9.04950E-03 4.35600E-04-5.68042E-14
 -1      2862 8.95189E-03 3.90616E-04-5.60543E-14
 -1      2863 9.51881E-03 4.77905E-04-6.19806E-14
 -1      2864 9.36077E-03 4.59892E-04-6.02358E-14
 -1      2865 9.25855E-03 4.09017E-04-5.94668E-14
 -1      2866 9.84058E-03 5.27799E-04-6.55251E-14
 -1      2867 9.67890E-03 5.00346E-04-6.37431E-14
 -1      2868 9.57293E-03 4.42072E-04-6.29538E-14
 -1      2869 1.01695E-02 5.98176E-04-6.91484E-14
 -1      2870 1.00044E-02 5.60307E-04-6.73279E-14
 -1      2871 9.89671E-03 4.93944E-04-6.65179E-14
 -1      2872 1.05034E-02 6.88132E-04-7.28406E-14
 -1      2873 1.03363E-02 6.40972E-04-7.09850E-14
 -1      2874 1.02303E-02 5.67752E-04-7.01566E-14
 -1      2875 1.08370E-02 7.89738E-04-7.66036E-14
 -1      2876 1.06708E-02 7.38481E-04-7.47155E-14
 -1      2877 1.05710E-02 6.63128E-04-7.38675E-14
 -1      2878 1.11633E-02 8.85056E-04-8.04300E-14
 -1      2879 1.10014E-02 8.39879E-04-7.85085E-14
 -1      2880 1.09122E-02 7.70823E-04-7.76433E-14
 -1      2881 1.14781E-02 9.47993E-04-8.43240E-14
 -1      2882 1.13219E-02 9.22499E-04-8.23672E-14
 -1      2883 1.12448E-02 8.69262E-04-8.14849E-14
 -1      2884 1.17836E-02 9.54533E-04-8.82851E-14
 -1      2885 1.16307E-02 9.59489E-04-8.62974E-14
 -1      2886 1.15639E-02 9.27402E-04-8.53930E-14
 -1      2887 1.20903E-02 8.95975E-04-9.23133E-14
 -1      2888 1.19358E-02 9.32904E-04-9.02907E-14
 -1      2889 1.18753E-02 9.18198E-04-8.93706E-14
 -1      2890 1.24056E-02 7.85678E-04-9.64030E-14
 -1      2891 1.22464E-02 8.45577E-04-9.43513E-14
 -1      2892 1.21918E-02 8.38283E-04-9.34149E-14
 -1      2893 1.27301E-02 6.48522E-04-1.00544E-13
 -1      2894 1.25671E-02 7.18663E-04-9.84682E-14
 -1      2895 1.25202E-02 7.10168E-04-9.75213E-14
 -1      2896 1.30579E-02 5.07057E-04-1.04733E-13
 -1      2897 1.28943E-02 5.77232E-04-1.02632E-13
 -1      2898 1.28573E-02 5.64179E-04-1.01675E-13
 -1      2899 1.33820E-02 3.73470E-04-1.08966E-13
 -1      2900 1.32210E-02 4.38972E-04-1.06844E-13
 -1      2901 1.31944E-02 4.22610E-04-1.05876E-13
 -1      2902 1.36977E-02 2.50013E-04-1.13237E-13
 -1      2903 1.35413E-02 3.10698E-04-1.11098E-13
 -1      2904 1.35234E-02 2.93976E-04-1.10120E-13
 -1      2905 1.39842E-02 1.36815E-04-1.17090E-13
 -1      2906 1.38320E-02 1.94824E-04-1.14931E-13
 -1      2907 1.38205E-02 1.79755E-04-1.13947E-13
 -1      2908 1.40898E-02 7.55691E-05-1.17344E-13
 -1      2909 1.48155E-02-2.92724E-04-1.18048E-13
 -1      2910 1.47646E-02-2.68198E-04-1.17965E-13
 -1      2911 1.45479E-02-1.70904E-04-1.17700E-13
 -1      2912 1.44643E-02-1.30843E-04-1.17609E-13
 -1      2913 1.48704E-02-3.33225E-04-1.18201E-13
 -1      2914 1.48514E-02-3.13592E-04-1.18127E-13
 -1      2915 1.47335E-02-2.94632E-04-1.16211E-13
 -1      2916 1.47009E-02-2.40083E-04-1.17878E-13
 -1      2917 1.46279E-02-2.07520E-04-1.17789E-13
 -1      2918 1.44675E-02-1.68951E-04-1.15871E-13
 -1      2919 1.46234E-02-2.41480E-04-1.16047E-13
 -1      2920 1.18029E-02 8.53706E-04-8.79839E-14
 -1      2921 1.19558E-02 8.32486E-04-8.96877E-14
 -1      2922 1.48566E-02-3.71648E-04-1.18337E-13
 -1      2923 1.48718E-02-3.51515E-04-1.18270E-13
 -1      2924 1.47739E-02-3.35325E-04-1.16357E-13
 -1      2925 1.47809E-02-4.20597E-04-1.18466E-13
 -1      2926 1.48253E-02-3.94114E-04-1.18404E-13
 -1      2927 1.47386E-02-3.78062E-04-1.16491E-13
 -1      2928 1.46632E-02-4.85183E-04-1.18581E-13
 -1      2929 1.47256E-02-4.50851E-04-1.18525E-13
 -1      2930 1.46406E-02-4.35936E-04-1.16616E-13
 -1      2931 1.45905E-02-5.39447E-04-1.19067E-13
 -1      2932 1.70117E-03 4.40595E-04-2.09740E-15
 -1      2933 1.55872E-03 4.25720E-04-1.76316E-15
 -1      2934 1.76210E-03 4.11272E-04-2.33220E-15
 -1      2935 1.32358E-02-7.38045E-04-1.00206E-13
 -1      2936 1.30355E-02-8.52716E-04-9.89590E-14
 -1      2937 1.20687E-02-1.31678E-03-9.05519E-14
 -1      2938 1.19107E-02-1.31836E-03-8.88395E-14
 -1      2939 8.28025E-04-2.65309E-04-6.26669E-16
 -1      2940 9.59649E-04-3.00570E-04-8.04356E-16
 -1      2941 8.17428E-04-2.38675E-04-6.41319E-16
 -1      2942 1.02015E-02-3.82205E-04-7.58621E-14
 -1      2943 1.00528E-02-3.14221E-04-7.52410E-14
 -1      2944 1.06219E-02-6.15897E-04-7.79111E-14
 -1      2945 1.04104E-02-4.91321E-04-7.67582E-14
 -1      2946 1.42706E-02-3.12266E-04-1.04701E-13
 -1      2947 1.41945E-02-3.31137E-04-1.04462E-13
 -1      2948 9.61141E-03-9.60505E-05-7.32901E-14
 -1      2949 9.69623E-03-6.97839E-05-7.33465E-14
 -1      2950 2.55266E-03 4.88484E-04-4.73180E-15
 -1      2951 2.41092E-03 4.84137E-04-4.21787E-15
 -1      2952 2.61758E-03 4.53368E-04-5.07385E-15
 -1      2953 2.26915E-03 4.78610E-04-3.73380E-15
 -1      2954 2.12733E-03 4.71774E-04-3.28020E-15
 -1      2955 2.33271E-03 4.44813E-04-4.04140E-15
 -1      2956 1.06816E-03-3.21665E-04-9.76676E-16
 -1      2957 1.21145E-03-3.46899E-04-1.22947E-15
 -1      2958 1.27288E-03-3.24878E-04-1.39690E-15
 -1      2959 1.05582E-03-2.91453E-04-9.95840E-16
 -1      2960 8.03088E-04 2.78262E-04-5.15918E-16
 -1      2961 1.41605E-03 4.07896E-04-1.45944E-15
 -1      2962 1.27300E-03 3.86861E-04-1.18571E-15
 -1      2963 1.18966E-03 3.41538E-04-1.10099E-15
 -1      2964 1.47609E-03 3.82248E-04-1.65648E-15
 -1      2965 7.84385E-04 1.23480E-04-6.54980E-16
 -1      2966 7.81999E-04 1.00041E-04-6.65931E-16
 -1      2967 8.99613E-04 9.94685E-05-8.50150E-16
 -1      2968 9.05348E-04 1.51615E-04-8.23668E-16
 -1      2969 7.81729E-04-9.79864E-05-6.86517E-16
 -1      2970 7.84037E-04-1.21346E-04-6.80527E-16
 -1      2971 9.87904E-03-2.43734E-04-7.45955E-14
 -1      2972 9.73273E-03-1.95110E-04-7.41087E-14
 -1      2973 1.21166E-02 7.83399E-04-9.14165E-14
 -1      2974 1.22471E-02 7.22522E-04-9.27697E-14
 -1      2975 1.03067E-02 1.69965E-04-7.60762E-14
 -1      2976 1.04901E-02 2.61968E-04-7.70856E-14
 -1      2977 1.38430E-02-1.33712E-04-1.03360E-13
 -1      2978 1.40271E-02-1.96097E-04-1.04218E-13
 -1      2979 1.07002E-02 3.75142E-04-7.83708E-14
 -1      2980 1.08730E-02 4.74876E-04-7.95249E-14
 -1      2981 1.24436E-02-1.19316E-03-9.43663E-14
 -1      2982 1.22616E-02-1.27432E-03-9.25852E-14
 -1      2983 1.24584E-02 6.07705E-04-9.47116E-14
 -1      2984 1.26849E-02 4.69471E-04-9.66034E-14
 -1      2985 1.29390E-02 3.18287E-04-9.85007E-14
 -1      2986 1.31444E-02 1.99393E-04-9.98524E-14
 -1      2987 1.43223E-02-2.84476E-04-1.05060E-13
 -1      2988 1.43220E-02-2.95083E-04-1.04988E-13
 -1      2989 1.40868E-02-3.66605E-04-1.04296E-13
 -1      2990 1.39616E-02-4.07472E-04-1.03852E-13
 -1      2991 1.41857E-02-2.45336E-04-1.04769E-13
 -1      2992 1.42700E-02-2.66184E-04-1.04979E-13
 -1      2993 1.15198E-02-1.19645E-03-8.45925E-14
 -1      2994 7.87078E-04-1.45503E-04-6.72327E-16
 -1      2995 7.90952E-04-1.70679E-04-6.61716E-16
 -1      2996 9.04875E-04-1.49101E-04-8.58376E-16
 -1      2997 1.43332E-02-2.79706E-04-1.06165E-13
 -1      2998 8.95479E-04 1.01174E-06-8.76401E-16
 -1      2999 7.77637E-04-9.72219E-06-6.92737E-16
 -1      3000 7.78000E-04-3.13741E-05-6.93578E-16
 -1      3001 1.37744E-02-8.96767E-05-1.04069E-13
 -1      3002 1.28139E-02 4.07653E-04-9.80562E-14
 -1      3003 1.23702E-02 6.67300E-04-9.42093E-14
 -1      3004 1.09670E-02 5.42416E-04-8.00090E-14
 -1      3005 1.26539E-02-1.09123E-03-9.64246E-14
 -1      3006 1.25393E-02-1.17499E-03-9.56706E-14
 -1      3007 1.13662E-02 7.46267E-04-8.34941E-14
 -1      3008 1.14386E-02 7.89713E-04-8.40778E-14
 -1      3009 1.12623E-02 7.07975E-04-8.23931E-14
 -1      3010 1.05674E-02 3.33205E-04-7.69352E-14
 -1      3011 1.16236E-02 8.45338E-04-8.60079E-14
 -1      3012 1.17116E-02 8.54778E-04-8.69938E-14
 -1      3013 1.17807E-02 8.63593E-04-8.78184E-14
 -1      3014 1.09804E-02-8.53389E-04-7.99933E-14
 -1      3015 1.21573E-02-1.31176E-03-9.15742E-14
 -1      3016 1.43118E-02-6.11583E-04-1.16190E-13
 -1      3017 1.35312E-02-6.13939E-04-1.02815E-13
 -1      3018 1.33855E-02-6.70280E-04-1.01506E-13
 -1      3019 1.33095E-02-7.37478E-04-1.01756E-13
 -1      3020 2.04760E-03 4.31376E-04-3.12727E-15
 -1      3021 1.41689E-02 2.95171E-05-1.17443E-13
 -1      3022 1.40344E-02 7.81986E-05-1.15743E-13
 -1      3023 1.42505E-02-1.60617E-05-1.17542E-13
 -1      3024 9.55762E-03-1.03420E-04-7.27062E-14
 -1      3025 1.44064E-02-5.69270E-04-1.16677E-13
 -1      3026 1.45751E-02-5.17823E-04-1.18093E-13
 -1      3027 1.44862E-02-5.05781E-04-1.16190E-13
 -1      3028 1.42960E-02-5.86244E-04-1.15218E-13
 -1      3029 1.43294E-02-3.07022E-04-1.05956E-13
 -1      3030 1.38607E-02-4.54667E-04-1.03944E-13
 -1      3031 1.37613E-02-5.09290E-04-1.04037E-13
 -1      3032 1.39774E-02-4.34173E-04-1.05425E-13
 -1      3033 1.18406E-02-1.31443E-03-8.80568E-14
 -1      3034 1.17693E-02-1.29034E-03-8.73533E-14
 -1      3035 1.16449E-02-1.24185E-03-8.60671E-14
 -1      3036 1.17598E-02-1.30737E-03-8.70837E-14
 -1      3037 8.64850E-04 2.66584E-04-6.29935E-16
 -1      3038 1.02850E-02-4.40305E-04-7.55075E-14
 -1      3039 9.75948E-03-3.91620E-05-7.30614E-14
 -1      3040 9.82315E-03-1.41069E-06-7.27766E-14
 -1      3041 9.65936E-03-5.33893E-05-7.19813E-14
 -1      3042 9.92167E-03-2.70249E-04-7.39767E-14
 -1      3043 9.64789E-03-1.70835E-04-7.32947E-14
 -1      3044 9.57737E-03-1.55514E-04-7.24843E-14
 -1      3045 9.67584E-03-1.86746E-04-7.25263E-14
 -1      3046 1.41738E-02-3.54373E-04-1.05500E-13
 -1      3047 9.51745E-03-1.35423E-04-7.24617E-14
 -1      3048 9.52201E-03-1.33068E-04-7.31995E-14
 -1      3049 9.50077E-03-1.24648E-04-7.24115E-14
 -1      3050 9.82944E-04 2.75827E-04-8.16160E-16
 -1      3051 7.78777E-04-5.31634E-05-6.92588E-16
 -1      3052 7.79993E-04-7.53563E-05-6.90230E-16
 -1      3053 8.99328E-04-9.71172E-05-8.72498E-16
 -1      3054 8.96373E-04-4.75371E-05-8.78095E-16
 -1      3055 1.43990E-02-9.64150E-05-1.17625E-13
 -1      3056 1.43146E-02-5.25495E-05-1.17528E-13
 -1      3057 1.41800E-02-1.04908E-05-1.15829E-13
 -1      3058 1.43134E-02-8.85826E-05-1.15799E-13
 -1      3059 1.20206E-02 8.21304E-04-9.05351E-14
 -1      3060 1.01560E-02 1.21952E-04-7.47599E-14
 -1      3061 1.33148E-02 1.26388E-04-1.01558E-13
 -1      3062 1.28029E-02-9.99979E-04-9.76073E-14
 -1      3063 1.29370E-02-9.46119E-04-9.90942E-14
 -1      3064 1.03049E-02-4.80142E-04-7.46633E-14
 -1      3065 1.01245E-02-3.84572E-04-7.37797E-14
 -1      3066 1.04027E-03 2.43306E-04-9.63612E-16
 -1      3067 1.03365E-03 2.11581E-04-9.89470E-16
 -1      3068 1.43891E-02-3.08567E-04-1.07530E-13
 -1      3069 1.43413E-02-3.22839E-04-1.07241E-13
 -1      3070 1.31442E-02-8.54042E-04-1.01191E-13
 -1      3071 1.43462E-02-2.75055E-04-1.07344E-13
 -1      3072 1.43878E-02-2.90812E-04-1.07425E-13
 -1      3073 1.73167E-03-3.40535E-04-2.52408E-15
 -1      3074 1.87534E-03-3.50743E-04-2.92642E-15
 -1      3075 2.01900E-03-3.59231E-04-3.35898E-15
 -1      3076 2.16264E-03-3.66154E-04-3.82180E-15
 -1      3077 1.94017E-03-3.19425E-04-3.16868E-15
 -1      3078 2.30624E-03-3.71787E-04-4.31442E-15
 -1      3079 2.44979E-03-3.76256E-04-4.83698E-15
 -1      3080 2.22821E-03-3.32535E-04-4.09622E-15
 -1      3081 2.59329E-03-3.79782E-04-5.38964E-15
 -1      3082 2.73672E-03-3.82464E-04-5.97200E-15
 -1      3083 2.51619E-03-3.41039E-04-5.14310E-15
 -1      3084 2.88011E-03-3.84470E-04-6.58318E-15
 -1      3085 3.02343E-03-3.85876E-04-7.22386E-15
 -1      3086 2.80396E-03-3.46163E-04-6.30781E-15
 -1      3087 3.16672E-03-3.86809E-04-7.89446E-15
 -1      3088 3.30995E-03-3.87322E-04-8.59364E-15
 -1      3089 3.09147E-03-3.48865E-04-7.58939E-15
 -1      3090 3.45315E-03-3.87509E-04-9.32066E-15
 -1      3091 3.59631E-03-3.87406E-04-1.00769E-14
 -1      3092 3.37870E-03-3.49867E-04-8.98720E-15
 -1      3093 3.73943E-03-3.87078E-04-1.08623E-14
 -1      3094 3.88252E-03-3.86550E-04-1.16753E-14
 -1      3095 3.66568E-03-3.49694E-04-1.04989E-14
 -1      3096 4.02559E-03-3.85863E-04-1.25161E-14
 -1      3097 4.16863E-03-3.85032E-04-1.33850E-14
 -1      3098 3.95242E-03-3.48707E-04-1.21243E-14
 -1      3099 4.31166E-03-3.84082E-04-1.42821E-14
 -1      3100 4.45465E-03-3.83017E-04-1.52064E-14
 -1      3101 4.23895E-03-3.47140E-04-1.38609E-14
 -1      3102 4.59764E-03-3.81850E-04-1.61571E-14
 -1      3103 4.74060E-03-3.80581E-04-1.71351E-14
 -1      3104 4.52528E-03-3.45127E-04-1.57076E-14
 -1      3105 4.88355E-03-3.79209E-04-1.81420E-14
 -1      3106 5.02648E-03-3.77730E-04-1.91751E-14
 -1      3107 4.81143E-03-3.42722E-04-1.76632E-14
 -1      3108 5.16939E-03-3.76137E-04-2.02349E-14
 -1      3109 5.31230E-03-3.74422E-04-2.13237E-14
 -1      3110 5.09741E-03-3.39920E-04-1.97289E-14
 -1      3111 5.45518E-03-3.72571E-04-2.24392E-14
 -1      3112 5.59804E-03-3.70575E-04-2.35824E-14
 -1      3113 5.38321E-03-3.36670E-04-2.19039E-14
 -1      3114 5.74088E-03-3.68417E-04-2.47527E-14
 -1      3115 5.88370E-03-3.66086E-04-2.59496E-14
 -1      3116 5.66879E-03-3.32890E-04-2.41897E-14
 -1      3117 6.02649E-03-3.63567E-04-2.71738E-14
 -1      3118 6.16924E-03-3.60847E-04-2.84242E-14
 -1      3119 5.95411E-03-3.28482E-04-2.65843E-14
 -1      3120 6.31195E-03-3.57915E-04-2.97022E-14
 -1      3121 6.45462E-03-3.54760E-04-3.10044E-14
 -1      3122 6.23910E-03-3.23346E-04-2.90855E-14
 -1      3123 6.59722E-03-3.51380E-04-3.23323E-14
 -1      3124 6.73977E-03-3.47768E-04-3.36871E-14
 -1      3125 6.52367E-03-3.17403E-04-3.16899E-14
 -1      3126 6.88222E-03-3.43938E-04-3.50662E-14
 -1      3127 7.02460E-03-3.39887E-04-3.64708E-14
 -1      3128 6.80766E-03-3.10615E-04-3.43961E-14
 -1      3129 7.16684E-03-3.35653E-04-3.79018E-14
 -1      3130 7.30898E-03-3.31247E-04-3.93556E-14
 -1      3131 7.09091E-03-3.03022E-04-3.72037E-14
 -1      3132 7.45095E-03-3.26739E-04-4.08332E-14
 -1      3133 7.59279E-03-3.22157E-04-4.23366E-14
 -1      3134 7.37319E-03-2.94787E-04-4.01096E-14
 -1      3135 7.73441E-03-3.17617E-04-4.38635E-14
 -1      3136 7.87588E-03-3.13173E-04-4.54129E-14
 -1      3137 7.65424E-03-2.86244E-04-4.31126E-14
 -1      3138 8.01710E-03-3.09001E-04-4.69856E-14
 -1      3139 8.15817E-03-3.05190E-04-4.85814E-14
 -1      3140 7.93379E-03-2.77962E-04-4.62097E-14
 -1      3141 8.29900E-03-3.01989E-04-5.01999E-14
 -1      3142 8.43975E-03-2.99545E-04-5.18396E-14
 -1      3143 8.21161E-03-2.70812E-04-4.93965E-14
 -1      3144 8.58034E-03-2.98178E-04-5.34981E-14
 -1      3145 8.72106E-03-2.98135E-04-5.51780E-14
 -1      3146 8.48764E-03-2.66042E-04-5.26714E-14
 -1      3147 8.86190E-03-2.99792E-04-5.68769E-14
 -1      3148 9.00333E-03-3.03576E-04-5.85933E-14
 -1      3149 8.76222E-03-2.65342E-04-5.60271E-14
 -1      3150 9.14548E-03-3.09877E-04-6.03301E-14
 -1      3151 9.28914E-03-3.19479E-04-6.20866E-14
 -1      3152 9.03650E-03-2.70951E-04-5.94594E-14
 -1      3153 9.43472E-03-3.32712E-04-6.38598E-14
 -1      3154 9.58339E-03-3.51038E-04-6.56524E-14
 -1      3155 9.31320E-03-2.85953E-04-6.29656E-14
 -1      3156 9.73608E-03-3.74702E-04-6.74634E-14
 -1      3157 9.89423E-03-4.06468E-04-6.92911E-14
 -1      3158 9.59771E-03-3.14950E-04-6.65421E-14
 -1      3159 1.00998E-02-4.56360E-04-7.15836E-14
 -1      3160 1.02757E-02-5.12489E-04-7.34468E-14
 -1      3161 1.04491E-02-5.75860E-04-7.51763E-14
 -1      3162 1.06459E-02-6.65035E-04-7.70750E-14
 -1      3163 1.15800E-02-1.24107E-03-8.50949E-14
 -1      3164 1.36894E-02-6.81961E-04-1.07176E-13
 -1      3165 1.38628E-02-6.45128E-04-1.09313E-13
 -1      3166 1.40042E-02-6.23781E-04-1.11186E-13
 -1      3167 1.41642E-02-6.00504E-04-1.13336E-13
 -1      3168 1.42647E-02-5.53778E-04-1.13820E-13
 -1      3169 1.39988E-02-5.79578E-04-1.10065E-13
 -1      3170 2.68332E-03 4.17795E-04-5.41944E-15
 -1      3171 2.54034E-03 4.14607E-04-4.87105E-15
 -1      3172 2.96917E-03 4.21994E-04-6.60240E-15
 -1      3173 2.82626E-03 4.20230E-04-5.99671E-15
 -1      3174 2.74983E-03 3.81847E-04-5.76854E-15
 -1      3175 3.82624E-03 4.23889E-04-1.08539E-14
 -1      3176 3.68342E-03 4.24290E-04-1.00722E-14
 -1      3177 4.11189E-03 4.22577E-04-1.25041E-14
 -1      3178 3.96907E-03 4.23312E-04-1.16648E-14
 -1      3179 3.89584E-03 3.86190E-04-1.13340E-14
 -1      3180 4.39754E-03 4.20724E-04-1.42694E-14
 -1      3181 4.25471E-03 4.21711E-04-1.33721E-14
 -1      3182 4.18197E-03 3.84790E-04-1.30147E-14
 -1      3183 4.68322E-03 4.18427E-04-1.61517E-14
 -1      3184 4.54038E-03 4.19628E-04-1.51957E-14
 -1      3185 4.46801E-03 3.82903E-04-1.48121E-14
 -1      3186 4.96893E-03 4.15710E-04-1.81486E-14
 -1      3187 4.82607E-03 4.17122E-04-1.71360E-14
 -1      3188 4.75396E-03 3.80601E-04-1.67245E-14
 -1      3189 5.25469E-03 4.12543E-04-2.02597E-14
 -1      3190 5.11181E-03 4.14186E-04-1.91893E-14
 -1      3191 5.03984E-03 3.77893E-04-1.87513E-14
 -1      3192 5.54050E-03 4.08854E-04-2.24824E-14
 -1      3193 5.39759E-03 4.10768E-04-2.13577E-14
 -1      3194 5.32565E-03 3.74737E-04-2.08909E-14
 -1      3195 5.82638E-03 4.04551E-04-2.48144E-14
 -1      3196 5.68343E-03 4.06785E-04-2.36349E-14
 -1      3197 5.61138E-03 3.71058E-04-2.31417E-14
 -1      3198 6.11234E-03 3.99537E-04-2.72538E-14
 -1      3199 5.96934E-03 4.02138E-04-2.60208E-14
 -1      3200 5.89703E-03 3.66761E-04-2.55005E-14
 -1      3201 6.39841E-03 3.93730E-04-2.97996E-14
 -1      3202 6.25535E-03 3.96736E-04-2.85134E-14
 -1      3203 6.18258E-03 3.61751E-04-2.79669E-14
 -1      3204 6.68462E-03 3.87091E-04-3.24477E-14
 -1      3205 6.54148E-03 3.90515E-04-3.11104E-14
 -1      3206 6.46803E-03 3.55950E-04-3.05380E-14
 -1      3207 6.97104E-03 3.79660E-04-3.51953E-14
 -1      3208 6.82779E-03 3.83469E-04-3.38094E-14
 -1      3209 6.75337E-03 3.49326E-04-3.32107E-14
 -1      3210 7.25777E-03 3.71600E-04-3.80421E-14
 -1      3211 7.11435E-03 3.75695E-04-3.66066E-14
 -1      3212 7.03862E-03 3.41924E-04-3.59835E-14
 -1      3213 7.54495E-03 3.63259E-04-4.09852E-14
 -1      3214 7.40128E-03 3.67438E-04-3.95009E-14
 -1      3215 7.32381E-03 3.33912E-04-3.88534E-14
 -1      3216 7.83287E-03 3.55240E-04-4.40202E-14
 -1      3217 7.68878E-03 3.59164E-04-4.24917E-14
 -1      3218 7.60907E-03 3.25633E-04-4.18201E-14
 -1      3219 8.12194E-03 3.48490E-04-4.71429E-14
 -1      3220 7.97721E-03 3.51634E-04-4.55713E-14
 -1      3221 7.89466E-03 3.17675E-04-4.48779E-14
 -1      3222 8.41285E-03 3.44405E-04-5.03484E-14
 -1      3223 8.26710E-03 3.46006E-04-4.87364E-14
 -1      3224 8.18102E-03 3.10952E-04-4.80218E-14
 -1      3225 8.70668E-03 3.44941E-04-5.36315E-14
 -1      3226 8.55931E-03 3.43938E-04-5.19790E-14
 -1      3227 8.46896E-03 3.06800E-04-5.12472E-14
 -1      3228 9.00502E-03 3.52741E-04-5.69901E-14
 -1      3229 8.85518E-03 3.47711E-04-5.53008E-14
 -1      3230 8.75977E-03 3.07101E-04-5.45488E-14
 -1      3231 9.31007E-03 3.71238E-04-6.04224E-14
 -1      3232 9.15659E-03 3.60348E-04-5.86976E-14
 -1      3233 9.05545E-03 3.14447E-04-5.79260E-14
 -1      3234 9.62452E-03 4.04700E-04-6.39281E-14
 -1      3235 9.46603E-03 3.85708E-04-6.21661E-14
 -1      3236 9.35884E-03 3.32348E-04-6.13781E-14
 -1      3237 9.95088E-03 4.57945E-04-6.75105E-14
 -1      3238 9.78625E-03 4.28437E-04-6.57087E-14
 -1      3239 9.67352E-03 3.65484E-04-6.49020E-14
 -1      3240 1.02901E-02 5.35033E-04-7.11649E-14
 -1      3241 1.01192E-02 4.93192E-04-6.93299E-14
 -1      3242 1.00030E-02 4.19707E-04-6.85016E-14
 -1      3243 1.06394E-02 6.36762E-04-7.48923E-14
 -1      3244 1.04644E-02 5.83276E-04-7.30190E-14
 -1      3245 1.03489E-02 5.00581E-04-7.21747E-14
 -1      3246 1.09902E-02 7.52821E-04-7.86814E-14
 -1      3247 1.08158E-02 6.94604E-04-7.67785E-14
 -1      3248 1.07082E-02 6.10990E-04-7.59142E-14
 -1      3249 1.13301E-02 8.56118E-04-8.25373E-14
 -1      3250 1.11619E-02 8.08843E-04-8.06014E-14
 -1      3251 1.10688E-02 7.38268E-04-7.97184E-14
 -1      3252 1.17098E-02 8.95504E-04-8.71065E-14
 -1      3253 1.15462E-02 8.82373E-04-8.51304E-14
 -1      3254 1.22999E-02 7.73594E-04-9.45181E-14
 -1      3255 1.21335E-02 8.33440E-04-9.24786E-14
 -1      3256 1.26431E-02 6.26695E-04-9.86387E-14
 -1      3257 1.24700E-02 7.02288E-04-9.65729E-14
 -1      3258 1.24184E-02 6.98059E-04-9.56236E-14
 -1      3259 1.29931E-02 4.74338E-04-1.02806E-13
 -1      3260 1.28183E-02 5.49372E-04-1.00718E-13
 -1      3261 1.27781E-02 5.34976E-04-9.97593E-14
 -1      3262 1.33378E-02 3.35846E-04-1.07018E-13
 -1      3263 1.31671E-02 4.02791E-04-1.04904E-13
 -1      3264 1.31392E-02 3.80734E-04-1.03938E-13
 -1      3265 1.36696E-02 2.14755E-04-1.11275E-13
 -1      3266 1.35058E-02 2.73556E-04-1.09142E-13
 -1      3267 1.34884E-02 2.49373E-04-1.08162E-13
 -1      3268 1.39226E-02 1.18857E-04-1.14349E-13
 -1      3269 1.37843E-02 1.70742E-04-1.12658E-13
 -1      3270 1.37739E-02 1.48152E-04-1.11673E-13
 -1      3271 1.40033E-02 6.72876E-05-1.14448E-13
 -1      3272 1.08160E-02-7.34459E-04-7.93074E-14
 -1      3273 1.01657E-03 6.82212E-05-1.06824E-15
 -1      3274 1.01541E-03 4.12340E-05-1.07602E-15
 -1      3275 1.19309E-02 8.53691E-04-8.96447E-14
 -1      3276 1.20766E-02 8.13772E-04-9.13731E-14
 -1      3277 1.46630E-02-2.99324E-04-1.14526E-13
 -1      3278 1.46202E-02-2.75471E-04-1.14450E-13
 -1      3279 9.50173E-03-1.11068E-04-7.19158E-14
 -1      3280 9.53133E-03-9.21695E-05-7.14767E-14
 -1      3281 1.44927E-02-4.54736E-04-1.14768E-13
 -1      3282 1.45595E-02-4.17253E-04-1.14708E-13
 -1      3283 1.46854E-02-3.38830E-04-1.14666E-13
 -1      3284 1.46850E-02-3.18799E-04-1.14600E-13
 -1      3285 1.45941E-02-3.02948E-04-1.12845E-13
 -1      3286 1.82455E-03 3.81225E-04-2.57269E-15
 -1      3287 1.68120E-03 3.69633E-04-2.20158E-15
 -1      3288 2.11106E-03 3.98812E-04-3.40342E-15
 -1      3289 1.96783E-03 3.90894E-04-2.97337E-15
 -1      3290 1.88826E-03 3.50507E-04-2.81856E-15
 -1      3291 1.46160E-02-3.85902E-04-1.14649E-13
 -1      3292 1.46564E-02-3.59589E-04-1.14581E-13
 -1      3293 1.44846E-02-3.97071E-04-1.12808E-13
 -1      3294 3.54059E-03 4.24467E-04-9.31972E-15
 -1      3295 3.39776E-03 4.24392E-04-8.59700E-15
 -1      3296 3.60958E-03 3.86942E-04-9.76771E-15
 -1      3297 7.99204E-04-1.91607E-04-6.58138E-16
 -1      3298 8.07203E-04-2.15482E-04-6.49207E-16
 -1      3299 9.36474E-04-2.46275E-04-8.31651E-16
 -1      3300 9.17271E-04-1.98785E-04-8.44173E-16
 -1      3301 3.25491E-03 4.23994E-04-7.90340E-15
 -1      3302 3.11206E-03 4.23228E-04-7.23820E-15
 -1      3303 3.32318E-03 3.86774E-04-8.31838E-15
 -1      3304 9.94483E-03-2.98358E-04-7.30274E-14
 -1      3305 9.79601E-03-2.38284E-04-7.23931E-14
 -1      3306 1.37418E-02-5.06733E-05-1.05118E-13
 -1      3307 1.39287E-02-1.28582E-04-1.06030E-13
 -1      3308 2.39730E-03 4.10476E-04-4.35279E-15
 -1      3309 2.25421E-03 4.05294E-04-3.86309E-15
 -1      3310 2.46283E-03 3.75681E-04-4.66798E-15
 -1      3311 1.27208E-02 4.84935E-04-9.78559E-14
 -1      3312 1.29500E-02 3.50819E-04-9.97618E-14
 -1      3313 1.44457E-03-3.13810E-04-1.81039E-15
 -1      3314 1.58808E-03-3.28275E-04-2.15215E-15
 -1      3315 1.65238E-03-3.00207E-04-2.36118E-15
 -1      3316 1.42751E-02-3.45026E-04-1.07069E-13
 -1      3317 1.41860E-02-3.74978E-04-1.06900E-13
 -1      3318 1.43655E-02-3.42052E-04-1.08647E-13
 -1      3319 1.08932E-02 5.36152E-04-7.89215E-14
 -1      3320 1.10904E-02 6.31311E-04-8.07179E-14
 -1      3321 1.04342E-02 3.05904E-04-7.53319E-14
 -1      3322 1.06193E-02 4.04116E-04-7.66044E-14
 -1      3323 1.14500E-03 3.10615E-04-1.06485E-15
 -1      3324 1.08236E-03 2.71685E-04-1.00362E-15
 -1      3325 1.20146E-03 2.73123E-04-1.23630E-15
 -1      3326 1.28816E-03 3.32589E-04-1.32336E-15
 -1      3327 1.41352E-02-2.21071E-04-1.05530E-13
 -1      3328 1.32287E-02 1.97184E-04-1.01840E-13
 -1      3329 1.34709E-02 7.26849E-05-1.03445E-13
 -1      3330 1.22084E-02 7.67141E-04-9.29240E-14
 -1      3331 1.23939E-02 6.72937E-04-9.48691E-14
 -1      3332 9.99038E-03 8.41482E-05-7.29943E-14
 -1      3333 1.01852E-02 1.77997E-04-7.38852E-14
 -1      3334 1.41161E-02-1.99419E-04-1.06774E-13
 -1      3335 1.42564E-02-2.43287E-04-1.07330E-13
 -1      3336 1.32862E-02-7.92671E-04-1.02496E-13
 -1      3337 1.01481E-03 1.44531E-05-1.08165E-15
 -1      3338 1.01477E-03-1.22289E-05-1.08492E-15
 -1      3339 1.13550E-03 3.01737E-05-1.30732E-15
 -1      3340 1.15307E-03 2.11852E-04-1.21729E-15
 -1      3341 1.02832E-03 1.81200E-04-1.01143E-15
 -1      3342 1.02415E-03 1.51868E-04-1.03006E-15
 -1      3343 1.11719E-02 6.93521E-04-8.12921E-14
 -1      3344 1.43492E-02-2.60362E-04-1.08595E-13
 -1      3345 9.93707E-03-3.73692E-04-7.06372E-14
 -1      3346 1.02368E-03-1.49136E-04-1.06814E-15
 -1      3347 1.02773E-03-1.78380E-04-1.05692E-15
 -1      3348 3.03660E-03 3.85273E-04-6.98514E-15
 -1      3349 1.34801E-02-7.27948E-04-1.04608E-13
 -1      3350 1.36619E-02-6.30368E-04-1.05623E-13
 -1      3351 1.36752E-02-5.71589E-04-1.04289E-13
 -1      3352 1.02085E-03 1.23322E-04-1.04531E-15
 -1      3353 1.01838E-03 9.55462E-05-1.05806E-15
 -1      3354 1.13816E-03 8.86434E-05-1.28889E-15
 -1      3355 1.14376E-03 1.48804E-04-1.25961E-15
 -1      3356 1.14672E-02 8.41830E-04-8.42237E-14
 -1      3357 1.21155E-02 8.17030E-04-9.20205E-14
 -1      3358 1.20111E-02 8.67631E-04-9.09326E-14
 -1      3359 1.18498E-02 8.97706E-04-8.89229E-14
 -1      3360 1.43894E-02-1.71581E-04-1.14048E-13
 -1      3361 1.42991E-02-1.25815E-04-1.13960E-13
 -1      3362 1.03360E-03-2.39251E-04-1.01500E-15
 -1      3363 1.04413E-03-2.64882E-04-1.00675E-15
 -1      3364 1.15232E-03-2.81632E-04-1.19944E-15
 -1      3365 9.97208E-03-3.39650E-04-7.21939E-14
 -1      3366 9.48372E-03-8.23394E-05-7.02464E-14
 -1      3367 9.55866E-03-7.16579E-05-7.10293E-14
 -1      3368 1.45503E-02-2.46839E-04-1.14219E-13
 -1      3369 1.44749E-02-2.12217E-04-1.14133E-13
 -1      3370 1.43166E-02-1.77579E-04-1.12230E-13
 -1      3371 9.70957E-03-2.34846E-04-7.06471E-14
 -1      3372 9.69796E-03-2.08467E-04-7.15865E-14
 -1      3373 9.60971E-03-1.86481E-04-7.07843E-14
 -1      3374 1.45859E-02-3.42170E-04-1.12831E-13
 -1      3375 1.42278E-02-8.50838E-05-1.13977E-13
 -1      3376 1.41576E-02-4.30652E-05-1.13994E-13
 -1      3377 1.41440E-02-8.55663E-05-1.12163E-13
 -1      3378 1.41139E-02-4.08969E-04-1.06994E-13
 -1      3379 1.40373E-02-4.49296E-04-1.07085E-13
 -1      3380 1.42375E-02-3.94632E-04-1.08569E-13
 -1      3381 1.31191E-02 2.82679E-04-1.01634E-13
 -1      3382 1.02471E-02 2.50636E-04-7.35579E-14
 -1      3383 1.36504E-02 1.55174E-05-1.05400E-13
 -1      3384 9.59966E-03-4.65029E-05-7.07469E-14
 -1      3385 2.17562E-03 3.65697E-04-3.68481E-15
 -1      3386 9.74479E-03 2.46165E-05-7.08402E-14
 -1      3387 9.86301E-03 4.92999E-05-7.19153E-14
 -1      3388 9.88502E-03 1.03937E-04-7.10507E-14
 -1      3389 9.52096E-03-1.42204E-04-7.17000E-14
 -1      3390 9.47434E-03-1.32483E-04-7.09183E-14
 -1      3391 9.52867E-03-1.52183E-04-7.09382E-14
 -1      3392 1.40869E-02-1.65562E-04-1.07831E-13
 -1      3393 1.26078E-03-2.96427E-04-1.40971E-15
 -1      3394 1.44341E-02-3.04774E-04-1.08713E-13
 -1      3395 9.46749E-03-1.13674E-04-7.11839E-14
 -1      3396 1.55630E-03 3.61561E-04-1.89462E-15
 -1      3397 1.41293E-03 3.45375E-04-1.57978E-15
 -1      3398 1.36910E-03 3.15125E-04-1.53251E-15
 -1      3399 1.61929E-03 3.33949E-04-2.10711E-15
 -1      3400 1.07437E-02 4.95571E-04-7.72988E-14
 -1      3401 1.43332E-02-5.20521E-04-1.14053E-13
 -1      3402 1.44294E-02-4.81612E-04-1.14535E-13
 -1      3403 1.43479E-02-4.62631E-04-1.12636E-13
 -1      3404 1.42067E-02-5.28267E-04-1.12172E-13
 -1      3405 1.25825E-02 5.81582E-04-9.69264E-14
 -1      3406 1.32466E-03-2.73634E-04-1.58016E-15
 -1      3407 1.01810E-03-9.30148E-05-1.08146E-15
 -1      3408 1.02048E-03-1.20732E-04-1.07603E-15
 -1      3409 1.14328E-03-1.45928E-04-1.30020E-15
 -1      3410 1.27202E-02 5.27932E-04-9.86211E-14
 -1      3411 1.44917E-02-2.53929E-04-1.12545E-13
 -1      3412 1.44154E-02-2.56746E-04-1.10672E-13
 -1      3413 1.44810E-02-2.84578E-04-1.10689E-13
 -1      3414 1.15229E-02 8.28507E-04-8.48914E-14
 -1      3415 1.29081E-02 4.42382E-04-1.00702E-13
 -1      3416 1.31442E-02 3.44914E-04-1.03364E-13
 -1      3417 1.31033E-02 3.24712E-04-1.02215E-13
 -1      3418 1.33598E-02 1.90079E-04-1.04308E-13
 -1      3419 1.33252E-02 2.75085E-04-1.05466E-13
 -1      3420 3.10465E-03 3.48247E-04-7.37167E-15
 -1      3421 2.96092E-03 3.47135E-04-6.73200E-15
 -1      3422 1.12934E-02 7.77387E-04-8.23113E-14
 -1      3423 2.15042E-03-2.93450E-04-3.87986E-15
 -1      3424 2.29478E-03-2.98349E-04-4.37401E-15
 -1      3425 2.43914E-03-3.02291E-04-4.89810E-15
 -1      3426 2.58346E-03-3.05370E-04-5.45179E-15
 -1      3427 2.36225E-03-2.63643E-04-4.65529E-15
 -1      3428 2.72773E-03-3.07751E-04-6.03426E-15
 -1      3429 2.87193E-03-3.09506E-04-6.64583E-15
 -1      3430 2.65152E-03-2.69307E-04-5.76249E-15
 -1      3431 3.01606E-03-3.10764E-04-7.28686E-15
 -1      3432 3.16011E-03-3.11578E-04-7.95719E-15
 -1      3433 2.94059E-03-2.72554E-04-6.98627E-15
 -1      3434 3.30407E-03-3.12046E-04-8.65569E-15
 -1      3435 3.44794E-03-3.12205E-04-9.38224E-15
 -1      3436 3.22930E-03-2.74075E-04-8.32543E-15
 -1      3437 3.59173E-03-3.12126E-04-1.01377E-14
 -1      3438 3.73543E-03-3.11833E-04-1.09216E-14
 -1      3439 3.51762E-03-2.74391E-04-9.77898E-15
 -1      3440 3.87905E-03-3.11374E-04-1.17339E-14
 -1      3441 4.02259E-03-3.10765E-04-1.25735E-14
 -1      3442 3.80553E-03-2.73873E-04-1.13448E-14
 -1      3443 4.16606E-03-3.10037E-04-1.34413E-14
 -1      3444 4.30945E-03-3.09195E-04-1.43371E-14
 -1      3445 4.09302E-03-2.72771E-04-1.30239E-14
 -1      3446 4.45277E-03-3.08259E-04-1.52591E-14
 -1      3447 4.59602E-03-3.07227E-04-1.62085E-14
 -1      3448 4.38013E-03-2.71239E-04-1.48126E-14
 -1      3449 4.73920E-03-3.06109E-04-1.71866E-14
 -1      3450 4.88230E-03-3.04898E-04-1.81917E-14
 -1      3451 4.66685E-03-2.69357E-04-1.67121E-14
 -1      3452 5.02534E-03-3.03596E-04-1.92235E-14
 -1      3453 5.16831E-03-3.02192E-04-2.02833E-14
 -1      3454 4.95320E-03-2.67146E-04-1.87200E-14
 -1      3455 5.31119E-03-3.00682E-04-2.13706E-14
 -1      3456 5.45400E-03-2.99054E-04-2.24857E-14
 -1      3457 5.23916E-03-2.64582E-04-2.08386E-14
 -1      3458 5.59671E-03-2.97299E-04-2.36291E-14
 -1      3459 5.73933E-03-2.95405E-04-2.47990E-14
 -1      3460 5.52468E-03-2.61611E-04-2.30691E-14
 -1      3461 5.88183E-03-2.93362E-04-2.59958E-14
 -1      3462 6.02422E-03-2.91155E-04-2.72195E-14
 -1      3463 5.80968E-03-2.58159E-04-2.54091E-14
 -1      3464 6.16647E-03-2.88779E-04-2.84701E-14
 -1      3465 6.30856E-03-2.86217E-04-2.97471E-14
 -1      3466 6.09406E-03-2.54147E-04-2.78564E-14
 -1      3467 6.45047E-03-2.83473E-04-3.10489E-14
 -1      3468 6.59218E-03-2.80530E-04-3.23760E-14
 -1      3469 6.37764E-03-2.49504E-04-3.04087E-14
 -1      3470 6.73366E-03-2.77404E-04-3.37284E-14
 -1      3471 6.87489E-03-2.74081E-04-3.51054E-14
 -1      3472 6.66022E-03-2.44191E-04-3.30623E-14
 -1      3473 7.01580E-03-2.70595E-04-3.65085E-14
 -1      3474 7.15640E-03-2.66937E-04-3.79364E-14
 -1      3475 6.94150E-03-2.38219E-04-3.58152E-14
 -1      3476 7.29659E-03-2.63168E-04-3.93884E-14
 -1      3477 7.43639E-03-2.59286E-04-4.08643E-14
 -1      3478 7.22114E-03-2.31682E-04-3.86679E-14
 -1      3479 7.57568E-03-2.55389E-04-4.23638E-14
 -1      3480 7.71448E-03-2.51484E-04-4.38887E-14
 -1      3481 7.49871E-03-2.24794E-04-4.16188E-14
 -1      3482 7.85267E-03-2.47714E-04-4.54358E-14
 -1      3483 7.99027E-03-2.44098E-04-4.70047E-14
 -1      3484 7.77370E-03-2.17921E-04-4.46640E-14
 -1      3485 8.12713E-03-2.40834E-04-4.85971E-14
 -1      3486 8.26334E-03-2.37957E-04-5.02123E-14
 -1      3487 8.04554E-03-2.11618E-04-4.78003E-14
 -1      3488 8.39874E-03-2.35719E-04-5.18469E-14
 -1      3489 8.53347E-03-2.34183E-04-5.35025E-14
 -1      3490 8.31366E-03-2.06647E-04-5.10254E-14
 -1      3491 8.66737E-03-2.33641E-04-5.51799E-14
 -1      3492 8.80075E-03-2.34211E-04-5.68762E-14
 -1      3493 8.57755E-03-2.03972E-04-5.43348E-14
 -1      3494 8.93345E-03-2.36200E-04-5.85894E-14
 -1      3495 9.06608E-03-2.39851E-04-6.03225E-14
 -1      3496 8.83697E-03-2.04717E-04-5.77227E-14
 -1      3497 9.19849E-03-2.45430E-04-6.20733E-14
 -1      3498 9.33189E-03-2.53563E-04-6.38417E-14
 -1      3499 9.09226E-03-2.10162E-04-6.11841E-14
 -1      3500 9.46614E-03-2.64467E-04-6.56291E-14
 -1      3501 9.60338E-03-2.79296E-04-6.74330E-14
 -1      3502 9.34515E-03-2.22056E-04-6.47186E-14
 -1      3503 9.78801E-03-3.01935E-04-6.99025E-14
 -1      3504 1.38646E-02-5.41180E-04-1.06857E-13
 -1      3505 4.53859E-03 3.45044E-04-1.53565E-14
 -1      3506 4.39545E-03 3.46035E-04-1.44277E-14
 -1      3507 4.25225E-03 3.46923E-04-1.35286E-14
 -1      3508 4.10901E-03 3.47707E-04-1.26578E-14
 -1      3509 4.32271E-03 3.09019E-04-1.40448E-14
 -1      3510 3.96571E-03 3.48365E-04-1.18167E-14
 -1      3511 3.82236E-03 3.48887E-04-1.10033E-14
 -1      3512 4.03584E-03 3.10460E-04-1.23012E-14
 -1      3513 4.82474E-03 3.42780E-04-1.72996E-14
 -1      3514 4.68169E-03 3.43960E-04-1.63137E-14
 -1      3515 4.60928E-03 3.07188E-04-1.59034E-14
 -1      3516 5.11071E-03 3.40124E-04-1.93554E-14
 -1      3517 4.96775E-03 3.41504E-04-1.83135E-14
 -1      3518 4.89555E-03 3.05000E-04-1.78761E-14
 -1      3519 5.39649E-03 3.37027E-04-2.15231E-14
 -1      3520 5.25362E-03 3.38635E-04-2.04249E-14
 -1      3521 5.18154E-03 3.02438E-04-1.99606E-14
 -1      3522 5.68205E-03 3.33410E-04-2.38004E-14
 -1      3523 5.53930E-03 3.35290E-04-2.26479E-14
 -1      3524 5.46721E-03 2.99448E-04-2.21555E-14
 -1      3525 5.96738E-03 3.29181E-04-2.61875E-14
 -1      3526 5.82475E-03 3.31379E-04-2.49810E-14
 -1      3527 5.75253E-03 2.95949E-04-2.44613E-14
 -1      3528 6.25242E-03 3.24245E-04-2.86805E-14
 -1      3529 6.10993E-03 3.26808E-04-2.74201E-14
 -1      3530 6.03744E-03 2.91849E-04-2.68758E-14
 -1      3531 6.53712E-03 3.18530E-04-3.12772E-14
 -1      3532 6.39481E-03 3.21490E-04-2.99667E-14
 -1      3533 6.32186E-03 2.87061E-04-2.93957E-14
 -1      3534 6.82144E-03 3.12007E-04-3.39740E-14
 -1      3535 6.67932E-03 3.15371E-04-3.26126E-14
 -1      3536 6.60569E-03 2.81513E-04-3.20171E-14
 -1      3537 7.10533E-03 3.04723E-04-3.67717E-14
 -1      3538 6.96343E-03 3.08457E-04-3.53609E-14
 -1      3539 6.88884E-03 2.75179E-04-3.47395E-14
 -1      3540 7.38879E-03 2.96839E-04-3.96668E-14
 -1      3541 7.24710E-03 3.00845E-04-3.82069E-14
 -1      3542 7.17121E-03 2.68100E-04-3.75612E-14
 -1      3543 7.67190E-03 2.88683E-04-4.26564E-14
 -1      3544 7.53037E-03 2.92773E-04-4.11499E-14
 -1      3545 7.45275E-03 2.60422E-04-4.04809E-14
 -1      3546 7.95490E-03 2.80802E-04-4.57363E-14
 -1      3547 7.81338E-03 2.84668E-04-4.41858E-14
 -1      3548 7.73350E-03 2.52436E-04-4.34944E-14
 -1      3549 8.23827E-03 2.74043E-04-4.89006E-14
 -1      3550 8.09648E-03 2.77217E-04-4.73076E-14
 -1      3551 8.01366E-03 2.44626E-04-4.65954E-14
 -1      3552 8.52288E-03 2.69641E-04-5.21452E-14
 -1      3553 8.38032E-03 2.71445E-04-5.05140E-14
 -1      3554 8.29372E-03 2.37735E-04-4.97786E-14
 -1      3555 8.81026E-03 2.69358E-04-5.54674E-14
 -1      3556 8.66609E-03 2.68825E-04-5.37971E-14
 -1      3557 8.57463E-03 2.32852E-04-5.30445E-14
 -1      3558 9.10278E-03 2.75686E-04-5.88648E-14
 -1      3559 8.95568E-03 2.71445E-04-5.71559E-14
 -1      3560 8.85809E-03 2.31557E-04-5.63865E-14
 -1      3561 9.40393E-03 2.92209E-04-6.23343E-14
 -1      3562 9.25202E-03 2.82284E-04-6.05908E-14
 -1      3563 9.14685E-03 2.36203E-04-5.98032E-14
 -1      3564 9.71835E-03 3.24094E-04-6.58779E-14
 -1      3565 9.55923E-03 3.05631E-04-6.40975E-14
 -1      3566 9.44509E-03 2.50453E-04-6.32914E-14
 -1      3567 1.00512E-02 3.78631E-04-6.94938E-14
 -1      3568 9.88236E-03 3.47723E-04-6.76761E-14
 -1      3569 9.75861E-03 2.80146E-04-6.68525E-14
 -1      3570 1.07019E-02 5.33019E-04-7.64026E-14
 -1      3571 1.05142E-02 4.69008E-04-7.45219E-14
 -1      3572 1.11358E-02 7.18532E-04-8.06339E-14
 -1      3573 1.09503E-02 6.47431E-04-7.87177E-14
 -1      3574 1.43248E-02-2.21544E-04-1.10444E-13
 -1      3575 1.18452E-02 8.69337E-04-8.86442E-14
 -1      3576 1.21318E-03-2.33037E-04-1.37909E-15
 -1      3577 1.39667E-03-2.47936E-04-1.77445E-15
 -1      3578 1.45108E-02-3.04584E-04-1.10758E-13
 -1      3579 1.45115E-02-3.22397E-04-1.10865E-13
 -1      3580 9.42207E-03-8.96016E-05-6.93995E-14
 -1      3581 9.43066E-03-7.23788E-05-6.89575E-14
 -1      3582 1.41721E-02-1.66579E-04-1.09693E-13
 -1      3583 1.40630E-02-1.11256E-04-1.09609E-13
 -1      3584 1.95317E-03 3.19080E-04-3.06980E-15
 -1      3585 1.80918E-03 3.10494E-04-2.66341E-15
 -1      3586 1.43476E-02-4.01002E-04-1.10669E-13
 -1      3587 1.44202E-02-3.64506E-04-1.10607E-13
 -1      3588 3.39193E-03 3.49318E-04-8.73707E-15
 -1      3589 3.24833E-03 3.48960E-04-8.04006E-15
 -1      3590 3.17329E-03 3.10977E-04-7.76110E-15
 -1      3591 3.67894E-03 3.49239E-04-1.02182E-14
 -1      3592 3.53547E-03 3.49401E-04-9.46300E-15
 -1      3593 3.46115E-03 3.11682E-04-9.15920E-15
 -1      3594 3.74867E-03 3.11410E-04-1.06724E-14
 -1      3595 1.02407E-03-2.14589E-04-1.02094E-15
 -1      3596 2.52928E-03 3.40412E-04-4.98828E-15
 -1      3597 2.38529E-03 3.36701E-04-4.46507E-15
 -1      3598 2.24126E-03 3.32001E-04-3.97061E-15
 -1      3599 2.09720E-03 3.26205E-04-3.50551E-15
 -1      3600 2.01912E-03 2.86970E-04-3.32636E-15
 -1      3601 1.44745E-02-3.44508E-04-1.10780E-13
 -1      3602 1.01530E-03-3.89405E-05-1.08591E-15
 -1      3603 1.01638E-03-6.57874E-05-1.08480E-15
 -1      3604 1.13790E-03-8.59993E-05-1.31302E-15
 -1      3605 1.57402E-03-2.60764E-04-2.19985E-15
 -1      3606 1.71784E-03-2.71235E-04-2.57509E-15
 -1      3607 1.86188E-03-2.80068E-04-2.98021E-15
 -1      3608 2.00611E-03-2.87396E-04-3.41545E-15
 -1      3609 2.07302E-03-2.54678E-04-3.66539E-15
 -1      3610 1.00684E-02 2.13264E-04-7.16730E-14
 -1      3611 1.02886E-02 3.24547E-04-7.31006E-14
 -1      3612 9.43920E-03-1.18769E-04-7.04042E-14
 -1      3613 9.42445E-03-1.05817E-04-6.99151E-14
 -1      3614 9.37386E-03-9.61749E-05-6.86283E-14
 -1      3615 9.42243E-03-1.24780E-04-6.96502E-14
 -1      3616 1.35816E-02 8.12411E-05-1.05950E-13
 -1      3617 1.38274E-02-2.89099E-05-1.07635E-13
 -1      3618 2.81710E-03 3.45514E-04-6.12204E-15
 -1      3619 2.67322E-03 3.43322E-04-5.54075E-15
 -1      3620 2.59656E-03 3.04730E-04-5.31266E-15
 -1      3621 2.88508E-03 3.08862E-04-6.47917E-15
 -1      3622 1.40161E-02-5.06818E-04-1.08431E-13
 -1      3623 1.41116E-02-8.61719E-06-1.14215E-13
 -1      3624 1.40451E-02 3.40519E-05-1.14229E-13
 -1      3625 1.39306E-02 7.16573E-05-1.12839E-13
 -1      3626 1.40203E-02-1.94807E-06-1.12401E-13
 -1      3627 9.51880E-03-2.69225E-05-6.89563E-14
 -1      3628 9.62513E-03-6.12091E-06-6.98967E-14
 -1      3629 9.64245E-03 3.99237E-05-6.90440E-14
 -1      3630 9.63949E-03-2.44358E-04-6.89644E-14
 -1      3631 1.03269E-02 4.17026E-04-7.26244E-14
 -1      3632 1.39987E-02-5.67170E-05-1.10161E-13
 -1      3633 1.27929E-03 2.42944E-04-1.44126E-15
 -1      3634 1.27316E-03 2.08738E-04-1.46924E-15
 -1      3635 1.25749E-03 4.78640E-05-1.55357E-15
 -1      3636 1.25676E-03 1.67902E-05-1.56131E-15
 -1      3637 1.01492E-02 3.73456E-04-7.07777E-14
 -1      3638 1.14340E-03-2.15264E-04-1.25175E-15
 -1      3639 1.41432E-02-4.97497E-04-1.10302E-13
 -1      3640 1.13542E-03-2.76998E-05-1.31534E-15
 -1      3641 1.35513E-02 1.28342E-04-1.06533E-13
 -1      3642 1.25896E-03 7.90880E-05-1.54336E-15
 -1      3643 1.38067E-03 6.71827E-05-1.82016E-15
 -1      3644 1.26116E-03 1.10649E-04-1.52985E-15
 -1      3645 1.00147E-02 2.93439E-04-6.99343E-14
 -1      3646 9.36004E-03-5.30732E-05-6.72817E-14
 -1      3647 9.43418E-03-4.24781E-05-6.81185E-14
 -1      3648 9.43854E-03-7.09968E-06-6.72783E-14
 -1      3649 1.21644E-03-1.93045E-04-1.42064E-15
 -1      3650 1.39193E-02-5.86328E-06-1.10179E-13
 -1      3651 1.46267E-03-2.22460E-04-1.95708E-15
 -1      3652 9.53653E-03-1.88314E-04-6.90753E-14
 -1      3653 9.53452E-03-1.68151E-04-7.00057E-14
 -1      3654 9.46741E-03-1.54197E-04-6.92324E-14
 -1      3655 1.36454E-02 1.63807E-04-1.09311E-13
 -1      3656 1.34735E-02 2.20796E-04-1.07185E-13
 -1      3657 1.38141E-02 1.11290E-04-1.11455E-13
 -1      3658 1.21195E-03-1.60761E-04-1.43272E-15
 -1      3659 1.28105E-03-1.75934E-04-1.57140E-15
 -1      3660 1.20842E-03-1.29188E-04-1.44176E-15
 -1      3661 1.42930E-02-4.30172E-04-1.10762E-13
 -1      3662 1.78428E-03-2.41351E-04-2.79392E-15
 -1      3663 9.94034E-03 1.64201E-04-7.07232E-14
 -1      3664 9.98283E-03 2.33960E-04-7.02706E-14
 -1      3665 9.89606E-03 2.46550E-04-6.89951E-14
 -1      3666 9.81726E-03 1.30954E-04-6.96568E-14
 -1      3667 1.73079E-03 2.71058E-04-2.50761E-15
 -1      3668 1.66533E-03 3.00182E-04-2.28570E-15
 -1      3669 1.34905E-02 1.80556E-04-1.06606E-13
 -1      3670 1.53989E-03 2.93440E-04-1.97393E-15
 -1      3671 2.30784E-03 2.97776E-04-4.26165E-15
 -1      3672 1.38087E-02 8.13291E-05-1.10469E-13
 -1      3673 1.37907E-03 1.42777E-06-1.83699E-15
 -1      3674 1.25671E-03-1.41522E-05-1.56595E-15
 -1      3675 1.25736E-03-4.51453E-05-1.56761E-15
 -1      3676 1.49320E-03 2.49719E-04-1.92304E-15
 -1      3677 1.44605E-03 2.81029E-04-1.76524E-15
 -1      3678 2.28570E-03-2.25239E-04-4.41467E-15
 -1      3679 2.43059E-03-2.28413E-04-4.93937E-15
 -1      3680 2.57549E-03-2.30929E-04-5.49333E-15
 -1      3681 2.72036E-03-2.32851E-04-6.07586E-15
 -1      3682 2.49971E-03-1.92704E-04-5.22633E-15
 -1      3683 2.86517E-03-2.34296E-04-6.68745E-15
 -1      3684 3.00990E-03-2.35312E-04-7.32875E-15
 -1      3685 2.78989E-03-1.96054E-04-6.39158E-15
 -1      3686 3.15453E-03-2.35991E-04-7.99811E-15
 -1      3687 3.29905E-03-2.36366E-04-8.69583E-15
 -1      3688 3.07980E-03-1.97836E-04-7.67245E-15
 -1      3689 3.44346E-03-2.36509E-04-9.42180E-15
 -1      3690 3.58775E-03-2.36439E-04-1.01760E-14
 -1      3691 3.36929E-03-1.98505E-04-9.06705E-15
 -1      3692 3.73192E-03-2.36209E-04-1.09590E-14
 -1      3693 3.87596E-03-2.35831E-04-1.17691E-14
 -1      3694 3.65827E-03-1.98399E-04-1.05747E-14
 -1      3695 4.01989E-03-2.35341E-04-1.26081E-14
 -1      3696 4.16370E-03-2.34743E-04-1.34747E-14
 -1      3697 3.94671E-03-1.97753E-04-1.21944E-14
 -1      3698 4.30740E-03-2.34061E-04-1.43683E-14
 -1      3699 4.45097E-03-2.33293E-04-1.52896E-14
 -1      3700 4.23461E-03-1.96722E-04-1.39258E-14
 -1      3701 4.59444E-03-2.32455E-04-1.62379E-14
 -1      3702 4.73779E-03-2.31541E-04-1.72152E-14
 -1      3703 4.52197E-03-1.95396E-04-1.57678E-14
 -1      3704 4.88102E-03-2.30556E-04-1.82195E-14
 -1      3705 5.02413E-03-2.29493E-04-1.92505E-14
 -1      3706 4.80881E-03-1.93813E-04-1.77200E-14
 -1      3707 5.16712E-03-2.28352E-04-2.03089E-14
 -1      3708 5.30997E-03-2.27123E-04-2.13956E-14
 -1      3709 5.09508E-03-1.91973E-04-1.97817E-14
 -1      3710 5.45269E-03-2.25803E-04-2.25108E-14
 -1      3711 5.59525E-03-2.24379E-04-2.36540E-14
 -1      3712 5.38076E-03-1.89847E-04-2.19547E-14
 -1      3713 5.73765E-03-2.22848E-04-2.48238E-14
 -1      3714 5.87987E-03-2.21196E-04-2.60196E-14
 -1      3715 5.66575E-03-1.87391E-04-2.42390E-14
 -1      3716 6.02187E-03-2.19422E-04-2.72446E-14
 -1      3717 6.16366E-03-2.17508E-04-2.84945E-14
 -1      3718 5.94991E-03-1.84549E-04-2.66327E-14
 -1      3719 6.30518E-03-2.15463E-04-2.97689E-14
 -1      3720 6.44642E-03-2.13265E-04-3.10704E-14
 -1      3721 6.23306E-03-1.81274E-04-2.91311E-14
 -1      3722 6.58733E-03-2.10934E-04-3.23972E-14
 -1      3723 6.72788E-03-2.08448E-04-3.37483E-14
 -1      3724 6.51495E-03-1.77535E-04-3.17323E-14
 -1      3725 6.86800E-03-2.05842E-04-3.51240E-14
 -1      3726 7.00768E-03-2.03095E-04-3.65254E-14
 -1      3727 6.79524E-03-1.73336E-04-3.44342E-14
 -1      3728 7.14681E-03-2.00263E-04-3.79510E-14
 -1      3729 7.28539E-03-1.97326E-04-3.94011E-14
 -1      3730 7.07352E-03-1.68741E-04-3.72358E-14
 -1      3731 7.42328E-03-1.94370E-04-4.08759E-14
 -1      3732 7.56047E-03-1.91375E-04-4.23741E-14
 -1      3733 7.34927E-03-1.63896E-04-4.01341E-14
 -1      3734 7.69682E-03-1.88464E-04-4.38943E-14
 -1      3735 7.83230E-03-1.85617E-04-4.54388E-14
 -1      3736 7.62186E-03-1.59051E-04-4.31283E-14
 -1      3737 7.96675E-03-1.82999E-04-4.70062E-14
 -1      3738 8.10015E-03-1.80585E-04-4.85964E-14
 -1      3739 7.89055E-03-1.54584E-04-4.62145E-14
 -1      3740 8.23232E-03-1.78588E-04-5.02076E-14
 -1      3741 8.36325E-03-1.76967E-04-5.18391E-14
 -1      3742 8.15446E-03-1.51002E-04-4.93913E-14
 -1      3743 8.49270E-03-1.75985E-04-5.34925E-14
 -1      3744 8.62076E-03-1.75567E-04-5.51660E-14
 -1      3745 8.41254E-03-1.48915E-04-5.26530E-14
 -1      3746 8.74708E-03-1.76021E-04-5.68578E-14
 -1      3747 8.87191E-03-1.77216E-04-5.85683E-14
 -1      3748 8.66359E-03-1.48980E-04-5.59954E-14
 -1      3749 8.99476E-03-1.79514E-04-6.02979E-14
 -1      3750 9.11620E-03-1.82726E-04-6.20444E-14
 -1      3751 8.90614E-03-1.51735E-04-5.94140E-14
 -1      3752 9.23544E-03-1.87243E-04-6.38084E-14
 -1      3753 9.35381E-03-1.93079E-04-6.55924E-14
 -1      3754 9.13845E-03-1.57517E-04-6.29043E-14
 -1      3755 4.39335E-03 2.71097E-04-1.45635E-14
 -1      3756 4.24985E-03 2.71844E-04-1.36620E-14
 -1      3757 4.96640E-03 2.67289E-04-1.84549E-14
 -1      3758 4.82328E-03 2.68365E-04-1.74393E-14
 -1      3759 1.26815E-03 1.75346E-04-1.49327E-15
 -1      3760 1.26421E-03 1.42689E-04-1.51321E-15
 -1      3761 1.38543E-03 1.33946E-04-1.78992E-15
 -1      3762 4.68006E-03 2.69356E-04-1.64532E-14
 -1      3763 4.53675E-03 2.70269E-04-1.54946E-14
 -1      3764 4.46415E-03 2.33197E-04-1.50864E-14
 -1      3765 4.75095E-03 2.31586E-04-1.70043E-14
 -1      3766 4.10624E-03 2.72493E-04-1.27896E-14
 -1      3767 3.96255E-03 2.73044E-04-1.19454E-14
 -1      3768 4.17689E-03 2.34508E-04-1.32800E-14
 -1      3769 5.25233E-03 2.64868E-04-2.05674E-14
 -1      3770 5.10942E-03 2.66127E-04-1.94976E-14
 -1      3771 5.03727E-03 2.29681E-04-1.90349E-14
 -1      3772 5.53783E-03 2.62038E-04-2.27895E-14
 -1      3773 5.39514E-03 2.63510E-04-2.16644E-14
 -1      3774 5.32309E-03 2.27449E-04-2.11749E-14
 -1      3775 5.82283E-03 2.58717E-04-2.51244E-14
 -1      3776 5.68040E-03 2.60446E-04-2.39435E-14
 -1      3777 5.60835E-03 2.24831E-04-2.34264E-14
 -1      3778 6.10724E-03 2.54819E-04-2.75655E-14
 -1      3779 5.96511E-03 2.56848E-04-2.63314E-14
 -1      3780 5.89296E-03 2.21752E-04-2.57875E-14
 -1      3781 6.39095E-03 2.50258E-04-3.01112E-14
 -1      3782 6.24919E-03 2.52629E-04-2.88253E-14
 -1      3783 6.17681E-03 2.18127E-04-2.82562E-14
 -1      3784 6.67381E-03 2.44967E-04-3.27577E-14
 -1      3785 6.53249E-03 2.47710E-04-3.14224E-14
 -1      3786 6.45972E-03 2.13876E-04-3.08276E-14
 -1      3787 6.95568E-03 2.38915E-04-3.55059E-14
 -1      3788 6.81487E-03 2.42041E-04-3.41193E-14
 -1      3789 6.74153E-03 2.08931E-04-3.35013E-14
 -1      3790 7.23640E-03 2.32135E-04-3.83537E-14
 -1      3791 7.09618E-03 2.35618E-04-3.69175E-14
 -1      3792 7.02201E-03 2.03256E-04-3.62748E-14
 -1      3793 7.51586E-03 2.24743E-04-4.12959E-14
 -1      3794 7.37628E-03 2.28511E-04-3.98118E-14
 -1      3795 7.30096E-03 1.96864E-04-3.91455E-14
 -1      3796 7.79405E-03 2.16980E-04-4.43316E-14
 -1      3797 7.65510E-03 2.20895E-04-4.28027E-14
 -1      3798 7.57820E-03 1.89834E-04-4.21123E-14
 -1      3799 8.07112E-03 2.09243E-04-4.74539E-14
 -1      3800 7.93269E-03 2.13082E-04-4.58832E-14
 -1      3801 7.85365E-03 1.82337E-04-4.51708E-14
 -1      3802 8.34754E-03 2.02143E-04-5.06585E-14
 -1      3803 8.20934E-03 2.05567E-04-4.90464E-14
 -1      3804 8.12739E-03 1.74662E-04-4.83142E-14
 -1      3805 8.62427E-03 1.96581E-04-5.39445E-14
 -1      3806 8.48574E-03 1.99089E-04-5.22914E-14
 -1      3807 8.39981E-03 1.67251E-04-5.15392E-14
 -1      3808 8.90310E-03 1.93916E-04-5.73066E-14
 -1      3809 8.76323E-03 1.94742E-04-5.56157E-14
 -1      3810 8.67182E-03 1.60774E-04-5.48462E-14
 -1      3811 9.18703E-03 1.96298E-04-6.07410E-14
 -1      3812 9.04412E-03 1.94204E-04-5.90137E-14
 -1      3813 8.94517E-03 1.56299E-04-5.82259E-14
 -1      3814 9.48084E-03 2.07466E-04-6.42487E-14
 -1      3815 9.33225E-03 2.00282E-04-6.24859E-14
 -1      3816 9.22303E-03 1.55715E-04-6.16802E-14
 -1      3817 9.76286E-03 2.30521E-04-6.75061E-14
 -1      3818 9.60584E-03 2.15421E-04-6.57124E-14
 -1      3819 9.48431E-03 1.61424E-04-6.48891E-14
 -1      3820 9.73198E-03 1.76042E-04-6.78371E-14
 -1      3821 1.25872E-03-7.62707E-05-1.56641E-15
 -1      3822 1.26083E-03-1.07708E-04-1.56244E-15
 -1      3823 1.38047E-03-6.42234E-05-1.84127E-15
 -1      3824 1.36982E-02 8.24159E-05-1.08257E-13
 -1      3825 1.38560E-02 4.03007E-05-1.10251E-13
 -1      3826 1.32613E-03 2.85647E-04-1.48353E-15
 -1      3827 1.45750E-03-1.86822E-04-1.97257E-15
 -1      3828 1.70750E-03-2.03558E-04-2.60985E-15
 -1      3829 1.85170E-03-2.10538E-04-3.01698E-15
 -1      3830 1.99618E-03-2.16419E-04-3.45374E-15
 -1      3831 2.14088E-03-2.21269E-04-3.91953E-15
 -1      3832 2.20958E-03-1.87199E-04-4.17702E-15
 -1      3833 3.24249E-03 2.73471E-04-8.15454E-15
 -1      3834 3.09817E-03 2.72862E-04-7.48299E-15
 -1      3835 2.08608E-03 2.54163E-04-3.58777E-15
 -1      3836 1.94158E-03 2.48217E-04-3.14698E-15
 -1      3837 2.37535E-03 2.63008E-04-4.55668E-15
 -1      3838 2.23069E-03 2.59060E-04-4.05791E-15
 -1      3839 2.15394E-03 2.20684E-04-3.85479E-15
 -1      3840 1.42202E-02-4.61666E-04-1.10531E-13
 -1      3841 1.39383E-03 2.02685E-04-1.74501E-15
 -1      3842 1.79729E-03 2.41039E-04-2.73518E-15
 -1      3843 1.65327E-03 2.32505E-04-2.35189E-15
 -1      3844 1.86471E-03 2.10112E-04-2.96806E-15
 -1      3845 1.57012E-03 2.23056E-04-2.14871E-15
 -1      3846 1.47654E-03 2.12903E-04-1.92905E-15
 -1      3847 1.47162E-03 1.77170E-04-1.95549E-15
 -1      3848 1.63733E-03 1.94784E-04-2.35486E-15
 -1      3849 9.35771E-03 9.77013E-06-6.57785E-14
 -1      3850 9.44659E-03 2.86876E-05-6.66036E-14
 -1      3851 9.35829E-03-1.65664E-04-6.64816E-14
 -1      3852 9.46952E-03-1.99683E-04-6.74089E-14
 -1      3853 9.54969E-03-2.19623E-04-6.81750E-14
 -1      3854 3.88915E-03 2.35466E-04-1.15886E-14
 -1      3855 3.81874E-03 2.73469E-04-1.11289E-14
 -1      3856 3.67484E-03 2.73761E-04-1.03414E-14
 -1      3857 3.02305E-03 2.34660E-04-7.20467E-15
 -1      3858 2.95375E-03 2.71891E-04-6.83992E-15
 -1      3859 2.80924E-03 2.70516E-04-6.22585E-15
 -1      3860 9.29727E-03-6.87171E-05-6.66238E-14
 -1      3861 9.28221E-03-4.19476E-05-6.57950E-14
 -1      3862 1.91998E-03-1.78827E-04-3.24429E-15
 -1      3863 1.50243E-03 1.87208E-05-2.12842E-15
 -1      3864 1.50238E-03-1.57289E-05-2.13441E-15
 -1      3865 1.32943E-03-1.20729E-04-1.70891E-15
 -1      3866 9.67057E-03 8.01146E-05-6.86063E-14
 -1      3867 9.71505E-03 1.33046E-04-6.82832E-14
 -1      3868 9.59327E-03 1.26716E-04-6.68001E-14
 -1      3869 9.55476E-03 4.86674E-05-6.76762E-14
 -1      3870 1.50492E-03 8.79064E-05-2.10654E-15
 -1      3871 1.50327E-03 5.32289E-05-2.11941E-15
 -1      3872 1.62668E-03 3.74915E-05-2.44039E-15
 -1      3873 1.52525E-03-1.59879E-04-2.15775E-15
 -1      3874 9.39356E-03-1.48960E-04-6.78034E-14
 -1      3875 9.40625E-03-1.34832E-04-6.87264E-14
 -1      3876 9.36079E-03-1.19745E-04-6.82206E-14
 -1      3877 2.52002E-03 2.66172E-04-5.08476E-15
 -1      3878 2.44369E-03 2.27745E-04-4.85685E-15
 -1      3879 2.66466E-03 2.68629E-04-5.64114E-15
 -1      3880 9.46402E-03 6.35541E-05-6.61720E-14
 -1      3881 9.32538E-03-1.02205E-04-6.76394E-14
 -1      3882 9.30734E-03-8.67692E-05-6.71309E-14
 -1      3883 9.23433E-03-7.64944E-05-6.56461E-14
 -1      3884 3.53083E-03 2.73877E-04-9.58394E-15
 -1      3885 3.38672E-03 2.73800E-04-8.85511E-15
 -1      3886 3.31222E-03 2.35786E-04-8.55122E-15
 -1      3887 9.29532E-03-1.44695E-04-6.59869E-14
 -1      3888 1.62658E-03-3.42975E-05-2.45348E-15
 -1      3889 1.50313E-03-5.01585E-05-2.13711E-15
 -1      3890 1.50466E-03-8.47612E-05-2.13611E-15
 -1      3891 5.10817E-03 1.92203E-04-1.96159E-14
 -1      3892 4.96512E-03 1.93088E-04-1.85726E-14
 -1      3893 2.71488E-03-1.57911E-04-6.09846E-15
 -1      3894 2.86010E-03-1.58932E-04-6.70927E-15
 -1      3895 3.00525E-03-1.59668E-04-7.35004E-15
 -1      3896 3.15029E-03-1.60142E-04-8.01865E-15
 -1      3897 2.93091E-03-1.21538E-04-7.02978E-15
 -1      3898 3.29522E-03-1.60418E-04-8.71463E-15
 -1      3899 3.44001E-03-1.60509E-04-9.43936E-15
 -1      3900 3.22129E-03-1.22284E-04-8.36531E-15
 -1      3901 3.58466E-03-1.60464E-04-1.01928E-14
 -1      3902 3.72917E-03-1.60288E-04-1.09741E-14
 -1      3903 3.51115E-03-1.22428E-04-9.81345E-15
 -1      3904 3.87354E-03-1.60019E-04-1.17832E-14
 -1      3905 4.01775E-03-1.59657E-04-1.26205E-14
 -1      3906 3.80041E-03-1.22154E-04-1.13745E-14
 -1      3907 4.16181E-03-1.59228E-04-1.34860E-14
 -1      3908 4.30573E-03-1.58729E-04-1.43791E-14
 -1      3909 4.08905E-03-1.21585E-04-1.30477E-14
 -1      3910 4.44950E-03-1.58178E-04-1.52991E-14
 -1      3911 4.59312E-03-1.57568E-04-1.62469E-14
 -1      3912 4.37704E-03-1.20801E-04-1.48328E-14
 -1      3913 4.73659E-03-1.56910E-04-1.72227E-14
 -1      3914 4.87991E-03-1.56197E-04-1.82264E-14
 -1      3915 4.66440E-03-1.19842E-04-1.67283E-14
 -1      3916 5.02307E-03-1.55433E-04-1.92572E-14
 -1      3917 5.16607E-03-1.54610E-04-2.03146E-14
 -1      3918 4.95110E-03-1.18721E-04-1.87334E-14
 -1      3919 5.30889E-03-1.53730E-04-2.14005E-14
 -1      3920 5.45153E-03-1.52782E-04-2.25148E-14
 -1      3921 5.23709E-03-1.17432E-04-2.08486E-14
 -1      3922 5.59396E-03-1.51769E-04-2.36560E-14
 -1      3923 5.73618E-03-1.50676E-04-2.48248E-14
 -1      3924 5.52229E-03-1.15953E-04-2.30751E-14
 -1      3925 5.87815E-03-1.49509E-04-2.60214E-14
 -1      3926 6.01986E-03-1.48251E-04-2.72451E-14
 -1      3927 5.80658E-03-1.14259E-04-2.54120E-14
 -1      3928 6.16127E-03-1.46913E-04-2.84943E-14
 -1      3929 6.30235E-03-1.45477E-04-2.97683E-14
 -1      3930 6.08976E-03-1.12324E-04-2.78574E-14
 -1      3931 6.44306E-03-1.43961E-04-3.10688E-14
 -1      3932 6.58335E-03-1.42344E-04-3.23946E-14
 -1      3933 6.37158E-03-1.10138E-04-3.04075E-14
 -1      3934 6.72317E-03-1.40659E-04-3.37453E-14
 -1      3935 6.86248E-03-1.38882E-04-3.51212E-14
 -1      3936 6.65170E-03-1.07712E-04-3.30576E-14
 -1      3937 7.00119E-03-1.37064E-04-3.65210E-14
 -1      3938 7.13926E-03-1.35178E-04-3.79456E-14
 -1      3939 6.92970E-03-1.05099E-04-3.58072E-14
 -1      3940 7.27658E-03-1.33300E-04-3.93942E-14
 -1      3941 7.41310E-03-1.31399E-04-4.08673E-14
 -1      3942 7.20504E-03-1.02410E-04-3.86555E-14
 -1      3943 7.54870E-03-1.29582E-04-4.23647E-14
 -1      3944 7.68330E-03-1.27811E-04-4.38826E-14
 -1      3945 7.47708E-03-9.98287E-05-4.16005E-14
 -1      3946 7.81676E-03-1.26231E-04-4.54243E-14
 -1      3947 7.94900E-03-1.24791E-04-4.69904E-14
 -1      3948 7.74505E-03-9.76338E-05-4.46380E-14
 -1      3949 8.07983E-03-1.23682E-04-4.85779E-14
 -1      3950 8.20916E-03-1.22823E-04-5.01865E-14
 -1      3951 8.00799E-03-9.62030E-05-4.77654E-14
 -1      3952 8.33675E-03-1.22461E-04-5.18156E-14
 -1      3953 8.46249E-03-1.22456E-04-5.34653E-14
 -1      3954 8.26472E-03-9.60023E-05-5.09803E-14
 -1      3955 8.58606E-03-1.23128E-04-5.51350E-14
 -1      3956 8.70737E-03-1.24239E-04-5.68232E-14
 -1      3957 8.51370E-03-9.75383E-05-5.42767E-14
 -1      3958 8.82589E-03-1.26178E-04-5.85324E-14
 -1      3959 8.94157E-03-1.28501E-04-6.02581E-14
 -1      3960 8.75292E-03-1.01295E-04-5.76523E-14
 -1      3961 9.05342E-03-1.31908E-04-6.20007E-14
 -1      3962 9.16175E-03-1.35415E-04-6.37626E-14
 -1      3963 8.97913E-03-1.07732E-04-6.11001E-14
 -1      3964 4.24776E-03 1.96523E-04-1.37742E-14
 -1      3965 4.10388E-03 1.97013E-04-1.28993E-14
 -1      3966 1.48921E-03 1.50082E-04-2.02303E-15
 -1      3967 1.48603E-03 1.15054E-04-2.04262E-15
 -1      3968 1.60870E-03 1.01919E-04-2.36116E-15
 -1      3969 1.57187E-03 1.58163E-04-2.22232E-15
 -1      3970 5.67879E-03 1.87861E-04-2.40645E-14
 -1      3971 5.53640E-03 1.89085E-04-2.29108E-14
 -1      3972 5.96296E-03 1.85090E-04-2.64531E-14
 -1      3973 5.82098E-03 1.86536E-04-2.52449E-14
 -1      3974 5.74917E-03 1.51158E-04-2.47032E-14
 -1      3975 6.24619E-03 1.81815E-04-2.89478E-14
 -1      3976 6.10470E-03 1.83524E-04-2.76866E-14
 -1      3977 6.03286E-03 1.48761E-04-2.71189E-14
 -1      3978 6.52826E-03 1.77959E-04-3.15462E-14
 -1      3979 6.38738E-03 1.79969E-04-3.02346E-14
 -1      3980 6.31542E-03 1.45913E-04-2.96418E-14
 -1      3981 6.80894E-03 1.73454E-04-3.42453E-14
 -1      3982 6.66878E-03 1.75797E-04-3.28833E-14
 -1      3983 6.59661E-03 1.42540E-04-3.22666E-14
 -1      3984 7.08798E-03 1.68254E-04-3.70458E-14
 -1      3985 6.94868E-03 1.70951E-04-3.56331E-14
 -1      3986 6.87613E-03 1.38569E-04-3.49924E-14
 -1      3987 7.36508E-03 1.62346E-04-3.99398E-14
 -1      3988 7.22678E-03 1.65397E-04-3.84807E-14
 -1      3989 7.15367E-03 1.33941E-04-3.78159E-14
 -1      3990 7.64001E-03 1.55761E-04-4.29298E-14
 -1      3991 7.50282E-03 1.59145E-04-4.14229E-14
 -1      3992 7.42888E-03 1.28610E-04-4.07356E-14
 -1      3993 7.91257E-03 1.48591E-04-4.60107E-14
 -1      3994 7.77657E-03 1.52253E-04-4.44602E-14
 -1      3995 7.70141E-03 1.22551E-04-4.37499E-14
 -1      3996 8.18275E-03 1.41000E-04-4.91745E-14
 -1      3997 8.04793E-03 1.44846E-04-4.75817E-14
 -1      3998 7.97096E-03 1.15765E-04-4.68504E-14
 -1      3999 8.45080E-03 1.33248E-04-5.24212E-14
 -1      4000 8.31698E-03 1.37131E-04-5.07872E-14
 -1      4001 8.23737E-03 1.08278E-04-5.00358E-14
 -1      4002 8.71745E-03 1.25749E-04-5.57485E-14
 -1      4003 8.58417E-03 1.29429E-04-5.40755E-14
 -1      4004 8.50067E-03 1.00150E-04-5.33054E-14
 -1      4005 8.98427E-03 1.19263E-04-5.91469E-14
 -1      4006 8.85060E-03 1.22274E-04-5.74395E-14
 -1      4007 8.76126E-03 9.14980E-05-5.66520E-14
 -1      4008 9.25415E-03 1.15348E-04-6.26199E-14
 -1      4009 9.11840E-03 1.16726E-04-6.08736E-14
 -1      4010 9.02036E-03 8.27163E-05-6.00695E-14
 -1      4011 1.84455E-03-1.42092E-04-3.03845E-15
 -1      4012 1.98914E-03-1.46238E-04-3.47576E-15
 -1      4013 2.13403E-03-1.49677E-04-3.94248E-15
 -1      4014 2.27912E-03-1.52483E-04-4.43757E-15
 -1      4015 2.05910E-03-1.12792E-04-3.71084E-15
 -1      4016 2.22268E-03 1.86539E-04-4.12657E-15
 -1      4017 2.07775E-03 1.82822E-04-3.65227E-15
 -1      4018 2.42434E-03-1.54749E-04-4.96184E-15
 -1      4019 2.56961E-03-1.56529E-04-5.51542E-15
 -1      4020 2.34943E-03-1.17160E-04-4.70107E-15
 -1      4021 9.19287E-03-3.48246E-05-6.42891E-14
 -1      4022 9.26137E-03-1.60954E-05-6.49362E-14
 -1      4023 9.25660E-03 1.47767E-05-6.42732E-14
 -1      4024 5.39382E-03 1.90208E-04-2.17842E-14
 -1      4025 5.25107E-03 1.91247E-04-2.06867E-14
 -1      4026 5.17910E-03 1.54885E-04-2.01983E-14
 -1      4027 1.75079E-03-1.69355E-05-2.79057E-15
 -1      4028 1.75157E-03-5.41012E-05-2.79395E-15
 -1      4029 4.03087E-03 1.59364E-04-1.25180E-14
 -1      4030 3.95987E-03 1.97416E-04-1.20520E-14
 -1      4031 3.81572E-03 1.97733E-04-1.12330E-14
 -1      4032 1.57792E-03-1.34327E-04-2.30537E-15
 -1      4033 9.21512E-03-1.20609E-04-6.50641E-14
 -1      4034 4.39150E-03 1.95967E-04-1.46775E-14
 -1      4035 4.31884E-03 1.58577E-04-1.42716E-14
 -1      4036 4.53511E-03 1.95340E-04-1.56102E-14
 -1      4037 1.70079E-03-1.20699E-04-2.63857E-15
 -1      4038 3.09297E-03 1.97179E-04-7.57329E-15
 -1      4039 2.94805E-03 1.96428E-04-6.92713E-15
 -1      4040 4.82192E-03 1.93901E-04-1.75573E-14
 -1      4041 4.67858E-03 1.94654E-04-1.65706E-14
 -1      4042 4.60621E-03 1.57561E-04-1.61366E-14
 -1      4043 3.38246E-03 1.97934E-04-8.95139E-15
 -1      4044 3.23778E-03 1.97674E-04-8.24823E-15
 -1      4045 3.16344E-03 1.59504E-04-7.94575E-15
 -1      4046 9.36523E-03 1.00032E-04-6.42733E-14
 -1      4047 9.25600E-03 6.19484E-05-6.34493E-14
 -1      4048 4.89298E-03 1.56334E-04-1.81124E-14
 -1      4049 3.60093E-03 2.35956E-04-1.00125E-14
 -1      4050 2.36774E-03 1.89574E-04-4.62958E-15
 -1      4051 2.29222E-03 1.51766E-04-4.40337E-15
 -1      4052 2.51285E-03 1.91990E-04-5.16140E-15
 -1      4053 5.46453E-03 1.53177E-04-2.23961E-14
 -1      4054 2.73349E-03 2.32165E-04-5.97351E-15
 -1      4055 2.64019E-03-1.19940E-04-5.80747E-15
 -1      4056 9.28868E-03-1.11431E-04-6.67261E-14
 -1      4057 1.75173E-03 5.75073E-05-2.77187E-15
 -1      4058 1.75084E-03 2.02607E-05-2.78308E-15
 -1      4059 1.87565E-03 1.76633E-06-3.14768E-15
 -1      4060 1.93304E-03 1.78295E-04-3.20707E-15
 -1      4061 1.78862E-03 1.72883E-04-2.79044E-15
 -1      4062 9.12878E-03-5.20542E-05-6.35554E-14
 -1      4063 9.09492E-03-2.94927E-05-6.27102E-14
 -1      4064 9.15777E-03 3.24503E-05-6.26226E-14
 -1      4065 9.47521E-03 1.23199E-04-6.53285E-14
 -1      4066 1.65478E-03 1.66059E-04-2.43021E-15
 -1      4067 1.72355E-03 1.36142E-04-2.64296E-15
 -1      4068 9.14053E-03-8.46068E-05-6.39994E-14
 -1      4069 9.04927E-03-8.00930E-05-6.24204E-14
 -1      4070 2.00219E-03 1.45607E-04-3.45134E-15
 -1      4071 1.89477E-03-7.30246E-05-3.20811E-15
 -1      4072 1.77067E-03-8.96944E-05-2.84321E-15
 -1      4073 3.14761E-03-8.41531E-05-8.01815E-15
 -1      4074 3.29278E-03-8.42849E-05-8.71274E-15
 -1      4075 3.43781E-03-8.43281E-05-9.43668E-15
 -1      4076 3.58269E-03-8.42842E-05-1.01883E-14
 -1      4077 3.36469E-03-4.61901E-05-9.06241E-15
 -1      4078 3.72741E-03-8.41816E-05-1.09677E-14
 -1      4079 3.87196E-03-8.40157E-05-1.17758E-14
 -1      4080 3.65456E-03-4.61243E-05-1.05637E-14
 -1      4081 4.01636E-03-8.38085E-05-1.26120E-14
 -1      4082 4.16058E-03-8.35555E-05-1.34764E-14
 -1      4083 3.94378E-03-4.59085E-05-1.21785E-14
 -1      4084 4.30464E-03-8.32733E-05-1.43686E-14
 -1      4085 4.44853E-03-8.29545E-05-1.52883E-14
 -1      4086 4.23232E-03-4.56008E-05-1.39060E-14
 -1      4087 4.59225E-03-8.26112E-05-1.62352E-14
 -1      4088 4.73580E-03-8.22356E-05-1.72098E-14
 -1      4089 4.52016E-03-4.52187E-05-1.57450E-14
 -1      4090 4.87917E-03-8.18364E-05-1.82116E-14
 -1      4091 5.02235E-03-8.14050E-05-1.92409E-14
 -1      4092 4.80730E-03-4.47736E-05-1.76925E-14
 -1      4093 5.16535E-03-8.09482E-05-2.02986E-14
 -1      4094 5.30815E-03-8.04567E-05-2.13834E-14
 -1      4095 5.09368E-03-4.42687E-05-1.97494E-14
 -1      4096 5.45073E-03-7.99367E-05-2.24958E-14
 -1      4097 5.59308E-03-7.93780E-05-2.36360E-14
 -1      4098 5.37926E-03-4.37025E-05-2.19191E-14
 -1      4099 5.73517E-03-7.87879E-05-2.48038E-14
 -1      4100 5.87699E-03-7.81554E-05-2.59992E-14
 -1      4101 5.66390E-03-4.30724E-05-2.41981E-14
 -1      4102 6.01851E-03-7.74906E-05-2.72223E-14
 -1      4103 6.15968E-03-7.67813E-05-2.84713E-14
 -1      4104 5.94745E-03-4.23793E-05-2.65879E-14
 -1      4105 6.30047E-03-7.60437E-05-2.97460E-14
 -1      4106 6.44085E-03-7.52636E-05-3.10456E-14
 -1      4107 6.22967E-03-4.16334E-05-2.90859E-14
 -1      4108 6.58076E-03-7.44664E-05-3.23714E-14
 -1      4109 6.72014E-03-7.36358E-05-3.37212E-14
 -1      4110 6.51024E-03-4.08614E-05-3.16856E-14
 -1      4111 6.85894E-03-7.28105E-05-3.50943E-14
 -1      4112 6.99709E-03-7.19709E-05-3.64940E-14
 -1      4113 6.78878E-03-4.01163E-05-3.43836E-14
 -1      4114 7.13450E-03-7.11748E-05-3.79186E-14
 -1      4115 7.27113E-03-7.03974E-05-3.93669E-14
 -1      4116 7.06479E-03-3.94889E-05-3.71825E-14
 -1      4117 7.40684E-03-6.97216E-05-4.08393E-14
 -1      4118 7.54157E-03-6.91148E-05-4.23345E-14
 -1      4119 7.33770E-03-3.91219E-05-4.00789E-14
 -1      4120 7.67518E-03-6.86928E-05-4.38523E-14
 -1      4121 7.80759E-03-6.84082E-05-4.53923E-14
 -1      4122 7.60680E-03-3.92241E-05-4.30677E-14
 -1      4123 7.93862E-03-6.84206E-05-4.69545E-14
 -1      4124 8.06817E-03-6.86545E-05-4.85404E-14
 -1      4125 7.87122E-03-4.00842E-05-4.61463E-14
 -1      4126 8.19602E-03-6.93285E-05-5.01458E-14
 -1      4127 8.32202E-03-7.03116E-05-5.17729E-14
 -1      4128 8.12995E-03-4.20795E-05-4.93136E-14
 -1      4129 8.44589E-03-7.19095E-05-5.34215E-14
 -1      4130 8.56740E-03-7.38732E-05-5.50876E-14
 -1      4131 8.38162E-03-4.56754E-05-5.25657E-14
 -1      4132 8.68616E-03-7.66590E-05-5.67741E-14
 -1      4133 8.80180E-03-7.98160E-05-5.84800E-14
 -1      4134 8.62434E-03-5.13984E-05-5.58995E-14
 -1      4135 8.94262E-03-7.50903E-05-6.06763E-14
 -1      4136 1.74228E-03 1.06780E-04-2.71708E-15
 -1      4137 6.38459E-03 1.10446E-04-3.03378E-14
 -1      4138 6.24383E-03 1.11675E-04-2.90494E-14
 -1      4139 5.81952E-03 1.14743E-04-2.53445E-14
 -1      4140 5.67750E-03 1.15599E-04-2.41630E-14
 -1      4141 6.66489E-03 1.07642E-04-3.29886E-14
 -1      4142 6.52495E-03 1.09113E-04-3.16505E-14
 -1      4143 6.45375E-03 7.54394E-05-3.10348E-14
 -1      4144 6.94325E-03 1.04300E-04-3.57389E-14
 -1      4145 6.80433E-03 1.06051E-04-3.43500E-14
 -1      4146 6.73317E-03 7.32928E-05-3.37102E-14
 -1      4147 7.21930E-03 1.00342E-04-3.85874E-14
 -1      4148 7.08158E-03 1.02412E-04-3.71514E-14
 -1      4149 7.01039E-03 7.06747E-05-3.64853E-14
 -1      4150 7.49260E-03 9.56859E-05-4.15310E-14
 -1      4151 7.35631E-03 9.81165E-05-4.00482E-14
 -1      4152 7.28498E-03 6.74855E-05-3.93605E-14
 -1      4153 7.76271E-03 9.02472E-05-4.45686E-14
 -1      4154 7.62806E-03 9.30816E-05-4.30381E-14
 -1      4155 7.55640E-03 6.36049E-05-4.23279E-14
 -1      4156 8.02920E-03 8.39313E-05-4.76906E-14
 -1      4157 7.89641E-03 8.72177E-05-4.61197E-14
 -1      4158 7.82412E-03 5.88839E-05-4.53874E-14
 -1      4159 8.29170E-03 7.66284E-05-5.08990E-14
 -1      4160 8.16093E-03 8.04229E-05-4.92837E-14
 -1      4161 8.08753E-03 5.31333E-05-4.85318E-14
 -1      4162 8.54993E-03 6.82129E-05-5.41886E-14
 -1      4163 8.42129E-03 7.25786E-05-5.25334E-14
 -1      4164 8.34601E-03 4.61117E-05-5.17621E-14
 -1      4165 8.80378E-03 5.85219E-05-5.75535E-14
 -1      4166 8.67728E-03 6.35564E-05-5.58621E-14
 -1      4167 8.59891E-03 3.75211E-05-5.50713E-14
 -1      4168 9.04469E-03 4.30272E-05-6.09351E-14
 -1      4169 8.92065E-03 4.88069E-05-5.92091E-14
 -1      4170 8.83799E-03 2.29461E-05-5.84008E-14
 -1      4171 9.05978E-03 1.81021E-06-6.17425E-14
 -1      4172 4.96411E-03 1.18904E-04-1.86677E-14
 -1      4173 4.82086E-03 1.19415E-04-1.76525E-14
 -1      4174 9.17001E-03-1.01772E-04-6.44948E-14
 -1      4175 6.10271E-03 1.12789E-04-2.77880E-14
 -1      4176 5.96126E-03 1.13814E-04-2.65536E-14
 -1      4177 6.17254E-03 7.71985E-05-2.84590E-14
 -1      4178 5.25007E-03 1.17747E-04-2.07827E-14
 -1      4179 5.10718E-03 1.18352E-04-1.97120E-14
 -1      4180 5.03532E-03 8.16365E-05-1.92258E-14
 -1      4181 2.27508E-03-8.00533E-05-4.44442E-15
 -1      4182 2.42047E-03-8.12672E-05-4.96754E-15
 -1      4183 2.01220E-03-7.58793E-05-3.56918E-15
 -1      4184 2.15723E-03-7.76310E-05-4.04063E-15
 -1      4185 2.22878E-03-4.24517E-05-4.28460E-15
 -1      4186 1.99337E-03-3.85921E-05-3.51153E-15
 -1      4187 2.07218E-03 1.12073E-04-3.70068E-15
 -1      4188 1.92735E-03 1.09209E-04-3.25194E-15
 -1      4189 3.67144E-03 1.97935E-04-1.04434E-14
 -1      4190 3.52702E-03 1.98017E-04-9.68287E-15
 -1      4191 3.74231E-03 1.59863E-04-1.08786E-14
 -1      4192 2.56595E-03-8.22311E-05-5.52003E-15
 -1      4193 2.71145E-03-8.29659E-05-6.10213E-15
 -1      4194 2.49220E-03-4.48523E-05-5.23697E-15
 -1      4195 2.85692E-03-8.35172E-05-6.71207E-15
 -1      4196 3.00231E-03-8.38996E-05-7.35124E-15
 -1      4197 2.78330E-03-4.56555E-05-6.39811E-15
 -1      4198 5.53525E-03 1.16376E-04-2.30092E-14
 -1      4199 5.39276E-03 1.17094E-04-2.18822E-14
 -1      4200 5.32108E-03 8.08149E-05-2.13697E-14
 -1      4201 5.60597E-03 7.98302E-05-2.36236E-14
 -1      4202 8.99062E-03-1.84187E-05-6.10217E-14
 -1      4203 2.80304E-03 1.95346E-04-6.30984E-15
 -1      4204 2.65796E-03 1.93898E-04-5.72121E-15
 -1      4205 2.58273E-03 1.55793E-04-5.46966E-15
 -1      4206 2.87324E-03 1.58225E-04-6.65101E-15
 -1      4207 8.88876E-03-5.02481E-05-5.97739E-14
 -1      4208 3.23443E-03 1.21653E-04-8.32188E-15
 -1      4209 3.08930E-03 1.21329E-04-7.64457E-15
 -1      4210 3.07422E-03-4.60635E-05-7.67339E-15
 -1      4211 4.67744E-03 1.19880E-04-1.66641E-14
 -1      4212 4.53386E-03 1.20308E-04-1.57028E-14
 -1      4213 4.74879E-03 8.23242E-05-1.71928E-14
 -1      4214 3.45315E-03 1.59968E-04-9.35502E-15
 -1      4215 5.88986E-03 7.86417E-05-2.59875E-14
 -1      4216 1.99298E-03 6.36480E-07-3.50514E-15
 -1      4217 8.83784E-03-2.23189E-05-5.88290E-14
 -1      4218 2.21727E-03 1.14456E-04-4.17808E-15
 -1      4219 2.14293E-03 7.77439E-05-3.95499E-15
 -1      4220 2.36255E-03 1.16387E-04-4.68459E-15
 -1      4221 4.10214E-03 1.21329E-04-1.29875E-14
 -1      4222 3.95791E-03 1.21578E-04-1.21378E-14
 -1      4223 4.39012E-03 1.20691E-04-1.47700E-14
 -1      4224 4.24621E-03 1.21036E-04-1.38651E-14
 -1      4225 4.46156E-03 8.28939E-05-1.52709E-14
 -1      4226 2.94406E-03 1.20823E-04-6.99550E-15
 -1      4227 2.79873E-03 1.20126E-04-6.37493E-15
 -1      4228 3.01543E-03 8.31900E-05-7.34413E-15
 -1      4229 1.81253E-03 7.51650E-05-2.93555E-15
 -1      4230 4.17364E-03 8.33460E-05-1.34585E-14
 -1      4231 3.04417E-03 1.86092E-05-7.51489E-15
 -1      4232 3.18952E-03 1.87028E-05-8.18712E-15
 -1      4233 3.37943E-03 1.21846E-04-9.02792E-15
 -1      4234 3.30589E-03 8.36755E-05-8.70135E-15
 -1      4235 3.52428E-03 1.21908E-04-9.76184E-15
 -1      4236 3.58194E-03-8.01415E-06-1.01621E-14
 -1      4237 3.72675E-03-7.96594E-06-1.09405E-14
 -1      4238 3.91406E-03 1.88531E-05-1.19754E-14
 -1      4239 4.05846E-03 1.88544E-05-1.28187E-14
 -1      4240 4.20269E-03 1.88359E-05-1.36894E-14
 -1      4241 4.34675E-03 1.88207E-05-1.45888E-14
 -1      4242 4.49063E-03 1.87894E-05-1.55151E-14
 -1      4243 4.63433E-03 1.87599E-05-1.64684E-14
 -1      4244 4.77785E-03 1.87153E-05-1.74498E-14
 -1      4245 4.92118E-03 1.86709E-05-1.84585E-14
 -1      4246 5.06432E-03 1.86104E-05-1.94952E-14
 -1      4247 5.20726E-03 1.85479E-05-2.05595E-14
 -1      4248 5.34998E-03 1.84661E-05-2.16518E-14
 -1      4249 5.49247E-03 1.83794E-05-2.27706E-14
 -1      4250 5.63471E-03 1.82679E-05-2.39180E-14
 -1      4251 5.77669E-03 1.81476E-05-2.50923E-14
 -1      4252 5.91836E-03 1.79937E-05-2.62942E-14
 -1      4253 6.05972E-03 1.78258E-05-2.75241E-14
 -1      4254 6.20071E-03 1.76116E-05-2.87790E-14
 -1      4255 6.34130E-03 1.73760E-05-3.00603E-14
 -1      4256 6.48145E-03 1.70759E-05-3.13668E-14
 -1      4257 6.62111E-03 1.67438E-05-3.26991E-14
 -1      4258 6.76022E-03 1.63220E-05-3.40550E-14
 -1      4259 6.89873E-03 1.58530E-05-3.54351E-14
 -1      4260 7.03657E-03 1.52592E-05-3.68418E-14
 -1      4261 7.17367E-03 1.45967E-05-3.82730E-14
 -1      4262 7.30996E-03 1.37617E-05-3.97275E-14
 -1      4263 7.44536E-03 1.28278E-05-4.12052E-14
 -1      4264 7.57977E-03 1.16571E-05-4.27054E-14
 -1      4265 7.71310E-03 1.03467E-05-4.42283E-14
 -1      4266 7.84526E-03 8.71346E-06-4.57746E-14
 -1      4267 7.97612E-03 6.88816E-06-4.73412E-14
 -1      4268 8.10558E-03 4.62544E-06-4.89304E-14
 -1      4269 8.23346E-03 2.10762E-06-5.05403E-14
 -1      4270 8.35970E-03-9.99874E-07-5.21700E-14
 -1      4271 8.48400E-03-4.42881E-06-5.38214E-14
 -1      4272 8.60633E-03-8.65403E-06-5.54910E-14
 -1      4273 8.72629E-03-1.31999E-05-5.71794E-14
 -1      4274 3.33473E-03 1.87570E-05-8.88803E-15
 -1      4275 3.47980E-03 1.88057E-05-9.61714E-15
 -1      4276 2.65333E-03 1.19174E-04-5.78299E-15
 -1      4277 2.50792E-03 1.17954E-04-5.21951E-15
 -1      4278 2.43358E-03 8.04503E-05-4.97006E-15
 -1      4279 2.72457E-03 8.21842E-05-6.09999E-15
 -1      4280 2.89871E-03 1.85071E-05-6.87025E-15
 -1      4281 3.81353E-03 1.21756E-04-1.13173E-14
 -1      4282 3.66898E-03 1.21876E-04-1.05249E-14
 -1      4283 3.59579E-03 8.38000E-05-1.01731E-14
 -1      4284 3.88504E-03 8.36602E-05-1.17586E-14
 -1      4285 2.46204E-03 1.79492E-05-5.10873E-15
 -1      4286 2.60760E-03 1.81832E-05-5.66741E-15
 -1      4287 2.75317E-03 1.83541E-05-6.25407E-15
 -1      4288 1.93691E-03 5.78218E-05-3.31194E-15
 -1      4289 2.03262E-03 4.28017E-05-3.61561E-15
 -1      4290 2.14977E-03 2.15828E-06-4.00983E-15
 -1      4291 2.26760E-03 9.80922E-07-4.41147E-15
 -1      4292 3.84206E-03 5.69208E-05-1.15387E-14
 -1      4293 2.09358E-03 6.09425E-05-3.80261E-15
 -1      4294 3.55263E-03 5.69771E-05-9.96859E-15
 -1      4295 2.23877E-03 6.22254E-05-4.28675E-15
 -1      4296 3.69743E-03 5.69682E-05-1.07394E-14
 -1      4297 2.31655E-03 1.76821E-05-4.57850E-15
 -3
    1PSTEP                         2           1           1          
  100CL  101 1.000000000        4297                     0    1           1
 -4  STRESS      6    1
 -5  SXX         1    4    1    1
 -5  SYY         1    4    2    2
 -5  SZZ         1    4    3    3
 -5  SXY         1    4    1    2
 -5  SYZ         1    4    2    3
 -5  SZX         1    4    3    1
 -1         1 3.05255E+00 3.18923E+00-1.11006E+00-3.47589E+00-1.33471E-12 8.62921E-13
 -1         2-8.12798E-01-2.73459E+01-3.71573E+00-1.30382E-02-8.64710E-13-1.70846E-13
 -1         3 1.99820E+01-1.85475E-02 4.15912E-02-1.87101E-02-5.10850E-13-5.38395E-13
 -1         4 1.99512E+01-4.97761E-02 7.00726E-02 4.99127E-02 2.47192E-13 5.75022E-14
 -1         5 3.27686E+01 6.14283E+00 2.74249E+00 6.22434E+00-3.77337E-14 2.87514E-12
 -1         6 3.57528E+01 1.22635E+01 5.12552E+00-8.64666E+00-1.61648E-13 2.75152E-12
 -1         7 2.08191E+01 6.09982E+00-1.28621E-01-4.72538E+00-2.13857E-14 5.71022E-13
 -1         8 1.96717E+01 5.93492E+00 5.07670E-02-3.27460E+00-3.23491E-14-1.07634E-13
 -1         9 1.91369E+01 5.77193E+00 4.90023E-02-2.52684E+00-2.88901E-14-4.82556E-13
 -1        10 1.88958E+01 5.69226E+00 5.12599E-02-1.95135E+00-2.15331E-14-6.48117E-13
 -1        11 1.87737E+01 5.65132E+00 5.04278E-02-1.45611E+00-1.57123E-14-7.39877E-13
 -1        12 1.87100E+01 5.62958E+00 4.87994E-02-1.01522E+00-6.86517E-15-7.78993E-13
 -1        13 1.86765E+01 5.61813E+00 4.74347E-02-5.95412E-01-4.22741E-15-7.96723E-13
 -1        14 1.86624E+01 5.61330E+00 4.67121E-02-1.91231E-01 8.83056E-16-8.03502E-13
 -1        15 1.86629E+01 5.61347E+00 4.67533E-02 2.08219E-01 5.84222E-15-8.04514E-13
 -1        16 1.86780E+01 5.61863E+00 4.75724E-02 6.13237E-01 9.12671E-15-7.86408E-13
 -1        17 1.87128E+01 5.63034E+00 4.90843E-02 1.03503E+00 1.13627E-14-7.54168E-13
 -1        18 1.87777E+01 5.65237E+00 5.08301E-02 1.47913E+00 1.74405E-14-6.76472E-13
 -1        19 1.89009E+01 5.69377E+00 5.15370E-02 1.98025E+00 2.62776E-14-5.57185E-13
 -1        20 1.91425E+01 5.77451E+00 4.87876E-02 2.56384E+00 3.45279E-14-3.39353E-13
 -1        21 1.96676E+01 5.94965E+00 4.59279E-02 3.30880E+00 4.12656E-14 9.54935E-14
 -1        22 2.12019E+01 6.38156E+00 1.39707E-01 4.52306E+00 5.64826E-15 9.55014E-13
 -1        23 2.30303E+01-1.37926E+00-9.38289E-01-7.11218E-01-1.06939E-13 2.18245E-12
 -1        24 1.93673E+01-9.94690E-02-3.09826E-01 6.31913E-02-3.55887E-14 1.65323E-12
 -1        25 1.86789E+01-5.63173E-02-6.87640E-02 6.07436E-02-1.31711E-14 1.12853E-12
 -1        26 1.84765E+01-2.20826E-02-6.42741E-03 3.29890E-02-8.15483E-15 7.73704E-13
 -1        27 1.84877E+01-1.17921E-02 1.61600E-03 2.25970E-02 9.29259E-15 5.68295E-13
 -1        28 1.86015E+01-6.22664E-03 1.80820E-03 1.62959E-02-9.45104E-15 4.54861E-13
 -1        29 1.87609E+01-3.07272E-03 1.74120E-03 1.21477E-02-1.59104E-14 3.12993E-13
 -1        30 1.89345E+01-1.21588E-03 1.93132E-03 9.18638E-03 7.43255E-15 2.17981E-13
 -1        31 1.91045E+01-1.21484E-04 2.09718E-03 6.95437E-03-1.41649E-14 8.86665E-14
 -1        32 1.92612E+01 5.00400E-04 2.12991E-03 5.22050E-03-3.87658E-14-8.03973E-14
 -1        33 1.93997E+01 8.17680E-04 2.03658E-03 3.85428E-03 2.73682E-14-9.10678E-14
 -1        34 1.95184E+01 9.34153E-04 1.85371E-03 2.77251E-03-2.10524E-14-9.61868E-14
 -1        35 1.96176E+01 9.16198E-04 1.61433E-03 1.91647E-03-1.32583E-14-2.39308E-13
 -1        36 1.96992E+01 8.06392E-04 1.34089E-03 1.24182E-03-1.06561E-15-3.03001E-13
 -1        37 1.97659E+01 6.30916E-04 1.04547E-03 7.14228E-04-2.67320E-14-2.59888E-13
 -1        38 1.98209E+01 4.03957E-04 7.31194E-04 3.07536E-04 6.77045E-15-2.67464E-13
 -1        39 1.98680E+01 1.30549E-04 3.93510E-04 3.36696E-06-1.99536E-14-3.04021E-13
 -1        40 1.99115E+01-1.91443E-04 2.11445E-05-2.08558E-04 7.04366E-15-4.02331E-13
 -1        41 1.99561E+01-5.69812E-04-4.03306E-04-3.29501E-04-1.34107E-14-5.10917E-13
 -1        42 2.00076E+01-1.01669E-03-9.03066E-04-3.50178E-04 3.38079E-15-6.08509E-13
 -1        43 2.00726E+01-1.54715E-03-1.50705E-03-2.48413E-04-3.56955E-14-4.57289E-13
 -1        44 2.01589E+01-2.17717E-03-2.24957E-03 1.42931E-05-1.85726E-14-2.68180E-13
 -1        45 2.02761E+01-2.92042E-03-3.16927E-03 4.97618E-04-3.89664E-14-1.93125E-13
 -1        46 2.04359E+01-3.78233E-03-4.30577E-03 1.28896E-03-3.21759E-14-4.31840E-13
 -1        47 2.06520E+01-4.74954E-03-5.69095E-03 2.51141E-03 6.87555E-15-3.87876E-13
 -1        48 2.09409E+01-5.77113E-03-7.32861E-03 4.33144E-03 5.40737E-14-9.18447E-14
 -1        49 2.13207E+01-6.72676E-03-9.15028E-03 6.96065E-03-1.32206E-14-3.18090E-13
 -1        50 2.18104E+01-7.37588E-03-1.09258E-02 1.06370E-02 2.12258E-14-6.97045E-13
 -1        51 2.24258E+01-7.28556E-03-1.20972E-02 1.55528E-02 4.34695E-15-5.01911E-13
 -1        52 2.31735E+01-5.74939E-03-1.15102E-02 2.16635E-02-3.39108E-14-3.16465E-13
 -1        53 2.40371E+01-1.75280E-03-7.08152E-03 2.82681E-02-1.54003E-14-3.53131E-13
 -1        54 2.49574E+01 5.86245E-03 4.32484E-03 3.32338E-02 2.50380E-14-5.28201E-13
 -1        55 2.58032E+01 1.77610E-02 2.60765E-02 3.19025E-02-3.39110E-14-7.81470E-13
 -1        56 2.63448E+01 3.26740E-02 5.86028E-02 1.64398E-02 3.31033E-14-8.69860E-13
 -1        57 2.62582E+01 4.54751E-02 9.33549E-02-2.20942E-02 1.09040E-14-2.95359E-13
 -1        58 2.52155E+01 4.64668E-02 1.06988E-01-8.54367E-02-7.79971E-14-4.41900E-13
 -1        59 2.31088E+01 2.60989E-02 6.87114E-02-1.53878E-01-2.26897E-14-8.58855E-13
 -1        60 2.03386E+01-1.47011E-02-3.09621E-02-1.80660E-01 2.98144E-14-7.68115E-13
 -1        61 1.78837E+01-5.68453E-02-1.45475E-01-1.22622E-01 2.70205E-14-6.71480E-13
 -1        62 1.68461E+01-7.27247E-02-1.90867E-01 7.13579E-03-4.35832E-14-7.10481E-13
 -1        63 1.76543E+01-5.04453E-02-1.27910E-01 1.28108E-01 1.80689E-14-1.22709E-12
 -1        64 1.97017E+01-6.23478E-03-9.23166E-03 1.68885E-01-7.35155E-14-1.07970E-12
 -1        65 2.18447E+01 3.17348E-02 8.26586E-02 1.28626E-01-1.13716E-13-9.14754E-13
 -1        66 2.31855E+01 4.68698E-02 1.10272E-01 5.53095E-02 7.90978E-14-1.40672E-12
 -1        67 2.34389E+01 4.03743E-02 8.79781E-02-8.02220E-03 1.38677E-13-8.19949E-13
 -1        68 2.28083E+01 2.18115E-02 4.46683E-02-4.50212E-02-8.80589E-15 1.11586E-13
 -1        69 2.17139E+01-4.25218E-05-1.77437E-03-5.58951E-02-7.93955E-15 9.48477E-14
 -1        70 2.06250E+01-1.43414E-02-3.83288E-02-3.68376E-02 2.96199E-14 3.47288E-13
 -1        71 1.99906E+01 9.17911E-03-2.42605E-02 6.21614E-03-1.41779E-13 2.56888E-13
 -1        72 2.10426E+01-4.04894E-01-9.80415E-01-3.11613E-01 4.54810E-14 2.62064E-12
 -1        73 1.93319E+01-6.58822E-02-2.91130E-01-5.38313E-02 1.94983E-14 2.01082E-12
 -1        74 1.86885E+01-2.05038E-02-6.42686E-02-2.03450E-02 1.66449E-14 1.56134E-12
 -1        75 1.84856E+01-9.87557E-03-9.30491E-03-1.54461E-02 1.20258E-14 1.21902E-12
 -1        76 1.84967E+01-5.16154E-03 6.88547E-04-1.23769E-02 9.62278E-15 9.54993E-13
 -1        77 1.86097E+01-2.60934E-03 1.75509E-03-1.01043E-02 1.91546E-15 7.80923E-13
 -1        78 1.87681E+01-1.13886E-03 1.89359E-03-8.36177E-03-1.54292E-14 7.59458E-13
 -1        79 1.89407E+01-2.75518E-04 2.08862E-03-6.92329E-03 1.75638E-14 6.64635E-13
 -1        80 1.91098E+01 2.21544E-04 2.22984E-03-5.68259E-03 5.14149E-17 4.65393E-13
 -1        81 1.92656E+01 4.86646E-04 2.23870E-03-4.59723E-03 2.46853E-14 4.13434E-13
 -1        82 1.94034E+01 6.00694E-04 2.12425E-03-3.64756E-03 1.87445E-14 3.31303E-13
 -1        83 1.95214E+01 6.14522E-04 1.92196E-03-2.82055E-03-4.83713E-16 3.60894E-13
 -1        84 1.96201E+01 5.60669E-04 1.66418E-03-2.10391E-03 1.52446E-14 3.38129E-13
 -1        85 1.97014E+01 4.59608E-04 1.37295E-03-1.48457E-03-3.95272E-15 2.43001E-13
 -1        86 1.97679E+01 3.23331E-04 1.06003E-03-9.48846E-04 4.49492E-15-4.47022E-15
 -1        87 1.98229E+01 1.57664E-04 7.28467E-04-4.83470E-04-4.92956E-14-3.14493E-14
 -1        88 1.98701E+01-3.60384E-05 3.74117E-04-7.68746E-05-5.37852E-15 4.55159E-14
 -1        89 1.99139E+01-2.59437E-04-1.28737E-05 2.79126E-04 3.62864E-14-2.44355E-13
 -1        90 1.99590E+01-5.15746E-04-4.46560E-04 5.87373E-04-4.81939E-14-3.32618E-13
 -1        91 2.00108E+01-8.08012E-04-9.43402E-04 8.42973E-04-2.56966E-14-4.62767E-14
 -1        92 2.00755E+01-1.13682E-03-1.51978E-03 1.03027E-03-4.33851E-14 4.86781E-14
 -1        93 2.01602E+01-1.49707E-03-2.18813E-03 1.11901E-03-1.73101E-14 8.72513E-14
 -1        94 2.02731E+01-1.87323E-03-2.95065E-03 1.05949E-03 2.71146E-14-2.31626E-13
 -1        95 2.04231E+01-2.23261E-03-3.78891E-03 7.77071E-04-1.95656E-15-6.12220E-13
 -1        96 2.06198E+01-2.51595E-03-4.64681E-03 1.66714E-04 2.03054E-14-3.36881E-13
 -1        97 2.08724E+01-2.62548E-03-5.40376E-03-9.09523E-04-6.03742E-14-1.10527E-13
 -1        98 2.11884E+01-2.41195E-03-5.83460E-03-2.61611E-03 2.04012E-14-1.52839E-13
 -1        99 2.15705E+01-1.66629E-03-5.55632E-03-5.11614E-03 6.41416E-14-7.81489E-13
 -1       100 2.20126E+01-1.29060E-04-3.97354E-03-8.49933E-03-4.04668E-14-4.01160E-13
 -1       101 2.24937E+01 2.45668E-03-2.64055E-04-1.26326E-02 3.72417E-14-1.01399E-13
 -1       102 2.29690E+01 6.21086E-03 6.49746E-03-1.68997E-02-5.40238E-14-2.63882E-13
 -1       103 2.33627E+01 1.08649E-02 1.69070E-02-1.98427E-02 7.23151E-14-3.25100E-13
 -1       104 2.35631E+01 1.54200E-02 3.03164E-02-1.88614E-02-7.06082E-14-1.26904E-13
 -1       105 2.34320E+01 1.79029E-02 4.34940E-02-1.04114E-02-1.12996E-15 2.40117E-13
 -1       106 2.28385E+01 1.57197E-02 4.96868E-02 8.47705E-03 4.93308E-14 2.30359E-13
 -1       107 2.17262E+01 7.15275E-03 4.01342E-02 3.68104E-02-9.44514E-15-1.29400E-13
 -1       108 2.01979E+01-6.56161E-03 9.77893E-03 6.61185E-02 1.73314E-14-2.28765E-13
 -1       109 1.85637E+01-2.01838E-02-3.49706E-02 8.11803E-02 3.23416E-14-1.23096E-14
 -1       110 1.72781E+01-2.69258E-02-7.43262E-02 6.83527E-02 5.85870E-14-4.85287E-13
 -1       111 1.67442E+01-2.33607E-02-8.58156E-02 2.82991E-02-8.35096E-15-7.74464E-13
 -1       112 1.70877E+01-1.17604E-02-6.17977E-02-2.09670E-02-1.19158E-13-3.38896E-13
 -1       113 1.80786E+01 1.68974E-03-1.72287E-02-5.60974E-02 1.04228E-13-4.47378E-13
 -1       114 1.92687E+01 1.13974E-02 2.44485E-02-6.48584E-02-5.71256E-14-7.27821E-13
 -1       115 2.02314E+01 1.47135E-02 4.66207E-02-5.07559E-02 4.16823E-14-6.92793E-13
 -1       116 2.07327E+01 1.20645E-02 4.63540E-02-2.57205E-02-3.77498E-15-3.64380E-13
 -1       117 2.07644E+01 5.62691E-03 2.96648E-02-1.18727E-03-4.91615E-15-9.78693E-13
 -1       118 2.04849E+01-1.42029E-03 5.52922E-03 1.50497E-02 9.40739E-15-1.09483E-12
 -1       119 2.01374E+01-5.50223E-03-1.41530E-02 1.69606E-02-9.06910E-14-1.06258E-12
 -1       120 1.99696E+01 9.97095E-03 2.17036E-04-5.01945E-03 1.96122E-13-1.13748E-12
 -1       121 1.99968E+01-1.88779E-02-5.28953E-03-1.64688E-02-8.69629E-13 3.17926E-13
 -1       122 1.99814E+01 1.64313E-01-3.05536E-02-4.02762E-04-6.53666E-13-2.08724E-13
 -1       123 1.99788E+01 7.04960E-01-3.66004E-02 1.52721E-02-7.30031E-13 9.46691E-14
 -1       124 1.99797E+01 1.62596E+00-3.71795E-02 3.36257E-02-1.51594E-13 2.62443E-13
 -1       125 1.99870E+01 2.92324E+00-2.79553E-02 5.36305E-02 2.22079E-13-1.01449E-13
 -1       126 2.00007E+01 4.46664E+00-6.05428E-03 6.73345E-02 5.59407E-13 1.34339E-13
 -1       127 2.00189E+01 6.06907E+00 2.66133E-02 6.78305E-02-2.65461E-13-3.14788E-13
 -1       128 2.00363E+01 7.36565E+00 5.96423E-02 4.86264E-02-7.14503E-13 3.82947E-14
 -1       129 2.00462E+01 8.01671E+00 7.90411E-02 1.25973E-02-1.77237E-13 5.00550E-14
 -1       130 2.00445E+01 7.82513E+00 7.57146E-02-2.86633E-02 2.03297E-13 6.22883E-14
 -1       131 2.00314E+01 6.82703E+00 5.14222E-02-6.15372E-02 4.77327E-14-1.47444E-13
 -1       132 2.00132E+01 5.29918E+00 1.83285E-02-7.51010E-02 4.88325E-14 3.42174E-13
 -1       133 1.99949E+01 3.53882E+00-1.37055E-02-7.23906E-02 6.71258E-13 1.15811E-14
 -1       134 1.99768E+01 1.89705E+00-4.12420E-02-6.10665E-02 2.79016E-13-7.82725E-14
 -1       135 1.99748E+01 6.70426E-01-4.89263E-02-4.93105E-02-3.62765E-13-2.56238E-14
 -1       136 1.99732E+01 6.08988E-02-2.07428E-02 2.90983E-02-2.59685E-13 1.94726E-14
 -1       137-1.50528E+00-2.20157E+01-3.35707E+00-4.22285E+00 2.14218E-13 1.43184E-13
 -1       138-1.79992E+00-9.76389E+00-2.42399E+00-3.47498E+00 1.55498E-12 8.67306E-13
 -1       139 3.75207E+00 4.12375E+00-9.67363E-01 4.29380E+00 2.24881E-12 1.58629E-12
 -1       140 1.85210E+01 1.13884E+01 7.54219E-01 1.43082E+01 1.74105E-12 2.22061E-12
 -1       141 4.01629E+01 9.84951E+00 2.26161E+00 1.91257E+01 1.21544E-12 2.41235E-12
 -1       142 5.86713E+01 4.44544E+00 3.24211E+00 1.45592E+01 3.93220E-13 1.23468E-12
 -1       143 6.76499E+01 1.03482E+00 3.64876E+00 2.51979E+00-1.16122E-14 3.38070E-13
 -1       144 6.21551E+01 2.93641E+00 3.31974E+00-1.09357E+01 3.77804E-13-1.12449E-12
 -1       145 4.46750E+01 8.07122E+00 2.35593E+00-1.79935E+01 7.26447E-13-1.60666E-12
 -1       146 2.35486E+01 1.12432E+01 1.00599E+00-1.60165E+01 1.23757E-12-1.69659E-12
 -1       147 7.45987E+00 7.36817E+00-4.69074E-01-7.56688E+00 1.18960E-12-1.12005E-12
 -1       148-5.08118E-01-3.71745E+00-1.82819E+00 1.00519E+00 9.12104E-13-4.77174E-13
 -1       149-1.79511E+00-1.70201E+01-2.84943E+00 4.33704E+00-2.93932E-13-9.50490E-14
 -1       150-9.19136E-01-2.48819E+01-3.33050E+00 1.43843E+00-1.00568E-12 7.35592E-14
 -1       151-1.23648E+00-2.35409E+01-3.28229E+00-3.05985E+00-1.62925E-12-3.36437E-13
 -1       152-2.07219E+00-1.35904E+01-2.68912E+00-4.48247E+00-1.95055E-12-7.57269E-13
 -1       153 4.42341E-01-6.40960E-01-1.61467E+00 4.55883E-01-1.06748E-12-6.95832E-13
 -1       154 1.06835E+01 8.64535E+00-2.00682E-01 9.64075E+00-5.26634E-13-4.08173E-13
 -1       155 2.84373E+01 1.05702E+01 1.31362E+00 1.69775E+01 4.27436E-14-6.19504E-14
 -1       156 4.97394E+01 6.77136E+00 2.71370E+00 1.73840E+01 1.15463E-13 1.96954E-13
 -1       157 6.53486E+01 1.98482E+00 3.60952E+00 8.83852E+00 3.59409E-14 9.45771E-13
 -1       158 6.86131E+01 1.14796E+00 3.83719E+00-4.27911E+00-1.08379E-13 1.09046E-12
 -1       159 5.77661E+01 5.20561E+00 3.30852E+00-1.59340E+01-2.62457E-13 1.29263E-12
 -1       160 3.75440E+01 1.05498E+01 2.11096E+00-1.93576E+01-1.01197E-12 1.68482E-12
 -1       161 1.73814E+01 1.10807E+01 5.71854E-01-1.37189E+01-1.26388E-12 1.55992E-12
 -1       162-1.82924E+00-1.00744E+01-2.48109E+00 3.65135E+00-1.98747E-12 8.71775E-13
 -1       163-1.52184E+00-2.22222E+01-3.37863E+00 4.28733E+00-1.34687E-12 4.53117E-13
 -1       164 2.10137E+01 3.69373E+00-5.74013E-02-3.61019E+00-3.96193E-13 1.96270E-13
 -1       165 1.99900E+01 4.20842E+00-4.59583E-02-2.80856E+00-3.69300E-13-2.06127E-13
 -1       166 1.95101E+01 4.47652E+00-3.13486E-02-2.19610E+00-3.03952E-13-4.50568E-13
 -1       167 1.92676E+01 4.61517E+00-2.34920E-02-1.67487E+00-2.25352E-13-5.84272E-13
 -1       168 1.91370E+01 4.69685E+00-1.95330E-02-1.21924E+00-1.55603E-13-6.31249E-13
 -1       169 1.90632E+01 4.74781E+00-1.74387E-02-7.92193E-01-8.41765E-14-6.50546E-13
 -1       170 1.90261E+01 4.77566E+00-1.64255E-02-3.86954E-01-1.41829E-14-6.62781E-13
 -1       171 1.90152E+01 4.78418E+00-1.61340E-02 8.26493E-03 4.56755E-14-6.75572E-13
 -1       172 1.90278E+01 4.77438E+00-1.64670E-02 4.03822E-01 9.50774E-14-6.62490E-13
 -1       173 1.90670E+01 4.74485E+00-1.75205E-02 8.10130E-01 1.54759E-13-6.39870E-13
 -1       174 1.91415E+01 4.69244E+00-1.96884E-02 1.23166E+00 2.13704E-13-5.84839E-13
 -1       175 1.92770E+01 4.60531E+00-2.40075E-02 1.69837E+00 2.99580E-13-4.92854E-13
 -1       176 1.95239E+01 4.45953E+00-3.28516E-02 2.22673E+00 3.73263E-13-3.50574E-13
 -1       177 2.00135E+01 4.18383E+00-4.72135E-02 2.84696E+00 4.09285E-13-6.48613E-14
 -1       178 2.11353E+01 3.46368E+00-5.97808E-02 3.53686E+00 3.88658E-13 4.52201E-13
 -1       179 2.24197E+01 1.14337E+00-3.36472E-01 3.01493E+00 2.84375E-13 1.15312E-12
 -1       180 2.19721E+01 8.58214E-01 6.88329E-04-1.95928E+00-3.43666E-13 7.01671E-13
 -1       181 2.04474E+01 1.90338E-01-9.92683E-03-7.64293E-01-3.09336E-13 5.13821E-13
 -1       182 1.96718E+01 1.01665E-01 1.36119E-02-2.85768E-01-2.22048E-13 3.61277E-13
 -1       183 1.93319E+01 4.71303E-02 1.00116E-02-6.81021E-02-1.39904E-13 2.20759E-13
 -1       184 1.92020E+01 2.25385E-02 5.16693E-03 3.90704E-02-8.90417E-14 1.39039E-13
 -1       185 1.91883E+01 9.49638E-03 2.42489E-03 9.16257E-02-8.95934E-14 1.14056E-13
 -1       186 1.92366E+01 2.09189E-03 1.12533E-03 1.13939E-01-5.97155E-14 7.17242E-14
 -1       187 1.93153E+01-2.14559E-03 4.93201E-04 1.18786E-01-9.18542E-14 4.03003E-15
 -1       188 1.94058E+01-4.44036E-03 1.59660E-04 1.13605E-01-9.25521E-14-1.71366E-15
 -1       189 1.94970E+01-5.49109E-03-2.45959E-05 1.03034E-01-3.76550E-14-5.08366E-14
 -1       190 1.95825E+01-5.73129E-03-1.21936E-04 9.00672E-02-2.98096E-14-1.16442E-13
 -1       191 1.96593E+01-5.44180E-03-1.63278E-04 7.66698E-02-4.29213E-14-1.44175E-13
 -1       192 1.97265E+01-4.80490E-03-1.66585E-04 6.41413E-02-3.94343E-14-1.41476E-13
 -1       193 1.97844E+01-3.93369E-03-1.43018E-04 5.33545E-02-1.55927E-14-1.57763E-13
 -1       194 1.98345E+01-2.88955E-03-9.93622E-05 4.49255E-02-5.64260E-14-2.38707E-13
 -1       195 1.98791E+01-1.69345E-03-3.92824E-05 3.93422E-02-9.91152E-15-2.95771E-13
 -1       196 1.99210E+01-3.33738E-04 3.58720E-05 3.70634E-02-4.05017E-14-2.97983E-13
 -1       197 1.99635E+01 1.22822E-03 1.26490E-04 3.85998E-02-5.00596E-14-2.63666E-13
 -1       198 2.00108E+01 3.05387E-03 2.34199E-04 4.45795E-02-1.17612E-13-2.02799E-13
 -1       199 2.00676E+01 5.22381E-03 3.61335E-04 5.58016E-02 4.66350E-14-3.19907E-13
 -1       200 2.01396E+01 7.83344E-03 5.10230E-04 7.32776E-02 7.72751E-14-3.40089E-13
 -1       201 2.02333E+01 1.09857E-02 6.82081E-04 9.82545E-02-6.10314E-15-3.23654E-13
 -1       202 2.03568E+01 1.47766E-02 8.75036E-04 1.32207E-01 4.03863E-14-2.41059E-13
 -1       203 2.05190E+01 1.92660E-02 1.08095E-03 1.76771E-01 5.85334E-14-9.76864E-14
 -1       204 2.07303E+01 2.44197E-02 1.28004E-03 2.33558E-01 8.98753E-14-6.50494E-14
 -1       205 2.10019E+01 2.99976E-02 1.43285E-03 3.03762E-01-1.12950E-13-7.89430E-14
 -1       206 2.13445E+01 3.53493E-02 1.46976E-03 3.87368E-01-9.40261E-14-1.01249E-13
 -1       207 2.17674E+01 3.90632E-02 1.28168E-03 4.81696E-01 4.59510E-14-2.36898E-13
 -1       208 2.22740E+01 3.84205E-02 7.22538E-04 5.78898E-01 6.59568E-14-1.43037E-13
 -1       209 2.28570E+01 2.86945E-02-3.54270E-04 6.62058E-01-8.10169E-14-1.10574E-13
 -1       210 2.34897E+01 2.65605E-03-1.99317E-03 7.00026E-01-1.68603E-13-2.27573E-13
 -1       211 2.41153E+01-4.85760E-02-3.96320E-03 6.42898E-01-1.23776E-13-2.56118E-13
 -1       212 2.46362E+01-1.30711E-01-5.54371E-03 4.24196E-01 2.08353E-14-2.00678E-13
 -1       213 2.49117E+01-2.34156E-01-5.66583E-03-1.74807E-02 2.93274E-13-2.39021E-13
 -1       214 2.47776E+01-3.15608E-01-3.55496E-03-6.81825E-01-1.12336E-13-3.56970E-13
 -1       215 2.41119E+01-2.91745E-01-5.09881E-04-1.41995E+00-2.30454E-13-2.78880E-13
 -1       216 2.29549E+01-8.40631E-02 1.02994E-03-1.88827E+00-9.57856E-14-3.72825E-13
 -1       217 2.16284E+01 2.63161E-01-2.39752E-03-1.69088E+00-2.73219E-15-4.14276E-13
 -1       218 2.06807E+01 5.36529E-01-7.80308E-03-7.33255E-01 9.98333E-15-4.75496E-13
 -1       219 2.05563E+01 5.03609E-01-7.66873E-03 5.21501E-01-2.49172E-13-4.66074E-13
 -1       220 2.12016E+01 1.95610E-01-2.81801E-03 1.35633E+00-3.92694E-14-7.37091E-13
 -1       221 2.21235E+01-1.41276E-01 6.63119E-04 1.40566E+00 1.10988E-13-7.75705E-13
 -1       222 2.27939E+01-3.13404E-01-3.10062E-04 8.46655E-01-2.83887E-15-4.31787E-13
 -1       223 2.29523E+01-3.06016E-01-2.78644E-03 9.93854E-02 3.02013E-13-1.74400E-13
 -1       224 2.26165E+01-1.99839E-01-3.59358E-03-5.05714E-01 3.39082E-13-4.27428E-13
 -1       225 2.19589E+01-6.60559E-02-2.68376E-03-8.21202E-01 4.42730E-14-3.16125E-13
 -1       226 2.11972E+01 6.88873E-02-8.80832E-04-8.21050E-01 1.01043E-13-3.13118E-13
 -1       227 2.05106E+01 1.92654E-01-2.57742E-04-5.35555E-01 3.58838E-14-9.93406E-14
 -1       228 2.09637E+01 2.77023E-01-5.13347E-02 1.16495E+00 3.03743E-13 9.82115E-13
 -1       229 1.98688E+01 1.26838E-01 8.30915E-03 4.43258E-01 2.25122E-13 7.38555E-13
 -1       230 1.93623E+01 5.80538E-02 1.27342E-02 1.50237E-01 1.75491E-13 5.54987E-13
 -1       231 1.91525E+01 2.77033E-02 7.62832E-03 1.10054E-02 1.55032E-13 4.14297E-13
 -1       232 1.91025E+01 1.30530E-02 3.82288E-03-5.80729E-02 7.75162E-14 3.04484E-13
 -1       233 1.91379E+01 5.10425E-03 1.90592E-03-9.04432E-02 2.72257E-14 2.35755E-13
 -1       234 1.92167E+01 5.62477E-04 1.00361E-03-1.02147E-01 6.95349E-14 1.91220E-13
 -1       235 1.93139E+01-2.01667E-03 5.44648E-04-1.01914E-01 7.81384E-14 1.32082E-13
 -1       236 1.94150E+01-3.37614E-03 2.83560E-04-9.49726E-02 3.01362E-14 4.88635E-14
 -1       237 1.95116E+01-3.94833E-03 1.26177E-04-8.46293E-02 2.35217E-14 1.51952E-13
 -1       238 1.95993E+01-4.00544E-03 3.27175E-05-7.30346E-02 2.49407E-14 8.83673E-14
 -1       239 1.96763E+01-3.72472E-03-1.76464E-05-6.16026E-02 1.10517E-14 1.07516E-13
 -1       240 1.97426E+01-3.22057E-03-3.77881E-05-5.12700E-02 6.53483E-14 9.28954E-14
 -1       241 1.97992E+01-2.56267E-03-3.62192E-05-4.26709E-02 1.24855E-13 9.12272E-15
 -1       242 1.98482E+01-1.78731E-03-1.86441E-05-3.62633E-02-4.23760E-14 4.15946E-14
 -1       243 1.98923E+01-9.05291E-04 1.11043E-05-3.24224E-02 6.22115E-15-7.83675E-14
 -1       244 1.99346E+01 9.17770E-05 5.03809E-05-3.15116E-02 1.02327E-13-1.36406E-14
 -1       245 1.99789E+01 1.22573E-03 9.71438E-05-3.39322E-02-2.55984E-14 4.89746E-14
 -1       246 2.00295E+01 2.52572E-03 1.49369E-04-4.01546E-02-1.01039E-13-1.14106E-14
 -1       247 2.00912E+01 4.02069E-03 2.04380E-04-5.07266E-02-5.98229E-14-3.97334E-15
 -1       248 2.01696E+01 5.72865E-03 2.58039E-04-6.62521E-02 1.23511E-14 9.51690E-15
 -1       249 2.02709E+01 7.64067E-03 3.03765E-04-8.73274E-02 2.09069E-13-7.81499E-14
 -1       250 2.04017E+01 9.69626E-03 3.31426E-04-1.14415E-01 1.70451E-13-2.66210E-13
 -1       251 2.05688E+01 1.17457E-02 3.26370E-04-1.47619E-01-1.26651E-13-2.71916E-13
 -1       252 2.07784E+01 1.34946E-02 2.69281E-04-1.86330E-01-8.19362E-14-1.57608E-13
 -1       253 2.10348E+01 1.44255E-02 1.38358E-04-2.28663E-01 9.38745E-14-1.01292E-13
 -1       254 2.13385E+01 1.37024E-02-8.35941E-05-2.70664E-01 2.38291E-13-4.01302E-14
 -1       255 2.16833E+01 1.00786E-02-3.93813E-04-3.05259E-01-2.10426E-13-1.82006E-13
 -1       256 2.20528E+01 1.88535E-03-7.44086E-04-3.21109E-01-1.23384E-13-6.75087E-14
 -1       257 2.24151E+01-1.27367E-02-1.01133E-03-3.01853E-01-2.00092E-14-4.13009E-14
 -1       258 2.27197E+01-3.50729E-02-9.88360E-04-2.26876E-01-5.36311E-15 2.79536E-14
 -1       259 2.28961E+01-6.42004E-02-4.51646E-04-7.55850E-02-1.07817E-13 1.44530E-13
 -1       260 2.28605E+01-9.44148E-02 6.67993E-04 1.62346E-01-8.56854E-14 3.10147E-13
 -1       261 2.25361E+01-1.12779E-01 2.02985E-03 4.69840E-01 3.46103E-14 2.61511E-13
 -1       262 2.18896E+01-1.00419E-01 2.65822E-03 7.83491E-01 1.04370E-13 7.65941E-14
 -1       263 2.09775E+01-4.28990E-02 1.37921E-03 9.91280E-01 7.19614E-14-1.99086E-14
 -1       264 1.99754E+01 5.29844E-02-1.99643E-03 9.70406E-01 3.04164E-14-2.77532E-13
 -1       265 1.91480E+01 1.49096E-01-5.47871E-03 6.64823E-01 2.33747E-13-2.25477E-13
 -1       266 1.87429E+01 1.91887E-01-6.03064E-03 1.56389E-01 7.00603E-14-2.51203E-13
 -1       267 1.88541E+01 1.54950E-01-2.72606E-03-3.53934E-01-1.28615E-13-3.91983E-13
 -1       268 1.93633E+01 6.13287E-02 1.62505E-03-6.63424E-01 2.16146E-13-4.59023E-13
 -1       269 2.00128E+01-3.58375E-02 4.41436E-03-6.87927E-01-1.38303E-13-2.96666E-13
 -1       270 2.05467E+01-9.46982E-02 4.54268E-03-4.85027E-01 1.41417E-13-2.04351E-13
 -1       271 2.08161E+01-1.03981E-01 2.81693E-03-1.87855E-01-2.09190E-14-4.88841E-13
 -1       272 2.08050E+01-7.51100E-02 5.18895E-04 7.51097E-02 1.12752E-13-4.04822E-13
 -1       273 2.05966E+01-2.59605E-02-1.67695E-03 2.20362E-01 9.75807E-14-1.09195E-13
 -1       274 2.03207E+01 2.86308E-02-2.30958E-03 2.14985E-01 6.58366E-14-3.81420E-13
 -1       275 2.00978E+01 5.97335E-02 9.39256E-04 8.88689E-02-2.39260E-14-3.32070E-13
 -1       276 2.00924E+01 2.12824E-01 2.53562E-03 1.94775E-01-2.49440E-13 3.09944E-13
 -1       277 2.01110E+01 5.44083E-01 3.15339E-03 4.35302E-01-2.56128E-14-7.73036E-15
 -1       278 2.01194E+01 1.07878E+00 2.36832E-03 7.16623E-01 4.04435E-14 3.21187E-13
 -1       279 2.01066E+01 1.84338E+00 1.35053E-03 9.94105E-01-9.23840E-14 2.31883E-13
 -1       280 2.00553E+01 2.78570E+00-8.38871E-04 1.18832E+00-2.49451E-13-5.32365E-14
 -1       281 1.99622E+01 3.83046E+00-3.14722E-03 1.20737E+00-2.25816E-13-4.50718E-13
 -1       282 1.98494E+01 4.77803E+00-5.09773E-03 9.72748E-01 5.98415E-14-2.19277E-13
 -1       283 1.97589E+01 5.41264E+00-6.20354E-03 4.87289E-01 1.52790E-13 2.80954E-13
 -1       284 1.97316E+01 5.56304E+00-6.44513E-03-1.43508E-01 8.33533E-14 1.33033E-13
 -1       285 1.97806E+01 5.17865E+00-5.81894E-03-7.47353E-01-1.99992E-14 6.13077E-14
 -1       286 1.98795E+01 4.37141E+00-4.07649E-03-1.16090E+00 3.53054E-13 1.66616E-13
 -1       287 1.99906E+01 3.30397E+00-1.82957E-03-1.32157E+00 3.64589E-13 2.33472E-13
 -1       288 2.00805E+01 2.20629E+00 7.80834E-04-1.23451E+00 2.30403E-13-1.10760E-13
 -1       289 2.01549E+01 1.24939E+00 2.24863E-03-9.44824E-01 1.94716E-13-3.30948E-13
 -1       290 2.03134E+01 6.45103E-01 3.88038E-03-8.26922E-01 1.89344E-13-2.26971E-13
 -1       291-9.15899E-01-1.17143E+01-1.00203E+00 1.35192E+00-1.52031E-13 4.91107E-13
 -1       292 2.74206E+00-9.77072E+00-8.58365E-01 3.59705E+00 2.49661E-13 8.60832E-13
 -1       293 1.10981E+01-6.01989E+00-4.01983E-01 6.43575E+00 4.57578E-13 9.41934E-13
 -1       294 2.01560E+01-8.37120E-01-3.97254E-02 7.61739E+00 1.12282E-12 1.29383E-12
 -1       295 3.17881E+01 2.48569E+00 3.94113E-01 7.14133E+00 9.02514E-13 1.26432E-12
 -1       296 4.07570E+01 5.49614E+00 7.54190E-01 5.74439E+00 1.08159E-12 7.88258E-13
 -1       297 4.61357E+01 6.85711E+00 9.52670E-01 2.78786E+00 5.65853E-13 3.50484E-13
 -1       298 4.59820E+01 7.12848E+00 8.62771E-01-8.14112E-01 6.47565E-13-8.07895E-14
 -1       299 4.07356E+01 5.67256E+00 5.46382E-01-3.16682E+00 3.71744E-13-2.85605E-14
 -1       300 3.38347E+01 3.47410E+00 4.65701E-01-6.90462E+00 3.02647E-13-2.54685E-13
 -1       301 2.30816E+01 6.01521E-01 7.25000E-02-7.61063E+00 2.14773E-13-3.44641E-13
 -1       302 1.37248E+01-4.06048E+00-3.01840E-01-6.48586E+00-8.46268E-14-3.28140E-13
 -1       303 5.30300E+00-7.58731E+00-5.87585E-01-4.75712E+00-3.23075E-13-4.13863E-13
 -1       304 3.85292E-02-1.04108E+01-8.26982E-01-2.20419E+00-3.56604E-13-4.29864E-13
 -1       305-1.06869E+00-9.63864E+00-6.41100E-01 2.79984E-01-4.00787E-13-3.21465E-13
 -1       306 1.12625E+00-1.00611E+01-8.34404E-01 2.49641E+00-4.98657E-13-2.67786E-13
 -1       307 6.67369E+00-7.07824E+00-6.80459E-01 4.41151E+00-6.15175E-13 2.44305E-13
 -1       308 1.55217E+01-2.91668E+00-2.92432E-01 6.37522E+00-2.55740E-13 1.65284E-13
 -1       309 2.61045E+01 8.13775E-01 1.47407E-01 7.21229E+00-1.74499E-13 2.99261E-13
 -1       310 3.64477E+01 3.65292E+00 5.58349E-01 5.95653E+00 1.22364E-13 5.96245E-13
 -1       311 4.48614E+01 5.84181E+00 9.75279E-01 3.90188E+00-6.75571E-14 8.83210E-13
 -1       312 4.85448E+01 6.77705E+00 1.13965E+00 2.93626E-01 6.22835E-14 7.29382E-13
 -1       313 4.64249E+01 6.81929E+00 1.02103E+00-3.24167E+00-1.91569E-13 5.26842E-13
 -1       314 4.07371E+01 5.30107E+00 8.38765E-01-6.62478E+00-6.30914E-13 5.93775E-13
 -1       315 3.09146E+01 2.27784E+00 3.59715E-01-7.52607E+00-5.43440E-13 8.11240E-13
 -1       316 2.07068E+01-2.32969E+00-7.31393E-02-7.26459E+00-3.92075E-13 4.15529E-13
 -1       317 9.87949E+00-6.01139E+00-5.11846E-01-5.90429E+00-7.47569E-13 1.62453E-13
 -1       318 2.60756E+00-9.95160E+00-9.07808E-01-3.40172E+00-5.48533E-13 4.78048E-13
 -1       319-9.25164E-01-1.19289E+01-1.02666E+00-1.22293E+00-4.69333E-13 3.56465E-13
 -1       320 2.01365E+01 3.00080E+00-2.19703E-02-2.09731E+00-3.94145E-13-2.01191E-13
 -1       321 2.07567E+01 2.20822E+00-1.76859E-02-2.36441E+00-4.31764E-13 3.50067E-14
 -1       322 1.95835E+01 3.69148E+00-1.55898E-02-1.31733E+00-2.31035E-13-4.45480E-13
 -1       323 1.94602E+01 3.84848E+00-1.37074E-02-9.23779E-01-1.49501E-13-4.93171E-13
 -1       324 1.93913E+01 3.93927E+00-1.27143E-02-5.43985E-01-5.47451E-14-5.00554E-13
 -1       325 1.93608E+01 3.98058E+00-1.22952E-02-1.73289E-01 2.51342E-14-5.22272E-13
 -1       326 1.93622E+01 3.97897E+00-1.23130E-02 1.94432E-01 8.79874E-14-5.11974E-13
 -1       327 1.93956E+01 3.93409E+00-1.27593E-02 5.65469E-01 1.65208E-13-5.02457E-13
 -1       328 1.94663E+01 3.84083E+00-1.37664E-02 9.39464E-01 2.26086E-13-4.64994E-13
 -1       329 1.95932E+01 3.67861E+00-1.56536E-02 1.33353E+00 3.18692E-13-3.81505E-13
 -1       330 1.98087E+01 3.40993E+00-1.88307E-02 1.73881E+00 4.11644E-13-2.85853E-13
 -1       331 2.01793E+01 2.95518E+00-2.29400E-02 2.12737E+00 4.57194E-13-1.23833E-13
 -1       332 2.07491E+01 2.12942E+00-3.04697E-02 2.32232E+00 4.57869E-13 1.95255E-13
 -1       333 2.10956E+01 1.18772E+00-2.49237E-02 1.92205E+00 4.05289E-13 5.00036E-13
 -1       334 2.03919E+01 4.89261E-01 8.33160E-03 9.27494E-01 3.32686E-13 3.76736E-13
 -1       335 2.04586E+01 6.75015E-01 1.25717E-02-1.02512E+00-3.34472E-13 9.44269E-14
 -1       336 2.00364E+01 3.37133E-01 7.18711E-03-4.57952E-01-2.63841E-13 5.28938E-14
 -1       337 1.97823E+01 1.76396E-01 4.13984E-03-1.49209E-01-1.62224E-13 1.68204E-14
 -1       338 1.96467E+01 9.03760E-02 1.86542E-03 2.18709E-02-1.17672E-13-2.27874E-14
 -1       339 1.95911E+01 4.12431E-02 7.78652E-04 1.12934E-01-1.04869E-13-4.02786E-14
 -1       340 1.95856E+01 1.22692E-02 2.68454E-04 1.55997E-01-1.05865E-13-8.45368E-14
 -1       341 1.96093E+01-4.68107E-03 1.37243E-05 1.70004E-01-5.60888E-14-7.39111E-14
 -1       342 1.96486E+01-1.40473E-02-1.19251E-04 1.66761E-01-6.34081E-14-6.35480E-14
 -1       343 1.96943E+01-1.84755E-02-1.84219E-04 1.53925E-01-5.70587E-14-9.27496E-14
 -1       344 1.97411E+01-1.96409E-02-2.06613E-04 1.36572E-01-6.67894E-14-1.18580E-13
 -1       345 1.97860E+01-1.86330E-02-2.00882E-04 1.18112E-01-5.10142E-14-1.52385E-13
 -1       346 1.98274E+01-1.61545E-02-1.76002E-04 1.00864E-01 4.79773E-15-1.12218E-13
 -1       347 1.98654E+01-1.26331E-02-1.37431E-04 8.64449E-02-6.25920E-14-9.06872E-14
 -1       348 1.99005E+01-8.29057E-03-8.80745E-05 7.60558E-02-5.24120E-14-1.56606E-13
 -1       349 1.99343E+01-3.18871E-03-2.88917E-05 7.06964E-02-4.11785E-14-1.74862E-13
 -1       350 1.99685E+01 2.73822E-03 4.06926E-05 7.13300E-02-2.12674E-14-1.94257E-13
 -1       351 2.00058E+01 9.65883E-03 1.22463E-04 7.90139E-02-4.14784E-15-1.98344E-13
 -1       352 2.00491E+01 1.78242E-02 2.19124E-04 9.50000E-02-1.04325E-13-1.98135E-13
 -1       353 2.01019E+01 2.75464E-02 3.33967E-04 1.20809E-01-2.64407E-15-2.67484E-13
 -1       354 2.01683E+01 3.91697E-02 4.70353E-04 1.58271E-01 1.46802E-13-2.87090E-13
 -1       355 2.02531E+01 5.30210E-02 6.30810E-04 2.09523E-01 1.26946E-13-1.11666E-13
 -1       356 2.03614E+01 6.93187E-02 8.15366E-04 2.76918E-01 3.82922E-14-1.62027E-13
 -1       357 2.04992E+01 8.80025E-02 1.01852E-03 3.62813E-01 7.05623E-14-1.39436E-13
 -1       358 2.06726E+01 1.08420E-01 1.22397E-03 4.69098E-01 1.03803E-13-2.52313E-13
 -1       359 2.08879E+01 1.28765E-01 1.39595E-03 5.96325E-01 1.00414E-14 2.25577E-15
 -1       360 2.11507E+01 1.45137E-01 1.46676E-03 7.42142E-01-1.32815E-13 4.24968E-14
 -1       361 2.14660E+01 1.50061E-01 1.32190E-03 8.98677E-01 3.03829E-14-6.68589E-14
 -1       362 2.18368E+01 1.30486E-01 7.90396E-04 1.04843E+00 2.77203E-15-2.35627E-13
 -1       363 2.22636E+01 6.58838E-02-3.40794E-04 1.15849E+00-9.94702E-14-2.23231E-13
 -1       364 2.27441E+01-7.13490E-02-2.24650E-03 1.17396E+00-9.57843E-14 1.45261E-14
 -1       365 2.32694E+01-3.07688E-01-4.90396E-03 1.01408E+00 5.82114E-14 1.73474E-13
 -1       366 2.38151E+01-6.42290E-01-7.64964E-03 5.80783E-01-3.26562E-16 9.20784E-14
 -1       367 2.43166E+01-9.95165E-01-9.33736E-03-2.00076E-01 9.50698E-14-1.15032E-13
 -1       368 2.46378E+01-1.15080E+00-8.99708E-03-1.28095E+00-1.78330E-13-1.86006E-13
 -1       369 2.45797E+01-7.92239E-01-9.52557E-03-2.34749E+00-7.92367E-14-1.00904E-13
 -1       370 2.40454E+01 2.24507E-01-9.56611E-03-2.76430E+00-1.31308E-13-2.29199E-13
 -1       371 2.32665E+01 1.47641E+00-1.73199E-02-1.98605E+00 4.76199E-14-2.59250E-13
 -1       372 2.28634E+01 1.96395E+00-2.28442E-02-1.84818E-01-2.70495E-14-1.99671E-13
 -1       373 2.30992E+01 1.26521E+00-1.89865E-02 1.49568E+00-2.70378E-13-1.82167E-13
 -1       374 2.35973E+01-2.70707E-04-1.05753E-02 2.04701E+00-1.36626E-13-1.20683E-13
 -1       375 2.37961E+01-9.18729E-01-7.42639E-03 1.44570E+00 2.33453E-13-2.81710E-13
 -1       376 2.35149E+01-1.15225E+00-8.35490E-03 3.37730E-01 2.95078E-13-4.96720E-14
 -1       377 2.29051E+01-8.99778E-01-7.78945E-03-6.76636E-01 2.27978E-13-3.33642E-13
 -1       378 2.21664E+01-4.54318E-01-5.05060E-03-1.30607E+00 3.01111E-14-1.60864E-13
 -1       379 2.14344E+01 1.43821E-02-1.14776E-03-1.48851E+00-2.13911E-13-2.80712E-13
 -1       380 2.08514E+01 3.72457E-01 4.10104E-03-1.28475E+00 2.09174E-13-3.79162E-13
 -1       381 1.98901E+01 2.28441E-01 1.07952E-02 3.98894E-01 2.60912E-13 2.70437E-13
 -1       382 1.96014E+01 1.15273E-01 6.17452E-03 1.20295E-01 2.15901E-13 1.96755E-13
 -1       383 1.94666E+01 5.75664E-02 2.80641E-03-2.84193E-02 1.41214E-13 1.40717E-13
 -1       384 1.94265E+01 2.56607E-02 1.17576E-03-1.05152E-01 6.15197E-14 4.60073E-14
 -1       385 1.94420E+01 7.20040E-03 4.46894E-04-1.40208E-01 6.65637E-14 1.51078E-15
 -1       386 1.94877E+01-3.48857E-03 1.00142E-04-1.50549E-01 1.31526E-13 2.56713E-14
 -1       387 1.95476E+01-9.35998E-03-8.01869E-05-1.46425E-01 9.30965E-14-2.32287E-14
 -1       388 1.96119E+01-1.21241E-02-1.73325E-04-1.34349E-01-4.65344E-14-5.78587E-15
 -1       389 1.96747E+01-1.28482E-02-2.12768E-04-1.18585E-01 4.93522E-14 5.75226E-14
 -1       390 1.97328E+01-1.22235E-02-2.16617E-04-1.01968E-01 2.27890E-14 5.91811E-14
 -1       391 1.97850E+01-1.06977E-02-1.96197E-04-8.64018E-02 1.40502E-13-3.07730E-14
 -1       392 1.98314E+01-8.54828E-03-1.58717E-04-7.31909E-02 1.25174E-13-3.22473E-15
 -1       393 1.98730E+01-5.92772E-03-1.08473E-04-6.32772E-02-3.30437E-14 3.47027E-14
 -1       394 1.99116E+01-2.89497E-03-4.76479E-05-5.74104E-02 4.96436E-14-3.98283E-14
 -1       395 1.99494E+01 5.60447E-04 2.30694E-05-5.62754E-02 4.01849E-14-4.84401E-14
 -1       396 1.99893E+01 4.49632E-03 1.03911E-04-6.05822E-02 2.99018E-14 5.06470E-14
 -1       397 2.00346E+01 8.99491E-03 1.95437E-04-7.11197E-02-1.21069E-14-8.06601E-14
 -1       398 2.00891E+01 1.41352E-02 2.97785E-04-8.87704E-02 3.46283E-15-1.43442E-13
 -1       399 2.01570E+01 1.99549E-02 4.09683E-04-1.14475E-01-4.41823E-14-2.15435E-13
 -1       400 2.02431E+01 2.63952E-02 5.27042E-04-1.49129E-01 2.81214E-13-2.10443E-13
 -1       401 2.03524E+01 3.32184E-02 6.40989E-04-1.93379E-01 2.05724E-13-1.81911E-13
 -1       402 2.04899E+01 3.98850E-02 7.35243E-04-2.47275E-01-1.40977E-13-1.60384E-13
 -1       403 2.06602E+01 4.53786E-02 7.82941E-04-3.09724E-01-8.39042E-14-1.62223E-13
 -1       404 2.08668E+01 4.79696E-02 7.43657E-04-3.77662E-01 7.32897E-14-2.08859E-13
 -1       405 2.11106E+01 4.49358E-02 5.62493E-04-4.44898E-01 1.12887E-13 1.47447E-14
 -1       406 2.13886E+01 3.23246E-02 1.75038E-04-5.00642E-01-6.18994E-14 1.79883E-13
 -1       407 2.16914E+01 4.98628E-03-4.76007E-04-5.27929E-01-3.56933E-14 3.73625E-14
 -1       408 2.20012E+01-4.26338E-02-1.40566E-03-5.02624E-01-2.55904E-14 1.87161E-13
 -1       409 2.22882E+01-1.14124E-01-2.53373E-03-3.94498E-01-6.31587E-14 1.35706E-14
 -1       410 2.25097E+01-2.06203E-01-3.62988E-03-1.73024E-01-1.80691E-13 1.79138E-13
 -1       411 2.26100E+01-3.01267E-01-4.32455E-03 1.78737E-01-1.40654E-13 2.32160E-13
 -1       412 2.25271E+01-3.60309E-01-4.07820E-03 6.40429E-01 7.84407E-14 1.78126E-13
 -1       413 2.22114E+01-3.25561E-01-2.52269E-03 1.12607E+00 1.93786E-13 2.44181E-13
 -1       414 2.16623E+01-1.50378E-01-2.29052E-04 1.47349E+00 2.13944E-13 1.62900E-13
 -1       415 2.09718E+01 1.49181E-01 1.80256E-03 1.49250E+00 1.49595E-13 8.20841E-14
 -1       416 2.03329E+01 4.59596E-01 2.65562E-03 1.07677E+00 1.11985E-13-1.43617E-13
 -1       417 1.99713E+01 6.10153E-01 3.89271E-03 3.26110E-01 5.84238E-14-1.20565E-13
 -1       418 1.99990E+01 5.07517E-01 5.51198E-03-4.58053E-01 5.08244E-14-1.16084E-13
 -1       419 2.03323E+01 2.14162E-01 4.46710E-03-9.51640E-01 8.89740E-15-1.76294E-13
 -1       420 2.07544E+01-1.00791E-01 1.77066E-03-1.00988E+00-7.98200E-14 1.19881E-13
 -1       421 2.10602E+01-2.98171E-01-1.31132E-03-7.12884E-01 1.72906E-14 3.11107E-14
 -1       422 2.11480E+01-3.35858E-01-3.27001E-03-2.63467E-01 2.15761E-13 1.70641E-13
 -1       423 2.10243E+01-2.48992E-01-3.56484E-03 1.41878E-01-4.26766E-14 1.13154E-13
 -1       424 2.07574E+01-9.42471E-02-2.16412E-03 3.77492E-01 2.43045E-14 1.95428E-13
 -1       425 2.04397E+01 6.72664E-02-5.02103E-04 3.96633E-01 6.72067E-14 2.60868E-13
 -1       426 2.02566E+01 1.57719E-01 1.35580E-03 3.26378E-01 3.10207E-14 4.23649E-13
 -1       427 2.04394E+01 8.82852E-01 3.58904E-03 1.40492E+00-9.55547E-14 3.52337E-13
 -1       428 2.04316E+01 4.92407E-01 2.99657E-03 9.52363E-01 5.29419E-14 2.78533E-13
 -1       429 2.03404E+01 3.13959E-01 2.78562E-03 6.02760E-01-3.44851E-14-2.09460E-14
 -1       430 2.03231E+01 1.43356E+00 2.01290E-03 1.80684E+00-1.83848E-13-4.61530E-13
 -1       431 2.00427E+01 2.14821E+00-1.09020E-03 2.01613E+00-3.02442E-13 4.73004E-14
 -1       432 1.96360E+01 2.92377E+00-4.37150E-03 1.86269E+00-1.02865E-13-2.29754E-13
 -1       433 1.92279E+01 3.58666E+00-6.72752E-03 1.26474E+00-1.51769E-13 8.40543E-14
 -1       434 1.89892E+01 3.93769E+00-7.78385E-03 3.06421E-01-2.23276E-13-1.12030E-13
 -1       435 1.90353E+01 3.85263E+00-7.46841E-03-7.59408E-01-3.02024E-13 1.53647E-13
 -1       436 1.93336E+01 3.37164E+00-5.84606E-03-1.61418E+00 8.52356E-15 2.15342E-13
 -1       437 1.97561E+01 2.63695E+00-3.03676E-03-2.08282E+00 1.98880E-13 5.91817E-13
 -1       438 2.01486E+01 1.85165E+00 9.88132E-04-2.11590E+00 2.92808E-13-5.30089E-14
 -1       439 2.04286E+01 1.16594E+00 5.38020E-03-1.81676E+00 2.30026E-13-2.71052E-13
 -1       440 1.08980E+01-6.14710E+00-1.09593E-02 7.47735E+00 2.99885E-13 1.26227E-12
 -1       441 1.47070E+00-4.78753E+00-2.97498E-02 3.82224E-02 1.39583E-13 6.13898E-13
 -1       442 4.81740E+00-5.24472E+00 1.19493E-02 5.20727E+00 1.29508E-13 9.63882E-13
 -1       443 2.13650E+01-6.01495E+00 2.31043E-02 6.90537E+00 2.12219E-13 9.39457E-13
 -1       444 2.81427E+01-3.65624E+00-1.46168E-02 4.38121E+00 3.97390E-13 3.08753E-13
 -1       445 1.97906E+01 3.43308E+00-1.86928E-02-1.72014E+00-3.12525E-13-3.67548E-13
 -1       446 3.56635E+01 6.06624E+00 2.21929E-02 9.47018E-02 9.11493E-13 1.70058E-13
 -1       447 3.61329E+01 8.31837E+00 4.19268E-02 2.45135E-01 6.88560E-13-5.09610E-14
 -1       448 3.54500E+01 7.11254E+00-1.34865E-02 6.37698E-01 3.27585E-13 1.00323E-13
 -1       449 3.38853E+01 2.42263E+00 2.09956E-02-6.50997E-01 8.72635E-14-3.70953E-14
 -1       450 2.95493E+01-1.82966E+00 1.42338E-02-3.33576E+00-1.87177E-13 2.42306E-14
 -1       451 2.29587E+01-4.87791E+00-4.35204E-03-5.79949E+00-4.46726E-13 1.45967E-13
 -1       452 1.46907E+01-6.05999E+00 3.16327E-02-7.33242E+00-4.09964E-13-7.14533E-14
 -1       453 5.97217E+00-5.20576E+00-3.28931E-03-5.81147E+00-4.30239E-13-3.65069E-13
 -1       454 2.12061E+00-4.32999E+00 3.05125E-02-2.44580E+00-7.65429E-14-3.11084E-13
 -1       455 2.56205E+00-5.14038E+00-3.51841E-02 3.21298E+00-1.28779E-13-1.34753E-13
 -1       456 8.20313E+00-6.01878E+00-5.16599E-02 6.21694E+00-1.95177E-13 3.75394E-14
 -1       457 1.64563E+01-6.35399E+00-3.50473E-02 6.70539E+00-4.08340E-13 1.95635E-13
 -1       458 2.53162E+01-5.17307E+00-7.15756E-03 4.51571E+00-2.89699E-13 5.15074E-13
 -1       459 3.05040E+01-2.08357E+00-1.89863E-02 1.94143E+00-1.50525E-13 4.06897E-13
 -1       460 3.52433E+01 3.62422E+00 5.90310E-02-4.52090E-01-1.50491E-13 5.00960E-13
 -1       461 3.72275E+01 7.17730E+00 9.63474E-02-8.05689E-01 1.43496E-14 5.39221E-13
 -1       462 3.64540E+01 8.07191E+00 3.39079E-02-3.22406E-01-8.46268E-14 5.81191E-13
 -1       463 3.54421E+01 5.31434E+00 1.04405E-02 1.40363E-01-3.92381E-13 3.83304E-13
 -1       464 3.39711E+01 1.18613E+00 7.58014E-02-1.99104E+00-5.53170E-13 2.62984E-13
 -1       465 2.84153E+01-3.44469E+00 1.72717E-02-4.46379E+00-8.02275E-14 7.88605E-13
 -1       466 1.99662E+01-6.48901E+00-4.23072E-03-7.11972E+00-2.46858E-13-1.76928E-13
 -1       467 1.04527E+01-6.49747E+00-7.09923E-02-7.25862E+00-1.30979E-13 1.40957E-13
 -1       468 3.68889E+00-6.06425E+00-1.16833E-01-4.62836E+00-1.56708E-13 3.37938E-13
 -1       469 3.31377E+01 1.38478E+00-1.68642E-02 7.68082E-01 6.93882E-13-7.48290E-14
 -1       470 3.19457E+01 4.35319E+00-1.23331E-01 1.76131E+00 2.72546E-13 3.18440E-13
 -1       471 3.68531E+00-2.28626E+00 1.69545E-01 4.24520E-01 3.59183E-14-2.34285E-13
 -1       472 2.03732E+01 8.31908E-01 4.01072E-03 9.72235E-01 3.29096E-13 3.75763E-14
 -1       473 1.97329E+01 3.10368E+00-5.40521E-03-6.34152E-01-1.01087E-13-4.19009E-13
 -1       474 1.98288E+01 2.93056E+00-5.98527E-03-9.50960E-01-1.84957E-13-4.00703E-13
 -1       475 1.96654E+01 3.22635E+00-5.02581E-03 8.82610E-03 5.22856E-14-4.67461E-13
 -1       476 1.96839E+01 3.19337E+00-5.10508E-03 3.30536E-01 1.24433E-13-4.64603E-13
 -1       477 1.97376E+01 3.09659E+00-5.41538E-03 6.46019E-01 1.86260E-13-4.32901E-13
 -1       478 1.98361E+01 2.91878E+00-5.94656E-03 9.61700E-01 2.71366E-13-3.56268E-13
 -1       479 1.99914E+01 2.63376E+00-6.52792E-03 1.25692E+00 3.43111E-13-2.69437E-13
 -1       480 2.02335E+01 2.18767E+00-5.70382E-03 1.50171E+00 3.93587E-13-1.91196E-13
 -1       481 2.01114E+01 4.53459E-01 5.07505E-03 4.64432E-01 2.79890E-13 3.19968E-14
 -1       482 2.03408E+01 9.73666E-01 2.87789E-03-9.39080E-01-3.01657E-13-1.06022E-13
 -1       483 2.01704E+01 5.46409E-01 2.30106E-03-4.68008E-01-2.23779E-13-9.18315E-14
 -1       484 2.00240E+01 3.03414E-01 9.41068E-04-1.67048E-01-1.31623E-13-1.07411E-13
 -1       485 1.99232E+01 1.61458E-01 4.21588E-04 1.43411E-02-1.49878E-13-1.07567E-13
 -1       486 1.98643E+01 7.51691E-02 1.50364E-04 1.16809E-01-1.24548E-13-1.16831E-13
 -1       487 1.98368E+01 2.25243E-02 2.07344E-05 1.68084E-01-8.44867E-14-8.97797E-14
 -1       488 1.98306E+01-8.78553E-03-4.67250E-05 1.86785E-01-4.59684E-14-8.15319E-14
 -1       489 1.98379E+01-2.61149E-02-8.11008E-05 1.85566E-01-7.29982E-14-8.82866E-14
 -1       490 1.98530E+01-3.41203E-02-9.50973E-05 1.73072E-01-9.12128E-14-6.62614E-14
 -1       491 1.98720E+01-3.58488E-02-9.55600E-05 1.55247E-01-5.40837E-14-2.44780E-14
 -1       492 1.98927E+01-3.33100E-02-8.68825E-05 1.36194E-01 1.54600E-14 4.61988E-14
 -1       493 1.99138E+01-2.77952E-02-7.18657E-05 1.18785E-01 8.30887E-16-6.01695E-14
 -1       494 1.99349E+01-2.00705E-02-5.21258E-05 1.05098E-01-1.05095E-13-5.73358E-14
 -1       495 1.99562E+01-1.05029E-02-2.83778E-05 9.67418E-02-7.95077E-14-4.24074E-14
 -1       496 1.99783E+01 8.51464E-04-5.96455E-07 9.51133E-02-1.10884E-13-1.04157E-13
 -1       497 2.00024E+01 1.41807E-02 3.18174E-05 1.01586E-01-1.27033E-13-2.27348E-13
 -1       498 2.00298E+01 2.98643E-02 6.99341E-05 1.17658E-01-1.21151E-13-3.43534E-13
 -1       499 2.00622E+01 4.84235E-02 1.15175E-04 1.45055E-01 3.92952E-15-2.00505E-13
 -1       500 2.01015E+01 7.04638E-02 1.69160E-04 1.85799E-01 1.11650E-13-1.58564E-13
 -1       501 2.01498E+01 9.65907E-02 2.33459E-04 2.42213E-01 1.81164E-13-2.63478E-13
 -1       502 2.02094E+01 1.27270E-01 3.09127E-04 3.16866E-01 1.30380E-13-2.64335E-13
 -1       503 2.02828E+01 1.62580E-01 3.95831E-04 4.12396E-01 7.80263E-14-1.36803E-13
 -1       504 2.03722E+01 2.01776E-01 4.90251E-04 5.31163E-01-1.01929E-14-1.81313E-13
 -1       505 2.04803E+01 2.42529E-01 5.83273E-04 6.74611E-01 1.12855E-13-1.18688E-13
 -1       506 2.06099E+01 2.79649E-01 6.55369E-04 8.42199E-01 2.94542E-14-1.44536E-13
 -1       507 2.07650E+01 3.03060E-01 6.69703E-04 1.02966E+00-7.56623E-14 1.19135E-13
 -1       508 2.09527E+01 2.94860E-01 5.63742E-04 1.22626E+00-8.52795E-14 7.18651E-14
 -1       509 2.11868E+01 2.25791E-01 2.41538E-04 1.41080E+00-5.60849E-14 1.99491E-14
 -1       510 2.14930E+01 5.28332E-02-4.24505E-04 1.54570E+00 7.89590E-14 2.19633E-13
 -1       511 2.19152E+01-2.76907E-01-1.53189E-03 1.56941E+00 4.53145E-14 2.58027E-13
 -1       512 2.25155E+01-8.04573E-01-3.18331E-03 1.38792E+00-1.88563E-14 2.09159E-13
 -1       513 2.33516E+01-1.49738E+00-4.61308E-03 8.72908E-01-1.79346E-14 2.53737E-13
 -1       514 2.44014E+01-2.13332E+00-6.31921E-03-9.83974E-02-3.57058E-14 1.14631E-13
 -1       515 2.54514E+01-2.19318E+00-1.14273E-02-1.51241E+00-1.51455E-13 3.21921E-13
 -1       516 2.60485E+01-1.02337E+00-2.15732E-02-2.93977E+00-3.14117E-13 3.54196E-14
 -1       517 2.55645E+01 1.52575E+00-1.06316E-01-3.25145E+00-1.40596E-13 1.66750E-16
 -1       518 2.52421E+01 3.64447E+00-9.17723E-02-1.49785E+00-1.63744E-13-1.83934E-13
 -1       519 2.52306E+01 3.43020E+00-8.66262E-02 9.98299E-01 4.70908E-14-2.83568E-13
 -1       520 2.56337E+01 1.01804E+00-5.96287E-02 2.29624E+00 3.05797E-14-2.17465E-14
 -1       521 2.56027E+01-1.33961E+00-2.75170E-02 1.76231E+00-2.26380E-13-8.54269E-14
 -1       522 2.47897E+01-2.26080E+00-9.18812E-03 3.29498E-01 1.87881E-13-1.08148E-13
 -1       523 2.36116E+01-2.00270E+00-4.19340E-03-9.95612E-01-2.80590E-14-2.28154E-13
 -1       524 2.24801E+01-1.21072E+00-2.65940E-03-1.81939E+00 8.23357E-14-4.01039E-13
 -1       525 2.15841E+01-3.34334E-01 8.00937E-05-2.11232E+00-1.53262E-13-6.91924E-13
 -1       526 1.08276E+01-3.57598E+00 1.50779E-01 6.53814E+00 4.37081E-14 1.28027E-12
 -1       527 1.98089E+01 1.28768E-01 1.00043E-03-1.90486E-02 1.51228E-13-3.14032E-14
 -1       528 1.97508E+01 5.93601E-02 3.63981E-04-1.17432E-01 1.22444E-13-9.72520E-14
 -1       529 1.97318E+01 1.76790E-02 8.35836E-05-1.65487E-01 8.78730E-14-1.70138E-13
 -1       530 1.97376E+01-6.92240E-03-5.19358E-05-1.82177E-01 9.19047E-14-1.32428E-13
 -1       531 1.97580E+01-2.05192E-02-1.20304E-04-1.79914E-01 2.62844E-14-5.24323E-14
 -1       532 1.97857E+01-2.68518E-02-1.50240E-04-1.67008E-01 3.21685E-14-1.51231E-13
 -1       533 1.98164E+01-2.83333E-02-1.55511E-04-1.49086E-01 6.38537E-14-1.77442E-13
 -1       534 1.98473E+01-2.65470E-02-1.44347E-04-1.29988E-01 7.81701E-14-1.42367E-13
 -1       535 1.98771E+01-2.25160E-02-1.22024E-04-1.12364E-01 8.89051E-14-7.55097E-14
 -1       536 1.99055E+01-1.68643E-02-9.17700E-05-9.80944E-02 3.23684E-14-3.47104E-14
 -1       537 1.99329E+01-9.92126E-03-5.53118E-05-8.85918E-02 4.26809E-15-3.06909E-14
 -1       538 1.99603E+01-1.79824E-03-1.33034E-05-8.50282E-02 7.42039E-14-9.61996E-14
 -1       539 1.99891E+01 7.54751E-03 3.43244E-05-8.84957E-02 3.49214E-15-1.20868E-13
 -1       540 2.00211E+01 1.82519E-02 8.80514E-05-1.00113E-01-1.37966E-14-7.68437E-14
 -1       541 2.00586E+01 3.04774E-02 1.48358E-04-1.21079E-01-1.89080E-14-5.41397E-14
 -1       542 2.01039E+01 4.43285E-02 2.15231E-04-1.52658E-01 8.70288E-14-1.65253E-13
 -1       543 2.01600E+01 5.97364E-02 2.87473E-04-1.96094E-01 9.95368E-14-4.04038E-13
 -1       544 2.02299E+01 7.62929E-02 3.61705E-04-2.52410E-01 1.17615E-13-1.09316E-13
 -1       545 2.03167E+01 9.30099E-02 4.30973E-04-3.22062E-01 1.38474E-14 2.47499E-14
 -1       546 2.04239E+01 1.07978E-01 4.82876E-04-4.04392E-01-1.58619E-14-1.24431E-13
 -1       547 2.05548E+01 1.17907E-01 4.97327E-04-4.96805E-01 4.39983E-14-2.17389E-13
 -1       548 2.07123E+01 1.17554E-01 4.44451E-04-5.93604E-01-5.42666E-14-1.63887E-13
 -1       549 2.08992E+01 9.91531E-02 2.83911E-04-6.84458E-01-4.27492E-14-1.07277E-13
 -1       550 2.11178E+01 5.21631E-02-3.16127E-05-7.52563E-01-3.08316E-14-1.87719E-13
 -1       551 2.13691E+01-3.59435E-02-5.44507E-04-7.72859E-01-2.01961E-13-1.06882E-13
 -1       552 2.16521E+01-1.76463E-01-1.26299E-03-7.11249E-01-1.73205E-14-9.86793E-14
 -1       553 2.19603E+01-3.71771E-01-2.11860E-03-5.26799E-01-9.10232E-14-1.46061E-13
 -1       554 2.22749E+01-6.01358E-01-2.92235E-03-1.80680E-01-1.55197E-13-7.20368E-14
 -1       555 2.25542E+01-8.03566E-01-3.41462E-03 3.43001E-01-8.55136E-14-4.08806E-14
 -1       556 2.27255E+01-8.64123E-01-2.82673E-03 1.00176E+00 9.79442E-14 5.43822E-14
 -1       557 2.26912E+01-6.36937E-01-4.48902E-04 1.64693E+00 8.72888E-14 9.17600E-14
 -1       558 2.23957E+01-5.94985E-02 9.78237E-04 2.01373E+00 2.58882E-13 1.76628E-13
 -1       559 2.19125E+01 7.30531E-01-2.13823E-04 1.82473E+00 1.10324E-13 1.90129E-13
 -1       560 2.14770E+01 1.35480E+00-3.12411E-03 1.00250E+00 2.16647E-13 3.63128E-13
 -1       561 2.13601E+01 1.40761E+00 1.42343E-03-1.27925E-01-5.39065E-16 9.25144E-14
 -1       562 2.15745E+01 8.55182E-01 1.23524E-03-1.03230E+00 9.55310E-14 1.51886E-13
 -1       563 2.18945E+01 5.93912E-02 6.72076E-04-1.33168E+00-1.98543E-13 1.93656E-13
 -1       564 2.20621E+01-5.65162E-01-1.18765E-03-1.04148E+00-2.59096E-14 1.30757E-13
 -1       565 2.19672E+01-8.10764E-01-2.51960E-03-4.38356E-01 3.87580E-14 2.22442E-13
 -1       566 2.16533E+01-7.11136E-01-3.23984E-03 1.71710E-01 5.76856E-14 5.36918E-13
 -1       567 2.12256E+01-4.02420E-01-2.15029E-03 5.90248E-01 1.43448E-13 3.21496E-13
 -1       568 2.07695E+01-2.16743E-02-7.71816E-05 7.42131E-01-3.28442E-14 2.93503E-13
 -1       569 2.04566E+01 6.89728E-01 5.44838E-04 2.49295E+00-2.36146E-13-1.31263E-13
 -1       570 1.97285E+01 1.32515E+00-1.66023E-03 2.64610E+00-1.98252E-13-2.91833E-14
 -1       571 2.09155E+01 7.30351E-02 2.44817E-03 1.39704E+00 6.39785E-14 1.19176E-13
 -1       572 2.08409E+01 2.79680E-01 2.18082E-03 1.99455E+00-1.61711E-13-8.76748E-14
 -1       573 1.88185E+01 2.06371E+00-2.45968E-03 2.21702E+00-1.21121E-13-2.86458E-13
 -1       574 1.80687E+01 2.65305E+00-1.84453E-03 1.15149E+00-5.10557E-13-2.15896E-13
 -1       575 1.78448E+01 2.82925E+00-1.40685E-03-3.03872E-01-5.24253E-13 3.28407E-14
 -1       576 1.82501E+01 2.52032E+00-1.52623E-03-1.65623E+00-2.56440E-13 4.52822E-13
 -1       577 1.90843E+01 1.87647E+00-1.84852E-03-2.53579E+00-1.47577E-13 3.94905E-13
 -1       578 1.99628E+01 1.17733E+00 2.23315E-04-2.78280E+00 1.01903E-13 2.53275E-13
 -1       579 2.06239E+01 6.35172E-01-3.17693E-03-2.49175E+00-7.15714E-14-3.07687E-13
 -1       580 5.58658E+00-2.36362E+00 1.70468E-01-3.08231E+00 1.65926E-13 3.49415E-13
 -1       581 1.99239E+01 2.46173E-01 2.45755E-03 1.59230E-01 2.26563E-13 1.58669E-14
 -1       582 1.88762E+01-5.89517E+00 9.49940E-02 7.25816E+00-8.64656E-14 4.41047E-13
 -1       583 2.61492E+01-5.76917E+00 1.45550E-02 4.15195E+00 1.91028E-14-5.86437E-13
 -1       584 2.03902E+01 1.75485E+00-5.26293E-03-1.52218E+00-3.73260E-13-1.43887E-13
 -1       585 1.02445E+01-3.92895E+00 1.50940E-01-6.52278E+00 2.82462E-13 2.21337E-13
 -1       586 2.24309E+01-6.23049E+00 2.28278E-02 4.88015E+00-3.08940E-13 4.34430E-13
 -1       587 1.27184E+01-3.90043E+00 1.51224E-01-6.62499E+00-2.93564E-13-3.56409E-13
 -1       588 1.96810E+01 3.19774E+00-5.11508E-03-3.12996E-01-1.30952E-14-4.57020E-13
 -1       589 3.00607E+01 7.19784E+00-2.04379E-01 9.35510E-01 4.03413E-13 7.20276E-13
 -1       590 8.15380E+00-3.32601E+00 1.50470E-01 5.18733E+00-7.53772E-14-2.26999E-13
 -1       591 3.03969E+01 3.04833E+00-1.38162E-01-1.69290E+00 3.95607E-13-2.93432E-13
 -1       592 3.01424E+01 6.33719E+00-1.89191E-01-1.04740E+00 6.65953E-13 1.63165E-13
 -1       593 3.02099E+01-1.18018E+00-8.83990E-02 2.20497E-01-2.32332E-13 2.21184E-13
 -1       594 2.70934E+01-4.80201E+00-2.38939E-02-2.69587E+00-5.60753E-13 1.05159E-13
 -1       595 2.12284E+01-5.87509E+00 4.33565E-02-5.73714E+00-3.83360E-13 1.41093E-13
 -1       596 6.60605E+00-2.54637E+00 1.57596E-01-4.39176E+00-2.27804E-13-4.00652E-14
 -1       597 3.15998E+01 4.68940E+00-1.27350E-01-2.53137E+00-1.78593E-13 1.39395E-13
 -1       598 1.60800E+01-5.34083E+00 1.19529E-01 6.55141E+00-3.81473E-13 1.45384E-13
 -1       599 2.82073E+01-4.80997E+00-9.92358E-02 1.27285E+00-3.73458E-13 2.41238E-13
 -1       600 3.07687E+01-6.57123E-01-8.10622E-02-2.02223E+00-2.50584E-13 2.24626E-13
 -1       601 3.13398E+01 7.03637E+00-1.72309E-01-1.17780E+00 5.46785E-14-1.91184E-14
 -1       602 3.10787E+01 6.13233E+00-1.68859E-01 1.07151E+00-3.63876E-14 1.23613E-13
 -1       603 3.13290E+01 1.29022E+00-1.33116E-01 1.47521E+00-3.44592E-13 6.08957E-14
 -1       604 3.03311E+01-2.80054E+00-6.37210E-02-6.25726E-01-1.07295E-13 5.67879E-14
 -1       605 2.60460E+01-5.91386E+00-9.04463E-03-4.35278E+00 1.34968E-13 4.28831E-13
 -1       606 1.69205E+01-5.63033E+00 1.05997E-01-7.33843E+00 7.08739E-14-1.00815E-13
 -1       607 5.75266E+00-2.07962E+00 1.83268E-01 2.86482E+00 3.04860E-14 8.06702E-13
 -1       608 2.05851E+01 1.30520E+00-1.00003E-03 1.54810E+00 4.09987E-13 1.00319E-13
 -1       609 2.96225E+01-2.82634E+00-9.38716E-02 5.21619E-01 4.32900E-15-4.84807E-13
 -1       610 1.99802E+01 2.65185E+00-6.51816E-03-1.24505E+00-2.55570E-13-3.53876E-13
 -1       611 2.95825E+01 9.87071E-01-1.16484E-01 2.19308E+00-1.61489E-13 4.41057E-13
 -1       612 2.86098E+01 5.51149E+00-1.50206E-01 2.08624E+00 4.46254E-13 5.33910E-13
 -1       613 2.10984E+01 2.19391E-01 3.84260E-04-2.04861E+00-1.27134E-13-1.84628E-13
 -1       614 2.25092E+01-5.82483E+00 4.36020E-02-5.62966E+00 4.99566E-14 3.55140E-13
 -1       615 2.01657E+01 2.27895E+00-5.77085E-03-1.43675E+00-3.24427E-13-2.66191E-13
 -1       616 1.82202E+01-4.74618E+00 7.04713E-02-6.00283E+00-1.66624E-13-2.10110E-14
 -1       617 7.31522E+00-1.27179E+00 1.83070E-01 2.75680E+00 9.83606E-14-2.50945E-13
 -1       618 6.38794E+00-1.05235E+00 1.71077E-01-1.95542E+00-6.36852E-14 1.40860E-14
 -1       619 1.99606E+01 2.44888E+00-1.58791E-03 3.94373E-01 1.40661E-13-3.87991E-13
 -1       620 1.99288E+01 2.52377E+00-1.52006E-03 1.35860E-01 7.77477E-14-4.13297E-13
 -1       621 2.01204E+01 2.04566E+00-1.58464E-03 8.50738E-01 2.63105E-13-2.52309E-13
 -1       622 2.02394E+01 1.67509E+00-2.21817E-03 9.92202E-01 3.21159E-13-1.95362E-13
 -1       623 2.03190E+01 1.03663E+00 2.86222E-03 8.31944E-01 2.92719E-13-1.36304E-13
 -1       624 2.29843E+01-5.37441E+00 3.63421E-02 5.13399E+00-3.47968E-13-3.72255E-13
 -1       625 2.02401E+01 6.70075E-01-4.36808E-04-3.96032E-01-1.86116E-13-1.45553E-13
 -1       626 2.01675E+01 3.91315E-01 2.02956E-04-1.40801E-01-1.49280E-13-1.85754E-13
 -1       627 2.01017E+01 2.12049E-01 3.60753E-05 2.10818E-02-1.01930E-13-1.69884E-13
 -1       628 2.00515E+01 9.78587E-02 5.30794E-06 1.16023E-01-8.64989E-14-1.44376E-13
 -1       629 2.00165E+01 2.64426E-02-1.46921E-05 1.64787E-01-4.44847E-14-1.13906E-13
 -1       630 1.99942E+01-1.63504E-02-2.57260E-05 1.83128E-01-4.00395E-14-1.11729E-13
 -1       631 1.99815E+01-3.97378E-02-3.10668E-05 1.82497E-01-5.36829E-14-3.22427E-14
 -1       632 1.99758E+01-4.98757E-02-3.21178E-05 1.71113E-01-2.46177E-14 3.96002E-14
 -1       633 1.99748E+01-5.09216E-02-3.01348E-05 1.54820E-01-3.34178E-14 2.68896E-14
 -1       634 1.99772E+01-4.56494E-02-2.60478E-05 1.37768E-01-7.32577E-14-2.19771E-14
 -1       635 1.99820E+01-3.58270E-02-2.04123E-05 1.22941E-01-5.77322E-14-5.62538E-14
 -1       636 1.99886E+01-2.24627E-02-1.35504E-05 1.12571E-01-1.07188E-13-3.53243E-14
 -1       637 1.99967E+01-5.98137E-03-5.51781E-06 1.08458E-01-1.83692E-13-1.02548E-13
 -1       638 2.00062E+01 1.36446E-02 3.77046E-06 1.12217E-01-1.97150E-13-1.69248E-13
 -1       639 2.00174E+01 3.67923E-02 1.45955E-05 1.25459E-01-1.39488E-13-1.14526E-13
 -1       640 2.00302E+01 6.40995E-02 2.73790E-05 1.49929E-01 2.54462E-14-1.63486E-14
 -1       641 2.00451E+01 9.63730E-02 4.26495E-05 1.87587E-01 2.47543E-14-3.93055E-14
 -1       642 2.00619E+01 1.34474E-01 6.10039E-05 2.40644E-01 4.36392E-14-1.35745E-13
 -1       643 2.00808E+01 1.79149E-01 8.30447E-05 3.11531E-01 1.09048E-13-2.81723E-13
 -1       644 2.01013E+01 2.30756E-01 1.09258E-04 4.02798E-01 2.64561E-13-2.01523E-13
 -1       645 2.01231E+01 2.88811E-01 1.39776E-04 5.16905E-01 3.38582E-14-4.83712E-14
 -1       646 2.01452E+01 3.51213E-01 1.73905E-04 6.55885E-01-3.03546E-15-5.38387E-15
 -1       647 2.01672E+01 4.12978E-01 2.09205E-04 8.20832E-01 5.33885E-14 4.41417E-15
 -1       648 2.01901E+01 4.64222E-01 2.39744E-04 1.01119E+00 1.00870E-13-7.92837E-14
 -1       649 2.02184E+01 4.87107E-01 2.52952E-04 1.22376E+00-1.10852E-13-1.65331E-13
 -1       650 2.02648E+01 4.51645E-01 2.26920E-04 1.45132E+00-4.68091E-14-5.07693E-14
 -1       651 2.03580E+01 3.10873E-01 1.26059E-04 1.68021E+00 2.28981E-13 9.69949E-14
 -1       652 2.05542E+01-1.99003E-03-8.93728E-05 1.88546E+00 1.47421E-13 2.10729E-13
 -1       653 2.09516E+01-5.67235E-01-2.37371E-04 2.01968E+00 6.81095E-14 1.92245E-13
 -1       654 2.16976E+01-1.44569E+00-9.06159E-04 1.98648E+00-9.10182E-14 2.61142E-13
 -1       655 2.29689E+01-2.58156E+00-2.29441E-03 1.59773E+00-2.03897E-13 1.74950E-13
 -1       656 2.48308E+01-3.53671E+00-2.39311E-03 5.78218E-01-2.51080E-13 3.70097E-14
 -1       657 2.67547E+01-3.22773E+00-1.32808E-02-1.07146E+00-3.90660E-13-1.08316E-14
 -1       658 2.77508E+01 5.78062E+00-1.64075E-01-1.84885E-01-1.76130E-13 3.20143E-13
 -1       659 2.78494E+01 3.20314E+00-1.56031E-01 2.14249E+00-4.56926E-14 1.04278E-13
 -1       660 2.78310E+01-1.02598E+00-8.83524E-02 1.99374E+00-7.20049E-14-2.01669E-13
 -1       661 2.64153E+01-3.20868E+00-1.84022E-02 1.40963E-01-2.75552E-14 3.18391E-14
 -1       662 2.44748E+01-3.24947E+00-4.58852E-03-1.51443E+00 3.35170E-14 5.10872E-14
 -1       663 2.27763E+01-2.15226E+00-3.03418E-04-2.43371E+00-6.50121E-14-1.77828E-13
 -1       664 2.16148E+01-9.08353E-01-6.93785E-04-2.70649E+00-2.91662E-13-2.96453E-13
 -1       665 2.09979E+01-8.65178E-02 2.40400E-03-2.72369E+00 9.50451E-14-2.94490E-13
 -1       666 2.00264E+01 1.88953E-01 1.73215E-04-2.00929E-02 1.97038E-13-1.02077E-13
 -1       667 1.99251E+01-1.28193E-02-2.86016E-05-1.86836E-01 1.77448E-14-5.25447E-14
 -1       668 1.99208E+01-3.34665E-02-4.39783E-05-1.85813E-01 9.40320E-14-7.05963E-14
 -1       669 1.99237E+01-4.26641E-02-4.99415E-05-1.73757E-01 7.97977E-14-9.74309E-14
 -1       670 1.99312E+01-4.40679E-02-4.92756E-05-1.56589E-01 6.65661E-14-1.52152E-13
 -1       671 1.99414E+01-4.01103E-02-4.40179E-05-1.38464E-01 5.00020E-14-6.99868E-14
 -1       672 1.99531E+01-3.23600E-02-3.55305E-05-1.22332E-01 7.23593E-14 2.32246E-14
 -1       673 1.99660E+01-2.17538E-02-2.45797E-05-1.10351E-01 2.15729E-14-5.20131E-14
 -1       674 1.99799E+01-8.75759E-03-1.15251E-05-1.04209E-01 3.21855E-14-5.99592E-14
 -1       675 1.99951E+01 6.50538E-03 3.51942E-06-1.05351E-01-6.09949E-14 1.02336E-14
 -1       676 2.00123E+01 2.41392E-02 2.07247E-05-1.15153E-01-1.83358E-14 2.32218E-14
 -1       677 2.00321E+01 4.43614E-02 4.03239E-05-1.35015E-01 9.15746E-14-2.75361E-15
 -1       678 2.00556E+01 6.73716E-02 6.25066E-05-1.66399E-01 1.33256E-13-1.49825E-13
 -1       679 2.00840E+01 9.31827E-02 8.72274E-05-2.10790E-01 6.28128E-14-1.09400E-13
 -1       680 2.01186E+01 1.21389E-01 1.13936E-04-2.69559E-01 4.48952E-14-9.72127E-14
 -1       681 2.01612E+01 1.50842E-01 1.41184E-04-3.43713E-01 6.43308E-14-5.01697E-14
 -1       682 2.02138E+01 1.79192E-01 1.66075E-04-4.33482E-01-4.83049E-14-3.83204E-14
 -1       683 2.02790E+01 2.02267E-01 1.83517E-04-5.37699E-01 2.51012E-14-9.07198E-14
 -1       684 2.03606E+01 2.13273E-01 1.85305E-04-6.52924E-01-6.63934E-14-4.78588E-14
 -1       685 2.04642E+01 2.01882E-01 1.59122E-04-7.72241E-01-8.03992E-14 7.69272E-15
 -1       686 2.05982E+01 1.53449E-01 8.76572E-05-8.83683E-01 2.33012E-14 5.70034E-14
 -1       687 2.07753E+01 4.90138E-02-5.11281E-05-9.68245E-01-5.67071E-14-1.13166E-13
 -1       688 2.10134E+01-1.32523E-01-2.81057E-04-9.97614E-01-1.42838E-13-1.25735E-13
 -1       689 2.13343E+01-4.07524E-01-6.03590E-04-9.32117E-01-3.66790E-14 3.35495E-14
 -1       690 2.17578E+01-7.72205E-01-9.86680E-04-7.20620E-01-9.34992E-14 9.87356E-14
 -1       691 2.22841E+01-1.17509E+00-1.49582E-03-3.07583E-01-9.82817E-14-5.23335E-14
 -1       692 2.28672E+01-1.48439E+00-2.45613E-03 3.40167E-01 2.01336E-16-2.00442E-14
 -1       693 2.33800E+01-1.46580E+00-3.00298E-03 1.18840E+00 2.98819E-14 3.74599E-14
 -1       694 2.36235E+01-8.46903E-01-9.59657E-04 2.00034E+00 4.37547E-14-8.49167E-14
 -1       695 2.34409E+01 4.28813E-01-5.68367E-03 2.37099E+00 4.45330E-14 3.04216E-13
 -1       696 2.29616E+01 1.87230E+00-7.18246E-03 1.86412E+00 9.82079E-14 1.67040E-13
 -1       697 2.26539E+01 2.59124E+00-1.70934E-02 5.55458E-01 3.04439E-13 4.92150E-14
 -1       698 2.28302E+01 2.07087E+00-1.69138E-02-8.75884E-01 9.45966E-14-4.12201E-14
 -1       699 2.32205E+01 6.73341E-01-9.34691E-03-1.55245E+00-6.94222E-14-2.84741E-14
 -1       700 2.33932E+01-6.74239E-01-4.68390E-03-1.31313E+00-1.64635E-13-8.67460E-14
 -1       701 2.31459E+01-1.38032E+00-2.50314E-03-5.31187E-01-1.50408E-13-1.89472E-13
 -1       702 2.25697E+01-1.38844E+00-2.41693E-03 3.00404E-01-1.04173E-13-2.12811E-13
 -1       703 2.18820E+01-9.51233E-01-1.30010E-03 8.93950E-01 1.09213E-13-5.80977E-14
 -1       704 2.13954E+01-4.94579E-01 3.71935E-04 1.25446E+00-1.34594E-14 1.24604E-13
 -1       705 1.73217E+01 1.39121E+00 4.73910E-03 2.36525E+00-1.81535E-13-5.05358E-13
 -1       706 2.03724E+01-2.37908E-01 2.05436E-03 3.15852E+00-1.80517E-13 1.00335E-13
 -1       707 1.63532E+01 1.95146E+00 7.62700E-03 6.38189E-01-3.18702E-13-3.11957E-13
 -1       708 1.89233E+01 4.98693E-01 2.40759E-04 3.21717E+00-7.51820E-14-4.80616E-14
 -1       709 2.67597E+01 5.85723E+00-1.53826E-01-9.24338E-02 2.23870E-13 2.31807E-13
 -1       710 1.65448E+01 1.86281E+00 8.08971E-03-1.32956E+00-1.99810E-13 5.75116E-13
 -1       711 1.77906E+01 1.18828E+00 4.35520E-03-2.81377E+00-6.85142E-14 4.46939E-13
 -1       712 1.93969E+01 3.70042E-01-4.74743E-04-3.34658E+00-1.39645E-13 4.28707E-13
 -1       713 2.01049E+01 3.52713E-01 6.09438E-04 1.49777E-01 2.20972E-13-1.08713E-13
 -1       714 2.76145E+01-4.55383E+00-4.42122E-02-1.34413E+00 1.37487E-13 1.80932E-14
 -1       715 2.02887E+01 1.42612E+00 1.87774E-04-9.93961E-01-2.94854E-13-1.83148E-13
 -1       716 2.00976E+01-5.01765E+00 6.71551E-02 5.07726E+00-2.08600E-13 5.27760E-13
 -1       717 2.54052E+01-5.33937E+00 9.77272E-05 1.98593E+00-2.99595E-13 3.40205E-13
 -1       718 1.02628E+01-1.63860E+00 1.55373E-01-4.65164E+00 3.82361E-13 8.24826E-14
 -1       719 1.10764E+01-1.77331E+00 1.51127E-01-4.94625E+00-2.06411E-13-1.63099E-13
 -1       720 1.99407E+01 2.47507E-02 7.91008E-07-1.68374E-01 7.71846E-14-8.41709E-14
 -1       721 1.99726E+01 8.76030E-02 5.61549E-05-1.18424E-01 1.29148E-13-1.10001E-13
 -1       722 2.02761E+01 9.90625E-01 4.99332E-04-6.59580E-01-2.32576E-13-1.73625E-13
 -1       723 2.02056E+01 6.13554E-01 9.75756E-04 4.20935E-01 2.38921E-13-1.26031E-13
 -1       724 2.00243E+01 2.29440E+00-1.65549E-03 6.38187E-01 2.10033E-13-3.38609E-13
 -1       725 2.00191E+01 2.30450E+00-1.65621E-03-6.29252E-01-1.15633E-13-3.15443E-13
 -1       726 1.36784E+01-3.12753E+00 1.07272E-01 5.53081E+00-2.52784E-14-1.74381E-13
 -1       727 2.71048E+01 3.72456E+00-1.29739E-01-1.76800E+00 3.12667E-13 1.27762E-13
 -1       728 2.47433E+01-5.27689E+00 2.01821E-02-3.05655E+00-2.06161E-13 1.31142E-13
 -1       729 1.67774E+01-3.72595E+00 1.05156E-01 6.57995E+00-4.26832E-13 9.88411E-14
 -1       730 2.76777E+01-3.36115E+00-6.68343E-02 2.26257E-01-3.71846E-13 1.81050E-13
 -1       731 2.82587E+01-4.02622E-01-7.80769E-02-1.58385E+00 9.56353E-14-2.36883E-13
 -1       732 2.73235E+01-4.42672E+00-2.81469E-02 1.48853E+00 6.90767E-15-5.68889E-13
 -1       733 8.12047E+00-3.44142E-01 1.66115E-01-2.97472E-01 5.09790E-13 3.13027E-13
 -1       734 1.55672E+01-3.41406E+00 1.21883E-01-6.42013E+00-5.13131E-15 2.97970E-13
 -1       735 1.04867E+01-1.22850E+00 1.34122E-01 4.32852E+00 4.49224E-14 9.13908E-13
 -1       736 2.01158E+01 2.06014E+00-1.13140E-03-8.44808E-01-2.09413E-13-3.17295E-13
 -1       737 1.99280E+01 2.52532E+00-1.52559E-03-1.26594E-01 1.24073E-14-4.30813E-13
 -1       738 2.75584E+01 2.80525E+00-1.22557E-01 2.72843E+00 8.93383E-14 4.46077E-13
 -1       739 2.59279E+01 5.23019E+00-1.14667E-01 1.15529E+00 3.37470E-13 2.26252E-13
 -1       740 2.54083E+01-5.14393E+00 3.17102E-02-3.16293E+00-4.15223E-14 2.35022E-13
 -1       741 2.14206E+01-5.70825E-01 2.19503E-03 1.98429E+00-1.19349E-13-4.05263E-13
 -1       742 2.05905E+01-4.17199E-01 3.11858E-03-3.27470E+00-2.24618E-13 4.08564E-14
 -1       743 2.00958E+01-4.38757E+00 4.31767E-02-5.74521E+00-2.73715E-13 5.00299E-13
 -1       744 2.75718E+01 4.70481E+00-1.91306E-01-2.21191E+00-1.21431E-13 7.29816E-14
 -1       745 1.53001E+01-2.77927E+00 7.92881E-02-5.37302E+00-1.78831E-13-2.66794E-13
 -1       746 1.16852E+01-1.32221E+00 1.21811E-01 4.07842E+00 5.27026E-14-1.46216E-13
 -1       747 8.17282E+00-1.92579E-01 1.39080E-01 4.91730E-01-3.78211E-14-6.57668E-14
 -1       748 1.99574E+01 2.45456E+00-1.59204E-03-3.84618E-01-3.69186E-14-3.75220E-13
 -1       749 2.11184E+01-5.15542E-01 2.66261E-03 2.63621E+00-2.20896E-13-3.50045E-13
 -1       750 2.25501E+01-4.06562E+00 2.98264E-02 2.96864E+00-1.60830E-13 1.42625E-13
 -1       751 2.02718E+01 1.30086E+00 8.42095E-04 6.31278E-01 2.31101E-13-1.86931E-13
 -1       752 1.18388E+01 1.86121E-01 1.01977E-01-2.45593E+00 3.03820E-13 1.59730E-13
 -1       753 1.12816E+01 3.11158E-01 9.22672E-02 1.72935E+00 4.04387E-13 2.02029E-13
 -1       754 2.02624E+01 4.32619E-01 5.42420E-05-9.42561E-02-1.16172E-13-1.65660E-13
 -1       755 2.02223E+01 2.33729E-01-5.71734E-06 3.48110E-02-7.38763E-14-1.08380E-13
 -1       756 2.01810E+01 1.03599E-01-8.00566E-06 1.11909E-01-6.62444E-14-9.76895E-14
 -1       757 2.01437E+01 2.11752E-02-8.74533E-06 1.51668E-01-2.31354E-14-1.04782E-13
 -1       758 2.01120E+01-2.80211E-02-9.17418E-06 1.66216E-01-1.06662E-14-1.07057E-13
 -1       759 2.00864E+01-5.40540E-02-8.81905E-06 1.64959E-01 2.70978E-14-5.66021E-14
 -1       760 2.00662E+01-6.39595E-02-8.05143E-06 1.54913E-01-2.79018E-14-1.53889E-14
 -1       761 2.00507E+01-6.25978E-02-7.10789E-06 1.41201E-01-6.87427E-14-2.90670E-14
 -1       762 2.00390E+01-5.32267E-02-5.98609E-06 1.27547E-01-5.44892E-14-3.07153E-14
 -1       763 2.00305E+01-3.78811E-02-4.62192E-06 1.16695E-01-1.18514E-13-8.55978E-14
 -1       764 2.00243E+01-1.76535E-02-2.86382E-06 1.10766E-01-1.75672E-13-1.20687E-13
 -1       765 2.00195E+01 7.08802E-03-8.85255E-07 1.11532E-01-2.44896E-13-8.87020E-14
 -1       766 2.00155E+01 3.65319E-02 1.33499E-06 1.20622E-01-8.38434E-14 2.30217E-14
 -1       767 2.00112E+01 7.12846E-02 3.89720E-06 1.39675E-01-7.57082E-15 8.99452E-14
 -1       768 2.00055E+01 1.12239E-01 6.93786E-06 1.70440E-01-3.87192E-14 7.26692E-14
 -1       769 1.99972E+01 1.60427E-01 1.06324E-05 2.14827E-01-3.62548E-15-1.80260E-14
 -1       770 1.99844E+01 2.16839E-01 1.52116E-05 2.74902E-01 5.48391E-14 7.79306E-15
 -1       771 1.99648E+01 2.82148E-01 2.09901E-05 3.52830E-01 2.47360E-13 1.75456E-14
 -1       772 1.99358E+01 3.56298E-01 2.84117E-05 4.50776E-01 2.11829E-13-2.05266E-13
 -1       773 1.98938E+01 4.37840E-01 3.81058E-05 5.70757E-01-6.06169E-14-8.67670E-14
 -1       774 1.98353E+01 5.22900E-01 5.08955E-05 7.14523E-01 2.90622E-14-1.58229E-14
 -1       775 1.97569E+01 6.03540E-01 6.75114E-05 8.83528E-01 9.78320E-14-4.11936E-14
 -1       776 1.96574E+01 6.65312E-01 8.74897E-05 1.07916E+00 2.44916E-14 1.12207E-14
 -1       777 1.95405E+01 6.83685E-01 1.07302E-04 1.30346E+00-7.58504E-14 1.70200E-13
 -1       778 1.94210E+01 6.19149E-01 1.33480E-04 1.56039E+00 4.77041E-14 1.36082E-13
 -1       779 1.93350E+01 4.10976E-01 2.09597E-04 1.85685E+00 1.24755E-13-5.33435E-14
 -1       780 1.93576E+01-2.76693E-02 6.64019E-04 2.20016E+00 1.17324E-13-2.37438E-13
 -1       781 1.96261E+01-8.07313E-01 2.55955E-03 2.58891E+00 1.03901E-13-2.78565E-13
 -1       782 2.04087E+01-2.03634E+00 9.81689E-03 2.93173E+00-1.50924E-13-9.46426E-14
 -1       783 2.25557E+01-3.28297E+00 2.62655E-02-3.70850E+00-2.11506E-13-7.58655E-14
 -1       784 2.12838E+01-1.77204E+00-7.80621E-03-3.58038E+00-9.54512E-14-4.91339E-14
 -1       785 2.00898E+01 2.35245E-02-9.81067E-06-1.59424E-01 5.25301E-14-9.84689E-14
 -1       786 2.00622E+01-2.27761E-02-1.23097E-05-1.75449E-01 1.00193E-13-1.70010E-13
 -1       787 2.00186E+01-5.74372E-02-1.30400E-05-1.48456E-01 4.74722E-14-1.17807E-13
 -1       788 2.00130E+01-4.99850E-02-1.11364E-05-1.33175E-01 6.72198E-14-2.27325E-13
 -1       789 2.00101E+01-3.72657E-02-8.55290E-06-1.20483E-01 3.50057E-14-8.28339E-14
 -1       790 2.00094E+01-2.04057E-02-5.28557E-06-1.12537E-01-9.35032E-15-4.62087E-14
 -1       791 2.00104E+01 8.63295E-05-1.60151E-06-1.11089E-01-3.98632E-14 2.94268E-15
 -1       792 2.00126E+01 2.41346E-02 2.65097E-06-1.17698E-01-2.69117E-14-1.05327E-13
 -1       793 2.00157E+01 5.19282E-02 7.53620E-06-1.33874E-01-2.95895E-15-1.00353E-13
 -1       794 2.00196E+01 8.37455E-02 1.31585E-05-1.61163E-01 1.51880E-13-1.88646E-14
 -1       795 2.00239E+01 1.19744E-01 1.96210E-05-2.01166E-01 1.56412E-13 8.20829E-14
 -1       796 2.00287E+01 1.59691E-01 2.69791E-05-2.55491E-01-1.50251E-14 7.10961E-14
 -1       797 2.00341E+01 2.02593E-01 3.51808E-05-3.25609E-01-2.81716E-15 1.79040E-13
 -1       798 2.00407E+01 2.46195E-01 4.39809E-05-4.12627E-01 4.03361E-14 1.89679E-13
 -1       799 2.00498E+01 2.86297E-01 5.28223E-05-5.16924E-01 9.08113E-14 1.20786E-13
 -1       800 2.00643E+01 3.15855E-01 6.06767E-05-6.37655E-01-7.87637E-14 1.03866E-13
 -1       801 2.00895E+01 3.23876E-01 6.58089E-05-7.72071E-01-1.19421E-13 3.49724E-14
 -1       802 2.01351E+01 2.94210E-01 6.52564E-05-9.14574E-01-8.27270E-15 1.88006E-14
 -1       803 2.02172E+01 2.04601E-01 5.32873E-05-1.05535E+00-2.81447E-14 8.13352E-14
 -1       804 2.03614E+01 2.69067E-02 1.97026E-05-1.17817E+00-4.25981E-14 1.28489E-13
 -1       805 2.06057E+01-2.69523E-01-4.95509E-05-1.25666E+00-1.19486E-13-2.51485E-13
 -1       806 2.10002E+01-7.07497E-01-1.11605E-04-1.24829E+00-7.07327E-14-2.27400E-13
 -1       807 2.15995E+01-1.27827E+00-6.87826E-05-1.08659E+00-4.66694E-14-1.13121E-13
 -1       808 2.24362E+01-1.89187E+00 4.35860E-04-6.70331E-01-1.13011E-13-2.29156E-13
 -1       809 2.34536E+01-2.29907E+00-3.12926E-03 9.58368E-02-1.24405E-13-2.37451E-13
 -1       810 2.45007E+01-2.11277E+00-2.33563E-03 1.22468E+00 1.51793E-14 4.94453E-14
 -1       811 2.50136E+01-8.22189E-01-2.60879E-02 2.31166E+00-5.05058E-14 8.82107E-14
 -1       812 2.47950E+01 1.55095E+00-5.82591E-02 2.67365E+00 1.33279E-13 1.42587E-13
 -1       813 2.47656E+01 2.00690E+00-6.05228E-02-1.74930E+00-5.13079E-14 1.67311E-13
 -1       814 2.50696E+01-4.90171E-01-2.06102E-02-1.61580E+00-7.51595E-14 1.05116E-13
 -1       815 2.46261E+01-2.02474E+00-1.05025E-02-5.38818E-01-2.07345E-14 4.87050E-14
 -1       816 2.36751E+01-2.25215E+00-1.91834E-03 5.98546E-01-1.41400E-13-1.35774E-13
 -1       817 2.26140E+01-1.73005E+00-2.35960E-03 1.37686E+00-1.18529E-14-4.27197E-13
 -1       818 2.19742E+01-1.19789E+00-9.80590E-04 1.77788E+00-2.07654E-13-3.91510E-13
 -1       819 2.01395E+01 1.88816E+00-3.36233E-04 1.99348E-01 8.40209E-14-3.52552E-13
 -1       820 2.45798E+01 3.75242E+00-8.88388E-02-8.63824E-01 2.07091E-13 4.72141E-13
 -1       821 1.50917E+01 9.84342E-01 2.98580E-02 2.14801E+00 2.39938E-14-3.19216E-13
 -1       822 9.95406E+00-2.19197E-01 1.18330E-01-2.47461E+00-2.13827E-13 4.95055E-14
 -1       823 1.82254E+01-4.75176E-01 5.27723E-03-4.01171E+00-1.34721E-13 5.59917E-13
 -1       824 1.43812E+01 1.36733E+00 3.27068E-02-4.38608E-01 2.37925E-13 2.32365E-13
 -1       825 2.02203E+01 4.13088E-01-1.52694E-04 1.12113E-01 1.70652E-13-1.25615E-13
 -1       826 2.01706E+01 2.23573E-01 5.94658E-06-3.12445E-02 1.35257E-13-7.16973E-14
 -1       827 1.55999E+01 6.49771E-01 2.44259E-02-2.91442E+00-1.68983E-13 6.88789E-13
 -1       828 2.00280E+01-5.76683E-02-1.41105E-05-1.63465E-01 8.05872E-14-1.02922E-13
 -1       829 2.02040E+01 1.78037E+00-1.78550E-05-9.53642E-01-2.66888E-13-2.52057E-13
 -1       830 2.00421E+01-4.76302E-02-1.39727E-05-1.74279E-01 1.02035E-13-1.40730E-13
 -1       831 1.78296E+01-2.93117E+00 3.88743E-02 4.52450E+00-2.48334E-14 3.13478E-13
 -1       832 2.04250E+01-3.45011E+00 3.07625E-02 5.17152E+00-6.60763E-13-1.48610E-13
 -1       833 2.01259E+01 1.00908E-01-6.64005E-06-1.15907E-01 8.37539E-14-4.74382E-14
 -1       834 2.65255E+01-2.47533E+00-2.03908E-02-5.31319E-01 1.27247E-13-1.80307E-13
 -1       835 2.02909E+01 7.24556E-01-2.71487E-07-2.90450E-01-1.51300E-13-2.03823E-13
 -1       836 1.46083E+01-1.13309E+00 8.80774E-02-4.71150E+00 1.01260E-13 6.09224E-13
 -1       837 2.71414E+01-6.83612E-01-4.90471E-02 2.33248E+00-1.66400E-13 1.39045E-13
 -1       838 2.56156E+01-3.95368E+00-1.28074E-02-4.35797E-01-9.48099E-14-1.71329E-13
 -1       839 2.02762E+01 9.43263E-01 1.36083E-05 5.53494E-01 2.36314E-13-1.70575E-13
 -1       840 2.49116E+01-4.46401E+00 4.35567E-03 2.70971E+00-9.71324E-14-3.79051E-13
 -1       841 2.15699E+01-4.29684E+00 9.70858E-03-3.82131E+00-2.77820E-13 1.31269E-13
 -1       842 1.53070E+01-1.20070E+00 7.45459E-02 4.86974E+00-4.04092E-13 1.49094E-13
 -1       843 2.01278E+01 1.92653E+00-3.17975E-04 3.34594E-03 3.57742E-14-3.74065E-13
 -1       844 2.02193E+01 1.58179E+00-2.75216E-04 5.34650E-01 2.06126E-13-2.61213E-13
 -1       845 2.02140E+01 1.59771E+00-2.96296E-04-5.31948E-01-1.51830E-13-2.17661E-13
 -1       846 2.01717E+01 1.77480E+00-3.54116E-04 3.82009E-01 1.53899E-13-2.97081E-13
 -1       847 1.99167E+01-1.30598E+00 7.21131E-03 4.00851E+00-3.51560E-13 2.12333E-13
 -1       848 2.02719E+01 1.28012E+00-1.01961E-04-6.69190E-01-2.14357E-13-2.36560E-13
 -1       849 1.28897E+01-8.67279E-01 7.76188E-02-3.89750E+00-1.63413E-13-2.67533E-13
 -1       850 1.73112E+01-2.12233E-01 2.94532E-02 3.86198E+00-4.16330E-13-3.24798E-13
 -1       851 1.57745E+01-1.53273E+00 6.79637E-02 4.04951E+00 2.63159E-13-2.17094E-13
 -1       852 2.13677E+01-1.64352E+00 1.97541E-03 3.29781E+00-9.83124E-14 7.77278E-14
 -1       853 1.79350E+01-2.25778E+00 4.18871E-02-5.20556E+00-1.67080E-14 6.82424E-13
 -1       854 1.92022E+01-3.03090E+00 3.09949E-02-4.19019E+00-2.03895E-13 2.78258E-13
 -1       855 1.10528E+01-1.37982E-01 8.67086E-02 2.37425E+00-2.16884E-15-2.08191E-13
 -1       856 2.02540E+01 6.30243E-01-4.08558E-04 2.98121E-01 2.22145E-13-1.85554E-13
 -1       857 1.99353E+01-1.22504E+00 2.64356E-02-4.03998E+00-4.19544E-14 2.79908E-13
 -1       858 2.01664E+01 1.78221E+00-1.09310E-03-3.74487E-01-4.33985E-14-2.69345E-13
 -1       859 2.45273E+01-3.26167E+00 4.19765E-03 1.35038E+00-3.64819E-14-2.94994E-13
 -1       860 2.01587E+01-3.64209E-02-1.79892E-06-1.53032E-01 6.35661E-14-3.18307E-14
 -1       861 2.03055E+01 2.27070E-01-1.32909E-05 4.64787E-02-6.33532E-14-6.84629E-14
 -1       862 2.02695E+01 9.24162E-02-5.16437E-06 1.02365E-01-5.89000E-14-4.02567E-14
 -1       863 2.02305E+01 7.07853E-03-4.87145E-06 1.30475E-01-5.44435E-14-7.43156E-14
 -1       864 2.01926E+01-4.28829E-02-3.57671E-06 1.39806E-01 1.55480E-14-1.10509E-13
 -1       865 2.01580E+01-6.77312E-02-2.01052E-06 1.37514E-01-1.21316E-14-1.78022E-13
 -1       866 2.01276E+01-7.48262E-02-1.22694E-06 1.29045E-01-3.57094E-14-1.82319E-13
 -1       867 2.01014E+01-6.93163E-02-1.43604E-06 1.18465E-01-9.78285E-14-1.62864E-13
 -1       868 2.00790E+01-5.46279E-02-1.90429E-06 1.08768E-01-1.26910E-13-1.89633E-13
 -1       869 2.00595E+01-3.28180E-02-1.56087E-06 1.02217E-01-1.54158E-13-1.49718E-13
 -1       870 2.00418E+01-4.89756E-03-1.23400E-06 1.00620E-01-1.64367E-13-3.17964E-14
 -1       871 2.00246E+01 2.89245E-02-1.09596E-06 1.05524E-01-6.86217E-14 9.61158E-14
 -1       872 2.00063E+01 6.90481E-02-1.09352E-06 1.18374E-01-9.96161E-14 1.27562E-13
 -1       873 1.99849E+01 1.16305E-01-1.18030E-06 1.40618E-01 4.82468E-14 1.68071E-13
 -1       874 1.99579E+01 1.71778E-01-1.32107E-06 1.73761E-01-1.37885E-13 1.58059E-13
 -1       875 1.99226E+01 2.36599E-01-1.46660E-06 2.19376E-01 2.58135E-14-7.62755E-15
 -1       876 1.98755E+01 3.11689E-01-1.52655E-06 2.79067E-01 1.43762E-13-9.69600E-14
 -1       877 1.98121E+01 3.97394E-01-1.33518E-06 3.54406E-01 1.05304E-13-1.20635E-13
 -1       878 1.97274E+01 4.92964E-01-6.06303E-07 4.46875E-01 9.23560E-14-2.44718E-13
 -1       879 1.96153E+01 5.95788E-01 1.09174E-06 5.57878E-01 8.04551E-15-1.38745E-13
 -1       880 1.94691E+01 7.00276E-01 4.13742E-06 6.88964E-01 9.05238E-14-2.06145E-13
 -1       881 1.92818E+01 7.96234E-01 7.67797E-06 8.42502E-01 8.27865E-14-1.58951E-13
 -1       882 1.90473E+01 8.66568E-01 6.20202E-06 1.02316E+00 5.91115E-14 4.53915E-14
 -1       883 1.87625E+01 8.84115E-01-1.37574E-05 1.24071E+00 4.34237E-14 5.00108E-14
 -1       884 1.84316E+01 8.07082E-01-8.03899E-06 1.51523E+00-8.23621E-14 2.25692E-14
 -1       885 1.80754E+01 5.70571E-01 2.01478E-04 1.88287E+00-2.13066E-14-5.37814E-14
 -1       886 1.77492E+01 7.77992E-02 1.38726E-03 2.40351E+00-4.68895E-14-3.22577E-13
 -1       887 1.76027E+01-7.92047E-01 1.53977E-02 3.14086E+00 2.54273E-13-2.57101E-13
 -1       888 2.00475E+01-3.54997E-02-4.82063E-07-1.09510E-01-1.83110E-14 6.69841E-16
 -1       889 2.00623E+01-5.42458E-02-1.25550E-06-1.17963E-01-2.52905E-14 7.43851E-14
 -1       890 2.00802E+01-6.64964E-02-1.56255E-06-1.29485E-01 1.35218E-13 2.57084E-14
 -1       891 2.00348E+01-1.14013E-02-1.64325E-07-1.06063E-01-5.42099E-14-8.34546E-14
 -1       892 2.00233E+01 1.76056E-02 3.05749E-07-1.09267E-01-1.85512E-14-9.41782E-14
 -1       893 2.00118E+01 5.15521E-02 9.18234E-07-1.20640E-01 4.15523E-14-7.68667E-14
 -1       894 1.99991E+01 9.07279E-02 1.71766E-06-1.41694E-01-3.06011E-14-1.80970E-13
 -1       895 1.99840E+01 1.35441E-01 2.77778E-06-1.74007E-01 7.42364E-14-1.08349E-13
 -1       896 1.99651E+01 1.85727E-01 4.19504E-06-2.19244E-01-1.65926E-14 1.27340E-13
 -1       897 1.99413E+01 2.40978E-01 6.09592E-06-2.79120E-01-2.16034E-14 1.29756E-13
 -1       898 1.99114E+01 2.99444E-01 8.65185E-06-3.55325E-01 2.32908E-14 1.58075E-13
 -1       899 1.98753E+01 3.57579E-01 1.21093E-05-4.49394E-01 7.25370E-14 1.49195E-13
 -1       900 1.98336E+01 4.09173E-01 1.68603E-05-5.62543E-01-2.23196E-15 1.70295E-13
 -1       901 1.97895E+01 4.44256E-01 2.36035E-05-6.95477E-01-1.25317E-13 1.28693E-13
 -1       902 1.97497E+01 4.47775E-01 3.36323E-05-8.48167E-01-5.37840E-14 1.11999E-13
 -1       903 1.97275E+01 3.98135E-01 4.90514E-05-1.01948E+00-4.63927E-14 1.57007E-13
 -1       904 1.97455E+01 2.65899E-01 7.22977E-05-1.20630E+00 7.67358E-14-5.41651E-15
 -1       905 1.98416E+01 1.35393E-02 1.07480E-04-1.40118E+00 1.62164E-13-3.29035E-14
 -1       906 2.00744E+01-4.01478E-01 1.86139E-04-1.58662E+00-9.73654E-14-2.06134E-13
 -1       907 2.05290E+01-1.01509E+00 7.65990E-04-1.72165E+00-1.73372E-13-2.79067E-13
 -1       908 2.13129E+01-1.82526E+00 2.99416E-03-1.72636E+00-6.21836E-14-1.85314E-13
 -1       909 2.25278E+01-2.72359E+00 8.70102E-04-1.44530E+00-1.18489E-13-2.54427E-13
 -1       910 2.02781E+01 1.25105E+00 3.34417E-04-4.47478E-01-1.39653E-13-2.17569E-13
 -1       911 1.23070E+01 2.75881E-01 5.30309E-02-2.09004E+00-1.18236E-13-7.00950E-14
 -1       912 2.03011E+01 4.29061E-01-4.58452E-05 6.46908E-02 1.40691E-13-1.70979E-13
 -1       913 2.01280E+01-6.17675E-02-1.91651E-06-1.50948E-01 5.16576E-14-1.08490E-14
 -1       914 2.01019E+01-7.01239E-02-1.66226E-06-1.41595E-01 1.00710E-13-3.88305E-14
 -1       915 2.02319E+01 9.70011E-02-8.20611E-06-1.08876E-01 8.79666E-14-1.16852E-13
 -1       916 2.02698E+01 2.29245E-01-1.58631E-05-4.41977E-02 9.50540E-14-1.42070E-13
 -1       917 2.01385E+01 1.89145E+00-2.63476E-04-1.92376E-01-5.18052E-15-3.80845E-13
 -1       918 2.03372E+01 7.18688E-01-2.20390E-04-1.90619E-01-8.20982E-14-1.23428E-13
 -1       919 2.03315E+01 4.29927E-01 6.04778E-05-4.70788E-02-6.80730E-14-7.51783E-14
 -1       920 2.33147E+01-3.57425E+00 9.53858E-04-1.64539E+00-2.06655E-13-2.27118E-13
 -1       921 1.07515E+01 4.86013E-01 7.41193E-02-1.09371E-01-1.84561E-13 1.44329E-14
 -1       922 2.26165E+01-3.09421E+00 5.86480E-03 3.37673E+00-3.02428E-13-1.14539E-13
 -1       923 2.01938E+01 1.31305E-02-3.55055E-06-1.41716E-01 9.46293E-14-9.84063E-14
 -1       924 2.19147E+01-1.48831E+00 3.85489E-03 2.50313E+00-1.22600E-13-3.85664E-13
 -1       925 1.66656E+01-1.55745E+00 2.49961E-02-3.96102E+00-4.50485E-13-1.15384E-13
 -1       926 2.03022E+01 1.00384E+00-5.16577E-04 3.66990E-01 2.18741E-13-1.88076E-13
 -1       927 2.02763E+01 1.40525E+00-1.23091E-05 6.95531E-02 5.31472E-14-3.19193E-13
 -1       928 2.02850E+01 1.33772E+00-2.18277E-04 1.96622E-01 8.22739E-14-2.70975E-13
 -1       929 1.51965E+01-3.45106E-01 1.83118E-02-3.07862E+00-2.85101E-13 7.64618E-14
 -1       930 1.44668E+01-4.31717E-01 3.90569E-02 3.17737E+00 2.68474E-13-4.58323E-14
 -1       931 2.31909E+01-2.68648E+00-8.31673E-04 2.18243E+00-1.88518E-14-4.26069E-13
 -1       932 2.02589E+01 1.43850E+00-2.05283E-04-3.42552E-01-6.80466E-14-1.76238E-13
 -1       933 2.15287E+01-3.14491E+00 1.52519E-02-2.77567E+00-2.46774E-13-1.37134E-13
 -1       934 2.03137E+01 7.27721E-01 3.87542E-04 2.31471E-01 1.74595E-13-1.91301E-13
 -1       935 2.02757E+01 1.40698E+00 3.03196E-05-6.58526E-02 2.40907E-14-3.44244E-13
 -1       936 2.03610E+01 1.97208E-01-1.02658E-05 5.00884E-02-7.61665E-14-7.90204E-14
 -1       937 2.03260E+01 6.76393E-02-3.49262E-06 8.51005E-02-2.19743E-14-7.57542E-14
 -1       938 2.02845E+01-1.32928E-02-1.88336E-06 1.01794E-01-6.34971E-14-1.26380E-13
 -1       939 2.02418E+01-5.88732E-02 9.92453E-07 1.06228E-01-5.78878E-14-1.71086E-13
 -1       940 2.02009E+01-7.91048E-02 2.15720E-06 1.03285E-01-1.99388E-14-1.61272E-13
 -1       941 2.01634E+01-8.11558E-02 2.46904E-06 9.67788E-02-3.34068E-14-2.18740E-13
 -1       942 2.01295E+01-7.01604E-02-6.91465E-07 8.95430E-02-9.47998E-14-1.13149E-13
 -1       943 2.00989E+01-4.93645E-02-6.77544E-07 8.36955E-02-5.04038E-14-4.90695E-14
 -1       944 2.00706E+01-2.06304E-02-9.65034E-07 8.08987E-02-2.60620E-14 3.39025E-14
 -1       945 2.00429E+01 1.52349E-02-2.02328E-06 8.24992E-02-4.69702E-14 1.28973E-13
 -1       946 2.00141E+01 5.82523E-02-3.69952E-06 8.96609E-02-5.29214E-14 1.21521E-13
 -1       947 1.99816E+01 1.09041E-01-5.95057E-06 1.03471E-01 5.21287E-14 1.73417E-13
 -1       948 1.99425E+01 1.68597E-01-8.84654E-06 1.24986E-01-5.10583E-14 8.21901E-14
 -1       949 1.98933E+01 2.38074E-01-1.25191E-05 1.55242E-01-1.45457E-13 1.21185E-13
 -1       950 1.98299E+01 3.18512E-01-1.71422E-05 1.95218E-01-1.03333E-14 2.36774E-13
 -1       951 1.97471E+01 4.10523E-01-2.29485E-05 2.45777E-01 7.69735E-15-2.18556E-14
 -1       952 1.96389E+01 5.13859E-01-3.02914E-05 3.07601E-01 6.72792E-14-7.03334E-15
 -1       953 1.94981E+01 6.26868E-01-3.97961E-05 3.81179E-01 6.27536E-14-2.62377E-14
 -1       954 1.93162E+01 7.45762E-01-5.27322E-05 4.66962E-01 8.05912E-14-3.99982E-14
 -1       955 1.90827E+01 8.63705E-01-7.20919E-05 5.65879E-01 8.06928E-14-2.74236E-14
 -1       956 1.87855E+01 9.69639E-01-1.06007E-04 6.80563E-01 2.43845E-13-1.27139E-14
 -1       957 1.84094E+01 1.04679E+00-1.73586E-04 8.17740E-01 8.83976E-14 1.38535E-13
 -1       958 1.79359E+01 1.07097E+00-2.46137E-04 9.92088E-01-1.10656E-13 1.19873E-13
 -1       959 1.73364E+01 1.01022E+00-1.80239E-04 1.23654E+00-1.32361E-13 3.66177E-15
 -1       960 1.65839E+01 8.06199E-01 9.06451E-04 1.60751E+00-1.52117E-13-1.38543E-13
 -1       961 1.56483E+01 3.85562E-01 7.68117E-03 2.20842E+00 1.22358E-13-1.08006E-14
 -1       962 2.00909E+01-5.19877E-02 5.33448E-06-9.55117E-02-2.32168E-14 1.54446E-13
 -1       963 2.00431E+01 5.34522E-03 2.44912E-06-9.16169E-02-8.35450E-15 9.03367E-14
 -1       964 2.02981E+01 1.20412E+00-2.14805E-04 3.01815E-01 1.64776E-13-2.43950E-13
 -1       965 2.00663E+01-2.65291E-02 3.92193E-06-9.11659E-02 3.73564E-15 1.42206E-13
 -1       966 2.01181E+01-7.00222E-02 3.94066E-06-1.03060E-01 3.65359E-14 9.63566E-14
 -1       967 2.00196E+01 4.33500E-02 9.44925E-07-9.82643E-02 2.61651E-14 1.00075E-13
 -1       968 1.99942E+01 8.76759E-02-5.97488E-07-1.12461E-01 2.93069E-14-2.29936E-16
 -1       969 1.99646E+01 1.38723E-01-2.17586E-06-1.35615E-01 2.90159E-14-9.50580E-14
 -1       970 1.99287E+01 1.96805E-01-3.79679E-06-1.69254E-01-3.17828E-14-3.26705E-14
 -1       971 1.98840E+01 2.61787E-01-5.46707E-06-2.15067E-01-5.00155E-14-7.83443E-14
 -1       972 1.98281E+01 3.32637E-01-7.18600E-06-2.74930E-01-3.49365E-14 1.76872E-14
 -1       973 1.97590E+01 4.06839E-01-8.93747E-06-3.50930E-01 2.64105E-14-3.46664E-14
 -1       974 1.96750E+01 4.79644E-01-1.06668E-05-4.45428E-01 1.83096E-14 1.97633E-14
 -1       975 1.95760E+01 5.43128E-01-1.22121E-05-5.61190E-01-1.80242E-14 3.09467E-14
 -1       976 1.94643E+01 5.85024E-01-1.31506E-05-7.01654E-01-4.26413E-14-4.59667E-14
 -1       977 1.93463E+01 5.87339E-01-1.25572E-05-8.71366E-01 6.08427E-14-1.27769E-13
 -1       978 1.92352E+01 5.24713E-01-9.52868E-06-1.07657E+00-8.27130E-15-5.37279E-14
 -1       979 1.91553E+01 3.62370E-01 1.51363E-07-1.32558E+00 1.26472E-14 3.90230E-14
 -1       980 1.91504E+01 5.40566E-02 1.00618E-04-1.62663E+00-1.24570E-14 2.52277E-13
 -1       981 1.92907E+01-4.56188E-01-7.26418E-05-1.98350E+00 2.55412E-14 1.45965E-13
 -1       982 1.97323E+01-1.24294E+00 3.32322E-04-2.36212E+00-7.67242E-14-1.22753E-13
 -1       983 2.03544E+01-2.11565E+00-4.49129E-03-2.64295E+00 5.85719E-15-1.61042E-13
 -1       984 2.02878E+01 1.34056E+00 1.26222E-03-1.95247E-01-2.30793E-14-3.21696E-13
 -1       985 2.03813E+01 6.65199E-01-1.25516E-04-1.03403E-01-1.27836E-14-1.40491E-13
 -1       986 2.03813E+01 3.92233E-01-7.92990E-05-1.01368E-02-6.04232E-14-5.69486E-14
 -1       987 2.02216E+01-5.21501E-02 9.72880E-06-1.22411E-01 5.30537E-14-6.92280E-14
 -1       988 2.03600E+01 4.07046E-01-8.38354E-06 2.31099E-02 1.06015E-13-1.65149E-13
 -1       989 2.03376E+01 2.09313E-01-9.50595E-06-5.14008E-02 6.36719E-14-1.41010E-13
 -1       990 2.03573E+01 6.94215E-01-1.75253E-04 1.37030E-01 1.57751E-13-1.52668E-13
 -1       991 2.03384E+01 9.30894E-01 7.53582E-04 2.16867E-01 1.81833E-13-1.89858E-13
 -1       992 1.74868E+01-8.95284E-01 7.56221E-03-3.06433E+00-1.21880E-13-1.66162E-13
 -1       993 2.01488E+01-7.86353E-02 1.72505E-06-1.11909E-01 7.60087E-14-3.93087E-15
 -1       994 2.02621E+01-4.75243E-03 8.22188E-06-1.16216E-01 7.22701E-14-7.23097E-14
 -1       995 1.41351E+01 6.28839E-01 1.46524E-02-1.62115E+00-3.23221E-13-3.04073E-14
 -1       996 2.03700E+01 9.97347E-01 8.88100E-05 1.08138E-03 4.29864E-14-3.27724E-13
 -1       997 1.89071E+01-2.00684E+00 1.50814E-02-3.42450E+00-1.98031E-13 8.67518E-14
 -1       998 2.03708E+01 9.65612E-01 2.32743E-04 7.94312E-02 7.51424E-14-2.89049E-13
 -1       999 1.30146E+01 5.10169E-01 3.78086E-02 1.61632E+00 8.03624E-14 1.62561E-13
 -1      1000 2.03024E+01 7.79199E-02 3.93127E-06-9.49776E-02 6.34526E-14-1.19498E-13
 -1      1001 1.29961E+01 8.46435E-01 1.20199E-02-3.62682E-01-1.32121E-13 6.35403E-14
 -1      1002 2.01833E+01-7.43260E-02 6.10416E-06-1.19481E-01 4.51759E-14-5.05240E-15
 -1      1003 2.03686E+01 9.67594E-01-6.98886E-04-7.66696E-02 1.84411E-14-2.82389E-13
 -1      1004 2.00367E+01 2.87346E-02-2.00285E-06-6.95285E-02-2.47831E-15 1.52905E-13
 -1      1005 2.03550E+01 3.43180E-02-3.05092E-05 5.89606E-02-4.36814E-14-1.62534E-13
 -1      1006 2.03104E+01-3.63673E-02-1.44911E-05 6.65022E-02-8.97424E-14-1.16704E-13
 -1      1007 2.02639E+01-7.35066E-02-7.65886E-06 6.75653E-02-5.19564E-14-7.23842E-14
 -1      1008 2.02189E+01-8.65163E-02 9.34204E-06 6.48500E-02-3.93139E-14-1.49112E-13
 -1      1009 2.01768E+01-8.21123E-02-5.55726E-06 6.07615E-02-1.39694E-14-1.18243E-13
 -1      1010 2.01380E+01-6.49882E-02-7.33938E-07 5.67086E-02-2.66451E-14-1.23653E-13
 -1      1011 2.01018E+01-3.78772E-02-2.75462E-06 5.40441E-02 3.07596E-14-8.42824E-14
 -1      1012 2.00667E+01-2.39700E-03-6.03998E-06 5.37551E-02-1.24253E-14-5.90553E-14
 -1      1013 2.00309E+01 4.09566E-02-1.12978E-05 5.66173E-02-7.57653E-15 3.64229E-14
 -1      1014 1.99919E+01 9.24615E-02-1.81910E-05 6.33089E-02-1.34613E-14 1.31023E-13
 -1      1015 1.99464E+01 1.52908E-01-2.66898E-05 7.44275E-02 5.46222E-15 9.46162E-14
 -1      1016 1.98909E+01 2.23348E-01-3.69273E-05 9.04834E-02-1.28511E-13 9.12545E-14
 -1      1017 1.98209E+01 3.04824E-01-4.91290E-05 1.11860E-01 3.56169E-14 1.60061E-13
 -1      1018 1.97312E+01 3.98054E-01-6.36431E-05 1.38741E-01-7.38035E-14 1.58788E-13
 -1      1019 1.96156E+01 5.03058E-01-8.10766E-05 1.71013E-01-7.65860E-14 1.13449E-13
 -1      1020 1.94669E+01 6.18708E-01-1.02622E-04 2.08177E-01 4.56862E-14 1.87319E-14
 -1      1021 1.92763E+01 7.42215E-01-1.30730E-04 2.49308E-01 6.79798E-14-1.91232E-14
 -1      1022 1.90330E+01 8.68578E-01-1.70358E-04 2.93186E-01 4.89039E-14 2.58823E-14
 -1      1023 1.87232E+01 9.90077E-01-2.30991E-04 3.38755E-01 1.85113E-13 4.18318E-14
 -1      1024 1.83280E+01 1.09592E+00-3.30819E-04 3.86265E-01 2.27998E-13 1.25899E-13
 -1      1025 1.78202E+01 1.17186E+00-5.15407E-04 4.39721E-01 5.74319E-14 4.14258E-14
 -1      1026 1.71616E+01 1.19778E+00-5.81056E-04 5.09381E-01-1.11999E-13 2.45514E-13
 -1      1027 1.62654E+01 1.17454E+00 4.03771E-03 6.30920E-01-5.49461E-14 5.22282E-13
 -1      1028 1.50132E+01 1.06217E+00 8.69269E-03 8.34088E-01-1.89774E-14 5.08764E-13
 -1      1029 2.01351E+01-6.75449E-02 1.07830E-05-7.17695E-02-7.98446E-14 7.27737E-14
 -1      1030 2.03551E+01 9.68290E-01 4.40485E-04 1.49929E-01 1.19108E-13-1.74238E-13
 -1      1031 1.99635E+01 1.30079E-01-1.39122E-05-9.15592E-02 8.00043E-14 8.69533E-14
 -1      1032 1.99171E+01 1.92713E-01-2.07305E-05-1.13033E-01-5.85031E-15 8.43669E-14
 -1      1033 1.98599E+01 2.63809E-01-2.79892E-05-1.43300E-01 2.34254E-14 3.89519E-14
 -1      1034 1.97886E+01 3.43072E-01-3.55467E-05-1.84047E-01-6.97776E-14-7.00875E-14
 -1      1035 1.96993E+01 4.29106E-01-4.32267E-05-2.37336E-01 2.03119E-14-7.09645E-14
 -1      1036 1.95887E+01 5.18797E-01-5.08570E-05-3.05772E-01-3.54558E-14-6.61823E-15
 -1      1037 1.94534E+01 6.06571E-01-5.83839E-05-3.92762E-01-5.21000E-14 1.46716E-13
 -1      1038 1.92912E+01 6.83506E-01-6.62241E-05-5.02978E-01 3.53393E-14 8.26962E-14
 -1      1039 1.91016E+01 7.36296E-01-7.64913E-05-6.43101E-01 3.10099E-14 8.60391E-15
 -1      1040 1.88866E+01 7.46040E-01-9.66834E-05-8.22996E-01 4.43025E-15 1.71845E-13
 -1      1041 1.86528E+01 6.86799E-01-1.46006E-04-1.05748E+00-1.81039E-13 2.27718E-13
 -1      1042 1.84139E+01 5.23071E-01-4.56685E-04-1.36992E+00-2.54254E-14 1.84904E-13
 -1      1043 1.82077E+01 1.98110E-01-6.94214E-04-1.79510E+00 1.18781E-13 1.25613E-13
 -1      1044 1.81067E+01-3.52654E-01 1.65685E-03-2.36577E+00 1.45857E-13-6.43074E-14
 -1      1045 2.04121E+01 5.87270E-01 1.41162E-04-4.09650E-02 4.12323E-14-2.58238E-13
 -1      1046 2.04148E+01 3.29541E-01 2.46832E-05 9.79278E-03-3.65034E-14-2.09064E-13
 -1      1047 2.04012E+01 3.55052E-01 1.36709E-05-4.38239E-03 8.37839E-14-1.45611E-13
 -1      1048 2.03925E+01 1.50798E-01-5.79481E-05 4.13277E-02-6.13516E-14-1.54799E-13
 -1      1049 1.59247E+01 2.44378E-01 4.88595E-03-2.21894E+00-9.05754E-14-7.12736E-14
 -1      1050 2.00024E+01 7.55930E-02-7.63907E-06-7.74641E-02 9.85659E-14 9.43133E-14
 -1      1051 2.04181E+01 6.67215E-01 3.77714E-04-1.76240E-02 4.21245E-14-3.08660E-13
 -1      1052 2.01719E+01-8.20845E-02-9.38179E-06-7.72238E-02-1.88963E-15 1.45009E-14
 -1      1053 2.01011E+01-4.32354E-02 7.14132E-06-6.77728E-02-1.14450E-15 8.73144E-14
 -1      1054 2.03006E+01-2.70614E-02 5.29042E-07-8.36314E-02 2.46652E-14-6.34329E-14
 -1      1055 2.00689E+01-1.08870E-02 2.89047E-06-6.66520E-02-2.71848E-15 1.13269E-13
 -1      1056 2.02556E+01-6.76931E-02 9.63363E-06-8.56932E-02-1.31752E-14-1.60844E-14
 -1      1057 2.03800E+01 1.69757E-01-5.02746E-05-4.78934E-02 5.46875E-14-1.73700E-13
 -1      1058 2.04199E+01 6.61078E-01-1.87485E-04 1.77705E-02 6.49172E-14-2.76446E-13
 -1      1059 2.03967E+01 6.20664E-01-1.75881E-04 6.39539E-02 1.29981E-13-1.35977E-13
 -1      1060 1.53671E+01 9.37415E-01 3.68984E-03-1.02776E+00-9.78758E-14 2.55826E-14
 -1      1061 2.03124E+01-5.74229E-02 7.65758E-05 2.63863E-02-7.00476E-14-9.40728E-14
 -1      1062 2.02624E+01-8.34419E-02-3.50297E-05 2.61355E-02-1.15133E-13-9.23441E-14
 -1      1063 2.02161E+01-8.88627E-02-2.04083E-05 2.45859E-02-5.46388E-14-1.13214E-13
 -1      1064 2.01726E+01-7.74337E-02 2.52604E-05 2.30202E-02-1.08022E-14-1.38477E-13
 -1      1065 2.01313E+01-5.40829E-02 2.75852E-05 2.18883E-02 3.44382E-14-1.09376E-13
 -1      1066 2.00917E+01-2.11797E-02 2.47995E-05 2.14102E-02 6.26968E-14-6.59265E-14
 -1      1067 2.00522E+01 2.02335E-02 2.26130E-05 2.19374E-02 5.47478E-14-2.75352E-14
 -1      1068 2.00104E+01 6.99979E-02 2.23572E-05 2.37055E-02 2.13485E-14 5.21931E-15
 -1      1069 1.99632E+01 1.28599E-01 2.40751E-05 2.68514E-02 3.08443E-15-2.86333E-14
 -1      1070 1.99071E+01 1.96896E-01 2.76076E-05 3.13973E-02-5.92733E-14-5.36843E-14
 -1      1071 1.98377E+01 2.75834E-01 3.27056E-05 3.72017E-02-8.64103E-14-3.67570E-14
 -1      1072 1.97502E+01 3.66125E-01 3.89789E-05 4.38776E-02-4.22368E-14-8.94126E-14
 -1      1073 1.96388E+01 4.67882E-01 4.57928E-05 5.06762E-02-5.51112E-14 7.96513E-14
 -1      1074 1.94969E+01 5.80194E-01 5.21047E-05 5.63349E-02-6.80659E-14 5.05425E-14
 -1      1075 1.93165E+01 7.00666E-01 5.61854E-05 5.88974E-02 2.21421E-14-8.63918E-14
 -1      1076 1.90882E+01 8.24955E-01 5.51013E-05 5.55150E-02 1.36255E-13-1.30163E-13
 -1      1077 1.88001E+01 9.46393E-01 4.37989E-05 4.22382E-02 1.34944E-13 7.40202E-14
 -1      1078 1.84363E+01 1.05584E+00 1.43829E-05 1.37580E-02 1.56263E-13-4.93807E-14
 -1      1079 1.79732E+01 1.14204E+00-4.32410E-05-3.71234E-02 1.19339E-13-2.45012E-13
 -1      1080 1.73720E+01 1.19279E+00-4.18400E-04-1.20611E-01 9.81513E-14-6.81171E-14
 -1      1081 1.65764E+01 1.18619E+00-3.60237E-03-2.45815E-01 1.03325E-13 1.01450E-13
 -1      1082 1.97848E+01 3.32311E-01-2.29869E-05-9.34493E-02-1.55358E-14 2.91812E-13
 -1      1083 1.99247E+01 1.75866E-01-1.04653E-05-5.67615E-02 2.05664E-14 1.08939E-13
 -1      1084 1.96872E+01 4.24820E-01-3.36279E-05-1.22704E-01 2.13114E-14 2.15221E-13
 -1      1085 1.95647E+01 5.25089E-01-4.72562E-05-1.61975E-01-7.01974E-14 2.11404E-13
 -1      1086 1.94117E+01 6.29691E-01-6.33063E-05-2.14307E-01-9.82482E-14 2.74484E-13
 -1      1087 1.92227E+01 7.32755E-01-8.05027E-05-2.84012E-01 4.16968E-14 2.32721E-13
 -1      1088 1.89915E+01 8.25288E-01-9.75058E-05-3.77334E-01 1.31280E-13 1.50341E-13
 -1      1089 1.87117E+01 8.94471E-01-1.17424E-04-5.03515E-01-2.81570E-14 2.99431E-14
 -1      1090 1.83759E+01 9.22872E-01-1.65745E-04-6.76416E-01-7.32530E-14 4.75158E-14
 -1      1091 1.79759E+01 8.87236E-01-3.33146E-04-9.16745E-01 6.96334E-14-1.50707E-13
 -1      1092 1.75008E+01 7.63260E-01 5.05114E-04-1.25291E+00 1.37866E-13-2.87499E-13
 -1      1093 1.68245E+01 5.78548E-01 6.74176E-04-1.64518E+00 2.47468E-13-2.95815E-13
 -1      1094 2.00590E+01 1.01528E-02-7.44010E-06-3.70894E-02 2.65740E-14-2.74843E-14
 -1      1095 1.98624E+01 2.49192E-01-1.53595E-05-7.20107E-02 1.76341E-15 1.71158E-13
 -1      1096 2.00195E+01 5.69705E-02-7.08043E-06-4.01741E-02 3.10158E-14-7.66560E-14
 -1      1097 2.04302E+01 2.52400E-01 1.60104E-05 9.36206E-03 1.38146E-14-2.45846E-13
 -1      1098 2.04352E+01 4.29043E-01-1.85590E-04-3.39679E-03 4.80621E-14-2.91720E-13
 -1      1099 2.04261E+01 5.19981E-01 1.54070E-04 1.66024E-02 1.10356E-13-1.98814E-13
 -1      1100 2.02122E+01-8.36715E-02 3.47138E-06-8.27212E-02 3.65768E-14-5.34906E-14
 -1      1101 2.04016E+01 9.78362E-02 1.01585E-04 1.97530E-02-1.83701E-14-1.71905E-13
 -1      1102 2.03599E+01-5.91047E-04 8.65260E-05 2.46207E-02-4.80576E-14-1.33695E-13
 -1      1103 1.99758E+01 1.12007E-01-7.87569E-06-4.64698E-02 7.77069E-14 7.83656E-14
 -1      1104 2.03438E+01 4.79018E-02-1.65999E-05-7.26068E-02 5.49894E-14-1.13567E-13
 -1      1105 2.03139E+01-4.93350E-02-1.89642E-05-4.52181E-02-9.37067E-15-8.38241E-14
 -1      1106 2.00968E+01-2.86991E-02-7.90289E-06-3.65262E-02 4.76506E-14 3.04020E-14
 -1      1107 2.04235E+01 2.85253E-01 1.19121E-04-1.28282E-02 9.21563E-14-1.61729E-13
 -1      1108 2.01756E+01-8.04517E-02-5.69605E-05-4.03001E-02-4.31504E-14 5.86755E-14
 -1      1109 2.01353E+01-5.91926E-02-6.18928E-06-3.78074E-02 6.74640E-15 1.62110E-14
 -1      1110 2.03604E+01 1.35411E-02-4.48615E-06-4.10557E-02 1.69227E-14-1.59406E-13
 -1      1111 2.02659E+01-8.06780E-02-8.98097E-05-4.51464E-02-2.75024E-14-3.68252E-14
 -1      1112 2.02419E+01-8.89377E-02 2.54088E-04-1.53178E-02-8.30065E-14-2.86827E-15
 -1      1113 2.04003E+01 1.19775E-01 1.21933E-05-3.07148E-02 4.23926E-14-1.97366E-13
 -1      1114 2.02171E+01-8.77218E-02-6.83379E-05-4.32952E-02-7.13857E-14 2.37109E-14
 -1      1115 2.04348E+01 3.62648E-01-1.98222E-04-2.25271E-03 9.68550E-14-2.43925E-13
 -1      1116 2.79638E+01 9.08681E+00 2.32540E+00-6.69832E+00-4.34097E-14 1.63167E-12
 -1      1117 2.05477E+01 6.22721E+00 2.09667E-01-3.90399E+00-2.50355E-14 3.02751E-13
 -1      1118 1.94344E+01 5.85286E+00 7.51346E-02-2.88816E+00-1.81938E-14-2.79783E-13
 -1      1119 1.90260E+01 5.72592E+00 6.03516E-02-2.23551E+00-1.20667E-14-5.51192E-13
 -1      1120 1.88401E+01 5.66937E+00 5.78275E-02-1.70162E+00-9.08475E-15-6.75023E-13
 -1      1121 1.87459E+01 5.64043E+00 5.55721E-02-1.23431E+00-6.10016E-15-7.45671E-13
 -1      1122 1.86969E+01 5.62520E+00 5.37831E-02-8.04484E-01-2.32106E-15-7.74208E-13
 -1      1123 1.86729E+01 5.61763E+00 5.25386E-02-3.92927E-01-1.00202E-15-7.86040E-13
 -1      1124 1.86660E+01 5.61546E+00 5.21432E-02 8.47395E-03 1.65037E-15-7.88357E-13
 -1      1125 1.86740E+01 5.61799E+00 5.26553E-02 4.10287E-01 3.02753E-15-7.80708E-13
 -1      1126 1.86991E+01 5.62595E+00 5.40415E-02 8.23199E-01 4.73406E-15-7.57861E-13
 -1      1127 1.87498E+01 5.64182E+00 5.62456E-02 1.25567E+00 8.34315E-15-6.97207E-13
 -1      1128 1.88450E+01 5.67105E+00 5.84529E-02 1.72749E+00 1.13555E-14-6.01747E-13
 -1      1129 1.90315E+01 5.72758E+00 6.04009E-02 2.26856E+00 1.45439E-14-4.30656E-13
 -1      1130 1.94313E+01 5.85015E+00 6.92156E-02 2.92869E+00 2.08167E-14-1.04163E-13
 -1      1131 2.04539E+01 6.18217E+00 1.53288E-01 3.87870E+00 2.37865E-14 5.29236E-13
 -1      1132 2.52180E+01 7.99456E+00 1.43047E+00 5.84654E+00 4.68514E-14 1.83975E-12
 -1      1133 2.88136E+01 3.61640E+00 1.27132E+00-4.21716E+00-1.83742E-13 2.48407E-12
 -1      1134 2.02284E+01-1.77709E-01-6.16287E-01-1.09943E-01-7.04506E-14 2.03332E-12
 -1      1135 1.88339E+01-9.63764E-02-2.36351E-01 6.25242E-02-2.14811E-14 1.39100E-12
 -1      1136 1.85000E+01-4.80581E-02-5.95545E-02 4.05292E-02-1.49637E-14 9.42690E-13
 -1      1137 1.84448E+01-2.46058E-02-1.51532E-02 2.67976E-02-9.24976E-15 6.63948E-13
 -1      1138 1.85264E+01-1.30406E-02-4.94534E-03 1.90593E-02-1.16498E-14 5.24171E-13
 -1      1139 1.86729E+01-6.60093E-03-1.45462E-03 1.41166E-02-8.34565E-15 3.95095E-13
 -1      1140 1.88450E+01-2.82504E-03 5.85212E-04 1.06850E-02-8.00672E-15 2.77127E-13
 -1      1141 1.90200E+01-5.90566E-04 1.91059E-03 8.14165E-03-8.79436E-15 1.60970E-13
 -1      1142 1.91852E+01 7.01164E-04 2.65745E-03 6.17807E-03-1.85052E-14-6.79058E-15
 -1      1143 1.93336E+01 1.38994E-03 2.96017E-03 4.63078E-03-3.98207E-15-1.02846E-13
 -1      1144 1.94625E+01 1.68362E-03 2.95093E-03 3.40152E-03 2.90141E-15-6.46792E-14
 -1      1145 1.95713E+01 1.71486E-03 2.73406E-03 2.42393E-03-1.25372E-14-1.79978E-13
 -1      1146 1.96614E+01 1.56961E-03 2.38207E-03 1.64912E-03-1.08913E-14-3.02586E-13
 -1      1147 1.97350E+01 1.30222E-03 1.94028E-03 1.03940E-03-1.35804E-15-2.74391E-13
 -1      1148 1.97952E+01 9.44187E-04 1.43230E-03 5.65603E-04-1.30753E-14-2.56431E-13
 -1      1149 1.98455E+01 5.09733E-04 8.64215E-04 2.06319E-04-9.34931E-15-2.74605E-13
 -1      1150 1.98899E+01-4.58921E-07 2.27649E-04-5.20376E-05 6.68634E-15-3.40115E-13
 -1      1151 1.99329E+01-5.96466E-04-4.98030E-04-2.14476E-04-1.62871E-15-4.65796E-13
 -1      1152 1.99798E+01-1.29694E-03-1.34416E-03-2.76137E-04-1.05305E-14-5.74141E-13
 -1      1153 2.00366E+01-2.12708E-03-2.35153E-03-2.20309E-04 3.75242E-16-5.79121E-13
 -1      1154 2.01105E+01-3.11611E-03-3.56894E-03-1.55534E-05-3.28072E-14-3.31895E-13
 -1      1155 2.02102E+01-4.29356E-03-5.05060E-03 3.88346E-04-9.72909E-15-2.04923E-13
 -1      1156 2.03462E+01-5.68253E-03-6.85035E-03 1.06583E-03-5.07917E-14-3.16508E-13
 -1      1157 2.05313E+01-7.28748E-03-9.00904E-03 2.12225E-03-1.16310E-14-4.37387E-13
 -1      1158 2.07805E+01-9.07186E-03-1.15276E-02 3.70069E-03 3.38867E-14-2.43652E-13
 -1      1159 2.11114E+01-1.09183E-02-1.43125E-02 5.98480E-03 5.34436E-15-1.12250E-13
 -1      1160 2.15430E+01-1.25610E-02-1.70698E-02 9.18747E-03 1.72323E-14-6.10191E-13
 -1      1161 2.20936E+01-1.34783E-02-1.91147E-02 1.35016E-02 9.13462E-15-6.03370E-13
 -1      1162 2.27763E+01-1.27406E-02-1.90631E-02 1.89657E-02 7.77210E-15-4.78312E-13
 -1      1163 2.35891E+01-8.84550E-03-1.44254E-02 2.51598E-02-4.61471E-14-3.52374E-13
 -1      1164 2.44986E+01 3.35029E-04-1.32990E-03 3.06273E-02 3.38910E-14-4.14342E-13
 -1      1165 2.54146E+01 1.71458E-02 2.49198E-02 3.19823E-02-2.56284E-15-6.37219E-13
 -1      1166 2.61585E+01 4.26467E-02 6.69752E-02 2.30990E-02-1.98092E-14-9.19601E-13
 -1      1167 2.64455E+01 7.31655E-02 1.18769E-01-4.19085E-03 6.45031E-14-6.46727E-13
 -1      1168 2.59222E+01 9.57615E-02 1.56657E-01-5.50751E-02-4.25458E-14-2.26472E-13
 -1      1169 2.43240E+01 8.68062E-02 1.39250E-01-1.20874E-01-3.44481E-14-7.21576E-13
 -1      1170 2.17618E+01 2.56709E-02 3.37302E-02-1.68707E-01 2.44852E-14-8.10546E-13
 -1      1171 1.89571E+01-7.47076E-02-1.33624E-01-1.53333E-01 1.08394E-14-7.74200E-13
 -1      1172 1.70666E+01-1.53772E-01-2.60790E-01-5.85675E-02 2.19824E-14-6.56475E-13
 -1      1173 1.69687E+01-1.44424E-01-2.46455E-01 6.82793E-02-4.80293E-14-9.46736E-13
 -1      1174 1.85606E+01-5.59217E-02-1.02604E-01 1.49728E-01 3.16136E-14-1.15317E-12
 -1      1175 2.08435E+01 4.16576E-02 6.12091E-02 1.49733E-01-9.60430E-14-9.80716E-13
 -1      1176 2.26903E+01 9.24285E-02 1.51400E-01 9.28313E-02-1.06512E-14-9.97147E-13
 -1      1177 2.34915E+01 9.12415E-02 1.53273E-01 2.47615E-02 2.35853E-14-1.36886E-12
 -1      1178 2.32446E+01 6.00934E-02 1.01963E-01-2.52145E-02 9.83770E-14-1.27495E-13
 -1      1179 2.23023E+01 1.95274E-02 3.32281E-02-4.93043E-02-6.19229E-14 1.36786E-13
 -1      1180 2.11296E+01-1.91076E-02-3.23799E-02-4.71488E-02 2.33793E-14 2.49085E-13
 -1      1181 2.02110E+01-5.16865E-02-6.77865E-02-1.41435E-02-5.97612E-14 3.01793E-13
 -1      1182 1.99470E+01 1.68961E-02 2.65617E-02 1.92651E-02 4.87492E-14 1.51498E-13
 -1      1183 2.77931E+01 5.25756E-01 3.77049E-01 1.96669E+00-2.72005E-14 2.91484E-12
 -1      1184 2.00859E+01-6.62441E-02-5.73630E-01 1.29468E-01 1.75554E-14 2.34798E-12
 -1      1185 1.89087E+01-4.06105E-02-1.93235E-01 1.94121E-02 1.63784E-14 1.79745E-12
 -1      1186 1.85289E+01-2.14235E-02-5.05654E-02 1.45543E-03 1.30044E-14 1.40448E-12
 -1      1187 1.84575E+01-1.24108E-02-1.34143E-02-4.08381E-03 1.34549E-14 1.09921E-12
 -1      1188 1.85327E+01-7.40441E-03-4.66676E-03-5.54132E-03 1.33431E-14 8.67834E-13
 -1      1189 1.86762E+01-4.32441E-03-1.93301E-03-5.73156E-03-1.20945E-14 7.77387E-13
 -1      1190 1.88466E+01-2.34946E-03-3.41419E-04-5.45190E-03 6.69947E-15 7.42616E-13
 -1      1191 1.90207E+01-1.07424E-03 7.82659E-04-4.95331E-03 1.19159E-14 5.74150E-13
 -1      1192 1.91853E+01-2.67303E-04 1.49766E-03-4.34963E-03 6.06424E-15 4.61990E-13
 -1      1193 1.93335E+01 2.16953E-04 1.86613E-03-3.70728E-03 1.56635E-14 3.35247E-13
 -1      1194 1.94623E+01 4.74879E-04 1.97359E-03-3.06741E-03 3.18476E-15 3.50899E-13
 -1      1195 1.95712E+01 5.71271E-04 1.89626E-03-2.45419E-03 9.39484E-15 3.77966E-13
 -1      1196 1.96615E+01 5.49065E-04 1.68985E-03-1.87962E-03-1.25625E-14 2.92067E-13
 -1      1197 1.97354E+01 4.35161E-04 1.38989E-03-1.34705E-03 6.83098E-15 1.53159E-13
 -1      1198 1.97960E+01 2.44159E-04 1.01480E-03-8.53915E-04 2.20737E-15-1.03641E-13
 -1      1199 1.98468E+01-1.89834E-05 5.68831E-04-3.94208E-04-2.76947E-14 6.17135E-14
 -1      1200 1.98919E+01-3.56794E-04 4.47177E-05 3.92979E-05 1.18370E-14-7.95661E-14
 -1      1201 1.99357E+01-7.77191E-04-5.73909E-04 4.52690E-04 1.38291E-14-3.34887E-13
 -1      1202 1.99833E+01-1.29107E-03-1.30977E-03 8.48295E-04-2.87952E-14-1.64593E-13
 -1      1203 2.00405E+01-1.90905E-03-2.18834E-03 1.22151E-03-9.54862E-15-1.40187E-14
 -1      1204 2.01139E+01-2.63661E-03-3.23239E-03 1.55668E-03-3.77382E-14 1.02099E-13
 -1      1205 2.02112E+01-3.46657E-03-4.45328E-03 1.82169E-03 4.91106E-15-1.08923E-14
 -1      1206 2.03407E+01-4.36758E-03-5.83668E-03 1.96086E-03 1.98249E-14-4.62411E-13
 -1      1207 2.05120E+01-5.26658E-03-7.31939E-03 1.88602E-03 1.48828E-14-5.36462E-13
 -1      1208 2.07344E+01-6.02353E-03-8.75302E-03 1.46673E-03-5.15262E-15-2.48070E-13
 -1      1209 2.10168E+01-6.39789E-03-9.84968E-03 5.22562E-04-5.47927E-14-7.89551E-14
 -1      1210 2.13646E+01-6.01052E-03-1.01084E-02-1.17475E-03 8.70426E-14-5.04226E-13
 -1      1211 2.17773E+01-4.31663E-03-8.73313E-03-3.87261E-03 6.35104E-15-6.37419E-13
 -1      1212 2.22426E+01-6.27577E-04-4.58625E-03-7.75205E-03 1.07580E-16-2.49877E-13
 -1      1213 2.27294E+01 5.74393E-03 3.71705E-03-1.27413E-02-1.09087E-15-1.21691E-13
 -1      1214 2.31791E+01 1.51066E-02 1.73731E-02-1.81898E-02-6.21790E-16-3.99517E-13
 -1      1215 2.34987E+01 2.66919E-02 3.63641E-02-2.24336E-02-2.14108E-15-1.58464E-13
 -1      1216 2.35610E+01 3.77508E-02 5.77693E-02-2.24841E-02-5.09957E-14 1.58302E-14
 -1      1217 2.32243E+01 4.30662E-02 7.40633E-02-1.44373E-02-2.10743E-14 3.25687E-13
 -1      1218 2.23819E+01 3.62992E-02 7.35153E-02 4.50221E-03 4.87540E-14 3.30985E-14
 -1      1219 2.10428E+01 1.43005E-02 4.55750E-02 3.24175E-02 4.89118E-14-2.97151E-13
 -1      1220 1.94092E+01-1.78604E-02-9.15921E-03 5.99465E-02-1.38303E-14-1.76109E-14
 -1      1221 1.78781E+01-4.60048E-02-7.17408E-02 7.25461E-02 4.71598E-14-2.29219E-13
 -1      1222 1.69102E+01-5.52054E-02-1.11306E-01 5.96150E-02 1.37269E-14-7.34215E-13
 -1      1223 1.67987E+01-4.16539E-02-1.05873E-01 2.42842E-02-2.50026E-14-5.93310E-13
 -1      1224 1.74955E+01-1.52837E-02-6.04012E-02-1.71809E-02-3.36432E-14-2.58196E-13
 -1      1225 1.86399E+01 9.39478E-03-1.65755E-03-4.61355E-02 4.68845E-14-6.38219E-13
 -1      1226 1.97658E+01 2.29727E-02 4.26525E-02-5.36462E-02-1.52398E-14-8.12489E-13
 -1      1227 2.05250E+01 2.38953E-02 5.90364E-02-4.25135E-02-5.69163E-15-4.25757E-13
 -1      1228 2.07930E+01 1.51973E-02 4.91488E-02-2.17879E-02 4.01732E-14-6.12845E-13
 -1      1229 2.06501E+01 1.25757E-03 2.23172E-02-7.28690E-04 1.48277E-14-1.00750E-12
 -1      1230 2.03054E+01-1.21510E-02-8.44088E-03 1.27948E-02-4.71034E-14-1.06606E-12
 -1      1231 2.00156E+01-1.47929E-02-2.07326E-02 9.71146E-03 1.19215E-13-1.12551E-12
 -1      1232 1.99726E+01 1.06638E-02 2.34842E-02-9.45633E-03-5.33050E-14-9.13301E-13
 -1      1233 2.00086E+01-2.92742E-02 1.89058E-02-1.01058E-02-7.93987E-13-3.32711E-14
 -1      1234 1.99744E+01 1.04158E-02-3.67267E-02-9.66604E-03-7.55478E-13-3.12740E-14
 -1      1235 1.99640E+01 3.66970E-01-5.41702E-02 8.05256E-03-6.87556E-13-7.68066E-14
 -1      1236 1.99602E+01 1.09280E+00-5.95066E-02 2.49829E-02-5.73867E-13 1.86088E-13
 -1      1237 1.99658E+01 2.21238E+00-5.22334E-02 4.37469E-02 2.71394E-13-3.30760E-14
 -1      1238 1.99833E+01 3.66642E+00-2.64580E-02 6.03686E-02 2.96083E-13 1.17596E-13
 -1      1239 2.00147E+01 5.29434E+00 1.83381E-02 6.75111E-02 2.84939E-13-2.57798E-13
 -1      1240 2.00518E+01 6.81060E+00 7.24807E-02 5.79833E-02-5.94927E-13-2.44125E-13
 -1      1241 2.00812E+01 7.83678E+00 1.15549E-01 3.04420E-02-3.17801E-13 1.30368E-13
 -1      1242 2.00899E+01 8.08221E+00 1.28604E-01-8.10678E-03-1.84785E-13-5.30912E-15
 -1      1243 2.00734E+01 7.45913E+00 1.05552E-01-4.47740E-02 4.32911E-13-4.97588E-14
 -1      1244 2.00420E+01 6.13689E+00 5.83667E-02-6.82482E-02-2.50903E-13 1.24728E-13
 -1      1245 2.00044E+01 4.42827E+00 4.85354E-03-7.38052E-02 4.13100E-13 1.72507E-14
 -1      1246 1.99738E+01 2.67050E+00-4.19115E-02-6.56900E-02 7.71119E-13 3.69505E-14
 -1      1247 1.99504E+01 1.16040E+00-8.22060E-02-5.55728E-02-2.95777E-13-7.42401E-14
 -1      1248 1.99293E+01 2.34349E-01-8.06274E-02 2.02893E-03-1.85726E-13-7.71423E-14
 -1      1249 2.00210E+01-4.84829E-02 2.57015E-02 1.37666E-02-2.68162E-14 7.91034E-14
 -1      1250-1.23380E+00-2.65739E+01-4.06364E+00-2.45225E+00-3.48499E-13 8.26145E-14
 -1      1251-1.95625E+00-1.71890E+01-3.32695E+00-4.62112E+00 8.87956E-13 4.54414E-13
 -1      1252 3.30249E-01-3.00701E+00-1.90410E+00-2.00435E-01 2.17648E-12 1.36635E-12
 -1      1253 1.06134E+01 8.46501E+00-5.10432E-02 9.35509E+00 1.98241E-12 1.90781E-12
 -1      1254 2.98301E+01 1.15491E+01 1.89928E+00 1.74864E+01 1.52101E-12 2.33968E-12
 -1      1255 5.10704E+01 7.72382E+00 3.37238E+00 1.77678E+01 8.51097E-13 1.88671E-12
 -1      1256 6.56863E+01 2.94142E+00 4.20464E+00 9.05682E+00 8.79435E-14 8.38885E-13
 -1      1257 6.77608E+01 2.12574E+00 4.31285E+00-4.52351E+00 1.83339E-13-3.73535E-13
 -1      1258 5.52998E+01 6.12515E+00 3.52916E+00-1.52793E+01 5.19196E-13-1.52944E-12
 -1      1259 3.49577E+01 1.05205E+01 2.17130E+00-1.79199E+01 1.02118E-12-1.73039E-12
 -1      1260 1.52134E+01 1.00337E+01 3.93834E-01-1.20458E+01 1.24523E-12-1.47948E-12
 -1      1261 2.81248E+00 1.94431E+00-1.29607E+00-2.86434E+00 1.06692E-12-7.74492E-13
 -1      1262-1.62076E+00-1.12233E+01-2.68517E+00 3.43620E+00 4.04787E-13-3.37896E-13
 -1      1263-1.47931E+00-2.28718E+01-3.65675E+00 3.42670E+00-8.54206E-13 6.67660E-14
 -1      1264-1.19819E+00-2.61441E+01-3.84576E+00-9.02907E-01-1.19330E-12-2.62977E-13
 -1      1265-1.88915E+00-2.01988E+01-3.49934E+00-4.44666E+00-1.88460E-12-4.90968E-13
 -1      1266-1.33852E+00-7.67017E+00-2.44093E+00-2.71195E+00-1.61871E-12-7.79488E-13
 -1      1267 4.99503E+00 4.34153E+00-9.61959E-01 4.79324E+00-7.92477E-13-5.94635E-13
 -1      1268 1.94663E+01 1.03716E+01 7.51512E-01 1.37085E+01-2.31815E-13-1.73861E-13
 -1      1269 3.99391E+01 9.39447E+00 2.45136E+00 1.79860E+01 8.54872E-15 6.21725E-15
 -1      1270 5.95138E+01 4.65840E+00 3.78084E+00 1.38586E+01 9.22873E-14 6.51923E-13
 -1      1271 6.95067E+01 1.69760E+00 4.46706E+00 2.43794E+00-1.09079E-14 1.03231E-12
 -1      1272 6.55146E+01 3.41830E+00 4.27389E+00-1.06408E+01-2.35242E-13 1.11211E-12
 -1      1273 4.90917E+01 8.44705E+00 3.26560E+00-1.86258E+01-6.15619E-13 1.57296E-12
 -1      1274 2.77221E+01 1.16743E+01 1.64607E+00-1.72061E+01-1.17351E-12 1.71818E-12
 -1      1275 9.70264E+00 7.79599E+00-2.19316E-01-8.58246E+00-1.40332E-12 1.22191E-12
 -1      1276 3.35420E-02-3.65683E+00-1.99201E+00 7.37555E-01-1.48770E-12 7.70162E-13
 -1      1277-1.99149E+00-1.73661E+01-3.34696E+00 4.68446E+00-1.75615E-12 6.81788E-13
 -1      1278-1.21265E+00-2.67008E+01-4.07276E+00 2.46589E+00-1.27570E-12 6.39627E-14
 -1      1279 2.22674E+01 1.83821E+00-7.25847E-01-2.79067E+00-6.48925E-14 1.35164E-12
 -1      1280 2.03594E+01 4.69008E+00-4.87614E-02-3.30698E+00-2.05364E-13 2.63400E-14
 -1      1281 2.08671E+01 4.81063E+00-1.13379E-01-4.16125E+00-2.56739E-13 3.30111E-13
 -1      1282 1.95311E+01 4.99391E+00-1.97236E-02-2.65473E+00-2.02477E-13-3.98181E-13
 -1      1283 1.98293E+01 5.09031E+00 1.85070E-05-3.04555E+00-2.31912E-13-2.11595E-13
 -1      1284 2.05260E+01 3.95277E+00-2.60039E-02-3.07463E+00-3.63744E-13 3.08920E-14
 -1      1285 1.91850E+01 5.08413E+00-3.39341E-03-2.07105E+00-1.69250E-13-6.09592E-13
 -1      1286 1.93331E+01 5.13929E+00 1.05074E-02-2.36438E+00-1.92447E-13-5.19116E-13
 -1      1287 1.97548E+01 4.36711E+00-2.38793E-02-2.49071E+00-3.19963E-13-3.18495E-13
 -1      1288 1.90091E+01 5.13095E+00 3.48065E-03-1.56479E+00-1.21901E-13-7.19848E-13
 -1      1289 1.90872E+01 5.16064E+00 1.28088E-02-1.81478E+00-1.39300E-13-6.71505E-13
 -1      1290 1.93929E+01 4.55505E+00-1.94932E-02-1.93166E+00-2.50560E-13-5.12188E-13
 -1      1291 1.89154E+01 5.16061E+00 6.57149E-03-1.11723E+00-8.14314E-14-7.65202E-13
 -1      1292 1.89578E+01 5.17697E+00 1.27750E-02-1.33869E+00-9.79833E-14-7.41501E-13
 -1      1293 1.92056E+01 4.66138E+00-1.60392E-02-1.44496E+00-1.83097E-13-5.98681E-13
 -1      1294 1.88640E+01 5.18039E+00 8.19448E-03-6.93950E-01-4.09030E-14-7.83117E-13
 -1      1295 1.88870E+01 5.18924E+00 1.20014E-02-9.04180E-01-5.44651E-14-7.74549E-13
 -1      1296 1.91028E+01 4.72671E+00-1.39964E-02-1.00445E+00-1.16169E-13-6.38347E-13
 -1      1297 1.88402E+01 5.19230E+00 9.29115E-03-2.89226E-01-2.11268E-15-7.94221E-13
 -1      1298 1.88500E+01 5.19612E+00 1.10659E-02-4.91360E-01-1.54330E-14-7.88350E-13
 -1      1299 1.90471E+01 4.76564E+00-1.29277E-02-5.88900E-01-4.61014E-14-6.48162E-13
 -1      1300 1.88365E+01 5.19724E+00 1.02226E-02 1.08223E-01 3.14050E-14-7.99156E-13
 -1      1301 1.88361E+01 5.19710E+00 1.01505E-02-9.14675E-02 1.98593E-14-7.98396E-13
 -1      1302 1.90230E+01 4.78363E+00-1.24785E-02-1.89142E-01 1.63300E-14-6.64149E-13
 -1      1303 1.88518E+01 5.19576E+00 1.11602E-02 5.08705E-01 6.07513E-14-7.82921E-13
 -1      1304 1.88412E+01 5.19166E+00 9.22718E-03 3.06148E-01 4.89078E-14-7.92640E-13
 -1      1305 1.90238E+01 4.78300E+00-1.24953E-02 2.05804E-01 6.43742E-14-6.63476E-13
 -1      1306 1.88903E+01 5.18808E+00 1.20931E-02 9.23020E-01 9.50030E-14-7.52487E-13
 -1      1307 1.88666E+01 5.17906E+00 8.13580E-03 7.11823E-01 8.50177E-14-7.70677E-13
 -1      1308 1.90498E+01 4.76357E+00-1.29810E-02 6.06255E-01 1.19370E-13-6.47808E-13
 -1      1309 1.89622E+01 5.17510E+00 1.28980E-02 1.35627E+00 1.31424E-13-6.85165E-13
 -1      1310 1.89189E+01 5.15837E+00 6.44965E-03 1.13337E+00 1.16526E-13-7.27512E-13
 -1      1311 1.91071E+01 4.72316E+00-1.40033E-02 1.01963E+00 1.75239E-13-6.07691E-13
 -1      1312 1.90949E+01 5.15667E+00 1.28260E-02 1.84095E+00 1.83967E-13-5.78919E-13
 -1      1313 1.90153E+01 5.12632E+00 3.14273E-03 1.58814E+00 1.63766E-13-6.41921E-13
 -1      1314 1.92126E+01 4.65482E+00-1.61469E-02 1.46278E+00 2.45812E-13-5.29497E-13
 -1      1315 1.93436E+01 5.13344E+00 1.01703E-02 2.39805E+00 2.32085E-13-3.93695E-13
 -1      1316 1.91934E+01 5.07632E+00-4.37988E-03 2.10077E+00 2.07091E-13-5.07663E-13
 -1      1317 1.94052E+01 4.54240E+00-1.99853E-02 1.95848E+00 3.19784E-13-4.15952E-13
 -1      1318 1.98552E+01 5.09941E+00 6.04961E-03 3.08415E+00 2.56919E-13-3.37924E-14
 -1      1319 1.95432E+01 4.98441E+00-2.05463E-02 2.69678E+00 2.29310E-13-2.51535E-13
 -1      1320 1.97746E+01 4.34641E+00-2.45625E-02 2.52834E+00 3.74914E-13-1.96128E-13
 -1      1321 2.11032E+01 4.90701E+00 8.31146E-03 4.05418E+00 2.22156E-13 6.46316E-13
 -1      1322 2.03341E+01 4.73385E+00-4.79726E-02 3.41654E+00 2.15841E-13 2.32869E-13
 -1      1323 2.05644E+01 3.91594E+00-2.24130E-02 3.17868E+00 3.79727E-13 2.02935E-13
 -1      1324 2.72030E+01 3.20543E+00 9.29062E-01 4.58244E+00 1.05041E-13 1.93345E-12
 -1      1325 2.20200E+01 3.52220E+00-1.82004E-01 3.88520E+00 1.05166E-13 1.03983E-12
 -1      1326 2.21123E+01 2.56181E+00-3.25512E-02 3.45683E+00 3.56545E-13 8.23674E-13
 -1      1327 2.14269E+01 3.59590E-01-7.63537E-01 1.18396E+00 1.94414E-13 1.86012E-12
 -1      1328 2.20014E+01 1.31312E-01-4.00864E-01-1.28592E+00-2.08764E-13 1.41501E-12
 -1      1329 2.06785E+01 3.06737E-01-1.64796E-01-8.05965E-01-2.01103E-13 1.16811E-12
 -1      1330 2.00806E+01 1.53521E-01-7.35190E-02-4.02231E-01-1.66291E-13 1.05189E-12
 -1      1331 1.96108E+01 9.12192E-02-1.48908E-02-3.30054E-01-1.56250E-13 8.20101E-13
 -1      1332 2.09723E+01 3.69326E-01-1.04170E-01-1.27425E+00-3.49540E-13 6.24906E-13
 -1      1333 1.92533E+01 6.45127E-02 3.06523E-03-1.35412E-01-1.21111E-13 7.31349E-13
 -1      1334 1.90989E+01 4.12643E-02 1.32553E-02-1.17610E-01-1.10908E-13 5.68625E-13
 -1      1335 1.99214E+01 1.33957E-01-3.50868E-02-5.04148E-01-2.70502E-13 4.52739E-13
 -1      1336 1.89384E+01 3.15059E-02 1.32617E-02-2.81191E-02-7.65750E-14 4.87818E-13
 -1      1337 1.89188E+01 1.93601E-02 1.10692E-02-1.87597E-02-6.25667E-14 3.85671E-13
 -1      1338 1.94439E+01 5.53964E-02-8.50433E-03-1.70192E-01-1.89643E-13 2.97967E-13
 -1      1339 1.88626E+01 1.59930E-02 8.78419E-03 2.48353E-02-3.18359E-14 3.40972E-13
 -1      1340 1.89047E+01 9.06331E-03 6.44022E-03 2.94580E-02-4.66693E-14 2.87523E-13
 -1      1341 1.92347E+01 2.43721E-02-3.49071E-03-1.14582E-02-1.10741E-13 1.80946E-13
 -1      1342 1.89045E+01 7.84074E-03 4.67357E-03 5.05881E-02-5.25198E-14 2.64986E-13
 -1      1343 1.89746E+01 3.48845E-03 3.63778E-03 5.24713E-02-5.66712E-14 2.04170E-13
 -1      1344 1.91776E+01 1.01654E-02-2.21596E-03 6.71288E-02-9.82883E-14 1.35210E-13
 -1      1345 1.90038E+01 3.16937E-03 2.44318E-03 6.12310E-02-2.90903E-14 1.97915E-13
 -1      1346 1.90840E+01 3.12878E-04 2.21149E-03 6.14887E-02-2.58604E-14 1.43386E-13
 -1      1347 1.92033E+01 2.75047E-03-1.32117E-03 1.03878E-01-6.84976E-14 1.13085E-13
 -1      1348 1.91273E+01 4.21707E-04 1.33723E-03 6.31305E-02-3.15064E-14 1.12313E-13
 -1      1349 1.92077E+01-1.48149E-03 1.44341E-03 6.24360E-02-4.88362E-14 6.10857E-14
 -1      1350 1.92718E+01-1.33963E-03-5.54495E-04 1.17053E-01-7.89199E-14 3.45017E-14
 -1      1351 1.92559E+01-1.16029E-03 7.55653E-04 6.00131E-02-5.09738E-14 2.90028E-14
 -1      1352 1.93310E+01-2.41742E-03 9.77809E-04 5.88022E-02-6.50920E-14-3.48228E-14
 -1      1353 1.93594E+01-3.54287E-03 4.18762E-06 1.16625E-01-9.59450E-14-9.45956E-15
 -1      1354 1.93788E+01-1.99883E-03 4.22651E-04 5.42139E-02-4.48785E-14-6.52490E-14
 -1      1355 1.94458E+01-2.80170E-03 6.70224E-04 5.27742E-02-2.76417E-15-9.67290E-14
 -1      1356 1.94520E+01-4.59090E-03 3.53419E-04 1.08573E-01-7.47627E-14-1.41215E-14
 -1      1357 1.94902E+01-2.35065E-03 2.22995E-04 4.72448E-02 2.71614E-15-9.68993E-14
 -1      1358 1.95481E+01-2.82735E-03 4.60389E-04 4.57664E-02-2.97461E-14-1.14361E-13
 -1      1359 1.95412E+01-4.90454E-03 5.37420E-04 9.66819E-02-2.27508E-14-9.21552E-14
 -1      1360 1.95877E+01-2.38030E-03 1.04614E-04 4.00974E-02-3.70444E-14-1.13176E-13
 -1      1361 1.96364E+01-2.61975E-03 3.18493E-04 3.87053E-02-2.69133E-14-1.86919E-13
 -1      1362 1.96228E+01-4.74611E-03 6.03409E-04 8.34146E-02-5.24115E-14-1.44669E-13
 -1      1363 1.96709E+01-2.19501E-03 3.98379E-05 3.34251E-02-4.02533E-14-1.81325E-13
 -1      1364 1.97112E+01-2.25965E-03 2.26918E-04 3.22014E-02-3.70852E-14-2.37731E-13
 -1      1365 1.96949E+01-4.28399E-03 5.88023E-04 7.03916E-02-3.29224E-14-1.30438E-13
 -1      1366 1.97407E+01-1.86309E-03 1.18220E-05 2.76641E-02-4.37237E-15-2.23468E-13
 -1      1367 1.97739E+01-1.79608E-03 1.74139E-04 2.66637E-02-2.47451E-14-2.29119E-13
 -1      1368 1.97572E+01-3.62415E-03 5.16512E-04 5.86906E-02-3.07137E-14-1.64613E-13
 -1      1369 1.97993E+01-1.42438E-03 9.47842E-06 2.31189E-02-4.56729E-14-2.38369E-13
 -1      1370 1.98269E+01-1.25427E-03 1.52332E-04 2.23824E-02-3.35854E-14-2.52928E-13
 -1      1371 1.98108E+01-2.82762E-03 4.04843E-04 4.90500E-02-4.22907E-14-2.01962E-13
 -1      1372 1.98494E+01-8.96879E-04 2.51557E-05 2.00279E-02 1.20703E-14-2.68048E-13
 -1      1373 1.98732E+01-6.40935E-04 1.56168E-04 1.95911E-02-1.82585E-14-3.10685E-13
 -1      1374 1.98577E+01-1.92091E-03 2.61763E-04 4.20166E-02-1.81747E-14-2.54250E-13
 -1      1375 1.98942E+01-2.81080E-04 5.33001E-05 1.86142E-02-1.85464E-14-2.91225E-13
 -1      1376 1.99164E+01 5.20400E-05 1.82043E-04 1.85164E-02-1.15038E-14-3.38534E-13
 -1      1377 1.99002E+01-9.02953E-04 9.03725E-05 3.80600E-02-4.81686E-14-3.16052E-13
 -1      1378 1.99376E+01 4.36897E-04 8.95115E-05 1.91268E-02-4.15423E-14-3.41149E-13
 -1      1379 1.99606E+01 8.44808E-04 2.27482E-04 1.94173E-02-4.87736E-14-3.82696E-13
 -1      1380 1.99417E+01 2.50170E-04-1.10686E-04 3.76617E-02-4.73456E-14-2.97585E-13
 -1      1381 1.99842E+01 1.28306E-03 1.29730E-04 2.18750E-02-5.03945E-14-3.54737E-13
 -1      1382 2.00107E+01 1.76735E-03 2.90537E-04 2.26186E-02-6.77843E-14-4.23489E-13
 -1      1383 1.99857E+01 1.58182E-03-3.46323E-04 4.13887E-02-7.25375E-14-2.38936E-13
 -1      1384 2.00390E+01 2.29370E-03 1.69388E-04 2.72557E-02 1.54078E-14-4.73302E-13
 -1      1385 2.00723E+01 2.85734E-03 3.69023E-04 2.85381E-02-7.47818E-15-4.34609E-13
 -1      1386 2.00367E+01 3.15219E-03-6.24247E-04 4.99529E-02-5.38085E-14-2.56129E-13
 -1      1387 2.01082E+01 3.51337E-03 2.02372E-04 3.57766E-02 3.96739E-14-3.67576E-13
 -1      1388 2.01523E+01 4.15732E-03 4.59418E-04 3.77079E-02 4.11642E-14-3.14512E-13
 -1      1389 2.00998E+01 5.03572E-03-9.54235E-04 6.42586E-02 6.24410E-14-3.50997E-13
 -1      1390 2.01993E+01 4.99178E-03 2.19641E-04 4.80694E-02-2.94437E-15-2.76310E-13
 -1      1391 2.02588E+01 5.70990E-03 5.55176E-04 5.07866E-02-2.47970E-14-2.68902E-13
 -1      1392 2.01811E+01 7.31698E-03-1.34724E-03 8.54352E-02 3.72833E-14-3.10361E-13
 -1      1393 2.03209E+01 6.77790E-03 2.07338E-04 6.48900E-02-2.15255E-14-2.23576E-13
 -1      1394 2.04016E+01 7.54877E-03 6.44172E-04 6.85566E-02-2.01165E-14-3.09196E-13
 -1      1395 2.02880E+01 1.00827E-02-1.81408E-03 1.14846E-01 8.00336E-15-3.08952E-13
 -1      1396 2.04834E+01 8.90798E-03 1.44302E-04 8.70901E-02 2.52086E-14-2.73345E-13
 -1      1397 2.05920E+01 9.68107E-03 7.05014E-04 9.18886E-02 4.02842E-14-2.33453E-13
 -1      1398 2.04288E+01 1.34044E-02-2.36311E-03 1.54052E-01 4.09700E-14-1.64165E-13
 -1      1399 2.06990E+01 1.13818E-02-7.02259E-07 1.15534E-01 6.96116E-14-2.02715E-13
 -1      1400 2.08434E+01 1.20540E-02 7.02474E-04 1.21646E-01 1.03698E-13-1.03029E-13
 -1      1401 2.06134E+01 1.73032E-02-2.99610E-03 2.04689E-01 6.16126E-14-6.98403E-14
 -1      1402 2.09812E+01 1.41167E-02-2.70679E-04 1.50912E-01-3.24070E-14-9.01224E-14
 -1      1403 2.11702E+01 1.44934E-02 5.83682E-04 1.58473E-01-6.14196E-14-2.09644E-13
 -1      1404 2.08525E+01 2.16790E-02-3.70036E-03 2.68187E-01 1.70870E-15-4.90530E-14
 -1      1405 2.13447E+01 1.68629E-02-7.16900E-04 1.93363E-01-7.66104E-14-2.38391E-13
 -1      1406 2.15869E+01 1.65953E-02 2.80454E-04 2.02365E-01-5.56063E-14-3.85037E-13
 -1      1407 2.11575E+01 2.61769E-02-4.43396E-03 3.45181E-01-1.06063E-13-1.18032E-13
 -1      1408 2.18030E+01 1.90550E-02-1.38053E-03 2.41761E-01 4.28108E-14-4.41777E-13
 -1      1409 2.21054E+01 1.75506E-02-2.69765E-04 2.51875E-01 3.35313E-14-3.52534E-13
 -1      1410 2.15389E+01 2.99482E-02-5.09811E-03 4.34409E-01-2.01028E-14-2.11342E-13
 -1      1411 2.23652E+01 1.95765E-02-2.24065E-03 2.92473E-01 1.44511E-14-3.14044E-13
 -1      1412 2.27295E+01 1.58916E-02-1.06197E-03 3.02720E-01 1.83243E-14-2.29278E-13
 -1      1413 2.20040E+01 3.12610E-02-5.48788E-03 5.30751E-01 5.10273E-14-2.24053E-13
 -1      1414 2.30296E+01 1.64375E-02-3.10228E-03 3.37372E-01-6.51562E-14-1.77100E-13
 -1      1415 2.34457E+01 9.21722E-03-1.89472E-03 3.45595E-01-5.81933E-14-2.26976E-13
 -1      1416 2.25522E+01 2.69537E-02-5.21240E-03 6.22037E-01-1.17640E-14-1.53003E-13
 -1      1417 2.37725E+01 6.48639E-03-3.41183E-03 3.61107E-01-7.22732E-14-2.16214E-13
 -1      1418 2.42092E+01-5.86043E-03-2.18435E-03 3.63254E-01-7.64738E-14-3.20865E-13
 -1      1419 2.31686E+01 1.19075E-02-3.59122E-03 6.84496E-01-1.14593E-13-1.87345E-13
 -1      1420 2.45331E+01-1.44282E-02-2.07925E-03 3.38477E-01-6.86773E-14-3.94563E-13
 -1      1421 2.49250E+01-3.28966E-02-8.42011E-04 3.27956E-01-7.11991E-14-4.98676E-13
 -1      1422 2.38136E+01-2.07880E-02 4.06447E-04 6.77769E-01-1.75773E-13-2.41613E-13
 -1      1423 2.51945E+01-4.97847E-02 2.41301E-03 2.34785E-01-2.10283E-14-4.87277E-13
 -1      1424 2.54321E+01-7.26652E-02 3.38425E-03 2.02924E-01 1.58736E-14-5.27202E-13
 -1      1425 2.44116E+01-7.73134E-02 7.97796E-03 5.43301E-01-5.25500E-14-2.59396E-13
 -1      1426 2.55717E+01-9.76288E-02 1.09327E-02 1.57008E-02 1.53103E-13-4.59214E-13
 -1      1427 2.55078E+01-1.17022E-01 1.05961E-02-4.45973E-02 1.87907E-13-3.42205E-13
 -1      1428 2.48413E+01-1.55515E-01 1.96309E-02 2.15406E-01 1.21231E-13-1.95809E-13
 -1      1429 2.54284E+01-1.42251E-01 2.13824E-02-3.24803E-01-8.07826E-14-2.96877E-13
 -1      1430 2.49245E+01-1.41655E-01 1.73378E-02-4.09744E-01-1.42426E-13-3.53703E-13
 -1      1431 2.49411E+01-2.31811E-01 3.30936E-02-3.40425E-01 1.31790E-13-3.72902E-13
 -1      1432 2.45589E+01-1.48597E-01 2.61384E-02-7.18648E-01-1.50404E-13-4.31280E-13
 -1      1433 2.35852E+01-1.08420E-01 1.58015E-02-8.00928E-01-1.29587E-13-5.38763E-13
 -1      1434 2.45489E+01-2.51082E-01 4.06932E-02-1.05468E+00-1.97517E-13-3.87584E-13
 -1      1435 2.29538E+01-7.58843E-02 1.53748E-02-9.93464E-01-4.58505E-14-6.12094E-13
 -1      1436 2.17051E+01 6.06700E-03-1.54148E-03-1.02084E+00-2.02169E-14-6.05710E-13
 -1      1437 2.36003E+01-1.47787E-01 2.95679E-02-1.68126E+00-1.62084E-13-2.62838E-13
 -1      1438 2.09829E+01 7.32671E-02-1.31122E-02-9.33505E-01 2.14967E-14-5.52836E-13
 -1      1439 1.98916E+01 1.61342E-01-3.03153E-02-8.63246E-01-8.84709E-16-5.61190E-13
 -1      1440 2.22706E+01 8.62367E-02-7.34506E-03-1.83514E+00-2.79204E-14-4.25469E-13
 -1      1441 1.93786E+01 2.17788E-01-4.24195E-02-4.61095E-01 5.94316E-15-5.23706E-13
 -1      1442 1.89118E+01 2.51952E-01-4.96098E-02-3.11886E-01-2.85431E-14-6.13387E-13
 -1      1443 2.10334E+01 3.36075E-01-5.63658E-02-1.24864E+00-2.13544E-14-4.69000E-13
 -1      1444 1.88511E+01 2.44164E-01-4.75344E-02 2.12603E-01-1.50949E-13-6.23949E-13
 -1      1445 1.91875E+01 1.97757E-01-3.95753E-02 3.52353E-01-1.68185E-13-8.74731E-13
 -1      1446 2.04583E+01 4.31893E-01-7.66372E-02-1.01623E-01-7.21853E-14-4.90717E-13
 -1      1447 1.95499E+01 1.32887E-01-2.51616E-02 7.03853E-01 1.47798E-15-1.01537E-12
 -1      1448 2.04360E+01 4.29908E-02-8.50110E-03 7.54997E-01-2.58561E-14-9.75747E-13
 -1      1449 2.07735E+01 2.95991E-01-4.93004E-02 9.79426E-01-2.03434E-13-5.62606E-13
 -1      1450 2.09511E+01-2.28357E-02 3.54462E-03 7.80264E-01 1.95048E-14-8.95298E-13
 -1      1451 2.18990E+01-9.71490E-02 1.86473E-02 7.37261E-01 6.12357E-16-8.86957E-13
 -1      1452 2.16600E+01 3.34770E-02-3.16197E-05 1.42481E+00 5.54843E-14-7.70727E-13
 -1      1453 2.22779E+01-1.23604E-01 1.90669E-02 5.06081E-01-9.90995E-14-6.23571E-13
 -1      1454 2.28885E+01-1.52823E-01 2.72865E-02 4.18345E-01 3.58966E-14-8.18387E-13
 -1      1455 2.25361E+01-1.82136E-01 3.38538E-02 1.14834E+00 6.90680E-14-5.76785E-13
 -1      1456 2.29895E+01-1.41928E-01 1.93276E-02 1.04838E-01 1.38233E-13-8.61197E-13
 -1      1457 2.31190E+01-1.32524E-01 2.13441E-02 2.25042E-02 2.17604E-13-6.02320E-13
 -1      1458 2.29757E+01-2.58315E-01 4.04815E-02 4.72594E-01 1.14611E-13-3.71041E-13
 -1      1459 2.29522E+01-1.05175E-01 1.22165E-02-2.33253E-01 3.14069E-13-5.71623E-13
 -1      1460 2.26775E+01-7.60663E-02 1.07145E-02-2.85211E-01 2.13797E-13-2.06279E-13
 -1      1461 2.28680E+01-2.14936E-01 2.98213E-02-2.15685E-01 3.49007E-13-3.03350E-13
 -1      1462 2.23368E+01-4.74935E-02 3.91417E-03-4.19498E-01 9.93650E-15-2.00270E-13
 -1      1463 2.18439E+01-1.27622E-02 7.79199E-04-4.35810E-01-2.58617E-14-1.22020E-13
 -1      1464 2.23309E+01-1.15371E-01 1.33069E-02-6.79381E-01 1.90927E-13-4.43676E-13
 -1      1465 2.14469E+01 1.32356E-02-4.29615E-03-4.36661E-01 7.16940E-14-1.43517E-13
 -1      1466 2.09497E+01 4.70496E-02-6.11146E-03-4.18132E-01 7.10213E-14-3.96211E-14
 -1      1467 2.15782E+01-2.33510E-03-2.43025E-03-8.36320E-01 2.72770E-14-2.56781E-13
 -1      1468 2.06000E+01 7.40760E-02-1.00259E-02-2.92031E-01 6.75894E-14 1.04087E-13
 -1      1469 2.02894E+01 8.74470E-02-4.63467E-03-2.48115E-01-4.16429E-14 1.03260E-13
 -1      1470 2.08262E+01 1.14687E-01-1.24310E-02-6.90248E-01 1.13159E-13-2.34852E-13
 -1      1471 2.00183E+01 4.76242E-02-8.59834E-03-1.04458E-02-1.92122E-13 1.83898E-13
 -1      1472 2.01877E+01 1.79801E-01-1.11425E-02-2.49336E-01-1.18803E-13-8.34771E-15
 -1      1473 2.02594E+01 7.54763E-02-1.52096E-01 4.83953E-01 1.73396E-13 1.47491E-12
 -1      1474 2.15299E+01 2.16132E-01-2.29288E-01 7.20949E-01 1.54265E-13 1.74458E-12
 -1      1475 2.17284E+01 8.81779E-01-8.54677E-02 2.06503E+00 2.95611E-13 1.15222E-12
 -1      1476 1.93309E+01 3.23792E-02-2.13338E-02 1.86116E-01 1.29055E-13 1.13919E-12
 -1      1477 1.97517E+01 1.13616E-01-6.27029E-02 2.38125E-01 1.21347E-13 1.33534E-12
 -1      1478 2.03030E+01 1.87678E-01-5.51913E-02 7.86370E-01 2.62845E-13 8.73747E-13
 -1      1479 1.89488E+01 1.51008E-02 5.66746E-03 5.36269E-02 9.44756E-14 8.78880E-13
 -1      1480 1.90876E+01 5.16205E-02 9.76466E-04 7.99369E-02 9.38000E-14 1.03873E-12
 -1      1481 1.95577E+01 7.18336E-02-1.21548E-02 2.99197E-01 1.96924E-13 6.66679E-13
 -1      1482 1.88380E+01 7.11427E-03 6.97779E-03-8.84462E-03 8.02886E-14 6.80560E-13
 -1      1483 1.88528E+01 2.58502E-02 1.10888E-02 5.54832E-03 8.02002E-14 7.96502E-13
 -1      1484 1.92220E+01 3.10247E-02-2.46072E-03 8.37376E-02 1.66609E-13 4.86593E-13
 -1      1485 1.88636E+01 3.20118E-03 4.78471E-03-3.90635E-02 3.72452E-14 5.29795E-13
 -1      1486 1.88201E+01 1.37954E-02 8.52016E-03-3.09533E-02 4.84519E-14 6.09613E-13
 -1      1487 1.91051E+01 1.32475E-02-1.61509E-03-2.11868E-02 1.19509E-13 3.67888E-13
 -1      1488 1.89572E+01 1.04268E-03 3.29662E-03-5.24514E-02 1.36557E-14 4.84205E-13
 -1      1489 1.88870E+01 7.26302E-03 5.36732E-03-4.79909E-02 7.53000E-15 5.06865E-13
 -1      1490 1.91059E+01 4.51966E-03-1.62894E-03-7.26038E-02 3.59012E-14 2.85806E-13
 -1      1491 1.90808E+01-2.05133E-04 2.51444E-03-5.63524E-02 4.37143E-14 4.20764E-13
 -1      1492 1.90011E+01 3.42669E-03 3.43102E-03-5.41529E-02 2.85606E-14 4.47069E-13
 -1      1493 1.91680E+01-1.36048E-04-1.37268E-03-9.51560E-02 5.81205E-14 2.01247E-13
 -1      1494 1.92127E+01-9.08631E-04 2.04953E-03-5.48080E-02 4.31536E-14 2.86613E-13
 -1      1495 1.91330E+01 1.09628E-03 2.32931E-03-5.40288E-02 5.20293E-14 3.82609E-13
 -1      1496 1.92593E+01-2.65141E-03-9.96578E-04-1.01257E-01 8.00101E-14 1.85177E-13
 -1      1497 1.93404E+01-1.26336E-03 1.70450E-03-5.02654E-02 2.19360E-14 2.29919E-13
 -1      1498 1.92660E+01-3.04221E-04 1.65228E-03-5.03618E-02 1.05891E-15 2.42583E-13
 -1      1499 1.93608E+01-3.91047E-03-6.54049E-04-9.79280E-02 4.51753E-14 8.76619E-14
 -1      1500 1.94571E+01-1.38837E-03 1.41274E-03-4.42816E-02 2.73028E-14 2.44199E-13
 -1      1501 1.93908E+01-1.09727E-03 1.19390E-03-4.48882E-02 2.77296E-14 2.68936E-13
 -1      1502 1.94612E+01-4.39123E-03-3.91635E-04-8.94661E-02 3.10439E-14 9.63240E-14
 -1      1503 1.95598E+01-1.36135E-03 1.15605E-03-3.78694E-02 1.70239E-14 1.94052E-13
 -1      1504 1.95026E+01-1.48197E-03 8.65094E-04-3.87366E-02 1.93552E-14 2.22068E-13
 -1      1505 1.95543E+01-4.38031E-03-2.06650E-04-7.86209E-02 2.88371E-14 1.39611E-13
 -1      1506 1.96476E+01-1.23371E-03 9.29342E-04-3.16927E-02 2.70417E-14 2.19608E-13
 -1      1507 1.95994E+01-1.58796E-03 6.24433E-04-3.26474E-02 7.88998E-15 2.10641E-13
 -1      1508 1.96374E+01-4.05983E-03-8.50726E-05-6.71888E-02 8.09135E-15 8.29366E-14
 -1      1509 1.97214E+01-1.03849E-03 7.29882E-04-2.61882E-02 2.13682E-14 1.75360E-13
 -1      1510 1.96815E+01-1.50057E-03 4.48861E-04-2.71085E-02 2.52058E-14 2.09136E-13
 -1      1511 1.97094E+01-3.54697E-03-1.40023E-05-5.63547E-02 3.63506E-14 1.16345E-13
 -1      1512 1.97830E+01-7.95140E-04 5.54555E-04-2.16506E-02 5.63249E-14 2.17837E-14
 -1      1513 1.97502E+01-1.27430E-03 3.23390E-04-2.24470E-02 7.39593E-14 9.49104E-14
 -1      1514 1.97710E+01-2.91468E-03 1.57980E-05-4.69100E-02 1.03184E-13 3.89590E-14
 -1      1515 1.98352E+01-5.12781E-04 3.99349E-04-1.82931E-02-4.89358E-14-1.12386E-14
 -1      1516 1.98079E+01-9.40781E-04 2.37377E-04-1.88951E-02-5.64230E-15 1.83339E-16
 -1      1517 1.98238E+01-2.20386E-03 9.88150E-06-3.94046E-02 3.85743E-14 4.70379E-14
 -1      1518 1.98811E+01-1.92566E-04 2.59347E-04-1.62943E-02 1.21994E-14-2.07411E-14
 -1      1519 1.98574E+01-5.14082E-04 1.82915E-04-1.66389E-02-2.67732E-14-2.46908E-14
 -1      1520 1.98702E+01-1.43153E-03-2.95332E-05-3.42566E-02-2.90478E-14-1.31739E-14
 -1      1521 1.99245E+01 1.70274E-04 1.28862E-04-1.58327E-02 6.22629E-14-1.05838E-13
 -1      1522 1.99024E+01 5.37682E-06 1.53945E-04-1.58554E-02 4.79218E-14-1.55163E-14
 -1      1523 1.99131E+01-5.96767E-04-1.03223E-04-3.18353E-02 6.33237E-14-7.78905E-14
 -1      1524 1.99695E+01 5.84438E-04 1.64604E-06-1.71117E-02-8.33387E-14-1.64803E-13
 -1      1525 1.99466E+01 6.27451E-04 1.45651E-04-1.67397E-02 3.11705E-15-1.36008E-13
 -1      1526 1.99560E+01 3.14215E-04-2.14628E-04-3.25218E-02 7.20407E-14 4.09361E-14
 -1      1527 2.00211E+01 1.06032E-03-1.28856E-04-2.03754E-02-7.00441E-14-1.44957E-14
 -1      1528 1.99948E+01 1.36882E-03 1.53949E-04-1.95218E-02-7.24903E-14-1.45446E-13
 -1      1529 2.00029E+01 1.32311E-03-3.69435E-04-3.67500E-02-8.61588E-14 2.05163E-14
 -1      1530 2.00848E+01 1.60709E-03-2.69149E-04-2.59118E-02-5.28630E-14 2.47047E-14
 -1      1531 2.00521E+01 2.24882E-03 1.74964E-04-2.44733E-02-2.79476E-14-2.70723E-14
 -1      1532 2.00582E+01 2.45399E-03-5.74955E-04-4.50267E-02-5.78304E-14-1.51318E-14
 -1      1533 2.01670E+01 2.22843E-03-4.25100E-04-3.40419E-02 1.15487E-14 3.66793E-14
 -1      1534 2.01243E+01 3.28356E-03 2.04408E-04-3.18993E-02-1.98367E-14 2.05980E-14
 -1      1535 2.01274E+01 3.72608E-03-8.39065E-04-5.79262E-02-5.23196E-14 3.02064E-15
 -1      1536 2.02747E+01 2.91621E-03-6.00830E-04-4.50862E-02 1.12284E-13-1.46882E-13
 -1      1537 2.02182E+01 4.47705E-03 2.36862E-04-4.21107E-02 8.43490E-14-3.03001E-14
 -1      1538 2.02161E+01 5.14337E-03-1.16835E-03-7.60492E-02 1.01645E-13-1.03324E-14
 -1      1539 2.04159E+01 3.64062E-03-7.96612E-04-5.92972E-02 7.64215E-14-4.03416E-13
 -1      1540 2.03411E+01 5.80742E-03 2.65018E-04-5.53655E-02 1.16669E-13-2.62098E-13
 -1      1541 2.03309E+01 6.67890E-03-1.56487E-03-9.99304E-02 2.05264E-13-1.69525E-13
 -1      1542 2.05985E+01 4.33556E-03-1.00489E-03-7.67412E-02-6.15632E-14-3.09114E-13
 -1      1543 2.05010E+01 7.20545E-03 2.79106E-04-7.17656E-02-6.41870E-14-4.19105E-13
 -1      1544 2.04785E+01 8.25075E-03-2.02072E-03-1.29867E-01 3.21776E-14-2.70581E-13
 -1      1545 2.08303E+01 4.87726E-03-1.20294E-03-9.71046E-02-6.10972E-14-1.51237E-13
 -1      1546 2.07056E+01 8.52224E-03 2.67174E-04-9.10856E-02-2.06027E-14-2.06563E-13
 -1      1547 2.06654E+01 9.68593E-03-2.50889E-03-1.65634E-01-1.13796E-13-2.14805E-13
 -1      1548 2.11168E+01 5.05572E-03-1.34009E-03-1.19394E-01 4.97262E-14-1.11185E-13
 -1      1549 2.09616E+01 9.48298E-03 2.17537E-04-1.12507E-01-1.14502E-14-6.79448E-14
 -1      1550 2.08971E+01 1.06684E-02-2.96891E-03-2.06034E-01-7.10543E-15-1.39861E-13
 -1      1551 2.14594E+01 4.54150E-03-1.31730E-03-1.41500E-01 1.52340E-13-4.37071E-13
 -1      1552 2.12728E+01 9.62695E-03 1.25715E-04-1.34230E-01 1.73949E-13-1.79542E-13
 -1      1553 2.11765E+01 1.06701E-02-3.28554E-03-2.48226E-01 2.04324E-13-1.02663E-13
 -1      1554 2.18516E+01 2.86034E-03-9.59961E-04-1.59621E-01-1.38957E-13-3.21104E-13
 -1      1555 2.16371E+01 8.24483E-03 8.89474E-06-1.52953E-01-9.17884E-14-4.55414E-13
 -1      1556 2.15013E+01 8.87496E-03-3.26125E-03-2.86817E-01-9.30159E-15-3.12740E-14
 -1      1557 2.22740E+01-5.92208E-04 5.82601E-06-1.67628E-01-4.70036E-14-4.58626E-14
 -1      1558 2.20424E+01 4.34943E-03-7.04886E-05-1.63275E-01-1.00799E-13-1.80498E-13
 -1      1559 2.18609E+01 4.13163E-03-2.59013E-03-3.12758E-01-1.91140E-13-1.85878E-13
 -1      1560 2.26878E+01-6.42909E-03 1.93939E-03-1.56635E-01-3.76091E-14-9.77760E-14
 -1      1561 2.24613E+01-3.23475E-03 2.19050E-05-1.57241E-01 2.98387E-14-8.01546E-14
 -1      1562 2.22323E+01-4.97283E-03-8.57610E-04-3.12366E-01-2.93732E-14-8.15064E-14
 -1      1563 2.30295E+01-1.49361E-02 5.16213E-03-1.15416E-01 4.04915E-14-2.03587E-13
 -1      1564 2.28450E+01-1.55072E-02 4.96796E-04-1.24538E-01-2.29621E-14-1.66813E-13
 -1      1565 2.25753E+01-1.97388E-02 2.38064E-03-2.67247E-01-7.27283E-16 1.70927E-14
 -1      1566 2.32086E+01-2.54214E-02 9.62738E-03-3.27828E-02-4.67096E-14-1.12709E-14
 -1      1567 2.31190E+01-3.24540E-02 1.56665E-03-5.42910E-02-1.44598E-14-6.59941E-14
 -1      1568 2.28294E+01-4.04132E-02 7.35959E-03-1.56661E-01-1.02689E-13 9.66371E-14
 -1      1569 2.31163E+01-3.53039E-02 1.43543E-02 9.67002E-02-3.17159E-14 2.48902E-13
 -1      1570 2.31857E+01-5.16546E-02 3.22999E-03 6.02894E-02-9.39249E-14 7.77724E-14
 -1      1571 2.29164E+01-6.45018E-02 1.36421E-02 3.54429E-02-9.52103E-14 1.89605E-13
 -1      1572 2.26527E+01-3.94534E-02 1.68731E-02 2.63150E-01 3.30994E-14 2.31294E-13
 -1      1573 2.29395E+01-6.67713E-02 4.91301E-03 2.13678E-01 3.62210E-15 2.67990E-13
 -1      1574 2.27519E+01-8.45944E-02 1.95794E-02 3.06894E-01-5.60073E-14 3.51281E-13
 -1      1575 2.17779E+01-3.13152E-02 1.34543E-02 4.31066E-01 2.37510E-14 4.34375E-15
 -1      1576 2.23042E+01-6.76227E-02 5.15043E-03 3.78147E-01 9.02950E-14 1.30625E-13
 -1      1577 2.22738E+01-8.75275E-02 2.21057E-02 6.18997E-01 1.33697E-13 1.31133E-13
 -1      1578 2.05742E+01-7.28615E-03 1.32306E-03 5.38675E-01 4.64503E-14-1.26205E-13
 -1      1579 2.12886E+01-4.45371E-02 2.00619E-03 5.00175E-01 6.07227E-14-4.23689E-14
 -1      1580 2.14864E+01-5.85962E-02 1.78407E-02 8.84695E-01 1.10831E-13 4.49623E-14
 -1      1581 1.92812E+01 2.75740E-02-1.75895E-02 5.19650E-01 5.68356E-14-1.09496E-13
 -1      1582 2.00390E+01 3.00761E-03-5.27622E-03 5.15451E-01 1.57617E-14-1.69427E-13
 -1      1583 2.05031E+01 7.12301E-03 5.87051E-03 9.85100E-01 3.92668E-14-1.25597E-13
 -1      1584 1.82484E+01 5.77408E-02-3.47502E-02 3.46068E-01 1.20597E-13-2.94029E-13
 -1      1585 1.88427E+01 5.93614E-02-1.42421E-02 3.85386E-01 1.14782E-13-1.75707E-13
 -1      1586 1.95509E+01 9.19362E-02-9.85840E-03 8.26911E-01 1.34247E-13-3.10380E-13
 -1      1587 1.77894E+01 6.57125E-02-3.91495E-02 6.59604E-02 2.00126E-14-5.40620E-13
 -1      1588 1.80388E+01 9.69558E-02-1.93998E-02 1.36597E-01 1.07666E-13-4.10963E-13
 -1      1589 1.89021E+01 1.55979E-01-2.11848E-02 4.19548E-01 1.85350E-13-1.96274E-13
 -1      1590 1.80092E+01 4.66141E-02-2.64724E-02-2.09306E-01-1.52339E-13-3.54813E-13
 -1      1591 1.78576E+01 9.52710E-02-1.63593E-02-1.36664E-01-8.33777E-14-5.75586E-13
 -1      1592 1.87413E+01 1.60115E-01-2.24344E-02-9.48008E-02-4.62026E-14-3.63013E-13
 -1      1593 1.87390E+01 1.20363E-02-4.25425E-03-3.70619E-01 1.35713E-13-4.16597E-13
 -1      1594 1.82901E+01 5.70756E-02-6.12050E-03-3.24835E-01 7.10283E-15-4.20438E-13
 -1      1595 1.90596E+01 9.94967E-02-1.48437E-02-5.10296E-01-1.55171E-15-4.42205E-13
 -1      1596 1.96370E+01-1.92468E-02 1.57049E-02-3.75773E-01-1.29157E-13-4.90032E-13
 -1      1597 1.90934E+01 5.49321E-03 5.41179E-03-3.68252E-01 1.56249E-14-4.70776E-13
 -1      1598 1.96607E+01 8.95091E-03-4.26483E-03-6.79874E-01 1.21612E-13-3.62467E-13
 -1      1599 2.03710E+01-3.51509E-02 2.52528E-02-2.59773E-01 7.98073E-14-4.25049E-13
 -1      1600 1.99273E+01-3.45255E-02 1.27998E-02-2.82685E-01 7.12798E-14-4.28824E-13
 -1      1601 2.02756E+01-6.53706E-02 4.07626E-03-5.90124E-01-1.72822E-14-2.26241E-13
 -1      1602 2.07527E+01-3.42883E-02 2.36373E-02-9.66919E-02-6.50651E-14-4.62283E-13
 -1      1603 2.05181E+01-5.06349E-02 1.39618E-02-1.32529E-01-1.14093E-14-5.72164E-13
 -1      1604 2.06932E+01-9.72528E-02 7.75860E-03-3.38013E-01 4.66918E-14-3.40721E-13
 -1      1605 2.07688E+01-2.17525E-02 1.46528E-02 4.40405E-02 4.47780E-14-6.60806E-13
 -1      1606 2.07493E+01-4.39017E-02 1.02979E-02 1.20814E-02 1.19869E-13-4.96081E-13
 -1      1607 2.08275E+01-8.72436E-02 6.90745E-03-5.56830E-02 9.49241E-14-5.40194E-13
 -1      1608 2.05366E+01-3.76366E-03 3.09125E-03 1.18664E-01 1.39166E-14-6.00967E-13
 -1      1609 2.06606E+01-2.18869E-02 4.32965E-03 1.01995E-01 1.47777E-15-5.97828E-13
 -1      1610 2.07123E+01-5.01455E-02 2.68501E-03 1.50628E-01 5.18830E-14-2.10087E-13
 -1      1611 2.02373E+01 1.31818E-02-5.67202E-03 1.11275E-01-6.73651E-14-7.26703E-13
 -1      1612 2.03941E+01 6.34437E-03-1.47458E-03 1.15181E-01 3.87140E-14-7.30820E-13
 -1      1613 2.04582E+01-1.18113E-03-2.56456E-03 2.23003E-01 9.06285E-14-1.78058E-13
 -1      1614 2.00455E+01 2.41185E-02 1.13944E-03 3.88790E-02-6.32827E-15-7.47779E-13
 -1      1615 2.01258E+01 2.88511E-02-2.64540E-03 5.97036E-02-1.35668E-14-7.93123E-13
 -1      1616 2.01978E+01 4.33667E-02-4.01929E-03 1.56522E-01 7.80057E-14-4.25090E-13
 -1      1617 1.99997E+01 1.07585E-02 4.34467E-03-3.24637E-03-3.67801E-13-3.77324E-13
 -1      1618 2.00429E+01 2.16140E-01-3.75733E-03 1.07646E-01-4.20912E-13-4.62083E-14
 -1      1619 2.00406E+01 1.06396E-01 2.00080E-03 8.28369E-02-5.10727E-13 2.64710E-13
 -1      1620 2.00515E+01 6.56069E-01-3.26197E-03 2.36863E-01-2.92031E-13 3.77563E-14
 -1      1621 2.00499E+01 3.84831E-01-4.09865E-03 2.09598E-01-2.79633E-13-8.22701E-14
 -1      1622 2.00867E+01 3.38689E-01-1.17578E-02 3.11304E-01-1.55133E-13 6.82614E-15
 -1      1623 2.00536E+01 1.38035E+00-3.81435E-03 3.85093E-01-6.98955E-14 2.96861E-13
 -1      1624 2.00568E+01 9.30880E-01-5.90839E-03 3.54326E-01-3.28895E-13 2.43997E-13
 -1      1625 2.00952E+01 7.65013E-01-1.49024E-02 5.75156E-01-6.50641E-15 1.36168E-13
 -1      1626 2.00429E+01 2.39709E+00-4.26336E-03 5.29521E-01 1.32141E-13 4.65131E-14
 -1      1627 2.00543E+01 1.77550E+00-7.14002E-03 5.00994E-01-1.29792E-13 2.99088E-13
 -1      1628 2.00914E+01 1.41524E+00-1.64081E-02 8.57391E-01-6.75432E-14 3.00404E-13
 -1      1629 2.00131E+01 3.61488E+00-3.49009E-03 6.25887E-01 1.07636E-13 1.99347E-13
 -1      1630 2.00351E+01 2.88722E+00-6.76872E-03 6.10465E-01-6.80081E-14-1.60464E-14
 -1      1631 2.00641E+01 2.28468E+00-1.25700E-02 1.09782E+00-9.52198E-14-8.54052E-14
 -1      1632 1.99658E+01 4.90788E+00-3.69899E-04 6.25088E-01-2.44735E-13-4.90446E-13
 -1      1633 1.99960E+01 4.16139E+00-3.83199E-03 6.33300E-01 1.22652E-13-2.07149E-13
 -1      1634 2.00062E+01 3.30884E+00-2.77942E-03 1.20983E+00-2.32868E-13-7.41336E-14
 -1      1635 1.99148E+01 6.00313E+00 4.21128E-03 4.88397E-01-2.86521E-13-1.11813E-13
 -1      1636 1.99438E+01 5.40519E+00 1.28987E-03 5.26702E-01-1.42449E-13-2.28944E-13
 -1      1637 1.99236E+01 4.34798E+00 1.22438E-02 1.10447E+00-1.45450E-13-3.98771E-13
 -1      1638 1.98799E+01 6.63483E+00 7.93100E-03 2.23070E-01 4.29431E-14 2.10720E-13
 -1      1639 1.98964E+01 6.33706E+00 6.40732E-03 2.85857E-01-2.83197E-13 2.66079E-13
 -1      1640 1.98432E+01 5.18083E+00 2.78546E-02 7.41544E-01 9.93927E-14 1.26572E-13
 -1      1641 1.98773E+01 6.62446E+00 8.37835E-03-1.09897E-01 3.82767E-14 1.35225E-13
 -1      1642 1.98741E+01 6.71420E+00 8.88563E-03-3.97204E-02-1.06251E-13 7.66383E-14
 -1      1643 1.97969E+01 5.59727E+00 3.71443E-02 1.75297E-01 1.21318E-13 1.31405E-13
 -1      1644 1.99082E+01 5.96095E+00 5.06121E-03-4.18454E-01 8.62539E-14-5.06470E-14
 -1      1645 1.98876E+01 6.42248E+00 7.74180E-03-3.61656E-01 1.20993E-13 1.50732E-13
 -1      1646 1.98047E+01 5.47576E+00 3.52946E-02-4.51807E-01 2.50802E-14 1.13951E-13
 -1      1647 1.99582E+01 4.82787E+00 3.62910E-04-6.20923E-01 1.80259E-13 3.04418E-13
 -1      1648 1.99281E+01 5.53640E+00 3.90625E-03-5.91548E-01 1.89241E-13-1.31238E-13
 -1      1649 1.98640E+01 4.84789E+00 2.38941E-02-9.66719E-01 1.74211E-13-9.96928E-14
 -1      1650 2.00097E+01 3.44432E+00-4.13132E-03-6.90005E-01 4.20920E-13 1.28800E-14
 -1      1651 1.99795E+01 4.26755E+00 3.45771E-05-6.88700E-01 2.83037E-13 3.33905E-13
 -1      1652 1.99459E+01 3.86757E+00 7.81345E-03-1.25551E+00 3.28546E-13 4.69523E-13
 -1      1653 2.00494E+01 2.09909E+00-6.98317E-03-6.34068E-01 2.45259E-13-8.99584E-14
 -1      1654 2.00245E+01 2.86989E+00-3.02644E-03-6.54001E-01 4.29198E-13 4.19673E-14
 -1      1655 2.00273E+01 2.74239E+00-6.38922E-03-1.28934E+00 2.84066E-13-1.81756E-14
 -1      1656 2.00818E+01 1.02720E+00-1.41031E-03-4.83018E-01-1.32385E-13-1.45084E-13
 -1      1657 2.00542E+01 1.60556E+00-6.30653E-03-5.15398E-01 1.54432E-13-2.17551E-13
 -1      1658 2.00968E+01 1.68525E+00-1.47599E-02-1.10269E+00 1.72503E-13-2.65082E-13
 -1      1659 2.01485E+01 4.01845E-01 7.39717E-03-3.63025E-01-8.89746E-14-1.43957E-13
 -1      1660 2.01351E+01 7.19215E-01-3.71970E-03-4.48183E-01-2.09954E-14-1.21105E-13
 -1      1661 2.02066E+01 8.96339E-01-1.94479E-02-8.80626E-01 2.46387E-13-2.05070E-13
 -1      1662 2.04018E+01 3.83122E-01-1.10043E-02-6.82504E-01 3.26382E-14-1.75011E-13
 -1      1663-6.43701E-01-1.63084E+01-1.81940E+00-1.06036E+00 1.32117E-14 3.01453E-13
 -1      1664-6.55394E-01-1.86287E+01-2.02849E+00 3.44284E-01-3.65957E-13 1.29119E-13
 -1      1665 1.09550E+00-9.50974E+00-1.33703E+00 1.26652E-01 8.51652E-13 7.91783E-13
 -1      1666 4.36154E-01-1.50157E+01-1.91893E+00-4.05266E-01 3.05977E-13 4.81046E-13
 -1      1667 8.09052E+00-1.11232E+00-4.62781E-01 5.12075E+00 1.36136E-12 1.16529E-12
 -1      1668 4.58196E+00-7.28365E+00-1.30848E+00 1.94742E+00 9.65006E-13 9.17433E-13
 -1      1669 1.90627E+01 5.52358E+00 3.99692E-01 1.05275E+01 1.45606E-12 1.72240E-12
 -1      1670 1.16422E+01 1.77343E+00-6.09229E-01 6.35222E+00 1.58895E-12 1.41420E-12
 -1      1671 3.50895E+01 6.28489E+00 1.15276E+00 1.27493E+01 1.11133E-12 1.73461E-12
 -1      1672 2.51580E+01 6.14667E+00 2.72146E-01 1.09575E+01 1.30662E-12 1.73084E-12
 -1      1673 4.85179E+01 5.05268E+00 1.69128E+00 1.01542E+01 7.63577E-13 9.80216E-13
 -1      1674 4.01079E+01 6.71339E+00 1.06849E+00 1.22041E+01 1.07908E-12 1.54698E-12
 -1      1675 5.56276E+01 3.69093E+00 1.85197E+00 3.03714E+00 3.00038E-13 2.95930E-13
 -1      1676 5.16631E+01 4.90602E+00 1.62724E+00 8.20218E+00 4.71373E-13 8.50653E-13
 -1      1677 5.30679E+01 4.33962E+00 1.56393E+00-5.36151E+00 5.13367E-13-5.27578E-13
 -1      1678 5.55936E+01 3.78308E+00 1.79715E+00 3.84844E-01 3.63154E-13 6.09235E-14
 -1      1679 4.23784E+01 5.93096E+00 1.00876E+00-1.02097E+01 4.77979E-13-8.39662E-13
 -1      1680 4.99317E+01 4.31996E+00 1.50666E+00-7.10386E+00 4.43062E-13-5.44897E-13
 -1      1681 2.85290E+01 6.60981E+00 4.12454E-01-1.15358E+01 7.76601E-13-9.40137E-13
 -1      1682 3.81280E+01 5.82246E+00 1.13567E+00-1.21523E+01 5.49949E-13-8.86846E-13
 -1      1683 1.50834E+01 3.83963E+00-3.48099E-01-7.96252E+00 7.36966E-13-8.22675E-13
 -1      1684 2.29746E+01 6.10904E+00 5.41829E-01-1.13988E+01 7.10765E-13-9.63229E-13
 -1      1685 6.49660E+00-3.47931E+00-1.03525E+00-3.16682E+00 3.97238E-13-3.47833E-13
 -1      1686 1.10185E+01 1.63556E+00-2.06113E-01-6.67317E+00 5.32019E-13-6.60472E-13
 -1      1687 1.58422E+00-1.14622E+01-1.54914E+00-3.58430E-01-2.81553E-13-3.15567E-13
 -1      1688 3.08827E+00-5.54814E+00-9.14740E-01-1.89078E+00 2.57350E-13-4.04732E-13
 -1      1689-3.55304E-01-1.66445E+01-1.76512E+00-1.71229E-01-7.06657E-13-8.16014E-14
 -1      1690-2.80720E-01-1.32235E+01-1.48377E+00 7.80270E-01-3.38840E-13-2.44249E-13
 -1      1691-7.43694E-01-1.58003E+01-1.57123E+00-9.83594E-01-9.29479E-13-3.43808E-13
 -1      1692-7.07943E-01-1.63517E+01-1.60443E+00 4.94370E-01-6.49064E-13-1.80300E-13
 -1      1693 1.95349E-01-1.14610E+01-1.41998E+00-7.36766E-01-1.17806E-12-4.38427E-13
 -1      1694-3.21940E-02-1.57622E+01-1.76069E+00-3.81281E-01-1.06082E-12-2.66231E-13
 -1      1695 4.14784E+00-3.73628E+00-8.88281E-01 2.32443E+00-8.25118E-13-1.45106E-13
 -1      1696 2.08514E+00-9.61547E+00-1.56923E+00 1.39472E-01-1.29741E-12-2.77278E-13
 -1      1697 1.32543E+01 2.99801E+00-1.06452E-01 7.64764E+00-4.13891E-13-8.95950E-14
 -1      1698 7.74013E+00-1.57074E+00-1.00991E+00 3.81003E+00-6.39266E-13-2.56906E-13
 -1      1699 2.67979E+01 5.90131E+00 6.95938E-01 1.17233E+01-7.21645E-14 7.63833E-14
 -1      1700 1.82241E+01 4.35737E+00-2.45887E-01 8.76073E+00-3.23519E-13-5.06262E-14
 -1      1701 4.21061E+01 5.35618E+00 1.42494E+00 1.14700E+01 8.81517E-14 3.39728E-13
 -1      1702 3.24044E+01 6.22991E+00 6.03649E-01 1.14801E+01 6.66689E-14 2.81553E-13
 -1      1703 5.39493E+01 3.90886E+00 1.96238E+00 6.58363E+00-4.01346E-14 9.04499E-13
 -1      1704 4.68691E+01 5.46319E+00 1.42596E+00 1.03112E+01 3.57492E-14 5.55889E-13
 -1      1705 5.74944E+01 3.53982E+00 2.03637E+00-1.48313E+00-3.01426E-14 1.00108E-12
 -1      1706 5.61050E+01 3.82212E+00 1.94191E+00 4.10133E+00 3.08087E-14 8.80962E-13
 -1      1707 5.15104E+01 5.17645E+00 1.70719E+00-9.06831E+00-2.14356E-13 8.73079E-13
 -1      1708 5.63242E+01 3.78882E+00 2.01919E+00-4.12649E+00-1.67366E-13 7.58615E-13
 -1      1709 3.88680E+01 7.09074E+00 1.10099E+00-1.29270E+01-7.78988E-13 1.09734E-12
 -1      1710 4.80233E+01 5.41081E+00 1.78422E+00-1.13329E+01-4.51264E-13 9.44467E-13
 -1      1711 2.41145E+01 6.09109E+00 2.20019E-01-1.08688E+01-8.63087E-13 1.11822E-12
 -1      1712 3.35472E+01 6.58744E+00 1.13207E+00-1.30126E+01-8.41105E-13 1.19194E-12
 -1      1713 1.19213E+01 3.49029E-01-6.75936E-01-5.89123E+00-8.67528E-13 6.80900E-13
 -1      1714 1.90574E+01 4.25033E+00 2.84508E-01-9.93612E+00-8.09908E-13 1.02596E-12
 -1      1715 3.75922E+00-7.47324E+00-1.44398E+00-1.42783E+00-1.32849E-12 5.01932E-13
 -1      1716 6.88999E+00-1.39238E+00-6.18918E-01-4.45109E+00-1.05427E-12 5.31464E-13
 -1      1717 4.24472E-01-1.51662E+01-1.92817E+00 4.63026E-01-9.24816E-13 5.16382E-13
 -1      1718 1.04978E+00-9.76995E+00-1.38783E+00-2.78665E-03-1.27343E-12 6.63358E-13
 -1      1719-6.77747E-01-1.87106E+01-2.03933E+00-2.79910E-01-6.78263E-13 6.49480E-14
 -1      1720-6.96046E-01-1.65147E+01-1.85551E+00 1.17826E+00-9.28146E-13 3.77448E-13
 -1      1721 2.65422E+01 1.19123E+00 4.18762E-01 7.68780E+00 1.05449E-12 1.34559E-12
 -1      1722 1.54282E+01-3.79317E+00-3.35734E-01 6.79009E+00 8.50209E-13 1.07192E-12
 -1      1723 2.00375E+01 3.69159E-02-1.49291E-03 3.36780E-02-4.60859E-13 2.33263E-14
 -1      1724 2.00877E+01 1.23798E-01-4.69274E-03 1.38028E-01-1.87093E-13 1.65073E-13
 -1      1725 3.81872E-01-1.17346E+01-1.33469E+00 2.34855E+00 3.60822E-14 6.84230E-13
 -1      1726 6.54972E+00-8.23208E+00-8.34534E-01 5.08809E+00 3.27849E-13 9.72094E-13
 -1      1727-1.48340E+00-1.28415E+01-1.43664E+00 5.70966E-02-2.63400E-13 4.01013E-13
 -1      1728 3.70897E+01 4.61219E+00 9.81721E-01 6.54804E+00 9.96855E-13 1.00464E-12
 -1      1729 4.47815E+01 6.87629E+00 1.41626E+00 4.45645E+00 8.29170E-13 7.31359E-13
 -1      1730 4.75573E+01 7.75048E+00 1.52909E+00 9.89946E-01 6.07514E-13 3.64292E-15
 -1      1731 4.45463E+01 7.07120E+00 1.21040E+00-2.11435E+00 5.81646E-13-1.72640E-14
 -1      1732 3.85485E+01 5.11734E+00 9.77837E-01-5.33662E+00 2.42632E-13-2.63678E-13
 -1      1733 2.90078E+01 2.43370E+00 5.27958E-01-7.48320E+00 2.45692E-13-2.66565E-13
 -1      1734 1.82876E+01-1.83046E+00-1.54469E-01-6.93587E+00 1.11355E-13-4.20552E-13
 -1      1735 9.25762E+00-6.24184E+00-6.22947E-01-5.58273E+00-1.80189E-13-3.06061E-13
 -1      1736 2.15739E+00-9.74972E+00-1.04795E+00-3.39561E+00-3.63376E-13-5.17031E-13
 -1      1737-1.09917E+00-1.10775E+01-1.15684E+00-9.42179E-01-4.48197E-13-3.28626E-13
 -1      1738-5.08414E-01-1.08880E+01-1.13748E+00 1.33319E+00-4.32820E-13-3.65097E-13
 -1      1739 3.44314E+00-9.30561E+00-1.07251E+00 3.32320E+00-6.17173E-13-8.65974E-14
 -1      1740 1.08480E+01-5.27111E+00-6.19063E-01 5.32839E+00-4.04676E-13 1.76525E-13
 -1      1741 2.09545E+01-9.07365E-01 1.19828E-02 6.84661E+00-2.05169E-13 2.40252E-13
 -1      1742 3.19668E+01 2.66758E+00 6.60453E-01 6.84584E+00-5.04596E-14 4.34985E-13
 -1      1743 4.16163E+01 5.35907E+00 1.20542E+00 5.06166E+00 5.85643E-15 7.45293E-13
 -1      1744 4.81236E+01 6.98354E+00 1.63710E+00 2.20301E+00-2.78111E-14 7.81764E-13
 -1      1745 4.89237E+01 7.57039E+00 1.69336E+00-1.55867E+00-7.02216E-14 6.09887E-13
 -1      1746 4.49185E+01 6.75922E+00 1.48608E+00-5.06242E+00-4.05287E-13 5.51781E-13
 -1      1747 3.65431E+01 4.28618E+00 9.41677E-01-7.24366E+00-6.15147E-13 7.30305E-13
 -1      1748 2.60147E+01 1.38057E-01 2.62975E-01-7.36763E+00-4.86500E-13 6.21170E-13
 -1      1749 1.53288E+01-4.20729E+00-2.98906E-01-6.72843E+00-5.40012E-13 2.68452E-13
 -1      1750 5.86018E+00-8.45514E+00-9.35552E-01-4.57560E+00-6.33049E-13 2.72934E-13
 -1      1751 3.56015E-01-1.18724E+01-1.34328E+00-2.22514E+00-5.96245E-13 4.53360E-13
 -1      1752 2.28602E+01 1.98484E+00-2.35553E-02-2.72250E+00-2.51684E-13 1.10773E-12
 -1      1753 1.98220E+01 3.71849E+00-3.49137E-02-2.15524E+00-3.39406E-13-2.75436E-13
 -1      1754 2.00513E+01 3.56055E+00-4.29513E-02-2.44179E+00-3.86026E-13-1.56927E-13
 -1      1755 2.03651E+01 3.18231E+00-4.52276E-02-2.58519E+00-3.93395E-13-2.28914E-14
 -1      1756 2.05842E+01 2.80919E+00-1.42628E-01-2.85342E+00-4.15942E-13 1.60677E-13
 -1      1757 2.04301E+01 2.69117E+00-3.00401E-03-2.22158E+00-4.10445E-13-6.89657E-14
 -1      1758 1.93547E+01 4.18892E+00-2.01844E-02-1.27062E+00-1.96676E-13-4.83051E-13
 -1      1759 1.94280E+01 4.14920E+00-1.71750E-02-1.49507E+00-2.32299E-13-4.59955E-13
 -1      1760 1.92581E+01 4.29461E+00-1.68062E-02-8.59742E-01-1.18698E-13-5.14727E-13
 -1      1761 1.93007E+01 4.27067E+00-1.43580E-02-1.07053E+00-1.54810E-13-5.05741E-13
 -1      1762 1.95265E+01 3.78287E+00-9.28555E-03-1.11966E+00-1.91822E-13-4.72011E-13
 -1      1763 1.92066E+01 4.35499E+00-1.48061E-02-4.66847E-01-3.34508E-14-5.22500E-13
 -1      1764 1.92285E+01 4.34215E+00-1.33282E-02-6.67166E-01-7.04091E-14-5.14829E-13
 -1      1765 1.94294E+01 3.90316E+00-9.22266E-03-7.33295E-01-1.02797E-13-4.96511E-13
 -1      1766 1.91872E+01 4.38059E+00-1.36708E-02-8.36417E-02 3.90626E-14-5.34970E-13
 -1      1767 1.91936E+01 4.37667E+00-1.32198E-02-2.79109E-01 4.89477E-15-5.29864E-13
 -1      1768 1.93792E+01 3.96759E+00-9.16621E-03-3.58348E-01-1.38807E-14-5.14137E-13
 -1      1769 1.91953E+01 4.37530E+00-1.31723E-02 2.98160E-01 9.38621E-14-5.27250E-13
 -1      1770 1.91877E+01 4.37976E+00-1.37536E-02 1.02532E-01 6.91571E-14-5.37093E-13
 -1      1771 1.93645E+01 3.98700E+00-9.14893E-03 1.05600E-02 5.85851E-14-5.22892E-13
 -1      1772 1.92326E+01 4.33813E+00-1.33308E-02 6.86936E-01 1.60574E-13-5.18675E-13
 -1      1773 1.92094E+01 4.35181E+00-1.49172E-02 4.86115E-01 1.31068E-13-5.26273E-13
 -1      1774 1.93819E+01 3.96430E+00-9.18949E-03 3.79656E-01 1.22269E-13-5.02114E-13
 -1      1775 1.93062E+01 4.26475E+00-1.44120E-02 1.08462E+00 2.19787E-13-4.70861E-13
 -1      1776 1.92628E+01 4.28921E+00-1.69723E-02 8.76642E-01 1.89907E-13-5.01162E-13
 -1      1777 1.94348E+01 3.89683E+00-9.19459E-03 7.51858E-01 1.93667E-13-4.89955E-13
 -1      1778 1.94379E+01 4.13758E+00-1.74049E-02 1.51463E+00 3.15509E-13-3.81785E-13
 -1      1779 1.93613E+01 4.18015E+00-2.05011E-02 1.28510E+00 2.63242E-13-4.27065E-13
 -1      1780 1.95345E+01 3.77297E+00-9.24010E-03 1.13564E+00 2.61137E-13-4.24639E-13
 -1      1781 1.96672E+01 3.92107E+00-2.51948E-02 1.97969E+00 3.98577E-13-2.68740E-13
 -1      1782 1.95343E+01 3.99783E+00-2.69026E-02 1.72236E+00 3.51910E-13-3.37341E-13
 -1      1783 1.97079E+01 3.56593E+00-8.69640E-03 1.53535E+00 3.58681E-13-3.34092E-13
 -1      1784 2.00761E+01 3.52277E+00-4.51864E-02 2.47211E+00 4.39187E-13-5.41650E-14
 -1      1785 1.98359E+01 3.68322E+00-3.97231E-02 2.18301E+00 4.09753E-13-1.87371E-13
 -1      1786 2.00045E+01 3.22283E+00-5.27186E-03 1.93465E+00 4.31182E-13-1.99391E-13
 -1      1787 2.09216E+01 2.68182E+00-5.76500E-02 2.85781E+00 4.21385E-13 3.51205E-13
 -1      1788 2.04141E+01 3.09694E+00-5.04288E-02 2.61602E+00 4.21369E-13 1.08573E-13
 -1      1789 2.05179E+01 2.60991E+00 3.18764E-03 2.24462E+00 4.47263E-13 3.72237E-14
 -1      1790 2.17321E+01 1.21298E+00-1.22095E-01 2.32987E+00 3.51108E-13 8.66709E-13
 -1      1791 2.12755E+01 2.26306E+00 1.17803E-04 2.74047E+00 3.87834E-13 5.25233E-13
 -1      1792 2.09382E+01 1.68502E+00-2.29607E-02 2.14023E+00 4.38451E-13 3.45557E-13
 -1      1793 2.09534E+01 7.78678E-01-6.24503E-02 1.52418E+00 3.59199E-13 7.53083E-13
 -1      1794 2.17981E+01 2.45804E+00 9.08976E-02-3.04826E+00-3.48411E-13 4.97921E-13
 -1      1795 2.01026E+01 2.97934E-01-8.91722E-03 6.57038E-01 2.78742E-13 5.60973E-13
 -1      1796 2.06547E+01 4.40405E-01-1.24682E-02 1.03407E+00 3.05936E-13 6.71367E-13
 -1      1797 2.07457E+01 8.45121E-01 2.24832E-03 1.41515E+00 3.68667E-13 4.44977E-13
 -1      1798 2.15085E+01 1.74230E+00 7.95258E-02-2.33745E+00-3.82899E-13 3.60822E-13
 -1      1799 2.05217E+01 5.00712E-01 3.24820E-02-9.21637E-01-3.10592E-13 3.00373E-13
 -1      1800 2.00903E+01 3.52023E-01 7.71874E-03-6.29804E-01-2.68716E-13 2.15008E-13
 -1      1801 1.98954E+01 2.57325E-01 2.74043E-02-3.91422E-01-2.44360E-13 1.99361E-13
 -1      1802 1.97045E+01 1.78038E-01 1.04269E-02-2.53551E-01-2.02907E-13 1.32195E-13
 -1      1803 2.01996E+01 4.83327E-01-5.91181E-03-7.22960E-01-3.08699E-13 7.75317E-14
 -1      1804 1.95824E+01 1.32551E-01 1.66469E-02-1.20160E-01-1.44382E-13 1.19368E-13
 -1      1805 1.95042E+01 9.29350E-02 6.97063E-03-4.94568E-02-1.21687E-13 7.76996E-14
 -1      1806 1.98736E+01 2.43827E-01-5.73922E-03-2.95928E-01-2.15735E-13 3.18361E-14
 -1      1807 1.94392E+01 6.82587E-02 8.67299E-03 2.39482E-02-1.15861E-13 6.42936E-14
 -1      1808 1.94245E+01 4.65529E-02 4.08571E-03 6.00265E-02-1.02150E-13 4.74612E-14
 -1      1809 1.96909E+01 1.24965E-01-4.65474E-03-5.93481E-02-1.42465E-13 3.16132E-15
 -1      1810 1.93983E+01 3.21959E-02 4.22352E-03 9.86031E-02-8.84854E-14 4.55452E-14
 -1      1811 1.94178E+01 1.97302E-02 2.41479E-03 1.15255E-01-7.55361E-14 3.21910E-15
 -1      1812 1.96040E+01 6.06731E-02-3.46939E-03 6.99550E-02-1.16529E-13-3.35014E-14
 -1      1813 1.94158E+01 1.10746E-02 1.84807E-03 1.33006E-01-8.53137E-14-2.68877E-14
 -1      1814 1.94525E+01 3.87741E-03 1.43508E-03 1.38286E-01-9.43185E-14-5.47935E-14
 -1      1815 1.95794E+01 2.37170E-02-2.33684E-03 1.36019E-01-1.07009E-13-5.75582E-14
 -1      1816 1.94647E+01-1.32081E-03 5.49968E-04 1.43490E-01-8.36745E-14-4.33261E-14
 -1      1817 1.95084E+01-5.30422E-03 8.25047E-04 1.42123E-01-6.61995E-14-3.41391E-14
 -1      1818 1.95924E+01 2.14753E-03-1.43480E-03 1.63945E-01-8.49355E-14-8.46232E-14
 -1      1819 1.95281E+01-8.28202E-03-1.68458E-04 1.39928E-01-9.09272E-14-2.04601E-14
 -1      1820 1.95729E+01-1.02243E-02 4.34262E-04 1.34869E-01-6.16765E-14-3.77590E-14
 -1      1821 1.96264E+01-1.01069E-02-7.91777E-04 1.68934E-01-6.29608E-14-6.88427E-14
 -1      1822 1.95956E+01-1.17306E-02-5.50220E-04 1.28608E-01-4.18533E-14-6.52744E-14
 -1      1823 1.96381E+01-1.23510E-02 1.90537E-04 1.21778E-01-3.09335E-14-8.77730E-14
 -1      1824 1.96705E+01-1.64379E-02-3.64541E-04 1.60634E-01-7.27040E-14-8.56065E-14
 -1      1825 1.96613E+01-1.28679E-02-7.24028E-04 1.13654E-01-4.21906E-14-1.26347E-13
 -1      1826 1.96998E+01-1.26261E-02 5.29106E-05 1.06321E-01-3.66212E-14-1.38449E-13
 -1      1827 1.97178E+01-1.89047E-02-9.91968E-05 1.45363E-01-5.54137E-14-1.11183E-13
 -1      1828 1.97219E+01-1.24723E-02-7.65744E-04 9.78121E-02-5.19816E-14-1.38654E-13
 -1      1829 1.97557E+01-1.16637E-02-4.63707E-06 9.08221E-02-3.16170E-14-1.34998E-13
 -1      1830 1.97641E+01-1.88199E-02 4.88282E-05 1.27337E-01-6.53966E-14-1.13398E-13
 -1      1831 1.97762E+01-1.10482E-02-7.23300E-04 8.29280E-02-1.94600E-14-1.51353E-13
 -1      1832 1.98055E+01-9.85629E-03 1.22559E-06 7.68545E-02-1.99384E-14-1.18541E-13
 -1      1833 1.98074E+01-1.70311E-02 1.12341E-04 1.09401E-01-1.13072E-14-1.62377E-13
 -1      1834 1.98242E+01-8.90928E-03-6.27775E-04 7.02720E-02-5.20211E-14-1.26668E-13
 -1      1835 1.98497E+01-7.43556E-03 6.08363E-05 6.55225E-02-6.30950E-14-1.60365E-13
 -1      1836 1.98471E+01-1.40706E-02 1.14323E-04 9.35076E-02-3.35301E-14-9.78057E-14
 -1      1837 1.98670E+01-6.22749E-03-4.99109E-04 6.07688E-02-3.71332E-14-1.80413E-13
 -1      1838 1.98898E+01-4.51092E-03 1.70153E-04 5.76642E-02-1.72084E-14-2.03588E-13
 -1      1839 1.98834E+01-1.02418E-02 7.02137E-05 8.10568E-02-5.41353E-14-1.26849E-13
 -1      1840 1.99064E+01-3.06574E-03-3.49531E-04 5.51709E-02-4.33298E-14-2.62680E-13
 -1      1841 1.99279E+01-1.09577E-03 3.29779E-04 5.40067E-02-4.44411E-14-2.26444E-13
 -1      1842 1.99175E+01-5.67391E-03-1.02336E-05 7.31409E-02-4.51247E-14-2.11496E-13
 -1      1843 1.99447E+01 5.99599E-04-1.85894E-04 5.41936E-02-3.65599E-14-2.66819E-13
 -1      1844 1.99668E+01 2.87363E-03 5.44234E-04 5.52888E-02-1.72927E-14-2.21585E-13
 -1      1845 1.99510E+01-3.58942E-04-1.21455E-04 7.07351E-02-4.70622E-14-1.61050E-13
 -1      1846 1.99850E+01 4.86189E-03-1.14271E-05 5.86211E-02 1.93862E-15-2.25733E-13
 -1      1847 2.00095E+01 7.52363E-03 8.21281E-04 6.23574E-02-4.67993E-14-1.81911E-13
 -1      1848 1.99862E+01 5.82146E-03-2.60871E-04 7.48447E-02-6.43758E-15-2.11645E-13
 -1      1849 2.00307E+01 9.87083E-03 1.72829E-04 6.93911E-02-1.21029E-13-1.83520E-13
 -1      1850 2.00601E+01 1.30306E-02 1.17116E-03 7.62442E-02-1.99894E-14-2.00260E-13
 -1      1851 2.00258E+01 1.30749E-02-4.27829E-04 8.66207E-02-6.19314E-14-2.10119E-13
 -1      1852 2.00860E+01 1.58195E-02 3.66705E-04 8.76593E-02 4.38193E-14-2.82365E-13
 -1      1853 2.01232E+01 1.96067E-02 1.60536E-03 9.82219E-02 3.95033E-14-2.99727E-13
 -1      1854 2.00730E+01 2.16789E-02-6.22598E-04 1.07447E-01-6.49717E-14-2.46717E-13
 -1      1855 2.01557E+01 2.29280E-02 5.69544E-04 1.14842E-01 7.78842E-14-2.98802E-13
 -1      1856 2.02040E+01 2.74790E-02 2.13455E-03 1.29835E-01 5.19670E-14-2.97845E-13
 -1      1857 2.01316E+01 3.19570E-02-8.45294E-04 1.38997E-01 7.44294E-14-2.62606E-13
 -1      1858 2.02456E+01 3.14162E-02 7.78641E-04 1.52627E-01 4.17629E-14-2.14594E-13
 -1      1859 2.03090E+01 3.68523E-02 2.76473E-03 1.72890E-01 9.73212E-14-1.99284E-13
 -1      1860 2.02061E+01 4.42423E-02-1.09474E-03 1.83257E-01 1.41171E-13-1.80688E-13
 -1      1861 2.03621E+01 4.14552E-02 9.87326E-04 2.02929E-01 6.15752E-14-2.18819E-13
 -1      1862 2.04453E+01 4.78398E-02 3.49026E-03 2.29375E-01 5.26442E-14-1.59808E-13
 -1      1863 2.03014E+01 5.88094E-02-1.36725E-03 2.42478E-01 5.91317E-14-1.29004E-13
 -1      1864 2.05129E+01 5.30742E-02 1.18265E-03 2.67747E-01 8.15706E-14-1.12711E-13
 -1      1865 2.06208E+01 6.03318E-02 4.28169E-03 3.01254E-01 7.54290E-14-9.75899E-14
 -1      1866 2.04232E+01 7.57480E-02-1.65563E-03 3.19027E-01 7.96472E-14-1.69345E-13
 -1      1867 2.07060E+01 6.59877E-02 1.34290E-03 3.48849E-01 5.63354E-14-1.56197E-13
 -1      1868 2.08442E+01 7.37559E-02 5.06534E-03 3.90017E-01-1.70827E-15-1.57354E-13
 -1      1869 2.05775E+01 9.47266E-02-1.94893E-03 4.15055E-01 5.93164E-14-1.91734E-13
 -1      1870 2.09501E+01 7.92835E-02 1.43596E-03 4.47138E-01-5.15881E-14-1.97672E-14
 -1      1871 2.11238E+01 8.66515E-02 5.69167E-03 4.95840E-01-1.51290E-14-1.63102E-15
 -1      1872 2.07706E+01 1.14563E-01-2.23409E-03 5.31834E-01 7.52640E-14-1.47210E-13
 -1      1873 2.12535E+01 9.08819E-02 1.42112E-03 5.61486E-01-9.95458E-14-2.43401E-14
 -1      1874 2.14667E+01 9.59604E-02 5.89131E-03 6.16045E-01-6.16198E-14-8.65272E-14
 -1      1875 2.10089E+01 1.32480E-01-2.50118E-03 6.68552E-01-6.65093E-14 4.49745E-14
 -1      1876 2.16228E+01 9.66664E-02 1.25995E-03 6.86703E-01 1.69051E-14-1.16552E-13
 -1      1877 2.18766E+01 9.59482E-02 5.22639E-03 7.42518E-01 9.08284E-14-1.23595E-13
 -1      1878 2.12977E+01 1.42904E-01-2.75389E-03 8.20244E-01-7.40749E-14 5.43990E-15
 -1      1879 2.20611E+01 8.92410E-02 9.43922E-04 8.10237E-01 2.94283E-14-1.68131E-13
 -1      1880 2.23505E+01 7.68290E-02 3.06513E-03 8.57689E-01-3.59504E-14-1.66955E-13
 -1      1881 2.16414E+01 1.35723E-01-3.02332E-03 9.74451E-01 2.89499E-14-1.92040E-13
 -1      1882 2.25649E+01 5.65675E-02 5.41382E-04 9.07337E-01-8.86264E-14-1.42689E-13
 -1      1883 2.28747E+01 2.37167E-02-1.34960E-03 9.29096E-01-1.16388E-13-2.50757E-13
 -1      1884 2.20420E+01 9.43166E-02-3.37197E-03 1.10628E+00-5.33738E-14-2.49633E-13
 -1      1885 2.31191E+01-1.84031E-02 2.40787E-04 9.35174E-01-1.68180E-13-1.50581E-13
 -1      1886 2.34189E+01-8.21200E-02-8.61573E-03 9.03972E-01-1.25555E-13-9.91941E-14
 -1      1887 2.24990E+01-5.23386E-03-3.84608E-03 1.17217E+00-9.45258E-14-1.05936E-13
 -1      1888 2.36908E+01-1.54131E-01 2.62659E-04 8.28696E-01-4.98872E-14-6.40286E-14
 -1      1889 2.39304E+01-2.55148E-01-1.84351E-02 7.08659E-01 3.56052E-14-1.99918E-14
 -1      1890 2.30068E+01-1.89875E-01-4.29598E-03 1.10440E+00-1.69517E-14 1.21867E-13
 -1      1891 2.42182E+01-3.56812E-01 5.42557E-04 5.06153E-01 2.85154E-14-2.23363E-14
 -1      1892 2.43286E+01-4.83601E-01-2.83483E-02 2.64197E-01 1.59877E-13-1.17484E-14
 -1      1893 2.35495E+01-4.72370E-01-3.91495E-03 8.12834E-01 2.30363E-14 1.07167E-13
 -1      1894 2.45977E+01-5.90429E-01-2.26687E-04-9.92396E-02 1.80807E-13-2.43317E-13
 -1      1895 2.45056E+01-6.92271E-01-3.26018E-02-4.64057E-01 5.79953E-14-2.57813E-13
 -1      1896 2.40844E+01-8.11487E-01-7.79039E-04 2.08416E-01 4.61853E-14-5.54002E-14
 -1      1897 2.46794E+01-7.37554E-01-4.84645E-03-9.62754E-01-1.29338E-13-2.92884E-13
 -1      1898 2.43422E+01-7.15777E-01-2.38566E-02-1.37307E+00-2.01037E-13-2.06708E-13
 -1      1899 2.45128E+01-1.05841E+00 6.82579E-03-7.28691E-01-4.24279E-14-1.44795E-13
 -1      1900 2.43071E+01-6.00507E-01-1.62263E-02-1.85523E+00-1.95143E-13-1.55732E-13
 -1      1901 2.37659E+01-3.59096E-01-6.76053E-04-2.12680E+00-1.49453E-13-1.56155E-13
 -1      1902 2.46604E+01-9.45763E-01 1.51497E-02-1.82577E+00-1.32556E-13-1.72132E-13
 -1      1903 2.34634E+01-3.82564E-02-2.68770E-02-2.30247E+00-9.78263E-14-2.09844E-13
 -1      1904 2.28765E+01 3.73660E-01 2.20465E-02-2.21009E+00-6.05956E-14-2.56937E-13
 -1      1905 2.43540E+01-2.56136E-01 1.08327E-02-2.60767E+00-1.05592E-13-1.68523E-13
 -1      1906 2.24464E+01 7.63679E-01-2.51712E-02-1.84047E+00-6.68215E-15-3.19576E-13
 -1      1907 2.20326E+01 1.09190E+00 1.73470E-02-1.31678E+00 2.65586E-14-3.08177E-13
 -1      1908 2.36628E+01 8.49833E-01-1.49225E-02-2.45300E+00-6.65579E-14-2.83763E-13
 -1      1909 2.18121E+01 1.24772E+00-2.06856E-03-4.94196E-01 2.48829E-14-3.10982E-13
 -1      1910 2.17417E+01 1.20788E+00-9.96699E-03 1.99033E-01-8.60284E-14-2.74188E-13
 -1      1911 2.30208E+01 1.69024E+00-4.82084E-02-1.11283E+00 4.16889E-14-1.91873E-13
 -1      1912 2.18861E+01 9.88612E-01 2.11912E-02 9.68266E-01-2.70946E-13-3.42552E-13
 -1      1913 2.21402E+01 6.19312E-01-3.05925E-02 1.42101E+00-1.75037E-13-3.86895E-13
 -1      1914 2.29388E+01 1.58772E+00-4.72172E-02 6.98066E-01-1.78860E-13-2.08345E-13
 -1      1915 2.24337E+01 2.22244E-01 1.99358E-02 1.68710E+00-1.22196E-13-4.14321E-13
 -1      1916 2.28239E+01-1.77026E-01-2.82151E-02 1.69895E+00-3.73857E-14-4.92882E-13
 -1      1917 2.33614E+01 6.40646E-01-1.10168E-02 1.84364E+00-1.63581E-13-1.21253E-13
 -1      1918 2.29530E+01-4.65714E-01-2.69346E-03 1.43794E+00 1.99638E-13-5.45468E-13
 -1      1919 2.32584E+01-6.63868E-01-1.44552E-02 1.12007E+00 2.04328E-13-4.50412E-13
 -1      1920 2.37473E+01-4.31225E-01 1.51175E-02 1.79155E+00 5.66448E-14-2.03466E-13
 -1      1921 2.31209E+01-7.39045E-01-2.35732E-02 6.14917E-01 1.93220E-13-1.98526E-13
 -1      1922 2.32106E+01-7.23047E-01-3.19897E-03 2.03144E-01 3.84035E-13 7.58710E-14
 -1      1923 2.37027E+01-1.01315E+00 1.47807E-02 8.97761E-01 2.74616E-13-2.73929E-13
 -1      1924 2.28907E+01-6.46942E-01-2.93625E-02-2.67404E-01 2.48064E-13-1.65887E-13
 -1      1925 2.27532E+01-5.14718E-01 3.35606E-03-5.96147E-01 2.18745E-13-2.99288E-13
 -1      1926 2.32367E+01-1.01415E+00 4.96476E-03-1.84851E-01 2.43634E-13-1.79439E-13
 -1      1927 2.23634E+01-3.78886E-01-2.34446E-02-8.91910E-01 1.00357E-13-2.59955E-13
 -1      1928 2.20679E+01-2.15815E-01 7.27655E-03-1.06054E+00 8.29111E-14-1.79014E-13
 -1      1929 2.25425E+01-6.74220E-01-2.73318E-03-1.01305E+00 1.50920E-13-2.97055E-13
 -1      1930 2.16817E+01-7.32946E-02-1.38390E-02-1.15135E+00-3.91731E-14-2.95035E-13
 -1      1931 2.13276E+01 8.25333E-02 9.91796E-03-1.14772E+00-4.83766E-14-2.65684E-13
 -1      1932 2.17942E+01-2.26827E-01-5.45530E-03-1.41868E+00-9.73570E-14-2.00381E-13
 -1      1933 2.10144E+01 1.92065E-01-6.33681E-03-1.04988E+00 2.04955E-13-4.15951E-13
 -1      1934 2.06975E+01 3.22790E-01 1.44894E-02-8.98878E-01 1.70936E-13-2.95326E-13
 -1      1935 2.05843E+01 4.88287E-01-2.33814E-03-1.06996E+00 2.08866E-13-2.29568E-13
 -1      1936 2.11263E+01 2.02727E-01-1.82367E-03-1.39847E+00 5.62078E-15-4.38549E-13
 -1      1937 1.96198E+01 1.42016E-01 7.88138E-03 2.59438E-01 2.20638E-13 4.07768E-13
 -1      1938 1.98919E+01 2.04082E-01 1.64331E-02 4.32427E-01 2.33931E-13 4.92419E-13
 -1      1939 2.01034E+01 3.50534E-01-1.53117E-03 6.55005E-01 2.95455E-13 3.27544E-13
 -1      1940 1.93774E+01 7.18812E-02 6.94687E-03 5.65112E-02 1.90971E-13 3.02942E-13
 -1      1941 1.94924E+01 1.01770E-01 1.41950E-02 1.45007E-01 1.91430E-13 3.66233E-13
 -1      1942 1.97106E+01 1.65152E-01-1.94135E-03 2.56294E-01 2.42114E-13 2.43991E-13
 -1      1943 1.92868E+01 3.61126E-02 4.42877E-03-4.88901E-02 1.09420E-13 2.33378E-13
 -1      1944 1.93170E+01 5.19268E-02 8.33546E-03-1.70801E-03 1.49315E-13 2.88720E-13
 -1      1945 1.95102E+01 8.06319E-02-2.82164E-03 4.43755E-02 1.82597E-13 1.74428E-13
 -1      1946 1.92848E+01 1.61694E-02 2.85964E-03-1.01321E-01 3.66616E-14 1.44698E-13
 -1      1947 1.92697E+01 2.50320E-02 4.35074E-03-7.67270E-02 5.87154E-14 1.96201E-13
 -1      1948 1.94310E+01 3.74259E-02-2.83877E-03-6.74545E-02 9.68509E-14 9.54679E-14
 -1      1949 1.93318E+01 4.54043E-03 1.98493E-03-1.23352E-01 5.63111E-14 1.13959E-13
 -1      1950 1.92936E+01 9.57025E-03 2.14590E-03-1.11953E-01 4.42321E-14 1.18981E-13
 -1      1951 1.94243E+01 1.35945E-02-2.30996E-03-1.22931E-01 7.26126E-14 1.36318E-14
 -1      1952 1.94030E+01-2.22848E-03 1.44375E-03-1.27524E-01 1.00523E-13 8.31436E-14
 -1      1953 1.93547E+01 5.06785E-04 9.48811E-04-1.24046E-01 9.95589E-14 1.26045E-13
 -1      1954 1.94586E+01 2.59098E-05-1.69144E-03-1.45417E-01 9.96889E-14 2.33684E-14
 -1      1955 1.94832E+01-5.95759E-03 1.06501E-03-1.21411E-01 5.71964E-14-3.28784E-16
 -1      1956 1.94324E+01-4.65477E-03 2.79130E-04-1.22630E-01 6.99682E-14 5.22909E-14
 -1      1957 1.95139E+01-7.53643E-03-1.17116E-03-1.48417E-01 1.11301E-13 1.04635E-14
 -1      1958 1.95633E+01-7.71262E-03 7.85074E-04-1.09823E-01-2.38612E-14 5.65633E-14
 -1      1959 1.95145E+01-7.31927E-03-9.87686E-05-1.13661E-01 1.08528E-14 1.66209E-14
 -1      1960 1.95777E+01-1.13604E-02-7.82318E-04-1.40260E-01 2.99789E-14-1.78560E-14
 -1      1961 1.96383E+01-8.16442E-03 5.77841E-04-9.59077E-02 3.17816E-14 1.00970E-13
 -1      1962 1.95938E+01-8.34585E-03-2.99392E-04-1.00984E-01 2.90645E-14 1.11763E-13
 -1      1963 1.96423E+01-1.27793E-02-5.06596E-04-1.26313E-01-5.94576E-16 3.16371E-14
 -1      1964 1.97056E+01-7.74951E-03 4.29173E-04-8.17487E-02 1.88501E-14 1.25080E-13
 -1      1965 1.96664E+01-8.28701E-03-3.85283E-04-8.71321E-02 2.48069E-14 1.03091E-13
 -1      1966 1.97034E+01-1.26293E-02-3.18716E-04-1.10109E-01 3.22711E-14 6.46363E-14
 -1      1967 1.97646E+01-6.75059E-03 3.29787E-04-6.87398E-02 1.02737E-13 3.32542E-14
 -1      1968 1.97308E+01-7.50262E-03-3.94547E-04-7.37940E-02 6.71533E-14 5.17959E-14
 -1      1969 1.97589E+01-1.14482E-02-1.97814E-04-9.40111E-02 8.83562E-14 1.47752E-14
 -1      1970 1.98160E+01-5.34196E-03 2.73457E-04-5.78333E-02 1.19358E-13-6.09872E-15
 -1      1971 1.97870E+01-6.22092E-03-3.51591E-04-6.21102E-02 9.83597E-14 1.14910E-14
 -1      1972 1.98083E+01-9.57600E-03-1.28579E-04-7.96161E-02 1.33393E-13-2.12204E-14
 -1      1973 1.98612E+01-3.61798E-03 2.56412E-04-4.97179E-02-5.69680E-14 3.93874E-14
 -1      1974 1.98361E+01-4.57500E-03-2.71971E-04-5.28817E-02 2.96906E-14 4.33120E-14
 -1      1975 1.98523E+01-7.21244E-03-1.00290E-04-6.80430E-02 4.60945E-14 2.89217E-14
 -1      1976 1.99025E+01-1.61275E-03 2.76904E-04-4.49508E-02 8.12055E-15-6.72302E-14
 -1      1977 1.98799E+01-2.62684E-03-1.65111E-04-4.67200E-02-1.08301E-14-2.11467E-14
 -1      1978 1.98922E+01-4.45397E-03-1.05832E-04-6.01335E-02 3.31347E-15-3.56266E-14
 -1      1979 1.99427E+01 6.84142E-04 3.34784E-04-4.40543E-02 6.04647E-14-5.32435E-14
 -1      1980 1.99210E+01-3.85201E-04-3.61462E-05-4.41589E-02 2.86930E-14-6.42701E-14
 -1      1981 1.99301E+01-1.32012E-03-1.40912E-04-5.66016E-02 6.46790E-14-3.56132E-14
 -1      1982 1.99849E+01 3.31327E-03 4.30980E-04-4.75855E-02 2.22286E-14 1.09618E-13
 -1      1983 1.99622E+01 2.17907E-03 1.12641E-04-4.57347E-02 5.32299E-14 5.37645E-14
 -1      1984 1.99686E+01 2.22449E-03-2.03386E-04-5.81418E-02 1.29391E-14-1.26996E-14
 -1      1985 2.00330E+01 6.33003E-03 5.66726E-04-5.61775E-02-7.10291E-14-5.18008E-14
 -1      1986 2.00072E+01 5.11779E-03 2.80509E-04-5.20399E-02-1.66389E-14 4.03265E-14
 -1      1987 2.00107E+01 6.24883E-03-2.92654E-04-6.55015E-02 2.88721E-14 1.66041E-14
 -1      1988 2.00914E+01 9.78584E-03 7.42352E-04-7.05492E-02-2.01614E-14-7.71712E-14
 -1      1989 2.00599E+01 8.48786E-03 4.66898E-04-6.37466E-02-6.10094E-14-9.97464E-14
 -1      1990 2.00599E+01 1.08314E-02-4.09068E-04-7.95153E-02-1.13605E-14-1.42158E-13
 -1      1991 2.01649E+01 1.37020E-02 9.55354E-04-9.14754E-02-1.42985E-14-1.28376E-13
 -1      1992 2.01250E+01 1.23281E-02 6.69824E-04-8.15944E-02-6.50501E-14-1.32258E-13
 -1      1993 2.01204E+01 1.60288E-02-5.53273E-04-1.01096E-01-1.90283E-14-1.73885E-13
 -1      1994 2.02590E+01 1.80313E-02 1.19744E-03-1.19700E-01 2.44158E-13-1.75899E-13
 -1      1995 2.02077E+01 1.66256E-02 8.83843E-04-1.06330E-01 1.27179E-13-9.81513E-14
 -1      1996 2.01965E+01 2.18316E-02-7.25392E-04-1.31165E-01 1.18092E-13-1.73030E-13
 -1      1997 2.03796E+01 2.26007E-02 1.45009E-03-1.55768E-01 1.74456E-13-2.28816E-13
 -1      1998 2.03134E+01 2.12666E-02 1.09737E-03-1.38579E-01 2.29764E-13-1.44444E-13
 -1      1999 2.02933E+01 2.80978E-02-9.23989E-04-1.70504E-01 2.54904E-13-2.34908E-13
 -1      2000 2.05324E+01 2.70261E-02 1.67841E-03-1.99733E-01-1.65701E-13-2.52493E-13
 -1      2001 2.04482E+01 2.59620E-02 1.28925E-03-1.78611E-01-8.75949E-15-3.04623E-13
 -1      2002 2.04158E+01 3.44550E-02-1.14466E-03-2.19480E-01 5.86282E-14-1.79198E-13
 -1      2003 2.07229E+01 3.05911E-02 1.82326E-03-2.50693E-01-1.19464E-13-1.47879E-13
 -1      2004 2.06175E+01 3.01398E-02 1.42465E-03-2.25965E-01-1.39554E-13-2.20600E-13
 -1      2005 2.05689E+01 4.01572E-02-1.37806E-03-2.77604E-01-1.42330E-13-1.22233E-13
 -1      2006 2.09546E+01 3.20840E-02 1.79328E-03-3.06090E-01 7.93867E-14-1.65918E-13
 -1      2007 2.08262E+01 3.27969E-02 1.45101E-03-2.78864E-01 1.23903E-14-1.89833E-13
 -1      2008 2.07568E+01 4.38863E-02-1.60681E-03-3.42851E-01 1.60845E-14-2.13448E-13
 -1      2009 2.12280E+01 2.96106E-02 1.46096E-03-3.60716E-01 1.66152E-13 2.92602E-14
 -1      2010 2.10768E+01 3.23133E-02 1.29575E-03-3.33382E-01 1.14327E-13-4.18825E-14
 -1      2011 2.09819E+01 4.35048E-02-1.80041E-03-4.10671E-01 9.69346E-14-8.20298E-14
 -1      2012 2.15383E+01 2.04446E-02 6.72047E-04-4.05440E-01-1.03897E-13 4.72994E-14
 -1      2013 2.13677E+01 2.62701E-02 8.69549E-04-3.82316E-01 5.95415E-14 1.84300E-13
 -1      2014 2.12435E+01 3.58081E-02-1.90662E-03-4.72685E-01 1.53242E-14 1.18828E-13
 -1      2015 2.18722E+01 1.08610E-03-7.15622E-04-4.25842E-01-8.44466E-14-1.45396E-14
 -1      2016 2.16910E+01 1.13860E-02 8.07309E-05-4.13898E-01-1.51623E-13-4.86917E-14
 -1      2017 2.15359E+01 1.64307E-02-1.83760E-03-5.15143E-01-7.75871E-14 5.61307E-14
 -1      2018 2.22043E+01-3.21200E-02-2.74389E-03-4.01376E-01-4.96784E-14 4.78532E-14
 -1      2019 2.20289E+01-1.61568E-02-1.13235E-03-4.10716E-01-4.86249E-14 2.56622E-14
 -1      2020 2.18458E+01-1.97429E-02-1.45127E-03-5.17604E-01-2.22034E-15 1.04693E-13
 -1      2021 2.24948E+01-8.12391E-02-5.20786E-03-3.06387E-01-1.16808E-14 5.32734E-14
 -1      2022 2.23504E+01-5.95110E-02-2.74907E-03-3.49832E-01-4.84127E-14-1.36653E-15
 -1      2023 2.21501E+01-7.70256E-02-5.36750E-04-4.52880E-01-5.23216E-14 7.34300E-14
 -1      2024 2.26877E+01-1.43273E-01-7.49619E-03-1.15380E-01-1.65997E-13 1.54513E-13
 -1      2025 2.26084E+01-1.18430E-01-4.60302E-03-2.05908E-01-1.37777E-13 1.20379E-13
 -1      2026 2.24123E+01-1.55380E-01 1.16445E-03-2.90281E-01-1.48596E-13 6.67142E-14
 -1      2027 2.27153E+01-2.05103E-01-8.55199E-03 1.84572E-01-1.20451E-13 2.58715E-13
 -1      2028 2.27400E+01-1.84681E-01-6.35023E-03 4.00088E-02-1.40627E-13 2.31884E-13
 -1      2029 2.25827E+01-2.44421E-01 3.83067E-03-5.22242E-03-1.40783E-13 2.26890E-13
 -1      2030 2.25115E+01-2.39244E-01-7.14401E-03 5.73060E-01 1.65536E-14 2.20883E-13
 -1      2031 2.26737E+01-2.36764E-01-7.42055E-03 3.83983E-01-2.57676E-14 3.01344E-13
 -1      2032 2.26004E+01-3.16588E-01 7.28492E-03 4.02100E-01-3.74058E-14 2.34522E-13
 -1      2033 2.20369E+01-2.07444E-01-3.03388E-03 9.72626E-01 1.37361E-13 1.64126E-13
 -1      2034 2.23489E+01-2.38705E-01-7.10947E-03 7.76927E-01 1.27046E-13 1.91973E-13
 -1      2035 2.24061E+01-3.25043E-01 1.06616E-02 8.80404E-01 1.47863E-13 1.01213E-13
 -1      2036 2.13181E+01-8.25307E-02 1.72625E-03 1.24405E+00 1.20054E-13 5.47496E-14
 -1      2037 2.17519E+01-1.53687E-01-4.92430E-03 1.10948E+00 1.37807E-13 1.48666E-13
 -1      2038 2.19695E+01-2.20971E-01 1.15375E-02 1.30583E+00 1.88746E-13 2.84545E-13
 -1      2039 2.04823E+01 1.18129E-01 3.48378E-03 1.23139E+00 5.09905E-14-1.55473E-13
 -1      2040 2.09591E+01 2.44831E-02-7.94023E-04 1.23228E+00 8.98953E-14-4.85931E-14
 -1      2041 2.13336E+01 7.93782E-03 7.35455E-03 1.49860E+00 2.11384E-13 6.63957E-14
 -1      2042 1.97508E+01 3.14030E-01 4.51745E-05 8.58426E-01 1.80593E-13-1.54196E-13
 -1      2043 2.01535E+01 2.41203E-01 4.53763E-03 1.02821E+00 1.30599E-14-2.29912E-13
 -1      2044 2.06442E+01 2.97805E-01-1.77711E-03 1.30349E+00 8.91596E-14-1.16296E-14
 -1      2045 1.93593E+01 3.96446E-01-5.17099E-03 2.22907E-01 7.20500E-14-1.15085E-13
 -1      2046 1.95747E+01 3.89031E-01 1.00051E-02 5.11200E-01 1.85629E-13-1.06974E-13
 -1      2047 2.01230E+01 5.13861E-01-1.03416E-02 7.11407E-01 8.72774E-14-1.06306E-13
 -1      2048 1.94197E+01 3.14960E-01-6.76328E-03-4.22125E-01 6.92328E-15-3.03474E-13
 -1      2049 1.93945E+01 3.80100E-01 1.27548E-02-1.33177E-01 2.08861E-15-1.76498E-13
 -1      2050 1.99513E+01 5.37757E-01-9.77886E-03-7.13837E-02 1.76768E-14-1.02375E-13
 -1      2051 1.98391E+01 1.19642E-01-3.79323E-03-8.16392E-01 1.26168E-13-3.48374E-13
 -1      2052 1.96157E+01 2.20332E-01 1.02501E-02-6.41769E-01-1.18143E-14-3.57367E-13
 -1      2053 2.01440E+01 3.51347E-01-2.80487E-03-7.21405E-01 7.13474E-14-2.05682E-13
 -1      2054 2.03811E+01-7.95207E-02 1.78227E-03-8.50012E-01-9.51461E-14-1.06071E-13
 -1      2055 2.00729E+01 4.60109E-03 3.57284E-03-8.33591E-01 1.16693E-13-1.39930E-13
 -1      2056 2.05392E+01 6.07517E-02 3.85257E-03-9.97216E-01-2.73119E-14 2.25800E-14
 -1      2057 2.08093E+01-1.97990E-01 6.17111E-03-5.94786E-01 8.52009E-14-1.31847E-13
 -1      2058 2.05403E+01-1.60915E-01-3.35433E-03-7.02429E-01-8.91145E-14-6.42767E-14
 -1      2059 2.09159E+01-1.88460E-01 6.05224E-03-8.70020E-01-4.87921E-14 7.10751E-14
 -1      2060 2.09938E+01-2.13971E-01 7.70614E-03-2.19489E-01 9.26429E-14-1.90706E-13
 -1      2061 2.08436E+01-2.24080E-01-7.53508E-03-3.77784E-01 1.23691E-13-3.48866E-14
 -1      2062 2.11171E+01-3.06427E-01 4.24040E-03-4.87870E-01 1.53585E-13 7.31680E-14
 -1      2063 2.09289E+01-1.52074E-01 7.12150E-03 1.13700E-01 3.85798E-14-2.31944E-13
 -1      2064 2.09136E+01-1.92540E-01-8.14225E-03-2.58873E-02 3.02640E-14-2.18179E-13
 -1      2065 2.10970E+01-2.86216E-01 1.10276E-03-5.45809E-02 8.06048E-14 1.34104E-13
 -1      2066 2.06911E+01-4.94186E-02 5.64187E-03 3.00461E-01 9.14646E-14 8.64421E-14
 -1      2067 2.07762E+01-1.01343E-01-6.03918E-03 2.25632E-01 1.65649E-14-3.66872E-14
 -1      2068 2.08963E+01-1.70291E-01-1.19315E-03 2.69051E-01-4.25731E-14 1.18065E-13
 -1      2069 2.03917E+01 5.82246E-02 4.58482E-03 3.03096E-01 7.27117E-14-8.77878E-14
 -1      2070 2.05174E+01 9.25225E-03-3.02163E-03 3.12169E-01 1.01837E-13 5.03412E-14
 -1      2071 2.05971E+01-1.71532E-02-2.94820E-03 3.97308E-01 5.26927E-14 1.95513E-13
 -1      2072 2.01782E+01 1.20815E-01 5.11551E-03 2.03970E-01 9.52146E-16 4.95949E-14
 -1      2073 2.02907E+01 8.67814E-02-1.43920E-03 2.70622E-01 7.23285E-14-3.78751E-14
 -1      2074 2.03458E+01 9.86153E-02-4.12636E-03 3.61493E-01 9.18692E-14 3.97589E-13
 -1      2075 2.01796E+01 1.91930E-01 4.03199E-03 2.61511E-01-1.58277E-13 4.84213E-13
 -1      2076 2.02728E+01 1.37746E+00 1.01701E-02 1.20904E+00-4.98169E-14 2.67734E-13
 -1      2077 2.02874E+01 9.96837E-01 5.20209E-03 1.05017E+00-4.39412E-14 3.54298E-13
 -1      2078 2.02845E+01 8.03964E-01 1.20235E-02 8.46328E-01 1.71996E-14 2.27431E-13
 -1      2079 2.02722E+01 5.32766E-01 4.08182E-03 6.87885E-01-3.25957E-14 2.09789E-13
 -1      2080 2.04208E+01 6.59256E-01-8.75619E-03 1.17665E+00-5.74798E-14 2.46149E-13
 -1      2081 2.02361E+01 4.48077E-01 1.02776E-02 5.22280E-01-9.95202E-14 2.83931E-15
 -1      2082 2.02152E+01 2.74874E-01 4.59914E-03 3.89203E-01-1.37847E-13 2.19214E-13
 -1      2083 2.02963E+01 2.34874E-01 1.60799E-03 4.57277E-01 5.40627E-15 2.66129E-13
 -1      2084 2.03857E+01 3.92170E-01-7.47306E-04 7.73426E-01 1.22969E-14 1.33256E-13
 -1      2085 2.01701E+01 2.11175E+00 1.51979E-03 1.50131E+00-2.02889E-13-3.72918E-13
 -1      2086 2.02347E+01 1.65477E+00 6.28543E-03 1.38999E+00-1.18955E-13-7.54024E-14
 -1      2087 2.03669E+01 1.13078E+00-9.33498E-03 1.61074E+00-1.27388E-13-4.08337E-14
 -1      2088 1.99634E+01 2.97305E+00-1.05447E-02 1.60555E+00-2.65445E-13-1.51039E-13
 -1      2089 2.00815E+01 2.47869E+00 5.23160E-03 1.59455E+00-3.22510E-13 8.56432E-14
 -1      2090 2.01738E+01 1.77549E+00-7.16452E-03 1.92521E+00-1.98595E-13-2.12948E-13
 -1      2091 1.96925E+01 3.81579E+00-2.15214E-02 1.39969E+00-4.54437E-14-2.40810E-13
 -1      2092 1.98362E+01 3.37663E+00 1.08211E-03 1.53495E+00-1.40629E-13-2.18003E-13
 -1      2093 1.98411E+01 2.54545E+00-4.08138E-04 1.96042E+00-2.41168E-13-1.63937E-13
 -1      2094 1.94496E+01 4.45337E+00-2.63300E-02 8.49385E-01 4.58873E-14 1.54866E-13
 -1      2095 1.95651E+01 4.16426E+00-6.79616E-03 1.13016E+00-8.56260E-15-8.82367E-14
 -1      2096 1.94506E+01 3.29745E+00 1.10188E-02 1.58559E+00-1.00349E-13-1.63455E-13
 -1      2097 1.93403E+01 4.70591E+00-2.30279E-02 5.41307E-02-1.37230E-14-2.71554E-14
 -1      2098 1.93752E+01 4.63926E+00-1.66257E-02 4.19538E-01 1.98461E-14-3.52808E-14
 -1      2099 1.91428E+01 3.83234E+00 2.19312E-02 7.98634E-01-2.22055E-13 2.43382E-14
 -1      2100 1.94169E+01 4.48464E+00-1.43933E-02-7.72712E-01-1.11635E-13 9.22006E-14
 -1      2101 1.93553E+01 4.66195E+00-2.38917E-02-4.23655E-01-1.03265E-13 1.64972E-13
 -1      2102 1.90505E+01 3.97372E+00 2.52195E-02-2.29214E-01-2.88813E-13 4.50352E-14
 -1      2103 1.96369E+01 3.85905E+00-4.57873E-03-1.39484E+00 1.86845E-13 8.75376E-14
 -1      2104 1.95106E+01 4.23187E+00-2.44933E-02-1.15673E+00-2.07477E-14 1.37021E-13
 -1      2105 1.92155E+01 3.67346E+00 1.91765E-02-1.20303E+00-9.73351E-14 2.47267E-13
 -1      2106 1.99109E+01 2.97497E+00 2.74294E-03-1.69902E+00 2.99131E-13 4.02841E-13
 -1      2107 1.97701E+01 3.47510E+00-1.71985E-02-1.60778E+00 2.59775E-13 5.45253E-13
 -1      2108 1.95569E+01 3.03487E+00 7.01827E-03-1.87096E+00 1.38288E-13 4.08339E-13
 -1      2109 2.01477E+01 2.04345E+00 7.12081E-03-1.66472E+00 3.36875E-13-1.65414E-13
 -1      2110 2.00340E+01 2.56795E+00-5.64232E-03-1.71625E+00 3.30748E-13 1.94764E-14
 -1      2111 1.99482E+01 2.24374E+00-2.89735E-03-2.11885E+00 2.30677E-13 2.38496E-13
 -1      2112 2.03172E+01 1.21704E+00 6.10960E-03-1.37764E+00 2.38318E-13-2.78522E-13
 -1      2113 2.02270E+01 1.68643E+00 1.59172E-03-1.52955E+00 2.93808E-13-1.62881E-13
 -1      2114 2.02756E+01 1.48506E+00-7.14496E-03-1.97493E+00 2.48841E-13-1.72709E-13
 -1      2115 1.10292E+01-5.97642E+00-1.15617E-01 7.08968E+00 3.61378E-13 1.11269E-12
 -1      2116 6.90935E+00-7.70042E+00-4.04194E-01 5.56659E+00 1.91736E-13 1.05410E-12
 -1      2117 3.93781E-01-7.86987E+00-3.90937E-01 9.43254E-01 4.01068E-15 5.40179E-13
 -1      2118 4.18756E-01-8.00150E+00-4.04841E-01-8.55746E-01-1.39000E-13 4.71179E-13
 -1      2119 4.07898E+00-7.30123E+00-2.76303E-01 4.68640E+00 2.29372E-13 9.03055E-13
 -1      2120 1.95050E+00-8.00046E+00-3.93507E-01 3.18420E+00-5.80924E-14 7.79099E-13
 -1      2121 7.78440E+00-5.92923E+00-9.50975E-02 6.35479E+00 2.29927E-13 1.09357E-12
 -1      2122 2.09349E+01-3.59135E+00 5.00883E-02 7.25868E+00 6.65024E-13 1.12055E-12
 -1      2123 1.61919E+01-5.85492E+00-2.18971E-01 6.64749E+00 3.67040E-13 9.95065E-13
 -1      2124 2.95369E+01-6.01733E-01 1.28941E-01 5.73005E+00 6.50008E-13 9.25426E-13
 -1      2125 2.42585E+01-2.56395E+00-1.48350E-01 5.93750E+00 7.68940E-13 8.91398E-13
 -1      2126 2.49735E+01-4.83618E+00 7.32731E-02 5.61965E+00 3.28348E-13 5.56610E-13
 -1      2127 1.95227E+01 4.01591E+00-2.56431E-02-1.70098E+00-2.68915E-13-4.25257E-13
 -1      2128 1.96510E+01 3.94237E+00-2.43542E-02-1.95617E+00-3.12569E-13-3.55237E-13
 -1      2129 1.99732E+01 3.25302E+00-7.96687E-03-1.90937E+00-3.47632E-13-2.85246E-13
 -1      2130 1.96935E+01 3.58296E+00-9.24933E-03-1.51775E+00-2.62461E-13-4.09632E-13
 -1      2131 4.03297E+01 6.43710E+00 3.50030E-01 1.66208E+00 7.50067E-13 2.74281E-13
 -1      2132 3.78664E+01 5.43376E+00 1.65600E-01 2.60015E+00 9.65172E-13 5.77538E-13
 -1      2133 4.05959E+01 7.47828E+00 2.60985E-01 4.41591E-02 6.29052E-13-7.79654E-14
 -1      2134 4.07218E+01 7.36498E+00 3.24776E-01 1.12408E+00 6.01297E-13 5.10703E-15
 -1      2135 3.79763E+01 6.21565E+00 1.60555E-01-1.06742E+00 3.45335E-13 1.09524E-13
 -1      2136 4.05581E+01 7.15434E+00 4.10684E-01-4.37576E-01 4.59632E-13 4.58245E-14
 -1      2137 3.39862E+01 2.70506E+00 1.65143E-01-3.52406E+00 1.55799E-13-1.57097E-13
 -1      2138 3.67292E+01 4.02148E+00 1.49275E-01-2.04673E+00 2.07945E-13-9.33142E-14
 -1      2139 2.63484E+01-9.39440E-01-9.78612E-02-5.38183E+00-6.25056E-14-1.33005E-13
 -1      2140 3.13287E+01 8.17900E-01 1.96450E-01-5.13414E+00 8.09908E-14-1.26121E-13
 -1      2141 1.82239E+01-4.40255E+00-2.26659E-01-6.16054E+00-3.01703E-13-1.19571E-13
 -1      2142 2.31044E+01-2.13591E+00 1.07767E-01-6.69153E+00-1.19460E-13-2.65343E-14
 -1      2143 1.00428E+01-6.59297E+00-2.68513E-01-6.06202E+00-3.30624E-13-2.13753E-13
 -1      2144 1.43745E+01-5.05682E+00-2.75532E-02-7.03220E+00-2.29816E-13-1.38195E-13
 -1      2145 3.00878E+00-7.49779E+00-3.72989E-01-3.90995E+00-3.90854E-13-4.73788E-13
 -1      2146 5.78219E+00-6.23185E+00-1.78294E-01-5.45901E+00-3.45612E-13-4.22634E-13
 -1      2147 5.21739E-01-6.69805E+00-2.36889E-01-9.71763E-01-2.57988E-13-2.70950E-13
 -1      2148 1.19405E+00-7.24992E+00-3.26055E-01-2.57879E+00-1.73667E-13-3.61045E-13
 -1      2149 3.75380E+00-5.11343E+00-1.28377E-01-4.11461E+00-2.05780E-13-3.16414E-13
 -1      2150 1.97656E+00-7.59424E+00-3.77907E-01 3.07957E+00-3.23186E-13-1.69198E-13
 -1      2151 7.25778E-01-7.17597E+00-2.97134E-01 1.63864E+00-2.70062E-13-2.21712E-13
 -1      2152 7.74089E+00-6.47646E+00-2.30438E-01 5.51321E+00-4.13114E-13 2.07598E-13
 -1      2153 4.65056E+00-7.72705E+00-4.08010E-01 4.30034E+00-3.18356E-13-9.70057E-14
 -1      2154 1.61201E+01-4.65266E+00-8.07000E-02 6.56613E+00-3.04645E-13 2.09388E-13
 -1      2155 1.14929E+01-6.59695E+00-4.00648E-01 5.58583E+00-4.80171E-13 2.47719E-13
 -1      2156 2.56513E+01-2.33086E+00 8.53485E-02 5.73361E+00-1.99840E-13 4.11393E-13
 -1      2157 2.05663E+01-4.29613E+00-2.58873E-01 5.47661E+00-2.48135E-13 3.66762E-13
 -1      2158 3.29718E+01 7.25493E-01 1.81343E-01 3.94054E+00 1.23512E-15 4.94160E-13
 -1      2159 2.81844E+01-1.05201E+00-1.17985E-01 4.37360E+00-1.58207E-13 4.05009E-13
 -1      2160 2.81894E+01-3.46569E+00 1.35423E-01 3.21277E+00-1.95677E-13 4.69680E-13
 -1      2161 3.95100E+01 4.71480E+00 4.08955E-01 1.83152E+00-4.22995E-14 7.20202E-13
 -1      2162 3.56680E+01 3.30414E+00 1.21566E-01 2.42268E+00 7.91034E-15 6.39266E-13
 -1      2163 4.22380E+01 6.86529E+00 4.24476E-01-8.63911E-03 3.65818E-14 6.00520E-13
 -1      2164 4.06163E+01 6.22703E+00 3.19501E-01 1.18037E+00-2.65898E-14 6.91835E-13
 -1      2165 4.08189E+01 7.19658E+00 2.83479E-01-1.38680E+00-1.42886E-13 5.73874E-13
 -1      2166 4.18824E+01 7.31849E+00 4.04403E-01-3.74416E-01 3.26961E-14 6.13877E-13
 -1      2167 3.79013E+01 4.87243E+00 2.24084E-01-2.76548E+00-5.07649E-13 4.80949E-13
 -1      2168 4.01476E+01 5.99564E+00 3.18613E-01-1.70598E+00-3.24740E-13 5.49616E-13
 -1      2169 3.22867E+01 1.45187E+00 4.09554E-02-4.62098E+00-5.16115E-13 5.36127E-13
 -1      2170 3.68742E+01 3.23630E+00 3.65717E-01-4.32017E+00-6.12597E-13 4.33875E-13
 -1      2171 2.44064E+01-2.91822E+00-1.33695E-01-5.79452E+00-2.78999E-13 5.26246E-13
 -1      2172 2.95553E+01-5.03592E-01 2.33526E-01-6.05755E+00-2.86771E-13 8.22786E-13
 -1      2173 1.50497E+01-6.25353E+00-2.95528E-01-6.54054E+00-4.76286E-13-1.02973E-14
 -1      2174 2.02425E+01-4.44508E+00-6.21434E-04-7.23737E+00-3.76144E-13 5.31242E-14
 -1      2175 6.47437E+00-8.02301E+00-4.98715E-01-5.25746E+00-2.99205E-13 2.63317E-13
 -1      2176 1.02975E+01-6.22552E+00-2.07583E-01-6.66136E+00-4.16223E-13 1.57707E-13
 -1      2177 1.38969E+00-8.64315E+00-4.98064E-01-2.77593E+00-3.12167E-13 4.06619E-13
 -1      2178 3.37257E+00-7.85898E+00-3.93489E-01-4.24395E+00-3.45390E-13 4.10894E-13
 -1      2179 3.64372E+01 3.41451E+00 2.87956E-01 3.25308E+00 9.37000E-13 3.81917E-13
 -1      2180 3.24284E+01 1.52251E+00 5.77600E-03 3.63522E+00 7.53134E-13 6.44595E-13
 -1      2181 3.12877E+01-1.01377E+00 1.58036E-01 2.69166E+00 5.58234E-13 1.72473E-13
 -1      2182 2.07366E+01 1.10873E+00-2.05646E-02-1.61618E+00-3.67598E-13 2.62948E-13
 -1      2183 3.60953E+01 5.00194E+00 2.05332E-01-4.51590E-01 3.39118E-13 1.42719E-13
 -1      2184 3.35688E+01 5.67162E+00-1.06556E-01 1.25464E+00 3.55382E-13 2.01200E-13
 -1      2185 3.31998E+01 3.57218E+00 5.78116E-02 5.46023E-01 1.66395E-13 8.18234E-14
 -1      2186 3.48568E+01 4.07456E+00 2.27858E-01 3.74702E-01 7.44099E-13 1.34448E-13
 -1      2187 2.06265E+01 1.32945E+00-1.88086E-02-1.67769E+00-3.86021E-13 8.39502E-14
 -1      2188 2.81954E+00-5.40087E+00-1.52043E-01 2.66311E+00 1.06470E-13 7.60392E-13
 -1      2189 1.60976E+01-6.36869E+00-2.65038E-02 7.32485E+00 2.64400E-13 1.08880E-12
 -1      2190 2.03952E+01 9.24076E-01 8.57693E-03-1.31004E+00 2.83571E-13-2.33221E-13
 -1      2191 2.28240E+00-5.80682E+00-2.18346E-01-2.28741E+00-3.62210E-14 5.55056E-13
 -1      2192 6.88234E+00-6.56545E+00-2.02258E-01-5.98514E+00-1.42553E-13 1.42553E-13
 -1      2193 1.52683E+01-6.47784E+00-1.82026E-02-7.36009E+00-2.03504E-13 1.34094E-15
 -1      2194 2.42254E+01-5.21555E+00-8.94006E-03-5.79670E+00-1.82521E-13 2.99927E-13
 -1      2195 3.15557E+01-9.97524E-01 1.74540E-01-3.23812E+00-3.39132E-13 5.56000E-13
 -1      2196 3.54098E+01 3.55876E+00 2.96091E-01-9.68951E-01-4.37234E-13 2.94986E-13
 -1      2197 3.66498E+01 7.07200E+00 2.90377E-01-8.26933E-02-2.57794E-13 5.36821E-13
 -1      2198 3.75415E+01 8.06953E+00 3.64359E-01-5.72672E-01-3.49720E-15 5.89750E-13
 -1      2199 3.35190E+01 9.39008E-01 2.16495E-01 7.90811E-01-1.64965E-13 4.32210E-13
 -1      2200 2.10941E+01-5.81096E+00 1.41273E-02 5.77128E+00-3.36453E-13 3.94990E-13
 -1      2201 1.22404E+01-6.42395E+00-1.07791E-01 6.46375E+00-3.77143E-13 9.74221E-14
 -1      2202 1.52037E+00-5.60917E+00-1.50325E-01 3.65348E-01-1.83260E-13-2.91211E-13
 -1      2203 2.79030E+00-3.39236E+00 5.04258E-02-9.07386E-01-7.48152E-14-2.68729E-13
 -1      2204 2.98139E+00-3.74500E+00 2.65188E-02 1.71193E+00-7.57866E-14-2.28484E-13
 -1      2205 1.02255E+01-5.78053E+00-3.03955E-02-6.71160E+00-4.39759E-13-3.41061E-13
 -1      2206 1.86883E+01-5.82138E+00-6.49394E-02-6.54136E+00-4.70235E-13 1.17267E-14
 -1      2207 2.65043E+01-3.31257E+00 8.16184E-02-4.58799E+00-3.30125E-13 6.86118E-14
 -1      2208 3.22700E+01 5.76890E-01 2.22325E-01-2.06262E+00 7.75074E-15 1.39888E-14
 -1      2209 3.66151E+01 7.62034E+00 3.24712E-01 1.99475E-01 8.68750E-13 3.17524E-14
 -1      2210 3.65248E+01 8.08064E+00 2.71343E-01 4.63273E-01 4.87277E-13 1.10745E-14
 -1      2211 5.08983E+00-5.95162E+00-1.80205E-01 4.73472E+00-1.42109E-13-8.73190E-14
 -1      2212 3.68092E+01 5.80308E+00 3.35406E-01-6.42493E-01-5.89528E-14 4.34652E-13
 -1      2213 2.01480E+01 5.06400E-01 3.72735E-03 6.78135E-01 2.97092E-13 1.59002E-13
 -1      2214 2.04159E+01 6.99949E-01 2.07825E-02 9.69722E-01 3.30782E-13 2.13856E-13
 -1      2215 1.95599E+01 3.51590E+00-1.11279E-02-5.91707E-01-7.67862E-14-4.62987E-13
 -1      2216 1.95954E+01 3.47007E+00-1.05143E-02-7.76098E-01-1.28595E-13-4.62224E-13
 -1      2217 1.96420E+01 3.38207E+00-1.28052E-02-9.40658E-01-1.63305E-13-4.51620E-13
 -1      2218 1.97029E+01 3.30153E+00-1.28572E-02-1.12987E+00-2.13521E-13-4.27233E-13
 -1      2219 1.97868E+01 3.03307E+00 1.87283E-04-7.92655E-01-1.41006E-13-4.12244E-13
 -1      2220 1.95127E+01 3.59838E+00-9.62165E-03 9.94838E-02 7.42354E-14-4.93698E-13
 -1      2221 1.95120E+01 3.59920E+00-9.62776E-03-8.00753E-02 3.28450E-14-4.99851E-13
 -1      2222 1.95388E+01 3.55900E+00-9.72295E-03 4.45691E-01 1.50383E-13-4.81568E-13
 -1      2223 1.95214E+01 3.58155E+00-1.01393E-02 2.64787E-01 1.00542E-13-4.91828E-13
 -1      2224 1.96789E+01 3.22106E+00-9.01648E-04 1.69673E-01 9.03194E-14-4.71160E-13
 -1      2225 1.96007E+01 3.46250E+00-1.06094E-02 7.89803E-01 2.13739E-13-4.50631E-13
 -1      2226 1.95644E+01 3.50949E+00-1.12094E-02 6.08301E-01 1.75214E-13-4.74071E-13
 -1      2227 1.97157E+01 3.15757E+00-5.03222E-04 4.88271E-01 1.54147E-13-4.48391E-13
 -1      2228 1.97113E+01 3.28880E+00-1.29505E-02 1.14327E+00 2.96694E-13-3.72700E-13
 -1      2229 1.96487E+01 3.37211E+00-1.28721E-02 9.53950E-01 2.45159E-13-4.15851E-13
 -1      2230 1.97927E+01 3.02395E+00 2.70395E-04 8.04092E-01 2.26402E-13-4.00596E-13
 -1      2231 1.98906E+01 3.00328E+00-1.81682E-02 1.49035E+00 3.82382E-13-2.84315E-13
 -1      2232 1.97910E+01 3.14455E+00-1.51778E-02 1.29993E+00 3.25187E-13-3.28860E-13
 -1      2233 1.99219E+01 2.79887E+00 1.95931E-03 1.11044E+00 3.01210E-13-3.08134E-13
 -1      2234 2.01691E+01 2.54376E+00-2.83998E-02 1.79472E+00 4.36561E-13-1.61713E-13
 -1      2235 2.00178E+01 2.78311E+00-1.70920E-02 1.62023E+00 3.99373E-13-2.40110E-13
 -1      2236 2.01166E+01 2.44825E+00 5.81645E-03 1.37620E+00 3.66139E-13-2.29775E-13
 -1      2237 1.98708E+01 2.68134E-01 4.72733E-03 2.85664E-01 2.52307E-13 1.20765E-13
 -1      2238 2.00316E+01 3.67920E-01 2.01705E-02 4.42777E-01 2.72281E-13 1.64975E-13
 -1      2239 2.02106E+01 6.34512E-01-2.24457E-03 7.05077E-01 3.08665E-13 3.57049E-14
 -1      2240 2.04004E+01 8.53291E-01 1.24474E-02-1.00140E+00-3.15659E-13-8.35638E-15
 -1      2241 2.01907E+01 6.28358E-01-3.83945E-03-6.92053E-01-2.83032E-13-2.53276E-14
 -1      2242 2.01228E+01 4.68958E-01 1.55816E-02-4.74884E-01-2.39442E-13-5.51512E-15
 -1      2243 1.99836E+01 3.44234E-01 1.49698E-04-3.03679E-01-1.97433E-13-3.05930E-14
 -1      2244 2.02435E+01 7.47736E-01-1.26804E-03-6.92972E-01-2.68602E-13-8.68303E-14
 -1      2245 1.99195E+01 2.59169E-01 1.07265E-02-1.66709E-01-1.49500E-13-3.03870E-14
 -1      2246 1.98408E+01 1.87843E-01 6.47276E-04-6.95401E-02-1.18608E-13-5.52698E-14
 -1      2247 2.00804E+01 4.14607E-01-4.06899E-03-3.10965E-01-1.82664E-13-1.00569E-13
 -1      2248 1.97964E+01 1.38315E-01 6.36409E-03 1.24757E-02-1.24186E-13-4.53154E-14
 -1      2249 1.97612E+01 9.59399E-02 6.90944E-04 6.56708E-02-1.27000E-13-6.59415E-14
 -1      2250 1.99591E+01 2.26995E-01-3.69876E-03-7.21973E-02-1.38642E-13-1.00725E-13
 -1      2251 1.97352E+01 6.60073E-02 3.56963E-03 1.11239E-01-1.17204E-13-6.88333E-14
 -1      2252 1.97277E+01 4.04569E-02 6.07403E-04 1.37671E-01-1.07630E-13-8.31295E-14
 -1      2253 1.98833E+01 1.14445E-01-2.94985E-03 6.82377E-02-1.46337E-13-1.26240E-13
 -1      2254 1.97159E+01 2.21999E-02 1.85638E-03 1.59776E-01-1.04377E-13-8.64974E-14
 -1      2255 1.97248E+01 6.96447E-03 4.93868E-04 1.69778E-01-6.78312E-14-7.33988E-14
 -1      2256 1.98434E+01 4.62836E-02-2.12668E-03 1.44155E-01-1.07653E-13-1.02244E-13
 -1      2257 1.97227E+01-3.91468E-03 7.96754E-04 1.77055E-01-4.62116E-14-7.05349E-14
 -1      2258 1.97406E+01-1.25395E-02 3.83828E-04 1.77154E-01-2.98453E-14-6.53764E-14
 -1      2259 1.98291E+01 5.24318E-03-1.43973E-03 1.78502E-01-6.50290E-14-8.94989E-14
 -1      2260 1.97447E+01-1.85803E-02 1.48151E-04 1.75439E-01-6.50774E-14-6.24938E-14
 -1      2261 1.97667E+01-2.28628E-02 2.95633E-04 1.69904E-01-8.74500E-14-7.08931E-14
 -1      2262 1.98314E+01-1.84178E-02-9.25042E-04 1.86808E-01-5.12319E-14-8.08607E-14
 -1      2263 1.97743E+01-2.56684E-02-2.33407E-04 1.63174E-01-6.20912E-14-7.98908E-14
 -1      2264 1.97974E+01-2.70634E-02 2.36869E-04 1.54854E-01-7.15292E-14-8.10569E-14
 -1      2265 1.98438E+01-3.06417E-02-5.62920E-04 1.79653E-01-9.14048E-14-9.16274E-14
 -1      2266 1.98067E+01-2.76841E-02-4.38706E-04 1.45831E-01-7.87506E-14-7.81685E-14
 -1      2267 1.98292E+01-2.71444E-02 2.09531E-04 1.36655E-01-4.38876E-14-6.57349E-14
 -1      2268 1.98616E+01-3.52268E-02-3.22186E-04 1.64287E-01-7.65427E-14-8.05782E-14
 -1      2269 1.98392E+01-2.62746E-02-5.28099E-04 1.27215E-01-1.25451E-14-6.63256E-14
 -1      2270 1.98602E+01-2.44187E-02 2.13789E-04 1.18499E-01 2.97939E-14-3.01563E-14
 -1      2271 1.98820E+01-3.46597E-02-1.74166E-04 1.45704E-01-1.87343E-14 3.80215E-14
 -1      2272 1.98703E+01-2.25061E-02-5.42966E-04 1.09949E-01 6.07457E-15-8.06200E-14
 -1      2273 1.98898E+01-1.97147E-02 2.50257E-04 1.02621E-01-3.15549E-14-6.31452E-14
 -1      2274 1.99031E+01-3.05600E-02-9.59583E-05 1.27371E-01 2.08095E-14-8.93833E-15
 -1      2275 1.98998E+01-1.70257E-02-5.11996E-04 9.59037E-02-7.84932E-14-7.54684E-14
 -1      2276 1.99180E+01-1.35019E-02 3.20934E-04 9.06510E-02-8.33856E-14-9.48682E-14
 -1      2277 1.99242E+01-2.39339E-02-7.03232E-05 1.11748E-01-6.40816E-14-7.00981E-14
 -1      2278 1.99281E+01-1.01646E-02-4.55075E-04 8.64992E-02-6.14794E-14-1.11503E-13
 -1      2279 1.99457E+01-5.97448E-03 4.29441E-04 8.38902E-02-4.89466E-14-9.97742E-14
 -1      2280 1.99454E+01-1.53324E-02-8.48238E-05 1.00664E-01-8.54248E-14-5.63277E-14
 -1      2281 1.99561E+01-2.00916E-03-3.85903E-04 8.29429E-02-8.64293E-14-1.13022E-13
 -1      2282 1.99742E+01 2.88901E-03 5.81008E-04 8.35168E-02-7.40528E-14-1.22153E-13
 -1      2283 1.99669E+01-4.95678E-03-1.30652E-04 9.56142E-02-1.04811E-13-8.32610E-14
 -1      2284 1.99855E+01 7.54728E-03-3.13937E-04 8.64096E-02-4.36460E-14-2.19581E-13
 -1      2285 2.00051E+01 1.32810E-02 7.82272E-04 9.07463E-02-3.97984E-14-2.26676E-13
 -1      2286 1.99897E+01 7.26555E-03-2.01527E-04 9.79765E-02-1.36653E-13-1.60990E-13
 -1      2287 2.00180E+01 1.87641E-02-2.45857E-04 9.81800E-02-8.79275E-14-2.94225E-13
 -1      2288 2.00408E+01 2.55280E-02 1.04089E-03 1.06954E-01-1.19906E-13-2.94055E-13
 -1      2289 2.00151E+01 2.16226E-02-2.92686E-04 1.09181E-01-1.08846E-13-3.03898E-13
 -1      2290 2.00560E+01 3.20174E-02-1.86689E-04 1.19746E-01-4.90454E-14-2.37033E-13
 -1      2291 2.00839E+01 4.00541E-02 1.36481E-03 1.33765E-01-7.66283E-15-2.43884E-13
 -1      2292 2.00445E+01 3.85680E-02-3.99922E-04 1.30837E-01-7.36587E-14-3.02768E-13
 -1      2293 2.01023E+01 4.77608E-02-1.40621E-04 1.52879E-01 3.08245E-14-1.96025E-13
 -1      2294 2.01372E+01 5.73353E-02 1.76093E-03 1.73102E-01 1.40745E-13-2.41533E-13
 -1      2295 2.00799E+01 5.86684E-02-5.18614E-04 1.64815E-01 5.73796E-14-1.32885E-13
 -1      2296 2.01599E+01 6.64704E-02-1.11468E-04 1.99657E-01 1.93608E-13-2.53671E-13
 -1      2297 2.02043E+01 7.78288E-02 2.23286E-03 2.27189E-01 1.80582E-13-2.26708E-13
 -1      2298 2.01231E+01 8.25345E-02-6.42853E-04 2.13290E-01 1.57011E-13-2.08084E-13
 -1      2299 2.02324E+01 8.85531E-02-1.02550E-04 2.62437E-01 1.00047E-13-2.25551E-13
 -1      2300 2.02888E+01 1.01850E-01 2.77699E-03 2.98479E-01 4.60723E-14-1.77404E-13
 -1      2301 2.01766E+01 1.10710E-01-7.64891E-04 2.78711E-01 1.40509E-13-2.87514E-13
 -1      2302 2.03234E+01 1.14186E-01-1.15481E-04 3.43717E-01 8.09472E-14-1.20183E-13
 -1      2303 2.03950E+01 1.29355E-01 3.37606E-03 3.89446E-01 7.51707E-14-1.26402E-13
 -1      2304 2.02426E+01 1.43479E-01-8.75475E-04 3.63694E-01 1.16299E-13-2.08787E-13
 -1      2305 2.04373E+01 1.43024E-01-1.46945E-04 4.45862E-01-1.48850E-15-1.74825E-13
 -1      2306 2.05269E+01 1.59541E-01 3.98890E-03 5.02184E-01 6.55576E-14-1.49397E-13
 -1      2307 2.03235E+01 1.80526E-01-9.66263E-04 4.70755E-01 1.90753E-14-2.01732E-13
 -1      2308 2.05783E+01 1.73687E-01-1.81799E-04 5.70542E-01 1.55475E-13-1.43087E-13
 -1      2309 2.06890E+01 1.90168E-01 4.53492E-03 6.37642E-01 1.13294E-13-3.72497E-14
 -1      2310 2.04220E+01 2.20334E-01-1.03650E-03 6.01833E-01 5.81627E-14-1.49354E-13
 -1      2311 2.07509E+01 2.02877E-01-1.79985E-04 7.17759E-01 1.85839E-14-1.01735E-13
 -1      2312 2.08853E+01 2.16403E-01 4.87224E-03 7.94312E-01-5.29746E-14 1.14565E-14
 -1      2313 2.05406E+01 2.59158E-01-1.10761E-03 7.57438E-01 9.10383E-14-1.56763E-13
 -1      2314 2.09603E+01 2.23938E-01-5.40183E-05 8.84171E-01-1.22528E-13 2.94006E-14
 -1      2315 2.11202E+01 2.29031E-01 4.77007E-03 9.66056E-01-3.83912E-14 3.28978E-14
 -1      2316 2.06827E+01 2.89353E-01-1.25084E-03 9.35258E-01-5.05119E-14 1.74753E-14
 -1      2317 2.12126E+01 2.24721E-01 3.65041E-04 1.06040E+00-1.63840E-14-4.09701E-14
 -1      2318 2.13986E+01 2.11946E-01 3.87913E-03 1.13873E+00-1.97605E-14-5.27894E-14
 -1      2319 2.08536E+01 2.96854E-01-1.63231E-03 1.12794E+00-6.67985E-14 1.11895E-13
 -1      2320 2.15166E+01 1.84848E-01 1.36575E-03 1.22688E+00-2.09503E-14-1.89015E-13
 -1      2321 2.17278E+01 1.39437E-01 1.71084E-03 1.28530E+00-5.67372E-14-1.28439E-13
 -1      2322 2.10631E+01 2.57872E-01-2.57116E-03 1.31973E+00-9.00668E-14 1.44996E-14
 -1      2323 2.18863E+01 7.34998E-02 3.36244E-03 1.34806E+00-2.63975E-14-4.52081E-14
 -1      2324 2.21193E+01-2.46507E-02-2.34036E-03 1.35973E+00 6.37348E-15 1.01665E-13
 -1      2325 2.13298E+01 1.35837E-01-4.57402E-03 1.48154E+00 3.33463E-14 1.45000E-13
 -1      2326 2.23429E+01-1.48826E-01 6.78518E-03 1.36524E+00-1.51777E-15 1.26722E-13
 -1      2327 2.25906E+01-3.20343E-01-8.89781E-03 1.29119E+00 7.27896E-14 2.48251E-13
 -1      2328 2.16867E+01-1.17944E-01-8.23206E-03 1.56421E+00 5.62190E-14 2.12791E-13
 -1      2329 2.29126E+01-5.16640E-01 1.15088E-02 1.19092E+00 5.43476E-14 1.90101E-13
 -1      2330 2.31596E+01-7.65908E-01-1.80133E-02 9.83716E-01-3.40201E-14 1.44067E-13
 -1      2331 2.21860E+01-5.51322E-01-1.37727E-02 1.49048E+00 1.36826E-14 2.04106E-13
 -1      2332 2.36082E+01-1.01852E+00 1.59367E-02 7.13391E-01-2.35706E-14 9.87535E-14
 -1      2333 2.38217E+01-1.29653E+00-2.75488E-02 3.35074E-01 7.97348E-14 6.78461E-14
 -1      2334 2.28904E+01-1.16914E+00-1.97081E-02 1.14937E+00-5.36797E-14 1.89770E-13
 -1      2335 2.43769E+01-1.51812E+00 1.40787E-02-1.60740E-01 2.95233E-14 2.27032E-14
 -1      2336 2.45006E+01-1.67450E+00-3.16542E-02-6.94248E-01-7.79333E-14-2.79507E-14
 -1      2337 2.38292E+01-1.83791E+00-2.05148E-02 4.11979E-01-2.42842E-14 1.57916E-13
 -1      2338 2.50296E+01-1.66805E+00-3.98144E-03-1.38904E+00-1.63220E-13 8.12631E-14
 -1      2339 2.49948E+01-1.45080E+00-2.22427E-02-1.93426E+00-8.40510E-14 1.73471E-13
 -1      2340 2.48998E+01-2.17938E+00-1.22955E-02-7.84908E-01-6.99597E-14 2.25609E-13
 -1      2341 2.52278E+01-9.66600E-01-4.71691E-02-2.57481E+00-1.57170E-13-1.14492E-15
 -1      2342 2.50448E+01-2.01874E-01 9.87098E-03-2.80863E+00-2.79965E-13-1.41593E-13
 -1      2343 2.57248E+01-1.60289E+00-2.49849E-02-2.24882E+00-2.39792E-13 2.32963E-13
 -1      2344 2.48169E+01 6.66052E-01-9.56464E-02-2.88499E+00-1.18992E-13-2.23018E-13
 -1      2345 2.45557E+01 1.66646E+00 1.23974E-03-2.52942E+00 1.02487E-14-1.96631E-13
 -1      2346 2.59341E+01 2.84034E-01-3.44400E-02-3.21684E+00-2.71713E-13-6.60930E-14
 -1      2347 2.42179E+01 2.45855E+00-7.22721E-02-1.73209E+00-2.79013E-14-3.18402E-13
 -1      2348 2.40393E+01 2.84967E+00-4.40737E-02-8.23437E-01-9.75400E-14-2.95906E-13
 -1      2349 2.56134E+01 2.61745E+00-5.12920E-02-2.40634E+00-1.31194E-13-1.83881E-15
 -1      2350 2.40488E+01 2.76813E+00-2.89040E-02 3.81866E-01-3.86774E-14-3.39288E-13
 -1      2351 2.41050E+01 2.19958E+00-8.63793E-02 1.23109E+00-1.20612E-13-2.86673E-13
 -1      2352 2.52389E+01 3.59940E+00-9.86023E-02-2.39518E-01-7.25392E-14-2.04574E-13
 -1      2353 2.43931E+01 1.32446E+00 4.68636E-03 1.88397E+00-1.31672E-13-8.70163E-14
 -1      2354 2.45413E+01 3.35505E-01-8.10101E-02 2.12594E+00-3.70572E-14-3.20564E-14
 -1      2355 2.54870E+01 2.24806E+00-6.22855E-02 1.75164E+00 2.75197E-14-1.53204E-13
 -1      2356 2.46097E+01-5.33043E-01 4.41082E-04 1.91765E+00-1.14030E-13 4.13276E-15
 -1      2357 2.46547E+01-1.20398E+00-3.84282E-02 1.57507E+00-3.91653E-14-4.55382E-14
 -1      2358 2.56934E+01-1.28562E-01-9.47670E-03 2.11208E+00-5.71036E-14-3.42781E-15
 -1      2359 2.42870E+01-1.56696E+00-1.94281E-02 9.00452E-01 1.69300E-13-9.76116E-14
 -1      2360 2.41521E+01-1.69522E+00-1.20201E-03 3.34709E-01 2.43457E-13-1.50412E-13
 -1      2361 2.52241E+01-1.80038E+00-1.06233E-03 1.05242E+00-7.01323E-14-9.50871E-14
 -1      2362 2.35549E+01-1.61832E+00-2.75624E-02-3.22087E-01 5.54713E-14-2.85033E-13
 -1      2363 2.32845E+01-1.39880E+00 1.56969E-02-8.20832E-01 1.07829E-13-2.73243E-13
 -1      2364 2.41796E+01-2.14585E+00-8.17659E-03-3.54341E-01 6.70759E-14-2.55118E-13
 -1      2365 2.26878E+01-1.11361E+00-2.39218E-02-1.24580E+00 2.15127E-13-3.95997E-13
 -1      2366 2.23557E+01-7.73247E-01 1.89625E-02-1.54583E+00 1.43915E-13-3.48485E-13
 -1      2367 2.30032E+01-1.62591E+00-1.63251E-02-1.43377E+00 2.52951E-14-2.24947E-13
 -1      2368 2.18667E+01-4.46115E-01-1.57470E-02-1.71188E+00-4.59177E-14-4.42324E-13
 -1      2369 2.15314E+01-1.16524E-01 1.41732E-02-1.78650E+00-1.98947E-13-3.64754E-13
 -1      2370 2.19888E+01-7.87080E-01-1.46130E-02-1.99042E+00 1.37694E-15-6.18770E-13
 -1      2371 1.06889E+01-4.86735E+00 1.56820E-02 7.08086E+00 2.30038E-13 1.33638E-12
 -1      2372 8.04045E+00-4.29395E+00 1.20990E-01 5.75971E+00 5.29576E-14 1.10845E-12
 -1      2373 1.96229E+01 7.24576E-02 2.06693E-03-6.55899E-02 1.04080E-13-2.29352E-15
 -1      2374 1.96504E+01 1.04190E-01 6.91191E-03-1.94893E-02 1.40391E-13 4.98453E-14
 -1      2375 1.95992E+01 3.06117E-02 1.33450E-03-1.31174E-01 8.74349E-14-6.74468E-14
 -1      2376 1.95962E+01 4.95229E-02 3.68316E-03-1.08713E-01 9.68336E-14-3.16854E-14
 -1      2377 1.97676E+01 8.96935E-02-3.17324E-03-7.08522E-02 1.42387E-13-6.79584E-14
 -1      2378 1.96110E+01 5.62096E-03 8.71233E-04-1.59555E-01 1.16242E-13-8.17125E-14
 -1      2379 1.95911E+01 1.68418E-02 1.81686E-03-1.51342E-01 8.81739E-14-8.35097E-14
 -1      2380 1.97333E+01 3.57408E-02-2.28548E-03-1.43096E-01 1.02720E-13-1.21349E-13
 -1      2381 1.96429E+01-8.88802E-03 5.56504E-04-1.65263E-01 1.07081E-13-7.26581E-14
 -1      2382 1.96147E+01-2.51385E-03 7.20005E-04-1.65554E-01 1.13870E-13-5.51640E-14
 -1      2383 1.97298E+01 3.70635E-03-1.51837E-03-1.74851E-01 9.47444E-14-1.60123E-13
 -1      2384 1.96847E+01-1.66059E-02 3.42417E-04-1.57702E-01-1.82208E-14-3.52547E-14
 -1      2385 1.96535E+01-1.33886E-02 6.97989E-05-1.62806E-01 6.60483E-14-3.65485E-14
 -1      2386 1.97450E+01-1.46389E-02-9.46130E-04-1.81651E-01 7.00107E-14-8.41805E-14
 -1      2387 1.97297E+01-1.98295E-02 2.05883E-04-1.43113E-01 4.17816E-14-7.26678E-14
 -1      2388 1.96987E+01-1.87011E-02-3.01597E-04-1.50591E-01-1.48912E-14-6.32326E-14
 -1      2389 1.97704E+01-2.41092E-02-5.49030E-04-1.73786E-01 2.14515E-14-8.78222E-14
 -1      2390 1.97740E+01-2.00486E-02 1.31828E-04-1.25693E-01 3.50275E-14-9.97421E-14
 -1      2391 1.97450E+01-2.03136E-02-4.92066E-04-1.33909E-01 7.14704E-14-7.39420E-14
 -1      2392 1.98005E+01-2.77114E-02-2.88901E-04-1.58179E-01 6.22094E-14-1.63471E-13
 -1      2393 1.98156E+01-1.82389E-02 1.09478E-04-1.08288E-01 1.18579E-13-1.04454E-13
 -1      2394 1.97893E+01-1.94446E-02-5.63909E-04-1.16133E-01 5.44240E-14-7.79840E-14
 -1      2395 1.98318E+01-2.73918E-02-1.31428E-04-1.39535E-01 6.19670E-14-1.59541E-13
 -1      2396 1.98538E+01-1.50228E-02 1.31715E-04-9.28605E-02 1.08306E-13-1.36516E-14
 -1      2397 1.98302E+01-1.68856E-02-5.58622E-04-9.95650E-02 1.23333E-13-2.93818E-14
 -1      2398 1.98623E+01-2.44164E-02-5.01814E-05-1.21080E-01 9.87483E-14-9.46916E-14
 -1      2399 1.98890E+01-1.07680E-02 1.94761E-04-8.08103E-02 1.74401E-14 3.14344E-14
 -1      2400 1.98677E+01-1.31276E-02-5.04171E-04-8.58144E-02 8.36614E-14 2.71959E-14
 -1      2401 1.98914E+01-1.95823E-02-2.58334E-05-1.05065E-01 4.92871E-14-7.28241E-14
 -1      2402 1.99223E+01-5.65302E-03 2.97645E-04-7.32132E-02 1.40208E-14-2.27146E-14
 -1      2403 1.99024E+01-8.44080E-03-4.19251E-04-7.60704E-02-1.54180E-14 4.15567E-15
 -1      2404 1.99192E+01-1.33482E-02-4.46563E-05-9.31241E-02 2.62664E-14-3.68086E-14
 -1      2405 1.99553E+01 2.83307E-04 4.41451E-04-7.09952E-02 5.66327E-14-6.02829E-14
 -1      2406 1.99357E+01-2.93114E-03-3.16028E-04-7.13016E-02 7.74497E-14-2.47736E-14
 -1      2407 1.99463E+01-5.92281E-03-9.72822E-05-8.65433E-02 3.38578E-14-3.74269E-14
 -1      2408 1.99900E+01 7.09875E-03 6.28400E-04-7.50570E-02 6.85244E-15-8.73591E-14
 -1      2409 1.99693E+01 3.41378E-03-2.02054E-04-7.24017E-02 7.93457E-15-4.55833E-14
 -1      2410 1.99741E+01 2.66674E-03-1.77495E-04-8.64485E-02 3.62701E-14-1.02198E-13
 -1      2411 2.00291E+01 1.49049E-02 8.60666E-04-8.63536E-02 4.35043E-15-9.72347E-14
 -1      2412 2.00056E+01 1.06827E-02-8.17367E-05-8.02887E-02 3.58628E-14-7.57749E-14
 -1      2413 2.00041E+01 1.25140E-02-2.81120E-04-9.39420E-02 3.37729E-17-1.50608E-13
 -1      2414 2.00756E+01 2.38183E-02 1.13866E-03-1.05925E-01 2.03502E-15-8.11145E-14
 -1      2415 2.00474E+01 1.89959E-02 4.24909E-05-9.59584E-02-1.26017E-14-9.11434E-14
 -1      2416 2.00383E+01 2.37709E-02-4.05117E-04-1.10181E-01-2.06479E-14-5.69813E-14
 -1      2417 2.01327E+01 3.38961E-02 1.45858E-03-1.34872E-01-1.15196E-14-2.00730E-13
 -1      2418 2.00977E+01 2.84501E-02 1.69243E-04-1.20487E-01 4.63292E-14-1.57860E-13
 -1      2419 2.00792E+01 3.65737E-02-5.46759E-04-1.36400E-01 4.69161E-14-9.75279E-14
 -1      2420 2.02043E+01 4.50464E-02 1.80878E-03-1.74256E-01 2.09358E-13-2.90304E-13
 -1      2421 2.01601E+01 3.90439E-02 2.97430E-04-1.54969E-01 3.13994E-14-3.23773E-13
 -1      2422 2.01293E+01 5.09448E-02-7.02910E-04-1.73859E-01 7.23685E-14-3.08088E-13
 -1      2423 2.02943E+01 5.68970E-02 2.16473E-03-2.24893E-01 1.63226E-13-1.33094E-13
 -1      2424 2.02385E+01 5.05702E-02 4.25719E-04-2.00365E-01 2.30480E-13-1.49132E-13
 -1      2425 2.01916E+01 6.66536E-02-8.69536E-04-2.23701E-01 1.13847E-13-2.72904E-13
 -1      2426 2.04068E+01 6.86058E-02 2.48199E-03-2.87005E-01-3.57731E-14-4.64694E-14
 -1      2427 2.03370E+01 6.24598E-02 5.52297E-04-2.57233E-01 9.83114E-14-7.35711E-14
 -1      2428 2.02693E+01 8.30148E-02-1.04166E-03-2.86686E-01 7.62085E-14-3.47481E-15
 -1      2429 2.05456E+01 7.85920E-02 2.68741E-03-3.59659E-01-4.79146E-14-1.24754E-13
 -1      2430 2.04597E+01 7.35570E-02 6.75138E-04-3.25269E-01-9.83302E-14-5.50768E-14
 -1      2431 2.03658E+01 9.85993E-02-1.21406E-03-3.62742E-01-2.56424E-14-6.41967E-14
 -1      2432 2.07141E+01 8.41775E-02 2.66915E-03-4.39942E-01 5.31747E-14-2.41276E-13
 -1      2433 2.06106E+01 8.18078E-02 7.93063E-04-4.02632E-01 2.69594E-14-1.93146E-13
 -1      2434 2.04844E+01 1.10834E-01-1.38314E-03-4.50283E-01 3.26739E-14-1.53676E-13
 -1      2435 2.09139E+01 8.11605E-02 2.26860E-03-5.21789E-01 2.29727E-14-1.13558E-13
 -1      2436 2.07927E+01 8.38635E-02 9.07744E-04-4.84935E-01-6.88035E-15-1.79062E-13
 -1      2437 2.06284E+01 1.15484E-01-1.54983E-03-5.45223E-01-2.62624E-14-1.94334E-13
 -1      2438 2.11448E+01 6.34287E-02 1.28083E-03-5.94481E-01-7.45063E-14 8.97519E-15
 -1      2439 2.10078E+01 7.46504E-02 1.02612E-03-5.63904E-01 4.07155E-14-6.28460E-14
 -1      2440 2.08007E+01 1.06084E-01-1.72235E-03-6.39624E-01-8.86471E-15-1.43914E-13
 -1      2441 2.14031E+01 2.29158E-02-5.23071E-04-6.40943E-01-2.76154E-14-9.47296E-14
 -1      2442 2.12555E+01 4.70912E-02 1.16057E-03-6.25709E-01-5.98914E-14-5.11498E-14
 -1      2443 2.10039E+01 7.35121E-02-1.91447E-03-7.20003E-01-4.44675E-14-1.63398E-13
 -1      2444 2.16801E+01-4.94448E-02-3.32855E-03-6.36398E-01-1.18569E-13 7.81857E-14
 -1      2445 2.15315E+01-7.57464E-03 1.31929E-03-6.49300E-01-1.16116E-13-4.55439E-14
 -1      2446 2.12396E+01 6.26612E-03-2.12899E-03-7.65505E-01-1.33356E-13-1.49340E-13
 -1      2447 2.19609E+01-1.60611E-01-7.13289E-03-5.48582E-01 5.35162E-15-5.35070E-14
 -1      2448 2.18262E+01-9.79867E-02 1.47423E-03-6.05535E-01 1.64499E-14 7.91630E-14
 -1      2449 2.15082E+01-1.07528E-01-2.30907E-03-7.46558E-01-1.13035E-13-9.41958E-14
 -1      2450 2.22210E+01-3.08640E-01-1.14936E-02-3.41882E-01-1.68804E-13-2.08654E-14
 -1      2451 2.21215E+01-2.27984E-01 1.48445E-03-4.58913E-01-1.28841E-13-8.64244E-14
 -1      2452 2.18059E+01-2.74606E-01-2.24000E-03-6.25469E-01-4.06740E-14-1.31529E-13
 -1      2453 2.24245E+01-4.71481E-01-1.52301E-02 1.10235E-02-1.68979E-13 8.77527E-14
 -1      2454 2.23862E+01-3.87613E-01 9.81126E-04-1.75076E-01-1.44312E-13 6.17113E-14
 -1      2455 2.21209E+01-4.85627E-01-1.43134E-03-3.61772E-01-1.26325E-13-1.72424E-13
 -1      2456 2.25218E+01-5.94411E-01-1.61855E-02 5.06634E-01 1.72900E-14 8.97068E-14
 -1      2457 2.25713E+01-5.40432E-01-7.24216E-04 2.61694E-01-1.03421E-13 8.20324E-14
 -1      2458 2.24239E+01-6.98905E-01 8.42054E-04 7.31425E-02-1.39734E-13-3.61688E-15
 -1      2459 2.24550E+01-5.87190E-01-1.13002E-02 1.07888E+00 1.28846E-13 1.35661E-13
 -1      2460 2.26101E+01-6.13527E-01-4.10790E-03 8.18988E-01 8.69786E-14 1.06819E-13
 -1      2461 2.26581E+01-8.26457E-01 5.14743E-03 6.67885E-01 3.38445E-14-5.07114E-15
 -1      2462 2.21769E+01-3.57093E-01 9.03018E-05 1.56885E+00 1.64872E-13 1.57792E-13
 -1      2463 2.24311E+01-5.06188E-01-8.68618E-03 1.37956E+00 1.41124E-13 2.48022E-13
 -1      2464 2.27364E+01-7.37247E-01 1.14712E-02 1.33009E+00 5.87735E-14 3.58272E-14
 -1      2465 2.17036E+01 1.05399E-01 1.31663E-02 1.74925E+00 1.83860E-13 1.79101E-13
 -1      2466 2.20109E+01-1.54598E-01-1.26733E-02 1.73241E+00 2.23843E-13 1.40760E-13
 -1      2467 2.25732E+01-3.31371E-01 1.44975E-02 1.85061E+00 1.99880E-13 1.12499E-13
 -1      2468 2.11574E+01 6.52144E-01 1.85086E-02 1.43347E+00 1.21211E-13-4.17687E-14
 -1      2469 2.14367E+01 3.81124E-01-1.18828E-02 1.64916E+00 1.75079E-13 1.83384E-13
 -1      2470 2.21683E+01 3.44659E-01 6.43974E-03 1.95175E+00 2.14651E-13 1.75867E-13
 -1      2471 2.07577E+01 9.95396E-01 1.08284E-02 6.44106E-01 1.09470E-13 1.76922E-14
 -1      2472 2.09227E+01 8.68488E-01-2.95434E-03 1.04068E+00 1.96556E-13 5.16670E-14
 -1      2473 2.16829E+01 1.03332E+00-1.04671E-02 1.44323E+00 1.31082E-13 2.88680E-13
 -1      2474 2.06915E+01 9.19206E-01-1.05376E-03-3.02923E-01 7.70911E-15 5.68122E-17
 -1      2475 2.06999E+01 1.01670E+00 1.34648E-02 1.08796E-01-4.12483E-14-5.72047E-14
 -1      2476 2.13933E+01 1.36340E+00-1.65449E-02 4.38605E-01 8.97945E-14 2.38345E-13
 -1      2477 2.09417E+01 4.69198E-01-1.18453E-02-9.85294E-01-8.40647E-15 5.22117E-14
 -1      2478 2.08205E+01 7.29345E-01 2.19329E-02-7.34792E-01 1.02501E-13-4.06272E-15
 -1      2479 2.14506E+01 1.12143E+00-9.15687E-03-6.06316E-01 6.75350E-14 3.72247E-14
 -1      2480 2.12988E+01-7.68704E-02-1.35636E-02-1.15638E+00-1.12871E-13 1.59177E-13
 -1      2481 2.11285E+01 1.92008E-01 1.63085E-02-1.13666E+00-8.38368E-14 9.33481E-14
 -1      2482 2.17437E+01 4.63169E-01 4.38455E-03-1.21521E+00-8.48171E-14 2.64616E-13
 -1      2483 2.15353E+01-4.57141E-01-8.60675E-03-8.65094E-01-4.59541E-14 1.06763E-13
 -1      2484 2.14009E+01-2.97472E-01 2.88281E-03-1.02723E+00-2.87726E-14 1.61307E-13
 -1      2485 2.20047E+01-2.37723E-01 1.25115E-02-1.20940E+00-8.99304E-14 1.29054E-13
 -1      2486 2.15403E+01-5.68232E-01-1.74867E-03-3.45921E-01 2.04615E-13 3.02055E-13
 -1      2487 2.14920E+01-5.46813E-01-9.14291E-03-5.80528E-01 1.87394E-14 1.74933E-13
 -1      2488 2.20404E+01-6.74602E-01 1.10228E-02-7.46049E-01-2.58923E-14 9.86437E-14
 -1      2489 2.13325E+01-4.56057E-01 3.53448E-03 1.55464E-01 3.08651E-14 4.15529E-13
 -1      2490 2.13767E+01-5.36934E-01-1.48567E-02-5.13666E-02 1.66265E-13 4.45660E-13
 -1      2491 2.18254E+01-7.54387E-01 4.84084E-03-1.27268E-01 4.26499E-14 4.16614E-13
 -1      2492 2.09953E+01-2.17051E-01 7.90543E-03 4.81184E-01 8.74650E-14 2.13951E-13
 -1      2493 2.11062E+01-3.51067E-01-1.47189E-02 3.62540E-01 4.95550E-14 3.42120E-13
 -1      2494 2.14442E+01-5.56334E-01-2.27167E-05 3.92604E-01 1.19675E-13 4.83636E-13
 -1      2495 2.06074E+01 5.01938E-02 7.53509E-03 5.61962E-01-1.55499E-14 2.76256E-13
 -1      2496 2.07514E+01-8.26217E-02-1.03508E-02 5.54899E-01-1.67223E-14 2.13822E-13
 -1      2497 2.09990E+01-2.03635E-01 1.58560E-03 6.78150E-01 3.28921E-14 2.82048E-13
 -1      2498 2.03914E+01 1.74158E-01-1.81770E-03 5.00103E-01 3.01377E-14 1.56981E-13
 -1      2499 2.02056E+01 1.40986E+00-8.74770E-03 2.25352E+00-1.82855E-13-1.69204E-14
 -1      2500 2.04242E+01 1.08108E+00 1.22324E-02 2.14004E+00-1.95804E-13-3.28577E-13
 -1      2501 1.96160E+01 2.09780E+00-2.30562E-02 2.24290E+00-2.19131E-13-1.63239E-13
 -1      2502 1.99422E+01 1.75744E+00 1.54331E-02 2.31868E+00-2.19977E-13-2.31780E-14
 -1      2503 2.00824E+01 9.90241E-01-9.24969E-03 2.59170E+00-1.27503E-13-5.37664E-15
 -1      2504 2.06843E+01 4.86547E-01 1.15048E-02 1.40916E+00-2.59815E-14 2.28651E-13
 -1      2505 2.06706E+01 2.83466E-01 7.68425E-04 1.16885E+00 5.69614E-14 1.89538E-13
 -1      2506 2.05664E+01 8.59068E-01 4.08547E-03 1.90566E+00-2.22468E-13-3.44873E-13
 -1      2507 2.06509E+01 5.94300E-01 6.94424E-03 1.69387E+00-1.59136E-13 1.84515E-13
 -1      2508 2.08700E+01 1.51596E-01-8.07638E-03 1.69666E+00 3.75188E-15 7.96346E-14
 -1      2509 2.06460E+01 4.59358E-01-8.08367E-03 2.25312E+00-2.63614E-13-1.71591E-13
 -1      2510 1.89542E+01 2.78481E+00-3.07867E-02 1.71969E+00-1.56828E-13-1.32655E-13
 -1      2511 1.92879E+01 2.50572E+00 1.24775E-02 2.03352E+00-1.25974E-13-2.75192E-13
 -1      2512 1.92729E+01 1.69982E+00-9.62405E-04 2.46348E+00-2.23346E-13-1.47695E-13
 -1      2513 1.84882E+01 3.25583E+00-2.58154E-02 7.04938E-01-4.06563E-13-1.03628E-13
 -1      2514 1.86856E+01 3.11235E+00 1.03582E-03 1.21507E+00-4.32922E-13 3.90655E-14
 -1      2515 1.84629E+01 2.39723E+00 1.57952E-02 1.71287E+00-3.44306E-13-2.40857E-13
 -1      2516 1.84461E+01 3.31768E+00-1.09847E-02-5.47572E-01-4.56407E-13 6.05765E-14
 -1      2517 1.84084E+01 3.35452E+00-1.53353E-02 2.10001E-02-4.10196E-13 4.40550E-14
 -1      2518 1.79885E+01 2.80312E+00 2.76870E-02 4.32445E-01-4.62471E-13-1.06058E-13
 -1      2519 1.88385E+01 2.94539E+00 5.10670E-03-1.63702E+00-1.48708E-13 3.72199E-13
 -1      2520 1.85919E+01 3.14547E+00-2.74596E-02-1.18413E+00-2.65734E-13 2.94016E-13
 -1      2521 1.80790E+01 2.72963E+00 2.54104E-02-9.95744E-01-3.23405E-13 1.83299E-13
 -1      2522 1.94820E+01 2.27345E+00 1.41889E-02-2.29957E+00 4.79211E-14 5.20261E-13
 -1      2523 1.91388E+01 2.58831E+00-2.80284E-02-2.05724E+00-1.68606E-14 3.23359E-13
 -1      2524 1.86779E+01 2.22431E+00 9.79221E-03-2.12759E+00-1.98567E-13 3.99303E-13
 -1      2525 2.01102E+01 1.53411E+00 1.34157E-02-2.43131E+00 1.81729E-13 2.24269E-13
 -1      2526 1.98022E+01 1.88967E+00-1.77532E-02-2.41954E+00 5.93152E-14 5.54563E-13
 -1      2527 1.95205E+01 1.52291E+00-5.11445E-03-2.68277E+00-1.18633E-13 3.70277E-13
 -1      2528 2.05635E+01 9.26393E-01 1.38376E-02-2.14229E+00-5.65032E-15-3.43777E-13
 -1      2529 2.03555E+01 1.25235E+00-1.39993E-03-2.29953E+00 6.61624E-14-1.90171E-13
 -1      2530 2.03057E+01 9.00341E-01-3.26287E-04-2.64973E+00 8.83323E-14-1.01897E-13
 -1      2531 2.06310E+01 7.18915E-01-5.52997E-03-1.55382E+00 1.97696E-13-1.48060E-13
 -1      2532 3.47842E+00-3.49252E+00 6.09881E-02-1.49381E+00 1.79495E-13 6.07681E-13
 -1      2533 4.69403E+00-4.17282E+00 3.81163E-02-3.95509E+00-4.55191E-15 4.46365E-13
 -1      2534 1.97042E+01 1.43233E-01 3.26780E-03 6.04023E-02 1.78372E-13 6.89466E-14
 -1      2535 1.97828E+01 1.98051E-01 1.23816E-02 1.46573E-01 2.14258E-13 1.06432E-13
 -1      2536 1.98487E+01 1.80786E-01-3.86005E-03 6.59397E-02 1.92732E-13-1.03938E-14
 -1      2537 1.98063E+01-6.15264E+00-4.07789E-02 7.16169E+00 5.02376E-14 7.54244E-13
 -1      2538 1.50775E+01-5.84396E+00 1.01653E-01 7.30100E+00 1.40221E-13 8.22523E-13
 -1      2539 2.68478E+01-4.92348E+00-8.86872E-02 4.34575E+00 1.54848E-13-2.88464E-13
 -1      2540 2.39883E+01-5.77615E+00 5.22092E-02 5.35264E+00 3.98015E-14 1.47382E-13
 -1      2541 2.05465E+01 1.95530E+00-1.39170E-02-1.90168E+00-3.94492E-13-5.32751E-14
 -1      2542 2.04124E+01 1.21691E+00-5.71772E-03-1.28727E+00-3.61785E-13-2.78624E-14
 -1      2543 2.03725E+01 1.37252E+00 3.15227E-03-1.22995E+00-3.33557E-13-1.23853E-13
 -1      2544 2.02868E+01 2.36618E+00-7.48806E-03-1.82725E+00-3.77681E-13-1.61687E-13
 -1      2545 7.09286E+00-4.82742E+00 5.11774E-02-5.53738E+00 7.35523E-14 1.94678E-13
 -1      2546 1.02137E+01-5.22778E+00 1.81273E-02-6.95903E+00 7.01661E-14 2.27457E-13
 -1      2547 2.35406E+01-5.85532E+00-8.03748E-02 4.77588E+00-3.21798E-13 4.13877E-13
 -1      2548 1.96517E+01-6.21765E+00 1.85131E-02 5.71280E+00-3.20799E-13 3.50407E-13
 -1      2549 9.56201E+00-4.49597E+00 1.04423E-01-6.17154E+00-3.81195E-13-3.56853E-13
 -1      2550 1.34554E+01-5.03916E+00 3.62942E-02-6.97212E+00-3.67761E-13-2.21739E-13
 -1      2551 1.95193E+01 3.58457E+00-1.01002E-02-2.45391E-01 5.15454E-15-4.99071E-13
 -1      2552 1.95353E+01 3.56390E+00-9.67286E-03-4.26184E-01-3.42834E-14-4.82442E-13
 -1      2553 1.97117E+01 3.16326E+00-5.96119E-04-4.73579E-01-5.31162E-14-4.29042E-13
 -1      2554 1.96775E+01 3.22315E+00-9.25682E-04-1.52079E-01 1.07378E-14-4.69437E-13
 -1      2555 3.26192E+01 7.09644E+00-1.70113E-01 9.65456E-01 3.72757E-13 3.81278E-13
 -1      2556 3.29175E+01 7.74444E+00-1.26599E-01 4.55792E-01 5.57110E-13 3.89546E-13
 -1      2557 8.04976E+00-4.67625E+00 3.50885E-02 5.77766E+00-1.29591E-13-1.50269E-13
 -1      2558 5.38190E+00-4.07295E+00 8.91649E-02 4.12912E+00-6.71130E-14-1.35170E-13
 -1      2559 3.27207E+01 4.38202E+00-1.36847E-01-6.87791E-01 5.81951E-13-6.08402E-14
 -1      2560 3.17081E+01 2.34607E+00-8.27340E-02-6.33146E-01 4.91912E-13-2.36533E-13
 -1      2561 3.28198E+01 7.26037E+00-1.56671E-01-2.83592E-01 7.56395E-13 1.69489E-13
 -1      2562 3.27201E+01 6.11603E+00-1.49090E-01-6.37544E-01 8.37552E-13 1.02723E-13
 -1      2563 3.04952E+01 4.81492E+00-6.43225E-02-1.39257E+00 5.17753E-13-4.10505E-14
 -1      2564 2.99600E+01-1.48573E+00-5.06991E-02-1.37948E+00-1.93220E-13 1.23179E-13
 -1      2565 3.16968E+01 5.54621E-01-1.14873E-01-2.44488E-01-7.36494E-14 4.81837E-14
 -1      2566 2.51711E+01-4.77375E+00-9.89990E-03-4.14320E+00-4.46809E-13 1.04694E-13
 -1      2567 2.80674E+01-3.47351E+00-7.30228E-02-3.08619E+00-3.93297E-13-1.23790E-14
 -1      2568 1.80504E+01-5.80977E+00 5.90510E-02-6.57148E+00-3.91742E-13 5.62224E-14
 -1      2569 2.19972E+01-5.53118E+00-2.23414E-04-5.87740E+00-4.10394E-13 1.57416E-13
 -1      2570 2.43972E+01-5.46524E+00 5.58975E-02-4.25783E+00-4.67737E-13 1.45411E-13
 -1      2571 4.38445E+00-3.35160E+00 1.04703E-01-3.34199E+00-1.38514E-13-1.81022E-13
 -1      2572 6.19422E+00-3.88668E+00 4.83400E-02-5.14496E+00-3.21632E-13-8.57092E-14
 -1      2573 3.41716E+01 5.81759E+00-9.12579E-02-1.53186E+00-5.57332E-14 3.88717E-13
 -1      2574 3.32846E+01 4.27336E+00-6.73214E-02-1.70175E+00-1.88849E-13 3.62432E-13
 -1      2575 1.61783E+01-5.91698E+00 1.33364E-02 6.67959E+00-3.98181E-13 1.00239E-13
 -1      2576 1.23022E+01-5.54348E+00 6.21164E-02 6.35762E+00-3.11307E-13 1.19349E-14
 -1      2577 1.93975E+01-5.81358E+00 1.04663E-01 5.74478E+00-3.19494E-13 4.01294E-13
 -1      2578 2.91284E+01-3.46798E+00-9.15677E-02 1.70420E+00-2.60347E-13 2.77167E-13
 -1      2579 2.68819E+01-4.88072E+00-4.10618E-02 2.70355E+00-3.48277E-13 3.90382E-13
 -1      2580 3.26210E+01 1.31831E+00-1.60430E-01-9.55236E-01-2.24043E-13 3.28515E-13
 -1      2581 3.08271E+01-1.26002E+00-6.32887E-02-7.30506E-02-2.13662E-13 2.73170E-13
 -1      2582 3.36989E+01 7.51515E+00-1.26583E-01-6.36145E-01-3.10307E-14 3.25517E-13
 -1      2583 3.41363E+01 7.01243E+00-8.92422E-02-1.16526E+00 3.80251E-14 3.13138E-13
 -1      2584 3.17821E+01 6.03073E+00-3.93752E-02-1.85334E+00-8.79297E-14 8.68750E-14
 -1      2585 3.32341E+01 5.74828E+00-8.19040E-02 7.65083E-01-1.56930E-13 1.97342E-13
 -1      2586 3.35693E+01 6.95584E+00-1.35432E-01 2.10697E-01-4.26326E-14 3.59504E-13
 -1      2587 3.26893E+01 1.15766E+00-4.35398E-02-3.71223E-02-4.01013E-13 2.09499E-13
 -1      2588 3.30071E+01 3.08180E+00-1.90417E-01 7.02609E-01-3.77892E-13 2.35090E-13
 -1      2589 2.94675E+01-3.07167E+00-3.30006E-02-2.42261E+00-1.01787E-13 4.32487E-13
 -1      2590 3.17522E+01-1.00482E+00-9.72949E-02-1.37968E+00-4.12250E-13 2.01450E-13
 -1      2591 3.11545E+01-6.63478E-01 2.35093E-02 4.78587E-01-2.40592E-13 2.82829E-14
 -1      2592 2.31461E+01-5.99479E+00 3.77450E-02-5.73460E+00-1.34337E-13 1.56472E-13
 -1      2593 2.70492E+01-4.83197E+00-3.50142E-02-4.51979E+00-8.99281E-15 5.95246E-13
 -1      2594 2.84702E+01-4.50621E+00-3.00499E-03-2.57834E+00 1.14950E-13 2.67897E-13
 -1      2595 1.38876E+01-6.01312E+00 4.71784E-02-7.22821E+00-5.41789E-14 3.69843E-14
 -1      2596 1.80696E+01-6.12614E+00-2.77992E-02-7.21327E+00-7.18869E-14-1.83221E-13
 -1      2597 1.36488E+01-4.86939E+00 1.47446E-01-7.02260E+00 1.39055E-13 1.12660E-13
 -1      2598 5.17568E+00-3.70081E+00 5.71488E-02 4.08248E+00 8.78464E-14 8.92508E-13
 -1      2599 3.68409E+00-3.34757E+00 9.95351E-02 1.38837E+00 8.53137E-14 7.62279E-13
 -1      2600 8.30262E+00-2.86617E+00 1.77263E-01 4.80274E+00 2.48274E-14 9.76497E-13
 -1      2601 2.04904E+01 8.74914E-01-7.31650E-03 1.22694E+00 3.75771E-13 2.37576E-13
 -1      2602 2.08410E+01 1.25692E+00-6.05334E-03 1.72763E+00 4.02928E-13 2.88209E-13
 -1      2603 2.06468E+01 1.71560E+00-1.57938E-02 1.92180E+00 4.34237E-13 1.46053E-13
 -1      2604 2.04490E+01 1.05798E+00-9.39836E-03 1.24175E+00 3.76112E-13 7.95869E-14
 -1      2605 3.09974E+01-9.58900E-01-1.78808E-01 7.54974E-01 3.64278E-13-3.54633E-13
 -1      2606 2.90919E+01-3.15459E+00-1.98039E-02 2.30088E+00 9.92886E-14-1.40249E-13
 -1      2607 2.81514E+01-4.32612E+00 3.16111E-02 2.31905E+00-1.16851E-14-4.51778E-13
 -1      2608 3.04470E+01 7.03698E+00-8.78873E-02-5.25300E-02 5.41456E-13 5.61516E-13
 -1      2609 1.99119E+01 2.81416E+00 1.53950E-03-1.09952E+00-2.23211E-13-3.79824E-13
 -1      2610 1.97817E+01 3.16173E+00-1.46307E-02-1.28672E+00-2.35503E-13-4.06871E-13
 -1      2611 1.98779E+01 3.02488E+00-1.73815E-02-1.47613E+00-2.81402E-13-3.70537E-13
 -1      2612 1.99945E+01 3.40118E-01-3.52969E-03 3.05010E-01 2.56392E-13 3.02753E-14
 -1      2613 2.04225E+01 2.11574E+00-1.27782E-02 1.87481E+00 4.27339E-13-1.33227E-14
 -1      2614 3.03541E+01 1.40382E-01-4.88925E-02-6.67290E-01 2.67217E-13-4.46920E-13
 -1      2615 3.16828E+01 1.63471E+00-5.01776E-02 8.82167E-01 1.66533E-15 2.70228E-13
 -1      2616 3.04730E+01 2.56057E+00-2.24392E-01 1.99388E+00 2.54796E-14 3.80557E-13
 -1      2617 3.00847E+01 1.04646E-01-3.88508E-03 1.23475E+00-1.24359E-13 3.33594E-13
 -1      2618 7.91779E+00-3.23631E+00 1.54953E-01-4.86286E+00 1.79745E-13 2.40225E-13
 -1      2619 3.02641E+01 4.95963E+00-1.50310E-01 1.84614E+00 3.55549E-13 5.45980E-13
 -1      2620 3.19058E+01 6.19755E+00-7.97514E-02 1.45661E+00 3.78420E-13 4.25590E-13
 -1      2621 2.94198E+01 6.38082E+00-1.30441E-01 1.58437E+00 4.38427E-13 5.88599E-13
 -1      2622 1.49026E+01-4.80693E+00 1.57734E-01 7.00715E+00 7.43849E-15 7.88897E-13
 -1      2623 2.05503E+01 1.41668E-01-1.33055E-03 6.85997E-01 1.11696E-14 5.22917E-14
 -1      2624 2.06135E+01 2.27170E-01 6.14492E-03 8.58072E-01 9.41766E-14 2.44828E-13
 -1      2625 2.09961E+01 3.34424E-01 1.41963E-02-1.65974E+00 1.53492E-14-1.83997E-13
 -1      2626 2.07374E+01 6.87200E-01 1.01935E-03-1.95272E+00 2.91932E-14-2.00157E-13
 -1      2627 2.08658E+01 3.98771E-01-7.66085E-03-2.27484E+00-1.23552E-13-2.48082E-13
 -1      2628 2.12685E+01 8.36617E-02-9.13279E-03-1.76128E+00-1.82193E-13-2.40604E-13
 -1      2629 1.99290E+01-5.68507E+00 1.21729E-01-6.61875E+00 6.32827E-14 1.38924E-13
 -1      2630 2.15084E+01-6.17780E+00 5.99475E-02-6.34388E+00-7.17482E-14 8.57509E-14
 -1      2631 2.41003E+01-5.95500E+00-2.78257E-02-4.89992E+00 5.54695E-14 3.52267E-13
 -1      2632 5.43197E+00-2.23052E+00 1.72872E-01-9.58800E-02 1.28671E-13 6.29885E-13
 -1      2633 2.04365E+01 1.80796E+00 1.25385E-02 1.56259E+00 4.02436E-13-4.67760E-14
 -1      2634 2.27405E+01-5.95202E+00 7.83059E-02 5.83063E+00-5.47340E-14 5.80092E-14
 -1      2635 3.14380E+01 6.83185E+00-8.76315E-02-3.41292E-02-1.34337E-14 1.11959E-13
 -1      2636 1.99860E+01 2.83973E+00-1.48994E-02-1.58673E+00-3.11509E-13-3.22905E-13
 -1      2637 2.01314E+01 2.61205E+00-2.25213E-02-1.75268E+00-3.61649E-13-2.50468E-13
 -1      2638 2.02847E+01 2.05184E+00 3.95943E-03-1.48691E+00-3.51069E-13-2.04001E-13
 -1      2639 2.00849E+01 2.49434E+00 4.06430E-03-1.34366E+00-2.86191E-13-3.06320E-13
 -1      2640 2.56151E+01-5.64170E+00 4.28907E-03 3.07940E+00-3.89855E-13 3.09475E-13
 -1      2641 3.14710E+01 2.32554E+00-1.36242E-02-2.43846E+00-2.00728E-13 1.67616E-13
 -1      2642 1.67221E+01-5.31762E+00 1.04201E-01-6.59945E+00-3.04701E-13 2.46816E-14
 -1      2643 1.94225E+01-5.53361E+00-6.93609E-02-5.90954E+00-2.83454E-13 3.88994E-14
 -1      2644 1.55496E+01-4.23453E+00 1.43226E-01-6.36926E+00-2.56101E-13-1.15741E-13
 -1      2645 9.68347E+00-3.30050E+00 1.61874E-01-5.63780E+00-2.52576E-13-2.54102E-13
 -1      2646 5.14376E+00-3.08312E+00 1.14733E-01 2.98622E+00-9.31200E-15-1.99507E-13
 -1      2647 5.47328E+00-1.73517E+00 1.84149E-01 1.68790E+00 3.50345E-14-2.22378E-13
 -1      2648 7.58025E+00-2.36101E+00 1.17843E-01 3.85052E+00 2.95042E-14-1.69864E-13
 -1      2649 1.19829E+01-4.45261E+00 1.09216E-01 6.05033E+00-2.59515E-13-1.74694E-13
 -1      2650 2.89207E+01-2.99243E+00 1.21011E-02-1.17662E+00-4.32047E-13 1.74222E-13
 -1      2651 4.52269E+00-2.63648E+00 1.42138E-01-2.17478E+00-1.63529E-13-2.00173E-13
 -1      2652 6.27814E+00-1.91040E+00 7.54855E-02-3.12616E+00-1.88370E-13-9.12326E-14
 -1      2653 5.02887E+00-1.62502E+00 1.77882E-01-8.08384E-01 2.58682E-14-6.93334E-14
 -1      2654 2.98243E+01-2.52900E+00 6.77136E-02-3.84022E-01-3.18887E-13 1.99341E-13
 -1      2655 3.15453E+01 3.86651E+00-6.07142E-02 1.37333E+00-1.86934E-13 1.11994E-13
 -1      2656 2.08382E+01 9.89467E-04-7.02272E-03 1.05991E+00-2.10211E-14 2.25797E-13
 -1      2657 2.13238E+01-6.04015E-02-6.20050E-03-2.08292E+00-1.51965E-13-4.67903E-13
 -1      2658 1.98453E+01 2.76464E+00-6.30202E-03 5.16480E-01 1.63138E-13-4.04770E-13
 -1      2659 1.98205E+01 2.81438E+00-5.70307E-03 3.65557E-01 1.31833E-13-4.24108E-13
 -1      2660 1.98036E+01 2.85189E+00-5.61873E-03 2.29983E-01 1.03716E-13-4.41093E-13
 -1      2661 1.97951E+01 2.86877E+00-5.43602E-03 7.53000E-02 6.60368E-14-4.39601E-13
 -1      2662 1.99501E+01 2.50057E+00 3.64221E-03 2.65395E-01 1.11189E-13-4.09180E-13
 -1      2663 2.00437E+01 2.32374E+00-1.07280E-02 1.04635E+00 3.06802E-13-2.63558E-13
 -1      2664 1.99796E+01 2.47265E+00-6.30802E-03 9.10752E-01 2.70126E-13-3.06828E-13
 -1      2665 2.02169E+01 1.90798E+00-1.20257E-02 1.22766E+00 3.53731E-13-2.01495E-13
 -1      2666 2.01245E+01 2.14607E+00-4.79897E-03 1.13421E+00 3.28259E-13-2.31812E-13
 -1      2667 2.01894E+01 1.88627E+00 6.43332E-03 9.26892E-01 2.86628E-13-2.10987E-13
 -1      2668 2.02125E+01 7.26764E-01-3.49618E-03 6.43149E-01 2.83354E-13-5.20086E-14
 -1      2669 2.03545E+01 9.51675E-01 9.14767E-03 9.06930E-01 3.01658E-13-5.10960E-14
 -1      2670 2.41335E+01-5.80013E+00-1.27127E-01 4.75582E+00-1.29896E-13-4.73066E-13
 -1      2671 2.12628E+01-5.43074E+00 1.67792E-01 6.04196E+00-2.03365E-13 9.49536E-14
 -1      2672 2.02147E+01 6.25768E-01 7.10303E-03-4.39882E-01-1.97730E-13-1.33811E-13
 -1      2673 2.01318E+01 4.76964E-01-3.03132E-03-2.79446E-01-1.57213E-13-1.41146E-13
 -1      2674 2.01064E+01 3.62298E-01 6.63168E-03-1.59339E-01-1.44280E-13-1.58574E-13
 -1      2675 2.00469E+01 2.67544E-01-1.79928E-03-6.17137E-02-1.49638E-13-1.71918E-13
 -1      2676 2.01949E+01 5.29637E-01-1.50068E-03-2.62076E-01-1.75234E-13-1.60838E-13
 -1      2677 2.00207E+01 1.97336E-01 4.50070E-03 1.35390E-02-1.28576E-13-1.49630E-13
 -1      2678 1.99848E+01 1.37829E-01-8.45738E-04 7.00827E-02-1.15622E-13-1.40994E-13
 -1      2679 2.01264E+01 2.98407E-01-2.10133E-03-5.64418E-02-1.23882E-13-1.78465E-13
 -1      2680 1.99638E+01 9.37381E-02 2.90042E-03 1.13457E-01-9.80740E-14-1.25530E-13
 -1      2681 1.99457E+01 5.65374E-02-2.90883E-04 1.42895E-01-7.41137E-14-1.11278E-13
 -1      2682 2.00698E+01 1.52374E-01-1.90357E-03 7.09323E-02-1.00234E-13-1.64843E-13
 -1      2683 1.99307E+01 2.92015E-02 1.73522E-03 1.64412E-01-6.45311E-14-9.29325E-14
 -1      2684 1.99248E+01 6.62024E-03 1.56750E-05 1.76388E-01-5.59401E-14-9.30083E-14
 -1      2685 2.00287E+01 6.02005E-02-1.52689E-03 1.41987E-01-6.54525E-14-1.12769E-13
 -1      2686 1.99151E+01-9.63867E-03 9.28811E-04 1.83625E-01-4.58758E-14-1.05171E-13
 -1      2687 1.99170E+01-2.24558E-02 1.81949E-04 1.84769E-01-3.36362E-14-1.20296E-13
 -1      2688 2.00015E+01 3.64051E-03-1.15013E-03 1.74970E-01-3.88513E-14-1.17413E-13
 -1      2689 1.99114E+01-3.12553E-02 3.87397E-04 1.83195E-01-4.89652E-14-8.75134E-14
 -1      2690 1.99180E+01-3.74742E-02 2.72028E-04 1.78081E-01-7.99593E-14-5.30314E-14
 -1      2691 1.99851E+01-2.90285E-02-8.34321E-04 1.83417E-01-4.85664E-14-7.23573E-14
 -1      2692 1.99153E+01-4.12009E-02 3.68098E-05 1.71599E-01-8.09052E-14-5.15086E-15
 -1      2693 1.99245E+01-4.29342E-02 3.23432E-04 1.63398E-01-4.67971E-14-4.95435E-15
 -1      2694 1.99767E+01-4.54815E-02-5.91348E-04 1.77119E-01-3.89794E-14 9.14597E-15
 -1      2695 1.99239E+01-4.31887E-02-1.80018E-04 1.54770E-01-3.29989E-14 3.51660E-14
 -1      2696 1.99343E+01-4.18490E-02 3.58782E-04 1.45685E-01-8.14922E-15 4.06580E-14
 -1      2697 1.99740E+01-5.08563E-02-4.14903E-04 1.63075E-01-2.48753E-14 3.00887E-14
 -1      2698 1.99351E+01-3.96939E-02-3.06374E-04 1.36865E-01-2.57768E-14-2.34020E-15
 -1      2699 1.99460E+01-3.61999E-02 3.92978E-04 1.28446E-01-7.02883E-15-5.25779E-14
 -1      2700 1.99751E+01-4.85999E-02-2.93867E-04 1.46255E-01-6.05218E-14-1.94467E-15
 -1      2701 1.99479E+01-3.23098E-02-3.74765E-04 1.20834E-01-2.61272E-14-5.82850E-14
 -1      2702 1.99590E+01-2.72154E-02 4.36958E-04 1.14206E-01-8.90116E-14-6.23972E-14
 -1      2703 1.99789E+01-4.09665E-02-2.16709E-04 1.30209E-01-5.35592E-14-3.53039E-14
 -1      2704 1.99616E+01-2.19724E-02-4.09602E-04 1.08849E-01-9.63920E-14-3.43317E-14
 -1      2705 1.99730E+01-1.55534E-02 4.99407E-04 1.04883E-01-7.92496E-14-1.67423E-14
 -1      2706 1.99847E+01-2.93310E-02-1.73454E-04 1.17528E-01-8.99410E-14-7.02688E-14
 -1      2707 1.99763E+01-9.11446E-03-4.29231E-04 1.02627E-01-1.41906E-13-6.25564E-14
 -1      2708 1.99882E+01-1.43145E-03 5.87678E-04 1.02073E-01-1.33051E-13-1.00068E-13
 -1      2709 1.99921E+01-1.43996E-02-1.55788E-04 1.10217E-01-1.48485E-13-6.42464E-14
 -1      2710 1.99921E+01 6.22121E-03-4.47695E-04 1.03684E-01-1.39001E-13-1.44011E-13
 -1      2711 2.00052E+01 1.52757E-02 7.08221E-04 1.07267E-01-1.90106E-13-1.70716E-13
 -1      2712 2.00009E+01 3.63766E-03-1.56572E-04 1.09973E-01-1.74333E-13-1.55483E-13
 -1      2713 2.00097E+01 2.42958E-02-4.76104E-04 1.13520E-01-1.52967E-13-1.57186E-13
 -1      2714 2.00246E+01 3.49587E-02 8.66736E-04 1.22018E-01-1.02453E-13-2.13798E-13
 -1      2715 2.00112E+01 2.49907E-02-1.69270E-04 1.18404E-01-1.86880E-13-1.26031E-13
 -1      2716 2.00299E+01 4.56022E-02-5.23626E-04 1.33761E-01-3.46101E-14-1.41605E-13
 -1      2717 2.00475E+01 5.82043E-02 1.06793E-03 1.48060E-01 2.03240E-15-9.40159E-14
 -1      2718 2.00231E+01 5.01742E-02-1.87318E-04 1.37182E-01-3.12600E-14-8.49235E-14
 -1      2719 2.00535E+01 7.07941E-02-5.98116E-04 1.66257E-01 1.31460E-14-9.95651E-14
 -1      2720 2.00748E+01 8.57191E-02 1.31495E-03 1.87377E-01 8.33936E-14-1.05087E-13
 -1      2721 2.00368E+01 7.99185E-02-2.03446E-04 1.68159E-01 1.59139E-15-3.58032E-14
 -1      2722 2.00816E+01 1.00601E-01-7.06298E-04 2.13129E-01 8.54997E-14-1.31660E-13
 -1      2723 2.01077E+01 1.18228E-01 1.60840E-03 2.42229E-01 1.21201E-13-1.95654E-13
 -1      2724 2.00526E+01 1.15067E-01-2.09097E-04 2.13418E-01 5.02590E-14-7.46873E-14
 -1      2725 2.01151E+01 1.35702E-01-8.53248E-04 2.76761E-01 1.20972E-13-2.46920E-13
 -1      2726 2.01472E+01 1.56318E-01 1.94500E-03 3.15104E-01 1.42620E-13-2.74677E-13
 -1      2727 2.00704E+01 1.56436E-01-1.94241E-04 2.75284E-01 5.86872E-14-2.11865E-13
 -1      2728 2.01551E+01 1.76527E-01-1.04068E-03 3.59719E-01 2.25835E-13-2.75707E-13
 -1      2729 2.01944E+01 2.00168E-01 2.31579E-03 4.08579E-01 1.35626E-13-1.68407E-13
 -1      2730 2.00902E+01 2.04594E-01-1.48137E-04 3.56255E-01 2.30308E-13-3.42138E-13
 -1      2731 2.02025E+01 2.22910E-01-1.26317E-03 4.64556E-01 4.56165E-14-1.51494E-13
 -1      2732 2.02502E+01 2.49103E-01 2.70425E-03 5.25042E-01 9.81227E-15-1.70131E-13
 -1      2733 2.01116E+01 2.59492E-01-6.21453E-05 4.58846E-01 1.15274E-13-8.43439E-14
 -1      2734 2.02581E+01 2.73497E-01-1.50090E-03 5.93469E-01 5.77536E-15-1.01893E-13
 -1      2735 2.03153E+01 3.00815E-01 3.08484E-03 6.66210E-01 2.55543E-14-9.58140E-14
 -1      2736 2.01339E+01 3.19850E-01 6.33677E-05 5.85322E-01 2.77932E-14-2.72472E-14
 -1      2737 2.03231E+01 3.24757E-01-1.70666E-03 7.47709E-01 3.17303E-14-7.44815E-14
 -1      2738 2.03911E+01 3.50086E-01 3.42285E-03 8.32347E-01 6.04127E-14-9.80118E-14
 -1      2739 2.01564E+01 3.82126E-01 2.04616E-04 7.37273E-01-8.14351E-15-8.18780E-15
 -1      2740 2.03993E+01 3.69364E-01-1.78394E-03 9.26673E-01 6.43286E-14-8.37801E-14
 -1      2741 2.04801E+01 3.86758E-01 3.67644E-03 1.02106E+00 1.18793E-14 1.23285E-14
 -1      2742 2.01793E+01 4.38844E-01 2.87167E-04 9.15004E-01 1.09833E-13-5.97561E-15
 -1      2743 2.04916E+01 3.93705E-01-1.55177E-03 1.12650E+00-3.69285E-14-4.02145E-14
 -1      2744 2.05883E+01 3.92724E-01 3.79833E-03 1.22549E+00-9.03134E-14-8.11905E-14
 -1      2745 2.02048E+01 4.76022E-01 1.38750E-04 1.11669E+00 6.82004E-16-1.70744E-13
 -1      2746 2.06105E+01 3.74408E-01-6.90187E-04 1.33793E+00-1.09087E-13-3.36718E-15
 -1      2747 2.07295E+01 3.38016E-01 3.72111E-03 1.43165E+00-9.25132E-14 1.23042E-14
 -1      2748 2.02408E+01 4.69468E-01-5.84554E-04 1.33717E+00-1.00664E-13-8.82309E-14
 -1      2749 2.07782E+01 2.74291E-01 1.33059E-03 1.54301E+00 8.79360E-14 1.54746E-13
 -1      2750 2.09316E+01 1.77067E-01 3.28890E-03 1.61439E+00 1.68251E-13 2.33784E-13
 -1      2751 2.03062E+01 3.80140E-01-2.49561E-03 1.56614E+00 1.08335E-13-1.15947E-14
 -1      2752 2.10374E+01 3.99277E-02 5.31239E-03 1.70958E+00 1.03427E-13 2.67184E-13
 -1      2753 2.12453E+01-1.51068E-01 2.09331E-03 1.73114E+00 9.90573E-14 2.51625E-13
 -1      2754 2.04408E+01 1.50190E-01-6.53699E-03 1.78455E+00 1.56732E-13 1.71176E-13
 -1      2755 2.14606E+01-3.93006E-01 1.23771E-02 1.78191E+00 2.65908E-14 2.45009E-13
 -1      2756 2.17503E+01-7.09283E-01-1.07333E-03 1.71211E+00-1.31930E-14 2.00382E-13
 -1      2757 2.07178E+01-2.95522E-01-1.38494E-02 1.95684E+00 1.12696E-13 1.53097E-13
 -1      2758 2.21531E+01-1.07338E+00 2.29897E-02 1.66438E+00-2.86667E-14 3.07532E-13
 -1      2759 2.25454E+01-1.51367E+00-8.47742E-03 1.44530E+00-4.07660E-14 2.94071E-13
 -1      2760 2.12570E+01-1.03040E+00-2.55690E-02 2.01320E+00-2.42088E-14 2.36677E-13
 -1      2761 2.32247E+01-1.95762E+00 3.55088E-02 1.20184E+00-1.15971E-13 2.94983E-13
 -1      2762 2.37055E+01-2.41029E+00-1.83703E-02 7.68621E-01-1.33166E-13 1.92997E-13
 -1      2763 2.22210E+01-2.06153E+00-4.19602E-02 1.81892E+00-1.30363E-13 1.79592E-13
 -1      2764 2.46670E+01-2.75598E+00 3.20766E-02 2.10938E-01-1.07884E-13 1.92329E-13
 -1      2765 2.51748E+01-2.89580E+00-1.94786E-02-4.60070E-01-1.64287E-13 2.12287E-13
 -1      2766 2.37651E+01-3.09121E+00-3.98988E-02 1.11984E+00-2.12777E-13 1.12072E-13
 -1      2767 2.61937E+01-2.72237E+00-1.52359E-03-1.31768E+00-2.71731E-13 8.28955E-14
 -1      2768 2.65262E+01-2.15835E+00-8.03308E-03-1.99771E+00-3.32616E-13 4.89678E-14
 -1      2769 2.57402E+01-3.38915E+00-2.34903E-02-2.84562E-01-3.36967E-13-5.99677E-14
 -1      2770 2.80950E+01-9.21598E-01-9.42517E-02-2.61711E+00-2.70638E-13 1.12806E-13
 -1      2771 2.81089E+01 9.02510E-01-9.31739E-02-2.86517E+00-2.24043E-13 8.18581E-14
 -1      2772 2.64391E+01 4.72185E+00-1.19234E-01-8.32301E-01-1.57888E-13 1.14129E-13
 -1      2773 2.63959E+01 4.49984E+00-1.64546E-01 3.81424E-01-6.58085E-14 7.94850E-14
 -1      2774 2.65737E+01 3.53125E+00-6.11509E-02 1.56040E+00 4.77812E-14-1.40617E-13
 -1      2775 2.66368E+01 1.83798E+00-1.78199E-01 2.14928E+00 7.30804E-14-3.77406E-14
 -1      2776 2.67539E+01 2.39978E-01-1.94065E-02 2.12239E+00 2.30510E-14-1.89036E-13
 -1      2777 2.66416E+01-1.31600E+00-8.51432E-02 1.79754E+00-1.51591E-13-1.60191E-13
 -1      2778 2.59708E+01-2.24360E+00-3.66522E-02 9.31578E-01-1.42206E-13-1.54727E-13
 -1      2779 2.55998E+01-2.72571E+00 1.27585E-03 2.33904E-01 1.12868E-13 2.39583E-14
 -1      2780 2.70464E+01-2.21938E+00-7.69677E-02 1.04793E+00-8.40161E-14-9.66380E-14
 -1      2781 2.46155E+01-2.78966E+00-2.77484E-02-6.23610E-01 9.73145E-14-8.36215E-14
 -1      2782 2.40861E+01-2.53152E+00 3.50827E-02-1.23384E+00 3.52422E-14-9.34660E-14
 -1      2783 2.53516E+01-3.28485E+00-3.47966E-02-7.07169E-01-1.22220E-14 1.18084E-13
 -1      2784 2.31896E+01-2.14461E+00-2.22621E-02-1.74070E+00 3.14176E-14-1.63582E-13
 -1      2785 2.26792E+01-1.60567E+00 3.26723E-02-2.10210E+00 2.67746E-14-2.20127E-13
 -1      2786 2.35008E+01-2.75940E+00-4.33440E-02-2.01387E+00 8.55479E-15-1.20243E-13
 -1      2787 2.20440E+01-1.10409E+00-1.16533E-02-2.28218E+00-1.82018E-13-3.48997E-13
 -1      2788 2.16389E+01-5.69885E-01 2.26478E-02-2.39357E+00-2.36573E-13-4.95345E-13
 -1      2789 2.21076E+01-1.55266E+00-2.64862E-02-2.58800E+00-1.91824E-13-1.88410E-13
 -1      2790 2.10790E+01 1.00729E-01 1.23992E-02-2.36241E+00 2.90484E-14-2.38580E-13
 -1      2791 2.07998E+01 2.65211E-01-4.87033E-03-2.61263E+00 6.97034E-14-2.40932E-13
 -1      2792 2.13005E+01-2.29225E-01-3.11356E-03-2.41453E+00-6.19556E-14-4.74565E-13
 -1      2793 1.98912E+01 1.18539E-01-2.57936E-04-7.02174E-02 1.64583E-13-8.95170E-14
 -1      2794 1.99270E+01 1.70144E-01 5.20331E-03-1.47743E-02 1.79314E-13-5.89745E-14
 -1      2795 1.98425E+01-1.78188E-02 2.59205E-04-1.83769E-01 2.54542E-14-5.57865E-14
 -1      2796 1.98341E+01-6.92493E-03 8.80998E-04-1.83171E-01 4.87064E-14-1.09411E-13
 -1      2797 1.98539E+01-3.06776E-02 2.80508E-04-1.76642E-01 6.08099E-14-9.71854E-14
 -1      2798 1.98409E+01-2.53360E-02 2.95846E-04-1.82078E-01 4.78487E-14-5.09249E-14
 -1      2799 1.99201E+01-2.41196E-02-8.65591E-04-1.86945E-01 5.00024E-14-4.70047E-14
 -1      2800 1.98705E+01-3.55813E-02 2.89053E-04-1.61557E-01 6.58956E-14-1.41096E-13
 -1      2801 1.98555E+01-3.39817E-02-6.82200E-05-1.69966E-01 7.01170E-14-1.32664E-13
 -1      2802 1.99204E+01-3.86770E-02-5.72048E-04-1.80109E-01 1.04083E-13-8.39726E-14
 -1      2803 1.98896E+01-3.50792E-02 3.00005E-04-1.43379E-01 4.80123E-14-1.25225E-13
 -1      2804 1.98741E+01-3.60192E-02-2.81049E-04-1.52659E-01 5.00478E-14-1.39118E-13
 -1      2805 1.99263E+01-4.37339E-02-3.68780E-04-1.65290E-01 7.39953E-14-1.15118E-13
 -1      2806 1.99095E+01-3.08506E-02 3.22507E-04-1.25499E-01 8.99719E-14-7.28742E-14
 -1      2807 1.98943E+01-3.35454E-02-3.92605E-04-1.34192E-01 7.27287E-14-8.94723E-14
 -1      2808 1.99356E+01-4.23061E-02-2.37099E-04-1.47497E-01 4.19567E-14-1.38134E-13
 -1      2809 1.99297E+01-2.39567E-02 3.62959E-04-1.10324E-01 3.46324E-14-4.70726E-14
 -1      2810 1.99150E+01-2.79210E-02-4.38755E-04-1.17389E-01 6.42561E-14-5.95650E-14
 -1      2811 1.99468E+01-3.63721E-02-1.60924E-04-1.30264E-01 7.84138E-14-1.09232E-14
 -1      2812 1.99499E+01-1.50043E-02 4.26693E-04-9.96334E-02 1.11389E-14-8.10142E-14
 -1      2813 1.99355E+01-1.99742E-02-4.45278E-04-1.04292E-01 2.69653E-14-7.62090E-14
 -1      2814 1.99592E+01-2.71674E-02-1.27055E-04-1.16128E-01 6.32592E-14-2.16992E-14
 -1      2815 1.99707E+01-4.26215E-03 5.18429E-04-9.48538E-02 7.77472E-14-8.19137E-14
 -1      2816 1.99562E+01-1.01380E-02-4.30674E-04-9.64612E-02 4.38051E-14-3.90980E-14
 -1      2817 1.99726E+01-1.53805E-02-1.25385E-04-1.07002E-01 5.26849E-15-4.96129E-14
 -1      2818 1.99929E+01 8.24281E-03 6.42170E-04-9.72521E-02-1.88160E-14-6.34129E-14
 -1      2819 1.99775E+01 1.44517E-03-4.07956E-04-9.52178E-02 2.58040E-14-5.13342E-14
 -1      2820 1.99870E+01-1.29690E-03-1.48518E-04-1.04443E-01 3.60128E-15-1.21845E-14
 -1      2821 2.00177E+01 2.26379E-02 8.00896E-04-1.08072E-01-3.88029E-14 2.38845E-14
 -1      2822 2.00006E+01 1.48323E-02-3.85947E-04-1.01801E-01-1.22047E-14-2.13582E-14
 -1      2823 2.00031E+01 1.50806E-02-1.90775E-04-1.09858E-01-4.40318E-14-7.78690E-15
 -1      2824 2.00466E+01 3.91129E-02 9.95705E-04-1.28611E-01 4.81081E-14-7.27584E-15
 -1      2825 2.00266E+01 3.01918E-02-3.70158E-04-1.17475E-01 3.06308E-14 5.79578E-15
 -1      2826 2.00213E+01 3.39183E-02-2.47759E-04-1.24629E-01 2.13355E-14-2.87448E-14
 -1      2827 2.00813E+01 5.78105E-02 1.22452E-03-1.60226E-01 1.27528E-13-1.73571E-13
 -1      2828 2.00572E+01 4.77055E-02-3.63100E-04-1.43572E-01 7.11913E-14-1.10593E-13
 -1      2829 2.00427E+01 5.54292E-02-3.16011E-04-1.50189E-01 1.40710E-13-4.55995E-14
 -1      2830 2.01238E+01 7.86807E-02 1.48014E-03-2.04275E-01 9.64364E-14-2.23095E-13
 -1      2831 2.00942E+01 6.74433E-02-3.64009E-04-1.81469E-01 1.13339E-13-1.20155E-13
 -1      2832 2.00684E+01 7.97238E-02-3.92905E-04-1.88015E-01 8.56987E-14-1.62219E-13
 -1      2833 2.01764E+01 1.01277E-01 1.74762E-03-2.61943E-01 3.22027E-14-1.12022E-13
 -1      2834 2.01397E+01 8.91934E-02-3.67864E-04-2.32475E-01 6.51466E-14-1.94954E-13
 -1      2835 2.00996E+01 1.06610E-01-4.77054E-04-2.39542E-01 7.39867E-14-1.02337E-13
 -1      2836 2.02413E+01 1.24468E-01 2.00071E-03-3.33946E-01 4.52411E-14-3.01936E-14
 -1      2837 2.01961E+01 1.12221E-01-3.63439E-04-2.97602E-01 7.51178E-14-9.72232E-14
 -1      2838 2.01380E+01 1.35315E-01-5.69554E-04-3.05974E-01 3.92265E-14-9.74845E-14
 -1      2839 2.03214E+01 1.46031E-01 2.19755E-03-4.20051E-01 1.86504E-15-1.21923E-13
 -1      2840 2.02660E+01 1.34929E-01-3.30061E-04-3.77190E-01-8.08113E-15-2.75589E-14
 -1      2841 2.01852E+01 1.64090E-01-6.76581E-04-3.87951E-01-6.00363E-15-3.14968E-15
 -1      2842 2.04195E+01 1.62103E-01 2.27561E-03-5.18354E-01 1.09136E-14-1.59663E-13
 -1      2843 2.03525E+01 1.54381E-01-2.32801E-04-4.70314E-01 3.77828E-14-1.13186E-13
 -1      2844 2.02438E+01 1.89670E-01-8.13964E-04-4.85036E-01 7.47528E-15-7.79543E-14
 -1      2845 2.05389E+01 1.66491E-01 2.14641E-03-6.24267E-01-3.13703E-14-5.86646E-14
 -1      2846 2.04591E+01 1.65688E-01-1.61036E-05-5.73936E-01 9.20046E-15-1.30018E-13
 -1      2847 2.03168E+01 2.06554E-01-1.01420E-03-5.94970E-01-4.20124E-14-1.06868E-13
 -1      2848 2.06838E+01 1.49930E-01 1.69066E-03-7.29154E-01-5.50166E-14-7.96480E-14
 -1      2849 2.05903E+01 1.61269E-01 4.02952E-04-6.81708E-01-1.90897E-14-7.74579E-14
 -1      2850 2.04089E+01 2.06140E-01-1.33540E-03-7.12634E-01-3.97155E-14 3.96542E-14
 -1      2851 2.08595E+01 9.95791E-02 7.55476E-04-8.18640E-01-1.90502E-15-5.97564E-14
 -1      2852 2.07518E+01 1.30174E-01 1.13755E-03-7.82415E-01-1.05279E-14-2.92492E-14
 -1      2853 2.05267E+01 1.75862E-01-1.86885E-03-8.28663E-01-3.99507E-14-1.59082E-14
 -1      2854 2.10728E+01-5.32530E-04-8.41700E-04-8.70725E-01-1.17258E-13-1.30667E-13
 -1      2855 2.09512E+01 5.79229E-02 2.31970E-03-8.58060E-01-5.24381E-14-1.61047E-13
 -1      2856 2.06805E+01 9.87943E-02-2.73446E-03-9.27668E-01-1.54536E-14-1.08941E-14
 -1      2857 2.13320E+01-1.66681E-01-3.28641E-03-8.54250E-01-1.35911E-13-1.24599E-13
 -1      2858 2.11981E+01-7.21296E-02 4.05180E-03-8.81869E-01-1.52979E-13-1.43698E-13
 -1      2859 2.08853E+01-4.52538E-02-4.04075E-03-9.86097E-01-1.09514E-13-1.66111E-13
 -1      2860 2.16447E+01-4.07855E-01-6.67745E-03-7.28913E-01-2.41638E-14-3.51653E-14
 -1      2861 2.15029E+01-2.74017E-01 6.28976E-03-8.16964E-01-6.27320E-14-4.46101E-14
 -1      2862 2.11609E+01-2.75141E-01-5.76625E-03-9.70052E-01-9.22117E-14-4.38087E-14
 -1      2863 2.20108E+01-7.10374E-01-1.07676E-02-4.49569E-01-1.13924E-13-4.93371E-14
 -1      2864 2.18712E+01-5.48200E-01 8.58312E-03-6.17659E-01-2.75405E-14-1.21655E-14
 -1      2865 2.15288E+01-5.97043E-01-7.50846E-03-8.34117E-01-4.57590E-14 2.42365E-14
 -1      2866 2.24100E+01-1.01388E+00-1.45070E-02 1.98246E-02-1.05213E-13-7.08879E-14
 -1      2867 2.22918E+01-8.61840E-01 9.65863E-03-2.37861E-01-8.57697E-14-2.39717E-15
 -1      2868 2.20018E+01-9.82591E-01-8.18291E-03-5.24450E-01-9.88877E-14 5.44869E-14
 -1      2869 2.27832E+01-1.18890E+00-1.56225E-02 6.74138E-01 8.34257E-14 9.37637E-15
 -1      2870 2.27167E+01-1.12291E+00 7.09807E-03 3.44980E-01-1.32963E-14-5.86371E-14
 -1      2871 2.25599E+01-1.33666E+00-6.09858E-03 4.78071E-03-5.59996E-14-1.02300E-13
 -1      2872 2.30243E+01-1.03436E+00-8.17797E-03 1.42312E+00 2.58083E-14-1.16164E-14
 -1      2873 2.30464E+01-1.16665E+00-7.80731E-04 1.08875E+00 4.72415E-14 2.16613E-14
 -1      2874 2.31236E+01-1.48273E+00-1.31554E-03 7.55453E-01-4.52221E-16 3.46365E-15
 -1      2875 2.30097E+01-3.90586E-01 7.77666E-03 2.01201E+00 1.74654E-13-2.54675E-14
 -1      2876 2.31288E+01-7.82442E-01-1.36342E-02 1.80613E+00 9.89512E-14-9.02299E-14
 -1      2877 2.35232E+01-1.14783E+00 9.67598E-03 1.59992E+00 7.27055E-14-1.04531E-13
 -1      2878 2.26973E+01 6.69644E-01 1.98325E-02 2.09114E+00 9.63786E-14 2.35522E-13
 -1      2879 2.28774E+01 9.67899E-02-2.96104E-02 2.16705E+00 2.43037E-13 2.27518E-13
 -1      2880 2.35761E+01-1.82274E-01 1.76095E-02 2.22260E+00 3.62736E-14 1.50536E-13
 -1      2881 2.22455E+01 1.68610E+00 8.17447E-03 1.42230E+00 1.50890E-13 3.56066E-13
 -1      2882 2.24166E+01 1.21375E+00-3.46157E-02 1.82970E+00 3.02362E-14 3.00791E-13
 -1      2883 2.32498E+01 1.17390E+00 8.00977E-04 2.17230E+00 2.25115E-14 2.45665E-13
 -1      2884 2.20173E+01 1.98258E+00-1.46918E-02 2.02571E-01 1.68126E-13 1.81905E-13
 -1      2885 2.20819E+01 1.94595E+00-1.61450E-02 7.64720E-01 2.37805E-13 2.93043E-13
 -1      2886 2.28300E+01 2.20507E+00-1.36229E-02 1.21722E+00 2.39457E-13 3.26935E-14
 -1      2887 2.21764E+01 1.37488E+00-3.22921E-02-9.42348E-01 8.90390E-14 1.88144E-14
 -1      2888 2.21262E+01 1.80058E+00 1.71104E-02-4.94746E-01 6.76108E-14 9.69038E-15
 -1      2889 2.27737E+01 2.38841E+00-1.01331E-02-1.93663E-01 2.09751E-13 3.61213E-15
 -1      2890 2.25159E+01 2.74959E-01-3.37366E-02-1.41633E+00-1.43922E-13 6.11221E-14
 -1      2891 2.24209E+01 8.57762E-01 2.22249E-02-1.28332E+00 7.53139E-14 5.94420E-14
 -1      2892 2.30587E+01 1.39159E+00-3.24597E-03-1.26480E+00-4.10002E-15-2.34049E-14
 -1      2893 2.26978E+01-6.71759E-01-2.00356E-02-1.15727E+00-1.19890E-13 1.20842E-14
 -1      2894 2.26507E+01-2.38692E-01 1.06145E-02-1.32383E+00-2.03013E-13 4.22340E-14
 -1      2895 2.33506E+01 2.44146E-02 1.27245E-02-1.47150E+00-1.01792E-13-8.23473E-15
 -1      2896 2.25478E+01-1.09824E+00-2.62474E-03-4.79053E-01-5.23459E-14-3.04739E-14
 -1      2897 2.25946E+01-9.52056E-01-6.03570E-03-7.92649E-01-4.07224E-14 3.72736E-14
 -1      2898 2.33016E+01-1.01169E+00 1.39008E-02-9.34342E-01-1.57078E-13-1.61155E-13
 -1      2899 2.21194E+01-1.02335E+00 7.89741E-03 2.31767E-01-4.99168E-14 5.43805E-14
 -1      2900 2.22549E+01-1.11563E+00-1.53436E-02-7.35283E-02-4.11940E-14-2.09977E-14
 -1      2901 2.28611E+01-1.38656E+00 2.02685E-03-1.06816E-01-1.20988E-13-1.87927E-13
 -1      2902 2.15637E+01-6.47165E-01 9.63823E-03 7.35334E-01 9.78994E-14 1.46804E-13
 -1      2903 2.17538E+01-8.64271E-01-1.64775E-02 5.34828E-01 5.81618E-14 1.72970E-13
 -1      2904 2.22131E+01-1.18038E+00-4.38059E-03 6.14464E-01-2.95224E-14-1.79607E-13
 -1      2905 2.10878E+01-2.30277E-01 7.07581E-03 9.83966E-01-9.81772E-15 2.67465E-13
 -1      2906 2.12987E+01-4.80944E-01-1.36452E-02 9.16241E-01 6.10131E-14 1.73947E-13
 -1      2907 2.16380E+01-7.20757E-01 2.36051E-03 1.08537E+00 4.94997E-14 5.00527E-14
 -1      2908 2.11522E+01-1.91529E-01 7.46358E-03 1.33152E+00 1.76784E-14 1.29211E-13
 -1      2909 1.76169E+01 1.97395E+00-3.24761E-02 1.73038E+00-3.57518E-13-3.38022E-13
 -1      2910 1.81631E+01 1.74901E+00 2.68894E-02 2.28010E+00-1.50523E-13-3.67484E-13
 -1      2911 1.99783E+01 5.24764E-01-1.82916E-02 2.90452E+00-1.98886E-13-2.01310E-14
 -1      2912 2.04678E+01 2.55448E-01 2.08231E-02 2.80857E+00-1.91863E-13-2.00902E-14
 -1      2913 1.70830E+01 2.35936E+00-1.29461E-02 1.43659E-01-4.25845E-13-1.18314E-13
 -1      2914 1.72488E+01 2.29342E+00 6.25004E-03 9.04935E-01-3.63139E-13-2.66420E-13
 -1      2915 1.68594E+01 1.71152E+00 2.96695E-02 1.53353E+00-2.57780E-13-4.02638E-13
 -1      2916 1.87712E+01 1.24405E+00-3.39415E-02 2.70287E+00-1.23009E-13-1.58818E-13
 -1      2917 1.94146E+01 9.50740E-01 2.99805E-02 2.91081E+00-1.47143E-13-7.80387E-14
 -1      2918 1.96306E+01 1.01291E-01-1.28349E-02 3.22642E+00-1.82698E-13-3.15603E-14
 -1      2919 1.81177E+01 9.41217E-01 1.63290E-03 2.84424E+00-1.81033E-13-3.05419E-13
 -1      2920 2.83309E+01 6.49781E+00-2.01511E-01 4.67349E-01 3.27793E-13 3.98561E-13
 -1      2921 2.84200E+01 6.17686E+00-1.61270E-01-6.11280E-01 4.31405E-13 1.55070E-13
 -1      2922 1.74555E+01 2.19367E+00 1.43934E-02-1.49652E+00-2.02365E-13 4.26877E-13
 -1      2923 1.71568E+01 2.30842E+00-1.90690E-02-7.91766E-01-3.28600E-13 2.22588E-13
 -1      2924 1.64848E+01 1.96579E+00 4.16720E-02-3.52313E-01-2.02864E-13 1.38057E-13
 -1      2925 1.85309E+01 1.56418E+00 3.00819E-02-2.65772E+00-1.18854E-13 4.00795E-13
 -1      2926 1.79269E+01 1.81010E+00-3.35337E-02-2.21234E+00-1.42163E-13 4.91447E-13
 -1      2927 1.71853E+01 1.55452E+00 2.40781E-02-2.11498E+00-1.72389E-13 5.93628E-13
 -1      2928 1.97563E+01 8.22947E-01 2.94438E-02-3.03589E+00-3.36602E-14 3.24234E-13
 -1      2929 1.91484E+01 1.09582E+00-2.78575E-02-2.93734E+00-1.36168E-13 4.15881E-13
 -1      2930 1.85861E+01 7.68326E-01-1.52238E-03-3.13075E+00-4.50300E-14 3.76113E-13
 -1      2931 2.04585E+01 5.10027E-01-1.18756E-03-2.78381E+00 1.22818E-13-1.89180E-13
 -1      2932 1.99606E+01 2.30999E-01-7.81208E-04 6.33021E-02 1.82852E-13-6.28971E-14
 -1      2933 2.00263E+01 3.14857E-01 7.81579E-03 1.61023E-01 2.23277E-13-3.65993E-14
 -1      2934 2.00558E+01 2.65593E-01-2.73844E-03 6.12544E-02 2.06614E-13-1.12415E-13
 -1      2935 2.69447E+01-5.12196E+00 7.97376E-03-2.78268E+00 1.92436E-13 2.61124E-13
 -1      2936 2.87712E+01-3.84221E+00-1.19706E-01-1.06871E+00 6.46098E-14-1.84297E-14
 -1      2937 2.93536E+01 6.12106E+00-1.41434E-01 4.83115E-01-1.69975E-13 2.17985E-13
 -1      2938 2.94638E+01 6.34028E+00-1.96951E-01-7.42577E-01-1.65423E-14 7.90271E-14
 -1      2939 2.03213E+01 1.57869E+00-8.99140E-03-1.24227E+00-3.30552E-13-1.75908E-13
 -1      2940 2.03050E+01 1.21361E+00 7.37948E-04-9.71023E-01-3.00081E-13-1.59301E-13
 -1      2941 2.02399E+01 1.84346E+00-4.34515E-04-1.21923E+00-3.05270E-13-2.10619E-13
 -1      2942 2.09166E+01-5.73303E+00-7.04531E-02 5.03942E+00-2.21365E-13 4.75186E-13
 -1      2943 1.83036E+01-5.04671E+00 1.66901E-01 5.67117E+00-3.17316E-13 4.55296E-13
 -1      2944 2.65312E+01-5.40838E+00-1.70254E-01 1.67363E+00-3.12889E-13 2.94195E-13
 -1      2945 2.41933E+01-5.45466E+00 1.26762E-01 3.28828E+00-3.17496E-13 3.28598E-13
 -1      2946 8.01341E+00-1.98314E+00 1.65401E-01-3.82559E+00 2.41515E-13 1.40832E-13
 -1      2947 1.00874E+01-2.86456E+00 8.56096E-02-5.60320E+00 3.01342E-13 1.87100E-13
 -1      2948 9.11941E+00-2.08418E+00 2.34348E-01-4.68130E+00-2.11997E-13-1.05443E-13
 -1      2949 1.16550E+01-2.91352E+00 7.77592E-02-5.74112E+00-2.66426E-13-2.70478E-13
 -1      2950 1.98406E+01 6.83184E-03 1.98064E-04-1.75918E-01 7.07872E-14-1.13572E-13
 -1      2951 1.98406E+01 2.60301E-02 1.78704E-03-1.64800E-01 7.56934E-14-1.43076E-13
 -1      2952 1.99287E+01 4.47017E-03-1.26642E-03-1.78647E-01 4.77187E-14-7.09240E-14
 -1      2953 1.98542E+01 4.91538E-02 4.96958E-05-1.42951E-01 9.62148E-14-1.22641E-13
 -1      2954 1.98683E+01 8.09823E-02 3.16312E-03-1.14671E-01 1.30386E-13-9.84834E-14
 -1      2955 1.99506E+01 5.39768E-02-1.77556E-03-1.45044E-01 1.06398E-13-1.00893E-13
 -1      2956 2.03055E+01 9.88231E-01 2.83882E-03-7.98167E-01-2.65231E-13-1.47218E-13
 -1      2957 2.02188E+01 7.60766E-01-3.56537E-03-5.62147E-01-2.28719E-13-1.48464E-13
 -1      2958 2.02519E+01 8.22141E-01-3.58386E-03-5.24127E-01-2.11378E-13-1.50452E-13
 -1      2959 2.02846E+01 1.21509E+00 3.45137E-03-8.29767E-01-2.59591E-13-1.71919E-13
 -1      2960 2.03380E+01 1.50017E+00-1.89971E-03 1.26738E+00 3.60624E-13-8.05788E-14
 -1      2961 2.00697E+01 4.15298E-01-1.54464E-03 2.88435E-01 2.38121E-13-4.86399E-14
 -1      2962 2.01709E+01 5.53568E-01 1.04332E-02 4.51076E-01 2.52064E-13-5.08472E-14
 -1      2963 2.02534E+01 8.21308E-01 6.16014E-04 6.17776E-01 2.70950E-13-1.34926E-13
 -1      2964 2.01456E+01 4.76682E-01-2.18809E-03 2.81095E-01 2.32399E-13-1.07431E-13
 -1      2965 1.99238E+01 2.59561E+00-7.88646E-03 7.94812E-01 2.44499E-13-3.52741E-13
 -1      2966 1.98800E+01 2.68774E+00-6.12347E-03 6.45772E-01 1.99473E-13-3.84652E-13
 -1      2967 1.99988E+01 2.38804E+00 4.33320E-03 5.17061E-01 1.74676E-13-3.59812E-13
 -1      2968 2.00800E+01 2.19032E+00 5.60006E-03 7.46140E-01 2.36338E-13-3.03980E-13
 -1      2969 1.98750E+01 2.69618E+00-6.16027E-03-6.35448E-01-1.03512E-13-3.75825E-13
 -1      2970 1.99181E+01 2.60681E+00-7.66492E-03-7.84941E-01-1.54942E-13-3.60272E-13
 -1      2971 1.45523E+01-4.31805E+00 3.51532E-02 6.09460E+00-1.98286E-13-3.08642E-14
 -1      2972 1.10534E+01-3.15052E+00 1.66448E-01 5.35616E+00-1.07137E-13-2.52798E-13
 -1      2973 2.84895E+01 4.83381E+00-2.12475E-01-1.31945E+00 4.26215E-13 1.05402E-14
 -1      2974 2.87626E+01 3.55134E+00-7.85391E-02-1.83362E+00 4.03316E-13-1.17795E-13
 -1      2975 2.32710E+01-5.43076E+00 1.18043E-01-4.29579E+00-2.88797E-13 1.63872E-13
 -1      2976 2.56131E+01-5.21561E+00-1.07744E-01-2.96164E+00-4.13003E-13 1.79495E-13
 -1      2977 1.74341E+01-4.95839E+00-3.49797E-02 6.96064E+00-2.52284E-13 1.91971E-13
 -1      2978 1.40712E+01-3.53816E+00 2.07250E-01 6.50548E+00-1.98383E-13 6.33160E-13
 -1      2979 2.75226E+01-3.88329E+00 9.58779E-03-1.11523E+00-4.50900E-13 2.03976E-13
 -1      2980 2.87787E+01-2.49731E+00-1.52439E-01 1.40524E-01-3.06997E-13 2.52118E-13
 -1      2981 2.95899E+01 2.50430E+00-1.04086E-01 1.86880E+00-2.55074E-13 1.20987E-13
 -1      2982 2.92741E+01 4.43419E+00-2.50760E-01 1.53295E+00-1.22402E-13 1.28217E-13
 -1      2983 2.90784E+01 1.05556E+00-2.24244E-01-1.51425E+00 2.49314E-13-3.72841E-13
 -1      2984 2.91215E+01-1.36247E+00 7.25501E-03-6.24125E-01 9.79911E-14-4.67806E-13
 -1      2985 2.81076E+01-3.88090E+00-2.01589E-01 1.17107E+00-1.46341E-14-4.85140E-13
 -1      2986 2.69496E+01-4.82719E+00 1.07340E-01 2.65947E+00 1.91513E-14-5.66783E-13
 -1      2987 6.77870E+00-1.23751E+00 1.15566E-01 1.25945E+00 2.48922E-13 6.25167E-13
 -1      2988 6.82379E+00-1.33530E+00 1.54547E-01-1.67933E+00 3.18953E-13 2.52770E-13
 -1      2989 1.31139E+01-3.60992E+00 1.78926E-01-6.41418E+00 1.60705E-13 2.02144E-13
 -1      2990 1.60090E+01-4.60816E+00 4.19271E-02-6.88144E+00 6.38101E-14 3.58602E-14
 -1      2991 1.03492E+01-2.52103E+00 2.11244E-02 5.43961E+00 6.66273E-14 1.11844E-12
 -1      2992 8.35663E+00-1.57552E+00 2.09809E-01 3.54479E+00 5.66075E-14 8.18623E-13
 -1      2993 2.81581E+01 2.84867E+00-2.11981E-01-2.87540E+00-1.54848E-13 3.42781E-14
 -1      2994 1.99719E+01 2.48591E+00-6.57713E-03-9.03161E-01-1.92567E-13-3.54650E-13
 -1      2995 2.00363E+01 2.34042E+00-1.00372E-02-1.03672E+00-2.39578E-13-3.31569E-13
 -1      2996 2.00746E+01 2.20226E+00 5.56897E-03-7.39258E-01-1.61558E-13-3.13906E-13
 -1      2997 9.26365E+00-6.98561E-01 1.99950E-01 2.07398E+00 2.89026E-13 6.33910E-13
 -1      2998 1.99336E+01 2.53808E+00 3.43141E-03 4.65701E-03 4.52766E-14-4.19560E-13
 -1      2999 1.97945E+01 2.86956E+00-5.49708E-03-6.19072E-02 3.21904E-14-4.46075E-13
 -1      3000 1.98019E+01 2.85492E+00-5.55894E-03-2.16701E-01-4.21161E-15-4.46897E-13
 -1      3001 2.00579E+01-4.60360E+00 1.10035E-01 5.94279E+00-3.43642E-13-7.03083E-14
 -1      3002 2.80422E+01-2.46218E+00-1.10712E-02-1.31077E-01 6.64607E-14-4.27380E-13
 -1      3003 2.78619E+01 1.77496E+00-5.65021E-02-1.79116E+00 1.85782E-13-6.87922E-14
 -1      3004 2.86691E+01-1.21555E+00-7.12871E-02 1.29601E+00-2.85494E-13 2.94320E-13
 -1      3005 2.92517E+01-1.56647E-01-2.21689E-01 1.62292E+00-1.99139E-13-1.26163E-13
 -1      3006 2.79642E+01 1.10524E+00-6.91792E-02 2.17746E+00-3.15581E-14-8.55704E-14
 -1      3007 2.96699E+01 3.48635E+00-1.28057E-01 2.24254E+00 1.49047E-13 4.66557E-13
 -1      3008 2.80614E+01 4.17036E+00-1.47831E-01 2.37846E+00 2.92655E-13 4.72039E-13
 -1      3009 2.85970E+01 2.05836E+00-8.05416E-02 2.38641E+00-9.54931E-14 4.50529E-13
 -1      3010 2.64143E+01-4.37666E+00 1.25462E-02-1.36960E+00-2.95042E-13 1.41137E-13
 -1      3011 2.72806E+01 5.41720E+00-1.48221E-01 1.63725E+00 4.35096E-13 1.83173E-13
 -1      3012 2.79596E+01 6.00678E+00-1.82151E-01 9.88858E-01 3.93158E-13 3.30617E-13
 -1      3013 2.64322E+01 5.62452E+00-9.09063E-02 5.16271E-01 2.93626E-13 1.87434E-13
 -1      3014 2.85212E+01-2.35489E+00-7.29326E-02-1.55982E+00-3.13853E-13 1.81466E-13
 -1      3015 2.79086E+01 4.61938E+00-1.33550E-01 1.05288E+00-1.48714E-13 2.14599E-13
 -1      3016 2.12465E+01-5.15454E-01-2.08951E-02-2.72435E+00-1.25980E-13-2.39552E-13
 -1      3017 2.41449E+01-5.33197E+00 1.20363E-01-4.38667E+00-4.07382E-14 2.97793E-13
 -1      3018 2.57557E+01-5.62123E+00 2.82467E-03-3.72666E+00 7.83401E-14 3.38625E-13
 -1      3019 2.63535E+01-4.89005E+00-4.60037E-02-2.21154E+00 6.17631E-14 2.00083E-13
 -1      3020 1.99912E+01 1.35192E-01-2.34105E-03-7.17505E-02 1.66407E-13-1.10988E-13
 -1      3021 2.11799E+01-2.29463E-01 7.20887E-03 1.68095E+00 4.39324E-15-1.17117E-13
 -1      3022 2.14026E+01-5.56713E-01-9.24851E-03 1.61719E+00-8.94827E-14-1.36522E-13
 -1      3023 2.11157E+01-1.32917E-01 4.03963E-03 1.99090E+00-6.57169E-14-1.77536E-13
 -1      3024 8.67754E+00-1.43230E+00 1.63503E-01-3.58310E+00-1.09954E-13-5.79259E-14
 -1      3025 2.08388E+01-2.25619E-01 2.18095E-02-2.99123E+00-4.94487E-14-1.84351E-13
 -1      3026 2.01919E+01 3.65685E-01-1.73224E-02-3.04239E+00 3.05316E-14 8.45400E-14
 -1      3027 1.99901E+01-5.46968E-02-5.51284E-03-3.33769E+00-2.72280E-13 2.74462E-13
 -1      3028 2.11487E+01-6.85331E-01 7.59467E-03-2.99634E+00-1.99237E-13-1.66140E-13
 -1      3029 9.16285E+00-9.40501E-01 2.03889E-01-2.50395E+00 4.22759E-13 1.57985E-13
 -1      3030 1.87634E+01-4.88064E+00 1.41141E-01-6.46629E+00-7.39409E-14 1.42428E-13
 -1      3031 2.09940E+01-5.27544E+00-7.39291E-02-5.70875E+00-1.34504E-13 4.00360E-13
 -1      3032 1.78762E+01-3.85097E+00 9.95748E-02-6.16804E+00-1.14089E-13 3.46820E-13
 -1      3033 2.78160E+01 5.26369E+00-1.50417E-01-1.24847E+00-8.75966E-14 2.40630E-13
 -1      3034 2.93819E+01 5.79082E+00-1.99158E-01-1.62293E+00 5.60108E-14-1.69587E-14
 -1      3035 2.94597E+01 4.67577E+00-1.87632E-01-2.29966E+00-1.41553E-13 4.44852E-14
 -1      3036 2.64263E+01 4.19436E+00-1.27773E-01-1.93138E+00-1.74860E-13 2.39669E-14
 -1      3037 2.02904E+01 1.58776E+00-1.13085E-03 1.16635E+00 3.42509E-13-1.54157E-13
 -1      3038 2.29646E+01-5.10398E+00 8.86483E-02 3.62553E+00-2.21975E-13 3.57554E-13
 -1      3039 1.42409E+01-3.31559E+00 1.64082E-01-5.95265E+00-2.49606E-13-2.16369E-13
 -1      3040 1.65544E+01-3.74402E+00 4.13745E-02-5.60616E+00-1.86094E-13-1.16449E-13
 -1      3041 1.31363E+01-2.35227E+00 7.57771E-02-5.21914E+00-2.50647E-13-1.90403E-13
 -1      3042 1.68807E+01-4.12031E+00 1.03402E-01 5.46567E+00-1.47257E-13 2.43396E-13
 -1      3043 1.00719E+01-2.28536E+00 1.53460E-01 4.63580E+00-2.27596E-14-1.81466E-13
 -1      3044 9.46560E+00-1.28230E+00 1.46467E-01 3.49553E+00 7.20812E-14-1.75804E-13
 -1      3045 1.26124E+01-2.22302E+00 1.07975E-01 4.71453E+00 1.13728E-14-1.93318E-13
 -1      3046 1.29670E+01-2.56775E+00 1.57441E-01-5.64965E+00 1.52656E-13 2.88519E-13
 -1      3047 7.65997E+00-7.82205E-01 1.27497E-01 1.54643E+00 5.49647E-14-2.03171E-13
 -1      3048 6.17131E+00-1.19489E+00 1.92363E-01 4.63488E-01 3.45141E-14-1.42553E-13
 -1      3049 7.13493E+00-6.89675E-01 9.56324E-02-6.21313E-01-2.04515E-14 3.20022E-14
 -1      3050 2.02803E+01 1.36634E+00 2.30674E-03 9.20375E-01 3.11641E-13-1.69362E-13
 -1      3051 1.98175E+01 2.81942E+00-5.72844E-03-3.51953E-01-2.02692E-14-4.09241E-13
 -1      3052 1.98416E+01 2.77114E+00-6.23156E-03-5.05661E-01-7.44619E-14-3.90524E-13
 -1      3053 1.99945E+01 2.39566E+00 4.25581E-03-5.07741E-01-7.48543E-14-3.46061E-13
 -1      3054 1.99482E+01 2.50399E+00 3.61864E-03-2.55929E-01-1.13222E-14-4.07997E-13
 -1      3055 2.07545E+01 8.89010E-02-2.82466E-03 2.56407E+00-2.78190E-13-3.51381E-13
 -1      3056 2.10092E+01-9.63352E-02 1.22437E-02 2.30337E+00-1.98340E-13-2.33490E-13
 -1      3057 2.12684E+01-5.64165E-01-5.74817E-03 2.31572E+00-1.59746E-13-3.01023E-13
 -1      3058 2.07376E+01-4.00908E-01-8.83346E-03 2.90780E+00-1.19435E-13-8.39320E-14
 -1      3059 2.70404E+01 4.86035E+00-1.14844E-01-9.69220E-01 2.56642E-13 1.96808E-13
 -1      3060 2.16060E+01-5.13569E+00 5.88798E-02-4.72652E+00-1.48423E-13 2.38498E-14
 -1      3061 2.53511E+01-5.02161E+00 3.59604E-02 3.36207E+00-1.83978E-13-5.39534E-13
 -1      3062 2.91828E+01-1.71677E+00-3.54072E-02 8.84948E-01-9.74776E-14-6.63358E-14
 -1      3063 2.80641E+01-2.79653E+00-3.20330E-02 3.55270E-01-6.76195E-15-1.01696E-13
 -1      3064 2.36936E+01-4.71239E+00-5.63419E-02 2.56817E+00-2.20439E-13 2.19855E-13
 -1      3065 2.15927E+01-4.42329E+00 1.31231E-01 3.92969E+00-1.33660E-13 2.61628E-13
 -1      3066 2.02398E+01 1.47500E+00-7.99607E-03 8.01534E-01 2.74205E-13-1.95191E-13
 -1      3067 2.02004E+01 1.66944E+00-4.69854E-04 7.46664E-01 2.37325E-13-2.12559E-13
 -1      3068 9.94322E+00-9.18746E-02 1.05176E-01-1.41871E+00 4.36129E-13 2.52756E-13
 -1      3069 1.09470E+01-7.50597E-01 8.59279E-02-3.53237E+00 3.84123E-13 4.93772E-14
 -1      3070 2.72113E+01-3.84739E+00 1.83414E-02-5.58910E-01 4.61636E-14-1.80619E-14
 -1      3071 1.06317E+01-5.73664E-01 1.08570E-02 3.04084E+00 2.26395E-13 6.12288E-13
 -1      3072 9.78623E+00-4.59612E-03 1.46719E-01 7.15158E-01 5.03852E-13 2.52159E-13
 -1      3073 2.02213E+01 4.23085E-01 4.30797E-03-1.21022E-01-1.30274E-13-1.65314E-13
 -1      3074 2.01815E+01 3.14872E-01-2.34781E-03-3.63069E-02-1.12742E-13-1.74147E-13
 -1      3075 2.01676E+01 2.31187E-01 3.17459E-03 2.50845E-02-8.79491E-14-1.55807E-13
 -1      3076 2.01373E+01 1.60611E-01-1.30787E-03 7.59565E-02-9.55399E-14-1.45948E-13
 -1      3077 2.02380E+01 3.31535E-01-8.05841E-04-2.72337E-02-9.55732E-14-1.43695E-13
 -1      3078 2.01206E+01 1.06677E-01 2.23667E-03 1.11729E-01-7.79992E-14-1.19187E-13
 -1      3079 2.00995E+01 6.16508E-02-6.18727E-04 1.38883E-01-4.52890E-14-1.14476E-13
 -1      3080 2.01974E+01 1.67018E-01-1.01598E-03 7.52515E-02-7.82545E-14-8.98682E-14
 -1      3081 2.00834E+01 2.78682E-02 1.46590E-03 1.56572E-01-3.62251E-14-1.21158E-13
 -1      3082 2.00698E+01 3.70516E-04-1.79087E-04 1.67883E-01-3.49702E-14-1.03618E-13
 -1      3083 2.01586E+01 6.09821E-02-9.74517E-04 1.33095E-01-4.45750E-14-1.06451E-13
 -1      3084 2.00554E+01-1.95754E-02 8.77580E-04 1.73489E-01-3.49100E-14-9.07853E-14
 -1      3085 2.00476E+01-3.49670E-02 9.56194E-05 1.74783E-01-4.60173E-14-6.33789E-14
 -1      3086 2.01247E+01-4.57475E-03-8.49838E-04 1.59788E-01-1.47502E-14-1.10858E-13
 -1      3087 2.00355E+01-4.53585E-02 4.51331E-04 1.72910E-01-2.74047E-14-5.63402E-14
 -1      3088 2.00319E+01-5.23769E-02 2.63906E-04 1.68410E-01 3.92000E-16-1.73963E-14
 -1      3089 2.00967E+01-4.19566E-02-7.06681E-04 1.66089E-01 9.99885E-15-9.82296E-14
 -1      3090 2.00220E+01-5.61578E-02 1.53156E-04 1.62467E-01-2.86768E-14 6.37474E-15
 -1      3091 2.00212E+01-5.73762E-02 3.65767E-04 1.55198E-01-3.80196E-14-1.69956E-14
 -1      3092 2.00743E+01-5.97277E-02-5.71382E-04 1.60185E-01-1.45101E-14-1.50522E-14
 -1      3093 2.00133E+01-5.65583E-02-5.12571E-05 1.47662E-01-5.69168E-14-5.61711E-15
 -1      3094 2.00146E+01-5.37189E-02 4.29075E-04 1.39787E-01-8.34955E-14-1.38224E-14
 -1      3095 2.00569E+01-6.38395E-02-4.54260E-04 1.48123E-01-4.53788E-14-9.72199E-15
 -1      3096 2.00084E+01-4.96398E-02-1.91479E-04 1.32451E-01-7.33533E-14-3.98282E-15
 -1      3097 2.00112E+01-4.38680E-02 4.74083E-04 1.25530E-01-4.71262E-14-2.57119E-14
 -1      3098 2.00437E+01-5.83467E-02-3.56605E-04 1.34308E-01-5.94959E-14-2.92283E-14
 -1      3099 2.00063E+01-3.73570E-02-2.92035E-04 1.19712E-01-8.27881E-14-5.02835E-14
 -1      3100 2.00102E+01-2.93067E-02 5.15722E-04 1.14915E-01-1.23219E-13-7.67522E-14
 -1      3101 2.00338E+01-4.58898E-02-2.75852E-04 1.21955E-01-8.63840E-14-6.37451E-14
 -1      3102 2.00064E+01-2.08025E-02-3.72647E-04 1.11635E-01-1.58659E-13-8.64007E-14
 -1      3103 2.00112E+01-1.07646E-02 5.64927E-04 1.09903E-01-1.82450E-13-1.09171E-13
 -1      3104 2.00267E+01-2.80264E-02-2.08134E-04 1.13485E-01-1.46587E-13-1.17416E-13
 -1      3105 2.00079E+01-4.05816E-04-4.49234E-04 1.10015E-01-2.16047E-13-1.13988E-13
 -1      3106 2.00136E+01 1.16090E-02 6.29465E-04 1.12182E-01-2.19897E-13-1.23724E-13
 -1      3107 2.00213E+01-5.47973E-03-1.48508E-04 1.10833E-01-2.14568E-13-1.22575E-13
 -1      3108 2.00106E+01 2.39156E-02-5.34999E-04 1.16484E-01-1.41318E-13-9.74096E-14
 -1      3109 2.00172E+01 3.81115E-02 7.14851E-04 1.23373E-01-1.23548E-13-3.85055E-14
 -1      3110 2.00171E+01 2.16684E-02-9.10151E-05 1.15693E-01-1.61937E-13-4.38888E-14
 -1      3111 2.00139E+01 5.26341E-02-6.41148E-04 1.32675E-01-6.20672E-14 1.11368E-15
 -1      3112 2.00216E+01 6.93728E-02 8.24460E-04 1.45161E-01 2.56519E-14 4.96682E-14
 -1      3113 2.00131E+01 5.38239E-02-2.86838E-05 1.29694E-01-4.99073E-14 5.78605E-14
 -1      3114 2.00173E+01 8.65007E-02-7.77440E-04 1.60343E-01-4.21796E-15 2.37894E-14
 -1      3115 2.00262E+01 1.06244E-01 9.59423E-04 1.79394E-01-5.48621E-15 2.61846E-14
 -1      3116 2.00083E+01 9.17462E-02 4.67909E-05 1.54527E-01-2.06330E-14 6.51264E-14
 -1      3117 2.00204E+01 1.26428E-01-9.52440E-04 2.01431E-01 5.95617E-15 1.68735E-14
 -1      3118 2.00305E+01 1.49665E-01 1.11844E-03 2.28124E-01 2.93636E-14-5.52046E-14
 -1      3119 2.00016E+01 1.36411E-01 1.45351E-04 1.92020E-01-3.76841E-14 5.11778E-14
 -1      3120 2.00222E+01 1.73337E-01-1.17334E-03 2.58087E-01 1.69536E-14-7.69267E-14
 -1      3121 2.00336E+01 2.00489E-01 1.29771E-03 2.93587E-01 7.76181E-14-1.08814E-13
 -1      3122 1.99913E+01 1.88842E-01 2.78645E-04 2.44162E-01 8.32357E-15-5.42004E-14
 -1      3123 2.00215E+01 2.27945E-01-1.44511E-03 3.32619E-01 1.69365E-13-9.96121E-14
 -1      3124 2.00340E+01 2.59209E-01 1.49142E-03 3.78124E-01 2.82807E-13-1.53793E-13
 -1      3125 1.99757E+01 2.49890E-01 4.59479E-04 3.13073E-01 1.52800E-13 7.98169E-14
 -1      3126 2.00168E+01 2.90416E-01-1.76868E-03 4.27391E-01 2.47835E-13-1.44416E-13
 -1      3127 2.00302E+01 3.25521E-01 1.69374E-03 4.84031E-01 1.05051E-13-5.71925E-14
 -1      3128 1.99520E+01 3.19881E-01 6.99924E-04 4.00924E-01 2.67491E-13-1.53507E-13
 -1      3129 2.00062E+01 3.59812E-01-2.13742E-03 5.44649E-01-1.81756E-15-2.79197E-15
 -1      3130 2.00201E+01 3.97619E-01 1.90383E-03 6.13318E-01-1.57766E-14 1.97411E-15
 -1      3131 1.99174E+01 3.98080E-01 1.00677E-03 5.09812E-01 6.60997E-14-1.58683E-13
 -1      3132 1.99875E+01 4.33185E-01-2.53110E-03 6.86277E-01-4.02998E-14-3.45758E-14
 -1      3133 2.00016E+01 4.71048E-01 2.13610E-03 7.67412E-01 3.56944E-15-1.94448E-14
 -1      3134 1.98683E+01 4.81833E-01 1.37208E-03 6.41627E-01-1.09463E-14-3.98786E-14
 -1      3135 1.99588E+01 5.04138E-01-2.90552E-03 8.53521E-01 1.01195E-13-2.31680E-14
 -1      3136 1.99736E+01 5.36907E-01 2.43873E-03 9.46796E-01 1.22262E-13 7.33273E-16
 -1      3137 1.98012E+01 5.65215E-01 1.75513E-03 7.97969E-01 5.96043E-14-7.34308E-14
 -1      3138 1.99202E+01 5.60599E-01-3.17439E-03 1.04672E+00 9.32647E-14-1.91243E-14
 -1      3139 1.99381E+01 5.79127E-01 2.92214E-03 1.15068E+00-4.79888E-14-2.56847E-15
 -1      3140 1.97134E+01 6.36961E-01 2.05006E-03 9.80243E-01 9.33647E-14-2.26400E-14
 -1      3141 1.98765E+01 5.81548E-01-3.17400E-03 1.26510E+00-1.69610E-13-1.13552E-14
 -1      3142 1.99040E+01 5.70600E-01 3.79457E-03 1.37672E+00-5.52833E-14 4.51260E-14
 -1      3143 1.96057E+01 6.77404E-01 2.03118E-03 1.19011E+00-6.21051E-14 8.61712E-14
 -1      3144 1.98421E+01 5.32595E-01-2.57799E-03 1.50663E+00 4.52558E-14 3.13513E-14
 -1      3145 1.98941E+01 4.68194E-01 5.36114E-03 1.62058E+00 1.66459E-13 4.83686E-14
 -1      3146 1.94860E+01 6.54162E-01 1.26544E-03 1.43048E+00-1.48315E-14 1.83640E-13
 -1      3147 1.98512E+01 3.60814E-01-7.20580E-04 1.76717E+00 1.60473E-13 1.42995E-14
 -1      3148 1.99561E+01 2.07851E-01 7.93551E-03 1.87402E+00 1.59380E-13 7.41027E-14
 -1      3149 1.93776E+01 5.16351E-01-1.03406E-03 1.70674E+00 9.88528E-14 2.43168E-14
 -1      3150 1.99722E+01-8.45235E-03 3.79704E-03 2.03646E+00 1.40728E-13-3.95940E-15
 -1      3151 2.01790E+01-2.95589E-01 1.18828E-02 2.11821E+00 1.26045E-13-3.94026E-14
 -1      3152 1.93317E+01 1.88897E-01-6.05409E-03 2.02616E+00 1.23927E-13-1.33062E-13
 -1      3153 2.03298E+01-6.65735E-01 1.44206E-02 2.28625E+00 1.42741E-13-5.28408E-14
 -1      3154 2.07057E+01-1.13942E+00 1.36883E-02 2.30737E+00-4.82899E-14-3.63216E-14
 -1      3155 1.94484E+01-4.29652E-01-1.53228E-02 2.39037E+00 1.23286E-13-3.09692E-13
 -1      3156 2.11316E+01-1.67260E+00 4.03542E-02 2.42307E+00-1.77082E-13 2.98828E-14
 -1      3157 2.17311E+01-2.35487E+00 8.88305E-03 2.32242E+00-2.12236E-13-1.76812E-14
 -1      3158 1.99144E+01-1.47007E+00-3.38618E-02 2.76586E+00-5.69414E-14-1.56427E-13
 -1      3159 2.28483E+01-3.21843E+00 5.69130E-02 2.20040E+00-2.29813E-13 1.33194E-13
 -1      3160 2.37443E+01-3.85977E+00-1.28159E-03 1.80542E+00-2.63678E-13 5.48801E-14
 -1      3161 2.52091E+01-4.36504E+00 1.77676E-02 1.23869E+00-3.28018E-13 1.40270E-13
 -1      3162 2.61543E+01-4.23248E+00 8.30012E-03 3.75087E-01-3.57619E-13 1.79736E-13
 -1      3163 2.65138E+01 3.04443E+00-1.23923E-01-2.80218E+00-1.87628E-13 1.06574E-13
 -1      3164 2.35483E+01-3.34796E+00 1.72668E-03-2.63989E+00-1.29566E-13-1.03173E-13
 -1      3165 2.27494E+01-2.61707E+00 5.64294E-02-2.98534E+00-1.95427E-13-2.85468E-13
 -1      3166 2.20986E+01-1.99203E+00 1.53330E-02-3.04674E+00-2.00912E-13-1.73988E-13
 -1      3167 2.14960E+01-1.27599E+00 2.69903E-02-3.12573E+00-2.31284E-13-2.79367E-13
 -1      3168 2.08107E+01-1.09918E+00-3.16668E-02-3.41167E+00-2.09824E-13-3.73104E-14
 -1      3169 2.17595E+01-2.62783E+00-6.25853E-02-3.65242E+00-7.89299E-14 2.45116E-14
 -1      3170 2.00085E+01 3.22238E-03-1.04572E-04-1.73657E-01 3.23723E-14-8.59758E-14
 -1      3171 2.00189E+01 2.84842E-02 1.58378E-03-1.62094E-01 7.12272E-14-7.91444E-14
 -1      3172 1.99924E+01-2.92774E-02 1.31420E-04-1.81053E-01 9.63779E-14-1.21624E-13
 -1      3173 1.99961E+01-1.50459E-02 9.07083E-04-1.79899E-01 5.70135E-14-9.65467E-14
 -1      3174 2.00726E+01-8.77685E-04-9.67392E-04-1.68356E-01 6.94599E-14-1.44950E-13
 -1      3175 1.99806E+01-4.84262E-02 4.06015E-04-1.43711E-01 1.28112E-14-1.22694E-13
 -1      3176 1.99755E+01-5.05551E-02-1.00031E-04-1.52210E-01 6.75074E-14-1.34959E-13
 -1      3177 1.99837E+01-4.05691E-02 4.46752E-04-1.27991E-01 6.60074E-14-7.26506E-14
 -1      3178 1.99774E+01-4.52576E-02-2.35508E-04-1.35651E-01 3.64862E-14-1.14012E-13
 -1      3179 2.00147E+01-5.40949E-02-3.27153E-04-1.40759E-01 4.19511E-14-1.87790E-13
 -1      3180 1.99887E+01-2.86998E-02 4.88514E-04-1.15660E-01 4.39135E-14-6.24764E-14
 -1      3181 1.99817E+01-3.53153E-02-3.22617E-04-1.21333E-01 8.42942E-14-1.77852E-14
 -1      3182 2.00107E+01-4.39174E-02-2.50041E-04-1.26670E-01 5.47929E-14-1.71672E-13
 -1      3183 1.99953E+01-1.35857E-02 5.41144E-04-1.08636E-01 3.57922E-15-6.55170E-14
 -1      3184 1.99876E+01-2.18038E-02-3.82516E-04-1.11430E-01 2.02378E-14-2.42741E-14
 -1      3185 2.00091E+01-2.90667E-02-1.95170E-04-1.16271E-01 1.78888E-14-5.27288E-14
 -1      3186 2.00035E+01 4.47719E-03 6.11612E-04-1.08518E-01-6.13182E-14 2.97760E-14
 -1      3187 1.99950E+01-5.24347E-03-4.31296E-04-1.07669E-01-2.93767E-14-1.70061E-14
 -1      3188 2.00094E+01-1.03535E-02-1.57483E-04-1.11506E-01-4.42149E-14-3.77298E-14
 -1      3189 2.00133E+01 2.55157E-02 7.04870E-04-1.16769E-01-2.14588E-14-7.73466E-14
 -1      3190 2.00037E+01 1.42428E-02-4.80646E-04-1.11564E-01-6.02031E-14-3.13322E-14
 -1      3191 2.00110E+01 1.19371E-02-1.31895E-04-1.14023E-01-1.60956E-14-2.68442E-14
 -1      3192 2.00249E+01 4.97384E-02 8.23702E-04-1.34841E-01 1.73906E-14-3.98438E-14
 -1      3193 2.00137E+01 3.67869E-02-5.38750E-04-1.24562E-01 9.63482E-15-5.28461E-14
 -1      3194 2.00137E+01 3.78680E-02-1.13986E-04-1.25352E-01-1.55641E-14-1.34959E-13
 -1      3195 2.00387E+01 7.73818E-02 9.68524E-04-1.64236E-01 1.48437E-13-3.35595E-14
 -1      3196 2.00255E+01 6.26305E-02-6.10406E-04-1.48141E-01 1.16031E-13 1.95427E-14
 -1      3197 2.00172E+01 6.76783E-02-1.00245E-04-1.47018E-01 5.85529E-14-5.53713E-14
 -1      3198 2.00552E+01 1.08519E-01 1.13683E-03-2.06489E-01 6.96429E-14-4.62914E-14
 -1      3199 2.00394E+01 9.19559E-02-6.96536E-04-1.83836E-01 1.30304E-13-2.50732E-14
 -1      3200 2.00214E+01 1.01590E-01-8.84234E-05-1.80596E-01 1.71216E-13 5.42060E-14
 -1      3201 2.00751E+01 1.42806E-01 1.32251E-03-2.63086E-01 1.92820E-14-2.44973E-14
 -1      3202 2.00560E+01 1.24668E-01-7.93042E-04-2.33193E-01-4.69124E-16-3.86404E-14
 -1      3203 2.00260E+01 1.39570E-01-7.84857E-05-2.27694E-01 6.95018E-14 3.45763E-14
 -1      3204 2.00992E+01 1.79134E-01 1.51508E-03-3.35258E-01 3.12335E-14 7.16791E-14
 -1      3205 2.00760E+01 1.60099E-01-8.88703E-04-2.97631E-01 3.61194E-14 2.56052E-14
 -1      3206 2.00311E+01 1.81002E-01-7.44577E-05-2.89860E-01 1.75204E-15 1.35937E-13
 -1      3207 2.01289E+01 2.15147E-01 1.69913E-03-4.23668E-01-4.97270E-14 1.43763E-13
 -1      3208 2.01006E+01 1.96600E-01-9.61808E-04-3.78196E-01 2.70021E-14 1.21940E-13
 -1      3209 2.00371E+01 2.24259E-01-8.76764E-05-3.68396E-01 1.23212E-14 1.69718E-13
 -1      3210 2.01661E+01 2.46584E-01 1.85395E-03-5.27923E-01 4.59063E-14 1.76013E-16
 -1      3211 2.01315E+01 2.30974E-01-9.75128E-04-4.75174E-01 8.55604E-15-1.02407E-14
 -1      3212 2.00449E+01 2.66096E-01-1.42150E-04-4.64061E-01 8.12723E-14 1.34341E-13
 -1      3213 2.02143E+01 2.66432E-01 1.95330E-03-6.45895E-01-1.35201E-13-5.69655E-14
 -1      3214 2.01716E+01 2.57734E-01-8.68752E-04-5.87523E-01-2.03573E-16-3.55478E-14
 -1      3215 2.00565E+01 3.00853E-01-2.82840E-04-5.76648E-01 1.37287E-14 1.65635E-13
 -1      3216 2.02789E+01 2.63908E-01 1.96352E-03-7.72786E-01-1.27020E-13 9.35856E-14
 -1      3217 2.02257E+01 2.68154E-01-5.50476E-04-7.12082E-01-1.31410E-13-3.27295E-14
 -1      3218 2.00757E+01 3.19443E-01-5.87469E-04-7.04393E-01-1.13913E-13 1.45527E-14
 -1      3219 2.03691E+01 2.23454E-01 1.83533E-03-8.99883E-01-2.13225E-14 1.49788E-14
 -1      3220 2.03014E+01 2.49239E-01 1.15790E-04-8.42492E-01-6.20935E-14-1.83018E-14
 -1      3221 2.01098E+01 3.08175E-01-1.18140E-03-8.43168E-01-4.21198E-14 1.80048E-14
 -1      3222 2.04994E+01 1.24231E-01 1.48024E-03-1.01289E+00-1.43299E-14 3.40696E-14
 -1      3223 2.04115E+01 1.82872E-01 1.32001E-03-9.67694E-01 2.42245E-14 6.12828E-14
 -1      3224 2.01711E+01 2.47650E-01-2.25165E-03-9.85336E-01-1.72442E-14 1.59036E-14
 -1      3225 2.06916E+01-5.87249E-02 7.21434E-04-1.08966E+00-9.54896E-14-1.42342E-14
 -1      3226 2.05756E+01 4.59559E-02 3.30329E-03-1.06984E+00-4.59321E-14 3.27758E-14
 -1      3227 2.02798E+01 1.12378E-01-4.04510E-03-1.11799E+00-4.17847E-14 1.18753E-13
 -1      3228 2.09755E+01-3.49403E-01-7.73959E-04-1.09727E+00-9.11054E-14-5.37541E-14
 -1      3229 2.08218E+01-1.86856E-01 6.31197E-03-1.12134E+00-1.21011E-13-1.01317E-13
 -1      3230 2.04668E+01-1.27394E-01-6.81123E-03-1.22002E+00-9.08637E-14-3.96337E-14
 -1      3231 2.13852E+01-7.57753E-01-3.53269E-03-9.88769E-01-5.98167E-14-7.43898E-15
 -1      3232 2.11861E+01-5.34779E-01 1.04683E-02-1.08095E+00-1.22255E-14-3.10467E-14
 -1      3233 2.07758E+01-4.98780E-01-1.06212E-02-1.25734E+00-8.49830E-14-2.75305E-13
 -1      3234 2.19459E+01-1.25339E+00-8.37943E-03-7.02416E-01-8.97375E-14-7.16320E-14
 -1      3235 2.17040E+01-9.92046E-01 1.52858E-02-8.90124E-01-8.90516E-14 1.48363E-14
 -1      3236 2.12599E+01-1.00857E+00-1.48829E-02-1.17587E+00-5.44054E-14-2.00984E-13
 -1      3237 2.26508E+01-1.71619E+00-1.29466E-02-1.70124E-01-6.35045E-14-1.25876E-13
 -1      3238 2.23862E+01-1.49176E+00 1.86050E-02-4.73779E-01-1.04665E-13-1.40986E-13
 -1      3239 2.19673E+01-1.60823E+00-1.78738E-02-8.93223E-01-8.94845E-14-1.17337E-13
 -1      3240 2.33905E+01-1.92205E+00-2.46981E-02 6.12448E-01-2.10721E-14-8.32893E-14
 -1      3241 2.31659E+01-1.85609E+00 1.40472E-02 2.15430E-01-5.89043E-14-9.11493E-14
 -1      3242 2.28686E+01-2.12331E+00-2.27957E-02-3.02187E-01-1.09824E-13-2.79142E-13
 -1      3243 2.39931E+01-1.44149E+00-1.30494E-02 1.58380E+00 4.34765E-14 6.71947E-14
 -1      3244 2.39240E+01-1.76001E+00 1.52537E-02 1.19799E+00 5.69896E-14 9.00816E-14
 -1      3245 2.39131E+01-2.31218E+00-3.94014E-02 6.27588E-01-7.92396E-14-1.62691E-13
 -1      3246 2.42063E+01-8.76644E-02 2.86902E-03 2.33835E+00-5.76128E-14 2.44745E-13
 -1      3247 2.42829E+01-8.97113E-01-2.15231E-02 2.12032E+00-4.18797E-14 1.59059E-13
 -1      3248 2.47105E+01-1.48913E+00-2.89943E-02 1.74246E+00-1.09721E-14 1.01568E-13
 -1      3249 2.38773E+01 1.83460E+00 2.20024E-03 2.24930E+00 1.45210E-13 2.01238E-13
 -1      3250 2.40883E+01 8.38553E-01-6.73556E-02 2.44987E+00 5.44235E-14 2.92877E-13
 -1      3251 2.50020E+01 4.25764E-01 5.64645E-03 2.52547E+00 3.12285E-14 7.00915E-14
 -1      3252 2.41638E+01 3.81746E+00-6.47890E-02 8.37578E-01 3.30756E-13 1.99446E-13
 -1      3253 2.42949E+01 3.35225E+00-7.50342E-02 1.56503E+00 2.27606E-13 2.03566E-13
 -1      3254 2.39282E+01 1.17897E+00-7.72273E-02-1.59399E+00-1.13198E-13 2.40216E-14
 -1      3255 2.38160E+01 2.13368E+00-4.66930E-03-1.26840E+00 2.88276E-14 3.44984E-14
 -1      3256 2.41719E+01-6.56832E-01-4.15309E-02-1.42652E+00-1.16920E-13 5.82893E-14
 -1      3257 2.41394E+01 2.17822E-01 5.31198E-03-1.58198E+00-7.96758E-14 3.75273E-14
 -1      3258 2.49865E+01 8.13022E-01-1.12440E-02-1.77027E+00-5.09003E-14 8.49425E-14
 -1      3259 2.38769E+01-1.69356E+00-4.33162E-03-5.30574E-01-1.47036E-13-1.05370E-13
 -1      3260 2.39955E+01-1.29895E+00-1.08863E-02-9.36576E-01-7.93194E-14-9.32891E-15
 -1      3261 2.48757E+01-1.24515E+00 1.23410E-03-1.09924E+00-2.93134E-14 7.49262E-14
 -1      3262 2.31412E+01-1.78030E+00 1.48961E-02 4.37624E-01-4.93880E-14-2.32341E-13
 -1      3263 2.33928E+01-1.83894E+00-2.04366E-02 3.67107E-02-1.33947E-13-2.15474E-13
 -1      3264 2.41208E+01-2.16844E+00-1.50316E-02 5.66248E-02-1.27745E-13-2.56861E-14
 -1      3265 2.22748E+01-1.29781E+00 1.57907E-02 1.11678E+00 3.28773E-14-2.52000E-13
 -1      3266 2.25838E+01-1.59219E+00-1.66375E-02 8.47553E-01-7.80678E-14-2.73624E-13
 -1      3267 2.30978E+01-2.01743E+00-1.53655E-02 1.01351E+00-7.38220E-14-2.99079E-13
 -1      3268 2.17041E+01-8.31076E-01 6.97796E-03 1.50805E+00-1.57646E-13-9.59907E-14
 -1      3269 2.19306E+01-1.10514E+00-1.29669E-02 1.33514E+00-3.20639E-14-2.24544E-13
 -1      3270 2.22693E+01-1.48338E+00-1.15858E-02 1.59083E+00-1.01575E-13-5.48552E-13
 -1      3271 2.16921E+01-8.73496E-01 5.13070E-03 1.87718E+00-1.94679E-13-3.98487E-13
 -1      3272 2.81891E+01-3.63532E+00-4.06626E-02 6.42602E-02-2.48163E-13 2.86521E-13
 -1      3273 2.00455E+01 2.16009E+00-4.29282E-03 2.92870E-01 1.18801E-13-3.71660E-13
 -1      3274 2.00323E+01 2.19886E+00-3.32824E-03 1.71047E-01 8.04927E-14-3.77556E-13
 -1      3275 2.56189E+01 4.64526E+00-1.71724E-01-4.70691E-01 1.56680E-13 3.94879E-13
 -1      3276 2.58016E+01 3.86781E+00-8.59662E-02-1.28243E+00 2.23335E-13 3.81788E-13
 -1      3277 1.56513E+01 1.40304E+00-2.18581E-02 1.36766E+00-1.82586E-13-4.50055E-13
 -1      3278 1.63257E+01 1.22777E+00 5.38836E-02 2.23538E+00-4.94734E-14-4.29413E-13
 -1      3279 8.38657E+00-5.34498E-01 2.20302E-01-2.21697E+00-1.30576E-13 7.89369E-14
 -1      3280 1.03108E+01-1.05630E+00 7.73550E-02-3.66506E+00-1.86070E-13-3.30846E-14
 -1      3281 1.88957E+01 3.81988E-03 4.08289E-02-3.64086E+00-1.08578E-13 4.44295E-13
 -1      3282 1.78463E+01 3.12616E-01-3.79478E-02-3.40894E+00-8.81658E-14 4.55878E-13
 -1      3283 1.54934E+01 1.59811E+00 1.96488E-02-8.94094E-01 2.25095E-14 3.50083E-13
 -1      3284 1.53704E+01 1.63916E+00 1.24178E-02 1.19450E-01-4.58096E-14-1.24775E-13
 -1      3285 1.47890E+01 1.22132E+00 6.72955E-02 8.93615E-01 1.28024E-13-9.94153E-14
 -1      3286 2.01239E+01 2.93296E-01-2.01004E-03 4.50530E-02 1.75135E-13-1.18995E-13
 -1      3287 2.01698E+01 3.94295E-01 4.50987E-03 1.35592E-01 1.96775E-13-1.33773E-13
 -1      3288 2.00726E+01 1.50147E-01-1.13574E-03-7.56141E-02 1.33965E-13-9.74974E-14
 -1      3289 2.01052E+01 2.15468E-01 3.70996E-03-2.22568E-02 1.65898E-13-8.97333E-14
 -1      3290 2.01895E+01 3.15701E-01-1.49194E-03 3.70420E-02 1.53346E-13-9.11103E-14
 -1      3291 1.68245E+01 9.57913E-01 5.35974E-02-2.84735E+00-1.46287E-13 5.28801E-13
 -1      3292 1.59524E+01 1.21180E+00-2.51009E-02-2.09067E+00-1.82816E-13 7.70169E-13
 -1      3293 1.69505E+01 9.34486E-02 3.53222E-02-3.55109E+00-1.65350E-13 5.83263E-13
 -1      3294 1.99803E+01-5.08633E-02 3.53304E-04-1.60311E-01 8.98008E-14-1.49761E-13
 -1      3295 1.99768E+01-4.93906E-02 1.10906E-04-1.68086E-01 8.15108E-14-1.04437E-13
 -1      3296 2.00219E+01-5.80694E-02-4.33430E-04-1.56044E-01 7.11953E-14-8.59357E-14
 -1      3297 2.00994E+01 2.20111E+00-4.81346E-03-1.10344E+00-2.58616E-13-2.98174E-13
 -1      3298 2.01720E+01 2.01045E+00-1.03167E-02-1.18528E+00-2.98873E-13-2.55784E-13
 -1      3299 2.02480E+01 1.61677E+00 3.02587E-03-9.74593E-01-2.83755E-13-2.12318E-13
 -1      3300 2.01721E+01 1.93695E+00 6.85858E-03-9.02512E-01-2.36326E-13-2.83309E-13
 -1      3301 1.99837E+01-4.56212E-02 2.70646E-04-1.74358E-01 9.22971E-14-1.23185E-13
 -1      3302 1.99830E+01-3.89515E-02 4.32272E-04-1.79220E-01 1.16288E-13-1.27971E-13
 -1      3303 2.00331E+01-5.33492E-02-5.74373E-04-1.69149E-01 9.24320E-14-1.16549E-13
 -1      3304 1.86757E+01-4.08170E+00-3.46290E-02 4.86156E+00-1.05291E-13 4.43048E-13
 -1      3305 1.59202E+01-2.95213E+00 1.16535E-01 5.01691E+00-5.89112E-15 1.17746E-13
 -1      3306 2.13530E+01-4.57869E+00-1.00324E-01 5.22549E+00-5.20736E-13-2.79440E-13
 -1      3307 1.89411E+01-3.42710E+00 1.67992E-01 5.72268E+00-5.55667E-13-1.42733E-14
 -1      3308 2.00344E+01 5.93173E-02-4.98646E-04-1.42792E-01 7.71647E-14-6.81114E-14
 -1      3309 2.00543E+01 1.00742E-01 2.50826E-03-1.14639E-01 1.05236E-13-8.71232E-14
 -1      3310 2.01035E+01 6.05950E-02-1.19694E-03-1.39093E-01 6.76377E-14-6.29843E-14
 -1      3311 2.72243E+01-1.59339E+00-1.01301E-01-9.97427E-01 9.85254E-14-1.17427E-13
 -1      3312 2.71021E+01-3.18633E+00 6.97432E-02 3.13621E-01 6.56836E-14-3.63251E-13
 -1      3313 2.02746E+01 7.12771E-01 6.36104E-03-3.45184E-01-1.71294E-13-1.78037E-13
 -1      3314 2.02265E+01 5.48375E-01-4.24381E-03-2.16895E-01-1.43541E-13-1.88421E-13
 -1      3315 2.02717E+01 5.79595E-01-4.09473E-04-1.90098E-01-1.31468E-13-1.71726E-13
 -1      3316 1.25731E+01-1.32878E+00 1.49567E-01-4.66300E+00 3.01092E-13 2.94154E-13
 -1      3317 1.48335E+01-2.33632E+00 3.62464E-02-5.53411E+00 8.98448E-14 5.61148E-13
 -1      3318 1.33076E+01-4.54958E-01 1.41026E-01-3.65990E+00 1.80668E-13 2.57690E-13
 -1      3319 2.74730E+01-1.81380E+00-2.51592E-03 1.33698E+00-2.46698E-13 1.87933E-13
 -1      3320 2.82497E+01-5.97592E-02-1.45477E-01 2.16173E+00-1.72501E-13 3.23019E-13
 -1      3321 2.53497E+01-4.35887E+00 1.10014E-01-1.63062E+00-1.71253E-13 2.58890E-14
 -1      3322 2.63996E+01-3.89074E+00-1.44216E-01-2.61582E-01-2.53074E-13-4.43742E-15
 -1      3323 2.02896E+01 9.89475E-01-7.75281E-04 6.90504E-01 2.67021E-13-1.60221E-13
 -1      3324 2.02685E+01 1.31107E+00 4.56898E-03 7.73775E-01 2.81455E-13-1.72078E-13
 -1      3325 2.02832E+01 1.13049E+00 5.33076E-03 5.97795E-01 2.32603E-13-1.77880E-13
 -1      3326 2.02319E+01 7.75442E-01-3.85345E-03 4.83431E-01 2.39636E-13-1.54640E-13
 -1      3327 1.36664E+01-2.46558E+00 1.62587E-01 5.60055E+00-2.23113E-13 5.30603E-13
 -1      3328 2.58090E+01-4.69630E+00-1.47152E-01 2.22021E+00 1.68962E-14-4.27497E-13
 -1      3329 2.42111E+01-4.67937E+00 1.34351E-01 3.77556E+00-2.70750E-13-4.33436E-13
 -1      3330 2.57944E+01 2.70106E+00-1.63581E-01-1.70540E+00 1.22680E-13 2.92261E-13
 -1      3331 2.65034E+01 1.07729E+00-4.76041E-02-1.74483E+00 4.79478E-14 6.62352E-14
 -1      3332 2.00723E+01-4.35792E+00 1.04060E-01-4.83582E+00-1.85407E-13 1.66256E-14
 -1      3333 2.28472E+01-4.97556E+00-9.25353E-02-3.56772E+00-2.14981E-13 9.80049E-14
 -1      3334 1.57016E+01-2.60448E+00-3.90026E-02 5.75933E+00-4.09867E-13 9.32865E-14
 -1      3335 1.32311E+01-1.11228E+00 1.94783E-01 4.57570E+00-1.90965E-13 5.22346E-13
 -1      3336 2.60367E+01-4.16439E+00-2.70841E-03-1.46689E+00-1.11959E-14 1.00579E-13
 -1      3337 2.00253E+01 2.21769E+00-3.68028E-03 6.60867E-02 5.65699E-14-3.89166E-13
 -1      3338 2.00249E+01 2.21849E+00-3.66127E-03-5.80646E-02 2.23579E-14-4.03603E-13
 -1      3339 2.01393E+01 1.92184E+00 4.94779E-03 1.01621E-01 5.96707E-14-3.56268E-13
 -1      3340 2.02511E+01 1.46183E+00 6.24484E-03 5.86807E-01 2.31003E-13-2.23872E-13
 -1      3341 2.01590E+01 1.80078E+00-6.96874E-03 6.86019E-01 2.38632E-13-2.60151E-13
 -1      3342 2.01239E+01 1.93033E+00-2.50995E-03 5.90439E-01 2.01376E-13-2.92880E-13
 -1      3343 2.73643E+01 1.08342E+00-6.75158E-02 2.60682E+00-7.01730E-14 3.23713E-13
 -1      3344 1.32669E+01-4.02899E-01 1.04911E-01 3.43444E+00-9.89486E-15 3.26197E-13
 -1      3345 2.12410E+01-3.10506E+00-4.69335E-02 2.98433E+00-1.61234E-13 1.61191E-14
 -1      3346 2.01196E+01 1.93974E+00-2.84140E-03-5.83337E-01-1.33528E-13-2.56008E-13
 -1      3347 2.01577E+01 1.81778E+00-5.14020E-03-6.82304E-01-1.82901E-13-2.85024E-13
 -1      3348 2.00495E+01-3.61456E-02-7.53041E-04-1.75410E-01 1.02529E-13-1.59511E-13
 -1      3349 2.50020E+01-4.05422E+00 5.41827E-02-2.21095E+00 1.71807E-14 1.00909E-13
 -1      3350 2.35891E+01-4.29044E+00-5.74760E-02-3.50812E+00-1.53069E-13 8.57057E-14
 -1      3351 2.28785E+01-4.91515E+00 5.38167E-02-4.59721E+00-2.18964E-13 4.58699E-13
 -1      3352 2.00910E+01 2.02428E+00-5.40583E-03 5.05146E-01 1.83404E-13-3.18905E-13
 -1      3353 2.00659E+01 2.10452E+00-3.06484E-03 3.91753E-01 1.44507E-13-3.44923E-13
 -1      3354 2.01617E+01 1.84684E+00 5.22409E-03 2.91523E-01 1.19318E-13-3.31245E-13
 -1      3355 2.02023E+01 1.69524E+00 5.74201E-03 4.60113E-01 1.76073E-13-2.77719E-13
 -1      3356 2.53550E+01 3.42057E+00-7.73115E-02 2.08804E+00 2.16417E-13 1.92853E-13
 -1      3357 2.48074E+01 2.91648E+00-2.18493E-02-1.35545E+00 2.31065E-14 3.62509E-13
 -1      3358 2.36650E+01 2.79463E+00-7.87551E-02-8.16265E-01 1.59761E-13 1.97555E-13
 -1      3359 2.35826E+01 3.27312E+00-2.75086E-02-9.94189E-02 3.17843E-13 1.52978E-13
 -1      3360 1.92960E+01-4.05613E-01-2.69224E-02 3.60426E+00-1.57844E-13 1.72272E-13
 -1      3361 2.02282E+01-7.32185E-01 2.86452E-02 3.54654E+00-2.45575E-13 1.61719E-13
 -1      3362 2.02328E+01 1.52495E+00-2.78911E-03-8.11996E-01-2.40194E-13-2.41116E-13
 -1      3363 2.02750E+01 1.35268E+00-1.64255E-03-8.27066E-01-2.50460E-13-2.02905E-13
 -1      3364 2.02798E+01 1.14834E+00 5.14919E-03-6.67178E-01-2.17028E-13-1.98427E-13
 -1      3365 2.03346E+01-3.59126E+00 5.75711E-02 3.86642E+00-8.27810E-14 2.65205E-13
 -1      3366 1.13030E+01-5.98030E-01 5.24958E-02-3.23721E+00-1.87954E-13-1.71529E-13
 -1      3367 1.21630E+01-1.25106E+00 1.79009E-01-4.38363E+00-1.78260E-13-2.12677E-13
 -1      3368 1.71914E+01 5.24715E-01-3.81675E-02 3.09175E+00-3.15322E-13-4.55289E-13
 -1      3369 1.82953E+01 1.99373E-01 6.29367E-02 3.48065E+00-2.51528E-13-2.78966E-13
 -1      3370 1.85166E+01-7.98527E-01-1.96405E-02 3.98268E+00-4.07828E-13-2.49193E-14
 -1      3371 1.67944E+01-2.22140E+00 6.47025E-02 4.26336E+00 1.09206E-13 3.72098E-14
 -1      3372 1.47971E+01-2.32027E+00 8.19692E-02 4.78132E+00 1.30417E-13-1.70322E-13
 -1      3373 1.37164E+01-1.45025E+00 7.19451E-02 4.10823E+00 1.51618E-13-1.58457E-13
 -1      3374 1.50073E+01 1.06378E+00 6.57557E-02-1.71142E+00 6.59871E-14 4.83190E-13
 -1      3375 2.08288E+01-9.11619E-01 1.55029E-03 3.20489E+00-9.02714E-14 5.69770E-14
 -1      3376 2.12675E+01-1.05852E+00 9.26465E-03 2.95197E+00-1.22148E-13-1.36054E-13
 -1      3377 2.06808E+01-1.48876E+00 4.71879E-03 3.63826E+00-2.27494E-13 3.19328E-14
 -1      3378 1.69097E+01-2.73759E+00 1.50635E-01-5.73381E+00-3.15720E-14 5.18662E-13
 -1      3379 1.86725E+01-3.37968E+00-4.41683E-02-5.50624E+00-1.21875E-13 6.43319E-13
 -1      3380 1.63038E+01-1.65125E+00 1.01409E-01-5.00186E+00 3.02640E-14 6.91336E-13
 -1      3381 2.58715E+01-3.60746E+00-1.49123E-02 1.04419E+00 8.04773E-14-2.90584E-13
 -1      3382 2.36910E+01-4.26673E+00 1.13530E-03-2.30133E+00-2.05357E-13-3.44429E-15
 -1      3383 2.28342E+01-4.02606E+00 5.16460E-02 4.01193E+00-4.16119E-13-3.05551E-13
 -1      3384 1.39692E+01-1.82901E+00 6.80098E-02-4.62252E+00-1.35073E-13-2.32959E-13
 -1      3385 2.01430E+01 1.60204E-01-1.38319E-03-7.56917E-02 1.12270E-13-6.81050E-14
 -1      3386 1.72960E+01-2.91856E+00 3.60712E-02-4.82523E+00-2.14200E-13-8.89670E-14
 -1      3387 1.87277E+01-3.81002E+00 5.25786E-02-5.05763E+00-1.56652E-13 4.63206E-14
 -1      3388 2.03266E+01-3.58725E+00 3.35102E-02-3.94689E+00-2.09024E-13 2.02508E-13
 -1      3389 9.38705E+00-6.79082E-01 1.70857E-01 2.55153E+00 8.46337E-14-2.73642E-13
 -1      3390 9.51171E+00-2.07247E-01 7.38743E-02 1.51805E+00-1.72987E-14-1.68379E-13
 -1      3391 1.12771E+01-7.53584E-01 8.11281E-02 3.16888E+00 3.34281E-14-1.98855E-13
 -1      3392 1.78413E+01-2.42939E+00 2.59174E-02 5.16474E+00-5.60330E-13-4.80241E-14
 -1      3393 2.02570E+01 9.60489E-01-3.53996E-03-5.32139E-01-1.96970E-13-1.85101E-13
 -1      3394 1.15067E+01 3.71071E-01 1.54943E-01-4.08508E-01 3.81804E-13 1.82632E-13
 -1      3395 8.98067E+00-2.15122E-01 1.25604E-01-1.08792E+00-1.48291E-13-7.48013E-15
 -1      3396 2.01758E+01 4.88436E-01-2.16501E-03 2.21548E-01 2.22148E-13-1.61020E-13
 -1      3397 2.02324E+01 6.34826E-01 4.23275E-03 3.63176E-01 2.24496E-13-1.58731E-13
 -1      3398 2.02562E+01 7.76392E-01-4.82871E-03 4.20377E-01 2.28602E-13-1.83101E-13
 -1      3399 2.02286E+01 5.22158E-01-2.00375E-03 2.00149E-01 2.05230E-13-1.57548E-13
 -1      3400 2.65104E+01-2.41365E+00-6.09535E-03 1.01336E+00-1.17333E-13-8.61325E-14
 -1      3401 2.02997E+01-7.80137E-01 3.23296E-02-3.60953E+00-2.22121E-13 2.23993E-13
 -1      3402 1.95465E+01-4.52481E-01-1.98657E-02-3.68281E+00-1.47865E-13 3.75887E-13
 -1      3403 1.90986E+01-8.52387E-01 2.82751E-02-4.06559E+00-6.03025E-14 3.62361E-13
 -1      3404 2.06727E+01-1.48859E+00 2.33673E-02-3.79294E+00-3.67822E-14 1.85625E-13
 -1      3405 2.65192E+01-5.05646E-01-7.46051E-02-1.59528E+00 1.15429E-14 4.85792E-14
 -1      3406 2.02779E+01 9.90635E-01-1.32658E-03-4.70426E-01-1.84654E-13-2.21110E-13
 -1      3407 2.00626E+01 2.10990E+00-3.40212E-03-3.84275E-01-3.48097E-14-3.30504E-13
 -1      3408 2.00873E+01 2.03383E+00-4.98593E-03-4.98602E-01-8.14475E-14-2.80666E-13
 -1      3409 2.01948E+01 1.70188E+00 3.44502E-03-4.53775E-01-9.99614E-14-2.14356E-13
 -1      3410 2.57509E+01-1.42999E+00-3.42062E-02-1.03843E+00 5.29316E-14-9.71532E-15
 -1      3411 1.61187E+01 3.47226E-01 1.97589E-03 3.08934E+00-1.90016E-13-1.82535E-13
 -1      3412 1.49281E+01-1.05853E-01-8.91216E-03 3.42968E+00-1.94042E-13 2.26139E-14
 -1      3413 1.33771E+01 7.06620E-01 9.80107E-02 1.94258E+00 1.99733E-13-1.02696E-13
 -1      3414 2.68562E+01 4.28815E+00-8.95469E-02 1.94631E+00 2.51174E-13 2.62186E-13
 -1      3415 2.55699E+01-2.23254E+00 5.72915E-04-5.32116E-01 8.06911E-14-8.00219E-14
 -1      3416 2.45765E+01-2.69515E+00-2.48353E-02 4.24919E-01 1.64764E-14-8.81435E-14
 -1      3417 2.54270E+01-3.04133E+00-4.88711E-02 4.65629E-01 4.39700E-14-2.42693E-13
 -1      3418 2.48475E+01-3.70652E+00 7.67676E-02 1.94613E+00-9.85531E-14-3.32139E-13
 -1      3419 2.41695E+01-2.64526E+00 4.25340E-02 9.26945E-01-8.70588E-14-1.33104E-13
 -1      3420 2.01012E+01-4.29487E-02 8.91461E-05-1.64081E-01 7.20957E-14-7.77184E-14
 -1      3421 2.01125E+01-2.72911E-02 7.88643E-04-1.63170E-01 8.46346E-14-8.38378E-14
 -1      3422 2.60707E+01 2.04763E+00-1.41168E-01 2.71004E+00 1.28009E-13 2.13524E-13
 -1      3423 2.02676E+01 2.36398E-01 2.13418E-03 3.87099E-02-6.89023E-14-8.04120E-14
 -1      3424 2.02431E+01 1.61184E-01-1.27699E-03 7.94324E-02-6.92153E-14-8.00025E-14
 -1      3425 2.02284E+01 1.02529E-01 1.61867E-03 1.05512E-01-6.39472E-14-6.73204E-14
 -1      3426 2.02069E+01 5.40708E-02-6.42896E-04 1.27377E-01-3.44088E-14-5.41598E-14
 -1      3427 2.02848E+01 1.58759E-01-4.37298E-04 7.58349E-02-5.32230E-14-5.20050E-14
 -1      3428 2.01896E+01 1.73019E-02 1.12358E-03 1.39776E-01-3.83708E-14-8.99127E-14
 -1      3429 2.01719E+01-1.20850E-02-2.04903E-04 1.48764E-01-2.94623E-14-9.23972E-14
 -1      3430 2.02473E+01 4.87344E-02-5.90440E-04 1.17395E-01-5.82220E-14-5.02388E-14
 -1      3431 2.01542E+01-3.33672E-02 7.18688E-04 1.52014E-01 1.08995E-14-1.24389E-13
 -1      3432 2.01403E+01-4.92624E-02 8.45050E-05 1.52815E-01 5.11663E-14-8.66164E-14
 -1      3433 2.02090E+01-1.88494E-02-6.28754E-04 1.35768E-01-3.13390E-14-1.05173E-13
 -1      3434 2.01236E+01-5.96471E-02 4.06846E-04 1.50493E-01 2.00985E-14-1.02323E-13
 -1      3435 2.01129E+01-6.60514E-02 2.67351E-04 1.46634E-01-3.39847E-15-9.16410E-14
 -1      3436 2.01731E+01-5.61478E-02-6.00729E-04 1.39023E-01 1.03593E-14-1.41219E-13
 -1      3437 2.00979E+01-6.87803E-02 1.72128E-04 1.41442E-01-2.49926E-14-1.04430E-13
 -1      3438 2.00900E+01-6.85026E-02 3.77657E-04 1.35518E-01-5.47258E-14-1.16898E-13
 -1      3439 2.01409E+01-7.19962E-02-5.37168E-04 1.33444E-01-2.65203E-14-1.70681E-13
 -1      3440 2.00767E+01-6.58177E-02-4.45440E-06 1.29461E-01-7.96254E-14-1.31370E-13
 -1      3441 2.00710E+01-6.07684E-02 4.41732E-04 1.23371E-01-6.55681E-14-1.06505E-13
 -1      3442 2.01129E+01-7.26666E-02-4.58321E-04 1.23773E-01-7.23300E-14-1.51381E-13
 -1      3443 2.00594E+01-5.41483E-02-1.42167E-04 1.17920E-01-9.13270E-14-1.30678E-13
 -1      3444 2.00555E+01-4.55351E-02 4.80462E-04 1.13065E-01-1.14364E-13-1.23653E-13
 -1      3445 2.00889E+01-6.24459E-02-3.69885E-04 1.13527E-01-1.04848E-13-1.91551E-13
 -1      3446 2.00451E+01-3.58599E-02-2.58257E-04 1.09330E-01-1.44236E-13-1.14528E-13
 -1      3447 2.00426E+01-2.43440E-02 5.08959E-04 1.06796E-01-1.71874E-13-1.21404E-13
 -1      3448 2.00683E+01-4.40807E-02-2.76166E-04 1.05320E-01-1.22290E-13-1.64412E-13
 -1      3449 2.00330E+01-1.20365E-02-3.67469E-04 1.05663E-01-1.82307E-13-1.06306E-13
 -1      3450 2.00313E+01 2.13855E-03 5.36620E-04 1.06351E-01-2.05408E-13-7.90311E-14
 -1      3451 2.00500E+01-1.91020E-02-1.77081E-04 1.01177E-01-1.80109E-13-1.03771E-13
 -1      3452 2.00218E+01 1.70071E-02-4.82856E-04 1.08589E-01-1.63873E-13 2.36672E-14
 -1      3453 2.00207E+01 3.39186E-02 5.69751E-04 1.13318E-01-9.69711E-14 8.86055E-14
 -1      3454 2.00329E+01 1.18865E-02-6.94266E-05 1.02768E-01-1.02137E-13 3.68945E-14
 -1      3455 2.00104E+01 5.15445E-02-6.15761E-04 1.19654E-01-1.04257E-13 1.15317E-13
 -1      3456 2.00093E+01 7.15082E-02 6.11663E-04 1.29233E-01-6.37012E-14 6.51832E-14
 -1      3457 2.00155E+01 4.89877E-02 5.21103E-05 1.11585E-01-1.00903E-13 1.28417E-13
 -1      3458 1.99973E+01 9.22792E-02-7.76116E-04 1.40409E-01 3.46614E-15 1.05690E-13
 -1      3459 1.99957E+01 1.15771E-01 6.62709E-04 1.55688E-01 7.32514E-15 8.36488E-14
 -1      3460 1.99960E+01 9.28268E-02 1.95133E-04 1.29071E-01-2.20493E-14 1.26034E-13
 -1      3461 1.99807E+01 1.40189E-01-9.72809E-04 1.72492E-01-9.24637E-14 1.51588E-13
 -1      3462 1.99779E+01 1.67761E-01 7.20454E-04 1.94380E-01-7.94727E-14 3.59233E-14
 -1      3463 1.99722E+01 1.44374E-01 3.69484E-04 1.56700E-01-1.03305E-14 1.84711E-13
 -1      3464 1.99585E+01 1.96350E-01-1.21384E-03 2.17652E-01 2.83940E-15-4.73035E-14
 -1      3465 1.99537E+01 2.28525E-01 7.80036E-04 2.47116E-01 5.67559E-14-4.33709E-15
 -1      3466 1.99417E+01 2.04752E-01 5.87207E-04 1.96013E-01-9.03746E-14 3.60898E-14
 -1      3467 1.99281E+01 2.61716E-01-1.50633E-03 2.77737E-01 1.20564E-13-1.44838E-14
 -1      3468 1.99200E+01 2.98844E-01 8.35204E-04 3.15765E-01 1.97610E-13-4.82359E-14
 -1      3469 1.99013E+01 2.75005E-01 8.62367E-04 2.48600E-01 1.08582E-13-5.51041E-14
 -1      3470 1.98860E+01 3.36798E-01-1.85653E-03 3.54628E-01 2.05842E-13-6.10111E-14
 -1      3471 1.98734E+01 3.78843E-01 8.80943E-04 4.02178E-01 1.66504E-13-1.68612E-13
 -1      3472 1.98470E+01 3.55787E-01 1.21038E-03 3.16053E-01 1.43933E-13-1.02919E-13
 -1      3473 1.98284E+01 4.21191E-01-2.26999E-03 4.50161E-01 1.26303E-13-2.35213E-13
 -1      3474 1.98096E+01 4.67415E-01 9.19259E-04 5.08091E-01 2.29012E-15-1.94326E-13
 -1      3475 1.97742E+01 4.46920E-01 1.64637E-03 3.99902E-01 7.10298E-14-1.96252E-13
 -1      3476 1.97505E+01 5.12858E-01-2.75233E-03 5.66057E-01-3.56732E-14-1.49810E-13
 -1      3477 1.97236E+01 5.61334E-01 9.70499E-04 6.35072E-01 7.23710E-14-6.48037E-14
 -1      3478 1.96774E+01 5.46745E-01 2.18165E-03 5.01587E-01 6.11930E-14-1.88854E-13
 -1      3479 1.96472E+01 6.07030E-01-3.31079E-03 7.03971E-01 6.57544E-14-1.26091E-13
 -1      3480 1.96107E+01 6.53922E-01 1.09341E-03 7.84643E-01 6.76615E-14-1.24336E-13
 -1      3481 1.95503E+01 6.51176E-01 2.81701E-03 6.22571E-01 3.91928E-14-1.71557E-13
 -1      3482 1.95133E+01 6.94565E-01-3.95682E-03 8.65802E-01 8.75258E-14-8.97915E-14
 -1      3483 1.94667E+01 7.33055E-01 1.41720E-03 9.58748E-01 4.23532E-14-8.85083E-14
 -1      3484 1.93858E+01 7.52321E-01 3.52999E-03 7.64770E-01 1.08664E-13-1.83112E-13
 -1      3485 1.93453E+01 7.59540E-01-4.70732E-03 1.05453E+00-1.37822E-14-8.10325E-15
 -1      3486 1.92910E+01 7.78313E-01 2.19109E-03 1.16089E+00 4.04663E-14 1.05543E-13
 -1      3487 1.91775E+01 8.36496E-01 4.25161E-03 9.31617E-01 4.62832E-14-8.02991E-14
 -1      3488 1.91439E+01 7.75865E-01-5.57020E-03 1.27595E+00 2.46689E-14 1.32624E-13
 -1      3489 1.90903E+01 7.57038E-01 3.88444E-03 1.39823E+00 2.21743E-14 1.02686E-13
 -1      3490 1.89202E+01 8.81463E-01 4.83035E-03 1.13017E+00 6.98160E-14 5.24103E-14
 -1      3491 1.89193E+01 7.02695E-01-6.41238E-03 1.54174E+00-5.67078E-14 3.09986E-14
 -1      3492 1.88860E+01 6.18605E-01 7.22098E-03 1.68489E+00 1.86770E-14-3.73581E-14
 -1      3493 1.86138E+01 8.52613E-01 4.99870E-03 1.37499E+00-4.88187E-14 5.20045E-14
 -1      3494 1.87022E+01 4.77751E-01-6.61530E-03 1.87272E+00 2.26598E-14-9.87185E-14
 -1      3495 1.87290E+01 2.87808E-01 1.34707E-02 2.04364E+00 5.49917E-14-1.52581E-13
 -1      3496 1.82687E+01 6.95905E-01 4.12423E-03 1.69406E+00-3.86337E-14 1.45398E-14
 -1      3497 1.85626E+01 1.13224E-02-3.94594E-03 2.29992E+00 6.84542E-14-2.92362E-13
 -1      3498 1.87190E+01-3.42887E-01 2.35419E-02 2.50298E+00 7.25474E-14-2.74360E-13
 -1      3499 1.79181E+01 3.30404E-01 1.47795E-03 2.13409E+00-5.96983E-14-1.90821E-13
 -1      3500 1.86498E+01-7.97278E-01 1.64261E-02 2.85166E+00 1.50422E-13-2.33922E-13
 -1      3501 1.90616E+01-1.42581E+00 3.41170E-02 3.06745E+00 7.00282E-14-1.07760E-13
 -1      3502 1.76596E+01-3.69575E-01 5.13300E-04 2.76261E+00 8.23664E-14-3.42293E-13
 -1      3503 1.92893E+01-2.40317E+00 6.70438E-02 3.66842E+00-6.49411E-14 1.36256E-13
 -1      3504 2.16047E+01-3.69688E+00 1.26669E-01-4.66516E+00-2.44069E-13 3.71233E-13
 -1      3505 2.00292E+01-2.70658E-02 5.18949E-04-1.11320E-01-2.05983E-14-9.64618E-15
 -1      3506 2.00289E+01-3.68934E-02-2.70608E-04-1.14879E-01-1.35365E-14-1.22716E-14
 -1      3507 2.00370E+01-4.50554E-02 4.84060E-04-1.19538E-01-2.23599E-14-3.45149E-14
 -1      3508 2.00380E+01-5.23340E-02-1.62389E-04-1.25346E-01 4.43913E-14-9.16786E-14
 -1      3509 2.00540E+01-4.52224E-02-2.76372E-04-1.13564E-01-5.02691E-14 3.91684E-15
 -1      3510 2.00473E+01-5.77736E-02 4.41567E-04-1.31668E-01 1.03667E-13-1.23507E-13
 -1      3511 2.00500E+01-6.18054E-02-2.33987E-05-1.38611E-01 8.99179E-14-6.99712E-14
 -1      3512 2.00700E+01-6.08289E-02-3.62692E-04-1.23641E-01 6.43484E-14 9.17760E-14
 -1      3513 2.00233E+01-4.60474E-03 5.56507E-04-1.08861E-01-5.37516E-14-5.14200E-14
 -1      3514 2.00221E+01-1.66566E-02-3.65219E-04-1.09267E-01-4.52228E-14-4.61508E-14
 -1      3515 2.00405E+01-2.37055E-02-1.94850E-04-1.07540E-01-1.08256E-14-1.24976E-14
 -1      3516 2.00186E+01 2.20855E-02 6.04428E-04-1.13761E-01-5.62776E-15-7.50808E-14
 -1      3517 2.00166E+01 7.87339E-03-4.58667E-04-1.10218E-01-1.02922E-14-4.22688E-14
 -1      3518 2.00286E+01 2.93560E-03-1.15207E-04-1.07354E-01-5.10689E-14-1.01817E-13
 -1      3519 2.00144E+01 5.31260E-02 6.67623E-04-1.27530E-01 9.28190E-15-1.12906E-13
 -1      3520 2.00118E+01 3.66545E-02-5.60699E-04-1.19276E-01-6.30033E-16-8.85000E-14
 -1      3521 2.00173E+01 3.44993E-02-3.41161E-05-1.14580E-01 5.55325E-15-7.07680E-14
 -1      3522 2.00100E+01 8.88049E-02 7.48948E-04-1.51696E-01 3.93072E-14-1.22716E-13
 -1      3523 2.00069E+01 6.99137E-02-6.78264E-04-1.37957E-01-1.20733E-14-1.75990E-13
 -1      3524 2.00054E+01 7.11514E-02 5.14449E-05-1.30729E-01 3.19797E-14-1.49671E-13
 -1      3525 2.00047E+01 1.29352E-01 8.49511E-04-1.87844E-01 1.10081E-13 4.08878E-14
 -1      3526 2.00011E+01 1.07940E-01-8.14998E-04-1.67830E-01 1.03677E-13-6.75947E-14
 -1      3527 1.99918E+01 1.13196E-01 1.43787E-04-1.57345E-01 1.22089E-14-1.36945E-13
 -1      3528 1.99976E+01 1.74660E-01 9.69155E-04-2.37606E-01-2.19582E-14 9.65533E-14
 -1      3529 1.99936E+01 1.50833E-01-9.70482E-04-2.10527E-01 8.16957E-14 9.42628E-14
 -1      3530 1.99751E+01 1.60807E-01 2.43329E-04-1.96049E-01 4.57500E-14-1.99386E-14
 -1      3531 1.99884E+01 2.23912E-01 1.10730E-03-3.02574E-01-8.05735E-15 1.44547E-13
 -1      3532 1.99839E+01 1.98188E-01-1.13882E-03-2.67710E-01 1.22303E-15 1.13836E-13
 -1      3533 1.99540E+01 2.13701E-01 3.46716E-04-2.48534E-01-3.90789E-14 1.62429E-13
 -1      3534 1.99768E+01 2.75083E-01 1.26454E-03-3.84148E-01 5.54599E-14 1.34236E-13
 -1      3535 1.99715E+01 2.48660E-01-1.30638E-03-3.40952E-01 2.97151E-15 1.93423E-13
 -1      3536 1.99275E+01 2.70692E-01 4.43853E-04-3.16508E-01 1.30049E-15 1.48642E-13
 -1      3537 1.99634E+01 3.24277E-01 1.44526E-03-4.83295E-01 8.37975E-14 1.29903E-13
 -1      3538 1.99566E+01 2.99394E-01-1.44838E-03-4.31557E-01 7.92415E-14 1.52273E-13
 -1      3539 1.98948E+01 3.29117E-01 5.13232E-04-4.01589E-01 5.99211E-14 1.46619E-13
 -1      3540 1.99499E+01 3.64842E-01 1.66165E-03-6.00227E-01-5.36197E-14 1.97038E-13
 -1      3541 1.99403E+01 3.45250E-01-1.52384E-03-5.40291E-01 3.94690E-14 2.06382E-13
 -1      3542 1.98561E+01 3.84064E-01 5.14758E-04-5.05160E-01 2.04874E-14 1.66505E-13
 -1      3543 1.99408E+01 3.86275E-01 1.93807E-03-7.33973E-01-1.11409E-13 1.04532E-13
 -1      3544 1.99258E+01 3.77819E-01-1.46767E-03-6.67029E-01-7.74623E-14 1.75938E-13
 -1      3545 1.98130E+01 4.27382E-01 3.78960E-04-6.28191E-01-3.76429E-14 1.15604E-13
 -1      3546 1.99445E+01 3.72942E-01 2.31224E-03-8.81812E-01-1.75594E-14 9.27835E-14
 -1      3547 1.99193E+01 3.84224E-01-1.17776E-03-8.10282E-01-6.56023E-14 7.94526E-14
 -1      3548 1.97704E+01 4.46452E-01-8.86866E-06-7.71027E-01-1.02781E-13 1.07051E-13
 -1      3549 1.99759E+01 3.02838E-01 2.82129E-03-1.03842E+00-6.38060E-14 1.39258E-13
 -1      3550 1.99325E+01 3.45835E-01-4.92879E-04-9.66523E-01-1.49542E-14 1.78441E-13
 -1      3551 1.97375E+01 4.22769E-01-8.31549E-04-9.33100E-01-3.49256E-14 1.53281E-13
 -1      3552 2.00595E+01 1.46921E-01 3.44919E-03-1.19434E+00 2.73329E-14 6.44033E-14
 -1      3553 1.99855E+01 2.37232E-01 8.43384E-04-1.12903E+00 7.73734E-15 7.99658E-14
 -1      3554 1.97316E+01 3.30527E-01-2.37203E-03-1.11234E+00 1.77854E-14 7.21843E-14
 -1      3555 2.02335E+01-1.29506E-01 4.02367E-03-1.33291E+00 3.61977E-14-1.48959E-13
 -1      3556 2.01107E+01 2.63326E-02 3.23096E-03-1.28554E+00 5.24215E-14 6.13123E-14
 -1      3557 1.97816E+01 1.35762E-01-5.04252E-03-1.30359E+00 8.86093E-14-5.51790E-14
 -1      3558 2.05521E+01-5.60506E-01 4.00845E-03-1.42436E+00-1.27178E-13-2.80527E-13
 -1      3559 2.03573E+01-3.22167E-01 7.25070E-03-1.41355E+00-9.64549E-14-3.05725E-13
 -1      3560 1.99342E+01-2.02067E-01-9.31758E-03-1.49470E+00 6.26834E-14-8.99649E-14
 -1      3561 2.10847E+01-1.16097E+00 2.86000E-03-1.41451E+00-9.63973E-14-1.73213E-13
 -1      3562 2.07934E+01-8.36074E-01 1.37079E-02-1.47085E+00-1.68874E-13-2.41235E-13
 -1      3563 2.02596E+01-7.23561E-01-1.55598E-02-1.65750E+00-1.49800E-13-2.67019E-13
 -1      3564 2.19023E+01-1.89002E+00-4.86104E-04-1.21082E+00-1.17059E-13-1.55930E-13
 -1      3565 2.14987E+01-1.51069E+00 2.23246E-02-1.38355E+00-4.39783E-14-9.94587E-14
 -1      3566 2.08526E+01-1.44242E+00-2.22733E-02-1.73174E+00-8.92243E-14-2.25884E-13
 -1      3567 2.30912E+01-2.51951E+00 1.57507E-02-6.43979E-01-9.59133E-14-2.06274E-13
 -1      3568 2.25514E+01-2.25467E+00 3.28289E-02-1.02386E+00-8.01209E-14-2.26358E-13
 -1      3569 2.18243E+01-2.30924E+00-2.75494E-02-1.60881E+00-1.09613E-13-2.21666E-13
 -1      3570 2.54958E+01-2.31561E+00-1.10939E-02 1.09289E+00-2.11619E-14-1.29419E-13
 -1      3571 2.51818E+01-2.86130E+00 4.63022E-02 5.36580E-01-1.90126E-14-6.66966E-14
 -1      3572 2.59460E+01 6.16756E-01-4.50872E-02 2.46183E+00-4.15709E-14 8.60596E-14
 -1      3573 2.60101E+01-8.36726E-01-7.30316E-02 2.29333E+00-9.39492E-14 2.45463E-14
 -1      3574 1.65119E+01-5.84670E-01 1.33827E-01 4.31274E+00-3.93362E-13-9.74464E-14
 -1      3575 2.52895E+01 4.57535E+00-9.06583E-02 2.77551E-02 3.02813E-13 3.97120E-13
 -1      3576 2.02723E+01 1.27863E+00 2.32727E-03-5.55778E-01-1.79623E-13-2.37347E-13
 -1      3577 2.02800E+01 9.70717E-01-5.68609E-03-3.66135E-01-1.46477E-13-2.23643E-13
 -1      3578 1.27712E+01 8.35424E-01 2.35445E-02 5.60388E-01 3.33426E-13 2.06626E-13
 -1      3579 1.30492E+01 7.52653E-01 3.06198E-02-1.40664E+00 2.79974E-13 3.21965E-13
 -1      3580 1.13311E+01 9.89143E-02 1.50211E-01-2.25963E+00-1.28844E-13-2.40363E-14
 -1      3581 1.24752E+01-3.13454E-01 3.31238E-02-2.95591E+00-1.66344E-13-2.38129E-13
 -1      3582 1.85876E+01-1.81536E+00 6.60947E-03 4.56419E+00-5.36518E-13-1.39281E-13
 -1      3583 2.01185E+01-2.31019E+00 2.49968E-02 4.57054E+00-5.19314E-13 4.22596E-14
 -1      3584 2.02353E+01 3.19888E-01-2.16821E-03 1.65510E-02 1.38081E-13-1.19762E-13
 -1      3585 2.02659E+01 4.29197E-01 3.07420E-03 9.04313E-02 1.58567E-13-1.40960E-13
 -1      3586 1.65940E+01-7.83327E-01 6.33961E-02-4.31727E+00-9.06211E-14 6.63296E-13
 -1      3587 1.49723E+01-3.08605E-01-4.88332E-03-3.78695E+00-8.54976E-14 6.43555E-13
 -1      3588 2.00788E+01-6.00128E-02 2.67747E-04-1.57605E-01 6.37240E-14-2.60281E-14
 -1      3589 2.00865E+01-5.33316E-02 4.27804E-04-1.61841E-01 7.93378E-14-4.38536E-14
 -1      3590 2.01410E+01-4.99605E-02-6.36182E-04-1.52411E-01 5.88701E-14-1.82825E-14
 -1      3591 2.00611E+01-6.36313E-02 3.75920E-04-1.45392E-01 7.75681E-14-6.95836E-14
 -1      3592 2.00659E+01-6.32231E-02 1.65855E-04-1.51990E-01 8.21437E-14-4.84678E-14
 -1      3593 2.01130E+01-6.66635E-02-5.46998E-04-1.46471E-01 8.02075E-14-2.82399E-14
 -1      3594 2.00895E+01-6.88871E-02-4.51888E-04-1.35577E-01 1.22212E-13-2.43515E-14
 -1      3595 2.01988E+01 1.66429E+00-2.02742E-03-7.67073E-01-2.17325E-13-2.78993E-13
 -1      3596 2.01613E+01 5.72527E-02-6.43059E-04-1.34571E-01 7.09455E-14-1.06687E-13
 -1      3597 2.01825E+01 1.04079E-01 1.87321E-03-1.10523E-01 9.23996E-14-7.71879E-14
 -1      3598 2.01979E+01 1.60485E-01-1.30370E-03-8.03873E-02 9.91981E-14-9.68324E-14
 -1      3599 2.02247E+01 2.33378E-01 2.57102E-03-3.54383E-02 1.14568E-13-9.88600E-14
 -1      3600 2.02824E+01 3.27986E-01-4.26839E-04 7.99030E-03 1.16640E-13-1.49320E-13
 -1      3601 1.38294E+01 4.07573E-01 6.22430E-02-2.65979E+00 3.30278E-14 3.76005E-13
 -1      3602 2.00313E+01 2.20116E+00-3.35488E-03-1.62910E-01 1.00594E-14-4.03062E-13
 -1      3603 2.00436E+01 2.16467E+00-4.17402E-03-2.84590E-01-2.51181E-14-3.79313E-13
 -1      3604 2.01601E+01 1.85019E+00 4.79200E-03-2.84211E-01-3.50088E-14-3.37260E-13
 -1      3605 2.03213E+01 7.38188E-01 5.74579E-03-2.44129E-01-1.16444E-13-1.68730E-13
 -1      3606 2.02954E+01 5.71822E-01-3.30366E-03-1.43087E-01-9.53173E-14-1.50864E-13
 -1      3607 2.03013E+01 4.39127E-01 2.89756E-03-7.26700E-02-8.41853E-14-1.20340E-13
 -1      3608 2.02758E+01 3.25904E-01-2.15269E-03-6.16345E-03-6.85642E-14-9.31009E-14
 -1      3609 2.03164E+01 3.27595E-01-6.79036E-05 1.45929E-03-7.68341E-14-7.42985E-14
 -1      3610 2.26292E+01-3.83718E+00 7.05711E-02-2.69019E+00-2.35320E-13-5.61773E-14
 -1      3611 2.42338E+01-3.90725E+00-8.22101E-02-1.16275E+00-1.30275E-13-2.23110E-13
 -1      3612 9.60896E+00 2.30576E-01 1.67034E-01 1.86381E-01-1.41489E-13 6.80289E-14
 -1      3613 1.01972E+01 7.75478E-02 4.39132E-02-1.24492E+00-2.01182E-13 2.91850E-14
 -1      3614 1.14486E+01 3.54770E-01 4.21832E-02-1.15693E+00-1.47445E-13-9.60065E-14
 -1      3615 1.08161E+01 1.72028E-01 7.76909E-02 1.08833E+00-1.10429E-13-2.39531E-14
 -1      3616 2.35217E+01-3.88563E+00-7.51899E-02 3.11983E+00-2.63345E-13-2.50629E-13
 -1      3617 2.16904E+01-3.23000E+00 4.30073E-02 4.20122E+00-5.37880E-13-1.56130E-13
 -1      3618 2.01287E+01-6.62745E-03-1.98102E-04-1.59022E-01 9.53489E-14-1.34055E-13
 -1      3619 2.01446E+01 2.18768E-02 1.26851E-03-1.49130E-01 6.94872E-14-9.51374E-14
 -1      3620 2.02097E+01 5.38992E-02-7.41624E-04-1.26412E-01 8.85737E-14-1.16339E-13
 -1      3621 2.01735E+01-1.26696E-02-7.10743E-04-1.48096E-01 7.62606E-14-6.53557E-14
 -1      3622 2.04390E+01-2.82464E+00 6.15953E-02-4.58077E+00-8.31800E-14 4.50754E-13
 -1      3623 2.14974E+01-9.86434E-01 5.45124E-03 2.55368E+00-1.65905E-13-3.32291E-13
 -1      3624 2.16774E+01-1.01463E+00 6.95845E-03 2.23695E+00-1.60575E-13-4.37747E-13
 -1      3625 2.19810E+01-1.33069E+00 1.16043E-02 2.13453E+00-1.65222E-13-3.73044E-13
 -1      3626 2.16808E+01-1.55860E+00 1.19898E-02 2.88822E+00-6.21005E-14-1.47915E-13
 -1      3627 1.47787E+01-1.26557E+00 2.05883E-02-3.99318E+00-2.59594E-13-1.71946E-13
 -1      3628 1.60660E+01-2.10750E+00 7.69961E-02-4.65853E+00-2.40859E-13-2.89945E-13
 -1      3629 1.78997E+01-2.29648E+00 3.42639E-02-4.07333E+00-3.54923E-13 5.42014E-14
 -1      3630 1.75802E+01-1.81092E+00-4.69410E-04 3.79056E+00 1.30049E-13 5.01682E-15
 -1      3631 2.40748E+01-2.95627E+00-8.10096E-03-2.00493E-01-1.07241E-13-1.01169E-13
 -1      3632 2.13261E+01-2.18640E+00 4.01365E-02 3.70378E+00-4.12151E-13-5.11726E-14
 -1      3633 2.02781E+01 1.14101E+00-4.89950E-03 4.93824E-01 2.28029E-13-1.91660E-13
 -1      3634 2.02664E+01 1.28547E+00-1.57142E-04 4.54165E-01 2.05670E-13-2.25148E-13
 -1      3635 2.02037E+01 1.63883E+00-3.33609E-03 1.30662E-01 6.72538E-14-3.31945E-13
 -1      3636 2.01997E+01 1.65881E+00-2.62287E-03 3.99499E-02 4.01277E-14-3.44124E-13
 -1      3637 2.35238E+01-2.86413E+00 3.75346E-02-7.16305E-01-1.74397E-13-1.53563E-13
 -1      3638 2.02452E+01 1.45734E+00 3.07688E-03-6.05687E-01-1.85390E-13-2.45352E-13
 -1      3639 1.99049E+01-2.00629E+00 5.22573E-02-4.38158E+00 1.87784E-15 4.24090E-13
 -1      3640 2.01387E+01 1.92358E+00 4.97684E-03-9.47441E-02 2.39222E-14-3.82859E-13
 -1      3641 2.36425E+01-3.25367E+00 5.18575E-03 2.39568E+00-1.36120E-13-1.91746E-13
 -1      3642 2.02125E+01 1.60577E+00-2.01239E-03 2.01809E-01 8.11548E-14-3.29598E-13
 -1      3643 2.02865E+01 1.38464E+00 4.75866E-03 1.33765E-01 6.89147E-14-3.08648E-13
 -1      3644 2.02230E+01 1.54735E+00-3.96579E-03 2.85757E-01 1.25144E-13-2.77721E-13
 -1      3645 2.27794E+01-3.18474E+00-4.66794E-02-1.56271E+00-1.80044E-13-2.25204E-13
 -1      3646 1.37185E+01-8.75661E-02 6.06487E-03-2.65956E+00-2.09704E-13-5.13964E-14
 -1      3647 1.42209E+01-5.72542E-01 8.44018E-02-3.47469E+00-2.22444E-13-1.14398E-13
 -1      3648 1.58775E+01-9.40780E-01 1.66175E-02-3.49577E+00-3.94830E-13-5.40540E-15
 -1      3649 2.02461E+01 1.43227E+00 1.56456E-03-4.96622E-01-1.44050E-13-2.14820E-13
 -1      3650 2.18843E+01-2.39147E+00-2.49578E-02 3.36568E+00-2.09138E-13-3.43128E-14
 -1      3651 2.03063E+01 9.67853E-01-3.26922E-03-3.12405E-01-1.11305E-13-1.68872E-13
 -1      3652 1.50533E+01-9.71144E-01 4.63921E-02 3.58612E+00 2.62134E-13-2.14516E-13
 -1      3653 1.32147E+01-8.59100E-01 1.03084E-01 3.60870E+00 1.83811E-13-1.31284E-13
 -1      3654 1.27170E+01-3.28749E-01 3.10310E-02 2.83121E+00 1.31293E-13-9.24746E-14
 -1      3655 2.29572E+01-2.13777E+00 2.73010E-02 1.74160E+00 3.71660E-14-4.17442E-13
 -1      3656 2.34616E+01-2.52765E+00-1.87590E-02 1.39405E+00-7.10201E-14-2.04901E-13
 -1      3657 2.22880E+01-1.65632E+00-5.98159E-03 1.95725E+00-4.50009E-14-4.04336E-13
 -1      3658 2.02270E+01 1.52082E+00-3.21031E-03-4.33501E-01-1.17014E-13-1.79993E-13
 -1      3659 2.02746E+01 1.36304E+00 5.83200E-03-3.98716E-01-1.04728E-13-1.84717E-13
 -1      3660 2.02059E+01 1.60802E+00-4.08278E-03-3.58888E-01-5.12482E-14-2.14216E-13
 -1      3661 1.78811E+01-1.38248E+00-3.73734E-02-4.54173E+00-8.84666E-14 6.25215E-13
 -1      3662 2.03307E+01 5.80157E-01 1.01700E-03-1.15611E-01-7.60374E-14-9.11141E-14
 -1      3663 2.15118E+01-3.70800E+00-4.66573E-03-3.29273E+00-2.54574E-13-2.17890E-14
 -1      3664 2.24479E+01-3.29531E+00 3.97013E-02-2.17130E+00-2.30107E-13-2.21270E-13
 -1      3665 2.20526E+01-2.89548E+00 2.16536E-02-2.06189E+00-2.24285E-13-2.64563E-13
 -1      3666 2.03475E+01-3.10405E+00 9.70497E-03-3.49316E+00-1.81851E-13 1.33650E-13
 -1      3667 2.03059E+01 5.74316E-01-7.10068E-05 1.44596E-01 1.57456E-13-1.73857E-13
 -1      3668 2.02678E+01 5.62361E-01-2.10568E-03 1.72148E-01 1.62618E-13-1.54290E-13
 -1      3669 2.37569E+01-3.05472E+00-4.82523E-02 1.79943E+00-1.31861E-14-3.79240E-13
 -1      3670 2.02866E+01 6.85818E-01 1.14304E-03 2.68589E-01 1.91086E-13-1.88906E-13
 -1      3671 2.02475E+01 1.61879E-01-6.73050E-04-7.81479E-02 9.76757E-14-1.28710E-13
 -1      3672 2.24753E+01-2.10929E+00-1.65880E-02 2.37185E+00-7.65507E-14-4.82303E-13
 -1      3673 2.02816E+01 1.41988E+00 5.01521E-03 1.76620E-03 4.53198E-14-3.36045E-13
 -1      3674 2.01993E+01 1.65965E+00-2.63803E-03-3.48047E-02 3.82349E-14-3.57765E-13
 -1      3675 2.02032E+01 1.64164E+00-3.13214E-03-1.25167E-01 1.20071E-14-3.58449E-13
 -1      3676 2.03058E+01 8.71600E-01 1.13293E-03 2.99782E-01 2.00990E-13-1.89254E-13
 -1      3677 2.02856E+01 8.22486E-01 1.89673E-03 3.38499E-01 2.24854E-13-1.83047E-13
 -1      3678 2.03355E+01 2.16275E-01 1.33276E-03 4.70164E-02-6.30841E-14-7.06968E-14
 -1      3679 2.03150E+01 1.41816E-01-1.03731E-03 7.63303E-02-6.83737E-14-8.31914E-14
 -1      3680 2.02999E+01 8.31864E-02 1.06545E-03 9.25745E-02-4.50674E-14-6.83467E-14
 -1      3681 2.02785E+01 3.54428E-02-5.05964E-04 1.08097E-01-3.99537E-14-6.01072E-14
 -1      3682 2.03418E+01 1.31785E-01-1.23590E-04 6.85203E-02-4.70769E-14-8.68765E-14
 -1      3683 2.02594E+01-8.47776E-04 7.82524E-04 1.15134E-01-5.53507E-14-9.06061E-14
 -1      3684 2.02392E+01-2.91540E-02-1.27935E-04 1.21211E-01-3.83385E-14-1.05221E-13
 -1      3685 2.03032E+01 2.63930E-02-3.73282E-04 9.40874E-02-4.69509E-14-9.00872E-14
 -1      3686 2.02187E+01-4.93714E-02 5.33421E-04 1.22192E-01-1.80727E-14-1.28039E-13
 -1      3687 2.02007E+01-6.37418E-02 1.23300E-04 1.22322E-01-2.81654E-14-1.89617E-13
 -1      3688 2.02610E+01-3.68939E-02-4.92631E-04 1.04415E-01-6.13237E-14-1.46393E-13
 -1      3689 2.01807E+01-7.25093E-02 3.25515E-04 1.19745E-01-4.10809E-14-1.74544E-13
 -1      3690 2.01651E+01-7.69490E-02 2.80502E-04 1.16614E-01-2.67952E-14-1.89088E-13
 -1      3691 2.02193E+01-6.97654E-02-5.25540E-04 1.04983E-01-5.03338E-14-1.61207E-13
 -1      3692 2.01464E+01-7.75572E-02 1.53917E-04 1.12409E-01-2.43520E-14-1.84492E-13
 -1      3693 2.01332E+01-7.49115E-02 3.68396E-04 1.08043E-01-7.28527E-14-1.70618E-13
 -1      3694 2.01803E+01-8.08279E-02-5.01435E-04 1.00111E-01-1.96739E-14-1.78432E-13
 -1      3695 2.01160E+01-6.96717E-02 1.02282E-05 1.03644E-01-1.08756E-13-1.41722E-13
 -1      3696 2.01050E+01-6.18564E-02 4.11445E-04 9.95333E-02-1.22723E-13-1.31593E-13
 -1      3697 2.01449E+01-7.62388E-02-4.33351E-04 9.31423E-02-7.40850E-14-1.86090E-13
 -1      3698 2.00893E+01-5.22288E-02-1.17283E-04 9.60004E-02-1.02581E-13-1.09364E-13
 -1      3699 2.00799E+01-4.03998E-02 4.29977E-04 9.32818E-02-8.85129E-14-9.72885E-14
 -1      3700 2.01130E+01-6.02166E-02-3.40370E-04 8.65232E-02-6.47307E-14-6.54931E-14
 -1      3701 2.00651E+01-2.72146E-02-2.38138E-04 9.14468E-02-1.10764E-13-3.22306E-14
 -1      3702 2.00568E+01-1.19587E-02 4.33157E-04 9.10243E-02-1.21427E-13 3.33198E-14
 -1      3703 2.00839E+01-3.53149E-02-2.27033E-04 8.21383E-02-3.65013E-14-6.02208E-15
 -1      3704 2.00422E+01 4.44100E-03-3.63353E-04 9.15679E-02-9.75948E-14 9.68672E-14
 -1      3705 2.00342E+01 2.29763E-02 4.28208E-04 9.42072E-02-5.44683E-14 1.01092E-13
 -1      3706 2.00563E+01-2.86193E-03-9.33862E-05 8.14888E-02-4.10805E-14 8.46484E-14
 -1      3707 2.00189E+01 4.26238E-02-5.02983E-04 9.77266E-02-5.04538E-14 8.48384E-14
 -1      3708 2.00105E+01 6.46256E-02 4.19033E-04 1.04132E-01-6.54047E-14 1.29593E-13
 -1      3709 2.00285E+01 3.67509E-02 6.18511E-05 8.58233E-02-5.81428E-14 1.07041E-13
 -1      3710 1.99932E+01 8.78287E-02-6.65536E-04 1.11197E-01-1.35205E-15 1.62341E-13
 -1      3711 1.99833E+01 1.13716E-01 4.05885E-04 1.22058E-01 4.31833E-14 2.00773E-13
 -1      3712 1.99983E+01 8.38513E-02 2.44019E-04 9.62642E-02 2.16066E-14 1.46838E-13
 -1      3713 1.99626E+01 1.40960E-01-8.58817E-04 1.33240E-01 2.25488E-14 1.68227E-13
 -1      3714 1.99501E+01 1.71284E-01 3.85725E-04 1.49259E-01-6.92726E-14 1.33366E-13
 -1      3715 1.99631E+01 1.39259E-01 4.61380E-04 1.13883E-01-9.53844E-15 1.30157E-13
 -1      3716 1.99241E+01 2.03130E-01-1.09012E-03 1.65136E-01-1.59852E-13 1.31049E-13
 -1      3717 1.99076E+01 2.38459E-01 3.52621E-04 1.87025E-01-6.31444E-14 1.11370E-13
 -1      3718 1.99197E+01 2.04061E-01 7.24768E-04 1.39726E-01-1.13718E-13 5.77231E-14
 -1      3719 1.98742E+01 2.75421E-01-1.36648E-03 2.08174E-01-6.70911E-15 1.20357E-13
 -1      3720 1.98518E+01 3.16207E-01 2.98470E-04 2.36633E-01 5.21526E-14 2.65949E-14
 -1      3721 1.98643E+01 2.79373E-01 1.04756E-03 1.74804E-01-6.45474E-14 2.34039E-13
 -1      3722 1.98086E+01 3.58596E-01-1.69556E-03 2.63599E-01 9.49967E-14-3.91323E-14
 -1      3723 1.97782E+01 4.04987E-01 2.14686E-04 2.99283E-01 6.80911E-14-6.56779E-14
 -1      3724 1.97924E+01 3.66042E-01 1.44580E-03 2.20040E-01-1.19015E-14 8.24437E-14
 -1      3725 1.97220E+01 4.52697E-01-2.08751E-03 3.32556E-01 6.86377E-14-6.90312E-14
 -1      3726 1.96810E+01 5.04293E-01 9.58800E-05 3.76037E-01 1.01241E-13-9.80613E-14
 -1      3727 1.96983E+01 4.64275E-01 1.93847E-03 2.76211E-01 4.85337E-14-3.47007E-14
 -1      3728 1.96083E+01 5.56498E-01-2.55918E-03 4.16052E-01 1.00561E-13-1.21801E-13
 -1      3729 1.95537E+01 6.12005E-01-5.28955E-05 4.67822E-01 4.68501E-14-5.75293E-14
 -1      3730 1.95757E+01 5.73151E-01 2.54815E-03 3.43901E-01 6.77379E-14 1.48475E-14
 -1      3731 1.94600E+01 6.66738E-01-3.14217E-03 5.15040E-01 4.55529E-14-7.68985E-14
 -1      3732 1.93885E+01 7.23503E-01-2.02993E-04 5.75629E-01 1.16582E-13-2.87564E-14
 -1      3733 1.94167E+01 6.89987E-01 3.30252E-03 4.23569E-01 7.20882E-14-1.02308E-13
 -1      3734 1.92687E+01 7.77070E-01-3.89730E-03 6.30798E-01 9.08761E-14-1.05452E-13
 -1      3735 1.91768E+01 8.30440E-01-2.80421E-04 7.01108E-01 8.72847E-14-6.66606E-14
 -1      3736 1.92119E+01 8.09519E-01 4.23732E-03 5.15875E-01 8.28163E-14 9.19696E-15
 -1      3737 1.90244E+01 8.76608E-01-4.93812E-03 7.65876E-01 1.54180E-13-9.89662E-14
 -1      3738 1.89095E+01 9.19079E-01-1.35763E-04 8.47942E-01 1.58513E-13 2.94026E-14
 -1      3739 1.89503E+01 9.22867E-01 5.40062E-03 6.22526E-01 1.49220E-13-3.59738E-14
 -1      3740 1.87166E+01 9.47977E-01-6.46565E-03 9.26036E-01 6.34012E-14 1.14078E-13
 -1      3741 1.85779E+01 9.68044E-01 4.86507E-04 1.02446E+00 7.91481E-14 1.05444E-13
 -1      3742 1.86185E+01 1.01621E+00 6.85628E-03 7.48068E-01 1.68203E-13 6.35171E-14
 -1      3743 1.83340E+01 9.64716E-01-8.80922E-03 1.12367E+00-5.91941E-14 6.35822E-14
 -1      3744 1.81749E+01 9.45732E-01 2.26026E-03 1.24803E+00-8.30170E-14 8.99505E-14
 -1      3745 1.82001E+01 1.06911E+00 8.71776E-03 9.03075E-01-2.34294E-14 1.35528E-13
 -1      3746 1.78655E+01 8.87952E-01-1.22745E-02 1.38490E+00-6.04729E-14 5.51192E-14
 -1      3747 1.76987E+01 8.03389E-01 6.04532E-03 1.55355E+00-2.31477E-14 5.04925E-14
 -1      3748 1.76734E+01 1.05373E+00 1.15390E-02 1.10980E+00-1.05523E-13 9.96497E-14
 -1      3749 1.73064E+01 6.57527E-01-1.67208E-02 1.75682E+00-8.16434E-14-8.98910E-14
 -1      3750 1.71619E+01 4.68988E-01 1.40668E-02 2.00063E+00-1.23460E-13-1.65245E-13
 -1      3751 1.70094E+01 9.27045E-01 1.61398E-02 1.41527E+00-1.52609E-13-8.89553E-14
 -1      3752 1.66647E+01 1.89771E-01-1.88013E-02 2.32114E+00-3.96597E-14-2.03241E-13
 -1      3753 1.66074E+01-1.90506E-01 2.56007E-02 2.69538E+00 1.44622E-13-2.18233E-13
 -1      3754 1.61715E+01 6.16719E-01 2.25780E-02 1.89353E+00-2.76489E-14-4.72915E-14
 -1      3755 2.00699E+01-4.30277E-02 4.62335E-04-1.02842E-01-3.56083E-14 4.44604E-14
 -1      3756 2.00770E+01-5.33549E-02-1.26938E-04-1.06506E-01-1.89750E-14 1.11960E-13
 -1      3757 2.00337E+01 1.24624E-02 4.94153E-04-1.00682E-01-2.53759E-14-4.16895E-14
 -1      3758 2.00388E+01-3.78171E-03-3.62273E-04-9.88311E-02-3.81315E-14-2.86592E-14
 -1      3759 2.02514E+01 1.38246E+00-4.66910E-03 4.14196E-01 1.80768E-13-2.64997E-13
 -1      3760 2.02378E+01 1.48168E+00-1.27217E-03 3.45508E-01 1.60279E-13-2.65302E-13
 -1      3761 2.02966E+01 1.28292E+00 3.95545E-03 2.50116E-01 1.29375E-13-2.34619E-13
 -1      3762 2.00512E+01-1.81044E-02 4.79352E-04-9.89012E-02-3.63334E-14 2.19475E-14
 -1      3763 2.00570E+01-3.15245E-02-2.45357E-04-1.00221E-01-6.99378E-15 5.99692E-14
 -1      3764 2.00777E+01-3.95952E-02-2.45882E-04-9.31690E-02-2.14790E-14 1.12214E-13
 -1      3765 2.00541E+01-1.07972E-02-1.34162E-04-9.11603E-02-1.27889E-14 1.51538E-13
 -1      3766 2.00910E+01-6.16013E-02 4.32093E-04-1.10886E-01 1.19930E-14 1.15860E-13
 -1      3767 2.00997E+01-6.81756E-02 2.38381E-06-1.15909E-01 9.59424E-14 6.68307E-14
 -1      3768 2.01033E+01-6.14638E-02-3.46922E-04-9.91904E-02 2.24312E-14 1.43889E-13
 -1      3769 2.00162E+01 4.85610E-02 5.13617E-04-1.09641E-01 2.50350E-14 1.57796E-14
 -1      3770 2.00211E+01 2.94872E-02-4.87282E-04-1.03864E-01-1.21835E-14-3.47823E-15
 -1      3771 2.00312E+01 2.42822E-02-1.04761E-05-9.46532E-02 7.28845E-15 9.74787E-14
 -1      3772 1.99970E+01 9.04407E-02 5.42471E-04-1.27210E-01-2.30537E-15-7.69323E-14
 -1      3773 2.00024E+01 6.83765E-02-6.28475E-04-1.16761E-01 5.42641E-14-4.36616E-14
 -1      3774 2.00071E+01 6.55998E-02 1.26791E-04-1.05019E-01 3.67649E-14 2.77452E-14
 -1      3775 1.99746E+01 1.38460E-01 5.84069E-04-1.54878E-01 4.77737E-14-1.17460E-13
 -1      3776 1.99810E+01 1.13221E-01-7.91644E-04-1.38987E-01-8.54419E-16-1.46332E-13
 -1      3777 1.99800E+01 1.13456E-01 2.79888E-04-1.23633E-01 2.67701E-14-4.88088E-14
 -1      3778 1.99471E+01 1.92794E-01 6.41469E-04-1.94237E-01-5.18291E-14 3.92721E-14
 -1      3779 1.99552E+01 1.64324E-01-9.80109E-04-1.72100E-01 1.44299E-14-9.63431E-14
 -1      3780 1.99477E+01 1.68213E-01 4.50345E-04-1.51963E-01 1.17041E-14-7.74563E-14
 -1      3781 1.99127E+01 2.53071E-01 7.18947E-04-2.46991E-01-4.55977E-14 4.55067E-14
 -1      3782 1.99231E+01 2.21639E-01-1.19406E-03-2.17777E-01-3.47430E-14 5.66517E-14
 -1      3783 1.99080E+01 2.29962E-01 6.37336E-04-1.91616E-01-4.82174E-14-4.62856E-14
 -1      3784 1.98697E+01 3.17900E-01 8.24364E-04-3.14924E-01-2.49497E-15 8.55113E-14
 -1      3785 1.98829E+01 2.84350E-01-1.42957E-03-2.77814E-01-1.29877E-14 5.55836E-14
 -1      3786 1.98583E+01 2.98121E-01 8.35458E-04-2.44374E-01-3.64133E-14-1.34937E-14
 -1      3787 1.98170E+01 3.84257E-01 9.72915E-04-3.99857E-01 6.40432E-14 4.86300E-14
 -1      3788 1.98330E+01 3.50338E-01-1.67728E-03-3.54090E-01 4.34894E-14 6.20600E-14
 -1      3789 1.97965E+01 3.70906E-01 1.03152E-03-3.12215E-01 1.47040E-14 9.23022E-15
 -1      3790 1.97542E+01 4.46685E-01 1.19286E-03-5.03602E-01 1.82563E-14 1.24406E-13
 -1      3791 1.97726E+01 4.15471E-01-1.92041E-03-4.48534E-01 3.71616E-14 1.27446E-13
 -1      3792 1.97205E+01 4.44666E-01 1.19988E-03-3.97363E-01-6.29333E-15-3.77181E-14
 -1      3793 1.96828E+01 4.96280E-01 1.53368E-03-6.27941E-01-8.78029E-14 3.07557E-14
 -1      3794 1.97021E+01 4.72708E-01-2.13161E-03-5.63105E-01 2.80752E-14 9.51565E-14
 -1      3795 1.96295E+01 5.13025E-01 1.29534E-03-5.02370E-01 3.23308E-14 2.50942E-14
 -1      3796 1.96077E+01 5.19461E-01 2.07634E-03-7.74657E-01-4.74178E-14-1.81230E-14
 -1      3797 1.96243E+01 5.10967E-01-2.26645E-03-6.99813E-01-7.11683E-14 3.67636E-14
 -1      3798 1.95244E+01 5.65822E-01 1.24232E-03-6.30324E-01-4.93864E-14 1.49939E-14
 -1      3799 1.95389E+01 4.96532E-01 2.94341E-03-9.45589E-01 1.12936E-14-2.53094E-14
 -1      3800 1.95460E+01 5.13797E-01-2.24853E-03-8.60812E-01 6.06989E-15 1.16357E-14
 -1      3801 1.94090E+01 5.87812E-01 9.16962E-04-7.85191E-01 4.74843E-16-1.31457E-13
 -1      3802 1.94948E+01 4.00155E-01 4.29426E-03-1.14253E+00 5.61197E-14-4.26076E-14
 -1      3803 1.94807E+01 4.57889E-01-1.93329E-03-1.04847E+00-4.31014E-15 4.19208E-14
 -1      3804 1.92928E+01 5.57132E-01 1.15182E-04-9.72327E-01 9.95116E-15-1.18285E-13
 -1      3805 1.95073E+01 1.93906E-01 6.22846E-03-1.36625E+00 7.70510E-14-1.87707E-14
 -1      3806 1.94530E+01 3.11616E-01-1.02252E-03-1.26502E+00 4.51616E-14-2.22458E-14
 -1      3807 1.91933E+01 4.43431E-01-1.51323E-03-1.19898E+00 1.08177E-14-6.10079E-14
 -1      3808 1.96283E+01-1.67158E-01 8.86111E-03-1.61243E+00-2.67450E-14 1.96072E-14
 -1      3809 1.95046E+01 3.41208E-02 1.08725E-03-1.51024E+00 1.09536E-13 9.17070E-14
 -1      3810 1.91428E+01 2.05324E-01-4.59186E-03-1.47366E+00 1.28071E-14 1.92108E-13
 -1      3811 1.99368E+01-7.32994E-01 1.13744E-02-1.86331E+00-1.04270E-13-1.01159E-13
 -1      3812 1.97032E+01-4.22361E-01 5.37946E-03-1.77587E+00-5.39719E-14-1.38442E-14
 -1      3813 1.91965E+01-2.08024E-01-9.56444E-03-1.80182E+00-8.72653E-15 1.38645E-13
 -1      3814 2.05510E+01-1.53152E+00 1.52826E-02-2.06046E+00-4.05032E-14-1.83819E-13
 -1      3815 2.01566E+01-1.10629E+00 1.36996E-02-2.02594E+00-1.21875E-13-2.08737E-13
 -1      3816 1.94518E+01-8.58541E-01-1.58853E-02-2.17953E+00-4.45915E-14 2.42076E-14
 -1      3817 2.14828E+01-2.43724E+00 1.18021E-02-2.07958E+00-9.43638E-14-2.52335E-13
 -1      3818 2.09045E+01-1.94351E+00 2.25964E-02-2.16654E+00-3.48723E-15-2.34215E-13
 -1      3819 1.99771E+01-1.67559E+00-2.10793E-02-2.48508E+00 6.36405E-15-1.85709E-13
 -1      3820 2.08560E+01-2.65652E+00-1.74746E-02-2.72758E+00-1.56992E-13-1.27400E-13
 -1      3821 2.02097E+01 1.61191E+00-1.81570E-03-1.96998E-01-1.62511E-14-3.46437E-13
 -1      3822 2.02216E+01 1.56036E+00-1.59267E-03-2.77902E-01-3.71925E-14-3.11105E-13
 -1      3823 2.02865E+01 1.39023E+00 5.86359E-03-1.32177E-01-6.48601E-15-3.16341E-13
 -1      3824 2.29988E+01-2.80585E+00 4.60863E-02 2.74162E+00-9.64819E-14-2.43815E-13
 -1      3825 2.23138E+01-2.19606E+00 1.39022E-02 2.77613E+00-1.38866E-13-1.18132E-13
 -1      3826 2.02719E+01 9.55643E-01 1.88330E-03 4.63946E-01 2.22168E-13-1.78660E-13
 -1      3827 2.02988E+01 1.05819E+00-4.70018E-03-2.71195E-01-7.20611E-14-1.51778E-13
 -1      3828 2.03650E+01 7.03913E-01 4.54671E-03-1.45461E-01-4.51140E-14-1.09104E-13
 -1      3829 2.03515E+01 5.43284E-01-3.50629E-03-7.49648E-02-4.22898E-14-9.42679E-14
 -1      3830 2.03584E+01 4.16067E-01 1.48478E-03-2.99751E-02-7.02880E-14-5.90971E-14
 -1      3831 2.03423E+01 3.05454E-01-1.75881E-03 1.78795E-02-7.32956E-14-6.46707E-14
 -1      3832 2.03702E+01 2.94347E-01 2.48232E-04 2.11290E-02-7.52466E-14-5.57877E-14
 -1      3833 2.01756E+01-5.75482E-02 1.11552E-04-1.37118E-01 3.32183E-14-6.72434E-14
 -1      3834 2.01918E+01-4.25403E-02 6.15179E-04-1.36830E-01 6.76118E-14-7.41316E-14
 -1      3835 2.03138E+01 3.13217E-01-1.90538E-03-1.04371E-02 9.59356E-14-1.64861E-13
 -1      3836 2.03335E+01 4.24063E-01 1.95125E-03 4.54353E-02 1.12587E-13-1.69254E-13
 -1      3837 2.02845E+01 1.49656E-01-1.14721E-03-8.02844E-02 7.43056E-14-1.29337E-13
 -1      3838 2.03066E+01 2.24228E-01 1.68610E-03-4.62649E-02 7.71374E-14-1.57726E-13
 -1      3839 2.03473E+01 3.07684E-01 1.45702E-04-1.57068E-02 8.93450E-14-1.67462E-13
 -1      3840 1.89386E+01-1.77490E+00-3.60145E-03-4.56559E+00-2.06918E-14 4.39009E-13
 -1      3841 2.03047E+01 1.11413E+00 3.00638E-03 3.36500E-01 1.87228E-13-2.14916E-13
 -1      3842 2.03273E+01 5.55834E-01-2.45960E-03 1.01249E-01 1.45333E-13-1.75628E-13
 -1      3843 2.03362E+01 7.15148E-01 1.14684E-03 1.84270E-01 1.77120E-13-1.77481E-13
 -1      3844 2.03587E+01 5.49921E-01 7.54809E-04 7.76735E-02 1.26934E-13-1.55619E-13
 -1      3845 2.03235E+01 8.30385E-01-7.53127E-04 2.24077E-01 1.90944E-13-1.90765E-13
 -1      3846 2.03173E+01 9.66972E-01-1.44429E-03 2.89942E-01 1.97639E-13-1.91048E-13
 -1      3847 2.03182E+01 1.06739E+00 5.53659E-04 2.60539E-01 1.69423E-13-2.24266E-13
 -1      3848 2.03474E+01 8.14553E-01 9.79864E-04 1.76994E-01 1.73073E-13-1.58602E-13
 -1      3849 1.62835E+01-6.72233E-01-1.90095E-02-3.07747E+00-2.28198E-13 6.82726E-14
 -1      3850 1.71444E+01-1.19824E+00 4.23685E-02-3.48494E+00-3.81703E-13-6.35004E-14
 -1      3851 1.50837E+01-6.54484E-03 3.19752E-02 2.67972E+00 2.11532E-13 2.92093E-14
 -1      3852 1.60198E+01-6.76412E-01-1.61455E-03 3.18551E+00 2.88897E-13-1.48862E-13
 -1      3853 1.67364E+01-1.12233E+00 5.88557E-02 3.53698E+00 2.99612E-13-2.03384E-13
 -1      3854 2.01319E+01-7.49153E-02-4.40030E-04-1.07473E-01 5.71395E-14 3.58081E-14
 -1      3855 2.01153E+01-7.22803E-02 3.76462E-04-1.21104E-01 1.12655E-13 6.71386E-15
 -1      3856 2.01262E+01-7.38700E-02 1.61229E-04-1.26239E-01 8.94752E-14-2.68997E-14
 -1      3857 2.02396E+01-2.93081E-02-5.29402E-04-1.19815E-01 8.15254E-14-7.44254E-14
 -1      3858 2.02111E+01-2.18932E-02-1.58945E-04-1.35031E-01 7.10934E-14-5.30054E-14
 -1      3859 2.02301E+01 6.83293E-03 9.30950E-04-1.27848E-01 8.34291E-14-6.68627E-14
 -1      3860 1.34109E+01 4.94531E-01 8.66830E-02-1.84112E+00-2.56052E-13-6.44276E-14
 -1      3861 1.46436E+01 1.31367E-01 1.69505E-02-2.36243E+00-3.00668E-13-2.97843E-14
 -1      3862 2.03791E+01 5.32526E-01 6.87261E-04-5.52604E-02-3.77702E-14-9.40149E-14
 -1      3863 2.03202E+01 1.19435E+00-2.53150E-03 3.18761E-02 5.89538E-14-3.14813E-13
 -1      3864 2.03199E+01 1.19498E+00-2.53299E-03-2.91592E-02 3.11564E-14-3.41116E-13
 -1      3865 2.02805E+01 1.39977E+00 5.70381E-03-2.66032E-01-4.17999E-14-2.56314E-13
 -1      3866 1.90089E+01-2.50623E+00 2.38411E-02-3.80046E+00-2.03729E-13 2.56978E-13
 -1      3867 2.02141E+01-2.59504E+00 2.23140E-02-3.15886E+00-2.14818E-13 4.32833E-14
 -1      3868 1.96654E+01-2.05575E+00 1.26153E-02-3.02792E+00-1.04093E-13-9.71185E-15
 -1      3869 1.77159E+01-1.82046E+00-1.03340E-02-3.69340E+00-3.62597E-13 2.39322E-14
 -1      3870 2.03228E+01 1.14732E+00-2.53431E-03 1.34419E-01 7.73889E-14-2.87266E-13
 -1      3871 2.03215E+01 1.18098E+00-1.72509E-03 7.82342E-02 6.14448E-14-3.11266E-13
 -1      3872 2.03740E+01 9.94892E-01 4.17960E-03 4.06691E-02 6.18057E-14-3.09061E-13
 -1      3873 2.03240E+01 1.03125E+00-1.12196E-03-2.18185E-01-4.42998E-14-1.63553E-13
 -1      3874 1.37182E+01 5.68640E-02 5.52225E-02 2.38161E+00 1.62254E-13 5.14415E-14
 -1      3875 1.21124E+01 2.27129E-01 9.36852E-02 1.99064E+00 4.15640E-15 4.42008E-15
 -1      3876 1.17750E+01 4.45221E-01 1.19303E-02 8.05400E-01-5.47912E-14 9.39249E-14
 -1      3877 2.02697E+01 9.11898E-02 1.29923E-03-1.00579E-01 6.32290E-14-1.20252E-13
 -1      3878 2.03179E+01 1.42849E-01-2.38904E-04-7.43193E-02 6.04469E-14-1.27829E-13
 -1      3879 2.02484E+01 4.32543E-02-5.66332E-04-1.18670E-01 7.41221E-14-9.70432E-14
 -1      3880 1.81620E+01-1.42042E+00 1.37748E-02-3.23631E+00-1.96221E-13-9.93186E-14
 -1      3881 1.20384E+01 7.20031E-01 9.05033E-02-2.32399E-01-1.59815E-13-4.17479E-14
 -1      3882 1.25385E+01 5.39792E-01-2.15854E-03-1.16960E+00-1.56326E-13 1.12549E-14
 -1      3883 1.34456E+01 7.01910E-01-2.59145E-02-9.88074E-01-2.57001E-13 2.74086E-14
 -1      3884 2.01435E+01-7.23071E-02 2.77595E-04-1.30975E-01 7.90132E-14-2.30783E-14
 -1      3885 2.01569E+01-6.70049E-02 3.60082E-04-1.34525E-01 5.80853E-14-5.27174E-14
 -1      3886 2.02004E+01-6.40261E-02-5.40058E-04-1.21224E-01 3.62497E-14-5.14540E-14
 -1      3887 1.42992E+01 4.07928E-01-9.79123E-03 1.93392E+00 1.77239E-13 1.08268E-13
 -1      3888 2.03744E+01 9.94524E-01 4.04730E-03-3.77870E-02 2.64963E-14-3.07788E-13
 -1      3889 2.03217E+01 1.18036E+00-2.08771E-03-7.48203E-02 1.90448E-14-3.08047E-13
 -1      3890 2.03248E+01 1.14131E+00-4.08436E-03-1.34991E-01-4.94792E-15-2.97799E-13
 -1      3891 2.00285E+01 3.68542E-02 3.63395E-04-8.40329E-02 2.56869E-14 1.45973E-13
 -1      3892 2.00397E+01 1.63484E-02-3.52562E-04-8.06136E-02-6.45581E-15 1.40694E-13
 -1      3893 2.03419E+01 5.30220E-02 6.15227E-04 7.11996E-02-2.53242E-14-1.46380E-13
 -1      3894 2.03201E+01 9.51518E-03-2.78503E-04 8.06975E-02-5.29757E-14-1.65658E-13
 -1      3895 2.02988E+01-2.33251E-02 4.97801E-04 8.33718E-02-7.17329E-14-1.53207E-13
 -1      3896 2.02768E+01-4.80565E-02 8.51864E-06 8.67818E-02-7.84674E-14-1.53908E-13
 -1      3897 2.03307E+01-1.79011E-03-3.87667E-04 6.30450E-02-6.43751E-14-1.25394E-13
 -1      3898 2.02540E+01-6.51769E-02 3.72266E-04 8.62013E-02-6.41993E-14-1.26169E-13
 -1      3899 2.02332E+01-7.63837E-02 1.85826E-04 8.58776E-02-2.57575E-14-1.15804E-13
 -1      3900 2.02851E+01-5.57448E-02-4.97708E-04 6.71948E-02-7.83057E-14-9.37303E-14
 -1      3901 2.02109E+01-8.21792E-02 2.53519E-04 8.34874E-02-2.67284E-14-1.53607E-13
 -1      3902 2.01919E+01-8.35980E-02 2.91450E-04 8.12759E-02-4.60796E-14-1.80449E-13
 -1      3903 2.02394E+01-8.08021E-02-5.21693E-04 6.63171E-02-4.45546E-14-9.95715E-14
 -1      3904 2.01709E+01-8.13273E-02 1.38689E-04 7.83248E-02-1.69979E-14-1.80024E-13
 -1      3905 2.01540E+01-7.57492E-02 3.35106E-04 7.55589E-02-4.34474E-14-1.30459E-13
 -1      3906 2.01961E+01-8.49576E-02-4.83472E-04 6.28096E-02-2.41874E-14-1.25563E-13
 -1      3907 2.01343E+01-6.75219E-02 2.32712E-05 7.27999E-02-6.03302E-14-1.20681E-13
 -1      3908 2.01192E+01-5.66532E-02 3.48235E-04 7.05457E-02-3.86210E-14-7.49775E-14
 -1      3909 2.01560E+01-7.41242E-02-4.15532E-04 5.87032E-02-1.88413E-14-1.11665E-13
 -1      3910 2.01006E+01-4.38080E-02-9.04111E-05 6.86651E-02-1.84762E-14-4.80572E-14
 -1      3911 2.00867E+01-2.86659E-02 3.33101E-04 6.77371E-02 1.80161E-14-3.47101E-14
 -1      3912 2.01188E+01-5.18545E-02-3.07302E-04 5.52839E-02 1.23850E-16-9.90001E-14
 -1      3913 2.00687E+01-1.19147E-02-2.09435E-04 6.72519E-02 7.01868E-16-6.16359E-14
 -1      3914 2.00552E+01 7.03978E-03 2.99113E-04 6.82996E-02-1.77852E-14-2.15363E-15
 -1      3915 2.00836E+01-2.03845E-02-1.64252E-04 5.37739E-02-3.23675E-15-8.67937E-14
 -1      3916 2.00367E+01 2.74840E-02-3.42848E-04 6.96217E-02-1.65958E-14 4.97393E-14
 -1      3917 2.00227E+01 5.02355E-02 2.50912E-04 7.32020E-02-3.82736E-14 6.75342E-14
 -1      3918 2.00487E+01 1.92279E-02 5.33836E-06 5.50294E-02-3.73807E-15-1.51927E-14
 -1      3919 2.00024E+01 7.45268E-02-4.95637E-04 7.67016E-02-1.94910E-14 1.10146E-13
 -1      3920 1.99867E+01 1.01370E-01 1.88748E-04 8.33213E-02 3.40850E-14 9.26836E-14
 -1      3921 2.00118E+01 6.68815E-02 2.04204E-04 5.97779E-02-5.10348E-15 7.15670E-14
 -1      3922 1.99631E+01 1.29910E-01-6.73342E-04 8.93411E-02 2.34320E-14 9.20197E-14
 -1      3923 1.99441E+01 1.61331E-01 1.09258E-04 9.94770E-02-2.56391E-14 5.07212E-14
 -1      3924 1.99702E+01 1.23119E-01 4.38994E-04 6.86571E-02-9.98115E-15 9.78898E-14
 -1      3925 1.99153E+01 1.94654E-01-8.81402E-04 1.08333E-01-1.07528E-13 5.86693E-14
 -1      3926 1.98913E+01 2.31208E-01 5.78325E-06 1.22430E-01-1.11529E-13 6.83497E-14
 -1      3927 1.99205E+01 1.88875E-01 7.19071E-04 8.22219E-02-8.17857E-14 6.85669E-14
 -1      3928 1.98552E+01 2.69852E-01-1.12510E-03 1.34397E-01-4.86922E-14 1.04345E-13
 -1      3929 1.98241E+01 3.12026E-01-1.31416E-04 1.52849E-01 4.77826E-14 1.99117E-13
 -1      3930 1.98587E+01 2.65211E-01 1.05651E-03 1.00922E-01-3.88039E-14 1.37781E-13
 -1      3931 1.97780E+01 3.56382E-01-1.41024E-03 1.68125E-01-3.75121E-14 1.95673E-13
 -1      3932 1.97372E+01 4.04425E-01-3.14701E-04 1.91238E-01-6.32742E-14 8.86013E-14
 -1      3933 1.97801E+01 3.53027E-01 1.46641E-03 1.25044E-01-1.70307E-14 1.29598E-13
 -1      3934 1.96781E+01 4.54555E-01-1.74500E-03 2.09910E-01-1.52854E-14 4.15074E-14
 -1      3935 1.96246E+01 5.08271E-01-5.58000E-04 2.37861E-01 1.45725E-14-9.96889E-15
 -1      3936 1.96789E+01 4.52716E-01 1.96786E-03 1.54630E-01-6.52643E-14 1.54897E-13
 -1      3937 1.95487E+01 5.63667E-01-2.14410E-03 2.59862E-01 1.54720E-14-1.39432E-14
 -1      3938 1.94788E+01 6.22158E-01-8.74678E-04 2.92688E-01 3.75278E-14-2.73673E-14
 -1      3939 1.95486E+01 5.63755E-01 2.58618E-03 1.89376E-01-1.53888E-14 6.84505E-14
 -1      3940 1.93818E+01 6.81451E-01-2.63731E-03 3.17795E-01 4.43935E-14-3.46171E-14
 -1      3941 1.92911E+01 7.42810E-01-1.27378E-03 3.55452E-01 5.97608E-14-8.36412E-14
 -1      3942 1.93814E+01 6.84226E-01 3.35757E-03 2.28572E-01 5.34891E-14-2.04938E-14
 -1      3943 1.91676E+01 8.03411E-01-3.28536E-03 3.83375E-01 4.62127E-14-5.99686E-14
 -1      3944 1.90510E+01 8.64368E-01-1.75378E-03 4.25966E-01 8.69051E-14-2.76533E-14
 -1      3945 1.91675E+01 8.10298E-01 4.33858E-03 2.71137E-01 6.99060E-14-1.46535E-14
 -1      3946 1.88938E+01 9.22054E-01-4.20808E-03 4.56628E-01 1.18581E-13-5.56078E-14
 -1      3947 1.87452E+01 9.77603E-01-2.29098E-03 5.04960E-01 2.14855E-13-1.68001E-14
 -1      3948 1.88950E+01 9.35710E-01 5.62484E-03 3.15902E-01 8.83918E-14 1.71886E-14
 -1      3949 1.85445E+01 1.02605E+00-5.62813E-03 5.39150E-01 2.37725E-13 4.96054E-14
 -1      3950 1.83567E+01 1.06904E+00-2.81706E-03 5.95838E-01 1.69748E-13 1.03679E-13
 -1      3951 1.85482E+01 1.05138E+00 7.38525E-03 3.62397E-01 2.40131E-13 5.97188E-14
 -1      3952 1.80982E+01 1.09923E+00-7.91876E-03 6.36544E-01 8.77093E-14 5.91799E-14
 -1      3953 1.78622E+01 1.11979E+00-3.25300E-03 7.07939E-01-1.23522E-14 6.71984E-14
 -1      3954 1.81049E+01 1.14515E+00 9.90997E-03 4.12592E-01 1.40552E-13 9.11321E-14
 -1      3955 1.75245E+01 1.11875E+00-1.16806E-02 7.61766E-01-1.12801E-13 1.53572E-13
 -1      3956 1.72255E+01 1.10563E+00-3.69954E-03 8.60901E-01-1.48284E-13 1.04540E-13
 -1      3957 1.75331E+01 1.20100E+00 1.37965E-02 4.74175E-01-4.96467E-14 1.32531E-13
 -1      3958 1.67759E+01 1.05369E+00-1.75097E-02 9.39950E-01-1.46856E-13 1.33303E-13
 -1      3959 1.63940E+01 9.85882E-01-4.43347E-03 1.08549E+00-1.40407E-13 1.31320E-13
 -1      3960 1.67997E+01 1.20397E+00 2.67899E-02 5.67745E-01-8.75328E-14 4.03650E-13
 -1      3961 1.57567E+01 8.73722E-01-2.65502E-02 1.24175E+00-1.02311E-13 1.08185E-13
 -1      3962 1.53295E+01 7.29711E-01 1.36177E-02 1.48391E+00 9.72718E-14 2.03733E-13
 -1      3963 1.57533E+01 1.16761E+00 4.87973E-02 7.30645E-01-5.93492E-14 5.83314E-13
 -1      3964 2.01137E+01-5.92132E-02 3.90516E-04-8.39963E-02-5.09401E-14 1.51348E-13
 -1      3965 2.01271E+01-6.87206E-02 2.51151E-05-8.70827E-02-2.91612E-14 9.69813E-14
 -1      3966 2.03219E+01 1.08295E+00-2.16839E-03 2.21964E-01 1.45253E-13-2.07646E-13
 -1      3967 2.03198E+01 1.14803E+00-1.07001E-03 1.74833E-01 9.09778E-14-2.15938E-13
 -1      3968 2.03662E+01 9.76024E-01 3.49570E-03 1.15656E-01 9.69492E-14-2.32865E-13
 -1      3969 2.03468E+01 9.54428E-01 1.72911E-03 1.83766E-01 1.55953E-13-1.81115E-13
 -1      3970 1.99640E+01 1.35350E-01 3.32155E-04-1.13521E-01 3.47711E-14 1.38255E-14
 -1      3971 1.99780E+01 1.07673E-01-6.73052E-04-1.02341E-01 5.58017E-14 4.04710E-14
 -1      3972 1.99227E+01 1.95790E-01 3.27016E-04-1.40952E-01-4.57531E-15 2.65700E-14
 -1      3973 1.99397E+01 1.64208E-01-8.74172E-04-1.24827E-01 2.58002E-14-7.39951E-16
 -1      3974 1.99416E+01 1.61944E-01 5.35419E-04-1.01958E-01 4.04409E-14 8.29320E-14
 -1      3975 1.98715E+01 2.63929E-01 3.35733E-04-1.78848E-01-1.38986E-14-3.40672E-14
 -1      3976 1.98927E+01 2.28444E-01-1.10942E-03-1.56976E-01 2.55164E-14 1.30303E-14
 -1      3977 1.98906E+01 2.29099E-01 7.86856E-04-1.27763E-01-4.98830E-15 9.92103E-14
 -1      3978 1.98077E+01 3.39111E-01 3.67465E-04-2.28990E-01-7.24532E-14-2.02728E-14
 -1      3979 1.98342E+01 3.00158E-01-1.38270E-03-2.00480E-01-4.96733E-14-7.73639E-14
 -1      3980 1.98272E+01 3.04614E-01 1.07037E-03-1.63189E-01-1.32840E-14-1.30668E-14
 -1      3981 1.97282E+01 4.19401E-01 4.38373E-04-2.93460E-01 4.05945E-14-3.05292E-14
 -1      3982 1.97611E+01 3.78123E-01-1.69704E-03-2.57308E-01 2.40561E-15-3.22090E-14
 -1      3983 1.97478E+01 3.87647E-01 1.38413E-03-2.10107E-01-4.67221E-14-5.53992E-14
 -1      3984 1.96307E+01 5.00904E-01 5.76727E-04-3.74751E-01-1.78418E-14-1.30895E-14
 -1      3985 1.96706E+01 4.59507E-01-2.05528E-03-3.29801E-01-2.56843E-14-6.14903E-14
 -1      3986 1.96489E+01 4.75940E-01 1.72105E-03-2.70838E-01 1.82305E-14-7.14542E-14
 -1      3987 1.95135E+01 5.76937E-01 8.30606E-04-4.75979E-01-4.53162E-14 9.23281E-14
 -1      3988 1.95604E+01 5.39122E-01-2.46119E-03-4.20832E-01-1.55378E-14 2.89182E-14
 -1      3989 1.95271E+01 5.65141E-01 2.06632E-03-3.48374E-01-5.49828E-14 8.91002E-14
 -1      3990 1.93767E+01 6.37018E-01 1.27919E-03-6.01247E-01-3.57213E-14 3.40844E-14
 -1      3991 1.94293E+01 6.08498E-01-2.92079E-03-5.34098E-01-1.87411E-14 5.11356E-14
 -1      3992 1.93795E+01 6.47985E-01 2.39388E-03-4.46726E-01 2.51735E-15 1.63030E-13
 -1      3993 1.92235E+01 6.65676E-01 2.04876E-03-7.56251E-01 3.03204E-14-5.14465E-14
 -1      3994 1.92781E+01 6.54782E-01-3.44239E-03-6.74619E-01-3.37655E-14-5.20261E-14
 -1      3995 1.92047E+01 7.13323E-01 2.66011E-03-5.71526E-01 1.84146E-14-2.38608E-14
 -1      3996 1.90618E+01 6.41043E-01 3.33806E-03-9.49175E-01-4.24400E-14 4.34760E-14
 -1      3997 1.91114E+01 6.59441E-01-4.03076E-03-8.49528E-01 3.80736E-14 3.45806E-14
 -1      3998 1.90033E+01 7.44997E-01 2.79055E-03-7.30978E-01 2.71522E-14 1.22373E-13
 -1      3999 1.89080E+01 5.33182E-01 5.51223E-03-1.19179E+00-8.98270E-14 1.51053E-13
 -1      4000 1.89395E+01 5.96741E-01-4.65823E-03-1.06923E+00-1.04608E-13 1.16895E-13
 -1      4001 1.87791E+01 7.20473E-01 2.65109E-03-9.37323E-01-1.15738E-13 1.56411E-13
 -1      4002 1.87918E+01 3.00663E-01 8.73596E-03-1.50063E+00-4.94900E-14 2.89570E-13
 -1      4003 1.87825E+01 4.31639E-01-5.14518E-03-1.34921E+00-3.43418E-14 1.71741E-13
 -1      4004 1.85419E+01 6.09091E-01 1.94839E-03-1.20922E+00-1.03564E-13 2.14777E-13
 -1      4005 1.87680E+01-1.12097E-01 1.31280E-02-1.89152E+00 6.70971E-14 1.67950E-13
 -1      4006 1.86822E+01 1.14134E-01-4.96893E-03-1.70817E+00 1.52094E-14 2.27828E-13
 -1      4007 1.83147E+01 3.64631E-01 8.62458E-05-1.57676E+00 7.11488E-14 1.95065E-13
 -1      4008 1.89287E+01-7.86889E-01 1.25457E-02-2.37807E+00 8.56856E-15-4.81115E-14
 -1      4009 1.87029E+01-4.15514E-01-4.61322E-03-2.15891E+00 1.06013E-13 8.58021E-14
 -1      4010 1.81553E+01-6.88018E-02 1.77380E-03-2.07106E+00 1.06207E-13 2.20966E-14
 -1      4011 2.03933E+01 6.30980E-01-8.16267E-04-7.38754E-02 1.98972E-14-2.06853E-13
 -1      4012 2.03948E+01 4.86589E-01-1.63137E-03-2.53796E-02 3.21452E-15-1.65946E-13
 -1      4013 2.03988E+01 3.63506E-01 5.36322E-04-1.11175E-03-4.84086E-14-1.37585E-13
 -1      4014 2.03872E+01 2.60696E-01-1.12393E-03 2.98463E-02-6.60295E-14-1.25368E-13
 -1      4015 2.04135E+01 4.57468E-01 6.35074E-04-1.40112E-02 2.99924E-15-2.45773E-13
 -1      4016 2.03684E+01 2.78748E-01-1.46140E-03-2.77676E-02 7.36139E-14-1.43887E-13
 -1      4017 2.03823E+01 3.84972E-01 1.13702E-03 1.01492E-02 1.00181E-13-1.41396E-13
 -1      4018 2.03781E+01 1.76548E-01 6.78368E-04 4.49077E-02-7.31834E-14-1.16459E-13
 -1      4019 2.03592E+01 1.07507E-01-6.83877E-04 6.33677E-02-4.28816E-14-1.24850E-13
 -1      4020 2.04030E+01 2.39445E-01 2.39687E-04 2.63278E-02-5.45693E-14-1.71043E-13
 -1      4021 1.49577E+01 3.68459E-01-3.61863E-02-1.95877E+00-2.30400E-13-5.79224E-14
 -1      4022 1.56102E+01-1.56480E-02 3.63434E-02-2.62913E+00-2.04861E-13 4.15969E-14
 -1      4023 1.66719E+01-3.02557E-01 1.46310E-02-2.65192E+00-2.70084E-14-7.88263E-14
 -1      4024 1.99984E+01 8.25120E-02 3.45642E-04-9.50047E-02 6.62475E-14 5.44422E-14
 -1      4025 2.00105E+01 5.85355E-02-5.01136E-04-8.80427E-02 7.75005E-14 1.00025E-13
 -1      4026 2.00197E+01 5.22408E-02 1.21250E-04-7.32599E-02 6.70542E-14 1.38222E-13
 -1      4027 2.03937E+01 8.26199E-01-1.24137E-03-1.08443E-02 4.19544E-14-3.31320E-13
 -1      4028 2.03900E+01 8.11018E-01-2.55122E-03-4.34856E-02 2.53164E-14-3.00333E-13
 -1      4029 2.01520E+01-7.53445E-02-4.18166E-04-7.44834E-02-5.07423E-14 4.33930E-14
 -1      4030 2.01458E+01-7.56643E-02 3.51068E-04-9.05622E-02 1.51065E-14 3.25738E-14
 -1      4031 2.01612E+01-8.00157E-02 1.40135E-04-9.41033E-02 3.64749E-14 5.01875E-15
 -1      4032 2.03370E+01 9.82998E-01-2.90389E-03-1.53876E-01-1.79098E-14-2.37883E-13
 -1      4033 1.41291E+01 8.09143E-01 3.82034E-02 1.21165E+00 6.55374E-14 3.17277E-13
 -1      4034 2.00963E+01-4.78261E-02-9.82452E-05-8.14307E-02-2.00401E-14 1.53711E-13
 -1      4035 2.01170E+01-5.58360E-02-3.21622E-04-6.96713E-02-3.50948E-14 9.20106E-14
 -1      4036 2.00843E+01-3.42165E-02 3.93214E-04-7.97629E-02 1.12255E-14 1.26233E-13
 -1      4037 2.03796E+01 8.29407E-01 3.01875E-03-9.48386E-02 6.71810E-15-2.30169E-13
 -1      4038 2.02617E+01-4.02850E-02-4.77081E-05-1.03420E-01 4.62480E-14-5.72983E-14
 -1      4039 2.02829E+01-1.40333E-02 6.40923E-04-9.90648E-02 4.89037E-14-7.83664E-14
 -1      4040 2.00565E+01-2.02584E-03 3.81176E-04-7.93542E-02-1.54820E-14 1.24859E-13
 -1      4041 2.00676E+01-1.91651E-02-2.20783E-04-7.88213E-02 9.16715E-15 1.68675E-13
 -1      4042 2.00842E+01-2.73498E-02-1.96110E-04-6.70633E-02 7.98494E-15 9.93013E-14
 -1      4043 2.02203E+01-7.11918E-02 1.73082E-04-1.03022E-01-6.90061E-15-8.42766E-15
 -1      4044 2.02399E+01-5.86767E-02 4.56682E-04-1.03319E-01 2.03573E-14-3.33463E-14
 -1      4045 2.02760E+01-4.81915E-02-5.00719E-04-8.49489E-02 1.11961E-14-2.91752E-14
 -1      4046 1.86434E+01-1.11497E+00-9.76655E-03-2.73395E+00-9.58866E-14-1.48672E-13
 -1      4047 1.78343E+01-6.17094E-01 1.25464E-02-2.70212E+00 6.06190E-14-1.73113E-13
 -1      4048 2.00525E+01 8.80775E-03-4.81489E-05-6.78975E-02-2.55809E-14 1.22332E-13
 -1      4049 2.01642E+01-7.71892E-02-5.13011E-04-1.15818E-01 6.79613E-14 9.36297E-15
 -1      4050 2.03606E+01 1.92823E-01 9.86551E-04-4.86762E-02 6.09818E-14-1.29425E-13
 -1      4051 2.03899E+01 2.61944E-01 2.70581E-04-2.71418E-02 6.36772E-14-1.78769E-13
 -1      4052 2.03410E+01 1.21586E-01-8.57945E-04-7.15571E-02 6.85024E-14-1.36225E-13
 -1      4053 1.99837E+01 1.03132E-01 3.14603E-04-8.42278E-02 9.52609E-14 6.68853E-14
 -1      4054 2.02800E+01 3.57220E-02-4.43891E-04-1.06385E-01 6.90181E-14-1.02097E-13
 -1      4055 2.03722E+01 9.19702E-02-1.48511E-04 5.06296E-02-4.73078E-14-1.77889E-13
 -1      4056 1.30080E+01 6.82037E-01 3.64750E-02 5.79379E-01-8.39259E-15 1.26871E-13
 -1      4057 2.03939E+01 8.08898E-01-1.26334E-03 4.57392E-02 7.13551E-14-2.88035E-13
 -1      4058 2.03931E+01 8.24781E-01-1.67887E-03 1.34550E-02 5.14142E-14-3.06265E-13
 -1      4059 2.04216E+01 6.72032E-01 2.25193E-03-8.74053E-04 5.97706E-14-2.90121E-13
 -1      4060 2.03761E+01 5.10409E-01-2.09385E-03 4.41794E-02 1.18306E-13-1.49143E-13
 -1      4061 2.03789E+01 6.61496E-01 1.12599E-03 1.00477E-01 1.37148E-13-1.39579E-13
 -1      4062 1.48486E+01 8.52773E-01 5.16896E-02-1.31029E+00-1.99628E-13 7.00633E-15
 -1      4063 1.56421E+01 6.11208E-01 1.09174E-02-1.59238E+00-1.32179E-13-4.93040E-14
 -1      4064 1.69899E+01-1.02328E-01-2.08060E-02-2.33519E+00 9.13835E-14-9.00413E-14
 -1      4065 1.93840E+01-1.61154E+00 1.57465E-02-2.84769E+00-1.18205E-13-6.50066E-14
 -1      4066 2.03543E+01 8.28989E-01-1.62327E-03 1.45515E-01 1.39683E-13-1.59559E-13
 -1      4067 2.03764E+01 7.92948E-01 5.15733E-04 1.05305E-01 1.26159E-13-1.49753E-13
 -1      4068 1.44007E+01 8.63442E-01-8.77392E-03-3.49403E-01-1.70640E-13 3.04650E-13
 -1      4069 1.50298E+01 9.68867E-01-2.86834E-02-1.45273E-01-8.73585E-14 3.45412E-13
 -1      4070 2.03993E+01 4.89752E-01 1.24073E-03 2.83929E-02 1.10310E-13-1.35091E-13
 -1      4071 2.04165E+01 6.32757E-01 1.73846E-03-2.93826E-02 3.26793E-14-2.79464E-13
 -1      4072 2.03913E+01 7.79071E-01 9.23053E-04-6.20848E-02 3.09480E-14-2.65343E-13
 -1      4073 2.03115E+01-4.61243E-02 3.09068E-04 4.54455E-02-7.91483E-14-1.01592E-13
 -1      4074 2.02885E+01-6.52521E-02 3.31174E-04 4.76589E-02-5.95749E-14-9.56456E-14
 -1      4075 2.02640E+01-7.82235E-02 2.57144E-04 4.58503E-02-7.96080E-14-8.51654E-14
 -1      4076 2.02412E+01-8.49407E-02 2.35840E-04 4.58145E-02-7.49280E-14-1.08202E-13
 -1      4077 2.02848E+01-7.21892E-02-8.24024E-04 2.60920E-02-8.83411E-14-1.06563E-13
 -1      4078 2.02180E+01-8.69609E-02 2.43189E-04 4.44668E-02-2.77078E-14-1.33242E-13
 -1      4079 2.01973E+01-8.49036E-02 3.98351E-04 4.35590E-02-2.56247E-14-1.12180E-13
 -1      4080 2.02362E+01-8.68484E-02-6.99302E-04 2.54727E-02-9.09804E-14-9.59375E-14
 -1      4081 2.01749E+01-7.95011E-02 1.40151E-04 4.14275E-02-2.63506E-14-1.26111E-13
 -1      4082 2.01557E+01-7.06764E-02 3.64145E-04 4.04438E-02-1.60183E-14-1.30780E-13
 -1      4083 2.01922E+01-8.43415E-02-7.57896E-04 2.35036E-02-2.16995E-14-1.13092E-13
 -1      4084 2.01348E+01-5.94333E-02 7.35111E-05 3.88892E-02-2.92395E-15-1.25322E-13
 -1      4085 2.01168E+01-4.54790E-02 3.18919E-04 3.83554E-02 3.37233E-14-1.11626E-13
 -1      4086 2.01497E+01-6.67783E-02-7.05372E-04 2.22456E-02 1.67190E-14-1.16882E-13
 -1      4087 2.00967E+01-2.96506E-02-3.94298E-05 3.74266E-02 5.38830E-14-8.75688E-14
 -1      4088 2.00795E+01-1.13744E-02 2.51926E-04 3.77923E-02 2.43018E-14-2.04353E-14
 -1      4089 2.01100E+01-3.83256E-02-4.45314E-04 2.14608E-02 4.37168E-14-1.15580E-13
 -1      4090 2.00593E+01 8.54396E-03-1.70935E-04 3.76542E-02 1.23090E-14-9.25994E-15
 -1      4091 2.00417E+01 3.08792E-02 1.68793E-04 3.92857E-02 1.00028E-14 4.31232E-14
 -1      4092 2.00714E+01-7.78853E-04-1.23419E-04 2.15074E-02 5.44639E-14-4.70998E-14
 -1      4093 2.00204E+01 5.48214E-02-3.22751E-04 4.00829E-02-7.39588E-15 5.98450E-14
 -1      4094 2.00012E+01 8.13397E-02 6.76787E-05 4.32835E-02-8.23636E-15 1.28951E-13
 -1      4095 2.00317E+01 4.52440E-02 2.55131E-04 2.26797E-02 4.34646E-14-3.71288E-15
 -1      4096 1.99770E+01 1.09557E-01-4.98142E-04 4.51290E-02-3.67050E-14 1.47661E-13
 -1      4097 1.99547E+01 1.40635E-01-5.71997E-05 5.01426E-02-1.95779E-14 1.17137E-13
 -1      4098 1.99884E+01 9.99226E-02 7.01187E-04 2.51706E-02 9.44815E-15-1.60155E-14
 -1      4099 1.99260E+01 1.73570E-01-7.00476E-04 5.31137E-02-5.93842E-14 1.01918E-13
 -1      4100 1.98987E+01 2.09703E-01-2.15455E-04 6.01162E-02-1.28367E-13 3.84875E-14
 -1      4101 1.99381E+01 1.63955E-01 1.23247E-03 2.90694E-02-2.23007E-14-1.73658E-14
 -1      4102 1.98633E+01 2.47853E-01-9.32898E-04 6.42359E-02-8.58908E-14 8.64263E-14
 -1      4103 1.98288E+01 2.89511E-01-4.20883E-04 7.33097E-02-6.39256E-15 1.08793E-13
 -1      4104 1.98771E+01 2.38277E-01 1.87249E-03 3.43297E-02-6.77747E-14-9.67970E-14
 -1      4105 1.97843E+01 3.33279E-01-1.19834E-03 7.85122E-02-2.49923E-14 4.01291E-14
 -1      4106 1.97398E+01 3.80740E-01-6.92110E-04 8.96023E-02-5.82234E-14 1.76234E-14
 -1      4107 1.98007E+01 3.23758E-01 2.65091E-03 4.07048E-02-7.25922E-14-5.23596E-14
 -1      4108 1.96835E+01 4.30259E-01-1.50036E-03 9.56833E-02-7.06196E-14 1.07250E-13
 -1      4109 1.96259E+01 4.83411E-01-1.05362E-03 1.08540E-01-1.02384E-13 1.04134E-13
 -1      4110 1.97039E+01 4.20860E-01 3.60541E-03 4.76492E-02-3.86203E-14-2.61218E-14
 -1      4111 1.95545E+01 5.38334E-01-1.84553E-03 1.15093E-01-8.80334E-14 1.19029E-13
 -1      4112 1.94800E+01 5.96454E-01-1.53748E-03 1.29213E-01 2.51648E-14 6.74989E-14
 -1      4113 1.95804E+01 5.29252E-01 4.78608E-03 5.41860E-02-5.85045E-14 9.12882E-14
 -1      4114 1.93897E+01 6.55714E-01-2.24899E-03 1.35556E-01 6.04748E-14-1.95905E-14
 -1      4115 1.92938E+01 7.17211E-01-2.18662E-03 1.50139E-01 7.35511E-14-3.24960E-15
 -1      4116 1.94233E+01 6.47374E-01 6.26452E-03 5.87419E-02-4.05792E-14-7.57140E-14
 -1      4117 1.91799E+01 7.78763E-01-2.74522E-03 1.55249E-01 1.08249E-13-6.09796E-14
 -1      4118 1.90569E+01 8.40930E-01-3.06212E-03 1.69220E-01 1.16964E-13 2.06159E-14
 -1      4119 1.92242E+01 7.71993E-01 8.15125E-03 5.89602E-02 7.72811E-14-1.15915E-13
 -1      4120 1.89138E+01 9.01504E-01-3.40800E-03 1.71692E-01 4.68105E-14 1.09759E-13
 -1      4121 1.87564E+01 9.60314E-01-4.25974E-03 1.83851E-01 1.20651E-13 1.43372E-13
 -1      4122 1.89729E+01 8.97817E-01 1.06273E-02 5.15040E-02 1.45781E-13-8.87597E-14
 -1      4123 1.85763E+01 1.01525E+00-4.38524E-03 1.81899E-01 1.93331E-13 4.33582E-14
 -1      4124 1.83746E+01 1.06525E+00-5.94567E-03 1.91336E-01 2.21475E-13 5.60613E-14
 -1      4125 1.86565E+01 1.01728E+00 1.39965E-02 3.18397E-02 1.31778E-13 5.10909E-14
 -1      4126 1.81458E+01 1.10854E+00-5.95056E-03 1.82893E-01 1.48437E-13-3.11331E-14
 -1      4127 1.78853E+01 1.14291E+00-8.38722E-03 1.89924E-01 7.40737E-14-6.57818E-14
 -1      4128 1.82566E+01 1.12067E+00 1.87456E-02-6.10567E-03 1.46294E-13-2.15210E-13
 -1      4129 1.75888E+01 1.16783E+00-8.53883E-03 1.73316E-01 4.13375E-14 1.56354E-14
 -1      4130 1.72483E+01 1.17712E+00-1.20234E-02 1.82067E-01 2.51158E-14 1.10484E-13
 -1      4131 1.77444E+01 1.19659E+00 2.53231E-02-7.08240E-02 9.84286E-14-1.19253E-13
 -1      4132 1.68466E+01 1.17801E+00-1.35789E-02 1.56236E-01-7.93506E-15 2.83695E-13
 -1      4133 1.63605E+01 1.15558E+00-2.38047E-02 1.92489E-01 3.17227E-15 3.71887E-13
 -1      4134 1.70618E+01 1.22855E+00 3.02999E-02-1.77672E-01 1.16943E-13 5.84656E-14
 -1      4135 1.57183E+01 1.05690E+00-1.45955E-02-1.59328E-01-3.99949E-14 3.22652E-13
 -1      4136 2.03831E+01 7.87476E-01-1.80207E-03 7.52551E-02 1.05193E-13-2.05988E-13
 -1      4137 1.97864E+01 3.37646E-01-1.25856E-04-1.37985E-01-3.77882E-14 1.02242E-13
 -1      4138 1.98212E+01 2.95546E-01-1.25839E-03-1.19476E-01 1.82916E-14 1.19812E-13
 -1      4139 1.99207E+01 1.84486E-01 1.56605E-05-8.45894E-02-9.00767E-15 8.05374E-14
 -1      4140 1.99435E+01 1.51549E-01-6.95316E-04-7.46388E-02 5.00513E-14 9.23382E-14
 -1      4141 1.96930E+01 4.26822E-01-1.66541E-04-1.78930E-01-1.97058E-14 7.15689E-14
 -1      4142 1.97365E+01 3.80690E-01-1.64269E-03-1.54861E-01-4.30246E-14 6.36871E-14
 -1      4143 1.97437E+01 3.81733E-01 2.87040E-03-1.07512E-01 3.97899E-15 2.69571E-13
 -1      4144 1.95765E+01 5.21759E-01-1.60312E-04-2.32361E-01-1.60629E-14 7.80269E-14
 -1      4145 1.96302E+01 4.72909E-01-2.12240E-03-2.01579E-01 3.45461E-15 2.30870E-14
 -1      4146 1.96362E+01 4.79302E-01 3.81603E-03-1.41513E-01-6.91816E-15 1.92555E-13
 -1      4147 1.94327E+01 6.18006E-01-7.07757E-05-3.01481E-01-6.42911E-14 2.27131E-13
 -1      4148 1.94981E+01 5.68858E-01-2.72861E-03-2.62454E-01-6.29765E-14 1.66322E-13
 -1      4149 1.95016E+01 5.83217E-01 4.96763E-03-1.86940E-01-1.15507E-13 2.61927E-13
 -1      4150 1.92577E+01 7.08248E-01 1.60066E-04-3.90743E-01 6.42945E-14 1.56533E-13
 -1      4151 1.93355E+01 6.62701E-01-3.50894E-03-3.41338E-01-4.31245E-15 1.86270E-13
 -1      4152 1.93346E+01 6.88921E-01 6.38871E-03-2.47418E-01-3.16000E-14 2.58670E-13
 -1      4153 1.90485E+01 7.81463E-01 6.22875E-04-5.06555E-01 1.09509E-13 7.01253E-14
 -1      4154 1.91384E+01 7.45294E-01-4.53914E-03-4.43675E-01 1.17821E-13 1.22900E-13
 -1      4155 1.91294E+01 7.89116E-01 8.17910E-03-3.28152E-01 1.04023E-13 1.95262E-13
 -1      4156 1.88030E+01 8.21985E-01 1.45379E-03-6.58389E-01-8.43970E-15 9.55179E-14
 -1      4157 1.89032E+01 8.03287E-01-5.94229E-03-5.77398E-01 3.54741E-14 9.90760E-14
 -1      4158 1.88803E+01 8.73115E-01 1.04996E-02-4.36772E-01 6.83054E-14 7.44422E-14
 -1      4159 1.85214E+01 8.08410E-01 2.83087E-03-8.60467E-01-1.20094E-13 6.21410E-14
 -1      4160 1.86274E+01 8.18090E-01-7.92370E-03-7.54323E-01 1.16370E-15 1.45072E-13
 -1      4161 1.85810E+01 9.26151E-01 1.35961E-02-5.84658E-01-9.76257E-14 1.68366E-14
 -1      4162 1.82063E+01 7.11868E-01 4.73834E-03-1.13454E+00 4.17982E-14-4.27226E-14
 -1      4163 1.83100E+01 7.64628E-01-1.08511E-02-9.92109E-01-4.84246E-14 3.85253E-14
 -1      4164 1.82245E+01 9.28458E-01 1.77653E-02-7.88818E-01 3.11708E-16-7.04886E-14
 -1      4165 1.78617E+01 4.91579E-01 5.57155E-03-1.51801E+00 1.30530E-13-5.77077E-14
 -1      4166 1.79496E+01 6.13364E-01-1.48624E-02-1.31747E+00 7.89673E-14-5.61676E-14
 -1      4167 1.78019E+01 8.53787E-01 2.30396E-02-1.07322E+00 8.00120E-14-2.08132E-13
 -1      4168 1.74528E+01 1.24033E-01 8.01328E-03-2.02504E+00 1.95260E-13-1.43533E-13
 -1      4169 1.74940E+01 3.44423E-01-2.14400E-02-1.74431E+00 2.12530E-13-1.18509E-13
 -1      4170 1.72312E+01 7.08970E-01 2.71495E-02-1.43438E+00 2.22242E-13-2.99346E-13
 -1      4171 1.64608E+01 4.32010E-01 2.71869E-02-1.91635E+00 6.91203E-14-1.83188E-13
 -1      4172 2.00480E+01 1.99707E-02 2.44435E-04-5.34026E-02 1.34249E-15 3.39610E-14
 -1      4173 2.00638E+01-7.26378E-04-1.63841E-04-5.16746E-02 1.21050E-14 4.06938E-14
 -1      4174 1.40708E+01 9.75850E-01 2.83500E-02 2.78288E-01-3.99429E-14 2.90248E-13
 -1      4175 1.98609E+01 2.56573E-01-6.06419E-05-1.07148E-01 6.65118E-15 9.75870E-14
 -1      4176 1.98889E+01 2.19038E-01-9.47952E-04-9.32897E-02 4.88496E-15 1.01557E-13
 -1      4177 1.98291E+01 2.92973E-01 2.08736E-03-8.23489E-02-2.98398E-15 2.52831E-13
 -1      4178 2.00110E+01 6.67118E-02 1.72625E-04-5.87997E-02 5.98728E-14 2.94604E-14
 -1      4179 2.00278E+01 4.21859E-02-3.13711E-04-5.48550E-02 2.82778E-14 3.58337E-14
 -1      4180 2.00392E+01 3.34374E-02 1.88321E-05-3.86238E-02 2.78325E-14-4.30552E-14
 -1      4181 2.04220E+01 2.91592E-01 1.10432E-04 9.45424E-03-1.29533E-14-2.05489E-13
 -1      4182 2.04108E+01 2.00052E-01-3.21938E-04 2.60796E-02-3.13534E-14-1.74698E-13
 -1      4183 2.04239E+01 5.07354E-01-3.93590E-04-1.95109E-02 3.84329E-14-2.80444E-13
 -1      4184 2.04239E+01 3.80208E-01-4.55918E-04 3.91457E-03 1.81609E-14-2.54297E-13
 -1      4185 2.04302E+01 3.42501E-01 4.43688E-04 3.32866E-03 3.15274E-14-2.52429E-13
 -1      4186 2.04263E+01 5.47528E-01 1.43071E-04-1.03040E-02 4.45677E-14-2.94110E-13
 -1      4187 2.04125E+01 4.35179E-01-1.55378E-03 6.92089E-03 1.02488E-13-1.51659E-13
 -1      4188 2.04125E+01 5.74098E-01 8.78929E-04 4.00215E-02 1.21743E-13-1.67427E-13
 -1      4189 2.01813E+01-8.10268E-02 2.83969E-04-9.77639E-02 7.17712E-14-3.09635E-14
 -1      4190 2.01988E+01-7.82380E-02 2.84364E-04-1.00481E-01 4.78572E-14-9.63482E-15
 -1      4191 2.01903E+01-8.36292E-02-5.13647E-04-8.00194E-02 2.56176E-14-3.04931E-14
 -1      4192 2.03967E+01 1.25301E-01 2.01860E-04 2.94086E-02-2.29086E-14-1.57630E-13
 -1      4193 2.03782E+01 6.55242E-02 2.47995E-05 3.99934E-02-3.33249E-14-1.53818E-13
 -1      4194 2.04133E+01 1.72879E-01-4.17112E-04 1.41950E-02-4.86972E-15-2.14908E-13
 -1      4195 2.03574E+01 1.77969E-02 2.90831E-04 4.07227E-02-4.51136E-14-1.36365E-13
 -1      4196 2.03353E+01-1.85495E-02 2.27616E-04 4.63252E-02-6.52719E-14-1.13739E-13
 -1      4197 2.03773E+01 4.64033E-02-8.73221E-04 2.16078E-02-3.81161E-14-1.56080E-13
 -1      4198 1.99696E+01 1.21361E-01 9.50787E-05-6.88649E-02 1.08093E-13 1.11332E-13
 -1      4199 1.99887E+01 9.27846E-02-4.87575E-04-6.21933E-02 9.16798E-14 7.19690E-14
 -1      4200 1.99987E+01 8.48049E-02 4.19551E-04-4.32446E-02 4.68126E-14-5.12143E-14
 -1      4201 1.99525E+01 1.44771E-01 8.85699E-04-5.14614E-02 6.79232E-14 1.04986E-13
 -1      4202 1.60392E+01 7.07239E-01-3.32314E-02-1.35497E+00 5.98135E-14-1.36139E-13
 -1      4203 2.03032E+01 2.02087E-02-3.81518E-04-9.47054E-02 6.47483E-14-1.06339E-13
 -1      4204 2.03248E+01 6.54985E-02 8.34715E-04-8.28395E-02 7.90559E-14-1.18877E-13
 -1      4205 2.03602E+01 1.08255E-01-1.58848E-04-6.09895E-02 5.58929E-14-1.46307E-13
 -1      4206 2.03201E+01 9.66197E-03-3.95284E-04-7.86033E-02 4.18261E-14-9.07058E-14
 -1      4207 1.60830E+01 1.10145E+00 3.36678E-02-6.17244E-01-1.98431E-15 2.68975E-14
 -1      4208 2.02846E+01-5.85625E-02 1.13884E-04-6.62079E-02-1.20263E-14-4.70434E-14
 -1      4209 2.03080E+01-3.67775E-02 6.24830E-04-6.34189E-02 1.75672E-15-7.90675E-14
 -1      4210 2.03324E+01-3.11288E-02-1.06178E-03 2.50492E-02-5.83727E-14-9.52385E-14
 -1      4211 2.00831E+01-1.91932E-02 3.06264E-04-5.17894E-02 2.56051E-14 6.58623E-14
 -1      4212 2.00990E+01-3.60448E-02-2.87580E-05-5.17726E-02 1.52894E-14 3.23822E-14
 -1      4213 2.00769E+01-9.78126E-03-3.28198E-04-3.68721E-02 4.92776E-14-3.31539E-15
 -1      4214 2.02319E+01-7.63933E-02-5.13817E-04-8.43392E-02 2.03620E-15-3.49680E-14
 -1      4215 1.98973E+01 2.13987E-01 1.43447E-03-6.41355E-02 1.00938E-14 1.51800E-13
 -1      4216 2.04283E+01 5.44115E-01-6.62252E-04 2.98193E-03 5.91955E-14-2.84192E-13
 -1      4217 1.66291E+01 9.08622E-01-4.70468E-03-9.33296E-01 1.84966E-13-1.73581E-13
 -1      4218 2.04129E+01 3.21579E-01 3.87566E-04-8.12529E-03 8.12702E-14-1.60066E-13
 -1      4219 2.04248E+01 4.00843E-01 3.71156E-04 1.90626E-03 9.98407E-14-1.82832E-13
 -1      4220 2.04009E+01 2.24387E-01-1.16731E-03-3.09879E-02 6.62139E-14-1.61651E-13
 -1      4221 2.01558E+01-7.31936E-02 3.61816E-04-5.64916E-02-4.64078E-14 4.80248E-14
 -1      4222 2.01744E+01-8.04947E-02 2.69218E-04-5.81923E-02-2.83239E-14 5.36150E-14
 -1      4223 2.01185E+01-5.05845E-02 3.51347E-04-5.31081E-02-6.15296E-15 3.18611E-14
 -1      4224 2.01354E+01-6.31859E-02 9.65930E-05-5.42604E-02-4.64634E-14 2.43008E-14
 -1      4225 2.01142E+01-4.47891E-02-6.22774E-04-3.73157E-02 2.78458E-14 2.19030E-14
 -1      4226 2.03299E+01-7.31549E-03-1.23345E-04-6.32924E-02 9.78707E-15-9.71115E-14
 -1      4227 2.03530E+01 3.24928E-02 7.63379E-04-5.59064E-02 3.46001E-14-1.40563E-13
 -1      4228 2.03331E+01-1.97587E-02-1.16921E-03-4.42210E-02-9.31486E-16-1.10701E-13
 -1      4229 2.04002E+01 7.36465E-01 2.81778E-04 4.60300E-02 9.39599E-14-2.41271E-13
 -1      4230 2.01531E+01-7.06828E-02-8.24376E-04-3.92475E-02-1.81834E-14 5.99454E-14
 -1      4231 2.03415E+01-2.50272E-02 5.47778E-04-9.79318E-03-2.53106E-14-1.04501E-13
 -1      4232 2.03175E+01-5.13887E-02 8.86806E-04-8.37294E-03-4.37114E-14-7.23871E-14
 -1      4233 2.02615E+01-7.29775E-02 5.02512E-04-6.43605E-02-5.24591E-15-4.17855E-14
 -1      4234 2.02863E+01-6.66297E-02-1.13674E-03-4.60773E-02-2.53298E-14-6.57824E-14
 -1      4235 2.02392E+01-8.15070E-02 3.18696E-04-6.42787E-02-2.39151E-15-4.14604E-14
 -1      4236 2.02540E+01-8.58484E-02 4.42971E-04 5.49434E-03-8.62051E-14-5.38012E-14
 -1      4237 2.02306E+01-8.89591E-02 4.46582E-04 4.91589E-03-8.01996E-14-5.61042E-14
 -1      4238 2.01985E+01-8.44782E-02 3.72002E-04-8.42832E-03-7.06739E-14-2.65941E-14
 -1      4239 2.01770E+01-7.79753E-02 5.13661E-04-8.04525E-03-2.95684E-14-4.33412E-14
 -1      4240 2.01565E+01-6.80559E-02 4.98600E-04-7.66736E-03 1.45431E-14-6.76908E-14
 -1      4241 2.01355E+01-5.60593E-02 4.34434E-04-7.58862E-03 5.65933E-14-4.89282E-14
 -1      4242 2.01159E+01-4.11996E-02 3.56526E-04-7.47323E-03 5.01081E-14-2.96231E-14
 -1      4243 2.00957E+01-2.44902E-02 2.58005E-04-7.32157E-03 6.61330E-14-1.71435E-14
 -1      4244 2.00763E+01-5.42555E-03 1.40246E-04-7.82674E-03 4.44286E-14-3.81002E-14
 -1      4245 2.00561E+01 1.55553E-02 4.70210E-05-7.47121E-03 4.78918E-14-2.96664E-14
 -1      4246 2.00358E+01 3.85593E-02-1.22359E-04-8.88800E-03 5.47369E-14-4.57254E-14
 -1      4247 2.00143E+01 6.37797E-02-1.97365E-04-8.27224E-03 4.11079E-14-8.79824E-14
 -1      4248 1.99919E+01 9.08078E-02-4.30407E-04-1.08927E-02 2.88814E-14-1.60229E-14
 -1      4249 1.99676E+01 1.20527E-01-4.86196E-04-1.00164E-02 3.39446E-14-1.98178E-14
 -1      4250 1.99413E+01 1.51869E-01-7.90498E-04-1.41733E-02 3.77294E-14-2.13784E-14
 -1      4251 1.99124E+01 1.86499E-01-8.36220E-04-1.31039E-02 8.97971E-15 3.45159E-14
 -1      4252 1.98804E+01 2.22500E-01-1.21280E-03-1.92093E-02-2.08382E-14 4.10489E-14
 -1      4253 1.98447E+01 2.62455E-01-1.26951E-03-1.81102E-02-6.78510E-14 4.82325E-14
 -1      4254 1.98049E+01 3.03345E-01-1.71009E-03-2.67016E-02-9.11454E-14 1.27326E-13
 -1      4255 1.97599E+01 3.48868E-01-1.81468E-03-2.58762E-02-2.99620E-14 1.14036E-13
 -1      4256 1.97098E+01 3.94568E-01-2.29811E-03-3.76783E-02 6.74547E-15 1.00901E-13
 -1      4257 1.96526E+01 4.45534E-01-2.50962E-03-3.76315E-02 3.47567E-15 1.90712E-13
 -1      4258 1.95897E+01 4.95428E-01-2.99742E-03-5.36449E-02-7.10329E-14 2.08875E-13
 -1      4259 1.95167E+01 5.51107E-01-3.40640E-03-5.51648E-02-1.14783E-13 1.86055E-13
 -1      4260 1.94382E+01 6.03774E-01-3.83819E-03-7.67980E-02-1.15181E-13 1.41790E-13
 -1      4261 1.93455E+01 6.62578E-01-4.58037E-03-8.10573E-02-4.88615E-14 4.41679E-14
 -1      4262 1.92482E+01 7.15498E-01-4.86949E-03-1.10328E-01 1.84127E-14 1.07000E-13
 -1      4263 1.91309E+01 7.74710E-01-6.14618E-03-1.19008E-01 8.61472E-14 7.10828E-14
 -1      4264 1.90115E+01 8.23958E-01-6.17566E-03-1.58854E-01 1.12038E-13 5.08820E-14
 -1      4265 1.88634E+01 8.79493E-01-8.28527E-03-1.74303E-01 1.58185E-13 7.59013E-14
 -1      4266 1.87181E+01 9.19446E-01-7.89911E-03-2.29067E-01 1.09227E-13 8.50157E-14
 -1      4267 1.85308E+01 9.65675E-01-1.12856E-02-2.54538E-01 3.10175E-14-1.99331E-15
 -1      4268 1.83550E+01 9.88755E-01-1.02457E-02-3.30701E-01-5.26760E-15-3.61852E-15
 -1      4269 1.81164E+01 1.01843E+00-1.55534E-02-3.70884E-01 3.67498E-14-1.10058E-13
 -1      4270 1.79051E+01 1.01497E+00-1.32693E-02-4.77984E-01 1.06411E-13-1.69855E-13
 -1      4271 1.75974E+01 1.01936E+00-2.11954E-02-5.40926E-01 1.05543E-13-1.32351E-13
 -1      4272 1.73495E+01 9.80446E-01-1.42944E-02-6.89748E-01 1.04076E-13-2.04594E-13
 -1      4273 1.69534E+01 9.42462E-01-2.63136E-02-7.88884E-01 1.78868E-13-1.81373E-13
 -1      4274 2.02932E+01-6.91417E-02 4.56649E-04-9.69868E-03-6.39835E-14-6.26341E-14
 -1      4275 2.02681E+01-8.09233E-02 5.08466E-04-8.97728E-03-6.85090E-14-4.33022E-14
 -1      4276 2.03708E+01 8.25005E-02-5.19858E-04-5.27607E-02 3.24179E-14-1.51895E-13
 -1      4277 2.03911E+01 1.46863E-01 8.68730E-04-3.86101E-02 3.51203E-14-1.77754E-13
 -1      4278 2.04108E+01 2.00666E-01-2.18308E-04-2.28285E-02 6.70105E-14-1.61181E-13
 -1      4279 2.03767E+01 6.48910E-02-8.72262E-04-3.73221E-02 4.67196E-14-1.99593E-13
 -1      4280 2.03647E+01 9.19503E-03 9.77305E-04-6.95805E-03-2.24327E-14-1.43628E-13
 -1      4281 2.01956E+01-8.50028E-02 1.65173E-04-6.07461E-02-2.73753E-14 3.02928E-14
 -1      4282 2.02159E+01-8.54545E-02 1.63886E-04-6.23958E-02-2.78100E-14-2.14186E-16
 -1      4283 2.02389E+01-8.45531E-02-4.47599E-04-4.39273E-02-5.82994E-14-1.46387E-14
 -1      4284 2.01949E+01-8.51582E-02-4.47445E-04-4.20036E-02-5.43109E-14 3.51457E-14
 -1      4285 2.04188E+01 1.85079E-01-2.23576E-04-8.09619E-03 3.79071E-14-2.49056E-13
 -1      4286 2.04050E+01 1.12391E-01 9.01658E-04-3.97541E-03 1.84435E-14-1.99521E-13
 -1      4287 2.03855E+01 5.52719E-02 2.80850E-04-9.43987E-03 1.64339E-15-1.67229E-13
 -1      4288 2.04228E+01 5.92198E-01 7.91184E-04 1.82362E-02 8.54467E-14-2.47487E-13
 -1      4289 2.04276E+01 5.09977E-01 3.22134E-04 7.91332E-03 7.64250E-14-2.52073E-13
 -1      4290 2.04365E+01 3.99076E-01 5.13184E-04-3.24123E-03 7.34313E-14-2.92416E-13
 -1      4291 2.04328E+01 3.08882E-01-4.52522E-04 1.03244E-03 7.31024E-14-2.75662E-13
 -1      4292 2.02065E+01-8.59900E-02-4.28263E-04-2.79751E-02-7.44092E-14 2.11519E-14
 -1      4293 2.04282E+01 4.39374E-01-7.61173E-04 7.20160E-03 9.40809E-14-2.11177E-13
 -1      4294 2.02527E+01-8.54021E-02-4.82478E-04-3.04734E-02-5.12056E-14-1.35972E-14
 -1      4295 2.04286E+01 3.24982E-01-2.50271E-05-6.75925E-03 9.64989E-14-2.07357E-13
 -1      4296 2.02284E+01-8.74385E-02 1.61006E-04-2.94723E-02-9.07929E-14-4.08797E-15
 -1      4297 2.04302E+01 2.73870E-01 7.45011E-04-1.30594E-03 7.32947E-14-2.46832E-13
 -3
    1PSTEP                         3           1           1          
  100CL  101 1.000000000        4297                     0    1           1
 -4  TOSTRAIN    6    1
 -5  EXX         1    4    1    1
 -5  EYY         1    4    2    2
 -5  EZZ         1    4    3    3
 -5  EXY         1    4    1    2
 -5  EYZ         1    4    2    3
 -5  EZX         1    4    3    1
 -1         1 1.15657E-05 1.24118E-05-1.42028E-05-2.15174E-05-8.25984E-18 5.34308E-18
 -1         2 4.05034E-05-1.23749E-04 2.25328E-05-8.07126E-08-5.35304E-18-1.05755E-18
 -1         3 9.51195E-05-2.86935E-05-2.83212E-05-1.15824E-07-3.16241E-18-3.33292E-18
 -1         4 9.49767E-05-2.88388E-05-2.80969E-05 3.08983E-07 1.53025E-18 3.55962E-19
 -1         5 1.43348E-04-2.14785E-05-4.25283E-05 3.85316E-05-2.33516E-19 1.77991E-17
 -1         6 1.45410E-04 2.57576E-10-4.41875E-05-5.35270E-05-1.00077E-18 1.70330E-17
 -1         7 9.06085E-05-5.11141E-07-3.90681E-05-2.92524E-05-1.32561E-19 3.53493E-18
 -1         8 8.51239E-05 8.65388E-08-3.63392E-05-2.02713E-05-2.00164E-19-6.66319E-19
 -1         9 8.28127E-05 7.68997E-08-3.53508E-05-1.56424E-05-1.78896E-19-2.98724E-18
 -1        10 8.17752E-05 3.86841E-08-3.48818E-05-1.20798E-05-1.33308E-19-4.01216E-18
 -1        11 8.12530E-05 1.94746E-08-3.46527E-05-9.01403E-06-9.72566E-20-4.58020E-18
 -1        12 8.09833E-05 9.21326E-09-3.45385E-05-6.28472E-06-4.24939E-20-4.82233E-18
 -1        13 8.08418E-05 4.60011E-09-3.44807E-05-3.68589E-06-2.61728E-20-4.93211E-18
 -1        14 8.07828E-05 2.73684E-09-3.44571E-05-1.18381E-06 5.46808E-21-4.97406E-18
 -1        15 8.07849E-05 2.72126E-09-3.44579E-05 1.28897E-06 3.61666E-20-4.98032E-18
 -1        16 8.08485E-05 4.51135E-09-3.44830E-05 3.79623E-06 5.64981E-20-4.86823E-18
 -1        17 8.09953E-05 8.39971E-09-3.45422E-05 6.40735E-06 7.03335E-20-4.66866E-18
 -1        18 8.12702E-05 1.81710E-08-3.46581E-05 9.15651E-06 1.07957E-19-4.18769E-18
 -1        19 8.17969E-05 3.81992E-08-3.48899E-05 1.22587E-05 1.62683E-19-3.44925E-18
 -1        20 8.28358E-05 8.15316E-08-3.53634E-05 1.58714E-05 2.13730E-19-2.10077E-18
 -1        21 8.50901E-05 1.69469E-07-3.63774E-05 2.04831E-05 2.55566E-19 5.91158E-19
 -1        22 9.16455E-05-9.96565E-08-3.87397E-05 2.79999E-05 3.48342E-20 5.91195E-18
 -1        23 1.12979E-04-3.81279E-05-3.53981E-05-4.40278E-06-6.62062E-19 1.35102E-17
 -1        24 9.28101E-05-2.76987E-05-2.90009E-05 3.91184E-07-2.20354E-19 1.02342E-17
 -1        25 8.91259E-05-2.68541E-05-2.69312E-05 3.76032E-07-8.15435E-20 6.98610E-18
 -1        26 8.80240E-05-2.64910E-05-2.63941E-05 2.04218E-07-5.04804E-20 4.78960E-18
 -1        27 8.80513E-05-2.64695E-05-2.63865E-05 1.39886E-07 5.75254E-20 3.51803E-18
 -1        28 8.85850E-05-2.66058E-05-2.65561E-05 1.00879E-07-5.85063E-20 2.81582E-18
 -1        29 8.93395E-05-2.68184E-05-2.67886E-05 7.52003E-08-9.84934E-20 1.93759E-18
 -1        30 9.01632E-05-2.70578E-05-2.70383E-05 5.68681E-08 4.60109E-20 1.34938E-18
 -1        31 9.09712E-05-2.72958E-05-2.72820E-05 4.30509E-08-8.76874E-20 5.48884E-19
 -1        32 9.17163E-05-2.75167E-05-2.75066E-05 3.23174E-08-2.39979E-19-4.97706E-19
 -1        33 9.23755E-05-2.77129E-05-2.77053E-05 2.38598E-08 1.69423E-19-5.63755E-19
 -1        34 9.29406E-05-2.78816E-05-2.78759E-05 1.71632E-08-1.30324E-19-5.95443E-19
 -1        35 9.34135E-05-2.80231E-05-2.80188E-05 1.18639E-08-8.20752E-20-1.48143E-18
 -1        36 9.38028E-05-2.81398E-05-2.81365E-05 7.68748E-09-6.59661E-21-1.87572E-18
 -1        37 9.41209E-05-2.82355E-05-2.82329E-05 4.42141E-09-1.65484E-19-1.60883E-18
 -1        38 9.43836E-05-2.83147E-05-2.83127E-05 1.90380E-09 4.19123E-20-1.65573E-18
 -1        39 9.46087E-05-2.83828E-05-2.83812E-05 2.08431E-11-1.23522E-19-1.88203E-18
 -1        40 9.48167E-05-2.84459E-05-2.84446E-05-1.29107E-09 4.36036E-20-2.49062E-18
 -1        41 9.50306E-05-2.85109E-05-2.85099E-05-2.03977E-09-8.30187E-20-3.16282E-18
 -1        42 9.52772E-05-2.85859E-05-2.85852E-05-2.16777E-09 2.09287E-20-3.76696E-18
 -1        43 9.55881E-05-2.86803E-05-2.86801E-05-1.53779E-09-2.20972E-19-2.83084E-18
 -1        44 9.60010E-05-2.88055E-05-2.88060E-05 8.84809E-11-1.14973E-19-1.66016E-18
 -1        45 9.65616E-05-2.89753E-05-2.89768E-05 3.08049E-09-2.41220E-19-1.19553E-18
 -1        46 9.73252E-05-2.92060E-05-2.92092E-05 7.97926E-09-1.99185E-19-2.67330E-18
 -1        47 9.83580E-05-2.95174E-05-2.95232E-05 1.55468E-08 4.25634E-20-2.40114E-18
 -1        48 9.97373E-05-2.99326E-05-2.99422E-05 2.68137E-08 3.34742E-19-5.68563E-19
 -1        49 1.01550E-04-3.04771E-05-3.04921E-05 4.30897E-08-8.18421E-20-1.96913E-18
 -1        50 1.03885E-04-3.11772E-05-3.11991E-05 6.58481E-08 1.31397E-19-4.31502E-18
 -1        51 1.06817E-04-3.20543E-05-3.20841E-05 9.62792E-08 2.69103E-20-3.10706E-18
 -1        52 1.10375E-04-3.31159E-05-3.31516E-05 1.34108E-07-2.09925E-19-1.95907E-18
 -1        53 1.14475E-04-3.43370E-05-3.43699E-05 1.74993E-07-9.53355E-20-2.18604E-18
 -1        54 1.18830E-04-3.56317E-05-3.56412E-05 2.05733E-07 1.54996E-19-3.26981E-18
 -1        55 1.22810E-04-3.68144E-05-3.67630E-05 1.97492E-07-2.09926E-19-4.83768E-18
 -1        56 1.25321E-04-3.75636E-05-3.74031E-05 1.01770E-07 2.04924E-19-5.38484E-18
 -1        57 1.24841E-04-3.74285E-05-3.71321E-05-1.36773E-07 6.75062E-20-1.82839E-18
 -1        58 1.19855E-04-3.59537E-05-3.55791E-05-5.28894E-07-4.82852E-19-2.73557E-18
 -1        59 1.09906E-04-3.29864E-05-3.27226E-05-9.52578E-07-1.40457E-19-5.31667E-18
 -1        60 9.69159E-05-2.90810E-05-2.91816E-05-1.11837E-06 1.84561E-19-4.75466E-18
 -1        61 8.54494E-05-2.56110E-05-2.61597E-05-7.59089E-07 1.67279E-19-4.15684E-18
 -1        62 8.05961E-05-2.41395E-05-2.48709E-05 4.41739E-08-2.69783E-19-4.39823E-18
 -1        63 8.43228E-05-2.52779E-05-2.57574E-05 7.93052E-07 1.11868E-19-7.59638E-18
 -1        64 9.38399E-05-2.81618E-05-2.81804E-05 1.04548E-06-4.55099E-19-6.68373E-18
 -1        65 1.03859E-04-3.11736E-05-3.08584E-05 7.96255E-07-7.03949E-19-5.66263E-18
 -1        66 1.10183E-04-3.30565E-05-3.26640E-05 3.42392E-07 4.89638E-19-8.70837E-18
 -1        67 1.11431E-04-3.34176E-05-3.31229E-05-4.96612E-08 8.58479E-19-5.07587E-18
 -1        68 1.08516E-04-3.25432E-05-3.24017E-05-2.78703E-07-5.45153E-20 6.90782E-19
 -1        69 1.03402E-04-3.10175E-05-3.10282E-05-3.46017E-07-4.91494E-20 5.87166E-19
 -1        70 9.82894E-05-2.94778E-05-2.96263E-05-2.28042E-07 1.83361E-19 2.14985E-18
 -1        71 9.52148E-05-2.84796E-05-2.86866E-05 3.84809E-08-8.77678E-19 1.59026E-18
 -1        72 1.02182E-04-3.05884E-05-3.41511E-05-1.92903E-06 2.81480E-19 1.62234E-17
 -1        73 9.25668E-05-2.75149E-05-2.89092E-05-3.33241E-07 1.20702E-19 1.24480E-17
 -1        74 8.91139E-05-2.67037E-05-2.69746E-05-1.25945E-07 1.03047E-19 9.66542E-18
 -1        75 8.80540E-05-2.64417E-05-2.64382E-05-9.56188E-08 7.44438E-20 7.54635E-18
 -1        76 8.80858E-05-2.64494E-05-2.64132E-05-7.66190E-08 5.95698E-20 5.91187E-18
 -1        77 8.86190E-05-2.66003E-05-2.65732E-05-6.25501E-08 1.18574E-20 4.83428E-18
 -1        78 8.93710E-05-2.68197E-05-2.68010E-05-5.17633E-08-9.55138E-20 4.70141E-18
 -1        79 9.01913E-05-2.70625E-05-2.70478E-05-4.28585E-08 1.08729E-19 4.11441E-18
 -1        80 9.09956E-05-2.73018E-05-2.72894E-05-3.51779E-08 3.18374E-22 2.88100E-18
 -1        81 9.17372E-05-2.75232E-05-2.75124E-05-2.84591E-08 1.52814E-19 2.55936E-18
 -1        82 9.23930E-05-2.77193E-05-2.77098E-05-2.25801E-08 1.16037E-19 2.05093E-18
 -1        83 9.29553E-05-2.78875E-05-2.78794E-05-1.74605E-08-2.99429E-21 2.23411E-18
 -1        84 9.34260E-05-2.80285E-05-2.80216E-05-1.30242E-08 9.43714E-20 2.09318E-18
 -1        85 9.38136E-05-2.81446E-05-2.81390E-05-9.19017E-09-2.44692E-20 1.50429E-18
 -1        86 9.41308E-05-2.82398E-05-2.82353E-05-5.87381E-09 2.78257E-20-2.76729E-20
 -1        87 9.43933E-05-2.83187E-05-2.83151E-05-2.99291E-09-3.05163E-19-1.94686E-19
 -1        88 9.46192E-05-2.83866E-05-2.83841E-05-4.75891E-10-3.32956E-20 2.81765E-19
 -1        89 9.48285E-05-2.84497E-05-2.84481E-05 1.72792E-09 2.24630E-19-1.51267E-18
 -1        90 9.50442E-05-2.85147E-05-2.85142E-05 3.63612E-09-2.98343E-19-2.05907E-18
 -1        91 9.52920E-05-2.85893E-05-2.85902E-05 5.21840E-09-1.59074E-19-2.86475E-19
 -1        92 9.56014E-05-2.86825E-05-2.86849E-05 6.37789E-09-2.68575E-19 3.01340E-19
 -1        93 9.60064E-05-2.88043E-05-2.88086E-05 6.92720E-09-1.07158E-19 5.40127E-19
 -1        94 9.65455E-05-2.89663E-05-2.89730E-05 6.55878E-09 1.67852E-19-1.43388E-18
 -1        95 9.72616E-05-2.91811E-05-2.91907E-05 4.81044E-09-1.21128E-20-3.78993E-18
 -1        96 9.81998E-05-2.94622E-05-2.94754E-05 1.03204E-09 1.25700E-19-2.08545E-18
 -1        97 9.94039E-05-2.98225E-05-2.98397E-05-5.63038E-09-3.73746E-19-6.84217E-19
 -1        98 1.00909E-04-3.02722E-05-3.02934E-05-1.61950E-08 1.26293E-19-9.46152E-19
 -1        99 1.02727E-04-3.08150E-05-3.08390E-05-3.16713E-08 3.97067E-19-4.83781E-18
 -1       100 1.04828E-04-3.14416E-05-3.14654E-05-5.26149E-08-2.50509E-19-2.48336E-18
 -1       101 1.07110E-04-3.21217E-05-3.21386E-05-7.82015E-08 2.30544E-19-6.27721E-19
 -1       102 1.09358E-04-3.27926E-05-3.27908E-05-1.04617E-07-3.34432E-19-1.63355E-18
 -1       103 1.11211E-04-3.33476E-05-3.33102E-05-1.22836E-07 4.47666E-19-2.01251E-18
 -1       104 1.12140E-04-3.36314E-05-3.35392E-05-1.16761E-07-4.37100E-19-7.85599E-19
 -1       105 1.11493E-04-3.34511E-05-3.32927E-05-6.44516E-08-6.99133E-21 1.48644E-18
 -1       106 1.08662E-04-3.26226E-05-3.24123E-05 5.24769E-08 3.05381E-19 1.42601E-18
 -1       107 1.03391E-04-3.10607E-05-3.08566E-05 2.27874E-07-5.84701E-20-8.01095E-19
 -1       108 9.61759E-05-2.88994E-05-2.87982E-05 4.09305E-07 1.07289E-19-1.41621E-18
 -1       109 8.84772E-05-2.65657E-05-2.66572E-05 5.02545E-07 2.00207E-19-7.61536E-20
 -1       110 8.24213E-05-2.47050E-05-2.49985E-05 4.23136E-07 3.62684E-19-3.00417E-18
 -1       111 7.98904E-05-2.39090E-05-2.42956E-05 1.75185E-07-5.16889E-20-4.79429E-18
 -1       112 8.14753E-05-2.43788E-05-2.46885E-05-1.29796E-07-7.37641E-19-2.09788E-18
 -1       113 8.61108E-05-2.57939E-05-2.59110E-05-3.47269E-07 6.45221E-19-2.76948E-18
 -1       114 9.17045E-05-2.75074E-05-2.74266E-05-4.01505E-07-3.53635E-19-4.50558E-18
 -1       115 9.62525E-05-2.88986E-05-2.87011E-05-3.14203E-07 2.58032E-19-4.28878E-18
 -1       116 9.86437E-05-2.96269E-05-2.94147E-05-1.59222E-07-2.33728E-20-2.25566E-18
 -1       117 9.88275E-05-2.96790E-05-2.95301E-05-7.34974E-09-3.04336E-20-6.05857E-18
 -1       118 9.75412E-05-2.92788E-05-2.92358E-05 9.31646E-08 5.82371E-20-6.77753E-18
 -1       119 9.59205E-05-2.87737E-05-2.88273E-05 1.04994E-07-5.61422E-19-6.57788E-18
 -1       120 9.50788E-05-2.84808E-05-2.85412E-05-3.10728E-08 1.21409E-18-7.04154E-18
 -1       121 9.52572E-05-2.86491E-05-2.85650E-05-1.01950E-07-5.38342E-18 1.96811E-18
 -1       122 9.49583E-05-2.77187E-05-2.89251E-05-2.49329E-09-4.04651E-18-1.29211E-18
 -1       123 9.41825E-05-2.51319E-05-2.97226E-05 9.45415E-08-4.51925E-18 5.86049E-19
 -1       124 9.28719E-05-2.07467E-05-3.10423E-05 2.08159E-07-9.38460E-19 1.62465E-18
 -1       125 9.10398E-05-1.45926E-05-3.28620E-05 3.31999E-07 1.37480E-18-6.28015E-19
 -1       126 8.88690E-05-7.29401E-06-3.49821E-05 4.16833E-07 3.46298E-18 8.31623E-19
 -1       127 8.66199E-05 2.63908E-07-3.71418E-05 4.19903E-07-1.64346E-18-1.94869E-18
 -1       128 8.48035E-05 6.36599E-06-3.88617E-05 3.01021E-07-4.42310E-18 2.37067E-19
 -1       129 8.38928E-05 9.42448E-06-3.97135E-05 7.79833E-08-1.09718E-18 3.09868E-19
 -1       130 8.41631E-05 8.51935E-06-3.94532E-05-1.77439E-07 1.25851E-18 3.85603E-19
 -1       131 8.55611E-05 3.81998E-06-3.81243E-05-3.80944E-07 2.95416E-19-9.12752E-19
 -1       132 8.77045E-05-3.38230E-06-3.60733E-05-4.64911E-07 3.02285E-19 2.11822E-18
 -1       133 9.01777E-05-1.16930E-05-3.36848E-05-4.48133E-07 4.15538E-18 7.16903E-20
 -1       134 9.24766E-05-1.94458E-05-3.14448E-05-3.78031E-07 1.72725E-18-4.84551E-19
 -1       135 9.42301E-05-2.52730E-05-2.97261E-05-3.05255E-07-2.24570E-18-1.58623E-19
 -1       136 9.50532E-05-2.82135E-05-2.87189E-05 1.80133E-07-1.60758E-18 1.20546E-19
 -1       137 2.90788E-05-9.78904E-05 1.76153E-05-2.61415E-05 1.32582E-18 8.86420E-19
 -1       138 8.84024E-06-4.04606E-05 4.97690E-06-2.15118E-05 9.62484E-18 5.36955E-18
 -1       139 1.33579E-05 1.56587E-05-1.58577E-05 2.65807E-05 1.39197E-17 9.81881E-18
 -1       140 7.08485E-05 2.66946E-05-3.91362E-05 8.85745E-05 1.07768E-17 1.37465E-17
 -1       141 1.73950E-04-1.37040E-05-6.06767E-05 1.18397E-04 7.52313E-18 1.49345E-17
 -1       142 2.68405E-04-6.72790E-05-7.47282E-05 9.01282E-05 2.43406E-18 7.64405E-18
 -1       143 3.15452E-04-9.69276E-05-8.07460E-05 1.55987E-05-7.16272E-20 2.09265E-18
 -1       144 2.87039E-04-7.95525E-05-7.71795E-05-6.76970E-05 2.33868E-18-6.96113E-18
 -1       145 1.97842E-04-2.87526E-05-6.41330E-05-1.11388E-04 4.49774E-18-9.94544E-18
 -1       146 9.46376E-05 1.84609E-05-4.49122E-05-9.91495E-05 7.66057E-18-1.05024E-17
 -1       147 2.56673E-05 2.50997E-05-2.34166E-05-4.68426E-05 7.36537E-18-6.93381E-18
 -1       148 5.50273E-06-1.43646E-05-2.66913E-06 6.22263E-06 5.64759E-18-2.95382E-18
 -1       149 1.98369E-05-7.44129E-05 1.33101E-05 2.68483E-05-1.82027E-18-5.88582E-19
 -1       150 3.59265E-05-1.12414E-04 2.09990E-05 8.90455E-06-6.22559E-18 4.55386E-19
 -1       151 3.24309E-05-1.05644E-04 1.97663E-05-1.89419E-05-1.00858E-17-2.08274E-18
 -1       152 1.33890E-05-5.79145E-05 9.56983E-06-2.77486E-05-1.20745E-17-4.68801E-18
 -1       153 5.32872E-06-1.37743E-06-7.40517E-06 2.82213E-06-6.60940E-18-4.30716E-18
 -1       154 3.88099E-05 2.61929E-05-2.85682E-05 5.96809E-05-3.26108E-18-2.52712E-18
 -1       155 1.18439E-04 7.83294E-06-4.94697E-05 1.05099E-04 2.64698E-19-3.85824E-19
 -1       156 2.23304E-04-4.26884E-05-6.78072E-05 1.07615E-04 7.14261E-19 1.21888E-18
 -1       157 3.03192E-04-8.90602E-05-7.90025E-05 5.47146E-05 2.22565E-19 5.85448E-18
 -1       158 3.19607E-04-9.80339E-05-8.13863E-05-2.64897E-05-6.71009E-19 6.75069E-18
 -1       159 2.62913E-04-6.24608E-05-7.42047E-05-9.86389E-05-1.62440E-18 8.00361E-18
 -1       160 1.60694E-04-6.41287E-06-5.86532E-05-1.19833E-04-6.26423E-18 1.04308E-17
 -1       161 6.61220E-05 2.71178E-05-3.79370E-05-8.49268E-05-7.82108E-18 9.65575E-18
 -1       162 9.22580E-06-4.18158E-05 5.19049E-06 2.26036E-05-1.23040E-17 5.39729E-18
 -1       163 2.93258E-05-9.88196E-05 1.78314E-05 2.65406E-05-8.33777E-18 2.80529E-18
 -1       164 9.48705E-05-1.23484E-05-3.55697E-05-2.23488E-05-2.45264E-18 1.21504E-18
 -1       165 8.92441E-05-8.45138E-06-3.47880E-05-1.73863E-05-2.28614E-18-1.27602E-18
 -1       166 8.65552E-05-6.51008E-06-3.44159E-05-1.35949E-05-1.88162E-18-2.78927E-18
 -1       167 8.51909E-05-5.51459E-06-3.42301E-05-1.03682E-05-1.39503E-18-3.61692E-18
 -1       168 8.44468E-05-4.94475E-06-3.41414E-05-7.54768E-06-9.63257E-19-3.90768E-18
 -1       169 8.40196E-05-4.59964E-06-3.40988E-05-4.90405E-06-5.21094E-19-4.02717E-18
 -1       170 8.38015E-05-4.41545E-06-3.40807E-05-2.39543E-06-8.78003E-20-4.10294E-18
 -1       171 8.37373E-05-4.35977E-06-3.40760E-05 5.11639E-08 2.82753E-19-4.18210E-18
 -1       172 8.38117E-05-4.42395E-06-3.40816E-05 2.49985E-06 5.88575E-19-4.10112E-18
 -1       173 8.40419E-05-4.61901E-06-3.41003E-05 5.01509E-06 9.58034E-19-3.96107E-18
 -1       174 8.44747E-05-4.97195E-06-3.41422E-05 7.62455E-06 1.32293E-18-3.62038E-18
 -1       175 8.52507E-05-5.57428E-06-3.42320E-05 1.05137E-05 1.85455E-18-3.05099E-18
 -1       176 8.66471E-05-6.60849E-06-3.44185E-05 1.37845E-05 2.31069E-18-2.17023E-18
 -1       177 8.93928E-05-8.60021E-06-3.47924E-05 1.76240E-05 2.53369E-18-4.01454E-19
 -1       178 9.57815E-05-1.36141E-05-3.54260E-05 2.18948E-05 2.40597E-18 2.79936E-18
 -1       179 1.05608E-04-2.61029E-05-3.52638E-05 1.86638E-05 1.76044E-18 7.13832E-18
 -1       180 1.03402E-04-2.73030E-05-3.26115E-05-1.21289E-05-2.12751E-18 4.34364E-18
 -1       181 9.71109E-05-2.82900E-05-2.95298E-05-4.73134E-06-1.91492E-18 3.18078E-18
 -1       182 9.35105E-05-2.76379E-05-2.81830E-05-1.76904E-06-1.37458E-18 2.23650E-18
 -1       183 9.19750E-05-2.74069E-05-2.76367E-05-4.21585E-07-8.66076E-19 1.36661E-18
 -1       184 9.13986E-05-2.73315E-05-2.74390E-05 2.41864E-07-5.51211E-19 8.60721E-19
 -1       185 9.13559E-05-2.73701E-05-2.74139E-05 5.67207E-07-5.54625E-19 7.06057E-19
 -1       186 9.15982E-05-2.74725E-05-2.74785E-05 7.05338E-07-3.69667E-19 4.44008E-19
 -1       187 9.19802E-05-2.76043E-05-2.75879E-05 7.35340E-07-5.68621E-19 2.49480E-20
 -1       188 9.24149E-05-2.77440E-05-2.77155E-05 7.03271E-07-5.72941E-19-1.06080E-20
 -1       189 9.28506E-05-2.78789E-05-2.78451E-05 6.37830E-07-2.33102E-19-3.14703E-19
 -1       190 9.32583E-05-2.80021E-05-2.79674E-05 5.57559E-07-1.84536E-19-7.20829E-19
 -1       191 9.36238E-05-2.81104E-05-2.80777E-05 4.74623E-07-2.65704E-19-8.92513E-19
 -1       192 9.39426E-05-2.82033E-05-2.81746E-05 3.97065E-07-2.44117E-19-8.75804E-19
 -1       193 9.42171E-05-2.82819E-05-2.82584E-05 3.30290E-07-9.65265E-20-9.76629E-19
 -1       194 9.44543E-05-2.83486E-05-2.83314E-05 2.78111E-07-3.49304E-19-1.47771E-18
 -1       195 9.46648E-05-2.84067E-05-2.83965E-05 2.43547E-07-6.13571E-20-1.83096E-18
 -1       196 9.48621E-05-2.84602E-05-2.84579E-05 2.29440E-07-2.50725E-19-1.84465E-18
 -1       197 9.50624E-05-2.85136E-05-2.85205E-05 2.38951E-07-3.09893E-19-1.63222E-18
 -1       198 9.52848E-05-2.85727E-05-2.85901E-05 2.75968E-07-7.28072E-19-1.25542E-18
 -1       199 9.55520E-05-2.86436E-05-2.86737E-05 3.45439E-07 2.88692E-19-1.98037E-18
 -1       200 9.58907E-05-2.87342E-05-2.87795E-05 4.53623E-07 4.78370E-19-2.10531E-18
 -1       201 9.63325E-05-2.88534E-05-2.89172E-05 6.08242E-07-3.77811E-20-2.00357E-18
 -1       202 9.69147E-05-2.90120E-05-2.90981E-05 8.18425E-07 2.50010E-19-1.49227E-18
 -1       203 9.76806E-05-2.92227E-05-2.93353E-05 1.09429E-06 3.62349E-19-6.04725E-19
 -1       204 9.86792E-05-2.95003E-05-2.96436E-05 1.44584E-06 5.56372E-19-4.02687E-19
 -1       205 9.99639E-05-2.98618E-05-3.00387E-05 1.88043E-06-6.99212E-19-4.88696E-19
 -1       206 1.01588E-04-3.03260E-05-3.05357E-05 2.39799E-06-5.82066E-19-6.26777E-19
 -1       207 1.03597E-04-3.09121E-05-3.11460E-05 2.98192E-06 2.84457E-19-1.46651E-18
 -1       208 1.06011E-04-3.16381E-05-3.18715E-05 3.58366E-06 4.08303E-19-8.85465E-19
 -1       209 1.08803E-04-3.25158E-05-3.26956E-05 4.09846E-06-5.01533E-19-6.84509E-19
 -1       210 1.11855E-04-3.35412E-05-3.35700E-05 4.33349E-06-1.04374E-18-1.40878E-18
 -1       211 1.14910E-04-3.46760E-05-3.43998E-05 3.97985E-06-7.66231E-19-1.58550E-18
 -1       212 1.17510E-04-3.58091E-05-3.50343E-05 2.62597E-06 1.28981E-19-1.24229E-18
 -1       213 1.18970E-04-3.66951E-05-3.52806E-05-1.08214E-07 1.81550E-18-1.47965E-18
 -1       214 1.18445E-04-3.68944E-05-3.49627E-05-4.22082E-06-6.95427E-19-2.20980E-18
 -1       215 1.15236E-04-3.58342E-05-3.40313E-05-8.79020E-06-1.42662E-18-1.72638E-18
 -1       216 1.09428E-04-3.31945E-05-3.26677E-05-1.16893E-05-5.92958E-19-2.30795E-18
 -1       217 1.02620E-04-2.96411E-05-3.12850E-05-1.04674E-05-1.69241E-20-2.56458E-18
 -1       218 9.77242E-05-2.69778E-05-3.03475E-05-4.53920E-06 6.18003E-20-2.94355E-18
 -1       219 9.71785E-05-2.69570E-05-3.01220E-05 3.22834E-06-1.54246E-18-2.88522E-18
 -1       220 1.00684E-04-2.93525E-05-3.05808E-05 8.39631E-06-2.43095E-19-4.56295E-18
 -1       221 1.05551E-04-3.22787E-05-3.14001E-05 8.70169E-06 6.87068E-19-4.80196E-18
 -1       222 1.08991E-04-3.40547E-05-3.21165E-05 5.24120E-06-1.75991E-20-2.67294E-18
 -1       223 1.09738E-04-3.42422E-05-3.23651E-05 6.15243E-07 1.86963E-18-1.07962E-18
 -1       224 1.07988E-04-3.32558E-05-3.20409E-05-3.13061E-06 2.09908E-18-2.64598E-18
 -1       225 1.04664E-04-3.16806E-05-3.12883E-05-5.08363E-06 2.74070E-19-1.95696E-18
 -1       226 1.00842E-04-2.99524E-05-3.03843E-05-5.08269E-06 6.25505E-19-1.93836E-18
 -1       227 9.73948E-05-2.83831E-05-2.95774E-05-3.31534E-06 2.22139E-19-6.14962E-19
 -1       228 9.95046E-05-2.85556E-05-3.05883E-05 7.21160E-06 1.88031E-18 6.07982E-18
 -1       229 9.44204E-05-2.77919E-05-2.85257E-05 2.74398E-06 1.39362E-18 4.57201E-18
 -1       230 9.21005E-05-2.74022E-05-2.76828E-05 9.30038E-07 1.08637E-18 3.43565E-18
 -1       231 9.11519E-05-2.72397E-05-2.73640E-05 6.81287E-08 9.59721E-19 2.56469E-18
 -1       232 9.09400E-05-2.72325E-05-2.72897E-05-3.59499E-07 4.79862E-19 1.88490E-18
 -1       233 9.11231E-05-2.73183E-05-2.73381E-05-5.59887E-07 1.68541E-19 1.45944E-18
 -1       234 9.15056E-05-2.74511E-05-2.74484E-05-6.32336E-07 4.30454E-19 1.18374E-18
 -1       235 9.19728E-05-2.76016E-05-2.75857E-05-6.30895E-07 4.83714E-19 8.17647E-19
 -1       236 9.24566E-05-2.77521E-05-2.77295E-05-5.87926E-07 1.86558E-19 3.02488E-19
 -1       237 9.29178E-05-2.78927E-05-2.78675E-05-5.23895E-07 1.45611E-19 9.40654E-19
 -1       238 9.33357E-05-2.80181E-05-2.79931E-05-4.52119E-07 1.54395E-19 5.47036E-19
 -1       239 9.37020E-05-2.81267E-05-2.81038E-05-3.81349E-07 6.84149E-20 6.65577E-19
 -1       240 9.40168E-05-2.82189E-05-2.81992E-05-3.17386E-07 4.04537E-19 5.75067E-19
 -1       241 9.42856E-05-2.82967E-05-2.82811E-05-2.64153E-07 7.72911E-19 5.64740E-20
 -1       242 9.45180E-05-2.83631E-05-2.83522E-05-2.24487E-07-2.62327E-19 2.57491E-19
 -1       243 9.47266E-05-2.84219E-05-2.84163E-05-2.00710E-07 3.85119E-20-4.85132E-19
 -1       244 9.49267E-05-2.84777E-05-2.84780E-05-1.95072E-07 6.33451E-19-8.44415E-20
 -1       245 9.51359E-05-2.85356E-05-2.85426E-05-2.10056E-07-1.58466E-19 3.03176E-19
 -1       246 9.53746E-05-2.86017E-05-2.86164E-05-2.48576E-07-6.25481E-19-7.06369E-20
 -1       247 9.56662E-05-2.86828E-05-2.87064E-05-3.14022E-07-3.70332E-19-2.45969E-20
 -1       248 9.60370E-05-2.87868E-05-2.88206E-05-4.10132E-07 7.64594E-20 5.89143E-20
 -1       249 9.65166E-05-2.89224E-05-2.89679E-05-5.40598E-07 1.29424E-18-4.83785E-19
 -1       250 9.71367E-05-2.90996E-05-2.91576E-05-7.08281E-07 1.05517E-18-1.64796E-18
 -1       251 9.79297E-05-2.93286E-05-2.93993E-05-9.13835E-07-7.84028E-19-1.68329E-18
 -1       252 9.89253E-05-2.96196E-05-2.97015E-05-1.15347E-06-5.07223E-19-9.75671E-19
 -1       253 1.00145E-04-2.99812E-05-3.00697E-05-1.41554E-06 5.81127E-19-6.27044E-19
 -1       254 1.01592E-04-3.04182E-05-3.05035E-05-1.67554E-06 1.47513E-18-2.48423E-19
 -1       255 1.03240E-04-3.09276E-05-3.09925E-05-1.88970E-06-1.30263E-18-1.12670E-18
 -1       256 1.05012E-04-3.14939E-05-3.15102E-05-1.98782E-06-7.63803E-19-4.17911E-19
 -1       257 1.06758E-04-3.20808E-05-3.20082E-05-1.86861E-06-1.23866E-19-2.55677E-19
 -1       258 1.08241E-04-3.26224E-05-3.24114E-05-1.40447E-06-3.31981E-20 1.73044E-19
 -1       259 1.09121E-04-3.30138E-05-3.26192E-05-4.67907E-07-6.67447E-19 8.94708E-19
 -1       260 1.08993E-04-3.31084E-05-3.25198E-05 1.00500E-06-5.30435E-19 1.91996E-18
 -1       261 1.07473E-04-3.27344E-05-3.20237E-05 2.90854E-06 2.14263E-19 1.61888E-18
 -1       262 1.04376E-04-3.17528E-05-3.11147E-05 4.85019E-06 6.46099E-19 4.74153E-19
 -1       263 9.99523E-05-3.01741E-05-2.99000E-05 6.13649E-06 4.45475E-19-1.23290E-19
 -1       264 9.50482E-05-2.82811E-05-2.86215E-05 6.00727E-06 1.88298E-19-1.71805E-18
 -1       265 9.09759E-05-2.66365E-05-2.75934E-05 4.11557E-06 1.44700E-18-1.39583E-18
 -1       266 8.89866E-05-2.58533E-05-2.70785E-05 9.68125E-07 4.33711E-19-1.55507E-18
 -1       267 8.95638E-05-2.61926E-05-2.71687E-05-2.19102E-06-7.96194E-19-2.42655E-18
 -1       268 9.21163E-05-2.73721E-05-2.77417E-05-4.10691E-06 1.33805E-18-2.84157E-18
 -1       269 9.53442E-05-2.87667E-05-2.85176E-05-4.25860E-06-8.56156E-19-1.83651E-18
 -1       270 9.79700E-05-2.98098E-05-2.91955E-05-3.00255E-06 8.75442E-19-1.26502E-18
 -1       271 9.92687E-05-3.02364E-05-2.95753E-05-1.16291E-06-1.29492E-19-3.02616E-18
 -1       272 9.91780E-05-3.00798E-05-2.96117E-05 4.64965E-07 6.97990E-19-2.50604E-18
 -1       273 9.81183E-05-2.95449E-05-2.93946E-05 1.36414E-06 6.04071E-19-6.75967E-19
 -1       274 9.67276E-05-2.88899E-05-2.90814E-05 1.33086E-06 4.07560E-19-2.36118E-18
 -1       275 9.56171E-05-2.84280E-05-2.87920E-05 5.50140E-07-1.48114E-19-2.05567E-18
 -1       276 9.53706E-05-2.76936E-05-2.89954E-05 1.20575E-06-1.54415E-18 1.91870E-18
 -1       277 9.49849E-05-2.61436E-05-2.94922E-05 2.69473E-06-1.58556E-19-4.78557E-20
 -1       278 9.42620E-05-2.36083E-05-3.02718E-05 4.43624E-06 2.50363E-19 1.98830E-18
 -1       279 9.31106E-05-1.99477E-05-3.13508E-05 6.15398E-06-5.71891E-19 1.43546E-18
 -1       280 9.15230E-05-1.53840E-05-3.26340E-05 7.35628E-06-1.54421E-18-3.29562E-19
 -1       281 8.95905E-05-1.02727E-05-3.40045E-05 7.47420E-06-1.39791E-18-2.79016E-18
 -1       282 8.77026E-05-5.59652E-06-3.52063E-05 6.02178E-06 3.70445E-19-1.35743E-18
 -1       283 8.63665E-05-2.44365E-06-3.59889E-05 3.01655E-06 9.45845E-19 1.73924E-18
 -1       284 8.60219E-05-1.68811E-06-3.61658E-05-8.88386E-07 5.15997E-19 8.23544E-19
 -1       285 8.68037E-05-3.58950E-06-3.56838E-05-4.62647E-06-1.23816E-19 3.79520E-19
 -1       286 8.84253E-05-7.57725E-06-3.46636E-05-7.18655E-06 2.18558E-18 1.03143E-18
 -1       287 9.04759E-05-1.28222E-05-3.32866E-05-8.18115E-06 2.25698E-18 1.44530E-18
 -1       288 9.24685E-05-1.81814E-05-3.18346E-05-7.64222E-06 1.42631E-18-6.85659E-19
 -1       289 9.41877E-05-2.28464E-05-3.05669E-05-5.84891E-06 1.20539E-18-2.04872E-18
 -1       290 9.58033E-05-2.59528E-05-2.99222E-05-5.11904E-06 1.17213E-18-1.40506E-18
 -1       291 1.38047E-05-5.30424E-05 1.32715E-05 8.36903E-06-9.41371E-19 3.04064E-18
 -1       292 2.82419E-05-4.92182E-05 5.95349E-06 2.22674E-05 1.54626E-18 5.32884E-18
 -1       293 6.20221E-05-4.39463E-05-9.16875E-06 3.98404E-05 2.83375E-18 5.83103E-18
 -1       294 9.72334E-05-3.27238E-05-2.77875E-05 4.71553E-05 6.95160E-18 8.00912E-18
 -1       295 1.47258E-04-3.41379E-05-4.70858E-05 4.42082E-05 5.58714E-18 7.82764E-18
 -1       296 1.85152E-04-3.31296E-05-6.24845E-05 3.55605E-05 6.69540E-18 4.87976E-18
 -1       297 2.08537E-04-3.46162E-05-7.11674E-05 1.72582E-05 3.50269E-18 2.16967E-18
 -1       298 2.07546E-04-3.29759E-05-7.17636E-05-5.03974E-06 4.00848E-18-5.00173E-19
 -1       299 1.85095E-04-3.19621E-05-6.36956E-05-1.96041E-05 2.30123E-18-1.77242E-19
 -1       300 1.55489E-04-3.24573E-05-5.10807E-05-4.27429E-05 1.87401E-18-1.57739E-18
 -1       301 1.08949E-04-3.02129E-05-3.34878E-05-4.71134E-05 1.32942E-18-2.13283E-18
 -1       302 7.15879E-05-3.85112E-05-1.52434E-05-4.01506E-05-5.24313E-19-2.03140E-18
 -1       303 3.69308E-05-4.28663E-05 4.65279E-07-2.94488E-05-1.99921E-18-2.56196E-18
 -1       304 1.62374E-05-4.84488E-05 1.08795E-05-1.36450E-05-2.20694E-18-2.66106E-18
 -1       305 9.59636E-06-4.34557E-05 1.22433E-05 1.73324E-06-2.48108E-18-1.98936E-18
 -1       306 2.09280E-05-4.83267E-05 8.79067E-06 1.54540E-05-3.08638E-18-1.65796E-18
 -1       307 4.28633E-05-4.22677E-05-2.66235E-06 2.73093E-05-3.80805E-18 1.51246E-18
 -1       308 7.84975E-05-3.56451E-05-1.93998E-05 3.94657E-05-1.58416E-18 1.02279E-18
 -1       309 1.22934E-04-3.36276E-05-3.77527E-05 4.46475E-05-1.08039E-18 1.85267E-18
 -1       310 1.67545E-04-3.54710E-05-5.46278E-05 3.68738E-05 7.57539E-19 3.69095E-18
 -1       311 2.03887E-04-3.76628E-05-6.77890E-05 2.41545E-05-4.18011E-19 5.46760E-18
 -1       312 2.19856E-04-3.87061E-05-7.36043E-05 1.81768E-06 3.86035E-19 4.51527E-18
 -1       313 2.09871E-04-3.53071E-05-7.12011E-05-2.00675E-05-1.18542E-18 3.26129E-18
 -1       314 1.85215E-04-3.41509E-05-6.17747E-05-4.10105E-05-3.90570E-18 3.67570E-18
 -1       315 1.43445E-04-3.38308E-05-4.57049E-05-4.65899E-05-3.36399E-18 5.02142E-18
 -1       316 1.02036E-04-4.05704E-05-2.66013E-05-4.49713E-05-2.42717E-18 2.57202E-18
 -1       317 5.63641E-05-4.20080E-05-7.96321E-06-3.65504E-05-4.62649E-18 1.00590E-18
 -1       318 2.79304E-05-4.98168E-05 6.16859E-06-2.10583E-05-3.39533E-18 2.95937E-18
 -1       319 1.41024E-05-5.40160E-05 1.34741E-05-7.57050E-06-2.90511E-18 2.20652E-18
 -1       320 9.16326E-05-1.44455E-05-3.31579E-05-1.29833E-05-2.43994E-18-1.24548E-18
 -1       321 9.57119E-05-1.91118E-05-3.28912E-05-1.46368E-05-2.67283E-18 2.16662E-19
 -1       322 8.80035E-05-1.03757E-05-3.33242E-05-8.15488E-06-1.43021E-18-2.75773E-18
 -1       323 8.71895E-05-9.45465E-06-3.33634E-05-5.71863E-06-9.25484E-19-3.05296E-18
 -1       324 8.67303E-05-8.92528E-06-3.33900E-05-3.36752E-06-3.38898E-19-3.09865E-18
 -1       325 8.65255E-05-8.68566E-06-3.34034E-05-1.07274E-06 1.55593E-19-3.23311E-18
 -1       326 8.65342E-05-8.69519E-06-3.34031E-05 1.20363E-06 5.44684E-19-3.16938E-18
 -1       327 8.67579E-05-8.95597E-06-3.33888E-05 3.50052E-06 1.02272E-18-3.11045E-18
 -1       328 8.72296E-05-9.49974E-06-3.33615E-05 5.81573E-06 1.39958E-18-2.87853E-18
 -1       329 8.80682E-05-1.04508E-05-3.33200E-05 8.25517E-06 1.97286E-18-2.36171E-18
 -1       330 8.94829E-05-1.20335E-05-3.32592E-05 1.07641E-05 2.54828E-18-1.76955E-18
 -1       331 9.19030E-05-1.47225E-05-3.31585E-05 1.31695E-05 2.83025E-18-7.66605E-19
 -1       332 9.58067E-05-1.94580E-05-3.28287E-05 1.43763E-05 2.83443E-18 1.20870E-18
 -1       333 9.87943E-05-2.44452E-05-3.19520E-05 1.18984E-05 2.50894E-18 3.09548E-18
 -1       334 9.63933E-05-2.68133E-05-2.97905E-05 5.74163E-06 2.05948E-18 2.33218E-18
 -1       335 9.64397E-05-2.60302E-05-3.01310E-05-6.34601E-06-2.07054E-18 5.84546E-19
 -1       336 9.49195E-05-2.70283E-05-2.90708E-05-2.83494E-06-1.63330E-18 3.27440E-19
 -1       337 9.39434E-05-2.74263E-05-2.84927E-05-9.23672E-07-1.00424E-18 1.04128E-19
 -1       338 9.34239E-05-2.76390E-05-2.81869E-05 1.35391E-07-7.28449E-19-1.41064E-19
 -1       339 9.32310E-05-2.77920E-05-2.80425E-05 6.99112E-07-6.49187E-19-2.49344E-19
 -1       340 9.32468E-05-2.79214E-05-2.79957E-05 9.65698E-07-6.55352E-19-5.23323E-19
 -1       341 9.33845E-05-2.80357E-05-2.80066E-05 1.05241E-06-3.47216E-19-4.57545E-19
 -1       342 9.35848E-05-2.81361E-05-2.80499E-05 1.03233E-06-3.92527E-19-3.93393E-19
 -1       343 9.38091E-05-2.82224E-05-2.81092E-05 9.52867E-07-3.53221E-19-5.74164E-19
 -1       344 9.40338E-05-2.82949E-05-2.81745E-05 8.45443E-07-4.13458E-19-7.34068E-19
 -1       345 9.42458E-05-2.83541E-05-2.82400E-05 7.31171E-07-3.15802E-19-9.43334E-19
 -1       346 9.44397E-05-2.84016E-05-2.83027E-05 6.24397E-07 2.97001E-20-6.94680E-19
 -1       347 9.46154E-05-2.84391E-05-2.83617E-05 5.35135E-07-3.87474E-19-5.61397E-19
 -1       348 9.47764E-05-2.84687E-05-2.84179E-05 4.70822E-07-3.24455E-19-9.69467E-19
 -1       349 9.49297E-05-2.84927E-05-2.84731E-05 4.37645E-07-2.54914E-19-1.08248E-18
 -1       350 9.50843E-05-2.85135E-05-2.85302E-05 4.41567E-07-1.31655E-19-1.20254E-18
 -1       351 9.52519E-05-2.85339E-05-2.85930E-05 4.89134E-07-2.56772E-20-1.22784E-18
 -1       352 9.54462E-05-2.85570E-05-2.86660E-05 5.88095E-07-6.45818E-19-1.22655E-18
 -1       353 9.56836E-05-2.85863E-05-2.87548E-05 7.47864E-07-1.63679E-20-1.65586E-18
 -1       354 9.59831E-05-2.86261E-05-2.88656E-05 9.79775E-07 9.08776E-19-1.77723E-18
 -1       355 9.63665E-05-2.86814E-05-2.90057E-05 1.29704E-06 7.85858E-19-6.91267E-19
 -1       356 9.68589E-05-2.87588E-05-2.91829E-05 1.71426E-06 2.37047E-19-1.00302E-18
 -1       357 9.74880E-05-2.88669E-05-2.94054E-05 2.24599E-06 4.36814E-19-8.63177E-19
 -1       358 9.82843E-05-2.90177E-05-2.96813E-05 2.90394E-06 6.42590E-19-1.56194E-18
 -1       359 9.92800E-05-2.92286E-05-3.00171E-05 3.69153E-06 6.21614E-20 1.39644E-20
 -1       360 1.00508E-04-2.95263E-05-3.04157E-05 4.59422E-06-8.22188E-19 2.63076E-19
 -1       361 1.02003E-04-2.99531E-05-3.08738E-05 5.56324E-06 1.88086E-19-4.13889E-19
 -1       362 1.03797E-04-3.05751E-05-3.13780E-05 6.49025E-06 1.71601E-20-1.45864E-18
 -1       363 1.05924E-04-3.14910E-05-3.19009E-05 7.17158E-06-6.15768E-19-1.38191E-18
 -1       364 1.08410E-04-3.28281E-05-3.24003E-05 7.26735E-06-5.92950E-19 8.99249E-20
 -1       365 1.11253E-04-3.47002E-05-3.28259E-05 6.27767E-06 3.60358E-19 1.07389E-18
 -1       366 1.14334E-04-3.70691E-05-3.31404E-05 3.59533E-06-2.01501E-21 5.70009E-19
 -1       367 1.17228E-04-3.94635E-05-3.33608E-05-1.23856E-06 5.88532E-19-7.12101E-19
 -1       368 1.18980E-04-4.06641E-05-3.35958E-05-7.92970E-06-1.10395E-18-1.15147E-18
 -1       369 1.18192E-04-3.88728E-05-3.40275E-05-1.45321E-05-4.90516E-19-6.24647E-19
 -1       370 1.14195E-04-3.32678E-05-3.47169E-05-1.71123E-05-8.12856E-19-1.41885E-18
 -1       371 1.08708E-04-2.61826E-05-3.54295E-05-1.22946E-05 2.94807E-19-1.60488E-18
 -1       372 1.06101E-04-2.32773E-05-3.55765E-05-1.14411E-06-1.67408E-19-1.23606E-18
 -1       373 1.08216E-04-2.69469E-05-3.48967E-05 9.25896E-06-1.67376E-18-1.12770E-18
 -1       374 1.12384E-04-3.36966E-05-3.37604E-05 1.26720E-05-8.45786E-19-7.47081E-19
 -1       375 1.14638E-04-3.83587E-05-3.27173E-05 8.94956E-06 1.44519E-18-1.74391E-18
 -1       376 1.13634E-04-3.90677E-05-3.19864E-05 2.09071E-06 1.82668E-18-3.07495E-19
 -1       377 1.10369E-04-3.69951E-05-3.14733E-05-4.18870E-06 1.41129E-18-2.06540E-18
 -1       378 1.06210E-04-3.38224E-05-3.10413E-05-8.08522E-06 1.86400E-19-9.95823E-19
 -1       379 1.02050E-04-3.05504E-05-3.06466E-05-9.21459E-06-1.32421E-18-1.73774E-18
 -1       380 9.87543E-05-2.80199E-05-3.03002E-05-7.95323E-06 1.29489E-18-2.34719E-18
 -1       381 9.43732E-05-2.73421E-05-2.86894E-05 2.46934E-06 1.61516E-18 1.67414E-18
 -1       382 9.31665E-05-2.74619E-05-2.81373E-05 7.44681E-07 1.33653E-18 1.21800E-18
 -1       383 9.26118E-05-2.75393E-05-2.78783E-05-1.75929E-07 8.74182E-19 8.71106E-19
 -1       384 9.24689E-05-2.76317E-05-2.77832E-05-6.50944E-07 3.80837E-19 2.84807E-19
 -1       385 9.25699E-05-2.77406E-05-2.77824E-05-8.67955E-07 4.12061E-19 9.35200E-21
 -1       386 9.28033E-05-2.78563E-05-2.78341E-05-9.31968E-07 8.14212E-19 1.58917E-19
 -1       387 9.30975E-05-2.79696E-05-2.79122E-05-9.06440E-07 5.76312E-19-1.43797E-19
 -1       388 9.34077E-05-2.80745E-05-2.80005E-05-8.31685E-07-2.88070E-19-3.58173E-20
 -1       389 9.37076E-05-2.81676E-05-2.80893E-05-7.34100E-07 3.05514E-19 3.56092E-19
 -1       390 9.39833E-05-2.82476E-05-2.81732E-05-6.31233E-07 1.41075E-19 3.66359E-19
 -1       391 9.42297E-05-2.83149E-05-2.82499E-05-5.34868E-07 8.69772E-19-1.90499E-19
 -1       392 9.44475E-05-2.83710E-05-2.83190E-05-4.53087E-07 7.74888E-19-1.99626E-20
 -1       393 9.46418E-05-2.84180E-05-2.83820E-05-3.91716E-07-2.04556E-19 2.14826E-19
 -1       394 9.48211E-05-2.84588E-05-2.84412E-05-3.55397E-07 3.07318E-19-2.46556E-19
 -1       395 9.49963E-05-2.84965E-05-2.84998E-05-3.48371E-07 2.48763E-19-2.99867E-19
 -1       396 9.51807E-05-2.85349E-05-2.85621E-05-3.75033E-07 1.85106E-19 3.13529E-19
 -1       397 9.53899E-05-2.85783E-05-2.86328E-05-4.40265E-07-7.49477E-20-4.99325E-19
 -1       398 9.56418E-05-2.86318E-05-2.87175E-05-5.49531E-07 2.14365E-20-8.87977E-19
 -1       399 9.59567E-05-2.87013E-05-2.88223E-05-7.08655E-07-2.73509E-19-1.33365E-18
 -1       400 9.63573E-05-2.87938E-05-2.89539E-05-9.23179E-07 1.74085E-18-1.30274E-18
 -1       401 9.68677E-05-2.89176E-05-2.91192E-05-1.19711E-06 1.27353E-18-1.12611E-18
 -1       402 9.75128E-05-2.90824E-05-2.93247E-05-1.53075E-06-8.72712E-19-9.92856E-19
 -1       403 9.83162E-05-2.92997E-05-2.95757E-05-1.91734E-06-5.19408E-19-1.00424E-18
 -1       404 9.92963E-05-2.95824E-05-2.98747E-05-2.33791E-06 4.53699E-19-1.29294E-18
 -1       405 1.00462E-04-2.99449E-05-3.02196E-05-2.75413E-06 6.98827E-19 9.12763E-20
 -1       406 1.01804E-04-3.04014E-05-3.06005E-05-3.09921E-06-3.83187E-19 1.11356E-18
 -1       407 1.03286E-04-3.09634E-05-3.09972E-05-3.26813E-06-2.20959E-19 2.31293E-19
 -1       408 1.04830E-04-3.16312E-05-3.13760E-05-3.11148E-06-1.58418E-19 1.15861E-18
 -1       409 1.06301E-04-3.23802E-05-3.16894E-05-2.44213E-06-3.90984E-19 8.40109E-20
 -1       410 1.07489E-04-3.31335E-05-3.18795E-05-1.07110E-06-1.11857E-18 1.10895E-18
 -1       411 1.08103E-04-3.37284E-05-3.18901E-05 1.10647E-06-8.70715E-19 1.43718E-18
 -1       412 1.07792E-04-3.38915E-05-3.16862E-05 3.96456E-06 4.85586E-19 1.10268E-18
 -1       413 1.06237E-04-3.32772E-05-3.12775E-05 6.97090E-06 1.19963E-18 1.51160E-18
 -1       414 1.03369E-04-3.16619E-05-3.07324E-05 9.12159E-06 1.32442E-18 1.00842E-18
 -1       415 9.96500E-05-2.92519E-05-3.01642E-05 9.23927E-06 9.26064E-19 5.08137E-19
 -1       416 9.61629E-05-2.68622E-05-2.96909E-05 6.66573E-06 6.93234E-19-8.89055E-19
 -1       417 9.42241E-05-2.56305E-05-2.93835E-05 2.01878E-06 3.61670E-19-7.46353E-19
 -1       418 9.45005E-05-2.61611E-05-2.92688E-05-2.83557E-06 3.14630E-19-7.18618E-19
 -1       419 9.65080E-05-2.80326E-05-2.93308E-05-5.89111E-06 5.50861E-20-1.09135E-18
 -1       420 9.89722E-05-3.01317E-05-2.94968E-05-6.25161E-06-4.94126E-19 7.42120E-19
 -1       421 1.00715E-04-3.15041E-05-2.96664E-05-4.41309E-06 1.07036E-19 1.92592E-19
 -1       422 1.01189E-04-3.18061E-05-2.97472E-05-1.63098E-06 1.33567E-18 1.05635E-18
 -1       423 1.00477E-04-3.12153E-05-2.96960E-05 8.78290E-07-2.64187E-19 7.00475E-19
 -1       424 9.89823E-05-3.00991E-05-2.95291E-05 2.33686E-06 1.50456E-19 1.20979E-18
 -1       425 9.72363E-05-2.88785E-05-2.92980E-05 2.45535E-06 4.16041E-19 1.61490E-18
 -1       426 9.62329E-05-2.81890E-05-2.91569E-05 2.02044E-06 1.92033E-19 2.62259E-18
 -1       427 9.60639E-05-2.50001E-05-3.04432E-05 8.69712E-06-5.91529E-19 2.18113E-18
 -1       428 9.65854E-05-2.68474E-05-2.98771E-05 5.89558E-06 3.27736E-19 1.72424E-18
 -1       429 9.64064E-05-2.75666E-05-2.94929E-05 3.73137E-06-2.13480E-19-1.29664E-19
 -1       430 9.47257E-05-2.22093E-05-3.10713E-05 1.11852E-05-1.13810E-18-2.85709E-18
 -1       431 9.23743E-05-1.84014E-05-3.17065E-05 1.24808E-05-1.87226E-18 2.92813E-19
 -1       432 8.93341E-05-1.41224E-05-3.22490E-05 1.15309E-05-6.36784E-19-1.42229E-18
 -1       433 8.64471E-05-1.03794E-05-3.26242E-05 7.82933E-06-9.39520E-19 5.20343E-19
 -1       434 8.48105E-05-8.36536E-06-3.27897E-05 1.89689E-06-1.38218E-18-6.93518E-19
 -1       435 8.51510E-05-8.83668E-06-3.27325E-05-4.70110E-06-1.86967E-18 9.51158E-19
 -1       436 8.72564E-05-1.15556E-05-3.24639E-05-9.99254E-06 5.27667E-20 1.33306E-18
 -1       437 9.03140E-05-1.56618E-05-3.20046E-05-1.28936E-05 1.23116E-18 3.66363E-18
 -1       438 9.32991E-05-1.99678E-05-3.14242E-05-1.30984E-05 1.81262E-18-3.28152E-19
 -1       439 9.56059E-05-2.36394E-05-3.08238E-05-1.12466E-05 1.42397E-18-1.67794E-18
 -1       440 6.06924E-05-4.48248E-05-6.83917E-06 4.62883E-05 1.85712E-18 7.81420E-18
 -1       441 1.38851E-05-2.48563E-05 4.59667E-06 2.36615E-07 8.64094E-19 3.80064E-18
 -1       442 3.04154E-05-3.18739E-05 6.67354E-07 3.22355E-05 8.01505E-19 5.96703E-18
 -1       443 1.10298E-04-5.91971E-05-2.18187E-05 4.27475E-05 1.31322E-18 5.81568E-18
 -1       444 1.39257E-04-5.75936E-05-3.50503E-05 2.71218E-05 2.46010E-18 1.91154E-18
 -1       445 8.93634E-05-1.18976E-05-3.32657E-05-1.06485E-05-1.93468E-18-2.27530E-18
 -1       446 1.61129E-04-2.20928E-05-5.95083E-05 5.86249E-07 5.64230E-18 1.05254E-18
 -1       447 1.60118E-04-1.20671E-05-6.33022E-05 1.51750E-06 4.26280E-18-3.15480E-19
 -1       448 1.58668E-04-1.67544E-05-6.08679E-05 3.94765E-06 2.02780E-18 6.21087E-19
 -1       449 1.57868E-04-3.69012E-05-5.17684E-05-4.02998E-06 5.40301E-19-2.29546E-19
 -1       450 1.43304E-04-5.09463E-05-3.95317E-05-2.06499E-05-1.15874E-18 1.50137E-19
 -1       451 1.16302E-04-5.60200E-05-2.58504E-05-3.59016E-05-2.76514E-18 9.03467E-19
 -1       452 7.85677E-05-4.98890E-05-1.21790E-05-4.53911E-05-2.53760E-18-4.42389E-19
 -1       453 3.58804E-05-3.33163E-05-1.11053E-06-3.59758E-05-2.66371E-18-2.26010E-18
 -1       454 1.62403E-05-2.36920E-05 3.30155E-06-1.51407E-05-4.73862E-19-1.92573E-18
 -1       455 1.95939E-05-2.80878E-05 3.51578E-06 1.98899E-05-7.97164E-19-8.34222E-19
 -1       456 4.77346E-05-4.03058E-05-3.36650E-06 3.84858E-05-1.20819E-18 2.32511E-19
 -1       457 8.74906E-05-5.37160E-05-1.45988E-05 4.15096E-05-2.52765E-18 1.21115E-18
 -1       458 1.27954E-04-6.07895E-05-2.88100E-05 2.79544E-05-1.79285E-18 3.18855E-18
 -1       459 1.48261E-04-5.34717E-05-4.06910E-05 1.20184E-05-9.31842E-19 2.51844E-18
 -1       460 1.62563E-04-3.31737E-05-5.52439E-05-2.79866E-06-9.31524E-19 3.10109E-18
 -1       461 1.66883E-04-1.91422E-05-6.29767E-05-4.98760E-06 8.89385E-20 3.33810E-18
 -1       462 1.62011E-04-1.36880E-05-6.34470E-05-1.99585E-06-5.23890E-19 3.59780E-18
 -1       463 1.61165E-04-2.53401E-05-5.81737E-05 8.68912E-07-2.42887E-18 2.37275E-18
 -1       464 1.59964E-04-4.29901E-05-4.98636E-05-1.23255E-05-3.42436E-18 1.62800E-18
 -1       465 1.40207E-04-5.70213E-05-3.55901E-05-2.76330E-05-4.96838E-19 4.88145E-18
 -1       466 1.04353E-04-5.94171E-05-1.92732E-05-4.40745E-05-1.52805E-18-1.09519E-18
 -1       467 5.91585E-05-4.57714E-05-5.98846E-06-4.49343E-05-8.10928E-19 8.72603E-19
 -1       468 2.63962E-05-3.39803E-05 2.83702E-06-2.86518E-05-9.70276E-19 2.09207E-18
 -1       469 1.55844E-04-4.07213E-05-4.93981E-05 4.75479E-06 4.29541E-18-4.63433E-19
 -1       470 1.46080E-04-2.47311E-05-5.24429E-05 1.09034E-05 1.68718E-18 1.97115E-18
 -1       471 2.05730E-05-1.63939E-05-1.19128E-06 2.62798E-06 2.22373E-19-1.45033E-18
 -1       472 9.58209E-05-2.51488E-05-3.02739E-05 6.01860E-06 2.03726E-18 2.32615E-19
 -1       473 8.95403E-05-1.34027E-05-3.26495E-05-3.92570E-06-6.25774E-19-2.59386E-18
 -1       474 9.02449E-05-1.43632E-05-3.25419E-05-5.88689E-06-1.14497E-18-2.48055E-18
 -1       475 8.90430E-05-1.27227E-05-3.27265E-05 5.46378E-08 3.23673E-19-2.89381E-18
 -1       476 8.91781E-05-1.29060E-05-3.27061E-05 2.04618E-06 7.70300E-19-2.87611E-18
 -1       477 8.95726E-05-1.34432E-05-3.26461E-05 3.99916E-06 1.15304E-18-2.67987E-18
 -1       478 9.02964E-05-1.44298E-05-3.25353E-05 5.95338E-06 1.67989E-18-2.20547E-18
 -1       479 9.14437E-05-1.60080E-05-3.23527E-05 7.78094E-06 2.12402E-18-1.66794E-18
 -1       480 9.32329E-05-1.84794E-05-3.20574E-05 9.29628E-06 2.43649E-18-1.18360E-18
 -1       481 9.51136E-05-2.65785E-05-2.93542E-05 2.87506E-06 1.73266E-18 1.98077E-19
 -1       482 9.54661E-05-2.44260E-05-3.04356E-05-5.81335E-06-1.86740E-18-6.56325E-19
 -1       483 9.52655E-05-2.62162E-05-2.95844E-05-2.89719E-06-1.38530E-18-5.68481E-19
 -1       484 9.49177E-05-2.71623E-05-2.90347E-05-1.03410E-06-8.14809E-19-6.64927E-19
 -1       485 9.46412E-05-2.76935E-05-2.86904E-05 8.87780E-08-9.27813E-19-6.65888E-19
 -1       486 9.44844E-05-2.80199E-05-2.84843E-05 7.23101E-07-7.71010E-19-7.23243E-19
 -1       487 9.44288E-05-2.82311E-05-2.83704E-05 1.04052E-06-5.23013E-19-5.55779E-19
 -1       488 9.44443E-05-2.83713E-05-2.83172E-05 1.15629E-06-2.84566E-19-5.04721E-19
 -1       489 9.45037E-05-2.84641E-05-2.83030E-05 1.14874E-06-4.51893E-19-5.46536E-19
 -1       490 9.45868E-05-2.85237E-05-2.83131E-05 1.07140E-06-5.64651E-19-4.10190E-19
 -1       491 9.46799E-05-2.85592E-05-2.83378E-05 9.61050E-07-3.34804E-19-1.51531E-19
 -1       492 9.47749E-05-2.85766E-05-2.83710E-05 8.43103E-07 9.57046E-20 2.85993E-19
 -1       493 9.48675E-05-2.85806E-05-2.84089E-05 7.35336E-07 5.14355E-21-3.72478E-19
 -1       494 9.49569E-05-2.85739E-05-2.84500E-05 6.50604E-07-6.50585E-19-3.54936E-19
 -1       495 9.50446E-05-2.85588E-05-2.84940E-05 5.98877E-07-4.92190E-19-2.62522E-19
 -1       496 9.51338E-05-2.85364E-05-2.85417E-05 5.88796E-07-6.86426E-19-6.44784E-19
 -1       497 9.52293E-05-2.85074E-05-2.85950E-05 6.28865E-07-7.86396E-19-1.40739E-18
 -1       498 9.53373E-05-2.84719E-05-2.86563E-05 7.28356E-07-7.49980E-19-2.12664E-18
 -1       499 9.54648E-05-2.84298E-05-2.87289E-05 8.97961E-07 2.43256E-20-1.24122E-18
 -1       500 9.56203E-05-2.83811E-05-2.88162E-05 1.15018E-06 6.91167E-19-9.81584E-19
 -1       501 9.58130E-05-2.83258E-05-2.89223E-05 1.49941E-06 1.12149E-18-1.63105E-18
 -1       502 9.60530E-05-2.82650E-05-2.90509E-05 1.96155E-06 8.07115E-19-1.63636E-18
 -1       503 9.63517E-05-2.82017E-05-2.92057E-05 2.55293E-06 4.83020E-19-8.46877E-19
 -1       504 9.67216E-05-2.81430E-05-2.93891E-05 3.28815E-06-6.30988E-20-1.12241E-18
 -1       505 9.71780E-05-2.81035E-05-2.96013E-05 4.17617E-06 6.98625E-19-7.34738E-19
 -1       506 9.77418E-05-2.81119E-05-2.98391E-05 5.21362E-06 1.82336E-19-8.94744E-19
 -1       507 9.84469E-05-2.82221E-05-3.00940E-05 6.37406E-06-4.68386E-19 7.37505E-19
 -1       508 9.93528E-05-2.85292E-05-3.03510E-05 7.59116E-06-5.27921E-19 4.44879E-19
 -1       509 1.00567E-04-2.91920E-05-3.05883E-05 8.73350E-06-3.47192E-19 1.23494E-19
 -1       510 1.02273E-04-3.04521E-05-3.07818E-05 9.56860E-06 4.88794E-19 1.35964E-18
 -1       511 1.04756E-04-3.26239E-05-3.09192E-05 9.71541E-06 2.80518E-19 1.59731E-18
 -1       512 1.08371E-04-3.59918E-05-3.10308E-05 8.59187E-06-1.16728E-19 1.29479E-18
 -1       513 1.13344E-04-4.04832E-05-3.12423E-05 5.40371E-06-1.11025E-19 1.57075E-18
 -1       514 1.19254E-04-4.50088E-05-3.18417E-05-6.09127E-07-2.21038E-19 7.09622E-19
 -1       515 1.24347E-04-4.67866E-05-3.32805E-05-9.36252E-06-9.37578E-19 1.99284E-18
 -1       516 1.25533E-04-4.20546E-05-3.58529E-05-1.81986E-05-1.94453E-18 2.19243E-19
 -1       517 1.19708E-04-2.91034E-05-3.92067E-05-2.01280E-05-8.70379E-19 1.05052E-21
 -1       518 1.15125E-04-1.85745E-05-4.17036E-05-9.27242E-06-1.01355E-18-1.13864E-18
 -1       519 1.15369E-04-1.95857E-05-4.13566E-05 6.17995E-06 2.91591E-19-1.75545E-18
 -1       520 1.20696E-04-3.16865E-05-3.83578E-05 1.42148E-05 1.89285E-19-1.34625E-19
 -1       521 1.23871E-04-4.29151E-05-3.47926E-05 1.09095E-05-1.40140E-18-5.28817E-19
 -1       522 1.21289E-04-4.61664E-05-3.22279E-05 2.03975E-06 1.16307E-18-6.69490E-19
 -1       523 1.15303E-04-4.32615E-05-3.08898E-05-6.16331E-06-1.73695E-19-1.41238E-18
 -1       524 1.08781E-04-3.78760E-05-3.03975E-05-1.12629E-05 5.09696E-19-2.48262E-18
 -1       525 1.03259E-04-3.24266E-05-3.03564E-05-1.30763E-05-9.48763E-19-4.28334E-18
 -1       526 5.64530E-05-3.27118E-05-9.64143E-06 4.04742E-05 2.70627E-19 7.92563E-18
 -1       527 9.41426E-05-2.76867E-05-2.84776E-05-1.17920E-07 9.36172E-19-1.94401E-19
 -1       528 9.39660E-05-2.79333E-05-2.82985E-05-7.26959E-07 7.57987E-19-6.02036E-19
 -1       529 9.39355E-05-2.81042E-05-2.82131E-05-1.02444E-06 5.43975E-19-1.05323E-18
 -1       530 9.39987E-05-2.82295E-05-2.81870E-05-1.12776E-06 5.68934E-19-8.19789E-19
 -1       531 9.41150E-05-2.83232E-05-2.81969E-05-1.11375E-06 1.62713E-19-3.24581E-19
 -1       532 9.42564E-05-2.83930E-05-2.82277E-05-1.03386E-06 1.99138E-19-9.36189E-19
 -1       533 9.44045E-05-2.84438E-05-2.82694E-05-9.22915E-07 3.95285E-19-1.09845E-18
 -1       534 9.45490E-05-2.84795E-05-2.83160E-05-8.04688E-07 4.83910E-19-8.81318E-19
 -1       535 9.46851E-05-2.85029E-05-2.83642E-05-6.95588E-07 5.50365E-19-4.67441E-19
 -1       536 9.48122E-05-2.85166E-05-2.84127E-05-6.07251E-07 2.00376E-19-2.14874E-19
 -1       537 9.49327E-05-2.85227E-05-2.84616E-05-5.48425E-07 2.64215E-20-1.89991E-19
 -1       538 9.50515E-05-2.85232E-05-2.85122E-05-5.26365E-07 4.59357E-19-5.95521E-19
 -1       539 9.51752E-05-2.85199E-05-2.85664E-05-5.47831E-07 2.16180E-20-7.48232E-19
 -1       540 9.53124E-05-2.85148E-05-2.86272E-05-6.19750E-07-8.54076E-20-4.75699E-19
 -1       541 9.54732E-05-2.85102E-05-2.86979E-05-7.49538E-07-1.17049E-19-3.35151E-19
 -1       542 9.56694E-05-2.85091E-05-2.87822E-05-9.45028E-07 5.38750E-19-1.02300E-18
 -1       543 9.59143E-05-2.85160E-05-2.88840E-05-1.21392E-06 6.16180E-19-2.50119E-18
 -1       544 9.62232E-05-2.85370E-05-2.90071E-05-1.56254E-06 7.28091E-19-6.76719E-19
 -1       545 9.66129E-05-2.85816E-05-2.91547E-05-1.99372E-06 8.57223E-20 1.53213E-19
 -1       546 9.71019E-05-2.86636E-05-2.93290E-05-2.50338E-06-9.81927E-20-7.70288E-19
 -1       547 9.77107E-05-2.88032E-05-2.95300E-05-3.07546E-06 2.72370E-19-1.34574E-18
 -1       548 9.84614E-05-2.90299E-05-2.97548E-05-3.67469E-06-3.35936E-19-1.01454E-18
 -1       549 9.93781E-05-2.93843E-05-2.99964E-05-4.23712E-06-2.64638E-19-6.64094E-19
 -1       550 1.00486E-04-2.99198E-05-3.02429E-05-4.65872E-06-1.90862E-19-1.16207E-18
 -1       551 1.01810E-04-3.06977E-05-3.04785E-05-4.78437E-06-1.25023E-18-6.61648E-19
 -1       552 1.03359E-04-3.17701E-05-3.06855E-05-4.40297E-06-1.07223E-19-6.10872E-19
 -1       553 1.05107E-04-3.31392E-05-3.08509E-05-3.26113E-06-5.63477E-19-9.04186E-19
 -1       554 1.06934E-04-3.46807E-05-3.09761E-05-1.11849E-06-9.60747E-19-4.45942E-19
 -1       555 1.08554E-04-3.60419E-05-3.10886E-05 2.12334E-06-5.29368E-19-2.53071E-19
 -1       556 1.09455E-04-3.65759E-05-3.12440E-05 6.20139E-06 6.06323E-19 3.36650E-19
 -1       557 1.08964E-04-3.54483E-05-3.15082E-05 1.01953E-05 5.40357E-19 5.68039E-19
 -1       558 1.06730E-04-3.22786E-05-3.19043E-05 1.24659E-05 1.60260E-18 1.09342E-18
 -1       559 1.03302E-04-2.78246E-05-3.23483E-05 1.12960E-05 6.82960E-19 1.17698E-18
 -1       560 1.00340E-04-2.42255E-05-3.26317E-05 6.20597E-06 1.34113E-18 2.24794E-18
 -1       561 9.97021E-05-2.38136E-05-3.25186E-05-7.91916E-07-3.34346E-21 5.72709E-19
 -1       562 1.01512E-04-2.67502E-05-3.20365E-05-6.39045E-06 5.91377E-19 9.40253E-19
 -1       563 1.04174E-04-3.09960E-05-3.13595E-05-8.24375E-06-1.22908E-18 1.19882E-18
 -1       564 1.05867E-04-3.42068E-05-3.07156E-05-6.44726E-06-1.60393E-19 8.09445E-19
 -1       565 1.05768E-04-3.52389E-05-3.02355E-05-2.71363E-06 2.39930E-19 1.37703E-18
 -1       566 1.04132E-04-3.43151E-05-2.99329E-05 1.06297E-06 3.57102E-19 3.32377E-18
 -1       567 1.01652E-04-3.22356E-05-2.97577E-05 3.65392E-06 8.88013E-19 1.99021E-18
 -1       568 9.89335E-05-2.97738E-05-2.96401E-05 4.59415E-06-2.03322E-19 1.81692E-18
 -1       569 9.64265E-05-2.59401E-05-3.02065E-05 1.54325E-05-1.46186E-18-8.12578E-19
 -1       570 9.20545E-05-2.18709E-05-3.00845E-05 1.63806E-05-1.22728E-18-1.80657E-19
 -1       571 9.94899E-05-2.95350E-05-2.99720E-05 8.64833E-06 3.96057E-19 7.37755E-19
 -1       572 9.88395E-05-2.84440E-05-3.01618E-05 1.23472E-05-1.00107E-18-5.42749E-19
 -1       573 8.66672E-05-1.70528E-05-2.98434E-05 1.37244E-05-7.49799E-19-1.77332E-18
 -1       574 8.22541E-05-1.31762E-05-2.96113E-05 7.12828E-06-3.16059E-18-1.33649E-18
 -1       575 8.09356E-05-1.20180E-05-2.95411E-05-1.88111E-06-3.24537E-18 2.03306E-19
 -1       576 8.33071E-05-1.40679E-05-2.96793E-05-1.02528E-05-1.58749E-18 2.80319E-18
 -1       577 8.81997E-05-1.83251E-05-2.99528E-05-1.56977E-05-9.13574E-19 2.44465E-18
 -1       578 9.33787E-05-2.29123E-05-3.01991E-05-1.72269E-05 6.30824E-19 1.56790E-18
 -1       579 9.73061E-05-2.64335E-05-3.03852E-05-1.54251E-05-4.43061E-19-1.90473E-18
 -1       580 2.97358E-05-1.94797E-05-3.79248E-06-1.90809E-05 1.02713E-18 2.16332E-18
 -1       581 9.45206E-05-2.72940E-05-2.88027E-05 9.85712E-07 1.40253E-18 9.82252E-20
 -1       582 9.81727E-05-5.51740E-05-1.80920E-05 4.49315E-05-5.35378E-19 2.73027E-18
 -1       583 1.32741E-04-6.48490E-05-2.90450E-05 2.57026E-05 1.18293E-19-3.63030E-18
 -1       584 9.45970E-05-2.07650E-05-3.16609E-05-9.42305E-06-2.31066E-18-8.90731E-19
 -1       585 5.41804E-05-3.35599E-05-8.30343E-06-4.03791E-05 1.74849E-18 1.37023E-18
 -1       586 1.15682E-04-6.17458E-05-2.30348E-05 3.02104E-05-1.91255E-18 2.68937E-18
 -1       587 6.59196E-05-3.69586E-05-1.18769E-05-4.10119E-05-1.81726E-18-2.20626E-18
 -1       588 8.91581E-05-1.28811E-05-3.27083E-05-1.93760E-06-8.10656E-20-2.82917E-18
 -1       589 1.33156E-04-8.37652E-06-5.41998E-05 5.79125E-06 2.49748E-18 4.45887E-18
 -1       590 4.33641E-05-2.77014E-05-6.18031E-06 3.21120E-05-4.66715E-19-1.40517E-18
 -1       591 1.40590E-04-2.87110E-05-4.84368E-05-1.04798E-05 2.44930E-18-1.81646E-18
 -1       592 1.34752E-04-1.26132E-05-5.30146E-05-6.48391E-06 4.12262E-18 1.01009E-18
 -1       593 1.45669E-04-4.86507E-05-4.18920E-05 1.36498E-06-1.43822E-18 1.36928E-18
 -1       594 1.35910E-04-6.15374E-05-3.19587E-05-1.66887E-05-3.47143E-18 6.50839E-19
 -1       595 1.09419E-04-5.83649E-05-2.17269E-05-3.55157E-05-2.37323E-18 8.73417E-19
 -1       596 3.48699E-05-2.17879E-05-5.04909E-06-2.71871E-05-1.41020E-18-2.48181E-19
 -1       597 1.43958E-04-2.26302E-05-5.24482E-05-1.56704E-05-1.10570E-18 8.62756E-19
 -1       598 8.40302E-05-4.85747E-05-1.47724E-05 4.05564E-05-2.36169E-18 8.99893E-19
 -1       599 1.41334E-04-6.30590E-05-3.38974E-05 7.87953E-06-2.31187E-18 1.49321E-18
 -1       600 1.47572E-04-4.69686E-05-4.34025E-05-1.25186E-05-1.55121E-18 1.39046E-18
 -1       601 1.39431E-04-1.10184E-05-5.56436E-05-7.29114E-06 3.37754E-19-1.18360E-19
 -1       602 1.39474E-04-1.49553E-05-5.39627E-05 6.63315E-06-2.25205E-19 7.65268E-19
 -1       603 1.47533E-04-3.84217E-05-4.72328E-05 9.13228E-06-2.13315E-18 3.77194E-19
 -1       604 1.48525E-04-5.65750E-05-3.96327E-05-3.87354E-06-6.64200E-19 3.51466E-19
 -1       605 1.32490E-04-6.53568E-05-2.88032E-05-2.69458E-05 8.35598E-19 2.65471E-18
 -1       606 8.84657E-05-5.11347E-05-1.56241E-05-4.54284E-05 4.38710E-19-6.24131E-19
 -1       607 3.01027E-05-1.83829E-05-4.37450E-06 1.77346E-05 1.88677E-19 4.99368E-18
 -1       608 9.61613E-05-2.31907E-05-3.12767E-05 9.58349E-06 2.53803E-18 6.21026E-19
 -1       609 1.45231E-04-5.56425E-05-3.87272E-05 3.22907E-06 2.68073E-20-3.00130E-18
 -1       610 9.13647E-05-1.59059E-05-3.23625E-05-7.70743E-06-1.58210E-18-2.19066E-18
 -1       611 1.39625E-04-3.73940E-05-4.42255E-05 1.35762E-05-9.99843E-19 2.73030E-18
 -1       612 1.28578E-04-1.44113E-05-4.94599E-05 1.29148E-05 2.76223E-18 3.30520E-18
 -1       613 1.00154E-04-2.90964E-05-3.04521E-05-1.26819E-05-7.87025E-19-1.14294E-18
 -1       614 1.15446E-04-5.99556E-05-2.36272E-05-3.48503E-05 3.09114E-19 2.19850E-18
 -1       615 9.27796E-05-1.79477E-05-3.20912E-05-8.89415E-06-2.00836E-18-1.64785E-18
 -1       616 9.34423E-05-4.87304E-05-1.89130E-05-3.71604E-05-1.03155E-18-1.30086E-19
 -1       617 3.63897E-05-1.67680E-05-7.76172E-06 1.70659E-05 6.08924E-19-1.55351E-18
 -1       618 3.16777E-05-1.43812E-05-6.80762E-06-1.21050E-05-3.94228E-19 8.72973E-20
 -1       619 9.15544E-05-1.68516E-05-3.20211E-05 2.44136E-06 8.70757E-19-2.40185E-18
 -1       620 9.12959E-05-1.64496E-05-3.20823E-05 8.41037E-07 4.81295E-19-2.55850E-18
 -1       621 9.28914E-05-1.89999E-05-3.16734E-05 5.26647E-06 1.62875E-18-1.56192E-18
 -1       622 9.39884E-05-2.09337E-05-3.13170E-05 6.14220E-06 1.98813E-18-1.20938E-18
 -1       623 9.52721E-05-2.40949E-05-3.04944E-05 5.15013E-06 1.81207E-18-8.43788E-19
 -1       624 1.17075E-04-5.84790E-05-2.49839E-05 3.17818E-05-2.15403E-18-2.30443E-18
 -1       625 9.54246E-05-2.57229E-05-2.98737E-05-2.45163E-06-1.15215E-18-9.01042E-19
 -1       626 9.54766E-05-2.69477E-05-2.93688E-05-8.71625E-07-9.24117E-19-1.14991E-18
 -1       627 9.54194E-05-2.77070E-05-2.90195E-05 1.30507E-07-6.30997E-19-1.05166E-18
 -1       628 9.53435E-05-2.81790E-05-2.87848E-05 7.18236E-07-5.35469E-19-8.93754E-19
 -1       629 9.52791E-05-2.84691E-05-2.86329E-05 1.02011E-06-2.75382E-19-7.05135E-19
 -1       630 9.52341E-05-2.86410E-05-2.85400E-05 1.13365E-06-2.47863E-19-6.91658E-19
 -1       631 9.52070E-05-2.87342E-05-2.84884E-05 1.12974E-06-3.32323E-19-1.99598E-19
 -1       632 9.51940E-05-2.87743E-05-2.84657E-05 1.05927E-06-1.52395E-19 2.45144E-19
 -1       633 9.51909E-05-2.87779E-05-2.84628E-05 9.58409E-07-2.06872E-19 1.66459E-19
 -1       634 9.51948E-05-2.87562E-05-2.84738E-05 8.52848E-07-4.53500E-19-1.36049E-19
 -1       635 9.52035E-05-2.87163E-05-2.84946E-05 7.61063E-07-3.57390E-19-3.48238E-19
 -1       636 9.52157E-05-2.86620E-05-2.85231E-05 6.96869E-07-6.63543E-19-2.18675E-19
 -1       637 9.52307E-05-2.85951E-05-2.85581E-05 6.71410E-07-1.13714E-18-6.34823E-19
 -1       638 9.52482E-05-2.85154E-05-2.85998E-05 6.94678E-07-1.22045E-18-1.04773E-18
 -1       639 9.52682E-05-2.84210E-05-2.86487E-05 7.76654E-07-8.63496E-19-7.08974E-19
 -1       640 9.52905E-05-2.83094E-05-2.87061E-05 9.28133E-07 1.57524E-19-1.01206E-19
 -1       641 9.53149E-05-2.81769E-05-2.87733E-05 1.16125E-06 1.53241E-19-2.43320E-19
 -1       642 9.53407E-05-2.80196E-05-2.88517E-05 1.48970E-06 2.70148E-19-8.40328E-19
 -1       643 9.53667E-05-2.78338E-05-2.89423E-05 1.92852E-06 6.75056E-19-1.74400E-18
 -1       644 9.53909E-05-2.76175E-05-2.90453E-05 2.49351E-06 1.63776E-18-1.24753E-18
 -1       645 9.54113E-05-2.73721E-05-2.91591E-05 3.19989E-06 2.09599E-19-2.99441E-19
 -1       646 9.54274E-05-2.71066E-05-2.92797E-05 4.06024E-06-1.87908E-20-3.33288E-20
 -1       647 9.54441E-05-2.68441E-05-2.93993E-05 5.08134E-06 3.30500E-19 2.73256E-20
 -1       648 9.54798E-05-2.66328E-05-2.95050E-05 6.25974E-06 6.24433E-19-4.90804E-19
 -1       649 9.55817E-05-2.65642E-05-2.95780E-05 7.57566E-06-6.86226E-19-1.02348E-18
 -1       650 9.58535E-05-2.67993E-05-2.95938E-05 8.98434E-06-2.89771E-19-3.14286E-19
 -1       651 9.64987E-05-2.76027E-05-2.95264E-05 1.04013E-05 1.41750E-18 6.00444E-19
 -1       652 9.78802E-05-2.93725E-05-2.93607E-05 1.16719E-05 9.12606E-19 1.30451E-18
 -1       653 1.00580E-04-3.26317E-05-2.91217E-05 1.25028E-05 4.21630E-19 1.19009E-18
 -1       654 1.05389E-04-3.78795E-05-2.89357E-05 1.22972E-05-5.63443E-19 1.61660E-18
 -1       655 1.13067E-04-4.51026E-05-2.91357E-05 9.89073E-06-1.26221E-18 1.08303E-18
 -1       656 1.23298E-04-5.23106E-05-3.04315E-05 3.57945E-06-1.55430E-18 2.29116E-19
 -1       657 1.32033E-04-5.35722E-05-3.36732E-05-6.63282E-06-2.41838E-18-6.70612E-20
 -1       658 1.24123E-04-1.18828E-05-4.86833E-05-1.14453E-06-1.09029E-18 1.98184E-18
 -1       659 1.28263E-04-2.43088E-05-4.51037E-05 1.32631E-05-2.82803E-19 6.45492E-19
 -1       660 1.34120E-04-4.45180E-05-3.87136E-05 1.23422E-05-4.45764E-19-1.24842E-18
 -1       661 1.30397E-04-5.29893E-05-3.32400E-05 8.72628E-07-1.70571E-19 1.97074E-19
 -1       662 1.21195E-04-5.04311E-05-3.03438E-05-9.37506E-06 2.07475E-19 3.16258E-19
 -1       663 1.11534E-04-4.27860E-05-2.94644E-05-1.50658E-05-4.02453E-19-1.10084E-18
 -1       664 1.04226E-04-3.52028E-05-2.95840E-05-1.67545E-05-1.80553E-18-1.83519E-18
 -1       665 1.00110E-04-3.04124E-05-2.98619E-05-1.68610E-05 5.88374E-19-1.82303E-18
 -1       666 9.50936E-05-2.77096E-05-2.88782E-05-1.24385E-07 1.21976E-18-6.31906E-19
 -1       667 9.48999E-05-2.85255E-05-2.84463E-05-1.15660E-06 1.09849E-19-3.25277E-19
 -1       668 9.49087E-05-2.86175E-05-2.84106E-05-1.15027E-06 5.82103E-19-4.37024E-19
 -1       669 9.49359E-05-2.86656E-05-2.84017E-05-1.07564E-06 4.93986E-19-6.03144E-19
 -1       670 9.49735E-05-2.86829E-05-2.84104E-05-9.69358E-07 4.12076E-19-9.41891E-19
 -1       671 9.50163E-05-2.86786E-05-2.84306E-05-8.57159E-07 3.09537E-19-4.33252E-19
 -1       672 9.50612E-05-2.86585E-05-2.84584E-05-7.57292E-07 4.47938E-19 1.43771E-19
 -1       673 9.51073E-05-2.86264E-05-2.84919E-05-6.83128E-07 1.33546E-19-3.21986E-19
 -1       674 9.51549E-05-2.85844E-05-2.85303E-05-6.45102E-07 1.99244E-19-3.71176E-19
 -1       675 9.52056E-05-2.85335E-05-2.85738E-05-6.52176E-07-3.77588E-19 6.33510E-20
 -1       676 9.52620E-05-2.84740E-05-2.86233E-05-7.12854E-07-1.13507E-19 1.43754E-19
 -1       677 9.53274E-05-2.84061E-05-2.86804E-05-8.35809E-07 5.66891E-19-1.70462E-20
 -1       678 9.54064E-05-2.83301E-05-2.87468E-05-1.03009E-06 8.24918E-19-9.27489E-19
 -1       679 9.55047E-05-2.82478E-05-2.88241E-05-1.30489E-06 3.88841E-19-6.77239E-19
 -1       680 9.56293E-05-2.81630E-05-2.89137E-05-1.66870E-06 2.77923E-19-6.01793E-19
 -1       681 9.57900E-05-2.80836E-05-2.90165E-05-2.12775E-06 3.98238E-19-3.10574E-19
 -1       682 9.59997E-05-2.80237E-05-2.91320E-05-2.68346E-06-2.99031E-19-2.37221E-19
 -1       683 9.62773E-05-2.80070E-05-2.92580E-05-3.32861E-06 1.55388E-19-5.61599E-19
 -1       684 9.66502E-05-2.80712E-05-2.93903E-05-4.04191E-06-4.11007E-19-2.96269E-19
 -1       685 9.71598E-05-2.82734E-05-2.95222E-05-4.78054E-06-4.97709E-19 4.76217E-20
 -1       686 9.78673E-05-2.86954E-05-2.96448E-05-5.47042E-06 1.44245E-19 3.52878E-19
 -1       687 9.88601E-05-2.94455E-05-2.97493E-05-5.99390E-06-3.51044E-19-7.00553E-19
 -1       688 1.00253E-04-3.06498E-05-2.98311E-05-6.17571E-06-8.84236E-19-7.78359E-19
 -1       689 1.02175E-04-3.24173E-05-2.98983E-05-5.77025E-06-2.27060E-19 2.07688E-19
 -1       690 1.04713E-04-3.47584E-05-2.99842E-05-4.46098E-06-5.78804E-19 6.11219E-19
 -1       691 1.07796E-04-3.74280E-05-3.01629E-05-1.90408E-06-6.08411E-19-3.23969E-19
 -1       692 1.11015E-04-3.97324E-05-3.05585E-05 2.10579E-06 1.24594E-21-1.24082E-19
 -1       693 1.13432E-04-4.03757E-05-3.13203E-05 7.35677E-06 1.84985E-19 2.31898E-19
 -1       694 1.13704E-04-3.77794E-05-3.25426E-05 1.23831E-05 2.70860E-19-5.25679E-19
 -1       695 1.11019E-04-3.14370E-05-3.41267E-05 1.46776E-05 2.75675E-19 1.88324E-18
 -1       696 1.06676E-04-2.38762E-05-3.55111E-05 1.15398E-05 6.07941E-19 1.03406E-18
 -1       697 1.04198E-04-1.99991E-05-3.61459E-05 3.43855E-06 1.88463E-18 3.04694E-19
 -1       698 1.05781E-04-2.27292E-05-3.56536E-05-5.42214E-06 5.85621E-19-2.55171E-19
 -1       699 1.09625E-04-2.99524E-05-3.41785E-05-9.61042E-06-4.29758E-19-1.76268E-19
 -1       700 1.12366E-04-3.66228E-05-3.24780E-05-8.12889E-06-1.01917E-18-5.36997E-19
 -1       701 1.12194E-04-3.96350E-05-3.11056E-05-3.28830E-06-9.31094E-19-1.17292E-18
 -1       702 1.09462E-04-3.88506E-05-3.02704E-05 1.85965E-06-6.44879E-19-1.31740E-18
 -1       703 1.05561E-04-3.57878E-05-2.99073E-05 5.53398E-06 6.76081E-19-3.59653E-19
 -1       704 1.02589E-04-3.29205E-05-2.98565E-05 7.76569E-06-8.33209E-20 7.71362E-19
 -1       705 8.04901E-05-1.81272E-05-2.67102E-05 1.46420E-05-1.12379E-18-3.12841E-18
 -1       706 9.73486E-05-3.02393E-05-2.87538E-05 1.95527E-05-1.11748E-18 6.21124E-19
 -1       707 7.50735E-05-1.40799E-05-2.61131E-05 3.95069E-06-1.97292E-18-1.93117E-18
 -1       708 8.93980E-05-2.46589E-05-2.77445E-05 1.99158E-05-4.65412E-19-2.97527E-19
 -1       709 1.19279E-04-1.01168E-05-4.73281E-05-5.72209E-07 1.38590E-18 1.43500E-18
 -1       710 7.61120E-05-1.47764E-05-2.62581E-05-8.23063E-06-1.23692E-18 3.56024E-18
 -1       711 8.30135E-05-1.97629E-05-2.70920E-05-1.74186E-05-4.24133E-19 2.76676E-18
 -1       712 9.18383E-05-2.59471E-05-2.82408E-05-2.07169E-05-8.64473E-19 2.65390E-18
 -1       713 9.52328E-05-2.70425E-05-2.92222E-05 9.27194E-07 1.36792E-18-6.72987E-19
 -1       714 1.38066E-04-6.10710E-05-3.31543E-05-8.32080E-06 8.51086E-19 1.11994E-19
 -1       715 9.45754E-05-2.21931E-05-3.10203E-05-6.15309E-06-1.82529E-18-1.13377E-18
 -1       716 1.02775E-04-5.27004E-05-2.12231E-05 3.14307E-05-1.29135E-18 3.26709E-18
 -1       717 1.28605E-04-6.17189E-05-2.86650E-05 1.22938E-05-1.85463E-18 2.10603E-18
 -1       718 5.09896E-05-2.26860E-05-1.15805E-05-2.87959E-05 2.36703E-18 5.10655E-19
 -1       719 5.50624E-05-2.44837E-05-1.25705E-05-3.06197E-05-1.27783E-18-1.00950E-18
 -1       720 9.49205E-05-2.83689E-05-2.85221E-05-1.04231E-06 4.77809E-19-5.21058E-19
 -1       721 9.49825E-05-2.81152E-05-2.86572E-05-7.33101E-07 7.99488E-19-6.80960E-19
 -1       722 9.51371E-05-2.42493E-05-3.03787E-05-4.08312E-06-1.43975E-18-1.07482E-18
 -1       723 9.53392E-05-2.59448E-05-2.97370E-05 2.60579E-06 1.47903E-18-7.80193E-19
 -1       724 9.20787E-05-1.76781E-05-3.18918E-05 3.95068E-06 1.30021E-18-2.09615E-18
 -1       725 9.20394E-05-1.76226E-05-3.18988E-05-3.89537E-06-7.15822E-19-1.95274E-18
 -1       726 6.94500E-05-3.45869E-05-1.45619E-05 3.42384E-05-1.56569E-19-1.07936E-18
 -1       727 1.23935E-04-2.07997E-05-4.46597E-05-1.09448E-05 1.93555E-18 7.90917E-19
 -1       728 1.25335E-04-6.05044E-05-2.77130E-05-1.89215E-05-1.27620E-18 8.11927E-19
 -1       729 8.50650E-05-4.18605E-05-1.81442E-05 4.07330E-05-2.64232E-18 6.11928E-19
 -1       730 1.36696E-04-5.54496E-05-3.50562E-05 1.40064E-06-2.30190E-18 1.12084E-18
 -1       731 1.35252E-04-4.21753E-05-4.01662E-05-9.80481E-06 5.92050E-19-1.46651E-18
 -1       732 1.36476E-04-6.00730E-05-3.28437E-05 9.21468E-06 4.27818E-20-3.52174E-18
 -1       733 3.89232E-05-1.34768E-05-1.03180E-05-1.84149E-06 3.15584E-18 1.93764E-18
 -1       734 7.88328E-05-3.86705E-05-1.67813E-05-3.97437E-05-3.18167E-20 1.84449E-18
 -1       735 5.14999E-05-2.10225E-05-1.25873E-05 2.67956E-05 2.78052E-19 5.65733E-18
 -1       736 9.28480E-05-1.89251E-05-3.16853E-05-5.22976E-06-1.29637E-18-1.96421E-18
 -1       737 9.12896E-05-1.64410E-05-3.20834E-05-7.83675E-07 7.68072E-20-2.66693E-18
 -1       738 1.27398E-04-2.58357E-05-4.39603E-05 1.68903E-05 5.52927E-19 2.76146E-18
 -1       739 1.16158E-04-1.19704E-05-4.50576E-05 7.15177E-06 2.08913E-18 1.40059E-18
 -1       740 1.28295E-04-6.08378E-05-2.87981E-05-1.95800E-05-2.57074E-19 1.45489E-18
 -1       741 1.02815E-04-3.33223E-05-2.97750E-05 1.22837E-05-7.38826E-19-2.50877E-18
 -1       742 9.86417E-05-3.14062E-05-2.88042E-05-2.02720E-05-1.39049E-18 2.52920E-19
 -1       743 1.01900E-04-4.96631E-05-2.22347E-05-3.55656E-05-1.69445E-18 3.09712E-18
 -1       744 1.24846E-04-1.67112E-05-4.70204E-05-1.36928E-05-7.51848E-19 4.51799E-19
 -1       745 7.67147E-05-3.52051E-05-1.75093E-05-3.32615E-05-1.10711E-18-1.65154E-18
 -1       746 5.73586E-05-2.31634E-05-1.42242E-05 2.52474E-05 3.26240E-19-9.05108E-19
 -1       747 3.89946E-05-1.27912E-05-1.07381E-05 3.04404E-06-2.34133E-19-4.07105E-19
 -1       748 9.15312E-05-1.68199E-05-3.20247E-05-2.38097E-06-2.28544E-19-2.32279E-18
 -1       749 1.01296E-04-3.26279E-05-2.94200E-05 1.63194E-05-1.36745E-18-2.16695E-18
 -1       750 1.13147E-04-5.16171E-05-2.62643E-05 1.83773E-05-9.95624E-19 8.82926E-19
 -1       751 9.46728E-05-2.27663E-05-3.08141E-05 3.90791E-06 1.43062E-18-1.15719E-18
 -1       752 5.59635E-05-1.61719E-05-1.66928E-05-1.52034E-05 1.88078E-18 9.88805E-19
 -1       753 5.31454E-05-1.47666E-05-1.61217E-05 1.07055E-05 2.50335E-18 1.25067E-18
 -1       754 9.58694E-05-2.68862E-05-2.95640E-05-5.83490E-07-7.19161E-19-1.02552E-18
 -1       755 9.59628E-05-2.77760E-05-2.92229E-05 2.15497E-07-4.57330E-19-6.70922E-19
 -1       756 9.59521E-05-2.83367E-05-2.89781E-05 6.92771E-07-4.10084E-19-6.04745E-19
 -1       757 9.58919E-05-2.86758E-05-2.88069E-05 9.38900E-07-1.43219E-19-6.48649E-19
 -1       758 9.58117E-05-2.88649E-05-2.86915E-05 1.02895E-06-6.60291E-20-6.62732E-19
 -1       759 9.57267E-05-2.89522E-05-2.86177E-05 1.02118E-06 1.67748E-19-3.50394E-19
 -1       760 9.56446E-05-2.89705E-05-2.85746E-05 9.58986E-07-1.72725E-19-9.52643E-20
 -1       761 9.55688E-05-2.89419E-05-2.85544E-05 8.74103E-07-4.25550E-19-1.79938E-19
 -1       762 9.55000E-05-2.88806E-05-2.85512E-05 7.89577E-07-3.37314E-19-1.90142E-19
 -1       763 9.54374E-05-2.87954E-05-2.85609E-05 7.22399E-07-7.33656E-19-5.29891E-19
 -1       764 9.53788E-05-2.86901E-05-2.85809E-05 6.85696E-07-1.08749E-18-7.47111E-19
 -1       765 9.53209E-05-2.85656E-05-2.86094E-05 6.90436E-07-1.51602E-18-5.49107E-19
 -1       766 9.52596E-05-2.84196E-05-2.86457E-05 7.46705E-07-5.19031E-19 1.42515E-19
 -1       767 9.51895E-05-2.82480E-05-2.86892E-05 8.64652E-07-4.68670E-20 5.56803E-19
 -1       768 9.51042E-05-2.80449E-05-2.87397E-05 1.05511E-06-2.39690E-19 4.49857E-19
 -1       769 9.49955E-05-2.78035E-05-2.87966E-05 1.32988E-06-2.24434E-20-1.11590E-19
 -1       770 9.48539E-05-2.75166E-05-2.88588E-05 1.70177E-06 3.39480E-19 4.82427E-20
 -1       771 9.46675E-05-2.71776E-05-2.89241E-05 2.18419E-06 1.53127E-18 1.08616E-19
 -1       772 9.44231E-05-2.67830E-05-2.89885E-05 2.79052E-06 1.31133E-18-1.27069E-18
 -1       773 9.41068E-05-2.63348E-05-2.90450E-05 3.53326E-06-3.75247E-19-5.37129E-19
 -1       774 9.37065E-05-2.58462E-05-2.90828E-05 4.42324E-06 1.79909E-19-9.79513E-20
 -1       775 9.32181E-05-2.53502E-05-2.90860E-05 5.46946E-06 6.05627E-19-2.55008E-19
 -1       776 9.26560E-05-2.49139E-05-2.90320E-05 6.68053E-06 1.51615E-19 6.94619E-20
 -1       777 9.20732E-05-2.46595E-05-2.88912E-05 8.06903E-06-4.69550E-19 1.05362E-18
 -1       778 9.15962E-05-2.47961E-05-2.86281E-05 9.65954E-06 2.95311E-19 8.42411E-19
 -1       779 9.14839E-05-2.56647E-05-2.82075E-05 1.14948E-05 7.72291E-19-3.30222E-19
 -1       780 9.22175E-05-2.77864E-05-2.76110E-05 1.36200E-05 7.26289E-19-1.46986E-18
 -1       781 9.46073E-05-3.18853E-05-2.68718E-05 1.60266E-05 6.43192E-19-1.72445E-18
 -1       782 1.00079E-04-3.88662E-05-2.61995E-05 1.81488E-05-9.34280E-19-5.85882E-19
 -1       783 1.12060E-04-4.78931E-05-2.74073E-05-2.29574E-05-1.30932E-18-4.69640E-19
 -1       784 1.03894E-04-3.88325E-05-2.79111E-05-2.21643E-05-5.90882E-19-3.04154E-19
 -1       785 9.56321E-05-2.85877E-05-2.87334E-05-9.86910E-07 3.25186E-19-6.09569E-19
 -1       786 9.55669E-05-2.87687E-05-2.86278E-05-1.08611E-06 6.20245E-19-1.05244E-18
 -1       787 9.54089E-05-2.88715E-05-2.85161E-05-9.19011E-07 2.93875E-19-7.29281E-19
 -1       788 9.53713E-05-2.88280E-05-2.85186E-05-8.24417E-07 4.16123E-19-1.40725E-18
 -1       789 9.53396E-05-2.87633E-05-2.85327E-05-7.45845E-07 2.16702E-19-5.12781E-19
 -1       790 9.53122E-05-2.86821E-05-2.85558E-05-6.96658E-07-5.78829E-20-2.86054E-19
 -1       791 9.52875E-05-2.85859E-05-2.85864E-05-6.87697E-07-2.46772E-19 1.82166E-20
 -1       792 9.52636E-05-2.84745E-05-2.86239E-05-7.28609E-07-1.66596E-19-6.52027E-19
 -1       793 9.52388E-05-2.83466E-05-2.86681E-05-8.28744E-07-1.83173E-20-6.21235E-19
 -1       794 9.52116E-05-2.82006E-05-2.87190E-05-9.97673E-07 9.40208E-19-1.16781E-19
 -1       795 9.51809E-05-2.80354E-05-2.87766E-05-1.24531E-06 9.68265E-19 5.08132E-19
 -1       796 9.51468E-05-2.78521E-05-2.88405E-05-1.58161E-06-9.30128E-20 4.40119E-19
 -1       797 9.51112E-05-2.76555E-05-2.89095E-05-2.01568E-06-1.74396E-20 1.10834E-18
 -1       798 9.50802E-05-2.74573E-05-2.89811E-05-2.55436E-06 2.49700E-19 1.17420E-18
 -1       799 9.50663E-05-2.72794E-05-2.90514E-05-3.20000E-06 5.62165E-19 7.47721E-19
 -1       800 9.50930E-05-2.71593E-05-2.91142E-05-3.94739E-06-4.87585E-19 6.42980E-19
 -1       801 9.52017E-05-2.71572E-05-2.91617E-05-4.77948E-06-7.39271E-19 2.16496E-19
 -1       802 9.54611E-05-2.73635E-05-2.91844E-05-5.66165E-06-5.12118E-20 1.16385E-19
 -1       803 9.59799E-05-2.79074E-05-2.91737E-05-6.53314E-06-1.74229E-19 5.03504E-19
 -1       804 9.69205E-05-2.89596E-05-2.91260E-05-7.29342E-06-2.63702E-19 7.95405E-19
 -1       805 9.85074E-05-3.07201E-05-2.90519E-05-7.77929E-06-7.39677E-19-1.55681E-18
 -1       806 1.01012E-04-3.33691E-05-2.89901E-05-7.72752E-06-4.37870E-19-1.40771E-18
 -1       807 1.04681E-04-3.69434E-05-2.90307E-05-6.72651E-06-2.88905E-19-7.00274E-19
 -1       808 1.09541E-04-4.10613E-05-2.93470E-05-4.14967E-06-6.99593E-19-1.41858E-18
 -1       809 1.14972E-04-4.44486E-05-3.02356E-05 5.93275E-07-7.70132E-19-1.46994E-18
 -1       810 1.19692E-04-4.50585E-05-3.19939E-05 7.58136E-06 9.39545E-20 3.06073E-19
 -1       811 1.20324E-04-3.96116E-05-3.46833E-05 1.43103E-05-3.12657E-19 5.46063E-19
 -1       812 1.15939E-04-2.79527E-05-3.79144E-05 1.65512E-05 8.25056E-19 8.82704E-19
 -1       813 1.15151E-04-2.57363E-05-3.85346E-05-1.08290E-05-3.17624E-19 1.03574E-18
 -1       814 1.20109E-04-3.81185E-05-3.52117E-05-1.00026E-05-4.65269E-19 6.50720E-19
 -1       815 1.20174E-04-4.48067E-05-3.23376E-05-3.33554E-06-1.28360E-19 3.01511E-19
 -1       816 1.15959E-04-4.45433E-05-3.06133E-05 3.70529E-06-8.75339E-19-8.40508E-19
 -1       817 1.10161E-04-4.05407E-05-2.98455E-05 8.52340E-06-7.33751E-20-2.64455E-18
 -1       818 1.06352E-04-3.70945E-05-2.96851E-05 1.10059E-05-1.28548E-18-2.42363E-18
 -1       819 9.32053E-05-1.97789E-05-3.14696E-05 1.23406E-06 5.20129E-19-2.18247E-18
 -1       820 1.11813E-04-1.71184E-05-4.08977E-05-5.34749E-06 1.28200E-18 2.92281E-18
 -1       821 7.04162E-05-1.69148E-05-2.28235E-05 1.32972E-05 1.48548E-19-1.97610E-18
 -1       822 4.75444E-05-1.54329E-05-1.33435E-05-1.53190E-05-1.32370E-18 3.06573E-19
 -1       823 8.74591E-05-2.83066E-05-2.53324E-05-2.48344E-05-8.33982E-19 3.46616E-18
 -1       824 6.64819E-05-1.40802E-05-2.23421E-05-2.71519E-06 1.47287E-18 1.43846E-18
 -1       825 9.56974E-05-2.69189E-05-2.94770E-05 6.94031E-07 1.05642E-18-7.77615E-19
 -1       826 9.57311E-05-2.77505E-05-2.91345E-05-1.93418E-07 8.37305E-19-4.43841E-19
 -1       827 7.33223E-05-1.92264E-05-2.30975E-05-1.80417E-05-1.04609E-18 4.26392E-18
 -1       828 9.54537E-05-2.88860E-05-2.85291E-05-1.01192E-06 4.98873E-19-6.37136E-19
 -1       829 9.36663E-05-2.03849E-05-3.14064E-05-5.90350E-06-1.65217E-18-1.56035E-18
 -1       830 9.55065E-05-2.88583E-05-2.85636E-05-1.07887E-06 6.31644E-19-8.71183E-19
 -1       831 8.90347E-05-3.94844E-05-2.10984E-05 2.80088E-05-1.53710E-19 1.94062E-18
 -1       832 1.02147E-04-4.56516E-05-2.41034E-05 3.20142E-05-4.09040E-18-9.19931E-19
 -1       833 9.56936E-05-2.82708E-05-2.88955E-05-7.17522E-07 5.18476E-19-2.93665E-19
 -1       834 1.29877E-04-4.96517E-05-3.44544E-05-3.28912E-06 7.87708E-19-1.11619E-18
 -1       835 9.55883E-05-2.55367E-05-3.00221E-05-1.79803E-06-9.36618E-19-1.26176E-18
 -1       836 7.10561E-05-2.63904E-05-1.88309E-05-2.91665E-05 6.26864E-19 3.77139E-18
 -1       837 1.30291E-04-4.19587E-05-3.80304E-05 1.44391E-05-1.03011E-18 8.60758E-19
 -1       838 1.27646E-04-5.54025E-05-3.10066E-05-2.69779E-06-5.86913E-19-1.06062E-18
 -1       839 9.52056E-05-2.44742E-05-3.03134E-05 3.42639E-06 1.46290E-18-1.05594E-18
 -1       840 1.24997E-04-5.68513E-05-2.91900E-05 1.67744E-05-6.01307E-19-2.34650E-18
 -1       841 1.08838E-04-5.12892E-05-2.46296E-05-2.36557E-05-1.71983E-18 8.12616E-19
 -1       842 7.44991E-05-2.76912E-05-1.97968E-05 3.01460E-05-2.50153E-18 9.22935E-19
 -1       843 9.30950E-05-1.95796E-05-3.15077E-05 2.07130E-08 2.21459E-19-2.31564E-18
 -1       844 9.40232E-05-2.13520E-05-3.11457E-05 3.30974E-06 1.27602E-18-1.61704E-18
 -1       845 9.39752E-05-2.12686E-05-3.11610E-05-3.29301E-06-9.39901E-19-1.34742E-18
 -1       846 9.35208E-05-2.03648E-05-3.13538E-05 2.36482E-06 9.52705E-19-1.83907E-18
 -1       847 9.66966E-05-3.46816E-05-2.65523E-05 2.48146E-05-2.17632E-18 1.31444E-18
 -1       848 9.47045E-05-2.28640E-05-3.07892E-05-4.14260E-06-1.32697E-18-1.46442E-18
 -1       849 6.25075E-05-2.26546E-05-1.68052E-05-2.41274E-05-1.01160E-18-1.65619E-18
 -1       850 8.26952E-05-2.57829E-05-2.42868E-05 2.39075E-05-2.57727E-18-2.01065E-18
 -1       851 7.72093E-05-2.99309E-05-2.00218E-05 2.50684E-05 1.62910E-18-1.34390E-18
 -1       852 1.04096E-04-3.83545E-05-2.81681E-05 2.04150E-05-6.08593E-19 4.81173E-19
 -1       853 8.85702E-05-3.64325E-05-2.21965E-05-3.22249E-05-1.03417E-19 4.22452E-18
 -1       854 9.57245E-05-4.19088E-05-2.29542E-05-2.59393E-05-1.26222E-18 1.72254E-18
 -1       855 5.27054E-05-1.65706E-05-1.51796E-05 1.46978E-05-1.34036E-20-1.28881E-18
 -1       856 9.55479E-05-2.59325E-05-2.98366E-05 1.84551E-06 1.37518E-18-1.14867E-18
 -1       857 9.66423E-05-3.43503E-05-2.66031E-05-2.50094E-05-2.59721E-19 1.73276E-18
 -1       858 9.34860E-05-2.03209E-05-3.13604E-05-2.31825E-06-2.68657E-19-1.66738E-18
 -1       859 1.21450E-04-5.05767E-05-3.03594E-05 8.35951E-06-2.25840E-19-1.82616E-18
 -1       860 9.60460E-05-2.89716E-05-2.87462E-05-9.47341E-07 3.93504E-19-1.97047E-19
 -1       861 9.63684E-05-2.79265E-05-2.93323E-05 2.87725E-07-3.92186E-19-4.23818E-19
 -1       862 9.63893E-05-2.85163E-05-2.90884E-05 6.33686E-07-3.64619E-19-2.49208E-19
 -1       863 9.63255E-05-2.88670E-05-2.89108E-05 8.07701E-07-3.37031E-19-4.60049E-19
 -1       864 9.62166E-05-2.90508E-05-2.87853E-05 8.65467E-07 9.62495E-20-6.84103E-19
 -1       865 9.60874E-05-2.91197E-05-2.87004E-05 8.51279E-07-7.51006E-20-1.10204E-18
 -1       866 9.59526E-05-2.91100E-05-2.86468E-05 7.98850E-07-2.21058E-19-1.12864E-18
 -1       867 9.58200E-05-2.90464E-05-2.86173E-05 7.33357E-07-6.05605E-19-1.00821E-18
 -1       868 9.56922E-05-2.89444E-05-2.86062E-05 6.73327E-07-7.85633E-19-1.17392E-18
 -1       869 9.55682E-05-2.88127E-05-2.86095E-05 6.32775E-07-9.54311E-19-9.26826E-19
 -1       870 9.54442E-05-2.86545E-05-2.86242E-05 6.22884E-07-1.01751E-18-1.96835E-19
 -1       871 9.53141E-05-2.84689E-05-2.86480E-05 6.53241E-07-4.24801E-19 5.95003E-19
 -1       872 9.51695E-05-2.82516E-05-2.86791E-05 7.32789E-07-6.16671E-19 7.89668E-19
 -1       873 9.49999E-05-2.79960E-05-2.87160E-05 8.70489E-07 2.98671E-19 1.04044E-18
 -1       874 9.47924E-05-2.76934E-05-2.87567E-05 1.07566E-06-8.53575E-19 9.78461E-19
 -1       875 9.45318E-05-2.73343E-05-2.87989E-05 1.35804E-06 1.59798E-19-4.72182E-20
 -1       876 9.41998E-05-2.69093E-05-2.88388E-05 1.72756E-06 8.89955E-19-6.00229E-19
 -1       877 9.37756E-05-2.64106E-05-2.88707E-05 2.19394E-06 6.51884E-19-7.46791E-19
 -1       878 9.32356E-05-2.58345E-05-2.88862E-05 2.76637E-06 5.71728E-19-1.51492E-18
 -1       879 9.25550E-05-2.51848E-05-2.88730E-05 3.45353E-06 4.98056E-20-8.58900E-19
 -1       880 9.17095E-05-2.44783E-05-2.88133E-05 4.26502E-06 5.60385E-19-1.27614E-18
 -1       881 9.06804E-05-2.37538E-05-2.86828E-05 5.21549E-06 5.12488E-19-9.83982E-19
 -1       882 8.94633E-05-2.30839E-05-2.84483E-05 6.33382E-06 3.65928E-19 2.80995E-19
 -1       883 8.80824E-05-2.25935E-05-2.80667E-05 7.68058E-06 2.68813E-19 3.09591E-19
 -1       884 8.66165E-05-2.24876E-05-2.74838E-05 9.37997E-06-5.09861E-19 1.39714E-19
 -1       885 8.52579E-05-2.31053E-05-2.66361E-05 1.16559E-05-1.31898E-19-3.32933E-19
 -1       886 8.44068E-05-2.49875E-05-2.54605E-05 1.48789E-05-2.90267E-19-1.99691E-18
 -1       887 8.49319E-05-2.89404E-05-2.39419E-05 1.94434E-05 1.57407E-18-1.59158E-18
 -1       888 9.55151E-05-2.88084E-05-2.85886E-05-6.77918E-07-1.13354E-19 4.14663E-21
 -1       889 9.56124E-05-2.89188E-05-2.85830E-05-7.30250E-07-1.56560E-19 4.60479E-19
 -1       890 9.57150E-05-2.90027E-05-2.85910E-05-8.01572E-07 8.37065E-19 1.59148E-19
 -1       891 9.54203E-05-2.86755E-05-2.86049E-05-6.56580E-07-3.35585E-19-5.16623E-19
 -1       892 9.53238E-05-2.85209E-05-2.86298E-05-6.76417E-07-1.14841E-19-5.83008E-19
 -1       893 9.52205E-05-2.83427E-05-2.86619E-05-7.46820E-07 2.57229E-19-4.75842E-19
 -1       894 9.51041E-05-2.81381E-05-2.86997E-05-8.77154E-07-1.89436E-19-1.12029E-18
 -1       895 9.49682E-05-2.79036E-05-2.87420E-05-1.07719E-06 4.59559E-19-6.70732E-19
 -1       896 9.48066E-05-2.76372E-05-2.87869E-05-1.35722E-06-1.02716E-19 7.88293E-19
 -1       897 9.46141E-05-2.73400E-05-2.88317E-05-1.72788E-06-1.33735E-19 8.03252E-19
 -1       898 9.43886E-05-2.70190E-05-2.88727E-05-2.19963E-06 1.44181E-19 9.78557E-19
 -1       899 9.41333E-05-2.66905E-05-2.89040E-05-2.78196E-06 4.49038E-19 9.23587E-19
 -1       900 9.38611E-05-2.63853E-05-2.89182E-05-3.48241E-06-1.38170E-20 1.05420E-18
 -1       901 9.36009E-05-2.61552E-05-2.89052E-05-4.30534E-06-7.75774E-19 7.96668E-19
 -1       902 9.34067E-05-2.60817E-05-2.88534E-05-5.25056E-06-3.32948E-19 6.93325E-19
 -1       903 9.33715E-05-2.62863E-05-2.87506E-05-6.31104E-06-2.87193E-19 9.71946E-19
 -1       904 9.36464E-05-2.69418E-05-2.85874E-05-7.46759E-06 4.75032E-19-3.35308E-20
 -1       905 9.44644E-05-2.82809E-05-2.83640E-05-8.67395E-06 1.00387E-18-2.03688E-19
 -1       906 9.61656E-05-3.05898E-05-2.81033E-05-9.82191E-06-6.02736E-19-1.27607E-18
 -1       907 9.92063E-05-3.41621E-05-2.78734E-05-1.06579E-05-1.07325E-18-1.72756E-18
 -1       908 1.04093E-04-3.91430E-05-2.78252E-05-1.06870E-05-3.84945E-19-1.14718E-18
 -1       909 1.11165E-04-4.51533E-05-2.82876E-05-8.94711E-06-7.33504E-19-1.57502E-18
 -1       910 9.47745E-05-2.30117E-05-3.07543E-05-2.77010E-06-8.64520E-19-1.34685E-18
 -1       911 5.81350E-05-1.63435E-05-1.77230E-05-1.29383E-05-7.31941E-19-4.33906E-19
 -1       912 9.60593E-05-2.69584E-05-2.96148E-05 4.00467E-07 8.70947E-19-1.05844E-18
 -1       913 9.59358E-05-2.90484E-05-2.86660E-05-9.34440E-07 3.19785E-19-6.71603E-20
 -1       914 9.58235E-05-2.90509E-05-2.86168E-05-8.76538E-07 6.23443E-19-2.40379E-19
 -1       915 9.62037E-05-2.84408E-05-2.90413E-05-6.73994E-07 5.44555E-19-7.23367E-19
 -1       916 9.61952E-05-2.78651E-05-2.92844E-05-2.73605E-07 5.88429E-19-8.79480E-19
 -1       917 9.31959E-05-1.97620E-05-3.14726E-05-1.19090E-06-3.20700E-20-2.35761E-18
 -1       918 9.58174E-05-2.56305E-05-3.00809E-05-1.18003E-06-5.08227E-19-7.64079E-19
 -1       919 9.62022E-05-2.69978E-05-2.96588E-05-2.91440E-07-4.21404E-19-4.65390E-19
 -1       920 1.16127E-04-5.03283E-05-2.81961E-05-1.01858E-05-1.27930E-18-1.40598E-18
 -1       921 5.03973E-05-1.31508E-05-1.57006E-05-6.77059E-07-1.14253E-18 8.93223E-20
 -1       922 1.12110E-04-4.70521E-05-2.78611E-05 2.09036E-05-1.87218E-18-7.09049E-19
 -1       923 9.61422E-05-2.87858E-05-2.88671E-05-8.77292E-07 5.85801E-19-6.09182E-19
 -1       924 1.06476E-04-3.83994E-05-2.91622E-05 1.54956E-05-7.58958E-19-2.38745E-18
 -1       925 8.15494E-05-3.12602E-05-2.14641E-05-2.45206E-05-2.78873E-18-7.14277E-19
 -1       926 9.52440E-05-2.42223E-05-3.04397E-05 2.27185E-06 1.35411E-18-1.16428E-18
 -1       927 9.45464E-05-2.22745E-05-3.09737E-05 4.30567E-07 3.29007E-19-1.97595E-18
 -1       928 9.46843E-05-2.26081E-05-3.08906E-05 1.21718E-06 5.09315E-19-1.67746E-18
 -1       929 7.28313E-05-2.33788E-05-2.11291E-05-1.90581E-05-1.76491E-18 4.73331E-19
 -1       930 6.94502E-05-2.27784E-05-1.98641E-05 1.96694E-05 1.66197E-18-2.83710E-19
 -1       931 1.14272E-04-4.59214E-05-2.92960E-05 1.35103E-05-1.16701E-19-2.63757E-18
 -1       932 9.44160E-05-2.20910E-05-3.09972E-05-2.12056E-06-4.21241E-19-1.09100E-18
 -1       933 1.06988E-04-4.57528E-05-2.61899E-05-1.71827E-05-1.52765E-18-8.48925E-19
 -1       934 9.56920E-05-2.55549E-05-3.00574E-05 1.43292E-06 1.08082E-18-1.18425E-18
 -1       935 9.45407E-05-2.22654E-05-3.09751E-05-4.07659E-07 1.49133E-19-2.13103E-18
 -1       936 9.66754E-05-2.81480E-05-2.93689E-05 3.10071E-07-4.71507E-19-4.89174E-19
 -1       937 9.66939E-05-2.87150E-05-2.91338E-05 5.26812E-07-1.36032E-19-4.68955E-19
 -1       938 9.66120E-05-2.90412E-05-2.89589E-05 6.30155E-07-3.93077E-19-7.82350E-19
 -1       939 9.64737E-05-2.91972E-05-2.88328E-05 6.57603E-07-3.58353E-19-1.05910E-18
 -1       940 9.63079E-05-2.92352E-05-2.87455E-05 6.39382E-07-1.23431E-19-9.98350E-19
 -1       941 9.61319E-05-2.91912E-05-2.86888E-05 5.99107E-07-2.06804E-19-1.35411E-18
 -1       942 9.59550E-05-2.90905E-05-2.86562E-05 5.54314E-07-5.86856E-19-7.00449E-19
 -1       943 9.57796E-05-2.89478E-05-2.86422E-05 5.18115E-07-3.12023E-19-3.03763E-19
 -1       944 9.56036E-05-2.87705E-05-2.86428E-05 5.00801E-07-1.61336E-19 2.09872E-19
 -1       945 9.54208E-05-2.85602E-05-2.86545E-05 5.10709E-07-2.90768E-19 7.98406E-19
 -1       946 9.52219E-05-2.83141E-05-2.86748E-05 5.55044E-07-3.27608E-19 7.52273E-19
 -1       947 9.49946E-05-2.80259E-05-2.87009E-05 6.40532E-07 3.22701E-19 1.07354E-18
 -1       948 9.47234E-05-2.76864E-05-2.87302E-05 7.73723E-07-3.16075E-19 5.08796E-19
 -1       949 9.43900E-05-2.72853E-05-2.87592E-05 9.61023E-07-9.00450E-19 7.50191E-19
 -1       950 9.39730E-05-2.68116E-05-2.87835E-05 1.20849E-06-6.39678E-20 1.46575E-18
 -1       951 9.34473E-05-2.62552E-05-2.87967E-05 1.52148E-06 4.76502E-20-1.35297E-19
 -1       952 9.27846E-05-2.56086E-05-2.87898E-05 1.90420E-06 4.16491E-19-4.35399E-20
 -1       953 9.19528E-05-2.48694E-05-2.87502E-05 2.35968E-06 3.88475E-19-1.62424E-19
 -1       954 9.09165E-05-2.40432E-05-2.86602E-05 2.89072E-06 4.98898E-19-2.47608E-19
 -1       955 8.96365E-05-2.31481E-05-2.84953E-05 3.50306E-06 4.99527E-19-1.69765E-19
 -1       956 8.80697E-05-2.22190E-05-2.82221E-05 4.21301E-06 1.50951E-18-7.87049E-20
 -1       957 8.61688E-05-2.13142E-05-2.77954E-05 5.06220E-06 5.47224E-19 8.57596E-19
 -1       958 8.38794E-05-2.05225E-05-2.71538E-05 6.14150E-06-6.85015E-19 7.42069E-19
 -1       959 8.11113E-05-1.99555E-05-2.62103E-05 7.65474E-06-8.19376E-19 2.26690E-20
 -1       960 7.78180E-05-1.98535E-05-2.48387E-05 9.95124E-06-9.41679E-19-8.57653E-19
 -1       961 7.39537E-05-2.05296E-05-2.28689E-05 1.36712E-05 7.57457E-19-6.68594E-20
 -1       962 9.57452E-05-2.89488E-05-2.86270E-05-5.91263E-07-1.43723E-19 9.56092E-19
 -1       963 9.54356E-05-2.86075E-05-2.86406E-05-5.67152E-07-5.17183E-20 5.59227E-19
 -1       964 9.49377E-05-2.32631E-05-3.07185E-05 1.86838E-06 1.02004E-18-1.51017E-18
 -1       965 9.55917E-05-2.87925E-05-2.86282E-05-5.64361E-07 2.31254E-20 8.80323E-19
 -1       966 9.59004E-05-2.90736E-05-2.86401E-05-6.37993E-07 2.26175E-19 5.96493E-19
 -1       967 9.52696E-05-2.83930E-05-2.86614E-05-6.08303E-07 1.61975E-19 6.19512E-19
 -1       968 9.50850E-05-2.81456E-05-2.86883E-05-6.96187E-07 1.81424E-19-1.42336E-21
 -1       969 9.48713E-05-2.78603E-05-2.87190E-05-8.39520E-07 1.79623E-19-5.88454E-19
 -1       970 9.46173E-05-2.75324E-05-2.87507E-05-1.04776E-06-1.96750E-19-2.02246E-19
 -1       971 9.43117E-05-2.71591E-05-2.87797E-05-1.33137E-06-3.09620E-19-4.84988E-19
 -1       972 9.39446E-05-2.67419E-05-2.88012E-05-1.70195E-06-2.16273E-19 1.09492E-19
 -1       973 9.35092E-05-2.62898E-05-2.88084E-05-2.17243E-06 1.63494E-19-2.14602E-19
 -1       974 9.30052E-05-2.58231E-05-2.87924E-05-2.75741E-06 1.13345E-19 1.22344E-19
 -1       975 9.24432E-05-2.53794E-05-2.87417E-05-3.47404E-06-1.11578E-19 1.91575E-19
 -1       976 9.18515E-05-2.50203E-05-2.86420E-05-4.34357E-06-2.63970E-19-2.84555E-19
 -1       977 9.12864E-05-2.48408E-05-2.84767E-05-5.39417E-06 3.76645E-19-7.90948E-19
 -1       978 9.08466E-05-2.49802E-05-2.82285E-05-6.66446E-06-5.12031E-20-3.32602E-19
 -1       979 9.06982E-05-2.56392E-05-2.78824E-05-8.20595E-06 7.82924E-20 2.41571E-19
 -1       980 9.11150E-05-2.71005E-05-2.74345E-05-1.00696E-05-7.71142E-20 1.56171E-18
 -1       981 9.25123E-05-2.97304E-05-2.69068E-05-1.22788E-05 1.58112E-19 9.03589E-19
 -1       982 9.57383E-05-3.41082E-05-2.64117E-05-1.46227E-05-4.74956E-19-7.59901E-19
 -1       983 9.99544E-05-3.91458E-05-2.60767E-05-1.63611E-05 3.62537E-20-9.96918E-19
 -1       984 9.46919E-05-2.26008E-05-3.08917E-05-1.20867E-06-1.42872E-19-1.99145E-18
 -1       985 9.61037E-05-2.59484E-05-3.00670E-05-6.40113E-07-7.91366E-20-8.69705E-19
 -1       986 9.64937E-05-2.72483E-05-2.96769E-05-6.27515E-08-3.74048E-19-3.52539E-19
 -1       987 9.63677E-05-2.91363E-05-2.88134E-05-7.57784E-07 3.28428E-19-4.28554E-19
 -1       988 9.63708E-05-2.71473E-05-2.96672E-05 1.43061E-07 6.56286E-19-1.02235E-18
 -1       989 9.65466E-05-2.80569E-05-2.93527E-05-3.18195E-07 3.94160E-19-8.72917E-19
 -1       990 9.59478E-05-2.57757E-05-3.00744E-05 8.48284E-07 9.76557E-19-9.45088E-19
 -1       991 9.55188E-05-2.46232E-05-3.03812E-05 1.34251E-06 1.12564E-18-1.17531E-18
 -1       992 8.45384E-05-2.92551E-05-2.36661E-05-1.89696E-05-7.54492E-19-1.02862E-18
 -1       993 9.60589E-05-2.91584E-05-2.86716E-05-6.92769E-07 4.70530E-19-2.43340E-20
 -1       994 9.64932E-05-2.89686E-05-2.89391E-05-7.19435E-07 4.47386E-19-4.47632E-19
 -1       995 6.63906E-05-1.72194E-05-2.10215E-05-1.00357E-05-2.00089E-18-1.88240E-19
 -1       996 9.55750E-05-2.43508E-05-3.05243E-05 6.69426E-09 2.66106E-19-2.02877E-18
 -1       997 9.28793E-05-3.65881E-05-2.40715E-05-2.11993E-05-1.22590E-18 5.37037E-19
 -1       998 9.56241E-05-2.45033E-05-3.04795E-05 4.91717E-07 4.65167E-19-1.78935E-18
 -1       999 6.11916E-05-1.62170E-05-1.91411E-05 1.00058E-05 4.97476E-19 1.00632E-18
 -1      1000 9.65667E-05-2.86324E-05-2.91147E-05-5.87956E-07 3.92802E-19-7.39752E-19
 -1      1001 6.06596E-05-1.45523E-05-1.97178E-05-2.24517E-06-8.17898E-19 3.93341E-19
 -1      1002 9.62173E-05-2.91873E-05-2.87271E-05-7.39642E-07 2.79660E-19-3.12768E-20
 -1      1003 9.56120E-05-2.44894E-05-3.04836E-05-4.74621E-07 1.14160E-19-1.74812E-18
 -1      1004 9.53716E-05-2.84870E-05-2.86649E-05-4.30414E-07-1.53420E-20 9.46555E-19
 -1      1005 9.68795E-05-2.89151E-05-2.91277E-05 3.64994E-07-2.70409E-19-1.00617E-18
 -1      1006 9.67680E-05-2.91880E-05-2.89629E-05 4.11680E-07-5.55548E-19-7.22454E-19
 -1      1007 9.65996E-05-2.92984E-05-2.88434E-05 4.18261E-07-3.21635E-19-4.48093E-19
 -1      1008 9.64040E-05-2.92961E-05-2.87605E-05 4.01452E-07-2.43372E-19-9.23072E-19
 -1      1009 9.61974E-05-2.92150E-05-2.87067E-05 3.76143E-07-8.64773E-20-7.31979E-19
 -1      1010 9.59883E-05-2.90781E-05-2.86758E-05 3.51053E-07-1.64946E-19-7.65472E-19
 -1      1011 9.57768E-05-2.88972E-05-2.86627E-05 3.34559E-07 1.90417E-19-5.21748E-19
 -1      1012 9.55593E-05-2.86782E-05-2.86634E-05 3.32770E-07-7.69183E-20-3.65580E-19
 -1      1013 9.53270E-05-2.84206E-05-2.86742E-05 3.50488E-07-4.69023E-20 2.25475E-19
 -1      1014 9.50674E-05-2.81195E-05-2.86920E-05 3.91912E-07-8.33317E-20 8.11092E-19
 -1      1015 9.47647E-05-2.77667E-05-2.87135E-05 4.60742E-07 3.38138E-20 5.85719E-19
 -1      1016 9.43996E-05-2.73520E-05-2.87348E-05 5.60135E-07-7.95544E-19 5.64909E-19
 -1      1017 9.39498E-05-2.68639E-05-2.87512E-05 6.92466E-07 2.20485E-19 9.90851E-19
 -1      1018 9.33894E-05-2.62918E-05-2.87563E-05 8.58870E-07-4.56879E-19 9.82971E-19
 -1      1019 9.26892E-05-2.56267E-05-2.87414E-05 1.05865E-06-4.74104E-19 7.02306E-19
 -1      1020 9.18160E-05-2.48635E-05-2.86943E-05 1.28871E-06 2.82820E-19 1.15959E-19
 -1      1021 9.07319E-05-2.40031E-05-2.85985E-05 1.54334E-06 4.20828E-19-1.18382E-19
 -1      1022 8.93928E-05-2.30537E-05-2.84316E-05 1.81496E-06 3.02739E-19 1.60224E-19
 -1      1023 8.77438E-05-2.20324E-05-2.81629E-05 2.09705E-06 1.14594E-18 2.58958E-19
 -1      1024 8.57108E-05-2.09637E-05-2.77500E-05 2.39116E-06 1.41141E-18 7.79373E-19
 -1      1025 8.31846E-05-1.98764E-05-2.71339E-05 2.72208E-06 3.55532E-19 2.56447E-19
 -1      1026 8.00118E-05-1.88121E-05-2.62305E-05 3.15331E-06-6.93329E-19 1.51985E-18
 -1      1027 7.57706E-05-1.76490E-05-2.48950E-05 3.90570E-06-3.40143E-19 3.23317E-18
 -1      1028 6.99616E-05-1.64019E-05-2.29234E-05 5.16340E-06-1.17481E-19 3.14948E-18
 -1      1029 9.59779E-05-2.90861E-05-2.86679E-05-4.44288E-07-4.94276E-19 4.50504E-19
 -1      1030 9.55450E-05-2.44684E-05-3.04598E-05 9.28132E-07 7.37336E-19-1.07862E-18
 -1      1031 9.48784E-05-2.78998E-05-2.87052E-05-5.66795E-07 4.95265E-19 5.38282E-19
 -1      1032 9.45680E-05-2.75353E-05-2.87284E-05-6.99731E-07-3.62162E-20 5.22272E-19
 -1      1033 9.41944E-05-2.71151E-05-2.87484E-05-8.87097E-07 1.45015E-19 2.41130E-19
 -1      1034 9.37413E-05-2.66357E-05-2.87597E-05-1.13934E-06-4.31956E-19-4.33875E-19
 -1      1035 9.31934E-05-2.60985E-05-2.87551E-05-1.46923E-06 1.25740E-19-4.39304E-19
 -1      1036 9.25383E-05-2.55133E-05-2.87252E-05-1.89287E-06-2.19488E-19-4.09699E-20
 -1      1037 9.17687E-05-2.49020E-05-2.86574E-05-2.43139E-06-3.22524E-19 9.08243E-19
 -1      1038 9.08867E-05-2.43040E-05-2.85357E-05-3.11367E-06 2.18767E-19 5.11929E-19
 -1      1039 8.99082E-05-2.37817E-05-2.83402E-05-3.98110E-06 1.91966E-19 5.32624E-20
 -1      1040 8.88705E-05-2.34281E-05-2.80471E-05-5.09474E-06 2.74256E-20 1.06380E-18
 -1      1041 8.78421E-05-2.33762E-05-2.76288E-05-6.54628E-06-1.12071E-18 1.40968E-18
 -1      1042 8.69386E-05-2.38141E-05-2.70550E-05-8.48047E-06-1.57396E-19 1.14464E-18
 -1      1043 8.64214E-05-2.50666E-05-2.62973E-05-1.11125E-05 7.35311E-19 7.77606E-19
 -1      1044 8.67236E-05-2.75483E-05-2.53550E-05-1.46453E-05 9.02926E-19-3.98093E-19
 -1      1045 9.63615E-05-2.63639E-05-2.99985E-05-2.53593E-07 2.55248E-19-1.59862E-18
 -1      1046 9.67424E-05-2.75948E-05-2.96346E-05 6.06220E-08-2.25973E-19-1.29421E-18
 -1      1047 9.66415E-05-2.74539E-05-2.96518E-05-2.71291E-08 5.18662E-19-9.01404E-19
 -1      1048 9.68918E-05-2.84140E-05-2.93478E-05 2.55838E-07-3.79796E-19-9.58282E-19
 -1      1049 7.54760E-05-2.15929E-05-2.30755E-05-1.37363E-05-5.60705E-19-4.41212E-19
 -1      1050 9.51415E-05-2.82149E-05-2.86829E-05-4.79540E-07 6.10170E-19 5.83844E-19
 -1      1051 9.62754E-05-2.59921E-05-3.01201E-05-1.09101E-07 2.60771E-19-1.91075E-18
 -1      1052 9.61740E-05-2.92079E-05-2.86998E-05-4.78052E-07-1.16978E-20 8.97677E-20
 -1      1053 9.57813E-05-2.89218E-05-2.86541E-05-4.19546E-07-7.08497E-21 5.40518E-19
 -1      1054 9.67079E-05-2.91296E-05-2.89621E-05-5.17718E-07 1.52689E-19-3.92680E-19
 -1      1055 9.55816E-05-2.87216E-05-2.86542E-05-4.12607E-07-1.68287E-20 7.01188E-19
 -1      1056 9.65521E-05-2.92590E-05-2.88399E-05-5.30481E-07-8.15609E-20-9.95700E-20
 -1      1057 9.68051E-05-2.83058E-05-2.93570E-05-2.96483E-07 3.38542E-19-1.07529E-18
 -1      1058 9.62937E-05-2.60231E-05-3.01166E-05 1.10008E-07 4.01869E-19-1.71133E-18
 -1      1059 9.62410E-05-2.61824E-05-3.00257E-05 3.95905E-07 8.04641E-19-8.41762E-19
 -1      1060 7.18322E-05-1.74944E-05-2.32746E-05-6.36233E-06-6.05899E-19 1.58368E-19
 -1      1061 9.68075E-05-2.92912E-05-2.89353E-05 1.63344E-07-4.33628E-19-5.82355E-19
 -1      1062 9.66068E-05-2.93435E-05-2.88272E-05 1.61791E-07-7.12725E-19-5.71654E-19
 -1      1063 9.63940E-05-2.93032E-05-2.87532E-05 1.52199E-07-3.38240E-19-7.00852E-19
 -1      1064 9.61707E-05-2.91868E-05-2.87073E-05 1.42506E-07-6.68709E-20-8.57239E-19
 -1      1065 9.59404E-05-2.90165E-05-2.86815E-05 1.35499E-07 2.13189E-19-6.77090E-19
 -1      1066 9.57051E-05-2.88034E-05-2.86721E-05 1.32539E-07 3.88123E-19-4.08116E-19
 -1      1067 9.54580E-05-2.85498E-05-2.86749E-05 1.35803E-07 3.38915E-19-1.70456E-19
 -1      1068 9.51876E-05-2.82530E-05-2.86862E-05 1.46748E-07 1.32157E-19 3.23100E-20
 -1      1069 9.48791E-05-2.79065E-05-2.87025E-05 1.66223E-07 1.90940E-20-1.77254E-19
 -1      1070 9.45142E-05-2.75011E-05-2.87198E-05 1.94364E-07-3.66930E-19-3.32331E-19
 -1      1071 9.40712E-05-2.70261E-05-2.87335E-05 2.30296E-07-5.34921E-19-2.27543E-19
 -1      1072 9.35256E-05-2.64712E-05-2.87375E-05 2.71623E-07-2.61466E-19-5.53506E-19
 -1      1073 9.28499E-05-2.58276E-05-2.87237E-05 3.13710E-07-3.41164E-19 4.93079E-19
 -1      1074 9.20134E-05-2.50900E-05-2.86813E-05 3.48740E-07-4.21360E-19 3.12882E-19
 -1      1075 9.09823E-05-2.42586E-05-2.85957E-05 3.64603E-07 1.37069E-19-5.34807E-19
 -1      1076 8.97177E-05-2.33406E-05-2.84471E-05 3.43664E-07 8.43484E-19-8.05772E-19
 -1      1077 8.81724E-05-2.23508E-05-2.82091E-05 2.61475E-07 8.35367E-19 4.58220E-19
 -1      1078 8.62835E-05-2.13098E-05-2.78458E-05 8.51686E-08 9.67345E-19-3.05690E-19
 -1      1079 8.39553E-05-2.02377E-05-2.73077E-05-2.29812E-07 7.38768E-19-1.51674E-18
 -1      1080 8.10202E-05-1.91365E-05-2.65231E-05-7.46640E-07 6.07602E-19-4.21677E-19
 -1      1081 7.72457E-05-1.80269E-05-2.53922E-05-1.52171E-06 6.39629E-19 6.28023E-19
 -1      1082 9.37385E-05-2.66815E-05-2.87388E-05-5.78495E-07-9.61741E-20 1.80646E-18
 -1      1083 9.46282E-05-2.76264E-05-2.87151E-05-3.51381E-07 1.27316E-19 6.74386E-19
 -1      1084 9.31418E-05-2.61016E-05-2.87316E-05-7.59596E-07 1.31927E-19 1.33232E-18
 -1      1085 9.24150E-05-2.54490E-05-2.86999E-05-1.00270E-06-4.34556E-19 1.30869E-18
 -1      1086 9.15373E-05-2.47324E-05-2.86309E-05-1.32666E-06-6.08204E-19 1.69919E-18
 -1      1087 9.04899E-05-2.39715E-05-2.85081E-05-1.75817E-06 2.58123E-19 1.44065E-18
 -1      1088 8.92569E-05-2.32006E-05-2.83102E-05-2.33588E-06 8.12684E-19 9.30680E-19
 -1      1089 8.78256E-05-2.24714E-05-2.80093E-05-3.11700E-06-1.74306E-19 1.85362E-19
 -1      1090 8.61863E-05-2.18565E-05-2.75705E-05-4.18734E-06-4.53470E-19 2.94146E-19
 -1      1091 8.43327E-05-2.14545E-05-2.69490E-05-5.67509E-06 4.31062E-19-9.32949E-19
 -1      1092 8.22460E-05-2.13673E-05-2.60891E-05-7.75608E-06 8.53456E-19-1.77975E-18
 -1      1093 7.92892E-05-2.12810E-05-2.48583E-05-1.01844E-05 1.53195E-18-1.83124E-18
 -1      1094 9.55045E-05-2.86073E-05-2.86702E-05-2.29601E-07 1.64506E-19-1.70141E-19
 -1      1095 9.42268E-05-2.71882E-05-2.87309E-05-4.45781E-07 1.09163E-20 1.05955E-18
 -1      1096 9.52498E-05-2.83280E-05-2.86808E-05-2.48697E-07 1.92003E-19-4.74537E-19
 -1      1097 9.69260E-05-2.79841E-05-2.95465E-05 5.79556E-08 8.55186E-20-1.52190E-18
 -1      1098 9.66979E-05-2.71498E-05-2.98070E-05-2.10278E-08 2.97528E-19-1.80589E-18
 -1      1099 9.65240E-05-2.67042E-05-2.99222E-05 1.02777E-07 6.83155E-19-1.23075E-18
 -1      1100 9.63680E-05-2.92730E-05-2.87550E-05-5.12084E-07 2.26428E-19-3.31132E-19
 -1      1101 9.70105E-05-2.86794E-05-2.92844E-05 1.22281E-07-1.13720E-19-1.06418E-18
 -1      1102 9.69528E-05-2.90886E-05-2.90844E-05 1.52414E-07-2.97499E-19-8.27637E-19
 -1      1103 9.49631E-05-2.80035E-05-2.86970E-05-2.87670E-07 4.81043E-19 4.85121E-19
 -1      1104 9.68066E-05-2.88344E-05-2.91310E-05-4.49470E-07 3.40411E-19-7.03034E-19
 -1      1105 9.68035E-05-2.92548E-05-2.89495E-05-2.79921E-07-5.80090E-20-5.18911E-19
 -1      1106 9.57403E-05-2.88464E-05-2.86688E-05-2.26114E-07 2.94980E-19 1.88203E-19
 -1      1107 9.68473E-05-2.78183E-05-2.95834E-05-7.94124E-08 5.70491E-19-1.00118E-18
 -1      1108 9.61894E-05-2.92053E-05-2.87077E-05-2.49477E-07-2.67122E-19 3.63229E-19
 -1      1109 9.59671E-05-2.90466E-05-2.86802E-05-2.34046E-07 4.17635E-20 1.00354E-19
 -1      1110 9.69348E-05-2.90217E-05-2.91056E-05-2.54154E-07 1.04760E-19-9.86801E-19
 -1      1111 9.66196E-05-2.93353E-05-2.88364E-05-2.79478E-07-1.70253E-19-2.27965E-19
 -1      1112 9.65167E-05-2.93409E-05-2.87887E-05-9.48245E-08-5.13850E-19-1.77558E-20
 -1      1113 9.69731E-05-2.85729E-05-2.93143E-05-1.90139E-07 2.62431E-19-1.22179E-18
 -1      1114 9.63974E-05-2.92992E-05-2.87566E-05-2.68018E-07-4.41912E-19 1.46782E-19
 -1      1115 9.67907E-05-2.74654E-05-2.97116E-05-1.39453E-08 5.99579E-19-1.51001E-18
 -1      1116 1.16858E-04 2.57576E-10-4.18561E-05-4.14658E-05-2.68933E-19 1.01004E-17
 -1      1117 8.86504E-05 7.19220E-11-3.72514E-05-2.41676E-05-1.54689E-19 1.87427E-18
 -1      1118 8.40760E-05 4.14349E-11-3.57668E-05-1.78791E-05-1.12602E-19-1.73201E-18
 -1      1119 8.23340E-05 3.20346E-11-3.50725E-05-1.38389E-05-7.46977E-20-3.41213E-18
 -1      1120 8.15329E-05 2.73382E-11-3.47381E-05-1.05339E-05-5.62218E-20-4.17872E-18
 -1      1121 8.11288E-05 2.46069E-11-3.45729E-05-7.64096E-06-3.77459E-20-4.61606E-18
 -1      1122 8.09199E-05 2.29527E-11-3.44897E-05-4.98014E-06-1.43665E-20-4.79272E-18
 -1      1123 8.08182E-05 2.20595E-11-3.44505E-05-2.43241E-06-6.20385E-21-4.86596E-18
 -1      1124 8.07893E-05 2.17895E-11-3.44396E-05 5.24578E-08 1.02182E-20-4.88031E-18
 -1      1125 8.08227E-05 2.21039E-11-3.44520E-05 2.53987E-06 1.87406E-20-4.83295E-18
 -1      1126 8.09291E-05 2.30534E-11-3.44927E-05 5.09599E-06 2.93054E-20-4.69153E-18
 -1      1127 8.11446E-05 2.47689E-11-3.45773E-05 7.77321E-06 5.16425E-20-4.31605E-18
 -1      1128 8.15532E-05 2.76412E-11-3.47446E-05 1.06940E-05 7.02773E-20-3.72509E-18
 -1      1129 8.23577E-05 3.24997E-11-3.50825E-05 1.40435E-05 9.00237E-20-2.66595E-18
 -1      1130 8.40736E-05 4.19243E-11-3.57867E-05 1.81300E-05 1.28855E-19-6.44804E-19
 -1      1131 8.83489E-05 6.67440E-11-3.73216E-05 2.40110E-05 1.47172E-19 3.27619E-18
 -1      1132 1.06621E-04 1.63926E-10-4.06347E-05 3.61929E-05 2.90321E-19 1.13889E-17
 -1      1133 1.30225E-04-2.57575E-05-4.02747E-05-2.61062E-05-1.13778E-18 1.53775E-17
 -1      1134 9.74598E-05-2.88635E-05-3.15785E-05-6.80598E-07-4.36090E-19 1.25871E-17
 -1      1135 9.01608E-05-2.70269E-05-2.78934E-05 3.87054E-07-1.32984E-19 8.61092E-18
 -1      1136 8.82489E-05-2.65723E-05-2.66435E-05 2.50895E-07-9.26310E-20 5.83566E-18
 -1      1137 8.78894E-05-2.64453E-05-2.63868E-05 1.65890E-07-5.72608E-20 4.11020E-18
 -1      1138 8.82466E-05-2.65213E-05-2.64712E-05 1.17986E-07-7.21177E-20 3.24488E-18
 -1      1139 8.89302E-05-2.67050E-05-2.66731E-05 8.73887E-08-5.16636E-20 2.44583E-18
 -1      1140 8.97414E-05-2.69357E-05-2.69146E-05 6.61455E-08-4.95659E-20 1.71555E-18
 -1      1141 9.05698E-05-2.71770E-05-2.71616E-05 5.04007E-08-5.44414E-20 9.96468E-19
 -1      1142 9.13533E-05-2.74079E-05-2.73958E-05 3.82452E-08-1.14556E-19-4.20406E-20
 -1      1143 9.20588E-05-2.76171E-05-2.76074E-05 2.86667E-08-2.46510E-20-6.36661E-19
 -1      1144 9.26719E-05-2.77998E-05-2.77919E-05 2.10570E-08 1.79613E-20-4.00398E-19
 -1      1145 9.31905E-05-2.79548E-05-2.79485E-05 1.50053E-08-7.76112E-20-1.11415E-18
 -1      1146 9.36202E-05-2.80837E-05-2.80786E-05 1.02089E-08-6.74229E-20-1.87315E-18
 -1      1147 9.39717E-05-2.81895E-05-2.81855E-05 6.43436E-09-8.40684E-21-1.69861E-18
 -1      1148 9.42595E-05-2.82764E-05-2.82734E-05 3.50135E-09-8.09423E-20-1.58743E-18
 -1      1149 9.45003E-05-2.83495E-05-2.83473E-05 1.27721E-09-5.78767E-20-1.69993E-18
 -1      1150 9.47133E-05-2.84144E-05-2.84130E-05-3.22138E-10 4.13916E-20-2.10548E-18
 -1      1151 9.49201E-05-2.84777E-05-2.84771E-05-1.32771E-09-1.00825E-20-2.88350E-18
 -1      1152 9.51456E-05-2.85468E-05-2.85471E-05-1.70942E-09-6.51887E-20-3.55420E-18
 -1      1153 9.54186E-05-2.86304E-05-2.86318E-05-1.36382E-09 2.32314E-21-3.58503E-18
 -1      1154 9.57737E-05-2.87390E-05-2.87418E-05-9.62830E-11-2.03092E-19-2.05459E-18
 -1      1155 9.62523E-05-2.88849E-05-2.88896E-05 2.40405E-09-6.02274E-20-1.26857E-18
 -1      1156 9.69046E-05-2.90833E-05-2.90905E-05 6.59797E-09-3.14425E-19-1.95933E-18
 -1      1157 9.77913E-05-2.93522E-05-2.93629E-05 1.31377E-08-7.20019E-20-2.70764E-18
 -1      1158 9.89843E-05-2.97132E-05-2.97284E-05 2.29090E-08 2.09775E-19-1.50833E-18
 -1      1159 1.00567E-04-3.01907E-05-3.02117E-05 3.70488E-08 3.30839E-20-6.94878E-19
 -1      1160 1.02628E-04-3.08111E-05-3.08390E-05 5.68748E-08 1.06675E-19-3.77736E-18
 -1      1161 1.05254E-04-3.15991E-05-3.16340E-05 8.35816E-08 5.65494E-20-3.73514E-18
 -1      1162 1.08504E-04-3.25710E-05-3.26101E-05 1.17407E-07 4.81113E-20-2.96096E-18
 -1      1163 1.12362E-04-3.37202E-05-3.37547E-05 1.55751E-07-2.85673E-19-2.18135E-18
 -1      1164 1.16662E-04-3.49946E-05-3.50049E-05 1.89598E-07 2.09802E-19-2.56495E-18
 -1      1165 1.20962E-04-3.62605E-05-3.62124E-05 1.97985E-07-1.58637E-20-3.94469E-18
 -1      1166 1.24408E-04-3.72619E-05-3.71113E-05 1.42994E-07-1.22625E-19-5.69278E-18
 -1      1167 1.25657E-04-3.76006E-05-3.73183E-05-2.59434E-08 3.99310E-19-4.00354E-18
 -1      1168 1.23078E-04-3.67995E-05-3.64225E-05-3.40941E-07-2.63374E-19-1.40195E-18
 -1      1169 1.15506E-04-3.45342E-05-3.42095E-05-7.48267E-07-2.13254E-19-4.46704E-18
 -1      1170 1.03543E-04-3.10142E-05-3.09643E-05-1.04438E-06 1.51579E-19-5.01719E-18
 -1      1171 9.05697E-05-2.72465E-05-2.76112E-05-9.49205E-07 6.71009E-20-4.79272E-18
 -1      1172 8.18618E-05-2.47405E-05-2.54030E-05-3.62561E-07 1.36081E-19-4.06401E-18
 -1      1173 8.13618E-05-2.45767E-05-2.52083E-05 4.22682E-07-2.97335E-19-5.86083E-18
 -1      1174 8.86101E-05-2.66348E-05-2.69238E-05 9.26889E-07 1.95701E-19-7.13858E-18
 -1      1175 9.91077E-05-2.96655E-05-2.95444E-05 9.26919E-07-5.94558E-19-6.07090E-18
 -1      1176 1.07701E-04-3.21909E-05-3.18259E-05 5.74670E-07-6.59296E-20-6.17296E-18
 -1      1177 1.11515E-04-3.33437E-05-3.29597E-05 1.53285E-07 1.46001E-19-8.47388E-18
 -1      1178 1.10457E-04-3.30660E-05-3.28068E-05-1.56089E-07 6.09003E-19-7.89249E-19
 -1      1179 1.06126E-04-3.18149E-05-3.17301E-05-3.05217E-07-3.83330E-19 8.46768E-19
 -1      1180 1.00691E-04-3.02299E-05-3.03121E-05-2.91873E-07 1.44727E-19 1.54197E-18
 -1      1181 9.64137E-05-2.90222E-05-2.91219E-05-8.75553E-08-3.69952E-19 1.86822E-18
 -1      1182 9.49238E-05-2.84532E-05-2.83934E-05 1.19260E-07 3.01785E-19 9.37841E-19
 -1      1183 1.31058E-04-3.77395E-05-3.86600E-05 1.21748E-05-1.68507E-19 1.80452E-17
 -1      1184 9.65610E-05-2.81901E-05-3.13310E-05 8.01467E-07 1.08632E-19 1.45352E-17
 -1      1185 9.03753E-05-2.69297E-05-2.78745E-05 1.20170E-07 1.01399E-19 1.11271E-17
 -1      1186 8.83358E-05-2.64997E-05-2.66801E-05 9.00981E-09 8.05078E-20 8.69445E-18
 -1      1187 8.79297E-05-2.64078E-05-2.64140E-05-2.52807E-08 8.32921E-20 6.80459E-18
 -1      1188 8.82684E-05-2.65039E-05-2.64870E-05-3.43034E-08 8.25989E-20 5.37231E-18
 -1      1189 8.89433E-05-2.66981E-05-2.66833E-05-3.54811E-08-7.48714E-20 4.81240E-18
 -1      1190 8.97497E-05-2.69345E-05-2.69220E-05-3.37498E-08 4.14736E-20 4.59715E-18
 -1      1191 9.05753E-05-2.71787E-05-2.71672E-05-3.06634E-08 7.37655E-20 3.55426E-18
 -1      1192 9.13570E-05-2.74110E-05-2.74001E-05-2.69263E-08 3.75406E-20 2.85993E-18
 -1      1193 9.20615E-05-2.76210E-05-2.76108E-05-2.29498E-08 9.69642E-20 2.07534E-18
 -1      1194 9.26742E-05-2.78039E-05-2.77946E-05-1.89887E-08 1.97150E-20 2.17223E-18
 -1      1195 9.31928E-05-2.79589E-05-2.79507E-05-1.51926E-08 5.81586E-20 2.33979E-18
 -1      1196 9.36230E-05-2.80877E-05-2.80806E-05-1.16358E-08-7.77681E-20 1.80803E-18
 -1      1197 9.39755E-05-2.81934E-05-2.81874E-05-8.33885E-09 4.22868E-20 9.48124E-19
 -1      1198 9.42648E-05-2.82803E-05-2.82755E-05-5.28614E-09 1.36647E-20-6.41588E-19
 -1      1199 9.45079E-05-2.83535E-05-2.83499E-05-2.44034E-09-1.71443E-19 3.82037E-19
 -1      1200 9.47237E-05-2.84187E-05-2.84162E-05 2.43272E-10 7.32768E-20-4.92552E-19
 -1      1201 9.49338E-05-2.84824E-05-2.84812E-05 2.80236E-09 8.56085E-20-2.07311E-18
 -1      1202 9.51623E-05-2.85519E-05-2.85520E-05 5.25135E-09-1.78256E-19-1.01891E-18
 -1      1203 9.54369E-05-2.86353E-05-2.86370E-05 7.56171E-09-5.91106E-20-8.67825E-20
 -1      1204 9.57891E-05-2.87421E-05-2.87458E-05 9.63657E-09-2.33618E-19 6.32043E-19
 -1      1205 9.62550E-05-2.88832E-05-2.88894E-05 1.12772E-08 3.04014E-20-6.74285E-20
 -1      1206 9.68752E-05-2.90707E-05-2.90798E-05 1.21387E-08 1.22725E-19-2.86255E-18
 -1      1207 9.76941E-05-2.93174E-05-2.93302E-05 1.16753E-08 9.21305E-20-3.32095E-18
 -1      1208 9.87565E-05-2.96368E-05-2.96537E-05 9.07975E-09-3.18977E-20-1.53567E-18
 -1      1209 1.00103E-04-3.00403E-05-3.00617E-05 3.23491E-09-3.39193E-19-4.88771E-19
 -1      1210 1.01759E-04-3.05351E-05-3.05604E-05-7.27225E-09 5.38835E-19-3.12140E-18
 -1      1211 1.03720E-04-3.11186E-05-3.11459E-05-2.39733E-08 3.93159E-20-3.94594E-18
 -1      1212 1.05925E-04-3.17716E-05-3.17961E-05-4.79889E-08 6.65674E-22-1.54684E-18
 -1      1213 1.08222E-04-3.24485E-05-3.24610E-05-7.88750E-08-6.75290E-21-7.53317E-19
 -1      1214 1.10330E-04-3.30659E-05-3.30518E-05-1.12603E-07-3.84722E-21-2.47318E-18
 -1      1215 1.11808E-04-3.34944E-05-3.34345E-05-1.38875E-07-1.32547E-20-9.80983E-19
 -1      1216 1.12059E-04-3.35614E-05-3.34374E-05-1.39188E-07-3.15689E-19 9.79977E-20
 -1      1217 1.10425E-04-3.30783E-05-3.28864E-05-8.93735E-08-1.30460E-19 2.01618E-18
 -1      1218 1.06423E-04-3.19062E-05-3.16759E-05 2.78708E-08 3.01808E-19 2.04876E-19
 -1      1219 1.00118E-04-3.00582E-05-2.98646E-05 2.00680E-07 3.02785E-19-1.83944E-18
 -1      1220 9.24633E-05-2.77994E-05-2.77455E-05 3.71097E-07-8.56165E-20-1.09108E-19
 -1      1221 8.53018E-05-2.56567E-05-2.58160E-05 4.49095E-07 2.91939E-19-1.41904E-18
 -1      1222 8.07627E-05-2.42613E-05-2.46086E-05 3.69045E-07 8.49746E-20-4.54515E-18
 -1      1223 8.02047E-05-2.40453E-05-2.44428E-05 1.50330E-07-1.54769E-19-3.67287E-18
 -1      1224 8.34201E-05-2.49801E-05-2.52594E-05-1.06358E-07-2.08268E-19-1.59825E-18
 -1      1225 8.87503E-05-2.65813E-05-2.66497E-05-2.85601E-07 2.90237E-19-3.95093E-18
 -1      1226 9.40290E-05-2.81884E-05-2.80665E-05-3.32096E-07-9.43449E-20-5.02968E-18
 -1      1227 9.76194E-05-2.92919E-05-2.90744E-05-2.63179E-07-3.52379E-20-2.63560E-18
 -1      1228 9.89224E-05-2.97021E-05-2.94920E-05-1.34877E-07 2.48690E-19-3.79381E-18
 -1      1229 9.83003E-05-2.95261E-05-2.93957E-05-4.51094E-09 9.17898E-20-6.23690E-18
 -1      1230 9.67217E-05-2.90535E-05-2.90305E-05 7.92060E-08-2.91592E-19-6.59941E-18
 -1      1231 9.53630E-05-2.86345E-05-2.86713E-05 6.01186E-08 7.37998E-19-6.96743E-18
 -1      1232 9.50589E-05-2.85151E-05-2.84357E-05-5.85392E-08-3.29984E-19-5.65377E-18
 -1      1233 9.52940E-05-2.87502E-05-2.84519E-05-6.25595E-08-4.91516E-18-2.05965E-19
 -1      1234 9.51537E-05-2.84328E-05-2.87246E-05-5.98374E-08-4.67677E-18-1.93603E-19
 -1      1235 9.46197E-05-2.66951E-05-2.93022E-05 4.98492E-08-4.25630E-18-4.75473E-19
 -1      1236 9.35725E-05-2.32258E-05-3.03591E-05 1.54656E-07-3.55254E-18 1.15197E-18
 -1      1237 9.19893E-05-1.79128E-05-3.19318E-05 2.70814E-07 1.68004E-18-2.04760E-19
 -1      1238 8.99585E-05-1.10506E-05-3.39113E-05 3.73710E-07 1.83287E-18 7.27978E-19
 -1      1239 8.77186E-05-3.40751E-06-3.60684E-05 4.17926E-07 1.76384E-18-1.59589E-18
 -1      1240 8.56517E-05 3.68247E-06-3.80297E-05 3.58944E-07-3.68290E-18-1.51126E-18
 -1      1241 8.42641E-05 8.46556E-06-3.93325E-05 1.88451E-07-1.96737E-18 8.07037E-19
 -1      1242 8.39365E-05 9.60314E-06-3.96335E-05-5.01849E-08-1.14391E-18-3.28556E-20
 -1      1243 8.47808E-05 6.69262E-06-3.88295E-05-2.77172E-07 2.67993E-18-3.08035E-19
 -1      1244 8.65879E-05 5.08408E-07-3.71205E-05-4.22489E-07-1.55330E-18 7.72120E-19
 -1      1245 8.89261E-05-7.49765E-06-3.48807E-05-4.56889E-07 2.55735E-18 1.06790E-19
 -1      1246 9.13580E-05-1.57574E-05-3.25485E-05-4.06653E-07 4.77356E-18 2.28739E-19
 -1      1247 9.34616E-05-2.28574E-05-3.05497E-05-3.44022E-07-1.83105E-18-4.59591E-19
 -1      1248 9.46819E-05-2.72393E-05-2.91892E-05 1.25601E-08-1.14973E-18-4.77545E-19
 -1      1249 9.53706E-05-2.88690E-05-2.84098E-05 8.52215E-08-1.66005E-19 4.89684E-19
 -1      1250 3.78927E-05-1.18975E-04 2.03746E-05-1.51806E-05-2.15739E-18 5.11581E-19
 -1      1251 1.99930E-05-7.43049E-05 1.15077E-05-2.86069E-05 5.49640E-18 2.81384E-18
 -1      1252 8.58849E-06-1.20708E-05-5.24320E-06-1.24079E-06 1.34712E-17 8.45847E-18
 -1      1253 3.85199E-05 2.52206E-05-2.74979E-05 5.79124E-05 1.22701E-17 1.18093E-17
 -1      1254 1.22836E-04 9.66785E-06-5.00689E-05 1.08249E-04 9.41477E-18 1.44843E-17
 -1      1255 2.27341E-04-4.09953E-05-6.79328E-05 1.09991E-04 5.26854E-18 1.16823E-17
 -1      1256 3.02583E-04-8.58374E-05-7.80175E-05 5.60660E-05 5.44404E-19 5.19401E-18
 -1      1257 3.13473E-04-9.28399E-05-7.93006E-05-2.80027E-05 1.13492E-18-2.31240E-18
 -1      1258 2.49541E-04-5.48740E-05-7.09444E-05-9.45864E-05 3.21449E-18-9.46729E-18
 -1      1259 1.48334E-04-2.94373E-06-5.46293E-05-1.10933E-04 6.32225E-18-1.07099E-17
 -1      1260 5.75482E-05 2.54834E-05-3.41918E-05-7.45690E-05 7.70631E-18-9.15812E-18
 -1      1261 1.24667E-05 7.09232E-06-1.29672E-05-1.77316E-05 6.60686E-18-4.79421E-18
 -1      1262 1.21513E-05-4.72929E-05 5.56209E-06 2.12717E-05 2.50468E-18-2.09217E-18
 -1      1263 3.08537E-05-1.01576E-04 1.73742E-05 2.12129E-05-5.28718E-18 4.13299E-19
 -1      1264 3.71370E-05-1.17290E-04 2.07473E-05-5.58942E-06-7.38719E-18-1.62779E-18
 -1      1265 2.48585E-05-8.84868E-05 1.48907E-05-2.75270E-05-1.16670E-17-3.03937E-18
 -1      1266 8.07052E-06-3.11254E-05 1.24607E-06-1.67883E-05-1.00204E-17-4.82555E-18
 -1      1267 1.89579E-05 1.49124E-05-1.79187E-05 2.96724E-05-4.90432E-18-3.67951E-18
 -1      1268 7.68067E-05 2.05059E-05-3.90470E-05 8.48619E-05-1.43487E-18-1.07743E-18
 -1      1269 1.73263E-04-1.58222E-05-5.88033E-05 1.11342E-04 5.25160E-20 3.55754E-20
 -1      1270 2.71343E-04-6.82381E-05-7.36706E-05 8.57914E-05 5.70900E-19 4.03357E-18
 -1      1271 3.22178E-04-9.75931E-05-8.04488E-05 1.50920E-05-6.75773E-20 6.39002E-18
 -1      1272 3.00986E-04-8.34202E-05-7.81237E-05-6.58714E-05-1.45610E-18 6.88468E-18
 -1      1273 2.17038E-04-3.45721E-05-6.66477E-05-1.15302E-04-3.80995E-18 9.73918E-18
 -1      1274 1.12981E-04 1.36373E-05-4.84421E-05-1.06514E-04-7.26500E-18 1.06353E-17
 -1      1275 3.53792E-05 2.35762E-05-2.60424E-05-5.31295E-05-8.68548E-18 7.56231E-18
 -1      1276 8.22949E-06-1.46157E-05-4.30962E-06 4.56582E-06-9.20894E-18 4.76795E-18
 -1      1277 2.01068E-05-7.50693E-05 1.17158E-05 2.89990E-05-1.08725E-17 4.22119E-18
 -1      1278 3.81878E-05-1.19596E-04 2.04823E-05 1.52650E-05-7.89774E-18 3.96067E-19
 -1      1279 1.04446E-04-2.20202E-05-3.78930E-05-1.72756E-05-4.02129E-19 8.36741E-18
 -1      1280 9.03192E-05-6.68152E-06-3.60172E-05-2.04718E-05-1.27124E-18 1.62948E-19
 -1      1281 9.26568E-05-6.74042E-06-3.72224E-05-2.57601E-05-1.58903E-18 2.04357E-18
 -1      1282 8.58991E-05-4.09283E-06-3.51296E-05-1.64340E-05-1.25342E-18-2.46497E-18
 -1      1283 8.71534E-05-4.08805E-06-3.55994E-05-1.88534E-05-1.43572E-18-1.30988E-18
 -1      1284 9.21330E-05-1.04629E-05-3.50934E-05-1.90334E-05-2.25173E-18 1.91271E-19
 -1      1285 8.40989E-05-3.19215E-06-3.46863E-05-1.28208E-05-1.04775E-18-3.77366E-18
 -1      1286 8.47056E-05-3.16095E-06-3.49105E-05-1.46367E-05-1.19135E-18-3.21356E-18
 -1      1287 8.78658E-05-7.39124E-06-3.45736E-05-1.54187E-05-1.98073E-18-1.97165E-18
 -1      1288 8.31848E-05-2.72776E-06-3.44693E-05-9.68679E-06-7.54620E-19-4.45619E-18
 -1      1289 8.35008E-05-2.71126E-06-3.45788E-05-1.12344E-05-8.62319E-19-4.15692E-18
 -1      1290 8.58676E-05-5.98553E-06-3.43041E-05-1.19579E-05-1.55109E-18-3.17068E-18
 -1      1291 8.26918E-05-2.45708E-06-3.43631E-05-6.91621E-06-5.04097E-19-4.73695E-18
 -1      1292 8.28613E-05-2.44860E-06-3.44174E-05-8.28712E-06-6.06548E-19-4.59023E-18
 -1      1293 8.48189E-05-5.21657E-06-3.41720E-05-8.94500E-06-1.13346E-18-3.70609E-18
 -1      1294 8.24165E-05-2.29183E-06-3.43102E-05-4.29588E-06-2.53212E-19-4.84786E-18
 -1      1295 8.25076E-05-2.28787E-06-3.43374E-05-5.59730E-06-3.37156E-19-4.79482E-18
 -1      1296 8.42331E-05-4.76154E-06-3.41088E-05-6.21802E-06-7.19144E-19-3.95167E-18
 -1      1297 8.22842E-05-2.20256E-06-3.42878E-05-1.79044E-06-1.30777E-20-4.91660E-18
 -1      1298 8.23231E-05-2.20097E-06-3.42989E-05-3.04175E-06-9.55427E-20-4.88027E-18
 -1      1299 8.39108E-05-4.49814E-06-3.40797E-05-3.64557E-06-2.85391E-19-4.01242E-18
 -1      1300 8.22582E-05-2.17509E-06-3.42852E-05 6.69950E-07 1.94412E-19-4.94712E-18
 -1      1301 8.22568E-05-2.17513E-06-3.42848E-05-5.66228E-07 1.22939E-19-4.94246E-18
 -1      1302 8.37696E-05-4.37864E-06-3.40688E-05-1.17088E-06 1.01091E-19-4.11142E-18
 -1      1303 8.23319E-05-2.20532E-06-3.43005E-05 3.14913E-06 3.76081E-19-4.84662E-18
 -1      1304 8.22900E-05-2.20696E-06-3.42887E-05 1.89520E-06 3.02763E-19-4.90681E-18
 -1      1305 8.37746E-05-4.38287E-06-3.40692E-05 1.27403E-06 3.98506E-19-4.10721E-18
 -1      1306 8.25251E-05-2.29829E-06-3.43401E-05 5.71393E-06 5.88109E-19-4.65826E-18
 -1      1307 8.24305E-05-2.30166E-06-3.43122E-05 4.40653E-06 5.26300E-19-4.77083E-18
 -1      1308 8.39266E-05-4.51173E-06-3.40809E-05 3.75301E-06 7.38958E-19-4.01022E-18
 -1      1309 8.28847E-05-2.46390E-06-3.44204E-05 8.39597E-06 8.13569E-19-4.24149E-18
 -1      1310 8.27119E-05-2.47259E-06-3.43655E-05 7.01607E-06 7.21348E-19-4.50361E-18
 -1      1311 8.42591E-05-4.78468E-06-3.41100E-05 6.31197E-06 1.08481E-18-3.76183E-18
 -1      1312 8.35429E-05-2.74112E-06-3.45839E-05 1.13964E-05 1.13884E-18-3.58381E-18
 -1      1313 8.32215E-05-2.75822E-06-3.44731E-05 9.83135E-06 1.01379E-18-3.97379E-18
 -1      1314 8.48618E-05-5.25770E-06-3.41732E-05 9.05528E-06 1.52170E-18-3.27781E-18
 -1      1315 8.47642E-05-3.20327E-06-3.49187E-05 1.48451E-05 1.43670E-18-2.43720E-18
 -1      1316 8.41517E-05-3.24000E-06-3.46919E-05 1.30048E-05 1.28201E-18-3.14268E-18
 -1      1317 8.59452E-05-6.06270E-06-3.43060E-05 1.21239E-05 1.97962E-18-2.57493E-18
 -1      1318 8.72553E-05-4.09037E-06-3.56207E-05 1.90924E-05 1.59052E-18-2.09164E-19
 -1      1319 8.59716E-05-4.15423E-06-3.51373E-05 1.66944E-05 1.41957E-18-1.55716E-18
 -1      1320 8.79905E-05-7.51712E-06-3.45755E-05 1.56517E-05 2.32091E-18-1.21414E-18
 -1      1321 9.34695E-05-6.79260E-06-3.71178E-05 2.50973E-05 1.37537E-18 4.00107E-18
 -1      1322 9.01351E-05-6.43808E-06-3.60398E-05 2.11500E-05 1.33614E-18 1.44154E-18
 -1      1323 9.23635E-05-1.06984E-05-3.50786E-05 1.96775E-05 2.35068E-18 1.25636E-18
 -1      1324 1.23632E-04-2.49247E-05-3.90165E-05 2.83675E-05 6.50310E-19 1.19694E-17
 -1      1325 1.00086E-04-1.44248E-05-3.73556E-05 2.40512E-05 6.51157E-19 6.43692E-18
 -1      1326 1.01683E-04-1.93434E-05-3.54037E-05 2.13994E-05 2.20718E-18 5.09914E-18
 -1      1327 1.02610E-04-2.78068E-05-3.47595E-05 7.32929E-06 1.20350E-18 1.15156E-17
 -1      1328 1.05154E-04-3.02326E-05-3.35270E-05-7.96048E-06-1.29247E-18 8.75959E-18
 -1      1329 9.82663E-05-2.78447E-05-3.07637E-05-4.98931E-06-1.24503E-18 7.23123E-18
 -1      1330 9.55078E-05-2.78506E-05-2.92560E-05-2.49000E-06-1.02941E-18 6.51170E-18
 -1      1331 9.32755E-05-2.75597E-05-2.82166E-05-2.04319E-06-9.67232E-19 5.07682E-18
 -1      1332 9.94895E-05-2.80530E-05-3.09842E-05-7.88820E-06-2.16375E-18 3.86848E-18
 -1      1333 9.15856E-05-2.72018E-05-2.75822E-05-8.38263E-07-7.49737E-19 4.52739E-18
 -1      1334 9.08691E-05-2.71065E-05-2.72799E-05-7.28062E-07-6.86586E-19 3.52011E-18
 -1      1335 9.47224E-05-2.77711E-05-2.88175E-05-3.12092E-06-1.67453E-18 2.80265E-18
 -1      1336 9.01189E-05-2.69238E-05-2.70367E-05-1.74071E-07-4.74034E-19 3.01988E-18
 -1      1337 9.00461E-05-2.69505E-05-2.70018E-05-1.16131E-07-3.87316E-19 2.38751E-18
 -1      1338 9.25229E-05-2.75010E-05-2.78966E-05-1.05357E-06-1.17398E-18 1.84457E-18
 -1      1339 8.97864E-05-2.68829E-05-2.69276E-05 1.53742E-07-1.97077E-19 2.11078E-18
 -1      1340 9.00004E-05-2.69728E-05-2.69890E-05 1.82359E-07-2.88904E-19 1.77991E-18
 -1      1341 9.15641E-05-2.73571E-05-2.75296E-05-7.09319E-08-6.85544E-19 1.12013E-18
 -1      1342 9.00038E-05-2.69758E-05-2.69954E-05 3.13164E-07-3.25122E-19 1.64040E-18
 -1      1343 9.03451E-05-2.70952E-05-2.70942E-05 3.24822E-07-3.50822E-19 1.26391E-18
 -1      1344 9.13103E-05-2.73449E-05-2.74216E-05 4.15559E-07-6.08451E-19 8.37021E-19
 -1      1345 9.04864E-05-2.71367E-05-2.71412E-05 3.79049E-07-1.80083E-19 1.22520E-18
 -1      1346 9.08727E-05-2.72646E-05-2.72528E-05 3.80644E-07-1.60089E-19 8.87624E-19
 -1      1347 9.14420E-05-2.74182E-05-2.74434E-05 6.43054E-07-4.24033E-19 7.00053E-19
 -1      1348 9.10798E-05-2.73246E-05-2.73189E-05 3.90808E-07-1.95039E-19 6.95255E-19
 -1      1349 9.14652E-05-2.74487E-05-2.74305E-05 3.86509E-07-3.02319E-19 3.78141E-19
 -1      1350 9.17730E-05-2.75367E-05-2.75318E-05 7.24615E-07-4.88552E-19 2.13583E-19
 -1      1351 9.16953E-05-2.75150E-05-2.75032E-05 3.71509E-07-3.15552E-19 1.79535E-19
 -1      1352 9.20544E-05-2.76286E-05-2.76076E-05 3.64014E-07-4.02950E-19-2.15573E-19
 -1      1353 9.21926E-05-2.76731E-05-2.76512E-05 7.21965E-07-5.93946E-19-5.85586E-20
 -1      1354 9.22822E-05-2.76941E-05-2.76791E-05 3.35610E-07-2.77819E-19-4.03922E-19
 -1      1355 9.26021E-05-2.77940E-05-2.77725E-05 3.26697E-07-1.71115E-20-5.98799E-19
 -1      1356 9.26344E-05-2.78109E-05-2.77803E-05 6.72118E-07-4.62817E-19-8.74185E-20
 -1      1357 9.28137E-05-2.78547E-05-2.78388E-05 2.92468E-07 1.68145E-20-5.99855E-19
 -1      1358 9.30895E-05-2.79400E-05-2.79196E-05 2.83316E-07-1.84143E-19-7.07951E-19
 -1      1359 9.30597E-05-2.79402E-05-2.79065E-05 5.98507E-07-1.40839E-19-5.70486E-19
 -1      1360 9.32781E-05-2.79939E-05-2.79786E-05 2.48222E-07-2.29322E-19-7.00610E-19
 -1      1361 9.35101E-05-2.80650E-05-2.80468E-05 2.39604E-07-1.66606E-19-1.15711E-18
 -1      1362 9.34479E-05-2.80561E-05-2.80229E-05 5.16376E-07-3.24452E-19-8.95570E-19
 -1      1363 9.36738E-05-2.81117E-05-2.80979E-05 2.06918E-07-2.49188E-19-1.12248E-18
 -1      1364 9.38657E-05-2.81699E-05-2.81545E-05 1.99342E-07-2.29575E-19-1.47167E-18
 -1      1365 9.37903E-05-2.81567E-05-2.81266E-05 4.35757E-07-2.03805E-19-8.07472E-19
 -1      1366 9.40060E-05-2.82099E-05-2.81983E-05 1.71254E-07-2.70670E-20-1.38337E-18
 -1      1367 9.41637E-05-2.82572E-05-2.82450E-05 1.65061E-07-1.53184E-19-1.41835E-18
 -1      1368 9.40862E-05-2.82425E-05-2.82169E-05 3.63323E-07-1.90132E-19-1.01903E-18
 -1      1369 9.42844E-05-2.82915E-05-2.82826E-05 1.43117E-07-2.82737E-19-1.47562E-18
 -1      1370 9.44154E-05-2.83303E-05-2.83216E-05 1.38558E-07-2.07909E-19-1.56575E-18
 -1      1371 9.43407E-05-2.83152E-05-2.82952E-05 3.03643E-07-2.61800E-19-1.25024E-18
 -1      1372 9.45220E-05-2.83605E-05-2.83548E-05 1.23982E-07 7.47210E-20-1.65935E-18
 -1      1373 9.46351E-05-2.83936E-05-2.83887E-05 1.21278E-07-1.13029E-19-1.92329E-18
 -1      1374 9.45627E-05-2.83776E-05-2.83641E-05 2.60103E-07-1.12510E-19-1.57393E-18
 -1      1375 9.47346E-05-2.84217E-05-2.84196E-05 1.15231E-07-1.14811E-19-1.80282E-18
 -1      1376 9.48397E-05-2.84520E-05-2.84512E-05 1.14625E-07-7.12142E-20-2.09569E-18
 -1      1377 9.47642E-05-2.84333E-05-2.84272E-05 2.35609E-07-2.98187E-19-1.95651E-18
 -1      1378 9.49404E-05-2.84804E-05-2.84825E-05 1.18404E-07-2.57166E-19-2.11188E-18
 -1      1379 9.50489E-05-2.85114E-05-2.85153E-05 1.20202E-07-3.01932E-19-2.36907E-18
 -1      1380 9.49602E-05-2.84868E-05-2.84890E-05 2.33144E-07-2.93092E-19-1.84219E-18
 -1      1381 9.51607E-05-2.85429E-05-2.85500E-05 1.35416E-07-3.11966E-19-2.19599E-18
 -1      1382 9.52859E-05-2.85786E-05-2.85878E-05 1.40020E-07-4.19617E-19-2.62160E-18
 -1      1383 9.51682E-05-2.85430E-05-2.85549E-05 2.56216E-07-4.49041E-19-1.47913E-18
 -1      1384 9.54202E-05-2.86164E-05-2.86296E-05 1.68726E-07 9.53822E-20-2.92996E-18
 -1      1385 9.55777E-05-2.86616E-05-2.86770E-05 1.76665E-07-4.62936E-20-2.69043E-18
 -1      1386 9.54091E-05-2.86079E-05-2.86313E-05 3.09232E-07-3.33100E-19-1.58556E-18
 -1      1387 9.57482E-05-2.87096E-05-2.87301E-05 2.21474E-07 2.45600E-19-2.27547E-18
 -1      1388 9.59566E-05-2.87698E-05-2.87927E-05 2.33430E-07 2.54825E-19-1.94698E-18
 -1      1389 9.57074E-05-2.86886E-05-2.87257E-05 3.97791E-07 3.86539E-19-2.17284E-18
 -1      1390 9.61796E-05-2.88327E-05-2.88622E-05 2.97572E-07-1.82265E-20-1.71049E-18
 -1      1391 9.64615E-05-2.89147E-05-2.89467E-05 3.14393E-07-1.53505E-19-1.66463E-18
 -1      1392 9.60921E-05-2.87934E-05-2.88471E-05 5.28885E-07 2.30803E-19-1.92129E-18
 -1      1393 9.67561E-05-2.89978E-05-2.90385E-05 4.01700E-07-1.33254E-19-1.38404E-18
 -1      1394 9.71386E-05-2.91101E-05-2.91528E-05 4.24398E-07-1.24531E-19-1.91407E-18
 -1      1395 9.65977E-05-2.89323E-05-2.90059E-05 7.10951E-07 4.95448E-20-1.91256E-18
 -1      1396 9.75271E-05-2.92198E-05-2.92740E-05 5.39129E-07 1.56051E-19-1.69214E-18
 -1      1397 9.80425E-05-2.93721E-05-2.94277E-05 5.68834E-07 2.49376E-19-1.44518E-18
 -1      1398 9.72645E-05-2.91169E-05-2.92145E-05 9.53652E-07 2.53624E-19-1.01626E-18
 -1      1399 9.85502E-05-2.95157E-05-2.95862E-05 7.15210E-07 4.30928E-19-1.25491E-18
 -1      1400 9.92361E-05-2.97199E-05-2.97902E-05 7.53048E-07 6.41943E-19-6.37793E-19
 -1      1401 9.81387E-05-2.93611E-05-2.94867E-05 1.26712E-06 3.81410E-19-4.32345E-19
 -1      1402 9.98909E-05-2.99056E-05-2.99947E-05 9.34218E-07-2.00614E-19-5.57900E-19
 -1      1403 1.00789E-04-3.01750E-05-3.02611E-05 9.81023E-07-3.80214E-19-1.29780E-18
 -1      1404 9.92720E-05-2.96808E-05-2.98379E-05 1.66020E-06 1.05813E-20-3.03661E-19
 -1      1405 1.01618E-04-3.04111E-05-3.05200E-05 1.19701E-06-4.74256E-19-1.47576E-18
 -1      1406 1.02771E-04-3.07598E-05-3.08608E-05 1.25274E-06-3.44231E-19-2.38355E-18
 -1      1407 1.00719E-04-3.00940E-05-3.02835E-05 2.13684E-06-6.56581E-19-7.30674E-19
 -1      1408 1.03799E-04-3.10544E-05-3.11809E-05 1.49661E-06 2.65017E-19-2.73480E-18
 -1      1409 1.05239E-04-3.14952E-05-3.16055E-05 1.55922E-06 2.07576E-19-2.18236E-18
 -1      1410 1.02531E-04-3.06200E-05-3.08369E-05 2.68920E-06-1.24448E-19-1.30831E-18
 -1      1411 1.06476E-04-3.18539E-05-3.19890E-05 1.81055E-06 8.94579E-20-1.94409E-18
 -1      1412 1.08214E-04-3.23935E-05-3.24984E-05 1.87398E-06 1.13435E-19-1.41935E-18
 -1      1413 1.04744E-04-3.12775E-05-3.15050E-05 3.28560E-06 3.15885E-19-1.38699E-18
 -1      1414 1.09645E-04-3.28167E-05-3.29376E-05 2.08849E-06-4.03347E-19-1.09634E-18
 -1      1415 1.11636E-04-3.34473E-05-3.35161E-05 2.13940E-06-3.60243E-19-1.40510E-18
 -1      1416 1.07360E-04-3.20816E-05-3.22807E-05 3.85070E-06-7.28266E-20-9.47162E-19
 -1      1417 1.13198E-04-3.39249E-05-3.39862E-05 2.23543E-06-4.47405E-19-1.33847E-18
 -1      1418 1.15293E-04-3.46094E-05-3.45866E-05 2.24871E-06-4.73410E-19-1.98629E-18
 -1      1419 1.10315E-04-3.30361E-05-3.31321E-05 4.23736E-06-7.09385E-19-1.15975E-18
 -1      1420 1.16848E-04-3.51130E-05-3.50366E-05 2.09533E-06-4.25144E-19-2.44254E-18
 -1      1421 1.18739E-04-3.57626E-05-3.55642E-05 2.03020E-06-4.40748E-19-3.08704E-18
 -1      1422 1.13427E-04-3.41190E-05-3.39878E-05 4.19571E-06-1.08812E-18-1.49570E-18
 -1      1423 1.20042E-04-3.62327E-05-3.59096E-05 1.45343E-06-1.30178E-19-3.01650E-18
 -1      1424 1.21204E-04-3.66825E-05-3.62117E-05 1.25620E-06 9.82691E-20-3.26363E-18
 -1      1425 1.16345E-04-3.52532E-05-3.47252E-05 3.36329E-06-3.25300E-19-1.60578E-18
 -1      1426 1.21894E-04-3.70115E-05-3.63395E-05 9.71957E-08 9.47770E-19-2.84276E-18
 -1      1427 1.21618E-04-3.70121E-05-3.62221E-05-2.76078E-07 1.16321E-18-2.11843E-18
 -1      1428 1.18486E-04-3.62561E-05-3.51719E-05 1.33347E-06 7.50471E-19-1.21216E-18
 -1      1429 1.21261E-04-3.70343E-05-3.60213E-05-2.01068E-06-5.00094E-19-1.83780E-18
 -1      1430 1.18866E-04-3.63057E-05-3.53215E-05-2.53651E-06-8.81682E-19-2.18958E-18
 -1      1431 1.19051E-04-3.67813E-05-3.51414E-05-2.10739E-06 8.15865E-19-2.30842E-18
 -1      1432 1.17122E-04-3.58290E-05-3.47473E-05-4.44877E-06-9.31068E-19-2.66979E-18
 -1      1433 1.12443E-04-3.42320E-05-3.34630E-05-4.95812E-06-8.02220E-19-3.33519E-18
 -1      1434 1.17200E-04-3.63236E-05-3.45174E-05-6.52897E-06-1.22273E-18-2.39933E-18
 -1      1435 1.09390E-04-3.31744E-05-3.26095E-05-6.15001E-06-2.83832E-19-3.78910E-18
 -1      1436 1.03351E-04-3.09763E-05-3.10234E-05-6.31947E-06-1.25154E-19-3.74929E-18
 -1      1437 1.12551E-04-3.44607E-05-3.33628E-05-1.04078E-05-1.00338E-18-1.62704E-18
 -1      1438 9.98327E-05-2.96080E-05-3.01427E-05-5.77884E-06 1.33077E-19-3.42222E-18
 -1      1439 9.45348E-05-2.76050E-05-2.87914E-05-5.34390E-06-5.47924E-21-3.47400E-18
 -1      1440 1.05938E-04-3.13940E-05-3.19733E-05-1.13604E-05-1.72841E-19-2.63385E-18
 -1      1441 9.20285E-05-2.65860E-05-2.81968E-05-2.85440E-06 3.68195E-20-3.24202E-18
 -1      1442 8.97673E-05-2.57463E-05-2.76131E-05-1.93072E-06-1.76659E-19-3.79718E-18
 -1      1443 9.97595E-05-2.83668E-05-3.07962E-05-7.72965E-06-1.32203E-19-2.90332E-18
 -1      1444 8.94862E-05-2.56995E-05-2.75053E-05 1.31611E-06-9.34410E-19-3.86254E-18
 -1      1445 9.11431E-05-2.64125E-05-2.78817E-05 2.18123E-06-1.04111E-18-5.41503E-18
 -1      1446 9.69128E-05-2.70600E-05-3.02080E-05-6.29094E-07-4.46836E-19-3.03778E-18
 -1      1447 9.29410E-05-2.72597E-05-2.82381E-05 4.35718E-06 9.13869E-21-6.28562E-18
 -1      1448 9.72649E-05-2.89774E-05-2.92961E-05 4.67379E-06-1.60063E-19-6.04035E-18
 -1      1449 9.85691E-05-2.81966E-05-3.03341E-05 6.06311E-06-1.25935E-18-3.48281E-18
 -1      1450 9.97945E-05-3.00439E-05-2.98806E-05 4.83021E-06 1.20749E-19-5.54224E-18
 -1      1451 1.04393E-04-3.17736E-05-3.10568E-05 4.56399E-06 3.78849E-21-5.49068E-18
 -1      1452 1.03095E-04-3.07834E-05-3.09909E-05 8.82024E-06 3.43472E-19-4.77118E-18
 -1      1453 1.06235E-04-3.24414E-05-3.15582E-05 3.13288E-06-6.13477E-19-3.86014E-18
 -1      1454 1.09172E-04-3.34646E-05-3.23497E-05 2.58976E-06 2.22201E-19-5.06626E-18
 -1      1455 1.07526E-04-3.31100E-05-3.17730E-05 7.10878E-06 4.27580E-19-3.57054E-18
 -1      1456 1.09649E-04-3.35456E-05-3.25473E-05 6.48997E-07 8.55742E-19-5.33123E-18
 -1      1457 1.10249E-04-3.36887E-05-3.27362E-05 1.39312E-07 1.34710E-18-3.72866E-18
 -1      1458 1.09719E-04-3.41103E-05-3.22606E-05 2.92558E-06 7.09496E-19-2.29691E-18
 -1      1459 1.09429E-04-3.33072E-05-3.25805E-05-1.44395E-06 1.94424E-18-3.53861E-18
 -1      1460 1.08081E-04-3.27739E-05-3.22367E-05-1.76559E-06 1.32351E-18-1.27696E-18
 -1      1461 1.09160E-04-3.37346E-05-3.22195E-05-1.33519E-06 2.16052E-18-1.87788E-18
 -1      1462 1.06428E-04-3.21415E-05-3.18232E-05-2.59689E-06 6.15125E-20-1.23979E-18
 -1      1463 1.04035E-04-3.12674E-05-3.11836E-05-2.69787E-06-1.60099E-19-7.55368E-19
 -1      1464 1.06483E-04-3.24697E-05-3.16731E-05-4.20569E-06 1.18194E-18-2.74656E-18
 -1      1465 1.02115E-04-3.05693E-05-3.06778E-05-2.70314E-06 4.43819E-19-8.88405E-19
 -1      1466 9.97021E-05-2.96954E-05-3.00245E-05-2.58844E-06 4.39655E-19-2.45282E-19
 -1      1467 1.02760E-04-3.08336E-05-3.08342E-05-5.17722E-06 1.68859E-19-1.58959E-18
 -1      1468 9.80040E-05-2.90616E-05-2.95822E-05-1.80781E-06 4.18411E-19 6.44327E-19
 -1      1469 9.64980E-05-2.85619E-05-2.91319E-05-1.53595E-06-2.57791E-19 6.39235E-19
 -1      1470 9.90264E-05-2.91879E-05-2.99748E-05-4.27297E-06 7.00513E-19-1.45385E-18
 -1      1471 9.52694E-05-2.83585E-05-2.87065E-05-6.46642E-08-1.18933E-18 1.13841E-18
 -1      1472 9.58910E-05-2.79675E-05-2.91495E-05-1.54351E-06-7.35448E-19-5.16765E-20
 -1      1473 9.65829E-05-2.83653E-05-2.97741E-05 2.99590E-06 1.07338E-18 9.13043E-18
 -1      1474 1.02542E-04-2.94002E-05-3.21575E-05 4.46302E-06 9.54977E-19 1.08000E-17
 -1      1475 1.02331E-04-2.67196E-05-3.27073E-05 1.27835E-05 1.83007E-18 7.13297E-18
 -1      1476 9.20361E-05-2.74309E-05-2.77634E-05 1.15215E-06 7.98911E-19 7.05211E-18
 -1      1477 9.39829E-05-2.75861E-05-2.86776E-05 1.47411E-06 7.51212E-19 8.26641E-18
 -1      1478 9.64917E-05-2.80317E-05-2.95352E-05 4.86800E-06 1.62718E-18 5.40893E-18
 -1      1479 9.02029E-05-2.70060E-05-2.70644E-05 3.31976E-07 5.84850E-19 5.44073E-18
 -1      1480 9.08181E-05-2.70235E-05-2.73371E-05 4.94847E-07 5.80674E-19 6.43022E-18
 -1      1481 9.30466E-05-2.75801E-05-2.81001E-05 1.85217E-06 1.21907E-18 4.12705E-18
 -1      1482 8.96847E-05-2.68876E-05-2.68884E-05-5.47524E-08 4.97026E-19 4.21300E-18
 -1      1483 8.97225E-05-2.68253E-05-2.69167E-05 3.43468E-08 4.96475E-19 4.93074E-18
 -1      1484 9.14928E-05-2.73088E-05-2.75161E-05 5.18375E-07 1.03139E-18 3.01225E-18
 -1      1485 8.98154E-05-2.69396E-05-2.69298E-05-2.41822E-07 2.30565E-19 3.27966E-18
 -1      1486 8.95875E-05-2.68323E-05-2.68650E-05-1.91616E-07 2.99937E-19 3.77381E-18
 -1      1487 9.09601E-05-2.72276E-05-2.73196E-05-1.31157E-07 7.39817E-19 2.27739E-18
 -1      1488 9.02661E-05-2.70814E-05-2.70675E-05-3.24699E-07 8.45345E-20 2.99746E-18
 -1      1489 8.99202E-05-2.69545E-05-2.69663E-05-2.97087E-07 4.66145E-20 3.13776E-18
 -1      1490 9.09762E-05-2.72702E-05-2.73083E-05-4.49452E-07 2.22248E-19 1.76927E-18
 -1      1491 9.08577E-05-2.72629E-05-2.72460E-05-3.48848E-07 2.70612E-19 2.60474E-18
 -1      1492 9.04715E-05-2.71330E-05-2.71329E-05-3.35232E-07 1.76804E-19 2.76759E-18
 -1      1493 9.12786E-05-2.73816E-05-2.73893E-05-5.89061E-07 3.59794E-19 1.24582E-18
 -1      1494 9.14874E-05-2.74540E-05-2.74356E-05-3.39287E-07 2.67141E-19 1.77428E-18
 -1      1495 9.11046E-05-2.73309E-05-2.73233E-05-3.34464E-07 3.22086E-19 2.36852E-18
 -1      1496 9.17164E-05-2.75246E-05-2.75143E-05-6.26829E-07 4.95301E-19 1.14633E-18
 -1      1497 9.20965E-05-2.76376E-05-2.76192E-05-3.11167E-07 1.35794E-19 1.42331E-18
 -1      1498 9.17411E-05-2.75267E-05-2.75146E-05-3.11764E-07 6.55458E-21 1.50171E-18
 -1      1499 9.22006E-05-2.76759E-05-2.76558E-05-6.06221E-07 2.79656E-19 5.42669E-19
 -1      1500 9.26529E-05-2.78045E-05-2.77872E-05-2.74124E-07 1.69017E-19 1.51171E-18
 -1      1501 9.23372E-05-2.77081E-05-2.76939E-05-2.77880E-07 1.71659E-19 1.66484E-18
 -1      1502 9.26790E-05-2.78220E-05-2.77972E-05-5.53838E-07 1.92176E-19 5.96291E-19
 -1      1503 9.31420E-05-2.79507E-05-2.79351E-05-2.34430E-07 1.05386E-19 1.20128E-18
 -1      1504 9.28703E-05-2.78691E-05-2.78546E-05-2.39798E-07 1.19818E-19 1.37471E-18
 -1      1505 9.31225E-05-2.79553E-05-2.79295E-05-4.86701E-07 1.78515E-19 8.64255E-19
 -1      1506 9.35603E-05-2.80752E-05-2.80618E-05-1.96193E-07 1.67401E-19 1.35948E-18
 -1      1507 9.33320E-05-2.80076E-05-2.79939E-05-2.02103E-07 4.88429E-20 1.30397E-18
 -1      1508 9.35171E-05-2.80726E-05-2.80480E-05-4.15931E-07 5.00891E-20 5.13417E-19
 -1      1509 9.39117E-05-2.81794E-05-2.81684E-05-1.62118E-07 1.32279E-19 1.08556E-18
 -1      1510 9.37230E-05-2.81242E-05-2.81122E-05-1.67814E-07 1.56035E-19 1.29465E-18
 -1      1511 9.38592E-05-2.81731E-05-2.81512E-05-3.48862E-07 2.25027E-19 7.20233E-19
 -1      1512 9.42053E-05-2.82661E-05-2.82577E-05-1.34027E-07 3.48678E-19 1.34851E-19
 -1      1513 9.40501E-05-2.82211E-05-2.82112E-05-1.38958E-07 4.57843E-19 5.87540E-19
 -1      1514 9.41516E-05-2.82582E-05-2.82400E-05-2.90395E-07 6.38759E-19 2.41175E-19
 -1      1515 9.44536E-05-2.83390E-05-2.83334E-05-1.13243E-07-3.02936E-19-6.95725E-20
 -1      1516 9.43243E-05-2.83018E-05-2.82945E-05-1.16970E-07-3.49284E-20 1.13489E-21
 -1      1517 9.44023E-05-2.83302E-05-2.83165E-05-2.43933E-07 2.38794E-19 2.91187E-19
 -1      1518 9.46719E-05-2.84029E-05-2.84001E-05-1.00869E-07 7.55203E-20-1.28397E-19
 -1      1519 9.45597E-05-2.83705E-05-2.83662E-05-1.03003E-07-1.65739E-19-1.52847E-19
 -1      1520 9.46222E-05-2.83928E-05-2.83841E-05-2.12064E-07-1.79820E-19-8.15531E-20
 -1      1521 9.48779E-05-2.84629E-05-2.84631E-05-9.80117E-08 3.85437E-19-6.55186E-19
 -1      1522 9.47729E-05-2.84321E-05-2.84312E-05-9.81526E-08 2.96659E-19-9.60531E-20
 -1      1523 9.48255E-05-2.84500E-05-2.84470E-05-1.97075E-07 3.92004E-19-4.82180E-19
 -1      1524 9.50920E-05-2.85251E-05-2.85287E-05-1.05930E-07-5.15906E-19-1.02021E-18
 -1      1525 9.49829E-05-2.84924E-05-2.84954E-05-1.03626E-07 1.92958E-20-8.41952E-19
 -1      1526 9.50285E-05-2.85068E-05-2.85101E-05-2.01325E-07 4.45966E-19 2.53414E-19
 -1      1527 9.53372E-05-2.85963E-05-2.86037E-05-1.26133E-07-4.33606E-19-8.97353E-20
 -1      1528 9.52112E-05-2.85577E-05-2.85652E-05-1.20849E-07-4.48749E-19-9.00378E-19
 -1      1529 9.52503E-05-2.85687E-05-2.85792E-05-2.27500E-07-5.33364E-19 1.27006E-19
 -1      1530 9.56400E-05-2.86845E-05-2.86961E-05-1.60406E-07-3.27247E-19 1.52933E-19
 -1      1531 9.54826E-05-2.86354E-05-2.86482E-05-1.51501E-07-1.73009E-19-1.67591E-19
 -1      1532 9.55127E-05-2.86421E-05-2.86609E-05-2.78737E-07-3.57998E-19-9.36728E-20
 -1      1533 9.60306E-05-2.87987E-05-2.88152E-05-2.10736E-07 7.14916E-20 2.27063E-19
 -1      1534 9.58251E-05-2.87337E-05-2.87527E-05-1.97472E-07-1.22798E-19 1.27511E-19
 -1      1535 9.58405E-05-2.87344E-05-2.87627E-05-3.58591E-07-3.23883E-19 1.86992E-20
 -1      1536 9.65430E-05-2.89491E-05-2.89709E-05-2.79105E-07 6.95088E-19-9.09272E-19
 -1      1537 9.62704E-05-2.88622E-05-2.88884E-05-2.60685E-07 5.22161E-19-1.87572E-19
 -1      1538 9.62615E-05-2.88540E-05-2.88931E-05-4.70781E-07 6.29230E-19-6.39623E-20
 -1      1539 9.72144E-05-2.91471E-05-2.91745E-05-3.67078E-07 4.73085E-19-2.49734E-18
 -1      1540 9.68539E-05-2.90315E-05-2.90658E-05-3.42739E-07 7.22238E-19-1.62251E-18
 -1      1541 9.68064E-05-2.90101E-05-2.90611E-05-6.18617E-07 1.27068E-18-1.04944E-18
 -1      1542 9.80835E-05-2.94044E-05-2.94375E-05-4.75064E-07-3.81106E-19-1.91356E-18
 -1      1543 9.76131E-05-2.92532E-05-2.92961E-05-4.44263E-07-3.97349E-19-2.59446E-18
 -1      1544 9.75075E-05-2.92128E-05-2.92763E-05-8.03940E-07 1.99195E-19-1.67502E-18
 -1      1545 9.91865E-05-2.97326E-05-2.97702E-05-6.01123E-07-3.78221E-19-9.36233E-19
 -1      1546 9.85856E-05-2.95392E-05-2.95903E-05-5.63863E-07-1.27540E-19-1.27872E-18
 -1      1547 9.83963E-05-2.94723E-05-2.95478E-05-1.02536E-06-7.04453E-19-1.32974E-18
 -1      1548 1.00551E-04-3.01408E-05-3.01804E-05-7.39105E-07 3.07828E-19-6.88294E-19
 -1      1549 9.98035E-05-2.99004E-05-2.99577E-05-6.96473E-07-7.08828E-20-4.20611E-19
 -1      1550 9.94992E-05-2.97980E-05-2.98824E-05-1.27545E-06-4.39845E-20-8.65803E-19
 -1      1551 1.02183E-04-3.06328E-05-3.06690E-05-8.75952E-07 9.43055E-19-2.70569E-18
 -1      1552 1.01285E-04-3.03441E-05-3.04029E-05-8.30950E-07 1.07683E-18-1.11145E-18
 -1      1553 1.00830E-04-3.01967E-05-3.02830E-05-1.53664E-06 1.26486E-18-6.35531E-19
 -1      1554 1.04053E-04-3.12016E-05-3.12253E-05-9.88133E-07-8.60213E-19-1.98779E-18
 -1      1555 1.03022E-04-3.08709E-05-3.09219E-05-9.46850E-07-5.68214E-19-2.81924E-18
 -1      1556 1.02379E-04-3.06692E-05-3.07443E-05-1.77554E-06-5.75825E-20-1.93600E-19
 -1      1557 1.06067E-04-3.18228E-05-3.18191E-05-1.03770E-06-2.90974E-19-2.83915E-19
 -1      1558 1.04958E-04-3.14683E-05-3.14957E-05-1.01075E-06-6.23995E-19-1.11737E-18
 -1      1559 1.04098E-04-3.12065E-05-3.12482E-05-1.93612E-06-1.18325E-18-1.15067E-18
 -1      1560 1.08044E-04-3.24445E-05-3.23927E-05-9.69644E-07-2.32817E-19-6.05278E-19
 -1      1561 1.06963E-04-3.21030E-05-3.20829E-05-9.73396E-07 1.84714E-19-4.96216E-19
 -1      1562 1.05877E-04-3.17829E-05-3.17575E-05-1.93369E-06-1.81836E-19-5.04564E-19
 -1      1563 1.09678E-04-3.29778E-05-3.28534E-05-7.14477E-07 2.50661E-19-1.26029E-18
 -1      1564 1.08807E-04-3.27103E-05-3.26112E-05-7.70952E-07-1.42148E-19-1.03265E-18
 -1      1565 1.07526E-04-3.23478E-05-3.22108E-05-1.65439E-06-4.49655E-21 1.05813E-19
 -1      1566 1.10540E-04-3.32900E-05-3.30730E-05-2.02941E-07-2.89156E-19-6.97727E-20
 -1      1567 1.10135E-04-3.31840E-05-3.29734E-05-3.36087E-07-8.95142E-20-4.08521E-19
 -1      1568 1.08759E-04-3.28164E-05-3.25207E-05-9.69807E-07-6.35692E-19 5.98230E-19
 -1      1569 1.10108E-04-3.32119E-05-3.29045E-05 5.98620E-07-1.96330E-19 1.54083E-18
 -1      1570 1.10477E-04-3.33730E-05-3.30332E-05 3.73220E-07-5.81435E-19 4.81447E-19
 -1      1571 1.09198E-04-3.30644E-05-3.25806E-05 2.19409E-07-5.89396E-19 1.17374E-18
 -1      1572 1.07902E-04-3.25730E-05-3.22243E-05 1.62902E-06 2.04899E-19 1.43183E-18
 -1      1573 1.09324E-04-3.30957E-05-3.26520E-05 1.32277E-06 2.24199E-20 1.65901E-18
 -1      1574 1.08435E-04-3.29335E-05-3.22886E-05 1.89982E-06-3.46708E-19 2.17460E-18
 -1      1575 1.03730E-04-3.12796E-05-3.10024E-05 2.66850E-06 1.47026E-19 2.68404E-20
 -1      1576 1.06300E-04-3.21926E-05-3.17421E-05 2.34091E-06 5.58976E-19 8.08652E-19
 -1      1577 1.06159E-04-3.22682E-05-3.15895E-05 3.83188E-06 8.27644E-19 8.11788E-19
 -1      1578 9.79809E-05-2.94283E-05-2.93750E-05 3.33466E-06 2.87549E-19-7.81335E-19
 -1      1579 1.01435E-04-3.06272E-05-3.03390E-05 3.09632E-06 3.75904E-19-2.62342E-19
 -1      1580 1.02375E-04-3.09994E-05-3.05262E-05 5.47669E-06 6.86093E-19 2.78316E-19
 -1      1581 9.18011E-05-2.73882E-05-2.76678E-05 3.21688E-06 3.51840E-19-6.77732E-19
 -1      1582 9.54271E-05-2.86053E-05-2.86566E-05 3.19088E-06 9.75726E-20-1.04884E-18
 -1      1583 9.76150E-05-2.92645E-05-2.92723E-05 6.09824E-06 2.43079E-19-7.77497E-19
 -1      1584 8.68644E-05-2.57446E-05-2.63171E-05 2.14233E-06 7.46567E-19-1.82017E-18
 -1      1585 8.96626E-05-2.66151E-05-2.70707E-05 2.38572E-06 7.10542E-19-1.08775E-18
 -1      1586 9.29822E-05-2.74780E-05-2.81081E-05 5.11897E-06 8.31045E-19-1.92141E-18
 -1      1587 8.46737E-05-2.50446E-05-2.56938E-05 4.08326E-07 1.23879E-19-3.34669E-18
 -1      1588 8.57885E-05-2.52804E-05-2.60007E-05 8.45600E-07 6.66496E-19-2.54406E-18
 -1      1589 8.98173E-05-2.62299E-05-2.73267E-05 2.59720E-06 1.14744E-18-1.21504E-18
 -1      1590 8.57292E-05-2.54676E-05-2.59200E-05-1.29570E-06-9.43045E-19-2.19649E-18
 -1      1591 8.49233E-05-2.50338E-05-2.57248E-05-8.46013E-07-5.16154E-19-3.56315E-18
 -1      1592 8.90476E-05-2.59788E-05-2.71089E-05-5.86862E-07-2.86019E-19-2.24721E-18
 -1      1593 8.92222E-05-2.67066E-05-2.68075E-05-2.29431E-06 8.40128E-19-2.57895E-18
 -1      1594 8.70230E-05-2.58482E-05-2.62394E-05-2.01088E-06 4.39696E-20-2.60264E-18
 -1      1595 9.06393E-05-2.67331E-05-2.74409E-05-3.15897E-06-9.61515E-21-2.73746E-18
 -1      1596 9.35147E-05-2.81670E-05-2.79506E-05-2.32621E-06-7.99541E-19-3.03354E-18
 -1      1597 9.09052E-05-2.72578E-05-2.72583E-05-2.27965E-06 9.67255E-20-2.91438E-18
 -1      1598 9.36156E-05-2.80380E-05-2.81198E-05-4.20875E-06 7.52835E-19-2.24386E-18
 -1      1599 9.70188E-05-2.93048E-05-2.89309E-05-1.60812E-06 4.94049E-19-2.63128E-18
 -1      1600 9.49228E-05-2.86502E-05-2.83573E-05-1.74995E-06 4.41261E-19-2.65463E-18
 -1      1601 9.66381E-05-2.92823E-05-2.88524E-05-3.65315E-06-1.06978E-19-1.40052E-18
 -1      1602 9.88378E-05-2.98438E-05-2.94852E-05-5.98569E-07-4.02784E-19-2.86174E-18
 -1      1603 9.77576E-05-2.95726E-05-2.91727E-05-8.20419E-07-7.06214E-20-3.54197E-18
 -1      1604 9.86668E-05-3.00359E-05-2.93858E-05-2.09246E-06 2.89050E-19-2.10922E-18
 -1      1605 9.89091E-05-2.97942E-05-2.95688E-05 2.72632E-07 2.77205E-19-4.09072E-18
 -1      1606 9.88544E-05-2.98657E-05-2.95302E-05 7.47896E-08 7.42044E-19-3.07098E-18
 -1      1607 9.92931E-05-3.01788E-05-2.95960E-05-3.44704E-07 5.87622E-19-3.34406E-18
 -1      1608 9.77941E-05-2.93603E-05-2.93178E-05 7.34587E-07 8.61517E-20-3.72025E-18
 -1      1609 9.84091E-05-2.96256E-05-2.94633E-05 6.31399E-07 9.14862E-21-3.70085E-18
 -1      1610 9.86980E-05-2.98317E-05-2.95046E-05 9.32462E-07 3.21178E-19-1.30054E-18
 -1      1611 9.63576E-05-2.88396E-05-2.89563E-05 6.88848E-07-4.17022E-19-4.49864E-18
 -1      1612 9.71076E-05-2.91020E-05-2.91504E-05 7.13027E-07 2.39658E-19-4.52412E-18
 -1      1613 9.74251E-05-2.92279E-05-2.92365E-05 1.38050E-06 5.61034E-19-1.10226E-18
 -1      1614 9.54185E-05-2.85232E-05-2.86654E-05 2.40680E-07-3.91744E-20-4.62911E-18
 -1      1615 9.57999E-05-2.86100E-05-2.88050E-05 3.69593E-07-8.39859E-20-4.90981E-18
 -1      1616 9.61237E-05-2.86417E-05-2.89351E-05 9.68948E-07 4.82893E-19-2.63151E-18
 -1      1617 9.52151E-05-2.85260E-05-2.85657E-05-2.00966E-08-2.27686E-18-2.33582E-18
 -1      1618 9.51391E-05-2.75981E-05-2.89594E-05 6.66379E-07-2.60564E-18-2.86052E-19
 -1      1619 9.52767E-05-2.81257E-05-2.87719E-05 5.12800E-07-3.16164E-18 1.63868E-18
 -1      1620 9.45509E-05-2.55163E-05-2.95978E-05 1.46629E-06-1.80780E-18 2.33731E-19
 -1      1621 9.49319E-05-2.68043E-05-2.92120E-05 1.29751E-06-1.73107E-18-5.09298E-19
 -1      1622 9.51837E-05-2.70656E-05-2.92351E-05 1.92712E-06-9.60350E-19 4.22557E-20
 -1      1623 9.35270E-05-2.20695E-05-3.06381E-05 2.38391E-06-4.32675E-19 1.83771E-18
 -1      1624 9.41873E-05-2.42114E-05-3.00106E-05 2.19344E-06-2.03602E-18 1.51045E-18
 -1      1625 9.46199E-05-2.50432E-05-2.98713E-05 3.56049E-06-4.02779E-20 8.42963E-19
 -1      1626 9.20240E-05-1.72119E-05-3.20774E-05 3.27799E-06 8.18022E-19 2.87938E-19
 -1      1627 9.29706E-05-2.01841E-05-3.12195E-05 3.10139E-06-8.03450E-19 1.85150E-18
 -1      1628 9.36750E-05-2.19393E-05-3.08019E-05 5.30766E-06-4.18127E-19 1.85963E-18
 -1      1629 9.01416E-05-1.13715E-05-3.37709E-05 3.87454E-06 6.66324E-19 1.23405E-18
 -1      1630 9.12904E-05-1.48633E-05-3.27785E-05 3.77907E-06-4.20975E-19-9.93345E-20
 -1      1631 9.22976E-05-1.77657E-05-3.19867E-05 6.79600E-06-5.89429E-19-5.28704E-19
 -1      1632 8.80646E-05-5.15119E-06-3.55356E-05 3.86959E-06-1.51510E-18-3.03609E-18
 -1      1633 8.92798E-05-8.74413E-06-3.45288E-05 3.92043E-06 7.59286E-19-1.28235E-18
 -1      1634 9.05446E-05-1.28199E-05-3.33204E-05 7.48942E-06-1.44156E-18-4.58921E-19
 -1      1635 8.62505E-05 1.30608E-07-3.70056E-05 3.02341E-06-1.77371E-18-6.92172E-19
 -1      1636 8.72470E-05-2.75403E-06-3.62067E-05 3.26054E-06-8.81867E-19-1.41728E-18
 -1      1637 8.86454E-05-7.77512E-06-3.46154E-05 6.83723E-06-9.00370E-19-2.46858E-18
 -1      1638 8.51765E-05 3.18325E-06-3.78404E-05 1.38091E-06 2.65843E-19 1.30447E-18
 -1      1639 8.56825E-05 1.74391E-06-3.74458E-05 1.76959E-06-1.75312E-18 1.64717E-18
 -1      1640 8.70505E-05-3.71661E-06-3.56160E-05 4.59051E-06 6.15290E-19 7.83545E-19
 -1      1641 8.51784E-05 3.13692E-06-3.78198E-05-6.80312E-07 2.36944E-19 8.37133E-19
 -1      1642 8.50341E-05 3.56813E-06-3.79410E-05-2.45888E-07-6.57751E-19 4.74444E-19
 -1      1643 8.62217E-05-1.68064E-06-3.61005E-05 1.08517E-06 7.51015E-19 8.13469E-19
 -1      1644 8.62783E-05-6.21089E-08-3.69319E-05-2.59043E-06 5.33948E-19-3.13535E-19
 -1      1645 8.55169E-05 2.16130E-06-3.75490E-05-2.23883E-06 7.48989E-19 9.33099E-19
 -1      1646 8.64354E-05-2.26787E-06-3.59469E-05-2.79690E-06 1.55252E-19 7.05406E-19
 -1      1647 8.81414E-05-5.52233E-06-3.54069E-05-3.84381E-06 1.11586E-18 1.88449E-18
 -1      1648 8.69812E-05-2.11054E-06-3.63593E-05-3.66197E-06 1.17145E-18-8.12424E-19
 -1      1649 8.76308E-05-5.32607E-06-3.51889E-05-5.98445E-06 1.07844E-18-6.17143E-19
 -1      1650 9.03700E-05-1.21779E-05-3.35255E-05-4.27146E-06 2.60576E-18 7.97311E-20
 -1      1651 8.90439E-05-8.22055E-06-3.46385E-05-4.26338E-06 1.75219E-18 2.06703E-18
 -1      1652 8.94444E-05-1.00884E-05-3.39821E-05-7.77218E-06 2.03386E-18 2.90657E-18
 -1      1653 9.24847E-05-1.86364E-05-3.16740E-05-3.92518E-06 1.51828E-18-5.56888E-19
 -1      1654 9.12594E-05-1.49360E-05-3.27207E-05-4.04857E-06 2.65693E-18 2.59801E-19
 -1      1655 9.14597E-05-1.55424E-05-3.25586E-05-7.98161E-06 1.75851E-18-1.12513E-19
 -1      1656 9.41624E-05-2.37949E-05-3.01625E-05-2.99011E-06-8.19531E-19-8.98139E-19
 -1      1657 9.32114E-05-2.09943E-05-3.09725E-05-3.19056E-06 9.56009E-19-1.34674E-18
 -1      1658 9.33126E-05-2.06636E-05-3.11875E-05-6.82615E-06 1.06788E-18-1.64098E-18
 -1      1659 9.53606E-05-2.68806E-05-2.93224E-05-2.24730E-06-5.50797E-19-8.91155E-19
 -1      1660 9.48593E-05-2.53343E-05-2.98096E-05-2.77447E-06-1.29993E-19-7.49707E-19
 -1      1661 9.49694E-05-2.45706E-05-3.02397E-05-5.45150E-06 1.52525E-18-1.26948E-18
 -1      1662 9.66199E-05-2.73054E-05-2.97452E-05-4.22503E-06 2.02047E-19-1.08340E-18
 -1      1663 2.28316E-05-7.41401E-05 1.55534E-05-6.56412E-06 8.17387E-20 1.86601E-18
 -1      1664 2.63893E-05-8.48739E-05 1.78892E-05 2.13128E-06-2.26581E-18 7.99811E-19
 -1      1665 2.07120E-05-4.49394E-05 5.65354E-06 7.84039E-07 5.27193E-18 4.90178E-18
 -1      1666 2.62692E-05-6.93850E-05 1.16901E-05-2.50879E-06 1.89397E-18 2.97794E-18
 -1      1667 4.07764E-05-1.61935E-05-1.21726E-05 3.16999E-05 8.42798E-18 7.21333E-18
 -1      1668 3.40933E-05-3.93605E-05-2.37129E-06 1.20555E-05 5.97497E-18 5.67893E-18
 -1      1669 8.23129E-05-1.50064E-06-3.32199E-05 6.51704E-05 9.01328E-18 1.06616E-17
 -1      1670 5.37760E-05-7.31651E-06-2.20663E-05 3.93233E-05 9.83490E-18 8.75324E-18
 -1      1671 1.56468E-04-2.18466E-05-5.36169E-05 7.89242E-05 6.87960E-18 1.07387E-17
 -1      1672 1.10630E-04-7.05898E-06-4.34251E-05 6.78319E-05 8.08747E-18 1.07150E-17
 -1      1673 2.21403E-04-4.76670E-05-6.84756E-05 6.28595E-05 4.72681E-18 6.06814E-18
 -1      1674 1.79873E-04-2.68549E-05-6.17995E-05 7.55490E-05 6.67991E-18 9.57571E-18
 -1      1675 2.56975E-04-6.45377E-05-7.59218E-05 1.88013E-05 1.85797E-18 1.83213E-18
 -1      1676 2.36682E-04-5.27671E-05-7.30643E-05 5.07754E-05 2.91813E-18 5.26558E-18
 -1      1677 2.44271E-04-5.73806E-05-7.45635E-05-3.31903E-05 3.17807E-18-3.26531E-18
 -1      1678 2.56760E-04-6.39721E-05-7.62659E-05 2.38237E-06 2.24887E-18 3.77247E-19
 -1      1679 1.91888E-04-3.37389E-05-6.42097E-05-6.32032E-05 2.95932E-18-5.19739E-18
 -1      1680 2.29446E-04-5.29121E-05-7.03279E-05-4.39763E-05 2.74280E-18-3.37289E-18
 -1      1681 1.25821E-04-9.86963E-06-4.82342E-05-7.14124E-05 4.80691E-18-5.82081E-18
 -1      1682 1.71622E-04-2.83650E-05-5.73784E-05-7.52285E-05 3.40507E-18-5.49131E-18
 -1      1683 6.68380E-05-2.76653E-06-2.86906E-05-4.92918E-05 4.56212E-18-5.09152E-18
 -1      1684 9.99015E-05-4.50420E-06-3.89679E-05-7.05640E-05 4.39864E-18-5.96226E-18
 -1      1685 3.73856E-05-2.43700E-05-9.24020E-06-1.96041E-05 2.45894E-18-2.15316E-18
 -1      1686 5.04269E-05-7.65788E-06-1.90587E-05-4.13101E-05 3.29157E-18-4.08863E-18
 -1      1687 2.61315E-05-5.46318E-05 6.73446E-06-2.21885E-06-1.74404E-18-1.95358E-18
 -1      1688 2.39387E-05-2.95248E-05-8.41801E-07-1.17048E-05 1.59327E-18-2.50574E-18
 -1      1689 2.46076E-05-7.62304E-05 1.58801E-05-1.05999E-06-4.37408E-18-5.05255E-19
 -1      1690 1.96737E-05-6.04485E-05 1.22262E-05 4.83024E-06-2.09641E-18-1.51195E-18
 -1      1691 2.12750E-05-7.19324E-05 1.61522E-05-6.08891E-06-5.75411E-18-2.12796E-18
 -1      1692 2.22804E-05-7.45617E-05 1.67307E-05 3.06039E-06-4.01790E-18-1.11597E-18
 -1      1693 1.93317E-05-5.28268E-05 9.33199E-06-4.56093E-06-7.29126E-18-2.71395E-18
 -1      1694 2.48793E-05-7.24966E-05 1.41791E-05-2.36031E-06-6.56620E-18-1.64801E-18
 -1      1695 2.63581E-05-2.24483E-05-4.81785E-06 1.43893E-05-5.10930E-18-8.97855E-19
 -1      1696 2.59074E-05-4.65250E-05 3.28509E-06 8.63400E-07-8.03241E-18-1.71651E-18
 -1      1697 5.89847E-05-4.50632E-06-2.37244E-05 4.73425E-05-2.56312E-18-5.53960E-19
 -1      1698 4.05444E-05-1.70943E-05-1.36225E-05 2.35859E-05-3.95734E-18-1.58988E-18
 -1      1699 1.18184E-04-1.11754E-05-4.33991E-05 7.25726E-05-4.46386E-19 4.70950E-19
 -1      1700 8.09079E-05-4.93378E-06-3.34302E-05 5.42331E-05-2.00408E-18-3.14249E-19
 -1      1701 1.90818E-04-3.66816E-05-6.10178E-05 7.10045E-05 5.45913E-19 2.10488E-18
 -1      1702 1.44545E-04-1.74882E-05-5.23174E-05 7.10671E-05 4.13352E-19 1.74150E-18
 -1      1703 2.48514E-04-6.12602E-05-7.33099E-05 4.07558E-05-2.48392E-19 5.59889E-18
 -1      1704 2.13345E-04-4.29778E-05-6.79702E-05 6.38313E-05 2.21076E-19 3.44065E-18
 -1      1705 2.65817E-04-6.81877E-05-7.74948E-05-9.18126E-06-1.86347E-19 6.19718E-18
 -1      1706 2.58932E-04-6.47236E-05-7.63630E-05 2.53892E-05 1.91429E-19 5.45320E-18
 -1      1707 2.35454E-04-5.13753E-05-7.28517E-05-5.61372E-05-1.32635E-18 5.40407E-18
 -1      1708 2.59913E-04-6.53056E-05-7.62605E-05-2.55449E-05-1.03613E-18 4.69616E-18
 -1      1709 1.73383E-04-2.33331E-05-6.04125E-05-8.00241E-05-4.82174E-18 6.79405E-18
 -1      1710 2.18404E-04-4.53879E-05-6.78382E-05-7.01561E-05-2.79330E-18 5.84792E-18
 -1      1711 1.05815E-04-5.75840E-06-4.21031E-05-6.72830E-05-5.34139E-18 6.92026E-18
 -1      1712 1.48721E-04-1.81731E-05-5.19444E-05-8.05540E-05-5.20586E-18 7.37850E-18
 -1      1713 5.72350E-05-1.44027E-05-2.07478E-05-3.64695E-05-5.36849E-18 4.21568E-18
 -1      1714 8.42712E-05-7.39163E-06-3.19419E-05-6.15093E-05-5.01189E-18 6.35105E-18
 -1      1715 3.06399E-05-3.88943E-05-1.57033E-06-8.83898E-06-8.22384E-18 3.10734E-18
 -1      1716 3.56827E-05-1.55890E-05-1.08009E-05-2.75543E-05-6.52469E-18 3.29030E-18
 -1      1717 2.64418E-05-7.00717E-05 1.18778E-05 2.86635E-06-5.72510E-18 3.19689E-18
 -1      1718 2.09386E-05-4.60406E-05 5.84868E-06-1.72507E-08-7.88249E-18 4.10684E-18
 -1      1719 2.64154E-05-8.52166E-05 1.79865E-05-1.73278E-06-4.19885E-18 4.01917E-19
 -1      1720 2.29287E-05-7.49965E-05 1.57511E-05 7.29402E-06-5.74585E-18 2.33633E-18
 -1      1721 1.24091E-04-3.28431E-05-3.76251E-05 4.75911E-05 6.52808E-18 8.33142E-18
 -1      1722 7.93661E-05-3.96234E-05-1.82202E-05 4.20339E-05 5.26431E-18 6.63566E-18
 -1      1723 9.53658E-05-2.84470E-05-2.86848E-05 2.08483E-07-2.85293E-18 1.44401E-19
 -1      1724 9.54855E-05-2.81005E-05-2.88959E-05 8.54456E-07-1.15820E-18 1.02188E-18
 -1      1725 2.04889E-05-5.45180E-05 9.86254E-06 1.45386E-05 2.23617E-19 4.23644E-18
 -1      1726 4.41414E-05-4.73649E-05-1.57060E-06 3.14977E-05 2.02949E-18 6.01756E-18
 -1      1727 1.33335E-05-5.69784E-05 1.36230E-05 3.53455E-07-1.63054E-18 2.48223E-18
 -1      1728 1.68626E-04-3.24249E-05-5.48992E-05 4.05355E-05 6.17106E-18 6.22061E-18
 -1      1729 2.01399E-04-3.32525E-05-6.70527E-05 2.75876E-05 5.13217E-18 4.52697E-18
 -1      1730 2.13207E-04-3.32164E-05-7.17298E-05 6.12824E-06 3.76125E-18 2.24464E-20
 -1      1731 2.00294E-04-3.16943E-05-6.79754E-05-1.30888E-05 3.60031E-18-1.06726E-19
 -1      1732 1.74857E-04-3.20979E-05-5.77234E-05-3.30362E-05 1.50200E-18-1.63308E-18
 -1      1733 1.33902E-04-3.06049E-05-4.24024E-05-4.63246E-05 1.52085E-18-1.65087E-18
 -1      1734 8.99194E-05-3.46209E-05-2.42458E-05-4.29363E-05 6.88638E-19-2.60378E-18
 -1      1735 5.38908E-05-4.20583E-05-7.27468E-06-3.45598E-05-1.11554E-18-1.89471E-18
 -1      1736 2.56985E-05-4.80122E-05 5.85597E-06-2.10205E-05-2.24972E-18-3.20051E-18
 -1      1737 1.22435E-05-4.95273E-05 1.18865E-05-5.83254E-06-2.77414E-18-2.03457E-18
 -1      1738 1.47582E-05-4.94963E-05 1.08640E-05 8.25306E-06-2.67895E-18-2.25988E-18
 -1      1739 3.12218E-05-4.76991E-05 3.26779E-06 2.05722E-05-3.82012E-18-5.36172E-19
 -1      1740 6.00715E-05-3.97133E-05-1.09149E-05 3.29853E-05-2.50552E-18 1.09225E-18
 -1      1741 1.01063E-04-3.42730E-05-2.85818E-05 4.23838E-05-1.27140E-18 1.48739E-18
 -1      1742 1.47468E-04-3.39075E-05-4.63326E-05 4.23790E-05-3.12555E-19 2.69441E-18
 -1      1743 1.88795E-04-3.56545E-05-6.13675E-05 3.13341E-05 3.63695E-20 4.61379E-18
 -1      1744 2.16845E-04-3.78318E-05-7.09288E-05 1.36377E-05-1.71948E-19 4.83952E-18
 -1      1745 2.19736E-04-3.62605E-05-7.26422E-05-9.64890E-06-4.34528E-19 3.77523E-18
 -1      1746 2.02118E-04-3.41055E-05-6.67487E-05-3.13388E-05-2.50870E-18 3.41566E-18
 -1      1747 1.66547E-04-3.31394E-05-5.38434E-05-4.48417E-05-3.80784E-18 4.52146E-18
 -1      1748 1.23306E-04-3.68821E-05-3.61088E-05-4.56091E-05-3.01332E-18 3.84468E-18
 -1      1749 7.94317E-05-4.15060E-05-1.73112E-05-4.16522E-05-3.34154E-18 1.66230E-18
 -1      1750 4.13209E-05-4.72977E-05-7.47930E-07-2.83252E-05-3.91837E-18 1.68972E-18
 -1      1751 2.05748E-05-5.51248E-05 1.00554E-05-1.37747E-05-3.69052E-18 2.80622E-18
 -1      1752 1.06056E-04-2.31721E-05-3.56051E-05-1.68536E-05-1.55812E-18 6.85716E-18
 -1      1753 8.91283E-05-1.05602E-05-3.37956E-05-1.33420E-05-2.10108E-18-1.70508E-18
 -1      1754 9.04571E-05-1.16283E-05-3.39357E-05-1.51158E-05-2.38969E-18-9.71494E-19
 -1      1755 9.24949E-05-1.38744E-05-3.38545E-05-1.60036E-05-2.43529E-18-1.41746E-19
 -1      1756 9.42104E-05-1.58251E-05-3.40982E-05-1.76640E-05-2.57485E-18 9.94628E-19
 -1      1757 9.34458E-05-1.63664E-05-3.30447E-05-1.37526E-05-2.54085E-18-4.26958E-19
 -1      1758 8.62098E-05-7.67349E-06-3.37298E-05-7.86577E-06-1.21752E-18-2.99028E-18
 -1      1759 8.66114E-05-7.97167E-06-3.37635E-05-9.25517E-06-1.43804E-18-2.84737E-18
 -1      1760 8.55939E-05-7.03698E-06-3.37267E-05-5.32221E-06-7.34800E-19-3.18639E-18
 -1      1761 8.58279E-05-7.21545E-06-3.37418E-05-6.62710E-06-9.58348E-19-3.13079E-18
 -1      1762 8.75925E-05-9.86806E-06-3.33433E-05-6.93121E-06-1.18747E-18-2.92200E-18
 -1      1763 8.52597E-05-6.67877E-06-3.37299E-05-2.89001E-06-2.07078E-19-3.23453E-18
 -1      1764 8.53802E-05-6.77331E-06-3.37358E-05-4.13007E-06-4.35865E-19-3.18704E-18
 -1      1765 8.69583E-05-9.15669E-06-3.33762E-05-4.53944E-06-6.36362E-19-3.07362E-18
 -1      1766 8.51292E-05-6.53084E-06-3.37334E-05-5.17782E-07 2.41815E-19-3.31171E-18
 -1      1767 8.51647E-05-6.55930E-06-3.37348E-05-1.72782E-06 3.03012E-20-3.28010E-18
 -1      1768 8.66270E-05-8.77817E-06-3.33962E-05-2.21835E-06-8.59283E-20-3.18275E-18
 -1      1769 8.51746E-05-6.56831E-06-3.37350E-05 1.84575E-06 5.81051E-19-3.26394E-18
 -1      1770 8.51329E-05-6.53539E-06-3.37333E-05 6.34719E-07 4.28115E-19-3.32487E-18
 -1      1771 8.65291E-05-8.66476E-06-3.34028E-05 6.53713E-08 3.62670E-19-3.23696E-18
 -1      1772 8.54056E-05-6.79837E-06-3.37360E-05 4.25246E-06 9.94030E-19-3.21084E-18
 -1      1773 8.52777E-05-6.69776E-06-3.37299E-05 3.00928E-06 8.11374E-19-3.25787E-18
 -1      1774 8.66448E-05-8.79774E-06-3.33955E-05 2.35025E-06 7.56900E-19-3.10833E-18
 -1      1775 8.58623E-05-7.25133E-06-3.37414E-05 6.71434E-06 1.36059E-18-2.91483E-18
 -1      1776 8.56244E-05-7.06922E-06-3.37265E-05 5.42683E-06 1.17561E-18-3.10242E-18
 -1      1777 8.69927E-05-9.19448E-06-3.33746E-05 4.65436E-06 1.19889E-18-3.03305E-18
 -1      1778 8.66753E-05-8.04074E-06-3.37621E-05 9.37631E-06 1.95315E-18-2.36341E-18
 -1      1779 8.62545E-05-7.72429E-06-3.37283E-05 7.95537E-06 1.62959E-18-2.64372E-18
 -1      1780 8.76445E-05-9.92667E-06-3.33403E-05 7.03015E-06 1.61656E-18-2.62873E-18
 -1      1781 8.80879E-05-9.38827E-06-3.38175E-05 1.22552E-05 2.46739E-18-1.66365E-18
 -1      1782 8.73477E-05-8.83043E-06-3.37454E-05 1.06622E-05 2.17851E-18-2.08827E-18
 -1      1783 8.87655E-05-1.11611E-05-3.32898E-05 9.50452E-06 2.22041E-18-2.06819E-18
 -1      1784 9.06324E-05-1.18405E-05-3.39278E-05 1.53035E-05 2.71879E-18-3.35266E-19
 -1      1785 8.92517E-05-1.07411E-05-3.37879E-05 1.35139E-05 2.53658E-18-1.15996E-18
 -1      1786 9.06631E-05-1.32235E-05-3.32070E-05 1.19764E-05 2.66921E-18-1.23434E-18
 -1      1787 9.58780E-05-1.70351E-05-3.39937E-05 1.76912E-05 2.60855E-18 2.17402E-18
 -1      1788 9.28579E-05-1.43437E-05-3.38274E-05 1.61944E-05 2.60847E-18 6.72121E-19
 -1      1789 9.39711E-05-1.68877E-05-3.30245E-05 1.38952E-05 2.76878E-18 2.30446E-19
 -1      1790 1.01928E-04-2.50953E-05-3.33601E-05 1.44230E-05 2.17349E-18 5.36532E-18
 -1      1791 9.80788E-05-1.96173E-05-3.36260E-05 1.69648E-05 2.40085E-18 3.25144E-18
 -1      1792 9.73314E-05-2.18550E-05-3.24282E-05 1.32491E-05 2.71421E-18 2.13916E-18
 -1      1793 9.87549E-05-2.61362E-05-3.13432E-05 9.43538E-06 2.22362E-18 4.66199E-18
 -1      1794 1.00159E-04-1.95651E-05-3.42188E-05-1.88702E-05-2.15684E-18 3.08235E-18
 -1      1795 9.53136E-05-2.72865E-05-2.91860E-05 4.06738E-06 1.72554E-18 3.47269E-18
 -1      1796 9.77442E-05-2.73917E-05-3.01952E-05 6.40139E-06 1.89389E-18 4.15610E-18
 -1      1797 9.75787E-05-2.56156E-05-3.08334E-05 8.76048E-06 2.28222E-18 2.75463E-18
 -1      1798 9.98189E-05-2.25434E-05-3.28368E-05-1.44699E-05-2.37029E-18 2.23363E-18
 -1      1799 9.69606E-05-2.69788E-05-2.98773E-05-5.70537E-06-1.92271E-18 1.85945E-18
 -1      1800 9.51540E-05-2.70351E-05-2.91665E-05-3.89879E-06-1.66348E-18 1.33101E-18
 -1      1801 9.43332E-05-2.72358E-05-2.86591E-05-2.42309E-06-1.51270E-18 1.23414E-18
 -1      1802 9.35616E-05-2.73164E-05-2.83540E-05-1.56960E-06-1.25608E-18 8.18353E-19
 -1      1803 9.55067E-05-2.65466E-05-2.95752E-05-4.47547E-06-1.91100E-18 4.79962E-19
 -1      1804 9.30365E-05-2.73675E-05-2.80850E-05-7.43850E-07-8.93798E-19 7.38944E-19
 -1      1805 9.27345E-05-2.74306E-05-2.79627E-05-3.06161E-07-7.53300E-19 4.80999E-19
 -1      1806 9.42963E-05-2.72216E-05-2.87666E-05-1.83194E-06-1.33550E-18 1.97081E-19
 -1      1807 9.24578E-05-2.74577E-05-2.78265E-05 1.48251E-07-7.17238E-19 3.98008E-19
 -1      1808 9.24252E-05-2.75334E-05-2.77963E-05 3.71592E-07-6.32353E-19 2.93808E-19
 -1      1809 9.35941E-05-2.75281E-05-2.83305E-05-3.67393E-07-8.81933E-19 1.95711E-20
 -1      1810 9.23207E-05-2.75645E-05-2.77377E-05 6.10400E-07-5.47766E-19 2.81948E-19
 -1      1811 9.24339E-05-2.76492E-05-2.77563E-05 7.13483E-07-4.67604E-19 1.99288E-20
 -1      1812 9.32708E-05-2.77119E-05-2.81090E-05 4.33055E-07-7.21370E-19-2.07390E-19
 -1      1813 9.24378E-05-2.76868E-05-2.77439E-05 8.23370E-07-5.28132E-19-1.66448E-19
 -1      1814 9.26232E-05-2.77728E-05-2.77879E-05 8.56059E-07-5.83876E-19-3.39198E-19
 -1      1815 9.32047E-05-2.78543E-05-2.80156E-05 8.42019E-07-6.62436E-19-3.56313E-19
 -1      1816 9.26901E-05-2.78138E-05-2.78022E-05 8.88272E-07-5.17985E-19-2.68210E-19
 -1      1817 9.29035E-05-2.78956E-05-2.78576E-05 8.79806E-07-4.09806E-19-2.11337E-19
 -1      1818 9.32963E-05-2.79769E-05-2.79991E-05 1.01490E-06-5.25791E-19-5.23858E-19
 -1      1819 9.30028E-05-2.79364E-05-2.78862E-05 8.66219E-07-5.62883E-19-1.26659E-19
 -1      1820 9.32181E-05-2.80105E-05-2.79446E-05 8.34904E-07-3.81807E-19-2.33747E-19
 -1      1821 9.34749E-05-2.80848E-05-2.80271E-05 1.04578E-06-3.89757E-19-4.26169E-19
 -1      1822 9.33301E-05-2.80488E-05-2.79796E-05 7.96142E-07-2.59092E-19-4.04079E-19
 -1      1823 9.35322E-05-2.81135E-05-2.80359E-05 7.53862E-07-1.91493E-19-5.43357E-19
 -1      1824 9.36932E-05-2.81785E-05-2.80790E-05 9.94401E-07-4.50072E-19-5.29945E-19
 -1      1825 9.36447E-05-2.81478E-05-2.80727E-05 7.03573E-07-2.61180E-19-7.82151E-19
 -1      1826 9.38263E-05-2.82027E-05-2.81242E-05 6.58179E-07-2.26702E-19-8.57065E-19
 -1      1827 9.39213E-05-2.82581E-05-2.81417E-05 8.99868E-07-3.43037E-19-6.88274E-19
 -1      1828 9.39328E-05-2.82325E-05-2.81600E-05 6.05504E-07-3.21791E-19-8.58334E-19
 -1      1829 9.40915E-05-2.82780E-05-2.82058E-05 5.62232E-07-1.95723E-19-8.35700E-19
 -1      1830 9.41416E-05-2.83241E-05-2.82073E-05 7.88279E-07-4.04836E-19-7.01988E-19
 -1      1831 9.41891E-05-2.83033E-05-2.82393E-05 5.13364E-07-1.20466E-19-9.36948E-19
 -1      1832 9.43260E-05-2.83405E-05-2.82795E-05 4.75766E-07-1.23429E-19-7.33826E-19
 -1      1833 9.43453E-05-2.83776E-05-2.82715E-05 6.77243E-07-6.99966E-20-1.00519E-18
 -1      1834 9.44145E-05-2.83618E-05-2.83105E-05 4.35017E-07-3.22035E-19-7.84136E-19
 -1      1835 9.45330E-05-2.83922E-05-2.83458E-05 4.05616E-07-3.90588E-19-9.92733E-19
 -1      1836 9.45299E-05-2.84201E-05-2.83323E-05 5.78856E-07-2.07567E-19-6.05464E-19
 -1      1837 9.46143E-05-2.84104E-05-2.83749E-05 3.76188E-07-2.29872E-19-1.11684E-18
 -1      1838 9.47197E-05-2.84358E-05-2.84068E-05 3.56969E-07-1.06528E-19-1.26030E-18
 -1      1839 9.46974E-05-2.84537E-05-2.83899E-05 5.01780E-07-3.35124E-19-7.85256E-19
 -1      1840 9.47972E-05-2.84518E-05-2.84350E-05 3.41534E-07-2.68232E-19-1.62611E-18
 -1      1841 9.48961E-05-2.84742E-05-2.84654E-05 3.34327E-07-2.75112E-19-1.40180E-18
 -1      1842 9.48532E-05-2.84805E-05-2.84455E-05 4.52777E-07-2.79343E-19-1.30926E-18
 -1      1843 9.49744E-05-2.84894E-05-2.84942E-05 3.35484E-07-2.26323E-19-1.65173E-18
 -1      1844 9.50749E-05-2.85110E-05-2.85254E-05 3.42264E-07-1.07050E-19-1.37172E-18
 -1      1845 9.50054E-05-2.85030E-05-2.85015E-05 4.37884E-07-2.91337E-19-9.96979E-19
 -1      1846 9.51598E-05-2.85268E-05-2.85570E-05 3.62893E-07 1.20010E-20-1.39740E-18
 -1      1847 9.52715E-05-2.85504E-05-2.85919E-05 3.86022E-07-2.89710E-19-1.12612E-18
 -1      1848 9.51643E-05-2.85236E-05-2.85612E-05 4.63325E-07-3.98517E-20-1.31019E-18
 -1      1849 9.53699E-05-2.85685E-05-2.86286E-05 4.29564E-07-7.49224E-19-1.13607E-18
 -1      1850 9.55041E-05-2.85969E-05-2.86704E-05 4.71988E-07-1.23744E-19-1.23970E-18
 -1      1851 9.53427E-05-2.85453E-05-2.86289E-05 5.36223E-07-3.83385E-19-1.30074E-18
 -1      1852 9.56243E-05-2.86194E-05-2.87151E-05 5.42653E-07 2.71262E-19-1.74798E-18
 -1      1853 9.57943E-05-2.86563E-05-2.87677E-05 6.08040E-07 2.44544E-19-1.85545E-18
 -1      1854 9.55554E-05-2.85715E-05-2.87096E-05 6.65146E-07-4.02205E-19-1.52729E-18
 -1      1855 9.59459E-05-2.86855E-05-2.88239E-05 7.10929E-07 4.82140E-19-1.84972E-18
 -1      1856 9.61674E-05-2.87351E-05-2.88920E-05 8.03739E-07 3.21701E-19-1.84381E-18
 -1      1857 9.58203E-05-2.86060E-05-2.88091E-05 8.60460E-07 4.60754E-19-1.62566E-18
 -1      1858 9.63614E-05-2.87737E-05-2.89634E-05 9.44837E-07 2.58532E-19-1.32844E-18
 -1      1859 9.66530E-05-2.88413E-05-2.90524E-05 1.07027E-06 6.02465E-19-1.23366E-18
 -1      1860 9.61577E-05-2.86536E-05-2.89342E-05 1.13445E-06 8.73913E-19-1.11855E-18
 -1      1861 9.69019E-05-2.88928E-05-2.91433E-05 1.25623E-06 3.81181E-19-1.35459E-18
 -1      1862 9.72851E-05-2.89847E-05-2.92593E-05 1.41994E-06 3.25891E-19-9.89287E-19
 -1      1863 9.65912E-05-2.87200E-05-2.90925E-05 1.50105E-06 3.66054E-19-7.98598E-19
 -1      1864 9.76029E-05-2.90531E-05-2.93743E-05 1.65748E-06 5.04962E-19-6.97734E-19
 -1      1865 9.81021E-05-2.91772E-05-2.95241E-05 1.86490E-06 4.66939E-19-6.04128E-19
 -1      1866 9.71473E-05-2.88129E-05-2.92920E-05 1.97493E-06 4.93053E-19-1.04833E-18
 -1      1867 9.85039E-05-2.92677E-05-2.96679E-05 2.15954E-06 3.48743E-19-9.66931E-19
 -1      1868 9.91456E-05-2.94335E-05-2.98587E-05 2.41439E-06-1.05747E-20-9.74094E-19
 -1      1869 9.78554E-05-2.89425E-05-2.95410E-05 2.56939E-06 3.67198E-19-1.18692E-18
 -1      1870 9.96472E-05-2.95533E-05-3.00352E-05 2.76800E-06-3.19355E-19-1.22368E-19
 -1      1871 1.00458E-04-2.97724E-05-3.02736E-05 3.06948E-06-9.36550E-20-1.00972E-20
 -1      1872 9.87473E-05-2.91236E-05-2.98466E-05 3.29231E-06 4.65919E-19-9.11297E-19
 -1      1873 1.01075E-04-2.99314E-05-3.04852E-05 3.47587E-06-6.16238E-19-1.50677E-19
 -1      1874 1.02077E-04-3.02182E-05-3.07758E-05 3.81361E-06-3.81454E-19-5.35646E-19
 -1      1875 9.98565E-05-2.93782E-05-3.02138E-05 4.13865E-06-4.11723E-19 2.78414E-19
 -1      1876 1.02826E-04-3.04312E-05-3.10218E-05 4.25102E-06 1.04650E-19-7.21512E-19
 -1      1877 1.04030E-04-3.08028E-05-3.13644E-05 4.59654E-06 5.62269E-19-7.65116E-19
 -1      1878 1.01217E-04-2.97409E-05-3.06426E-05 5.07770E-06-4.58558E-19 3.36758E-20
 -1      1879 1.04924E-04-3.10923E-05-3.16389E-05 5.01575E-06 1.82173E-19-1.04081E-18
 -1      1880 1.06317E-04-3.15678E-05-3.20244E-05 5.30950E-06-2.22552E-19-1.03353E-18
 -1      1881 1.02865E-04-3.02656E-05-3.11245E-05 6.03232E-06 1.79214E-19-1.18882E-18
 -1      1882 1.07370E-04-3.19670E-05-3.23138E-05 5.61685E-06-5.48640E-19-8.83311E-19
 -1      1883 1.08895E-04-3.25633E-05-3.27184E-05 5.75155E-06-7.20494E-19-1.55230E-18
 -1      1884 1.04832E-04-3.10347E-05-3.16394E-05 6.84842E-06-3.30409E-19-1.54535E-18
 -1      1885 1.10117E-04-3.31153E-05-3.29999E-05 5.78917E-06-1.04111E-18-9.32166E-19
 -1      1886 1.11648E-04-3.38343E-05-3.33793E-05 5.59602E-06-7.77242E-19-6.14059E-19
 -1      1887 1.07151E-04-3.21608E-05-3.21523E-05 7.25628E-06-5.85161E-19-6.55792E-19
 -1      1888 1.13033E-04-3.45783E-05-3.36225E-05 5.13002E-06-3.08820E-19-3.96365E-19
 -1      1889 1.14345E-04-3.53749E-05-3.39095E-05 4.38694E-06 2.20420E-19-1.23756E-19
 -1      1890 1.09834E-04-3.37649E-05-3.26161E-05 6.83677E-06-1.04936E-19 7.54415E-19
 -1      1891 1.15833E-04-3.62972E-05-3.40850E-05 3.13333E-06 1.76527E-19-1.38278E-19
 -1      1892 1.16582E-04-3.70176E-05-3.41993E-05 1.63551E-06 9.89718E-19-7.27307E-20
 -1      1893 1.12821E-04-3.58860E-05-3.29860E-05 5.03183E-06 1.42609E-19 6.63414E-19
 -1      1894 1.17976E-04-3.79508E-05-3.42972E-05-6.14340E-07 1.11929E-18-1.50624E-18
 -1      1895 1.17729E-04-3.82580E-05-3.41744E-05-2.87273E-06 3.59023E-19-1.59599E-18
 -1      1896 1.15848E-04-3.82693E-05-3.32507E-05 1.29019E-06 2.85920E-19-3.42957E-19
 -1      1897 1.18582E-04-3.87615E-05-3.42257E-05-5.95991E-06-8.00658E-19-1.81309E-18
 -1      1898 1.16972E-04-3.81490E-05-3.38657E-05-8.49993E-06-1.24450E-18-1.27961E-18
 -1      1899 1.18230E-04-4.00680E-05-3.34737E-05-4.51095E-06-2.62646E-19-8.96351E-19
 -1      1900 1.16629E-04-3.75608E-05-3.39438E-05-1.14847E-05-1.20803E-18-9.64056E-19
 -1      1901 1.13685E-04-3.56604E-05-3.34416E-05-1.31659E-05-9.25185E-19-9.66676E-19
 -1      1902 1.18760E-04-3.97544E-05-3.38059E-05-1.13024E-05-8.20583E-19-1.06558E-18
 -1      1903 1.11824E-04-3.36629E-05-3.35925E-05-1.42534E-05-6.05594E-19-1.29904E-18
 -1      1904 1.08370E-04-3.09329E-05-3.31096E-05-1.36815E-05-3.75130E-19-1.59058E-18
 -1      1905 1.16322E-04-3.60265E-05-3.43739E-05-1.61427E-05-6.53670E-19-1.04325E-18
 -1      1906 1.05832E-04-2.83937E-05-3.32771E-05-1.13934E-05-4.13590E-20-1.97830E-18
 -1      1907 1.03332E-04-2.63003E-05-3.29523E-05-8.15152E-06 1.64404E-19-1.90776E-18
 -1      1908 1.11487E-04-2.97358E-05-3.50891E-05-1.51852E-05-4.12029E-19-1.75664E-18
 -1      1909 1.02088E-04-2.52157E-05-3.29524E-05-3.05931E-06 1.54054E-19-1.92512E-18
 -1      1910 1.01820E-04-2.52935E-05-3.28325E-05 1.23211E-06-5.32545E-19-1.69736E-18
 -1      1911 1.07277E-04-2.47693E-05-3.55311E-05-6.88897E-06 2.58027E-19-1.18779E-18
 -1      1912 1.02777E-04-2.65885E-05-3.25773E-05 5.99403E-06-1.67728E-18-2.12055E-18
 -1      1913 1.04589E-04-2.86361E-05-3.26593E-05 8.79670E-06-1.08354E-18-2.39508E-18
 -1      1914 1.07032E-04-2.51417E-05-3.52627E-05 4.32136E-06-1.10718E-18-1.28975E-18
 -1      1915 1.06481E-04-3.10184E-05-3.22707E-05 1.04440E-05-7.56453E-19-2.56484E-18
 -1      1916 1.08979E-04-3.34083E-05-3.24871E-05 1.05173E-05-2.31435E-19-3.05112E-18
 -1      1917 1.10345E-04-3.03071E-05-3.43412E-05 1.14130E-05-1.01265E-18-7.50613E-19
 -1      1918 1.09969E-04-3.50038E-05-3.21375E-05 8.90153E-06 1.23585E-18-3.37668E-18
 -1      1919 1.11723E-04-3.63669E-05-3.23467E-05 6.93377E-06 1.26488E-18-2.78825E-18
 -1      1920 1.13677E-04-3.59997E-05-3.32367E-05 1.10906E-05 3.50657E-19-1.25955E-18
 -1      1921 1.11189E-04-3.65154E-05-3.20863E-05 3.80663E-06 1.19613E-18-1.22896E-18
 -1      1922 1.11564E-04-3.65965E-05-3.21403E-05 1.25756E-06 2.37736E-18 4.69680E-19
 -1      1923 1.14296E-04-3.87066E-05-3.23432E-05 5.55757E-06 1.70001E-18-1.69575E-18
 -1      1924 1.09970E-04-3.57398E-05-3.19167E-05-1.65536E-06 1.53562E-18-1.02691E-18
 -1      1925 1.09079E-04-3.49604E-05-3.17533E-05-3.69043E-06 1.35413E-18-1.85274E-18
 -1      1926 1.12093E-04-3.80317E-05-3.17229E-05-1.14431E-06 1.50821E-18-1.11082E-18
 -1      1927 1.07067E-04-3.37184E-05-3.15181E-05-5.52135E-06 6.21259E-19-1.60926E-18
 -1      1928 1.05383E-04-3.25637E-05-3.11826E-05-6.56523E-06 5.13256E-19-1.10817E-18
 -1      1929 1.08312E-04-3.54102E-05-3.12534E-05-6.27129E-06 9.34264E-19-1.83891E-18
 -1      1930 1.03371E-04-3.13031E-05-3.09350E-05-7.12738E-06-2.42500E-19-1.82641E-18
 -1      1931 1.01428E-04-3.00892E-05-3.05387E-05-7.10491E-06-2.99474E-19-1.64471E-18
 -1      1932 1.04114E-04-3.22070E-05-3.08366E-05-8.78231E-06-6.02689E-19-1.24045E-18
 -1      1933 9.98032E-05-2.90969E-05-3.03251E-05-6.49925E-06 1.26877E-18-2.57494E-18
 -1      1934 9.80776E-05-2.80514E-05-2.99600E-05-5.56448E-06 1.05818E-18-1.82821E-18
 -1      1935 9.73264E-05-2.70777E-05-3.01149E-05-6.62355E-06 1.29298E-18-1.42113E-18
 -1      1936 1.00314E-04-2.92124E-05-3.04787E-05-8.65719E-06 3.47945E-20-2.71482E-18
 -1      1937 9.32134E-05-2.73633E-05-2.81936E-05 1.60605E-06 1.36585E-18 2.52429E-18
 -1      1938 9.44083E-05-2.74687E-05-2.86303E-05 2.67693E-06 1.44816E-18 3.04831E-18
 -1      1939 9.52319E-05-2.70477E-05-2.92272E-05 4.05479E-06 1.82901E-18 2.02765E-18
 -1      1940 9.21605E-05-2.73496E-05-2.77516E-05 3.49831E-07 1.18221E-18 1.87535E-18
 -1      1941 9.26553E-05-2.73820E-05-2.79241E-05 8.97660E-07 1.18504E-18 2.26716E-18
 -1      1942 9.36268E-05-2.73688E-05-2.84032E-05 1.58658E-06 1.49880E-18 1.51043E-18
 -1      1943 9.17838E-05-2.73869E-05-2.75830E-05-3.02653E-07 6.77358E-19 1.44472E-18
 -1      1944 9.18995E-05-2.73603E-05-2.76302E-05-1.05734E-08 9.24331E-19 1.78731E-18
 -1      1945 9.27947E-05-2.74838E-05-2.80004E-05 2.74705E-07 1.13036E-18 1.07978E-18
 -1      1946 9.18054E-05-2.74769E-05-2.75593E-05-6.27224E-07 2.26956E-19 8.95752E-19
 -1      1947 9.17187E-05-2.74152E-05-2.75432E-05-4.74977E-07 3.63476E-19 1.21458E-18
 -1      1948 9.24793E-05-2.75763E-05-2.78256E-05-4.17576E-07 5.99555E-19 5.90992E-19
 -1      1949 9.20469E-05-2.75981E-05-2.76139E-05-7.63605E-07 3.48593E-19 7.05462E-19
 -1      1950 9.18576E-05-2.75198E-05-2.75657E-05-6.93040E-07 2.73818E-19 7.36543E-19
 -1      1951 9.24806E-05-2.76810E-05-2.77794E-05-7.61002E-07 4.49507E-19 8.43873E-20
 -1      1952 9.23962E-05-2.77312E-05-2.77085E-05-7.89437E-07 6.22285E-19 5.14698E-19
 -1      1953 9.21629E-05-2.76484E-05-2.76457E-05-7.67904E-07 6.16317E-19 7.80281E-19
 -1      1954 9.26624E-05-2.77955E-05-2.78061E-05-9.00202E-07 6.17122E-19 1.44662E-19
 -1      1955 9.27840E-05-2.78630E-05-2.78195E-05-7.51592E-07 3.54073E-19-2.03528E-21
 -1      1956 9.25415E-05-2.77831E-05-2.77526E-05-7.59137E-07 4.33137E-19 3.23706E-19
 -1      1957 9.29360E-05-2.79113E-05-2.78719E-05-9.18769E-07 6.89007E-19 6.47740E-20
 -1      1958 9.31685E-05-2.79854E-05-2.79328E-05-6.79858E-07-1.47712E-19 3.50153E-19
 -1      1959 9.29368E-05-2.79126E-05-2.78679E-05-7.03614E-07 6.71840E-20 1.02891E-19
 -1      1960 9.32446E-05-2.80212E-05-2.79557E-05-8.68278E-07 1.85584E-19-1.10537E-19
 -1      1961 9.35264E-05-2.80944E-05-2.80402E-05-5.93714E-07 1.96743E-19 6.25050E-19
 -1      1962 9.33161E-05-2.80304E-05-2.79806E-05-6.25137E-07 1.79923E-19 6.91868E-19
 -1      1963 9.35538E-05-2.81206E-05-2.80446E-05-7.81936E-07-3.68054E-21 1.95849E-19
 -1      1964 9.38465E-05-2.81883E-05-2.81377E-05-5.06063E-07 1.16691E-19 7.74305E-19
 -1      1965 9.36619E-05-2.81338E-05-2.80848E-05-5.39389E-07 1.53567E-19 6.38184E-19
 -1      1966 9.38441E-05-2.82074E-05-2.81312E-05-6.81630E-07 1.99774E-19 4.00129E-19
 -1      1967 9.41263E-05-2.82678E-05-2.82239E-05-4.25532E-07 6.35991E-19 2.05860E-19
 -1      1968 9.39675E-05-2.82220E-05-2.81780E-05-4.56820E-07 4.15711E-19 3.20641E-19
 -1      1969 9.41065E-05-2.82812E-05-2.82116E-05-5.81973E-07 5.46967E-19 9.14655E-20
 -1      1970 9.43691E-05-2.83344E-05-2.82996E-05-3.58015E-07 7.38884E-19-3.77540E-20
 -1      1971 9.42333E-05-2.82963E-05-2.82600E-05-3.84492E-07 6.08893E-19 7.11346E-20
 -1      1972 9.43391E-05-2.83430E-05-2.82845E-05-4.92861E-07 8.25768E-19-1.31365E-19
 -1      1973 9.45821E-05-2.83908E-05-2.83668E-05-3.07778E-07-3.52659E-19 2.43827E-19
 -1      1974 9.44646E-05-2.83587E-05-2.83321E-05-3.27363E-07 1.83799E-19 2.68122E-19
 -1      1975 9.45450E-05-2.83946E-05-2.83506E-05-4.21219E-07 2.85347E-19 1.79039E-19
 -1      1976 9.47759E-05-2.84403E-05-2.84286E-05-2.78267E-07 5.02700E-20-4.16187E-19
 -1      1977 9.46703E-05-2.84122E-05-2.83969E-05-2.89219E-07-6.70436E-20-1.30908E-19
 -1      1978 9.47312E-05-2.84385E-05-2.84115E-05-3.72255E-07 2.05119E-20-2.20546E-19
 -1      1979 9.49636E-05-2.84867E-05-2.84889E-05-2.72717E-07 3.74305E-19-3.29603E-19
 -1      1980 9.48623E-05-2.84603E-05-2.84581E-05-2.73365E-07 1.77623E-19-3.97863E-19
 -1      1981 9.49073E-05-2.84777E-05-2.84704E-05-3.50391E-07 4.00394E-19-2.20463E-19
 -1      1982 9.51608E-05-2.85347E-05-2.85525E-05-2.94577E-07 1.37605E-19 6.78585E-19
 -1      1983 9.50548E-05-2.85072E-05-2.85200E-05-2.83120E-07 3.29519E-19 3.32828E-19
 -1      1984 9.50855E-05-2.85156E-05-2.85307E-05-3.59926E-07 8.00993E-20-7.86163E-20
 -1      1985 9.53854E-05-2.85892E-05-2.86249E-05-3.47766E-07-4.39704E-19-3.20671E-19
 -1      1986 9.52645E-05-2.85577E-05-2.85876E-05-3.22152E-07-1.03003E-19 2.49640E-19
 -1      1987 9.52804E-05-2.85565E-05-2.85970E-05-4.05486E-07 1.78732E-19 1.02787E-19
 -1      1988 9.56581E-05-2.86564E-05-2.87124E-05-4.36733E-07-1.24809E-19-4.77727E-19
 -1      1989 9.55105E-05-2.86172E-05-2.86669E-05-3.94622E-07-3.77677E-19-6.17478E-19
 -1      1990 9.55085E-05-2.86049E-05-2.86745E-05-4.92237E-07-7.03271E-20-8.80025E-19
 -1      1991 9.60024E-05-2.87431E-05-2.88220E-05-5.66276E-07-8.85141E-20-7.94706E-19
 -1      1992 9.58149E-05-2.86923E-05-2.87645E-05-5.05108E-07-4.02691E-19-8.18740E-19
 -1      1993 9.57892E-05-2.86663E-05-2.87689E-05-6.25830E-07-1.17795E-19-1.07643E-18
 -1      1994 9.64441E-05-2.88573E-05-2.89615E-05-7.41002E-07 1.51145E-18-1.08890E-18
 -1      1995 9.62020E-05-2.87902E-05-2.88876E-05-6.58236E-07 7.87300E-19-6.07603E-19
 -1      1996 9.61439E-05-2.87472E-05-2.88868E-05-8.11973E-07 7.31049E-19-1.07114E-18
 -1      1997 9.70114E-05-2.90082E-05-2.91391E-05-9.64281E-07 1.07997E-18-1.41648E-18
 -1      1998 9.66987E-05-2.89195E-05-2.90443E-05-8.57871E-07 1.42235E-18-8.94177E-19
 -1      1999 9.65960E-05-2.88553E-05-2.90350E-05-1.05550E-06 1.57798E-18-1.45419E-18
 -1      2000 9.77326E-05-2.92058E-05-2.93627E-05-1.23644E-06-1.02577E-18-1.56305E-18
 -1      2001 9.73333E-05-2.90899E-05-2.92426E-05-1.10569E-06-5.42258E-20-1.88576E-18
 -1      2002 9.71704E-05-2.89997E-05-2.92201E-05-1.35868E-06 3.62938E-19-1.10932E-18
 -1      2003 9.86340E-05-2.94610E-05-2.96391E-05-1.55191E-06-7.39540E-19-9.15441E-19
 -1      2004 9.81336E-05-2.93121E-05-2.94899E-05-1.39883E-06-8.63907E-19-1.36562E-18
 -1      2005 9.78916E-05-2.91909E-05-2.94480E-05-1.71850E-06-8.81093E-19-7.56683E-19
 -1      2006 9.97352E-05-2.97849E-05-2.99724E-05-1.89485E-06 4.91442E-19-1.02711E-18
 -1      2007 9.91235E-05-2.95976E-05-2.97917E-05-1.72630E-06 7.67028E-20-1.17516E-18
 -1      2008 9.87813E-05-2.94412E-05-2.97229E-05-2.12241E-06 9.95710E-20-1.32135E-18
 -1      2009 1.01041E-04-3.01868E-05-3.03611E-05-2.23301E-06 1.02856E-18 1.81134E-19
 -1      2010 1.00317E-04-2.99576E-05-3.01496E-05-2.06379E-06 7.07736E-19-2.59272E-19
 -1      2011 9.98540E-05-2.97643E-05-3.00448E-05-2.54225E-06 6.00071E-19-5.07804E-19
 -1      2012 1.02533E-04-3.06727E-05-3.07951E-05-2.50986E-06-6.43170E-19 2.92805E-19
 -1      2013 1.01712E-04-3.04014E-05-3.05586E-05-2.36672E-06 3.68590E-19 1.14090E-18
 -1      2014 1.01111E-04-3.01746E-05-3.04080E-05-2.92614E-06 9.48636E-20 7.35599E-19
 -1      2015 1.04153E-04-3.12397E-05-3.12509E-05-2.63617E-06-5.22764E-19-9.00039E-20
 -1      2016 1.03274E-04-3.09330E-05-3.10030E-05-2.56223E-06-9.38621E-19-3.01426E-19
 -1      2017 1.02531E-04-3.06846E-05-3.07977E-05-3.18898E-06-4.80301E-19 3.47475E-19
 -1      2018 1.05785E-04-3.18695E-05-3.16877E-05-2.48471E-06-3.07532E-19 2.96230E-19
 -1      2019 1.04924E-04-3.15451E-05-3.14521E-05-2.54253E-06-3.01014E-19 1.58862E-19
 -1      2020 1.04058E-04-3.13003E-05-3.11871E-05-3.20422E-06-1.37453E-20 6.48098E-19
 -1      2021 1.07242E-04-3.25149E-05-3.20442E-05-1.89668E-06-7.23121E-20 3.29785E-19
 -1      2022 1.06519E-04-3.22086E-05-3.18572E-05-2.16563E-06-2.99691E-19-8.46040E-21
 -1      2023 1.05587E-04-3.20090E-05-3.15355E-05-2.80354E-06-3.23896E-19 4.54569E-19
 -1      2024 1.08252E-04-3.30825E-05-3.22420E-05-7.14256E-07-1.02760E-18 9.56504E-19
 -1      2025 1.07835E-04-3.28550E-05-3.21504E-05-1.27467E-06-8.52909E-19 7.45204E-19
 -1      2026 1.06946E-04-3.27592E-05-3.17901E-05-1.79697E-06-9.19881E-19 4.12995E-19
 -1      2027 1.08473E-04-3.34149E-05-3.21982E-05 1.14259E-06-7.45654E-19 1.60157E-18
 -1      2028 1.08558E-04-3.33560E-05-3.22521E-05 2.47674E-07-8.70551E-19 1.43547E-18
 -1      2029 1.07880E-04-3.34304E-05-3.18936E-05-3.23293E-08-8.71521E-19 1.40456E-18
 -1      2030 1.07550E-04-3.32883E-05-3.18515E-05 3.54751E-06 1.02465E-19 1.36736E-18
 -1      2031 1.08319E-04-3.35078E-05-3.20881E-05 2.37704E-06-1.59514E-19 1.86546E-18
 -1      2032 1.08063E-04-3.38042E-05-3.17993E-05 2.48919E-06-2.31558E-19 1.45180E-18
 -1      2033 1.05238E-04-3.24648E-05-3.11994E-05 6.02102E-06 8.50325E-19 1.01601E-18
 -1      2034 1.06774E-04-3.30535E-05-3.16198E-05 4.80955E-06 7.86477E-19 1.18840E-18
 -1      2035 1.07145E-04-3.35717E-05-3.14935E-05 5.45012E-06 9.15351E-19 6.26560E-19
 -1      2036 1.01630E-04-3.08500E-05-3.03284E-05 7.70125E-06 7.43192E-19 3.38919E-19
 -1      2037 1.03807E-04-3.17989E-05-3.08780E-05 6.86818E-06 8.53095E-19 9.20288E-19
 -1      2038 1.04916E-04-3.24537E-05-3.10144E-05 8.08371E-06 1.16843E-18 1.76146E-18
 -1      2039 9.73611E-05-2.87029E-05-2.94126E-05 7.62289E-06 3.15654E-19-9.62454E-19
 -1      2040 9.97716E-05-2.98239E-05-2.99804E-05 7.62840E-06 5.56494E-19-3.00816E-19
 -1      2041 1.01567E-04-3.04492E-05-3.04528E-05 9.27707E-06 1.30857E-18 4.11010E-19
 -1      2042 9.36026E-05-2.67201E-05-2.86638E-05 5.31407E-06 1.11794E-18-9.54553E-19
 -1      2043 9.56181E-05-2.76486E-05-2.91137E-05 6.36511E-06 8.08453E-20-1.42327E-18
 -1      2044 9.78828E-05-2.80711E-05-2.99256E-05 8.06925E-06 5.51928E-19-7.19846E-20
 -1      2045 9.16283E-05-2.57609E-05-2.82472E-05 1.37990E-06 4.46029E-19-7.12432E-19
 -1      2046 9.26427E-05-2.61256E-05-2.84719E-05 3.16457E-06 1.14913E-18-6.62224E-19
 -1      2047 9.51043E-05-2.62853E-05-2.95304E-05 4.40395E-06 5.40288E-19-6.58085E-19
 -1      2048 9.20345E-05-2.62330E-05-2.82246E-05-2.61315E-06 4.28612E-20-1.87865E-18
 -1      2049 9.17937E-05-2.59147E-05-2.81888E-05-8.24426E-07 1.29305E-20-1.09261E-18
 -1      2050 9.42519E-05-2.59271E-05-2.93166E-05-4.41899E-07 1.09419E-19-6.33746E-19
 -1      2051 9.43065E-05-2.77665E-05-2.85306E-05-5.05385E-06 7.81047E-19-2.15660E-18
 -1      2052 9.30788E-05-2.69879E-05-2.82884E-05-3.97286E-06-7.31426E-20-2.21227E-18
 -1      2053 9.54257E-05-2.71000E-05-2.92924E-05-4.46584E-06 4.41688E-19-1.27328E-18
 -1      2054 9.71639E-05-2.94971E-05-2.89938E-05-5.26198E-06-5.89001E-19-6.56629E-19
 -1      2055 9.55734E-05-2.86587E-05-2.86651E-05-5.16033E-06 7.22385E-19-8.66210E-19
 -1      2056 9.77134E-05-2.90579E-05-2.94102E-05-6.17324E-06-1.69073E-19 1.39774E-19
 -1      2057 9.93661E-05-3.06793E-05-2.94154E-05-3.68201E-06 5.27437E-19-8.16192E-19
 -1      2058 9.80456E-05-3.01047E-05-2.91294E-05-4.34837E-06-5.51663E-19-3.97907E-19
 -1      2059 9.98603E-05-3.07860E-05-2.95819E-05-5.38584E-06-3.02050E-19 4.39997E-19
 -1      2060 1.00265E-04-3.10211E-05-2.96488E-05-1.35874E-06 5.73507E-19-1.18056E-18
 -1      2061 9.95862E-05-3.08329E-05-2.94924E-05-2.33866E-06 7.65698E-19-2.15954E-19
 -1      2062 1.00989E-04-3.16325E-05-2.97093E-05-3.02015E-06 9.50768E-19 4.52944E-19
 -1      2063 9.98685E-05-3.06327E-05-2.96473E-05 7.03859E-07 2.38827E-19-1.43585E-18
 -1      2064 9.98754E-05-3.07818E-05-2.96403E-05-1.60255E-07 1.87346E-19-1.35063E-18
 -1      2065 1.00869E-04-3.15031E-05-2.97245E-05-3.37881E-07 4.98982E-19 8.30165E-19
 -1      2066 9.85914E-05-2.98020E-05-2.94612E-05 1.86000E-06 5.66207E-19 5.35123E-19
 -1      2067 9.90877E-05-3.01542E-05-2.95643E-05 1.39677E-06 1.02544E-19-2.27104E-19
 -1      2068 9.97513E-05-3.06611E-05-2.96143E-05 1.66556E-06-2.63550E-19 7.30882E-19
 -1      2069 9.70135E-05-2.88603E-05-2.91923E-05 1.87631E-06 4.50119E-19-5.43451E-19
 -1      2070 9.76932E-05-2.92623E-05-2.93382E-05 1.93247E-06 6.30416E-19 3.11642E-19
 -1      2071 9.81103E-05-2.95019E-05-2.94140E-05 2.45953E-06 3.26194E-19 1.21032E-18
 -1      2072 9.59066E-05-2.82580E-05-2.89742E-05 1.26267E-06 5.89449E-21 3.07018E-19
 -1      2073 9.65004E-05-2.85714E-05-2.91175E-05 1.67528E-06 4.47747E-19-2.34466E-19
 -1      2074 9.67499E-05-2.85900E-05-2.92260E-05 2.23781E-06 5.68712E-19 2.46126E-18
 -1      2075 9.58134E-05-2.79198E-05-2.90830E-05 1.61888E-06-9.79807E-19 2.99751E-18
 -1      2076 9.45547E-05-2.24163E-05-3.08805E-05 7.48450E-06-3.08386E-19 1.65740E-18
 -1      2077 9.51751E-05-2.42426E-05-3.03812E-05 6.50102E-06-2.72015E-19 2.19327E-18
 -1      2078 9.54272E-05-2.51666E-05-3.00691E-05 5.23918E-06 1.06474E-19 1.40791E-18
 -1      2079 9.57674E-05-2.64291E-05-2.97019E-05 4.25833E-06-2.01782E-19 1.29869E-18
 -1      2080 9.63128E-05-2.60208E-05-3.01561E-05 7.28403E-06-3.55827E-19 1.52377E-18
 -1      2081 9.57074E-05-2.67896E-05-2.94998E-05 3.23316E-06-6.16078E-19 1.75792E-20
 -1      2082 9.58634E-05-2.75764E-05-2.92496E-05 2.40935E-06-8.53341E-19 1.35704E-18
 -1      2083 9.63113E-05-2.78786E-05-2.93226E-05 2.83076E-06 3.34686E-20 1.64747E-18
 -1      2084 9.65154E-05-2.72538E-05-2.96862E-05 4.78787E-06 7.61238E-20 8.24917E-19
 -1      2085 9.30291E-05-1.87606E-05-3.18240E-05 9.29385E-06-1.25597E-18-2.30854E-18
 -1      2086 9.39828E-05-2.10358E-05-3.12408E-05 8.60473E-06-7.36389E-19-4.66778E-19
 -1      2087 9.53830E-05-2.36975E-05-3.07554E-05 9.97127E-06-7.88591E-19-2.52781E-19
 -1      2088 9.08315E-05-1.43466E-05-3.28165E-05 9.93911E-06-1.64322E-18-9.35002E-19
 -1      2089 9.20777E-05-1.68920E-05-3.22039E-05 9.87101E-06-1.99650E-18 5.30172E-19
 -1      2090 9.35395E-05-2.03548E-05-3.13902E-05 1.19180E-05-1.22940E-18-1.31825E-18
 -1      2091 8.83533E-05-9.93094E-06-3.36857E-05 8.66473E-06-2.81321E-19-1.49073E-18
 -1      2092 8.96327E-05-1.22598E-05-3.31560E-05 9.50207E-06-8.70545E-19-1.34954E-18
 -1      2093 9.08457E-05-1.62227E-05-3.19827E-05 1.21359E-05-1.49294E-18-1.01485E-18
 -1      2094 8.62928E-05-6.54100E-06-3.42725E-05 5.25810E-06 2.84067E-19 9.58696E-19
 -1      2095 8.72281E-05-8.11066E-06-3.39315E-05 6.99620E-06-5.30057E-20-5.46230E-19
 -1      2096 8.78954E-05-1.21001E-05-3.24447E-05 9.81553E-06-6.21209E-19-1.01186E-18
 -1      2097 8.54070E-05-5.18704E-06-3.44614E-05 3.35095E-07-8.49523E-20-1.68096E-19
 -1      2098 8.56593E-05-5.56345E-06-3.43856E-05 2.59714E-06 1.22856E-19-2.18402E-19
 -1      2099 8.56499E-05-9.12888E-06-3.27171E-05 4.94392E-06-1.37462E-18 1.50666E-19
 -1      2100 8.60754E-05-6.36242E-06-3.42136E-05-4.78346E-06-6.91073E-19 5.70761E-19
 -1      2101 8.55425E-05-5.41658E-06-3.44242E-05-2.62263E-06-6.39257E-19 1.02126E-18
 -1      2102 8.50037E-05-8.32851E-06-3.27716E-05-1.41894E-06-1.78789E-18 2.78793E-19
 -1      2103 8.80028E-05-9.66977E-06-3.35875E-05-8.63470E-06 1.15665E-18 5.41889E-19
 -1      2104 8.68970E-05-7.68551E-06-3.40344E-05-7.16073E-06-1.28441E-19 8.48217E-19
 -1      2105 8.62273E-05-9.98550E-06-3.26072E-05-7.44730E-06-6.02551E-19 1.53069E-18
 -1      2106 9.05601E-05-1.42816E-05-3.26811E-05-1.05177E-05 1.85177E-18 2.49378E-18
 -1      2107 8.92033E-05-1.16703E-05-3.32893E-05-9.95291E-06 1.60813E-18 3.37538E-18
 -1      2108 8.87826E-05-1.34967E-05-3.22406E-05-1.15821E-05 8.56069E-19 2.52781E-18
 -1      2109 9.30121E-05-1.90619E-05-3.16678E-05-1.03054E-05 2.08543E-18-1.02399E-18
 -1      2110 9.17396E-05-1.63836E-05-3.23154E-05-1.06244E-05 2.04749E-18 1.20567E-19
 -1      2111 9.17903E-05-1.78088E-05-3.17166E-05-1.31167E-05 1.42800E-18 1.47641E-18
 -1      2112 9.50013E-05-2.32379E-05-3.07341E-05-8.52827E-06 1.47530E-18-1.72418E-18
 -1      2113 9.39075E-05-2.08673E-05-3.12973E-05-9.46866E-06 1.81883E-18-1.00832E-18
 -1      2114 9.44390E-05-2.18832E-05-3.11206E-05-1.22258E-05 1.54045E-18-1.06915E-18
 -1      2115 6.12230E-05-4.40500E-05-7.76886E-06 4.38885E-05 2.23701E-18 6.88797E-18
 -1      2116 4.44797E-05-4.59617E-05-7.94642E-07 3.44598E-05 1.18754E-18 6.52533E-18
 -1      2117 1.36763E-05-3.74796E-05 8.81852E-06 5.83919E-06 2.49875E-20 3.34366E-18
 -1      2118 1.40031E-05-3.81223E-05 8.90468E-06-5.29748E-06-8.60691E-19 2.91633E-18
 -1      2119 3.02487E-05-4.02001E-05 3.28749E-06 2.90110E-05 1.42047E-18 5.59021E-18
 -1      2120 2.12795E-05-4.03217E-05 6.76895E-06 1.97117E-05-3.59565E-19 4.82301E-18
 -1      2121 4.56748E-05-3.92191E-05-3.10309E-06 3.93392E-05 1.42365E-18 6.76991E-18
 -1      2122 1.04749E-04-4.70802E-05-2.45379E-05 4.49347E-05 4.11616E-18 6.93720E-18
 -1      2123 8.57812E-05-5.06990E-05-1.58098E-05 4.11511E-05 2.27174E-18 6.15984E-18
 -1      2124 1.41327E-04-4.52451E-05-4.07219E-05 3.54718E-05 4.02404E-18 5.72933E-18
 -1      2125 1.19391E-04-4.66524E-05-3.16986E-05 3.67559E-05 4.76033E-18 5.51884E-18
 -1      2126 1.25726E-04-5.88106E-05-2.84187E-05 3.47883E-05 2.03246E-18 3.44573E-18
 -1      2127 8.72651E-05-8.72963E-06-3.37488E-05-1.05299E-05-1.66471E-18-2.63255E-18
 -1      2128 8.79792E-05-9.26491E-06-3.38208E-05-1.21096E-05-1.93495E-18-2.19911E-18
 -1      2129 9.04746E-05-1.30311E-05-3.32182E-05-1.18199E-05-2.15200E-18-1.76580E-18
 -1      2130 8.86733E-05-1.10586E-05-3.32961E-05-9.39559E-06-1.62476E-18-2.53580E-18
 -1      2131 1.82350E-04-2.74611E-05-6.51429E-05 1.02890E-05 4.64216E-18 1.69788E-18
 -1      2132 1.72317E-04-2.84564E-05-6.10689E-05 1.60962E-05 5.97455E-18 3.57575E-18
 -1      2133 1.82258E-04-2.27561E-05-6.74346E-05 2.73366E-07 3.89423E-18-4.82809E-19
 -1      2134 1.82928E-04-2.35667E-05-6.71489E-05 6.95860E-06 3.72271E-18 3.19755E-20
 -1      2135 1.71731E-04-2.48829E-05-6.23668E-05-6.60784E-06 2.13749E-18 6.78473E-19
 -1      2136 1.82326E-04-2.44585E-05-6.62049E-05-2.70880E-06 2.84518E-18 2.83333E-19
 -1      2137 1.57739E-04-3.59064E-05-5.16298E-05-2.18156E-05 9.64453E-19-9.73241E-19
 -1      2138 1.68943E-04-3.35336E-05-5.75044E-05-1.26702E-05 1.28728E-18-5.78100E-19
 -1      2139 1.26950E-04-4.19742E-05-3.67645E-05-3.33161E-05-3.87094E-19-8.22893E-19
 -1      2140 1.47735E-04-4.11412E-05-4.49882E-05-3.17828E-05 5.01655E-19-7.80964E-19
 -1      2141 9.33935E-05-4.66748E-05-2.08241E-05-3.81367E-05-1.86728E-18-7.40730E-19
 -1      2142 1.12918E-04-4.33312E-05-2.94418E-05-4.14237E-05-7.39460E-19-1.64324E-19
 -1      2143 5.76248E-05-4.53583E-05-6.20691E-06-3.75268E-05-2.04643E-18-1.32330E-18
 -1      2144 7.57132E-05-4.45757E-05-1.34421E-05-4.35327E-05-1.42217E-18-8.55397E-19
 -1      2145 2.55715E-05-3.94692E-05 4.63673E-06-2.42045E-05-2.41955E-18-2.93328E-18
 -1      2146 3.66916E-05-3.76811E-05-2.06635E-07-3.37939E-05-2.13961E-18-2.61648E-18
 -1      2147 1.23915E-05-3.23024E-05 7.69526E-06-6.01568E-06-1.59703E-18-1.67713E-18
 -1      2148 1.65088E-05-3.57634E-05 7.09861E-06-1.59640E-05-1.07488E-18-2.23532E-18
 -1      2149 2.53636E-05-2.95289E-05 1.33101E-06-2.54714E-05-1.27394E-18-1.95876E-18
 -1      2150 2.08010E-05-3.84468E-05 6.22570E-06 1.90640E-05-2.00027E-18-1.04820E-18
 -1      2151 1.41320E-05-3.47837E-05 7.79964E-06 1.01440E-05-1.67183E-18-1.37219E-18
 -1      2152 4.64427E-05-4.15695E-05-2.90365E-06 3.41294E-05-2.55846E-18 1.28537E-18
 -1      2153 3.37670E-05-4.28563E-05 2.45209E-06 2.66211E-05-1.97062E-18-6.00335E-19
 -1      2154 8.35245E-05-4.50690E-05-1.67664E-05 4.06475E-05-1.88550E-18 1.29596E-18
 -1      2155 6.47248E-05-4.72602E-05-8.90208E-06 3.45790E-05-2.97224E-18 1.53355E-18
 -1      2156 1.25357E-04-4.78660E-05-3.29086E-05 3.54938E-05-1.23752E-18 2.54660E-18
 -1      2157 1.04442E-04-4.94684E-05-2.44758E-05 3.39029E-05-1.53652E-18 2.27005E-18
 -1      2158 1.55713E-04-4.39069E-05-4.72754E-05 2.43938E-05 7.51742E-21 3.05864E-18
 -1      2159 1.35883E-04-4.51044E-05-3.93223E-05 2.70747E-05-9.79594E-19 2.50764E-18
 -1      2160 1.38993E-04-5.69674E-05-3.46748E-05 1.98886E-05-1.21105E-18 2.90744E-18
 -1      2161 1.80823E-04-3.45756E-05-6.12309E-05 1.13380E-05-2.61945E-19 4.45836E-18
 -1      2162 1.64954E-04-3.53940E-05-5.50957E-05 1.49975E-05 4.91279E-20 3.95776E-18
 -1      2163 1.90719E-04-2.82545E-05-6.81262E-05-5.34802E-08 2.26158E-19 3.71784E-18
 -1      2164 1.84059E-04-2.88271E-05-6.53976E-05 7.30704E-06-1.64324E-19 4.28260E-18
 -1      2165 1.83690E-04-2.44482E-05-6.72436E-05-8.58497E-06-8.84726E-19 3.55246E-18
 -1      2166 1.88407E-04-2.55597E-05-6.83612E-05-2.31781E-06 2.02017E-19 3.80019E-18
 -1      2167 1.73202E-04-3.12628E-05-6.00383E-05-1.71197E-05-3.14270E-18 2.97732E-18
 -1      2168 1.82158E-04-2.92582E-05-6.44016E-05-1.05609E-05-2.01001E-18 3.40253E-18
 -1      2169 1.51613E-04-3.92686E-05-4.80029E-05-2.86061E-05-3.19448E-18 3.31868E-18
 -1      2170 1.70446E-04-3.77890E-05-5.55592E-05-2.67439E-05-3.79227E-18 2.68552E-18
 -1      2171 1.20581E-04-4.85715E-05-3.13340E-05-3.58708E-05-1.72752E-18 3.25727E-18
 -1      2172 1.41125E-04-4.49536E-05-4.03905E-05-3.74991E-05-1.77496E-18 5.09321E-18
 -1      2173 8.10212E-05-5.08561E-05-1.39733E-05-4.04891E-05-2.94852E-18-6.35275E-20
 -1      2174 1.02744E-04-5.00839E-05-2.25706E-05-4.48028E-05-2.32849E-18 3.29284E-19
 -1      2175 4.30042E-05-4.67415E-05-1.62497E-07-3.25462E-05-1.85204E-18 1.63001E-18
 -1      2176 5.82261E-05-4.40596E-05-6.80567E-06-4.12370E-05-2.57583E-18 9.76311E-19
 -1      2177 1.96765E-05-4.24316E-05 7.99035E-06-1.71843E-05-1.93229E-18 2.51738E-18
 -1      2178 2.78491E-05-4.16795E-05 4.53541E-06-2.62721E-05-2.13791E-18 2.54364E-18
 -1      2179 1.68221E-04-3.62050E-05-5.55598E-05 2.01381E-05 5.80069E-18 2.36449E-18
 -1      2180 1.52237E-04-3.90844E-05-4.84737E-05 2.25038E-05 4.66239E-18 3.99037E-18
 -1      2181 1.50212E-04-4.97499E-05-4.24959E-05 1.66627E-05 3.45595E-18 1.06769E-18
 -1      2182 9.71910E-05-2.43146E-05-3.13055E-05-1.00049E-05-2.27561E-18 1.62779E-18
 -1      2183 1.64443E-04-2.80393E-05-5.77326E-05-2.79556E-06 2.09916E-18 8.83032E-19
 -1      2184 1.51902E-04-2.07955E-05-5.65652E-05 7.76679E-06 2.19974E-18 1.24556E-18
 -1      2185 1.52908E-04-3.05004E-05-5.22561E-05 3.38014E-06 1.02999E-18 5.06949E-19
 -1      2186 1.59839E-04-3.07183E-05-5.45312E-05 2.31958E-06 4.60617E-18 8.32633E-19
 -1      2187 9.63492E-05-2.31089E-05-3.14552E-05-1.03857E-05-2.38967E-18 5.19708E-19
 -1      2188 2.13591E-05-2.95291E-05 2.96361E-06 1.64859E-05 6.59098E-19 4.70781E-18
 -1      2189 8.57913E-05-5.32858E-05-1.40247E-05 4.53443E-05 1.63689E-18 6.74029E-18
 -1      2190 9.57877E-05-2.47479E-05-3.04153E-05-8.10977E-06 1.75544E-18-1.44374E-18
 -1      2191 1.94760E-05-3.06002E-05 3.99513E-06-1.41602E-05-2.24358E-19 3.43641E-18
 -1      2192 4.24412E-05-4.08070E-05-1.41584E-06-3.70508E-05-8.82185E-19 8.82185E-19
 -1      2193 8.19862E-05-5.26327E-05-1.26445E-05-4.55625E-05-1.25954E-18 8.27181E-21
 -1      2194 1.22823E-04-5.94310E-05-2.71996E-05-3.58843E-05-1.12994E-18 1.85627E-18
 -1      2195 1.51441E-04-5.00790E-05-4.28234E-05-2.00455E-05-2.09927E-18 3.44149E-18
 -1      2196 1.63111E-04-3.40620E-05-5.42594E-05-5.99827E-06-2.70669E-18 1.82578E-18
 -1      2197 1.64005E-04-1.90956E-05-6.10770E-05-5.11911E-07-1.59581E-18 3.32312E-18
 -1      2198 1.66721E-04-1.57249E-05-6.34236E-05-3.54511E-06-2.11758E-20 3.65092E-18
 -1      2199 1.57963E-04-4.37220E-05-4.81947E-05 4.89549E-06-1.02110E-18 2.67535E-18
 -1      2200 1.08729E-04-5.78258E-05-2.17657E-05 3.57270E-05-2.08243E-18 2.44538E-18
 -1      2201 6.76188E-05-4.79226E-05-8.82254E-06 4.00137E-05-2.33485E-18 6.03035E-19
 -1      2202 1.54677E-05-2.86676E-05 5.12532E-06 2.26168E-06-1.13444E-18-1.80249E-18
 -1      2203 1.80613E-05-2.02123E-05 1.10022E-06-5.61715E-06-4.63142E-19-1.66315E-18
 -1      2204 1.95092E-05-2.21303E-05 1.21715E-06 1.05977E-05-4.68939E-19-1.41455E-18
 -1      2205 5.69940E-05-4.20907E-05-6.49464E-06-4.15480E-05-2.72236E-18-2.11144E-18
 -1      2206 9.74011E-05-5.43257E-05-1.86906E-05-4.04941E-05-2.91083E-18 7.25272E-20
 -1      2207 1.30826E-04-5.37540E-05-3.27423E-05-2.84018E-05-2.04347E-18 4.25211E-19
 -1      2208 1.52525E-04-4.36705E-05-4.58654E-05-1.27686E-05 4.79500E-20 8.68209E-20
 -1      2209 1.63007E-04-1.64838E-05-6.16472E-05 1.23484E-06 5.37781E-18 1.96512E-19
 -1      2210 1.61996E-04-1.40867E-05-6.24300E-05 2.86788E-06 3.01628E-18 6.83979E-20
 -1      2211 3.29970E-05-3.53548E-05 3.73015E-07 2.93101E-05-8.80067E-19-5.40619E-19
 -1      2212 1.66513E-04-2.54300E-05-5.92775E-05-3.97734E-06-3.65071E-19 2.69060E-18
 -1      2213 9.52140E-05-2.63767E-05-2.94885E-05 4.19798E-06 1.83915E-18 9.84295E-19
 -1      2214 9.61891E-05-2.58622E-05-3.00666E-05 6.00304E-06 2.04770E-18 1.32387E-18
 -1      2215 8.81356E-05-1.11844E-05-3.30184E-05-3.66295E-06-4.75343E-19-2.86611E-18
 -1      2216 8.83691E-05-1.14542E-05-3.30007E-05-4.80442E-06-7.96066E-19-2.86138E-18
 -1      2217 8.87199E-05-1.19365E-05-3.29525E-05-5.82312E-06-1.01094E-18-2.79575E-18
 -1      2218 8.91251E-05-1.24070E-05-3.29247E-05-6.99446E-06-1.32179E-18-2.64479E-18
 -1      2219 8.98895E-05-1.38239E-05-3.25989E-05-4.90691E-06-8.72895E-19-2.55199E-18
 -1      2220 8.77908E-05-1.07264E-05-3.30616E-05 6.15852E-07 4.59553E-19-3.05623E-18
 -1      2221 8.77864E-05-1.07215E-05-3.30619E-05-4.95705E-07 2.03326E-19-3.09432E-18
 -1      2222 8.79716E-05-1.09511E-05-3.30432E-05 2.75904E-06 9.30942E-19-2.98113E-18
 -1      2223 8.78569E-05-1.08182E-05-3.30525E-05 1.63916E-06 6.22401E-19-3.04465E-18
 -1      2224 8.91089E-05-1.27731E-05-3.27185E-05 1.05036E-06 5.59120E-19-2.91671E-18
 -1      2225 8.84053E-05-1.14977E-05-3.29979E-05 4.88925E-06 1.32314E-18-2.78961E-18
 -1      2226 8.81661E-05-1.12212E-05-3.30160E-05 3.76567E-06 1.08466E-18-2.93472E-18
 -1      2227 8.93742E-05-1.31285E-05-3.26785E-05 3.02263E-06 9.54246E-19-2.77576E-18
 -1      2228 8.91838E-05-1.24796E-05-3.29190E-05 7.07739E-06 1.83668E-18-2.30720E-18
 -1      2229 8.87663E-05-1.19935E-05-3.29482E-05 5.90541E-06 1.51765E-18-2.57432E-18
 -1      2230 8.99308E-05-1.38760E-05-3.25940E-05 4.97771E-06 1.40154E-18-2.47988E-18
 -1      2231 9.04526E-05-1.40878E-05-3.27920E-05 9.22596E-06 2.36713E-18-1.76004E-18
 -1      2232 8.97724E-05-1.32772E-05-3.28374E-05 8.04717E-06 2.01306E-18-2.03580E-18
 -1      2233 9.08650E-05-1.51347E-05-3.24489E-05 6.87418E-06 1.86463E-18-1.90750E-18
 -1      2234 9.24500E-05-1.66593E-05-3.25822E-05 1.11102E-05 2.70252E-18-1.00111E-18
 -1      2235 9.13716E-05-1.53196E-05-3.26542E-05 1.00300E-05 2.47231E-18-1.48640E-18
 -1      2236 9.22875E-05-1.70880E-05-3.22078E-05 8.51936E-06 2.26657E-18-1.42242E-18
 -1      2237 9.42330E-05-2.71168E-05-2.87474E-05 1.76840E-06 1.56190E-18 7.47598E-19
 -1      2238 9.48340E-05-2.68933E-05-2.90461E-05 2.74100E-06 1.68555E-18 1.02127E-18
 -1      2239 9.53376E-05-2.58476E-05-2.97894E-05 4.36476E-06 1.91079E-18 2.21029E-19
 -1      2240 9.59079E-05-2.50979E-05-3.03031E-05-6.19911E-06-1.95409E-18-5.17302E-20
 -1      2241 9.52539E-05-2.58461E-05-2.97598E-05-4.28414E-06-1.75210E-18-1.56790E-19
 -1      2242 9.51304E-05-2.65359E-05-2.93425E-05-2.93976E-06-1.48225E-18-3.41402E-20
 -1      2243 9.46680E-05-2.69090E-05-2.90390E-05-1.87991E-06-1.22220E-18-1.89386E-19
 -1      2244 9.53314E-05-2.53569E-05-2.99936E-05-4.28983E-06-1.66277E-18-5.37521E-19
 -1      2245 9.44693E-05-2.72376E-05-2.87756E-05-1.03201E-06-9.25479E-19-1.88111E-19
 -1      2246 9.42110E-05-2.74505E-05-2.86093E-05-4.30486E-07-7.34243E-19-3.42147E-19
 -1      2247 9.50344E-05-2.67061E-05-2.92979E-05-1.92502E-06-1.13078E-18-6.22572E-19
 -1      2248 9.40620E-05-2.76311E-05-2.84479E-05 7.72307E-08-7.68770E-19-2.80524E-19
 -1      2249 9.39629E-05-2.77744E-05-2.83641E-05 4.06534E-07-7.86193E-19-4.08209E-19
 -1      2250 9.47244E-05-2.74268E-05-2.88549E-05-4.46936E-07-8.58259E-19-6.23534E-19
 -1      2251 9.38778E-05-2.78839E-05-2.82705E-05 6.88620E-07-7.25549E-19-4.26111E-19
 -1      2252 9.38827E-05-2.79906E-05-2.82373E-05 8.52247E-07-6.66280E-19-5.14611E-19
 -1      2253 9.45229E-05-2.78555E-05-2.85822E-05 4.22424E-07-9.05895E-19-7.81487E-19
 -1      2254 9.38508E-05-2.80625E-05-2.81884E-05 9.89093E-07-6.46141E-19-5.35460E-19
 -1      2255 9.39171E-05-2.81459E-05-2.81859E-05 1.05101E-06-4.19908E-19-4.54374E-19
 -1      2256 9.44292E-05-2.81243E-05-2.84239E-05 8.92389E-07-6.66426E-19-6.32937E-19
 -1      2257 9.39223E-05-2.81951E-05-2.81660E-05 1.09605E-06-2.86072E-19-4.36644E-19
 -1      2258 9.40204E-05-2.82612E-05-2.81812E-05 1.09667E-06-1.84757E-19-4.04711E-19
 -1      2259 9.44187E-05-2.83002E-05-2.83416E-05 1.10501E-06-4.02561E-19-5.54041E-19
 -1      2260 9.40487E-05-2.82954E-05-2.81795E-05 1.08605E-06-4.02860E-19-3.86866E-19
 -1      2261 9.41594E-05-2.83474E-05-2.82041E-05 1.05178E-06-5.41357E-19-4.38862E-19
 -1      2262 9.44629E-05-2.84170E-05-2.83087E-05 1.15643E-06-3.17150E-19-5.00566E-19
 -1      2263 9.42002E-05-2.83708E-05-2.82134E-05 1.01012E-06-3.84374E-19-4.94562E-19
 -1      2264 9.43115E-05-2.84112E-05-2.82422E-05 9.58618E-07-4.42800E-19-5.01781E-19
 -1      2265 9.45388E-05-2.84934E-05-2.83072E-05 1.11214E-06-5.65840E-19-5.67217E-19
 -1      2266 9.43577E-05-2.84265E-05-2.82578E-05 9.02765E-07-4.87503E-19-4.83900E-19
 -1      2267 9.44630E-05-2.84569E-05-2.82876E-05 8.45956E-07-2.71685E-19-4.06930E-19
 -1      2268 9.46299E-05-2.85410E-05-2.83250E-05 1.01702E-06-4.73836E-19-4.98817E-19
 -1      2269 9.45105E-05-2.84660E-05-2.83066E-05 7.87518E-07-7.76603E-20-4.10587E-19
 -1      2270 9.46070E-05-2.84883E-05-2.83358E-05 7.33568E-07 1.84438E-19-1.86682E-19
 -1      2271 9.47258E-05-2.85676E-05-2.83541E-05 9.01978E-07-1.15974E-19 2.35371E-19
 -1      2272 9.46535E-05-2.84926E-05-2.83566E-05 6.80637E-07 3.76043E-20-4.99076E-19
 -1      2273 9.47410E-05-2.85082E-05-2.83846E-05 6.35274E-07-1.95340E-19-3.90899E-19
 -1      2274 9.48204E-05-2.85784E-05-2.83898E-05 7.88490E-07 1.28821E-19-5.53325E-20
 -1      2275 9.47861E-05-2.85087E-05-2.84064E-05 5.93690E-07-4.85910E-19-4.67185E-19
 -1      2276 9.48665E-05-2.85191E-05-2.84335E-05 5.61173E-07-5.16196E-19-5.87280E-19
 -1      2277 9.49117E-05-2.85771E-05-2.84294E-05 6.91770E-07-3.96696E-19-4.33941E-19
 -1      2278 9.49109E-05-2.85165E-05-2.84564E-05 5.35471E-07-3.80587E-19-6.90254E-19
 -1      2279 9.49875E-05-2.85229E-05-2.84833E-05 5.19321E-07-3.03003E-19-6.17650E-19
 -1      2280 9.49999E-05-2.85662E-05-2.84719E-05 6.23157E-07-5.28820E-19-3.48695E-19
 -1      2281 9.50327E-05-2.85178E-05-2.85078E-05 5.13456E-07-5.35038E-19-6.99662E-19
 -1      2282 9.51101E-05-2.85216E-05-2.85359E-05 5.17009E-07-4.58422E-19-7.56188E-19
 -1      2283 9.50876E-05-2.85475E-05-2.85176E-05 5.91898E-07-6.48827E-19-5.15425E-19
 -1      2284 9.51586E-05-2.85143E-05-2.85630E-05 5.34916E-07-2.70190E-19-1.35931E-18
 -1      2285 9.52425E-05-2.85166E-05-2.85940E-05 5.61763E-07-2.46371E-19-1.40323E-18
 -1      2286 9.51790E-05-2.85218E-05-2.85681E-05 6.06521E-07-8.45947E-19-9.96608E-19
 -1      2287 9.52974E-05-2.85074E-05-2.86251E-05 6.07781E-07-5.44313E-19-1.82139E-18
 -1      2288 9.53947E-05-2.85097E-05-2.86613E-05 6.62098E-07-7.42272E-19-1.82034E-18
 -1      2289 9.52794E-05-2.84896E-05-2.86252E-05 6.75882E-07-6.73811E-19-1.88127E-18
 -1      2290 9.54595E-05-2.84988E-05-2.86981E-05 7.41284E-07-3.03614E-19-1.46735E-18
 -1      2291 9.55783E-05-2.85025E-05-2.87420E-05 8.28068E-07-4.74364E-20-1.50976E-18
 -1      2292 9.53956E-05-2.84508E-05-2.86920E-05 8.09941E-07-4.55982E-19-1.87428E-18
 -1      2293 9.56573E-05-2.84900E-05-2.87865E-05 9.46392E-07 1.90818E-19-1.21349E-18
 -1      2294 9.58070E-05-2.84969E-05-2.88410E-05 1.07158E-06 8.71279E-19-1.49520E-18
 -1      2295 9.55353E-05-2.84054E-05-2.87718E-05 1.02029E-06 3.55207E-19-8.22624E-19
 -1      2296 9.59048E-05-2.84832E-05-2.88954E-05 1.23597E-06 1.19853E-18-1.57034E-18
 -1      2297 9.60965E-05-2.84958E-05-2.89638E-05 1.40641E-06 1.11789E-18-1.40343E-18
 -1      2298 9.57075E-05-2.83534E-05-2.88683E-05 1.32037E-06 9.71973E-19-1.28814E-18
 -1      2299 9.62182E-05-2.84815E-05-2.90304E-05 1.62461E-06 6.19338E-19-1.39627E-18
 -1      2300 9.64641E-05-2.85030E-05-2.91163E-05 1.84773E-06 2.85209E-19-1.09822E-18
 -1      2301 9.59219E-05-2.82954E-05-2.89855E-05 1.72536E-06 8.69819E-19-1.77985E-18
 -1      2302 9.66153E-05-2.84896E-05-2.91972E-05 2.12777E-06 5.01102E-19-7.43992E-19
 -1      2303 9.69294E-05-2.85245E-05-2.93044E-05 2.41086E-06 4.65342E-19-7.82487E-19
 -1      2304 9.61895E-05-2.82335E-05-2.91271E-05 2.25144E-06 7.19944E-19-1.29249E-18
 -1      2305 9.71163E-05-2.85148E-05-2.94011E-05 2.76010E-06-9.21479E-21-1.08225E-18
 -1      2306 9.75137E-05-2.85702E-05-2.95331E-05 3.10876E-06 4.05833E-19-9.24841E-19
 -1      2307 9.65222E-05-2.81726E-05-2.92961E-05 2.91420E-06 1.18085E-19-1.24881E-18
 -1      2308 9.77438E-05-2.85702E-05-2.96465E-05 3.53193E-06 9.62466E-19-8.85780E-19
 -1      2309 9.82407E-05-2.86566E-05-2.98057E-05 3.94731E-06 7.01345E-19-2.30594E-19
 -1      2310 9.69342E-05-2.81235E-05-2.94939E-05 3.72564E-06 3.60055E-19-9.24572E-19
 -1      2311 9.85243E-05-2.86778E-05-2.99348E-05 4.44327E-06 1.15044E-19-6.29786E-19
 -1      2312 9.91376E-05-2.88126E-05-3.01221E-05 4.91717E-06-3.27937E-19 7.09212E-20
 -1      2313 9.74435E-05-2.81080E-05-2.97192E-05 4.68890E-06 5.63570E-19-9.70437E-19
 -1      2314 9.94911E-05-2.88768E-05-3.02634E-05 5.47344E-06-7.58506E-19 1.82004E-19
 -1      2315 1.00238E-04-2.90879E-05-3.04761E-05 5.98035E-06-2.37659E-19 2.03653E-19
 -1      2316 9.80774E-05-2.81670E-05-2.99660E-05 5.78969E-06-3.12693E-19 1.08180E-19
 -1      2317 1.00691E-04-2.92341E-05-3.06230E-05 6.56437E-06-1.01425E-19-2.53624E-19
 -1      2318 1.01590E-04-2.95657E-05-3.08538E-05 7.04926E-06-1.22328E-19-3.26791E-19
 -1      2319 9.88813E-05-2.83750E-05-3.02228E-05 6.98249E-06-4.13515E-19 6.92682E-19
 -1      2320 1.02194E-04-2.98597E-05-3.09956E-05 7.59499E-06-1.29692E-19-1.17009E-18
 -1      2321 1.03264E-04-3.03782E-05-3.12308E-05 7.95662E-06-3.51230E-19-7.95097E-19
 -1      2322 9.99360E-05-2.88586E-05-3.04708E-05 8.16977E-06-5.57557E-19 8.97598E-20
 -1      2323 1.04111E-04-3.09209E-05-3.13551E-05 8.34512E-06-1.63413E-19-2.79859E-19
 -1      2324 1.05369E-04-3.17131E-05-3.15750E-05 8.41737E-06 3.94553E-20 6.29360E-19
 -1      2325 1.01383E-04-2.98177E-05-3.06869E-05 9.17145E-06 2.06429E-19 8.97616E-19
 -1      2326 1.06598E-04-3.26368E-05-3.16735E-05 8.45150E-06-9.39677E-21 7.84467E-19
 -1      2327 1.08045E-04-3.37850E-05-3.18570E-05 7.99310E-06 4.50602E-19 1.53679E-18
 -1      2328 1.03450E-04-3.15309E-05-3.08517E-05 9.68321E-06 3.48022E-19 1.31728E-18
 -1      2329 1.09829E-04-3.52089E-05-3.19394E-05 7.37237E-06 3.36436E-19 1.17682E-18
 -1      2330 1.11403E-04-3.67065E-05-3.20767E-05 6.08967E-06-2.10597E-19 8.91845E-19
 -1      2331 1.06455E-04-3.42999E-05-3.09722E-05 9.22680E-06 8.47016E-20 1.26351E-18
 -1      2332 1.13852E-04-3.85988E-05-3.21950E-05 4.41623E-06-1.45915E-19 6.11326E-19
 -1      2333 1.15328E-04-4.01657E-05-3.23101E-05 2.07427E-06 4.93608E-19 4.19999E-19
 -1      2334 1.10700E-04-3.82398E-05-3.11243E-05 7.11514E-06-3.32302E-19 1.17476E-18
 -1      2335 1.18229E-04-4.20735E-05-3.25884E-05-9.95054E-07 1.82764E-19 1.40545E-19
 -1      2336 1.19107E-04-4.29294E-05-3.27594E-05-4.29773E-06-4.82451E-19-1.73031E-19
 -1      2337 1.16127E-04-4.27643E-05-3.15138E-05 2.55035E-06-1.50332E-19 9.77574E-19
 -1      2338 1.21577E-04-4.36940E-05-3.33927E-05-8.59885E-06-1.01040E-18 5.03045E-19
 -1      2339 1.21127E-04-4.25837E-05-3.37403E-05-1.19740E-05-5.20316E-19 1.07386E-18
 -1      2340 1.21702E-04-4.59317E-05-3.25163E-05-4.85895E-06-4.33084E-19 1.39662E-18
 -1      2341 1.21581E-04-4.05752E-05-3.48835E-05-1.59393E-05-9.72960E-19-7.08067E-21
 -1      2342 1.19535E-04-3.67538E-05-3.54430E-05-1.73868E-05-1.73311E-18-8.76534E-19
 -1      2343 1.24824E-04-4.43468E-05-3.45788E-05-1.39213E-05-1.48442E-18 1.44213E-18
 -1      2344 1.17361E-04-3.21444E-05-3.68596E-05-1.78594E-05-7.36641E-19-1.38059E-18
 -1      2345 1.14550E-04-2.71458E-05-3.74543E-05-1.56583E-05 6.34745E-20-1.21725E-18
 -1      2346 1.23139E-04-3.56469E-05-3.76184E-05-1.99138E-05-1.68202E-18-4.09143E-19
 -1      2347 1.11914E-04-2.27863E-05-3.84533E-05-1.07224E-05-1.72689E-19-1.97106E-18
 -1      2348 1.10465E-04-2.07090E-05-3.86226E-05-5.09747E-06-6.03776E-19-1.83179E-18
 -1      2349 1.18303E-04-2.40533E-05-4.05741E-05-1.48964E-05-8.12199E-19-1.13820E-20
 -1      2350 1.10605E-04-2.11326E-05-3.84476E-05 2.36393E-06-2.39446E-19-2.10036E-18
 -1      2351 1.11767E-04-2.38382E-05-3.79894E-05 7.62102E-06-7.46660E-19-1.77467E-18
 -1      2352 1.15184E-04-1.87747E-05-4.16671E-05-1.48273E-06-4.49033E-19-1.26643E-18
 -1      2353 1.14259E-04-2.85470E-05-3.67170E-05 1.16627E-05-8.15137E-19-5.38673E-19
 -1      2354 1.16500E-04-3.33457E-05-3.59241E-05 1.31606E-05-2.29387E-19-1.98444E-19
 -1      2355 1.18244E-04-2.56159E-05-3.99181E-05 1.08435E-05 1.70360E-19-9.48412E-19
 -1      2356 1.17950E-04-3.76956E-05-3.43931E-05 1.18711E-05-7.05909E-19 2.55748E-20
 -1      2357 1.19178E-04-4.08994E-05-3.36841E-05 9.75042E-06-2.42448E-19-2.81901E-19
 -1      2358 1.22546E-04-3.73035E-05-3.65663E-05 1.30748E-05-3.53504E-19-2.12023E-20
 -1      2359 1.17919E-04-4.21297E-05-3.25498E-05 5.57423E-06 1.04805E-18-6.04263E-19
 -1      2360 1.17433E-04-4.25738E-05-3.20870E-05 2.07201E-06 1.50712E-18-9.31121E-19
 -1      2361 1.22688E-04-4.46062E-05-3.34676E-05 6.51497E-06-4.34157E-19-5.88622E-19
 -1      2362 1.14517E-04-4.13168E-05-3.14692E-05-1.99387E-06 3.43392E-19-1.76449E-18
 -1      2363 1.12855E-04-3.99470E-05-3.11906E-05-5.08134E-06 6.67512E-19-1.69150E-18
 -1      2364 1.18218E-04-4.47489E-05-3.15157E-05-2.19354E-06 4.15233E-19-1.57930E-18
 -1      2365 1.09662E-04-3.76800E-05-3.09343E-05-7.71209E-06 1.33175E-18-2.45141E-18
 -1      2366 1.07533E-04-3.56460E-05-3.07418E-05-9.56942E-06 8.90897E-19-2.15729E-18
 -1      2367 1.11885E-04-4.05809E-05-3.06167E-05-8.87572E-06 1.56592E-19-1.39253E-18
 -1      2368 1.04787E-04-3.33400E-05-3.06758E-05-1.05974E-05-2.84259E-19-2.73819E-18
 -1      2369 1.02677E-04-3.13342E-05-3.05252E-05-1.10593E-05-1.23157E-18-2.25800E-18
 -1      2370 1.05854E-04-3.51397E-05-3.03578E-05-1.23216E-05 8.52161E-21-3.83048E-18
 -1      2371 5.78305E-05-3.84701E-05-8.24184E-06 4.38339E-05 1.42429E-18 8.27297E-18
 -1      2372 4.42492E-05-3.21066E-05-4.77600E-06 3.56554E-05 3.27802E-19 6.86139E-18
 -1      2373 9.33361E-05-2.76907E-05-2.81264E-05-4.06032E-07 6.44307E-19-1.41975E-20
 -1      2374 9.34148E-05-2.75858E-05-2.81880E-05-1.20648E-07 8.69084E-19 3.08566E-19
 -1      2375 9.32837E-05-2.78549E-05-2.80362E-05-8.12031E-07 5.41264E-19-4.17528E-19
 -1      2376 9.32393E-05-2.77640E-05-2.80478E-05-6.72983E-07 5.99445E-19-1.96147E-19
 -1      2377 9.40080E-05-2.78078E-05-2.83827E-05-4.38609E-07 8.81445E-19-4.20695E-19
 -1      2378 9.33763E-05-2.79901E-05-2.80195E-05-9.87722E-07 7.19592E-19-5.05839E-19
 -1      2379 9.32642E-05-2.79096E-05-2.80027E-05-9.36880E-07 5.45838E-19-5.16964E-19
 -1      2380 9.39204E-05-2.80170E-05-2.82524E-05-8.85833E-07 6.35885E-19-7.51207E-19
 -1      2381 9.35496E-05-2.81044E-05-2.80460E-05-1.02306E-06 6.62884E-19-4.49788E-19
 -1      2382 9.34058E-05-2.80340E-05-2.80140E-05-1.02486E-06 7.04906E-19-3.41491E-19
 -1      2383 9.39482E-05-2.81656E-05-2.81979E-05-1.08241E-06 5.86513E-19-9.91239E-19
 -1      2384 9.37598E-05-2.82005E-05-2.80956E-05-9.76253E-07-1.12795E-19-2.18243E-19
 -1      2385 9.36070E-05-2.81403E-05-2.80569E-05-1.00785E-06 4.08870E-19-2.26253E-19
 -1      2386 9.40459E-05-2.82755E-05-2.81907E-05-1.12451E-06 4.33400E-19-5.21117E-19
 -1      2387 9.39789E-05-2.82800E-05-2.81559E-05-8.85940E-07 2.58648E-19-4.49848E-19
 -1      2388 9.38305E-05-2.82296E-05-2.81157E-05-9.32231E-07-9.21837E-20-3.91440E-19
 -1      2389 9.41800E-05-2.83575E-05-2.82116E-05-1.07582E-06 1.32795E-19-5.43661E-19
 -1      2390 9.41902E-05-2.83442E-05-2.82193E-05-7.78098E-07 2.16837E-19-6.17451E-19
 -1      2391 9.40534E-05-2.83031E-05-2.81804E-05-8.28961E-07 4.42436E-19-4.57736E-19
 -1      2392 9.43280E-05-2.84180E-05-2.82482E-05-9.79202E-07 3.85106E-19-1.01196E-18
 -1      2393 9.43857E-05-2.83950E-05-2.82814E-05-6.70354E-07 7.34058E-19-6.46622E-19
 -1      2394 9.42632E-05-2.83622E-05-2.82453E-05-7.18919E-07 3.36910E-19-4.82758E-19
 -1      2395 9.44762E-05-2.84613E-05-2.82926E-05-8.63789E-07 3.83606E-19-9.87633E-19
 -1      2396 9.45632E-05-2.84343E-05-2.83405E-05-5.74851E-07 6.70464E-19-8.45101E-20
 -1      2397 9.44547E-05-2.84085E-05-2.83075E-05-6.16355E-07 7.63489E-19-1.81887E-19
 -1      2398 9.46174E-05-2.84909E-05-2.83401E-05-7.49545E-07 6.11299E-19-5.86186E-19
 -1      2399 9.47248E-05-2.84645E-05-2.83966E-05-5.00254E-07 1.07962E-19 1.94594E-19
 -1      2400 9.46278E-05-2.84443E-05-2.83661E-05-5.31232E-07 5.17904E-19 1.68355E-19
 -1      2401 9.47491E-05-2.85095E-05-2.83885E-05-6.50400E-07 3.05110E-19-4.50816E-19
 -1      2402 9.48758E-05-2.84878E-05-2.84510E-05-4.53225E-07 8.67953E-20-1.40614E-19
 -1      2403 9.47862E-05-2.84717E-05-2.84220E-05-4.70912E-07-9.54450E-20 2.57255E-20
 -1      2404 9.48724E-05-2.85195E-05-2.84371E-05-5.76483E-07 1.62602E-19-2.27862E-19
 -1      2405 9.50241E-05-2.85068E-05-2.85058E-05-4.39494E-07 3.50583E-19-3.73180E-19
 -1      2406 9.49364E-05-2.84930E-05-2.84769E-05-4.41391E-07 4.79451E-19-1.53361E-19
 -1      2407 9.49912E-05-2.85228E-05-2.84868E-05-5.35744E-07 2.09596E-19-2.31691E-19
 -1      2408 9.51795E-05-2.85243E-05-2.85643E-05-4.64639E-07 4.24198E-20-5.40794E-19
 -1      2409 9.50873E-05-2.85110E-05-2.85334E-05-4.48201E-07 4.91188E-20-2.82182E-19
 -1      2410 9.51111E-05-2.85215E-05-2.85391E-05-5.35157E-07 2.24529E-19-6.32657E-19
 -1      2411 9.53543E-05-2.85433E-05-2.86302E-05-5.34570E-07 2.69310E-20-6.01929E-19
 -1      2412 9.52497E-05-2.85285E-05-2.85951E-05-4.97025E-07 2.22008E-19-4.69082E-19
 -1      2413 9.52400E-05-2.85173E-05-2.85965E-05-5.81546E-07 2.09122E-22-9.32336E-19
 -1      2414 9.55622E-05-2.85676E-05-2.87080E-05-6.55727E-07 1.25977E-20-5.02137E-19
 -1      2415 9.54365E-05-2.85487E-05-2.86660E-05-5.94028E-07-7.80107E-20-5.64221E-19
 -1      2416 9.53872E-05-2.85124E-05-2.86621E-05-6.82075E-07-1.27820E-19-3.52741E-19
 -1      2417 9.58194E-05-2.86017E-05-2.88025E-05-8.34924E-07-7.13119E-20-1.24261E-18
 -1      2418 9.56625E-05-2.85758E-05-2.87508E-05-7.45872E-07 2.86800E-19-9.77229E-19
 -1      2419 9.55636E-05-2.85096E-05-2.87394E-05-8.44383E-07 2.90433E-19-6.03744E-19
 -1      2420 9.61438E-05-2.86513E-05-2.89190E-05-1.07873E-06 1.29603E-18-1.79712E-18
 -1      2421 9.59444E-05-2.86147E-05-2.88546E-05-9.59330E-07 1.94377E-19-2.00431E-18
 -1      2422 9.57819E-05-2.85125E-05-2.88322E-05-1.07627E-06 4.47996E-19-1.90721E-18
 -1      2423 9.65549E-05-2.87239E-05-2.90628E-05-1.39219E-06 1.01045E-18-8.23913E-19
 -1      2424 9.63012E-05-2.86720E-05-2.89824E-05-1.24036E-06 1.42678E-18-9.23196E-19
 -1      2425 9.60565E-05-2.85265E-05-2.89445E-05-1.38482E-06 7.04764E-19-1.68941E-18
 -1      2426 9.70735E-05-2.88294E-05-2.92387E-05-1.77669E-06-2.21452E-19-2.87668E-19
 -1      2427 9.67530E-05-2.87563E-05-2.91395E-05-1.59239E-06 6.08595E-19-4.55440E-19
 -1      2428 9.64035E-05-2.85594E-05-2.90798E-05-1.77472E-06 4.71767E-19-2.15108E-20
 -1      2429 9.77202E-05-2.89805E-05-2.94504E-05-2.22646E-06-2.96615E-19-7.72284E-19
 -1      2430 9.73213E-05-2.88789E-05-2.93301E-05-2.01357E-06-6.08710E-19-3.40952E-19
 -1      2431 9.68410E-05-2.86228E-05-2.92407E-05-2.24554E-06-1.58739E-19-3.97408E-19
 -1      2432 9.85143E-05-2.91945E-05-2.96991E-05-2.72345E-06 3.29177E-19-1.49361E-18
 -1      2433 9.80276E-05-2.90553E-05-2.95568E-05-2.49248E-06 1.66892E-19-1.19567E-18
 -1      2434 9.73885E-05-2.87337E-05-2.94284E-05-2.78747E-06 2.02267E-19-9.51330E-19
 -1      2435 9.94709E-05-2.94938E-05-2.99822E-05-3.23012E-06 1.42213E-19-7.02980E-19
 -1      2436 9.88917E-05-2.93058E-05-2.98193E-05-3.00198E-06-4.25924E-20-1.10848E-18
 -1      2437 9.80676E-05-2.89170E-05-2.96415E-05-3.37519E-06-1.62577E-19-1.20302E-18
 -1      2438 1.00597E-04-2.99067E-05-3.02914E-05-3.68012E-06-4.61230E-19 5.55609E-20
 -1      2439 9.99292E-05-2.96572E-05-3.01129E-05-3.49083E-06 2.52049E-19-3.89047E-19
 -1      2440 9.89018E-05-2.92077E-05-2.98750E-05-3.95957E-06-5.48768E-20-8.90896E-19
 -1      2441 1.01887E-04-3.04659E-05-3.06110E-05-3.96774E-06-1.70952E-19-5.86421E-19
 -1      2442 1.01148E-04-3.01424E-05-3.04267E-05-3.87344E-06-3.70756E-19-3.16641E-19
 -1      2443 9.99161E-05-2.96527E-05-3.01196E-05-4.45716E-06-2.75275E-19-1.01151E-18
 -1      2444 1.03314E-04-3.12023E-05-3.09168E-05-3.93960E-06-7.33998E-19 4.84007E-19
 -1      2445 1.02540E-04-3.07973E-05-3.07422E-05-4.01948E-06-7.18815E-19-2.81937E-19
 -1      2446 1.01135E-04-3.03094E-05-3.03614E-05-4.73884E-06-8.25537E-19-9.24484E-19
 -1      2447 1.04815E-04-3.21273E-05-3.11772E-05-3.39598E-06 3.31286E-20-3.31235E-19
 -1      2448 1.04072E-04-3.16491E-05-3.10333E-05-3.74855E-06 1.01832E-19 4.90056E-19
 -1      2449 1.02577E-04-3.12347E-05-3.05833E-05-4.62155E-06-6.99739E-19-5.83118E-19
 -1      2450 1.06272E-04-3.31976E-05-3.13582E-05-2.11641E-06-1.04498E-18-1.29166E-19
 -1      2451 1.05664E-04-3.26899E-05-3.12694E-05-2.84089E-06-7.97589E-19-5.35006E-19
 -1      2452 1.04233E-04-3.24558E-05-3.07697E-05-3.87195E-06-2.51790E-19-8.14230E-19
 -1      2453 1.07479E-04-3.42584E-05-3.14340E-05 6.82407E-08-1.04605E-18 5.43231E-19
 -1      2454 1.07153E-04-3.38274E-05-3.14218E-05-1.08381E-06-8.93365E-19 3.82023E-19
 -1      2455 1.06034E-04-3.39118E-05-3.09144E-05-2.23954E-06-7.82015E-19-1.06739E-18
 -1      2456 1.08119E-04-3.49814E-05-3.14020E-05 3.13630E-06 1.07031E-19 5.55328E-19
 -1      2457 1.08256E-04-3.48172E-05-3.14762E-05 1.62001E-06-6.40221E-19 5.07819E-19
 -1      2458 1.07777E-04-3.53634E-05-3.10316E-05 4.52787E-07-8.65016E-19-2.23903E-20
 -1      2459 1.07783E-04-3.48585E-05-3.12935E-05 6.67877E-06 7.97617E-19 8.39807E-19
 -1      2460 1.08550E-04-3.52159E-05-3.14433E-05 5.06992E-06 5.38448E-19 6.61259E-19
 -1      2461 1.09069E-04-3.63116E-05-3.11635E-05 4.13453E-06 2.09515E-19-3.13940E-20
 -1      2462 1.06114E-04-3.33819E-05-3.11707E-05 9.71191E-06 1.02064E-18 9.76804E-19
 -1      2463 1.07550E-04-3.44425E-05-3.13627E-05 8.54015E-06 8.73625E-19 1.53537E-18
 -1      2464 1.09305E-04-3.60077E-05-3.13727E-05 8.23390E-06 3.63837E-19 2.21789E-19
 -1      2465 1.03181E-04-3.05221E-05-3.10930E-05 1.08287E-05 1.13818E-18 1.10871E-18
 -1      2466 1.05053E-04-3.21622E-05-3.12837E-05 1.07244E-05 1.38569E-18 8.71362E-19
 -1      2467 1.07944E-04-3.38461E-05-3.17050E-05 1.14562E-05 1.23735E-18 6.96422E-19
 -1      2468 9.97917E-05-2.71459E-05-3.10684E-05 8.87385E-06 7.50359E-19-2.58563E-19
 -1      2469 1.01552E-04-2.87921E-05-3.12250E-05 1.02091E-05 1.08382E-18 1.13523E-18
 -1      2470 1.05062E-04-3.00370E-05-3.21307E-05 1.20822E-05 1.32879E-18 1.08870E-18
 -1      2471 9.74085E-05-2.49293E-05-3.10242E-05 3.98732E-06 6.77666E-19 1.09520E-19
 -1      2472 9.83955E-05-2.57497E-05-3.11443E-05 6.44228E-06 1.21678E-18 3.19841E-19
 -1      2473 1.01791E-04-2.60401E-05-3.25017E-05 8.93430E-06 8.11458E-19 1.78706E-18
 -1      2474 9.72194E-05-2.51806E-05-3.08775E-05-1.87524E-06 4.77316E-20 3.47416E-22
 -1      2475 9.70992E-05-2.47491E-05-3.09596E-05 6.73499E-07-2.55354E-19-3.54127E-19
 -1      2476 9.99489E-05-2.40459E-05-3.25884E-05 2.71517E-06 5.55865E-19 1.47547E-18
 -1      2477 9.90689E-05-2.76655E-05-3.06434E-05-6.09944E-06-5.20396E-20 3.23206E-19
 -1      2478 9.80721E-05-2.63019E-05-3.06811E-05-4.54871E-06 6.34534E-19-2.51562E-20
 -1      2479 1.00557E-04-2.52904E-05-3.22893E-05-3.75339E-06 4.18067E-19 2.30441E-19
 -1      2480 1.01552E-04-3.07735E-05-3.03816E-05-7.15852E-06-6.98729E-19 9.85377E-19
 -1      2481 1.00314E-04-2.92925E-05-3.03802E-05-7.03649E-06-5.18988E-19 5.77868E-19
 -1      2482 1.02874E-04-2.88632E-05-3.17032E-05-7.52271E-06-5.25064E-19 1.63810E-18
 -1      2483 1.03214E-04-3.29293E-05-3.01527E-05-5.35534E-06-2.84474E-19 6.60911E-19
 -1      2484 1.02330E-04-3.19934E-05-3.01341E-05-6.35906E-06-1.78118E-19 9.98569E-19
 -1      2485 1.05106E-04-3.25851E-05-3.10361E-05-7.48677E-06-5.56714E-19 7.98906E-19
 -1      2486 1.03387E-04-3.34752E-05-2.99684E-05-2.14142E-06 1.26667E-18 1.86987E-18
 -1      2487 1.03137E-04-3.32937E-05-2.99653E-05-3.59375E-06 1.16001E-19 1.08292E-18
 -1      2488 1.05902E-04-3.47145E-05-3.04701E-05-4.61840E-06-1.60284E-19 6.10651E-19
 -1      2489 1.02230E-04-3.26518E-05-2.98067E-05 9.62399E-07 1.91072E-19 2.57232E-18
 -1      2490 1.02582E-04-3.30738E-05-2.98419E-05-3.17984E-07 1.02926E-18 2.75885E-18
 -1      2491 1.05001E-04-3.47784E-05-3.00784E-05-7.87850E-07 2.64024E-19 2.57904E-18
 -1      2492 1.00277E-04-3.10382E-05-2.96456E-05 2.97876E-06 5.41449E-19 1.32446E-18
 -1      2493 1.01028E-04-3.18024E-05-2.97203E-05 2.24430E-06 3.06768E-19 2.11789E-18
 -1      2494 1.02910E-04-3.32838E-05-2.98400E-05 2.43040E-06 7.40843E-19 2.99393E-18
 -1      2495 9.80480E-05-2.92109E-05-2.94750E-05 3.47881E-06-9.62611E-20 1.71016E-18
 -1      2496 9.89491E-05-3.00235E-05-2.95761E-05 3.43509E-06-1.03522E-19 1.32366E-18
 -1      2497 1.00284E-04-3.09705E-05-2.97001E-05 4.19807E-06 2.03618E-19 1.74601E-18
 -1      2498 9.68556E-05-2.82986E-05-2.93880E-05 3.09587E-06 1.86566E-19 9.71785E-19
 -1      2499 9.42156E-05-2.21390E-05-3.09209E-05 1.39504E-05-1.13196E-18-1.04745E-19
 -1      2500 9.56961E-05-2.40469E-05-3.06635E-05 1.32479E-05-1.21212E-18-2.03405E-18
 -1      2501 9.04454E-05-1.80004E-05-3.11295E-05 1.38846E-05-1.35653E-18-1.01052E-18
 -1      2502 9.24300E-05-2.01421E-05-3.09259E-05 1.43537E-05-1.36176E-18-1.43483E-19
 -1      2503 9.42290E-05-2.39605E-05-3.01478E-05 1.60439E-05-7.89307E-19-3.32845E-20
 -1      2504 9.77851E-05-2.72485E-05-3.01893E-05 8.72340E-06-1.60838E-19 1.41546E-18
 -1      2505 9.80254E-05-2.81807E-05-2.99307E-05 7.23574E-06 3.52619E-19 1.17333E-18
 -1      2506 9.67019E-05-2.52955E-05-3.05883E-05 1.17969E-05-1.37718E-18-2.13493E-18
 -1      2507 9.74788E-05-2.66812E-05-3.03172E-05 1.04859E-05-9.85128E-19 1.14224E-18
 -1      2508 9.91761E-05-2.90809E-05-3.00694E-05 1.05031E-05 2.32264E-20 4.92977E-19
 -1      2509 9.76698E-05-2.72954E-05-3.01891E-05 1.39479E-05-1.63190E-18-1.06223E-18
 -1      2510 8.63238E-05-1.37725E-05-3.12023E-05 1.06457E-05-9.70840E-19-8.21195E-19
 -1      2511 8.82499E-05-1.56400E-05-3.10744E-05 1.25885E-05-7.79838E-19-1.70357E-18
 -1      2512 8.93486E-05-1.94369E-05-2.99656E-05 1.52501E-05-1.38262E-18-9.14305E-19
 -1      2513 8.34245E-05-1.08708E-05-3.11858E-05 4.36390E-06-2.51682E-18-6.41502E-19
 -1      2514 8.45312E-05-1.18744E-05-3.11349E-05 7.52189E-06-2.67999E-18 2.41835E-19
 -1      2515 8.44712E-05-1.49827E-05-2.97249E-05 1.06035E-05-2.13142E-18-1.49102E-18
 -1      2516 8.31146E-05-1.05374E-05-3.11434E-05-3.38973E-06-2.82538E-18 3.74997E-19
 -1      2517 8.28890E-05-1.03020E-05-3.11630E-05 1.30001E-07-2.53931E-18 2.72718E-19
 -1      2518 8.16154E-05-1.23892E-05-2.95704E-05 2.67704E-06-2.86292E-18-6.56556E-19
 -1      2519 8.54921E-05-1.28938E-05-3.10955E-05-1.01339E-05-9.20574E-19 2.30409E-18
 -1      2520 8.40784E-05-1.15422E-05-3.11841E-05-7.33030E-06-1.64502E-18 1.82010E-18
 -1      2521 8.21548E-05-1.28653E-05-2.96056E-05-6.16413E-06-2.00203E-18 1.13471E-18
 -1      2522 8.95034E-05-1.70258E-05-3.10117E-05-1.42354E-05 2.96652E-19 3.22066E-18
 -1      2523 8.74794E-05-1.49757E-05-3.11722E-05-1.27353E-05-1.04375E-19 2.00174E-18
 -1      2524 8.57506E-05-1.61047E-05-2.98136E-05-1.31708E-05-1.22923E-18 2.47188E-18
 -1      2525 9.35523E-05-2.14428E-05-3.08566E-05-1.50510E-05 1.12498E-18 1.38833E-18
 -1      2526 9.16219E-05-1.92650E-05-3.10729E-05-1.49781E-05 3.67187E-19 3.43301E-18
 -1      2527 9.07867E-05-2.06272E-05-3.00864E-05-1.66076E-05-7.34392E-19 2.29219E-18
 -1      2528 9.65782E-05-2.49848E-05-3.06339E-05-1.32618E-05-3.49794E-20-2.12815E-18
 -1      2529 9.51439E-05-2.31137E-05-3.08750E-05-1.42352E-05 4.09575E-19-1.17725E-18
 -1      2530 9.54083E-05-2.47204E-05-3.02960E-05-1.64031E-05 5.46818E-19-6.30792E-19
 -1      2531 9.72236E-05-2.60415E-05-3.05262E-05-9.61887E-06 1.22384E-18-9.16562E-19
 -1      2532 2.14661E-05-2.16874E-05 3.10569E-07-9.24737E-06 1.11115E-18 3.76167E-18
 -1      2533 2.82592E-05-2.66308E-05-5.63069E-07-2.44839E-05-2.83756E-20 2.76344E-18
 -1      2534 9.36201E-05-2.74714E-05-2.83379E-05 3.73919E-07 1.10420E-18 4.26810E-19
 -1      2535 9.39032E-05-2.73357E-05-2.84851E-05 9.07360E-07 1.32635E-18 6.58866E-19
 -1      2536 9.42649E-05-2.74889E-05-2.86320E-05 4.08198E-07 1.19310E-18-6.43431E-20
 -1      2537 1.03164E-04-5.75348E-05-1.96994E-05 4.43343E-05 3.11073E-19 4.66916E-18
 -1      2538 8.00010E-05-4.95129E-05-1.27067E-05 4.51967E-05 8.68421E-19 5.09183E-18
 -1      2539 1.35007E-04-6.16724E-05-3.17427E-05 2.69022E-05 9.58735E-19-1.78544E-18
 -1      2540 1.22407E-04-6.18491E-05-2.57688E-05 3.31354E-05 2.46063E-19 9.12678E-19
 -1      2541 9.50669E-05-2.00213E-05-3.22116E-05-1.17723E-05-2.44208E-18-3.29787E-19
 -1      2542 9.54715E-05-2.33575E-05-3.09262E-05-7.96884E-06-2.23961E-18-1.72478E-19
 -1      2543 9.50466E-05-2.25723E-05-3.10493E-05-7.61395E-06-2.06488E-18-7.66707E-19
 -1      2544 9.32344E-05-1.77030E-05-3.23971E-05-1.13115E-05-2.33803E-18-1.00092E-18
 -1      2545 4.05987E-05-3.31935E-05-2.99263E-06-3.42790E-05 4.55280E-19 1.20533E-18
 -1      2546 5.60790E-05-3.95111E-05-7.03642E-06-4.30797E-05 4.34104E-19 1.40819E-18
 -1      2547 1.20578E-04-6.13971E-05-2.56474E-05 2.95650E-05-1.99180E-18 2.56217E-18
 -1      2548 1.02435E-04-5.77081E-05-1.91033E-05 3.53649E-05-1.98629E-18 2.16920E-18
 -1      2549 5.18070E-05-3.52185E-05-6.73996E-06-3.82048E-05-2.36005E-18-2.20906E-18
 -1      2550 7.12203E-05-4.32698E-05-1.18504E-05-4.31607E-05-2.27640E-18-1.37293E-18
 -1      2551 8.78427E-05-1.08009E-05-3.30536E-05-1.51909E-06 3.19090E-20-3.08950E-18
 -1      2552 8.79478E-05-1.09228E-05-3.30449E-05-2.63828E-06-2.12230E-19-2.98655E-18
 -1      2553 8.93471E-05-1.30956E-05-3.26813E-05-2.93168E-06-3.28815E-19-2.65597E-18
 -1      2554 8.90990E-05-1.27610E-05-3.27196E-05-9.41442E-07 6.64722E-20-2.90604E-18
 -1      2555 1.45435E-04-1.25633E-05-5.75467E-05 5.97663E-06 2.30732E-18 2.36047E-18
 -1      2556 1.45868E-04-9.96590E-06-5.86914E-05 2.82157E-06 3.44827E-18 2.41152E-18
 -1      2557 4.49624E-05-3.38176E-05-4.65222E-06 3.57665E-05-8.02352E-19-9.30254E-19
 -1      2558 3.13192E-05-2.72108E-05-1.44533E-06 2.55612E-05-4.15893E-19-8.36445E-19
 -1      2559 1.49748E-04-2.56816E-05-5.36555E-05-4.25775E-06 3.60201E-18-3.76506E-19
 -1      2560 1.47758E-04-3.40074E-05-4.90428E-05-3.91947E-06 3.04508E-18-1.46431E-18
 -1      2561 1.46136E-04-1.20883E-05-5.80034E-05-1.75557E-06 4.68197E-18 1.04921E-18
 -1      2562 1.47286E-04-1.74061E-05-5.61902E-05-3.94670E-06 5.18469E-18 6.35910E-19
 -1      2563 1.38428E-04-2.05444E-05-5.07493E-05-8.62067E-06 3.20517E-18-2.54110E-19
 -1      2564 1.44861E-04-4.98024E-05-4.09189E-05-8.53967E-06-1.19625E-18 7.62541E-19
 -1      2565 1.50309E-04-4.24760E-05-4.66205E-05-1.51350E-06-4.55810E-19 2.98579E-19
 -1      2566 1.26696E-04-5.86767E-05-2.91863E-05-2.56484E-05-2.76588E-18 6.47768E-19
 -1      2567 1.38721E-04-5.65325E-05-3.54818E-05-1.91050E-05-2.43480E-18-7.62330E-20
 -1      2568 9.41698E-05-5.35363E-05-1.72055E-05-4.06806E-05-2.42527E-18 3.48051E-19
 -1      2569 1.12651E-04-5.77632E-05-2.35240E-05-3.63839E-05-2.54046E-18 9.74617E-19
 -1      2570 1.23905E-04-6.09579E-05-2.67795E-05-2.63580E-05-2.89558E-18 9.00078E-19
 -1      2571 2.55168E-05-2.23731E-05-9.76914E-07-2.06885E-05-8.57515E-19-1.12020E-18
 -1      2572 3.49796E-05-2.74259E-05-3.06629E-06-3.18498E-05-1.99116E-18-5.30454E-19
 -1      2573 1.54542E-04-2.09834E-05-5.75620E-05-9.48296E-06-3.45166E-19 2.40621E-18
 -1      2574 1.52489E-04-2.71039E-05-5.39747E-05-1.05346E-05-1.16912E-18 2.24316E-18
 -1      2575 8.54735E-05-5.13071E-05-1.45956E-05 4.13499E-05-2.46508E-18 6.20452E-19
 -1      2576 6.64122E-05-4.40608E-05-9.35947E-06 3.93567E-05-1.92742E-18 7.37977E-20
 -1      2577 1.00525E-04-5.55440E-05-1.89072E-05 3.55630E-05-1.97782E-18 2.48418E-18
 -1      2578 1.43792E-04-5.79954E-05-3.70938E-05 1.05498E-05-1.61159E-18 1.71524E-18
 -1      2579 1.35040E-04-6.15855E-05-3.16257E-05 1.67363E-05-2.15580E-18 2.41658E-18
 -1      2580 1.53684E-04-4.00946E-05-4.92486E-05-5.91336E-06-1.38691E-18 2.03330E-18
 -1      2581 1.48686E-04-4.99485E-05-4.25401E-05-4.52218E-07-1.32269E-18 1.69025E-18
 -1      2582 1.49916E-04-1.21740E-05-5.94800E-05-3.93804E-06-1.92700E-19 2.01509E-18
 -1      2583 1.52664E-04-1.52462E-05-5.92089E-05-7.21354E-06 2.35052E-19 1.93843E-18
 -1      2584 1.42784E-04-1.66290E-05-5.42058E-05-1.14731E-05-5.44642E-19 5.37760E-19
 -1      2585 1.50163E-04-1.99875E-05-5.60791E-05 4.73623E-06-9.71123E-19 1.22121E-18
 -1      2586 1.50110E-04-1.46396E-05-5.85380E-05 1.30431E-06-2.63851E-19 2.22553E-18
 -1      2587 1.54072E-04-4.11241E-05-4.85601E-05-2.29805E-07-2.48223E-18 1.29723E-18
 -1      2588 1.53046E-04-3.22058E-05-5.24624E-05 4.34949E-06-2.33908E-18 1.45563E-18
 -1      2589 1.44757E-04-5.66763E-05-3.78655E-05-1.49971E-05-6.30140E-19 2.67747E-18
 -1      2590 1.52775E-04-5.00062E-05-4.43881E-05-8.54086E-06-2.55196E-18 1.24641E-18
 -1      2591 1.49269E-04-4.76995E-05-4.34467E-05 2.96268E-06-1.48935E-18 1.74912E-19
 -1      2592 1.18730E-04-6.16665E-05-2.43222E-05-3.54999E-05-8.31151E-19 9.68582E-19
 -1      2593 1.35759E-04-6.16011E-05-3.19057E-05-2.79797E-05-5.56924E-20 3.68481E-18
 -1      2594 1.42014E-04-6.21255E-05-3.42485E-05-1.59612E-05 7.11508E-19 1.65849E-18
 -1      2595 7.46544E-05-4.85408E-05-1.10246E-05-4.47461E-05-3.35637E-19 2.29017E-19
 -1      2596 9.48371E-05-5.49461E-05-1.71945E-05-4.46535E-05-4.45539E-19-1.13420E-18
 -1      2597 7.17401E-05-4.28966E-05-1.18399E-05-4.34732E-05 8.60797E-19 6.97320E-19
 -1      2598 2.98513E-05-2.50984E-05-1.83482E-06 2.52725E-05 5.44007E-19 5.52435E-18
 -1      2599 2.21834E-05-2.13460E-05-6.77503E-09 8.59466E-06 5.28178E-19 4.71924E-18
 -1      2600 4.33776E-05-2.57626E-05-6.92225E-06 2.97313E-05 1.53948E-19 6.04527E-18
 -1      2601 9.63340E-05-2.50953E-05-3.05568E-05 7.59532E-06 2.32622E-18 1.47071E-18
 -1      2602 9.74559E-05-2.37789E-05-3.15973E-05 1.06948E-05 2.49430E-18 1.78414E-18
 -1      2603 9.58900E-05-2.13034E-05-3.20216E-05 1.18968E-05 2.68813E-18 9.04128E-19
 -1      2604 9.58783E-05-2.41614E-05-3.07690E-05 7.68703E-06 2.32833E-18 4.92681E-19
 -1      2605 1.49232E-04-4.85927E-05-4.37636E-05 4.67365E-06 2.25496E-18-2.19572E-18
 -1      2606 1.43068E-04-5.65534E-05-3.71476E-05 1.42435E-05 6.14787E-19-8.68209E-19
 -1      2607 1.40189E-04-6.08620E-05-3.38856E-05 1.43560E-05-7.23154E-20-2.79669E-18
 -1      2608 1.35059E-04-9.86076E-06-5.39671E-05-3.25186E-07 3.35150E-18 3.47601E-18
 -1      2609 9.07963E-05-1.50471E-05-3.24585E-05-6.80657E-06-1.38178E-18-2.35129E-18
 -1      2610 8.97027E-05-1.31828E-05-3.28460E-05-7.96539E-06-1.45788E-18-2.51872E-18
 -1      2611 9.03604E-05-1.39680E-05-3.28011E-05-9.13797E-06-1.74201E-18-2.29380E-18
 -1      2612 9.47313E-05-2.69390E-05-2.90663E-05 1.88816E-06 1.58719E-18 1.87418E-19
 -1      2613 9.42456E-05-1.90818E-05-3.22583E-05 1.16060E-05 2.64543E-18-8.24931E-20
 -1      2614 1.44413E-04-4.26247E-05-4.37964E-05-4.13084E-06 1.65426E-18-2.76683E-18
 -1      2615 1.48607E-04-3.74051E-05-4.78353E-05 5.46104E-06 1.01644E-20 1.67310E-18
 -1      2616 1.41772E-04-3.10192E-05-4.82594E-05 1.23430E-05 1.57760E-19 2.35570E-18
 -1      2617 1.43116E-04-4.24742E-05-4.31461E-05 7.64370E-06-7.69953E-19 2.06485E-18
 -1      2618 4.21057E-05-2.69435E-05-5.94995E-06-3.01034E-05 1.11268E-18 1.48718E-18
 -1      2619 1.37244E-04-1.94024E-05-5.10353E-05 1.14285E-05 2.20102E-18 3.37987E-18
 -1      2620 1.43193E-04-1.59536E-05-5.48131E-05 9.01710E-06 2.34205E-18 2.63491E-18
 -1      2621 1.31165E-04-1.14572E-05-5.17649E-05 9.80800E-06 2.71389E-18 3.64378E-18
 -1      2622 7.76063E-05-4.44049E-05-1.36712E-05 4.33776E-05 4.61633E-20 4.88357E-18
 -1      2623 9.76580E-05-2.86810E-05-2.95663E-05 4.24665E-06 6.91449E-20 3.23712E-19
 -1      2624 9.78261E-05-2.83748E-05-2.97431E-05 5.31187E-06 5.82998E-19 1.51560E-18
 -1      2625 9.94832E-05-2.84222E-05-3.04045E-05-1.02746E-05 9.50174E-20-1.13903E-18
 -1      2626 9.77662E-05-2.63539E-05-3.06017E-05-1.20883E-05 1.80719E-19-1.23907E-18
 -1      2627 9.88020E-05-2.78984E-05-3.04144E-05-1.40823E-05-7.64847E-19-1.53575E-18
 -1      2628 1.01172E-04-2.99721E-05-3.05466E-05-1.09031E-05-1.12786E-18-1.48945E-18
 -1      2629 1.02848E-04-5.57156E-05-1.97688E-05-4.09732E-05 3.91859E-19 8.59950E-19
 -1      2630 1.11161E-04-6.02300E-05-2.16154E-05-3.92717E-05-4.44692E-19 5.30878E-19
 -1      2631 1.23310E-04-6.27465E-05-2.60544E-05-3.03328E-05 3.43472E-19 2.18069E-18
 -1      2632 2.88060E-05-1.86284E-05-3.75030E-06-5.93543E-07 7.96476E-19 3.89995E-18
 -1      2633 9.47159E-05-2.06036E-05-3.17181E-05 9.67320E-06 2.49127E-18-2.89560E-19
 -1      2634 1.16679E-04-6.09413E-05-2.36107E-05 3.60943E-05-3.39237E-19 3.59195E-19
 -1      2635 1.40070E-04-1.22536E-05-5.50885E-05-2.11276E-07-8.34327E-20 6.93005E-19
 -1      2636 9.11358E-05-1.50076E-05-3.26791E-05-9.82263E-06-1.92839E-18-1.99894E-18
 -1      2637 9.21643E-05-1.62886E-05-3.25978E-05-1.08499E-05-2.23877E-18-1.55052E-18
 -1      2638 9.36568E-05-1.92131E-05-3.18905E-05-9.20469E-06-2.17328E-18-1.26287E-18
 -1      2639 9.20735E-05-1.68208E-05-3.22368E-05-8.31789E-06-1.77166E-18-1.89626E-18
 -1      2640 1.30030E-04-6.34643E-05-2.85129E-05 1.90629E-05-2.41341E-18 1.91578E-18
 -1      2641 1.46559E-04-3.38651E-05-4.83456E-05-1.50952E-05-1.24260E-18 1.03740E-18
 -1      2642 8.70767E-05-4.93595E-05-1.57959E-05-4.08537E-05-1.88613E-18 1.52784E-19
 -1      2643 1.00492E-04-5.39979E-05-2.01715E-05-3.65829E-05-1.75473E-18 2.40875E-19
 -1      2644 7.98903E-05-4.25827E-05-1.54823E-05-3.94287E-05-1.58543E-18-7.16590E-19
 -1      2645 5.05955E-05-2.97814E-05-8.34770E-06-3.49007E-05-1.56383E-18-1.57294E-18
 -1      2646 2.87347E-05-2.21937E-05-2.39742E-06 1.84861E-05-5.78100E-20-1.23540E-18
 -1      2647 2.82790E-05-1.63448E-05-4.46327E-06 1.04489E-05 2.16946E-19-1.37643E-18
 -1      2648 3.93010E-05-2.22402E-05-6.89491E-06 2.38365E-05 1.82536E-19-1.05159E-18
 -1      2649 6.32661E-05-3.84773E-05-1.02374E-05 3.74544E-05-1.60640E-18-1.08145E-18
 -1      2650 1.41975E-04-5.55822E-05-3.69827E-05-7.28383E-06-2.67456E-18 1.07827E-18
 -1      2651 2.51000E-05-1.92187E-05-2.01773E-06-1.34629E-05-1.01231E-18-1.23921E-18
 -1      2652 3.25172E-05-1.81738E-05-5.88017E-06-1.93524E-05-1.16605E-18-5.64759E-19
 -1      2653 2.60143E-05-1.51764E-05-4.01558E-06-5.00428E-06 1.60116E-19-4.28810E-19
 -1      2654 1.45537E-04-5.47457E-05-3.86708E-05-2.37728E-06-1.97405E-18 1.23392E-18
 -1      2655 1.44779E-04-2.65660E-05-5.08773E-05 8.50157E-06-1.15684E-18 6.93296E-19
 -1      2656 9.92381E-05-2.97541E-05-2.98037E-05 6.56138E-06-1.30131E-19 1.39779E-18
 -1      2657 1.01637E-04-3.07413E-05-3.04058E-05-1.28943E-05-9.40738E-19-2.89654E-18
 -1      2658 9.05611E-05-1.51765E-05-3.23300E-05 3.19726E-06 1.00990E-18-2.50572E-18
 -1      2659 9.03711E-05-1.49051E-05-3.23628E-05 2.26297E-06 8.16106E-19-2.62543E-18
 -1      2660 9.02369E-05-1.47024E-05-3.23918E-05 1.42370E-06 6.42052E-19-2.73057E-18
 -1      2661 9.01719E-05-1.46101E-05-3.24029E-05 4.66143E-07 4.08799E-19-2.72134E-18
 -1      2662 9.14232E-05-1.65979E-05-3.20551E-05 1.64292E-06 6.88310E-19-2.53302E-18
 -1      2663 9.21417E-05-1.75531E-05-3.20045E-05 6.47741E-06 1.89925E-18-1.63154E-18
 -1      2664 9.16176E-05-1.67587E-05-3.21047E-05 5.63799E-06 1.67221E-18-1.89941E-18
 -1      2665 9.35626E-05-1.97785E-05-3.16643E-05 7.59979E-06 2.18976E-18-1.24736E-18
 -1      2666 9.27719E-05-1.85230E-05-3.18379E-05 7.02132E-06 2.03208E-18-1.43502E-18
 -1      2667 9.34363E-05-1.98690E-05-3.15061E-05 5.73790E-06 1.77437E-18-1.30611E-18
 -1      2668 9.52167E-05-2.54092E-05-2.99299E-05 3.98140E-06 1.75410E-18-3.21956E-19
 -1      2669 9.55536E-05-2.45592E-05-3.03938E-05 5.61433E-06 1.86740E-18-3.16310E-19
 -1      2670 1.23389E-04-6.19144E-05-2.67958E-05 2.94408E-05-8.04046E-19-2.92850E-18
 -1      2671 1.08770E-04-5.64758E-05-2.18182E-05 3.74026E-05-1.25911E-18 5.87828E-19
 -1      2672 9.53562E-05-2.59084E-05-2.97382E-05-2.72308E-06-1.22404E-18-8.28354E-19
 -1      2673 9.51887E-05-2.64842E-05-2.94556E-05-1.72990E-06-9.73223E-19-8.73760E-19
 -1      2674 9.52178E-05-2.70077E-05-2.92094E-05-9.86382E-07-8.93163E-19-9.81651E-19
 -1      2675 9.50818E-05-2.73618E-05-2.90292E-05-3.82037E-07-9.26333E-19-1.06425E-18
 -1      2676 9.54117E-05-2.63256E-05-2.96136E-05-1.62237E-06-1.08478E-18-9.95667E-19
 -1      2677 9.50482E-05-2.76677E-05-2.88614E-05 8.38126E-08-7.95946E-19-9.26282E-19
 -1      2678 9.49699E-05-2.78921E-05-2.87506E-05 4.33845E-07-7.15753E-19-8.72821E-19
 -1      2679 9.54165E-05-2.73280E-05-2.91882E-05-3.49402E-07-7.66890E-19-1.10478E-18
 -1      2680 9.49279E-05-2.80776E-05-2.86399E-05 7.02356E-07-6.07125E-19-7.77088E-19
 -1      2681 9.48991E-05-2.82242E-05-2.85760E-05 8.84590E-07-4.58799E-19-6.88864E-19
 -1      2682 9.53553E-05-2.79428E-05-2.88978E-05 4.39105E-07-6.20498E-19-1.02045E-18
 -1      2683 9.48641E-05-2.83359E-05-2.85059E-05 1.01779E-06-3.99479E-19-5.75297E-19
 -1      2684 9.48706E-05-2.84325E-05-2.84734E-05 1.09193E-06-3.46296E-19-5.75766E-19
 -1      2685 9.52911E-05-2.83236E-05-2.87058E-05 8.78964E-07-4.05182E-19-6.98093E-19
 -1      2686 9.48462E-05-2.84974E-05-2.84319E-05 1.13673E-06-2.83993E-19-6.51057E-19
 -1      2687 9.48748E-05-2.85601E-05-2.84200E-05 1.14381E-06-2.08224E-19-7.44690E-19
 -1      2688 9.52417E-05-2.85546E-05-2.85843E-05 1.08315E-06-2.40508E-19-7.26840E-19
 -1      2689 9.48601E-05-2.85942E-05-2.83983E-05 1.13406E-06-3.03117E-19-5.41750E-19
 -1      2690 9.49007E-05-2.86331E-05-2.83994E-05 1.10241E-06-4.94986E-19-3.28290E-19
 -1      2691 9.52099E-05-2.86872E-05-2.85127E-05 1.13544E-06-3.00649E-19-4.47926E-19
 -1      2692 9.48935E-05-2.86467E-05-2.83914E-05 1.06228E-06-5.00841E-19-3.18862E-20
 -1      2693 9.49393E-05-2.86684E-05-2.84007E-05 1.01151E-06-2.89696E-19-3.06698E-20
 -1      2694 9.51931E-05-2.87539E-05-2.84760E-05 1.09645E-06-2.41301E-19 5.66179E-20
 -1      2695 9.49375E-05-2.86681E-05-2.84018E-05 9.58101E-07-2.04279E-19 2.17694E-19
 -1      2696 9.49844E-05-2.86773E-05-2.84160E-05 9.01861E-07-5.04475E-20 2.51692E-19
 -1      2697 9.51873E-05-2.87758E-05-2.84635E-05 1.00951E-06-1.53990E-19 1.86263E-19
 -1      2698 9.49862E-05-2.86673E-05-2.84235E-05 8.47258E-07-1.59570E-19-1.44870E-20
 -1      2699 9.50321E-05-2.86672E-05-2.84407E-05 7.95143E-07-4.35117E-20-3.25482E-19
 -1      2700 9.51893E-05-2.87668E-05-2.84678E-05 9.05391E-07-3.74659E-19-1.20385E-20
 -1      2701 9.50365E-05-2.86503E-05-2.84526E-05 7.48020E-07-1.61740E-19-3.60812E-19
 -1      2702 9.50809E-05-2.86430E-05-2.84718E-05 7.06991E-07-5.51024E-19-3.86269E-19
 -1      2703 9.51965E-05-2.87361E-05-2.84838E-05 8.06056E-07-3.31557E-19-2.18548E-19
 -1      2704 9.50873E-05-2.86206E-05-2.84871E-05 6.73826E-07-5.96712E-19-2.12530E-19
 -1      2705 9.51309E-05-2.86076E-05-2.85082E-05 6.49276E-07-4.90593E-19-1.03643E-19
 -1      2706 9.52075E-05-2.86890E-05-2.85085E-05 7.27555E-07-5.56777E-19-4.34997E-19
 -1      2707 9.51387E-05-2.85803E-05-2.85265E-05 6.35312E-07-8.78463E-19-3.87254E-19
 -1      2708 9.51831E-05-2.85622E-05-2.85497E-05 6.31878E-07-8.23650E-19-6.19467E-19
 -1      2709 9.52213E-05-2.86285E-05-2.85403E-05 6.82294E-07-9.19192E-19-3.97716E-19
 -1      2710 9.51923E-05-2.85299E-05-2.85712E-05 6.41854E-07-8.60479E-19-8.91497E-19
 -1      2711 9.52400E-05-2.85071E-05-2.85973E-05 6.64032E-07-1.17684E-18-1.05682E-18
 -1      2712 9.52374E-05-2.85552E-05-2.85787E-05 6.80786E-07-1.07920E-18-9.62516E-19
 -1      2713 9.52505E-05-2.84690E-05-2.86223E-05 7.02740E-07-9.46937E-19-9.73056E-19
 -1      2714 9.53043E-05-2.84414E-05-2.86525E-05 7.55352E-07-6.34236E-19-1.32351E-18
 -1      2715 9.52559E-05-2.84682E-05-2.86239E-05 7.32976E-07-1.15687E-18-7.80194E-19
 -1      2716 9.53161E-05-2.83962E-05-2.86818E-05 8.28042E-07-2.14253E-19-8.76601E-19
 -1      2717 9.53796E-05-2.83637E-05-2.87174E-05 9.16563E-07 1.25815E-20-5.82003E-19
 -1      2718 9.52767E-05-2.83652E-05-2.86770E-05 8.49225E-07-1.93514E-19-5.25717E-19
 -1      2719 9.53926E-05-2.83099E-05-2.87518E-05 1.02921E-06 8.13799E-20-6.16355E-19
 -1      2720 9.54700E-05-2.82720E-05-2.87945E-05 1.15995E-06 5.16246E-19-6.50537E-19
 -1      2721 9.52997E-05-2.82432E-05-2.87392E-05 1.04098E-06 9.85142E-21-2.21639E-19
 -1      2722 9.54838E-05-2.82079E-05-2.88350E-05 1.31937E-06 5.29284E-19-8.15039E-19
 -1      2723 9.55797E-05-2.81646E-05-2.88865E-05 1.49951E-06 7.50292E-19-1.21119E-18
 -1      2724 9.53245E-05-2.80983E-05-2.88120E-05 1.32116E-06 3.11127E-19-4.62350E-19
 -1      2725 9.55936E-05-2.80884E-05-2.89338E-05 1.71328E-06 7.48876E-19-1.52855E-18
 -1      2726 9.57130E-05-2.80401E-05-2.89958E-05 1.95064E-06 8.82885E-19-1.70038E-18
 -1      2727 9.53504E-05-2.79269E-05-2.88965E-05 1.70414E-06 3.63302E-19-1.31155E-18
 -1      2728 9.57261E-05-2.79509E-05-2.90502E-05 2.22683E-06 1.39802E-18-1.70676E-18
 -1      2729 9.58745E-05-2.78993E-05-2.91241E-05 2.52930E-06 8.39591E-19-1.04252E-18
 -1      2730 9.53757E-05-2.77259E-05-2.89933E-05 2.20539E-06 1.42572E-18-2.11800E-18
 -1      2731 9.58858E-05-2.77974E-05-2.91852E-05 2.87583E-06 2.82388E-19-9.37820E-19
 -1      2732 9.60696E-05-2.77464E-05-2.92718E-05 3.25026E-06 6.07426E-20-1.05319E-18
 -1      2733 9.53989E-05-2.74951E-05-2.91018E-05 2.84048E-06 7.13600E-19-5.22129E-19
 -1      2734 9.60787E-05-2.76357E-05-2.93380E-05 3.67385E-06 3.57522E-20-6.30766E-19
 -1      2735 9.63055E-05-2.75939E-05-2.94369E-05 4.12416E-06 1.58193E-19-5.93135E-19
 -1      2736 9.54185E-05-2.72397E-05-2.92193E-05 3.62342E-06 1.72053E-19-1.68673E-19
 -1      2737 9.63150E-05-2.74840E-05-2.95050E-05 4.62867E-06 1.96426E-19-4.61076E-19
 -1      2738 9.65956E-05-2.74680E-05-2.96140E-05 5.15262E-06 3.73983E-19-6.06740E-19
 -1      2739 9.54368E-05-2.69755E-05-2.93398E-05 4.56407E-06-5.04121E-20-5.06863E-20
 -1      2740 9.66145E-05-2.73805E-05-2.96781E-05 5.73655E-06 3.98225E-19-5.18639E-19
 -1      2741 9.69665E-05-2.74208E-05-2.97923E-05 6.32085E-06 7.35380E-20 7.63194E-20
 -1      2742 9.54646E-05-2.67383E-05-2.94531E-05 5.66431E-06 6.79921E-19-3.69918E-20
 -1      2743 9.70189E-05-2.73967E-05-2.98436E-05 6.97356E-06-2.28605E-19-2.48947E-19
 -1      2744 9.74732E-05-2.75472E-05-2.99549E-05 7.58637E-06-5.59084E-19-5.02608E-19
 -1      2745 9.55333E-05-2.65975E-05-2.95434E-05 6.91283E-06 4.22224E-21-1.05699E-18
 -1      2746 9.76113E-05-2.76597E-05-2.99817E-05 8.28244E-06-6.75298E-19-2.08441E-20
 -1      2747 9.82238E-05-2.80093E-05-3.00788E-05 8.86258E-06-5.72702E-19 7.61691E-20
 -1      2748 9.57149E-05-2.66790E-05-2.95889E-05 8.27774E-06-6.23156E-19-5.46191E-19
 -1      2749 9.85502E-05-2.83789E-05-3.00687E-05 9.55197E-06 5.44366E-19 9.57953E-19
 -1      2750 9.94166E-05-2.90638E-05-3.01396E-05 9.99384E-06 1.04155E-18 1.44723E-18
 -1      2751 9.61568E-05-2.71951E-05-2.95638E-05 9.69517E-06 6.70643E-19-7.17765E-20
 -1      2752 1.00113E-04-2.98709E-05-3.00851E-05 1.05831E-05 6.40263E-19 1.65400E-18
 -1      2753 1.01381E-04-3.10728E-05-3.01246E-05 1.07166E-05 6.13210E-19 1.55768E-18
 -1      2754 9.71318E-05-2.84766E-05-2.94468E-05 1.10472E-05 9.70244E-19 1.05966E-18
 -1      2755 1.02737E-04-3.25472E-05-3.00376E-05 1.10309E-05 1.64610E-19 1.51672E-18
 -1      2756 1.04588E-04-3.44479E-05-3.00637E-05 1.05988E-05-8.16758E-20 1.24046E-18
 -1      2757 9.90983E-05-3.09843E-05-2.92407E-05 1.21138E-05 6.97641E-19 9.47743E-19
 -1      2758 1.06991E-04-3.67915E-05-3.00044E-05 1.03033E-05-1.77458E-19 1.90377E-18
 -1      2759 1.09534E-04-3.94036E-05-3.00857E-05 8.94708E-06-2.52363E-19 1.82044E-18
 -1      2760 1.02732E-04-3.52372E-05-2.90169E-05 1.24627E-05-1.49865E-19 1.46515E-18
 -1      2761 1.13340E-04-4.25509E-05-3.02125E-05 7.43993E-06-7.17917E-19 1.82609E-18
 -1      2762 1.16353E-04-4.53163E-05-3.05092E-05 4.75813E-06-8.24362E-19 1.19473E-18
 -1      2763 1.08819E-04-4.15012E-05-2.89991E-05 1.12600E-05-8.07006E-19 1.11176E-18
 -1      2764 1.21353E-04-4.84081E-05-3.11487E-05 1.30581E-06-6.67852E-19 1.19061E-18
 -1      2765 1.24045E-04-4.97258E-05-3.19199E-05-2.84805E-06-1.01702E-18 1.31414E-18
 -1      2766 1.17640E-04-4.86131E-05-2.97241E-05 6.93237E-06-1.31719E-18 6.93775E-19
 -1      2767 1.28623E-04-5.03810E-05-3.35377E-05-8.15707E-06-1.68214E-18 5.13153E-19
 -1      2768 1.29410E-04-4.81610E-05-3.48495E-05-1.23668E-05-2.05906E-18 3.03092E-19
 -1      2769 1.27448E-04-5.28769E-05-3.20419E-05-1.76157E-06-2.08600E-18-3.71232E-19
 -1      2770 1.35237E-04-4.43897E-05-3.92680E-05-1.62011E-05-1.67538E-18 6.98379E-19
 -1      2771 1.32696E-04-3.57247E-05-4.18885E-05-1.77367E-05-1.38712E-18 5.06737E-19
 -1      2772 1.19325E-04-1.51148E-05-4.50834E-05-5.15234E-06-9.77264E-19 7.06518E-19
 -1      2773 1.19501E-04-1.60455E-05-4.49203E-05 2.36119E-06-4.07423E-19 4.92033E-19
 -1      2774 1.21584E-04-2.10596E-05-4.32983E-05 9.65962E-06 2.95932E-19-8.70512E-19
 -1      2775 1.24471E-04-2.90457E-05-4.15268E-05 1.33050E-05 4.52369E-19-2.33702E-19
 -1      2776 1.27084E-04-3.70494E-05-3.86551E-05 1.31386E-05 1.42672E-19-1.17028E-18
 -1      2777 1.28866E-04-4.42044E-05-3.65848E-05 1.11277E-05-9.38420E-19-9.91637E-19
 -1      2778 1.26928E-04-4.77326E-05-3.40706E-05 5.76691E-06-8.80332E-19-9.57849E-19
 -1      2779 1.25796E-04-4.95526E-05-3.26712E-05 1.44798E-06 6.98696E-19 1.48297E-19
 -1      2780 1.32073E-04-4.90963E-05-3.58337E-05 6.48717E-06-5.20131E-19-5.98243E-19
 -1      2781 1.21242E-04-4.84094E-05-3.13119E-05-3.86044E-06 6.02426E-19-5.17669E-19
 -1      2782 1.18262E-04-4.65136E-05-3.06251E-05-7.63809E-06 2.18171E-19-5.78603E-19
 -1      2783 1.25464E-04-5.18091E-05-3.16897E-05-4.37772E-06-7.56506E-20 7.30996E-19
 -1      2784 1.13522E-04-4.33087E-05-3.01703E-05-1.07758E-05 1.94490E-19-1.01265E-18
 -1      2785 1.10243E-04-4.00916E-05-2.99495E-05-1.30130E-05 1.65747E-19-1.36268E-18
 -1      2786 1.15913E-04-4.66507E-05-2.98370E-05-1.24668E-05 5.29429E-20-7.44362E-19
 -1      2787 1.06565E-04-3.67323E-05-2.99697E-05-1.41278E-05-1.12678E-18-2.16046E-18
 -1      2788 1.03824E-04-3.36588E-05-2.99907E-05-1.48173E-05-1.46450E-18-3.06642E-18
 -1      2789 1.07530E-04-3.89381E-05-2.94903E-05-1.60210E-05-1.18748E-18-1.16634E-18
 -1      2790 1.00215E-04-2.96509E-05-3.01977E-05-1.46244E-05 1.79821E-19-1.47692E-18
 -1      2791 9.86749E-05-2.84442E-05-3.01161E-05-1.61734E-05 4.31498E-19-1.49149E-18
 -1      2792 1.01763E-04-3.15164E-05-3.01166E-05-1.49471E-05-3.83535E-19-2.93779E-18
 -1      2793 9.45512E-05-2.78512E-05-2.85866E-05-4.34679E-07 1.01885E-18-5.54153E-19
 -1      2794 9.46400E-05-2.76644E-05-2.86854E-05-9.14600E-08 1.11004E-18-3.65079E-19
 -1      2795 9.45133E-05-2.84317E-05-2.83198E-05-1.13762E-06 1.57574E-19-3.45345E-19
 -1      2796 9.44566E-05-2.83686E-05-2.83203E-05-1.13392E-06 3.01516E-19-6.77305E-19
 -1      2797 9.45858E-05-2.85092E-05-2.83176E-05-1.09350E-06 3.76442E-19-6.01624E-19
 -1      2798 9.45164E-05-2.84652E-05-2.83066E-05-1.12715E-06 2.96206E-19-3.15249E-19
 -1      2799 9.48935E-05-2.85710E-05-2.84270E-05-1.15728E-06 3.09539E-19-2.90981E-19
 -1      2800 9.46719E-05-2.85563E-05-2.83342E-05-1.00012E-06 4.07925E-19-8.73450E-19
 -1      2801 9.45987E-05-2.85268E-05-2.83168E-05-1.05217E-06 4.34057E-19-8.21256E-19
 -1      2802 9.49153E-05-2.86411E-05-2.84052E-05-1.11496E-06 6.44325E-19-5.19831E-19
 -1      2803 9.47620E-05-2.85812E-05-2.83622E-05-8.87584E-07 2.97219E-19-7.75200E-19
 -1      2804 9.46904E-05-2.85627E-05-2.83415E-05-9.45033E-07 3.09820E-19-8.61208E-19
 -1      2805 9.49503E-05-2.86739E-05-2.84055E-05-1.02322E-06 4.58066E-19-7.12636E-19
 -1      2806 9.48510E-05-2.85896E-05-2.83966E-05-7.76899E-07 5.56969E-19-4.51126E-19
 -1      2807 9.47834E-05-2.85797E-05-2.83744E-05-8.30711E-07 4.50225E-19-5.53876E-19
 -1      2808 9.49921E-05-2.86805E-05-2.84201E-05-9.13078E-07 2.59732E-19-8.55113E-19
 -1      2809 9.49369E-05-2.85855E-05-2.84350E-05-6.82955E-07 2.14391E-19-2.91402E-19
 -1      2810 9.48736E-05-2.85823E-05-2.84121E-05-7.26697E-07 3.97776E-19-3.68736E-19
 -1      2811 9.50369E-05-2.86684E-05-2.84442E-05-8.06395E-07 4.85419E-19-6.76197E-20
 -1      2812 9.50203E-05-2.85719E-05-2.84764E-05-6.16778E-07 6.89553E-20-5.01517E-19
 -1      2813 9.49602E-05-2.85738E-05-2.84529E-05-6.45614E-07 1.66928E-19-4.71770E-19
 -1      2814 9.50828E-05-2.86423E-05-2.84749E-05-7.18890E-07 3.91605E-19-1.34328E-19
 -1      2815 9.51038E-05-2.85506E-05-2.85210E-05-5.87190E-07 4.81292E-19-5.07085E-19
 -1      2816 9.50445E-05-2.85565E-05-2.84964E-05-5.97141E-07 2.71174E-19-2.42035E-19
 -1      2817 9.51296E-05-2.86053E-05-2.85109E-05-6.62394E-07 3.26144E-20-3.07128E-19
 -1      2818 9.51915E-05-2.85229E-05-2.85700E-05-6.02037E-07-1.16480E-19-3.92556E-19
 -1      2819 9.51297E-05-2.85319E-05-2.85434E-05-5.89443E-07 1.59739E-19-3.17783E-19
 -1      2820 9.51784E-05-2.85589E-05-2.85518E-05-6.46555E-07 2.22936E-20-7.54280E-20
 -1      2821 9.52888E-05-2.84900E-05-2.86252E-05-6.69019E-07-2.40208E-19 1.47856E-19
 -1      2822 9.52203E-05-2.85011E-05-2.85953E-05-6.30195E-07-7.55527E-20-1.32217E-19
 -1      2823 9.52314E-05-2.85037E-05-2.85982E-05-6.80071E-07-2.72578E-19-4.82046E-20
 -1      2824 9.54026E-05-2.84531E-05-2.86891E-05-7.96161E-07 2.97812E-19-4.50409E-20
 -1      2825 9.53223E-05-2.84652E-05-2.86544E-05-7.27223E-07 1.89619E-19 3.58787E-20
 -1      2826 9.52915E-05-2.84400E-05-2.86515E-05-7.71513E-07 1.32077E-19-1.77944E-19
 -1      2827 9.55409E-05-2.84140E-05-2.87643E-05-9.91875E-07 7.89458E-19-1.07449E-18
 -1      2828 9.54430E-05-2.84255E-05-2.87231E-05-8.88779E-07 4.40708E-19-6.84625E-19
 -1      2829 9.53628E-05-2.83681E-05-2.87132E-05-9.29743E-07 8.71064E-19-2.82283E-19
 -1      2830 9.57133E-05-2.83758E-05-2.88537E-05-1.26456E-06 5.96988E-19-1.38107E-18
 -1      2831 9.55910E-05-2.83844E-05-2.88041E-05-1.12338E-06 7.01624E-19-7.43818E-19
 -1      2832 9.54505E-05-2.82889E-05-2.87849E-05-1.16390E-06 5.30516E-19-1.00422E-18
 -1      2833 9.59308E-05-2.83436E-05-2.89598E-05-1.62155E-06 1.99350E-19-6.93467E-19
 -1      2834 9.57766E-05-2.83458E-05-2.89002E-05-1.43913E-06 4.03289E-19-1.20686E-18
 -1      2835 9.55609E-05-2.82054E-05-2.88683E-05-1.48288E-06 4.58013E-19-6.33512E-19
 -1      2836 9.62067E-05-2.83264E-05-2.90845E-05-2.06729E-06 2.80064E-19-1.86913E-19
 -1      2837 9.60121E-05-2.83167E-05-2.90136E-05-1.84230E-06 4.65015E-19-6.01858E-19
 -1      2838 9.57026E-05-2.81233E-05-2.89645E-05-1.89413E-06 2.42831E-19-6.03476E-19
 -1      2839 9.65568E-05-2.83383E-05-2.92287E-05-2.60032E-06 1.15456E-20-7.54764E-19
 -1      2840 9.63125E-05-2.83085E-05-2.91458E-05-2.33498E-06-5.00258E-20-1.70603E-19
 -1      2841 9.58868E-05-2.80537E-05-2.90737E-05-2.40160E-06-3.71653E-20-1.94980E-20
 -1      2842 9.70007E-05-2.84020E-05-2.93914E-05-3.20886E-06 6.75604E-20-9.88389E-19
 -1      2843 9.66964E-05-2.83395E-05-2.92966E-05-2.91147E-06 2.33894E-19-7.00673E-19
 -1      2844 9.61294E-05-2.80154E-05-2.91946E-05-3.00260E-06 4.62757E-20-4.82574E-19
 -1      2845 9.75633E-05-2.85515E-05-2.95689E-05-3.86451E-06-1.94197E-19-3.63162E-19
 -1      2846 9.71876E-05-2.84383E-05-2.94641E-05-3.55294E-06 5.69551E-20-8.04872E-19
 -1      2847 9.64533E-05-2.80390E-05-2.93240E-05-3.68314E-06-2.60077E-19-6.61565E-19
 -1      2848 9.82777E-05-2.88367E-05-2.97544E-05-4.51381E-06-3.40579E-19-4.93059E-19
 -1      2849 9.78180E-05-2.86473E-05-2.96431E-05-4.22010E-06-1.18174E-19-4.79502E-19
 -1      2850 9.68925E-05-2.81720E-05-2.94564E-05-4.41154E-06-2.45858E-19 2.45479E-19
 -1      2851 9.91874E-05-2.93261E-05-2.99379E-05-5.06777E-06-1.17928E-20-3.69920E-19
 -1      2852 9.86304E-05-2.90271E-05-2.98259E-05-4.84352E-06-6.51727E-20-1.81066E-19
 -1      2853 9.74974E-05-2.84837E-05-2.95839E-05-5.12982E-06-2.47314E-19-9.84792E-20
 -1      2854 1.00348E-04-3.01053E-05-3.01072E-05-5.39020E-06-7.25885E-19-8.08892E-19
 -1      2855 9.96815E-05-2.96577E-05-3.00020E-05-5.31180E-06-3.24617E-19-9.96960E-19
 -1      2856 9.83413E-05-2.90692E-05-2.96977E-05-5.74271E-06-9.56650E-20-6.74394E-20
 -1      2857 1.01824E-04-3.12633E-05-3.02518E-05-5.28822E-06-8.41357E-19-7.71330E-19
 -1      2858 1.01041E-04-3.06323E-05-3.01607E-05-5.45919E-06-9.47012E-19-8.89562E-19
 -1      2859 9.95242E-05-3.00459E-05-2.97907E-05-6.10441E-06-6.77946E-19-1.02830E-18
 -1      2860 1.03662E-04-3.28536E-05-3.03701E-05-4.51232E-06-1.49584E-19-2.17691E-19
 -1      2861 1.02777E-04-3.20323E-05-3.02970E-05-5.05739E-06-3.88342E-19-2.76158E-19
 -1      2862 1.01167E-04-3.15318E-05-2.98642E-05-6.00508E-06-5.70835E-19-2.71197E-19
 -1      2863 1.05844E-04-3.48113E-05-3.04805E-05-2.78305E-06-7.05243E-19-3.05419E-19
 -1      2864 1.04919E-04-3.38673E-05-3.04206E-05-3.82360E-06-1.70488E-19-7.53107E-20
 -1      2865 1.03382E-04-3.35878E-05-2.99383E-05-5.16358E-06-2.83270E-19 1.50036E-19
 -1      2866 1.08184E-04-3.68216E-05-3.06350E-05 1.22724E-07-6.51317E-19-4.38829E-19
 -1      2867 1.07369E-04-3.59632E-05-3.05683E-05-1.47248E-06-5.30956E-19-1.48388E-20
 -1      2868 1.06186E-04-3.60984E-05-3.00664E-05-3.24660E-06-6.12162E-19 3.37299E-19
 -1      2869 1.10212E-04-3.81866E-05-3.09234E-05 4.17324E-06 5.16447E-19 5.80435E-20
 -1      2870 1.09769E-04-3.78098E-05-3.08145E-05 2.13559E-06-8.23098E-20-3.62991E-19
 -1      2871 1.09346E-04-3.85848E-05-3.03480E-05 2.95948E-08-3.46665E-19-6.33286E-19
 -1      2872 1.11129E-04-3.78057E-05-3.14532E-05 8.80977E-06 1.59767E-19-7.19101E-20
 -1      2873 1.11412E-04-3.84778E-05-3.12605E-05 6.73987E-06 2.92451E-19 1.34094E-19
 -1      2874 1.12233E-04-4.00925E-05-3.09218E-05 4.67661E-06-2.79794E-21 2.14426E-20
 -1      2875 1.10117E-04-3.47420E-05-3.22760E-05 1.24553E-05 1.08119E-18-1.57652E-19
 -1      2876 1.11275E-04-3.67476E-05-3.19884E-05 1.11808E-05 6.12550E-19-5.58569E-19
 -1      2877 1.13641E-04-3.90842E-05-3.19187E-05 9.90428E-06 4.50084E-19-6.47094E-19
 -1      2878 1.07097E-04-2.92642E-05-3.32869E-05 1.29452E-05 5.96629E-19 1.45799E-18
 -1      2879 1.08844E-04-3.21788E-05-3.29612E-05 1.34151E-05 1.50451E-18 1.40845E-18
 -1      2880 1.12502E-04-3.45732E-05-3.33358E-05 1.37589E-05 2.24544E-19 9.31892E-19
 -1      2881 1.03510E-04-2.37618E-05-3.41490E-05 8.80469E-06 9.34079E-19 2.20422E-18
 -1      2882 1.05061E-04-2.61945E-05-3.39224E-05 1.13267E-05 1.87168E-19 1.86203E-18
 -1      2883 1.09035E-04-2.76252E-05-3.48872E-05 1.34475E-05 1.39344E-19 1.52079E-18
 -1      2884 1.02033E-04-2.19914E-05-3.43555E-05 1.25401E-06 1.04079E-18 1.12608E-18
 -1      2885 1.02395E-04-2.22561E-05-3.44024E-05 4.73398E-06 1.47212E-18 1.81408E-18
 -1      2886 1.05584E-04-2.20945E-05-3.58293E-05 7.53519E-06 1.48236E-18 2.02396E-19
 -1      2887 1.03684E-04-2.50874E-05-3.37984E-05-5.83358E-06 5.51193E-19 1.16474E-19
 -1      2888 1.02766E-04-2.30591E-05-3.40997E-05-3.06271E-06 4.18540E-19 5.99913E-20
 -1      2889 1.05048E-04-2.11459E-05-3.59941E-05-1.19887E-06 1.29846E-18 2.23670E-20
 -1      2890 1.06874E-04-3.08080E-05-3.27190E-05-8.76779E-06-8.90949E-19 3.78372E-19
 -1      2891 1.05509E-04-2.79770E-05-3.31493E-05-7.94435E-06 4.66239E-19 3.67980E-19
 -1      2892 1.07820E-04-2.63097E-05-3.49444E-05-7.82974E-06-2.53779E-20-1.44886E-19
 -1      2893 1.09073E-04-3.55956E-05-3.15612E-05-7.16406E-06-7.42174E-19 7.48065E-20
 -1      2894 1.08186E-04-3.35099E-05-3.19666E-05-8.19512E-06-1.25675E-18 2.61449E-19
 -1      2895 1.11140E-04-3.32599E-05-3.33323E-05-9.10927E-06-6.30140E-19-5.09742E-20
 -1      2896 1.08943E-04-3.74371E-05-3.06547E-05-2.96557E-06-3.24046E-19-1.88648E-19
 -1      2897 1.08962E-04-3.68030E-05-3.09466E-05-4.90687E-06-2.52089E-19 2.30739E-19
 -1      2898 1.12385E-04-3.81254E-05-3.17765E-05-5.78402E-06-9.72387E-19-9.97629E-19
 -1      2899 1.06781E-04-3.64835E-05-3.00996E-05 1.43475E-06-3.09008E-19 3.36642E-19
 -1      2900 1.07591E-04-3.70833E-05-3.02720E-05-4.55175E-07-2.55010E-19-1.29985E-19
 -1      2901 1.10840E-04-3.92643E-05-3.06683E-05-6.61244E-07-7.48972E-19-1.16336E-18
 -1      2902 1.03595E-04-3.39009E-05-2.98349E-05 4.55207E-06 6.06043E-19 9.08789E-19
 -1      2903 1.04848E-04-3.51689E-05-2.99207E-05 3.31084E-06 3.60050E-19 1.07077E-18
 -1      2904 1.07469E-04-3.73475E-05-3.00676E-05 3.80382E-06-1.82757E-19-1.11185E-18
 -1      2905 1.00737E-04-3.12320E-05-2.97627E-05 6.09122E-06-6.07775E-20 1.65574E-18
 -1      2906 1.02129E-04-3.26974E-05-2.98046E-05 5.67197E-06 3.77700E-19 1.07682E-18
 -1      2907 1.04064E-04-3.43469E-05-2.98705E-05 6.71894E-06 3.06426E-19 3.09850E-19
 -1      2908 1.00988E-04-3.11402E-05-2.99083E-05 8.24273E-06 1.09437E-19 7.99880E-19
 -1      2909 8.11166E-05-1.57209E-05-2.81416E-05 1.07119E-05-2.21321E-18-2.09252E-18
 -1      2910 8.39539E-05-1.76570E-05-2.83178E-05 1.41149E-05-9.31805E-19-2.27490E-18
 -1      2911 9.44111E-05-2.60154E-05-2.93771E-05 1.79803E-05-1.23120E-18-1.24617E-19
 -1      2912 9.70709E-05-2.80530E-05-2.95054E-05 1.73864E-05-1.18773E-18-1.24368E-19
 -1      2913 7.79958E-05-1.31508E-05-2.78365E-05 8.89318E-07-2.63618E-18-7.32419E-19
 -1      2914 7.88519E-05-1.37290E-05-2.78877E-05 5.60198E-06-2.24800E-18-1.64927E-18
 -1      2915 7.77956E-05-1.59772E-05-2.63886E-05 9.49326E-06-1.59578E-18-2.49253E-18
 -1      2916 8.76578E-05-2.08434E-05-2.87548E-05 1.67321E-05-7.61484E-19-9.83162E-19
 -1      2917 9.10496E-05-2.32507E-05-2.89506E-05 1.80193E-05-9.10886E-19-4.83095E-19
 -1      2918 9.33524E-05-2.75430E-05-2.82495E-05 1.99730E-05-1.13099E-18-1.95369E-19
 -1      2919 8.49278E-05-2.14028E-05-2.72192E-05 1.76072E-05-1.12068E-18-1.89069E-18
 -1      2920 1.25914E-04-9.24286E-06-5.07148E-05 2.89311E-06 2.02907E-18 2.46729E-18
 -1      2921 1.26740E-04-1.09560E-05-5.01921E-05-3.78412E-06 2.67091E-18 9.59953E-19
 -1      2922 7.99669E-05-1.45109E-05-2.80017E-05-9.26415E-06-1.25274E-18 2.64258E-18
 -1      2923 7.84288E-05-1.34901E-05-2.78983E-05-4.90141E-06-2.03419E-18 1.37794E-18
 -1      2924 7.56311E-05-1.42483E-05-2.61595E-05-2.18098E-06-1.25582E-18 8.54643E-19
 -1      2925 8.59647E-05-1.90672E-05-2.85640E-05-1.64525E-05-7.35770E-19 2.48111E-18
 -1      2926 8.28283E-05-1.69424E-05-2.83554E-05-1.36954E-05-8.80061E-19 3.04229E-18
 -1      2927 7.95796E-05-1.71824E-05-2.66565E-05-1.30927E-05-1.06718E-18 3.67484E-18
 -1      2928 9.28597E-05-2.43465E-05-2.92587E-05-1.87936E-05-2.08373E-19 2.00716E-18
 -1      2929 8.96571E-05-2.20968E-05-2.90529E-05-1.81835E-05-8.42947E-19 2.57450E-18
 -1      2930 8.74098E-05-2.28907E-05-2.76564E-05-1.93808E-05-2.78757E-19 2.32831E-18
 -1      2931 9.66943E-05-2.67960E-05-2.99606E-05-1.72331E-05 7.60301E-19-1.17111E-18
 -1      2932 9.47218E-05-2.74141E-05-2.88489E-05 3.91870E-07 1.13194E-18-3.89364E-19
 -1      2933 9.49022E-05-2.71208E-05-2.90215E-05 9.96806E-07 1.38219E-18-2.26568E-19
 -1      2934 9.51285E-05-2.73826E-05-2.90437E-05 3.79194E-07 1.27904E-18-6.95903E-19
 -1      2935 1.35614E-04-6.28942E-05-3.11374E-05-1.72261E-05 1.19140E-18 1.61656E-18
 -1      2936 1.42665E-04-5.92269E-05-3.61828E-05-6.61581E-06 3.99945E-19-1.13926E-19
 -1      2937 1.31237E-04-1.25838E-05-5.13516E-05 2.99071E-06-1.05265E-18 1.34948E-18
 -1      2938 1.31528E-04-1.16180E-05-5.20866E-05-4.59691E-06-1.02491E-19 4.89214E-19
 -1      2939 9.45258E-05-2.15000E-05-3.13286E-05-7.69022E-06-2.04629E-18-1.08896E-18
 -1      2940 9.49557E-05-2.32291E-05-3.07374E-05-6.01110E-06-1.85764E-18-9.86148E-19
 -1      2941 9.37474E-05-2.01351E-05-3.15497E-05-7.54762E-06-1.88977E-18-1.30383E-18
 -1      2942 1.07893E-04-5.70803E-05-2.20263E-05 3.11964E-05-1.37018E-18 2.94159E-18
 -1      2943 9.41309E-05-5.04183E-05-1.81436E-05 3.51072E-05-1.96448E-18 2.81840E-18
 -1      2944 1.34308E-04-6.34126E-05-3.09861E-05 1.03606E-05-1.93695E-18 1.82123E-18
 -1      2945 1.22818E-04-6.07176E-05-2.61659E-05 2.03560E-05-1.96549E-18 2.03415E-18
 -1      2946 4.07559E-05-2.11276E-05-7.82705E-06-2.36822E-05 1.49501E-18 8.71809E-19
 -1      2947 5.20051E-05-2.81736E-05-9.91065E-06-3.46865E-05 1.86538E-18 1.15811E-18
 -1      2948 4.60684E-05-2.32872E-05-8.93438E-06-2.89795E-05-1.31237E-18-6.52639E-19
 -1      2949 5.95512E-05-3.06350E-05-1.21176E-05-3.55403E-05-1.64928E-18-1.67437E-18
 -1      2950 9.44690E-05-2.83115E-05-2.83525E-05-1.08902E-06 4.38206E-19-7.03066E-19
 -1      2951 9.44392E-05-2.82223E-05-2.83724E-05-1.02019E-06 4.68578E-19-8.85706E-19
 -1      2952 9.48942E-05-2.84465E-05-2.84820E-05-1.10591E-06 2.95401E-19-4.39053E-19
 -1      2953 9.44735E-05-2.81292E-05-2.84331E-05-8.84936E-07 5.95616E-19-7.59209E-19
 -1      2954 9.44905E-05-2.80021E-05-2.84839E-05-7.09866E-07 8.07148E-19-6.09659E-19
 -1      2955 9.49285E-05-2.82413E-05-2.85865E-05-8.97889E-07 6.58653E-19-6.24575E-19
 -1      2956 9.52769E-05-2.43060E-05-3.04060E-05-4.94103E-06-1.64191E-18-9.11346E-19
 -1      2957 9.51983E-05-2.52562E-05-2.99878E-05-3.47996E-06-1.41588E-18-9.19062E-19
 -1      2958 9.52685E-05-2.50113E-05-3.01229E-05-3.24460E-06-1.30853E-18-9.31369E-19
 -1      2959 9.48524E-05-2.31968E-05-3.06974E-05-5.13665E-06-1.60699E-18-1.06426E-18
 -1      2960 9.47070E-05-2.19078E-05-3.12064E-05 7.84571E-06 2.23244E-18-4.98820E-19
 -1      2961 9.49790E-05-2.66912E-05-2.92717E-05 1.78555E-06 1.47408E-18-3.01104E-19
 -1      2962 9.52463E-05-2.61945E-05-2.95567E-05 2.79237E-06 1.56040E-18-3.14768E-19
 -1      2963 9.52705E-05-2.50233E-05-3.01038E-05 3.82433E-06 1.67731E-18-8.35256E-19
 -1      2964 9.52536E-05-2.65064E-05-2.94708E-05 1.74011E-06 1.43866E-18-6.65049E-19
 -1      2965 9.11783E-05-1.60912E-05-3.22081E-05 4.92027E-06 1.51357E-18-2.18364E-18
 -1      2966 9.08358E-05-1.55925E-05-3.22688E-05 3.99764E-06 1.23483E-18-2.38118E-18
 -1      2967 9.18145E-05-1.72042E-05-3.19605E-05 3.20085E-06 1.08133E-18-2.22741E-18
 -1      2968 9.24821E-05-1.82636E-05-3.17881E-05 4.61896E-06 1.46304E-18-1.88178E-18
 -1      2969 9.08001E-05-1.55451E-05-3.22739E-05-3.93373E-06-6.40790E-19-2.32654E-18
 -1      2970 9.11353E-05-1.60302E-05-3.22150E-05-4.85916E-06-9.59162E-19-2.23025E-18
 -1      2971 7.54150E-05-4.14013E-05-1.44530E-05 3.77285E-05-1.22756E-18-1.91112E-19
 -1      2972 5.68981E-05-3.10308E-05-1.04972E-05 3.31572E-05-6.63227E-19-1.56479E-18
 -1      2973 1.29062E-04-1.73776E-05-4.86165E-05-8.16805E-06 2.63861E-18 6.51157E-20
 -1      2974 1.32004E-04-2.40662E-05-4.65368E-05-1.13510E-05 2.49684E-18-7.28872E-19
 -1      2975 1.18404E-04-5.92736E-05-2.49239E-05-2.65930E-05-1.78787E-18 1.01448E-18
 -1      2976 1.29572E-04-6.12725E-05-2.96524E-05-1.83340E-05-2.55666E-18 1.11120E-18
 -1      2977 9.01529E-05-4.84673E-05-1.79890E-05 4.30897E-05-1.56182E-18 1.18849E-18
 -1      2978 7.17641E-05-3.72461E-05-1.40603E-05 4.02720E-05-1.22820E-18 3.91954E-18
 -1      2979 1.36594E-04-5.78236E-05-3.37248E-05-6.90383E-06-2.79129E-18 1.26250E-18
 -1      2980 1.40827E-04-5.27866E-05-3.82707E-05 8.69909E-07-1.90044E-18 1.56066E-18
 -1      2981 1.37475E-04-3.01973E-05-4.63445E-05 1.15688E-05-1.57887E-18 7.49095E-19
 -1      2982 1.33424E-04-2.03467E-05-4.93488E-05 9.48968E-06-7.58306E-19 7.93723E-19
 -1      2983 1.37281E-04-3.61937E-05-4.41163E-05-9.37393E-06 1.54340E-18-2.30816E-18
 -1      2984 1.40610E-04-4.81005E-05-3.96213E-05-3.86363E-06 6.06634E-19-2.89622E-18
 -1      2985 1.39678E-04-5.83462E-05-3.55696E-05 7.24950E-06-9.05664E-20-3.00310E-18
 -1      2986 1.35074E-04-6.16394E-05-3.10923E-05 1.64634E-05 1.18558E-19-3.50868E-18
 -1      2987 3.38823E-05-1.57419E-05-7.36566E-06 7.79661E-06 1.54094E-18 3.86988E-18
 -1      2988 3.41810E-05-1.63276E-05-7.10477E-06-1.03959E-05 1.97443E-18 1.56511E-18
 -1      2989 6.73488E-05-3.61799E-05-1.27252E-05-3.97068E-05 9.94840E-19 1.25139E-18
 -1      2990 8.27563E-05-4.48735E-05-1.60872E-05-4.25994E-05 3.94823E-19 2.21923E-19
 -1      2991 5.28531E-05-2.68196E-05-1.10825E-05 3.36738E-05 4.12505E-19 6.92386E-18
 -1      2992 4.17445E-05-1.97403E-05-8.68821E-06 2.19439E-05 3.50354E-19 5.06780E-18
 -1      2993 1.30319E-04-2.63579E-05-4.53048E-05-1.78001E-05-9.58735E-19 2.12182E-19
 -1      2994 9.15622E-05-1.66842E-05-3.21139E-05-5.59100E-06-1.19208E-18-2.19545E-18
 -1      2995 9.20819E-05-1.74641E-05-3.20146E-05-6.41777E-06-1.48310E-18-2.05257E-18
 -1      2996 9.24391E-05-1.81989E-05-3.17975E-05-4.57636E-06-1.00012E-18-1.94323E-18
 -1      2997 4.48249E-05-1.68459E-05-1.12837E-05 1.28389E-05 1.78922E-18 3.92388E-18
 -1      2998 9.12911E-05-1.63954E-05-3.20860E-05 2.88291E-08 2.80284E-19-2.59727E-18
 -1      2999 9.01679E-05-1.46054E-05-3.24034E-05-3.83235E-07 1.99274E-19-2.76142E-18
 -1      3000 9.02245E-05-1.46857E-05-3.23934E-05-1.34148E-06-2.60717E-20-2.76650E-18
 -1      3001 1.01933E-04-5.07333E-05-2.15536E-05 3.67887E-05-2.12722E-18-4.35216E-19
 -1      3002 1.37067E-04-5.17691E-05-3.65955E-05-8.11428E-07 4.11433E-19-2.64592E-18
 -1      3003 1.30221E-04-3.12698E-05-4.26074E-05-1.10881E-05 1.15016E-18-4.25952E-19
 -1      3004 1.38358E-04-4.66423E-05-3.95588E-05 8.02293E-06-1.76739E-18 1.82197E-18
 -1      3005 1.39834E-04-4.22173E-05-4.26200E-05 1.00466E-05-1.23275E-18-7.80964E-19
 -1      3006 1.31683E-04-3.45871E-05-4.18573E-05 1.34795E-05-1.95347E-19-5.29872E-19
 -1      3007 1.36488E-04-2.56010E-05-4.79759E-05 1.38824E-05 9.22419E-19 2.88817E-18
 -1      3008 1.27879E-04-2.00176E-05-4.67493E-05 1.47238E-05 1.81159E-18 2.92210E-18
 -1      3009 1.33351E-04-3.09361E-05-4.41770E-05 1.47730E-05-5.91123E-19 2.78917E-18
 -1      3010 1.32017E-04-5.85939E-05-3.14226E-05-8.47848E-06-1.82647E-18 8.73820E-19
 -1      3011 1.22380E-04-1.29643E-05-4.74169E-05 1.01353E-05 2.69335E-18 1.13399E-18
 -1      3012 1.24820E-04-1.10783E-05-4.93908E-05 6.12150E-06 2.43374E-18 2.04671E-18
 -1      3013 1.17963E-04-1.08470E-05-4.62282E-05 3.19597E-06 1.81752E-18 1.16032E-18
 -1      3014 1.39284E-04-5.18541E-05-3.77278E-05-9.65601E-06-1.94290E-18 1.12327E-18
 -1      3015 1.26490E-04-1.76816E-05-4.71045E-05 6.51782E-06-9.20513E-19 1.32852E-18
 -1      3016 1.01940E-04-3.27769E-05-2.97153E-05-1.68650E-05-7.79874E-19-1.48294E-18
 -1      3017 1.22421E-04-6.00550E-05-2.63025E-05-2.71556E-05-2.52204E-19 1.84348E-18
 -1      3018 1.30672E-04-6.35656E-05-2.87501E-05-2.30698E-05 4.85085E-19 2.09627E-18
 -1      3019 1.32545E-04-6.08682E-05-3.08812E-05-1.36905E-05 3.82356E-19 1.23860E-18
 -1      3020 9.50063E-05-2.79117E-05-2.87631E-05-4.44170E-07 1.03014E-18-6.87071E-19
 -1      3021 1.01174E-04-3.13599E-05-2.98948E-05 1.04059E-05 2.71965E-20-7.25013E-19
 -1      3022 1.02726E-04-3.32130E-05-2.98239E-05 1.00112E-05-5.53941E-19-8.45136E-19
 -1      3023 1.00735E-04-3.08040E-05-2.99562E-05 1.23246E-05-4.06818E-19-1.09903E-18
 -1      3024 4.31342E-05-1.94506E-05-9.57176E-06-2.21811E-05-6.80803E-19-3.58295E-19
 -1      3025 9.95234E-05-3.08752E-05-2.93435E-05-1.85171E-05-3.06111E-19-1.14122E-18
 -1      3026 9.56544E-05-2.70795E-05-2.94505E-05-1.88338E-05 1.89002E-19 5.23344E-19
 -1      3027 9.52769E-05-2.88099E-05-2.85054E-05-2.06619E-05-1.68555E-18 1.69905E-18
 -1      3028 1.01676E-04-3.34867E-05-2.91972E-05-1.85488E-05-1.23337E-18-1.02849E-18
 -1      3029 4.46849E-05-1.78596E-05-1.07753E-05-1.55006E-05 2.61701E-18 9.78323E-19
 -1      3030 9.61201E-05-5.02476E-05-1.91604E-05-4.00294E-05-4.57715E-19 8.81708E-19
 -1      3031 1.07614E-04-5.50070E-05-2.28072E-05-3.53399E-05-8.32739E-19 2.47844E-18
 -1      3032 9.04840E-05-4.40177E-05-1.95619E-05-3.81831E-05-7.06425E-19 2.14691E-18
 -1      3033 1.25152E-04-1.44571E-05-4.79730E-05-7.72863E-06-5.42313E-19 1.48961E-18
 -1      3034 1.31926E-04-1.41143E-05-5.11952E-05-1.00467E-05 3.46436E-19-1.05032E-19
 -1      3035 1.33873E-04-1.95517E-05-4.96585E-05-1.42360E-05-8.76679E-19 2.75286E-19
 -1      3036 1.20030E-04-1.75962E-05-4.43523E-05-1.19562E-05-1.08240E-18 1.48363E-19
 -1      3037 9.43545E-05-2.14240E-05-3.12600E-05 7.22028E-06 2.12030E-18-9.54305E-19
 -1      3038 1.16520E-04-5.72379E-05-2.50930E-05 2.24438E-05-1.37415E-18 2.21339E-18
 -1      3039 7.23161E-05-3.63671E-05-1.48263E-05-3.68497E-05-1.54520E-18-1.33926E-18
 -1      3040 8.41201E-05-4.15370E-05-1.81036E-05-3.47048E-05-1.15207E-18-7.20931E-19
 -1      3041 6.58057E-05-3.00756E-05-1.50448E-05-3.23090E-05-1.55166E-18-1.17854E-18
 -1      3042 8.61227E-05-4.38835E-05-1.77367E-05 3.38351E-05-9.11619E-19 1.50677E-18
 -1      3043 5.10068E-05-2.54903E-05-1.03928E-05 2.86978E-05-1.41031E-19-1.12317E-18
 -1      3044 4.66969E-05-1.98377E-05-1.09930E-05 2.16390E-05 4.46122E-19-1.08844E-18
 -1      3045 6.30803E-05-2.87577E-05-1.43277E-05 2.91852E-05 7.03567E-20-1.19665E-18
 -1      3046 6.51907E-05-3.09765E-05-1.41063E-05-3.49740E-05 9.44971E-19 1.78618E-18
 -1      3047 3.74113E-05-1.48497E-05-9.21824E-06 9.57312E-06 3.40269E-19-1.25784E-18
 -1      3048 3.08194E-05-1.47809E-05-6.19317E-06 2.86921E-06 2.13644E-19-8.82608E-19
 -1      3049 3.48245E-05-1.36135E-05-8.75212E-06-3.84622E-06-1.26625E-19 1.98417E-19
 -1      3050 9.46175E-05-2.24687E-05-3.09128E-05 5.69756E-06 1.92921E-18-1.04843E-18
 -1      3051 9.03494E-05-1.48767E-05-3.23657E-05-2.17876E-06-1.25476E-19-2.53339E-18
 -1      3052 9.05338E-05-1.51403E-05-3.23335E-05-3.13028E-06-4.60955E-19-2.41753E-18
 -1      3053 9.17836E-05-1.71618E-05-3.19657E-05-3.14316E-06-4.63383E-19-2.14228E-18
 -1      3054 9.14093E-05-1.65789E-05-3.20574E-05-1.58432E-06-7.00893E-20-2.52570E-18
 -1      3055 9.87078E-05-2.92219E-05-2.97897E-05 1.58728E-05-1.72213E-18-2.17522E-18
 -1      3056 1.00164E-04-3.04893E-05-2.98172E-05 1.42589E-05-1.22782E-18-1.44541E-18
 -1      3057 1.02092E-04-3.30617E-05-2.96048E-05 1.43354E-05-9.88901E-19-1.86347E-18
 -1      3058 9.93360E-05-3.15217E-05-2.90945E-05 1.80007E-05-7.39357E-19-5.19580E-19
 -1      3059 1.21985E-04-1.53206E-05-4.61194E-05-5.99993E-06 1.58882E-18 1.21832E-18
 -1      3060 1.10138E-04-5.54056E-05-2.32487E-05-2.92594E-05-9.18925E-19 1.47688E-19
 -1      3061 1.27842E-04-6.01797E-05-2.88709E-05 2.08128E-05-1.13884E-18-3.34001E-18
 -1      3062 1.41469E-04-4.98142E-05-3.94058E-05 5.47825E-06-6.03405E-19-4.10705E-19
 -1      3063 1.37679E-04-5.33626E-05-3.62491E-05 2.19929E-06-4.19281E-20-6.29504E-19
 -1      3064 1.19639E-04-5.62074E-05-2.73843E-05 1.58982E-05-1.36464E-18 1.36100E-18
 -1      3065 1.08954E-04-5.20975E-05-2.39029E-05 2.43266E-05-8.27419E-19 1.61963E-18
 -1      3066 9.42845E-05-2.18788E-05-3.10593E-05 4.96188E-06 1.69746E-18-1.20832E-18
 -1      3067 9.38080E-05-2.09073E-05-3.12448E-05 4.62220E-06 1.46916E-18-1.31584E-18
 -1      3068 4.73297E-05-1.47924E-05-1.35725E-05-8.78247E-06 2.69984E-18 1.56458E-18
 -1      3069 5.30782E-05-1.93356E-05-1.41571E-05-2.18670E-05 2.37789E-18 3.05779E-19
 -1      3070 1.35048E-04-5.72204E-05-3.32896E-05-3.45992E-06 2.85781E-19-1.11861E-19
 -1      3071 5.14311E-05-1.79354E-05-1.43169E-05 1.88243E-05 1.40147E-18 3.79026E-18
 -1      3072 4.63980E-05-1.42118E-05-1.32751E-05 4.42717E-06 3.11908E-18 1.56098E-18
 -1      3073 9.56815E-05-2.68791E-05-2.94715E-05-7.49183E-07-8.06459E-19-1.02337E-18
 -1      3074 9.56560E-05-2.73280E-05-2.92917E-05-2.24757E-07-6.97929E-19-1.07806E-18
 -1      3075 9.57013E-05-2.77145E-05-2.91260E-05 1.55285E-07-5.44447E-19-9.64519E-19
 -1      3076 9.56645E-05-2.80009E-05-2.90033E-05 4.70207E-07-5.91438E-19-9.03490E-19
 -1      3077 9.58988E-05-2.73315E-05-2.93888E-05-1.68589E-07-5.91644E-19-8.89542E-19
 -1      3078 9.56570E-05-2.82390E-05-2.88855E-05 6.91655E-07-4.82852E-19-7.37822E-19
 -1      3079 9.56248E-05-2.84192E-05-2.88046E-05 8.59753E-07-2.80361E-19-7.08664E-19
 -1      3080 9.59409E-05-2.80567E-05-2.90969E-05 4.65843E-07-4.84433E-19-5.56327E-19
 -1      3081 9.55931E-05-2.85599E-05-2.87233E-05 9.69255E-07-2.24251E-19-7.50025E-19
 -1      3082 9.55702E-05-2.86691E-05-2.86725E-05 1.03928E-06-2.16482E-19-6.41446E-19
 -1      3083 9.59075E-05-2.85062E-05-2.88897E-05 8.23923E-07-2.75941E-19-6.58979E-19
 -1      3084 9.55288E-05-2.87451E-05-2.86185E-05 1.07398E-06-2.16109E-19-5.62004E-19
 -1      3085 9.55148E-05-2.88061E-05-2.85891E-05 1.08199E-06-2.84869E-19-3.92346E-19
 -1      3086 9.58398E-05-2.87702E-05-2.87471E-05 9.89165E-07-9.13109E-20-6.86265E-19
 -1      3087 9.54714E-05-2.88388E-05-2.85552E-05 1.07039E-06-1.69648E-19-3.48772E-19
 -1      3088 9.54643E-05-2.88667E-05-2.85409E-05 1.04254E-06 2.42677E-21-1.07691E-19
 -1      3089 9.57596E-05-2.89084E-05-2.86530E-05 1.02817E-06 6.18976E-20-6.08088E-19
 -1      3090 9.54227E-05-2.88704E-05-2.85219E-05 1.00575E-06-1.77523E-19 3.94627E-20
 -1      3091 9.54207E-05-2.88755E-05-2.85181E-05 9.60752E-07-2.35360E-19-1.05211E-19
 -1      3092 9.56781E-05-2.89612E-05-2.85950E-05 9.91623E-07-8.98246E-20-9.31804E-20
 -1      3093 9.53824E-05-2.88597E-05-2.85099E-05 9.14101E-07-3.52342E-19-3.47726E-20
 -1      3094 9.53839E-05-2.88488E-05-2.85136E-05 8.65348E-07-5.16877E-19-8.55671E-20
 -1      3095 9.56008E-05-2.89560E-05-2.85637E-05 9.16954E-07-2.80916E-19-6.01839E-20
 -1      3096 9.53494E-05-2.88196E-05-2.85135E-05 8.19935E-07-4.54092E-19-2.46555E-20
 -1      3097 9.53534E-05-2.87970E-05-2.85225E-05 7.77091E-07-2.91734E-19-1.59169E-19
 -1      3098 9.55299E-05-2.89111E-05-2.85521E-05 8.31428E-07-3.68308E-19-1.80937E-19
 -1      3099 9.53221E-05-2.87580E-05-2.85285E-05 7.41077E-07-5.12498E-19-3.11279E-19
 -1      3100 9.53278E-05-2.87263E-05-2.85417E-05 7.11381E-07-7.62784E-19-4.75133E-19
 -1      3101 9.54652E-05-2.88379E-05-2.85555E-05 7.54960E-07-5.34758E-19-3.94613E-19
 -1      3102 9.52986E-05-2.86790E-05-2.85526E-05 6.91073E-07-9.82177E-19-5.34862E-19
 -1      3103 9.53058E-05-2.86394E-05-2.85693E-05 6.80350E-07-1.12945E-18-6.75819E-19
 -1      3104 9.54054E-05-2.87427E-05-2.85705E-05 7.02525E-07-9.07443E-19-7.26864E-19
 -1      3105 9.52770E-05-2.85840E-05-2.85843E-05 6.81045E-07-1.33743E-18-7.05639E-19
 -1      3106 9.52854E-05-2.85365E-05-2.86045E-05 6.94463E-07-1.36127E-18-7.65908E-19
 -1      3107 9.53478E-05-2.86278E-05-2.85948E-05 6.86111E-07-1.32828E-18-7.58795E-19
 -1      3108 9.52550E-05-2.84719E-05-2.86232E-05 7.21089E-07-8.74823E-19-6.03012E-19
 -1      3109 9.52646E-05-2.84156E-05-2.86471E-05 7.63736E-07-7.64822E-19-2.38368E-19
 -1      3110 9.52887E-05-2.84926E-05-2.86273E-05 7.16198E-07-1.00246E-18-2.71692E-19
 -1      3111 9.52298E-05-2.83397E-05-2.86695E-05 8.21319E-07-3.84225E-19 6.89415E-21
 -1      3112 9.52406E-05-2.82731E-05-2.86974E-05 8.98613E-07 1.58798E-19 3.07470E-19
 -1      3113 9.52236E-05-2.83338E-05-2.86672E-05 8.02870E-07-3.08950E-19 3.58184E-19
 -1      3114 9.51982E-05-2.81832E-05-2.87235E-05 9.92599E-07-2.61112E-20 1.47268E-19
 -1      3115 9.52099E-05-2.81044E-05-2.87561E-05 1.11054E-06-3.39622E-20 1.62095E-19
 -1      3116 9.51466E-05-2.81465E-05-2.87142E-05 9.56597E-07-1.27728E-19 4.03163E-19
 -1      3117 9.51559E-05-2.79972E-05-2.87857E-05 1.24696E-06 3.68716E-20 1.04455E-19
 -1      3118 9.51682E-05-2.79040E-05-2.88235E-05 1.41220E-06 1.81775E-19-3.41743E-19
 -1      3119 9.50505E-05-2.79243E-05-2.87679E-05 1.18870E-06-2.33282E-19 3.16815E-19
 -1      3120 9.50977E-05-2.77760E-05-2.88563E-05 1.59768E-06 1.04951E-19-4.76213E-19
 -1      3121 9.51097E-05-2.76665E-05-2.88996E-05 1.81744E-06 4.80493E-19-6.73608E-19
 -1      3122 9.49267E-05-2.76602E-05-2.88275E-05 1.51148E-06 5.15269E-20-3.35526E-19
 -1      3123 9.50169E-05-2.75146E-05-2.89347E-05 2.05907E-06 1.04845E-18-6.16647E-19
 -1      3124 9.50278E-05-2.73879E-05-2.89833E-05 2.34077E-06 1.75071E-18-9.52051E-19
 -1      3125 9.47645E-05-2.73474E-05-2.88915E-05 1.93807E-06 9.45902E-19 4.94105E-19
 -1      3126 9.49059E-05-2.72100E-05-2.90188E-05 2.64575E-06 1.53422E-18-8.94004E-19
 -1      3127 9.49146E-05-2.70669E-05-2.90716E-05 2.99638E-06 6.50313E-19-3.54049E-19
 -1      3128 9.45517E-05-2.69807E-05-2.89566E-05 2.48191E-06 1.65590E-18-9.50282E-19
 -1      3129 9.47567E-05-2.68639E-05-2.91045E-05 3.37163E-06-1.12515E-20-1.72837E-20
 -1      3130 9.47630E-05-2.67094E-05-2.91591E-05 3.79673E-06-9.76644E-20 1.22206E-20
 -1      3131 9.42748E-05-2.65593E-05-2.90174E-05 3.15598E-06 4.09189E-19-9.82326E-19
 -1      3132 9.45631E-05-2.64871E-05-2.91844E-05 4.24838E-06-2.49475E-19-2.14041E-19
 -1      3133 9.45695E-05-2.63336E-05-2.92364E-05 4.75064E-06 2.20965E-20-1.20373E-19
 -1      3134 9.39208E-05-2.60908E-05-2.90651E-05 3.97198E-06-6.77624E-20-2.46868E-19
 -1      3135 9.43258E-05-2.61078E-05-2.92466E-05 5.28370E-06 6.26445E-19-1.43422E-19
 -1      3136 9.43418E-05-2.59805E-05-2.92891E-05 5.86112E-06 7.56862E-19 4.53921E-21
 -1      3137 9.34813E-05-2.55984E-05-2.90865E-05 4.93981E-06 3.68979E-19-4.54572E-19
 -1      3138 9.40620E-05-2.57834E-05-2.92735E-05 6.47967E-06 5.77353E-19-1.18389E-19
 -1      3139 9.41119E-05-2.57294E-05-2.92964E-05 7.12328E-06-2.97073E-19-1.58995E-20
 -1      3140 9.29604E-05-2.51318E-05-2.90622E-05 6.06817E-06 5.77972E-19-1.40152E-19
 -1      3141 9.38236E-05-2.56211E-05-2.92408E-05 7.83155E-06-1.04997E-18-7.02934E-20
 -1      3142 9.39605E-05-2.57226E-05-2.92314E-05 8.52258E-06-3.42230E-19 2.79351E-19
 -1      3143 9.23896E-05-2.47852E-05-2.89661E-05 7.36735E-06-3.84460E-19 5.33440E-19
 -1      3144 9.37290E-05-2.58060E-05-2.91190E-05 9.32678E-06 2.80155E-19 1.94079E-19
 -1      3145 9.40572E-05-2.61983E-05-2.90634E-05 1.00322E-05 1.03046E-18 2.99424E-19
 -1      3146 9.18542E-05-2.47239E-05-2.87657E-05 8.85535E-06-9.18145E-20 1.13682E-18
 -1      3147 9.40152E-05-2.66397E-05-2.88778E-05 1.09396E-05 9.93406E-19 8.85205E-20
 -1      3148 9.47206E-05-2.75302E-05-2.87678E-05 1.16011E-05 9.86641E-19 4.58731E-19
 -1      3149 9.15380E-05-2.52219E-05-2.84248E-05 1.05655E-05 6.11947E-19 1.50533E-19
 -1      3150 9.51125E-05-2.85774E-05-2.85016E-05 1.26067E-05 8.71172E-19-2.45110E-20
 -1      3151 9.64958E-05-3.02517E-05-2.83483E-05 1.31127E-05 7.80276E-19-2.43921E-19
 -1      3152 9.17946E-05-2.67086E-05-2.79154E-05 1.25429E-05 7.67168E-19-8.23716E-19
 -1      3153 9.77392E-05-3.22334E-05-2.80229E-05 1.41530E-05 8.83634E-19-3.27109E-19
 -1      3154 1.00207E-04-3.50249E-05-2.78866E-05 1.42837E-05-2.98940E-19-2.24840E-19
 -1      3155 9.32471E-05-2.98075E-05-2.72426E-05 1.47976E-05 7.63197E-19-1.91715E-18
 -1      3156 1.02958E-04-3.82104E-05-2.76064E-05 1.50000E-05-1.09622E-18 1.84999E-19
 -1      3157 1.06833E-04-4.22708E-05-2.76380E-05 1.43769E-05-1.31383E-18-1.09448E-19
 -1      3158 9.69788E-05-3.54011E-05-2.65103E-05 1.71220E-05-3.52498E-19-9.68344E-19
 -1      3159 1.13318E-04-4.80477E-05-2.77717E-05 1.36215E-05-1.42265E-18 8.24550E-19
 -1      3160 1.18584E-04-5.22984E-05-2.84125E-05 1.11764E-05-1.63230E-18 3.39753E-19
 -1      3161 1.26254E-04-5.68243E-05-2.96926E-05 7.66809E-06-2.03058E-18 8.68341E-19
 -1      3162 1.30579E-04-5.75298E-05-3.12773E-05 2.32197E-06-2.21384E-18 1.11266E-18
 -1      3163 1.22084E-04-2.32025E-05-4.28161E-05-1.73468E-05-1.16139E-18 6.59759E-19
 -1      3164 1.16915E-04-4.95856E-05-2.88495E-05-1.63422E-05-8.02087E-19-6.38708E-19
 -1      3165 1.11989E-04-4.50420E-05-2.84918E-05-1.84807E-05-1.20979E-18-1.76718E-18
 -1      3166 1.08055E-04-4.10772E-05-2.86507E-05-1.88608E-05-1.24374E-18-1.07706E-18
 -1      3167 1.04146E-04-3.68233E-05-2.87572E-05-1.93498E-05-1.43176E-18-1.72942E-18
 -1      3168 1.00714E-04-3.49185E-05-2.83101E-05-2.11199E-05-1.29891E-18-2.30975E-19
 -1      3169 1.07460E-04-4.35090E-05-2.76289E-05-2.26102E-05-4.88622E-19 1.51751E-19
 -1      3170 9.52739E-05-2.85680E-05-2.85886E-05-1.07502E-06 2.00400E-19-5.32231E-19
 -1      3171 9.52849E-05-2.84650E-05-2.86315E-05-1.00344E-06 4.40931E-19-4.89942E-19
 -1      3172 9.52434E-05-2.87001E-05-2.85181E-05-1.12080E-06 5.96625E-19-7.52909E-19
 -1      3173 9.52398E-05-2.86388E-05-2.85401E-05-1.11366E-06 3.52940E-19-5.97670E-19
 -1      3174 9.55864E-05-2.86779E-05-2.86785E-05-1.04220E-06 4.29990E-19-8.97312E-19
 -1      3175 9.52145E-05-2.87749E-05-2.84726E-05-8.89637E-07 7.93077E-20-7.59534E-19
 -1      3176 9.51936E-05-2.87770E-05-2.84646E-05-9.42251E-07 4.17903E-19-8.35458E-19
 -1      3177 9.52176E-05-2.87419E-05-2.84880E-05-7.92327E-07 4.08617E-19-4.49742E-19
 -1      3178 9.51955E-05-2.87543E-05-2.84756E-05-8.39747E-07 2.25867E-19-7.05791E-19
 -1      3179 9.53860E-05-2.88496E-05-2.85167E-05-8.71368E-07 2.59697E-19-1.16251E-18
 -1      3180 9.52245E-05-2.86926E-05-2.85119E-05-7.15989E-07 2.71846E-19-3.86758E-19
 -1      3181 9.52018E-05-2.87130E-05-2.84963E-05-7.51112E-07 5.21821E-19-1.10099E-19
 -1      3182 9.53523E-05-2.87955E-05-2.85252E-05-7.84149E-07 3.39194E-19-1.06273E-18
 -1      3183 9.52344E-05-2.86302E-05-2.85428E-05-6.72510E-07 2.21570E-20-4.05581E-19
 -1      3184 9.52109E-05-2.86571E-05-2.85244E-05-6.89802E-07 1.25282E-19-1.50268E-19
 -1      3185 9.53234E-05-2.87226E-05-2.85439E-05-7.19774E-07 1.10740E-19-3.26417E-19
 -1      3186 9.52474E-05-2.85560E-05-2.85799E-05-6.71778E-07-3.79589E-19 1.84328E-19
 -1      3187 9.52223E-05-2.85886E-05-2.85588E-05-6.66524E-07-1.81856E-19-1.05276E-19
 -1      3188 9.52978E-05-2.86339E-05-2.85708E-05-6.90277E-07-2.73711E-19-2.33565E-19
 -1      3189 9.52637E-05-2.84699E-05-2.86235E-05-7.22855E-07-1.32840E-19-4.78812E-19
 -1      3190 9.52358E-05-2.85081E-05-2.85993E-05-6.90633E-07-3.72686E-19-1.93961E-19
 -1      3191 9.52737E-05-2.85301E-05-2.86049E-05-7.05860E-07-9.96396E-20-1.66179E-19
 -1      3192 9.52842E-05-2.83713E-05-2.86741E-05-8.34732E-07 1.07656E-19-2.46652E-19
 -1      3193 9.52518E-05-2.84151E-05-2.86462E-05-7.71096E-07 5.96441E-20-3.27143E-19
 -1      3194 9.52495E-05-2.84106E-05-2.86457E-05-7.75988E-07-9.63489E-20-8.35463E-19
 -1      3195 9.53103E-05-2.82596E-05-2.87326E-05-1.01670E-06 9.18896E-19-2.07749E-19
 -1      3196 9.52711E-05-2.83088E-05-2.87003E-05-9.17063E-07 7.18287E-19 1.20979E-19
 -1      3197 9.52237E-05-2.82736E-05-2.86932E-05-9.10111E-07 3.62470E-19-3.42775E-19
 -1      3198 9.53442E-05-2.81351E-05-2.87999E-05-1.27827E-06 4.31123E-19-2.86566E-19
 -1      3199 9.52954E-05-2.81889E-05-2.87624E-05-1.13803E-06 8.06641E-19-1.55215E-19
 -1      3200 9.51948E-05-2.81180E-05-2.87475E-05-1.11798E-06 1.05991E-18 3.35561E-19
 -1      3201 9.53896E-05-2.80005E-05-2.88764E-05-1.62862E-06 1.19365E-19-1.51650E-19
 -1      3202 9.53277E-05-2.80566E-05-2.88333E-05-1.44358E-06-2.90408E-21-2.39203E-19
 -1      3203 9.51625E-05-2.79438E-05-2.88083E-05-1.40954E-06 4.30249E-19 2.14044E-19
 -1      3204 9.54524E-05-2.78623E-05-2.89618E-05-2.07540E-06 1.93350E-19 4.43728E-19
 -1      3205 9.53724E-05-2.79163E-05-2.89129E-05-1.84248E-06 2.23596E-19 1.58508E-19
 -1      3206 9.51277E-05-2.77538E-05-2.88748E-05-1.79437E-06 1.08459E-20 8.41516E-19
 -1      3207 9.55420E-05-2.77335E-05-2.90548E-05-2.62270E-06-3.07834E-19 8.89959E-19
 -1      3208 9.54375E-05-2.77775E-05-2.90005E-05-2.34122E-06 1.67156E-19 7.54866E-19
 -1      3209 9.50946E-05-2.75564E-05-2.89452E-05-2.28054E-06 7.62738E-20 1.05063E-18
 -1      3210 9.56744E-05-2.76372E-05-2.91522E-05-3.26810E-06 2.84182E-19 1.08966E-21
 -1      3211 9.55357E-05-2.76580E-05-2.90939E-05-2.94155E-06 5.29660E-20-6.33947E-20
 -1      3212 9.50720E-05-2.73683E-05-2.90164E-05-2.87276E-06 5.03114E-19 8.31638E-19
 -1      3213 9.58752E-05-2.76117E-05-2.92489E-05-3.99840E-06-8.36960E-19-3.52644E-19
 -1      3214 9.56884E-05-2.75881E-05-2.91889E-05-3.63705E-06-1.26021E-21-2.20058E-19
 -1      3215 9.50776E-05-2.72191E-05-2.90832E-05-3.56973E-06 8.49871E-20 1.02536E-18
 -1      3216 9.61865E-05-2.77160E-05-2.93376E-05-4.78391E-06-7.86314E-19 5.79339E-19
 -1      3217 9.59304E-05-2.76161E-05-2.92795E-05-4.40813E-06-8.13493E-19-2.02611E-19
 -1      3218 9.51433E-05-2.71576E-05-2.91388E-05-4.36053E-06-7.05177E-19 9.00883E-20
 -1      3219 9.66739E-05-2.80373E-05-2.94092E-05-5.57070E-06-1.31997E-19 9.27261E-20
 -1      3220 9.63172E-05-2.78153E-05-2.93575E-05-5.21542E-06-3.84389E-19-1.13297E-19
 -1      3221 9.53226E-05-2.72592E-05-2.91742E-05-5.21961E-06-2.60742E-19 1.11459E-19
 -1      3222 9.74366E-05-2.86954E-05-2.94553E-05-6.27025E-06-8.87089E-20 2.10907E-19
 -1      3223 9.69346E-05-2.82904E-05-2.94143E-05-5.99049E-06 1.49961E-19 3.79370E-19
 -1      3224 9.57024E-05-2.76334E-05-2.91804E-05-6.09970E-06-1.06750E-19 9.84511E-20
 -1      3225 9.86144E-05-2.98401E-05-2.94721E-05-6.74549E-06-5.91126E-19-8.81175E-20
 -1      3226 9.79086E-05-2.91796E-05-2.94436E-05-6.62282E-06-2.84341E-19 2.02898E-19
 -1      3227 9.64157E-05-2.84302E-05-2.91509E-05-6.92086E-06-2.58667E-19 7.35139E-19
 -1      3228 1.00384E-04-3.16278E-05-2.94696E-05-6.79261E-06-5.63986E-19-3.32763E-19
 -1      3229 9.94092E-05-3.06442E-05-2.94484E-05-6.94161E-06-7.49119E-19-6.27200E-19
 -1      3230 9.76529E-05-2.98353E-05-2.90888E-05-7.55249E-06-5.62489E-19-2.45352E-19
 -1      3231 1.02922E-04-3.41536E-05-2.94846E-05-6.12095E-06-3.70295E-19-4.60520E-20
 -1      3232 1.01635E-04-3.28273E-05-2.94520E-05-6.69160E-06-7.56825E-20-1.92194E-19
 -1      3233 9.96602E-05-3.20397E-05-2.90178E-05-7.78356E-06-5.26086E-19-1.70427E-18
 -1      3234 1.06307E-04-3.73078E-05-2.96006E-05-4.34829E-06-5.55516E-19-4.43437E-19
 -1      3235 1.04748E-04-3.57515E-05-2.95157E-05-5.51029E-06-5.51272E-19 9.18423E-20
 -1      3236 1.02700E-04-3.51527E-05-2.90013E-05-7.27919E-06-3.36796E-19-1.24419E-18
 -1      3237 1.10331E-04-4.05122E-05-2.99683E-05-1.05315E-06-3.93123E-19-7.79229E-19
 -1      3238 1.08706E-04-3.91105E-05-2.97607E-05-2.93292E-06-6.47922E-19-8.72770E-19
 -1      3239 1.06929E-04-3.90145E-05-2.91694E-05-5.52948E-06-5.53951E-19-7.26369E-19
 -1      3240 1.14164E-04-4.25323E-05-3.07868E-05 3.79135E-06-1.30446E-19-5.15599E-19
 -1      3241 1.12945E-04-4.19527E-05-3.03757E-05 1.33362E-06-3.64644E-19-5.64260E-19
 -1      3242 1.11964E-04-4.27478E-05-2.97446E-05-1.87068E-06-6.79860E-19-1.72802E-18
 -1      3243 1.16331E-04-4.11215E-05-3.22787E-05 9.80447E-06 2.69135E-19 4.15963E-19
 -1      3244 1.16416E-04-4.25799E-05-3.15902E-05 7.41616E-06 3.52789E-19 5.57639E-19
 -1      3245 1.17231E-04-4.51157E-05-3.10461E-05 3.88507E-06-4.90525E-19-1.00715E-18
 -1      3246 1.15389E-04-3.50020E-05-3.44416E-05 1.44755E-05-3.56660E-19 1.51508E-18
 -1      3247 1.16945E-04-3.89311E-05-3.35108E-05 1.31258E-05-2.59258E-19 9.84643E-19
 -1      3248 1.19838E-04-4.23503E-05-3.33114E-05 1.07867E-05-6.79347E-20 6.28750E-19
 -1      3249 1.11077E-04-2.53773E-05-3.67208E-05 1.39243E-05 8.98914E-19 1.24577E-18
 -1      3250 1.13605E-04-3.03225E-05-3.59305E-05 1.51659E-05 3.36907E-19 1.81305E-18
 -1      3251 1.18441E-04-3.36978E-05-3.62985E-05 1.56339E-05 1.93282E-19 4.33906E-19
 -1      3252 1.09705E-04-1.62488E-05-4.02818E-05 5.18501E-06 2.04760E-18 1.23468E-18
 -1      3253 1.11008E-04-1.86368E-05-3.98533E-05 9.68825E-06 1.40901E-18 1.26016E-18
 -1      3254 1.12370E-04-2.84587E-05-3.62352E-05-9.86756E-06-7.00754E-19 1.48704E-19
 -1      3255 1.10368E-04-2.38557E-05-3.70931E-05-7.85199E-06 1.78486E-19 2.13560E-19
 -1      3256 1.16102E-04-3.75997E-05-3.37907E-05-8.83086E-06-7.23793E-19 3.60836E-19
 -1      3257 1.14631E-04-3.34552E-05-3.47708E-05-9.79322E-06-4.93211E-19 2.32309E-19
 -1      3258 1.17838E-04-3.18074E-05-3.69100E-05-1.09588E-05-3.15096E-19 5.25849E-19
 -1      3259 1.16125E-04-4.21682E-05-3.17111E-05-3.28451E-06-9.10220E-19-6.52295E-19
 -1      3260 1.16136E-04-4.04492E-05-3.24755E-05-5.79785E-06-4.91026E-19-5.77438E-20
 -1      3261 1.20233E-04-4.14677E-05-3.37521E-05-6.80479E-06-1.81477E-19 4.63856E-19
 -1      3262 1.12718E-04-4.15577E-05-3.04446E-05 2.70910E-06-3.05733E-19-1.43830E-18
 -1      3263 1.14050E-04-4.21459E-05-3.08885E-05 2.27256E-07-8.29196E-19-1.33389E-18
 -1      3264 1.17980E-04-4.47627E-05-3.14320E-05 3.50535E-07-7.90808E-19-1.59011E-19
 -1      3265 1.07902E-04-3.80238E-05-2.98920E-05 6.91339E-06 2.03529E-19-1.56000E-18
 -1      3266 1.09840E-04-3.98206E-05-3.00672E-05 5.24676E-06-4.83276E-19-1.69387E-18
 -1      3267 1.12894E-04-4.25818E-05-3.01880E-05 6.27414E-06-4.56994E-19-1.85144E-18
 -1      3268 1.04530E-04-3.49734E-05-2.97854E-05 9.33555E-06-9.75904E-19-5.94228E-19
 -1      3269 1.06029E-04-3.65735E-05-2.98125E-05 8.26512E-06-1.98490E-19-1.39003E-18
 -1      3270 1.08180E-04-3.88605E-05-2.97494E-05 9.84798E-06-6.28794E-19-3.39580E-18
 -1      3271 1.04536E-04-3.51555E-05-2.97164E-05 1.16207E-05-1.20516E-18-2.46682E-18
 -1      3272 1.39485E-04-5.75232E-05-3.52705E-05 3.97802E-07-1.53623E-18 1.77348E-18
 -1      3273 9.23751E-05-1.83442E-05-3.17427E-05 1.81301E-06 7.35436E-19-2.30075E-18
 -1      3274 9.22556E-05-1.81421E-05-3.17747E-05 1.05886E-06 4.98288E-19-2.33725E-18
 -1      3275 1.15604E-04-1.42328E-05-4.40522E-05-2.91380E-06 9.69853E-19 2.44451E-18
 -1      3276 1.17462E-04-1.83185E-05-4.27942E-05-7.93887E-06 1.38257E-18 2.36346E-18
 -1      3277 7.25568E-05-1.56466E-05-2.44674E-05 8.46647E-06-1.13030E-18-2.78605E-18
 -1      3278 7.59103E-05-1.75528E-05-2.48197E-05 1.38381E-05-3.06252E-19-2.65827E-18
 -1      3279 4.03849E-05-1.48408E-05-1.01682E-05-1.37241E-05-8.08334E-19 4.88632E-19
 -1      3280 5.04973E-05-1.98701E-05-1.28523E-05-2.26885E-05-1.15189E-18-2.04664E-19
 -1      3281 8.99158E-05-2.70340E-05-2.68049E-05-2.25387E-05-6.72150E-19 2.75039E-18
 -1      3282 8.45899E-05-2.39518E-05-2.61220E-05-2.11029E-05-5.45784E-19 2.82210E-18
 -1      3283 7.14668E-05-1.45514E-05-2.43228E-05-5.53487E-06 1.39347E-19 2.16719E-18
 -1      3284 7.08331E-05-1.41700E-05-2.42403E-05 7.39454E-07-2.83579E-19-7.72415E-19
 -1      3285 6.85829E-05-1.54074E-05-2.25514E-05 5.53190E-06 7.92532E-19-6.15436E-19
 -1      3286 9.54120E-05-2.73489E-05-2.91770E-05 2.78900E-07 1.08417E-18-7.36636E-19
 -1      3287 9.54769E-05-2.69428E-05-2.93558E-05 8.39377E-07 1.21813E-18-8.28120E-19
 -1      3288 9.53708E-05-2.79585E-05-2.88950E-05-4.68087E-07 8.29306E-19-6.03555E-19
 -1      3289 9.54258E-05-2.77009E-05-2.90118E-05-1.37780E-07 1.02699E-18-5.55492E-19
 -1      3290 9.56914E-05-2.73366E-05-2.93002E-05 2.29308E-07 9.49287E-19-5.64016E-19
 -1      3291 7.86718E-05-1.95501E-05-2.51483E-05-1.76264E-05-9.05585E-19 3.27354E-18
 -1      3292 7.42685E-05-1.69828E-05-2.46398E-05-1.29423E-05-1.13172E-18 4.76771E-18
 -1      3293 8.05326E-05-2.38204E-05-2.41803E-05-2.19829E-05-1.02361E-18 3.61068E-18
 -1      3294 9.52163E-05-2.87860E-05-2.84689E-05-9.92400E-07 5.55910E-19-9.27093E-19
 -1      3295 9.51981E-05-2.87737E-05-2.84672E-05-1.04054E-06 5.04591E-19-6.46512E-19
 -1      3296 9.54258E-05-2.88786E-05-2.85218E-05-9.65987E-07 4.40733E-19-5.31983E-19
 -1      3297 9.25737E-05-1.82250E-05-3.18807E-05-6.83085E-06-1.60095E-18-1.84584E-18
 -1      3298 9.31998E-05-1.92288E-05-3.17383E-05-7.33743E-06-1.85017E-18-1.58342E-18
 -1      3299 9.41051E-05-2.12311E-05-3.12210E-05-6.03320E-06-1.75658E-18-1.31435E-18
 -1      3300 9.32805E-05-1.96034E-05-3.15516E-05-5.58698E-06-1.46297E-18-1.75382E-18
 -1      3301 9.52251E-05-2.87657E-05-2.84816E-05-1.07936E-06 5.71363E-19-7.62574E-19
 -1      3302 9.52122E-05-2.87333E-05-2.84895E-05-1.10946E-06 7.19881E-19-7.92201E-19
 -1      3303 9.54726E-05-2.88719E-05-2.85452E-05-1.04711E-06 5.72198E-19-7.21492E-19
 -1      3304 9.48124E-05-4.60668E-05-2.10135E-05 3.00954E-05-6.51792E-19 2.74275E-18
 -1      3305 7.98612E-05-3.69673E-05-1.79709E-05 3.10571E-05-3.65283E-20 7.29031E-19
 -1      3306 1.08365E-04-5.21642E-05-2.44410E-05 3.23482E-05-3.22349E-18-1.72985E-18
 -1      3307 9.48515E-05-4.36182E-05-2.13629E-05 3.54261E-05-3.43980E-18-8.83297E-20
 -1      3308 9.53178E-05-2.83374E-05-2.87077E-05-8.83953E-07 4.77686E-19-4.21642E-19
 -1      3309 9.53491E-05-2.81728E-05-2.87810E-05-7.09669E-07 6.51461E-19-5.39334E-19
 -1      3310 9.56461E-05-2.84290E-05-2.88116E-05-8.61055E-07 4.18710E-19-3.89903E-19
 -1      3311 1.32061E-04-4.63347E-05-3.70980E-05-6.17455E-06 6.09890E-19-7.26992E-19
 -1      3312 1.33510E-04-5.39899E-05-3.38332E-05 1.94146E-06 4.06629E-19-2.24866E-18
 -1      3313 9.55184E-05-2.55787E-05-2.99517E-05-2.13685E-06-1.06039E-18-1.10213E-18
 -1      3314 9.55394E-05-2.62776E-05-2.96986E-05-1.34269E-06-8.88588E-19-1.16641E-18
 -1      3315 9.57044E-05-2.61990E-05-2.97895E-05-1.17680E-06-8.13852E-19-1.06307E-18
 -1      3316 6.15563E-05-2.45027E-05-1.53510E-05-2.88662E-05 1.86395E-18 1.82091E-18
 -1      3317 7.39216E-05-3.23679E-05-1.76805E-05-3.42587E-05 5.56024E-19 3.47358E-18
 -1      3318 6.38179E-05-2.13788E-05-1.76893E-05-2.26565E-05 1.11845E-18 1.59528E-18
 -1      3319 1.33418E-04-4.78807E-05-3.66679E-05 8.27657E-06-1.52720E-18 1.16340E-18
 -1      3320 1.34815E-04-4.04334E-05-4.09641E-05 1.33822E-05-1.06795E-18 1.99942E-18
 -1      3321 1.26783E-04-5.71276E-05-2.94631E-05-1.00943E-05-1.06014E-18 1.60301E-19
 -1      3322 1.31476E-04-5.60350E-05-3.28422E-05-1.61932E-06-1.56664E-18-2.74492E-20
 -1      3323 9.52045E-05-2.42722E-05-3.04023E-05 4.27455E-06 1.65298E-18-9.91843E-19
 -1      3324 9.46374E-05-2.27184E-05-3.08063E-05 4.79003E-06 1.74234E-18-1.06524E-18
 -1      3325 9.49640E-05-2.36003E-05-3.05656E-05 3.70064E-06 1.43992E-18-1.10116E-18
 -1      3326 9.52401E-05-2.52046E-05-3.00288E-05 2.99267E-06 1.48346E-18-9.57294E-19
 -1      3327 6.83680E-05-3.14965E-05-1.52269E-05 3.46700E-05-1.38109E-18 3.28458E-18
 -1      3328 1.29819E-04-5.90231E-05-3.08617E-05 1.37442E-05 1.04609E-19-2.64643E-18
 -1      3329 1.21784E-04-5.70619E-05-2.72626E-05 2.33725E-05-1.67613E-18-2.68316E-18
 -1      3330 1.19205E-04-2.37532E-05-4.14867E-05-1.05573E-05 7.59365E-19 1.80921E-18
 -1      3331 1.24736E-04-3.26641E-05-3.96277E-05-1.08013E-05 2.96991E-19 4.10017E-19
 -1      3332 1.01659E-04-4.95753E-05-2.19535E-05-2.99360E-05-1.14776E-18 1.02928E-19
 -1      3333 1.16037E-04-5.61999E-05-2.59716E-05-2.20859E-05-1.33079E-18 6.06714E-19
 -1      3334 7.85461E-05-3.47775E-05-1.88960E-05 3.56530E-05-2.53718E-18 5.77518E-19
 -1      3335 6.43159E-05-2.44764E-05-1.63850E-05 2.83258E-05-1.18225E-18 3.23350E-18
 -1      3336 1.29937E-04-5.70218E-05-3.12590E-05-9.08072E-06-6.92979E-20 6.22649E-19
 -1      3337 9.21955E-05-1.80418E-05-3.17932E-05 4.09108E-07 3.50195E-19-2.40912E-18
 -1      3338 9.21926E-05-1.80375E-05-3.17937E-05-3.59447E-07 1.38407E-19-2.49850E-18
 -1      3339 9.31489E-05-1.96259E-05-3.14924E-05 6.29080E-07 3.69390E-19-2.20547E-18
 -1      3340 9.43367E-05-2.19780E-05-3.09888E-05 3.63262E-06 1.43002E-18-1.38587E-18
 -1      3341 9.34325E-05-2.02134E-05-3.14043E-05 4.24678E-06 1.47725E-18-1.61046E-18
 -1      3342 9.30741E-05-1.95528E-05-3.15180E-05 3.65510E-06 1.24661E-18-1.81307E-18
 -1      3343 1.28855E-04-3.38363E-05-4.09612E-05 1.61375E-05-4.34369E-19 2.00392E-18
 -1      3344 6.36016E-05-2.10212E-05-1.78776E-05 2.12608E-05-6.12775E-20 2.01927E-18
 -1      3345 1.05650E-04-4.50632E-05-2.61320E-05 1.84745E-05-9.98083E-19 9.97911E-20
 -1      3346 9.30407E-05-1.95014E-05-3.15269E-05-3.61113E-06-8.26601E-19-1.58481E-18
 -1      3347 9.33996E-05-2.01333E-05-3.14180E-05-4.22379E-06-1.13224E-18-1.76444E-18
 -1      3348 9.55267E-05-2.88133E-05-2.85942E-05-1.08587E-06 6.34705E-19-9.87449E-19
 -1      3349 1.24772E-04-5.51004E-05-2.96674E-05-1.36869E-05 1.06369E-19 6.24674E-19
 -1      3350 1.18540E-04-5.40473E-05-2.78432E-05-2.17169E-05-9.47565E-19 5.30560E-19
 -1      3351 1.15890E-04-5.61659E-05-2.54057E-05-2.84589E-05-1.35557E-18 2.83957E-18
 -1      3352 9.27874E-05-1.90543E-05-3.16190E-05 3.12709E-06 1.13536E-18-1.97417E-18
 -1      3353 9.25496E-05-1.86396E-05-3.16866E-05 2.42514E-06 8.94569E-19-2.13524E-18
 -1      3354 9.33622E-05-2.00154E-05-3.14159E-05 1.80467E-06 7.38638E-19-2.05056E-18
 -1      3355 9.37716E-05-2.07961E-05-3.12549E-05 2.84832E-06 1.08997E-18-1.71921E-18
 -1      3356 1.15962E-04-1.98225E-05-4.14760E-05 1.29259E-05 1.33974E-18 1.19384E-18
 -1      3357 1.13995E-04-2.15200E-05-3.97096E-05-8.39090E-06 1.42990E-19 2.24408E-18
 -1      3358 1.08811E-04-2.03869E-05-3.81746E-05-5.05307E-06 9.89017E-19 1.22297E-18
 -1      3359 1.07662E-04-1.80639E-05-3.84964E-05-6.15450E-07 1.96755E-18 9.47042E-19
 -1      3360 9.25036E-05-2.94587E-05-2.71145E-05 2.23121E-05-9.77124E-19 1.06644E-18
 -1      3361 9.73298E-05-3.24249E-05-2.77150E-05 2.19548E-05-1.52022E-18 1.00112E-18
 -1      3362 9.41723E-05-2.16384E-05-3.10958E-05-5.02664E-06-1.48691E-18-1.49262E-18
 -1      3363 9.46174E-05-2.25206E-05-3.09045E-05-5.11994E-06-1.55047E-18-1.25608E-18
 -1      3364 9.49226E-05-2.35102E-05-3.05871E-05-4.13015E-06-1.34350E-18-1.22836E-18
 -1      3365 1.01879E-04-4.62329E-05-2.36449E-05 2.39350E-05-5.12376E-19 1.64175E-18
 -1      3366 5.46030E-05-1.90698E-05-1.50428E-05-2.00399E-05-1.16352E-18-1.06170E-18
 -1      3367 5.94507E-05-2.35889E-05-1.47361E-05-2.71368E-05-1.10347E-18-1.31650E-18
 -1      3368 8.11687E-05-2.20060E-05-2.54905E-05 1.91394E-05-1.95199E-18-2.81846E-18
 -1      3369 8.67459E-05-2.52767E-05-2.61213E-05 2.15469E-05-1.55708E-18-1.72693E-18
 -1      3370 8.93431E-05-3.02267E-05-2.54051E-05 2.46547E-05-2.52464E-18-1.54266E-19
 -1      3371 8.30543E-05-3.46625E-05-2.05105E-05 2.63922E-05 6.76038E-19 2.30393E-19
 -1      3372 7.36598E-05-3.23047E-05-1.74337E-05 2.95987E-05 8.07328E-19-1.05434E-18
 -1      3373 6.72854E-05-2.66037E-05-1.71805E-05 2.54319E-05 9.38618E-19-9.80864E-19
 -1      3374 6.98499E-05-1.64674E-05-2.26456E-05-1.05945E-05 4.08495E-19 2.99118E-18
 -1      3375 1.00485E-04-3.40987E-05-2.84458E-05 1.98398E-05-5.58821E-19 3.52716E-19
 -1      3376 1.02773E-04-3.54360E-05-2.88259E-05 1.82741E-05-7.56149E-19-8.42244E-19
 -1      3377 1.00600E-04-3.66400E-05-2.73947E-05 2.25225E-05-1.40831E-18 1.97685E-19
 -1      3378 8.42181E-05-3.74081E-05-1.95286E-05-3.54950E-05-1.95453E-19 3.21078E-18
 -1      3379 9.38077E-05-4.27055E-05-2.20572E-05-3.40863E-05-7.54495E-19 3.98246E-18
 -1      3380 7.98514E-05-3.12992E-05-2.04494E-05-3.09639E-05 1.87300E-19 4.27966E-18
 -1      3381 1.28372E-04-5.41164E-05-3.18768E-05 6.46406E-06 4.98174E-19-1.79886E-18
 -1      3382 1.18908E-04-5.41637E-05-2.77436E-05-1.42463E-05-1.27121E-18-2.13413E-20
 -1      3383 1.14412E-04-5.18658E-05-2.66229E-05 2.48358E-05-2.57591E-18-1.89147E-18
 -1      3384 6.90355E-05-2.87626E-05-1.70192E-05-2.86156E-05-8.36154E-19-1.44218E-18
 -1      3385 9.56921E-05-2.80108E-05-2.90111E-05-4.68568E-07 6.95006E-19-4.21602E-19
 -1      3386 8.64796E-05-3.86580E-05-2.03674E-05-2.98705E-05-1.32603E-18-5.50783E-19
 -1      3387 9.45472E-05-4.49719E-05-2.10606E-05-3.13091E-05-9.69853E-19 2.86774E-19
 -1      3388 1.01870E-04-4.61680E-05-2.37538E-05-2.44332E-05-1.29396E-18 1.25364E-18
 -1      3389 4.54263E-05-1.68879E-05-1.16263E-05 1.57952E-05 5.23969E-19-1.69417E-18
 -1      3390 4.54844E-05-1.46806E-05-1.29403E-05 9.39742E-06-1.07083E-19-1.04238E-18
 -1      3391 5.46610E-05-1.98145E-05-1.46472E-05 1.96169E-05 2.06954E-19-1.23106E-18
 -1      3392 8.83923E-05-3.70932E-05-2.18937E-05 3.19722E-05-3.46871E-18-2.97229E-19
 -1      3393 9.50946E-05-2.43597E-05-3.03275E-05-3.29420E-06-1.21934E-18-1.14586E-18
 -1      3394 5.40425E-05-1.48925E-05-1.62305E-05-2.52886E-06 2.36356E-18 1.13058E-18
 -1      3395 4.28930E-05-1.40333E-05-1.19241E-05-6.73475E-06-9.17985E-19-4.62692E-20
 -1      3396 9.53804E-05-2.64936E-05-2.95306E-05 1.37149E-06 1.37521E-18-9.96790E-19
 -1      3397 9.54319E-05-2.58865E-05-2.97902E-05 2.24823E-06 1.38974E-18-9.82617E-19
 -1      3398 9.53560E-05-2.52335E-05-3.00696E-05 2.60233E-06 1.41515E-18-1.13348E-18
 -1      3399 9.55836E-05-2.64087E-05-2.96535E-05 1.23902E-06 1.27047E-18-9.75294E-19
 -1      3400 1.29697E-04-4.93569E-05-3.44530E-05 6.27320E-06-7.26384E-19-5.33154E-19
 -1      3401 9.77333E-05-3.27606E-05-2.77311E-05-2.23447E-05-1.37503E-18 1.38662E-18
 -1      3402 9.37532E-05-3.00498E-05-2.73717E-05-2.27983E-05-9.15355E-19 2.32692E-18
 -1      3403 9.21229E-05-3.13831E-05-2.59314E-05-2.51680E-05-3.73303E-19 2.24319E-18
 -1      3404 1.00535E-04-3.66543E-05-2.72946E-05-2.34801E-05-2.27693E-19 1.14911E-18
 -1      3405 1.27111E-04-4.01859E-05-3.75175E-05-9.87553E-06 7.14419E-20 3.00723E-19
 -1      3406 9.51480E-05-2.42492E-05-3.03899E-05-2.91216E-06-1.14310E-18-1.36878E-18
 -1      3407 9.25270E-05-1.86089E-05-3.16912E-05-2.37884E-06-2.15489E-19-2.04598E-18
 -1      3408 9.27554E-05-1.90041E-05-3.16254E-05-3.08659E-06-5.04199E-19-1.73746E-18
 -1      3409 9.37297E-05-2.07505E-05-3.12646E-05-2.80909E-06-6.18808E-19-1.32697E-18
 -1      3410 1.24715E-04-4.35476E-05-3.49070E-05-6.42838E-06 3.27643E-19-6.01460E-20
 -1      3411 7.62568E-05-2.13761E-05-2.35133E-05 1.91245E-05-1.17629E-18-1.12998E-18
 -1      3412 7.12500E-05-2.18171E-05-2.12170E-05 2.12314E-05-1.20118E-18 1.40025E-19
 -1      3413 6.25510E-05-1.58853E-05-1.96529E-05 1.20255E-05 1.23648E-18-6.35672E-19
 -1      3414 1.21889E-04-1.78183E-05-4.49184E-05 1.20486E-05 1.55473E-18 1.62299E-18
 -1      3415 1.24950E-04-4.71604E-05-3.33364E-05-3.29405E-06 4.99506E-19-4.95375E-19
 -1      3416 1.20917E-04-4.79078E-05-3.13773E-05 2.63045E-06 1.01998E-19-5.45646E-19
 -1      3417 1.25495E-04-5.07370E-05-3.22122E-05 2.88247E-06 2.72209E-19-1.50237E-18
 -1      3418 1.23507E-04-5.32562E-05-2.98358E-05 1.20475E-05-6.10082E-19-2.05611E-18
 -1      3419 1.18811E-04-4.71851E-05-3.05464E-05 5.73823E-06-5.38951E-19-8.23984E-19
 -1      3420 9.57812E-05-2.89206E-05-2.86542E-05-1.01574E-06 4.46306E-19-4.81114E-19
 -1      3421 9.58118E-05-2.88633E-05-2.86894E-05-1.01010E-06 5.23928E-19-5.18996E-19
 -1      3422 1.21423E-04-2.72915E-05-4.08412E-05 1.67764E-05 7.92426E-19 1.32182E-18
 -1      3423 9.61715E-05-2.78310E-05-2.92812E-05 2.39633E-07-4.26538E-19-4.97789E-19
 -1      3424 9.61674E-05-2.81494E-05-2.91551E-05 4.91724E-07-4.28476E-19-4.95254E-19
 -1      3425 9.61768E-05-2.84118E-05-2.90364E-05 6.53167E-07-3.95864E-19-4.16746E-19
 -1      3426 9.61472E-05-2.86087E-05-2.89474E-05 7.88521E-07-2.13007E-19-3.35275E-19
 -1      3427 9.63683E-05-2.82217E-05-2.92072E-05 4.69454E-07-3.29476E-19-3.21936E-19
 -1      3428 9.61144E-05-2.87614E-05-2.88616E-05 8.65280E-07-2.37534E-19-5.56602E-19
 -1      3429 9.60743E-05-2.88743E-05-2.88007E-05 9.20921E-07-1.82386E-19-5.71983E-19
 -1      3430 9.63468E-05-2.86918E-05-2.89971E-05 7.26734E-07-3.60422E-19-3.11002E-19
 -1      3431 9.60191E-05-2.89517E-05-2.87407E-05 9.41037E-07 6.74732E-20-7.70030E-19
 -1      3432 9.59764E-05-2.90065E-05-2.87011E-05 9.46001E-07 3.16744E-19-5.36197E-19
 -1      3433 9.62613E-05-2.89589E-05-2.88461E-05 8.40471E-07-1.94003E-19-6.51070E-19
 -1      3434 9.59112E-05-2.90326E-05-2.86608E-05 9.31621E-07 1.24419E-19-6.33428E-19
 -1      3435 9.58699E-05-2.90477E-05-2.86371E-05 9.07732E-07-2.10382E-20-5.67301E-19
 -1      3436 9.61434E-05-2.90852E-05-2.87414E-05 8.60620E-07 6.41288E-20-8.74212E-19
 -1      3437 9.58021E-05-2.90390E-05-2.86121E-05 8.75591E-07-1.54716E-19-6.46473E-19
 -1      3438 9.57638E-05-2.90267E-05-2.86003E-05 8.38924E-07-3.38779E-19-7.23654E-19
 -1      3439 9.60128E-05-2.91148E-05-2.86724E-05 8.26081E-07-1.64173E-19-1.05659E-18
 -1      3440 9.56972E-05-2.89944E-05-2.85869E-05 8.01425E-07-4.92919E-19-8.13243E-19
 -1      3441 9.56624E-05-2.89629E-05-2.85840E-05 7.63725E-07-4.05898E-19-6.59319E-19
 -1      3442 9.58803E-05-2.90781E-05-2.86311E-05 7.66216E-07-4.47757E-19-9.37118E-19
 -1      3443 9.55983E-05-2.89139E-05-2.85795E-05 7.29979E-07-5.65358E-19-8.08960E-19
 -1      3444 9.55666E-05-2.88682E-05-2.85833E-05 6.99928E-07-7.07965E-19-7.65471E-19
 -1      3445 9.57513E-05-2.89953E-05-2.86110E-05 7.02789E-07-6.49057E-19-1.18579E-18
 -1      3446 9.55045E-05-2.88063E-05-2.85859E-05 6.76802E-07-8.92890E-19-7.08982E-19
 -1      3447 9.54748E-05-2.87489E-05-2.85950E-05 6.61118E-07-1.06398E-18-7.51549E-19
 -1      3448 9.56266E-05-2.88785E-05-2.86073E-05 6.51981E-07-7.57033E-19-1.01779E-18
 -1      3449 9.54128E-05-2.86753E-05-2.86031E-05 6.54105E-07-1.12857E-18-6.58083E-19
 -1      3450 9.53834E-05-2.86067E-05-2.86167E-05 6.58366E-07-1.27157E-18-4.89240E-19
 -1      3451 9.55037E-05-2.87336E-05-2.86164E-05 6.26333E-07-1.11496E-18-6.42391E-19
 -1      3452 9.53183E-05-2.85209E-05-2.86292E-05 6.72220E-07-1.01445E-18 1.46511E-19
 -1      3453 9.52872E-05-2.84402E-05-2.86467E-05 7.01492E-07-6.00297E-19 5.48510E-19
 -1      3454 9.53778E-05-2.85617E-05-2.86357E-05 6.36185E-07-6.32278E-19 2.28395E-19
 -1      3455 9.52149E-05-2.83400E-05-2.86629E-05 7.40716E-07-6.45400E-19 7.13869E-19
 -1      3456 9.51793E-05-2.82450E-05-2.86839E-05 8.00013E-07-3.94341E-19 4.03515E-19
 -1      3457 9.52417E-05-2.83603E-05-2.86632E-05 6.90766E-07-6.24640E-19 7.94961E-19
 -1      3458 9.50945E-05-2.81270E-05-2.87031E-05 8.69200E-07 2.14570E-20 6.54269E-19
 -1      3459 9.50511E-05-2.80149E-05-2.87275E-05 9.63782E-07 4.53461E-20 5.17826E-19
 -1      3460 9.50860E-05-2.81239E-05-2.86973E-05 7.99009E-07-1.36496E-19 7.80208E-19
 -1      3461 9.49474E-05-2.78749E-05-2.87488E-05 1.06781E-06-5.72394E-19 9.38402E-19
 -1      3462 9.48922E-05-2.77420E-05-2.87761E-05 1.20331E-06-4.91974E-19 2.22382E-19
 -1      3463 9.48992E-05-2.78448E-05-2.87363E-05 9.70048E-07-6.39505E-20 1.14345E-18
 -1      3464 9.47618E-05-2.75754E-05-2.87985E-05 1.34737E-06 1.75773E-20-2.92831E-19
 -1      3465 9.46899E-05-2.74181E-05-2.88280E-05 1.52977E-06 3.51346E-19-2.68487E-20
 -1      3466 9.46673E-05-2.75140E-05-2.87779E-05 1.21341E-06-5.59462E-19 2.23413E-19
 -1      3467 9.45238E-05-2.72202E-05-2.88497E-05 1.71932E-06 7.46349E-19-8.96618E-20
 -1      3468 9.44292E-05-2.70353E-05-2.88801E-05 1.95474E-06 1.22330E-18-2.98603E-19
 -1      3469 9.43738E-05-2.71221E-05-2.88191E-05 1.53895E-06 6.72174E-19-3.41121E-19
 -1      3470 9.42168E-05-2.68021E-05-2.88986E-05 2.19532E-06 1.27426E-18-3.77688E-19
 -1      3471 9.40930E-05-2.65879E-05-2.89276E-05 2.48968E-06 1.03074E-18-1.04379E-18
 -1      3472 9.39994E-05-2.66603E-05-2.88553E-05 1.95652E-06 8.91014E-19-6.37120E-19
 -1      3473 9.38226E-05-2.63174E-05-2.89388E-05 2.78671E-06 7.81877E-19-1.45608E-18
 -1      3474 9.36623E-05-2.60749E-05-2.89628E-05 3.14532E-06 1.41771E-20-1.20297E-18
 -1      3475 9.35222E-05-2.61231E-05-2.88795E-05 2.47558E-06 4.39708E-19-1.21489E-18
 -1      3476 9.33215E-05-2.57689E-05-2.89608E-05 3.50416E-06-2.20834E-19-9.27394E-19
 -1      3477 9.31188E-05-2.55050E-05-2.89739E-05 3.93140E-06 4.48011E-19-4.01166E-19
 -1      3478 9.29179E-05-2.55102E-05-2.88813E-05 3.10506E-06 3.78814E-19-1.16910E-18
 -1      3479 9.26955E-05-2.51720E-05-2.89503E-05 4.35792E-06 4.07051E-19-7.80562E-19
 -1      3480 9.24484E-05-2.49029E-05-2.89442E-05 4.85732E-06 4.18857E-19-7.69699E-19
 -1      3481 9.21623E-05-2.48321E-05-2.88458E-05 3.85401E-06 2.42623E-19-1.06202E-18
 -1      3482 9.19337E-05-2.45630E-05-2.88872E-05 5.35973E-06 5.41826E-19-5.55853E-19
 -1      3483 9.16493E-05-2.43209E-05-2.88500E-05 5.93511E-06 2.62186E-19-5.47908E-19
 -1      3484 9.12337E-05-2.41166E-05-2.87520E-05 4.73429E-06 6.72683E-19-1.13355E-18
 -1      3485 9.10419E-05-2.40125E-05-2.87435E-05 6.52805E-06-8.53185E-20-5.01623E-20
 -1      3486 9.07470E-05-2.38555E-05-2.86600E-05 7.18645E-06 2.50506E-19 6.53363E-19
 -1      3487 9.01202E-05-2.34191E-05-2.85711E-05 5.76715E-06 2.86515E-19-4.97089E-19
 -1      3488 9.00608E-05-2.36458E-05-2.84833E-05 7.89874E-06 1.52712E-19 8.21005E-19
 -1      3489 8.98190E-05-2.36724E-05-2.83348E-05 8.65568E-06 1.37269E-19 6.35676E-19
 -1      3490 8.88303E-05-2.28384E-05-2.82651E-05 6.99631E-06 4.32195E-19 3.24445E-19
 -1      3491 8.90973E-05-2.36723E-05-2.80620E-05 9.54408E-06-3.51048E-19 1.91896E-19
 -1      3492 8.90394E-05-2.40446E-05-2.78294E-05 1.04303E-05 1.15620E-19-2.31264E-19
 -1      3493 8.74122E-05-2.25383E-05-2.77854E-05 8.51185E-06-3.02211E-19 3.21933E-19
 -1      3494 8.83849E-05-2.44329E-05-2.74314E-05 1.15930E-05 1.40275E-19-6.11114E-19
 -1      3495 8.87553E-05-2.54044E-05-2.71027E-05 1.26511E-05 3.40425E-19-9.44548E-19
 -1      3496 8.59936E-05-2.27901E-05-2.70726E-05 1.04871E-05-2.39161E-19 9.00084E-20
 -1      3497 8.83827E-05-2.64584E-05-2.65529E-05 1.42376E-05 4.23765E-19-1.80986E-18
 -1      3498 8.95942E-05-2.84078E-05-2.61395E-05 1.54946E-05 4.49103E-19-1.69842E-18
 -1      3499 8.48500E-05-2.40260E-05-2.60622E-05 1.32110E-05-3.69561E-19-1.18127E-18
 -1      3500 8.99238E-05-3.04625E-05-2.54253E-05 1.76531E-05 9.31179E-19-1.44809E-18
 -1      3501 9.27576E-05-3.40692E-05-2.50315E-05 1.89890E-05 4.33509E-19-6.67090E-19
 -1      3502 8.46204E-05-2.69886E-05-2.46975E-05 1.71019E-05 5.09891E-19-2.11895E-18
 -1      3503 9.51911E-05-3.90956E-05-2.38038E-05 2.27093E-05-4.01981E-19 8.43473E-19
 -1      3504 1.07980E-04-4.86490E-05-2.49794E-05-2.88796E-05-1.51088E-18 2.29813E-18
 -1      3505 9.54149E-05-2.87427E-05-2.85720E-05-6.89124E-07-1.27513E-19-5.97145E-20
 -1      3506 9.54290E-05-2.87881E-05-2.85614E-05-7.11156E-07-8.37974E-20-7.59673E-20
 -1      3507 9.54777E-05-2.88395E-05-2.85575E-05-7.39995E-07-1.38419E-19-2.13664E-19
 -1      3508 9.54940E-05-2.88747E-05-2.85517E-05-7.75950E-07 2.74803E-19-5.67534E-19
 -1      3509 9.55602E-05-2.88635E-05-2.85853E-05-7.03016E-07-3.11190E-19 2.42471E-20
 -1      3510 9.55454E-05-2.89148E-05-2.85544E-05-8.15091E-07 6.41749E-19-7.64570E-19
 -1      3511 9.55647E-05-2.89372E-05-2.85547E-05-8.58066E-07 5.56635E-19-4.33155E-19
 -1      3512 9.56591E-05-2.89606E-05-2.85863E-05-7.65397E-07 3.98347E-19 5.68137E-19
 -1      3513 9.53548E-05-2.86274E-05-2.85955E-05-6.73902E-07-3.32748E-19-3.18314E-19
 -1      3514 9.53675E-05-2.86818E-05-2.85809E-05-6.76418E-07-2.79950E-19-2.85696E-19
 -1      3515 9.54651E-05-2.87419E-05-2.85963E-05-6.65725E-07-6.70154E-20-7.73664E-20
 -1      3516 9.52943E-05-2.84937E-05-2.86267E-05-7.04233E-07-3.48385E-20-4.64786E-19
 -1      3517 9.53066E-05-2.85570E-05-2.86086E-05-6.82302E-07-6.37136E-20-2.61664E-19
 -1      3518 9.53703E-05-2.85982E-05-2.86170E-05-6.64572E-07-3.16140E-19-6.30298E-19
 -1      3519 9.52300E-05-2.83400E-05-2.86648E-05-7.89473E-07 5.74594E-20-6.98942E-19
 -1      3520 9.52428E-05-2.84130E-05-2.86433E-05-7.38372E-07-3.90021E-21-5.47857E-19
 -1      3521 9.52712E-05-2.84318E-05-2.86456E-05-7.09304E-07 3.43773E-20-4.38088E-19
 -1      3522 9.51579E-05-2.81639E-05-2.87090E-05-9.39070E-07 2.43330E-19-7.59668E-19
 -1      3523 9.51719E-05-2.82474E-05-2.86844E-05-8.54021E-07-7.47395E-20-1.08946E-18
 -1      3524 9.51622E-05-2.82404E-05-2.86806E-05-8.09276E-07 1.97970E-19-9.26535E-19
 -1      3525 9.50743E-05-2.79633E-05-2.87588E-05-1.16284E-06 6.81454E-19 2.53115E-19
 -1      3526 9.50901E-05-2.80578E-05-2.87310E-05-1.03895E-06 6.41811E-19-4.18444E-19
 -1      3527 9.50371E-05-2.80209E-05-2.87207E-05-9.74042E-07 7.55788E-20-8.47755E-19
 -1      3528 9.49760E-05-2.77377E-05-2.88130E-05-1.47089E-06-1.35932E-19 5.97711E-19
 -1      3529 9.49937E-05-2.78427E-05-2.87824E-05-1.30326E-06 5.05735E-19 5.83532E-19
 -1      3530 9.48894E-05-2.77704E-05-2.87644E-05-1.21364E-06 2.83215E-19-1.23430E-19
 -1      3531 9.48616E-05-2.74903E-05-2.88695E-05-1.87308E-06-4.98789E-20 8.94817E-19
 -1      3532 9.48800E-05-2.76031E-05-2.88370E-05-1.65725E-06 7.57103E-21 7.04702E-19
 -1      3533 9.47135E-05-2.74887E-05-2.88094E-05-1.53855E-06-2.41917E-19 1.00551E-18
 -1      3534 9.47330E-05-2.72302E-05-2.89253E-05-2.37806E-06 3.43323E-19 8.30988E-19
 -1      3535 9.47491E-05-2.73448E-05-2.88922E-05-2.11066E-06 1.83950E-20 1.19738E-18
 -1      3536 9.45057E-05-2.71795E-05-2.88525E-05-1.95934E-06 8.05070E-21 9.20162E-19
 -1      3537 9.45984E-05-2.69770E-05-2.89755E-05-2.99183E-06 5.18747E-19 8.04159E-19
 -1      3538 9.46058E-05-2.70817E-05-2.89440E-05-2.67154E-06 4.90542E-19 9.42643E-19
 -1      3539 9.42665E-05-2.68547E-05-2.88889E-05-2.48603E-06 3.70940E-19 9.07642E-19
 -1      3540 9.44761E-05-2.67649E-05-2.90132E-05-3.71569E-06-3.31932E-19 1.21976E-18
 -1      3541 9.44628E-05-2.68399E-05-2.89866E-05-3.34466E-06 2.44332E-19 1.27760E-18
 -1      3542 9.40034E-05-2.65377E-05-2.89121E-05-3.12718E-06 1.26827E-19 1.03074E-18
 -1      3543 9.44018E-05-2.66503E-05-2.90295E-05-4.54364E-06-6.89678E-19 6.47104E-19
 -1      3544 9.43469E-05-2.66641E-05-2.90121E-05-4.12922E-06-4.79529E-19 1.08914E-18
 -1      3545 9.37368E-05-2.62697E-05-2.89131E-05-3.88880E-06-2.33028E-19 7.15643E-19
 -1      3546 9.44379E-05-2.67196E-05-2.90140E-05-5.45883E-06-1.08701E-19 5.74374E-19
 -1      3547 9.43064E-05-2.66248E-05-2.90106E-05-5.01603E-06-4.06109E-19 4.91850E-19
 -1      3548 9.35068E-05-2.61174E-05-2.88812E-05-4.77302E-06-6.36262E-19 6.62698E-19
 -1      3549 9.46866E-05-2.70989E-05-2.89562E-05-6.42831E-06-3.94989E-19 8.62076E-19
 -1      3550 9.44233E-05-2.68275E-05-2.89714E-05-5.98324E-06-9.25736E-20 1.10463E-18
 -1      3551 9.33853E-05-2.61820E-05-2.88043E-05-5.77633E-06-2.16206E-19 9.48883E-19
 -1      3552 9.53066E-05-2.79617E-05-2.88499E-05-7.39356E-06 1.69204E-19 3.98688E-19
 -1      3553 9.48289E-05-2.74222E-05-2.88856E-05-6.98923E-06 4.78976E-20 4.95027E-19
 -1      3554 9.34910E-05-2.66106E-05-2.86714E-05-6.88590E-06 1.10100E-19 4.46855E-19
 -1      3555 9.65292E-05-2.95274E-05-2.87008E-05-8.25136E-06 2.24081E-19-9.22123E-19
 -1      3556 9.57230E-05-2.86088E-05-2.87518E-05-7.95812E-06 3.24514E-19 3.79552E-19
 -1      3557 9.40115E-05-2.76058E-05-2.84774E-05-8.06986E-06 5.48534E-19-3.41584E-19
 -1      3558 9.86622E-05-3.20350E-05-2.85404E-05-8.81746E-06-7.87295E-19-1.73659E-18
 -1      3559 9.73892E-05-3.06263E-05-2.85870E-05-8.75057E-06-5.97103E-19-1.89258E-18
 -1      3560 9.52268E-05-2.94264E-05-2.82332E-05-9.25290E-06 3.88040E-19-5.56925E-19
 -1      3561 1.02058E-04-3.56535E-05-2.84489E-05-8.75646E-06-5.96744E-19-1.07227E-18
 -1      3562 1.00191E-04-3.37057E-05-2.84452E-05-9.10528E-06-1.04541E-18-1.49336E-18
 -1      3563 9.75300E-05-3.23655E-05-2.79827E-05-1.02607E-05-9.27332E-19-1.65298E-18
 -1      3564 1.06997E-04-4.02884E-05-2.85912E-05-7.49553E-06-7.24650E-19-9.65279E-19
 -1      3565 1.04501E-04-3.79381E-05-2.84480E-05-8.56481E-06-2.72247E-19-6.15696E-19
 -1      3566 1.01391E-04-3.66263E-05-2.78349E-05-1.07203E-05-5.52342E-19-1.39833E-18
 -1      3567 1.13535E-04-4.50077E-05-2.93132E-05-3.98654E-06-5.93764E-19-1.27694E-18
 -1      3568 1.10561E-04-4.29996E-05-2.88389E-05-6.33817E-06-4.95991E-19-1.40126E-18
 -1      3569 1.07264E-04-4.21346E-05-2.80099E-05-9.95931E-06-6.78549E-19-1.37221E-18
 -1      3570 1.24732E-04-4.74334E-05-3.31673E-05 6.76552E-06-1.31012E-19-8.01167E-19
 -1      3571 1.23935E-04-4.96654E-05-3.16659E-05 3.32168E-06-1.17711E-19-4.12889E-19
 -1      3572 1.22736E-04-3.40643E-05-3.81615E-05 1.52399E-05-2.57392E-19 5.32744E-19
 -1      3573 1.25157E-04-4.10374E-05-3.63098E-05 1.41968E-05-5.81634E-19 1.51963E-19
 -1      3574 7.92721E-05-2.65637E-05-2.21159E-05 2.66979E-05-2.43510E-18-6.03220E-19
 -1      3575 1.14019E-04-1.42109E-05-4.30957E-05 1.71818E-07 1.87459E-18 2.45838E-18
 -1      3576 9.47047E-05-2.28750E-05-3.07759E-05-3.44053E-06-1.11195E-18-1.46929E-18
 -1      3577 9.51926E-05-2.43408E-05-3.03852E-05-2.26655E-06-9.06764E-19-1.38446E-18
 -1      3578 5.95883E-05-1.43001E-05-1.93260E-05 3.46907E-06 2.06406E-18 1.27918E-18
 -1      3579 6.10202E-05-1.51014E-05-1.95712E-05-8.70777E-06 1.73319E-18 1.99307E-18
 -1      3580 5.36019E-05-1.59309E-05-1.56133E-05-1.39882E-05-7.97627E-19-1.48707E-19
 -1      3581 5.98060E-05-1.93616E-05-1.72161E-05-1.82985E-05-1.02975E-18-1.47421E-18
 -1      3582 9.10961E-05-3.52077E-05-2.39288E-05 2.82545E-05-3.32129E-18-8.62227E-19
 -1      3583 9.90669E-05-3.97773E-05-2.53214E-05 2.82938E-05-3.21479E-18 2.61607E-19
 -1      3584 9.59046E-05-2.73812E-05-2.93749E-05 1.02458E-07 8.54788E-19-7.41386E-19
 -1      3585 9.58869E-05-2.69119E-05-2.95498E-05 5.59813E-07 9.81608E-19-8.72608E-19
 -1      3586 8.00475E-05-2.75264E-05-2.22848E-05-2.67260E-05-5.60967E-19 4.10612E-18
 -1      3587 7.17445E-05-2.28516E-05-2.09714E-05-2.34430E-05-5.29263E-19 3.98391E-18
 -1      3588 9.56986E-05-2.89701E-05-2.85970E-05-9.75650E-07 3.94482E-19-1.61126E-19
 -1      3589 9.57254E-05-2.89495E-05-2.86167E-05-1.00187E-06 4.91138E-19-2.71474E-19
 -1      3590 9.59819E-05-2.90099E-05-2.87045E-05-9.43494E-07 3.64434E-19-1.13178E-19
 -1      3591 9.56192E-05-2.89622E-05-2.85660E-05-9.00045E-07 4.80183E-19-4.30756E-19
 -1      3592 9.56420E-05-2.89669E-05-2.85745E-05-9.40890E-07 5.08509E-19-3.00039E-19
 -1      3593 9.58723E-05-2.90495E-05-2.86402E-05-9.06726E-07 4.96522E-19-1.74818E-19
 -1      3594 9.57633E-05-2.90267E-05-2.86030E-05-8.39287E-07 7.56549E-19-1.50748E-19
 -1      3595 9.38100E-05-2.09273E-05-3.12426E-05-4.74855E-06-1.34534E-18-1.72710E-18
 -1      3596 9.59255E-05-2.85284E-05-2.88868E-05-8.33060E-07 4.39186E-19-6.60446E-19
 -1      3597 9.59560E-05-2.83393E-05-2.89720E-05-6.84190E-07 5.71998E-19-4.77830E-19
 -1      3598 9.59531E-05-2.80881E-05-2.90896E-05-4.97635E-07 6.14083E-19-5.99439E-19
 -1      3599 9.59708E-05-2.77847E-05-2.92135E-05-2.19380E-07 7.09230E-19-6.11991E-19
 -1      3600 9.61150E-05-2.74124E-05-2.94455E-05 4.94637E-08 7.22055E-19-9.24363E-19
 -1      3601 6.51831E-05-1.79044E-05-2.00421E-05-1.64654E-05 2.04453E-19 2.32767E-18
 -1      3602 9.22474E-05-1.81296E-05-3.17766E-05-1.00849E-06 6.22725E-20-2.49515E-18
 -1      3603 9.23592E-05-1.83198E-05-3.17459E-05-1.76175E-06-1.55493E-19-2.34813E-18
 -1      3604 9.33503E-05-1.99965E-05-3.14204E-05-1.75940E-06-2.16721E-19-2.08780E-18
 -1      3605 9.57053E-05-2.55235E-05-3.00576E-05-1.51127E-06-7.20845E-19-1.04452E-18
 -1      3606 9.58324E-05-2.62657E-05-2.98260E-05-8.85779E-07-5.90059E-19-9.33917E-19
 -1      3607 9.60415E-05-2.69149E-05-2.96154E-05-4.49862E-07-5.21148E-19-7.44960E-19
 -1      3608 9.60890E-05-2.74104E-05-2.94413E-05-3.81547E-08-4.24445E-19-5.76339E-19
 -1      3609 9.62767E-05-2.74633E-05-2.94917E-05 9.03368E-09-4.75639E-19-4.59943E-19
 -1      3610 1.13139E-04-5.07005E-05-2.65097E-05-1.66535E-05-1.45673E-18-3.47747E-19
 -1      3611 1.21098E-04-5.31083E-05-2.94295E-05-7.19798E-06-8.06458E-19-1.38115E-18
 -1      3612 4.51890E-05-1.28677E-05-1.32611E-05 1.15379E-06-8.75905E-19 4.20975E-19
 -1      3613 4.83846E-05-1.42609E-05-1.44691E-05-7.70665E-06-1.24542E-18 1.80736E-19
 -1      3614 5.39502E-05-1.47261E-05-1.66611E-05-7.16193E-06-9.12757E-19-5.94352E-19
 -1      3615 5.11485E-05-1.47434E-05-1.53274E-05 6.73728E-06-6.83609E-19-1.48284E-19
 -1      3616 1.17667E-04-5.19981E-05-2.84096E-05 1.93132E-05-1.63022E-18-1.55150E-18
 -1      3617 1.07840E-04-4.64286E-05-2.61671E-05 2.60076E-05-3.32972E-18-9.66504E-19
 -1      3618 9.58609E-05-2.87866E-05-2.87468E-05-9.84421E-07 5.90255E-19-8.29865E-19
 -1      3619 9.58936E-05-2.86756E-05-2.88032E-05-9.23184E-07 4.30159E-19-5.88946E-19
 -1      3620 9.61609E-05-2.86133E-05-2.89516E-05-7.82552E-07 5.48313E-19-7.20192E-19
 -1      3621 9.60835E-05-2.88786E-05-2.88046E-05-9.16782E-07 4.72090E-19-4.04583E-19
 -1      3622 1.01276E-04-4.27373E-05-2.48701E-05-2.83572E-05-5.14917E-19 2.79040E-18
 -1      3623 1.03770E-04-3.54156E-05-2.92754E-05 1.58085E-05-1.02703E-18-2.05704E-18
 -1      3624 1.04665E-04-3.58092E-05-2.94851E-05 1.38478E-05-9.94036E-19-2.70987E-18
 -1      3625 1.06556E-04-3.77545E-05-2.94451E-05 1.32137E-05-1.02280E-18-2.30932E-18
 -1      3626 1.05451E-04-3.84117E-05-2.86889E-05 1.78795E-05-3.84429E-19-9.15669E-19
 -1      3627 7.21532E-05-2.71683E-05-1.92064E-05-2.47197E-05-1.60702E-18-1.06438E-18
 -1      3628 7.94056E-05-3.30972E-05-1.95741E-05-2.88385E-05-1.49104E-18-1.79492E-18
 -1      3629 8.84682E-05-3.65555E-05-2.21271E-05-2.52159E-05-2.19714E-18 3.35511E-19
 -1      3630 8.63028E-05-3.37373E-05-2.25297E-05 2.34653E-05 8.05078E-19 3.10755E-20
 -1      3631 1.18877E-04-4.84585E-05-3.02080E-05-1.24114E-06-6.63882E-19-6.26301E-19
 -1      3632 1.04619E-04-4.09346E-05-2.71513E-05 2.29281E-05-2.55142E-18-3.16779E-19
 -1      3633 9.49396E-05-2.35284E-05-3.06221E-05 3.05700E-06 1.41161E-18-1.18647E-18
 -1      3634 9.46705E-05-2.28305E-05-3.07891E-05 2.81150E-06 1.27320E-18-1.39378E-18
 -1      3635 9.38716E-05-2.10537E-05-3.12195E-05 8.08859E-07 4.16333E-19-2.05490E-18
 -1      3636 9.38232E-05-2.09539E-05-3.12390E-05 2.47309E-07 2.48410E-19-2.13029E-18
 -1      3637 1.16056E-04-4.72978E-05-2.93351E-05-4.43427E-06-1.07960E-18-9.50639E-19
 -1      3638 9.43192E-05-2.19863E-05-3.09889E-05-3.74949E-06-1.14766E-18-1.51885E-18
 -1      3639 9.75765E-05-3.80639E-05-2.53205E-05-2.71240E-05 1.16269E-20 2.62533E-18
 -1      3640 9.31435E-05-1.96168E-05-3.14939E-05-5.86511E-07 1.48090E-19-2.37008E-18
 -1      3641 1.17224E-04-4.92760E-05-2.91021E-05 1.48304E-05-8.42652E-19-1.18701E-18
 -1      3642 9.39587E-05-2.12255E-05-3.11785E-05 1.24929E-06 5.02387E-19-2.04037E-18
 -1      3643 9.46176E-05-2.23940E-05-3.09361E-05 8.28070E-07 4.26615E-19-1.91068E-18
 -1      3644 9.40950E-05-2.15160E-05-3.11193E-05 1.76897E-06 7.74700E-19-1.71923E-18
 -1      3645 1.13089E-04-4.76407E-05-2.82146E-05-9.67389E-06-1.11455E-18-1.39414E-18
 -1      3646 6.54428E-05-2.00236E-05-1.94439E-05-1.64640E-05-1.29817E-18-3.18193E-19
 -1      3647 6.84161E-05-2.31626E-05-1.90958E-05-2.15100E-05-1.37704E-18-7.08172E-19
 -1      3648 7.69275E-05-2.71858E-05-2.12591E-05-2.16405E-05-2.44418E-18-3.34710E-20
 -1      3649 9.43616E-05-2.21049E-05-3.09616E-05-3.07433E-06-8.91740E-19-1.32984E-18
 -1      3650 1.07663E-04-4.26156E-05-2.79658E-05 2.08352E-05-1.29466E-18-2.12427E-19
 -1      3651 9.53187E-05-2.43955E-05-3.04072E-05-1.93394E-06-6.89033E-19-1.04540E-18
 -1      3652 7.30035E-05-2.61955E-05-1.98965E-05 2.21998E-05 1.62274E-18-1.32794E-18
 -1      3653 6.40073E-05-2.31164E-05-1.71600E-05 2.23396E-05 1.13788E-18-8.12675E-19
 -1      3654 6.09826E-05-1.97770E-05-1.75498E-05 1.75265E-05 8.12755E-19-5.72435E-19
 -1      3655 1.12335E-04-4.30148E-05-2.96120E-05 1.07813E-05 2.30072E-19-2.58416E-18
 -1      3656 1.15360E-04-4.55262E-05-2.99949E-05 8.62981E-06-4.39651E-19-1.26844E-18
 -1      3657 1.08508E-04-3.97188E-05-2.95024E-05 1.21163E-05-2.78575E-19-2.50303E-18
 -1      3658 9.41512E-05-2.16492E-05-3.10837E-05-2.68358E-06-7.24375E-19-1.11424E-18
 -1      3659 9.45901E-05-2.24814E-05-3.08831E-05-2.46824E-06-6.48317E-19-1.14348E-18
 -1      3660 9.39271E-05-2.12025E-05-3.11821E-05-2.22169E-06-3.17251E-19-1.32610E-18
 -1      3661 8.71763E-05-3.20742E-05-2.37474E-05-2.81155E-05-5.47620E-19 3.87038E-18
 -1      3662 9.59827E-05-2.62827E-05-2.98678E-05-7.15688E-07-4.70708E-19-5.64040E-19
 -1      3663 1.07741E-04-4.83817E-05-2.54562E-05-2.03836E-05-1.57593E-18-1.34877E-19
 -1      3664 1.11546E-04-4.78171E-05-2.71718E-05-1.34414E-05-1.42447E-18-1.36977E-18
 -1      3665 1.09118E-04-4.53226E-05-2.72642E-05-1.27641E-05-1.38843E-18-1.63777E-18
 -1      3666 1.01314E-04-4.38630E-05-2.45873E-05-2.16243E-05-1.12573E-18 8.27366E-19
 -1      3667 9.58746E-05-2.62735E-05-2.98293E-05 8.95120E-07 9.74728E-19-1.07626E-18
 -1      3668 9.57129E-05-2.62731E-05-2.97674E-05 1.06568E-06 1.00668E-18-9.55126E-19
 -1      3669 1.17561E-04-4.84158E-05-2.98043E-05 1.11394E-05-8.16245E-20-2.34768E-18
 -1      3670 9.56215E-05-2.57167E-05-2.99552E-05 1.66269E-06 1.18291E-18-1.16942E-18
 -1      3671 9.61866E-05-2.81532E-05-2.91595E-05-4.83773E-07 6.04659E-19-7.96777E-19
 -1      3672 1.10062E-04-4.21281E-05-2.91733E-05 1.46829E-05-4.73888E-19-2.98569E-18
 -1      3673 9.45435E-05-2.22195E-05-3.09782E-05 1.09336E-08 2.80551E-19-2.08028E-18
 -1      3674 9.38201E-05-2.09493E-05-3.12397E-05-2.15458E-07 2.36692E-19-2.21474E-18
 -1      3675 9.38648E-05-2.10398E-05-3.12218E-05-7.74845E-07 7.43295E-20-2.21897E-18
 -1      3676 9.54476E-05-2.48594E-05-3.02481E-05 1.85579E-06 1.24422E-18-1.17157E-18
 -1      3677 9.54202E-05-2.50655E-05-3.01453E-05 2.09547E-06 1.39195E-18-1.13315E-18
 -1      3678 9.65250E-05-2.80228E-05-2.93534E-05 2.91054E-07-3.90521E-19-4.37647E-19
 -1      3679 9.65368E-05-2.83446E-05-2.92289E-05 4.72521E-07-4.23266E-19-5.14994E-19
 -1      3680 9.65458E-05-2.86052E-05-2.91136E-05 5.73080E-07-2.78988E-19-4.23099E-19
 -1      3681 9.65145E-05-2.87998E-05-2.90224E-05 6.69171E-07-2.47332E-19-3.72092E-19
 -1      3682 9.66776E-05-2.84320E-05-2.92486E-05 4.24173E-07-2.91428E-19-5.37807E-19
 -1      3683 9.64732E-05-2.89471E-05-2.89370E-05 7.12737E-07-3.42647E-19-5.60895E-19
 -1      3684 9.64189E-05-2.90518E-05-2.88721E-05 7.50351E-07-2.37334E-19-6.51366E-19
 -1      3685 9.66447E-05-2.88783E-05-2.90440E-05 5.82446E-07-2.90649E-19-5.57682E-19
 -1      3686 9.63494E-05-2.91198E-05-2.88108E-05 7.56425E-07-1.11878E-19-7.92621E-19
 -1      3687 9.62848E-05-2.91619E-05-2.87665E-05 7.57232E-07-1.74357E-19-1.17382E-18
 -1      3688 9.65345E-05-2.91193E-05-2.88940E-05 6.46377E-07-3.79623E-19-9.06240E-19
 -1      3689 9.62015E-05-2.91753E-05-2.87244E-05 7.41281E-07-2.54310E-19-1.08051E-18
 -1      3690 9.61339E-05-2.91741E-05-2.86961E-05 7.21893E-07-1.65875E-19-1.17054E-18
 -1      3691 9.63830E-05-2.92163E-05-2.87876E-05 6.49892E-07-3.11590E-19-9.97950E-19
 -1      3692 9.60456E-05-2.91500E-05-2.86690E-05 6.95865E-07-1.50750E-19-1.14209E-18
 -1      3693 9.59790E-05-2.91190E-05-2.86530E-05 6.68839E-07-4.50993E-19-1.05620E-18
 -1      3694 9.62130E-05-2.92132E-05-2.87160E-05 6.19737E-07-1.21791E-19-1.10458E-18
 -1      3695 9.58902E-05-2.90690E-05-2.86376E-05 6.41607E-07-6.73253E-19-8.77328E-19
 -1      3696 9.58259E-05-2.90166E-05-2.86311E-05 6.16158E-07-7.59715E-19-8.14621E-19
 -1      3697 9.60377E-05-2.91409E-05-2.86716E-05 5.76595E-07-4.58621E-19-1.15199E-18
 -1      3698 9.57380E-05-2.89475E-05-2.86249E-05 5.94288E-07-6.35025E-19-6.77014E-19
 -1      3699 9.56756E-05-2.88785E-05-2.86258E-05 5.77459E-07-5.47937E-19-6.02262E-19
 -1      3700 9.58628E-05-2.90191E-05-2.86485E-05 5.35620E-07-4.00714E-19-4.05433E-19
 -1      3701 9.55874E-05-2.87937E-05-2.86267E-05 5.66099E-07-6.85683E-19-1.99523E-19
 -1      3702 9.55249E-05-2.87101E-05-2.86334E-05 5.63484E-07-7.51690E-19 2.06265E-19
 -1      3703 9.56884E-05-2.88591E-05-2.86419E-05 5.08475E-07-2.25960E-19-3.72795E-20
 -1      3704 9.54333E-05-2.86101E-05-2.86398E-05 5.66849E-07-6.04158E-19 5.99654E-19
 -1      3705 9.53677E-05-2.85116E-05-2.86511E-05 5.83188E-07-3.37185E-19 6.25807E-19
 -1      3706 9.55105E-05-2.86654E-05-2.86482E-05 5.04454E-07-2.54308E-19 5.24014E-19
 -1      3707 9.52681E-05-2.83948E-05-2.86618E-05 6.04974E-07-3.12333E-19 5.25190E-19
 -1      3708 9.51952E-05-2.82793E-05-2.86768E-05 6.44624E-07-4.04886E-19 8.02240E-19
 -1      3709 9.53213E-05-2.84372E-05-2.86644E-05 5.31287E-07-3.59932E-19 6.62635E-19
 -1      3710 9.50813E-05-2.81426E-05-2.86904E-05 6.88360E-07-8.36981E-21 1.00497E-18
 -1      3711 9.49957E-05-2.80067E-05-2.87082E-05 7.55598E-07 2.67325E-19 1.24288E-18
 -1      3712 9.51100E-05-2.81701E-05-2.86877E-05 5.95922E-07 1.33755E-19 9.08996E-19
 -1      3713 9.48598E-05-2.78455E-05-2.87235E-05 8.24817E-07 1.39588E-19 1.04140E-18
 -1      3714 9.47552E-05-2.76851E-05-2.87430E-05 9.23984E-07-4.28831E-19 8.25596E-19
 -1      3715 9.48629E-05-2.78563E-05-2.87155E-05 7.04989E-07-5.90474E-20 8.05737E-19
 -1      3716 9.45882E-05-2.74942E-05-2.87584E-05 1.02227E-06-9.89560E-19 8.11253E-19
 -1      3717 9.44568E-05-2.73044E-05-2.87784E-05 1.15778E-06-3.90894E-19 6.89436E-19
 -1      3718 9.45634E-05-2.74861E-05-2.87448E-05 8.64972E-07-7.03966E-19 3.57333E-19
 -1      3719 9.42477E-05-2.70783E-05-2.87917E-05 1.28869E-06-4.15326E-20 7.45068E-19
 -1      3720 9.40804E-05-2.68544E-05-2.88101E-05 1.46487E-06 3.22849E-19 1.64635E-19
 -1      3721 9.41915E-05-2.70488E-05-2.87718E-05 1.08212E-06-3.99579E-19 1.44881E-18
 -1      3722 9.38168E-05-2.65880E-05-2.88183E-05 1.63180E-06 5.88075E-19-2.42248E-19
 -1      3723 9.36030E-05-2.63264E-05-2.88321E-05 1.85270E-06 4.21516E-19-4.06578E-19
 -1      3724 9.37244E-05-2.65338E-05-2.87908E-05 1.36215E-06-7.36759E-20 5.10365E-19
 -1      3725 9.32707E-05-2.60156E-05-2.88310E-05 2.05868E-06 4.24900E-19-4.27336E-19
 -1      3726 9.29986E-05-2.57145E-05-2.88357E-05 2.32785E-06 6.26727E-19-6.07046E-19
 -1      3727 9.31356E-05-2.59324E-05-2.87945E-05 1.70988E-06 3.00446E-19-2.14814E-19
 -1      3728 9.25815E-05-2.53582E-05-2.88190E-05 2.57556E-06 6.22519E-19-7.54004E-19
 -1      3729 9.22385E-05-2.50194E-05-2.88084E-05 2.89604E-06 2.90024E-19-3.56134E-19
 -1      3730 9.23952E-05-2.52396E-05-2.87719E-05 2.12891E-06 4.19330E-19 9.19131E-20
 -1      3731 9.17189E-05-2.46206E-05-2.87675E-05 3.18834E-06 2.81994E-19-4.76038E-19
 -1      3732 9.12927E-05-2.42523E-05-2.87323E-05 3.56342E-06 7.21698E-19-1.78016E-19
 -1      3733 9.14699E-05-2.44571E-05-2.87081E-05 2.62209E-06 4.46260E-19-6.33337E-19
 -1      3734 9.06510E-05-2.38208E-05-2.86553E-05 3.90494E-06 5.62566E-19-6.52800E-19
 -1      3735 9.01321E-05-2.34405E-05-2.85831E-05 4.34019E-06 5.40334E-19-4.12662E-19
 -1      3736 9.03228E-05-2.35968E-05-2.85819E-05 3.19351E-06 5.12672E-19 5.69336E-20
 -1      3737 8.93472E-05-2.29964E-05-2.84536E-05 4.74114E-06 9.54449E-19-6.12649E-19
 -1      3738 8.87327E-05-2.26369E-05-2.83272E-05 5.24916E-06 9.81273E-19 1.82016E-19
 -1      3739 8.89136E-05-2.26850E-05-2.83646E-05 3.85373E-06 9.23741E-19-2.22695E-19
 -1      3740 8.77816E-05-2.22146E-05-2.81230E-05 5.73261E-06 3.92484E-19 7.06199E-19
 -1      3741 8.70825E-05-2.19308E-05-2.79204E-05 6.34193E-06 4.89964E-19 6.52751E-19
 -1      3742 8.71981E-05-2.17686E-05-2.80170E-05 4.63090E-06 1.04126E-18 3.93201E-19
 -1      3743 8.59392E-05-2.15850E-05-2.76115E-05 6.95606E-06-3.66441E-19 3.93605E-19
 -1      3744 8.51930E-05-2.14639E-05-2.73045E-05 7.72587E-06-5.13915E-19 5.56836E-19
 -1      3745 8.51272E-05-2.09215E-05-2.74859E-05 5.59046E-06-1.45039E-19 8.38984E-19
 -1      3746 8.38229E-05-2.12763E-05-2.68491E-05 8.57318E-06-3.74356E-19 3.41214E-19
 -1      3747 8.31232E-05-2.14668E-05-2.64028E-05 9.61723E-06-1.43295E-19 3.12573E-19
 -1      3748 8.26372E-05-2.02464E-05-2.66981E-05 6.87019E-06-6.53239E-19 6.16879E-19
 -1      3749 8.14961E-05-2.15685E-05-2.57424E-05 1.08756E-05-5.05412E-19-5.56468E-19
 -1      3750 8.10331E-05-2.23038E-05-2.51200E-05 1.23849E-05-7.64274E-19-1.02294E-18
 -1      3751 7.96499E-05-1.99077E-05-2.55467E-05 8.76118E-06-9.44723E-19-5.50677E-19
 -1      3752 7.91117E-05-2.28762E-05-2.41674E-05 1.43690E-05-2.45511E-19-1.25815E-18
 -1      3753 7.93184E-05-2.46686E-05-2.33308E-05 1.66857E-05 8.95281E-19-1.35097E-18
 -1      3754 7.60941E-05-2.01977E-05-2.38757E-05 1.17219E-05-1.71161E-19-2.92759E-19
 -1      3755 9.56319E-05-2.88769E-05-2.86077E-05-6.36641E-07-2.20432E-19 2.75231E-19
 -1      3756 9.56810E-05-2.89353E-05-2.86058E-05-6.59320E-07-1.17464E-19 6.93088E-19
 -1      3757 9.53803E-05-2.85610E-05-2.86351E-05-6.23268E-07-1.57089E-19-2.58078E-19
 -1      3758 9.54290E-05-2.86444E-05-2.86232E-05-6.11812E-07-2.36052E-19-1.77414E-19
 -1      3759 9.44671E-05-2.23408E-05-3.09278E-05 2.56407E-06 1.11904E-18-1.64046E-18
 -1      3760 9.42554E-05-2.18536E-05-3.10338E-05 2.13886E-06 9.92204E-19-1.64235E-18
 -1      3761 9.48119E-05-2.28916E-05-3.08090E-05 1.54834E-06 8.00893E-19-1.45240E-18
 -1      3762 9.55072E-05-2.87315E-05-2.86165E-05-6.12246E-07-2.24921E-19 1.35866E-19
 -1      3763 9.55550E-05-2.88027E-05-2.86090E-05-6.20418E-07-4.32949E-20 3.71238E-19
 -1      3764 9.56651E-05-2.88707E-05-2.86271E-05-5.76760E-07-1.32966E-19 6.94660E-19
 -1      3765 9.55115E-05-2.87000E-05-2.86340E-05-5.64326E-07-7.91692E-20 9.38090E-19
 -1      3766 9.57588E-05-2.89954E-05-2.86114E-05-6.86439E-07 7.42424E-20 7.17228E-19
 -1      3767 9.58105E-05-2.90386E-05-2.86165E-05-7.17532E-07 5.93929E-19 4.13714E-19
 -1      3768 9.58182E-05-2.90112E-05-2.86328E-05-6.14036E-07 1.38860E-19 8.90743E-19
 -1      3769 9.52450E-05-2.83640E-05-2.86615E-05-6.78731E-07 1.54979E-19 9.76835E-20
 -1      3770 9.52972E-05-2.84605E-05-2.86460E-05-6.42967E-07-7.54220E-20-2.15318E-20
 -1      3771 9.53518E-05-2.85003E-05-2.86507E-05-5.85948E-07 4.51190E-20 6.03440E-19
 -1      3772 9.50939E-05-2.81373E-05-2.86938E-05-7.87489E-07-1.42714E-20-4.76248E-19
 -1      3773 9.51526E-05-2.82483E-05-2.86755E-05-7.22804E-07 3.35920E-19-2.70286E-19
 -1      3774 9.51779E-05-2.82694E-05-2.86747E-05-6.50115E-07 2.27592E-19 1.71756E-19
 -1      3775 9.49184E-05-2.78766E-05-2.87301E-05-9.58766E-07 2.95742E-19-7.27130E-19
 -1      3776 9.49869E-05-2.80040E-05-2.87098E-05-8.60394E-07-5.28923E-21-9.05865E-19
 -1      3777 9.49804E-05-2.80030E-05-2.87036E-05-7.65348E-07 1.65720E-19-3.02150E-19
 -1      3778 9.47097E-05-2.75787E-05-2.87682E-05-1.20242E-06-3.20847E-19 2.43113E-19
 -1      3779 9.47913E-05-2.77235E-05-2.87468E-05-1.06538E-06 8.93276E-20-5.96410E-19
 -1      3780 9.47483E-05-2.76964E-05-2.87349E-05-9.40725E-07 7.24542E-20-4.79492E-19
 -1      3781 9.44598E-05-2.72426E-05-2.88048E-05-1.52899E-06-2.82271E-19 2.81708E-19
 -1      3782 9.45568E-05-2.74044E-05-2.87838E-05-1.34815E-06-2.15075E-19 3.50701E-19
 -1      3783 9.44705E-05-2.73458E-05-2.87655E-05-1.18620E-06-2.98488E-19-2.86530E-19
 -1      3784 9.41625E-05-2.68727E-05-2.88356E-05-1.94953E-06-1.54451E-20 5.29356E-19
 -1      3785 9.42762E-05-2.70480E-05-2.88171E-05-1.71980E-06-8.04002E-20 3.44089E-19
 -1      3786 9.41364E-05-2.69506E-05-2.87910E-05-1.51279E-06-2.25415E-19-8.35322E-20
 -1      3787 9.38163E-05-2.64816E-05-2.88543E-05-2.47531E-06 3.96458E-19 3.01043E-19
 -1      3788 9.39449E-05-2.66622E-05-2.88414E-05-2.19198E-06 2.69220E-19 3.84181E-19
 -1      3789 9.37375E-05-2.65159E-05-2.88056E-05-1.93276E-06 9.10249E-20 5.71395E-20
 -1      3790 9.34276E-05-2.60949E-05-2.88527E-05-3.11754E-06 1.13015E-19 7.70132E-19
 -1      3791 9.35645E-05-2.62654E-05-2.88493E-05-2.77664E-06 2.30048E-19 7.88953E-19
 -1      3792 9.32702E-05-2.60564E-05-2.88017E-05-2.45986E-06-3.89589E-20-2.33493E-19
 -1      3793 9.30166E-05-2.57573E-05-2.88200E-05-3.88725E-06-5.43542E-19 1.90392E-19
 -1      3794 9.31472E-05-2.58918E-05-2.88313E-05-3.48589E-06 1.73799E-19 5.89064E-19
 -1      3795 9.27391E-05-2.56010E-05-2.87689E-05-3.10991E-06 2.00143E-19 1.55345E-19
 -1      3796 9.26251E-05-2.55404E-05-2.87432E-05-4.79549E-06-2.93538E-19-1.12190E-19
 -1      3797 9.27221E-05-2.55982E-05-2.87754E-05-4.33218E-06-4.40566E-19 2.27584E-19
 -1      3798 9.21630E-05-2.51993E-05-2.86943E-05-3.90201E-06-3.05725E-19 9.28198E-20
 -1      3799 9.23288E-05-2.55525E-05-2.86080E-05-5.85365E-06 6.99130E-20-1.56677E-19
 -1      3800 9.23452E-05-2.54729E-05-2.86675E-05-5.32883E-06 3.75756E-20 7.20304E-20
 -1      3801 9.15830E-05-2.49294E-05-2.85626E-05-4.86071E-06 2.93975E-21-8.13784E-19
 -1      3802 9.22548E-05-2.59504E-05-2.84010E-05-7.07278E-06 3.47408E-19-2.63762E-19
 -1      3803 9.21141E-05-2.56465E-05-2.84930E-05-6.49051E-06-2.66818E-20 2.59510E-19
 -1      3804 9.10743E-05-2.49083E-05-2.83565E-05-6.01917E-06 6.16026E-20-7.32242E-19
 -1      3805 9.26058E-05-2.69530E-05-2.81149E-05-8.45775E-06 4.76982E-19-1.16199E-19
 -1      3806 9.21896E-05-2.63047E-05-2.82400E-05-7.83109E-06 2.79572E-19-1.37712E-19
 -1      3807 9.07652E-05-2.53052E-05-2.80596E-05-7.42225E-06 6.69672E-20-3.77668E-19
 -1      3808 9.36941E-05-2.88490E-05-2.77594E-05-9.98174E-06-1.65563E-19 1.21378E-19
 -1      3809 9.28289E-05-2.77028E-05-2.79073E-05-9.34908E-06 6.78082E-19 5.67709E-19
 -1      3810 9.08693E-05-2.63625E-05-2.76620E-05-9.12264E-06 7.92817E-20 1.18924E-18
 -1      3811 9.59681E-05-3.19879E-05-2.73799E-05-1.15348E-05-6.45483E-19-6.26223E-19
 -1      3812 9.44204E-05-3.01663E-05-2.75184E-05-1.09935E-05-3.34109E-19-8.57031E-20
 -1      3813 9.17226E-05-2.84004E-05-2.71719E-05-1.11541E-05-5.40199E-20 8.58278E-19
 -1      3814 1.00028E-04-3.66734E-05-2.70980E-05-1.27552E-05-2.50732E-19-1.13793E-18
 -1      3815 9.75447E-05-3.40828E-05-2.71495E-05-1.25416E-05-7.54468E-19-1.29218E-18
 -1      3816 9.38770E-05-3.18539E-05-2.66375E-05-1.34923E-05-2.76043E-19 1.49855E-19
 -1      3817 1.05764E-04-4.23125E-05-2.71518E-05-1.28736E-05-5.84162E-19-1.56207E-18
 -1      3818 1.02289E-04-3.91507E-05-2.69795E-05-1.34119E-05-2.15845E-20-1.44990E-18
 -1      3819 9.75530E-05-3.64876E-05-2.62454E-05-1.53838E-05 3.94003E-20-1.14962E-18
 -1      3820 1.03134E-04-4.24194E-05-2.60824E-05-1.68850E-05-9.71864E-19-7.88654E-19
 -1      3821 9.39366E-05-2.11926E-05-3.11824E-05-1.21951E-06-1.00602E-19-2.14461E-18
 -1      3822 9.40667E-05-2.14555E-05-3.11247E-05-1.72035E-06-2.30239E-19-1.92589E-18
 -1      3823 9.46078E-05-2.23689E-05-3.09388E-05-8.18236E-07-4.01512E-20-1.95830E-18
 -1      3824 1.13460E-04-4.62824E-05-2.86276E-05 1.69719E-05-5.97271E-19-1.50933E-18
 -1      3825 1.09374E-04-4.23542E-05-2.86735E-05 1.71856E-05-8.59636E-19-7.31293E-19
 -1      3826 9.51649E-05-2.44119E-05-3.03161E-05 2.87205E-06 1.37532E-18-1.10599E-18
 -1      3827 9.51559E-05-2.39526E-05-3.05324E-05-1.67883E-06-4.46092E-19-9.39577E-19
 -1      3828 9.59642E-05-2.57474E-05-3.00768E-05-9.00475E-07-2.79277E-19-6.75404E-19
 -1      3829 9.61408E-05-2.64815E-05-2.98664E-05-4.64068E-07-2.61794E-19-5.83564E-19
 -1      3830 9.63481E-05-2.71042E-05-2.96707E-05-1.85560E-07-4.35116E-19-3.65839E-19
 -1      3831 9.64342E-05-2.76034E-05-2.95051E-05 1.10683E-07-4.53735E-19-4.00343E-19
 -1      3832 9.65802E-05-2.76990E-05-2.95196E-05 1.30799E-07-4.65812E-19-3.45352E-19
 -1      3833 9.61561E-05-2.90964E-05-2.87395E-05-8.48824E-07 2.05637E-19-4.16268E-19
 -1      3834 9.62114E-05-2.90489E-05-2.87817E-05-8.47043E-07 4.18550E-19-4.58910E-19
 -1      3835 9.62876E-05-2.75255E-05-2.94762E-05-6.46108E-08 5.93887E-19-1.02057E-18
 -1      3836 9.62176E-05-2.70313E-05-2.96444E-05 2.81266E-07 6.96969E-19-1.04776E-18
 -1      3837 9.63807E-05-2.82636E-05-2.91971E-05-4.96999E-07 4.59987E-19-8.00656E-19
 -1      3838 9.63753E-05-2.79441E-05-2.93217E-05-2.86401E-07 4.77518E-19-9.76396E-19
 -1      3839 9.64523E-05-2.76027E-05-2.95065E-05-9.72324E-08 5.53088E-19-1.03667E-18
 -1      3840 9.27245E-05-3.55019E-05-2.45367E-05-2.82632E-05-1.28087E-19 2.71768E-18
 -1      3841 9.50934E-05-2.37057E-05-3.05841E-05 2.08309E-06 1.15903E-18-1.33043E-18
 -1      3842 9.60061E-05-2.63886E-05-2.98448E-05 6.26777E-07 8.99683E-19-1.08722E-18
 -1      3843 9.58158E-05-2.56479E-05-3.00679E-05 1.14072E-06 1.09645E-18-1.09869E-18
 -1      3844 9.61596E-05-2.64663E-05-2.98659E-05 4.80836E-07 7.85781E-19-9.63357E-19
 -1      3845 9.55936E-05-2.50783E-05-3.02235E-05 1.38714E-06 1.18204E-18-1.18093E-18
 -1      3846 9.53696E-05-2.44180E-05-3.04129E-05 1.79488E-06 1.22348E-18-1.18268E-18
 -1      3847 9.52277E-05-2.39440E-05-3.05482E-05 1.61286E-06 1.04881E-18-1.38831E-18
 -1      3848 9.57274E-05-2.51903E-05-3.02267E-05 1.09567E-06 1.07140E-18-9.81819E-19
 -1      3849 7.85281E-05-2.64361E-05-2.23924E-05-1.90510E-05-1.41265E-18 4.22636E-19
 -1      3850 8.32910E-05-3.02584E-05-2.25784E-05-2.15734E-05-2.36294E-18-3.93099E-19
 -1      3851 7.17907E-05-2.16250E-05-2.13865E-05 1.65887E-05 1.30948E-18 1.80828E-19
 -1      3852 7.72532E-05-2.61041E-05-2.19268E-05 1.97198E-05 1.78840E-18-9.21519E-19
 -1      3853 8.12165E-05-2.93377E-05-2.20256E-05 2.18956E-05 1.85473E-18-1.25905E-18
 -1      3854 9.59738E-05-2.91160E-05-2.86549E-05-6.65307E-07 3.53721E-19 2.21670E-19
 -1      3855 9.58900E-05-2.90809E-05-2.86311E-05-7.49689E-07 6.97390E-19 4.15621E-20
 -1      3856 9.59445E-05-2.91038E-05-2.86455E-05-7.81478E-07 5.53894E-19-1.66522E-19
 -1      3857 9.64216E-05-2.90525E-05-2.88744E-05-7.41711E-07 5.04681E-19-4.60728E-19
 -1      3858 9.62746E-05-2.89770E-05-2.88424E-05-8.35909E-07 4.40102E-19-3.28129E-19
 -1      3859 9.63227E-05-2.88689E-05-2.89055E-05-7.91442E-07 5.16466E-19-4.13912E-19
 -1      3860 6.30310E-05-1.69273E-05-1.94521E-05-1.13974E-05-1.58508E-18-3.98833E-19
 -1      3861 6.95197E-05-2.03181E-05-2.10264E-05-1.46246E-05-1.86128E-18-1.84375E-19
 -1      3862 9.62815E-05-2.65781E-05-2.98705E-05-3.42088E-07-2.33816E-19-5.81997E-19
 -1      3863 9.50601E-05-2.33378E-05-3.07471E-05 1.97328E-07 3.64952E-19-1.94884E-18
 -1      3864 9.50580E-05-2.33344E-05-3.07476E-05-1.80509E-07 1.92873E-19-2.11167E-18
 -1      3865 9.45660E-05-2.23147E-05-3.09446E-05-1.64686E-06-2.58761E-19-1.58671E-18
 -1      3866 9.40649E-05-3.91241E-05-2.34617E-05-2.35267E-05-1.26117E-18 1.59082E-18
 -1      3867 9.99331E-05-4.12665E-05-2.50639E-05-1.95549E-05-1.32982E-18 2.67945E-19
 -1      3868 9.65635E-05-3.79007E-05-2.50966E-05-1.87442E-05-6.44384E-19-6.01129E-20
 -1      3869 8.69770E-05-3.39626E-05-2.27570E-05-2.28639E-05-2.24466E-18 1.48158E-19
 -1      3870 9.51399E-05-2.35656E-05-3.06837E-05 8.32119E-07 4.79074E-19-1.77832E-18
 -1      3871 9.50843E-05-2.34045E-05-3.07260E-05 4.84307E-07 3.80372E-19-1.92689E-18
 -1      3872 9.55920E-05-2.43742E-05-3.05072E-05 2.51761E-07 3.82606E-19-1.91324E-18
 -1      3873 9.53092E-05-2.41219E-05-3.05128E-05-1.35067E-06-2.74237E-19-1.01247E-18
 -1      3874 6.51648E-05-1.94056E-05-1.94157E-05 1.47433E-05 1.00442E-18 3.18431E-19
 -1      3875 5.72199E-05-1.63557E-05-1.71818E-05 1.23230E-05 2.57022E-20 2.73698E-20
 -1      3876 5.54181E-05-1.47183E-05-1.74006E-05 4.98581E-06-3.39184E-19 5.81382E-19
 -1      3877 9.63902E-05-2.85243E-05-2.90808E-05-6.22631E-07 3.91417E-19-7.44416E-19
 -1      3878 9.65482E-05-2.83450E-05-2.92308E-05-4.60072E-07 3.74195E-19-7.91320E-19
 -1      3879 9.63600E-05-2.87195E-05-2.89908E-05-7.34622E-07 4.58851E-19-6.00744E-19
 -1      3880 8.84953E-05-3.27293E-05-2.38510E-05-2.00343E-05-1.21470E-18-6.14830E-19
 -1      3881 5.61676E-05-1.38982E-05-1.77953E-05-1.43866E-06-9.89341E-19-2.58451E-19
 -1      3882 5.89393E-05-1.53387E-05-1.86936E-05-7.24036E-06-9.67744E-19 6.96420E-20
 -1      3883 6.30609E-05-1.58285E-05-2.03341E-05-6.11665E-06-1.59096E-18 1.69671E-19
 -1      3884 9.60241E-05-2.91211E-05-2.86717E-05-8.10800E-07 4.89129E-19-1.42866E-19
 -1      3885 9.60805E-05-2.91152E-05-2.86982E-05-8.32775E-07 3.59576E-19-3.26346E-19
 -1      3886 9.62845E-05-2.91618E-05-2.87688E-05-7.50435E-07 2.24403E-19-3.18525E-19
 -1      3887 6.75224E-05-1.84709E-05-2.10567E-05 1.19719E-05 1.09720E-18 6.70215E-19
 -1      3888 9.55942E-05-2.43762E-05-3.05077E-05-2.33919E-07 1.64025E-19-1.90535E-18
 -1      3889 9.50866E-05-2.34072E-05-3.07271E-05-4.63173E-07 1.17896E-19-1.90696E-18
 -1      3890 9.51602E-05-2.35948E-05-3.06853E-05-8.35657E-07-3.06301E-20-1.84352E-18
 -1      3891 9.53206E-05-2.84371E-05-2.86630E-05-5.20204E-07 1.59014E-19 9.03640E-19
 -1      3892 9.54041E-05-2.85497E-05-2.86531E-05-4.99037E-07-3.99645E-20 8.70960E-19
 -1      3893 9.67896E-05-2.88083E-05-2.91327E-05 4.40760E-07-1.56769E-19-9.06160E-19
 -1      3894 9.67494E-05-2.89831E-05-2.90437E-05 4.99556E-07-3.27945E-19-1.02550E-18
 -1      3895 9.66935E-05-2.91100E-05-2.89626E-05 5.16111E-07-4.44061E-19-9.48425E-19
 -1      3896 9.66247E-05-2.91957E-05-2.88981E-05 5.37221E-07-4.85751E-19-9.52766E-19
 -1      3897 9.68161E-05-2.90519E-05-2.90432E-05 3.90278E-07-3.98513E-19-7.76248E-19
 -1      3898 9.65404E-05-2.92453E-05-2.88395E-05 5.33627E-07-3.97424E-19-7.81044E-19
 -1      3899 9.64576E-05-2.92686E-05-2.87946E-05 5.31623E-07-1.59451E-19-7.16879E-19
 -1      3900 9.66760E-05-2.92434E-05-2.89014E-05 4.15968E-07-4.84749E-19-5.80235E-19
 -1      3901 9.63594E-05-2.92644E-05-2.87541E-05 5.16827E-07-1.65461E-19-9.50898E-19
 -1      3902 9.62711E-05-2.92441E-05-2.87248E-05 5.03136E-07-2.85254E-19-1.11706E-18
 -1      3903 9.64944E-05-2.92975E-05-2.88005E-05 4.10534E-07-2.75814E-19-6.16395E-19
 -1      3904 9.61677E-05-2.92030E-05-2.86987E-05 4.84868E-07-1.05225E-19-1.11444E-18
 -1      3905 9.60790E-05-2.91526E-05-2.86816E-05 4.67746E-07-2.68960E-19-8.07604E-19
 -1      3906 9.62939E-05-2.92554E-05-2.87325E-05 3.88821E-07-1.49732E-19-7.77295E-19
 -1      3907 9.59740E-05-2.90848E-05-2.86667E-05 4.50666E-07-3.73473E-19-7.47075E-19
 -1      3908 9.58860E-05-2.90119E-05-2.86591E-05 4.36711E-07-2.39083E-19-4.64146E-19
 -1      3909 9.60875E-05-2.91467E-05-2.86904E-05 3.63401E-07-1.16637E-19-6.91260E-19
 -1      3910 9.57799E-05-2.89237E-05-2.86530E-05 4.25070E-07-1.14376E-19-2.97497E-19
 -1      3911 9.56915E-05-2.88323E-05-2.86528E-05 4.19325E-07 1.11528E-19-2.14872E-19
 -1      3912 9.58784E-05-2.89877E-05-2.86686E-05 3.42234E-07 7.66719E-22-6.12858E-19
 -1      3913 9.55824E-05-2.87260E-05-2.86535E-05 4.16321E-07 4.34490E-21-3.81556E-19
 -1      3914 9.54905E-05-2.86172E-05-2.86589E-05 4.22807E-07-1.10099E-19-1.33320E-20
 -1      3915 9.56655E-05-2.87877E-05-2.86625E-05 3.32886E-07-2.00370E-20-5.37294E-19
 -1      3916 9.53740E-05-2.84925E-05-2.86647E-05 4.30991E-07-1.02736E-19 3.07910E-19
 -1      3917 9.52740E-05-2.83650E-05-2.86744E-05 4.53155E-07-2.36932E-19 4.18069E-19
 -1      3918 9.54425E-05-2.85494E-05-2.86684E-05 3.40658E-07-2.31405E-20-9.40502E-20
 -1      3919 9.51438E-05-2.82193E-05-2.86837E-05 4.74819E-07-1.20659E-19 6.81855E-19
 -1      3920 9.50294E-05-2.80699E-05-2.86963E-05 5.15799E-07 2.11003E-19 5.73755E-19
 -1      3921 9.51986E-05-2.82701E-05-2.86829E-05 3.70054E-07-3.15929E-20 4.43034E-19
 -1      3922 9.48776E-05-2.78991E-05-2.87074E-05 5.53064E-07 1.45055E-19 5.69646E-19
 -1      3923 9.47412E-05-2.77235E-05-2.87215E-05 6.15810E-07-1.58718E-19 3.13989E-19
 -1      3924 9.49199E-05-2.79433E-05-2.87027E-05 4.25020E-07-6.17881E-20 6.05985E-19
 -1      3925 9.45580E-05-2.75223E-05-2.87327E-05 6.70633E-07-6.65648E-19 3.63191E-19
 -1      3926 9.43904E-05-2.73152E-05-2.87465E-05 7.57903E-07-6.90420E-19 4.23118E-19
 -1      3927 9.45889E-05-2.75595E-05-2.87243E-05 5.08993E-07-5.06293E-19 4.24462E-19
 -1      3928 9.41647E-05-2.70780E-05-2.87554E-05 8.31979E-07-3.01428E-19 6.45942E-19
 -1      3929 9.39550E-05-2.68341E-05-2.87665E-05 9.46207E-07 2.95797E-19 1.23263E-18
 -1      3930 9.41850E-05-2.71082E-05-2.87435E-05 6.24754E-07-2.40215E-19 8.52930E-19
 -1      3931 9.36738E-05-2.65552E-05-2.87701E-05 1.04078E-06-2.32218E-19 1.21131E-18
 -1      3932 9.34095E-05-2.62698E-05-2.87753E-05 1.18385E-06-3.91698E-19 5.48485E-19
 -1      3933 9.36843E-05-2.65782E-05-2.87546E-05 7.74084E-07-1.05429E-19 8.02275E-19
 -1      3934 9.30581E-05-2.59445E-05-2.87692E-05 1.29944E-06-9.46241E-20 2.56950E-19
 -1      3935 9.27250E-05-2.56139E-05-2.87638E-05 1.47247E-06 9.02109E-20-6.17124E-20
 -1      3936 9.30595E-05-2.59597E-05-2.87501E-05 9.57232E-07-4.04017E-19 9.58886E-19
 -1      3937 9.22867E-05-2.52395E-05-2.87421E-05 1.60867E-06 9.57791E-20-8.63153E-20
 -1      3938 9.18685E-05-2.48629E-05-2.87198E-05 1.81188E-06 2.32315E-19-1.69416E-19
 -1      3939 9.22797E-05-2.52458E-05-2.87197E-05 1.17233E-06-9.52637E-20 4.23741E-19
 -1      3940 9.13245E-05-2.44395E-05-2.86743E-05 1.96730E-06 2.74817E-19-2.14296E-19
 -1      3941 9.08032E-05-2.40198E-05-2.86260E-05 2.20042E-06 3.69948E-19-5.17779E-19
 -1      3942 9.13100E-05-2.44342E-05-2.86491E-05 1.41497E-06 3.31123E-19-1.26866E-19
 -1      3943 9.01311E-05-2.35518E-05-2.85456E-05 2.37328E-06 2.86079E-19-3.71234E-19
 -1      3944 8.94868E-05-2.30972E-05-2.84589E-05 2.63693E-06 5.37983E-19-1.71187E-19
 -1      3945 9.01099E-05-2.35297E-05-2.85190E-05 1.67846E-06 4.32752E-19-9.07126E-20
 -1      3946 8.86592E-05-2.25944E-05-2.83284E-05 2.82674E-06 7.34071E-19-3.44238E-19
 -1      3947 8.78697E-05-2.21204E-05-2.81864E-05 3.12594E-06 1.33005E-18-1.04000E-19
 -1      3948 8.86314E-05-2.25451E-05-2.83028E-05 1.95558E-06 5.47188E-19 1.06406E-19
 -1      3949 8.68495E-05-2.15982E-05-2.79848E-05 3.33759E-06 1.47163E-18 3.07081E-19
 -1      3950 8.58897E-05-2.11292E-05-2.77645E-05 3.68852E-06 1.05082E-18 6.41826E-19
 -1      3951 8.68121E-05-2.15014E-05-2.79642E-05 2.24341E-06 1.48652E-18 3.69688E-19
 -1      3952 8.46228E-05-2.06088E-05-2.74626E-05 3.94051E-06 5.42963E-19 3.66352E-19
 -1      3953 8.34631E-05-2.01805E-05-2.71326E-05 4.38248E-06-7.64650E-20 4.15990E-19
 -1      3954 8.45638E-05-2.04252E-05-2.74529E-05 2.55414E-06 8.70083E-19 5.64152E-19
 -1      3955 8.18686E-05-1.96910E-05-2.66889E-05 4.71570E-06-6.98289E-19 9.50682E-19
 -1      3956 8.04521E-05-1.93377E-05-2.62050E-05 5.32939E-06-9.17946E-19 6.47154E-19
 -1      3957 8.17557E-05-1.93480E-05-2.66973E-05 2.93537E-06-3.07336E-19 8.20433E-19
 -1      3958 7.84051E-05-1.89230E-05-2.55543E-05 5.81874E-06-9.09107E-19 8.25212E-19
 -1      3959 7.66644E-05-1.87189E-05-2.48495E-05 6.71972E-06-8.69188E-19 8.12929E-19
 -1      3960 7.82402E-05-1.83046E-05-2.55919E-05 3.51461E-06-5.41870E-19 2.49878E-18
 -1      3961 7.38216E-05-1.83110E-05-2.38841E-05 7.68704E-06-6.33362E-19 6.69710E-19
 -1      3962 7.19358E-05-1.84439E-05-2.28769E-05 9.18611E-06 6.02158E-19 1.26120E-18
 -1      3963 7.32779E-05-1.70143E-05-2.39403E-05 4.52304E-06-3.67404E-19 3.61098E-18
 -1      3964 9.58637E-05-2.90164E-05-2.86474E-05-5.19977E-07-3.15343E-19 9.36918E-19
 -1      3965 9.59417E-05-2.90803E-05-2.86548E-05-5.39084E-07-1.80522E-19 6.00360E-19
 -1      3966 9.52270E-05-2.38713E-05-3.05887E-05 1.37406E-06 8.99183E-19-1.28543E-18
 -1      3967 9.51223E-05-2.35599E-05-3.06734E-05 1.08230E-06 5.63196E-19-1.33676E-18
 -1      3968 9.55824E-05-2.44518E-05-3.04722E-05 7.15965E-07 6.00162E-19-1.44154E-18
 -1      3969 9.55234E-05-2.45244E-05-3.04220E-05 1.13760E-06 9.65425E-19-1.12119E-18
 -1      3970 9.48729E-05-2.78760E-05-2.87118E-05-7.02748E-07 2.15250E-19 8.55862E-20
 -1      3971 9.49805E-05-2.80263E-05-2.86970E-05-6.33537E-07 3.45439E-19 2.50534E-19
 -1      3972 9.45896E-05-2.75291E-05-2.87391E-05-8.72562E-07-2.83234E-20 1.64481E-19
 -1      3973 9.47174E-05-2.77020E-05-2.87240E-05-7.72736E-07 1.59715E-19-4.58075E-21
 -1      3974 9.47281E-05-2.77177E-05-2.87169E-05-6.31167E-07 2.50349E-19 5.13389E-19
 -1      3975 9.42487E-05-2.71315E-05-2.87633E-05-1.10716E-06-8.60390E-20-2.10892E-19
 -1      3976 9.44024E-05-2.73287E-05-2.87498E-05-9.71757E-07 1.57959E-19 8.06637E-20
 -1      3977 9.43887E-05-2.73253E-05-2.87387E-05-7.90914E-07-3.08799E-20 6.14159E-19
 -1      3978 9.38372E-05-2.66824E-05-2.87793E-05-1.41756E-06-4.48520E-19-1.25498E-19
 -1      3979 9.40218E-05-2.69033E-05-2.87700E-05-1.24107E-06-3.07501E-19-4.78919E-19
 -1      3980 9.39784E-05-2.68755E-05-2.87546E-05-1.01022E-06-8.22342E-20-8.08900E-20
 -1      3981 9.33441E-05-2.61866E-05-2.87802E-05-1.81665E-06 2.51299E-19-1.88990E-19
 -1      3982 9.35629E-05-2.64272E-05-2.87785E-05-1.59286E-06 1.48918E-20-1.99389E-19
 -1      3983 9.34815E-05-2.63672E-05-2.87584E-05-1.30066E-06-2.89232E-19-3.42948E-19
 -1      3984 9.27630E-05-2.56594E-05-2.87566E-05-2.31989E-06-1.10449E-19-8.10302E-20
 -1      3985 9.30162E-05-2.59098E-05-2.87671E-05-2.04162E-06-1.58998E-19-3.80654E-19
 -1      3986 9.28839E-05-2.58060E-05-2.87416E-05-1.67662E-06 1.12855E-19-4.42336E-19
 -1      3987 9.20959E-05-2.51302E-05-2.86966E-05-2.94654E-06-2.80529E-19 5.71555E-19
 -1      3988 9.23781E-05-2.53727E-05-2.87253E-05-2.60515E-06-9.61867E-20 1.79017E-19
 -1      3989 9.21758E-05-2.52076E-05-2.86933E-05-2.15660E-06-3.40369E-19 5.51573E-19
 -1      3990 9.13582E-05-2.46494E-05-2.85849E-05-3.72201E-06-2.21132E-19 2.10999E-19
 -1      3991 9.16551E-05-2.48543E-05-2.86393E-05-3.30632E-06-1.16016E-19 3.16554E-19
 -1      3992 9.13544E-05-2.46028E-05-2.85993E-05-2.76544E-06 1.55837E-20 1.00924E-18
 -1      3993 9.05866E-05-2.42952E-05-2.84034E-05-4.68156E-06 1.87698E-19-3.18478E-19
 -1      3994 9.08701E-05-2.44172E-05-2.84920E-05-4.17621E-06-2.09024E-19-3.22066E-19
 -1      3995 9.04283E-05-2.40424E-05-2.84417E-05-3.53802E-06 1.13995E-19-1.47710E-19
 -1      3996 8.98501E-05-2.41834E-05-2.81311E-05-5.87584E-06-2.62724E-19 2.69137E-19
 -1      3997 9.00705E-05-2.41561E-05-2.82633E-05-5.25898E-06 2.35694E-19 2.14071E-19
 -1      3998 8.94234E-05-2.36039E-05-2.81985E-05-4.52510E-06 1.68085E-19 7.57547E-19
 -1      3999 8.92686E-05-2.44804E-05-2.77469E-05-7.37775E-06-5.56072E-19 9.35089E-19
 -1      4000 8.93420E-05-2.42081E-05-2.79310E-05-6.61906E-06-6.47571E-19 7.23635E-19
 -1      4001 8.83915E-05-2.34003E-05-2.78440E-05-5.80247E-06-7.16473E-19 9.68258E-19
 -1      4002 8.90427E-05-2.54261E-05-2.72333E-05-9.28963E-06-3.06367E-19 1.79257E-18
 -1      4003 8.88312E-05-2.47694E-05-2.74733E-05-8.35227E-06-2.12592E-19 1.06316E-18
 -1      4004 8.74219E-05-2.35908E-05-2.73493E-05-7.48564E-06-6.41113E-19 1.32957E-18
 -1      4005 8.95129E-05-2.73640E-05-2.65888E-05-1.17094E-05 4.15363E-19 1.03969E-18
 -1      4006 8.88071E-05-2.61383E-05-2.68756E-05-1.05744E-05 9.41534E-20 1.41037E-18
 -1      4007 8.66918E-05-2.44276E-05-2.66844E-05-9.76092E-06 4.40446E-19 1.20754E-18
 -1      4008 9.12428E-05-3.08060E-05-2.58571E-05-1.47214E-05 5.30430E-20-2.97831E-19
 -1      4009 8.96615E-05-2.86905E-05-2.61468E-05-1.33647E-05 6.56272E-19 5.31156E-19
 -1      4010 8.65494E-05-2.62663E-05-2.58294E-05-1.28208E-05 6.57470E-19 1.36788E-19
 -1      4011 9.62109E-05-2.61275E-05-3.00386E-05-4.57324E-07 1.23173E-19-1.28052E-18
 -1      4012 9.64252E-05-2.68160E-05-2.98383E-05-1.57112E-07 1.98995E-20-1.02729E-18
 -1      4013 9.66173E-05-2.74110E-05-2.96579E-05-6.88228E-09-2.99672E-19-8.51720E-19
 -1      4014 9.67111E-05-2.78816E-05-2.95023E-05 1.84763E-07-4.08754E-19-7.76090E-19
 -1      4015 9.65527E-05-2.69846E-05-2.98126E-05-8.67359E-08 1.85667E-20-1.52145E-18
 -1      4016 9.65964E-05-2.77683E-05-2.95029E-05-1.71894E-07 4.55705E-19-8.90726E-19
 -1      4017 9.65070E-05-2.72860E-05-2.96621E-05 6.28284E-08 6.20169E-19-8.75309E-19
 -1      4018 9.67855E-05-2.82719E-05-2.93606E-05 2.78000E-07-4.53040E-19-7.20937E-19
 -1      4019 9.67959E-05-2.85716E-05-2.92414E-05 3.92276E-07-2.65458E-19-7.72880E-19
 -1      4020 9.68148E-05-2.80073E-05-2.94881E-05 1.62981E-07-3.37810E-19-1.05884E-18
 -1      4021 7.07527E-05-1.95619E-05-2.20669E-05-1.21257E-05-1.42629E-18-3.58560E-19
 -1      4022 7.43046E-05-2.24267E-05-2.21048E-05-1.62756E-05-1.26819E-18 2.57505E-19
 -1      4023 7.98015E-05-2.52787E-05-2.33152E-05-1.64167E-05-1.67195E-19-4.87970E-19
 -1      4024 9.51123E-05-2.81768E-05-2.86854E-05-5.88124E-07 4.10104E-19 3.37023E-19
 -1      4025 9.52052E-05-2.83070E-05-2.86724E-05-5.45026E-07 4.79765E-19 6.19201E-19
 -1      4026 9.52571E-05-2.83510E-05-2.86736E-05-4.53513E-07 4.15097E-19 8.55659E-19
 -1      4027 9.59343E-05-2.51978E-05-3.03200E-05-6.71312E-08 2.59718E-19-2.05103E-18
 -1      4028 9.59401E-05-2.52629E-05-3.02993E-05-2.69197E-07 1.56720E-19-1.85920E-18
 -1      4029 9.60702E-05-2.91468E-05-2.86830E-05-4.61088E-07-3.14119E-19 2.68623E-19
 -1      4030 9.60400E-05-2.91405E-05-2.86700E-05-5.60623E-07 9.35162E-20 2.01647E-19
 -1      4031 9.61197E-05-2.91829E-05-2.86867E-05-5.82544E-07 2.25797E-19 3.10685E-20
 -1      4032 9.54425E-05-2.43677E-05-3.04709E-05-9.52567E-07-1.10870E-19-1.47261E-18
 -1      4033 6.60710E-05-1.63860E-05-2.11585E-05 7.50068E-06 4.05709E-19 1.96409E-18
 -1      4034 9.57652E-05-2.89366E-05-2.86412E-05-5.04095E-07-1.24057E-19 9.51543E-19
 -1      4035 9.58753E-05-2.90039E-05-2.86603E-05-4.31298E-07-2.17254E-19 5.69589E-19
 -1      4036 9.56880E-05-2.88554E-05-2.86412E-05-4.93770E-07 6.94913E-20 7.81441E-19
 -1      4037 9.58565E-05-2.51685E-05-3.02842E-05-5.87096E-07 4.15880E-20-1.42486E-18
 -1      4038 9.65417E-05-2.91370E-05-2.88879E-05-6.40217E-07 2.86297E-19-3.54704E-19
 -1      4039 9.66044E-05-2.90433E-05-2.89525E-05-6.13258E-07 3.02737E-19-4.85125E-19
 -1      4040 9.55093E-05-2.86623E-05-2.86474E-05-4.91240E-07-9.58409E-20 7.72938E-19
 -1      4041 9.55879E-05-2.87590E-05-2.86417E-05-4.87941E-07 5.67490E-20 1.04418E-18
 -1      4042 9.56786E-05-2.88217E-05-2.86536E-05-4.15154E-07 4.94306E-20 6.14722E-19
 -1      4043 9.63885E-05-2.92254E-05-2.87836E-05-6.37754E-07-4.27180E-20-5.21713E-20
 -1      4044 9.64638E-05-2.91942E-05-2.88282E-05-6.39595E-07 1.26021E-19-2.06430E-19
 -1      4045 9.66218E-05-2.91944E-05-2.88992E-05-5.25874E-07 6.93095E-20-1.80609E-19
 -1      4046 9.03849E-05-3.19289E-05-2.50871E-05-1.69244E-05-5.93583E-19-9.20349E-19
 -1      4047 8.57888E-05-2.84340E-05-2.45362E-05-1.67274E-05 3.75257E-19-1.07165E-18
 -1      4048 9.54754E-05-2.86044E-05-2.86592E-05-4.20318E-07-1.58358E-19 7.57293E-19
 -1      4049 9.61311E-05-2.91729E-05-2.86982E-05-7.16966E-07 4.20713E-19 5.79611E-20
 -1      4050 9.66784E-05-2.81698E-05-2.93573E-05-3.01329E-07 3.77506E-19-8.01202E-19
 -1      4051 9.67200E-05-2.78814E-05-2.95013E-05-1.68021E-07 3.94192E-19-1.10667E-18
 -1      4052 9.66892E-05-2.84783E-05-2.92363E-05-4.42973E-07 4.24062E-19-8.43297E-19
 -1      4053 9.50125E-05-2.80574E-05-2.86939E-05-5.21410E-07 5.89711E-19 4.14052E-19
 -1      4054 9.65209E-05-2.88006E-05-2.90245E-05-6.58571E-07 4.27255E-19-6.32027E-19
 -1      4055 9.68793E-05-2.86650E-05-2.92352E-05 3.13421E-07-2.92858E-19-1.10122E-18
 -1      4056 6.09164E-05-1.53872E-05-1.93835E-05 3.58663E-06-5.19569E-20 7.85372E-19
 -1      4057 9.59601E-05-2.52805E-05-3.02958E-05 2.83147E-07 4.41722E-19-1.78308E-18
 -1      4058 9.59341E-05-2.52031E-05-3.03192E-05 8.32928E-08 3.18278E-19-1.89593E-18
 -1      4059 9.62826E-05-2.59768E-05-3.01231E-05-5.41081E-09 3.70008E-19-1.79598E-18
 -1      4060 9.63029E-05-2.66752E-05-2.98478E-05 2.73492E-07 7.32370E-19-9.23265E-19
 -1      4061 9.60958E-05-2.59643E-05-3.00523E-05 6.22003E-07 8.49010E-19-8.64058E-19
 -1      4062 6.94156E-05-1.72253E-05-2.21844E-05-8.11132E-06-1.23579E-18 4.33674E-20
 -1      4063 7.35976E-05-1.94510E-05-2.31671E-05-9.85762E-06-8.18254E-19-3.05209E-19
 -1      4064 8.10800E-05-2.47288E-05-2.42241E-05-1.44559E-05 5.65709E-19-5.57398E-19
 -1      4065 9.45843E-05-3.53879E-05-2.53142E-05-1.76286E-05-7.31741E-19-4.02423E-19
 -1      4066 9.57432E-05-2.51277E-05-3.02695E-05 9.00804E-07 8.64702E-19-9.87746E-19
 -1      4067 9.58968E-05-2.53339E-05-3.02394E-05 6.51885E-07 7.80986E-19-9.27040E-19
 -1      4068 6.73539E-05-1.64483E-05-2.18477E-05-2.16297E-06-1.05634E-18 1.88592E-18
 -1      4069 7.02276E-05-1.68166E-05-2.29919E-05-8.99306E-07-5.40792E-19 2.13826E-18
 -1      4070 9.64383E-05-2.68115E-05-2.98356E-05 1.75765E-07 6.82872E-19-8.36276E-19
 -1      4071 9.63149E-05-2.61558E-05-3.00621E-05-1.81892E-07 2.02300E-19-1.73001E-18
 -1      4072 9.59871E-05-2.54219E-05-3.02390E-05-3.84335E-07 1.91583E-19-1.64260E-18
 -1      4073 9.67871E-05-2.92366E-05-2.89491E-05 2.81329E-07-4.89966E-19-6.28905E-19
 -1      4074 9.67044E-05-2.92947E-05-2.88887E-05 2.95032E-07-3.68797E-19-5.92092E-19
 -1      4075 9.66068E-05-2.93215E-05-2.88357E-05 2.83835E-07-4.92812E-19-5.27214E-19
 -1      4076 9.65079E-05-2.93209E-05-2.87936E-05 2.83614E-07-4.63840E-19-6.69823E-19
 -1      4077 9.66988E-05-2.93209E-05-2.88791E-05 1.61522E-07-5.46873E-19-6.59675E-19
 -1      4078 9.64000E-05-2.92973E-05-2.87574E-05 2.75271E-07-1.71524E-19-8.24832E-19
 -1      4079 9.62983E-05-2.92581E-05-2.87301E-05 2.69651E-07-1.58629E-19-6.94447E-19
 -1      4080 9.64879E-05-2.93214E-05-2.87881E-05 1.57688E-07-5.63212E-19-5.93899E-19
 -1      4081 9.61844E-05-2.92001E-05-2.87071E-05 2.56456E-07-1.63123E-19-7.80685E-19
 -1      4082 9.60801E-05-2.91310E-05-2.86912E-05 2.50366E-07-9.91610E-20-8.09589E-19
 -1      4083 9.62751E-05-2.92466E-05-2.87292E-05 1.45499E-07-1.34330E-19-7.00096E-19
 -1      4084 9.59647E-05-2.90471E-05-2.86787E-05 2.40743E-07-1.81006E-20-7.75803E-19
 -1      4085 9.58590E-05-2.89554E-05-2.86718E-05 2.37438E-07 2.08763E-19-6.91017E-19
 -1      4086 9.60471E-05-2.91022E-05-2.86932E-05 1.37711E-07 1.03499E-19-7.23558E-19
 -1      4087 9.57412E-05-2.88508E-05-2.86675E-05 2.31689E-07 3.33562E-19-5.42093E-19
 -1      4088 9.56324E-05-2.87395E-05-2.86675E-05 2.33952E-07 1.50440E-19-1.26504E-19
 -1      4089 9.58171E-05-2.89104E-05-2.86759E-05 1.32852E-07 2.70628E-19-7.15494E-19
 -1      4090 9.55087E-05-2.86153E-05-2.86692E-05 2.33098E-07 7.61988E-20-5.73235E-20
 -1      4091 9.53926E-05-2.84843E-05-2.86744E-05 2.43197E-07 6.19223E-20 2.66953E-19
 -1      4092 9.55791E-05-2.86769E-05-2.86728E-05 1.33141E-07 3.37157E-19-2.91570E-19
 -1      4093 9.52571E-05-2.83390E-05-2.86804E-05 2.48132E-07-4.57840E-20 3.70469E-19
 -1      4094 9.51274E-05-2.81859E-05-2.86890E-05 2.67945E-07-5.09870E-20 7.98265E-19
 -1      4095 9.53241E-05-2.84016E-05-2.86801E-05 1.40398E-07 2.69066E-19-2.29846E-20
 -1      4096 9.49729E-05-2.80162E-05-2.86975E-05 2.79370E-07-2.27222E-19 9.14090E-19
 -1      4097 9.48216E-05-2.78370E-05-2.87079E-05 3.10406E-07-1.21196E-19 7.25136E-19
 -1      4098 9.50390E-05-2.80800E-05-2.86942E-05 1.55818E-07 5.84884E-20-9.91435E-20
 -1      4099 9.46388E-05-2.76382E-05-2.87170E-05 3.28799E-07-3.67617E-19 6.30922E-19
 -1      4100 9.44564E-05-2.74278E-05-2.87273E-05 3.72148E-07-7.94654E-19 2.38256E-19
 -1      4101 9.47074E-05-2.77040E-05-2.87114E-05 1.79954E-07-1.38052E-19-1.07502E-19
 -1      4102 9.42346E-05-2.71946E-05-2.87347E-05 3.97651E-07-5.31705E-19 5.35020E-19
 -1      4103 9.40097E-05-2.69476E-05-2.87424E-05 4.53822E-07-3.95730E-20 6.73482E-19
 -1      4104 9.43096E-05-2.72638E-05-2.87273E-05 2.12517E-07-4.19557E-19-5.99220E-19
 -1      4105 9.37367E-05-2.66746E-05-2.87451E-05 4.86028E-07-1.54714E-19 2.48418E-19
 -1      4106 9.34563E-05-2.63857E-05-2.87470E-05 5.54681E-07-3.60431E-19 1.09097E-19
 -1      4107 9.38229E-05-2.67489E-05-2.87367E-05 2.51982E-07-4.49381E-19-3.24131E-19
 -1      4108 9.31185E-05-2.60683E-05-2.87411E-05 5.92325E-07-4.37169E-19 6.63931E-19
 -1      4109 9.27678E-05-2.57336E-05-2.87327E-05 6.71917E-07-6.33808E-19 6.44642E-19
 -1      4110 9.32216E-05-2.61495E-05-2.87325E-05 2.94972E-07-2.39078E-19-1.61706E-19
 -1      4111 9.23502E-05-2.53688E-05-2.87128E-05 7.12480E-07-5.44968E-19 7.36847E-19
 -1      4112 9.19122E-05-2.49862E-05-2.86880E-05 7.99892E-07 1.55782E-19 4.17851E-19
 -1      4113 9.24772E-05-2.54586E-05-2.87053E-05 3.35437E-07-3.62170E-19 5.65117E-19
 -1      4114 9.13982E-05-2.45738E-05-2.86469E-05 8.39154E-07 3.74368E-19-1.21275E-19
 -1      4115 9.08536E-05-2.41441E-05-2.85975E-05 9.29434E-07 4.55316E-19-2.01167E-20
 -1      4116 9.15582E-05-2.46738E-05-2.86426E-05 3.63640E-07-2.51205E-19-4.68706E-19
 -1      4117 9.02242E-05-2.36875E-05-2.85254E-05 9.61066E-07 6.70114E-19-3.77493E-19
 -1      4118 8.95501E-05-2.32153E-05-2.84400E-05 1.04755E-06 7.24066E-19 1.27622E-19
 -1      4119 9.04293E-05-2.37986E-05-2.85272E-05 3.64992E-07 4.78407E-19-7.17570E-19
 -1      4120 8.87826E-05-2.27219E-05-2.83238E-05 1.06285E-06 2.89779E-19 6.79463E-19
 -1      4121 8.79504E-05-2.22158E-05-2.81870E-05 1.13812E-06 7.46885E-19 8.87539E-19
 -1      4122 8.90495E-05-2.28441E-05-2.83362E-05 3.18834E-07 9.02451E-19-5.49465E-19
 -1      4123 8.70143E-05-2.16968E-05-2.80088E-05 1.12604E-06 1.19681E-18 2.68407E-19
 -1      4124 8.59847E-05-2.11683E-05-2.77995E-05 1.18446E-06 1.37104E-18 3.47047E-19
 -1      4125 8.73670E-05-2.18279E-05-2.80387E-05 1.97103E-07 8.15771E-19 3.16276E-19
 -1      4126 8.48336E-05-2.06353E-05-2.75346E-05 1.13220E-06 9.18894E-19-1.92728E-19
 -1      4127 8.35476E-05-2.00961E-05-2.72232E-05 1.17572E-06 4.58550E-19-4.07219E-19
 -1      4128 8.53083E-05-2.07711E-05-2.75925E-05-3.77970E-08 9.05630E-19-1.33225E-18
 -1      4129 8.21000E-05-1.95536E-05-2.68358E-05 1.07291E-06 2.55899E-19 9.67917E-20
 -1      4130 8.04701E-05-1.90179E-05-2.63792E-05 1.12708E-06 1.55476E-19 6.83945E-19
 -1      4131 8.27516E-05-1.96873E-05-2.69380E-05-4.38434E-07 6.09321E-19-7.38234E-19
 -1      4132 7.85582E-05-1.84375E-05-2.58140E-05 9.67175E-07-4.91209E-20 1.75621E-18
 -1      4133 7.62905E-05-1.78354E-05-2.51364E-05 1.19160E-06 1.96356E-20 2.30216E-18
 -1      4134 7.94485E-05-1.85671E-05-2.59849E-05-1.09987E-06 7.23934E-19 3.61928E-19
 -1      4135 7.33598E-05-1.74009E-05-2.40340E-05-9.86318E-07-2.47588E-19 1.99736E-18
 -1      4136 9.59399E-05-2.53662E-05-3.02522E-05 4.65865E-07 6.51192E-19-1.27516E-18
 -1      4137 9.37387E-05-2.66582E-05-2.87492E-05-8.54194E-07-2.33927E-19 6.32929E-19
 -1      4138 9.39665E-05-2.69069E-05-2.87443E-05-7.39614E-07 1.13234E-19 7.41694E-19
 -1      4139 9.45971E-05-2.75797E-05-2.87217E-05-5.23649E-07-5.57618E-20 4.98565E-19
 -1      4140 9.47533E-05-2.77680E-05-2.87105E-05-4.62050E-07 3.09841E-19 5.71617E-19
 -1      4141 9.31666E-05-2.61001E-05-2.87434E-05-1.10766E-06-1.21988E-19 4.43046E-19
 -1      4142 9.34418E-05-2.63798E-05-2.87466E-05-9.58662E-07-2.66343E-19 3.94254E-19
 -1      4143 9.34680E-05-2.63915E-05-2.87369E-05-6.65551E-07 2.46315E-20 1.66877E-18
 -1      4144 9.24763E-05-2.54816E-05-2.87126E-05-1.43843E-06-9.94373E-20 4.83024E-19
 -1      4145 9.28048E-05-2.57882E-05-2.87289E-05-1.24787E-06 2.13858E-20 1.42919E-19
 -1      4146 9.28156E-05-2.57748E-05-2.87183E-05-8.76035E-07-4.28267E-20 1.19201E-18
 -1      4147 9.16539E-05-2.48180E-05-2.86442E-05-1.86631E-06-3.97993E-19 1.40605E-18
 -1      4148 9.20391E-05-2.51416E-05-2.86800E-05-1.62471E-06-3.89854E-19 1.02962E-18
 -1      4149 9.20247E-05-2.50894E-05-2.86690E-05-1.15725E-06-7.15044E-19 1.62145E-18
 -1      4150 9.06915E-05-2.41387E-05-2.85221E-05-2.41888E-06 3.98014E-19 9.69016E-19
 -1      4151 9.11320E-05-2.44614E-05-2.85855E-05-2.11304E-06-2.66961E-20 1.15310E-18
 -1      4152 9.10761E-05-2.43494E-05-2.85746E-05-1.53164E-06-1.95620E-19 1.60129E-18
 -1      4153 8.95897E-05-2.34917E-05-2.83255E-05-3.13582E-06 6.77912E-19 4.34109E-19
 -1      4154 9.00768E-05-2.37850E-05-2.84268E-05-2.74656E-06 7.29367E-19 7.60812E-19
 -1      4155 8.99535E-05-2.35817E-05-2.84161E-05-2.03142E-06 6.43950E-19 1.20877E-18
 -1      4156 8.83617E-05-2.29493E-05-2.80288E-05-4.07574E-06-5.22464E-20 5.91302E-19
 -1      4157 8.88761E-05-2.31709E-05-2.81804E-05-3.57437E-06 2.19602E-19 6.13328E-19
 -1      4158 8.86439E-05-2.28292E-05-2.81692E-05-2.70383E-06 4.22842E-19 4.60831E-19
 -1      4159 8.70383E-05-2.26136E-05-2.76006E-05-5.32670E-06-7.43440E-19 3.84683E-19
 -1      4160 8.75447E-05-2.27036E-05-2.78171E-05-4.66962E-06 7.20412E-21 8.98067E-19
 -1      4161 8.71384E-05-2.21534E-05-2.78026E-05-3.61931E-06-6.04350E-19 1.04227E-19
 -1      4162 8.56728E-05-2.26259E-05-2.70033E-05-7.02335E-06 2.58750E-19-2.64474E-19
 -1      4163 8.61139E-05-2.25006E-05-2.73012E-05-6.14163E-06-2.99771E-19 2.38491E-19
 -1      4164 8.54314E-05-2.16391E-05-2.72767E-05-4.88316E-06 1.93064E-21-4.36359E-19
 -1      4165 8.43454E-05-2.31838E-05-2.61924E-05-9.39723E-06 8.08043E-19-3.57235E-19
 -1      4166 8.46193E-05-2.27003E-05-2.65893E-05-8.15577E-06 4.88846E-19-3.47705E-19
 -1      4167 8.35183E-05-2.13985E-05-2.65413E-05-6.64375E-06 4.95306E-19-1.28843E-18
 -1      4168 8.29197E-05-2.43533E-05-2.50715E-05-1.25360E-05 1.20875E-18-8.88537E-19
 -1      4169 8.28436E-05-2.33208E-05-2.55856E-05-1.07981E-05 1.31566E-18-7.33626E-19
 -1      4170 8.10016E-05-2.12787E-05-2.54995E-05-8.87948E-06 1.37578E-18-1.85310E-18
 -1      4171 7.77287E-05-2.14970E-05-2.40031E-05-1.18631E-05 4.27891E-19-1.13402E-18
 -1      4172 9.54376E-05-2.85452E-05-2.86673E-05-3.30588E-07 8.31063E-21 2.10235E-19
 -1      4173 9.55432E-05-2.86658E-05-2.86623E-05-3.19890E-07 7.49358E-20 2.51914E-19
 -1      4174 6.55694E-05-1.54948E-05-2.13603E-05 1.72274E-06-2.47267E-19 1.79677E-18
 -1      4175 9.42094E-05-2.71509E-05-2.87396E-05-6.63297E-07 4.11740E-20 6.04110E-19
 -1      4176 9.43974E-05-2.73683E-05-2.87301E-05-5.77508E-07 3.02403E-20 6.28683E-19
 -1      4177 9.40028E-05-2.69352E-05-2.87359E-05-5.09779E-07-1.84725E-20 1.56515E-18
 -1      4178 9.51950E-05-2.82697E-05-2.86816E-05-3.63998E-07 3.70641E-19 1.82374E-19
 -1      4179 9.53108E-05-2.84098E-05-2.86729E-05-3.39579E-07 1.75053E-19 2.21827E-19
 -1      4180 9.53769E-05-2.84682E-05-2.86751E-05-2.39100E-07 1.72296E-19-2.66532E-19
 -1      4181 9.68310E-05-2.77859E-05-2.95904E-05 5.85262E-08-8.01869E-20-1.27208E-18
 -1      4182 9.69091E-05-2.82052E-05-2.94456E-05 1.61445E-07-1.94093E-19-1.08147E-18
 -1      4183 9.65322E-05-2.67604E-05-2.99036E-05-1.20782E-07 2.37918E-19-1.73608E-18
 -1      4184 9.67144E-05-2.73659E-05-2.97224E-05 2.42331E-08 1.12425E-19-1.57422E-18
 -1      4185 9.67968E-05-2.75557E-05-2.96732E-05 2.06060E-08 1.95170E-19-1.56265E-18
 -1      4186 9.64857E-05-2.65733E-05-2.99619E-05-6.37866E-08 2.75895E-19-1.82068E-18
 -1      4187 9.65828E-05-2.70862E-05-2.97898E-05 4.28436E-08 6.34447E-19-9.38840E-19
 -1      4188 9.63809E-05-2.64282E-05-2.99767E-05 2.47752E-07 7.53650E-19-1.03646E-18
 -1      4189 9.62169E-05-2.92167E-05-2.87134E-05-6.05205E-07 4.44298E-19-1.91679E-19
 -1      4190 9.62962E-05-2.92284E-05-2.87423E-05-6.22027E-07 2.96259E-19-5.96441E-20
 -1      4191 9.62644E-05-2.92408E-05-2.87262E-05-4.95358E-07 1.58585E-19-1.88767E-19
 -1      4192 9.69477E-05-2.85417E-05-2.93161E-05 1.82053E-07-1.41815E-19-9.75805E-19
 -1      4193 9.69455E-05-2.87997E-05-2.92052E-05 2.47578E-07-2.06297E-19-9.52209E-19
 -1      4194 9.69596E-05-2.83380E-05-2.94108E-05 8.78739E-08-3.01460E-20-1.33038E-18
 -1      4195 9.69142E-05-2.89977E-05-2.91061E-05 2.52093E-07-2.79275E-19-8.44163E-19
 -1      4196 9.68611E-05-2.91391E-05-2.90229E-05 2.86775E-07-4.04064E-19-7.04098E-19
 -1      4197 9.69697E-05-2.88882E-05-2.91809E-05 1.33762E-07-2.35956E-19-9.66210E-19
 -1      4198 9.49199E-05-2.79502E-05-2.87009E-05-4.26307E-07 6.69145E-19 6.89197E-19
 -1      4199 9.50523E-05-2.81127E-05-2.86901E-05-3.85006E-07 5.67542E-19 4.45522E-19
 -1      4200 9.51101E-05-2.81663E-05-2.86887E-05-2.67705E-07 2.89793E-19-3.17041E-19
 -1      4201 9.48040E-05-2.78155E-05-2.87062E-05-3.18571E-07 4.20477E-19 6.49911E-19
 -1      4202 7.54142E-05-1.94978E-05-2.40817E-05-8.38792E-06 3.70274E-19-8.42768E-19
 -1      4203 9.66537E-05-2.89078E-05-2.90353E-05-5.86272E-07 4.00823E-19-6.58286E-19
 -1      4204 9.66901E-05-2.87247E-05-2.91250E-05-5.12816E-07 4.89394E-19-7.35903E-19
 -1      4205 9.67989E-05-2.85703E-05-2.92414E-05-3.77554E-07 3.46004E-19-9.05709E-19
 -1      4206 9.67491E-05-2.89821E-05-2.90444E-05-4.86592E-07 2.58923E-19-5.61512E-19
 -1      4207 7.49640E-05-1.77788E-05-2.43888E-05-3.82103E-06-1.22861E-20 1.66505E-19
 -1      4208 9.66768E-05-2.92570E-05-2.88938E-05-4.09859E-07-7.44482E-20-2.91221E-19
 -1      4209 9.67565E-05-2.91875E-05-2.89559E-05-3.92593E-07 1.08749E-20-4.89466E-19
 -1      4210 9.68668E-05-2.91930E-05-2.90068E-05 1.55066E-07-3.61355E-19-5.89572E-19
 -1      4211 9.56606E-05-2.87819E-05-2.86612E-05-3.20601E-07 1.58508E-19 4.07719E-19
 -1      4212 9.57611E-05-2.88845E-05-2.86615E-05-3.20497E-07 9.46488E-20 2.00461E-19
 -1      4213 9.56186E-05-2.87274E-05-2.86688E-05-2.28256E-07 3.05052E-19-2.05239E-20
 -1      4214 9.64522E-05-2.92657E-05-2.87960E-05-5.22100E-07 1.26050E-20-2.16469E-19
 -1      4215 9.44412E-05-2.74078E-05-2.87236E-05-3.97029E-07 6.24855E-20 9.39716E-19
 -1      4216 9.65015E-05-2.65914E-05-2.99638E-05 1.84596E-08 3.66448E-19-1.75928E-18
 -1      4217 7.78948E-05-1.94223E-05-2.50763E-05-5.77754E-06 1.14502E-18-1.07455E-18
 -1      4218 9.67443E-05-2.76305E-05-2.96188E-05-5.02994E-08 5.03101E-19-9.90882E-19
 -1      4219 9.66878E-05-2.72700E-05-2.97491E-05 1.18006E-08 6.18061E-19-1.13182E-18
 -1      4220 9.68283E-05-2.80740E-05-2.94703E-05-1.91830E-07 4.09896E-19-1.00070E-18
 -1      4221 9.60841E-05-2.91431E-05-2.86877E-05-3.49710E-07-2.87286E-19 2.97296E-19
 -1      4222 9.61832E-05-2.92043E-05-2.87043E-05-3.60238E-07-1.75338E-19 3.31902E-19
 -1      4223 9.58740E-05-2.89821E-05-2.86667E-05-3.28764E-07-3.80897E-20 1.97235E-19
 -1      4224 9.59729E-05-2.90658E-05-2.86741E-05-3.35897E-07-2.87631E-19 1.50433E-19
 -1      4225 9.58468E-05-2.89470E-05-2.86736E-05-2.31002E-07 1.72379E-19 1.35590E-19
 -1      4226 9.68196E-05-2.90773E-05-2.90328E-05-3.91810E-07 6.05867E-20-6.01167E-19
 -1      4227 9.68713E-05-2.89220E-05-2.91184E-05-3.46087E-07 2.14191E-19-8.70151E-19
 -1      4228 9.68540E-05-2.91396E-05-2.90246E-05-2.73749E-07-5.76659E-21-6.85289E-19
 -1      4229 9.60914E-05-2.56366E-05-3.01939E-05 2.84947E-07 5.81657E-19-1.49358E-18
 -1      4230 9.60694E-05-2.91256E-05-2.86931E-05-2.42961E-07-1.12564E-19 3.71091E-19
 -1      4231 9.68993E-05-2.91793E-05-2.90209E-05-6.06245E-08-1.56685E-19-6.46909E-19
 -1      4232 9.68219E-05-2.92709E-05-2.89473E-05-5.18325E-08-2.70594E-19-4.48111E-19
 -1      4233 9.65869E-05-2.92933E-05-2.88384E-05-3.98422E-07-3.24750E-20-2.58672E-19
 -1      4234 9.66981E-05-2.92961E-05-2.88906E-05-2.85240E-07-1.56803E-19-4.07224E-19
 -1      4235 9.64929E-05-2.93017E-05-2.87951E-05-3.97916E-07-1.48046E-20-2.56659E-19
 -1      4236 9.65699E-05-2.93438E-05-2.88096E-05 3.40126E-08-5.33651E-19-3.33055E-19
 -1      4237 9.64626E-05-2.93251E-05-2.87716E-05 3.04317E-08-4.96473E-19-3.47312E-19
 -1      4238 9.63035E-05-2.92578E-05-2.87326E-05-5.21753E-08-4.37505E-19-1.64630E-19
 -1      4239 9.61916E-05-2.91963E-05-2.87104E-05-4.98040E-08-1.83042E-19-2.68302E-19
 -1      4240 9.60800E-05-2.91198E-05-2.86954E-05-4.74646E-08 9.00289E-20-4.19038E-19
 -1      4241 9.59629E-05-2.90326E-05-2.86829E-05-4.69772E-08 3.50339E-19-3.02889E-19
 -1      4242 9.58485E-05-2.89337E-05-2.86765E-05-4.62628E-08 3.10193E-19-1.83381E-19
 -1      4243 9.57285E-05-2.88251E-05-2.86719E-05-4.53240E-08 4.09395E-19-1.06126E-19
 -1      4244 9.56091E-05-2.87065E-05-2.86721E-05-4.84513E-08 2.75034E-19-2.35858E-19
 -1      4245 9.54828E-05-2.85775E-05-2.86735E-05-4.62504E-08 2.96473E-19-1.83649E-19
 -1      4246 9.53539E-05-2.84388E-05-2.86783E-05-5.50210E-08 3.38847E-19-2.83062E-19
 -1      4247 9.52154E-05-2.82879E-05-2.86839E-05-5.12091E-08 2.54478E-19-5.44653E-19
 -1      4248 9.50704E-05-2.81268E-05-2.86916E-05-6.74309E-08 1.78789E-19-9.91895E-20
 -1      4249 9.49122E-05-2.79505E-05-2.86996E-05-6.20060E-08 2.10133E-19-1.22681E-19
 -1      4250 9.47428E-05-2.77633E-05-2.87083E-05-8.77393E-08 2.33563E-19-1.32343E-19
 -1      4251 9.45557E-05-2.75570E-05-2.87167E-05-8.11191E-08 5.55887E-20 2.13670E-19
 -1      4252 9.43525E-05-2.73393E-05-2.87242E-05-1.18915E-07-1.28998E-19 2.54112E-19
 -1      4253 9.41255E-05-2.70980E-05-2.87306E-05-1.12111E-07-4.20030E-19 2.98582E-19
 -1      4254 9.38781E-05-2.68458E-05-2.87342E-05-1.65296E-07-5.64234E-19 7.88208E-19
 -1      4255 9.35989E-05-2.65645E-05-2.87354E-05-1.60186E-07-1.85480E-19 7.05935E-19
 -1      4256 9.32959E-05-2.62747E-05-2.87315E-05-2.33246E-07 4.17578E-20 6.24624E-19
 -1      4257 9.29508E-05-2.59499E-05-2.87235E-05-2.32957E-07 2.15162E-20 1.18060E-18
 -1      4258 9.25807E-05-2.56218E-05-2.87073E-05-3.32088E-07-4.39727E-19 1.29304E-18
 -1      4259 9.21544E-05-2.52519E-05-2.86846E-05-3.41496E-07-7.10562E-19 1.15177E-18
 -1      4260 9.17057E-05-2.48882E-05-2.86496E-05-4.75416E-07-7.13024E-19 8.77746E-19
 -1      4261 9.11815E-05-2.44748E-05-2.86048E-05-5.01783E-07-3.02478E-19 2.73420E-19
 -1      4262 9.06430E-05-2.40834E-05-2.85428E-05-6.82981E-07 1.13983E-19 6.62381E-19
 -1      4263 9.00018E-05-2.36320E-05-2.84659E-05-7.36717E-07 5.33293E-19 4.40037E-19
 -1      4264 8.93628E-05-2.32269E-05-2.83658E-05-9.83380E-07 6.93567E-19 3.14984E-19
 -1      4265 8.85812E-05-2.27478E-05-2.82436E-05-1.07902E-06 9.79239E-19 4.69864E-19
 -1      4266 8.78315E-05-2.23505E-05-2.80912E-05-1.41803E-06 6.76172E-19 5.26285E-19
 -1      4267 8.68783E-05-2.18579E-05-2.79058E-05-1.57571E-06 1.92012E-19-1.23403E-20
 -1      4268 8.60068E-05-2.14984E-05-2.76827E-05-2.04720E-06-3.26091E-20-2.24017E-20
 -1      4269 8.48359E-05-2.10087E-05-2.74095E-05-2.29595E-06 2.27499E-19-6.81310E-19
 -1      4270 8.38316E-05-2.07266E-05-2.70919E-05-2.95895E-06 6.58734E-19-1.05148E-18
 -1      4271 8.23713E-05-2.02548E-05-2.66963E-05-3.34859E-06 6.53355E-19-8.19313E-19
 -1      4272 8.12363E-05-2.00957E-05-2.62537E-05-4.26987E-06 6.44279E-19-1.26653E-18
 -1      4273 7.94216E-05-1.96936E-05-2.56908E-05-4.88357E-06 1.10728E-18-1.12278E-18
 -1      4274 9.67322E-05-2.93201E-05-2.88893E-05-6.00394E-08-3.96088E-19-3.87735E-19
 -1      4275 9.66295E-05-2.93404E-05-2.88363E-05-5.55736E-08-4.24103E-19-2.68062E-19
 -1      4276 9.68869E-05-2.87076E-05-2.92215E-05-3.26614E-07 2.00682E-19-9.40300E-19
 -1      4277 9.68894E-05-2.84320E-05-2.93358E-05-2.39015E-07 2.17412E-19-1.10038E-18
 -1      4278 9.69081E-05-2.82025E-05-2.94460E-05-1.41320E-07 4.14827E-19-9.97786E-19
 -1      4279 9.69405E-05-2.87993E-05-2.92064E-05-2.31042E-07 2.89216E-19-1.23557E-18
 -1      4280 9.69602E-05-2.90500E-05-2.91009E-05-4.30737E-08-1.38869E-19-8.89128E-19
 -1      4281 9.62909E-05-2.92559E-05-2.87287E-05-3.76047E-07-1.69466E-19 1.87527E-19
 -1      4282 9.63880E-05-2.92870E-05-2.87570E-05-3.86260E-07-1.72157E-19-1.32587E-21
 -1      4283 9.64973E-05-2.93148E-05-2.87941E-05-2.71931E-07-3.60901E-19-9.06205E-20
 -1      4284 9.62884E-05-2.92547E-05-2.87303E-05-2.60023E-07-3.36210E-19 2.17568E-19
 -1      4285 9.69681E-05-2.82880E-05-2.94351E-05-5.01193E-08 2.34663E-19-1.54178E-18
 -1      4286 9.70048E-05-2.86161E-05-2.93063E-05-2.46097E-08 1.14174E-19-1.23513E-18
 -1      4287 9.69943E-05-2.88593E-05-2.91997E-05-5.84373E-08 1.01734E-20-1.03523E-18
 -1      4288 9.64043E-05-2.63566E-05-3.00177E-05 1.12891E-07 5.28956E-19-1.53206E-18
 -1      4289 9.65452E-05-2.67543E-05-2.99093E-05 4.89872E-08 4.73107E-19-1.56045E-18
 -1      4290 9.67461E-05-2.72954E-05-2.97627E-05-2.00648E-08 4.54575E-19-1.81019E-18
 -1      4291 9.68585E-05-2.77182E-05-2.96331E-05 6.39127E-09 4.52539E-19-1.70648E-18
 -1      4292 9.63451E-05-2.92753E-05-2.87457E-05-1.73179E-07-4.60629E-19 1.30940E-19
 -1      4293 9.66507E-05-2.70898E-05-2.98145E-05 4.45813E-08 5.82405E-19-1.30729E-18
 -1      4294 9.65639E-05-2.93384E-05-2.88127E-05-1.88645E-07-3.16987E-19-8.41733E-20
 -1      4295 9.68150E-05-2.76362E-05-2.96482E-05-4.18430E-08 5.97374E-19-1.28364E-18
 -1      4296 9.64504E-05-2.93143E-05-2.87720E-05-1.82447E-07-5.62051E-19-2.53063E-20
 -1      4297 9.68945E-05-2.78829E-05-2.95737E-05-8.08438E-09 4.53729E-19-1.52801E-18
 -3
    1PSTEP                         4           1           1          
  100CL  101 1.000000000        4297                     0    1           1
 -4  ERROR       1    1
 -5  STR(%)      1    1    0    0
 -1         1 4.84746E+01
 -1         2 2.41865E+01
 -1         3 8.33978E-02
 -1         4 1.98308E-01
 -1         5 1.40396E+01
 -1         6 1.31438E+01
 -1         7 1.31438E+01
 -1         8 3.66390E+00
 -1         9 1.82676E+00
 -1        10 1.29014E+00
 -1        11 1.04367E+00
 -1        12 8.99962E-01
 -1        13 8.08912E-01
 -1        14 7.54019E-01
 -1        15 7.56007E-01
 -1        16 8.13208E-01
 -1        17 9.00833E-01
 -1        18 1.05255E+00
 -1        19 1.30769E+00
 -1        20 1.83567E+00
 -1        21 3.50551E+00
 -1        22 8.64175E+00
 -1        23 1.31438E+01
 -1        24 4.31825E+00
 -1        25 3.34154E+00
 -1        26 2.11186E+00
 -1        27 1.36314E+00
 -1        28 1.01424E+00
 -1        29 7.75565E-01
 -1        30 5.96081E-01
 -1        31 4.56266E-01
 -1        32 3.49206E-01
 -1        33 2.71025E-01
 -1        34 2.08555E-01
 -1        35 1.59779E-01
 -1        36 1.22769E-01
 -1        37 9.57719E-02
 -1        38 7.72451E-02
 -1        39 6.58563E-02
 -1        40 6.60562E-02
 -1        41 7.61139E-02
 -1        42 9.03926E-02
 -1        43 1.11518E-01
 -1        44 1.50306E-01
 -1        45 2.01732E-01
 -1        46 2.67443E-01
 -1        47 3.48482E-01
 -1        48 4.44455E-01
 -1        49 5.52187E-01
 -1        50 6.63720E-01
 -1        51 8.54690E-01
 -1        52 1.09378E+00
 -1        53 1.37559E+00
 -1        54 1.68099E+00
 -1        55 1.87432E+00
 -1        56 1.87432E+00
 -1        57 1.94210E+00
 -1        58 1.98130E+00
 -1        59 2.66495E+00
 -1        60 4.88419E+00
 -1        61 5.82018E+00
 -1        62 5.82018E+00
 -1        63 5.63227E+00
 -1        64 4.57973E+00
 -1        65 2.39884E+00
 -1        66 1.42252E+00
 -1        67 1.33415E+00
 -1        68 1.33415E+00
 -1        69 1.18235E+00
 -1        70 1.18235E+00
 -1        71 9.72984E-01
 -1        72 1.40396E+01
 -1        73 3.39489E+00
 -1        74 2.41338E+00
 -1        75 1.66623E+00
 -1        76 1.14521E+00
 -1        77 9.05979E-01
 -1        78 7.31425E-01
 -1        79 5.88167E-01
 -1        80 4.68926E-01
 -1        81 3.69920E-01
 -1        82 2.96118E-01
 -1        83 2.35181E-01
 -1        84 1.85364E-01
 -1        85 1.45966E-01
 -1        86 1.16106E-01
 -1        87 9.48822E-02
 -1        88 8.14601E-02
 -1        89 8.04339E-02
 -1        90 9.21165E-02
 -1        91 1.09813E-01
 -1        92 1.32742E-01
 -1        93 1.59655E-01
 -1        94 1.88492E-01
 -1        95 2.37986E-01
 -1        96 2.97312E-01
 -1        97 3.59925E-01
 -1        98 4.18896E-01
 -1        99 4.63135E-01
 -1       100 4.76525E-01
 -1       101 5.65529E-01
 -1       102 7.24453E-01
 -1       103 8.49718E-01
 -1       104 9.82523E-01
 -1       105 1.24678E+00
 -1       106 1.31251E+00
 -1       107 1.58842E+00
 -1       108 1.82239E+00
 -1       109 2.58812E+00
 -1       110 3.10878E+00
 -1       111 3.27694E+00
 -1       112 3.27694E+00
 -1       113 3.19573E+00
 -1       114 2.38189E+00
 -1       115 1.45872E+00
 -1       116 6.31955E-01
 -1       117 3.68514E-01
 -1       118 3.95678E-01
 -1       119 3.95678E-01
 -1       120 2.73331E-01
 -1       121 1.82121E-01
 -1       122 2.43638E-01
 -1       123 2.88347E-01
 -1       124 2.94142E-01
 -1       125 2.94142E-01
 -1       126 2.19303E-01
 -1       127 2.74642E-01
 -1       128 5.11366E-01
 -1       129 5.78554E-01
 -1       130 5.78554E-01
 -1       131 4.42346E-01
 -1       132 1.85745E-01
 -1       133 2.80038E-01
 -1       134 3.68825E-01
 -1       135 5.79320E-01
 -1       136 6.53336E-01
 -1       137 2.41865E+01
 -1       138 4.69165E+01
 -1       139 4.69165E+01
 -1       140 2.03538E+01
 -1       141 1.24193E+01
 -1       142 1.24679E+01
 -1       143 1.27433E+01
 -1       144 1.35081E+01
 -1       145 1.35081E+01
 -1       146 1.46256E+01
 -1       147 3.90200E+01
 -1       148 3.90200E+01
 -1       149 2.50537E+01
 -1       150 2.59258E+01
 -1       151 2.59258E+01
 -1       152 2.80937E+01
 -1       153 3.17020E+01
 -1       154 3.06950E+01
 -1       155 1.30075E+01
 -1       156 1.21389E+01
 -1       157 1.21389E+01
 -1       158 1.24461E+01
 -1       159 1.24461E+01
 -1       160 1.21475E+01
 -1       161 2.16118E+01
 -1       162 4.84746E+01
 -1       163 2.40457E+01
 -1       164 6.07822E+00
 -1       165 2.30080E+00
 -1       166 1.50582E+00
 -1       167 1.15821E+00
 -1       168 9.72028E-01
 -1       169 8.64432E-01
 -1       170 7.96127E-01
 -1       171 7.56007E-01
 -1       172 7.99572E-01
 -1       173 8.67281E-01
 -1       174 9.80988E-01
 -1       175 1.17243E+00
 -1       176 1.52747E+00
 -1       177 2.26072E+00
 -1       178 3.93120E+00
 -1       179 1.40396E+01
 -1       180 4.31825E+00
 -1       181 3.34154E+00
 -1       182 2.11186E+00
 -1       183 1.44786E+00
 -1       184 1.02617E+00
 -1       185 7.75565E-01
 -1       186 5.96081E-01
 -1       187 4.69050E-01
 -1       188 3.69467E-01
 -1       189 2.91816E-01
 -1       190 2.35715E-01
 -1       191 1.88366E-01
 -1       192 1.49604E-01
 -1       193 1.18789E-01
 -1       194 9.50447E-02
 -1       195 7.73824E-02
 -1       196 6.47651E-02
 -1       197 6.60562E-02
 -1       198 7.61139E-02
 -1       199 9.35646E-02
 -1       200 1.22763E-01
 -1       201 1.61425E-01
 -1       202 2.10711E-01
 -1       203 2.71364E-01
 -1       204 3.55892E-01
 -1       205 4.86616E-01
 -1       206 6.44671E-01
 -1       207 8.24651E-01
 -1       208 1.01155E+00
 -1       209 1.17584E+00
 -1       210 1.37947E+00
 -1       211 1.68099E+00
 -1       212 1.87432E+00
 -1       213 1.80921E+00
 -1       214 1.94210E+00
 -1       215 1.98130E+00
 -1       216 2.95993E+00
 -1       217 4.88419E+00
 -1       218 5.82018E+00
 -1       219 5.63227E+00
 -1       220 4.57973E+00
 -1       221 2.84402E+00
 -1       222 1.49097E+00
 -1       223 1.17737E+00
 -1       224 1.33415E+00
 -1       225 1.17939E+00
 -1       226 1.18235E+00
 -1       227 9.72984E-01
 -1       228 3.39489E+00
 -1       229 2.41338E+00
 -1       230 1.66623E+00
 -1       231 1.14521E+00
 -1       232 9.05979E-01
 -1       233 7.31425E-01
 -1       234 5.88167E-01
 -1       235 4.68926E-01
 -1       236 3.69920E-01
 -1       237 2.96118E-01
 -1       238 2.35181E-01
 -1       239 1.87860E-01
 -1       240 1.50071E-01
 -1       241 1.20407E-01
 -1       242 9.82609E-02
 -1       243 8.29534E-02
 -1       244 7.59075E-02
 -1       245 8.25849E-02
 -1       246 9.40407E-02
 -1       247 1.09813E-01
 -1       248 1.32742E-01
 -1       249 1.67339E-01
 -1       250 2.10725E-01
 -1       251 2.59153E-01
 -1       252 3.09215E-01
 -1       253 3.59925E-01
 -1       254 4.18896E-01
 -1       255 4.63135E-01
 -1       256 4.95694E-01
 -1       257 6.03110E-01
 -1       258 7.24453E-01
 -1       259 8.49718E-01
 -1       260 9.82523E-01
 -1       261 1.24678E+00
 -1       262 1.31251E+00
 -1       263 1.58842E+00
 -1       264 1.88993E+00
 -1       265 2.58812E+00
 -1       266 3.10878E+00
 -1       267 3.27694E+00
 -1       268 3.19573E+00
 -1       269 2.38189E+00
 -1       270 1.50997E+00
 -1       271 8.25218E-01
 -1       272 3.70481E-01
 -1       273 4.18269E-01
 -1       274 3.95678E-01
 -1       275 2.74833E-01
 -1       276 3.36474E-01
 -1       277 4.72347E-01
 -1       278 5.44037E-01
 -1       279 5.47767E-01
 -1       280 5.47767E-01
 -1       281 4.24708E-01
 -1       282 8.83649E-01
 -1       283 1.13710E+00
 -1       284 1.13710E+00
 -1       285 1.09505E+00
 -1       286 7.27478E-01
 -1       287 4.81711E-01
 -1       288 6.20633E-01
 -1       289 6.20633E-01
 -1       290 6.79430E-01
 -1       291 2.99622E+01
 -1       292 2.85637E+01
 -1       293 4.69165E+01
 -1       294 2.06222E+01
 -1       295 1.13623E+01
 -1       296 1.24193E+01
 -1       297 1.24679E+01
 -1       298 1.27433E+01
 -1       299 1.35081E+01
 -1       300 1.18515E+01
 -1       301 1.46256E+01
 -1       302 3.90200E+01
 -1       303 3.51005E+01
 -1       304 2.70398E+01
 -1       305 3.10684E+01
 -1       306 2.51596E+01
 -1       307 3.17020E+01
 -1       308 3.17020E+01
 -1       309 1.30075E+01
 -1       310 1.17984E+01
 -1       311 1.21389E+01
 -1       312 1.18387E+01
 -1       313 1.24461E+01
 -1       314 1.21475E+01
 -1       315 1.11197E+01
 -1       316 2.40402E+01
 -1       317 4.84746E+01
 -1       318 3.02086E+01
 -1       319 2.99622E+01
 -1       320 1.07022E+00
 -1       321 2.47954E+00
 -1       322 7.88748E-01
 -1       323 6.95044E-01
 -1       324 6.31938E-01
 -1       325 5.87688E-01
 -1       326 5.90932E-01
 -1       327 6.34558E-01
 -1       328 7.01220E-01
 -1       329 7.96362E-01
 -1       330 9.31768E-01
 -1       331 1.16002E+00
 -1       332 1.32902E+00
 -1       333 2.20094E+00
 -1       334 1.91450E+00
 -1       335 1.73008E+00
 -1       336 1.26794E+00
 -1       337 9.07782E-01
 -1       338 6.56842E-01
 -1       339 5.39167E-01
 -1       340 4.42372E-01
 -1       341 3.57227E-01
 -1       342 2.92132E-01
 -1       343 2.37434E-01
 -1       344 1.90665E-01
 -1       345 1.54896E-01
 -1       346 1.26061E-01
 -1       347 1.01887E-01
 -1       348 8.20255E-02
 -1       349 6.58279E-02
 -1       350 5.87165E-02
 -1       351 5.85933E-02
 -1       352 7.25714E-02
 -1       353 9.35646E-02
 -1       354 1.22763E-01
 -1       355 1.72665E-01
 -1       356 2.44560E-01
 -1       357 3.36736E-01
 -1       358 4.51804E-01
 -1       359 5.90469E-01
 -1       360 7.49563E-01
 -1       361 9.19107E-01
 -1       362 1.07860E+00
 -1       363 1.20390E+00
 -1       364 1.35173E+00
 -1       365 1.44540E+00
 -1       366 1.38559E+00
 -1       367 1.24729E+00
 -1       368 1.45344E+00
 -1       369 1.95971E+00
 -1       370 2.68532E+00
 -1       371 3.39028E+00
 -1       372 3.33190E+00
 -1       373 3.22337E+00
 -1       374 2.58010E+00
 -1       375 2.17887E+00
 -1       376 1.54378E+00
 -1       377 1.31469E+00
 -1       378 1.05493E+00
 -1       379 8.60422E-01
 -1       380 9.08657E-01
 -1       381 1.13071E+00
 -1       382 8.91787E-01
 -1       383 7.04453E-01
 -1       384 5.45842E-01
 -1       385 4.38447E-01
 -1       386 3.72208E-01
 -1       387 3.08807E-01
 -1       388 2.53571E-01
 -1       389 2.08695E-01
 -1       390 1.69518E-01
 -1       391 1.36503E-01
 -1       392 1.10784E-01
 -1       393 9.13071E-02
 -1       394 7.73671E-02
 -1       395 6.85374E-02
 -1       396 6.83260E-02
 -1       397 7.35550E-02
 -1       398 8.72004E-02
 -1       399 1.10650E-01
 -1       400 1.39694E-01
 -1       401 1.91858E-01
 -1       402 2.59493E-01
 -1       403 3.38649E-01
 -1       404 4.25865E-01
 -1       405 5.13766E-01
 -1       406 5.89677E-01
 -1       407 6.62148E-01
 -1       408 6.97488E-01
 -1       409 6.97488E-01
 -1       410 6.55469E-01
 -1       411 5.14774E-01
 -1       412 6.01678E-01
 -1       413 9.50817E-01
 -1       414 1.53435E+00
 -1       415 1.93043E+00
 -1       416 1.98097E+00
 -1       417 1.98097E+00
 -1       418 1.93094E+00
 -1       419 1.99973E+00
 -1       420 1.73191E+00
 -1       421 1.31152E+00
 -1       422 1.04111E+00
 -1       423 7.93111E-01
 -1       424 5.97206E-01
 -1       425 5.00756E-01
 -1       426 2.68569E-01
 -1       427 7.60245E-01
 -1       428 7.06433E-01
 -1       429 5.00756E-01
 -1       430 7.75954E-01
 -1       431 8.10846E-01
 -1       432 1.06260E+00
 -1       433 1.70119E+00
 -1       434 1.74606E+00
 -1       435 1.74606E+00
 -1       436 1.54631E+00
 -1       437 8.91788E-01
 -1       438 7.96656E-01
 -1       439 9.08657E-01
 -1       440 2.85637E+01
 -1       441 2.99622E+01
 -1       442 2.84551E+01
 -1       443 1.60251E+01
 -1       444 8.71726E+00
 -1       445 9.12894E-01
 -1       446 1.02139E+01
 -1       447 1.05109E+01
 -1       448 9.97781E+00
 -1       449 7.34527E+00
 -1       450 7.33127E+00
 -1       451 1.34772E+01
 -1       452 2.33934E+01
 -1       453 2.49415E+01
 -1       454 3.10684E+01
 -1       455 2.99062E+01
 -1       456 2.45037E+01
 -1       457 2.16248E+01
 -1       458 1.20413E+01
 -1       459 6.97727E+00
 -1       460 9.19255E+00
 -1       461 1.06466E+01
 -1       462 1.13327E+01
 -1       463 1.04710E+01
 -1       464 7.57054E+00
 -1       465 9.33779E+00
 -1       466 1.69489E+01
 -1       467 3.02086E+01
 -1       468 2.75823E+01
 -1       469 8.06892E+00
 -1       470 7.75717E+00
 -1       471 3.10684E+01
 -1       472 1.04818E+00
 -1       473 4.86556E-01
 -1       474 5.10927E-01
 -1       475 4.31717E-01
 -1       476 4.57579E-01
 -1       477 4.87095E-01
 -1       478 5.11099E-01
 -1       479 5.11099E-01
 -1       480 6.08794E-01
 -1       481 8.91787E-01
 -1       482 8.03210E-01
 -1       483 7.02881E-01
 -1       484 5.89540E-01
 -1       485 4.77349E-01
 -1       486 3.78928E-01
 -1       487 3.24156E-01
 -1       488 2.74507E-01
 -1       489 2.27666E-01
 -1       490 1.89021E-01
 -1       491 1.55728E-01
 -1       492 1.26724E-01
 -1       493 1.02174E-01
 -1       494 8.20255E-02
 -1       495 6.58279E-02
 -1       496 5.41948E-02
 -1       497 4.69134E-02
 -1       498 5.60650E-02
 -1       499 6.97426E-02
 -1       500 1.04238E-01
 -1       501 1.51970E-01
 -1       502 2.13365E-01
 -1       503 2.91463E-01
 -1       504 3.89171E-01
 -1       505 5.08728E-01
 -1       506 6.50796E-01
 -1       507 8.12972E-01
 -1       508 9.87617E-01
 -1       509 1.15901E+00
 -1       510 1.30042E+00
 -1       511 1.48276E+00
 -1       512 1.74820E+00
 -1       513 1.98479E+00
 -1       514 2.22248E+00
 -1       515 2.65790E+00
 -1       516 3.39605E+00
 -1       517 5.73264E+00
 -1       518 4.15280E+00
 -1       519 4.11337E+00
 -1       520 3.16539E+00
 -1       521 2.53794E+00
 -1       522 2.47347E+00
 -1       523 1.97703E+00
 -1       524 1.38225E+00
 -1       525 1.05493E+00
 -1       526 1.81082E+01
 -1       527 5.45842E-01
 -1       528 4.38447E-01
 -1       529 3.72208E-01
 -1       530 3.08807E-01
 -1       531 2.53571E-01
 -1       532 2.09213E-01
 -1       533 1.70509E-01
 -1       534 1.37550E-01
 -1       535 1.10926E-01
 -1       536 8.97167E-02
 -1       537 7.15242E-02
 -1       538 5.78421E-02
 -1       539 5.09057E-02
 -1       540 5.64058E-02
 -1       541 6.92441E-02
 -1       542 8.77436E-02
 -1       543 1.27660E-01
 -1       544 1.77251E-01
 -1       545 2.37387E-01
 -1       546 3.07833E-01
 -1       547 3.86492E-01
 -1       548 4.68439E-01
 -1       549 5.44826E-01
 -1       550 6.13029E-01
 -1       551 6.62148E-01
 -1       552 7.01650E-01
 -1       553 7.04420E-01
 -1       554 6.30146E-01
 -1       555 7.49756E-01
 -1       556 8.78924E-01
 -1       557 1.26307E+00
 -1       558 1.64996E+00
 -1       559 1.93043E+00
 -1       560 2.20376E+00
 -1       561 1.97310E+00
 -1       562 2.02115E+00
 -1       563 1.78233E+00
 -1       564 1.60028E+00
 -1       565 1.43419E+00
 -1       566 1.10270E+00
 -1       567 8.45784E-01
 -1       568 8.32345E-01
 -1       569 1.16318E+00
 -1       570 1.58010E+00
 -1       571 8.32345E-01
 -1       572 9.65768E-01
 -1       573 2.16122E+00
 -1       574 2.73576E+00
 -1       575 2.73576E+00
 -1       576 2.69919E+00
 -1       577 1.75088E+00
 -1       578 1.48433E+00
 -1       579 1.13560E+00
 -1       580 2.75823E+01
 -1       581 7.04453E-01
 -1       582 1.35257E+01
 -1       583 8.73293E+00
 -1       584 8.77062E-01
 -1       585 2.12282E+01
 -1       586 9.51732E+00
 -1       587 1.67672E+01
 -1       588 4.57471E-01
 -1       589 8.12449E+00
 -1       590 2.45037E+01
 -1       591 6.00842E+00
 -1       592 7.96255E+00
 -1       593 3.96365E+00
 -1       594 6.78868E+00
 -1       595 1.09130E+01
 -1       596 2.49415E+01
 -1       597 6.78265E+00
 -1       598 1.55528E+01
 -1       599 7.00408E+00
 -1       600 5.73264E+00
 -1       601 8.12971E+00
 -1       602 7.40744E+00
 -1       603 5.04333E+00
 -1       604 4.97512E+00
 -1       605 8.52166E+00
 -1       606 1.29037E+01
 -1       607 2.84551E+01
 -1       608 1.32827E+00
 -1       609 4.53588E+00
 -1       610 5.10927E-01
 -1       611 5.05852E+00
 -1       612 6.30029E+00
 -1       613 9.08657E-01
 -1       614 8.98011E+00
 -1       615 4.63739E-01
 -1       616 9.85944E+00
 -1       617 2.05748E+01
 -1       618 1.98199E+01
 -1       619 3.58550E-01
 -1       620 3.42951E-01
 -1       621 3.61954E-01
 -1       622 3.37944E-01
 -1       623 5.44087E-01
 -1       624 8.09493E+00
 -1       625 3.97372E-01
 -1       626 3.84741E-01
 -1       627 3.44064E-01
 -1       628 2.94688E-01
 -1       629 2.45217E-01
 -1       630 2.13824E-01
 -1       631 1.81392E-01
 -1       632 1.50342E-01
 -1       633 1.22523E-01
 -1       634 9.99317E-02
 -1       635 8.06904E-02
 -1       636 6.43901E-02
 -1       637 5.03359E-02
 -1       638 3.75972E-02
 -1       639 3.72474E-02
 -1       640 5.00256E-02
 -1       641 8.07180E-02
 -1       642 1.19322E-01
 -1       643 1.68186E-01
 -1       644 2.29957E-01
 -1       645 3.07586E-01
 -1       646 4.04346E-01
 -1       647 5.23870E-01
 -1       648 6.70225E-01
 -1       649 8.52620E-01
 -1       650 1.06700E+00
 -1       651 1.31417E+00
 -1       652 1.59905E+00
 -1       653 1.88235E+00
 -1       654 2.45122E+00
 -1       655 3.28550E+00
 -1       656 3.52775E+00
 -1       657 5.11341E+00
 -1       658 5.79439E+00
 -1       659 4.70761E+00
 -1       660 3.18909E+00
 -1       661 3.11749E+00
 -1       662 3.23025E+00
 -1       663 1.97703E+00
 -1       664 1.42302E+00
 -1       665 1.44906E+00
 -1       666 3.97313E-01
 -1       667 2.35135E-01
 -1       668 1.98360E-01
 -1       669 1.64388E-01
 -1       670 1.36109E-01
 -1       671 1.11233E-01
 -1       672 8.97167E-02
 -1       673 7.15242E-02
 -1       674 5.65891E-02
 -1       675 4.46421E-02
 -1       676 4.15045E-02
 -1       677 4.95415E-02
 -1       678 7.20785E-02
 -1       679 1.06862E-01
 -1       680 1.49731E-01
 -1       681 2.01977E-01
 -1       682 2.64377E-01
 -1       683 3.36768E-01
 -1       684 4.17452E-01
 -1       685 5.02395E-01
 -1       686 5.84273E-01
 -1       687 6.54480E-01
 -1       688 7.46292E-01
 -1       689 8.52291E-01
 -1       690 9.27554E-01
 -1       691 1.00802E+00
 -1       692 1.22467E+00
 -1       693 1.53899E+00
 -1       694 1.82723E+00
 -1       695 1.81763E+00
 -1       696 3.26912E+00
 -1       697 4.11861E+00
 -1       698 2.82941E+00
 -1       699 2.02115E+00
 -1       700 1.95743E+00
 -1       701 1.77261E+00
 -1       702 1.43419E+00
 -1       703 1.10270E+00
 -1       704 8.45784E-01
 -1       705 3.69407E+00
 -1       706 2.17121E+00
 -1       707 3.94589E+00
 -1       708 2.78887E+00
 -1       709 5.63548E+00
 -1       710 3.94589E+00
 -1       711 3.40796E+00
 -1       712 2.67466E+00
 -1       713 4.64787E-01
 -1       714 3.44545E+00
 -1       715 3.48773E-01
 -1       716 9.50825E+00
 -1       717 6.80746E+00
 -1       718 1.50057E+01
 -1       719 1.60062E+01
 -1       720 2.74253E-01
 -1       721 3.28875E-01
 -1       722 3.93042E-01
 -1       723 5.15889E-01
 -1       724 3.61954E-01
 -1       725 3.60250E-01
 -1       726 1.30151E+01
 -1       727 4.56140E+00
 -1       728 8.23804E+00
 -1       729 1.18205E+01
 -1       730 4.20385E+00
 -1       731 3.94313E+00
 -1       732 5.48624E+00
 -1       733 1.28448E+01
 -1       734 1.07863E+01
 -1       735 1.41699E+01
 -1       736 3.60250E-01
 -1       737 3.42483E-01
 -1       738 4.63886E+00
 -1       739 5.21342E+00
 -1       740 6.32207E+00
 -1       741 1.03205E+00
 -1       742 1.66870E+00
 -1       743 7.26049E+00
 -1       744 5.65553E+00
 -1       745 8.84667E+00
 -1       746 1.29365E+01
 -1       747 1.51009E+01
 -1       748 3.57883E-01
 -1       749 1.39831E+00
 -1       750 6.17603E+00
 -1       751 2.40677E-01
 -1       752 9.77100E+00
 -1       753 9.77100E+00
 -1       754 2.55196E-01
 -1       755 2.49276E-01
 -1       756 2.27675E-01
 -1       757 1.99399E-01
 -1       758 1.72626E-01
 -1       759 1.51349E-01
 -1       760 1.28819E-01
 -1       761 1.06832E-01
 -1       762 8.62781E-02
 -1       763 6.74162E-02
 -1       764 5.00279E-02
 -1       765 3.35493E-02
 -1       766 2.48705E-02
 -1       767 3.24220E-02
 -1       768 5.81030E-02
 -1       769 9.05619E-02
 -1       770 1.33574E-01
 -1       771 1.90132E-01
 -1       772 2.62661E-01
 -1       773 3.54747E-01
 -1       774 4.70092E-01
 -1       775 6.12042E-01
 -1       776 7.82573E-01
 -1       777 9.80090E-01
 -1       778 1.22370E+00
 -1       779 1.58017E+00
 -1       780 2.15324E+00
 -1       781 2.95083E+00
 -1       782 4.01486E+00
 -1       783 6.18371E+00
 -1       784 3.58445E+00
 -1       785 2.18354E-01
 -1       786 1.89742E-01
 -1       787 1.13463E-01
 -1       788 9.10666E-02
 -1       789 7.09339E-02
 -1       790 5.37341E-02
 -1       791 3.94619E-02
 -1       792 2.55427E-02
 -1       793 2.86044E-02
 -1       794 5.08894E-02
 -1       795 7.93656E-02
 -1       796 1.14291E-01
 -1       797 1.57268E-01
 -1       798 2.09920E-01
 -1       799 2.73788E-01
 -1       800 3.52201E-01
 -1       801 4.44665E-01
 -1       802 5.48079E-01
 -1       803 6.56526E-01
 -1       804 7.71344E-01
 -1       805 9.06080E-01
 -1       806 1.12406E+00
 -1       807 1.35039E+00
 -1       808 1.53644E+00
 -1       809 1.53899E+00
 -1       810 2.70693E+00
 -1       811 2.49909E+00
 -1       812 3.30358E+00
 -1       813 3.94313E+00
 -1       814 3.00734E+00
 -1       815 2.53297E+00
 -1       816 1.77261E+00
 -1       817 1.48054E+00
 -1       818 9.60738E-01
 -1       819 2.88694E-01
 -1       820 4.11861E+00
 -1       821 7.55399E+00
 -1       822 1.09676E+01
 -1       823 4.78225E+00
 -1       824 7.55399E+00
 -1       825 3.06555E-01
 -1       826 2.87383E-01
 -1       827 6.89291E+00
 -1       828 1.38027E-01
 -1       829 3.00764E-01
 -1       830 1.64013E-01
 -1       831 7.21494E+00
 -1       832 7.44047E+00
 -1       833 2.54989E-01
 -1       834 3.00734E+00
 -1       835 2.33971E-01
 -1       836 8.29155E+00
 -1       837 2.55544E+00
 -1       838 5.06575E+00
 -1       839 2.81983E-01
 -1       840 5.28921E+00
 -1       841 5.36232E+00
 -1       842 9.61014E+00
 -1       843 2.81772E-01
 -1       844 2.80104E-01
 -1       845 2.80376E-01
 -1       846 2.88694E-01
 -1       847 4.76564E+00
 -1       848 2.38874E-01
 -1       849 7.94530E+00
 -1       850 4.81916E+00
 -1       851 7.61195E+00
 -1       852 2.72797E+00
 -1       853 6.18371E+00
 -1       854 5.75605E+00
 -1       855 8.86595E+00
 -1       856 2.73120E-01
 -1       857 3.26625E+00
 -1       858 2.88145E-01
 -1       859 2.53297E+00
 -1       860 1.52839E-01
 -1       861 1.83236E-01
 -1       862 1.75963E-01
 -1       863 1.60199E-01
 -1       864 1.40383E-01
 -1       865 1.23734E-01
 -1       866 1.06981E-01
 -1       867 8.97475E-02
 -1       868 7.30112E-02
 -1       869 5.71587E-02
 -1       870 4.21387E-02
 -1       871 3.65415E-02
 -1       872 3.99727E-02
 -1       873 5.45748E-02
 -1       874 8.44791E-02
 -1       875 1.23747E-01
 -1       876 1.74134E-01
 -1       877 2.38672E-01
 -1       878 3.21048E-01
 -1       879 4.25861E-01
 -1       880 5.59038E-01
 -1       881 7.28485E-01
 -1       882 9.45065E-01
 -1       883 1.22370E+00
 -1       884 1.58017E+00
 -1       885 2.05635E+00
 -1       886 2.97046E+00
 -1       887 4.79351E+00
 -1       888 6.15657E-02
 -1       889 7.87977E-02
 -1       890 9.71881E-02
 -1       891 4.54036E-02
 -1       892 3.06833E-02
 -1       893 3.24023E-02
 -1       894 4.29458E-02
 -1       895 6.84785E-02
 -1       896 1.01902E-01
 -1       897 1.43177E-01
 -1       898 1.93543E-01
 -1       899 2.53796E-01
 -1       900 3.23877E-01
 -1       901 4.02209E-01
 -1       902 4.90675E-01
 -1       903 6.07536E-01
 -1       904 7.66980E-01
 -1       905 9.81944E-01
 -1       906 1.22893E+00
 -1       907 1.51726E+00
 -1       908 1.98031E+00
 -1       909 2.49666E+00
 -1       910 1.31801E-01
 -1       911 5.75313E+00
 -1       912 2.08732E-01
 -1       913 1.35561E-01
 -1       914 1.16422E-01
 -1       915 1.97352E-01
 -1       916 2.10253E-01
 -1       917 2.88145E-01
 -1       918 1.92077E-01
 -1       919 1.75159E-01
 -1       920 2.87737E+00
 -1       921 7.46294E+00
 -1       922 3.26138E+00
 -1       923 1.76618E-01
 -1       924 1.57607E+00
 -1       925 6.28626E+00
 -1       926 1.65010E-01
 -1       927 2.17677E-01
 -1       928 2.17677E-01
 -1       929 5.75313E+00
 -1       930 6.93626E+00
 -1       931 2.08867E+00
 -1       932 1.92077E-01
 -1       933 3.17978E+00
 -1       934 1.81962E-01
 -1       935 2.15215E-01
 -1       936 1.36513E-01
 -1       937 1.35838E-01
 -1       938 1.26921E-01
 -1       939 1.13434E-01
 -1       940 9.83485E-02
 -1       941 8.56595E-02
 -1       942 7.23227E-02
 -1       943 5.92089E-02
 -1       944 4.66952E-02
 -1       945 4.42793E-02
 -1       946 4.71234E-02
 -1       947 5.34029E-02
 -1       948 7.15471E-02
 -1       949 1.03489E-01
 -1       950 1.44345E-01
 -1       951 1.96528E-01
 -1       952 2.63080E-01
 -1       953 3.48067E-01
 -1       954 4.57337E-01
 -1       955 5.99991E-01
 -1       956 7.91047E-01
 -1       957 1.05599E+00
 -1       958 1.44196E+00
 -1       959 2.02893E+00
 -1       960 2.92524E+00
 -1       961 4.33218E+00
 -1       962 6.52389E-02
 -1       963 4.05952E-02
 -1       964 2.04100E-01
 -1       965 5.12039E-02
 -1       966 8.00097E-02
 -1       967 4.21844E-02
 -1       968 4.66229E-02
 -1       969 6.28514E-02
 -1       970 9.28769E-02
 -1       971 1.30536E-01
 -1       972 1.77499E-01
 -1       973 2.35484E-01
 -1       974 3.06154E-01
 -1       975 3.90936E-01
 -1       976 4.90675E-01
 -1       977 6.04903E-01
 -1       978 7.39275E-01
 -1       979 9.50505E-01
 -1       980 1.28028E+00
 -1       981 1.83600E+00
 -1       982 2.83685E+00
 -1       983 2.82573E+00
 -1       984 2.15215E-01
 -1       985 1.92077E-01
 -1       986 1.23597E-01
 -1       987 1.25057E-01
 -1       988 1.45614E-01
 -1       989 1.56112E-01
 -1       990 1.13136E-01
 -1       991 1.02077E-01
 -1       992 3.44871E+00
 -1       993 9.50090E-02
 -1       994 1.41136E-01
 -1       995 4.47930E+00
 -1       996 1.56260E-01
 -1       997 3.71649E+00
 -1       998 1.52914E-01
 -1       999 6.05781E+00
 -1      1000 1.52810E-01
 -1      1001 5.08771E+00
 -1      1002 1.09430E-01
 -1      1003 1.63596E-01
 -1      1004 4.74950E-02
 -1      1005 1.03512E-01
 -1      1006 9.80542E-02
 -1      1007 8.85667E-02
 -1      1008 7.70652E-02
 -1      1009 6.51975E-02
 -1      1010 5.55539E-02
 -1      1011 4.98877E-02
 -1      1012 4.87893E-02
 -1      1013 5.05241E-02
 -1      1014 5.56531E-02
 -1      1015 6.58688E-02
 -1      1016 8.44079E-02
 -1      1017 1.09721E-01
 -1      1018 1.45951E-01
 -1      1019 1.93612E-01
 -1      1020 2.53792E-01
 -1      1021 3.30178E-01
 -1      1022 4.28738E-01
 -1      1023 5.60189E-01
 -1      1024 7.45315E-01
 -1      1025 1.02273E+00
 -1      1026 1.40691E+00
 -1      1027 2.30219E+00
 -1      1028 4.33218E+00
 -1      1029 6.28956E-02
 -1      1030 1.40065E-01
 -1      1031 5.90306E-02
 -1      1032 7.67947E-02
 -1      1033 1.07964E-01
 -1      1034 1.47756E-01
 -1      1035 1.98337E-01
 -1      1036 2.62372E-01
 -1      1037 3.43248E-01
 -1      1038 4.45406E-01
 -1      1039 5.74777E-01
 -1      1040 7.39275E-01
 -1      1041 9.50505E-01
 -1      1042 1.20619E+00
 -1      1043 1.88963E+00
 -1      1044 3.06904E+00
 -1      1045 9.92754E-02
 -1      1046 9.04024E-02
 -1      1047 1.04604E-01
 -1      1048 1.02169E-01
 -1      1049 3.06904E+00
 -1      1050 5.12757E-02
 -1      1051 9.98674E-02
 -1      1052 7.43188E-02
 -1      1053 5.19581E-02
 -1      1054 1.10693E-01
 -1      1055 4.67595E-02
 -1      1056 9.95129E-02
 -1      1057 1.16978E-01
 -1      1058 9.98674E-02
 -1      1059 9.28608E-02
 -1      1060 2.98920E+00
 -1      1061 8.23053E-02
 -1      1062 6.74951E-02
 -1      1063 8.51216E-02
 -1      1064 6.03820E-02
 -1      1065 5.32245E-02
 -1      1066 4.98877E-02
 -1      1067 5.05241E-02
 -1      1068 5.56531E-02
 -1      1069 6.58688E-02
 -1      1070 8.29695E-02
 -1      1071 1.06296E-01
 -1      1072 1.37037E-01
 -1      1073 1.76655E-01
 -1      1074 2.27052E-01
 -1      1075 2.90920E-01
 -1      1076 3.72404E-01
 -1      1077 4.80405E-01
 -1      1078 6.38079E-01
 -1      1079 9.22318E-01
 -1      1080 1.35944E+00
 -1      1081 2.04689E+00
 -1      1082 1.20409E-01
 -1      1083 7.36899E-02
 -1      1084 1.54323E-01
 -1      1085 1.99528E-01
 -1      1086 2.66351E-01
 -1      1087 3.54799E-01
 -1      1088 4.73573E-01
 -1      1089 6.38079E-01
 -1      1090 9.22318E-01
 -1      1091 1.35944E+00
 -1      1092 1.98119E+00
 -1      1093 2.76321E+00
 -1      1094 4.77142E-02
 -1      1095 9.38495E-02
 -1      1096 5.12757E-02
 -1      1097 6.67242E-02
 -1      1098 5.50435E-02
 -1      1099 9.28608E-02
 -1      1100 8.62053E-02
 -1      1101 8.20557E-02
 -1      1102 8.63659E-02
 -1      1103 5.90306E-02
 -1      1104 1.17561E-01
 -1      1105 8.63659E-02
 -1      1106 5.26362E-02
 -1      1107 7.64261E-02
 -1      1108 8.51216E-02
 -1      1109 6.03820E-02
 -1      1110 8.86816E-02
 -1      1111 8.23053E-02
 -1      1112 8.51216E-02
 -1      1113 8.73887E-02
 -1      1114 8.21853E-02
 -1      1115 4.62754E-02
 -1      1116 1.31438E+01
 -1      1117 8.40383E+00
 -1      1118 2.74533E+00
 -1      1119 1.55845E+00
 -1      1120 1.16690E+00
 -1      1121 9.71814E-01
 -1      1122 8.54437E-01
 -1      1123 7.81466E-01
 -1      1124 7.55013E-01
 -1      1125 7.84608E-01
 -1      1126 8.57020E-01
 -1      1127 9.76690E-01
 -1      1128 1.18012E+00
 -1      1129 1.57168E+00
 -1      1130 2.67059E+00
 -1      1131 6.07363E+00
 -1      1132 1.13407E+01
 -1      1133 1.31438E+01
 -1      1134 8.73100E+00
 -1      1135 3.82989E+00
 -1      1136 2.72670E+00
 -1      1137 1.73750E+00
 -1      1138 1.18869E+00
 -1      1139 8.94901E-01
 -1      1140 6.85823E-01
 -1      1141 5.26174E-01
 -1      1142 4.02736E-01
 -1      1143 3.10116E-01
 -1      1144 2.39790E-01
 -1      1145 1.84167E-01
 -1      1146 1.41274E-01
 -1      1147 1.09270E-01
 -1      1148 8.65085E-02
 -1      1149 7.15507E-02
 -1      1150 6.59562E-02
 -1      1151 7.10850E-02
 -1      1152 8.32532E-02
 -1      1153 1.00955E-01
 -1      1154 1.30912E-01
 -1      1155 1.76019E-01
 -1      1156 2.34588E-01
 -1      1157 3.07963E-01
 -1      1158 3.96468E-01
 -1      1159 4.98321E-01
 -1      1160 6.07954E-01
 -1      1161 7.59205E-01
 -1      1162 9.74237E-01
 -1      1163 1.23468E+00
 -1      1164 1.52829E+00
 -1      1165 1.77766E+00
 -1      1166 1.87432E+00
 -1      1167 1.90821E+00
 -1      1168 1.96170E+00
 -1      1169 2.32312E+00
 -1      1170 3.77457E+00
 -1      1171 5.35219E+00
 -1      1172 5.82018E+00
 -1      1173 5.72623E+00
 -1      1174 5.10600E+00
 -1      1175 3.48929E+00
 -1      1176 1.91068E+00
 -1      1177 1.37834E+00
 -1      1178 1.33415E+00
 -1      1179 1.25825E+00
 -1      1180 1.18235E+00
 -1      1181 1.07767E+00
 -1      1182 5.85646E-01
 -1      1183 1.40396E+01
 -1      1184 8.71727E+00
 -1      1185 2.90413E+00
 -1      1186 2.03980E+00
 -1      1187 1.40572E+00
 -1      1188 1.02559E+00
 -1      1189 8.18702E-01
 -1      1190 6.59796E-01
 -1      1191 5.28547E-01
 -1      1192 4.19423E-01
 -1      1193 3.33019E-01
 -1      1194 2.65650E-01
 -1      1195 2.10273E-01
 -1      1196 1.65665E-01
 -1      1197 1.31036E-01
 -1      1198 1.05494E-01
 -1      1199 8.81711E-02
 -1      1200 8.09470E-02
 -1      1201 8.62752E-02
 -1      1202 1.00965E-01
 -1      1203 1.21277E-01
 -1      1204 1.46198E-01
 -1      1205 1.74073E-01
 -1      1206 2.13239E-01
 -1      1207 2.67649E-01
 -1      1208 3.28618E-01
 -1      1209 3.89410E-01
 -1      1210 4.41015E-01
 -1      1211 4.69830E-01
 -1      1212 5.21027E-01
 -1      1213 6.44991E-01
 -1      1214 7.87086E-01
 -1      1215 9.16121E-01
 -1      1216 1.11465E+00
 -1      1217 1.27964E+00
 -1      1218 1.45047E+00
 -1      1219 1.70540E+00
 -1      1220 2.20525E+00
 -1      1221 2.84845E+00
 -1      1222 3.19286E+00
 -1      1223 3.27694E+00
 -1      1224 3.23634E+00
 -1      1225 2.78881E+00
 -1      1226 1.92031E+00
 -1      1227 1.04534E+00
 -1      1228 5.00234E-01
 -1      1229 3.82096E-01
 -1      1230 3.95678E-01
 -1      1231 3.34504E-01
 -1      1232 1.78364E-01
 -1      1233 1.32759E-01
 -1      1234 2.12879E-01
 -1      1235 2.65992E-01
 -1      1236 2.91244E-01
 -1      1237 2.94142E-01
 -1      1238 2.56723E-01
 -1      1239 2.46972E-01
 -1      1240 3.93004E-01
 -1      1241 5.44960E-01
 -1      1242 5.78554E-01
 -1      1243 5.10450E-01
 -1      1244 3.14046E-01
 -1      1245 2.32892E-01
 -1      1246 3.24431E-01
 -1      1247 4.74072E-01
 -1      1248 6.16328E-01
 -1      1249 4.25822E-01
 -1      1250 2.41865E+01
 -1      1251 3.55515E+01
 -1      1252 4.69165E+01
 -1      1253 3.36352E+01
 -1      1254 1.63866E+01
 -1      1255 1.24436E+01
 -1      1256 1.26056E+01
 -1      1257 1.31257E+01
 -1      1258 1.35081E+01
 -1      1259 1.40669E+01
 -1      1260 2.68228E+01
 -1      1261 3.90200E+01
 -1      1262 3.20368E+01
 -1      1263 2.54897E+01
 -1      1264 2.59258E+01
 -1      1265 2.70098E+01
 -1      1266 2.98979E+01
 -1      1267 3.11985E+01
 -1      1268 2.18512E+01
 -1      1269 1.25732E+01
 -1      1270 1.21389E+01
 -1      1271 1.22925E+01
 -1      1272 1.24461E+01
 -1      1273 1.22968E+01
 -1      1274 1.68796E+01
 -1      1275 3.50432E+01
 -1      1276 4.84746E+01
 -1      1277 3.62601E+01
 -1      1278 2.41161E+01
 -1      1279 1.31438E+01
 -1      1280 4.87106E+00
 -1      1281 9.61099E+00
 -1      1282 2.06378E+00
 -1      1283 2.98235E+00
 -1      1284 4.18951E+00
 -1      1285 1.39798E+00
 -1      1286 1.66629E+00
 -1      1287 1.90331E+00
 -1      1288 1.10094E+00
 -1      1289 1.22418E+00
 -1      1290 1.33202E+00
 -1      1291 9.35995E-01
 -1      1292 1.00785E+00
 -1      1293 1.06512E+00
 -1      1294 8.36672E-01
 -1      1295 8.82197E-01
 -1      1296 9.18230E-01
 -1      1297 7.75073E-01
 -1      1298 8.02519E-01
 -1      1299 8.30279E-01
 -1      1300 7.56007E-01
 -1      1301 7.55013E-01
 -1      1302 7.76067E-01
 -1      1303 8.06390E-01
 -1      1304 7.77790E-01
 -1      1305 7.77790E-01
 -1      1306 8.84057E-01
 -1      1307 8.40245E-01
 -1      1308 8.33427E-01
 -1      1309 1.01677E+00
 -1      1310 9.40910E-01
 -1      1311 9.24135E-01
 -1      1312 1.24006E+00
 -1      1313 1.11249E+00
 -1      1314 1.07671E+00
 -1      1315 1.68157E+00
 -1      1316 1.41758E+00
 -1      1317 1.34995E+00
 -1      1318 2.88311E+00
 -1      1319 2.04819E+00
 -1      1320 1.89410E+00
 -1      1321 6.28647E+00
 -1      1322 3.71835E+00
 -1      1323 3.09596E+00
 -1      1324 1.40396E+01
 -1      1325 1.13407E+01
 -1      1326 8.98542E+00
 -1      1327 1.40396E+01
 -1      1328 8.73100E+00
 -1      1329 4.31825E+00
 -1      1330 3.82989E+00
 -1      1331 3.34154E+00
 -1      1332 3.82989E+00
 -1      1333 2.72670E+00
 -1      1334 2.11186E+00
 -1      1335 2.72670E+00
 -1      1336 1.77986E+00
 -1      1337 1.40550E+00
 -1      1338 1.77986E+00
 -1      1339 1.19465E+00
 -1      1340 1.02020E+00
 -1      1341 1.23701E+00
 -1      1342 8.94901E-01
 -1      1343 7.75565E-01
 -1      1344 9.00867E-01
 -1      1345 6.85823E-01
 -1      1346 5.96081E-01
 -1      1347 6.85823E-01
 -1      1348 5.32566E-01
 -1      1349 4.62658E-01
 -1      1350 5.32566E-01
 -1      1351 4.12867E-01
 -1      1352 3.59337E-01
 -1      1353 4.19259E-01
 -1      1354 3.20511E-01
 -1      1355 2.81421E-01
 -1      1356 3.30642E-01
 -1      1357 2.53370E-01
 -1      1358 2.22135E-01
 -1      1359 2.63765E-01
 -1      1360 1.98460E-01
 -1      1361 1.74072E-01
 -1      1362 2.12040E-01
 -1      1363 1.54691E-01
 -1      1364 1.36186E-01
 -1      1365 1.68985E-01
 -1      1366 1.20779E-01
 -1      1367 1.07281E-01
 -1      1368 1.34196E-01
 -1      1369 9.54083E-02
 -1      1370 8.61449E-02
 -1      1371 1.06917E-01
 -1      1372 7.73137E-02
 -1      1373 7.16194E-02
 -1      1374 8.62135E-02
 -1      1375 6.53107E-02
 -1      1376 6.54106E-02
 -1      1377 7.10737E-02
 -1      1378 6.60562E-02
 -1      1379 7.10850E-02
 -1      1380 6.54106E-02
 -1      1381 7.61139E-02
 -1      1382 8.32532E-02
 -1      1383 7.10850E-02
 -1      1384 9.19786E-02
 -1      1385 1.02541E-01
 -1      1386 8.48393E-02
 -1      1387 1.17141E-01
 -1      1388 1.36534E-01
 -1      1389 1.08164E-01
 -1      1390 1.55865E-01
 -1      1391 1.81578E-01
 -1      1392 1.42094E-01
 -1      1393 2.06222E-01
 -1      1394 2.39077E-01
 -1      1395 1.86068E-01
 -1      1396 2.69404E-01
 -1      1397 3.09923E-01
 -1      1398 2.41038E-01
 -1      1399 3.52187E-01
 -1      1400 4.00173E-01
 -1      1401 3.13628E-01
 -1      1402 4.65535E-01
 -1      1403 5.19402E-01
 -1      1404 4.21254E-01
 -1      1405 5.98429E-01
 -1      1406 6.54196E-01
 -1      1407 5.65644E-01
 -1      1408 7.44185E-01
 -1      1409 8.39670E-01
 -1      1410 7.34661E-01
 -1      1411 9.33122E-01
 -1      1412 1.05267E+00
 -1      1413 9.18102E-01
 -1      1414 1.13481E+00
 -1      1415 1.27571E+00
 -1      1416 1.09370E+00
 -1      1417 1.37753E+00
 -1      1418 1.53023E+00
 -1      1419 1.27766E+00
 -1      1420 1.68099E+00
 -1      1421 1.77766E+00
 -1      1422 1.53023E+00
 -1      1423 1.87432E+00
 -1      1424 1.87432E+00
 -1      1425 1.77766E+00
 -1      1426 1.84177E+00
 -1      1427 1.87566E+00
 -1      1428 1.84177E+00
 -1      1429 1.94210E+00
 -1      1430 1.96170E+00
 -1      1431 1.87566E+00
 -1      1432 1.98130E+00
 -1      1433 2.32312E+00
 -1      1434 1.96170E+00
 -1      1435 2.81244E+00
 -1      1436 3.92206E+00
 -1      1437 2.47062E+00
 -1      1438 4.88419E+00
 -1      1439 5.35219E+00
 -1      1440 3.92206E+00
 -1      1441 5.82018E+00
 -1      1442 5.82018E+00
 -1      1443 5.35219E+00
 -1      1444 5.72623E+00
 -1      1445 5.63227E+00
 -1      1446 5.72623E+00
 -1      1447 5.10600E+00
 -1      1448 4.57973E+00
 -1      1449 5.10600E+00
 -1      1450 3.71188E+00
 -1      1451 2.62143E+00
 -1      1452 3.71188E+00
 -1      1453 1.94490E+00
 -1      1454 1.45674E+00
 -1      1455 2.16749E+00
 -1      1456 1.29995E+00
 -1      1457 1.25576E+00
 -1      1458 1.33417E+00
 -1      1459 1.33415E+00
 -1      1460 1.33415E+00
 -1      1461 1.25576E+00
 -1      1462 1.25677E+00
 -1      1463 1.18087E+00
 -1      1464 1.25677E+00
 -1      1465 1.18235E+00
 -1      1466 1.18235E+00
 -1      1467 1.18087E+00
 -1      1468 1.07767E+00
 -1      1469 9.72984E-01
 -1      1470 1.07767E+00
 -1      1471 8.13160E-01
 -1      1472 8.13160E-01
 -1      1473 3.39489E+00
 -1      1474 8.71727E+00
 -1      1475 8.71727E+00
 -1      1476 2.41338E+00
 -1      1477 2.90413E+00
 -1      1478 2.90413E+00
 -1      1479 1.66623E+00
 -1      1480 2.03980E+00
 -1      1481 2.03980E+00
 -1      1482 1.14521E+00
 -1      1483 1.40572E+00
 -1      1484 1.40572E+00
 -1      1485 9.05979E-01
 -1      1486 1.02559E+00
 -1      1487 1.02559E+00
 -1      1488 7.31425E-01
 -1      1489 8.18702E-01
 -1      1490 8.18702E-01
 -1      1491 5.88167E-01
 -1      1492 6.59796E-01
 -1      1493 6.59796E-01
 -1      1494 4.68926E-01
 -1      1495 5.28547E-01
 -1      1496 5.28547E-01
 -1      1497 3.69920E-01
 -1      1498 4.19423E-01
 -1      1499 4.19423E-01
 -1      1500 2.96118E-01
 -1      1501 3.33019E-01
 -1      1502 3.33019E-01
 -1      1503 2.35181E-01
 -1      1504 2.65650E-01
 -1      1505 2.65650E-01
 -1      1506 1.86612E-01
 -1      1507 2.11521E-01
 -1      1508 2.11521E-01
 -1      1509 1.48018E-01
 -1      1510 1.67718E-01
 -1      1511 1.68966E-01
 -1      1512 1.18256E-01
 -1      1513 1.33186E-01
 -1      1514 1.35239E-01
 -1      1515 9.65715E-02
 -1      1516 1.07183E-01
 -1      1517 1.09334E-01
 -1      1518 8.22067E-02
 -1      1519 8.89178E-02
 -1      1520 9.06071E-02
 -1      1521 7.81707E-02
 -1      1522 7.86838E-02
 -1      1523 7.94305E-02
 -1      1524 8.73507E-02
 -1      1525 8.15094E-02
 -1      1526 7.92462E-02
 -1      1527 1.01927E-01
 -1      1528 9.30786E-02
 -1      1529 8.83128E-02
 -1      1530 1.21277E-01
 -1      1531 1.09813E-01
 -1      1532 1.01927E-01
 -1      1533 1.46198E-01
 -1      1534 1.32742E-01
 -1      1535 1.21277E-01
 -1      1536 1.77916E-01
 -1      1537 1.63497E-01
 -1      1538 1.50041E-01
 -1      1539 2.24356E-01
 -1      1540 1.99609E-01
 -1      1541 1.89032E-01
 -1      1542 2.78232E-01
 -1      1543 2.48570E-01
 -1      1544 2.34939E-01
 -1      1545 3.34570E-01
 -1      1546 3.03264E-01
 -1      1547 2.84184E-01
 -1      1548 3.89410E-01
 -1      1549 3.59925E-01
 -1      1550 3.34570E-01
 -1      1551 4.41015E-01
 -1      1552 4.18896E-01
 -1      1553 3.89410E-01
 -1      1554 4.69830E-01
 -1      1555 4.63135E-01
 -1      1556 4.41015E-01
 -1      1557 5.30611E-01
 -1      1558 4.86110E-01
 -1      1559 4.79414E-01
 -1      1560 6.63781E-01
 -1      1561 5.84319E-01
 -1      1562 5.49402E-01
 -1      1563 7.87086E-01
 -1      1564 7.24453E-01
 -1      1565 6.63781E-01
 -1      1566 9.16121E-01
 -1      1567 8.49718E-01
 -1      1568 7.87086E-01
 -1      1569 1.11465E+00
 -1      1570 9.82523E-01
 -1      1571 9.16121E-01
 -1      1572 1.27964E+00
 -1      1573 1.24678E+00
 -1      1574 1.11465E+00
 -1      1575 1.45047E+00
 -1      1576 1.31251E+00
 -1      1577 1.27964E+00
 -1      1578 1.70540E+00
 -1      1579 1.58842E+00
 -1      1580 1.45047E+00
 -1      1581 2.23902E+00
 -1      1582 1.85616E+00
 -1      1583 1.73918E+00
 -1      1584 2.84845E+00
 -1      1585 2.58812E+00
 -1      1586 2.23902E+00
 -1      1587 3.19286E+00
 -1      1588 3.10878E+00
 -1      1589 2.84845E+00
 -1      1590 3.27694E+00
 -1      1591 3.27694E+00
 -1      1592 3.19286E+00
 -1      1593 3.19573E+00
 -1      1594 3.23634E+00
 -1      1595 3.23634E+00
 -1      1596 2.38189E+00
 -1      1597 2.78881E+00
 -1      1598 2.78881E+00
 -1      1599 1.48434E+00
 -1      1600 1.94593E+00
 -1      1601 1.94593E+00
 -1      1602 7.28587E-01
 -1      1603 1.14197E+00
 -1      1604 1.16759E+00
 -1      1605 3.69498E-01
 -1      1606 5.01218E-01
 -1      1607 5.97850E-01
 -1      1608 4.06973E-01
 -1      1609 3.93391E-01
 -1      1610 3.94375E-01
 -1      1611 3.95678E-01
 -1      1612 3.95678E-01
 -1      1613 4.06973E-01
 -1      1614 2.74082E-01
 -1      1615 3.35255E-01
 -1      1616 3.35255E-01
 -1      1617 2.27726E-01
 -1      1618 2.90056E-01
 -1      1619 2.59297E-01
 -1      1620 3.80347E-01
 -1      1621 3.57992E-01
 -1      1622 4.04410E-01
 -1      1623 4.19090E-01
 -1      1624 4.16192E-01
 -1      1625 5.08192E-01
 -1      1626 4.20955E-01
 -1      1627 4.20955E-01
 -1      1628 5.45902E-01
 -1      1629 3.83535E-01
 -1      1630 4.20955E-01
 -1      1631 5.47767E-01
 -1      1632 3.49675E-01
 -1      1633 3.22006E-01
 -1      1634 4.86238E-01
 -1      1635 6.97508E-01
 -1      1636 5.79145E-01
 -1      1637 6.54179E-01
 -1      1638 8.57826E-01
 -1      1639 8.24232E-01
 -1      1640 1.01037E+00
 -1      1641 8.57826E-01
 -1      1642 8.57826E-01
 -1      1643 1.13710E+00
 -1      1644 7.68699E-01
 -1      1645 8.36804E-01
 -1      1646 1.11608E+00
 -1      1647 4.56612E-01
 -1      1648 5.84912E-01
 -1      1649 9.11266E-01
 -1      1650 3.80874E-01
 -1      1651 3.33728E-01
 -1      1652 6.04595E-01
 -1      1653 4.94729E-01
 -1      1654 4.50336E-01
 -1      1655 5.51172E-01
 -1      1656 5.99977E-01
 -1      1657 4.94729E-01
 -1      1658 6.20633E-01
 -1      1659 6.66383E-01
 -1      1660 6.29375E-01
 -1      1661 6.50032E-01
 -1      1662 8.26207E-01
 -1      1663 2.70743E+01
 -1      1664 2.70743E+01
 -1      1665 3.77401E+01
 -1      1666 2.63751E+01
 -1      1667 4.69165E+01
 -1      1668 4.69165E+01
 -1      1669 2.04880E+01
 -1      1670 3.37693E+01
 -1      1671 1.18908E+01
 -1      1672 1.58581E+01
 -1      1673 1.24436E+01
 -1      1674 1.24193E+01
 -1      1675 1.26056E+01
 -1      1676 1.24679E+01
 -1      1677 1.31257E+01
 -1      1678 1.27433E+01
 -1      1679 1.35081E+01
 -1      1680 1.35081E+01
 -1      1681 1.32386E+01
 -1      1682 1.26798E+01
 -1      1683 2.68228E+01
 -1      1684 1.46256E+01
 -1      1685 3.90200E+01
 -1      1686 3.90200E+01
 -1      1687 3.00771E+01
 -1      1688 3.70602E+01
 -1      1689 2.64828E+01
 -1      1690 2.60467E+01
 -1      1691 2.84971E+01
 -1      1692 2.84971E+01
 -1      1693 2.66267E+01
 -1      1694 2.55427E+01
 -1      1695 3.17020E+01
 -1      1696 2.98979E+01
 -1      1697 3.11985E+01
 -1      1698 3.17020E+01
 -1      1699 1.30075E+01
 -1      1700 2.18512E+01
 -1      1701 1.19687E+01
 -1      1702 1.24029E+01
 -1      1703 1.21389E+01
 -1      1704 1.21389E+01
 -1      1705 1.21424E+01
 -1      1706 1.19888E+01
 -1      1707 1.24461E+01
 -1      1708 1.24461E+01
 -1      1709 1.21475E+01
 -1      1710 1.22968E+01
 -1      1711 1.63657E+01
 -1      1712 1.16336E+01
 -1      1713 3.62574E+01
 -1      1714 2.28260E+01
 -1      1715 4.84746E+01
 -1      1716 4.84746E+01
 -1      1717 2.71271E+01
 -1      1718 3.93416E+01
 -1      1719 2.70743E+01
 -1      1720 2.70039E+01
 -1      1721 1.59922E+01
 -1      1722 3.37693E+01
 -1      1723 2.28477E-01
 -1      1724 3.05653E-01
 -1      1725 2.92629E+01
 -1      1726 3.77401E+01
 -1      1727 2.99622E+01
 -1      1728 1.18908E+01
 -1      1729 1.24436E+01
 -1      1730 1.26056E+01
 -1      1731 1.31257E+01
 -1      1732 1.26798E+01
 -1      1733 1.32386E+01
 -1      1734 2.68228E+01
 -1      1735 3.70602E+01
 -1      1736 3.10701E+01
 -1      1737 2.90541E+01
 -1      1738 2.81140E+01
 -1      1739 2.84308E+01
 -1      1740 3.17020E+01
 -1      1741 2.23547E+01
 -1      1742 1.24029E+01
 -1      1743 1.19687E+01
 -1      1744 1.19888E+01
 -1      1745 1.21424E+01
 -1      1746 1.22968E+01
 -1      1747 1.16336E+01
 -1      1748 1.75799E+01
 -1      1749 3.62574E+01
 -1      1750 3.93416E+01
 -1      1751 3.00854E+01
 -1      1752 9.61099E+00
 -1      1753 1.28802E+00
 -1      1754 1.68551E+00
 -1      1755 2.39017E+00
 -1      1756 4.27888E+00
 -1      1757 1.77488E+00
 -1      1758 8.80388E-01
 -1      1759 9.73480E-01
 -1      1760 7.79738E-01
 -1      1761 8.33536E-01
 -1      1762 7.41896E-01
 -1      1763 7.14033E-01
 -1      1764 7.48185E-01
 -1      1765 6.63491E-01
 -1      1766 6.71848E-01
 -1      1767 6.91907E-01
 -1      1768 6.09813E-01
 -1      1769 6.95252E-01
 -1      1770 6.73470E-01
 -1      1771 5.89310E-01
 -1      1772 7.50919E-01
 -1      1773 7.17065E-01
 -1      1774 6.12745E-01
 -1      1775 8.41104E-01
 -1      1776 7.84251E-01
 -1      1777 6.67889E-01
 -1      1778 9.84394E-01
 -1      1779 8.88675E-01
 -1      1780 7.48791E-01
 -1      1781 1.22962E+00
 -1      1782 1.05210E+00
 -1      1783 8.64065E-01
 -1      1784 1.71037E+00
 -1      1785 1.34375E+00
 -1      1786 1.04589E+00
 -1      1787 2.63011E+00
 -1      1788 1.79487E+00
 -1      1789 1.24452E+00
 -1      1790 8.12029E+00
 -1      1791 3.06607E+00
 -1      1792 1.76498E+00
 -1      1793 2.79792E+00
 -1      1794 5.19823E+00
 -1      1795 2.16394E+00
 -1      1796 2.65470E+00
 -1      1797 2.05772E+00
 -1      1798 3.39889E+00
 -1      1799 2.53581E+00
 -1      1800 1.92097E+00
 -1      1801 1.68990E+00
 -1      1802 1.35790E+00
 -1      1803 1.49901E+00
 -1      1804 1.17782E+00
 -1      1805 9.66976E-01
 -1      1806 1.08786E+00
 -1      1807 8.41505E-01
 -1      1808 7.16203E-01
 -1      1809 7.82312E-01
 -1      1810 6.57366E-01
 -1      1811 5.67624E-01
 -1      1812 5.98004E-01
 -1      1813 5.19227E-01
 -1      1814 4.55711E-01
 -1      1815 4.90770E-01
 -1      1816 4.13138E-01
 -1      1817 3.63347E-01
 -1      1818 3.99800E-01
 -1      1819 3.30800E-01
 -1      1820 2.91974E-01
 -1      1821 3.24679E-01
 -1      1822 2.64625E-01
 -1      1823 2.36574E-01
 -1      1824 2.64783E-01
 -1      1825 2.13190E-01
 -1      1826 1.89516E-01
 -1      1827 2.14050E-01
 -1      1828 1.71631E-01
 -1      1829 1.52250E-01
 -1      1830 1.72781E-01
 -1      1831 1.37832E-01
 -1      1832 1.22425E-01
 -1      1833 1.40479E-01
 -1      1834 1.10338E-01
 -1      1835 9.84659E-02
 -1      1836 1.13974E-01
 -1      1837 8.85351E-02
 -1      1838 7.97040E-02
 -1      1839 9.19563E-02
 -1      1840 7.16052E-02
 -1      1841 6.52965E-02
 -1      1842 7.39267E-02
 -1      1843 6.17408E-02
 -1      1844 6.23863E-02
 -1      1845 6.22722E-02
 -1      1846 6.23247E-02
 -1      1847 6.73536E-02
 -1      1848 5.86549E-02
 -1      1849 7.43427E-02
 -1      1850 8.30680E-02
 -1      1851 6.55824E-02
 -1      1852 9.35646E-02
 -1      1853 1.08164E-01
 -1      1854 8.30680E-02
 -1      1855 1.22763E-01
 -1      1856 1.42094E-01
 -1      1857 1.08164E-01
 -1      1858 1.67045E-01
 -1      1859 1.91688E-01
 -1      1860 1.47714E-01
 -1      1861 2.27636E-01
 -1      1862 2.57962E-01
 -1      1863 2.08613E-01
 -1      1864 3.04050E-01
 -1      1865 3.46314E-01
 -1      1866 2.90648E-01
 -1      1867 4.03848E-01
 -1      1868 4.69210E-01
 -1      1869 3.94270E-01
 -1      1870 5.38543E-01
 -1      1871 6.17570E-01
 -1      1872 5.21136E-01
 -1      1873 6.97117E-01
 -1      1874 7.87107E-01
 -1      1875 6.70016E-01
 -1      1876 8.71879E-01
 -1      1877 9.65330E-01
 -1      1878 8.34335E-01
 -1      1879 1.04508E+00
 -1      1880 1.12722E+00
 -1      1881 9.98853E-01
 -1      1882 1.18987E+00
 -1      1883 1.29169E+00
 -1      1884 1.14125E+00
 -1      1885 1.36560E+00
 -1      1886 1.51636E+00
 -1      1887 1.27782E+00
 -1      1888 1.56320E+00
 -1      1889 1.65986E+00
 -1      1890 1.39857E+00
 -1      1891 1.62996E+00
 -1      1892 1.59740E+00
 -1      1893 1.41550E+00
 -1      1894 1.52825E+00
 -1      1895 1.59469E+00
 -1      1896 1.31644E+00
 -1      1897 1.69777E+00
 -1      1898 1.71737E+00
 -1      1899 1.35036E+00
 -1      1900 1.97051E+00
 -1      1901 2.45982E+00
 -1      1902 1.70657E+00
 -1      1903 2.82263E+00
 -1      1904 3.78475E+00
 -1      1905 2.32251E+00
 -1      1906 4.13724E+00
 -1      1907 4.60523E+00
 -1      1908 3.03780E+00
 -1      1909 4.57604E+00
 -1      1910 4.48208E+00
 -1      1911 3.36109E+00
 -1      1912 4.42782E+00
 -1      1913 3.90155E+00
 -1      1914 3.27763E+00
 -1      1915 3.57992E+00
 -1      1916 2.71206E+00
 -1      1917 2.90173E+00
 -1      1918 2.51144E+00
 -1      1919 1.83492E+00
 -1      1920 2.37948E+00
 -1      1921 1.51737E+00
 -1      1922 1.36058E+00
 -1      1923 1.86132E+00
 -1      1924 1.24603E+00
 -1      1925 1.32442E+00
 -1      1926 1.42924E+00
 -1      1927 1.19454E+00
 -1      1928 1.11716E+00
 -1      1929 1.18481E+00
 -1      1930 1.01991E+00
 -1      1931 1.02139E+00
 -1      1932 9.57674E-01
 -1      1933 1.04550E+00
 -1      1934 9.40820E-01
 -1      1935 7.94043E-01
 -1      1936 8.84539E-01
 -1      1937 1.39847E+00
 -1      1938 1.77204E+00
 -1      1939 1.52261E+00
 -1      1940 1.01850E+00
 -1      1941 1.27901E+00
 -1      1942 1.01125E+00
 -1      1943 8.05216E-01
 -1      1944 9.24830E-01
 -1      1945 7.98120E-01
 -1      1946 6.38634E-01
 -1      1947 7.25910E-01
 -1      1948 6.25148E-01
 -1      1949 5.13307E-01
 -1      1950 5.84936E-01
 -1      1951 4.92144E-01
 -1      1952 4.20567E-01
 -1      1953 4.80187E-01
 -1      1954 4.05327E-01
 -1      1955 3.39364E-01
 -1      1956 3.88867E-01
 -1      1957 3.40508E-01
 -1      1958 2.74844E-01
 -1      1959 3.11745E-01
 -1      1960 2.81189E-01
 -1      1961 2.21938E-01
 -1      1962 2.52406E-01
 -1      1963 2.31133E-01
 -1      1964 1.78689E-01
 -1      1965 2.02350E-01
 -1      1966 1.89107E-01
 -1      1967 1.43287E-01
 -1      1968 1.62182E-01
 -1      1969 1.53011E-01
 -1      1970 1.15595E-01
 -1      1971 1.30428E-01
 -1      1972 1.23644E-01
 -1      1973 9.47840E-02
 -1      1974 1.05857E-01
 -1      1975 1.01046E-01
 -1      1976 8.01603E-02
 -1      1977 8.78140E-02
 -1      1978 8.43371E-02
 -1      1979 7.22225E-02
 -1      1980 7.57454E-02
 -1      1981 7.29523E-02
 -1      1982 7.54554E-02
 -1      1983 7.21167E-02
 -1      1984 6.84317E-02
 -1      1985 8.37978E-02
 -1      1986 7.80699E-02
 -1      1987 7.09405E-02
 -1      1988 9.85067E-02
 -1      1989 9.06205E-02
 -1      1990 8.03777E-02
 -1      1991 1.21696E-01
 -1      1992 1.10232E-01
 -1      1993 9.89254E-02
 -1      1994 1.53516E-01
 -1      1995 1.36218E-01
 -1      1996 1.25172E-01
 -1      1997 2.01292E-01
 -1      1998 1.79599E-01
 -1      1999 1.65776E-01
 -1      2000 2.59323E-01
 -1      2001 2.35109E-01
 -1      2002 2.25676E-01
 -1      2003 3.23932E-01
 -1      2004 2.98901E-01
 -1      2005 2.99071E-01
 -1      2006 3.92895E-01
 -1      2007 3.67540E-01
 -1      2008 3.82257E-01
 -1      2009 4.66331E-01
 -1      2010 4.36845E-01
 -1      2011 4.69816E-01
 -1      2012 5.26406E-01
 -1      2013 5.04287E-01
 -1      2014 5.51722E-01
 -1      2015 5.78921E-01
 -1      2016 5.62641E-01
 -1      2017 6.25913E-01
 -1      2018 6.50299E-01
 -1      2019 5.96591E-01
 -1      2020 6.79818E-01
 -1      2021 7.10971E-01
 -1      2022 6.50299E-01
 -1      2023 6.97488E-01
 -1      2024 7.52594E-01
 -1      2025 6.89961E-01
 -1      2026 6.76479E-01
 -1      2027 7.48648E-01
 -1      2028 6.82246E-01
 -1      2029 5.85121E-01
 -1      2030 9.24227E-01
 -1      2031 7.92100E-01
 -1      2032 5.58226E-01
 -1      2033 1.13167E+00
 -1      2034 1.09880E+00
 -1      2035 7.76247E-01
 -1      2036 1.56139E+00
 -1      2037 1.42343E+00
 -1      2038 1.24258E+00
 -1      2039 1.91018E+00
 -1      2040 1.75942E+00
 -1      2041 1.73239E+00
 -1      2042 2.28454E+00
 -1      2043 1.93545E+00
 -1      2044 1.95570E+00
 -1      2045 2.54487E+00
 -1      2046 2.28454E+00
 -1      2047 1.98097E+00
 -1      2048 2.60394E+00
 -1      2049 2.51986E+00
 -1      2050 1.95595E+00
 -1      2051 2.59773E+00
 -1      2052 2.63834E+00
 -1      2053 1.96534E+00
 -1      2054 2.05690E+00
 -1      2055 2.46382E+00
 -1      2056 1.86582E+00
 -1      2057 1.41074E+00
 -1      2058 1.84670E+00
 -1      2059 1.52171E+00
 -1      2060 9.33166E-01
 -1      2061 1.27554E+00
 -1      2062 1.17631E+00
 -1      2063 5.81796E-01
 -1      2064 8.09164E-01
 -1      2065 9.17112E-01
 -1      2066 5.07737E-01
 -1      2067 4.83844E-01
 -1      2068 6.95158E-01
 -1      2069 4.48217E-01
 -1      2070 4.59512E-01
 -1      2071 5.48981E-01
 -1      2072 2.71701E-01
 -1      2073 3.32123E-01
 -1      2074 3.84662E-01
 -1      2075 3.02521E-01
 -1      2076 6.54006E-01
 -1      2077 6.52141E-01
 -1      2078 6.25235E-01
 -1      2079 5.89390E-01
 -1      2080 7.33339E-01
 -1      2081 4.86551E-01
 -1      2082 4.18615E-01
 -1      2083 3.84662E-01
 -1      2084 6.03594E-01
 -1      2085 6.61861E-01
 -1      2086 6.61861E-01
 -1      2087 7.68099E-01
 -1      2088 6.17777E-01
 -1      2089 6.79307E-01
 -1      2090 7.93400E-01
 -1      2091 9.73123E-01
 -1      2092 7.43653E-01
 -1      2093 9.36722E-01
 -1      2094 1.41915E+00
 -1      2095 1.29242E+00
 -1      2096 1.38190E+00
 -1      2097 1.44158E+00
 -1      2098 1.44158E+00
 -1      2099 1.72363E+00
 -1      2100 1.42056E+00
 -1      2101 1.44158E+00
 -1      2102 1.74606E+00
 -1      2103 1.13689E+00
 -1      2104 1.32068E+00
 -1      2105 1.64619E+00
 -1      2106 6.86750E-01
 -1      2107 8.09633E-01
 -1      2108 1.21905E+00
 -1      2109 7.08645E-01
 -1      2110 6.39184E-01
 -1      2111 8.44222E-01
 -1      2112 7.64645E-01
 -1      2113 7.64645E-01
 -1      2114 8.52656E-01
 -1      2115 3.77401E+01
 -1      2116 2.85637E+01
 -1      2117 2.99622E+01
 -1      2118 2.99622E+01
 -1      2119 2.85094E+01
 -1      2120 2.92086E+01
 -1      2121 2.85094E+01
 -1      2122 1.83236E+01
 -1      2123 3.14708E+01
 -1      2124 1.00398E+01
 -1      2125 1.46697E+01
 -1      2126 1.23712E+01
 -1      2127 1.03555E+00
 -1      2128 1.20936E+00
 -1      2129 9.91559E-01
 -1      2130 8.50821E-01
 -1      2131 1.13409E+01
 -1      2132 1.13166E+01
 -1      2133 1.16271E+01
 -1      2134 1.14894E+01
 -1      2135 1.17430E+01
 -1      2136 1.13605E+01
 -1      2137 9.59841E+00
 -1      2138 1.04267E+01
 -1      2139 1.09784E+01
 -1      2140 9.59141E+00
 -1      2141 2.62486E+01
 -1      2142 1.40514E+01
 -1      2143 2.92470E+01
 -1      2144 3.12067E+01
 -1      2145 2.59907E+01
 -1      2146 3.00210E+01
 -1      2147 3.10684E+01
 -1      2148 2.90541E+01
 -1      2149 2.80050E+01
 -1      2150 2.75329E+01
 -1      2151 3.04873E+01
 -1      2152 2.81029E+01
 -1      2153 2.48317E+01
 -1      2154 2.66634E+01
 -1      2155 2.66634E+01
 -1      2156 1.25244E+01
 -1      2157 2.18717E+01
 -1      2158 9.38785E+00
 -1      2159 9.99237E+00
 -1      2160 9.50928E+00
 -1      2161 1.06657E+01
 -1      2162 1.04955E+01
 -1      2163 1.12427E+01
 -1      2164 1.13928E+01
 -1      2165 1.18894E+01
 -1      2166 1.15857E+01
 -1      2167 1.13092E+01
 -1      2168 1.14586E+01
 -1      2169 9.34511E+00
 -1      2170 9.85900E+00
 -1      2171 1.66890E+01
 -1      2172 1.02287E+01
 -1      2173 3.27117E+01
 -1      2174 2.04945E+01
 -1      2175 3.02086E+01
 -1      2176 3.93416E+01
 -1      2177 2.87722E+01
 -1      2178 2.88954E+01
 -1      2179 1.02441E+01
 -1      2180 9.71563E+00
 -1      2181 8.39309E+00
 -1      2182 2.91054E+00
 -1      2183 1.06326E+01
 -1      2184 8.86749E+00
 -1      2185 7.55122E+00
 -1      2186 9.14140E+00
 -1      2187 2.10481E+00
 -1      2188 2.92086E+01
 -1      2189 2.22944E+01
 -1      2190 7.94043E-01
 -1      2191 2.87722E+01
 -1      2192 2.88954E+01
 -1      2193 2.35787E+01
 -1      2194 1.31433E+01
 -1      2195 8.45416E+00
 -1      2196 9.02076E+00
 -1      2197 1.09018E+01
 -1      2198 1.09897E+01
 -1      2199 8.08491E+00
 -1      2200 1.68330E+01
 -1      2201 2.30643E+01
 -1      2202 3.10684E+01
 -1      2203 3.10684E+01
 -1      2204 3.04873E+01
 -1      2205 2.41675E+01
 -1      2206 1.84353E+01
 -1      2207 1.04042E+01
 -1      2208 7.33827E+00
 -1      2209 1.03624E+01
 -1      2210 1.02444E+01
 -1      2211 2.72050E+01
 -1      2212 9.91959E+00
 -1      2213 1.08945E+00
 -1      2214 1.48134E+00
 -1      2215 5.59247E-01
 -1      2216 5.90800E-01
 -1      2217 6.02985E-01
 -1      2218 6.49837E-01
 -1      2219 4.98741E-01
 -1      2220 5.11325E-01
 -1      2221 5.09703E-01
 -1      2222 5.46068E-01
 -1      2223 5.24256E-01
 -1      2224 4.44648E-01
 -1      2225 5.94157E-01
 -1      2226 5.60826E-01
 -1      2227 4.72337E-01
 -1      2228 6.53730E-01
 -1      2229 6.06160E-01
 -1      2230 4.99097E-01
 -1      2231 7.21433E-01
 -1      2232 6.53730E-01
 -1      2233 5.11099E-01
 -1      2234 8.84406E-01
 -1      2235 7.70281E-01
 -1      2236 5.59946E-01
 -1      2237 8.91787E-01
 -1      2238 1.01125E+00
 -1      2239 9.69985E-01
 -1      2240 1.26664E+00
 -1      2241 1.03558E+00
 -1      2242 9.85412E-01
 -1      2243 8.05332E-01
 -1      2244 7.53045E-01
 -1      2245 7.48661E-01
 -1      2246 6.23191E-01
 -1      2247 6.46210E-01
 -1      2248 5.67095E-01
 -1      2249 5.08258E-01
 -1      2250 5.33444E-01
 -1      2251 4.59047E-01
 -1      2252 4.10650E-01
 -1      2253 4.28138E-01
 -1      2254 3.83264E-01
 -1      2255 3.40691E-01
 -1      2256 3.51542E-01
 -1      2257 3.15867E-01
 -1      2258 2.83320E-01
 -1      2259 2.99332E-01
 -1      2260 2.59899E-01
 -1      2261 2.32550E-01
 -1      2262 2.51087E-01
 -1      2263 2.13228E-01
 -1      2264 1.89843E-01
 -1      2265 2.08344E-01
 -1      2266 1.73197E-01
 -1      2267 1.55312E-01
 -1      2268 1.72375E-01
 -1      2269 1.40810E-01
 -1      2270 1.26393E-01
 -1      2271 1.41226E-01
 -1      2272 1.14118E-01
 -1      2273 1.02031E-01
 -1      2274 1.14449E-01
 -1      2275 9.19563E-02
 -1      2276 8.20255E-02
 -1      2277 9.20999E-02
 -1      2278 7.39267E-02
 -1      2279 6.58279E-02
 -1      2280 7.39267E-02
 -1      2281 6.00114E-02
 -1      2282 5.64557E-02
 -1      2283 6.00114E-02
 -1      2284 5.28150E-02
 -1      2285 5.27534E-02
 -1      2286 5.05541E-02
 -1      2287 5.73291E-02
 -1      2288 6.43182E-02
 -1      2289 5.14892E-02
 -1      2290 7.11570E-02
 -1      2291 8.16536E-02
 -1      2292 6.29038E-02
 -1      2293 9.89012E-02
 -1      2294 1.13500E-01
 -1      2295 8.69902E-02
 -1      2296 1.37366E-01
 -1      2297 1.62317E-01
 -1      2298 1.28104E-01
 -1      2299 1.93015E-01
 -1      2300 2.28963E-01
 -1      2301 1.82667E-01
 -1      2302 2.68012E-01
 -1      2303 3.14100E-01
 -1      2304 2.52414E-01
 -1      2305 3.62953E-01
 -1      2306 4.20487E-01
 -1      2307 3.40317E-01
 -1      2308 4.80266E-01
 -1      2309 5.49599E-01
 -1      2310 4.48949E-01
 -1      2311 6.20632E-01
 -1      2312 7.00179E-01
 -1      2313 5.79762E-01
 -1      2314 7.81267E-01
 -1      2315 8.66040E-01
 -1      2316 7.31884E-01
 -1      2317 9.53362E-01
 -1      2318 1.03311E+00
 -1      2319 9.00294E-01
 -1      2320 1.11880E+00
 -1      2321 1.18146E+00
 -1      2322 1.07331E+00
 -1      2323 1.25216E+00
 -1      2324 1.32608E+00
 -1      2325 1.22971E+00
 -1      2326 1.41725E+00
 -1      2327 1.46408E+00
 -1      2328 1.39159E+00
 -1      2329 1.59680E+00
 -1      2330 1.56690E+00
 -1      2331 1.61548E+00
 -1      2332 1.68519E+00
 -1      2333 1.61604E+00
 -1      2334 1.86650E+00
 -1      2335 1.73488E+00
 -1      2336 1.83796E+00
 -1      2337 2.10364E+00
 -1      2338 2.05567E+00
 -1      2339 2.30880E+00
 -1      2340 2.44019E+00
 -1      2341 2.67788E+00
 -1      2342 3.04068E+00
 -1      2343 3.02697E+00
 -1      2344 4.20898E+00
 -1      2345 4.56146E+00
 -1      2346 4.56435E+00
 -1      2347 3.77154E+00
 -1      2348 3.74235E+00
 -1      2349 4.94272E+00
 -1      2350 3.72263E+00
 -1      2351 3.66837E+00
 -1      2352 4.13308E+00
 -1      2353 3.19438E+00
 -1      2354 2.87275E+00
 -1      2355 3.63938E+00
 -1      2356 2.55902E+00
 -1      2357 2.35840E+00
 -1      2358 2.85167E+00
 -1      2359 2.32617E+00
 -1      2360 2.00862E+00
 -1      2361 2.50570E+00
 -1      2362 1.76040E+00
 -1      2363 1.64586E+00
 -1      2364 2.22525E+00
 -1      2365 1.34847E+00
 -1      2366 1.21859E+00
 -1      2367 1.67964E+00
 -1      2368 1.05493E+00
 -1      2369 9.57674E-01
 -1      2370 1.21859E+00
 -1      2371 2.33359E+01
 -1      2372 2.32816E+01
 -1      2373 5.45842E-01
 -1      2374 6.25148E-01
 -1      2375 4.38447E-01
 -1      2376 4.92144E-01
 -1      2377 4.92144E-01
 -1      2378 3.72208E-01
 -1      2379 4.05327E-01
 -1      2380 4.05327E-01
 -1      2381 3.08807E-01
 -1      2382 3.40508E-01
 -1      2383 3.40508E-01
 -1      2384 2.53571E-01
 -1      2385 2.81189E-01
 -1      2386 2.81189E-01
 -1      2387 2.08954E-01
 -1      2388 2.31392E-01
 -1      2389 2.31392E-01
 -1      2390 1.70014E-01
 -1      2391 1.89602E-01
 -1      2392 1.89861E-01
 -1      2393 1.37027E-01
 -1      2394 1.53534E-01
 -1      2395 1.54030E-01
 -1      2396 1.10855E-01
 -1      2397 1.23715E-01
 -1      2398 1.24238E-01
 -1      2399 9.05119E-02
 -1      2400 1.00250E-01
 -1      2401 1.00321E-01
 -1      2402 7.44456E-02
 -1      2403 8.14157E-02
 -1      2404 8.06204E-02
 -1      2405 6.31897E-02
 -1      2406 6.76046E-02
 -1      2407 6.46831E-02
 -1      2408 5.96158E-02
 -1      2409 5.97215E-02
 -1      2410 5.43739E-02
 -1      2411 6.49804E-02
 -1      2412 6.23659E-02
 -1      2413 5.36557E-02
 -1      2414 7.82222E-02
 -1      2415 7.13995E-02
 -1      2416 6.28250E-02
 -1      2417 9.91970E-02
 -1      2418 8.74720E-02
 -1      2419 7.84938E-02
 -1      2420 1.33677E-01
 -1      2421 1.19155E-01
 -1      2422 1.07702E-01
 -1      2423 1.84554E-01
 -1      2424 1.58472E-01
 -1      2425 1.52455E-01
 -1      2426 2.48440E-01
 -1      2427 2.14622E-01
 -1      2428 2.07319E-01
 -1      2429 3.23241E-01
 -1      2430 2.83663E-01
 -1      2431 2.72610E-01
 -1      2432 4.06178E-01
 -1      2433 3.62570E-01
 -1      2434 3.47162E-01
 -1      2435 4.91102E-01
 -1      2436 4.47152E-01
 -1      2437 4.27465E-01
 -1      2438 5.67252E-01
 -1      2439 5.29296E-01
 -1      2440 5.06632E-01
 -1      2441 6.37589E-01
 -1      2442 6.01353E-01
 -1      2443 5.78928E-01
 -1      2444 6.79818E-01
 -1      2445 6.62148E-01
 -1      2446 6.37589E-01
 -1      2447 6.99569E-01
 -1      2448 6.99569E-01
 -1      2449 6.81899E-01
 -1      2450 6.79945E-01
 -1      2451 7.00954E-01
 -1      2452 7.03035E-01
 -1      2453 5.72460E-01
 -1      2454 6.42807E-01
 -1      2455 6.67283E-01
 -1      2456 6.75717E-01
 -1      2457 6.32265E-01
 -1      2458 6.89951E-01
 -1      2459 9.14870E-01
 -1      2460 7.40301E-01
 -1      2461 8.14340E-01
 -1      2462 1.39871E+00
 -1      2463 1.10694E+00
 -1      2464 1.07100E+00
 -1      2465 1.79019E+00
 -1      2466 1.59215E+00
 -1      2467 1.45651E+00
 -1      2468 1.95570E+00
 -1      2469 1.93043E+00
 -1      2470 1.79019E+00
 -1      2471 2.09236E+00
 -1      2472 2.09236E+00
 -1      2473 2.06709E+00
 -1      2474 1.95202E+00
 -1      2475 1.97703E+00
 -1      2476 2.08843E+00
 -1      2477 2.01044E+00
 -1      2478 1.97605E+00
 -1      2479 1.99712E+00
 -1      2480 1.75712E+00
 -1      2481 1.89103E+00
 -1      2482 1.90174E+00
 -1      2483 1.45590E+00
 -1      2484 1.66610E+00
 -1      2485 1.69130E+00
 -1      2486 1.23765E+00
 -1      2487 1.37285E+00
 -1      2488 1.51724E+00
 -1      2489 9.47905E-01
 -1      2490 1.07191E+00
 -1      2491 1.26844E+00
 -1      2492 7.21495E-01
 -1      2493 8.19448E-01
 -1      2494 9.74242E-01
 -1      2495 6.66551E-01
 -1      2496 7.14775E-01
 -1      2497 8.39065E-01
 -1      2498 5.00756E-01
 -1      2499 9.87013E-01
 -1      2500 9.69567E-01
 -1      2501 1.32135E+00
 -1      2502 1.19547E+00
 -1      2503 1.37164E+00
 -1      2504 7.96295E-01
 -1      2505 7.69389E-01
 -1      2506 8.70861E-01
 -1      2507 8.63006E-01
 -1      2508 8.99057E-01
 -1      2509 1.06447E+00
 -1      2510 1.93121E+00
 -1      2511 1.61191E+00
 -1      2512 1.87066E+00
 -1      2513 2.24091E+00
 -1      2514 2.21848E+00
 -1      2515 2.44849E+00
 -1      2516 2.24091E+00
 -1      2517 2.24091E+00
 -1      2518 2.73576E+00
 -1      2519 2.12275E+00
 -1      2520 2.22263E+00
 -1      2521 2.71747E+00
 -1      2522 1.32134E+00
 -1      2523 1.64860E+00
 -1      2524 2.22504E+00
 -1      2525 1.14049E+00
 -1      2526 1.18806E+00
 -1      2527 1.61761E+00
 -1      2528 1.02213E+00
 -1      2529 9.66127E-01
 -1      2530 1.30996E+00
 -1      2531 9.08657E-01
 -1      2532 2.87722E+01
 -1      2533 2.75823E+01
 -1      2534 7.04453E-01
 -1      2535 7.98120E-01
 -1      2536 6.25148E-01
 -1      2537 1.47754E+01
 -1      2538 2.10447E+01
 -1      2539 8.72509E+00
 -1      2540 1.23790E+01
 -1      2541 1.67830E+00
 -1      2542 1.30357E+00
 -1      2543 8.40136E-01
 -1      2544 9.73643E-01
 -1      2545 2.44053E+01
 -1      2546 2.57184E+01
 -1      2547 1.07793E+01
 -1      2548 1.55711E+01
 -1      2549 2.08544E+01
 -1      2550 2.00803E+01
 -1      2551 5.22579E-01
 -1      2552 5.44705E-01
 -1      2553 4.72013E-01
 -1      2554 4.44594E-01
 -1      2555 9.05115E+00
 -1      2556 9.31769E+00
 -1      2557 2.45037E+01
 -1      2558 2.72050E+01
 -1      2559 8.11115E+00
 -1      2560 7.03867E+00
 -1      2561 9.23672E+00
 -1      2562 9.08821E+00
 -1      2563 6.98549E+00
 -1      2564 5.64746E+00
 -1      2565 5.65446E+00
 -1      2566 1.01329E+01
 -1      2567 7.05998E+00
 -1      2568 1.71532E+01
 -1      2569 1.21951E+01
 -1      2570 8.85083E+00
 -1      2571 2.80050E+01
 -1      2572 2.49415E+01
 -1      2573 8.71463E+00
 -1      2574 7.98760E+00
 -1      2575 1.85888E+01
 -1      2576 2.00283E+01
 -1      2577 1.25351E+01
 -1      2578 6.99068E+00
 -1      2579 9.52269E+00
 -1      2580 7.46260E+00
 -1      2581 6.35495E+00
 -1      2582 9.73119E+00
 -1      2583 9.38817E+00
 -1      2584 7.45618E+00
 -1      2585 8.93922E+00
 -1      2586 9.37006E+00
 -1      2587 6.30693E+00
 -1      2588 7.75716E+00
 -1      2589 7.15646E+00
 -1      2590 6.27283E+00
 -1      2591 5.00923E+00
 -1      2592 1.27353E+01
 -1      2593 8.92973E+00
 -1      2594 6.74839E+00
 -1      2595 2.15561E+01
 -1      2596 1.49263E+01
 -1      2597 1.70660E+01
 -1      2598 2.84551E+01
 -1      2599 2.92086E+01
 -1      2600 2.32816E+01
 -1      2601 1.62138E+00
 -1      2602 1.76460E+00
 -1      2603 1.32864E+00
 -1      2604 1.18822E+00
 -1      2605 6.30240E+00
 -1      2606 6.62657E+00
 -1      2607 6.63440E+00
 -1      2608 8.04352E+00
 -1      2609 5.10927E-01
 -1      2610 6.49837E-01
 -1      2611 7.11910E-01
 -1      2612 7.98120E-01
 -1      2613 1.24414E+00
 -1      2614 5.27215E+00
 -1      2615 6.20189E+00
 -1      2616 6.40784E+00
 -1      2617 4.51108E+00
 -1      2618 2.44053E+01
 -1      2619 7.02873E+00
 -1      2620 8.13905E+00
 -1      2621 7.21239E+00
 -1      2622 1.58170E+01
 -1      2623 6.66551E-01
 -1      2624 7.69389E-01
 -1      2625 9.08657E-01
 -1      2626 9.08657E-01
 -1      2627 1.02213E+00
 -1      2628 8.84539E-01
 -1      2629 1.09419E+01
 -1      2630 1.29645E+01
 -1      2631 8.75088E+00
 -1      2632 2.80187E+01
 -1      2633 9.68529E-01
 -1      2634 1.11293E+01
 -1      2635 7.76858E+00
 -1      2636 6.88316E-01
 -1      2637 7.66981E-01
 -1      2638 6.70401E-01
 -1      2639 4.87333E-01
 -1      2640 8.26070E+00
 -1      2641 6.25764E+00
 -1      2642 1.66264E+01
 -1      2643 1.03862E+01
 -1      2644 1.33133E+01
 -1      2645 2.08544E+01
 -1      2646 2.52405E+01
 -1      2647 2.58216E+01
 -1      2648 2.25393E+01
 -1      2649 2.00283E+01
 -1      2650 5.37616E+00
 -1      2651 2.54441E+01
 -1      2652 2.23807E+01
 -1      2653 2.54441E+01
 -1      2654 6.36836E+00
 -1      2655 6.22539E+00
 -1      2656 8.32345E-01
 -1      2657 9.81791E-01
 -1      2658 4.22822E-01
 -1      2659 4.08065E-01
 -1      2660 4.00265E-01
 -1      2661 3.87334E-01
 -1      2662 3.50751E-01
 -1      2663 4.36526E-01
 -1      2664 4.36526E-01
 -1      2665 4.73369E-01
 -1      2666 4.24522E-01
 -1      2667 3.49949E-01
 -1      2668 7.17937E-01
 -1      2669 7.96135E-01
 -1      2670 8.41393E+00
 -1      2671 1.08103E+01
 -1      2672 5.50126E-01
 -1      2673 4.93456E-01
 -1      2674 4.87140E-01
 -1      2675 4.31045E-01
 -1      2676 3.91056E-01
 -1      2677 4.10706E-01
 -1      2678 3.61496E-01
 -1      2679 3.64402E-01
 -1      2680 3.36808E-01
 -1      2681 3.09422E-01
 -1      2682 3.19376E-01
 -1      2683 2.84686E-01
 -1      2684 2.59862E-01
 -1      2685 2.69952E-01
 -1      2686 2.44166E-01
 -1      2687 2.20745E-01
 -1      2688 2.29520E-01
 -1      2689 2.04529E-01
 -1      2690 1.85206E-01
 -1      2691 1.97608E-01
 -1      2692 1.69682E-01
 -1      2693 1.53035E-01
 -1      2694 1.65867E-01
 -1      2695 1.39126E-01
 -1      2696 1.24624E-01
 -1      2697 1.36433E-01
 -1      2698 1.13328E-01
 -1      2699 1.01053E-01
 -1      2700 1.11227E-01
 -1      2701 9.14324E-02
 -1      2702 8.13580E-02
 -1      2703 9.03111E-02
 -1      2704 7.32078E-02
 -1      2705 6.51090E-02
 -1      2706 7.25402E-02
 -1      2707 5.80819E-02
 -1      2708 5.22653E-02
 -1      2709 5.73630E-02
 -1      2710 4.58960E-02
 -1      2711 4.22553E-02
 -1      2712 4.39665E-02
 -1      2713 4.20804E-02
 -1      2714 4.66562E-02
 -1      2715 3.74223E-02
 -1      2716 5.30453E-02
 -1      2717 5.98841E-02
 -1      2718 4.36365E-02
 -1      2719 7.52303E-02
 -1      2720 9.24779E-02
 -1      2721 6.53718E-02
 -1      2722 1.11780E-01
 -1      2723 1.35646E-01
 -1      2724 1.00020E-01
 -1      2725 1.60078E-01
 -1      2726 1.90776E-01
 -1      2727 1.43754E-01
 -1      2728 2.21661E-01
 -1      2729 2.60710E-01
 -1      2730 1.99071E-01
 -1      2731 2.99525E-01
 -1      2732 3.48378E-01
 -1      2733 2.68771E-01
 -1      2734 3.96758E-01
 -1      2735 4.56537E-01
 -1      2736 3.55966E-01
 -1      2737 5.16299E-01
 -1      2738 5.87333E-01
 -1      2739 4.64108E-01
 -1      2740 6.60510E-01
 -1      2741 7.41598E-01
 -1      2742 5.97047E-01
 -1      2743 8.32796E-01
 -1      2744 9.20119E-01
 -1      2745 7.61423E-01
 -1      2746 1.02731E+00
 -1      2747 1.11300E+00
 -1      2748 9.59808E-01
 -1      2749 1.23659E+00
 -1      2750 1.30729E+00
 -1      2751 1.19058E+00
 -1      2752 1.44973E+00
 -1      2753 1.54090E+00
 -1      2754 1.45661E+00
 -1      2755 1.68255E+00
 -1      2756 1.81527E+00
 -1      2757 1.74070E+00
 -1      2758 2.09971E+00
 -1      2759 2.21801E+00
 -1      2760 2.16678E+00
 -1      2761 2.63515E+00
 -1      2762 2.75399E+00
 -1      2763 2.86836E+00
 -1      2764 2.87512E+00
 -1      2765 3.09282E+00
 -1      2766 3.40663E+00
 -1      2767 3.88566E+00
 -1      2768 4.25473E+00
 -1      2769 4.32058E+00
 -1      2770 4.56435E+00
 -1      2771 5.73264E+00
 -1      2772 4.97359E+00
 -1      2773 4.95388E+00
 -1      2774 4.41049E+00
 -1      2775 3.93650E+00
 -1      2776 3.17724E+00
 -1      2777 2.86352E+00
 -1      2778 2.82772E+00
 -1      2779 2.79548E+00
 -1      2780 3.15329E+00
 -1      2781 2.85186E+00
 -1      2782 2.60364E+00
 -1      2783 3.17387E+00
 -1      2784 1.97703E+00
 -1      2785 1.67964E+00
 -1      2786 2.60364E+00
 -1      2787 1.40264E+00
 -1      2788 1.23898E+00
 -1      2789 1.70003E+00
 -1      2790 1.17886E+00
 -1      2791 1.29233E+00
 -1      2792 1.25199E+00
 -1      2793 4.17880E-01
 -1      2794 4.71577E-01
 -1      2795 2.44353E-01
 -1      2796 2.71971E-01
 -1      2797 2.03787E-01
 -1      2798 2.25965E-01
 -1      2799 2.16748E-01
 -1      2800 1.67449E-01
 -1      2801 1.86800E-01
 -1      2802 1.81374E-01
 -1      2803 1.36830E-01
 -1      2804 1.53309E-01
 -1      2805 1.50248E-01
 -1      2806 1.11080E-01
 -1      2807 1.24392E-01
 -1      2808 1.23671E-01
 -1      2809 8.97167E-02
 -1      2810 1.00321E-01
 -1      2811 1.00475E-01
 -1      2812 7.15242E-02
 -1      2813 8.06204E-02
 -1      2814 8.06204E-02
 -1      2815 5.72156E-02
 -1      2816 6.40566E-02
 -1      2817 6.40566E-02
 -1      2818 4.77739E-02
 -1      2819 5.12421E-02
 -1      2820 5.06156E-02
 -1      2821 4.89552E-02
 -1      2822 4.62051E-02
 -1      2823 4.30733E-02
 -1      2824 5.93928E-02
 -1      2825 5.29737E-02
 -1      2826 4.55230E-02
 -1      2827 7.99110E-02
 -1      2828 7.06613E-02
 -1      2829 6.08100E-02
 -1      2830 1.17261E-01
 -1      2831 9.73028E-02
 -1      2832 8.94702E-02
 -1      2833 1.63491E-01
 -1      2834 1.38696E-01
 -1      2835 1.28297E-01
 -1      2836 2.19682E-01
 -1      2837 1.89614E-01
 -1      2838 1.75854E-01
 -1      2839 2.86105E-01
 -1      2840 2.50882E-01
 -1      2841 2.33177E-01
 -1      2842 3.61630E-01
 -1      2843 3.22301E-01
 -1      2844 3.00573E-01
 -1      2845 4.42946E-01
 -1      2846 4.01972E-01
 -1      2847 3.77110E-01
 -1      2848 5.23611E-01
 -1      2849 4.85417E-01
 -1      2850 4.59924E-01
 -1      2851 5.98651E-01
 -1      2852 5.64549E-01
 -1      2853 5.43334E-01
 -1      2854 6.58314E-01
 -1      2855 6.33755E-01
 -1      2856 6.19376E-01
 -1      2857 7.23971E-01
 -1      2858 7.04220E-01
 -1      2859 7.00386E-01
 -1      2860 7.78356E-01
 -1      2861 7.76970E-01
 -1      2862 7.99292E-01
 -1      2863 7.78850E-01
 -1      2864 8.15987E-01
 -1      2865 8.89922E-01
 -1      2866 8.78891E-01
 -1      2867 8.19085E-01
 -1      2868 9.67789E-01
 -1      2869 1.05180E+00
 -1      2870 9.87213E-01
 -1      2871 1.11635E+00
 -1      2872 1.40103E+00
 -1      2873 1.20896E+00
 -1      2874 1.38183E+00
 -1      2875 1.73859E+00
 -1      2876 1.54515E+00
 -1      2877 1.68311E+00
 -1      2878 1.87403E+00
 -1      2879 1.73379E+00
 -1      2880 1.82243E+00
 -1      2881 2.73644E+00
 -1      2882 2.59977E+00
 -1      2883 2.54338E+00
 -1      2884 3.04586E+00
 -1      2885 3.16119E+00
 -1      2886 3.69387E+00
 -1      2887 2.42528E+00
 -1      2888 2.40125E+00
 -1      2889 3.47401E+00
 -1      2890 1.90174E+00
 -1      2891 2.02115E+00
 -1      2892 2.42528E+00
 -1      2893 1.77885E+00
 -1      2894 1.86988E+00
 -1      2895 1.98929E+00
 -1      2896 1.60340E+00
 -1      2897 1.68644E+00
 -1      2898 1.86502E+00
 -1      2899 1.26844E+00
 -1      2900 1.43419E+00
 -1      2901 1.60340E+00
 -1      2902 9.74242E-01
 -1      2903 1.10270E+00
 -1      2904 1.26844E+00
 -1      2905 8.39065E-01
 -1      2906 8.45784E-01
 -1      2907 9.74242E-01
 -1      2908 8.39065E-01
 -1      2909 3.21491E+00
 -1      2910 2.92765E+00
 -1      2911 1.87566E+00
 -1      2912 1.66720E+00
 -1      2913 3.34082E+00
 -1      2914 3.34082E+00
 -1      2915 3.81998E+00
 -1      2916 2.47505E+00
 -1      2917 2.18449E+00
 -1      2918 2.48004E+00
 -1      2919 3.24147E+00
 -1      2920 6.87998E+00
 -1      2921 6.79902E+00
 -1      2922 3.32254E+00
 -1      2923 3.34082E+00
 -1      2924 3.94589E+00
 -1      2925 2.57942E+00
 -1      2926 3.05358E+00
 -1      2927 3.67693E+00
 -1      2928 2.07949E+00
 -1      2929 2.21277E+00
 -1      2930 3.04131E+00
 -1      2931 1.46669E+00
 -1      2932 5.05315E-01
 -1      2933 5.84620E-01
 -1      2934 4.31050E-01
 -1      2935 5.98355E+00
 -1      2936 4.21029E+00
 -1      2937 6.60092E+00
 -1      2938 6.96205E+00
 -1      2939 6.12918E-01
 -1      2940 5.75991E-01
 -1      2941 4.06256E-01
 -1      2942 9.51278E+00
 -1      2943 1.25305E+01
 -1      2944 6.90577E+00
 -1      2945 8.16239E+00
 -1      2946 2.12940E+01
 -1      2947 1.81170E+01
 -1      2948 2.04739E+01
 -1      2949 1.63867E+01
 -1      2950 2.91530E-01
 -1      2951 3.23230E-01
 -1      2952 2.54694E-01
 -1      2953 3.50541E-01
 -1      2954 3.83661E-01
 -1      2955 3.01564E-01
 -1      2956 5.98126E-01
 -1      2957 5.47962E-01
 -1      2958 3.95207E-01
 -1      2959 3.70908E-01
 -1      2960 8.28488E-01
 -1      2961 6.10171E-01
 -1      2962 7.03838E-01
 -1      2963 5.29988E-01
 -1      2964 4.90338E-01
 -1      2965 4.36526E-01
 -1      2966 4.24524E-01
 -1      2967 3.60252E-01
 -1      2968 3.61954E-01
 -1      2969 4.23403E-01
 -1      2970 4.35589E-01
 -1      2971 1.42840E+01
 -1      2972 1.87594E+01
 -1      2973 6.26197E+00
 -1      2974 5.28491E+00
 -1      2975 9.57551E+00
 -1      2976 7.51336E+00
 -1      2977 1.26731E+01
 -1      2978 1.49643E+01
 -1      2979 5.49626E+00
 -1      2980 4.08375E+00
 -1      2981 4.87547E+00
 -1      2982 6.05753E+00
 -1      2983 4.97577E+00
 -1      2984 4.23950E+00
 -1      2985 5.01106E+00
 -1      2986 7.10958E+00
 -1      2987 2.06500E+01
 -1      2988 2.02136E+01
 -1      2989 1.60073E+01
 -1      2990 1.18450E+01
 -1      2991 1.61390E+01
 -1      2992 2.13125E+01
 -1      2993 6.25764E+00
 -1      2994 4.35589E-01
 -1      2995 4.35589E-01
 -1      2996 3.60250E-01
 -1      2997 1.35074E+01
 -1      2998 3.42717E-01
 -1      2999 3.87100E-01
 -1      3000 3.99977E-01
 -1      3001 9.95773E+00
 -1      3002 4.71468E+00
 -1      3003 4.25226E+00
 -1      3004 4.63118E+00
 -1      3005 4.11621E+00
 -1      3006 3.94835E+00
 -1      3007 6.19802E+00
 -1      3008 5.46957E+00
 -1      3009 4.84869E+00
 -1      3010 6.22094E+00
 -1      3011 5.75685E+00
 -1      3012 6.66896E+00
 -1      3013 5.42445E+00
 -1      3014 5.42303E+00
 -1      3015 5.25100E+00
 -1      3016 1.43604E+00
 -1      3017 7.65109E+00
 -1      3018 7.42187E+00
 -1      3019 4.88376E+00
 -1      3020 3.63094E-01
 -1      3021 9.32198E-01
 -1      3022 9.38918E-01
 -1      3023 9.98910E-01
 -1      3024 1.79130E+01
 -1      3025 1.55888E+00
 -1      3026 1.57651E+00
 -1      3027 2.17168E+00
 -1      3028 1.54586E+00
 -1      3029 1.39253E+01
 -1      3030 1.00821E+01
 -1      3031 8.12030E+00
 -1      3032 9.02341E+00
 -1      3033 5.72496E+00
 -1      3034 6.89262E+00
 -1      3035 6.21909E+00
 -1      3036 4.90416E+00
 -1      3037 5.76440E-01
 -1      3038 8.15785E+00
 -1      3039 1.28069E+01
 -1      3040 9.35306E+00
 -1      3041 1.24264E+01
 -1      3042 1.12617E+01
 -1      3043 1.87201E+01
 -1      3044 1.67557E+01
 -1      3045 1.29758E+01
 -1      3046 1.28960E+01
 -1      3047 1.78379E+01
 -1      3048 2.30847E+01
 -1      3049 1.74604E+01
 -1      3050 4.41016E-01
 -1      3051 4.07677E-01
 -1      3052 4.22219E-01
 -1      3053 3.59067E-01
 -1      3054 3.50183E-01
 -1      3055 1.28075E+00
 -1      3056 1.18204E+00
 -1      3057 1.21518E+00
 -1      3058 1.78476E+00
 -1      3059 5.09844E+00
 -1      3060 9.04874E+00
 -1      3061 6.79058E+00
 -1      3062 4.08211E+00
 -1      3063 3.31727E+00
 -1      3064 6.49175E+00
 -1      3065 7.84214E+00
 -1      3066 2.89310E-01
 -1      3067 3.01315E-01
 -1      3068 1.13079E+01
 -1      3069 1.23884E+01
 -1      3070 3.28147E+00
 -1      3071 1.19705E+01
 -1      3072 1.13079E+01
 -1      3073 3.19968E-01
 -1      3074 2.99630E-01
 -1      3075 2.96670E-01
 -1      3076 2.71982E-01
 -1      3077 2.52236E-01
 -1      3078 2.61182E-01
 -1      3079 2.36446E-01
 -1      3080 2.38476E-01
 -1      3081 2.22308E-01
 -1      3082 2.06612E-01
 -1      3083 2.13537E-01
 -1      3084 1.93225E-01
 -1      3085 1.77009E-01
 -1      3086 1.86013E-01
 -1      3087 1.66370E-01
 -1      3088 1.50846E-01
 -1      3089 1.61988E-01
 -1      3090 1.39581E-01
 -1      3091 1.25671E-01
 -1      3092 1.40084E-01
 -1      3093 1.14677E-01
 -1      3094 1.03382E-01
 -1      3095 1.17825E-01
 -1      3096 9.31049E-02
 -1      3097 8.34842E-02
 -1      3098 9.65548E-02
 -1      3099 7.40533E-02
 -1      3100 6.59031E-02
 -1      3101 7.68471E-02
 -1      3102 5.72090E-02
 -1      3103 5.01819E-02
 -1      3104 5.87220E-02
 -1      3105 4.19426E-02
 -1      3106 3.55732E-02
 -1      3107 4.17886E-02
 -1      3108 3.12338E-02
 -1      3109 3.10589E-02
 -1      3110 2.92099E-02
 -1      3111 3.48347E-02
 -1      3112 4.12238E-02
 -1      3113 2.86462E-02
 -1      3114 5.40643E-02
 -1      3115 6.94105E-02
 -1      3116 4.52625E-02
 -1      3117 8.56399E-02
 -1      3118 1.04942E-01
 -1      3119 7.43325E-02
 -1      3120 1.26448E-01
 -1      3121 1.50880E-01
 -1      3122 1.12068E-01
 -1      3123 1.79159E-01
 -1      3124 2.10045E-01
 -1      3125 1.61853E-01
 -1      3126 2.46309E-01
 -1      3127 2.85124E-01
 -1      3128 2.26397E-01
 -1      3129 3.31166E-01
 -1      3130 3.79546E-01
 -1      3131 3.08704E-01
 -1      3132 4.37219E-01
 -1      3133 4.96981E-01
 -1      3134 4.12419E-01
 -1      3135 5.67956E-01
 -1      3136 6.41133E-01
 -1      3137 5.41067E-01
 -1      3138 7.26399E-01
 -1      3139 8.17597E-01
 -1      3140 6.97307E-01
 -1      3141 9.16355E-01
 -1      3142 1.02354E+00
 -1      3143 8.81332E-01
 -1      3144 1.14535E+00
 -1      3145 1.26893E+00
 -1      3146 1.10189E+00
 -1      3147 1.44717E+00
 -1      3148 1.58961E+00
 -1      3149 1.40194E+00
 -1      3150 1.87614E+00
 -1      3151 2.01779E+00
 -1      3152 1.86671E+00
 -1      3153 2.41659E+00
 -1      3154 2.70102E+00
 -1      3155 2.55204E+00
 -1      3156 3.23304E+00
 -1      3157 3.65018E+00
 -1      3158 3.48284E+00
 -1      3159 4.73077E+00
 -1      3160 4.85189E+00
 -1      3161 5.16760E+00
 -1      3162 5.96044E+00
 -1      3163 5.69408E+00
 -1      3164 4.70698E+00
 -1      3165 4.08037E+00
 -1      3166 2.78074E+00
 -1      3167 2.50374E+00
 -1      3168 2.62658E+00
 -1      3169 4.88408E+00
 -1      3170 2.26745E-01
 -1      3171 2.46303E-01
 -1      3172 1.94051E-01
 -1      3173 2.12439E-01
 -1      3174 2.04048E-01
 -1      3175 1.12348E-01
 -1      3176 1.24786E-01
 -1      3177 9.03916E-02
 -1      3178 1.01150E-01
 -1      3179 1.02265E-01
 -1      3180 7.12290E-02
 -1      3181 8.03253E-02
 -1      3182 8.10002E-02
 -1      3183 5.51616E-02
 -1      3184 6.26291E-02
 -1      3185 6.23340E-02
 -1      3186 4.20520E-02
 -1      3187 4.80255E-02
 -1      3188 4.65980E-02
 -1      3189 3.35236E-02
 -1      3190 3.50924E-02
 -1      3191 3.25023E-02
 -1      3192 3.90729E-02
 -1      3193 3.50544E-02
 -1      3194 2.70735E-02
 -1      3195 6.14839E-02
 -1      3196 5.02155E-02
 -1      3197 3.97469E-02
 -1      3198 9.31138E-02
 -1      3199 7.57220E-02
 -1      3200 6.51275E-02
 -1      3201 1.32011E-01
 -1      3202 1.10576E-01
 -1      3203 9.68281E-02
 -1      3204 1.79622E-01
 -1      3205 1.53500E-01
 -1      3206 1.35779E-01
 -1      3207 2.37148E-01
 -1      3208 2.05949E-01
 -1      3209 1.83594E-01
 -1      3210 3.05278E-01
 -1      3211 2.69082E-01
 -1      3212 2.41854E-01
 -1      3213 3.84826E-01
 -1      3214 3.44485E-01
 -1      3215 3.12994E-01
 -1      3216 4.73530E-01
 -1      3217 4.31058E-01
 -1      3218 3.98433E-01
 -1      3219 5.66176E-01
 -1      3220 5.25237E-01
 -1      3221 4.96372E-01
 -1      3222 6.55503E-01
 -1      3223 6.20399E-01
 -1      3224 6.02302E-01
 -1      3225 7.58818E-01
 -1      3226 7.12912E-01
 -1      3227 7.13935E-01
 -1      3228 8.79186E-01
 -1      3229 8.26186E-01
 -1      3230 8.38712E-01
 -1      3231 1.02581E+00
 -1      3232 9.88177E-01
 -1      3233 1.01507E+00
 -1      3234 1.17921E+00
 -1      3235 1.13897E+00
 -1      3236 1.23723E+00
 -1      3237 1.38055E+00
 -1      3238 1.27223E+00
 -1      3239 1.44341E+00
 -1      3240 1.53899E+00
 -1      3241 1.38183E+00
 -1      3242 1.53771E+00
 -1      3243 2.26708E+00
 -1      3244 2.12296E+00
 -1      3245 2.12296E+00
 -1      3246 2.15836E+00
 -1      3247 2.16316E+00
 -1      3248 2.60301E+00
 -1      3249 3.28635E+00
 -1      3250 2.56061E+00
 -1      3251 2.90134E+00
 -1      3252 4.66602E+00
 -1      3253 4.24127E+00
 -1      3254 2.98214E+00
 -1      3255 3.38627E+00
 -1      3256 2.48238E+00
 -1      3257 2.51425E+00
 -1      3258 3.47523E+00
 -1      3259 2.15279E+00
 -1      3260 2.24520E+00
 -1      3261 2.77016E+00
 -1      3262 1.60340E+00
 -1      3263 1.77261E+00
 -1      3264 2.15279E+00
 -1      3265 1.29162E+00
 -1      3266 1.45737E+00
 -1      3267 1.62657E+00
 -1      3268 9.03261E-01
 -1      3269 1.03172E+00
 -1      3270 1.22064E+00
 -1      3271 9.96395E-01
 -1      3272 6.27005E+00
 -1      3273 3.23622E-01
 -1      3274 3.15823E-01
 -1      3275 4.87705E+00
 -1      3276 4.34000E+00
 -1      3277 5.74994E+00
 -1      3278 5.62403E+00
 -1      3279 1.53937E+01
 -1      3280 1.34869E+01
 -1      3281 3.72846E+00
 -1      3282 4.09511E+00
 -1      3283 5.74994E+00
 -1      3284 5.74994E+00
 -1      3285 7.55399E+00
 -1      3286 3.51934E-01
 -1      3287 3.85671E-01
 -1      3288 3.08129E-01
 -1      3289 3.42348E-01
 -1      3290 2.96969E-01
 -1      3291 5.15044E+00
 -1      3292 5.41940E+00
 -1      3293 5.83758E+00
 -1      3294 1.37068E-01
 -1      3295 1.51207E-01
 -1      3296 1.25745E-01
 -1      3297 4.05845E-01
 -1      3298 3.82251E-01
 -1      3299 3.24768E-01
 -1      3300 3.30507E-01
 -1      3301 1.64200E-01
 -1      3302 1.81187E-01
 -1      3303 1.51020E-01
 -1      3304 8.36159E+00
 -1      3305 1.01150E+01
 -1      3306 7.76770E+00
 -1      3307 9.63050E+00
 -1      3308 2.64621E-01
 -1      3309 2.91932E-01
 -1      3310 2.36671E-01
 -1      3311 3.47523E+00
 -1      3312 4.24679E+00
 -1      3313 3.15671E-01
 -1      3314 3.09356E-01
 -1      3315 2.44584E-01
 -1      3316 1.16486E+01
 -1      3317 9.53894E+00
 -1      3318 9.03127E+00
 -1      3319 3.37964E+00
 -1      3320 3.80698E+00
 -1      3321 6.65190E+00
 -1      3322 4.63480E+00
 -1      3323 4.13035E-01
 -1      3324 3.09963E-01
 -1      3325 2.61330E-01
 -1      3326 3.98936E-01
 -1      3327 1.29952E+01
 -1      3328 5.38772E+00
 -1      3329 6.69207E+00
 -1      3330 4.25226E+00
 -1      3331 3.94313E+00
 -1      3332 7.61088E+00
 -1      3333 6.80018E+00
 -1      3334 1.07153E+01
 -1      3335 1.18900E+01
 -1      3336 4.71978E+00
 -1      3337 3.12361E-01
 -1      3338 3.12127E-01
 -1      3339 2.85233E-01
 -1      3340 2.60391E-01
 -1      3341 3.21029E-01
 -1      3342 3.21029E-01
 -1      3343 3.59715E+00
 -1      3344 9.69057E+00
 -1      3345 5.09544E+00
 -1      3346 3.20313E-01
 -1      3347 3.20313E-01
 -1      3348 1.76878E-01
 -1      3349 4.77616E+00
 -1      3350 6.25289E+00
 -1      3351 6.79128E+00
 -1      3352 3.25324E-01
 -1      3353 3.23622E-01
 -1      3354 2.88694E-01
 -1      3355 2.84399E-01
 -1      3356 4.25850E+00
 -1      3357 4.03087E+00
 -1      3358 3.47401E+00
 -1      3359 4.11861E+00
 -1      3360 3.77726E+00
 -1      3361 3.46843E+00
 -1      3362 2.69819E-01
 -1      3363 2.93824E-01
 -1      3364 3.15958E-01
 -1      3365 6.69549E+00
 -1      3366 9.45647E+00
 -1      3367 1.19757E+01
 -1      3368 4.25661E+00
 -1      3369 3.80401E+00
 -1      3370 4.79240E+00
 -1      3371 7.41344E+00
 -1      3372 1.03135E+01
 -1      3373 1.02742E+01
 -1      3374 7.22345E+00
 -1      3375 2.44959E+00
 -1      3376 2.06314E+00
 -1      3377 3.74681E+00
 -1      3378 8.48502E+00
 -1      3379 6.72210E+00
 -1      3380 7.23763E+00
 -1      3381 4.14828E+00
 -1      3382 5.21404E+00
 -1      3383 6.36484E+00
 -1      3384 8.39599E+00
 -1      3385 2.71186E-01
 -1      3386 7.30136E+00
 -1      3387 7.80775E+00
 -1      3388 5.55918E+00
 -1      3389 1.47204E+01
 -1      3390 1.19834E+01
 -1      3391 1.09012E+01
 -1      3392 8.52531E+00
 -1      3393 3.18123E-01
 -1      3394 9.77100E+00
 -1      3395 1.30343E+01
 -1      3396 3.68954E-01
 -1      3397 3.94505E-01
 -1      3398 2.77551E-01
 -1      3399 2.89838E-01
 -1      3400 3.81060E+00
 -1      3401 2.46748E+00
 -1      3402 2.97045E+00
 -1      3403 4.02425E+00
 -1      3404 3.42535E+00
 -1      3405 3.47523E+00
 -1      3406 2.36423E-01
 -1      3407 3.23014E-01
 -1      3408 3.24198E-01
 -1      3409 2.84260E-01
 -1      3410 3.00734E+00
 -1      3411 6.18657E+00
 -1      3412 8.58207E+00
 -1      3413 8.66249E+00
 -1      3414 4.92614E+00
 -1      3415 2.77016E+00
 -1      3416 2.53297E+00
 -1      3417 2.77016E+00
 -1      3418 3.91109E+00
 -1      3419 2.15279E+00
 -1      3420 1.58426E-01
 -1      3421 1.71291E-01
 -1      3422 3.97122E+00
 -1      3423 2.16256E-01
 -1      3424 2.05456E-01
 -1      3425 2.01819E-01
 -1      3426 1.87681E-01
 -1      3427 1.79600E-01
 -1      3428 1.79799E-01
 -1      3429 1.66413E-01
 -1      3430 1.68081E-01
 -1      3431 1.56505E-01
 -1      3432 1.45866E-01
 -1      3433 1.50291E-01
 -1      3434 1.37542E-01
 -1      3435 1.26276E-01
 -1      3436 1.32058E-01
 -1      3437 1.17900E-01
 -1      3438 1.06906E-01
 -1      3439 1.15358E-01
 -1      3440 9.82895E-02
 -1      3441 8.80128E-02
 -1      3442 9.83644E-02
 -1      3443 7.96447E-02
 -1      3444 7.02137E-02
 -1      3445 8.13794E-02
 -1      3446 6.22874E-02
 -1      3447 5.35933E-02
 -1      3448 6.50849E-02
 -1      3449 4.60833E-02
 -1      3450 3.78440E-02
 -1      3451 4.96487E-02
 -1      3452 3.50454E-02
 -1      3453 3.07060E-02
 -1      3454 3.93401E-02
 -1      3455 3.24216E-02
 -1      3456 3.61973E-02
 -1      3457 3.82571E-02
 -1      3458 4.34984E-02
 -1      3459 5.63389E-02
 -1      3460 4.72738E-02
 -1      3461 7.12911E-02
 -1      3462 8.75205E-02
 -1      3463 6.95269E-02
 -1      3464 1.07154E-01
 -1      3465 1.28660E-01
 -1      3466 1.04113E-01
 -1      3467 1.53854E-01
 -1      3468 1.82133E-01
 -1      3469 1.48941E-01
 -1      3470 2.14402E-01
 -1      3471 2.50667E-01
 -1      3472 2.06403E-01
 -1      3473 2.91855E-01
 -1      3474 3.37898E-01
 -1      3475 2.79860E-01
 -1      3476 3.90304E-01
 -1      3477 4.47976E-01
 -1      3478 3.73455E-01
 -1      3479 5.14565E-01
 -1      3480 5.85540E-01
 -1      3481 4.92449E-01
 -1      3482 6.70263E-01
 -1      3483 7.55529E-01
 -1      3484 6.43762E-01
 -1      3485 8.63819E-01
 -1      3486 9.62578E-01
 -1      3487 8.36775E-01
 -1      3488 1.10189E+00
 -1      3489 1.22370E+00
 -1      3490 1.08438E+00
 -1      3491 1.40194E+00
 -1      3492 1.58017E+00
 -1      3493 1.40194E+00
 -1      3494 1.81826E+00
 -1      3495 2.10480E+00
 -1      3496 1.81826E+00
 -1      3497 2.56185E+00
 -1      3498 2.96064E+00
 -1      3499 2.51340E+00
 -1      3500 3.87217E+00
 -1      3501 4.40418E+00
 -1      3502 3.88199E+00
 -1      3503 5.61490E+00
 -1      3504 6.72210E+00
 -1      3505 5.76499E-02
 -1      3506 6.62498E-02
 -1      3507 7.48658E-02
 -1      3508 8.49321E-02
 -1      3509 7.01817E-02
 -1      3510 9.41274E-02
 -1      3511 1.05325E-01
 -1      3512 8.79929E-02
 -1      3513 4.24327E-02
 -1      3514 4.95688E-02
 -1      3515 5.34846E-02
 -1      3516 2.81130E-02
 -1      3517 3.50726E-02
 -1      3518 3.80434E-02
 -1      3519 3.05033E-02
 -1      3520 2.89725E-02
 -1      3521 3.15428E-02
 -1      3522 4.69176E-02
 -1      3523 3.57751E-02
 -1      3524 3.76740E-02
 -1      3525 7.39220E-02
 -1      3526 5.96839E-02
 -1      3527 5.57121E-02
 -1      3528 1.08096E-01
 -1      3529 9.06336E-02
 -1      3530 8.51901E-02
 -1      3531 1.50222E-01
 -1      3532 1.28734E-01
 -1      3533 1.22539E-01
 -1      3534 2.01731E-01
 -1      3535 1.75405E-01
 -1      3536 1.68360E-01
 -1      3537 2.63792E-01
 -1      3538 2.31858E-01
 -1      3539 2.23669E-01
 -1      3540 3.38039E-01
 -1      3541 2.98833E-01
 -1      3542 2.88837E-01
 -1      3543 4.23437E-01
 -1      3544 3.77205E-01
 -1      3545 3.63043E-01
 -1      3546 5.19377E-01
 -1      3547 4.67670E-01
 -1      3548 4.46442E-01
 -1      3549 6.32031E-01
 -1      3550 5.77807E-01
 -1      3551 5.49105E-01
 -1      3552 7.69162E-01
 -1      3553 7.11753E-01
 -1      3554 6.87258E-01
 -1      3555 9.44012E-01
 -1      3556 8.76644E-01
 -1      3557 8.74462E-01
 -1      3558 1.17649E+00
 -1      3559 1.06750E+00
 -1      3560 1.10544E+00
 -1      3561 1.43382E+00
 -1      3562 1.32066E+00
 -1      3563 1.37309E+00
 -1      3564 1.75837E+00
 -1      3565 1.66535E+00
 -1      3566 1.74879E+00
 -1      3567 2.01783E+00
 -1      3568 2.01655E+00
 -1      3569 2.23849E+00
 -1      3570 3.78242E+00
 -1      3571 3.88634E+00
 -1      3572 2.92951E+00
 -1      3573 2.52727E+00
 -1      3574 7.21465E+00
 -1      3575 4.66602E+00
 -1      3576 1.85338E-01
 -1      3577 1.82886E-01
 -1      3578 8.66249E+00
 -1      3579 8.66249E+00
 -1      3580 8.36038E+00
 -1      3581 6.84921E+00
 -1      3582 6.12981E+00
 -1      3583 6.10306E+00
 -1      3584 2.48057E-01
 -1      3585 2.57644E-01
 -1      3586 6.53690E+00
 -1      3587 7.59223E+00
 -1      3588 1.36794E-01
 -1      3589 1.49787E-01
 -1      3590 1.44200E-01
 -1      3591 1.14942E-01
 -1      3592 1.27224E-01
 -1      3593 1.25991E-01
 -1      3594 1.06805E-01
 -1      3595 2.99562E-01
 -1      3596 2.07853E-01
 -1      3597 2.26170E-01
 -1      3598 2.32621E-01
 -1      3599 2.48818E-01
 -1      3600 2.09493E-01
 -1      3601 8.33196E+00
 -1      3602 3.15314E-01
 -1      3603 3.23014E-01
 -1      3604 2.88145E-01
 -1      3605 2.13024E-01
 -1      3606 2.23637E-01
 -1      3607 2.15177E-01
 -1      3608 2.12218E-01
 -1      3609 1.79197E-01
 -1      3610 4.11984E+00
 -1      3611 3.97156E+00
 -1      3612 1.12819E+01
 -1      3613 9.21529E+00
 -1      3614 6.60804E+00
 -1      3615 8.16445E+00
 -1      3616 4.27529E+00
 -1      3617 5.35093E+00
 -1      3618 1.83180E-01
 -1      3619 1.97486E-01
 -1      3620 1.86985E-01
 -1      3621 1.64728E-01
 -1      3622 6.18371E+00
 -1      3623 1.48719E+00
 -1      3624 1.30406E+00
 -1      3625 1.26841E+00
 -1      3626 2.15202E+00
 -1      3627 7.11578E+00
 -1      3628 7.56647E+00
 -1      3629 6.02116E+00
 -1      3630 6.00422E+00
 -1      3631 2.79215E+00
 -1      3632 4.01351E+00
 -1      3633 2.02844E-01
 -1      3634 2.22557E-01
 -1      3635 2.53185E-01
 -1      3636 2.49724E-01
 -1      3637 2.20818E+00
 -1      3638 2.59625E-01
 -1      3639 4.88408E+00
 -1      3640 2.84958E-01
 -1      3641 2.89717E+00
 -1      3642 2.53185E-01
 -1      3643 2.17677E-01
 -1      3644 2.53185E-01
 -1      3645 2.68702E+00
 -1      3646 5.75313E+00
 -1      3647 6.84921E+00
 -1      3648 6.01970E+00
 -1      3649 2.06088E-01
 -1      3650 2.99467E+00
 -1      3651 1.61939E-01
 -1      3652 7.27411E+00
 -1      3653 9.93640E+00
 -1      3654 7.90111E+00
 -1      3655 1.78461E+00
 -1      3656 1.93064E+00
 -1      3657 1.52831E+00
 -1      3658 2.36226E-01
 -1      3659 1.61939E-01
 -1      3660 2.40111E-01
 -1      3661 5.48298E+00
 -1      3662 1.83618E-01
 -1      3663 4.27105E+00
 -1      3664 3.02857E+00
 -1      3665 2.83822E+00
 -1      3666 4.46791E+00
 -1      3667 1.95347E-01
 -1      3668 2.44259E-01
 -1      3669 2.31082E+00
 -1      3670 2.27541E-01
 -1      3671 2.03803E-01
 -1      3672 1.83237E+00
 -1      3673 2.16446E-01
 -1      3674 2.48493E-01
 -1      3675 2.51680E-01
 -1      3676 1.73486E-01
 -1      3677 2.19065E-01
 -1      3678 1.59874E-01
 -1      3679 1.56238E-01
 -1      3680 1.55901E-01
 -1      3681 1.48019E-01
 -1      3682 1.36176E-01
 -1      3683 1.43560E-01
 -1      3684 1.33652E-01
 -1      3685 1.31380E-01
 -1      3686 1.26908E-01
 -1      3687 1.18584E-01
 -1      3688 1.20178E-01
 -1      3689 1.11041E-01
 -1      3690 1.02665E-01
 -1      3691 1.05891E-01
 -1      3692 9.63204E-02
 -1      3693 8.77035E-02
 -1      3694 9.20040E-02
 -1      3695 8.10351E-02
 -1      3696 7.26670E-02
 -1      3697 7.89911E-02
 -1      3698 6.61101E-02
 -1      3699 5.81838E-02
 -1      3700 6.57658E-02
 -1      3701 5.19269E-02
 -1      3702 4.44169E-02
 -1      3703 5.29521E-02
 -1      3704 4.32090E-02
 -1      3705 4.04104E-02
 -1      3706 4.54872E-02
 -1      3707 4.18325E-02
 -1      3708 4.35481E-02
 -1      3709 4.57013E-02
 -1      3710 4.66878E-02
 -1      3711 5.39889E-02
 -1      3712 5.02632E-02
 -1      3713 6.30610E-02
 -1      3714 7.80131E-02
 -1      3715 6.24750E-02
 -1      3716 9.39839E-02
 -1      3717 1.13618E-01
 -1      3718 8.75179E-02
 -1      3719 1.34046E-01
 -1      3720 1.59240E-01
 -1      3721 1.23917E-01
 -1      3722 1.85331E-01
 -1      3723 2.17600E-01
 -1      3724 1.70437E-01
 -1      3725 2.50876E-01
 -1      3726 2.92064E-01
 -1      3727 2.29804E-01
 -1      3728 3.34558E-01
 -1      3729 3.86964E-01
 -1      3730 3.05574E-01
 -1      3731 4.41599E-01
 -1      3732 5.08188E-01
 -1      3733 4.02702E-01
 -1      3734 5.79514E-01
 -1      3735 6.64238E-01
 -1      3736 5.28664E-01
 -1      3737 7.59766E-01
 -1      3738 8.68056E-01
 -1      3739 6.95519E-01
 -1      3740 1.00053E+00
 -1      3741 1.13984E+00
 -1      3742 9.23517E-01
 -1      3743 1.33283E+00
 -1      3744 1.51107E+00
 -1      3745 1.24897E+00
 -1      3746 1.80455E+00
 -1      3747 2.04264E+00
 -1      3748 1.73544E+00
 -1      3749 2.49080E+00
 -1      3750 2.94785E+00
 -1      3751 2.47708E+00
 -1      3752 3.65132E+00
 -1      3753 4.56285E+00
 -1      3754 3.62871E+00
 -1      3755 6.34023E-02
 -1      3756 7.20183E-02
 -1      3757 3.56393E-02
 -1      3758 4.29994E-02
 -1      3759 2.42102E-01
 -1      3760 2.46397E-01
 -1      3761 2.10888E-01
 -1      3762 4.83037E-02
 -1      3763 5.63848E-02
 -1      3764 5.82214E-02
 -1      3765 4.58996E-02
 -1      3766 7.94037E-02
 -1      3767 8.85989E-02
 -1      3768 7.26243E-02
 -1      3769 3.72934E-02
 -1      3770 3.64339E-02
 -1      3771 4.13898E-02
 -1      3772 4.47843E-02
 -1      3773 3.95126E-02
 -1      3774 4.44037E-02
 -1      3775 6.56649E-02
 -1      3776 5.28986E-02
 -1      3777 5.47371E-02
 -1      3778 9.73893E-02
 -1      3779 8.06777E-02
 -1      3780 7.78641E-02
 -1      3781 1.36857E-01
 -1      3782 1.16219E-01
 -1      3783 1.11706E-01
 -1      3784 1.85521E-01
 -1      3785 1.60338E-01
 -1      3786 1.54018E-01
 -1      3787 2.44640E-01
 -1      3788 2.14514E-01
 -1      3789 2.06492E-01
 -1      3790 3.15016E-01
 -1      3791 2.79975E-01
 -1      3792 2.70819E-01
 -1      3793 3.96572E-01
 -1      3794 3.57407E-01
 -1      3795 3.48545E-01
 -1      3796 4.90675E-01
 -1      3797 4.46442E-01
 -1      3798 4.40806E-01
 -1      3799 6.06220E-01
 -1      3800 5.47789E-01
 -1      3801 5.47789E-01
 -1      3802 7.53127E-01
 -1      3803 6.73405E-01
 -1      3804 6.72089E-01
 -1      3805 9.66225E-01
 -1      3806 8.58742E-01
 -1      3807 8.44890E-01
 -1      3808 1.25460E+00
 -1      3809 1.13111E+00
 -1      3810 1.11539E+00
 -1      3811 1.67663E+00
 -1      3812 1.53246E+00
 -1      3813 1.55814E+00
 -1      3814 2.40858E+00
 -1      3815 2.17706E+00
 -1      3816 2.33643E+00
 -1      3817 2.66120E+00
 -1      3818 2.40302E+00
 -1      3819 2.83129E+00
 -1      3820 3.00275E+00
 -1      3821 2.51680E-01
 -1      3822 2.51680E-01
 -1      3823 2.15215E-01
 -1      3824 2.67502E+00
 -1      3825 2.40832E+00
 -1      3826 2.56898E-01
 -1      3827 1.92077E-01
 -1      3828 1.92077E-01
 -1      3829 1.83618E-01
 -1      3830 1.49378E-01
 -1      3831 1.53416E-01
 -1      3832 1.30055E-01
 -1      3833 1.30309E-01
 -1      3834 1.38948E-01
 -1      3835 1.77934E-01
 -1      3836 1.77173E-01
 -1      3837 1.76732E-01
 -1      3838 1.83183E-01
 -1      3839 1.50863E-01
 -1      3840 4.72498E+00
 -1      3841 1.84555E-01
 -1      3842 1.60934E-01
 -1      3843 1.47549E-01
 -1      3844 1.29375E-01
 -1      3845 1.42019E-01
 -1      3846 1.33544E-01
 -1      3847 1.53088E-01
 -1      3848 1.07606E-01
 -1      3849 4.60092E+00
 -1      3850 4.86749E+00
 -1      3851 5.63422E+00
 -1      3852 5.86489E+00
 -1      3853 6.20273E+00
 -1      3854 8.75093E-02
 -1      3855 9.60986E-02
 -1      3856 1.05715E-01
 -1      3857 1.33096E-01
 -1      3858 1.46987E-01
 -1      3859 1.58877E-01
 -1      3860 5.11622E+00
 -1      3861 5.11622E+00
 -1      3862 1.57837E-01
 -1      3863 1.86968E-01
 -1      3864 1.85737E-01
 -1      3865 2.03646E-01
 -1      3866 4.73627E+00
 -1      3867 3.44813E+00
 -1      3868 3.27111E+00
 -1      3869 5.00137E+00
 -1      3870 1.85295E-01
 -1      3871 1.85295E-01
 -1      3872 1.54587E-01
 -1      3873 1.92077E-01
 -1      3874 6.49704E+00
 -1      3875 7.46188E+00
 -1      3876 6.76038E+00
 -1      3877 1.75081E-01
 -1      3878 1.54461E-01
 -1      3879 1.64714E-01
 -1      3880 3.58260E+00
 -1      3881 6.27533E+00
 -1      3882 5.42042E+00
 -1      3883 4.78351E+00
 -1      3884 1.12926E-01
 -1      3885 1.22495E-01
 -1      3886 1.17244E-01
 -1      3887 5.19500E+00
 -1      3888 1.59928E-01
 -1      3889 1.89406E-01
 -1      3890 1.89406E-01
 -1      3891 4.48397E-02
 -1      3892 4.40451E-02
 -1      3893 1.19675E-01
 -1      3894 1.15217E-01
 -1      3895 1.12488E-01
 -1      3896 1.05744E-01
 -1      3897 1.00783E-01
 -1      3898 1.01000E-01
 -1      3899 9.34576E-02
 -1      3900 9.33104E-02
 -1      3901 8.77068E-02
 -1      3902 8.13624E-02
 -1      3903 8.28159E-02
 -1      3904 7.54285E-02
 -1      3905 6.87601E-02
 -1      3906 7.11314E-02
 -1      3907 6.39383E-02
 -1      3908 5.73814E-02
 -1      3909 6.03757E-02
 -1      3910 5.45483E-02
 -1      3911 4.82914E-02
 -1      3912 5.27208E-02
 -1      3913 4.77422E-02
 -1      3914 4.65343E-02
 -1      3915 4.93385E-02
 -1      3916 4.74017E-02
 -1      3917 4.88237E-02
 -1      3918 4.96567E-02
 -1      3919 5.13882E-02
 -1      3920 5.45280E-02
 -1      3921 5.30886E-02
 -1      3922 5.96359E-02
 -1      3923 6.87080E-02
 -1      3924 6.07609E-02
 -1      3925 7.79775E-02
 -1      3926 9.39483E-02
 -1      3927 7.51383E-02
 -1      3928 1.06605E-01
 -1      3929 1.27033E-01
 -1      3930 9.70646E-02
 -1      3931 1.45148E-01
 -1      3932 1.71240E-01
 -1      3933 1.27836E-01
 -1      3934 1.95070E-01
 -1      3935 2.28346E-01
 -1      3936 1.69782E-01
 -1      3937 2.58436E-01
 -1      3938 3.00930E-01
 -1      3939 2.23702E-01
 -1      3940 3.39123E-01
 -1      3941 3.93758E-01
 -1      3942 2.91985E-01
 -1      3943 4.43038E-01
 -1      3944 5.14364E-01
 -1      3945 3.79458E-01
 -1      3946 5.80090E-01
 -1      3947 6.75618E-01
 -1      3948 4.94463E-01
 -1      3949 7.68181E-01
 -1      3950 9.00651E-01
 -1      3951 6.52752E-01
 -1      3952 1.03936E+00
 -1      3953 1.23234E+00
 -1      3954 8.84021E-01
 -1      3955 1.42443E+00
 -1      3956 1.71792E+00
 -1      3957 1.21482E+00
 -1      3958 2.16556E+00
 -1      3959 2.61371E+00
 -1      3960 1.85455E+00
 -1      3961 3.62871E+00
 -1      3962 4.33218E+00
 -1      3963 3.31718E+00
 -1      3964 6.40673E-02
 -1      3965 7.14526E-02
 -1      3966 1.72083E-01
 -1      3967 1.78871E-01
 -1      3968 1.46490E-01
 -1      3969 1.21071E-01
 -1      3970 6.09410E-02
 -1      3971 5.28267E-02
 -1      3972 8.48358E-02
 -1      3973 6.98231E-02
 -1      3974 6.79127E-02
 -1      3975 1.19250E-01
 -1      3976 1.00421E-01
 -1      3977 9.23795E-02
 -1      3978 1.62628E-01
 -1      3979 1.39146E-01
 -1      3980 1.27860E-01
 -1      3981 2.16911E-01
 -1      3982 1.87918E-01
 -1      3983 1.73047E-01
 -1      3984 2.84263E-01
 -1      3985 2.48928E-01
 -1      3986 2.30354E-01
 -1      3987 3.67092E-01
 -1      3988 3.24701E-01
 -1      3989 3.02810E-01
 -1      3990 4.68041E-01
 -1      3991 4.18171E-01
 -1      3992 3.94327E-01
 -1      3993 5.89840E-01
 -1      3994 5.32726E-01
 -1      3995 5.10092E-01
 -1      3996 7.39275E-01
 -1      3997 6.72089E-01
 -1      3998 6.57026E-01
 -1      3999 9.50505E-01
 -1      4000 8.44890E-01
 -1      4001 8.44890E-01
 -1      4002 1.24323E+00
 -1      4003 1.07835E+00
 -1      4004 1.07835E+00
 -1      4005 1.86282E+00
 -1      4006 1.58495E+00
 -1      4007 1.54791E+00
 -1      4008 2.95294E+00
 -1      4009 2.45252E+00
 -1      4010 2.47933E+00
 -1      4011 1.45676E-01
 -1      4012 1.11436E-01
 -1      4013 1.07000E-01
 -1      4014 1.13458E-01
 -1      4015 9.48389E-02
 -1      4016 1.30358E-01
 -1      4017 1.25109E-01
 -1      4018 1.19341E-01
 -1      4019 1.19004E-01
 -1      4020 9.62860E-02
 -1      4021 3.77417E+00
 -1      4022 4.41108E+00
 -1      4023 3.25887E+00
 -1      4024 4.89493E-02
 -1      4025 4.67301E-02
 -1      4026 4.93853E-02
 -1      4027 1.28064E-01
 -1      4028 1.31732E-01
 -1      4029 6.86072E-02
 -1      4030 7.71642E-02
 -1      4031 8.46639E-02
 -1      4032 2.03646E-01
 -1      4033 5.19500E+00
 -1      4034 5.85985E-02
 -1      4035 5.74268E-02
 -1      4036 5.15810E-02
 -1      4037 1.77837E-01
 -1      4038 1.17875E-01
 -1      4039 1.25914E-01
 -1      4040 4.36773E-02
 -1      4041 4.89817E-02
 -1      4042 4.93588E-02
 -1      4043 1.04472E-01
 -1      4044 1.12285E-01
 -1      4045 1.05103E-01
 -1      4046 3.14278E+00
 -1      4047 3.25887E+00
 -1      4048 4.71272E-02
 -1      4049 1.02220E-01
 -1      4050 1.36545E-01
 -1      4051 1.10791E-01
 -1      4052 1.34894E-01
 -1      4053 5.51531E-02
 -1      4054 1.46973E-01
 -1      4055 1.02841E-01
 -1      4056 5.57276E+00
 -1      4057 1.26391E-01
 -1      4058 1.28064E-01
 -1      4059 9.98674E-02
 -1      4060 1.19237E-01
 -1      4061 1.02998E-01
 -1      4062 3.73425E+00
 -1      4063 3.02912E+00
 -1      4064 3.06904E+00
 -1      4065 3.27667E+00
 -1      4066 1.26601E-01
 -1      4067 1.16463E-01
 -1      4068 4.40574E+00
 -1      4069 3.66069E+00
 -1      4070 9.87324E-02
 -1      4071 9.95714E-02
 -1      4072 1.31436E-01
 -1      4073 9.01797E-02
 -1      4074 8.54360E-02
 -1      4075 7.80309E-02
 -1      4076 7.22802E-02
 -1      4077 7.49002E-02
 -1      4078 8.10934E-02
 -1      4079 7.51596E-02
 -1      4080 7.63084E-02
 -1      4081 6.27897E-02
 -1      4082 5.79679E-02
 -1      4083 7.27518E-02
 -1      4084 5.43892E-02
 -1      4085 5.15561E-02
 -1      4086 5.68032E-02
 -1      4087 4.98877E-02
 -1      4088 4.93385E-02
 -1      4089 5.15561E-02
 -1      4090 4.96567E-02
 -1      4091 5.05241E-02
 -1      4092 5.02059E-02
 -1      4093 5.30886E-02
 -1      4094 5.56531E-02
 -1      4095 5.30886E-02
 -1      4096 6.07609E-02
 -1      4097 6.58688E-02
 -1      4098 6.07609E-02
 -1      4099 7.44192E-02
 -1      4100 8.36887E-02
 -1      4101 7.44192E-02
 -1      4102 9.53517E-02
 -1      4103 1.08008E-01
 -1      4104 9.46325E-02
 -1      4105 1.23379E-01
 -1      4106 1.41494E-01
 -1      4107 1.21666E-01
 -1      4108 1.61303E-01
 -1      4109 1.85134E-01
 -1      4110 1.56846E-01
 -1      4111 2.10332E-01
 -1      4112 2.40422E-01
 -1      4113 2.01853E-01
 -1      4114 2.72356E-01
 -1      4115 3.10549E-01
 -1      4116 2.58986E-01
 -1      4117 3.51291E-01
 -1      4118 4.00571E-01
 -1      4119 3.31662E-01
 -1      4120 4.54572E-01
 -1      4121 5.20297E-01
 -1      4122 4.26405E-01
 -1      4123 5.99134E-01
 -1      4124 6.91697E-01
 -1      4125 5.59242E-01
 -1      4126 8.33817E-01
 -1      4127 9.72523E-01
 -1      4128 7.80198E-01
 -1      4129 1.19108E+00
 -1      4130 1.38318E+00
 -1      4131 1.14088E+00
 -1      4132 1.72690E+00
 -1      4133 2.17454E+00
 -1      4134 1.70317E+00
 -1      4135 2.64569E+00
 -1      4136 1.22887E-01
 -1      4137 1.34083E-01
 -1      4138 1.14187E-01
 -1      4139 7.52423E-02
 -1      4140 6.63602E-02
 -1      4141 1.76330E-01
 -1      4142 1.51040E-01
 -1      4143 1.37366E-01
 -1      4144 2.30950E-01
 -1      4145 1.98932E-01
 -1      4146 1.76925E-01
 -1      4147 3.04799E-01
 -1      4148 2.64361E-01
 -1      4149 2.32939E-01
 -1      4150 4.00103E-01
 -1      4151 3.49024E-01
 -1      4152 3.10575E-01
 -1      4153 5.24175E-01
 -1      4154 4.59490E-01
 -1      4155 4.14186E-01
 -1      4156 6.88677E-01
 -1      4157 6.06428E-01
 -1      4158 5.55826E-01
 -1      4159 9.36411E-01
 -1      4160 8.30796E-01
 -1      4161 7.80198E-01
 -1      4162 1.28282E+00
 -1      4163 1.15497E+00
 -1      4164 1.14088E+00
 -1      4165 1.93541E+00
 -1      4166 1.59369E+00
 -1      4167 1.67032E+00
 -1      4168 2.91612E+00
 -1      4169 2.32642E+00
 -1      4170 2.37220E+00
 -1      4171 2.91612E+00
 -1      4172 4.76046E-02
 -1      4173 4.72368E-02
 -1      4174 4.70995E+00
 -1      4175 1.00907E-01
 -1      4176 8.53221E-02
 -1      4177 1.07129E-01
 -1      4178 5.12757E-02
 -1      4179 4.93853E-02
 -1      4180 4.94949E-02
 -1      4181 7.85633E-02
 -1      4182 8.44468E-02
 -1      4183 7.71594E-02
 -1      4184 7.27230E-02
 -1      4185 6.08838E-02
 -1      4186 7.74555E-02
 -1      4187 9.87324E-02
 -1      4188 9.28608E-02
 -1      4189 9.06072E-02
 -1      4190 9.78178E-02
 -1      4191 8.02621E-02
 -1      4192 9.21126E-02
 -1      4193 9.27839E-02
 -1      4194 7.43899E-02
 -1      4195 9.49390E-02
 -1      4196 9.22100E-02
 -1      4197 8.42108E-02
 -1      4198 5.90306E-02
 -1      4199 5.51531E-02
 -1      4200 5.51531E-02
 -1      4201 6.63602E-02
 -1      4202 2.87621E+00
 -1      4203 1.29348E-01
 -1      4204 1.35185E-01
 -1      4205 1.17270E-01
 -1      4206 1.14127E-01
 -1      4207 2.51805E+00
 -1      4208 9.29394E-02
 -1      4209 9.85292E-02
 -1      4210 8.43356E-02
 -1      4211 4.96978E-02
 -1      4212 5.22971E-02
 -1      4213 5.01752E-02
 -1      4214 9.28591E-02
 -1      4215 8.37697E-02
 -1      4216 7.74555E-02
 -1      4217 2.40505E+00
 -1      4218 9.05151E-02
 -1      4219 8.46434E-02
 -1      4220 9.67023E-02
 -1      4221 7.40086E-02
 -1      4222 7.97202E-02
 -1      4223 5.61700E-02
 -1      4224 6.16388E-02
 -1      4225 5.65091E-02
 -1      4226 9.96871E-02
 -1      4227 1.03121E-01
 -1      4228 8.75238E-02
 -1      4229 1.22887E-01
 -1      4230 7.27518E-02
 -1      4231 8.63659E-02
 -1      4232 8.43356E-02
 -1      4233 9.09091E-02
 -1      4234 8.43356E-02
 -1      4235 8.42553E-02
 -1      4236 7.63084E-02
 -1      4237 8.51216E-02
 -1      4238 8.51216E-02
 -1      4239 7.27518E-02
 -1      4240 6.03820E-02
 -1      4241 5.68032E-02
 -1      4242 5.29303E-02
 -1      4243 5.12619E-02
 -1      4244 4.88009E-02
 -1      4245 4.91191E-02
 -1      4246 5.08999E-02
 -1      4247 5.34644E-02
 -1      4248 5.73418E-02
 -1      4249 6.24497E-02
 -1      4250 6.97794E-02
 -1      4251 7.83297E-02
 -1      4252 8.84095E-02
 -1      4253 1.00073E-01
 -1      4254 1.13352E-01
 -1      4255 1.28723E-01
 -1      4256 1.45680E-01
 -1      4257 1.65489E-01
 -1      4258 1.88091E-01
 -1      4259 2.13290E-01
 -1      4260 2.46701E-01
 -1      4261 2.78636E-01
 -1      4262 3.22860E-01
 -1      4263 3.63602E-01
 -1      4264 4.22989E-01
 -1      4265 4.76989E-01
 -1      4266 5.59242E-01
 -1      4267 6.38079E-01
 -1      4268 7.80198E-01
 -1      4269 9.22318E-01
 -1      4270 1.14088E+00
 -1      4271 1.35944E+00
 -1      4272 1.67032E+00
 -1      4273 2.01404E+00
 -1      4274 8.23053E-02
 -1      4275 7.49002E-02
 -1      4276 1.02475E-01
 -1      4277 1.02184E-01
 -1      4278 8.19074E-02
 -1      4279 8.80352E-02
 -1      4280 8.75238E-02
 -1      4281 7.82521E-02
 -1      4282 8.41953E-02
 -1      4283 8.22453E-02
 -1      4284 8.36535E-02
 -1      4285 7.70564E-02
 -1      4286 8.47222E-02
 -1      4287 8.53687E-02
 -1      4288 9.63641E-02
 -1      4289 7.30714E-02
 -1      4290 5.06594E-02
 -1      4291 5.64997E-02
 -1      4292 8.51216E-02
 -1      4293 6.95681E-02
 -1      4294 8.37135E-02
 -1      4295 6.13507E-02
 -1      4296 8.36535E-02
 -1      4297 7.15751E-02
 -3
 9999
